LAMMPS (24 Dec 2020)
OMP_NUM_THREADS environment is not set. Defaulting to 1 thread. (src/comm.cpp:94)
  using 1 OpenMP thread(s) per MPI task
# Simple rigid body system
# needed variables: startTemp, temp

units		lj
atom_style	full
dimension 	3
boundary	p p f
pair_style	lj/cut/opt 2.5

variable 	gcmcdisplace	equal 0
variable 	sigma		equal 1.0
variable 	epsilon 	equal 1.0


read_restart	restart.dat.3000000
Reading restart file ...
  restart file = 24 Dec 2020, LAMMPS = 24 Dec 2020
WARNING: Restart file used different # of processors: 144 vs. 192 (src/read_restart.cpp:697)
  restoring atom style full from restart
  orthogonal box = (0.0000000 0.0000000 0.0000000) to (100.00000 100.00000 200.00000)
  4 by 4 by 12 MPI processor grid
  restoring pair style lj/cut/opt from restart
  878832 atoms
Finding 1-2 1-3 1-4 neighbors ...
  special bond factors lj:    0        0        0       
  special bond factors coul:  0        0        0       
     0 = max # of 1-2 neighbors
     0 = max # of 1-3 neighbors
     0 = max # of 1-4 neighbors
     1 = max # of special neighbors
  special bonds CPU = 1.401 seconds
  read_restart CPU = 1.856 seconds

mass		1 1.0
mass		2 1.0
mass		3 1.0


group		solvent type 1
878832 atoms in group solvent


neighbor 	0.4 bin

pair_coeff	1 1 1.0 1.0
pair_coeff	2 2 0.0 0.0
pair_coeff	3 3 0.0 0.0
pair_coeff	2 3 0.0 0.0
pair_coeff	1 2*3 0.0 0.0

pair_modify 	shift yes


balance 	1.05 shift z 10 1.05
Balancing ...
Neighbor list info ...
  update every 1 steps, delay 10 steps, check yes
  max neighbors/atom: 2000, page size: 100000
  master list distance cutoff = 2.9
  ghost atom cutoff = 2.9
  binsize = 1.45, bins = 69 69 138
  1 neighbor lists, perpetual/occasional/extra = 1 0 0
  (1) pair lj/cut/opt, perpetual
      attributes: half, newton on
      pair build: half/bin/newton
      stencil: half/bin/3d/newton
      bin: standard
 rebalancing time: 0.008 seconds
  iteration count = 4
  initial/final maximal load/proc = 6332.0000 5548.0000
  initial/final imbalance factor  = 1.3833634 1.2120815
  x cuts: 0.0000000 0.25000000 0.50000000 0.75000000 1.0000000
  y cuts: 0.0000000 0.25000000 0.50000000 0.75000000 1.0000000
  z cuts: 0.0000000 0.067708333 0.13020833 0.19270833 0.25520833 0.32291667 0.38541667 0.44791667 0.51041667 0.57812500 0.63020833 0.68229167 1.0000000


####################### WALLS ###########################


variable       epsilonWall equal 2*${epsilon}
variable       epsilonWall equal 2*1

variable       cutoffTop   equal   0.7147*${sigma}
variable       cutoffTop   equal   0.7147*1

variable       cutoffLow   equal   3*${sigma}
variable       cutoffLow   equal   3*1


fix            topWall all wall/lj93 zhi EDGE                ${epsilonWall} ${sigma} ${cutoffTop} units box
fix            topWall all wall/lj93 zhi EDGE                2 ${sigma} ${cutoffTop} units box
fix            topWall all wall/lj93 zhi EDGE                2 1 ${cutoffTop} units box
fix            topWall all wall/lj93 zhi EDGE                2 1 0.7147 units box

fix            lowWall all wall/lj93 zlo EDGE                ${epsilonWall} ${sigma} ${cutoffLow} units box
fix            lowWall all wall/lj93 zlo EDGE                2 ${sigma} ${cutoffLow} units box
fix            lowWall all wall/lj93 zlo EDGE                2 1 ${cutoffLow} units box
fix            lowWall all wall/lj93 zlo EDGE                2 1 3 units box


###################### COMPUTES ##########################

compute        bin1 solvent chunk/atom bin/1d z upper 1.0



######################	FIXES ############################


fix 		peclet solvent ave/chunk 1000 1 1000 bin1 density/number norm 		 none ave one file density.profile

fix 		 temp solvent ave/chunk 1000 1 1000 bin1 temp norm none ave one file temp.profile

fix 		2 solvent nve

## Thermostat


region		regthermo block EDGE EDGE EDGE EDGE 0 20

group 		thermo dynamic solvent region regthermo every 1000
dynamic group thermo defined

fix 		3 thermo langevin ${startTemp} ${temp} 10 156453
fix 		3 thermo langevin 1.0 ${temp} 10 156453
fix 		3 thermo langevin 1.0 1.0 10 156453


## Evaporation

region		regevap block EDGE EDGE EDGE EDGE 180 198
fix 		gcmc solvent gcmc 100 100 0 1 780493 ${temp} ${mu} ${gcmcdisplace} region regevap
fix 		gcmc solvent gcmc 100 100 0 1 780493 1.0 ${mu} ${gcmcdisplace} region regevap
fix 		gcmc solvent gcmc 100 100 0 1 780493 1.0 -.75 ${gcmcdisplace} region regevap
fix 		gcmc solvent gcmc 100 100 0 1 780493 1.0 -.75 0 region regevap


#### Load balancing

fix 		bal all balance 1000 1.05 shift z 10 1.05

############### Diagnostics and computes ###################
#compute 	com cube	  rigid/local	1 mol x y z
#compute 	quat cube	  rigid/local	1 mol quatw quati quatj quatk

thermo 		1000
thermo_style 	custom step temp epair etotal press pe ke atoms

dump		1 all custom 100000 dump.lammpstrj id mol type x y z
dump 		2 all image 10000 image.*.png type type
dump 		3 all movie 1000 movie.avi type type
#dump 		com cube local 1000 dump.*.xyz c_com[*]
#dump		quat cube      local 1000 dump.*.quat c_quat[*]


restart 	1000000 restart.dat
timestep 	0.005
timer 		full
New timer settings: style=full  mode=nosync  timeout=off


run		5000000
Per MPI rank memory allocation (min/avg/max) = 12.26 | 12.63 | 13.06 Mbytes
Step Temp E_pair TotEng Press PotEng KinEng Atoms 
 3000000   0.98378862   -3.3591705   -1.8834892  0.056035388   -3.3591705    1.4756812   878832 
 3001000   0.98568639   -3.3595964   -1.8816621  0.056621422   -3.3595964    1.4779343   879185 
 3002000    0.9858326   -3.3584726   -1.8809006  0.055486779   -3.3584726     1.477572   879531 
 3003000   0.98629775   -3.3570648   -1.8793619  0.055181752   -3.3570648     1.477703   879868 
 3004000   0.98750692   -3.3569051   -1.8779553  0.054830615   -3.3569051    1.4789498   880204 
 3005000   0.98633853   -3.3552314   -1.8786051  0.053680305   -3.3552314    1.4766262   880546 
 3006000   0.98761567   -3.3543774    -1.876383  0.053781691   -3.3543774    1.4779944   880870 
 3007000     0.987506   -3.3528446    -1.875551  0.058484656   -3.3528446    1.4772936   881190 
 3008000   0.98876435   -3.3525074   -1.8739069  0.055717044   -3.3525074    1.4786005   881533 
 3009000   0.98892871   -3.3509935   -1.8727106  0.056999025   -3.3509935    1.4782828   881869 
 3010000   0.98942215   -3.3502597   -1.8718093  0.055395544   -3.3502597    1.4784504   882209 
 3011000    0.9895544    -3.348408   -1.8703664  0.055174005    -3.348408    1.4780416   882571 
 3012000   0.99047192   -3.3482654   -1.8693628  0.060076651   -3.3482654    1.4789026   882875 
 3013000   0.99136487   -3.3475073   -1.8678864  0.057228782   -3.3475073    1.4796208   883242 
 3014000   0.99226911   -3.3464326   -1.8660522  0.057108948   -3.3464326    1.4803804   883594 
 3015000   0.99329202    -3.346576   -1.8652697  0.054719408    -3.346576    1.4813064   883952 
 3016000    0.9945763   -3.3464202   -1.8637336  0.057483132   -3.3464202    1.4826866   884271 
 3017000   0.99444761   -3.3451599   -1.8632383  0.056597295   -3.3451599    1.4819216   884613 
 3018000     0.994842   -3.3427683   -1.8608169  0.059591827   -3.3427683    1.4819514   884946 
 3019000   0.99598235   -3.3435456   -1.8605273  0.059381726   -3.3435456    1.4830183   885323 
 3020000   0.99594797   -3.3429137   -1.8605008   0.05559192   -3.3429137    1.4824129   885654 
 3021000   0.99665726   -3.3421274   -1.8591678  0.060061286   -3.3421274    1.4829596   885958 
 3022000   0.99836355   -3.3434599   -1.8585246  0.063570399   -3.3434599    1.4849353   886294 
 3023000   0.99846466   -3.3417569   -1.8571972  0.062465791   -3.3417569    1.4845597   886608 
 3024000   0.99823203   -3.3398356   -1.8561974  0.063106041   -3.3398356    1.4836382   886952 
 3025000   0.99952043   -3.3399749   -1.8550128  0.060883181   -3.3399749    1.4849621   887305 
 3026000   0.99921083    -3.339512     -1.85552  0.061427604    -3.339512     1.483992   887610 
 3027000   0.99986792   -3.3386642   -1.8542382  0.064702097   -3.3386642    1.4844261   887934 
 3028000    1.0006959   -3.3383843   -1.8532708  0.062166872   -3.3383843    1.4851134   888258 
 3029000    1.0012775   -3.3377371   -1.8523174  0.064050544   -3.3377371    1.4854197   888591 
 3030000    1.0023946   -3.3378971   -1.8514056  0.063282727   -3.3378971    1.4864915   888941 
 3031000    1.0033067   -3.3373966   -1.8500645  0.061415538   -3.3373966     1.487332   889247 
 3032000    1.0037797   -3.3367538    -1.849266  0.066106979   -3.3367538    1.4874879   889573 
 3033000    1.0035012   -3.3352469   -1.8487199  0.066164791   -3.3352469     1.486527   889901 
 3034000    1.0060541   -3.3376282   -1.8478684  0.064662357   -3.3376282    1.4897598   890229 
 3035000     1.005904   -3.3366214   -1.8476242  0.066014685   -3.3366214    1.4889972   890552 
 3036000    1.0070029    -3.336228   -1.8461713  0.064995515    -3.336228    1.4900567   890891 
 3037000    1.0075171   -3.3359558   -1.8456218   0.06649104   -3.3359558     1.490334   891180 
 3038000    1.0081331   -3.3361789   -1.8454857   0.06624791   -3.3361789    1.4906932   891510 
 3039000    1.0078443   -3.3349753   -1.8451937   0.06597745   -3.3349753    1.4897816   891800 
 3040000    1.0084776   -3.3353128   -1.8451131  0.067706001   -3.3353128    1.4901997   892110 
 3041000    1.0077779   -3.3334724   -1.8448556  0.064867275   -3.3334724    1.4886169   892439 
 3042000    1.0079622   -3.3316591    -1.843307  0.068920724   -3.3316591    1.4883521   892761 
 3043000    1.0099611   -3.3335173    -1.842778  0.067443231   -3.3335173    1.4907392   893099 
 3044000    1.0094478   -3.3315567   -1.8421139    0.0669024   -3.3315567    1.4894428   893422 
 3045000    1.0098938   -3.3308741    -1.841305  0.066344587   -3.3308741    1.4895691   893741 
 3046000    1.0107623   -3.3296088   -1.8392923  0.066394193   -3.3296088    1.4903165   894061 
 3047000    1.0108721    -3.329615   -1.8396915  0.069738081    -3.329615    1.4899235   894394 
 3048000    1.0122332   -3.3301487   -1.8387661  0.066609314   -3.3301487    1.4913826   894722 
 3049000    1.0124884   -3.3295276    -1.838319  0.071165301   -3.3295276    1.4912086   895052 
 3050000    1.0134565   -3.3292472   -1.8371428  0.070259883   -3.3292472    1.4921044   895370 
 3051000    1.0146656   -3.3290309   -1.8356501  0.064235669   -3.3290309    1.4933808   895672 
 3052000    1.0154563   -3.3289955   -1.8349914  0.075081524   -3.3289955    1.4940041   895996 
 3053000    1.0153758   -3.3277752   -1.8343762  0.073242855   -3.3277752    1.4933991   896288 
 3054000    1.0148974   -3.3262415   -1.8340522  0.071993173   -3.3262415    1.4921892   896592 
 3055000    1.0145618   -3.3250776   -1.8339107  0.072125426   -3.3250776    1.4911669   896910 
 3056000    1.0167959   -3.3269979   -1.8330536   0.06800854   -3.3269979    1.4939442   897214 
 3057000     1.016601   -3.3252838   -1.8321652  0.072195469   -3.3252838    1.4931187   897538 
 3058000    1.0160531    -3.323445    -1.831678  0.072320987    -3.323445     1.491767   897867 
 3059000    1.0170667   -3.3237816   -1.8310119  0.073820076   -3.3237816    1.4927697   898159 
 3060000    1.0170739   -3.3227992   -1.8305622  0.071677377   -3.3227992     1.492237   898486 
 3061000    1.0177833   -3.3216758   -1.8289147  0.072413196   -3.3216758    1.4927611   898797 
 3062000    1.0186947   -3.3223517   -1.8287707  0.068310226   -3.3223517     1.493581   899108 
 3063000    1.0192556   -3.3210539   -1.8271323  0.072493191   -3.3210539    1.4939216   899398 
 3064000    1.0199531   -3.3208183   -1.8263695  0.068860152   -3.3208183    1.4944488   899696 
 3065000    1.0194016   -3.3197144   -1.8265798  0.071916862   -3.3197144    1.4931346   900001 
 3066000     1.020244   -3.3200479   -1.8261957  0.075560873   -3.3200479    1.4938522   900312 
 3067000    1.0207099   -3.3191609   -1.8251542   0.07138176   -3.3191609    1.4940066   900630 
 3068000    1.0217599   -3.3187522   -1.8237183  0.070974578   -3.3187522     1.495034   900937 
 3069000    1.0217546   -3.3177844   -1.8232293  0.077681559   -3.3177844    1.4945551   901221 
 3070000    1.0229848   -3.3170868   -1.8212137  0.072798997   -3.3170868    1.4958731   901511 
 3071000     1.023804   -3.3173374   -1.8207345  0.071758282   -3.3173374    1.4966029   901793 
 3072000    1.0233462   -3.3168894   -1.8214515  0.069886113   -3.3168894    1.4954379   902092 
 3073000    1.0234821   -3.3147736    -1.819641  0.073531441   -3.3147736    1.4951326   902396 
 3074000    1.0243096   -3.3142509   -1.8184067  0.077828212   -3.3142509    1.4958441   902696 
 3075000    1.0255866   -3.3158721   -1.8186707   0.06997972   -3.3158721    1.4972014   903002 
 3076000     1.026346   -3.3158216   -1.8180074  0.075288235   -3.3158216    1.4978142   903301 
 3077000     1.025962    -3.314796   -1.8180177  0.073072947    -3.314796    1.4967782   903588 
 3078000    1.0257268   -3.3133372   -1.8174171  0.073553149   -3.3133372    1.4959202   903899 
 3079000    1.0263416   -3.3134431   -1.8171544  0.072350293   -3.3134431    1.4962887   904218 
 3080000     1.027702    -3.312455   -1.8147245  0.074206041    -3.312455    1.4977305   904545 
 3081000    1.0285483   -3.3126637   -1.8141903  0.075954405   -3.3126637    1.4984734   904841 
 3082000    1.0291615   -3.3115462    -1.812683  0.074308037   -3.3115462    1.4988632   905145 
 3083000    1.0287488   -3.3099594   -1.8121506  0.078241059   -3.3099594    1.4978088   905419 
 3084000     1.029481   -3.3099925   -1.8116026  0.075360799   -3.3099925      1.49839   905712 
 3085000    1.0300315   -3.3098457   -1.8111277  0.077580118   -3.3098457     1.498718   905998 
 3086000    1.0318244   -3.3112499   -1.8104038  0.075461524   -3.3112499    1.5008461   906288 
 3087000    1.0314057   -3.3102157    -1.810422  0.075319561   -3.3102157    1.4997937   906556 
 3088000    1.0309932   -3.3086173   -1.8099079  0.078590394   -3.3086173    1.4987095   906849 
 3089000    1.0323038   -3.3088828   -1.8087826   0.07736525   -3.3088828    1.5001002   907160 
 3090000    1.0322712   -3.3074905   -1.8078823  0.079928158   -3.3074905    1.4996082   907429 
 3091000    1.0320527   -3.3058903   -1.8070836  0.079189359   -3.3058903    1.4988067   907722 
 3092000     1.032719   -3.3058214   -1.8065343  0.073884369   -3.3058214    1.4992871   908017 
 3093000     1.033899   -3.3066787   -1.8061064  0.072795672   -3.3066787    1.5005722   908276 
 3094000    1.0332926   -3.3051429   -1.8059493  0.074580106   -3.3051429    1.4991936   908578 
 3095000    1.0338027   -3.3060044   -1.8065179  0.075132875   -3.3060044    1.4994865   908849 
 3096000     1.034109   -3.3052729   -1.8058024  0.074135798   -3.3052729    1.4994705   909128 
 3097000    1.0348384   -3.3048341   -1.8047482  0.078260171   -3.3048341    1.5000859   909396 
 3098000    1.0347142   -3.3037019   -1.8042824  0.073359862   -3.3037019    1.4994195   909691 
 3099000    1.0357528   -3.3035731    -1.803127  0.074118335   -3.3035731    1.5004462   909981 
 3100000    1.0349113   -3.3018727    -1.803138  0.075730949   -3.3018727    1.4987347   910280 
 3101000    1.0359687   -3.3015472   -1.8017311  0.075291803   -3.3015472    1.4998162   910553 
 3102000    1.0358049   -3.3002061   -1.8010914  0.076274017   -3.3002061    1.4991147   910835 
 3103000    1.0374037    -3.301351   -1.8004101  0.077859367    -3.301351    1.5009409   911131 
 3104000    1.0388809   -3.3027764   -1.8001518  0.073671787   -3.3027764    1.5026246   911406 
 3105000    1.0382851    -3.300386   -1.7990645  0.079560789    -3.300386    1.5013214   911674 
 3106000    1.0390563   -3.3010638   -1.7991116  0.077903147   -3.3010638    1.5019523   911968 
 3107000    1.0398447   -3.3000156   -1.7974098  0.079724805   -3.3000156    1.5026058   912263 
 3108000    1.0400477    -3.300562   -1.7981373  0.077893721    -3.300562    1.5024247   912551 
 3109000    1.0409932   -3.3006464   -1.7973351  0.077027255   -3.3006464    1.5033113   912842 
 3110000    1.0407508   -3.2999117   -1.7973784  0.078443993   -3.2999117    1.5025333   913102 
 3111000    1.0415821   -3.3002932   -1.7970372  0.074596766   -3.3002932     1.503256   913392 
 3112000    1.0418257    -3.299317   -1.7961669  0.079169523    -3.299317    1.5031501   913670 
 3113000    1.0424993   -3.2986609   -1.7950246  0.080955345   -3.2986609    1.5036364   913965 
 3114000    1.0426473   -3.2983018    -1.794901   0.07688748   -3.2983018    1.5034008   914238 
 3115000    1.0434465   -3.2982767   -1.7942073  0.080126239   -3.2982767    1.5040695   914532 
 3116000    1.0435793   -3.2978436   -1.7939953  0.075971547   -3.2978436    1.5038483   914783 
 3117000    1.0434372    -3.297238   -1.7940366  0.079488227    -3.297238    1.5032014   915052 
 3118000    1.0437015   -3.2956621   -1.7924956  0.082084313   -3.2956621    1.5031665   915305 
 3119000    1.0455635   -3.2976585    -1.792251   0.08273384   -3.2976585    1.5054075   915573 
 3120000     1.047142    -3.298223    -1.791012  0.079397435    -3.298223     1.507211   915858 
 3121000    1.0465049   -3.2959677   -1.7902014  0.083379425   -3.2959677    1.5057663   916179 
 3122000    1.0474176   -3.2961512   -1.7895058  0.082621063   -3.2961512    1.5066454   916443 
 3123000    1.0480506   -3.2968981   -1.7897995  0.082878586   -3.2968981    1.5070987   916721 
 3124000    1.0494431   -3.2975019   -1.7888452  0.086694008   -3.2975019    1.5086567   916991 
 3125000    1.0499934   -3.2965342    -1.787501  0.085518665   -3.2965342    1.5090332   917243 
 3126000    1.0497691   -3.2943736   -1.7861182  0.088481688   -3.2943736    1.5082554   917520 
 3127000    1.0506358   -3.2951652    -1.786084  0.083689104   -3.2951652    1.5090811   917775 
 3128000     1.051762   -3.2958427   -1.7855684  0.088027001   -3.2958427    1.5102742   918033 
 3129000    1.0504487   -3.2940954   -1.7861406  0.086578875   -3.2940954    1.5079548   918297 
 3130000    1.0509883   -3.2938833    -1.785622  0.084310002   -3.2938833    1.5082613   918582 
 3131000    1.0516632   -3.2936614   -1.7849161  0.083157492   -3.2936614    1.5087453   918877 
 3132000    1.0514746   -3.2930388    -1.784986  0.086692725   -3.2930388    1.5080528   919134 
 3133000    1.0527839   -3.2927837   -1.7832964  0.084232403   -3.2927837    1.5094873   919404 
 3134000    1.0523108   -3.2917574   -1.7833504  0.084203155   -3.2917574     1.508407   919649 
 3135000     1.054077   -3.2931853   -1.7826621  0.082624838   -3.2931853    1.5105233   919902 
 3136000     1.053578   -3.2910481    -1.781701  0.084800378   -3.2910481    1.5093471   920183 
 3137000    1.0534479   -3.2894642   -1.7807741  0.084395366   -3.2894642    1.5086901   920470 
 3138000    1.0549273   -3.2908176   -1.7804813  0.081263733   -3.2908176    1.5103363   920758 
 3139000    1.0536694   -3.2879446   -1.7798449  0.086465406   -3.2879446    1.5080997   921024 
 3140000    1.0541588   -3.2878113   -1.7793731  0.087373431   -3.2878113    1.5084382   921245 
 3141000    1.0553676   -3.2875176   -1.7778117  0.085337162   -3.2875176    1.5097058   921527 
 3142000    1.0569093   -3.2882071   -1.7767764  0.083630745   -3.2882071    1.5114306   921820 
 3143000    1.0563682   -3.2873298   -1.7770908  0.084290245   -3.2873298    1.5102391   922075 
 3144000     1.056479   -3.2864213   -1.7764773  0.087116494   -3.2864213    1.5099439   922352 
 3145000    1.0572466   -3.2869061   -1.7763171   0.08410896   -3.2869061    1.5105889   922628 
 3146000    1.0572737   -3.2848461   -1.7745932   0.08588742   -3.2848461    1.5102528   922857 
 3147000    1.0578423   -3.2842803   -1.7737114  0.085398882   -3.2842803     1.510569   923160 
 3148000    1.0579872   -3.2840291   -1.7736441  0.084681102   -3.2840291    1.5103849   923399 
 3149000    1.0584947   -3.2829659   -1.7722982  0.084415767   -3.2829659    1.5106677   923669 
 3150000    1.0586471   -3.2827006   -1.7722324  0.085286219   -3.2827006    1.5104682   923924 
 3151000    1.0598098    -3.283908   -1.7721948  0.085039803    -3.283908    1.5117132   924177 
 3152000    1.0593757   -3.2822555   -1.7716192  0.084803001   -3.2822555    1.5106363   924457 
 3153000    1.0600697   -3.2827774   -1.7715634  0.086475892   -3.2827774     1.511214   924709 
 3154000    1.0594823   -3.2806788   -1.7707023  0.084199422   -3.2806788    1.5099765   924954 
 3155000     1.060169   -3.2801905   -1.7696501   0.08376971   -3.2801905    1.5105404   925208 
 3156000    1.0605168   -3.2789224   -1.7683224  0.085669056   -3.2789224    1.5106001   925475 
 3157000    1.0625257     -3.28143   -1.7684442  0.084254851     -3.28143    1.5129858   925766 
 3158000    1.0615838   -3.2793145   -1.7680649  0.087594964   -3.2793145    1.5112496   926008 
 3159000     1.062758   -3.2798885   -1.7674051  0.084177618   -3.2798885    1.5124834   926276 
 3160000    1.0632792   -3.2795395   -1.7667326  0.087593949   -3.2795395    1.5128069   926532 
 3161000    1.0652709   -3.2804971   -1.7652995  0.088768542   -3.2804971    1.5151976   926803 
 3162000    1.0646782   -3.2781914   -1.7642747  0.090249649   -3.2781914    1.5139167   927071 
 3163000    1.0666115    -3.280217   -1.7640139  0.085950292    -3.280217     1.516203   927354 
 3164000    1.0655914   -3.2771703   -1.7628485  0.093028773   -3.2771703    1.5143218   927618 
 3165000    1.0661227   -3.2771106   -1.7624272  0.091965476   -3.2771106    1.5146833   927859 
 3166000    1.0665956   -3.2784046    -1.763456  0.088997151   -3.2784046    1.5149485   928108 
 3167000    1.0670404    -3.277966   -1.7627922  0.088520331    -3.277966    1.5151738   928357 
 3168000    1.0672094   -3.2776246   -1.7626758  0.087208439   -3.2776246    1.5149488   928642 
 3169000    1.0672797   -3.2773603   -1.7627276  0.088018427   -3.2773603    1.5146326   928897 
 3170000    1.0678353   -3.2776447   -1.7626183  0.084828461   -3.2776447    1.5150264   929139 
 3171000    1.0674603   -3.2759858   -1.7619346   0.09016995   -3.2759858    1.5140512   929411 
 3172000    1.0685968   -3.2767258   -1.7615013  0.088198153   -3.2767258    1.5152245   929680 
 3173000    1.0689571   -3.2754603   -1.7602186  0.088378143   -3.2754603    1.5152417   929983 
 3174000    1.0693159   -3.2741929   -1.7588923  0.088032352   -3.2741929    1.5153006   930259 
 3175000    1.0694201   -3.2753835   -1.7603229  0.086779728   -3.2753835    1.5150606   930497 
 3176000    1.0712206   -3.2756898   -1.7585219  0.089463336   -3.2756898    1.5171679   930769 
 3177000    1.0716222   -3.2750948   -1.7577885  0.089245828   -3.2750948    1.5173063   931033 
 3178000    1.0722268   -3.2758259   -1.7580874  0.087498997   -3.2758259    1.5177385   931293 
 3179000    1.0706387   -3.2723841   -1.7572807  0.094421535   -3.2723841    1.5151034   931531 
 3180000    1.0733842   -3.2754359   -1.7568466  0.092068793   -3.2754359    1.5185892   931776 
 3181000    1.0722938   -3.2733231   -1.7566803  0.091139783   -3.2733231    1.5166428   932024 
 3182000    1.0735392   -3.2733315   -1.7553994  0.090564555   -3.2733315    1.5179321   932314 
 3183000    1.0743232   -3.2741005   -1.7554899  0.092428144   -3.2741005    1.5186106   932578 
 3184000    1.0744134   -3.2729577    -1.754612  0.090560167   -3.2729577    1.5183457   932819 
 3185000    1.0744003   -3.2721936   -1.7542587  0.092754154   -3.2721936     1.517935   933060 
 3186000    1.0759811   -3.2731546   -1.7533999  0.089232734   -3.2731546    1.5197547   933314 
 3187000    1.0753769   -3.2719958   -1.7535354  0.091322184   -3.2719958    1.5184604   933585 
 3188000    1.0765851   -3.2724974   -1.7527509  0.092919382   -3.2724974    1.5197465   933843 
 3189000    1.0767714   -3.2713649   -1.7517135  0.094121061   -3.2713649    1.5196514   934063 
 3190000    1.0780765   -3.2725024   -1.7514114   0.09398045   -3.2725024     1.521091   934310 
 3191000    1.0773871    -3.271095   -1.7513719  0.094920666    -3.271095    1.5197231   934553 
 3192000    1.0777527   -3.2706939   -1.7508243  0.092502842   -3.2706939    1.5198696   934780 
 3193000    1.0776443   -3.2690832   -1.7497515  0.093149205   -3.2690832    1.5193316   935017 
 3194000     1.078303   -3.2693472   -1.7494982  0.097406349   -3.2693472     1.519849   935270 
 3195000    1.0793351   -3.2701126    -1.749191  0.090318969   -3.2701126    1.5209216   935505 
 3196000    1.0794255   -3.2689529   -1.7483283  0.093184134   -3.2689529    1.5206247   935766 
 3197000    1.0801096   -3.2683412   -1.7471364   0.09042817   -3.2683412    1.5212047   936002 
 3198000    1.0802143   -3.2672766   -1.7463046  0.095876859   -3.2672766    1.5209719   936236 
 3199000    1.0796782   -3.2668566   -1.7470275  0.092766878   -3.2668566    1.5198291   936475 
 3200000    1.0793504   -3.2654329   -1.7464674  0.092551558   -3.2654329    1.5189655   936723 
 3201000    1.0806358   -3.2659668   -1.7455496  0.096988105   -3.2659668    1.5204173   936943 
 3202000    1.0799459   -3.2645976   -1.7455157  0.092584871   -3.2645976    1.5190818   937168 
 3203000    1.0813723   -3.2656692   -1.7449914  0.095087732   -3.2656692    1.5206778   937421 
 3204000    1.0809169   -3.2637655   -1.7441528  0.091714628   -3.2637655    1.5196127   937683 
 3205000    1.0811457   -3.2631691   -1.7436303   0.09290933   -3.2631691    1.5195389   937927 
 3206000     1.082082   -3.2632319   -1.7427776  0.095489946   -3.2632319    1.5204544   938174 
 3207000      1.08302   -3.2634377   -1.7420706  0.094400732   -3.2634377    1.5213671   938424 
 3208000    1.0842998   -3.2644388    -1.741665  0.091422274   -3.2644388    1.5227738   938665 
 3209000    1.0841149   -3.2632077   -1.7410715  0.096442235   -3.2632077    1.5221362   938898 
 3210000     1.083938   -3.2620704   -1.7405423  0.097494851   -3.2620704    1.5215281   939120 
 3211000    1.0866442   -3.2640496   -1.7391271  0.093786637   -3.2640496    1.5249225   939369 
 3212000    1.0858451   -3.2632518    -1.739827  0.095052784   -3.2632518    1.5234248   939601 
 3213000    1.0859931   -3.2610285   -1.7377997  0.098776715   -3.2610285    1.5232288   939850 
 3214000    1.0869475   -3.2617157   -1.7375163  0.096027289   -3.2617157    1.5241994   940077 
 3215000    1.0868746   -3.2611164   -1.7374504   0.09325483   -3.2611164     1.523666   940343 
 3216000    1.0868477   -3.2607859   -1.7375999  0.096588539   -3.2607859     1.523186   940616 
 3217000    1.0869076   -3.2610571   -1.7381707  0.098012631   -3.2610571    1.5228863   940853 
 3218000    1.0882965   -3.2605608   -1.7361076   0.09574638   -3.2605608    1.5244532   941087 
 3219000    1.0892718   -3.2612016   -1.7357746  0.097102385   -3.2612016     1.525427   941329 
 3220000    1.0884774   -3.2594643   -1.7355059  0.094327112   -3.2594643    1.5239585   941549 
 3221000    1.0894072   -3.2597783   -1.7349133  0.098025871   -3.2597783     1.524865   941793 
 3222000     1.089963   -3.2599947   -1.7347436   0.09884344   -3.2599947    1.5252511   942035 
 3223000    1.0902644   -3.2594269   -1.7341377   0.10044756   -3.2594269    1.5252892   942272 
 3224000    1.0900631   -3.2583939   -1.7337764  0.099170789   -3.2583939    1.5246175   942513 
 3225000    1.0909489   -3.2589747   -1.7334872  0.097939804   -3.2589747    1.5254875   942741 
 3226000    1.0926843   -3.2600966   -1.7325422  0.099017163   -3.2600966    1.5275543   942963 
 3227000    1.0917128   -3.2576998   -1.7318643   0.10184704   -3.2576998    1.5258355   943186 
 3228000     1.091722   -3.2577202    -1.732252  0.097044473   -3.2577202    1.5254682   943421 
 3229000    1.0922302   -3.2579178   -1.7321051  0.097738781   -3.2579178    1.5258127   943647 
 3230000    1.0917972   -3.2565971   -1.7317916  0.098854507   -3.2565971    1.5248055   943896 
 3231000    1.0922961   -3.2572079   -1.7320821  0.097595731   -3.2572079    1.5251258   944129 
 3232000      1.09282    -3.256913   -1.7314468  0.093933087    -3.256913    1.5254663   944371 
 3233000    1.0926664    -3.256776   -1.7319552  0.097782036    -3.256776    1.5248208   944638 
 3234000    1.0931481   -3.2558876   -1.7307885  0.092124056   -3.2558876    1.5250991   944882 
 3235000    1.0942988   -3.2565144    -1.730175  0.096719581   -3.2565144    1.5263394   945108 
 3236000    1.0944562   -3.2552092   -1.7290282   0.10062113   -3.2552092     1.526181   945342 
 3237000    1.0959483   -3.2564004   -1.7285216   0.10103716   -3.2564004    1.5278787   945579 
 3238000    1.0957805   -3.2556798   -1.7284097  0.097502659   -3.2556798      1.52727   945811 
 3239000    1.0972129   -3.2569147   -1.7280556  0.099381553   -3.2569147    1.5288591   946063 
 3240000    1.0973356   -3.2554612   -1.7268107  0.096765655   -3.2554612    1.5286504   946298 
 3241000    1.0970197   -3.2543655    -1.726512   0.10241004   -3.2543655    1.5278535   946519 
 3242000    1.0986673   -3.2547486   -1.7250239   0.10001701   -3.2547486    1.5297247   946781 
 3243000    1.0988074    -3.254597   -1.7250618  0.099667415    -3.254597    1.5295353   947019 
 3244000    1.0995051   -3.2542956    -1.724185  0.098624814   -3.2542956    1.5301106   947264 
 3245000    1.1000016   -3.2541687   -1.7237758  0.097796018   -3.2541687    1.5303929   947517 
 3246000    1.1001377    -3.253998   -1.7237548  0.098586608    -3.253998    1.5302431   947727 
 3247000    1.0992606   -3.2517964   -1.7231814  0.099705182   -3.2517964     1.528615   947980 
 3248000     1.099759   -3.2520593    -1.723111   0.10137153   -3.2520593    1.5289483   948203 
 3249000    1.0999277    -3.251831   -1.7229996  0.098963367    -3.251831    1.5288315   948421 
 3250000     1.101346   -3.2527482    -1.722331  0.095527788   -3.2527482    1.5304172   948660 
 3251000    1.1011021     -3.25155   -1.7218283  0.097618658     -3.25155    1.5297218   948881 
 3252000    1.1019186   -3.2518085   -1.7213218  0.098391315   -3.2518085    1.5304868   949110 
 3253000    1.1013888   -3.2497472   -1.7203846  0.097568551   -3.2497472    1.5293626   949351 
 3254000    1.1032339   -3.2514636   -1.7199357  0.094187662   -3.2514636    1.5315279   949597 
 3255000    1.1012568   -3.2492396   -1.7208153   0.10099026   -3.2492396    1.5284243   949820 
 3256000    1.1024501   -3.2488098   -1.7191175  0.098229516   -3.2488098    1.5296923   950061 
 3257000    1.1024834   -3.2481131    -1.718703   0.10248663   -3.2481131    1.5294101   950265 
 3258000    1.1034317    -3.248921   -1.7185481   0.10003593    -3.248921    1.5303729   950484 
 3259000    1.1029084   -3.2469006   -1.7175865   0.10067084   -3.2469006    1.5293141   950691 
 3260000    1.1042633   -3.2474008   -1.7166073  0.098289448   -3.2474008    1.5307935   950939 
 3261000    1.1060959   -3.2484181   -1.7154662   0.10272096   -3.2484181    1.5329519   951176 
 3262000    1.1049089   -3.2471199   -1.7161672   0.10249065   -3.2471199    1.5309527   951396 
 3263000    1.1058671    -3.248136   -1.7162082   0.10196142    -3.248136    1.5319277   951615 
 3264000    1.1050037   -3.2473118   -1.7168841  0.098152202   -3.2473118    1.5304277   951804 
 3265000    1.1062819    -3.247221   -1.7153818  0.098958431    -3.247221    1.5318392   952027 
 3266000    1.1081718   -3.2479688   -1.7139092   0.10339675   -3.2479688    1.5340596   952273 
 3267000    1.1060285   -3.2454229    -1.714716   0.10472478   -3.2454229    1.5307069   952513 
 3268000    1.1057686   -3.2450585   -1.7150904   0.10313913   -3.2450585    1.5299681   952749 
 3269000    1.1065583   -3.2452565    -1.714562   0.10109837   -3.2452565    1.5306945   952977 
 3270000    1.1073915   -3.2452952   -1.7138226  0.094421682   -3.2452952    1.5314726   953210 
 3271000    1.1070126   -3.2439708   -1.7134141   0.10181676   -3.2439708    1.5305568   953454 
 3272000    1.1097713   -3.2469627   -1.7129441   0.10121533   -3.2469627    1.5340186   953673 
 3273000    1.1095204   -3.2451606   -1.7118457     0.100681   -3.2451606    1.5333149   953895 
 3274000    1.1087538   -3.2432849   -1.7113843   0.10440347   -3.2432849    1.5319006   954116 
 3275000    1.1101678   -3.2458216    -1.712329   0.10136396   -3.2458216    1.5334926   954341 
 3276000    1.1107935   -3.2455653   -1.7115669   0.10198927   -3.2455653    1.5339984   954564 
 3277000    1.1100131   -3.2437715   -1.7112056   0.10438673   -3.2437715    1.5325659   954785 
 3278000    1.1107857   -3.2437837   -1.7105028   0.10460135   -3.2437837    1.5332809   955004 
 3279000     1.111772    -3.244328   -1.7100279  0.098610777    -3.244328    1.5343002   955217 
 3280000    1.1113838   -3.2439265   -1.7105248    0.1025282   -3.2439265    1.5334016   955443 
 3281000    1.1123151   -3.2446089   -1.7102741   0.10510516   -3.2446089    1.5343348   955662 
 3282000    1.1126575    -3.244591   -1.7101035   0.10257966    -3.244591    1.5344876   955861 
 3283000    1.1122557   -3.2436514   -1.7100708   0.10298629   -3.2436514    1.5335806   956081 
 3284000    1.1126669   -3.2432538   -1.7094624   0.10296347   -3.2432538    1.5337914   956303 
 3285000    1.1127825   -3.2432668   -1.7097074   0.10415412   -3.2432668    1.5335593   956547 
 3286000    1.1133794   -3.2436716     -1.70962   0.10343041   -3.2436716    1.5340516   956753 
 3287000    1.1146484   -3.2433145   -1.7078756   0.10268822   -3.2433145     1.535439   956978 
 3288000    1.1155834   -3.2444571   -1.7080352  0.099825581   -3.2444571    1.5364219   957168 
 3289000    1.1159113   -3.2442701   -1.7077369   0.10252056   -3.2442701    1.5365333   957380 
 3290000    1.1165783   -3.2441245   -1.7070389   0.10700339   -3.2441245    1.5370856   957608 
 3291000    1.1158035   -3.2427208   -1.7070627   0.10607291   -3.2427208    1.5356581   957833 
 3292000    1.1161941   -3.2431378   -1.7072435   0.10377877   -3.2431378    1.5358943   958021 
 3293000    1.1170211   -3.2432726   -1.7066206   0.10646841   -3.2432726    1.5366521   958258 
 3294000    1.1172961   -3.2435603   -1.7068779   0.10183075   -3.2435603    1.5366824   958475 
 3295000    1.1178651   -3.2434292    -1.706325   0.10718685   -3.2434292    1.5371042   958700 
 3296000    1.1170622   -3.2421379   -1.7064789   0.10515182   -3.2421379     1.535659   958913 
 3297000    1.1179313   -3.2427975   -1.7062755    0.1061127   -3.2427975     1.536522   959120 
 3298000    1.1176453   -3.2417869    -1.706023   0.10864252   -3.2417869    1.5357639   959348 
 3299000    1.1180657   -3.2419137   -1.7059148   0.10566565   -3.2419137    1.5359989   959562 
 3300000    1.1181147   -3.2413684   -1.7056415   0.10325375   -3.2413684    1.5357269   959774 
 3301000    1.1193982    -3.242615   -1.7055271   0.10628948    -3.242615    1.5370878   960025 
 3302000    1.1194317   -3.2415271   -1.7047886   0.10207147   -3.2415271    1.5367385   960272 
 3303000    1.1188035   -3.2406638   -1.7051268   0.10241288   -3.2406638     1.535537   960484 
 3304000     1.119737   -3.2414369   -1.7050026   0.10534647   -3.2414369    1.5364343   960724 
 3305000    1.1186619   -3.2396046   -1.7050128   0.10497758   -3.2396046    1.5345918   960954 
 3306000     1.118887   -3.2393338   -1.7047908   0.10455636   -3.2393338    1.5345429   961178 
 3307000     1.119968   -3.2396773   -1.7039778   0.10349141   -3.2396773    1.5356995   961382 
 3308000    1.1213691   -3.2407831   -1.7034885   0.10443985   -3.2407831    1.5372946   961586 
 3309000    1.1214418   -3.2401558   -1.7031132   0.10324026   -3.2401558    1.5370426   961806 
 3310000    1.1209955   -3.2387007   -1.7026084   0.10883426   -3.2387007    1.5360923   962018 
 3311000    1.1216824   -3.2388177   -1.7021548    0.1017982   -3.2388177    1.5366629   962250 
 3312000    1.1234949   -3.2398258   -1.7009932   0.10861222   -3.2398258    1.5388326   962446 
 3313000    1.1237273   -3.2393595   -1.7005348   0.10548864   -3.2393595    1.5388247   962650 
 3314000    1.1248501   -3.2395215   -1.6995624   0.10853957   -3.2395215    1.5399591   962902 
 3315000    1.1258881   -3.2395044   -1.6984491    0.1100133   -3.2395044    1.5410553   963105 
 3316000     1.124971   -3.2381721   -1.6987366   0.10669968   -3.2381721    1.5394355   963333 
 3317000    1.1247504   -3.2380295   -1.6991882   0.10623579   -3.2380295    1.5388413   963516 
 3318000    1.1260528   -3.2389141   -1.6986218   0.10688074   -3.2389141    1.5402923   963723 
 3319000    1.1262633   -3.2383615   -1.6981281   0.11274559   -3.2383615    1.5402334   963940 
 3320000    1.1274046   -3.2383795   -1.6969578   0.10875936   -3.2383795    1.5414216   964173 
 3321000     1.126918   -3.2372734   -1.6968526   0.11189297   -3.2372734    1.5404208   964383 
 3322000    1.1280885   -3.2390053   -1.6973408   0.10187507   -3.2390053    1.5416644   964606 
 3323000    1.1269011   -3.2372343   -1.6974895   0.10444937   -3.2372343    1.5397448   964792 
 3324000    1.1269145   -3.2363329   -1.6969353   0.10935414   -3.2363329    1.5393977   965021 
 3325000    1.1283996   -3.2376792   -1.6965881   0.10746344   -3.2376792    1.5410911   965231 
 3326000    1.1272296   -3.2357342   -1.6965568   0.10769016   -3.2357342    1.5391774   965429 
 3327000    1.1277852   -3.2358037   -1.6961962    0.1051962   -3.2358037    1.5396075   965635 
 3328000    1.1283099   -3.2357602   -1.6958254   0.10869017   -3.2357602    1.5399347   965879 
 3329000    1.1292951   -3.2361476   -1.6952209   0.10538486   -3.2361476    1.5409267   966100 
 3330000    1.1292485   -3.2359423   -1.6954125   0.10933271   -3.2359423    1.5405299   966309 
 3331000    1.1293284   -3.2355976    -1.695311   0.10916606   -3.2355976    1.5402866   966530 
 3332000     1.129223   -3.2342796   -1.6944618   0.10924674   -3.2342796    1.5398178   966734 
 3333000    1.1295081   -3.2343865   -1.6945749   0.10841386   -3.2343865    1.5398116   966982 
 3334000    1.1295355   -3.2338772   -1.6943579   0.10608028   -3.2338772    1.5395193   967189 
 3335000    1.1309135   -3.2348117   -1.6937137   0.10538651   -3.2348117    1.5410979   967377 
 3336000    1.1312042   -3.2346703   -1.6934995   0.10586328   -3.2346703    1.5411708   967580 
 3337000    1.1312689   -3.2335888   -1.6926165    0.1089947   -3.2335888    1.5409722   967760 
 3338000    1.1330851   -3.2356603   -1.6925186   0.10590587   -3.2356603    1.5431416   967951 
 3339000    1.1332786    -3.234906   -1.6918356   0.10711277    -3.234906    1.5430704   968161 
 3340000    1.1327429   -3.2331773   -1.6911756   0.11289911   -3.2331773    1.5420017   968374 
 3341000    1.1334727   -3.2328978   -1.6902722   0.11229127   -3.2328978    1.5426256   968606 
 3342000    1.1337667   -3.2334275    -1.690725   0.11260507   -3.2334275    1.5427024   968809 
 3343000    1.1335699    -3.232733   -1.6905483    0.1115319    -3.232733    1.5421847   968966 
 3344000    1.1354735   -3.2346828   -1.6901856   0.11169868   -3.2346828    1.5444972   969140 
 3345000    1.1348259    -3.233295   -1.6900435   0.10737898    -3.233295    1.5432516   969369 
 3346000    1.1349277   -3.2336876   -1.6905889   0.10888732   -3.2336876    1.5430988   969552 
 3347000    1.1349418   -3.2330041   -1.6902123   0.11403946   -3.2330041    1.5427917   969757 
 3348000    1.1347669   -3.2322373   -1.6900188   0.11121497   -3.2322373    1.5422185   969968 
 3349000    1.1368685   -3.2337324   -1.6889987   0.11131655   -3.2337324    1.5447337   970182 
 3350000    1.1372192   -3.2334065   -1.6885241   0.11130763   -3.2334065    1.5448823   970388 
 3351000    1.1364403   -3.2313042   -1.6878473   0.11284612   -3.2313042    1.5434568   970619 
 3352000    1.1380798   -3.2329602    -1.687557    0.1080256   -3.2329602    1.5454033   970795 
 3353000    1.1379031   -3.2323634   -1.6875358    0.1067193   -3.2323634    1.5448276   971006 
 3354000    1.1379862   -3.2316068   -1.6869656   0.10834269   -3.2316068    1.5446413   971194 
 3355000    1.1380978   -3.2306546   -1.6861576   0.11096522   -3.2306546    1.5444969   971380 
 3356000    1.1386078   -3.2316322   -1.6867772    0.1120841   -3.2316322    1.5448551   971590 
 3357000    1.1390792   -3.2318553   -1.6866836   0.10549782   -3.2318553    1.5451718   971793 
 3358000    1.1384619   -3.2310829   -1.6870836   0.10993677   -3.2310829    1.5439993   972004 
 3359000    1.1396893   -3.2319497   -1.6866165   0.10329662   -3.2319497    1.5453332   972212 
 3360000    1.1389328   -3.2302373   -1.6862522    0.1101863   -3.2302373    1.5439851   972415 
 3361000    1.1397306   -3.2311021   -1.6863342   0.10595074   -3.2311021    1.5447679   972603 
 3362000    1.1401945   -3.2300626   -1.6849805   0.11130826   -3.2300626     1.545082   972801 
 3363000    1.1392453   -3.2278852   -1.6843797    0.1114594   -3.2278852    1.5435055   972984 
 3364000    1.1408869   -3.2293765   -1.6839773   0.10866252   -3.2293765    1.5453992   973192 
 3365000    1.1416091   -3.2296286   -1.6835736   0.11057694   -3.2296286     1.546055   973395 
 3366000    1.1405551    -3.228191    -1.683895   0.11190153    -3.228191     1.544296   973604 
 3367000    1.1406396   -3.2275861   -1.6835025    0.1119154   -3.2275861    1.5440837   973810 
 3368000     1.142037   -3.2283328   -1.6826764   0.11104827   -3.2283328    1.5456564   974011 
 3369000     1.141893   -3.2275365   -1.6824114   0.11176917   -3.2275365    1.5451251   974223 
 3370000     1.143519    -3.228433   -1.6814348   0.11608306    -3.228433    1.5469981   974429 
 3371000    1.1441721   -3.2281469   -1.6805908   0.11020683   -3.2281469    1.5475561   974634 
 3372000    1.1445359   -3.2284099   -1.6806554   0.10982643   -3.2284099    1.5477545   974819 
 3373000    1.1447672   -3.2281827   -1.6804346   0.11125374   -3.2281827    1.5477481   975020 
 3374000    1.1451823   -3.2279134   -1.6799534   0.11039002   -3.2279134      1.54796   975240 
 3375000    1.1470961   -3.2290026   -1.6787863   0.10804262   -3.2290026    1.5502164   975448 
 3376000    1.1455132   -3.2267098   -1.6789341   0.11241919   -3.2267098    1.5477757   975638 
 3377000    1.1454145   -3.2256751   -1.6783865   0.11286083   -3.2256751    1.5472886   975861 
 3378000     1.146124   -3.2267547   -1.6788233   0.11329536   -3.2267547    1.5479314   976060 
 3379000    1.1456457   -3.2258975   -1.6789164    0.1159412   -3.2258975    1.5469812   976252 
 3380000    1.1472495   -3.2272201   -1.6783795   0.11081478   -3.2272201    1.5488406   976445 
 3381000    1.1468607   -3.2260851   -1.6780532   0.11652928   -3.2260851    1.5480319   976624 
 3382000    1.1467223   -3.2264194    -1.678904   0.11015341   -3.2264194    1.5475155   976832 
 3383000    1.1474725   -3.2267209   -1.6785037   0.11354284   -3.2267209    1.5482172   977028 
 3384000    1.1470631   -3.2256132   -1.6783016    0.1097905   -3.2256132    1.5473117   977251 
 3385000     1.148193   -3.2260023   -1.6774787    0.1130248   -3.2260023    1.5485237   977448 
 3386000    1.1486748   -3.2257236   -1.6768529   0.11529355   -3.2257236    1.5488708   977639 
 3387000    1.1499191   -3.2264366   -1.6762163   0.11511362   -3.2264366    1.5502204   977846 
 3388000    1.1494529   -3.2251787   -1.6758513   0.11779288   -3.2251787    1.5493274   978013 
 3389000    1.1503613   -3.2261595   -1.6759153   0.11711126   -3.2261595    1.5502442   978207 
 3390000    1.1507419   -3.2254602   -1.6750295   0.11565633   -3.2254602    1.5504306   978413 
 3391000    1.1519439   -3.2265668   -1.6748149   0.11642476   -3.2265668     1.551752   978601 
 3392000     1.151417   -3.2263814    -1.675653   0.11558155   -3.2263814    1.5507284   978799 
 3393000    1.1517863   -3.2257255   -1.6748467   0.11540611   -3.2257255    1.5508788   979018 
 3394000    1.1523304   -3.2271525     -1.67585   0.11233107   -3.2271525    1.5513025   979213 
 3395000    1.1532628   -3.2274139    -1.675205   0.11269252   -3.2274139    1.5522089   979433 
 3396000    1.1516611    -3.224928   -1.6751944     0.117162    -3.224928    1.5497336   979635 
 3397000    1.1523508    -3.225103   -1.6747564   0.11983861    -3.225103    1.5503467   979834 
 3398000    1.1531652   -3.2255685   -1.6744175   0.11386608   -3.2255685     1.551151   980018 
 3399000    1.1533564     -3.22537   -1.6742418   0.11641098     -3.22537    1.5511281   980195 
 3400000    1.1530465   -3.2242194   -1.6738607   0.11725364   -3.2242194    1.5503587   980418 
 3401000    1.1538344   -3.2249807   -1.6738759   0.11756838   -3.2249807    1.5511048   980616 
 3402000    1.1540949   -3.2244448   -1.6732682   0.11397643   -3.2244448    1.5511766   980792 
 3403000    1.1541328   -3.2245338    -1.673629   0.11730657   -3.2245338    1.5509049   980996 
 3404000    1.1549513   -3.2250754   -1.6733886   0.11354157   -3.2250754    1.5516868   981197 
 3405000    1.1552103   -3.2249817   -1.6732394   0.11713028   -3.2249817    1.5517423   981382 
 3406000    1.1561772   -3.2256631   -1.6728736   0.11670569   -3.2256631    1.5527895   981541 
 3407000    1.1556628   -3.2243561   -1.6726022   0.11977933   -3.2243561     1.551754   981759 
 3408000    1.1557122   -3.2247122   -1.6732048   0.11631087   -3.2247122    1.5515074   981957 
 3409000    1.1564373   -3.2247839   -1.6726144   0.11654656   -3.2247839    1.5521695   982154 
 3410000    1.1575078   -3.2257194     -1.67242   0.11845709   -3.2257194    1.5532994   982348 
 3411000    1.1574526   -3.2248083   -1.6718958   0.11936271   -3.2248083    1.5529124   982546 
 3412000    1.1581608    -3.225266   -1.6717117   0.11719728    -3.225266    1.5535542   982741 
 3413000    1.1588149   -3.2245872   -1.6704877   0.11645251   -3.2245872    1.5540995   982951 
 3414000    1.1597862   -3.2254709   -1.6704168   0.11735149   -3.2254709    1.5550541   983171 
 3415000    1.1591393   -3.2237772   -1.6698891    0.1204819   -3.2237772     1.553888   983360 
 3416000     1.159852   -3.2248611   -1.6703133   0.11383037   -3.2248611    1.5545479   983547 
 3417000     1.159597   -3.2239143    -1.670021   0.11844606   -3.2239143    1.5538933   983745 
 3418000    1.1601668   -3.2227597   -1.6683748   0.12380096   -3.2227597    1.5543849   983917 
 3419000    1.1613019   -3.2239992   -1.6683764   0.12138717   -3.2239992    1.5556228   984096 
 3420000    1.1615482   -3.2233494   -1.6676655   0.11750722   -3.2233494     1.555684   984266 
 3421000    1.1616869   -3.2235621   -1.6679879   0.11618012   -3.2235621    1.5555742   984453 
 3422000    1.1606674   -3.2224183   -1.6685108    0.1181789   -3.2224183    1.5539075   984644 
 3423000    1.1611069   -3.2226338   -1.6684503   0.11899435   -3.2226338    1.5541834   984842 
 3424000    1.1609585   -3.2220943   -1.6684298    0.1177839   -3.2220943    1.5536645   985045 
 3425000    1.1615503   -3.2234868   -1.6693016   0.11435098   -3.2234868    1.5541852   985217 
 3426000    1.1613313   -3.2223773   -1.6688163    0.1187349   -3.2223773    1.5535609   985427 
 3427000    1.1623528    -3.223424   -1.6687726   0.11574018    -3.223424    1.5546514   985602 
 3428000    1.1634639   -3.2237935   -1.6679622   0.11521913   -3.2237935    1.5558313   985796 
 3429000    1.1631632    -3.222923   -1.6677873   0.11357694    -3.222923    1.5551357   985982 
 3430000    1.1624535   -3.2214613   -1.6675692   0.11828119   -3.2214613    1.5538921   986169 
 3431000    1.1630142   -3.2216967   -1.6673718   0.11791043   -3.2216967    1.5543248   986370 
 3432000    1.1639101   -3.2221532   -1.6668865   0.11683941   -3.2221532    1.5552667   986532 
 3433000    1.1641802   -3.2223168   -1.6669855   0.11817581   -3.2223168    1.5553312   986720 
 3434000    1.1652152   -3.2233047   -1.6668636   0.11628587   -3.2233047    1.5564411   986893 
 3435000     1.164533   -3.2223853   -1.6671313   0.12099178   -3.2223853    1.5552541   987068 
 3436000    1.1644077   -3.2214875   -1.6667032   0.11607621   -3.2214875    1.5547843   987260 
 3437000    1.1657099   -3.2229426   -1.6667127   0.11715683   -3.2229426    1.5562299   987446 
 3438000    1.1669309   -3.2246969   -1.6671303   0.11835794   -3.2246969    1.5575666   987632 
 3439000    1.1655168   -3.2220301   -1.6666691   0.12163383   -3.2220301     1.555361   987834 
 3440000    1.1662801   -3.2216335   -1.6655516   0.11953784   -3.2216335    1.5560819   988023 
 3441000    1.1671592   -3.2226464   -1.6656831   0.11931349   -3.2226464    1.5569633   988208 
 3442000    1.1686861   -3.2235947   -1.6648896   0.12361731   -3.2235947    1.5587051   988395 
 3443000    1.1690845   -3.2234526   -1.6645126   0.12529778   -3.2234526    1.5589399   988583 
 3444000    1.1704568   -3.2245416   -1.6640511   0.12189111   -3.2245416    1.5604905   988760 
 3445000    1.1698188   -3.2238026    -1.664423   0.12675886   -3.2238026    1.5593796   988925 
 3446000    1.1692053    -3.222144    -1.663891   0.12432829    -3.222144     1.558253   989121 
 3447000    1.1703211   -3.2241301   -1.6646849   0.12047276   -3.2241301    1.5594452   989308 
 3448000    1.1698432   -3.2230368   -1.6645338   0.12442313   -3.2230368    1.5585029   989502 
 3449000    1.1700109   -3.2233419   -1.6648991    0.1234233   -3.2233419    1.5584428   989682 
 3450000     1.170149   -3.2224913   -1.6641527   0.12147765   -3.2224913    1.5583386   989865 
 3451000    1.1711256   -3.2239025   -1.6645123   0.12384876   -3.2239025    1.5593903   990023 
 3452000    1.1713577   -3.2229519   -1.6635551   0.12265328   -3.2229519    1.5593968   990215 
 3453000    1.1704543   -3.2219805   -1.6640663   0.12579888   -3.2219805    1.5579142   990393 
 3454000    1.1713014   -3.2226208   -1.6638813   0.12290501   -3.2226208    1.5587395   990585 
 3455000    1.1701238     -3.22026    -1.663361   0.12550961     -3.22026     1.556899   990759 
 3456000    1.1710763   -3.2204246   -1.6625838   0.12505876   -3.2204246    1.5578408   990966 
 3457000    1.1722342   -3.2216008   -1.6625359   0.12158851   -3.2216008    1.5590649   991167 
 3458000     1.172121   -3.2205516   -1.6619077   0.12394888   -3.2205516    1.5586439   991339 
 3459000    1.1732927   -3.2208854   -1.6610013   0.12699068   -3.2208854    1.5598841   991541 
 3460000    1.1720285   -3.2197095   -1.6617796   0.12118421   -3.2197095      1.55793   991715 
 3461000    1.1743043   -3.2219749   -1.6613032   0.11937232   -3.2219749    1.5606718   991895 
 3462000    1.1743565   -3.2218462   -1.6613646   0.11807399   -3.2218462    1.5604816   992060 
 3463000    1.1748749   -3.2208098   -1.6599225    0.1222773   -3.2208098    1.5608873   992240 
 3464000    1.1742627   -3.2192529   -1.6594918   0.12251805   -3.2192529    1.5597611   992439 
 3465000    1.1755323   -3.2200634   -1.6588819   0.12158902   -3.2200634    1.5611815   992608 
 3466000      1.17511   -3.2191072   -1.6587065   0.12223466   -3.2191072    1.5604007   992748 
 3467000    1.1763721   -3.2196985   -1.6579161   0.12236952   -3.2196985    1.5617824   992935 
 3468000    1.1759141   -3.2189447   -1.6580738    0.1196417   -3.2189447    1.5608709   993128 
 3469000    1.1768841   -3.2191111   -1.6572263     0.119336   -3.2191111    1.5618849   993302 
 3470000    1.1759494   -3.2178703   -1.6575259   0.12313731   -3.2178703    1.5603443   993493 
 3471000    1.1773267   -3.2184861   -1.6566129   0.12432393   -3.2184861    1.5618732   993683 
 3472000    1.1770232   -3.2184787   -1.6572941   0.12317496   -3.2184787    1.5611846   993865 
 3473000    1.1776243    -3.218692   -1.6569772   0.12380714    -3.218692    1.5617148   994035 
 3474000    1.1781441   -3.2191154   -1.6569926   0.11827191   -3.2191154    1.5621228   994214 
 3475000    1.1775789   -3.2185155   -1.6574185   0.12226831   -3.2185155     1.561097   994390 
 3476000    1.1781662   -3.2189596   -1.6573525   0.12151178   -3.2189596    1.5616071   994561 
 3477000    1.1774108   -3.2170301   -1.6566927   0.12369144   -3.2170301    1.5603375   994732 
 3478000    1.1783685   -3.2179283   -1.6565963   0.12607183   -3.2179283     1.561332   994907 
 3479000    1.1790445    -3.218458   -1.6564894   0.12440338    -3.218458    1.5619686   995072 
 3480000    1.1795095   -3.2183017   -1.6559635   0.12195839   -3.2183017    1.5623381   995229 
 3481000    1.1803715   -3.2188622   -1.6556445   0.12434784   -3.2188622    1.5632177   995396 
 3482000    1.1812639   -3.2188789   -1.6547417   0.12393475   -3.2188789    1.5641371   995563 
 3483000    1.1805786    -3.218546   -1.6556115   0.12377805    -3.218546    1.5629345   995751 
 3484000    1.1802405   -3.2174385   -1.6552214   0.12285586   -3.2174385    1.5622171   995923 
 3485000    1.1818493   -3.2190425   -1.6549503   0.12319068   -3.2190425    1.5640922   996085 
 3486000    1.1811727   -3.2185592    -1.655645   0.12579361   -3.2185592    1.5629143   996265 
 3487000    1.1812746    -3.218129    -1.655301   0.12458943    -3.218129     1.562828   996406 
 3488000    1.1817154    -3.219075   -1.6559055   0.12159243    -3.219075    1.5631695   996560 
 3489000    1.1823949   -3.2189885    -1.655223   0.12338937   -3.2189885    1.5637654   996753 
 3490000    1.1817812   -3.2179171   -1.6552219   0.12282707   -3.2179171    1.5626951   996918 
 3491000    1.1829325   -3.2185527   -1.6546207    0.1261111   -3.2185527     1.563932   997100 
 3492000    1.1825338   -3.2179874   -1.6548725   0.12645785   -3.2179874    1.5631149   997285 
 3493000    1.1823036   -3.2177428   -1.6551751   0.12849403   -3.2177428    1.5625677   997440 
 3494000    1.1831778   -3.2193306   -1.6558567   0.12432857   -3.2193306    1.5634739   997599 
 3495000     1.184003   -3.2194138   -1.6551067    0.1248005   -3.2194138    1.5643072   997763 
 3496000    1.1842233   -3.2192942     -1.65495   0.12461308   -3.2192942    1.5643442   997925 
 3497000    1.1846952    -3.218965   -1.6542844   0.12377888    -3.218965    1.5646807   998108 
 3498000    1.1840488   -3.2181132   -1.6545589   0.12538337   -3.2181132    1.5635543   998282 
 3499000    1.1856807   -3.2192887    -1.653871   0.12557613   -3.2192887    1.5654177   998468 
 3500000    1.1849641   -3.2184563    -1.654262   0.12730168   -3.2184563    1.5641943   998645 
 3501000    1.1856675   -3.2185781   -1.6537453   0.12757107   -3.2185781    1.5648329   998830 
 3502000    1.1859657   -3.2189082   -1.6539731   0.12408703   -3.2189082    1.5649351   999016 
 3503000    1.1862154   -3.2186414    -1.653626   0.12552748   -3.2186414    1.5650155   999175 
 3504000    1.1877307   -3.2195638   -1.6528393   0.12524659   -3.2195638    1.5667245   999360 
 3505000    1.1877908   -3.2192112   -1.6526817   0.12816192   -3.2192112    1.5665294   999535 
 3506000    1.1882306    -3.219758   -1.6528806   0.12928131    -3.219758    1.5668775   999683 
 3507000    1.1889991   -3.2202213   -1.6525718   0.13064116   -3.2202213    1.5676495   999837 
 3508000    1.1882631   -3.2189269   -1.6525049   0.12590024   -3.2189269    1.5664221  1000001 
 3509000    1.1880465   -3.2168705   -1.6509938   0.13064957   -3.2168705    1.5658767  1000167 
 3510000     1.189517   -3.2188872   -1.6513076   0.12882963   -3.2188872    1.5675797  1000317 
 3511000    1.1890838   -3.2179316   -1.6511875   0.12639081   -3.2179316    1.5667441  1000486 
 3512000    1.1896288   -3.2190816   -1.6518731    0.1261634   -3.2190816    1.5672085  1000648 
 3513000    1.1889667   -3.2176958   -1.6516319     0.129291   -3.2176958    1.5660639  1000822 
 3514000    1.1906589   -3.2189641   -1.6509173   0.13006882   -3.2189641    1.5680469  1000979 
 3515000    1.1906779   -3.2184164   -1.6506171   0.12877457   -3.2184164    1.5677993  1001153 
 3516000     1.189407   -3.2179576   -1.6520867   0.12650909   -3.2179576    1.5658709  1001316 
 3517000    1.1897892    -3.218123   -1.6520288   0.12990762    -3.218123    1.5660942  1001495 
 3518000    1.1900503   -3.2182438   -1.6520562    0.1273424   -3.2182438    1.5661876  1001655 
 3519000    1.1904597   -3.2183695   -1.6518824   0.12340932   -3.2183695    1.5664871  1001808 
 3520000     1.191228   -3.2191526   -1.6519268   0.12850126   -3.2191526    1.5672258  1001982 
 3521000    1.1912132   -3.2179639   -1.6510328   0.13004188   -3.2179639    1.5669312  1002158 
 3522000    1.1906981    -3.217825   -1.6518135    0.1255791    -3.217825    1.5660114  1002313 
 3523000    1.1922646   -3.2189503   -1.6511415   0.13109962   -3.2189503    1.5678089  1002481 
 3524000    1.1914584   -3.2178933   -1.6513837   0.12942737   -3.2178933    1.5665096  1002634 
 3525000    1.1922156   -3.2181246   -1.6508742   0.13026166   -3.2181246    1.5672505  1002797 
 3526000     1.193027   -3.2188462   -1.6508106   0.12768727   -3.2188462    1.5680356  1002977 
 3527000    1.1937506   -3.2186558   -1.6499006   0.12612118   -3.2186558    1.5687553  1003125 
 3528000     1.193892   -3.2180402   -1.6493729   0.13269914   -3.2180402    1.5686673  1003300 
 3529000    1.1954398   -3.2194371   -1.6490209   0.12930666   -3.2194371    1.5704161  1003482 
 3530000    1.1956694   -3.2190573   -1.6485916   0.12726394   -3.2190573    1.5704658  1003643 
 3531000    1.1948829   -3.2179182   -1.6487653   0.13554972   -3.2179182    1.5691529  1003822 
 3532000    1.1944129   -3.2181966   -1.6499171   0.13108465   -3.2181966    1.5682795  1003986 
 3533000    1.1944406    -3.218343   -1.6502646   0.13122844    -3.218343    1.5680784  1004138 
 3534000    1.1948344   -3.2188175   -1.6504455   0.12740861   -3.2188175     1.568372  1004281 
 3535000    1.1952016   -3.2180663   -1.6494668   0.13082303   -3.2180663    1.5685995  1004444 
 3536000    1.1962603   -3.2192242   -1.6494993   0.13155522   -3.2192242    1.5697248  1004613 
 3537000    1.1956371   -3.2191387   -1.6504798   0.12967495   -3.2191387    1.5686588  1004772 
 3538000    1.1965531   -3.2194033   -1.6498051   0.12863428   -3.2194033    1.5695982  1004940 
 3539000    1.1956729   -3.2180861   -1.6499172   0.12977205   -3.2180861    1.5681689  1005116 
 3540000    1.1980774   -3.2206198   -1.6495739   0.12616345   -3.2206198    1.5710458  1005293 
 3541000    1.1973509   -3.2188276   -1.6490233    0.1308564   -3.2188276    1.5698043  1005478 
 3542000    1.1970403   -3.2190098   -1.6498843   0.13167736   -3.2190098    1.5691255  1005652 
 3543000    1.1985043   -3.2199328    -1.649146   0.13056669   -3.2199328    1.5707868  1005817 
 3544000    1.1977862   -3.2183477   -1.6487596   0.13180818   -3.2183477    1.5695881  1005982 
 3545000    1.1994567   -3.2199323   -1.6483894   0.13298015   -3.2199323    1.5715429  1006132 
 3546000    1.1985806   -3.2183896   -1.6482645   0.13392168   -3.2183896    1.5701251  1006305 
 3547000    1.1997467   -3.2193581   -1.6479726   0.13257387   -3.2193581    1.5713855  1006476 
 3548000    1.2005824   -3.2205297   -1.6483401   0.12964102   -3.2205297    1.5721896  1006662 
 3549000    1.1995374   -3.2183752   -1.6478052   0.13827083   -3.2183752      1.57057  1006823 
 3550000    1.2024259   -3.2207429   -1.6466568   0.13260088   -3.2207429    1.5740862  1006993 
 3551000    1.2005571   -3.2188586   -1.6474763   0.13301358   -3.2188586    1.5713823  1007158 
 3552000    1.2002779   -3.2172659   -1.6464846   0.13375936   -3.2172659    1.5707813  1007309 
 3553000    1.2020974   -3.2192611   -1.6463859    0.1343404   -3.2192611    1.5728751  1007493 
 3554000    1.2021414   -3.2189966    -1.646323   0.13181348   -3.2189966    1.5726736  1007659 
 3555000    1.2011451   -3.2177772   -1.6466596   0.13094769   -3.2177772    1.5711175  1007821 
 3556000    1.2017992   -3.2180871   -1.6463448   0.13498743   -3.2180871    1.5717423  1007969 
 3557000    1.2020736   -3.2186033    -1.646736   0.13455351   -3.2186033    1.5718673  1008119 
 3558000    1.2011934   -3.2172894   -1.6468472   0.13676062   -3.2172894    1.5704422  1008295 
 3559000    1.2029703   -3.2195688   -1.6470156   0.12930217   -3.2195688    1.5725532  1008431 
 3560000    1.2027912   -3.2190415   -1.6469766   0.13433659   -3.2190415    1.5720649  1008594 
 3561000    1.2017794   -3.2179211   -1.6474573   0.12953666   -3.2179211    1.5704638  1008773 
 3562000    1.2020103   -3.2181669   -1.6476241   0.13365393   -3.2181669    1.5705429  1008916 
 3563000    1.2036237   -3.2190616   -1.6467192    0.1285799   -3.2190616    1.5723424  1009114 
 3564000    1.2037513   -3.2182847   -1.6460234   0.12674338   -3.2182847    1.5722613  1009273 
 3565000    1.2048713   -3.2191139   -1.6456205   0.12855451   -3.2191139    1.5734935  1009421 
 3566000     1.203708   -3.2180688   -1.6463374   0.12963882   -3.2180688    1.5717314  1009577 
 3567000    1.2031136   -3.2170088   -1.6462962   0.13340336   -3.2170088    1.5707126  1009733 
 3568000    1.2029129   -3.2166691   -1.6464906    0.1305469   -3.2166691    1.5701784  1009908 
 3569000    1.2048007   -3.2186264   -1.6462454   0.13480723   -3.2186264     1.572381  1010076 
 3570000    1.2046564    -3.216714   -1.6447672   0.13201581    -3.216714    1.5719468  1010234 
 3571000    1.2055358    -3.218384   -1.6455295   0.13249959    -3.218384    1.5728545  1010388 
 3572000    1.2064817   -3.2182876   -1.6444373   0.13464628   -3.2182876    1.5738503  1010541 
 3573000    1.2060901   -3.2171825    -1.644061   0.13431639   -3.2171825    1.5731215  1010681 
 3574000    1.2074701   -3.2184182   -1.6437288   0.13480101   -3.2184182    1.5746894  1010830 
 3575000    1.2064629   -3.2166892   -1.6435531   0.13898491   -3.2166892    1.5731361  1010984 
 3576000    1.2075475   -3.2184484   -1.6441503   0.13304129   -3.2184484    1.5742982  1011146 
 3577000    1.2075103   -3.2174221   -1.6434433   0.13907246   -3.2174221    1.5739788  1011320 
 3578000     1.208969   -3.2184526   -1.6428233   0.13632138   -3.2184526    1.5756293  1011481 
 3579000    1.2095489   -3.2190024   -1.6428619   0.13751609   -3.2190024    1.5761405  1011638 
 3580000    1.2087138   -3.2178108   -1.6429843   0.13284754   -3.2178108    1.5748265  1011783 
 3581000    1.2100791   -3.2192835    -1.642957   0.13472648   -3.2192835    1.5763266  1011962 
 3582000    1.2095325   -3.2189016   -1.6435206   0.13469871   -3.2189016     1.575381  1012112 
 3583000    1.2109577   -3.2193482   -1.6423416    0.1362431   -3.2193482    1.5770067  1012260 
 3584000     1.210307   -3.2182438   -1.6423149   0.13265457   -3.2182438    1.5759289  1012408 
 3585000    1.2108562    -3.218991   -1.6425619   0.13897647    -3.218991    1.5764291  1012546 
 3586000    1.2114591   -3.2193269   -1.6423465   0.13806596   -3.2193269    1.5769804  1012696 
 3587000    1.2103954   -3.2179379   -1.6425428   0.13778536   -3.2179379    1.5753951  1012825 
 3588000     1.212003   -3.2186361   -1.6413807   0.13747686   -3.2186361    1.5772554  1012974 
 3589000    1.2107129   -3.2172516   -1.6418758   0.14224696   -3.2172516    1.5753758  1013103 
 3590000    1.2113543   -3.2173869   -1.6414362   0.13517357   -3.2173869    1.5759507  1013270 
 3591000    1.2126986   -3.2187595   -1.6413042   0.13757261   -3.2187595    1.5774553  1013427 
 3592000    1.2119613   -3.2177936    -1.641537   0.13635719   -3.2177936    1.5762566  1013581 
 3593000    1.2114445   -3.2179294   -1.6425563   0.13713857   -3.2179294    1.5753731  1013717 
 3594000    1.2117008   -3.2178606   -1.6423532   0.13266884   -3.2178606    1.5755074  1013845 
 3595000    1.2120122   -3.2168687   -1.6411941   0.13811682   -3.2168687    1.5756746  1013998 
 3596000    1.2118702   -3.2178725   -1.6425861   0.13274046   -3.2178725    1.5752865  1014129 
 3597000    1.2117808   -3.2174588   -1.6425154   0.13249825   -3.2174588    1.5749434  1014275 
 3598000    1.2117137   -3.2172532   -1.6426453   0.13565657   -3.2172532    1.5746079  1014435 
 3599000     1.212328   -3.2166779   -1.6414891   0.13567723   -3.2166779    1.5751888  1014575 
 3600000      1.21276   -3.2168924   -1.6413581   0.13436671   -3.2168924    1.5755343  1014714 
 3601000    1.2136006   -3.2173363   -1.6409772   0.13386689   -3.2173363    1.5763591  1014886 
 3602000    1.2129224   -3.2163312   -1.6410829   0.13523823   -3.2163312    1.5752484  1015034 
 3603000    1.2131301   -3.2168853   -1.6415984   0.13593789   -3.2168853     1.575287  1015183 
 3604000      1.21458   -3.2183407   -1.6414134   0.13103003   -3.2183407    1.5769273  1015339 
 3605000    1.2142196    -3.218506   -1.6422701   0.13153997    -3.218506    1.5762359  1015483 
 3606000    1.2151326   -3.2186727   -1.6415297   0.13213966   -3.2186727     1.577143  1015662 
 3607000     1.215406    -3.219288   -1.6420199   0.13312735    -3.219288    1.5772681  1015810 
 3608000    1.2157486   -3.2182305   -1.6407492    0.1344908   -3.2182305    1.5774813  1015959 
 3609000    1.2154225   -3.2175379   -1.6407079   0.13634895   -3.2175379      1.57683  1016106 
 3610000    1.2168741   -3.2181971   -1.6397075   0.13627324   -3.2181971    1.5784895  1016250 
 3611000    1.2173455   -3.2182698   -1.6393971   0.13960469   -3.2182698    1.5788727  1016397 
 3612000    1.2171989   -3.2187563   -1.6403083    0.1376956   -3.2187563     1.578448  1016548 
 3613000    1.2184162   -3.2197362   -1.6399442   0.13779754   -3.2197362     1.579792  1016699 
 3614000    1.2178966   -3.2191316   -1.6402323   0.13692391   -3.2191316    1.5788993  1016840 
 3615000     1.219142   -3.2201591   -1.6398893   0.13589842   -3.2201591    1.5802698  1016997 
 3616000    1.2178721   -3.2189937   -1.6405717   0.14015946   -3.2189937     1.578422  1017127 
 3617000    1.2184017   -3.2194008   -1.6405393   0.14076767   -3.2194008    1.5788616  1017286 
 3618000    1.2190521   -3.2204935   -1.6410266   0.13402176   -3.2204935    1.5794669  1017439 
 3619000    1.2182383   -3.2192827   -1.6411169   0.14061419   -3.2192827    1.5781658  1017598 
 3620000     1.220358   -3.2214596   -1.6407606   0.13841414   -3.2214596     1.580699  1017735 
 3621000    1.2185681   -3.2188828   -1.6407085   0.14009275   -3.2188828    1.5781743  1017868 
 3622000    1.2188817   -3.2191291   -1.6407952   0.14106163   -3.2191291    1.5783339  1018027 
 3623000     1.220371    -3.220921   -1.6408976   0.14252016    -3.220921    1.5800234  1018181 
 3624000    1.2202406   -3.2202163   -1.6405944   0.13789409   -3.2202163    1.5796219  1018331 
 3625000    1.2202478   -3.2200841   -1.6407305   0.14132258   -3.2200841    1.5793536  1018510 
 3626000     1.221573    -3.220799   -1.6399833   0.14110017    -3.220799    1.5808157  1018673 
 3627000    1.2217315   -3.2207337    -1.639913    0.1417505   -3.2207337    1.5808206  1018802 
 3628000    1.2226338   -3.2218235   -1.6400558   0.13866488   -3.2218235    1.5817677  1018944 
 3629000    1.2230852   -3.2219614    -1.639869   0.13853496   -3.2219614    1.5820924  1019111 
 3630000    1.2224302    -3.220982   -1.6399447   0.14265458    -3.220982    1.5810373  1019245 
 3631000    1.2221114   -3.2205376   -1.6401421   0.14593142   -3.2205376    1.5803955  1019393 
 3632000      1.22247   -3.2207416   -1.6401088   0.14171654   -3.2207416    1.5806328  1019539 
 3633000    1.2238473   -3.2221109   -1.6399363   0.13703364   -3.2221109    1.5821746  1019693 
 3634000    1.2232049   -3.2210209   -1.6399311   0.14072282   -3.2210209    1.5810898  1019857 
 3635000     1.224253   -3.2221578   -1.6399427   0.13554152   -3.2221578     1.582215  1020005 
 3636000    1.2214538   -3.2187262   -1.6403733   0.14022309   -3.2187262    1.5783529  1020163 
 3637000    1.2216785   -3.2190574   -1.6406417   0.13741643   -3.2190574    1.5784157  1020310 
 3638000     1.222935   -3.2204346   -1.6406091    0.1389725   -3.2204346    1.5798255  1020448 
 3639000    1.2236648   -3.2204971   -1.6399952   0.13684244   -3.2204971    1.5805019  1020620 
 3640000    1.2236888    -3.220366    -1.640073   0.14005617    -3.220366     1.580293  1020775 
 3641000    1.2245294   -3.2209356   -1.6397708   0.13740254   -3.2209356    1.5811648  1020913 
 3642000    1.2227534   -3.2193742   -1.6407223   0.13815568   -3.2193742    1.5786518  1021055 
 3643000    1.2225495   -3.2193549   -1.6411749   0.14092237   -3.2193549      1.57818  1021190 
 3644000    1.2233338   -3.2200447    -1.641078   0.13695541   -3.2200447    1.5789667  1021336 
 3645000    1.2246618   -3.2205588   -1.6401071   0.14219614   -3.2205588    1.5804518  1021484 
 3646000    1.2251453   -3.2204747   -1.6396079   0.14247269   -3.2204747    1.5808668  1021619 
 3647000    1.2252739   -3.2197005    -1.638886   0.14370873   -3.2197005    1.5808145  1021760 
 3648000    1.2242664   -3.2184268   -1.6391425   0.14455735   -3.2184268    1.5792843  1021909 
 3649000    1.2259542   -3.2204144   -1.6391508   0.14223646   -3.2204144    1.5812636  1022037 
 3650000    1.2265727   -3.2212353    -1.639383   0.13894044   -3.2212353    1.5818524  1022172 
 3651000    1.2269682   -3.2226246   -1.6404897   0.13932686   -3.2226246    1.5821349  1022319 
 3652000    1.2256714   -3.2208082   -1.6405666    0.1418619   -3.2208082    1.5802416  1022462 
 3653000    1.2277743   -3.2221252   -1.6393999   0.14104361   -3.2221252    1.5827253  1022609 
 3654000    1.2274999    -3.221673   -1.6395179   0.14633878    -3.221673    1.5821551  1022749 
 3655000    1.2281911   -3.2214805   -1.6386884   0.14290029   -3.2214805    1.5827921  1022913 
 3656000    1.2283241   -3.2212632   -1.6385147   0.14041522   -3.2212632    1.5827485  1023052 
 3657000     1.228369    -3.220623   -1.6380224   0.14161479    -3.220623    1.5826006  1023185 
 3658000     1.228136   -3.2201477   -1.6380886   0.14806577   -3.2201477    1.5820591  1023341 
 3659000    1.2298885   -3.2220714   -1.6380195   0.14180888   -3.2220714     1.584052  1023512 
 3660000    1.2295053   -3.2214824   -1.6381266   0.14431009   -3.2214824    1.5833558  1023643 
 3661000    1.2300187   -3.2218438   -1.6380512   0.14345538   -3.2218438    1.5837926  1023788 
 3662000    1.2293703   -3.2220339    -1.639285   0.14509369   -3.2220339    1.5827489  1023923 
 3663000    1.2297051   -3.2221714    -1.639217   0.14240249   -3.2221714    1.5829544  1024069 
 3664000    1.2297511   -3.2221111   -1.6393202   0.14104514   -3.2221111    1.5827909  1024213 
 3665000    1.2307143   -3.2233205   -1.6395079   0.14282228   -3.2233205    1.5838126  1024354 
 3666000    1.2295752    -3.222363   -1.6402618     0.141712    -3.222363    1.5821012  1024513 
 3667000    1.2299419   -3.2223129   -1.6399917   0.14176631   -3.2223129    1.5823213  1024676 
 3668000    1.2311156   -3.2232218   -1.6396009   0.14522291   -3.2232218     1.583621  1024812 
 3669000    1.2302488   -3.2229947    -1.640697    0.1412177   -3.2229947    1.5822976  1024947 
 3670000    1.2304994   -3.2221784   -1.6397761   0.14525695   -3.2221784    1.5824022  1025088 
 3671000     1.230519   -3.2224231   -1.6402457   0.13972947   -3.2224231    1.5821774  1025250 
 3672000    1.2319151   -3.2232979   -1.6395385   0.14449977   -3.2232979    1.5837593  1025388 
 3673000    1.2329971    -3.224366   -1.6394352   0.13719841    -3.224366    1.5849308  1025530 
 3674000    1.2318908    -3.223181   -1.6398497   0.14467458    -3.223181    1.5833313  1025645 
 3675000     1.232633   -3.2232871   -1.6391857   0.14880952   -3.2232871    1.5841014  1025764 
 3676000    1.2334921   -3.2240078    -1.639045   0.14599788   -3.2240078    1.5849629  1025921 
 3677000    1.2337923   -3.2234386   -1.6383512   0.14787473   -3.2234386    1.5850874  1026090 
 3678000    1.2329472   -3.2224224   -1.6386182    0.1448721   -3.2224224    1.5838042  1026218 
 3679000    1.2334869   -3.2232289   -1.6389461   0.14443605   -3.2232289    1.5842828  1026357 
 3680000    1.2340522    -3.223807   -1.6390313   0.14533336    -3.223807    1.5847757  1026508 
 3681000    1.2333013   -3.2225297   -1.6389126    0.1478153   -3.2225297    1.5836171  1026634 
 3682000    1.2348807   -3.2236331   -1.6382459   0.14923721   -3.2236331    1.5853873  1026801 
 3683000    1.2353711    -3.223089   -1.6372854   0.14588178    -3.223089    1.5858037  1026939 
 3684000    1.2362611   -3.2244077    -1.637681   0.14227012   -3.2244077    1.5867267  1027081 
 3685000    1.2354889   -3.2236206   -1.6381134   0.14665191   -3.2236206    1.5855071  1027229 
 3686000    1.2364446   -3.2244034   -1.6378675   0.14663946   -3.2244034    1.5865359  1027357 
 3687000    1.2357593   -3.2232848   -1.6378195   0.14544883   -3.2232848    1.5854653  1027481 
 3688000    1.2368505    -3.224405   -1.6377513   0.14512809    -3.224405    1.5866537  1027618 
 3689000    1.2373296   -3.2243952   -1.6373354   0.14730886   -3.2243952    1.5870598  1027753 
 3690000    1.2375248   -3.2242208   -1.6371222   0.14697717   -3.2242208    1.5870985  1027890 
 3691000    1.2378635   -3.2242229   -1.6369231   0.14802352   -3.2242229    1.5872997  1028041 
 3692000    1.2376305    -3.223724   -1.6369083   0.14294262    -3.223724    1.5868157  1028161 
 3693000    1.2377373   -3.2236456   -1.6368997   0.14649811   -3.2236456    1.5867458  1028295 
 3694000    1.2382583   -3.2245399   -1.6373298   0.14641435   -3.2245399    1.5872101  1028427 
 3695000    1.2374612   -3.2239596    -1.637961   0.14364842   -3.2239596    1.5859986  1028550 
 3696000    1.2371714    -3.223899   -1.6384521   0.14295093    -3.223899    1.5854469  1028667 
 3697000    1.2363447   -3.2229899   -1.6387827   0.15035261   -3.2229899    1.5842073  1028784 
 3698000    1.2365974   -3.2230146   -1.6386591   0.14618659   -3.2230146    1.5843555  1028898 
 3699000    1.2368178   -3.2232731   -1.6388662   0.14374146   -3.2232731    1.5844069  1029048 
 3700000    1.2382155   -3.2245056   -1.6385271   0.14571423   -3.2245056    1.5859785  1029190 
 3701000    1.2371805   -3.2225639   -1.6381066   0.14868687   -3.2225639    1.5844574  1029317 
 3702000     1.238773   -3.2242056   -1.6379045   0.14372276   -3.2242056    1.5863011  1029444 
 3703000     1.239455   -3.2243132    -1.637353   0.14614415   -3.2243132    1.5869602  1029583 
 3704000    1.2390878   -3.2238666   -1.6376139   0.14380795   -3.2238666    1.5862527  1029737 
 3705000     1.238561   -3.2221426   -1.6367491   0.15154136   -3.2221426    1.5853936  1029857 
 3706000    1.2405611   -3.2240763   -1.6363044   0.14656305   -3.2240763    1.5877719  1029975 
 3707000    1.2397244   -3.2234324   -1.6369301   0.14639463   -3.2234324    1.5865023  1030104 
 3708000    1.2409773   -3.2257749   -1.6378774   0.14635599   -3.2257749    1.5878975  1030239 
 3709000    1.2398883   -3.2239009   -1.6376262   0.15083423   -3.2239009    1.5862747  1030388 
 3710000    1.2412934   -3.2255811   -1.6377076    0.1484916   -3.2255811    1.5878735  1030517 
 3711000    1.2410017   -3.2244362   -1.6371668   0.14839303   -3.2244362    1.5872694  1030667 
 3712000    1.2418412   -3.2252247   -1.6370757   0.14641131   -3.2252247     1.588149  1030793 
 3713000    1.2422847   -3.2251252   -1.6366156   0.14873291   -3.2251252    1.5885096  1030927 
 3714000    1.2421708    -3.224171   -1.6360026    0.1496314    -3.224171    1.5881684  1031054 
 3715000    1.2428716   -3.2251441   -1.6362754   0.15088294   -3.2251441    1.5888687  1031181 
 3716000    1.2428094   -3.2252789   -1.6366992   0.14661658   -3.2252789    1.5885796  1031317 
 3717000    1.2425466   -3.2250834   -1.6370337   0.15068347   -3.2250834    1.5880497  1031443 
 3718000     1.244353   -3.2268396   -1.6366817   0.15090873   -3.2268396    1.5901579  1031573 
 3719000    1.2442464   -3.2264197   -1.6365984   0.14538832   -3.2264197    1.5898213  1031703 
 3720000     1.243483   -3.2256604   -1.6369978    0.1499074   -3.2256604    1.5886626  1031822 
 3721000    1.2435308   -3.2253766   -1.6368746   0.15271806   -3.2253766    1.5885021  1031966 
 3722000    1.2445478   -3.2269767   -1.6373727   0.15191885   -3.2269767     1.589604  1032094 
 3723000    1.2443603   -3.2273017   -1.6380804   0.14858915   -3.2273017    1.5892213  1032187 
 3724000    1.2448457   -3.2269649    -1.637333   0.14524052   -3.2269649    1.5896318  1032323 
 3725000    1.2439019   -3.2256122   -1.6374133   0.14915724   -3.2256122    1.5881989  1032471 
 3726000    1.2448585   -3.2275059   -1.6382796   0.14798605   -3.2275059    1.5892264  1032597 
 3727000    1.2440321   -3.2270871   -1.6391388   0.14778119   -3.2270871    1.5879483  1032742 
 3728000    1.2435089   -3.2257156   -1.6386363   0.15060653   -3.2257156    1.5870792  1032873 
 3729000    1.2443825   -3.2268061   -1.6388134   0.14803712   -3.2268061    1.5879928  1033004 
 3730000    1.2454962   -3.2283834   -1.6391494   0.14900657   -3.2283834     1.589234  1033121 
 3731000    1.2456052   -3.2282912   -1.6391443   0.14712492   -3.2282912     1.589147  1033268 
 3732000    1.2450431   -3.2272897    -1.639075    0.1484341   -3.2272897    1.5882147  1033408 
 3733000    1.2457433   -3.2271699   -1.6382543     0.147025   -3.2271699    1.5889156  1033533 
 3734000    1.2460289    -3.227613   -1.6384975   0.14561943    -3.227613    1.5891154  1033640 
 3735000    1.2465192   -3.2276684     -1.63814   0.14768849   -3.2276684    1.5895285  1033778 
 3736000     1.247093   -3.2287515   -1.6386897   0.14703471   -3.2287515    1.5900618  1033907 
 3737000    1.2463367   -3.2272775   -1.6383767   0.15409974   -3.2272775    1.5889008  1034035 
 3738000    1.2465474   -3.2265507   -1.6375581   0.15551875   -3.2265507    1.5889926  1034150 
 3739000    1.2475383   -3.2279004   -1.6378183   0.15066615   -3.2279004     1.590082  1034263 
 3740000    1.2476749   -3.2278654   -1.6377846   0.15007192   -3.2278654    1.5900809  1034377 
 3741000    1.2473939   -3.2276318   -1.6380811   0.15040169   -3.2276318    1.5895506  1034489 
 3742000    1.2482703   -3.2281365   -1.6376812    0.1515808   -3.2281365    1.5904553  1034627 
 3743000    1.2491237   -3.2282297   -1.6369194   0.15278237   -3.2282297    1.5913103  1034778 
 3744000    1.2486799   -3.2280958   -1.6375644   0.14671756   -3.2280958    1.5905314  1034917 
 3745000    1.2488577   -3.2285858   -1.6380324   0.14909613   -3.2285858    1.5905534  1035050 
 3746000    1.2494993   -3.2284091   -1.6372399   0.15061357   -3.2284091    1.5911692  1035181 
 3747000    1.2493437   -3.2288993   -1.6381173   0.15139273   -3.2288993     1.590782  1035304 
 3748000    1.2491463    -3.227661   -1.6373162   0.15131956    -3.227661    1.5903448  1035425 
 3749000    1.2495517   -3.2278664   -1.6371837   0.14978998   -3.2278664    1.5906827  1035541 
 3750000    1.2491738   -3.2278378   -1.6378434   0.15183518   -3.2278378    1.5899944  1035676 
 3751000    1.2497594   -3.2286944   -1.6381604   0.14907572   -3.2286944     1.590534  1035810 
 3752000    1.2490763   -3.2285779   -1.6391343   0.14441627   -3.2285779    1.5894436  1035954 
 3753000     1.249335   -3.2287929   -1.6391981   0.15317612   -3.2287929    1.5895948  1036070 
 3754000    1.2504551   -3.2292728   -1.6384157   0.14603698   -3.2292728    1.5908572  1036176 
 3755000     1.251024   -3.2292887   -1.6378998   0.15130526   -3.2292887     1.591389  1036301 
 3756000    1.2507252   -3.2285394   -1.6377178   0.15439397   -3.2285394    1.5908216  1036423 
 3757000    1.2512872   -3.2288633   -1.6374912    0.1517413   -3.2288633    1.5913721  1036530 
 3758000    1.2499223   -3.2267102   -1.6372794   0.15669775   -3.2267102    1.5894308  1036664 
 3759000    1.2511532   -3.2287863   -1.6379851    0.1575888   -3.2287863    1.5908012  1036791 
 3760000    1.2518807   -3.2286755   -1.6371734   0.15389534   -3.2286755     1.591502  1036937 
 3761000    1.2521794   -3.2294152   -1.6377008   0.15276894   -3.2294152    1.5917145  1037046 
 3762000    1.2522321   -3.2287143   -1.6371355   0.15399046   -3.2287143    1.5915788  1037178 
 3763000    1.2535235   -3.2301008   -1.6370603   0.15167361   -3.2301008    1.5930405  1037295 
 3764000    1.2534496   -3.2299599   -1.6372313   0.15085058   -3.2299599    1.5927286  1037437 
 3765000    1.2544618   -3.2306319   -1.6368091   0.14948375   -3.2306319    1.5938227  1037562 
 3766000    1.2527049   -3.2291605   -1.6377434   0.15227493   -3.2291605    1.5914172  1037675 
 3767000    1.2534815    -3.229668   -1.6374575   0.15619236    -3.229668    1.5922105  1037801 
 3768000    1.2521544   -3.2273035   -1.6369627    0.1557555   -3.2273035    1.5903408  1037921 
 3769000    1.2544224   -3.2287869   -1.6357758   0.15379647   -3.2287869    1.5930111  1038058 
 3770000    1.2529972   -3.2274058   -1.6363808   0.15563068   -3.2274058     1.591025  1038173 
 3771000    1.2529645   -3.2277224   -1.6369381   0.15461389   -3.2277224    1.5907843  1038303 
 3772000    1.2550183   -3.2294285   -1.6361918   0.15512297   -3.2294285    1.5932368  1038404 
 3773000    1.2537717   -3.2289497   -1.6375008   0.15299981   -3.2289497    1.5914489  1038538 
 3774000    1.2549261   -3.2292702   -1.6365493   0.15142157   -3.2292702    1.5927209  1038664 
 3775000    1.2543359   -3.2285769   -1.6368104   0.15311892   -3.2285769    1.5917666  1038798 
 3776000    1.2545405   -3.2289053    -1.637063   0.15365313   -3.2289053    1.5918423  1038918 
 3777000     1.255959    -3.230293   -1.6368318   0.15233478    -3.230293    1.5934612  1039036 
 3778000    1.2548957   -3.2284235   -1.6364752   0.15486007   -3.2284235    1.5919483  1039143 
 3779000    1.2558657   -3.2297469   -1.6367352   0.15552919   -3.2297469    1.5930117  1039252 
 3780000      1.25681   -3.2298238   -1.6358153   0.15157384   -3.2298238    1.5940086  1039383 
 3781000    1.2561092    -3.229303   -1.6363473   0.15653583    -3.229303    1.5929557  1039490 
 3782000    1.2575565   -3.2309748   -1.6363525     0.148149   -3.2309748    1.5946224  1039600 
 3783000    1.2568766   -3.2297642    -1.636194   0.15408057   -3.2297642    1.5935702  1039724 
 3784000     1.256633   -3.2291889   -1.6361313   0.15685107   -3.2291889    1.5930575  1039857 
 3785000    1.2577992   -3.2312609   -1.6369212   0.15707916   -3.2312609    1.5943397  1039985 
 3786000    1.2578978   -3.2300532   -1.6357832    0.1551061   -3.2300532      1.59427  1040112 
 3787000    1.2563442   -3.2285204   -1.6363848   0.15206186   -3.2285204    1.5921356  1040220 
 3788000    1.2564294   -3.2289102   -1.6368487   0.15317816   -3.2289102    1.5920616  1040339 
 3789000    1.2576215   -3.2296032    -1.636215   0.15399915   -3.2296032    1.5933883  1040459 
 3790000    1.2585002   -3.2305419   -1.6362135   0.15144155   -3.2305419    1.5943283  1040572 
 3791000    1.2576918   -3.2294927   -1.6363675   0.15786231   -3.2294927    1.5931252  1040689 
 3792000    1.2592389   -3.2307178   -1.6358169   0.15295462   -3.2307178    1.5949009  1040809 
 3793000    1.2598005   -3.2308441   -1.6354189   0.15428134   -3.2308441    1.5954252  1040931 
 3794000    1.2590093   -3.2302217   -1.6359669   0.15814617   -3.2302217    1.5942548  1041041 
 3795000    1.2588106   -3.2296529   -1.6358334   0.15956996   -3.2296529    1.5938195  1041161 
 3796000    1.2596572   -3.2316367   -1.6369398   0.15361303   -3.2316367    1.5946968  1041288 
 3797000    1.2598914   -3.2318608   -1.6370282   0.15361032   -3.2318608    1.5948326  1041393 
 3798000    1.2600432   -3.2316496    -1.636795   0.15178268   -3.2316496    1.5948547  1041504 
 3799000    1.2605423   -3.2319334   -1.6366292   0.15604206   -3.2319334    1.5953042  1041623 
 3800000     1.260037   -3.2310446   -1.6365789   0.15612432   -3.2310446    1.5944657  1041753 
 3801000    1.2607507   -3.2323786   -1.6371874   0.15616101   -3.2323786    1.5951912  1041869 
 3802000    1.2605143   -3.2308796   -1.6361712     0.156645   -3.2308796    1.5947084  1041989 
 3803000     1.261545    -3.231197   -1.6353593   0.15812427    -3.231197    1.5958377  1042103 
 3804000    1.2626906   -3.2327331   -1.6356224   0.15869542   -3.2327331    1.5971107  1042218 
 3805000    1.2625363    -3.232183   -1.6354344   0.15521376    -3.232183    1.5967485  1042327 
 3806000    1.2601748   -3.2302012   -1.6365923   0.15778459   -3.2302012    1.5936089  1042427 
 3807000    1.2621636   -3.2327781   -1.6368333   0.15380271   -3.2327781    1.5959448  1042544 
 3808000     1.260356   -3.2306011     -1.63711   0.15290074   -3.2306011    1.5934911  1042654 
 3809000    1.2616311   -3.2320397   -1.6371169   0.15402616   -3.2320397    1.5949228  1042772 
 3810000    1.2625968   -3.2336226   -1.6376611   0.15673416   -3.2336226    1.5959615  1042891 
 3811000    1.2618815   -3.2325993   -1.6377103   0.15786231   -3.2325993     1.594889  1043001 
 3812000     1.261626   -3.2319494   -1.6375942   0.15684092   -3.2319494    1.5943552  1043139 
 3813000    1.2625232   -3.2329248   -1.6376041   0.15541057   -3.2329248    1.5953207  1043249 
 3814000    1.2613792   -3.2321171   -1.6384329   0.15501262   -3.2321171    1.5936843  1043374 
 3815000    1.2623446   -3.2322833   -1.6375199   0.15707552   -3.2322833    1.5947634  1043466 
 3816000    1.2631643   -3.2337465   -1.6381082    0.1523798   -3.2337465    1.5956383  1043571 
 3817000    1.2624049   -3.2321319   -1.6376622   0.15544621   -3.2321319    1.5944698  1043708 
 3818000    1.2633139    -3.232827   -1.6373941   0.15281721    -3.232827    1.5954329  1043829 
 3819000     1.264255   -3.2334604   -1.6369904   0.15490834   -3.2334604      1.59647  1043928 
 3820000    1.2644892    -3.234108   -1.6375059   0.15536413    -3.234108    1.5966021  1044035 
 3821000    1.2651748   -3.2344278   -1.6371482   0.15685792   -3.2344278    1.5972796  1044158 
 3822000    1.2649948   -3.2339078   -1.6370206   0.15647924   -3.2339078    1.5968872  1044266 
 3823000    1.2650899   -3.2349923   -1.6381441   0.15477064   -3.2349923    1.5968482  1044370 
 3824000    1.2648939   -3.2341826   -1.6377302   0.15419013   -3.2341826    1.5964524  1044467 
 3825000    1.2655625   -3.2346139   -1.6375133   0.15601464   -3.2346139    1.5971006  1044595 
 3826000    1.2655741    -3.234983   -1.6380557   0.15198008    -3.234983    1.5969273  1044718 
 3827000    1.2648738   -3.2340296   -1.6381542   0.15212727   -3.2340296    1.5958755  1044828 
 3828000    1.2641833    -3.233405   -1.6385533   0.15572783    -3.233405    1.5948517  1044928 
 3829000     1.265871   -3.2356642     -1.63885   0.15472832   -3.2356642    1.5968143  1045037 
 3830000    1.2660192   -3.2356802   -1.6388349   0.15432685   -3.2356802    1.5968453  1045139 
 3831000    1.2665319   -3.2362484   -1.6389092   0.15319156   -3.2362484    1.5973392  1045239 
 3832000    1.2659441   -3.2349346   -1.6384789   0.15487521   -3.2349346    1.5964558  1045332 
 3833000    1.2647111   -3.2331724   -1.6384592    0.1591066   -3.2331724    1.5947132  1045455 
 3834000    1.2671202   -3.2357978   -1.6382286   0.15671544   -3.2357978    1.5975691  1045574 
 3835000    1.2671713   -3.2357777   -1.6383197   0.15518651   -3.2357777    1.5974579  1045689 
 3836000    1.2671584    -3.235556    -1.638284   0.15732803    -3.235556     1.597272  1045800 
 3837000    1.2667677   -3.2350255    -1.638452   0.15934443   -3.2350255    1.5965735  1045935 
 3838000    1.2672519   -3.2347905   -1.6377793   0.15942005   -3.2347905    1.5970113  1046048 
 3839000    1.2689387    -3.236325   -1.6373576   0.16037136    -3.236325    1.5989673  1046159 
 3840000    1.2671115   -3.2343694   -1.6378755   0.16398864   -3.2343694    1.5964939  1046271 
 3841000    1.2679604   -3.2356819   -1.6382955   0.15710369   -3.2356819    1.5973864  1046387 
 3842000    1.2690732   -3.2367718   -1.6381577   0.16273544   -3.2367718    1.5986141  1046501 
 3843000    1.2691474   -3.2366139   -1.6380758   0.15342888   -3.2366139    1.5985381  1046612 
 3844000    1.2682972   -3.2351857    -1.637862   0.16046016   -3.2351857    1.5973237  1046706 
 3845000    1.2689059   -3.2355679   -1.6376363   0.15586872   -3.2355679    1.5979316  1046810 
 3846000    1.2688972   -3.2356137   -1.6378595   0.15417146   -3.2356137    1.5977543  1046919 
 3847000    1.2679306   -3.2347338   -1.6383537   0.15832901   -3.2347338    1.5963801  1047022 
 3848000     1.268682   -3.2352918   -1.6381456   0.15915572   -3.2352918    1.5971462  1047140 
 3849000    1.2685986   -3.2354057   -1.6385201   0.15630105   -3.2354057    1.5968856  1047242 
 3850000    1.2695961   -3.2367527   -1.6387915   0.15533161   -3.2367527    1.5979612  1047360 
 3851000    1.2703573   -3.2364503   -1.6377066   0.15747962   -3.2364503    1.5987437  1047475 
 3852000    1.2708836   -3.2363897   -1.6371562   0.15529386   -3.2363897    1.5992335  1047588 
 3853000    1.2706748     -3.23654   -1.6377478   0.15943168     -3.23654    1.5987922  1047705 
 3854000    1.2701704   -3.2369314   -1.6389309   0.15562717   -3.2369314    1.5980004  1047808 
 3855000    1.2690097   -3.2350379   -1.6386516   0.16043173   -3.2350379    1.5963863  1047909 
 3856000    1.2695388   -3.2358236   -1.6389455   0.15706876   -3.2358236    1.5968782  1048023 
 3857000    1.2688118   -3.2343091   -1.6384915   0.15995739   -3.2343091    1.5958176  1048119 
 3858000    1.2701974   -3.2363756   -1.6389921   0.15958105   -3.2363756    1.5973835  1048235 
 3859000    1.2710945   -3.2369851   -1.6386611   0.15515123   -3.2369851    1.5983241  1048358 
 3860000    1.2708082   -3.2368657   -1.6390448   0.15956154   -3.2368657    1.5978209  1048452 
 3861000    1.2722897   -3.2383641   -1.6388315    0.1578192   -3.2383641    1.5995326  1048551 
 3862000    1.2723394   -3.2372034   -1.6377777   0.16082606   -3.2372034    1.5994258  1048662 
 3863000    1.2729537   -3.2380669   -1.6380247   0.16263446   -3.2380669    1.6000423  1048764 
 3864000    1.2722952    -3.236775   -1.6377206   0.16350336    -3.236775    1.5990545  1048869 
 3865000    1.2724204    -3.237112   -1.6380586   0.16360199    -3.237112    1.5990534  1048973 
 3866000    1.2736772   -3.2382176   -1.6377482   0.15869968   -3.2382176    1.6004695  1049080 
 3867000    1.2730328    -3.237253   -1.6377839   0.16152012    -3.237253    1.5994691  1049205 
 3868000    1.2741831    -3.238854    -1.638112   0.16080872    -3.238854    1.6007421  1049318 
 3869000    1.2740392   -3.2387191   -1.6382996   0.16404413   -3.2387191    1.6004195  1049411 
 3870000    1.2752184   -3.2397372   -1.6379815   0.15891755   -3.2397372    1.6017557  1049506 
 3871000    1.2741876   -3.2384953   -1.6382005   0.16042395   -3.2384953    1.6002948  1049615 
 3872000    1.2737636   -3.2385105   -1.6388946   0.16042586   -3.2385105     1.599616  1049711 
 3873000    1.2739231   -3.2384003   -1.6387472   0.16562791   -3.2384003    1.5996531  1049818 
 3874000    1.2735667   -3.2381672   -1.6390957    0.1626823   -3.2381672    1.5990715  1049906 
 3875000    1.2745158   -3.2397654   -1.6396485   0.15874436   -3.2397654    1.6001169  1050002 
 3876000    1.2736286   -3.2384853    -1.639633   0.16498035   -3.2384853    1.5988523  1050101 
 3877000    1.2742576   -3.2397187   -1.6402686   0.16317667   -3.2397187      1.59945  1050227 
 3878000     1.273988   -3.2391267   -1.6401674   0.16268154   -3.2391267    1.5989594  1050327 
 3879000    1.2738275   -3.2388741   -1.6402638   0.16211078   -3.2388741    1.5986103  1050424 
 3880000    1.2732494   -3.2381783   -1.6404653   0.16530255   -3.2381783     1.597713  1050537 
 3881000    1.2755432   -3.2412628   -1.6408102   0.15888588   -3.2412628    1.6004527  1050628 
 3882000    1.2742757   -3.2399695   -1.6412548    0.1625668   -3.2399695    1.5987147  1050725 
 3883000    1.2733218   -3.2389512   -1.6416127   0.16454362   -3.2389512    1.5973385  1050843 
 3884000    1.2743038    -3.240018   -1.6416103   0.15959418    -3.240018    1.5984076  1050950 
 3885000    1.2756973   -3.2414912   -1.6414954   0.15871147   -3.2414912    1.5999958  1051055 
 3886000    1.2755041   -3.2412157    -1.641616   0.15502022   -3.2412157    1.5995997  1051156 
 3887000    1.2749481   -3.2399455   -1.6412149   0.16233158   -3.2399455    1.5987306  1051269 
 3888000    1.2762785   -3.2414705   -1.6412361   0.16138887   -3.2414705    1.6002344  1051377 
 3889000    1.2751358   -3.2404226   -1.6417836    0.1609978   -3.2404226    1.5986389  1051484 
 3890000    1.2772642    -3.242411    -1.641265   0.16114149    -3.242411     1.601146  1051590 
 3891000    1.2762605    -3.240466    -1.640738   0.16276398    -3.240466    1.5997279  1051695 
 3892000    1.2766961   -3.2411779   -1.6410941   0.16218888   -3.2411779    1.6000838  1051820 
 3893000    1.2767704   -3.2400927   -1.6400709   0.16472837   -3.2400927    1.6000218  1051922 
 3894000    1.2771148   -3.2412101   -1.6408861    0.1634709   -3.2412101     1.600324  1052007 
 3895000    1.2772572   -3.2417491    -1.641423   0.16344066   -3.2417491    1.6003261  1052123 
 3896000    1.2771859   -3.2413923   -1.6413107   0.16353417   -3.2413923    1.6000816  1052225 
 3897000     1.277219   -3.2414154   -1.6414581    0.1625452   -3.2414154    1.5999573  1052334 
 3898000    1.2785202   -3.2422606   -1.6408528   0.15976205   -3.2422606    1.6014078  1052452 
 3899000    1.2769371   -3.2404283   -1.6411449   0.16063042   -3.2404283    1.5992835  1052545 
 3900000    1.2778647    -3.241854   -1.6415654   0.16059315    -3.241854    1.6002886  1052648 
 3901000    1.2782184   -3.2417244   -1.6411631   0.16439517   -3.2417244    1.6005613  1052760 
 3902000    1.2768408   -3.2402374   -1.6415423   0.16312072   -3.2402374    1.5986951  1052853 
 3903000    1.2778913   -3.2416501   -1.6418008    0.1615828   -3.2416501    1.5998493  1052959 
 3904000     1.278305   -3.2418455   -1.6416242   0.16069445   -3.2418455    1.6002213  1053055 
 3905000    1.2770282   -3.2407638   -1.6422729   0.16292686   -3.2407638    1.5984909  1053142 
 3906000    1.2780901   -3.2419732   -1.6423399   0.16110691   -3.2419732    1.5996333  1053265 
 3907000    1.2781009   -3.2414074   -1.6419094   0.16343476   -3.2414074    1.5994981  1053363 
 3908000    1.2780739   -3.2422851   -1.6429636   0.16360417   -3.2422851    1.5993215  1053457 
 3909000    1.2787262   -3.2426673   -1.6427057   0.16147626   -3.2426673    1.5999616  1053573 
 3910000    1.2787028   -3.2424706   -1.6426978   0.15941688   -3.2424706    1.5997728  1053678 
 3911000    1.2796955   -3.2430772   -1.6421991   0.16273455   -3.2430772    1.6008781  1053768 
 3912000    1.2783814   -3.2420307   -1.6429391   0.16327658   -3.2420307    1.5990916  1053862 
 3913000    1.2792875   -3.2424935   -1.6424492   0.16651075   -3.2424935    1.6000443  1053981 
 3914000    1.2793965   -3.2422795   -1.6422325     0.165659   -3.2422795    1.6000471  1054069 
 3915000    1.2813228   -3.2440162   -1.6417091   0.16695298   -3.2440162    1.6023071  1054167 
 3916000    1.2811942   -3.2439809   -1.6419942   0.16145778   -3.2439809    1.6019867  1054272 
 3917000     1.280576   -3.2425727   -1.6414971   0.16526039   -3.2425727    1.6010756  1054363 
 3918000    1.2817253   -3.2447098   -1.6423493   0.16187105   -3.2447098    1.6023605  1054463 
 3919000    1.2811306   -3.2439223   -1.6424921   0.16188551   -3.2439223    1.6014303  1054586 
 3920000    1.2825444   -3.2456962   -1.6426492   0.16019578   -3.2456962     1.603047  1054685 
 3921000     1.281279   -3.2433835   -1.6420775   0.16654638   -3.2433835     1.601306  1054790 
 3922000    1.2807375   -3.2431945   -1.6427428   0.16595193   -3.2431945    1.6004517  1054907 
 3923000    1.2809133   -3.2438332   -1.6433287   0.16094404   -3.2438332    1.6005045  1055017 
 3924000    1.2805313   -3.2433082    -1.643425   0.16569171   -3.2433082    1.5998832  1055112 
 3925000    1.2822113   -3.2460467   -1.6441891   0.16080659   -3.2460467    1.6018576  1055194 
 3926000     1.282075   -3.2454362   -1.6438976    0.1607565   -3.2454362    1.6015387  1055292 
 3927000    1.2815523   -3.2437054    -1.642982   0.16639988   -3.2437054    1.6007234  1055399 
 3928000    1.2817015   -3.2440126   -1.6432651   0.16664589   -3.2440126    1.6007474  1055506 
 3929000    1.2818855   -3.2435179   -1.6426802    0.1664177   -3.2435179    1.6008377  1055598 
 3930000    1.2840628   -3.2456007   -1.6422202   0.16583763   -3.2456007    1.6033806  1055714 
 3931000    1.2831331   -3.2450004   -1.6429157   0.16527628   -3.2450004    1.6020846  1055803 
 3932000    1.2834034   -3.2450764   -1.6428015   0.16533331   -3.2450764    1.6022749  1055900 
 3933000    1.2823068   -3.2438325   -1.6430494   0.16362174   -3.2438325    1.6007831  1055981 
 3934000    1.2830456   -3.2447767    -1.643226    0.1662839   -3.2447767    1.6015506  1056083 
 3935000    1.2837096   -3.2453294   -1.6430971   0.16444288   -3.2453294    1.6022323  1056180 
 3936000    1.2835302   -3.2452187   -1.6433316   0.16614463   -3.2452187    1.6018871  1056260 
 3937000    1.2842972    -3.246144   -1.6434757   0.16366134    -3.246144    1.6026683  1056376 
 3938000     1.284788   -3.2455931   -1.6424687   0.16309579   -3.2455931    1.6031244  1056479 
 3939000    1.2835508    -3.244046   -1.6426245    0.1704135    -3.244046    1.6014215  1056584 
 3940000    1.2841551   -3.2449442   -1.6429112   0.16922459   -3.2449442     1.602033  1056678 
 3941000    1.2851099   -3.2466274   -1.6435519   0.16370787   -3.2466274    1.6030755  1056776 
 3942000    1.2859588   -3.2467362   -1.6427536   0.16320306   -3.2467362    1.6039825  1056876 
 3943000     1.284904   -3.2449647   -1.6424176   0.16548094   -3.2449647    1.6025471  1056955 
 3944000    1.2848862   -3.2444737   -1.6420731   0.16724538   -3.2444737    1.6024006  1057037 
 3945000    1.2857546   -3.2453807   -1.6420443    0.1652196   -3.2453807    1.6033364  1057134 
 3946000    1.2858447   -3.2461564   -1.6428578   0.16679222   -3.2461564    1.6032987  1057233 
 3947000    1.2863482   -3.2464476   -1.6426759   0.16474469   -3.2464476    1.6037717  1057335 
 3948000    1.2865903   -3.2466406   -1.6427398   0.16722339   -3.2466406    1.6039007  1057449 
 3949000    1.2872841   -3.2467425   -1.6421225   0.16802557   -3.2467425    1.6046199  1057545 
 3950000      1.28732   -3.2471582   -1.6426179   0.16658349   -3.2471582    1.6045403  1057627 
 3951000    1.2865754   -3.2460968   -1.6426135   0.16458542   -3.2460968    1.6034833  1057712 
 3952000    1.2865222   -3.2461144   -1.6428566    0.1695251   -3.2461144    1.6032579  1057817 
 3953000    1.2869939   -3.2462302   -1.6425346   0.16431833   -3.2462302    1.6036956  1057916 
 3954000    1.2882026    -3.247985   -1.6429426    0.1594734    -3.247985    1.6050424  1058021 
 3955000     1.287519   -3.2470138   -1.6429763   0.16549297   -3.2470138    1.6040375  1058122 
 3956000    1.2879223   -3.2477277   -1.6433288   0.16191442   -3.2477277     1.604399  1058215 
 3957000    1.2869231   -3.2465162   -1.6434984   0.16474653   -3.2465162    1.6030179  1058305 
 3958000    1.2872237   -3.2463748   -1.6431293   0.16357585   -3.2463748    1.6032454  1058402 
 3959000    1.2878079   -3.2463786   -1.6425314   0.16669963   -3.2463786    1.6038472  1058485 
 3960000    1.2887689   -3.2485149   -1.6435937   0.16068342   -3.2485149    1.6049213  1058566 
 3961000    1.2868974   -3.2462938   -1.6438439   0.16701861   -3.2462938    1.6024499  1058659 
 3962000     1.287946   -3.2470138   -1.6433839   0.16791951   -3.2470138    1.6036299  1058742 
 3963000    1.2873618   -3.2462306   -1.6434901   0.16607938   -3.2462306    1.6027405  1058849 
 3964000    1.2882753   -3.2477952   -1.6440537   0.16695313   -3.2477952    1.6037415  1058939 
 3965000    1.2874932   -3.2464973   -1.6438687   0.16728464   -3.2464973    1.6026286  1059031 
 3966000    1.2878438   -3.2467598   -1.6438658    0.1665183   -3.2467598     1.602894  1059144 
 3967000    1.2890185   -3.2483875   -1.6441557   0.16564855   -3.2483875    1.6042319  1059226 
 3968000    1.2891324   -3.2484404   -1.6442229   0.16743292   -3.2484404    1.6042176  1059329 
 3969000    1.2889966   -3.2480858   -1.6441992   0.16682421   -3.2480858    1.6038866  1059436 
 3970000    1.2889609   -3.2479891   -1.6442983   0.16925608   -3.2479891    1.6036908  1059536 
 3971000    1.2897244    -3.249352   -1.6448551   0.16502636    -3.249352    1.6044969  1059631 
 3972000    1.2895728   -3.2480081   -1.6438149   0.16674382   -3.2480081    1.6041932  1059707 
 3973000    1.2909317   -3.2500365   -1.6442922   0.16757357   -3.2500365    1.6057443  1059799 
 3974000     1.289832   -3.2486685   -1.6444178   0.16542641   -3.2486685    1.6042508  1059882 
 3975000    1.2903035   -3.2492248     -1.64453   0.16499385   -3.2492248    1.6046949  1059976 
 3976000    1.2893176   -3.2486908   -1.6453598   0.16559993   -3.2486908    1.6033311  1060067 
 3977000    1.2908584   -3.2499711   -1.6448739   0.16766207   -3.2499711    1.6050973  1060166 
 3978000    1.2898026    -3.249479   -1.6458337   0.16575529    -3.249479    1.6036453  1060258 
 3979000    1.2904272    -3.249596     -1.64528   0.16845533    -3.249596     1.604316  1060328 
 3980000    1.2907918   -3.2503695   -1.6457304   0.16548178   -3.2503695    1.6046391  1060414 
 3981000    1.2910516   -3.2504113   -1.6455642   0.16676326   -3.2504113    1.6048471  1060490 
 3982000    1.2911261   -3.2513685   -1.6465469   0.16646178   -3.2513685    1.6048216  1060568 
 3983000    1.2901704   -3.2501208   -1.6466458   0.16871319   -3.2501208    1.6034749  1060673 
 3984000    1.2909667   -3.2509508    -1.646592     0.166901   -3.2509508    1.6043588  1060743 
 3985000    1.2915605   -3.2513276    -1.646364   0.16722618   -3.2513276    1.6049636  1060831 
 3986000    1.2910422   -3.2512165   -1.6470241   0.16921376   -3.2512165    1.6041924  1060915 
 3987000    1.2913968    -3.251682   -1.6471956   0.16884246    -3.251682    1.6044864  1061012 
 3988000    1.2909396   -3.2511448   -1.6473655   0.16972342   -3.2511448    1.6037793  1061104 
 3989000    1.2912813    -3.250855   -1.6467858   0.16581173    -3.250855    1.6040692  1061193 
 3990000     1.292108   -3.2520004   -1.6470539   0.17071752   -3.2520004    1.6049465  1061292 
 3991000    1.2919694   -3.2513291   -1.6467059   0.16802574   -3.2513291    1.6046232  1061392 
 3992000    1.2919026   -3.2514522   -1.6470376   0.16865867   -3.2514522    1.6044146  1061475 
 3993000    1.2925684   -3.2510946   -1.6460178   0.16831696   -3.2510946    1.6050767  1061584 
 3994000    1.2931449   -3.2515918   -1.6459383   0.16744957   -3.2515918    1.6056535  1061676 
 3995000    1.2933062   -3.2520328    -1.646294    0.1678589   -3.2520328    1.6057388  1061752 
 3996000    1.2928929   -3.2510887   -1.6460113   0.17108941   -3.2510887    1.6050775  1061850 
 3997000    1.2931975   -3.2521658   -1.6468523   0.16802579   -3.2521658    1.6053135  1061944 
 3998000    1.2937866   -3.2519111   -1.6460386    0.1703179   -3.2519111    1.6058725  1062058 
 3999000    1.2927711   -3.2504182   -1.6459769   0.17118505   -3.2504182    1.6044413  1062171 
 4000000    1.2934403   -3.2513362   -1.6462034   0.17098268   -3.2513362    1.6051328  1062263 
 4001000    1.2948815   -3.2534141   -1.6466335   0.16624918   -3.2534141    1.6067806  1062356 
 4002000    1.2932297   -3.2513727   -1.6467747   0.17025637   -3.2513727     1.604598  1062444 
 4003000    1.2938313   -3.2523951   -1.6472078   0.17147264   -3.2523951    1.6051873  1062548 
 4004000    1.2939758   -3.2521022   -1.6469245   0.17076819   -3.2521022    1.6051777  1062673 
 4005000    1.2946096   -3.2524932   -1.6466592   0.17004692   -3.2524932     1.605834  1062759 
 4006000    1.2934606   -3.2515323   -1.6472518    0.1693171   -3.2515323    1.6042805  1062844 
 4007000     1.293904   -3.2519615   -1.6472639   0.16595438   -3.2519615    1.6046976  1062932 
 4008000     1.293538   -3.2514178   -1.6473205   0.17148439   -3.2514178    1.6040973  1063029 
 4009000    1.2949992   -3.2530346   -1.6473006   0.16815664   -3.2530346    1.6057341  1063145 
 4010000    1.2936174   -3.2517357   -1.6478343   0.16453233   -3.2517357    1.6039015  1063224 
 4011000    1.2939565    -3.252503   -1.6483154    0.1697597    -3.252503    1.6041876  1063313 
 4012000    1.2946888   -3.2533225   -1.6483644   0.16840028   -3.2533225    1.6049582  1063404 
 4013000    1.2946203   -3.2528561   -1.6481276   0.16517401   -3.2528561    1.6047284  1063500 
 4014000    1.2957904   -3.2545238   -1.6484824   0.16551042   -3.2545238    1.6060413  1063591 
 4015000    1.2942906   -3.2527865   -1.6487625   0.17042644   -3.2527865    1.6040241  1063696 
 4016000    1.2963855   -3.2558174   -1.6493057   0.16717811   -3.2558174    1.6065117  1063768 
 4017000    1.2961039   -3.2551234   -1.6490966    0.1695197   -3.2551234    1.6060268  1063858 
 4018000     1.295948   -3.2544627   -1.6487332   0.17107996   -3.2544627    1.6057295  1063927 
 4019000    1.2973274   -3.2558375   -1.6485333   0.16340791   -3.2558375    1.6073041  1064016 
 4020000    1.2958906   -3.2537585   -1.6483793    0.1683885   -3.2537585    1.6053792  1064112 
 4021000    1.2964637   -3.2548001   -1.6488665   0.17065003   -3.2548001    1.6059336  1064215 
 4022000    1.2972594   -3.2551484    -1.648374   0.16608447   -3.2551484    1.6067744  1064311 
 4023000    1.2967766   -3.2539184   -1.6478732   0.17062482   -3.2539184    1.6060451  1064398 
 4024000    1.2974269   -3.2552302   -1.6485291   0.17592489   -3.2552302    1.6067011  1064497 
 4025000    1.2979823   -3.2553417   -1.6480963   0.17609155   -3.2553417    1.6072454  1064592 
 4026000    1.2979858   -3.2566086   -1.6494811   0.17072722   -3.2566086    1.6071275  1064673 
 4027000    1.2980679   -3.2572594   -1.6501661   0.16867066   -3.2572594    1.6070933  1064763 
 4028000    1.2969095   -3.2556381   -1.6501147   0.16979582   -3.2556381    1.6055234  1064853 
 4029000    1.2972273   -3.2556417   -1.6498425   0.17082566   -3.2556417    1.6057993  1064931 
 4030000    1.2969472    -3.256087   -1.6507626   0.16872043    -3.256087    1.6053243  1065016 
 4031000    1.2977439   -3.2573471   -1.6511935   0.17069463   -3.2573471    1.6061536  1065120 
 4032000    1.2985494   -3.2582234   -1.6512193   0.16757891   -3.2582234    1.6070042  1065217 
 4033000    1.2960975    -3.255369   -1.6515436   0.17225444    -3.255369    1.6038254  1065313 
 4034000    1.2967442   -3.2559303   -1.6514192   0.17410765   -3.2559303    1.6045111  1065389 
 4035000    1.2968523   -3.2554378   -1.6509345   0.17379306   -3.2554378    1.6045033  1065483 
 4036000    1.2977126   -3.2565392   -1.6510739   0.17216216   -3.2565392    1.6054653  1065551 
 4037000    1.2986513   -3.2574192   -1.6509208   0.17375419   -3.2574192    1.6064984  1065636 
 4038000     1.298322    -3.257115   -1.6511641   0.16798459    -3.257115    1.6059509  1065729 
 4039000    1.2986527   -3.2574288    -1.651197   0.17330738   -3.2574288    1.6062318  1065814 
 4040000     1.299105   -3.2579159   -1.6512452   0.16847695   -3.2579159    1.6066707  1065894 
 4041000    1.2990094   -3.2569145   -1.6505082   0.17354325   -3.2569145    1.6064063  1065991 
 4042000    1.2997236    -3.258404   -1.6512367   0.16605739    -3.258404    1.6071673  1066072 
 4043000    1.2990234   -3.2582314   -1.6520701   0.16696037   -3.2582314    1.6061613  1066165 
 4044000    1.2995061   -3.2587908   -1.6521366   0.17022372   -3.2587908    1.6066542  1066234 
 4045000    1.2987037   -3.2578387   -1.6523076   0.16601496   -3.2578387    1.6055311  1066321 
 4046000    1.3000611   -3.2593684   -1.6522541   0.16461747   -3.2593684    1.6071143  1066384 
 4047000    1.2988402   -3.2585508   -1.6530706   0.16690577   -3.2585508    1.6054801  1066467 
 4048000    1.2978548   -3.2569637    -1.652819    0.1716954   -3.2569637    1.6041447  1066545 
 4049000    1.2979889   -3.2572692   -1.6530805    0.1690754   -3.2572692    1.6041887  1066626 
 4050000    1.2986201     -3.25783   -1.6529772   0.16792502     -3.25783    1.6048529  1066703 
 4051000    1.2993795   -3.2584749    -1.652813   0.17125287   -3.2584749    1.6056619  1066789 
 4052000    1.2994558   -3.2582105   -1.6526048   0.17132875   -3.2582105    1.6056057  1066889 
 4053000    1.2989519   -3.2578283   -1.6529747   0.17111826   -3.2578283    1.6048537  1066975 
 4054000    1.2988852   -3.2571038   -1.6524513   0.17119234   -3.2571038    1.6046525  1067054 
 4055000    1.2999154   -3.2579353   -1.6521185   0.17050663   -3.2579353    1.6058168  1067126 
 4056000    1.3004595   -3.2581299   -1.6517673   0.17318888   -3.2581299    1.6063626  1067210 
 4057000    1.3012173   -3.2590482    -1.651882   0.17146773   -3.2590482    1.6071661  1067298 
 4058000     1.301538   -3.2590744   -1.6516494   0.17407422   -3.2590744    1.6074251  1067389 
 4059000    1.3023218    -3.259883   -1.6516014   0.17095331    -3.259883    1.6082816  1067463 
 4060000    1.3022376   -3.2596016   -1.6515413   0.17022558   -3.2596016    1.6080602  1067541 
 4061000    1.3023814   -3.2605603   -1.6524656   0.17125424   -3.2605603    1.6080946  1067636 
 4062000    1.3017163   -3.2595871   -1.6524763   0.17107799   -3.2595871    1.6071109  1067744 
 4063000    1.3028278   -3.2600097   -1.6516576   0.17376851   -3.2600097    1.6083521  1067831 
 4064000    1.3034566   -3.2606222    -1.651634   0.16727768   -3.2606222    1.6089882  1067924 
 4065000    1.3026377   -3.2596301   -1.6518018    0.1732095   -3.2596301    1.6078282  1068023 
 4066000    1.3040984   -3.2607909   -1.6512893   0.17635836   -3.2607909    1.6095016  1068109 
 4067000    1.3036846   -3.2607712   -1.6519038   0.17120251   -3.2607712    1.6088674  1068191 
 4068000    1.3026699   -3.2598627   -1.6523604   0.17413346   -3.2598627    1.6075023  1068266 
 4069000     1.302919   -3.2606798   -1.6529845   0.17206766   -3.2606798    1.6076953  1068342 
 4070000    1.3037785   -3.2620319   -1.6533996   0.17008424   -3.2620319    1.6086324  1068424 
 4071000    1.3018923   -3.2599944   -1.6537914   0.17557228   -3.2599944     1.606203  1068492 
 4072000     1.303304   -3.2612543    -1.653424   0.17203115   -3.2612543    1.6078303  1068568 
 4073000      1.30396   -3.2617971    -1.653257   0.17280516   -3.2617971    1.6085401  1068634 
 4074000    1.3025119   -3.2604422   -1.6537922   0.17717495   -3.2604422    1.6066501  1068703 
 4075000    1.3022371   -3.2600845   -1.6539252   0.17596059   -3.2600845    1.6061593  1068804 
 4076000     1.302481   -3.2607257   -1.6543828   0.17462397   -3.2607257    1.6063429  1068882 
 4077000    1.3017938   -3.2593734   -1.6539922    0.1707578   -3.2593734    1.6053812  1068958 
 4078000    1.3033636   -3.2612422   -1.6540845    0.1724896   -3.2612422    1.6071577  1069064 
 4079000    1.3033058   -3.2605745   -1.6536112   0.17275405   -3.2605745    1.6069633  1069146 
 4080000    1.3035778   -3.2603972   -1.6532518    0.1695831   -3.2603972    1.6071453  1069248 
 4081000    1.3036765    -3.260584   -1.6534208   0.17395555    -3.260584    1.6071632  1069317 
 4082000    1.3052903   -3.2621403   -1.6531185   0.17005316   -3.2621403    1.6090219  1069404 
 4083000    1.3048968   -3.2613823   -1.6529718    0.1726538   -3.2613823    1.6084105  1069488 
 4084000    1.3056869   -3.2624428   -1.6532014   0.17530191   -3.2624428    1.6092414  1069583 
 4085000    1.3049457   -3.2617282    -1.653477   0.17195655   -3.2617282    1.6082511  1069634 
 4086000    1.3048178   -3.2614655   -1.6534878   0.17506068   -3.2614655    1.6079778  1069711 
 4087000    1.3044454   -3.2612197   -1.6538182   0.17598307   -3.2612197    1.6074016  1069789 
 4088000    1.3044323   -3.2613048   -1.6540365   0.17340916   -3.2613048    1.6072684  1069867 
 4089000    1.3055518   -3.2631393   -1.6546194   0.17062928   -3.2631393    1.6085199  1069952 
 4090000    1.3046688   -3.2616071   -1.6542998   0.17226113   -3.2616071    1.6073073  1070035 
 4091000    1.3045169   -3.2611228   -1.6541452   0.17701906   -3.2611228    1.6069775  1070130 
 4092000     1.306756   -3.2639153   -1.6543119   0.17221356   -3.2639153    1.6096034  1070218 
 4093000    1.3057758   -3.2630428    -1.654773   0.17535467   -3.2630428    1.6082698  1070302 
 4094000    1.3063644   -3.2636248   -1.6547488   0.17162293   -3.2636248     1.608876  1070381 
 4095000    1.3055224   -3.2627701   -1.6550632   0.17588535   -3.2627701    1.6077068  1070469 
 4096000    1.3058954   -3.2629751   -1.6549682   0.17312717   -3.2629751    1.6080069  1070575 
 4097000    1.3068019   -3.2640883   -1.6550583   0.17328046   -3.2640883      1.60903  1070637 
 4098000    1.3055903   -3.2623398   -1.6548993    0.1800579   -3.2623398    1.6074406  1070702 
 4099000    1.3070135    -3.264087   -1.6550144   0.17554376    -3.264087    1.6090726  1070782 
 4100000    1.3064464   -3.2631392   -1.6548789   0.17587588   -3.2631392    1.6082603  1070858 
 4101000    1.3071438   -3.2633762   -1.6543927     0.173922   -3.2633762    1.6089835  1070948 
 4102000    1.3081816   -3.2645915   -1.6544493   0.17334592   -3.2645915    1.6101422  1071027 
 4103000     1.307748   -3.2641144   -1.6546365   0.17606249   -3.2641144    1.6094779  1071114 
 4104000    1.3077694   -3.2641145   -1.6547441   0.17811466   -3.2641145    1.6093704  1071203 
 4105000    1.3085211   -3.2648811   -1.6547164    0.1715577   -3.2648811    1.6101647  1071290 
 4106000    1.3091024   -3.2658141   -1.6550574   0.16846283   -3.2658141    1.6107567  1071372 
 4107000    1.3079575   -3.2637852   -1.6545573   0.17522137   -3.2637852    1.6092278  1071452 
 4108000     1.308052   -3.2640054   -1.6547935   0.17743775   -3.2640054    1.6092119  1071540 
 4109000    1.3073641    -3.263571    -1.655309   0.17636324    -3.263571    1.6082621  1071609 
 4110000    1.3077521   -3.2637495   -1.6551258   0.17538945   -3.2637495    1.6086238  1071686 
 4111000    1.3087575   -3.2651884   -1.6554419   0.17426558   -3.2651884    1.6097464  1071762 
 4112000    1.3082668   -3.2652372   -1.6561949   0.16994986   -3.2652372    1.6090422  1071829 
 4113000    1.3087754   -3.2657945   -1.6562424   0.17329176   -3.2657945    1.6095521  1071906 
 4114000    1.3080913    -3.264623   -1.6560083   0.17590065    -3.264623    1.6086148  1071970 
 4115000    1.3079133   -3.2645754   -1.6563025   0.17607077   -3.2645754    1.6082729  1072052 
 4116000    1.3074456   -3.2643641   -1.6567698    0.1745953   -3.2643641    1.6075943  1072121 
 4117000    1.3078456   -3.2642252   -1.6562486     0.174975   -3.2642252    1.6079766  1072194 
 4118000    1.3087933   -3.2660203   -1.6570106   0.17563985   -3.2660203    1.6090097  1072282 
 4119000    1.3099917   -3.2664859   -1.6561201      0.17619   -3.2664859    1.6103658  1072360 
 4120000    1.3084201   -3.2654733   -1.6571593   0.17435985   -3.2654733    1.6083139  1072440 
 4121000    1.3094403   -3.2669791   -1.6575252   0.17480584   -3.2669791    1.6094539  1072516 
 4122000    1.3089586   -3.2669618    -1.658214   0.17494207   -3.2669618    1.6087478  1072592 
 4123000    1.3087406   -3.2664668   -1.6580739   0.17369831   -3.2664668    1.6083929  1072650 
 4124000    1.3098101   -3.2678696   -1.6582748   0.17107567   -3.2678696    1.6095948  1072725 
 4125000    1.3090956   -3.2668988     -1.65829   0.17570725   -3.2668988    1.6086088  1072797 
 4126000    1.3093863   -3.2668403   -1.6579943    0.1750016   -3.2668403     1.608846  1072877 
 4127000    1.3108835   -3.2689935   -1.6584174     0.173906   -3.2689935    1.6105761  1072950 
 4128000    1.3104369   -3.2677969   -1.6579046    0.1784616   -3.2677969    1.6098923  1073040 
 4129000    1.3101219   -3.2678544   -1.6584706   0.17308648   -3.2678544    1.6093839  1073121 
 4130000    1.3106301   -3.2690227    -1.659124   0.17332659   -3.2690227    1.6098986  1073194 
 4131000    1.3096769   -3.2667106   -1.6580773   0.17328998   -3.2667106    1.6086333  1073257 
 4132000    1.3098164   -3.2672411   -1.6585699   0.17542701   -3.2672411    1.6086713  1073346 
 4133000     1.310794   -3.2695067   -1.6597443   0.17362336   -3.2695067    1.6097624  1073419 
 4134000    1.3094711   -3.2691012   -1.6610728   0.17285437   -3.2691012    1.6080284  1073492 
 4135000    1.3094597   -3.2677986   -1.6599054   0.17422429   -3.2677986    1.6078931  1073573 
 4136000    1.3109308   -3.2688149   -1.6592353   0.17811528   -3.2688149    1.6095795  1073653 
 4137000    1.3110082   -3.2687296   -1.6591509   0.17394286   -3.2687296    1.6095787  1073717 
 4138000    1.3104652   -3.2677666   -1.6589775   0.17742177   -3.2677666    1.6087891  1073799 
 4139000    1.3112852   -3.2692661   -1.6595857   0.17871923   -3.2692661    1.6096804  1073876 
 4140000    1.3118127   -3.2694992   -1.6592882   0.17602242   -3.2694992    1.6102109  1073954 
 4141000    1.3112563   -3.2692062   -1.6597996   0.17399496   -3.2692062    1.6094066  1074035 
 4142000    1.3106213   -3.2686012   -1.6600849   0.17771493   -3.2686012    1.6085164  1074109 
 4143000    1.3114953   -3.2689545   -1.6594448   0.17476723   -3.2689545    1.6095096  1074162 
 4144000    1.3118146   -3.2696601   -1.6598621   0.17516091   -3.2696601     1.609798  1074231 
 4145000    1.3109652   -3.2687609    -1.660122   0.17979624   -3.2687609    1.6086389  1074309 
 4146000    1.3113832   -3.2691678   -1.6601208   0.17233974   -3.2691678    1.6090471  1074379 
 4147000    1.3117966   -3.2700231   -1.6605903     0.174755   -3.2700231    1.6094329  1074460 
 4148000    1.3107253   -3.2689298   -1.6609265   0.17385835   -3.2689298    1.6080033  1074537 
 4149000    1.3111021    -3.269229   -1.6608816   0.17692791    -3.269229    1.6083474  1074616 
 4150000     1.312498   -3.2715433   -1.6615826   0.17376757   -3.2715433    1.6099608  1074682 
 4151000     1.312203   -3.2714493   -1.6619596   0.17336667   -3.2714493    1.6094897  1074755 
 4152000    1.3115276   -3.2702232   -1.6616667    0.1750392   -3.2702232    1.6085564  1074825 
 4153000    1.3118813   -3.2697808   -1.6609148   0.17794689   -3.2697808     1.608866  1074908 
 4154000    1.3119167   -3.2702282   -1.6614416   0.17529136   -3.2702282    1.6087866  1074990 
 4155000    1.3118607   -3.2699468   -1.6613994   0.17453418   -3.2699468    1.6085474  1075104 
 4156000    1.3121602   -3.2702614   -1.6614395   0.17441823   -3.2702614    1.6088219  1075166 
 4157000     1.313274    -3.271533   -1.6614729   0.17239116    -3.271533    1.6100602  1075251 
 4158000    1.3119216   -3.2704458   -1.6621304   0.17476411   -3.2704458    1.6083154  1075309 
 4159000    1.3132462   -3.2712919   -1.6614768   0.17341403   -3.2712919     1.609815  1075392 
 4160000    1.3118614   -3.2696421   -1.6616173   0.17986512   -3.2696421    1.6080248  1075454 
 4161000    1.3109783   -3.2698739   -1.6630361   0.17768613   -3.2698739    1.6068378  1075524 
 4162000    1.3122341    -3.272079   -1.6638126    0.1730359    -3.272079    1.6082663  1075598 
 4163000    1.3124919   -3.2714234   -1.6629562   0.17638107   -3.2714234    1.6084672  1075675 
 4164000    1.3124297   -3.2711222   -1.6628226   0.17944501   -3.2711222    1.6082996  1075736 
 4165000    1.3133964   -3.2723199   -1.6629433   0.17310964   -3.2723199    1.6093766  1075808 
 4166000    1.3135027   -3.2722126    -1.662818   0.17827807   -3.2722126    1.6093946  1075883 
 4167000    1.3140481   -3.2735107    -1.663572   0.17570987   -3.2735107    1.6099387  1075966 
 4168000    1.3139235   -3.2724438   -1.6627491   0.17834527   -3.2724438    1.6096948  1076027 
 4169000    1.3130754   -3.2715933   -1.6630422    0.1808319   -3.2715933    1.6085511  1076097 
 4170000    1.3136413   -3.2720946   -1.6629669   0.17960242   -3.2720946    1.6091277  1076175 
 4171000    1.3148674   -3.2738791   -1.6633796   0.18295369   -3.2738791    1.6104995  1076262 
 4172000    1.3147072   -3.2736265   -1.6634294   0.17785049   -3.2736265     1.610197  1076333 
 4173000    1.3135611   -3.2724956   -1.6638009   0.17999937   -3.2724956    1.6086946  1076399 
 4174000    1.3135003   -3.2730674   -1.6645846    0.1757837   -3.2730674    1.6084827  1076491 
 4175000    1.3137422   -3.2734636   -1.6648012    0.1757914   -3.2734636    1.6086624  1076569 
 4176000    1.3137679   -3.2727881   -1.6641899   0.17852302   -3.2727881    1.6085982  1076633 
 4177000    1.3142319   -3.2727285   -1.6636907   0.17597122   -3.2727285    1.6090378  1076719 
 4178000    1.3159996   -3.2747647   -1.6636853   0.17581366   -3.2747647    1.6110794  1076801 
 4179000    1.3152019   -3.2738697   -1.6638686   0.17608504   -3.2738697    1.6100012  1076869 
 4180000    1.3154554   -3.2742791   -1.6640842   0.17257539   -3.2742791    1.6101949  1076947 
 4181000    1.3155729   -3.2740175   -1.6637791   0.18064169   -3.2740175    1.6102385  1077014 
 4182000    1.3156559   -3.2736336   -1.6633877   0.17404728   -3.2736336    1.6102459  1077077 
 4183000    1.3163167   -3.2749065    -1.663961   0.17288829   -3.2749065    1.6109454  1077150 
 4184000    1.3151182   -3.2738936   -1.6645196   0.17508188   -3.2738936     1.609374  1077220 
 4185000    1.3142035   -3.2733189   -1.6651702   0.17717016   -3.2733189    1.6081487  1077291 
 4186000    1.3136012   -3.2725918   -1.6652711   0.17678145   -3.2725918    1.6073207  1077352 
 4187000    1.3151235   -3.2742793   -1.6652124    0.1757365   -3.2742793    1.6090669  1077430 
 4188000    1.3148404   -3.2735172   -1.6648863   0.17499664   -3.2735172    1.6086309  1077490 
 4189000    1.3152307   -3.2746784   -1.6656759   0.17391729   -3.2746784    1.6090025  1077561 
 4190000    1.3156764   -3.2746172   -1.6651636   0.17653724   -3.2746172    1.6094536  1077624 
 4191000    1.3152018   -3.2738447   -1.6650733   0.17939146   -3.2738447    1.6087715  1077692 
 4192000    1.3166293   -3.2760949   -1.6657013   0.17336451   -3.2760949    1.6103937  1077775 
 4193000    1.3167281    -3.274991   -1.6645901    0.1762709    -3.274991    1.6104009  1077851 
 4194000    1.3160587   -3.2746198   -1.6651555   0.17500129   -3.2746198    1.6094642  1077930 
 4195000    1.3158012   -3.2740117   -1.6649594   0.17579338   -3.2740117    1.6090523  1077995 
 4196000    1.3174699   -3.2758467    -1.664851   0.17571575   -3.2758467    1.6109957  1078060 
 4197000    1.3164846   -3.2750971   -1.6653987   0.17654851   -3.2750971    1.6096983  1078122 
 4198000    1.3174069   -3.2759215    -1.665215   0.17604912   -3.2759215    1.6107065  1078202 
 4199000    1.3177668    -3.276594   -1.6655504   0.17513476    -3.276594    1.6110435  1078271 
 4200000    1.3167507   -3.2760605   -1.6663429   0.18024219   -3.2760605    1.6097176  1078327 
 4201000      1.31742    -3.276379   -1.6659552   0.17960061    -3.276379    1.6104238  1078402 
 4202000    1.3161221   -3.2748014   -1.6660834    0.1811808   -3.2748014     1.608718  1078482 
 4203000    1.3178228    -3.277312   -1.6666497   0.17590519    -3.277312    1.6106623  1078572 
 4204000    1.3178429   -3.2766813   -1.6660796   0.18139442   -3.2766813    1.6106017  1078629 
 4205000    1.3184409   -3.2771379   -1.6659038   0.17866936   -3.2771379    1.6112341  1078695 
 4206000     1.317129   -3.2758329   -1.6662871   0.18022357   -3.2758329    1.6095458  1078752 
 4207000    1.3182006   -3.2759046   -1.6651672   0.18280388   -3.2759046    1.6107373  1078831 
 4208000    1.3180176   -3.2765092    -1.666124   0.18060964   -3.2765092    1.6103853  1078917 
 4209000    1.3185829   -3.2765168   -1.6655438   0.17943464   -3.2765168     1.610973  1078986 
 4210000    1.3190329   -3.2768785   -1.6654648   0.18038747   -3.2768785    1.6114137  1079059 
 4211000     1.319171   -3.2775551   -1.6660577   0.18281577   -3.2775551    1.6114974  1079116 
 4212000    1.3179624   -3.2765404      -1.6666   0.18313723   -3.2765404    1.6099404  1079170 
 4213000    1.3175336   -3.2764946   -1.6671795   0.18462664   -3.2764946    1.6093152  1079238 
 4214000    1.3190805   -3.2782863   -1.6671892    0.1752201   -3.2782863    1.6110971  1079310 
 4215000     1.317614   -3.2770995   -1.6678621   0.18022082   -3.2770995    1.6092374  1079356 
 4216000    1.3181524   -3.2777654   -1.6679719   0.17743135   -3.2777654    1.6097935  1079424 
 4217000    1.3181365   -3.2770788   -1.6674105    0.1767751   -3.2770788    1.6096683  1079495 
 4218000    1.3184615   -3.2774938   -1.6675495   0.17957682   -3.2774938    1.6099444  1079576 
 4219000    1.3174324   -3.2762162   -1.6676179   0.18132766   -3.2762162    1.6085984  1079636 
 4220000    1.3185264   -3.2771567   -1.6673077   0.18032861   -3.2771567    1.6098491  1079693 
 4221000    1.3195099   -3.2782141   -1.6672672   0.17752872   -3.2782141    1.6109469  1079762 
 4222000     1.318877   -3.2777421   -1.6676692   0.17764284   -3.2777421    1.6100728  1079830 
 4223000    1.3179106   -3.2757576   -1.6669851   0.18145908   -3.2757576    1.6087724  1079911 
 4224000    1.3188987   -3.2772623   -1.6673866   0.17756452   -3.2772623    1.6098757  1079980 
 4225000    1.3199951   -3.2781392   -1.6670117   0.17745621   -3.2781392    1.6111275  1080038 
 4226000    1.3197364   -3.2780736   -1.6673812   0.17623321   -3.2780736    1.6106924  1080118 
 4227000    1.3195609   -3.2776189   -1.6672406   0.17690189   -3.2776189    1.6103783  1080185 
 4228000    1.3189024   -3.2767036   -1.6672199   0.18166158   -3.2767036    1.6094838  1080246 
 4229000    1.3212741   -3.2792266    -1.666962   0.17824047   -3.2792266    1.6122646  1080322 
 4230000    1.3213201   -3.2792043   -1.6669865   0.18031796   -3.2792043    1.6122177  1080391 
 4231000    1.3199289   -3.2777652   -1.6673402   0.17887856   -3.2777652     1.610425  1080455 
 4232000    1.3204716   -3.2783414   -1.6673513   0.18066601   -3.2783414    1.6109901  1080520 
 4233000    1.3203209   -3.2779076   -1.6672026   0.17961966   -3.2779076    1.6107049  1080588 
 4234000    1.3202504    -3.278299   -1.6677888   0.17961358    -3.278299    1.6105101  1080661 
 4235000    1.3213052   -3.2798307   -1.6681487   0.17687124   -3.2798307     1.611682  1080738 
 4236000    1.3211422   -3.2799507   -1.6685719   0.18153882   -3.2799507    1.6113788  1080808 
 4237000    1.3215938   -3.2808986   -1.6690779     0.180451   -3.2808986    1.6118207  1080881 
 4238000      1.32043   -3.2798443   -1.6695383   0.17849587   -3.2798443     1.610306  1080945 
 4239000    1.3206348   -3.2803617   -1.6699102   0.18052074   -3.2803617    1.6104515  1081015 
 4240000    1.3207439   -3.2804764   -1.6700006   0.17861288   -3.2804764    1.6104758  1081088 
 4241000    1.3205442   -3.2801023   -1.6699326    0.1795467   -3.2801023    1.6101697  1081130 
 4242000    1.3217204   -3.2812693   -1.6697639   0.18029525   -3.2812693    1.6115055  1081196 
 4243000    1.3207796   -3.2808427   -1.6705989   0.17731718   -3.2808427    1.6102438  1081273 
 4244000    1.3208432    -3.280468   -1.6702375   0.18457768    -3.280468    1.6102305  1081334 
 4245000    1.3214545   -3.2815225   -1.6706526   0.17638296   -3.2815225    1.6108699  1081405 
 4246000    1.3219578   -3.2815613   -1.6701822    0.1789171   -3.2815613    1.6113791  1081475 
 4247000    1.3202748   -3.2798005   -1.6705681   0.18682842   -3.2798005    1.6092324  1081539 
 4248000    1.3213989   -3.2811987   -1.6707108   0.18286557   -3.2811987    1.6104879  1081616 
 4249000    1.3225425   -3.2826106   -1.6708422   0.17884159   -3.2826106    1.6117685  1081692 
 4250000    1.3210652   -3.2810698   -1.6712193   0.17846647   -3.2810698    1.6098505  1081771 
 4251000    1.3224889   -3.2821326   -1.6706411   0.17744528   -3.2821326    1.6114915  1081834 
 4252000    1.3223225    -3.281066   -1.6698845   0.18016121    -3.281066    1.6111816  1081906 
 4253000    1.3227957   -3.2827246   -1.6710573   0.17475991   -3.2827246    1.6116673  1081967 
 4254000    1.3230983   -3.2830278   -1.6710857   0.17792972   -3.2830278     1.611942  1082030 
 4255000    1.3225325   -3.2822112   -1.6710731   0.17932218   -3.2822112    1.6111381  1082107 
 4256000    1.3218322   -3.2813464   -1.6711626     0.180442   -3.2813464    1.6101838  1082175 
 4257000    1.3230621   -3.2813063   -1.6697121   0.17958224   -3.2813063    1.6115942  1082234 
 4258000    1.3229994   -3.2816376   -1.6702047    0.1805033   -3.2816376    1.6114329  1082291 
 4259000    1.3224681   -3.2814552   -1.6707886   0.17977175   -3.2814552    1.6106667  1082371 
 4260000    1.3216688    -3.281289   -1.6716864   0.18143429    -3.281289    1.6096026  1082432 
 4261000    1.3222316    -3.281539   -1.6713507   0.18173882    -3.281539    1.6101882  1082499 
 4262000    1.3220284   -3.2820163   -1.6721618   0.18399046   -3.2820163    1.6098546  1082557 
 4263000    1.3230591   -3.2830396   -1.6720029   0.17624062   -3.2830396    1.6110368  1082606 
 4264000    1.3224835   -3.2819974   -1.6717597    0.1815899   -3.2819974    1.6102377  1082672 
 4265000    1.3237247   -3.2839582   -1.6723001   0.17684488   -3.2839582    1.6116581  1082733 
 4266000    1.3234487   -3.2824956   -1.6712925    0.1792799   -3.2824956     1.611203  1082813 
 4267000    1.3236042   -3.2822896   -1.6710059   0.18404715   -3.2822896    1.6112837  1082886 
 4268000    1.3245058   -3.2836121   -1.6713053   0.18120177   -3.2836121    1.6123068  1082936 
 4269000    1.3234729   -3.2824146   -1.6714707   0.17386846   -3.2824146    1.6109438  1083007 
 4270000    1.3237146   -3.2813983   -1.6702436   0.18489719   -3.2813983    1.6111548  1083063 
 4271000    1.3246865   -3.2823202   -1.6700837   0.18212723   -3.2823202    1.6122365  1083131 
 4272000    1.3244542   -3.2836728   -1.6718069   0.17736267   -3.2836728    1.6118659  1083190 
 4273000    1.3230821   -3.2822109   -1.6721068   0.17928006   -3.2822109     1.610104  1083252 
 4274000    1.3227479   -3.2819531    -1.672333   0.18503753   -3.2819531      1.60962  1083304 
 4275000    1.3245275   -3.2841819   -1.6724976   0.17572582   -3.2841819    1.6116843  1083372 
 4276000    1.3236485   -3.2843239   -1.6738072   0.18020634   -3.2843239    1.6105167  1083438 
 4277000     1.324388    -3.284622   -1.6732873   0.17710976    -3.284622    1.6113347  1083493 
 4278000    1.3236617   -3.2829326   -1.6725737   0.18034795   -3.2829326    1.6103589  1083555 
 4279000    1.3240536   -3.2834143   -1.6726604   0.18182366   -3.2834143    1.6107539  1083610 
 4280000    1.3241374   -3.2839117   -1.6731495   0.17834688   -3.2839117    1.6107622  1083673 
 4281000    1.3252791   -3.2852374   -1.6731682   0.18019468   -3.2852374    1.6120692  1083728 
 4282000    1.3241015   -3.2837061   -1.6731436   0.18006397   -3.2837061    1.6105625  1083778 
 4283000    1.3246356   -3.2842079   -1.6730953   0.18185797   -3.2842079    1.6111125  1083845 
 4284000    1.3242099   -3.2844352   -1.6739444   0.18187643   -3.2844352    1.6104907  1083915 
 4285000    1.3246059   -3.2860578   -1.6751672   0.17886364   -3.2860578    1.6108906  1083970 
 4286000    1.3238503   -3.2849112   -1.6750063   0.18127617   -3.2849112    1.6099049  1084015 
 4287000    1.3243123   -3.2862783    -1.675877   0.18381491   -3.2862783    1.6104013  1084059 
 4288000    1.3229717   -3.2855677   -1.6768856   0.18387382   -3.2855677     1.608682  1084119 
 4289000    1.3237123   -3.2868814   -1.6773775   0.18020123   -3.2868814    1.6095039  1084172 
 4290000    1.3248379   -3.2875119   -1.6767478   0.18087168   -3.2875119    1.6107641  1084245 
 4291000    1.3247338   -3.2871856   -1.6766744   0.17834336   -3.2871856    1.6105112  1084330 
 4292000    1.3243987   -3.2873295   -1.6773532   0.18020825   -3.2873295    1.6099763  1084416 
 4293000    1.3249631   -3.2872477   -1.6766878   0.18380043   -3.2872477    1.6105599  1084485 
 4294000    1.3256641   -3.2868865   -1.6755697   0.18188836   -3.2868865    1.6113168  1084549 
 4295000    1.3253524   -3.2866963   -1.6758548   0.18316611   -3.2866963    1.6108415  1084614 
 4296000    1.3257087   -3.2872216   -1.6760481   0.18429104   -3.2872216    1.6111735  1084682 
 4297000    1.3256399   -3.2875921    -1.676584   0.18223237   -3.2875921    1.6110081  1084737 
 4298000    1.3258488    -3.287577    -1.676425   0.18155886    -3.287577    1.6111521  1084811 
 4299000    1.3266555   -3.2881704   -1.6761271   0.18173129   -3.2881704    1.6120433  1084871 
 4300000     1.326327   -3.2874741   -1.6759236   0.18024529   -3.2874741    1.6115505  1084934 
 4301000    1.3262279   -3.2877939   -1.6764544    0.1825953   -3.2877939    1.6113395  1084995 
 4302000    1.3257683   -3.2875465   -1.6768724    0.1799091   -3.2875465    1.6106742  1085067 
 4303000    1.3259815   -3.2868823   -1.6760292    0.1840241   -3.2868823    1.6108531  1085121 
 4304000    1.3264754   -3.2874743   -1.6761296   0.17885021   -3.2874743    1.6113447  1085194 
 4305000    1.3255399   -3.2861102   -1.6759954   0.18304088   -3.2861102    1.6101148  1085257 
 4306000    1.3264835   -3.2873359    -1.676161   0.18325072   -3.2873359    1.6111749  1085315 
 4307000    1.3257504   -3.2862694   -1.6760488   0.18445537   -3.2862694    1.6102207  1085358 
 4308000    1.3265737   -3.2872765   -1.6761406   0.17974843   -3.2872765    1.6111359  1085415 
 4309000    1.3261368   -3.2871762   -1.6766495   0.18001924   -3.2871762    1.6105267  1085468 
 4310000    1.3262146   -3.2871744   -1.6766511    0.1811445   -3.2871744    1.6105233  1085534 
 4311000     1.327111   -3.2877864   -1.6762903   0.18263767   -3.2877864    1.6114961  1085612 
 4312000    1.3275797   -3.2879488   -1.6759713   0.17842504   -3.2879488    1.6119776  1085671 
 4313000    1.3269095   -3.2874394    -1.676381   0.17889076   -3.2874394    1.6110584  1085742 
 4314000    1.3273541   -3.2888519   -1.6773457   0.18007148   -3.2888519    1.6115062  1085804 
 4315000    1.3273555   -3.2886753   -1.6772668   0.18064597   -3.2886753    1.6114085  1085871 
 4316000    1.3275215   -3.2885382   -1.6770084   0.18213774   -3.2885382    1.6115299  1085925 
 4317000    1.3286209      -3.2894   -1.6766544   0.17968241      -3.2894    1.6127456  1086005 
 4318000    1.3270385   -3.2874822   -1.6767774   0.18099717   -3.2874822    1.6107047  1086086 
 4319000    1.3278133   -3.2887173   -1.6771418   0.18324828   -3.2887173    1.6115755  1086133 
 4320000    1.3278725    -3.288728   -1.6771505   0.18212881    -3.288728    1.6115776  1086180 
 4321000    1.3271842   -3.2885847   -1.6779523   0.18178796   -3.2885847    1.6106324  1086254 
 4322000    1.3273494   -3.2888753   -1.6781194   0.18062415   -3.2888753    1.6107559  1086306 
 4323000    1.3263997   -3.2888055    -1.679297   0.18088386   -3.2888055    1.6095085  1086370 
 4324000    1.3278772   -3.2904646     -1.67927   0.18085862   -3.2904646    1.6111946  1086442 
 4325000     1.328234   -3.2906692   -1.6791277   0.18119622   -3.2906692    1.6115415  1086500 
 4326000    1.3278608   -3.2904317   -1.6794512     0.183858   -3.2904317    1.6109805  1086573 
 4327000    1.3272287   -3.2901098   -1.6799777   0.18206284   -3.2901098    1.6101321  1086628 
 4328000    1.3290431   -3.2921354   -1.6798956   0.17993613   -3.2921354    1.6122398  1086691 
 4329000    1.3292049   -3.2925085   -1.6801987   0.18332083   -3.2925085    1.6123098  1086776 
 4330000    1.3280332   -3.2917228   -1.6809216   0.18675064   -3.2917228    1.6108011  1086835 
 4331000    1.3287947   -3.2925709   -1.6809468   0.18185862   -3.2925709    1.6116241  1086903 
 4332000     1.327931   -3.2924907   -1.6820047   0.18167398   -3.2924907     1.610486  1086964 
 4333000     1.326965   -3.2909827   -1.6817467   0.18495231   -3.2909827     1.609236  1087017 
 4334000    1.3276836   -3.2923113   -1.6822808   0.17910243   -3.2923113    1.6100305  1087069 
 4335000    1.3279972   -3.2922685   -1.6819496   0.18297692   -3.2922685    1.6103189  1087131 
 4336000    1.3286695   -3.2928389   -1.6817936   0.18623718   -3.2928389    1.6110453  1087191 
 4337000    1.3284212   -3.2923185   -1.6816707   0.18016562   -3.2923185    1.6106478  1087256 
 4338000    1.3278761   -3.2921782   -1.6822771   0.18541268   -3.2921782    1.6099011  1087314 
 4339000     1.328833   -3.2931895   -1.6822379   0.17702652   -3.2931895    1.6109516  1087388 
 4340000     1.328174   -3.2929783   -1.6829041   0.18083174   -3.2929783    1.6100742  1087441 
 4341000    1.3279997   -3.2927185     -1.68294   0.17968876   -3.2927185    1.6097785  1087498 
 4342000    1.3281526   -3.2924344   -1.6825504   0.18235082   -3.2924344     1.609884  1087552 
 4343000    1.3291624   -3.2933319   -1.6822892   0.17939043   -3.2933319    1.6110428  1087596 
 4344000    1.3282701   -3.2922107   -1.6823531   0.18642268   -3.2922107    1.6098576  1087666 
 4345000    1.3282145   -3.2923772   -1.6826876   0.18258096   -3.2923772    1.6096896  1087734 
 4346000    1.3294934   -3.2936359   -1.6824793   0.18195435   -3.2936359    1.6111566  1087790 
 4347000    1.3280673   -3.2916357   -1.6823035   0.18002779   -3.2916357    1.6093322  1087855 
 4348000    1.3285231   -3.2916501   -1.6818588   0.18158485   -3.2916501    1.6097913  1087918 
 4349000    1.3298451   -3.2933029   -1.6820149    0.1855416   -3.2933029     1.611288  1087989 
 4350000     1.329768   -3.2928961   -1.6818067   0.18403952   -3.2928961    1.6110895  1088060 
 4351000    1.3303758   -3.2935281   -1.6817748   0.18045445   -3.2935281    1.6117533  1088109 
 4352000      1.33113   -3.2939485   -1.6813601   0.18246972   -3.2939485    1.6125884  1088162 
 4353000    1.3299839   -3.2925562    -1.681448    0.1863254   -3.2925562    1.6111082  1088224 
 4354000    1.3304068   -3.2933022   -1.6817602   0.18080436   -3.2933022     1.611542  1088277 
 4355000    1.3303903   -3.2936559   -1.6822435   0.18304426   -3.2936559    1.6114124  1088351 
 4356000    1.3288266   -3.2925802   -1.6831549     0.185348   -3.2925802    1.6094253  1088414 
 4357000    1.3294105   -3.2929493   -1.6828804   0.18399606   -3.2929493    1.6100688  1088457 
 4358000    1.3301403   -3.2939586   -1.6831035   0.18383727   -3.2939586    1.6108551  1088523 
 4359000    1.3304263   -3.2939429   -1.6828347   0.18034703   -3.2939429    1.6111082  1088586 
 4360000    1.3302702   -3.2946517   -1.6837977   0.18580995   -3.2946517    1.6108541  1088630 
 4361000    1.3312127   -3.2960745    -1.684165   0.18408746   -3.2960745    1.6119094  1088688 
 4362000    1.3304311   -3.2950404   -1.6841513   0.18359625   -3.2950404    1.6108891  1088738 
 4363000    1.3312551   -3.2962158   -1.6844164   0.18089906   -3.2962158    1.6117994  1088797 
 4364000     1.329623   -3.2943673   -1.6846237   0.18606687   -3.2943673    1.6097436  1088851 
 4365000    1.3305619   -3.2952739   -1.6844542   0.18171491   -3.2952739    1.6108196  1088892 
 4366000    1.3296695   -3.2939171   -1.6842592   0.18459656   -3.2939171    1.6096579  1088947 
 4367000    1.3295959   -3.2933987   -1.6839274   0.18460746   -3.2933987    1.6094713  1089013 
 4368000    1.3325929   -3.2965018   -1.6834945    0.1803135   -3.2965018    1.6130073  1089075 
 4369000     1.331283   -3.2943921   -1.6830458   0.18321165   -3.2943921    1.6113463  1089126 
 4370000    1.3308984   -3.2949516   -1.6841389   0.18398928   -3.2949516    1.6108127  1089172 
 4371000    1.3315224    -3.295492   -1.6840231   0.18230411    -3.295492    1.6114689  1089239 
 4372000    1.3306565   -3.2939214   -1.6836114   0.18443196   -3.2939214      1.61031  1089314 
 4373000    1.3324304   -3.2962062   -1.6838545   0.18192245   -3.2962062    1.6123516  1089385 
 4374000    1.3314514   -3.2950062   -1.6839471   0.18519135   -3.2950062    1.6110591  1089458 
 4375000    1.3315055   -3.2951869   -1.6841718   0.18407117   -3.2951869     1.611015  1089532 
 4376000    1.3311893   -3.2956548   -1.6851184   0.18795847   -3.2956548    1.6105363  1089597 
 4377000    1.3310037   -3.2953807   -1.6851665   0.18229694   -3.2953807    1.6102143  1089663 
 4378000    1.3308798   -3.2948379   -1.6848812   0.18340852   -3.2948379    1.6099566  1089736 
 4379000     1.331384   -3.2955968    -1.685113   0.18253369   -3.2955968    1.6104838  1089792 
 4380000    1.3315925    -3.295592   -1.6849493   0.18676129    -3.295592    1.6106428  1089855 
 4381000    1.3322837   -3.2964217   -1.6850389   0.18198893   -3.2964217    1.6113827  1089920 
 4382000    1.3321315   -3.2961657   -1.6850424   0.18341331   -3.2961657    1.6111233  1089971 
 4383000    1.3314146   -3.2954282   -1.6852414   0.18103741   -3.2954282    1.6101868  1090018 
 4384000    1.3317526   -3.2964787   -1.6859925   0.18381903   -3.2964787    1.6104863  1090092 
 4385000    1.3325435   -3.2977005   -1.6863391    0.1825561   -3.2977005    1.6113614  1090147 
 4386000    1.3321502   -3.2974281   -1.6865956   0.18164453   -3.2974281    1.6108326  1090183 
 4387000    1.3309489   -3.2963191   -1.6870424   0.18347813   -3.2963191    1.6092767  1090253 
 4388000    1.3309978   -3.2961769    -1.686909   0.18580069   -3.2961769    1.6092679  1090299 
 4389000    1.3326012   -3.2980061   -1.6868616   0.18002413   -3.2980061    1.6111445  1090341 
 4390000    1.3318326   -3.2971274   -1.6870081    0.1840006   -3.2971274    1.6101193  1090406 
 4391000    1.3320404   -3.2966451   -1.6863662   0.18760901   -3.2966451    1.6102789  1090468 
 4392000    1.3320061   -3.2982049   -1.6880295   0.18310934   -3.2982049    1.6101754  1090510 
 4393000    1.3326012   -3.2983675   -1.6875496   0.18259568   -3.2983675    1.6108179  1090562 
 4394000    1.3319352   -3.2979311   -1.6879935   0.18759964   -3.2979311    1.6099376  1090613 
 4395000    1.3319016   -3.2984087   -1.6886017    0.1828525   -3.2984087     1.609807  1090674 
 4396000    1.3327399   -3.2983519   -1.6876159   0.18579789   -3.2983519     1.610736  1090731 
 4397000    1.3319733    -3.297471   -1.6877265   0.18692816    -3.297471    1.6097446  1090775 
 4398000     1.332721   -3.2983542   -1.6878226   0.18613815   -3.2983542    1.6105316  1090854 
 4399000    1.3329416   -3.2993757   -1.6886661   0.18456967   -3.2993757    1.6107096  1090914 
 4400000    1.3341912   -3.3006534   -1.6885314   0.18174962   -3.3006534     1.612122  1090980 
 4401000    1.3327779   -3.2995132    -1.689186   0.18402687   -3.2995132    1.6103272  1091039 
 4402000    1.3333585   -3.2997688    -1.688833   0.18190874   -3.2997688    1.6109358  1091102 
 4403000    1.3333073   -3.2993289   -1.6885465   0.18764219   -3.2993289    1.6107824  1091164 
 4404000    1.3324434   -3.2987348   -1.6891068   0.18436171   -3.2987348    1.6096281  1091239 
 4405000    1.3322588   -3.2981518   -1.6888397   0.18387153   -3.2981518    1.6093121  1091302 
 4406000    1.3327697   -3.2992543    -1.689421   0.18012229   -3.2992543    1.6098333  1091367 
 4407000    1.3331393   -3.2989943    -1.688806    0.1852617   -3.2989943    1.6101883  1091429 
 4408000    1.3331083   -3.2992228   -1.6891723   0.18475206   -3.2992228    1.6100505  1091497 
 4409000    1.3336365   -3.2995778   -1.6889587   0.18168739   -3.2995778    1.6106191  1091544 
 4410000    1.3337309   -3.2995268   -1.6888984   0.18327897   -3.2995268    1.6106284  1091615 
 4411000    1.3325083   -3.2985088    -1.689463   0.18257579   -3.2985088    1.6090458  1091687 
 4412000    1.3328529   -3.2990779   -1.6897074   0.18105346   -3.2990779    1.6093705  1091749 
 4413000    1.3336017   -3.2990262   -1.6888429   0.18118288   -3.2990262    1.6101833  1091811 
 4414000    1.3342476   -3.2999428   -1.6890785   0.18318781   -3.2999428    1.6108643  1091878 
 4415000    1.3336798   -3.2993055   -1.6892035   0.18587062   -3.2993055     1.610102  1091930 
 4416000     1.334212   -3.3003648   -1.6897235   0.17955203   -3.3003648    1.6106413  1092000 
 4417000    1.3334944   -3.2998775    -1.690185    0.1848413   -3.2998775    1.6096925  1092056 
 4418000    1.3332802   -3.2996232   -1.6902674   0.18229126   -3.2996232    1.6093558  1092109 
 4419000    1.3341488   -3.3000095   -1.6896834    0.1829881   -3.3000095    1.6103261  1092162 
 4420000    1.3344954   -3.3002384   -1.6895868   0.18376203   -3.3002384    1.6106516  1092225 
 4421000    1.3354079   -3.3011861     -1.68951   0.18182841   -3.3011861    1.6116761  1092277 
 4422000    1.3341496   -3.2998331   -1.6897492   0.18273434   -3.2998331    1.6100839  1092327 
 4423000    1.3347388   -3.2998985    -1.689195   0.18773024   -3.2998985    1.6107035  1092389 
 4424000    1.3355428   -3.3013102   -1.6897266   0.18445665   -3.3013102    1.6115837  1092450 
 4425000    1.3344007   -3.3003789   -1.6902529   0.18894093   -3.3003789     1.610126  1092504 
 4426000    1.3357182   -3.3010496   -1.6894416   0.18364125   -3.3010496     1.611608  1092577 
 4427000    1.3352392   -3.3015951   -1.6906477    0.1845077   -3.3015951    1.6109475  1092633 
 4428000    1.3346891   -3.3018905   -1.6916715   0.18482441   -3.3018905     1.610219  1092677 
 4429000    1.3336682   -3.3008848   -1.6920065   0.18290536   -3.3008848    1.6088783  1092751 
 4430000    1.3339469    -3.300716   -1.6915912   0.19001402    -3.300716    1.6091248  1092812 
 4431000    1.3354629   -3.3029814   -1.6921148    0.1814873   -3.3029814    1.6108665  1092871 
 4432000    1.3354969   -3.3032841    -1.692474   0.18521661   -3.3032841    1.6108102  1092937 
 4433000    1.3356954    -3.303324   -1.6923627   0.18336542    -3.303324    1.6109612  1092997 
 4434000    1.3346103   -3.3024568   -1.6929044   0.18476569   -3.3024568    1.6095524  1093065 
 4435000    1.3351743   -3.3035079   -1.6933563   0.18556224   -3.3035079    1.6101515  1093120 
 4436000     1.335634   -3.3038498   -1.6932366   0.18274179   -3.3038498    1.6106131  1093183 
 4437000    1.3347993     -3.30274   -1.6932292   0.18935846     -3.30274    1.6095108  1093248 
 4438000    1.3348722   -3.3024155   -1.6929154   0.18468383   -3.3024155    1.6095001  1093315 
 4439000    1.3374743   -3.3051693   -1.6926217   0.18829617   -3.3051693    1.6125476  1093376 
 4440000    1.3375537   -3.3046573   -1.6921039   0.18482954   -3.3046573    1.6125533  1093437 
 4441000    1.3376543   -3.3052317   -1.6926323   0.18213469   -3.3052317    1.6125994  1093488 
 4442000    1.3362786   -3.3044157    -1.693544   0.18738067   -3.3044157    1.6108717  1093535 
 4443000    1.3354935   -3.3031729   -1.6933315   0.18779584   -3.3031729    1.6098414  1093592 
 4444000    1.3368861   -3.3047174   -1.6932726   0.18298136   -3.3047174    1.6114449  1093643 
 4445000     1.336698   -3.3053365   -1.6942039   0.18260302   -3.3053365    1.6111327  1093701 
 4446000    1.3362519   -3.3050437     -1.69454   0.18591206   -3.3050437    1.6105037  1093763 
 4447000    1.3360156   -3.3043303   -1.6941997   0.18433967   -3.3043303    1.6101306  1093823 
 4448000    1.3365039   -3.3042043   -1.6935544   0.18217248   -3.3042043    1.6106499  1093870 
 4449000    1.3366198   -3.3045043   -1.6938076   0.18582755   -3.3045043    1.6106968  1093933 
 4450000    1.3367052   -3.3046945   -1.6939949   0.18522182   -3.3046945    1.6106996  1094001 
 4451000     1.336512   -3.3050844   -1.6946853    0.1817726   -3.3050844    1.6103991  1094047 
 4452000    1.3365587   -3.3044946   -1.6941217   0.18484966   -3.3044946    1.6103729  1094103 
 4453000     1.336189   -3.3045598   -1.6947073    0.1829762   -3.3045598    1.6098525  1094154 
 4454000    1.3366567   -3.3050093   -1.6946861   0.18427958   -3.3050093    1.6103232  1094217 
 4455000    1.3371495   -3.3056007   -1.6947559   0.18559525   -3.3056007    1.6108448  1094266 
 4456000    1.3373212   -3.3059078   -1.6949533   0.18162941   -3.3059078    1.6109545  1094332 
 4457000     1.336687    -3.305923   -1.6958325   0.18454844    -3.305923    1.6100904  1094400 
 4458000    1.3367899   -3.3056672   -1.6955293   0.18241715   -3.3056672    1.6101379  1094452 
 4459000    1.3362081   -3.3045932   -1.6952473   0.18405235   -3.3045932    1.6093459  1094514 
 4460000    1.3370692   -3.3057628   -1.6954856   0.18460803   -3.3057628    1.6102771  1094586 
 4461000    1.3373521   -3.3060326   -1.6955119   0.18392406   -3.3060326    1.6105207  1094652 
 4462000    1.3380491   -3.3068247   -1.6955175   0.18498451   -3.3068247    1.6113071  1094688 
 4463000    1.3376223   -3.3055272   -1.6948165   0.18565456   -3.3055272    1.6107107  1094744 
 4464000    1.3374291   -3.3062893    -1.695898   0.18481562   -3.3062893    1.6103913  1094803 
 4465000     1.336368   -3.3051267   -1.6960953   0.18439956   -3.3051267    1.6090313  1094859 
 4466000    1.3382128   -3.3072923   -1.6961119   0.18731539   -3.3072923    1.6111804  1094908 
 4467000    1.3372364   -3.3065904   -1.6966722   0.19156118   -3.3065904    1.6099181  1094967 
 4468000    1.3379699   -3.3075288   -1.6968217   0.18694217   -3.3075288     1.610707  1095031 
 4469000    1.3380942   -3.3083586   -1.6975901   0.18618825   -3.3083586    1.6107685  1095091 
 4470000    1.3376668   -3.3078448   -1.6976497    0.1870552   -3.3078448    1.6101951  1095131 
 4471000    1.3372605   -3.3081073   -1.6984894   0.18554016   -3.3081073    1.6096178  1095191 
 4472000    1.3371909   -3.3081906    -1.698752   0.18388032   -3.3081906    1.6094386  1095256 
 4473000    1.3371923   -3.3086537   -1.6993017   0.18469119   -3.3086537    1.6093521  1095316 
 4474000     1.337811   -3.3096598   -1.6996395   0.18456377   -3.3096598    1.6100203  1095368 
 4475000     1.337918   -3.3094805    -1.699427   0.18990692   -3.3094805    1.6100535  1095433 
 4476000    1.3370171   -3.3084508   -1.6995535   0.18765052   -3.3084508    1.6088973  1095482 
 4477000    1.3375828   -3.3089698   -1.6994682   0.18621279   -3.3089698    1.6095017  1095534 
 4478000    1.3376354   -3.3090691   -1.6995614    0.1866009   -3.3090691    1.6095077  1095573 
 4479000    1.3386931   -3.3098626   -1.6991792   0.18156347   -3.3098626    1.6106834  1095639 
 4480000    1.3385373   -3.3098037   -1.6993798   0.18340222   -3.3098037    1.6104239  1095688 
 4481000    1.3373018   -3.3081714   -1.6992986   0.18733212   -3.3081714    1.6088728  1095732 
 4482000     1.337534   -3.3085203    -1.699465   0.18565227   -3.3085203    1.6090553  1095798 
 4483000    1.3385245   -3.3097007   -1.6995582   0.18487671   -3.3097007    1.6101425  1095869 
 4484000    1.3387799   -3.3095887   -1.6992345   0.18580539   -3.3095887    1.6103542  1095934 
 4485000    1.3383424   -3.3099119   -1.7001647   0.18344899   -3.3099119    1.6097472  1095989 
 4486000    1.3384508   -3.3100156   -1.7002232   0.18564032   -3.3100156    1.6097924  1096047 
 4487000    1.3381053   -3.3094081   -1.7001149   0.18222677   -3.3094081    1.6092931  1096104 
 4488000    1.3381016   -3.3097077     -1.70051   0.18155613   -3.3097077    1.6091977  1096166 
 4489000     1.338195   -3.3095127   -1.7002893   0.18331665   -3.3095127    1.6092233  1096225 
 4490000    1.3389502    -3.310293   -1.7002467   0.18474185    -3.310293    1.6100463  1096283 
 4491000    1.3382823   -3.3091789   -1.7000253   0.18736609   -3.3091789    1.6091536  1096344 
 4492000     1.338815   -3.3097891   -1.7000727   0.18501052   -3.3097891    1.6097164  1096397 
 4493000    1.3390683    -3.310449   -1.7005265   0.18434897    -3.310449    1.6099225  1096464 
 4494000     1.338446   -3.3100073   -1.7009166   0.18376248   -3.3100073    1.6090907  1096521 
 4495000    1.3385717   -3.3096922   -1.7005428   0.18776435   -3.3096922    1.6091494  1096584 
 4496000    1.3376006    -3.309417   -1.7015156   0.18843689    -3.309417    1.6079014  1096639 
 4497000    1.3380074    -3.309844   -1.7015563   0.18565257    -3.309844    1.6082877  1096709 
 4498000     1.340338   -3.3124616   -1.7014606     0.181672   -3.3124616     1.611001  1096769 
 4499000    1.3396942   -3.3112389    -1.701094     0.187547   -3.3112389    1.6101449  1096825 
 4500000    1.3395192   -3.3106741   -1.7007939   0.18796663   -3.3106741    1.6098803  1096862 
 4501000    1.3389823   -3.3101786    -1.701036   0.19075098   -3.3101786    1.6091426  1096925 
 4502000    1.3395448   -3.3108464   -1.7010968   0.18638951   -3.3108464    1.6097496  1096972 
 4503000    1.3396599    -3.311035   -1.7012439   0.18278625    -3.311035    1.6097911  1097038 
 4504000    1.3400241   -3.3118134    -1.701661   0.18349114   -3.3118134    1.6101524  1097090 
 4505000    1.3396128   -3.3109718   -1.7013855   0.18844102   -3.3109718    1.6095862  1097139 
 4506000    1.3413713   -3.3126373   -1.7010013   0.18962288   -3.3126373    1.6116361  1097182 
 4507000    1.3398376   -3.3114335   -1.7017311   0.18854997   -3.3114335    1.6097024  1097244 
 4508000    1.3407022    -3.312752   -1.7021107   0.18369478    -3.312752    1.6106413  1097312 
 4509000    1.3401704   -3.3121668   -1.7022509   0.18975075   -3.3121668    1.6099159  1097371 
 4510000    1.3404286   -3.3129096   -1.7027702   0.18806653   -3.3129096    1.6101394  1097430 
 4511000    1.3400651   -3.3135233   -1.7039129   0.18387891   -3.3135233    1.6096103  1097493 
 4512000    1.3399231   -3.3134323   -1.7040746   0.18294056   -3.3134323    1.6093577  1097549 
 4513000    1.3407389   -3.3147593     -1.70452   0.18204868   -3.3147593    1.6102393  1097616 
 4514000    1.3394739    -3.312491   -1.7038516   0.18726355    -3.312491    1.6086394  1097671 
 4515000     1.338984   -3.3120442    -1.704087   0.18475307   -3.3120442    1.6079572  1097735 
 4516000    1.3400177   -3.3131858    -1.704059   0.18423093   -3.3131858    1.6091268  1097784 
 4517000    1.3404665   -3.3136555   -1.7040616   0.18987212   -3.3136555    1.6095939  1097833 
 4518000     1.341141   -3.3143678   -1.7040476   0.18655663   -3.3143678    1.6103202  1097890 
 4519000    1.3407356   -3.3132807   -1.7035176   0.18712063   -3.3132807     1.609763  1097938 
 4520000    1.3398809   -3.3129045   -1.7042453    0.1873958   -3.3129045    1.6086592  1097991 
 4521000    1.3394976   -3.3129717   -1.7048606   0.18367444   -3.3129717    1.6081111  1098051 
 4522000    1.3393059   -3.3129897   -1.7052024   0.18573489   -3.3129897    1.6077873  1098115 
 4523000    1.3407566   -3.3144225   -1.7049597   0.18164652   -3.3144225    1.6094628  1098160 
 4524000    1.3412905    -3.314577   -1.7045524   0.18275525    -3.314577    1.6100246  1098214 
 4525000    1.3395588   -3.3126545   -1.7047833   0.18819895   -3.3126545    1.6078712  1098265 
 4526000    1.3415426   -3.3143477   -1.7041613   0.18377313   -3.3143477    1.6101864  1098310 
 4527000    1.3408598   -3.3141244   -1.7048234   0.18819476   -3.3141244    1.6093009  1098355 
 4528000    1.3422117   -3.3144348    -1.703592   0.18623943   -3.3144348    1.6108428  1098410 
 4529000    1.3408224   -3.3139127   -1.7048207   0.18547991   -3.3139127     1.609092  1098467 
 4530000    1.3420782   -3.3156718   -1.7051695   0.18547599   -3.3156718    1.6105023  1098533 
 4531000    1.3414086   -3.3145269   -1.7048984    0.1856201   -3.3145269    1.6096285  1098581 
 4532000    1.3406682   -3.3142122   -1.7055601   0.19035739   -3.3142122    1.6086521  1098641 
 4533000    1.3415653   -3.3158602   -1.7062166   0.18326912   -3.3158602    1.6096436  1098699 
 4534000    1.3407399    -3.314136   -1.7055663   0.18435877    -3.314136    1.6085697  1098756 
 4535000    1.3409113   -3.3145946    -1.705907   0.18710369   -3.3145946    1.6086875  1098816 
 4536000    1.3404281   -3.3142653   -1.7062335   0.18367022   -3.3142653    1.6080318  1098868 
 4537000    1.3421363   -3.3162362   -1.7062329   0.18955793   -3.3162362    1.6100033  1098921 
 4538000    1.3418119   -3.3150746   -1.7055438   0.18780283   -3.3150746    1.6095307  1098978 
 4539000    1.3412051   -3.3138479   -1.7051329    0.1899254   -3.3138479     1.608715  1099038 
 4540000    1.3417443   -3.3150103   -1.7057334   0.18751783   -3.3150103    1.6092769  1099096 
 4541000    1.3429753    -3.316357   -1.7056887   0.18509822    -3.316357    1.6106683  1099154 
 4542000    1.3422562   -3.3157674   -1.7060567   0.18421553   -3.3157674    1.6097107  1099219 
 4543000    1.3413492   -3.3152924   -1.7067646   0.18425288   -3.3152924    1.6085278  1099284 
 4544000    1.3426866   -3.3168564   -1.7068054   0.18560588   -3.3168564     1.610051  1099339 
 4545000    1.3409868   -3.3147629   -1.7068452   0.19356324   -3.3147629    1.6079177  1099404 
 4546000    1.3419756    -3.316528   -1.7075169   0.18412245    -3.316528    1.6090111  1099467 
 4547000    1.3427866   -3.3170591   -1.7071576   0.18406734   -3.3170591    1.6099015  1099523 
 4548000    1.3424117   -3.3168485   -1.7074595   0.18791222   -3.3168485    1.6093891  1099566 
 4549000     1.342521   -3.3174262   -1.7079866   0.18729475   -3.3174262    1.6094397  1099621 
 4550000    1.3424182   -3.3171711   -1.7079265   0.18750626   -3.3171711    1.6092447  1099670 
 4551000    1.3421715   -3.3164231   -1.7075751   0.18320175   -3.3164231     1.608848  1099739 
 4552000    1.3416866   -3.3162417   -1.7080656   0.18983959   -3.3162417    1.6081761  1099801 
 4553000    1.3419314   -3.3173989   -1.7090055   0.18437948   -3.3173989    1.6083934  1099853 
 4554000    1.3415659    -3.316708    -1.708836   0.18785433    -3.316708     1.607872  1099910 
 4555000    1.3440208   -3.3191994   -1.7084803   0.18419782   -3.3191994     1.610719  1099975 
 4556000    1.3436027   -3.3185797   -1.7084349   0.18658186   -3.3185797    1.6101448  1100025 
 4557000    1.3418312   -3.3176075     -1.70965    0.1844687   -3.3176075    1.6079575  1100069 
 4558000    1.3437176   -3.3197811   -1.7096245   0.18823555   -3.3197811    1.6101566  1100111 
 4559000    1.3443121   -3.3200151   -1.7092251   0.18390861   -3.3200151    1.6107899  1100165 
 4560000    1.3438902   -3.3197031   -1.7095183     0.191632   -3.3197031    1.6101848  1100233 
 4561000    1.3426932   -3.3183068   -1.7096453   0.18573867   -3.3183068    1.6086616  1100294 
 4562000    1.3434895   -3.3192843   -1.7097769   0.18759529   -3.3192843    1.6095073  1100368 
 4563000    1.3423782   -3.3188533   -1.7107402   0.18814746   -3.3188533    1.6081131  1100411 
 4564000    1.3429581   -3.3193786    -1.710635   0.18808022   -3.3193786    1.6087435  1100455 
 4565000    1.3432905   -3.3196408   -1.7105577   0.18508163   -3.3196408    1.6090831  1100495 
 4566000     1.343327   -3.3202501   -1.7112022   0.18467751   -3.3202501    1.6090479  1100549 
 4567000    1.3440245    -3.320861   -1.7110624   0.18924075    -3.320861    1.6097986  1100607 
 4568000    1.3429891   -3.3202953   -1.7117997   0.18557236   -3.3202953    1.6084956  1100650 
 4569000    1.3429806   -3.3197274   -1.7113239   0.18339933   -3.3197274    1.6084035  1100706 
 4570000    1.3431099   -3.3207417   -1.7122694   0.18758401   -3.3207417    1.6084722  1100765 
 4571000     1.342194   -3.3197371    -1.712445   0.18986297   -3.3197371    1.6072921  1100822 
 4572000    1.3424254   -3.3199179   -1.7124421   0.19102757   -3.3199179    1.6074758  1100886 
 4573000    1.3434142   -3.3207142   -1.7121334   0.18824691   -3.3207142    1.6085809  1100940 
 4574000    1.3434206   -3.3207439    -1.712224   0.18670393   -3.3207439    1.6085199  1100987 
 4575000    1.3443915   -3.3216129   -1.7119992    0.1834839   -3.3216129    1.6096137  1101034 
 4576000     1.344258   -3.3222337    -1.712847   0.18633187   -3.3222337    1.6093867  1101080 
 4577000    1.3431188    -3.320826   -1.7128821   0.18900611    -3.320826    1.6079439  1101134 
 4578000    1.3423505   -3.3201751   -1.7132312   0.18589814   -3.3201751    1.6069439  1101189 
 4579000     1.342866   -3.3209723   -1.7134712    0.1868752   -3.3209723    1.6075011  1101230 
 4580000    1.3434006   -3.3220414    -1.713969    0.1879135   -3.3220414    1.6080724  1101277 
 4581000    1.3431302   -3.3218548   -1.7141688   0.18665617   -3.3218548     1.607686  1101320 
 4582000    1.3445726   -3.3224332    -1.713088   0.18807342   -3.3224332    1.6093452  1101366 
 4583000    1.3444466   -3.3218016    -1.712692    0.1906765   -3.3218016    1.6091096  1101424 
 4584000    1.3444084   -3.3213794   -1.7123827   0.18667864   -3.3213794    1.6089967  1101470 
 4585000    1.3445885   -3.3220479   -1.7129174   0.18607253   -3.3220479    1.6091305  1101526 
 4586000    1.3448471   -3.3213752     -1.71202   0.18558142   -3.3213752    1.6093553  1101584 
 4587000    1.3445046   -3.3203064   -1.7114501    0.1888728   -3.3203064    1.6088563  1101645 
 4588000    1.3449799   -3.3212388   -1.7119043   0.19070086   -3.3212388    1.6093345  1101707 
 4589000    1.3460381   -3.3220147   -1.7115047   0.18687498   -3.3220147      1.61051  1101769 
 4590000    1.3468172   -3.3227598   -1.7114053   0.18727306   -3.3227598    1.6113545  1101829 
 4591000     1.345965   -3.3225048   -1.7122605    0.1856413   -3.3225048    1.6102443  1101891 
 4592000    1.3446748   -3.3211928   -1.7125593   0.18628028   -3.3211928    1.6086336  1101937 
 4593000    1.3453877   -3.3223287   -1.7129124    0.1837233   -3.3223287    1.6094164  1101985 
 4594000    1.3444545   -3.3220391   -1.7138369   0.18834369   -3.3220391    1.6082022  1102052 
 4595000    1.3444949   -3.3221751   -1.7140033   0.18402735   -3.3221751    1.6081717  1102106 
 4596000      1.34452   -3.3218655   -1.7137265   0.18754655   -3.3218655     1.608139  1102149 
 4597000    1.3455272   -3.3231327   -1.7138751   0.18455017   -3.3231327    1.6092575  1102208 
 4598000    1.3451067   -3.3221988    -1.713504   0.18598256   -3.3221988    1.6086948  1102249 
 4599000    1.3452373   -3.3213432   -1.7125666   0.18476232   -3.3213432    1.6087766  1102300 
 4600000    1.3457197   -3.3218963   -1.7126188   0.18967092   -3.3218963    1.6092775  1102352 
 4601000    1.3463084   -3.3221371     -1.71223   0.18679391   -3.3221371     1.609907  1102403 
 4602000    1.3462597   -3.3219815   -1.7122276   0.18960932   -3.3219815    1.6097539  1102468 
 4603000    1.3455575   -3.3215146   -1.7126733   0.19192549   -3.3215146    1.6088413  1102518 
 4604000    1.3459011   -3.3212587   -1.7121118   0.19324047   -3.3212587     1.609147  1102590 
 4605000    1.3464302   -3.3227718   -1.7130813   0.19015101   -3.3227718    1.6096906  1102651 
 4606000    1.3474854   -3.3243089   -1.7134284   0.18773589   -3.3243089    1.6108804  1102700 
 4607000     1.344988   -3.3216322   -1.7138233   0.19299797   -3.3216322    1.6078089  1102759 
 4608000    1.3460706   -3.3232863   -1.7142767   0.19248521   -3.3232863    1.6090097  1102823 
 4609000    1.3468382   -3.3237932   -1.7139755   0.19148187   -3.3237932    1.6098177  1102898 
 4610000    1.3456976   -3.3228166   -1.7144658    0.1915948   -3.3228166    1.6083509  1102969 
 4611000     1.347658   -3.3250675   -1.7144729   0.18712096   -3.3250675    1.6105946  1103037 
 4612000    1.3469574   -3.3248795    -1.715217   0.18285505   -3.3248795    1.6096625  1103102 
 4613000    1.3454813   -3.3231465   -1.7153297    0.1869178   -3.3231465    1.6078169  1103158 
 4614000    1.3462512   -3.3244396   -1.7157873   0.18876702   -3.3244396    1.6086523  1103216 
 4615000    1.3477673   -3.3262131   -1.7158164    0.1892566   -3.3262131    1.6103967  1103262 
 4616000    1.3465092   -3.3253947   -1.7165815   0.19144886   -3.3253947    1.6088133  1103317 
 4617000    1.3456061   -3.3248847   -1.7172306   0.19023865   -3.3248847    1.6076541  1103372 
 4618000    1.3460045   -3.3265887   -1.7185577   0.18874603   -3.3265887     1.608031  1103440 
 4619000    1.3459661   -3.3258706   -1.7179642   0.18528226   -3.3258706    1.6079064  1103494 
 4620000    1.3462461   -3.3258883   -1.7177188   0.18359194   -3.3258883    1.6081695  1103543 
 4621000    1.3469047    -3.326965   -1.7180744   0.18720223    -3.326965    1.6088906  1103588 
 4622000    1.3461176   -3.3256702   -1.7177926    0.1843577   -3.3256702    1.6078776  1103638 
 4623000    1.3464387   -3.3257838   -1.7175897   0.19024106   -3.3257838    1.6081941  1103684 
 4624000    1.3469702   -3.3256945   -1.7169457   0.19072228   -3.3256945    1.6087488  1103739 
 4625000    1.3468162   -3.3254307   -1.7169314   0.18825516   -3.3254307    1.6084993  1103784 
 4626000    1.3477511   -3.3264772   -1.7169737   0.19137194   -3.3264772    1.6095036  1103861 
 4627000    1.3479016   -3.3264392   -1.7168391   0.18848884   -3.3264392    1.6096001  1103918 
 4628000    1.3470761   -3.3249925   -1.7164568   0.18930589   -3.3249925    1.6085357  1103972 
 4629000    1.3489794   -3.3273307   -1.7165996    0.1863628   -3.3273307     1.610731  1104025 
 4630000    1.3476523    -3.326324   -1.7172431   0.19079466    -3.326324    1.6090809  1104070 
 4631000    1.3474359   -3.3266639   -1.7179434   0.19105033   -3.3266639    1.6087205  1104140 
 4632000    1.3475447   -3.3265689   -1.7177943   0.18552553   -3.3265689    1.6087746  1104192 
 4633000    1.3477253   -3.3267302   -1.7178114   0.18934098   -3.3267302    1.6089188  1104241 
 4634000    1.3463652   -3.3261783   -1.7189573   0.18854003   -3.3261783     1.607221  1104292 
 4635000    1.3484872   -3.3281612   -1.7185034    0.1828854   -3.3281612    1.6096578  1104358 
 4636000    1.3484918   -3.3266699    -1.717075   0.19157162   -3.3266699    1.6095949  1104405 
 4637000    1.3466477   -3.3257828   -1.7184691   0.18967492   -3.3257828    1.6073137  1104460 
 4638000    1.3479345   -3.3268904    -1.718121   0.19071264   -3.3268904    1.6087694  1104515 
 4639000    1.3479024   -3.3273769   -1.7187303    0.1849967   -3.3273769    1.6086466  1104573 
 4640000    1.3476174   -3.3273978   -1.7191802   0.18678465   -3.3273978    1.6082176  1104634 
 4641000    1.3475971   -3.3275472   -1.7194178   0.18571121   -3.3275472    1.6081293  1104678 
 4642000    1.3477726   -3.3271788   -1.7189201   0.19185605   -3.3271788    1.6082587  1104733 
 4643000    1.3482652   -3.3271758   -1.7184239   0.18747804   -3.3271758    1.6087519  1104798 
 4644000    1.3490459   -3.3284828   -1.7188781   0.18679654   -3.3284828    1.6096047  1104852 
 4645000    1.3488632   -3.3280456   -1.7187288   0.19033253   -3.3280456    1.6093169  1104900 
 4646000    1.3497744   -3.3288328   -1.7185134   0.18692047   -3.3288328    1.6103194  1104958 
 4647000    1.3492635   -3.3280398   -1.7184085   0.18996257   -3.3280398    1.6096313  1105012 
 4648000    1.3498412   -3.3282159   -1.7179799   0.19224644   -3.3282159    1.6102359  1105070 
 4649000    1.3485279   -3.3276729   -1.7190909   0.18863344   -3.3276729     1.608582  1105130 
 4650000    1.3487114   -3.3281588   -1.7194526   0.19364862   -3.3281588    1.6087063  1105195 
 4651000    1.3489368   -3.3284511    -1.719543   0.18925996   -3.3284511    1.6089081  1105241 
 4652000    1.3490991   -3.3287503   -1.7197215   0.18540559   -3.3287503    1.6090288  1105291 
 4653000    1.3488694   -3.3291994   -1.7204998   0.18915646   -3.3291994    1.6086996  1105329 
 4654000    1.3482575   -3.3289628   -1.7210613   0.18510747   -3.3289628    1.6079015  1105376 
 4655000    1.3478965   -3.3286125     -1.72122   0.18743461   -3.3286125    1.6073925  1105430 
 4656000    1.3483568   -3.3286517   -1.7207744   0.18879044   -3.3286517    1.6078773  1105474 
 4657000    1.3490639   -3.3301276   -1.7214783   0.18753671   -3.3301276    1.6086492  1105523 
 4658000    1.3486768   -3.3302366   -1.7221464   0.18517114   -3.3302366    1.6080903  1105590 
 4659000    1.3495689   -3.3307312   -1.7216398   0.18344385   -3.3307312    1.6090914  1105633 
 4660000    1.3489862   -3.3297202   -1.7213891   0.19401792   -3.3297202    1.6083311  1105678 
 4661000     1.348626   -3.3293549   -1.7215361   0.19171576   -3.3293549    1.6078188  1105735 
 4662000    1.3491974   -3.3296057   -1.7211828   0.18694936   -3.3296057    1.6084229  1105788 
 4663000     1.349641   -3.3295586    -1.720684   0.18543775   -3.3295586    1.6088746  1105841 
 4664000    1.3503567   -3.3304532   -1.7207938   0.19171271   -3.3304532    1.6096594  1105888 
 4665000    1.3501936   -3.3301433   -1.7207569   0.19243914   -3.3301433    1.6093864  1105942 
 4666000    1.3504118   -3.3303508   -1.7207626   0.19501788   -3.3303508    1.6095882  1105982 
 4667000     1.351185   -3.3309702   -1.7205362    0.1883271   -3.3309702    1.6104341  1106034 
 4668000     1.350289   -3.3303972   -1.7211037   0.19271484   -3.3303972    1.6092934  1106084 
 4669000    1.3503027    -3.331292   -1.7220564   0.18899075    -3.331292    1.6092356  1106135 
 4670000    1.3500238   -3.3310245   -1.7221737   0.18952889   -3.3310245    1.6088508  1106171 
 4671000    1.3497631   -3.3312849   -1.7228174   0.19150163   -3.3312849    1.6084674  1106221 
 4672000    1.3503005   -3.3319078   -1.7228684   0.18806006   -3.3319078    1.6090395  1106268 
 4673000    1.3505152   -3.3312392   -1.7220297   0.19290276   -3.3312392    1.6092095  1106327 
 4674000    1.3502733   -3.3318641   -1.7230141    0.1868998   -3.3318641    1.6088501  1106376 
 4675000    1.3509792   -3.3329545   -1.7233449   0.18656134   -3.3329545    1.6096096  1106432 
 4676000     1.349882   -3.3318922   -1.7236422   0.18557393   -3.3318922      1.60825  1106468 
 4677000    1.3500563   -3.3320621   -1.7236713   0.18886685   -3.3320621    1.6083909  1106514 
 4678000    1.3508497    -3.332907   -1.7236524   0.18769742    -3.332907    1.6092546  1106570 
 4679000    1.3509617   -3.3332595    -1.723947   0.18682556   -3.3332595    1.6093125  1106622 
 4680000    1.3502751   -3.3331907    -1.724779    0.1932507   -3.3331907    1.6084117  1106679 
 4681000    1.3486979   -3.3318968   -1.7254234   0.18423091   -3.3318968    1.6064734  1106720 
 4682000    1.3490738   -3.3323144   -1.7254599   0.18937628   -3.3323144    1.6068544  1106766 
 4683000    1.3505282   -3.3339655   -1.7254544   0.18739173   -3.3339655    1.6085111  1106818 
 4684000    1.3506953   -3.3340042   -1.7253667   0.18729186   -3.3340042    1.6086375  1106868 
 4685000    1.3508386   -3.3335769    -1.724827    0.1894945   -3.3335769      1.60875  1106908 
 4686000    1.3505056   -3.3329612    -1.724679   0.19109983   -3.3329612    1.6082822  1106957 
 4687000    1.3501781   -3.3330912   -1.7252716   0.19202596   -3.3330912    1.6078196  1107007 
 4688000    1.3504161   -3.3331279   -1.7250916    0.1887539   -3.3331279    1.6080362  1107053 
 4689000    1.3510709   -3.3338944   -1.7251628   0.18959229   -3.3338944    1.6087316  1107111 
 4690000    1.3510899   -3.3341331   -1.7254631   0.19061262   -3.3341331    1.6086699  1107169 
 4691000      1.35079   -3.3336457   -1.7254026   0.18728955   -3.3336457    1.6082431  1107217 
 4692000    1.3498419   -3.3325289   -1.7254857   0.19234385   -3.3325289    1.6070433  1107266 
 4693000     1.350682   -3.3344442   -1.7264908   0.19080604   -3.3344442    1.6079534  1107328 
 4694000    1.3496767   -3.3329326   -1.7262514   0.19525481   -3.3329326    1.6066812  1107380 
 4695000    1.3515261   -3.3341447   -1.7253318   0.19229383   -3.3341447     1.608813  1107428 
 4696000    1.3511985   -3.3347922    -1.726439   0.18571269   -3.3347922    1.6083533  1107476 
 4697000    1.3506235   -3.3342529   -1.7266537   0.18699913   -3.3342529    1.6075992  1107524 
 4698000    1.3511064   -3.3351522   -1.7270668   0.18767595   -3.3351522    1.6080854  1107585 
 4699000    1.3494563   -3.3342053   -1.7281506   0.18986767   -3.3342053    1.6060547  1107631 
 4700000    1.3493845   -3.3340279   -1.7281354   0.19213063   -3.3340279    1.6058925  1107684 
 4701000    1.3504876    -3.335788   -1.7286524   0.18499853    -3.335788    1.6071356  1107732 
 4702000    1.3497994   -3.3345999   -1.7283558   0.18802006   -3.3345999    1.6062441  1107782 
 4703000    1.3508773   -3.3364884   -1.7290167   0.18534353   -3.3364884    1.6074717  1107820 
 4704000    1.3496449   -3.3353014   -1.7293557   0.18966249   -3.3353014    1.6059457  1107861 
 4705000    1.3493056   -3.3360207   -1.7305511   0.18618945   -3.3360207    1.6054696  1107911 
 4706000    1.3484563   -3.3351656   -1.7307775   0.18665367   -3.3351656    1.6043881  1107960 
 4707000    1.3496522   -3.3359064   -1.7301636   0.19207807   -3.3359064    1.6057428  1108007 
 4708000    1.3503175   -3.3371878   -1.7307287    0.1887335   -3.3371878     1.606459  1108059 
 4709000    1.3515509    -3.338151    -1.730306   0.18646762    -3.338151    1.6078451  1108115 
 4710000    1.3508413   -3.3368397   -1.7299054   0.19081957   -3.3368397    1.6069342  1108161 
 4711000     1.350499   -3.3367868   -1.7303555   0.19284304   -3.3367868    1.6064313  1108227 
 4712000    1.3501659   -3.3369629   -1.7310104   0.18765761   -3.3369629    1.6059525  1108284 
 4713000    1.3514814   -3.3387852   -1.7313622   0.18747014   -3.3387852     1.607423  1108349 
 4714000    1.3503998   -3.3384451   -1.7323636   0.19128131   -3.3384451    1.6060814  1108387 
 4715000     1.351821   -3.3389564   -1.7312485     0.191067   -3.3389564    1.6077079  1108431 
 4716000    1.3514786    -3.338319   -1.7310835   0.19229584    -3.338319    1.6072355  1108476 
 4717000    1.3514033   -3.3389588   -1.7319086   0.18968066   -3.3389588    1.6070502  1108542 
 4718000    1.3503973   -3.3373137   -1.7315437   0.19406543   -3.3373137      1.60577  1108600 
 4719000    1.3514797   -3.3392979   -1.7323149   0.19063197   -3.3392979     1.606983  1108651 
 4720000    1.3508623   -3.3394588   -1.7332866   0.18900935   -3.3394588    1.6061722  1108704 
 4721000    1.3504228   -3.3387766   -1.7331893   0.18706195   -3.3387766    1.6055873  1108747 
 4722000    1.3507849   -3.3388549   -1.7329153   0.19026104   -3.3388549    1.6059396  1108801 
 4723000    1.3511675   -3.3397201   -1.7334039   0.18788083   -3.3397201    1.6063163  1108855 
 4724000    1.3499884   -3.3379708    -1.733146   0.18973855   -3.3379708    1.6048248  1108917 
 4725000    1.3520761    -3.340879   -1.7336434   0.18265776    -3.340879    1.6072356  1108966 
 4726000    1.3515444   -3.3400729   -1.7335578   0.19105733   -3.3400729    1.6065152  1109027 
 4727000    1.3512351    -3.340195   -1.7341083   0.18613692    -3.340195    1.6060867  1109069 
 4728000    1.3508782   -3.3401175   -1.7345216   0.18797966   -3.3401175    1.6055959  1109115 
 4729000    1.3506622   -3.3392912    -1.734023   0.18680008   -3.3392912    1.6052682  1109164 
 4730000    1.3512376   -3.3392603   -1.7333734   0.18556788   -3.3392603    1.6058869  1109209 
 4731000    1.3503677   -3.3385729   -1.7337705   0.18588982   -3.3385729    1.6048024  1109244 
 4732000    1.3503315   -3.3383626   -1.7336725   0.19068351   -3.3383626      1.60469  1109292 
 4733000    1.3508831   -3.3386309   -1.7333534   0.18496873   -3.3386309    1.6052775  1109339 
 4734000    1.3520589   -3.3396988   -1.7330632   0.18807959   -3.3396988    1.6066355  1109366 
 4735000    1.3510929   -3.3392807   -1.7338697   0.18867049   -3.3392807     1.605411  1109419 
 4736000    1.3525139   -3.3404957   -1.7334642   0.18691602   -3.3404957    1.6070315  1109466 
 4737000    1.3519721   -3.3401145   -1.7337805    0.1858246   -3.3401145     1.606334  1109503 
 4738000    1.3511319   -3.3380311   -1.7327532   0.19107205   -3.3380311     1.605278  1109543 
 4739000    1.3521981   -3.3397127   -1.7332375   0.19170601   -3.3397127    1.6064752  1109591 
 4740000      1.35209   -3.3397666   -1.7334807   0.18959075   -3.3397666    1.6062859  1109633 
 4741000    1.3516262    -3.339424   -1.7337599   0.18742193    -3.339424    1.6056641  1109682 
 4742000    1.3517551   -3.3390962   -1.7333542   0.18859729   -3.3390962     1.605742  1109734 
 4743000    1.3526811   -3.3404816   -1.7336874    0.1890005   -3.3404816    1.6067941  1109767 
 4744000    1.3527731   -3.3403689   -1.7335321   0.18981374   -3.3403689    1.6068369  1109813 
 4745000    1.3524167   -3.3402278   -1.7338853   0.18712022   -3.3402278    1.6063425  1109862 
 4746000    1.3518656   -3.3400529   -1.7344372   0.19210025   -3.3400529    1.6056157  1109912 
 4747000    1.3507893   -3.3392143   -1.7349463   0.19116857   -3.3392143     1.604268  1109960 
 4748000    1.3516499   -3.3397961   -1.7345625   0.18943533   -3.3397961    1.6052337  1109999 
 4749000    1.3519511   -3.3413215   -1.7358067   0.19349756   -3.3413215    1.6055148  1110052 
 4750000    1.3530309   -3.3424366   -1.7357077   0.19147257   -3.3424366    1.6067289  1110099 
 4751000    1.3528414   -3.3423527   -1.7359385   0.18586621   -3.3423527    1.6064142  1110161 
 4752000    1.3526631   -3.3422283   -1.7360794    0.1857765   -3.3422283     1.606149  1110198 
 4753000    1.3511338   -3.3409344   -1.7366779    0.1885287   -3.3409344    1.6042565  1110251 
 4754000    1.3525698   -3.3427039   -1.7368233   0.18676773   -3.3427039    1.6058805  1110307 
 4755000    1.3519846   -3.3415049   -1.7363813   0.19026757   -3.3415049    1.6051236  1110350 
 4756000    1.3533506   -3.3428166   -1.7361392   0.18521924   -3.3428166    1.6066773  1110397 
 4757000    1.3530603   -3.3422508   -1.7359788   0.19047711   -3.3422508    1.6062719  1110439 
 4758000    1.3522083   -3.3413015   -1.7360973    0.1920346   -3.3413015    1.6052041  1110478 
 4759000    1.3535315    -3.344115   -1.7374414   0.18685089    -3.344115    1.6066736  1110548 
 4760000    1.3519855   -3.3424882    -1.737735   0.18677511   -3.3424882    1.6047532  1110607 
 4761000    1.3525446   -3.3427732   -1.7374446   0.18695603   -3.3427732    1.6053287  1110668 
 4762000    1.3527633   -3.3429888   -1.7374714   0.18870927   -3.3429888    1.6055174  1110717 
 4763000     1.352483   -3.3424002    -1.737282   0.19066381   -3.3424002    1.6051182  1110763 
 4764000     1.353271   -3.3437037   -1.7377197   0.18787571   -3.3437037     1.605984  1110811 
 4765000    1.3529481   -3.3434195   -1.7378894   0.18708929   -3.3434195    1.6055301  1110860 
 4766000    1.3524664   -3.3427078   -1.7377898   0.18896756   -3.3427078     1.604918  1110888 
 4767000    1.3525157   -3.3437808   -1.7388895    0.1835878   -3.3437808    1.6048913  1110947 
 4768000    1.3529422   -3.3441853   -1.7388501   0.18931755   -3.3441853    1.6053352  1110990 
 4769000    1.3530135   -3.3437392   -1.7384118   0.19168685   -3.3437392    1.6053273  1111054 
 4770000    1.3534195   -3.3444406   -1.7387183   0.18939956   -3.3444406    1.6057223  1111114 
 4771000    1.3526034   -3.3432357   -1.7385538    0.1895075   -3.3432357    1.6046819  1111164 
 4772000    1.3541607   -3.3458705   -1.7394221     0.185884   -3.3458705    1.6064484  1111220 
 4773000    1.3533152    -3.344382   -1.7390045   0.18889665    -3.344382    1.6053775  1111267 
 4774000    1.3542525   -3.3452109   -1.7387794   0.19002826   -3.3452109    1.6064315  1111307 
 4775000    1.3539892   -3.3454336   -1.7394054   0.19364322   -3.3454336    1.6060282  1111370 
 4776000    1.3533323   -3.3452814   -1.7401147   0.18397686   -3.3452814    1.6051667  1111427 
 4777000    1.3530462   -3.3447724   -1.7399999   0.19206249   -3.3447724    1.6047725  1111465 
 4778000    1.3527446   -3.3442395   -1.7398912   0.19072815   -3.3442395    1.6043483  1111511 
 4779000     1.354043   -3.3457624   -1.7399508    0.1906424   -3.3457624    1.6058116  1111564 
 4780000    1.3544058    -3.345873    -1.739699   0.18709462    -3.345873     1.606174  1111611 
 4781000    1.3535454   -3.3440605   -1.7389746   0.18769297   -3.3440605    1.6050858  1111658 
 4782000    1.3538512   -3.3449612   -1.7395836   0.18833228   -3.3449612    1.6053776  1111707 
 4783000    1.3536778   -3.3439634   -1.7388419    0.1954809   -3.3439634    1.6051215  1111742 
 4784000    1.3555911   -3.3463036   -1.7389987   0.18948882   -3.3463036    1.6073049  1111801 
 4785000    1.3548662   -3.3457578    -1.739389   0.18939267   -3.3457578    1.6063689  1111854 
 4786000    1.3540168    -3.345097   -1.7397931    0.1911093    -3.345097     1.605304  1111894 
 4787000    1.3541202   -3.3444579   -1.7390977   0.19112346   -3.3444579    1.6053602  1111940 
 4788000    1.3549448   -3.3454632   -1.7391991   0.18821021   -3.3454632    1.6062641  1111991 
 4789000    1.3556674   -3.3471733   -1.7401205   0.19264897   -3.3471733    1.6070528  1112038 
 4790000    1.3546682   -3.3448903      -1.7391   0.19335349   -3.3448903    1.6057903  1112092 
 4791000    1.3554903    -3.345871   -1.7391856   0.19000908    -3.345871    1.6066854  1112147 
 4792000    1.3553096   -3.3456835   -1.7392946   0.19285203   -3.3456835    1.6063889  1112204 
 4793000    1.3547497   -3.3456639   -1.7399979   0.18816077   -3.3456639     1.605666  1112245 
 4794000    1.3556568   -3.3460003   -1.7393342   0.18745631   -3.3460003    1.6066661  1112297 
 4795000    1.3551644   -3.3455912   -1.7395751   0.19365731   -3.3455912    1.6060161  1112343 
 4796000    1.3561787   -3.3468838   -1.7397451    0.1869633   -3.3468838    1.6071387  1112398 
 4797000    1.3545196   -3.3454048   -1.7403073    0.1930414   -3.3454048    1.6050975  1112450 
 4798000    1.3553643    -3.345989   -1.7399757   0.18916803    -3.345989    1.6060133  1112509 
 4799000    1.3548206   -3.3459285   -1.7405999   0.19011404   -3.3459285    1.6053286  1112537 
 4800000    1.3561438   -3.3468423   -1.7400108    0.1928495   -3.3468423    1.6068315  1112582 
 4801000    1.3559237   -3.3471541   -1.7406497   0.18812243   -3.3471541    1.6065043  1112628 
 4802000    1.3543497    -3.345855   -1.7412862    0.1886607    -3.345855    1.6045688  1112677 
 4803000    1.3541836   -3.3460026   -1.7417013     0.190084   -3.3460026    1.6043013  1112726 
 4804000     1.354822   -3.3466045   -1.7416277   0.19293114   -3.3466045    1.6049768  1112782 
 4805000    1.3559394   -3.3472635    -1.741025   0.19239826   -3.3472635    1.6062385  1112825 
 4806000    1.3568085   -3.3479415   -1.7407586   0.18958552   -3.3479415    1.6071829  1112884 
 4807000    1.3557111   -3.3470104   -1.7411996    0.1896523   -3.3470104    1.6058108  1112934 
 4808000    1.3550696   -3.3467205   -1.7417287   0.18809634   -3.3467205    1.6049918  1112975 
 4809000    1.3566209   -3.3476265   -1.7408853   0.19122276   -3.3476265    1.6067412  1113036 
 4810000    1.3558466   -3.3470344    -1.741268   0.18964044   -3.3470344    1.6057664  1113076 
 4811000    1.3547859    -3.346514   -1.7420717   0.18891247    -3.346514    1.6044424  1113123 
 4812000    1.3543366   -3.3461141   -1.7422671   0.19533977   -3.3461141     1.603847  1113167 
 4813000    1.3566314   -3.3479791   -1.7414897   0.19007205   -3.3479791    1.6064894  1113219 
 4814000    1.3557545     -3.34748   -1.7420924   0.19297713     -3.34748    1.6053877  1113263 
 4815000    1.3557721    -3.347889   -1.7425252   0.18918276    -3.347889    1.6053638  1113294 
 4816000    1.3560224   -3.3479328   -1.7423346   0.19184334   -3.3479328    1.6055981  1113337 
 4817000    1.3550783   -3.3472112   -1.7427929   0.18893426   -3.3472112    1.6044183  1113380 
 4818000    1.3560209   -3.3485443   -1.7430677   0.18924662   -3.3485443    1.6054766  1113420 
 4819000    1.3546916   -3.3471315   -1.7432877   0.19347365   -3.3471315    1.6038437  1113461 
 4820000    1.3560948   -3.3485218   -1.7430585   0.18888639   -3.3485218    1.6054632  1113490 
 4821000    1.3563244   -3.3495173   -1.7438414   0.18769892   -3.3495173    1.6056759  1113531 
 4822000    1.3550075   -3.3475146   -1.7434783   0.19298576   -3.3475146    1.6040363  1113587 
 4823000    1.3573964   -3.3503413   -1.7435492   0.18334108   -3.3503413    1.6067921  1113637 
 4824000    1.3554864    -3.348098   -1.7436289   0.18728349    -3.348098    1.6044691  1113680 
 4825000    1.3562468   -3.3494405   -1.7441304   0.19128003   -3.3494405    1.6053101  1113721 
 4826000    1.3559137   -3.3488352   -1.7439914   0.18857059   -3.3488352    1.6048438  1113771 
 4827000    1.3570948   -3.3504268   -1.7442471   0.18954575   -3.3504268    1.6061797  1113814 
 4828000    1.3570406   -3.3507372   -1.7446822   0.19062998   -3.3507372     1.606055  1113856 
 4829000    1.3560173   -3.3493951   -1.7446304   0.19361111   -3.3493951    1.6047648  1113911 
 4830000    1.3565412   -3.3502217   -1.7449033   0.19262668   -3.3502217    1.6053184  1113957 
 4831000    1.3571661   -3.3514275   -1.7454272   0.19088788   -3.3514275    1.6060003  1113997 
 4832000    1.3561117   -3.3511248   -1.7464299   0.19032869   -3.3511248    1.6046949  1114037 
 4833000    1.3560322   -3.3505233   -1.7460117   0.19087083   -3.3505233    1.6045116  1114099 
 4834000    1.3559737   -3.3506481   -1.7462634   0.18718178   -3.3506481    1.6043847  1114139 
 4835000    1.3569299   -3.3507659   -1.7453161   0.19214535   -3.3507659    1.6054498  1114185 
 4836000    1.3552716   -3.3490426   -1.7456325    0.1942583   -3.3490426      1.60341  1114239 
 4837000    1.3564883   -3.3501384   -1.7453623   0.18909583   -3.3501384    1.6047761  1114290 
 4838000    1.3569986   -3.3505816   -1.7452752   0.18979007   -3.3505816    1.6053063  1114341 
 4839000    1.3566089   -3.3502467    -1.745472   0.19141374   -3.3502467    1.6047747  1114390 
 4840000    1.3562306   -3.3497245   -1.7454534   0.19284418   -3.3497245    1.6042711  1114429 
 4841000    1.3569622   -3.3512544   -1.7461885    0.1891686   -3.3512544    1.6050659  1114478 
 4842000    1.3557422   -3.3498515   -1.7462919   0.19341149   -3.3498515    1.6035596  1114522 
 4843000    1.3569124    -3.351576      -1.7467   0.18879027    -3.351576     1.604876  1114569 
 4844000    1.3565369   -3.3510375   -1.7466906   0.19114214   -3.3510375    1.6043469  1114628 
 4845000    1.3573496   -3.3517747   -1.7465314   0.19008334   -3.3517747    1.6052433  1114673 
 4846000    1.3575137   -3.3522693   -1.7468924   0.18913963   -3.3522693    1.6053769  1114715 
 4847000    1.3569189   -3.3511638   -1.7465724   0.19183771   -3.3511638    1.6045915  1114772 
 4848000    1.3569595   -3.3512061   -1.7466459    0.1917626   -3.3512061    1.6045603  1114827 
 4849000    1.3570739    -3.351843   -1.7472222   0.19197586    -3.351843    1.6046207  1114879 
 4850000    1.3578876   -3.3521786    -1.746665   0.19316351   -3.3521786    1.6055137  1114927 
 4851000       1.3584    -3.352752   -1.7467002   0.18827505    -3.352752    1.6060519  1114974 
 4852000     1.358389   -3.3526288   -1.7466505   0.19179431   -3.3526288    1.6059783  1115016 
 4853000     1.357453   -3.3516829   -1.7468745     0.188844   -3.3516829    1.6048084  1115060 
 4854000    1.3579017    -3.353001   -1.7477226   0.18967466    -3.353001    1.6052784  1115102 
 4855000    1.3583005   -3.3537179   -1.7480343   0.18761908   -3.3537179    1.6056836  1115148 
 4856000    1.3583341   -3.3546055   -1.7489527    0.1870612   -3.3546055    1.6056528  1115197 
 4857000    1.3569088   -3.3527097   -1.7487978   0.19032782   -3.3527097    1.6039119  1115236 
 4858000    1.3573861   -3.3534133   -1.7490064   0.19138405   -3.3534133     1.604407  1115284 
 4859000    1.3576628   -3.3535486    -1.748885   0.19031738   -3.3535486    1.6046636  1115333 
 4860000    1.3585047   -3.3543839   -1.7488002    0.1903623   -3.3543839    1.6055838  1115385 
 4861000    1.3564231   -3.3519231   -1.7488685   0.19509995   -3.3519231    1.6030546  1115433 
 4862000    1.3580838   -3.3542185   -1.7492746   0.19467749   -3.3542185    1.6049439  1115484 
 4863000    1.3584656   -3.3534705   -1.7481445   0.18854474   -3.3534705     1.605326  1115532 
 4864000    1.3578884   -3.3525541   -1.7479792   0.19198439   -3.3525541    1.6045749  1115580 
 4865000    1.3572367    -3.352638   -1.7488979   0.19505241    -3.352638      1.60374  1115625 
 4866000    1.3581616   -3.3539077    -1.749141   0.19126357   -3.3539077    1.6047667  1115671 
 4867000     1.358735   -3.3542171   -1.7488461   0.19246897   -3.3542171    1.6053709  1115722 
 4868000    1.3601996    -3.356092   -1.7490727   0.18899541    -3.356092    1.6070193  1115779 
 4869000    1.3589322   -3.3547332   -1.7492689   0.19591012   -3.3547332    1.6054643  1115819 
 4870000    1.3607446   -3.3564284   -1.7488935   0.19135166   -3.3564284    1.6075349  1115868 
 4871000    1.3597606    -3.355135   -1.7488402   0.19286525    -3.355135    1.6062948  1115922 
 4872000    1.3602192   -3.3550898   -1.7483325    0.1937652   -3.3550898    1.6067572  1115977 
 4873000    1.3600622   -3.3553689   -1.7488936   0.19750619   -3.3553689    1.6064753  1116044 
 4874000     1.359115   -3.3547123   -1.7494247   0.19229509   -3.3547123    1.6052876  1116092 
 4875000    1.3583844   -3.3547057   -1.7503759   0.19200491   -3.3547057    1.6043297  1116158 
 4876000    1.3593851   -3.3552048   -1.7497709   0.18920882   -3.3552048    1.6054339  1116212 
 4877000    1.3587986   -3.3546307   -1.7499527    0.1944649   -3.3546307     1.604678  1116256 
 4878000    1.3591155   -3.3549963   -1.7499944   0.19513704   -3.3549963    1.6050019  1116291 
 4879000    1.3587867   -3.3544077   -1.7498356   0.19505507   -3.3544077     1.604572  1116320 
 4880000    1.3608235   -3.3568157   -1.7499219   0.19199605   -3.3568157    1.6068937  1116378 
 4881000    1.3589301   -3.3550834   -1.7504873   0.19327588   -3.3550834    1.6045962  1116421 
 4882000    1.3599956   -3.3569757    -1.751192   0.19419563   -3.3569757    1.6057838  1116470 
 4883000    1.3585388   -3.3552948   -1.7513086   0.19529179   -3.3552948    1.6039862  1116524 
 4884000    1.3590989   -3.3559884   -1.7514056   0.19080274   -3.3559884    1.6045828  1116569 
 4885000    1.3591726    -3.356193   -1.7515577   0.19361003    -3.356193    1.6046352  1116593 
 4886000    1.3591087   -3.3547727   -1.7502704   0.19475134   -3.3547727    1.6045023  1116633 
 4887000    1.3601935   -3.3563326   -1.7506014   0.18895755   -3.3563326    1.6057312  1116669 
 4888000    1.3600752   -3.3556199   -1.7500858   0.19221489   -3.3556199    1.6055341  1116709 
 4889000    1.3602393   -3.3559816   -1.7503156   0.19156611   -3.3559816     1.605666  1116752 
 4890000    1.3603416   -3.3568092   -1.7510843   0.19045556   -3.3568092     1.605725  1116795 
 4891000    1.3607392    -3.357121     -1.75099   0.19480575    -3.357121     1.606131  1116839 
 4892000    1.3603527   -3.3564877   -1.7508704   0.19303284   -3.3564877    1.6056173  1116879 
 4893000    1.3597813   -3.3563929   -1.7515147   0.19517193   -3.3563929    1.6048782  1116924 
 4894000    1.3594614    -3.355982    -1.751536   0.19391833    -3.355982     1.604446  1116962 
 4895000     1.360527   -3.3572834   -1.7516517   0.19254769   -3.3572834    1.6056317  1117012 
 4896000    1.3601709   -3.3570056   -1.7518703   0.19543161   -3.3570056    1.6051354  1117065 
 4897000    1.3605923   -3.3582509   -1.7526973   0.19029369   -3.3582509    1.6055537  1117120 
 4898000    1.3611722   -3.3587485   -1.7525767   0.19473821   -3.3587485    1.6061718  1117166 
 4899000     1.361515   -3.3594359   -1.7529345   0.18930048   -3.3594359    1.6065015  1117218 
 4900000    1.3600169   -3.3574732   -1.7527882   0.19200485   -3.3574732     1.604685  1117252 
 4901000    1.3609555   -3.3586296   -1.7529234    0.1936738   -3.3586296    1.6057062  1117312 
 4902000    1.3602052   -3.3580843   -1.7533279   0.18885766   -3.3580843    1.6047564  1117357 
 4903000    1.3600958   -3.3582868   -1.7537241   0.19153879   -3.3582868    1.6045626  1117402 
 4904000    1.3619152   -3.3593161   -1.7526674   0.18947488   -3.3593161    1.6066487  1117444 
 4905000    1.3614147   -3.3589859   -1.7529967   0.19503853   -3.3589859    1.6059892  1117492 
 4906000    1.3614629   -3.3588918    -1.752929   0.19272833   -3.3588918    1.6059628  1117550 
 4907000    1.3611869    -3.358176   -1.7526049   0.19721159    -3.358176    1.6055711  1117596 
 4908000    1.3609594   -3.3582319   -1.7529951   0.19640685   -3.3582319    1.6052368  1117642 
 4909000    1.3612713   -3.3588613   -1.7533414   0.19488483   -3.3588613    1.6055199  1117701 
 4910000    1.3620589    -3.360434   -1.7540484   0.18886173    -3.360434    1.6063855  1117745 
 4911000    1.3603137   -3.3593262   -1.7550721   0.18938298   -3.3593262    1.6042541  1117796 
 4912000    1.3620323   -3.3604806   -1.7542529   0.19095927   -3.3604806    1.6062277  1117833 
 4913000    1.3614852   -3.3602484    -1.754732   0.19003562   -3.3602484    1.6055164  1117879 
 4914000    1.3611863   -3.3593888   -1.7542909   0.19425688   -3.3593888    1.6050979  1117925 
 4915000    1.3613038   -3.3596099   -1.7544409   0.19014809   -3.3596099     1.605169  1117972 
 4916000    1.3615119   -3.3595516   -1.7542119   0.19363915   -3.3595516    1.6053397  1118024 
 4917000    1.3611493   -3.3591999   -1.7543466   0.19432302   -3.3591999    1.6048533  1118065 
 4918000    1.3617662   -3.3599543   -1.7544426   0.19248359   -3.3599543    1.6055117  1118113 
 4919000    1.3615128    -3.359827   -1.7546944   0.19460954    -3.359827    1.6051326  1118169 
 4920000    1.3609752   -3.3599408   -1.7555023    0.1924633   -3.3599408    1.6044385  1118211 
 4921000    1.3606273   -3.3599196   -1.7559572   0.18897192   -3.3599196    1.6039624  1118257 
 4922000    1.3607799   -3.3594123   -1.7553389   0.19067712   -3.3594123    1.6040735  1118305 
 4923000    1.3607164   -3.3593507   -1.7554182   0.19391168   -3.3593507    1.6039326  1118351 
 4924000    1.3619369   -3.3605037   -1.7552085   0.19000529   -3.3605037    1.6052952  1118404 
 4925000    1.3615426   -3.3595812   -1.7548067   0.19411667   -3.3595812    1.6047745  1118443 
 4926000    1.3618797   -3.3594715   -1.7543743   0.19567572   -3.3594715    1.6050972  1118495 
 4927000     1.361989   -3.3594093   -1.7542408    0.1957398   -3.3594093    1.6051685  1118535 
 4928000    1.3621894   -3.3601797    -1.754851   0.19510888   -3.3601797    1.6053287  1118588 
 4929000    1.3627641   -3.3606995   -1.7547467   0.19153074   -3.3606995    1.6059528  1118625 
 4930000    1.3625007   -3.3608635   -1.7552928   0.19283205   -3.3608635    1.6055707  1118675 
 4931000    1.3623251    -3.359732   -1.7544343   0.19693158    -3.359732    1.6052977  1118721 
 4932000    1.3623623   -3.3603893    -1.755131   0.19750759   -3.3603893    1.6052583  1118779 
 4933000    1.3634138   -3.3613521   -1.7549094   0.18998474   -3.3613521    1.6064428  1118817 
 4934000    1.3624543   -3.3605092   -1.7552629   0.19804686   -3.3605092    1.6052463  1118863 
 4935000     1.363406   -3.3617916   -1.7554872   0.19310571   -3.3617916    1.6063044  1118907 
 4936000    1.3638459   -3.3616706    -1.754904   0.19617216   -3.3616706    1.6067666  1118946 
 4937000     1.365301   -3.3625154    -1.754105   0.19501992   -3.3625154    1.6084104  1118995 
 4938000    1.3633024   -3.3611551   -1.7551579    0.1907987   -3.3611551    1.6059972  1119036 
 4939000    1.3637897   -3.3613681    -1.754873   0.19781239   -3.3613681    1.6064951  1119089 
 4940000    1.3637002   -3.3609136   -1.7545814   0.19797704   -3.3609136    1.6063322  1119129 
 4941000    1.3645752   -3.3618093   -1.7545138   0.19234498   -3.3618093    1.6072954  1119176 
 4942000    1.3640172    -3.360881   -1.7543073   0.19819292    -3.360881    1.6065736  1119221 
 4943000    1.3636794    -3.361098   -1.7549868   0.19319059    -3.361098    1.6061112  1119266 
 4944000    1.3631905    -3.360735   -1.7552657   0.19416135    -3.360735    1.6054693  1119312 
 4945000    1.3645609   -3.3631231     -1.75609   0.19335979   -3.3631231    1.6070331  1119347 
 4946000    1.3638097    -3.362598   -1.7565213   0.19225119    -3.362598    1.6060767  1119397 
 4947000    1.3628151   -3.3622552   -1.7574072    0.1901886   -3.3622552     1.604848  1119437 
 4948000    1.3619922   -3.3618472   -1.7580456   0.19625359   -3.3618472    1.6038016  1119491 
 4949000    1.3633893   -3.3628699   -1.7574834   0.19240693   -3.3628699    1.6053865  1119533 
 4950000    1.3628015   -3.3615469   -1.7569185   0.19197476   -3.3615469    1.6046284  1119579 
 4951000    1.3625999   -3.3606914    -1.756349   0.19987297   -3.3606914    1.6043424  1119613 
 4952000    1.3640392   -3.3618636   -1.7558696   0.19758152   -3.3618636     1.605994  1119643 
 4953000    1.3636457   -3.3623484   -1.7568751   0.19420962   -3.3623484    1.6054733  1119683 
 4954000    1.3628592   -3.3619977   -1.7574991   0.19253414   -3.3619977    1.6044987  1119717 
 4955000    1.3621597   -3.3608458   -1.7572495   0.19857723   -3.3608458    1.6035964  1119772 
 4956000    1.3631566   -3.3626245   -1.7579148   0.19600966   -3.3626245    1.6047097  1119814 
 4957000    1.3629893   -3.3616877   -1.7572164   0.19778532   -3.3616877    1.6044713  1119843 
 4958000    1.3644849   -3.3636518   -1.7574831   0.19196561   -3.3636518    1.6061687  1119887 
 4959000    1.3639491   -3.3630643   -1.7575966   0.19580643   -3.3630643    1.6054677  1119936 
 4960000     1.363886   -3.3629511   -1.7576179    0.1961063   -3.3629511    1.6053332  1119978 
 4961000    1.3642624   -3.3632384   -1.7575352   0.19365846   -3.3632384    1.6057032  1120029 
 4962000    1.3646115   -3.3630905   -1.7570538   0.19360761   -3.3630905    1.6060367  1120083 
 4963000    1.3653247   -3.3645161   -1.7577133   0.19191818   -3.3645161    1.6068028  1120134 
 4964000    1.3638678   -3.3627333   -1.7577181   0.19931715   -3.3627333    1.6050152  1120185 
 4965000    1.3649891   -3.3646403   -1.7583643   0.19196296   -3.3646403     1.606276  1120226 
 4966000    1.3637255   -3.3639225   -1.7591794   0.19438837   -3.3639225    1.6047431  1120258 
 4967000    1.3646525   -3.3648841   -1.7591046   0.19329172   -3.3648841    1.6057795  1120296 
 4968000    1.3647919   -3.3647675   -1.7588742   0.19581794   -3.3647675    1.6058933  1120331 
 4969000    1.3633635   -3.3637194   -1.7595727   0.19552148   -3.3637194    1.6041468  1120377 
 4970000    1.3621172   -3.3637924   -1.7611721   0.19103848   -3.3637924    1.6026203  1120419 
 4971000    1.3636741   -3.3658394   -1.7614647   0.19236596   -3.3658394    1.6043747  1120473 
 4972000    1.3631705   -3.3650786   -1.7613407   0.19434528   -3.3650786    1.6037379  1120504 
 4973000     1.363477   -3.3652523   -1.7612096   0.19186656   -3.3652523    1.6040427  1120543 
 4974000    1.3634737   -3.3654224   -1.7614223   0.18944705   -3.3654224    1.6040002  1120570 
 4975000    1.3640751   -3.3658776   -1.7612215   0.19819167   -3.3658776    1.6046561  1120606 
 4976000     1.363855   -3.3653938    -1.761081   0.19396464   -3.3653938    1.6043127  1120665 
 4977000    1.3636504    -3.364534   -1.7605192    0.1937406    -3.364534    1.6040148  1120705 
 4978000    1.3642161   -3.3649817   -1.7603802   0.19375052   -3.3649817    1.6046015  1120760 
 4979000    1.3650133   -3.3663348   -1.7608301   0.19388724   -3.3663348    1.6055047  1120784 
 4980000    1.3648135   -3.3659157    -1.760699   0.19240633   -3.3659157    1.6052167  1120821 
 4981000    1.3644669   -3.3662411   -1.7614779   0.19544011   -3.3662411    1.6047632  1120853 
 4982000    1.3640052   -3.3658659   -1.7617201   0.19432208   -3.3658659    1.6041458  1120905 
 4983000    1.3637747    -3.365533   -1.7617084   0.19640825    -3.365533    1.6038246  1120940 
 4984000    1.3631502   -3.3650911   -1.7620652   0.19856166   -3.3650911    1.6030259  1120985 
 4985000    1.3639574   -3.3655018    -1.761594   0.19221795   -3.3655018    1.6039079  1121032 
 4986000    1.3631553   -3.3650153   -1.7621177   0.19381923   -3.3650153    1.6028975  1121079 
 4987000     1.364483   -3.3672517    -1.762856   0.19039136   -3.3672517    1.6043957  1121123 
 4988000    1.3632742    -3.365639   -1.7627375   0.19414159    -3.365639    1.6029015  1121174 
 4989000    1.3641393   -3.3670503   -1.7631931   0.19195922   -3.3670503    1.6038572  1121217 
 4990000    1.3640786   -3.3666536   -1.7629208   0.19104164   -3.3666536    1.6037328  1121254 
 4991000    1.3642499   -3.3668075   -1.7629334   0.19414095   -3.3668075    1.6038742  1121296 
 4992000    1.3629518    -3.365745   -1.7634641   0.19259726    -3.365745    1.6022808  1121343 
 4993000    1.3632534   -3.3667108   -1.7641354   0.18962236   -3.3667108    1.6025754  1121385 
 4994000    1.3637917   -3.3667875   -1.7636522   0.19457064   -3.3667875    1.6031353  1121436 
 4995000    1.3642125   -3.3675864   -1.7640222   0.19223994   -3.3675864    1.6035641  1121482 
 4996000    1.3643739   -3.3672169   -1.7635488   0.19263062   -3.3672169    1.6036681  1121542 
 4997000    1.3632945   -3.3659157   -1.7635634    0.1970053   -3.3659157    1.6023523  1121575 
 4998000     1.364358   -3.3671256   -1.7635821   0.19226913   -3.3671256    1.6035436  1121616 
 4999000    1.3651667   -3.3679208   -1.7634739   0.19101889   -3.3679208    1.6044469  1121649 
 5000000    1.3641749   -3.3665646   -1.7633649   0.19911382   -3.3665646    1.6031998  1121706 
 5001000    1.3655641   -3.3680194   -1.7632414   0.19341954   -3.3680194     1.604778  1121744 
 5002000     1.365701   -3.3682824   -1.7633807   0.19122658   -3.3682824    1.6049017  1121770 
 5003000    1.3644891   -3.3671345   -1.7637271   0.19312746   -3.3671345    1.6034074  1121819 
 5004000    1.3651288   -3.3678293   -1.7637444    0.1958369   -3.3678293    1.6040849  1121871 
 5005000    1.3651679    -3.368276   -1.7642038   0.19270564    -3.368276    1.6040721  1121912 
 5006000    1.3654138   -3.3681625   -1.7638644   0.19541391   -3.3681625    1.6042981  1121956 
 5007000    1.3663673   -3.3691278    -1.763758   0.19432571   -3.3691278    1.6053699  1121990 
 5008000    1.3657573   -3.3686972   -1.7641184   0.19548688   -3.3686972    1.6045788  1122042 
 5009000    1.3648115   -3.3682331    -1.764827   0.19469781   -3.3682331    1.6034061  1122085 
 5010000    1.3650672   -3.3680738   -1.7644401   0.19826659   -3.3680738    1.6036337  1122136 
 5011000    1.3664365   -3.3691917   -1.7640051   0.19447437   -3.3691917    1.6051865  1122175 
 5012000    1.3659053   -3.3687353   -1.7642486    0.1924189   -3.3687353    1.6044866  1122228 
 5013000    1.3657249   -3.3684176   -1.7642058   0.19145383   -3.3684176    1.6042119  1122272 
 5014000    1.3651697   -3.3678053   -1.7643071   0.19619189   -3.3678053    1.6034983  1122315 
 5015000    1.3653437   -3.3683556   -1.7647172   0.19548328   -3.3683556    1.6036384  1122360 
 5016000    1.3654813   -3.3687138   -1.7649853   0.19526723   -3.3687138    1.6037285  1122410 
 5017000    1.3662993    -3.369033   -1.7644095   0.19306194    -3.369033    1.6046235  1122456 
 5018000     1.367548   -3.3706634   -1.7646521   0.19121597   -3.3706634    1.6060113  1122511 
 5019000    1.3667494   -3.3696191     -1.76459   0.19194034   -3.3696191    1.6050291  1122542 
 5020000    1.3672991   -3.3705278   -1.7649174   0.19756234   -3.3705278    1.6056104  1122587 
 5021000     1.365554   -3.3683286   -1.7648218   0.19495706   -3.3683286    1.6035068  1122625 
 5022000      1.36576   -3.3690929   -1.7654113   0.19416254   -3.3690929    1.6036816  1122672 
 5023000    1.3665618   -3.3700626   -1.7654996   0.19288915   -3.3700626     1.604563  1122714 
 5024000    1.3664179   -3.3696168   -1.7652828   0.19693889   -3.3696168     1.604334  1122756 
 5025000    1.3658116   -3.3695286    -1.765965   0.19550311   -3.3695286    1.6035636  1122797 
 5026000    1.3669606   -3.3708558   -1.7660118   0.19497417   -3.3708558     1.604844  1122845 
 5027000    1.3662862   -3.3709106   -1.7669184   0.18801324   -3.3709106    1.6039922  1122887 
 5028000    1.3665809   -3.3708017   -1.7665349   0.19307959   -3.3708017    1.6042667  1122937 
 5029000    1.3663511   -3.3707743   -1.7668545   0.19494894   -3.3707743    1.6039198  1122991 
 5030000     1.366451   -3.3706877   -1.7667078   0.19468214   -3.3706877      1.60398  1123031 
 5031000     1.367537   -3.3719279   -1.7667304   0.19441162   -3.3719279    1.6051976  1123071 
 5032000    1.3662746    -3.370672   -1.7670148   0.19897985    -3.370672    1.6036572  1123112 
 5033000      1.36752   -3.3724304   -1.7673699   0.19385577   -3.3724304    1.6050605  1123153 
 5034000    1.3669002   -3.3718142   -1.7675184   0.19517764   -3.3718142    1.6042958  1123179 
 5035000    1.3667901   -3.3715634   -1.7674639   0.19735805   -3.3715634    1.6040995  1123226 
 5036000    1.3668572   -3.3714809   -1.7673755   0.19274309   -3.3714809    1.6041054  1123277 
 5037000     1.366462   -3.3707949   -1.7672261   0.20020735   -3.3707949    1.6035688  1123328 
 5038000    1.3670527   -3.3720866   -1.7678903   0.19051572   -3.3720866    1.6041963  1123374 
 5039000    1.3665968   -3.3715579   -1.7679708   0.19956006   -3.3715579    1.6035871  1123426 
 5040000    1.3662765   -3.3715483   -1.7684212   0.19669424   -3.3715483    1.6031271  1123485 
 5041000    1.3664835   -3.3715603   -1.7682575   0.19526079   -3.3715603    1.6033028  1123532 
 5042000    1.3668369   -3.3721755   -1.7685365   0.19390099   -3.3721755     1.603639  1123587 
 5043000    1.3685613   -3.3737953   -1.7681931   0.19252277   -3.3737953    1.6056022  1123629 
 5044000    1.3663403   -3.3721666   -1.7692357   0.19424032   -3.3721666    1.6029308  1123675 
 5045000    1.3663147   -3.3721203   -1.7692879   0.19533885   -3.3721203    1.6028324  1123723 
 5046000      1.36584   -3.3714369   -1.7692355    0.1943012   -3.3714369    1.6022014  1123775 
 5047000    1.3658432   -3.3716437   -1.7695056   0.19210597   -3.3716437    1.6021381  1123822 
 5048000    1.3674468   -3.3734606   -1.7694899   0.19580624   -3.3734606    1.6039706  1123856 
 5049000     1.367438   -3.3732748   -1.7693816   0.19313687   -3.3732748    1.6038932  1123903 
 5050000    1.3669305   -3.3727605    -1.769531   0.19503333   -3.3727605    1.6032295  1123951 
 5051000    1.3673982   -3.3730405   -1.7693124   0.19358674   -3.3730405    1.6037281  1123986 
 5052000    1.3679514   -3.3738588   -1.7695562   0.19140007   -3.3738588    1.6043026  1124038 
 5053000    1.3682975   -3.3742849   -1.7696349   0.19668894   -3.3742849      1.60465  1124079 
 5054000    1.3681161   -3.3743261   -1.7699402   0.19519738   -3.3743261    1.6043859  1124115 
 5055000    1.3673547   -3.3739169   -1.7704881   0.19594703   -3.3739169    1.6034288  1124160 
 5056000    1.3676191   -3.3743751   -1.7707005   0.19191643   -3.3743751    1.6036747  1124205 
 5057000    1.3682461     -3.37495   -1.7705929   0.19164176     -3.37495    1.6043571  1124242 
 5058000    1.3677176   -3.3737331   -1.7700557   0.19454859   -3.3737331    1.6036774  1124284 
 5059000    1.3665818   -3.3730583   -1.7707767   0.19668125   -3.3730583    1.6022816  1124329 
 5060000    1.3664437   -3.3733437   -1.7712995   0.19987358   -3.3733437    1.6020442  1124382 
 5061000    1.3670906   -3.3744654   -1.7717256   0.19686024   -3.3744654    1.6027399  1124426 
 5062000    1.3682334   -3.3754446   -1.7714376   0.19248929   -3.3754446     1.604007  1124477 
 5063000    1.3680695   -3.3751123   -1.7713545    0.1970914   -3.3751123    1.6037578  1124517 
 5064000    1.3679865   -3.3741476   -1.7705571   0.19697858   -3.3741476    1.6035906  1124566 
 5065000    1.3684602     -3.37479   -1.7707098   0.19432736     -3.37479    1.6040802  1124612 
 5066000     1.368219   -3.3757262   -1.7719943   0.19525309   -3.3757262    1.6037318  1124658 
 5067000    1.3675454   -3.3747597   -1.7718828   0.19440942   -3.3747597    1.6028768  1124704 
 5068000    1.3673478   -3.3743811   -1.7718157   0.19653022   -3.3743811    1.6025654  1124760 
 5069000    1.3674551    -3.374882   -1.7722536   0.19695014    -3.374882    1.6026285  1124804 
 5070000     1.368101   -3.3758499   -1.7725357   0.19424564   -3.3758499    1.6033142  1124854 
 5071000    1.3685894   -3.3770832   -1.7732651   0.18663567   -3.3770832    1.6038181  1124902 
 5072000    1.3677084   -3.3759189   -1.7731987   0.19376559   -3.3759189    1.6027202  1124948 
 5073000    1.3686105   -3.3763021   -1.7725804   0.19496589   -3.3763021    1.6037217  1124987 
 5074000    1.3680204   -3.3754445   -1.7724785   0.19521835   -3.3754445     1.602966  1125032 
 5075000     1.368905   -3.3765274   -1.7725647   0.19583216   -3.3765274    1.6039627  1125060 
 5076000    1.3681184    -3.376275   -1.7733024   0.19480814    -3.376275    1.6029726  1125108 
 5077000    1.3676518   -3.3755361   -1.7731871   0.19396361   -3.3755361     1.602349  1125162 
 5078000    1.3685975   -3.3769342   -1.7735441   0.19518922   -3.3769342      1.60339  1125209 
 5079000    1.3687173   -3.3764904   -1.7730255   0.19513986   -3.3764904    1.6034649  1125255 
 5080000    1.3683732   -3.3765017   -1.7735013   0.19358628   -3.3765017    1.6030004  1125298 
 5081000    1.3682517    -3.376176   -1.7733764   0.19091046    -3.376176    1.6027997  1125339 
 5082000    1.3686783     -3.37708    -1.773839   0.19514541     -3.37708     1.603241  1125380 
 5083000    1.3687488   -3.3764154   -1.7731517   0.19326294   -3.3764154    1.6032637  1125422 
 5084000    1.3693829   -3.3773205   -1.7733795   0.19405992   -3.3773205     1.603941  1125468 
 5085000    1.3696316   -3.3777506   -1.7735939   0.19892449   -3.3777506    1.6041567  1125521 
 5086000    1.3680506   -3.3763841   -1.7741346   0.19886197   -3.3763841    1.6022495  1125560 
 5087000    1.3675421   -3.3764721   -1.7748794   0.19890951   -3.3764721    1.6015927  1125603 
 5088000    1.3686733   -3.3779599   -1.7750993   0.19251983   -3.3779599    1.6028605  1125643 
 5089000    1.3689886   -3.3782913   -1.7751256   0.18963342   -3.3782913    1.6031658  1125688 
 5090000     1.368217   -3.3770899   -1.7748819   0.19302469   -3.3770899     1.602208  1125726 
 5091000    1.3682363    -3.377306   -1.7751281   0.19607865    -3.377306    1.6021779  1125763 
 5092000    1.3690553   -3.3774396    -1.774368   0.19361499   -3.3774396    1.6030716  1125809 
 5093000    1.3682705   -3.3768553   -1.7747696   0.19473266   -3.3768553    1.6020857  1125856 
 5094000    1.3696679   -3.3779032   -1.7742326   0.19486842   -3.3779032    1.6036706  1125892 
 5095000    1.3688843   -3.3768047   -1.7741299   0.20021964   -3.3768047    1.6026749  1125947 
 5096000    1.3695599   -3.3776257   -1.7742239   0.19792615   -3.3776257    1.6034018  1125992 
 5097000    1.3707971    -3.378512   -1.7737274   0.19792976    -3.378512    1.6047846  1126038 
 5098000    1.3703996   -3.3784334   -1.7741982   0.19557849   -3.3784334    1.6042352  1126097 
 5099000    1.3702265   -3.3780977   -1.7741349   0.19853716   -3.3780977    1.6039627  1126146 
 5100000    1.3711697   -3.3797854   -1.7747769   0.19366596   -3.3797854    1.6050085  1126187 
 5101000    1.3706776   -3.3787475   -1.7743692   0.19536117   -3.3787475    1.6043783  1126225 
 5102000     1.370291   -3.3784987     -1.77463   0.19428117   -3.3784987    1.6038688  1126265 
 5103000     1.369717   -3.3790368   -1.7759139   0.19257998   -3.3790368     1.603123  1126317 
 5104000    1.3687276    -3.378478   -1.7765572   0.19551878    -3.378478    1.6019209  1126348 
 5105000     1.369187   -3.3789352   -1.7765151   0.19506149   -3.3789352    1.6024201  1126375 
 5106000    1.3687213   -3.3786846    -1.776862   0.19443673   -3.3786846    1.6018225  1126412 
 5107000    1.3692848    -3.378962   -1.7765412   0.19328526    -3.378962    1.6024208  1126455 
 5108000    1.3698107   -3.3796602   -1.7766908   0.19436163   -3.3796602    1.6029694  1126502 
 5109000    1.3695151   -3.3794885   -1.7769163   0.19602642   -3.3794885    1.6025722  1126538 
 5110000    1.3682016   -3.3785857   -1.7776031   0.19680371   -3.3785857    1.6009826  1126575 
 5111000    1.3696646   -3.3803767   -1.7777433   0.19364135   -3.3803767    1.6026334  1126618 
 5112000    1.3699519   -3.3804416   -1.7775361   0.19554545   -3.3804416    1.6029055  1126663 
 5113000    1.3692532   -3.3799285   -1.7778974   0.19260897   -3.3799285    1.6020311  1126703 
 5114000    1.3690988   -3.3797903   -1.7780137   0.19564259   -3.3797903    1.6017766  1126755 
 5115000    1.3699631   -3.3796847   -1.7769511   0.19866808   -3.3796847    1.6027336  1126793 
 5116000    1.3694729   -3.3797445   -1.7776355   0.19452125   -3.3797445     1.602109  1126829 
 5117000    1.3697609   -3.3805331   -1.7781384   0.19489172   -3.3805331    1.6023947  1126865 
 5118000    1.3701806   -3.3808931   -1.7780573   0.19443743   -3.3808931    1.6028358  1126900 
 5119000    1.3698659   -3.3804608   -1.7780656   0.19449553   -3.3804608    1.6023952  1126951 
 5120000    1.3709999   -3.3809716    -1.777304    0.1952898   -3.3809716    1.6036677  1126989 
 5121000    1.3703931   -3.3808576   -1.7779622   0.19418592   -3.3808576    1.6028953  1127033 
 5122000    1.3708303    -3.380748   -1.7773997   0.20070317    -3.380748    1.6033483  1127074 
 5123000    1.3699744   -3.3802357    -1.777951   0.19283028   -3.3802357    1.6022847  1127118 
 5124000    1.3701072   -3.3806884   -1.7783009   0.19748142   -3.3806884    1.6023875  1127155 
 5125000    1.3703185   -3.3807443   -1.7781737   0.19913845   -3.3807443    1.6025706  1127200 
 5126000    1.3702271   -3.3806909   -1.7782827   0.19635511   -3.3806909    1.6024082  1127239 
 5127000    1.3711491   -3.3824415    -1.779029   0.19135025   -3.3824415    1.6034125  1127291 
 5128000    1.3700532    -3.381255   -1.7791694   0.19593082    -3.381255    1.6020855  1127323 
 5129000    1.3707378   -3.3820912   -1.7792791   0.19700467   -3.3820912    1.6028121  1127375 
 5130000    1.3704089   -3.3820798   -1.7797062    0.1929515   -3.3820798    1.6023736  1127413 
 5131000    1.3710036   -3.3830952   -1.7801087   0.19393866   -3.3830952    1.6029864  1127471 
 5132000    1.3707964   -3.3825019   -1.7798232    0.1940443   -3.3825019    1.6026787  1127517 
 5133000    1.3706166   -3.3817526   -1.7793594   0.19615349   -3.3817526    1.6023932  1127570 
 5134000    1.3703095    -3.382082   -1.7801004   0.19615087    -3.382082    1.6019816  1127607 
 5135000    1.3707793   -3.3824352   -1.7799555   0.19479716   -3.3824352    1.6024797  1127643 
 5136000    1.3704493   -3.3821649   -1.7801364   0.19762736   -3.3821649    1.6020286  1127689 
 5137000    1.3717613   -3.3836808   -1.7801697   0.19260661   -3.3836808    1.6035111  1127725 
 5138000     1.369748   -3.3822034   -1.7811139   0.20196227   -3.3822034    1.6010895  1127773 
 5139000    1.3681227   -3.3808249   -1.7816862   0.19524908   -3.3808249    1.5991386  1127809 
 5140000    1.3705209   -3.3835116   -1.7816324   0.19593212   -3.3835116    1.6018793  1127853 
 5141000    1.3692911   -3.3822327   -1.7818462    0.1979768   -3.3822327    1.6003866  1127892 
 5142000    1.3709824   -3.3838798   -1.7815945   0.19383506   -3.3838798    1.6022852  1127947 
 5143000    1.3699788   -3.3823902   -1.7813262   0.20051732   -3.3823902     1.601064  1127981 
 5144000    1.3716472   -3.3838625    -1.780914    0.1931051   -3.3838625    1.6029484  1128027 
 5145000    1.3716806   -3.3838454   -1.7809034   0.19553711   -3.3838454     1.602942  1128059 
 5146000    1.3708385   -3.3835068   -1.7816013   0.19699324   -3.3835068    1.6019054  1128096 
 5147000    1.3712304   -3.3835247   -1.7812225   0.19857682   -3.3835247    1.6023022  1128139 
 5148000    1.3721709   -3.3845254   -1.7811853   0.19754494   -3.3845254    1.6033401  1128182 
 5149000    1.3717566   -3.3840274   -1.7812226   0.19395746   -3.3840274    1.6028049  1128218 
 5150000    1.3713381   -3.3833586   -1.7811094   0.19618828   -3.3833586    1.6022492  1128265 
 5151000      1.37272   -3.3854376   -1.7816535   0.19410115   -3.3854376    1.6037841  1128321 
 5152000    1.3718554   -3.3844549   -1.7817434   0.19226254   -3.3844549    1.6027115  1128365 
 5153000     1.370978   -3.3826852   -1.7810867   0.19958724   -3.3826852    1.6015985  1128427 
 5154000    1.3713989   -3.3835077   -1.7814686   0.19942424   -3.3835077    1.6020391  1128463 
 5155000    1.3722005   -3.3848923   -1.7819779   0.19709383   -3.3848923    1.6029144  1128506 
 5156000    1.3715211   -3.3845404   -1.7824708   0.19649767   -3.3845404    1.6020696  1128542 
 5157000    1.3725251   -3.3853026   -1.7821043   0.19526072   -3.3853026    1.6031984  1128573 
 5158000    1.3715673   -3.3841371   -1.7821158   0.19574856   -3.3841371    1.6020214  1128614 
 5159000    1.3700181   -3.3831074   -1.7829692   0.20083775   -3.3831074    1.6001382  1128666 
 5160000    1.3711931   -3.3840937   -1.7826371   0.19422731   -3.3840937    1.6014566  1128704 
 5161000     1.371928    -3.384694   -1.7824358   0.19461179    -3.384694    1.6022581  1128744 
 5162000    1.3719403   -3.3851541   -1.7829411    0.1936683   -3.3851541    1.6022129  1128786 
 5163000    1.3725366   -3.3857779   -1.7829212   0.19251821   -3.3857779    1.6028567  1128823 
 5164000    1.3718214   -3.3856862   -1.7837158   0.19477423   -3.3856862    1.6019704  1128859 
 5165000    1.3716602   -3.3850398   -1.7833172    0.1954625   -3.3850398    1.6017226  1128901 
 5166000    1.3718691   -3.3855377   -1.7836322    0.1953791   -3.3855377    1.6019055  1128944 
 5167000    1.3719263   -3.3852356   -1.7833342   0.19914264   -3.3852356    1.6019014  1128994 
 5168000    1.3719847   -3.3853888   -1.7834944   0.19606111   -3.3853888    1.6018944  1129047 
 5169000    1.3722339   -3.3861363   -1.7839906   0.19746021   -3.3861363    1.6021456  1129075 
 5170000    1.3731282   -3.3864542   -1.7833327    0.1950352   -3.3864542    1.6031215  1129123 
 5171000     1.372207   -3.3849752   -1.7829774   0.19662464   -3.3849752    1.6019979  1129157 
 5172000     1.372016   -3.3849928   -1.7832719   0.20060018   -3.3849928     1.601721  1129195 
 5173000     1.371583   -3.3851851   -1.7840278   0.20012306   -3.3851851    1.6011573  1129236 
 5174000    1.3729881   -3.3870005   -1.7842411   0.19312716   -3.3870005    1.6027593  1129263 
 5175000    1.3731418   -3.3859491   -1.7830786   0.20036067   -3.3859491    1.6028705  1129311 
 5176000    1.3721656   -3.3851396   -1.7834823   0.19982101   -3.3851396    1.6016573  1129363 
 5177000    1.3724269   -3.3869034   -1.7849808    0.1990756   -3.3869034    1.6019226  1129391 
 5178000    1.3721843   -3.3866745   -1.7851004   0.19588161   -3.3866745    1.6015742  1129437 
 5179000    1.3713229   -3.3855961   -1.7850797    0.1999468   -3.3855961    1.6005163  1129474 
 5180000    1.3727546   -3.3872162   -1.7850841    0.1979457   -3.3872162     1.602132  1129513 
 5181000    1.3724385   -3.3872709   -1.7855561   0.19621292   -3.3872709    1.6017149  1129547 
 5182000    1.3723167   -3.3876123   -1.7861061   0.19662413   -3.3876123    1.6015061  1129594 
 5183000    1.3722074   -3.3883725   -1.7870464    0.1951712   -3.3883725    1.6013261  1129631 
 5184000    1.3720946   -3.3879561   -1.7868112    0.1962564   -3.3879561    1.6011449  1129666 
 5185000    1.3717259   -3.3883481   -1.7876831   0.19563689   -3.3883481     1.600665  1129701 
 5186000    1.3725331   -3.3888694   -1.7873036   0.19112707   -3.3888694    1.6015658  1129730 
 5187000    1.3705626   -3.3869083   -1.7876828   0.19572574   -3.3869083    1.5992254  1129759 
 5188000    1.3711905   -3.3868509   -1.7869593   0.19952247   -3.3868509    1.5998916  1129806 
 5189000     1.371455   -3.3870094   -1.7868729   0.19849709   -3.3870094    1.6001365  1129851 
 5190000    1.3714826   -3.3872261   -1.7871283   0.19530734   -3.3872261    1.6000978  1129901 
 5191000    1.3722656   -3.3872325   -1.7862976   0.19929086   -3.3872325    1.6009349  1129955 
 5192000    1.3716289   -3.3873653   -1.7872342   0.19839298   -3.3873653    1.6001312  1129998 
 5193000     1.373192   -3.3884365   -1.7865427    0.1947264   -3.3884365    1.6018937  1130041 
 5194000    1.3719361    -3.387937   -1.7875649   0.20081309    -3.387937     1.600372  1130081 
 5195000    1.3725693   -3.3883067   -1.7872457   0.19996159   -3.3883067     1.601061  1130116 
 5196000    1.3725923   -3.3881203   -1.7870878   0.20036745   -3.3881203    1.6010325  1130155 
 5197000    1.3738538   -3.3893356   -1.7869039   0.19454384   -3.3893356    1.6024318  1130206 
 5198000    1.3739016   -3.3898189   -1.7873995   0.19484617   -3.3898189    1.6024194  1130254 
 5199000    1.3731206   -3.3887719   -1.7873385   0.19623402   -3.3887719    1.6014334  1130307 
 5200000    1.3733196   -3.3892981   -1.7876977   0.19914024   -3.3892981    1.6016004  1130353 
 5201000    1.3741722    -3.390318   -1.7877943   0.19629925    -3.390318    1.6025238  1130403 
 5202000       1.3735   -3.3891633   -1.7874844   0.19704452   -3.3891633     1.601679  1130446 
 5203000    1.3741485   -3.3901778    -1.787805   0.19656079   -3.3901778    1.6023728  1130490 
 5204000    1.3731685   -3.3892629    -1.788098   0.19707677   -3.3892629    1.6011649  1130536 
 5205000    1.3755132   -3.3909771   -1.7871421   0.19724821   -3.3909771     1.603835  1130581 
 5206000    1.3739532   -3.3894585   -1.7875004   0.20005783   -3.3894585    1.6019581  1130622 
 5207000    1.3744356   -3.3899666   -1.7874958    0.1980471   -3.3899666    1.6024708  1130657 
 5208000    1.3728886   -3.3881041   -1.7875077   0.20275387   -3.3881041    1.6005964  1130707 
 5209000    1.3740005   -3.3895957   -1.7877582   0.19797794   -3.3895957    1.6018375  1130746 
 5210000     1.373855     -3.38966    -1.788036   0.19991926     -3.38966    1.6016239  1130777 
 5211000    1.3742861   -3.3902131   -1.7881319   0.19577214   -3.3902131    1.6020813  1130809 
 5212000    1.3747628   -3.3907941    -1.788211   0.19677271   -3.3907941    1.6025831  1130847 
 5213000    1.3739634   -3.3895141   -1.7879252   0.19824373   -3.3895141    1.6015889  1130891 
 5214000    1.3731942   -3.3891696   -1.7885538   0.20171168   -3.3891696    1.6006158  1130945 
 5215000     1.374313   -3.3906701   -1.7888168   0.20206427   -3.3906701    1.6018533  1130992 
 5216000    1.3735676   -3.3891733   -1.7882468    0.1984843   -3.3891733    1.6009265  1131033 
 5217000    1.3738611   -3.3895294   -1.7883288   0.19839514   -3.3895294    1.6012006  1131081 
 5218000    1.3759295   -3.3920975   -1.7885316   0.19418346   -3.3920975    1.6035659  1131113 
 5219000    1.3740847   -3.3898663   -1.7885141   0.19823553   -3.3898663    1.6013522  1131158 
 5220000    1.3752087   -3.3912859   -1.7886776   0.19613922   -3.3912859    1.6026083  1131196 
 5221000    1.3734951   -3.3895548   -1.7890171   0.20246836   -3.3895548    1.6005377  1131248 
 5222000    1.3746198    -3.390804   -1.7890222   0.19606707    -3.390804    1.6017818  1131295 
 5223000    1.3744706   -3.3904173   -1.7888688   0.19917092   -3.3904173    1.6015485  1131337 
 5224000     1.374538   -3.3904963   -1.7889316   0.19781345   -3.3904963    1.6015647  1131381 
 5225000    1.3745863   -3.3906326   -1.7890724   0.19930111   -3.3906326    1.6015602  1131424 
 5226000    1.3760449   -3.3925586   -1.7893544   0.19530466   -3.3925586    1.6032043  1131463 
 5227000    1.3747443   -3.3914755   -1.7898545   0.19998025   -3.3914755    1.6016211  1131511 
 5228000    1.3751258   -3.3916639   -1.7896535    0.2022276   -3.3916639    1.6020103  1131550 
 5229000    1.3749612   -3.3910091     -1.78924   0.20252201   -3.3910091     1.601769  1131585 
 5230000     1.375409   -3.3919053   -1.7896713   0.20213958   -3.3919053     1.602234  1131625 
 5231000    1.3755591   -3.3915512   -1.7892146   0.19906292   -3.3915512    1.6023366  1131676 
 5232000     1.376008   -3.3922911   -1.7895009   0.19916916   -3.3922911    1.6027902  1131725 
 5233000    1.3766544   -3.3933077   -1.7898354   0.19839176   -3.3933077    1.6034723  1131775 
 5234000    1.3757569   -3.3923411   -1.7899736   0.20198273   -3.3923411    1.6023674  1131817 
 5235000     1.375298   -3.3915801   -1.7898094   0.20037041   -3.3915801    1.6017707  1131861 
 5236000    1.3744845    -3.390508   -1.7897441    0.2000608    -3.390508    1.6007639  1131903 
 5237000    1.3772398   -3.3929836   -1.7890562   0.20089248   -3.3929836    1.6039274  1131935 
 5238000     1.375502   -3.3919458   -1.7901045   0.20124007   -3.3919458    1.6018412  1131979 
 5239000     1.374723   -3.3920965   -1.7912161   0.19952035   -3.3920965    1.6008804  1132017 
 5240000     1.375349   -3.3934214   -1.7918531    0.1958527   -3.3934214    1.6015683  1132046 
 5241000    1.3744781    -3.392333   -1.7918369   0.20018621    -3.392333    1.6004962  1132087 
 5242000     1.375529   -3.3934906   -1.7918386    0.1923616   -3.3934906     1.601652  1132135 
 5243000    1.3746446   -3.3923392   -1.7917736   0.20018818   -3.3923392    1.6005656  1132175 
 5244000    1.3760962    -3.392987   -1.7908061   0.20160701    -3.392987    1.6021809  1132228 
 5245000    1.3746116     -3.39201   -1.7915859   0.20065937     -3.39201    1.6004241  1132248 
 5246000    1.3755318   -3.3938849   -1.7924461   0.19639405   -3.3938849    1.6014389  1132288 
 5247000    1.3757558   -3.3941706   -1.7925374   0.19657503   -3.3941706    1.6016332  1132335 
 5248000    1.3759326   -3.3946543   -1.7928662   0.19615324   -3.3946543    1.6017881  1132371 
 5249000    1.3759782    -3.394388   -1.7925964   0.19743525    -3.394388    1.6017916  1132406 
 5250000    1.3755073   -3.3931588   -1.7919677   0.20016784   -3.3931588    1.6011911  1132443 
 5251000    1.3764304   -3.3937515   -1.7915538   0.19640204   -3.3937515    1.6021977  1132491 
 5252000    1.3766592   -3.3947301   -1.7923184   0.20265926   -3.3947301    1.6024117  1132528 
 5253000    1.3762726   -3.3945471   -1.7926377    0.1985852   -3.3945471    1.6019094  1132565 
 5254000    1.3762369   -3.3940025     -1.79218   0.19940331   -3.3940025    1.6018226  1132597 
 5255000    1.3761603   -3.3941045   -1.7924332   0.19849353   -3.3941045    1.6016712  1132641 
 5256000    1.3750254   -3.3936022   -1.7933098   0.19883759   -3.3936022    1.6002924  1132682 
 5257000    1.3766605   -3.3954641   -1.7933041   0.19674683   -3.3954641      1.60216  1132707 
 5258000    1.3753407   -3.3947258   -1.7941385   0.19960933   -3.3947258    1.6005873  1132733 
 5259000    1.3754889    -3.394313   -1.7936182   0.20276477    -3.394313    1.6006948  1132779 
 5260000    1.3756591    -3.394644   -1.7938162   0.20403942    -3.394644    1.6008278  1132825 
 5261000    1.3759336      -3.3949   -1.7938079   0.19967799      -3.3949    1.6010921  1132864 
 5262000    1.3756205   -3.3946384   -1.7939784   0.20269811   -3.3946384    1.6006599  1132912 
 5263000    1.3771347   -3.3963252   -1.7939612   0.19898387   -3.3963252    1.6023639  1132953 
 5264000    1.3764244   -3.3952394   -1.7937543   0.19776442   -3.3952394    1.6014851  1132990 
 5265000    1.3769246   -3.3958587   -1.7938609   0.19745444   -3.3958587    1.6019978  1133039 
 5266000    1.3755483   -3.3943646   -1.7940161   0.19889256   -3.3943646    1.6003486  1133073 
 5267000    1.3758382   -3.3951644   -1.7945436   0.19717292   -3.3951644    1.6006209  1133119 
 5268000    1.3765197   -3.3956449   -1.7942864   0.19462175   -3.3956449    1.6013585  1133158 
 5269000    1.3750256   -3.3943422   -1.7947966   0.20362702   -3.3943422    1.5995456  1133211 
 5270000    1.3762936   -3.3956825   -1.7947169   0.19834643   -3.3956825    1.6009656  1133250 
 5271000    1.3754867   -3.3952302   -1.7952344   0.19980967   -3.3952302    1.5999959  1133272 
 5272000    1.3753461   -3.3946792   -1.7948907   0.20027076   -3.3946792    1.5997885  1133303 
 5273000    1.3769979   -3.3971104   -1.7954528   0.19663855   -3.3971104    1.6016576  1133340 
 5274000    1.3756124   -3.3956242    -1.795643   0.19792118   -3.3956242    1.5999812  1133386 
 5275000    1.3769736   -3.3966505   -1.7951455   0.19674011   -3.3966505     1.601505  1133428 
 5276000    1.3776873   -3.3968045   -1.7945331   0.19763763   -3.3968045    1.6022715  1133473 
 5277000    1.3766409   -3.3960736   -1.7950727   0.20165792   -3.3960736    1.6010009  1133511 
 5278000    1.3772345   -3.3963799   -1.7947339   0.20225837   -3.3963799     1.601646  1133543 
 5279000    1.3766499   -3.3961406   -1.7952282   0.20092393   -3.3961406    1.6009125  1133581 
 5280000     1.377686   -3.3971003   -1.7950551   0.19811699   -3.3971003    1.6020453  1133632 
 5281000    1.3772534   -3.3969649   -1.7954806   0.19794289   -3.3969649    1.6014843  1133673 
 5282000    1.3779508     -3.39761   -1.7953572   0.19881295     -3.39761    1.6022528  1133703 
 5283000    1.3773538   -3.3973587   -1.7958523   0.20144889   -3.3973587    1.6015064  1133740 
 5284000    1.3756954   -3.3951362     -1.79563   0.19877306   -3.3951362    1.5995061  1133791 
 5285000    1.3764208   -3.3962407   -1.7959589   0.20149191   -3.3962407    1.6002818  1133839 
 5286000    1.3776723   -3.3984596   -1.7967835   0.19915838   -3.3984596    1.6016761  1133882 
 5287000    1.3773973    -3.398361   -1.7970399   0.20075267    -3.398361    1.6013211  1133907 
 5288000    1.3771288   -3.3986056   -1.7976363   0.19916418   -3.3986056    1.6009694  1133935 
 5289000     1.376862   -3.3984082   -1.7978068   0.19815024   -3.3984082    1.6006014  1133976 
 5290000     1.377328   -3.3989777   -1.7978911   0.19874201   -3.3989777    1.6010866  1134016 
 5291000    1.3766963   -3.3982057      -1.7979   0.19765996   -3.3982057    1.6003057  1134049 
 5292000    1.3765968   -3.3980451   -1.7979058   0.19676604   -3.3980451    1.6001393  1134085 
 5293000    1.3770028   -3.3988977   -1.7983543   0.19451873   -3.3988977    1.6005435  1134133 
 5294000    1.3761573   -3.3977456   -1.7982229   0.19821897   -3.3977456    1.5995226  1134160 
 5295000    1.3774248   -3.3993595   -1.7983976   0.19570153   -3.3993595     1.600962  1134184 
 5296000    1.3756691   -3.3974186   -1.7985593   0.19900561   -3.3974186    1.5988593  1134228 
 5297000    1.3772209   -3.3996042   -1.7990119   0.19728723   -3.3996042    1.6005922  1134278 
 5298000    1.3767038    -3.399274   -1.7993278   0.19744703    -3.399274    1.5999462  1134310 
 5299000    1.3763698   -3.3989497   -1.7994495   0.20025652   -3.3989497    1.5995002  1134351 
 5300000    1.3764879    -3.398517   -1.7989331   0.19932068    -3.398517    1.5995839  1134389 
 5301000    1.3769948   -3.3989009   -1.7988013   0.19736197   -3.3989009    1.6000996  1134441 
 5302000    1.3766537   -3.3988558   -1.7992004   0.20186792   -3.3988558    1.5996553  1134475 
 5303000    1.3774109   -3.3993915   -1.7989072    0.1988499   -3.3993915    1.6004843  1134511 
 5304000    1.3772583   -3.3993824   -1.7991262   0.19908857   -3.3993824    1.6002562  1134547 
 5305000    1.3769888   -3.3990631   -1.7991807   0.20344842   -3.3990631    1.5998825  1134590 
 5306000    1.3769525   -3.3989313   -1.7991516   0.20018217   -3.3989313    1.5997796  1134633 
 5307000    1.3777689   -3.4002025   -1.7995322   0.19433567   -3.4002025    1.6006703  1134674 
 5308000    1.3775057   -3.3998552   -1.7995485   0.19840616   -3.3998552    1.6003068  1134715 
 5309000    1.3780359   -3.4009809   -1.8001244   0.19916367   -3.4009809    1.6008564  1134762 
 5310000    1.3780618   -3.4005753   -1.7997481   0.19892878   -3.4005753    1.6008272  1134804 
 5311000    1.3768292   -3.3994628   -1.8001181   0.19693408   -3.3994628    1.5993447  1134840 
 5312000    1.3772118    -3.400036   -1.8003117   0.19847811    -3.400036    1.5997243  1134886 
 5313000    1.3771431   -3.3998725   -1.8002789   0.20122674   -3.3998725    1.5995937  1134922 
 5314000     1.378305   -3.4006402   -1.7997703   0.20031083   -3.4006402    1.6008699  1134974 
 5315000    1.3774204   -3.4001749   -1.8004015   0.20150776   -3.4001749    1.5997734  1135023 
 5316000    1.3782513   -3.4005829    -1.799908   0.20181224   -3.4005829    1.6006749  1135068 
 5317000    1.3781409   -3.4010299   -1.8005424   0.19697386   -3.4010299    1.6004875  1135110 
 5318000    1.3774898   -3.4004456   -1.8007705   0.19826818   -3.4004456     1.599675  1135150 
 5319000    1.3797211   -3.4018973   -1.7996889   0.19791555   -3.4018973    1.6022084  1135191 
 5320000    1.3776604   -3.4000804   -1.8003355   0.19722039   -3.4000804    1.5997449  1135241 
 5321000     1.377628   -3.4009141   -1.8012562    0.1980321   -3.4009141    1.5996579  1135276 
 5322000    1.3767229   -3.3995141   -1.8009734   0.20155136   -3.3995141    1.5985408  1135323 
 5323000    1.3768478    -3.399466   -1.8008323   0.19752721    -3.399466    1.5986337  1135360 
 5324000    1.3789689   -3.4014357   -1.8004055   0.19901475   -3.4014357    1.6010302  1135407 
 5325000     1.378462   -3.4013375   -1.8009635   0.20079957   -3.4013375     1.600374  1135455 
 5326000    1.3788778   -3.4018696   -1.8010931   0.19747379   -3.4018696    1.6007765  1135512 
 5327000    1.3775456   -3.4007597   -1.8015862   0.19895678   -3.4007597    1.5991735  1135552 
 5328000    1.3781788   -3.4005378   -1.8006813   0.20103697   -3.4005378    1.5998565  1135589 
 5329000    1.3784664   -3.4011151   -1.8009953   0.20397309   -3.4011151    1.6001198  1135639 
 5330000     1.378739   -3.4019511   -1.8015627   0.19576786   -3.4019511    1.6003884  1135673 
 5331000     1.377715   -3.4002672   -1.8011139   0.19987408   -3.4002672    1.5991533  1135706 
 5332000    1.3790914   -3.4012908    -1.800592   0.20228309   -3.4012908    1.6006988  1135743 
 5333000    1.3791134   -3.4012874   -1.8006124   0.19698917   -3.4012874     1.600675  1135778 
 5334000    1.3798461   -3.4022749   -1.8007961   0.19931605   -3.4022749    1.6014788  1135811 
 5335000    1.3782065   -3.4009295   -1.8014071    0.2026849   -3.4009295    1.5995224  1135849 
 5336000    1.3776386   -3.4007567    -1.801954   0.19774603   -3.4007567    1.5988027  1135892 
 5337000     1.379369   -3.4027871   -1.8020296   0.19943887   -3.4027871    1.6007574  1135930 
 5338000    1.3774842   -3.4010937     -1.80257   0.19803267   -3.4010937    1.5985237  1135963 
 5339000    1.3779918   -3.4019252   -1.8028632   0.19589962   -3.4019252     1.599062  1135999 
 5340000    1.3781513    -3.402385   -1.8031956   0.19559112    -3.402385    1.5991894  1136040 
 5341000    1.3778067   -3.4016696   -1.8029448   0.20227435   -3.4016696    1.5987248  1136086 
 5342000    1.3793648   -3.4037027   -1.8032165   0.19968593   -3.4037027    1.6004862  1136119 
 5343000    1.3787531   -3.4032749   -1.8035675   0.20065287   -3.4032749    1.5997074  1136168 
 5344000    1.3778746    -3.403092   -1.8044756   0.19909311    -3.403092    1.5986165  1136219 
 5345000    1.3773123   -3.4020158   -1.8041024   0.19973176   -3.4020158    1.5979135  1136255 
 5346000      1.37852   -3.4038541   -1.8045747   0.19462616   -3.4038541    1.5992794  1136280 
 5347000    1.3789089   -3.4048693   -1.8051908   0.19868541   -3.4048693    1.5996785  1136317 
 5348000    1.3785466   -3.4039481   -1.8047393   0.19891713   -3.4039481    1.5992089  1136352 
 5349000    1.3787244    -3.403933   -1.8045671   0.19897798    -3.403933    1.5993659  1136387 
 5350000    1.3779521   -3.4035292   -1.8051014   0.20159597   -3.4035292    1.5984278  1136417 
 5351000    1.3783271   -3.4035493   -1.8047441    0.2000347   -3.4035493    1.5988051  1136458 
 5352000    1.3791727   -3.4049769   -1.8052641   0.19718982   -3.4049769    1.5997128  1136510 
 5353000    1.3788177   -3.4048043   -1.8055497   0.19841952   -3.4048043    1.5992546  1136543 
 5354000    1.3787653   -3.4048194   -1.8056818   0.20021961   -3.4048194    1.5991376  1136583 
 5355000    1.3789215   -3.4056847   -1.8064153   0.19798597   -3.4056847    1.5992694  1136618 
 5356000    1.3791077   -3.4056796   -1.8062702    0.1977841   -3.4056796    1.5994094  1136672 
 5357000    1.3775923   -3.4040813   -1.8064828   0.19980821   -3.4040813    1.5975985  1136710 
 5358000    1.3787832   -3.4051596   -1.8062278    0.1942212   -3.4051596    1.5989319  1136744 
 5359000    1.3791249   -3.4056803   -1.8064043   0.19554838   -3.4056803     1.599276  1136781 
 5360000    1.3788144   -3.4048962   -1.8060408   0.19735044   -3.4048962    1.5988554  1136824 
 5361000    1.3801587   -3.4058989   -1.8055522   0.19741484   -3.4058989    1.6003467  1136872 
 5362000    1.3793874   -3.4052685   -1.8058598   0.19867809   -3.4052685    1.5994087  1136903 
 5363000    1.3777138   -3.4035058    -1.806091   0.20009439   -3.4035058    1.5974148  1136941 
 5364000    1.3794985   -3.4057107   -1.8062688    0.1982499   -3.4057107    1.5994419  1136971 
 5365000    1.3783694   -3.4041185   -1.8060265   0.20487056   -3.4041185     1.598092  1137000 
 5366000    1.3786139   -3.4047047   -1.8063601    0.2011358   -3.4047047    1.5983446  1137022 
 5367000    1.3800261   -3.4059722    -1.806041   0.19848268   -3.4059722    1.5999312  1137058 
 5368000    1.3790243   -3.4055383    -1.806822   0.19993352   -3.4055383    1.5987163  1137096 
 5369000    1.3797915   -3.4065247   -1.8069737   0.19957512   -3.4065247    1.5995509  1137135 
 5370000    1.3787721   -3.4054116   -1.8071044   0.19789609   -3.4054116    1.5983073  1137179 
 5371000     1.379858   -3.4062117   -1.8066906   0.19992387   -3.4062117    1.5995211  1137211 
 5372000    1.3789525    -3.405785   -1.8073558   0.19817532    -3.405785    1.5984292  1137241 
 5373000    1.3793204   -3.4062739   -1.8074548   0.20104831   -3.4062739    1.5988191  1137267 
 5374000    1.3785685   -3.4054038   -1.8075039   0.20228382   -3.4054038    1.5978999  1137301 
 5375000    1.3804676   -3.4073857   -1.8073296   0.19825487   -3.4073857    1.6000561  1137333 
 5376000    1.3801584   -3.4069869   -1.8073483   0.19975418   -3.4069869    1.5996386  1137375 
 5377000    1.3802066     -3.40738   -1.8077446   0.20094894     -3.40738    1.5996355  1137417 
 5378000    1.3797924   -3.4066882   -1.8075821   0.19721852   -3.4066882    1.5991061  1137452 
 5379000    1.3806336   -3.4071233   -1.8070816   0.19945255   -3.4071233    1.6000417  1137480 
 5380000    1.3806525   -3.4073817   -1.8073842   0.20199806   -3.4073817    1.5999975  1137527 
 5381000    1.3801351   -3.4065781   -1.8072393   0.19973103   -3.4065781    1.5993388  1137569 
 5382000    1.3815387   -3.4073598   -1.8064451   0.20490607   -3.4073598    1.6009147  1137605 
 5383000    1.3815595    -3.407479   -1.8066064   0.20226318    -3.407479    1.6008726  1137652 
 5384000    1.3808841   -3.4063132   -1.8062808   0.20444201   -3.4063132    1.6000323  1137693 
 5385000    1.3800863   -3.4052119   -1.8061559   0.20256539   -3.4052119     1.599056  1137730 
 5386000    1.3800258   -3.4063267     -1.80739   0.19860864   -3.4063267    1.5989367  1137765 
 5387000    1.3794763   -3.4060634   -1.8078323   0.19955263   -3.4060634    1.5982312  1137814 
 5388000     1.379348   -3.4056379   -1.8076074   0.20085044   -3.4056379    1.5980305  1137851 
 5389000    1.3795842    -3.406041   -1.8078042   0.20159935    -3.406041    1.5982368  1137899 
 5390000    1.3817915   -3.4088153   -1.8080804   0.19553838   -3.4088153    1.6007348  1137941 
 5391000    1.3818535    -3.408697   -1.8079353   0.19622314    -3.408697    1.6007616  1137973 
 5392000    1.3813126   -3.4079082   -1.8078252   0.19851041   -3.4079082    1.6000831  1138010 
 5393000    1.3805015   -3.4068709   -1.8077808   0.20555897   -3.4068709    1.5990901  1138048 
 5394000     1.380509   -3.4073176   -1.8082525   0.19870049   -3.4073176    1.5990651  1138072 
 5395000    1.3797192   -3.4064298   -1.8083245   0.20196133   -3.4064298    1.5981053  1138104 
 5396000    1.3808997   -3.4078032   -1.8083811   0.20317653   -3.4078032    1.5994221  1138140 
 5397000    1.3809066   -3.4072076   -1.8078169   0.19778726   -3.4072076    1.5993907  1138168 
 5398000    1.3812186   -3.4080327   -1.8083214   0.20154707   -3.4080327    1.5997113  1138197 
 5399000    1.3805986   -3.4067719   -1.8078377   0.20460084   -3.4067719    1.5989342  1138239 
 5400000    1.3817089   -3.4089859    -1.808829   0.19932418   -3.4089859    1.6001569  1138284 
 5401000    1.3813325   -3.4082878   -1.8086175   0.20026517   -3.4082878    1.5996703  1138320 
 5402000    1.3816283   -3.4084903   -1.8085379   0.19777518   -3.4084903    1.5999524  1138363 
 5403000    1.3812642   -3.4084319   -1.8089432   0.19876264   -3.4084319    1.5994887  1138393 
 5404000    1.3816282   -3.4090951   -1.8092509   0.19854944   -3.4090951    1.5998442  1138440 
 5405000    1.3827657   -3.4105668    -1.809442   0.19696206   -3.4105668    1.6011247  1138466 
 5406000    1.3804126   -3.4079744   -1.8096095   0.20188057   -3.4079744    1.5983649  1138491 
 5407000    1.3821354   -3.4093286   -1.8090237   0.20192105   -3.4093286    1.6003049  1138530 
 5408000    1.3813047   -3.4092225   -1.8099328   0.20398143   -3.4092225    1.5992897  1138568 
 5409000    1.3818026   -3.4097663   -1.8099493   0.20056256   -3.4097663     1.599817  1138603 
 5410000    1.3807033   -3.4086763   -1.8101811   0.20522604   -3.4086763    1.5984951  1138638 
 5411000    1.3805652   -3.4091464   -1.8108673   0.20157658   -3.4091464    1.5982791  1138678 
 5412000    1.3815067   -3.4101214   -1.8107987   0.19625293   -3.4101214    1.5993227  1138711 
 5413000     1.380175   -3.4094637   -1.8117317   0.20268285   -3.4094637     1.597732  1138746 
 5414000    1.3808271   -3.4099292   -1.8115041   0.19968765   -3.4099292    1.5984251  1138790 
 5415000    1.3800725   -3.4093339   -1.8118398    0.1995416   -3.4093339    1.5974941  1138831 
 5416000    1.3801473   -3.4091857   -1.8116332   0.20308488   -3.4091857    1.5975525  1138851 
 5417000    1.3803652   -3.4090578   -1.8112866   0.20036691   -3.4090578    1.5977712  1138875 
 5418000    1.3805622    -3.410074   -1.8121225   0.20188247    -3.410074    1.5979514  1138909 
 5419000    1.3819103    -3.411369   -1.8119176   0.19506697    -3.411369    1.5994514  1138952 
 5420000    1.3813101   -3.4111396    -1.812453   0.19941011   -3.4111396    1.5986866  1139002 
 5421000    1.3812668   -3.4114753   -1.8128949   0.19859998   -3.4114753    1.5985803  1139042 
 5422000    1.3811452   -3.4108134   -1.8124159   0.20249147   -3.4108134    1.5983974  1139072 
 5423000    1.3809807    -3.411266   -1.8131023    0.1953383    -3.411266    1.5981636  1139103 
 5424000    1.3797874   -3.4096275   -1.8128939    0.1992041   -3.4096275    1.5967336  1139138 
 5425000    1.3819486   -3.4121592    -1.812978   0.20272337   -3.4121592    1.5991812  1139176 
 5426000    1.3802348   -3.4098057   -1.8126511   0.20229554   -3.4098057    1.5971546  1139207 
 5427000    1.3823289   -3.4119769   -1.8124581   0.20148877   -3.4119769    1.5995188  1139249 
 5428000     1.381669   -3.4115953   -1.8128905   0.19911417   -3.4115953    1.5987047  1139285 
 5429000    1.3815867   -3.4114665   -1.8129018    0.1988342   -3.4114665    1.5985647  1139317 
 5430000     1.382253   -3.4120286   -1.8127421   0.19517714   -3.4120286    1.5992865  1139352 
 5431000    1.3810482   -3.4104228   -1.8125696   0.20238083   -3.4104228    1.5978532  1139380 
 5432000    1.3813935   -3.4112422   -1.8130358   0.19923756   -3.4112422    1.5982064  1139413 
 5433000    1.3814944    -3.411792   -1.8135249   0.19920514    -3.411792    1.5982671  1139453 
 5434000     1.382932   -3.4127949   -1.8129391   0.19761738   -3.4127949    1.5998558  1139506 
 5435000    1.3820132    -3.411748   -1.8130071   0.19949283    -3.411748    1.5987409  1139543 
 5436000    1.3814338   -3.4115584   -1.8135648   0.20124636   -3.4115584    1.5979936  1139598 
 5437000    1.3812651   -3.4117642   -1.8140093   0.20496407   -3.4117642    1.5977549  1139629 
 5438000     1.382258   -3.4122374   -1.8133705   0.19864353   -3.4122374     1.598867  1139655 
 5439000    1.3816525   -3.4116653   -1.8135646   0.20023638   -3.4116653    1.5981007  1139702 
 5440000    1.3826906   -3.4124191   -1.8132032    0.2000275   -3.4124191    1.5992158  1139763 
 5441000    1.3834693    -3.413799   -1.8137485   0.19536991    -3.413799    1.6000505  1139810 
 5442000    1.3807191   -3.4111816   -1.8143637   0.20125626   -3.4111816    1.5968179  1139847 
 5443000    1.3819951   -3.4127719   -1.8145287   0.20278769   -3.4127719    1.5982431  1139883 
 5444000    1.3809495   -3.4121225    -1.815139   0.20164848   -3.4121225    1.5969835  1139919 
 5445000    1.3801695   -3.4120689   -1.8160546   0.20368855   -3.4120689    1.5960142  1139967 
 5446000    1.3824289   -3.4139024   -1.8153133   0.19756394   -3.4139024    1.5985891  1139994 
 5447000    1.3808407   -3.4126926   -1.8159791   0.19969477   -3.4126926    1.5967134  1140022 
 5448000    1.3810573   -3.4130943   -1.8161766   0.20163539   -3.4130943    1.5969176  1140055 
 5449000    1.3816088   -3.4139514   -1.8164549   0.19743953   -3.4139514    1.5974965  1140097 
 5450000    1.3823317   -3.4146613   -1.8163794   0.19587807   -3.4146613    1.5982819  1140133 
 5451000     1.381323   -3.4138594   -1.8167816   0.19844546   -3.4138594    1.5970777  1140160 
 5452000    1.3821772   -3.4148127   -1.8167893   0.19636274   -3.4148127    1.5980234  1140190 
 5453000    1.3805257   -3.4130242   -1.8169663   0.20089196   -3.4130242    1.5960579  1140230 
 5454000    1.3837795   -3.4163036   -1.8165427   0.19620343   -3.4163036    1.5997609  1140272 
 5455000    1.3816674   -3.4143331   -1.8170798    0.2034573   -3.4143331    1.5972532  1140319 
 5456000    1.3825604   -3.4154948   -1.8172568   0.19904074   -3.4154948     1.598238  1140353 
 5457000    1.3821835   -3.4153527   -1.8176093   0.20027626   -3.4153527    1.5977434  1140395 
 5458000     1.382738   -3.4150592   -1.8167197    0.1995716   -3.4150592    1.5983395  1140427 
 5459000    1.3818245   -3.4151192   -1.8179056   0.19915941   -3.4151192    1.5972136  1140477 
 5460000    1.3815372   -3.4147464    -1.817914   0.20104172   -3.4147464    1.5968325  1140512 
 5461000    1.3834852   -3.4169841   -1.8179743   0.19552033   -3.4169841    1.5990098  1140565 
 5462000    1.3825648   -3.4158261   -1.8179264    0.2009725   -3.4158261    1.5978998  1140598 
 5463000    1.3823426   -3.4153825   -1.8178013   0.20129427   -3.4153825    1.5975813  1140642 
 5464000    1.3816874   -3.4149693   -1.8181859   0.20101918   -3.4149693    1.5967834  1140671 
 5465000    1.3831772   -3.4164708   -1.8180259     0.194771   -3.4164708    1.5984449  1140714 
 5466000    1.3809085   -3.4145202   -1.8187292   0.20208552   -3.4145202     1.595791  1140737 
 5467000    1.3820469   -3.4161896   -1.8191321   0.19412381   -3.4161896    1.5970575  1140772 
 5468000    1.3814009   -3.4156576   -1.8194026   0.20035831   -3.4156576     1.596255  1140812 
 5469000    1.3828082   -3.4171017   -1.8192835   0.19739243   -3.4171017    1.5978182  1140857 
 5470000    1.3814102   -3.4150969   -1.8189486   0.19984874   -3.4150969    1.5961483  1140896 
 5471000    1.3821717   -3.4161796   -1.8192074   0.19722508   -3.4161796    1.5969722  1140936 
 5472000    1.3825778   -3.4169171   -1.8195444   0.19965273   -3.4169171    1.5973727  1140985 
 5473000    1.3826674   -3.4170662   -1.8196585   0.19830136   -3.4170662    1.5974077  1141034 
 5474000    1.3829044   -3.4171727   -1.8195388   0.19845103   -3.4171727    1.5976339  1141068 
 5475000    1.3812179   -3.4151962    -1.819561    0.2054763   -3.4151962    1.5956352  1141104 
 5476000    1.3843035   -3.4184923   -1.8193359   0.19812065   -3.4184923    1.5991564  1141135 
 5477000    1.3830721   -3.4168125   -1.8191361   0.20177796   -3.4168125    1.5976764  1141176 
 5478000    1.3822848   -3.4161887   -1.8194792    0.2037325   -3.4161887    1.5967095  1141217 
 5479000    1.3829769   -3.4170503   -1.8196057   0.19666036   -3.4170503    1.5974446  1141263 
 5480000    1.3837293   -3.4182137   -1.8199588     0.197275   -3.4182137    1.5982549  1141305 
 5481000    1.3827969   -3.4164724   -1.8193477   0.20417397   -3.4164724    1.5971247  1141343 
 5482000    1.3832865   -3.4175337   -1.8198813   0.20086141   -3.4175337    1.5976524  1141370 
 5483000    1.3828068   -3.4174601   -1.8204177   0.20193739   -3.4174601    1.5970424  1141410 
 5484000     1.382774   -3.4169615   -1.8200032   0.20225356   -3.4169615    1.5969583  1141443 
 5485000     1.382578   -3.4169699    -1.820298   0.20378162   -3.4169699    1.5966719  1141486 
 5486000    1.3827873   -3.4173611   -1.8205035   0.20306843   -3.4173611    1.5968576  1141526 
 5487000    1.3829058    -3.418104   -1.8211684   0.20151831    -3.418104    1.5969357  1141568 
 5488000    1.3835972   -3.4183499   -1.8206788   0.20264835   -3.4183499    1.5976711  1141613 
 5489000    1.3827148   -3.4181118   -1.8215182   0.20283379   -3.4181118    1.5965935  1141655 
 5490000    1.3843901   -3.4195125    -1.821035   0.19899284   -3.4195125    1.5984775  1141691 
 5491000    1.3835376   -3.4193462   -1.8219103   0.20130195   -3.4193462    1.5974359  1141732 
 5492000    1.3830356   -3.4190066   -1.8222036   0.19827141   -3.4190066     1.596803  1141770 
 5493000    1.3823156   -3.4179247   -1.8220046    0.1983992   -3.4179247    1.5959201  1141807 
 5494000     1.382525   -3.4182346   -1.8221385   0.19954616   -3.4182346    1.5960961  1141854 
 5495000    1.3831538   -3.4189948   -1.8222217   0.19711139   -3.4189948    1.5967731  1141889 
 5496000    1.3836073   -3.4196758   -1.8224281   0.20216916   -3.4196758    1.5972477  1141924 
 5497000    1.3836882   -3.4200128   -1.8227332   0.19542536   -3.4200128    1.5972796  1141968 
 5498000     1.381041   -3.4170504   -1.8228811   0.20505769   -3.4170504    1.5941693  1142007 
 5499000     1.384095   -3.4201331   -1.8225002   0.19817684   -3.4201331     1.597633  1142051 
 5500000    1.3838253   -3.4201339   -1.8228765   0.19817577   -3.4201339    1.5972574  1142097 
 5501000    1.3829917   -3.4192263   -1.8229884   0.19929388   -3.4192263    1.5962379  1142138 
 5502000    1.3837714   -3.4199561   -1.8228784    0.1985306   -3.4199561    1.5970777  1142181 
 5503000    1.3838764   -3.4202802   -1.8231344   0.19988774   -3.4202802    1.5971457  1142219 
 5504000    1.3845062   -3.4205127   -1.8226988   0.20010151   -3.4205127    1.5978139  1142261 
 5505000    1.3848848    -3.421056   -1.8228472   0.20027818    -3.421056    1.5982088  1142291 
 5506000    1.3820652   -3.4175912   -1.8227005   0.20275892   -3.4175912    1.5948907  1142337 
 5507000    1.3833287   -3.4192896   -1.8229897   0.20364268   -3.4192896    1.5962998  1142372 
 5508000    1.3845523    -3.420418   -1.8227705   0.19934863    -3.420418    1.5976475  1142418 
 5509000    1.3852686   -3.4214174    -1.822998   0.19889174   -3.4214174    1.5984194  1142457 
 5510000    1.3836531   -3.4192974   -1.8227896   0.20631676   -3.4192974    1.5965078  1142491 
 5511000    1.3838409   -3.4195105   -1.8228292   0.20265488   -3.4195105    1.5966812  1142522 
 5512000    1.3849196   -3.4205983   -1.8227312    0.2020181   -3.4205983    1.5978671  1142564 
 5513000    1.3836681   -3.4194885   -1.8231408   0.20301643   -3.4194885    1.5963477  1142618 
 5514000    1.3841178   -3.4203386   -1.8235392   0.20169965   -3.4203386    1.5967994  1142666 
 5515000     1.384562   -3.4207443   -1.8235078   0.19989177   -3.4207443    1.5972365  1142720 
 5516000     1.384697   -3.4205049   -1.8231575   0.20093395   -3.4205049    1.5973475  1142752 
 5517000    1.3851118   -3.4215683   -1.8237982   0.19817697   -3.4215683      1.59777  1142792 
 5518000    1.3848267   -3.4213205   -1.8239352   0.20184389   -3.4213205    1.5973853  1142832 
 5519000    1.3841911   -3.4206418   -1.8240344   0.20298525   -3.4206418    1.5966073  1142864 
 5520000    1.3841224   -3.4206835   -1.8242182   0.20053267   -3.4206835    1.5964653  1142909 
 5521000    1.3837891   -3.4200884   -1.8240564   0.20307562   -3.4200884     1.596032  1142944 
 5522000    1.3841718   -3.4202157   -1.8237856   0.20150655   -3.4202157      1.59643  1142975 
 5523000    1.3842124    -3.419891   -1.8234713   0.20330547    -3.419891    1.5964197  1143016 
 5524000    1.3855754   -3.4215689   -1.8236333   0.20362952   -3.4215689    1.5979356  1143056 
 5525000    1.3841937   -3.4201026   -1.8237982   0.20211253   -3.4201026    1.5963044  1143083 
 5526000    1.3857786   -3.4226599   -1.8245906   0.19856627   -3.4226599    1.5980693  1143128 
 5527000    1.3854534   -3.4216629   -1.8240161   0.19700612   -3.4216629    1.5976468  1143162 
 5528000    1.3853087   -3.4211639   -1.8237273   0.20475055   -3.4211639    1.5974366  1143193 
 5529000    1.3851182   -3.4214568   -1.8242944   0.20654944   -3.4214568    1.5971624  1143232 
 5530000    1.3855775   -3.4219008   -1.8242409   0.20570345   -3.4219008    1.5976599  1143255 
 5531000    1.3841321   -3.4214685   -1.8255185   0.20227327   -3.4214685      1.59595  1143286 
 5532000    1.3836393   -3.4212438   -1.8259039   0.20256976   -3.4212438    1.5953399  1143316 
 5533000    1.3849108    -3.422329   -1.8255481   0.20157286    -3.422329    1.5967809  1143334 
 5534000     1.384483   -3.4220566   -1.8258192   0.20240576   -3.4220566    1.5962374  1143370 
 5535000    1.3852074   -3.4231026   -1.8260845   0.19837554   -3.4231026     1.597018  1143409 
 5536000    1.3852864   -3.4227903   -1.8257244   0.20011609   -3.4227903    1.5970659  1143440 
 5537000    1.3859015   -3.4245591   -1.8268372   0.20040717   -3.4245591    1.5977219  1143478 
 5538000    1.3840947   -3.4225085   -1.8269226   0.19932744   -3.4225085    1.5955859  1143516 
 5539000    1.3841859   -3.4232484   -1.8276104   0.20210994   -3.4232484     1.595638  1143554 
 5540000     1.383528   -3.4219241   -1.8271003    0.2003309   -3.4219241    1.5948238  1143594 
 5541000    1.3853337   -3.4238606    -1.826993    0.2021698   -3.4238606    1.5968676  1143621 
 5542000    1.3845189   -3.4237693    -1.827887   0.19996363   -3.4237693    1.5958824  1143654 
 5543000    1.3845232   -3.4243232   -1.8285001   0.20342014   -3.4243232    1.5958231  1143700 
 5544000    1.3838679   -3.4234183   -1.8284189   0.19990521   -3.4234183    1.5949994  1143749 
 5545000    1.3833333   -3.4225916   -1.8282502   0.20339041   -3.4225916    1.5943415  1143779 
 5546000    1.3840685   -3.4230609   -1.8279139   0.19980585   -3.4230609     1.595147  1143809 
 5547000    1.3850265   -3.4238662   -1.8276737   0.20347922   -3.4238662    1.5961924  1143851 
 5548000    1.3843871   -3.4238392   -1.8284241    0.1999237   -3.4238392    1.5954151  1143880 
 5549000    1.3853374   -3.4246608   -1.8281939     0.200495   -3.4246608     1.596467  1143911 
 5550000    1.3848268   -3.4238583   -1.8280326   0.20149419   -3.4238583    1.5958256  1143949 
 5551000    1.3854864   -3.4245078   -1.8279877    0.2035849   -3.4245078    1.5965201  1143996 
 5552000    1.3861633   -3.4253197    -1.828067   0.20180647   -3.4253197    1.5972527  1144030 
 5553000    1.3842837   -3.4239837   -1.8289637   0.20035839   -3.4239837    1.5950199  1144078 
 5554000    1.3844516   -3.4237976   -1.8286177   0.20171716   -3.4237976    1.5951799  1144102 
 5555000    1.3856014   -3.4253801   -1.8289215   0.20035446   -3.4253801    1.5964586  1144135 
 5556000    1.3844134   -3.4243332   -1.8292936   0.19764074   -3.4243332    1.5950396  1144171 
 5557000      1.38459   -3.4243334   -1.8291349   0.20037294   -3.4243334    1.5951985  1144203 
 5558000    1.3847524    -3.424202   -1.8288721   0.20342837    -3.424202    1.5953299  1144243 
 5559000     1.384117   -3.4243008   -1.8297587   0.20043129   -3.4243008    1.5945421  1144283 
 5560000    1.3849709   -3.4255195   -1.8300384   0.19734711   -3.4255195    1.5954812  1144315 
 5561000    1.3856152   -3.4259616   -1.8297773   0.19371796   -3.4259616    1.5961843  1144343 
 5562000    1.3862226   -3.4261003   -1.8292735   0.19685095   -3.4261003    1.5968269  1144384 
 5563000    1.3844133   -3.4242232   -1.8295461   0.20171381   -3.4242232    1.5946771  1144431 
 5564000    1.3853532   -3.4255901   -1.8298763   0.19532151   -3.4255901    1.5957138  1144464 
 5565000    1.3849748   -3.4250441    -1.829822   0.20121232   -3.4250441    1.5952222  1144504 
 5566000    1.3850628   -3.4257141    -1.830438   0.20034924   -3.4257141    1.5952761  1144538 
 5567000     1.385086   -3.4256384   -1.8303787   0.20115643   -3.4256384    1.5952596  1144569 
 5568000    1.3851978   -3.4258766   -1.8305439    0.2013986   -3.4258766    1.5953327  1144609 
 5569000    1.3853325   -3.4251848   -1.8297346   0.20295796   -3.4251848    1.5954502  1144636 
 5570000    1.3856102   -3.4261945   -1.8304775   0.20440972   -3.4261945     1.595717  1144674 
 5571000    1.3845912   -3.4248472   -1.8303525   0.20399463   -3.4248472    1.5944947  1144709 
 5572000    1.3861169   -3.4271613   -1.8309416   0.19647341   -3.4271613    1.5962197  1144732 
 5573000    1.3847779   -3.4251928   -1.8305597   0.20348257   -3.4251928    1.5946331  1144764 
 5574000    1.3854223    -3.426192   -1.8308879   0.20165273    -3.426192    1.5953042  1144815 
 5575000    1.3848409   -3.4256673     -1.83108   0.20221949   -3.4256673    1.5945873  1144849 
 5576000    1.3857671   -3.4266969   -1.8310961   0.20234825   -3.4266969    1.5956008  1144887 
 5577000    1.3856025   -3.4264748    -1.831129   0.20458149   -3.4264748    1.5953458  1144934 
 5578000    1.3859303   -3.4266876   -1.8310048   0.20189255   -3.4266876    1.5956828  1144963 
 5579000    1.3862263   -3.4262588   -1.8302952   0.20381649   -3.4262588    1.5959636  1145006 
 5580000    1.3865043    -3.427336   -1.8311052   0.19973432    -3.427336    1.5962308  1145044 
 5581000    1.3857601   -3.4265485   -1.8312149   0.20282849   -3.4265485    1.5953335  1145073 
 5582000    1.3856602   -3.4269154   -1.8317359   0.20152244   -3.4269154    1.5951795  1145101 
 5583000      1.38606   -3.4277893   -1.8322109   0.20044305   -3.4277893    1.5955785  1145145 
 5584000    1.3859429   -3.4272615   -1.8318639   0.20162422   -3.4272615    1.5953977  1145178 
 5585000    1.3861755   -3.4271883   -1.8315772   0.20589988   -3.4271883    1.5956111  1145217 
 5586000    1.3860464   -3.4280502   -1.8326391   0.20091378   -3.4280502     1.595411  1145254 
 5587000    1.3848717   -3.4268329   -1.8328269   0.20410287   -3.4268329     1.594006  1145292 
 5588000    1.3864185   -3.4282867   -1.8325408   0.19997158   -3.4282867    1.5957459  1145321 
 5589000     1.386593   -3.4279585   -1.8320744   0.19776958   -3.4279585    1.5958841  1145366 
 5590000    1.3857221   -3.4278488   -1.8330158   0.19780498   -3.4278488     1.594833  1145401 
 5591000    1.3860681   -3.4273199   -1.8321472    0.2023262   -3.4273199    1.5951728  1145443 
 5592000    1.3858184   -3.4270506    -1.832214   0.20282676   -3.4270506    1.5948367  1145478 
 5593000    1.3855483   -3.4263238   -1.8318453   0.20310071   -3.4263238    1.5944784  1145512 
 5594000    1.3857189    -3.426867   -1.8322479   0.20543702    -3.426867    1.5946191  1145552 
 5595000    1.3869183    -3.428196   -1.8322566   0.20047992    -3.428196    1.5959394  1145595 
 5596000    1.3865742   -3.4283762   -1.8328801   0.20090604   -3.4283762    1.5954961  1145629 
 5597000    1.3867952   -3.4284561   -1.8327475   0.20097323   -3.4284561    1.5957086  1145659 
 5598000    1.3866254   -3.4281873   -1.8327104   0.20527621   -3.4281873     1.595477  1145685 
 5599000    1.3845189   -3.4261863   -1.8331803   0.20594293   -3.4261863     1.593006  1145719 
 5600000    1.3857074   -3.4275962   -1.8332562   0.20508058   -3.4275962      1.59434  1145743 
 5601000    1.3856443   -3.4274804   -1.8332546   0.20096085   -3.4274804    1.5942257  1145773 
 5602000    1.3864363   -3.4280332   -1.8329548   0.20427875   -3.4280332    1.5950784  1145815 
 5603000     1.386827   -3.4295183   -1.8340586   0.19998943   -3.4295183    1.5954597  1145864 
 5604000    1.3862521    -3.428993   -1.8342503   0.20481974    -3.428993    1.5947427  1145904 
 5605000    1.3859815   -3.4282684   -1.8338968   0.20429013   -3.4282684    1.5943716  1145947 
 5606000    1.3877483   -3.4301456   -1.8337931   0.19873476   -3.4301456    1.5963525  1145984 
 5607000    1.3873279   -3.4297827   -1.8339653   0.20028804   -3.4297827    1.5958173  1146021 
 5608000    1.3874754   -3.4296191   -1.8336989   0.20128232   -3.4296191    1.5959202  1146069 
 5609000    1.3884843   -3.4307668    -1.833728   0.19774506   -3.4307668    1.5970388  1146099 
 5610000    1.3875203   -3.4294075   -1.8335179   0.20419552   -3.4294075    1.5958897  1146128 
 5611000    1.3868082    -3.428782   -1.8337643    0.2045741    -3.428782    1.5950177  1146166 
 5612000     1.387893   -3.4302593   -1.8340343   0.19947627   -3.4302593     1.596225  1146195 
 5613000    1.3880721   -3.4300766   -1.8337083    0.2027713   -3.4300766    1.5963683  1146240 
 5614000    1.3872802   -3.4291003   -1.8336943   0.20072899   -3.4291003     1.595406  1146277 
 5615000    1.3887723   -3.4305898   -1.8334956   0.20499086   -3.4305898    1.5970942  1146297 
 5616000    1.3879657   -3.4299544   -1.8338324   0.20271507   -3.4299544     1.596122  1146329 
 5617000    1.3884319   -3.4302346   -1.8336253   0.20242617   -3.4302346    1.5966093  1146364 
 5618000    1.3870269    -3.429169   -1.8342379   0.20633934    -3.429169    1.5949311  1146409 
 5619000    1.3870314   -3.4301231   -1.8352355   0.20101497   -3.4301231    1.5948876  1146444 
 5620000    1.3869788   -3.4299646   -1.8351779   0.19960881   -3.4299646    1.5947868  1146473 
 5621000    1.3862853   -3.4298516   -1.8359206   0.20082895   -3.4298516     1.593931  1146515 
 5622000    1.3870171   -3.4301751   -1.8354416   0.20167939   -3.4301751    1.5947335  1146543 
 5623000     1.388424   -3.4320303   -1.8357364   0.20404923   -3.4320303    1.5962939  1146584 
 5624000    1.3872624   -3.4307706   -1.8358539   0.20290822   -3.4307706    1.5949167  1146614 
 5625000    1.3871533    -3.430697   -1.8359614   0.20143928    -3.430697    1.5947356  1146654 
 5626000    1.3873883   -3.4304948   -1.8355376    0.2037755   -3.4304948    1.5949571  1146689 
 5627000    1.3867527   -3.4303297   -1.8361478   0.20046683   -3.4303297     1.594182  1146721 
 5628000    1.3866288   -3.4306542   -1.8366606   0.20189053   -3.4306542    1.5939936  1146754 
 5629000    1.3871693   -3.4318081   -1.8372405   0.20179202   -3.4318081    1.5945677  1146788 
 5630000    1.3875869    -3.431925   -1.8369148   0.20170518    -3.431925    1.5950102  1146815 
 5631000    1.3870931   -3.4319906   -1.8375995   0.20180529   -3.4319906    1.5943911  1146852 
 5632000    1.3876361   -3.4327767    -1.837806   0.20149807   -3.4327767    1.5949707  1146884 
 5633000    1.3888948   -3.4335386    -1.837167   0.20265104   -3.4335386    1.5963715  1146917 
 5634000    1.3884682   -3.4324946   -1.8366759   0.20422325   -3.4324946    1.5958187  1146962 
 5635000    1.3870445   -3.4314609     -1.83733   0.20657155   -3.4314609    1.5941309  1146999 
 5636000    1.3881771   -3.4326187   -1.8372264   0.20094877   -3.4326187    1.5953923  1147028 
 5637000    1.3880495   -3.4327314    -1.837533   0.20149326   -3.4327314    1.5951984  1147062 
 5638000    1.3873346   -3.4324406   -1.8381265   0.20204505   -3.4324406    1.5943142  1147107 
 5639000     1.388078   -3.4334396    -1.838303   0.20280195   -3.4334396    1.5951365  1147130 
 5640000    1.3873326   -3.4321587   -1.8379344   0.20603614   -3.4321587    1.5942243  1147170 
 5641000    1.3874874   -3.4324549   -1.8380958   0.20400505   -3.4324549    1.5943591  1147201 
 5642000    1.3880877   -3.4333403   -1.8383469   0.20508926   -3.4333403    1.5949934  1147241 
 5643000    1.3868172   -3.4323425   -1.8388507   0.20405687   -3.4323425    1.5934918  1147271 
 5644000    1.3876155   -3.4333831   -1.8390047   0.20524614   -3.4333831    1.5943785  1147293 
 5645000    1.3882686   -3.4337716   -1.8387094   0.20363835   -3.4337716    1.5950622  1147341 
 5646000    1.3876868   -3.4323426   -1.8380017   0.20511632   -3.4323426    1.5943409  1147379 
 5647000    1.3879266   -3.4326507   -1.8380691   0.20357295   -3.4326507    1.5945817  1147404 
 5648000     1.389748   -3.4334208   -1.8367883   0.20627752   -3.4334208    1.5966325  1147434 
 5649000     1.389103   -3.4330673   -1.8372356   0.20480721   -3.4330673    1.5958317  1147477 
 5650000    1.3886517   -3.4326456   -1.8373949   0.20058445   -3.4326456    1.5952507  1147522 
 5651000    1.3888062   -3.4331084   -1.8377289   0.20624428   -3.4331084    1.5953795  1147557 
 5652000     1.388687   -3.4329533   -1.8377677   0.20135955   -3.4329533    1.5951856  1147598 
 5653000    1.3901724   -3.4338808   -1.8370293   0.20443588   -3.4338808    1.5968515  1147627 
 5654000    1.3896023    -3.433645   -1.8374887   0.20276012    -3.433645    1.5961563  1147656 
 5655000    1.3891118   -3.4334487   -1.8379211   0.20444182   -3.4334487    1.5955275  1147703 
 5656000    1.3887755   -3.4329967   -1.8379124      0.20503   -3.4329967    1.5950842  1147744 
 5657000    1.3889307   -3.4332029   -1.8379848   0.20373783   -3.4332029    1.5952181  1147776 
 5658000    1.3886291    -3.433142   -1.8383148   0.20089699    -3.433142    1.5948273  1147808 
 5659000    1.3883989   -3.4329948   -1.8384736   0.20551795   -3.4329948    1.5945212  1147838 
 5660000    1.3893072   -3.4335346   -1.8380314   0.20631517   -3.4335346    1.5955032  1147882 
 5661000    1.3889067   -3.4336136   -1.8386231   0.20247709   -3.4336136    1.5949905  1147920 
 5662000    1.3892564   -3.4342612   -1.8389262   0.20284205   -3.4342612     1.595335  1147961 
 5663000    1.3880881   -3.4332744   -1.8393463   0.20079892   -3.4332744    1.5939281  1148008 
 5664000    1.3881664    -3.433976   -1.8400135   0.20421381    -3.433976    1.5939625  1148048 
 5665000     1.389413   -3.4351881   -1.8398581   0.20278913   -3.4351881      1.59533  1148094 
 5666000    1.3897827   -3.4354258   -1.8397213   0.20210543   -3.4354258    1.5957044  1148130 
 5667000    1.3896343   -3.4348038    -1.839324   0.20525053   -3.4348038    1.5954798  1148169 
 5668000    1.3888641   -3.4344659   -1.8399009   0.20256565   -3.4344659     1.594565  1148191 
 5669000    1.3881554   -3.4339284   -1.8402298   0.20422256   -3.4339284    1.5936986  1148229 
 5670000     1.389755   -3.4356196   -1.8401136   0.20392252   -3.4356196    1.5955059  1148250 
 5671000    1.3875416   -3.4333763   -1.8404532   0.20795858   -3.4333763    1.5929232  1148280 
 5672000    1.3888896   -3.4354294   -1.8410087   0.20437379   -3.4354294    1.5944207  1148316 
 5673000    1.3893883   -3.4356451   -1.8407033   0.20718061   -3.4356451    1.5949418  1148353 
 5674000    1.3895825   -3.4358863   -1.8407618   0.20477135   -3.4358863    1.5951245  1148382 
 5675000    1.3892128   -3.4346902   -1.8400428   0.20919795   -3.4346902    1.5946473  1148420 
 5676000    1.3888651   -3.4342774   -1.8400666   0.20494684   -3.4342774    1.5942108  1148447 
 5677000    1.3905141   -3.4367269   -1.8406748   0.20420629   -3.4367269    1.5960521  1148484 
 5678000    1.3909697   -3.4373805   -1.8408512   0.20203675   -3.4373805    1.5965293  1148517 
 5679000    1.3895226   -3.4358615   -1.8410418   0.20489032   -3.4358615    1.5948197  1148552 
 5680000    1.3901067   -3.4360273    -1.840597    0.2056458   -3.4360273    1.5954304  1148595 
 5681000    1.3912384   -3.4370397   -1.8403801   0.20577951   -3.4370397    1.5966596  1148645 
 5682000     1.389901   -3.4355043   -1.8404211   0.21063469   -3.4355043    1.5950831  1148675 
 5683000     1.390812   -3.4368504   -1.8407621   0.20606284   -3.4368504    1.5960883  1148704 
 5684000    1.3903418   -3.4356223   -1.8401264   0.20574396   -3.4356223     1.595496  1148742 
 5685000    1.3902675   -3.4360005   -1.8406412   0.20306708   -3.4360005    1.5953593  1148779 
 5686000    1.3902338   -3.4359851   -1.8407117   0.20348102   -3.4359851    1.5952734  1148813 
 5687000    1.3892952   -3.4355073   -1.8413678   0.20112611   -3.4355073    1.5941395  1148854 
 5688000     1.390253   -3.4366128   -1.8414228   0.20071904   -3.4366128      1.59519  1148889 
 5689000    1.3896244   -3.4362337   -1.8418109   0.20317318   -3.4362337    1.5944228  1148922 
 5690000    1.3911519   -3.4386008   -1.8424837   0.19931247   -3.4386008    1.5961171  1148964 
 5691000    1.3895508   -3.4366283   -1.8424133   0.20490036   -3.4366283     1.594215  1149011 
 5692000    1.3902668   -3.4368219   -1.8418341   0.20389487   -3.4368219    1.5949878  1149046 
 5693000    1.3896841   -3.4362068   -1.8419153    0.2076012   -3.4362068    1.5942915  1149066 
 5694000    1.3904126   -3.4366917   -1.8416075   0.20241669   -3.4366917    1.5950842  1149097 
 5695000    1.3897299   -3.4368338   -1.8425716   0.20194446   -3.4368338    1.5942622  1149125 
 5696000    1.3903318   -3.4371627   -1.8422725   0.20122004   -3.4371627    1.5948902  1149170 
 5697000    1.3894717   -3.4367156   -1.8428467   0.20411685   -3.4367156    1.5938689  1149195 
 5698000    1.3898135   -3.4373372   -1.8431316   0.20281024   -3.4373372    1.5942056  1149235 
 5699000    1.3894545   -3.4371483   -1.8434002    0.2050936   -3.4371483     1.593748  1149268 
 5700000    1.3890997   -3.4371132   -1.8438097   0.20629329   -3.4371132    1.5933035  1149295 
 5701000    1.3900071   -3.4385724   -1.8442877   0.20256616   -3.4385724    1.5942847  1149338 
 5702000    1.3905895   -3.4393516    -1.844453   0.20228474   -3.4393516    1.5948986  1149377 
 5703000    1.3893903    -3.438418   -1.8449336   0.20502147    -3.438418    1.5934844  1149405 
 5704000    1.3898357   -3.4392897   -1.8453361   0.20002834   -3.4392897    1.5939536  1149435 
 5705000    1.3891617   -3.4390145   -1.8458865    0.2042849   -3.4390145    1.5931279  1149473 
 5706000    1.3885464   -3.4383114   -1.8459445    0.2070463   -3.4383114    1.5923669  1149513 
 5707000    1.3889758    -3.439442   -1.8466367   0.19864829    -3.439442    1.5928053  1149552 
 5708000    1.3887999   -3.4387101   -1.8461605   0.20306733   -3.4387101    1.5925496  1149591 
 5709000    1.3898117   -3.4394071   -1.8457362   0.20367941   -3.4394071    1.5936709  1149619 
 5710000    1.3895861    -3.439732    -1.846371   0.20443267    -3.439732     1.593361  1149656 
 5711000     1.389358   -3.4394824   -1.8464467   0.20545834   -3.4394824    1.5930357  1149702 
 5712000    1.3898574   -3.4389785   -1.8454174   0.20725923   -3.4389785    1.5935612  1149736 
 5713000     1.390134   -3.4390587   -1.8452344   0.20626688   -3.4390587    1.5938243  1149775 
 5714000    1.3909269   -3.4399148   -1.8452467   0.20613446   -3.4399148    1.5946681  1149822 
 5715000    1.3903814   -3.4390918   -1.8450977   0.20318279   -3.4390918    1.5939942  1149857 
 5716000     1.391414   -3.4402438   -1.8451309   0.20371249   -3.4402438    1.5951129  1149904 
 5717000    1.3896766   -3.4384979   -1.8454308   0.20208945   -3.4384979    1.5930671  1149943 
 5718000      1.39052   -3.4390988   -1.8451217   0.20488793   -3.4390988    1.5939771  1149984 
 5719000    1.3906591   -3.4402366   -1.8461611   0.20368517   -3.4402366    1.5940755  1150028 
 5720000    1.3894818   -3.4391824   -1.8465007   0.20648416   -3.4391824    1.5926818  1150060 
 5721000    1.3896054   -3.4401264   -1.8473557   0.20097911   -3.4401264    1.5927708  1150098 
 5722000    1.3907278   -3.4416061   -1.8475987   0.20281348   -3.4416061    1.5940074  1150134 
 5723000    1.3898919   -3.4404838   -1.8474774   0.20241548   -3.4404838    1.5930064  1150165 
 5724000    1.3901685   -3.4410502   -1.8477795   0.19954936   -3.4410502    1.5932707  1150203 
 5725000    1.3894875   -3.4402981   -1.8478577   0.20369483   -3.4402981    1.5924404  1150239 
 5726000    1.3892027   -3.4404205   -1.8483481   0.20198401   -3.4404205    1.5920724  1150269 
 5727000    1.3891506   -3.4397704   -1.8478047   0.20021574   -3.4397704    1.5919657  1150303 
 5728000    1.3903163   -3.4407292   -1.8474789   0.20260201   -3.4407292    1.5932503  1150340 
 5729000    1.3900431   -3.4401732   -1.8472691   0.20382744   -3.4401732    1.5929041  1150364 
 5730000     1.389682   -3.4401192   -1.8476719   0.20502231   -3.4401192    1.5924473  1150395 
 5731000    1.3915428   -3.4427192   -1.8481769   0.20000608   -3.4427192    1.5945422  1150422 
 5732000    1.3898146   -3.4413297    -1.848808   0.20525255   -3.4413297    1.5925218  1150451 
 5733000    1.3901824   -3.4415097    -1.848622   0.20465447   -3.4415097    1.5928878  1150491 
 5734000    1.3909951   -3.4418103   -1.8480343   0.20491971   -3.4418103     1.593776  1150522 
 5735000     1.390526   -3.4418922   -1.8486979   0.20556306   -3.4418922    1.5931943  1150554 
 5736000     1.390259   -3.4414511   -1.8486071   0.20274741   -3.4414511    1.5928441  1150586 
 5737000    1.3903306   -3.4416663   -1.8487874   0.20427575   -3.4416663     1.592879  1150620 
 5738000    1.3900749   -3.4416263   -1.8490734   0.20109713   -3.4416263    1.5925528  1150644 
 5739000    1.3891379    -3.440876   -1.8494423   0.20815934    -3.440876    1.5914337  1150677 
 5740000    1.3906814   -3.4425927   -1.8494364    0.1997632   -3.4425927    1.5931563  1150710 
 5741000    1.3905367   -3.4420974    -1.849147   0.20459487   -3.4420974    1.5929504  1150739 
 5742000    1.3894595   -3.4409876   -1.8493293   0.20291799   -3.4409876    1.5916583  1150781 
 5743000    1.3907968   -3.4426321   -1.8494751   0.20524279   -3.4426321     1.593157  1150805 
 5744000    1.3908419   -3.4427507   -1.8495808   0.20783191   -3.4427507    1.5931699  1150833 
 5745000    1.3908548   -3.4421986   -1.8490597    0.2034075   -3.4421986     1.593139  1150866 
 5746000    1.3911051   -3.4427703   -1.8493932   0.20352773   -3.4427703    1.5933772  1150901 
 5747000    1.3901297   -3.4410936   -1.8488903   0.20256011   -3.4410936    1.5922033  1150942 
 5748000    1.3920507   -3.4437211   -1.8493661   0.19962653   -3.4437211     1.594355  1150977 
 5749000    1.3916058    -3.443099   -1.8492992   0.20086312    -3.443099    1.5937998  1151010 
 5750000    1.3909249   -3.4417016   -1.8487191   0.20449823   -3.4417016    1.5929825  1151037 
 5751000    1.3908161   -3.4415595     -1.84875   0.20466016   -3.4415595    1.5928096  1151072 
 5752000    1.3905684   -3.4412384   -1.8487568   0.20542478   -3.4412384    1.5924816  1151104 
 5753000    1.3913338   -3.4418489   -1.8485393   0.20783479   -3.4418489    1.5933097  1151139 
 5754000    1.3906822   -3.4413383   -1.8488385   0.20521648   -3.4413383    1.5924998  1151185 
 5755000    1.3913876   -3.4421626   -1.8489075   0.20487498   -3.4421626    1.5932551  1151223 
 5756000    1.3915443   -3.4430248   -1.8496332   0.19997614   -3.4430248    1.5933916  1151254 
 5757000     1.391056   -3.4421553   -1.8493671   0.20331437   -3.4421553    1.5927882  1151286 
 5758000    1.3920331   -3.4436033    -1.849742    0.2037789   -3.4436033    1.5938613  1151319 
 5759000    1.3919376    -3.443385   -1.8496982   0.20664751    -3.443385    1.5936869  1151366 
 5760000    1.3907371   -3.4426265   -1.8503612   0.20326822   -3.4426265    1.5922653  1151400 
 5761000    1.3910786    -3.443386   -1.8507767   0.20390142    -3.443386    1.5926093  1151434 
 5762000    1.3902651   -3.4431699   -1.8515528    0.2054128   -3.4431699    1.5916171  1151478 
 5763000    1.3910836   -3.4435431   -1.8510373   0.20609311   -3.4435431    1.5925058  1151513 
 5764000    1.3921929   -3.4448664   -1.8511572   0.19800715   -3.4448664    1.5937092  1151561 
 5765000    1.3913657   -3.4439298   -1.8512007   0.20167855   -3.4439298    1.5927292  1151585 
 5766000    1.3922847   -3.4440769   -1.8503387   0.20506404   -3.4440769    1.5937382  1151616 
 5767000    1.3923631    -3.444389   -1.8506149   0.20401354    -3.444389     1.593774  1151655 
 5768000    1.3918752   -3.4446134   -1.8514532   0.20559692   -3.4446134    1.5931602  1151695 
 5769000    1.3915068   -3.4444324   -1.8517396   0.20779391   -3.4444324    1.5926928  1151728 
 5770000    1.3915779   -3.4448434    -1.852101   0.20191965   -3.4448434    1.5927424  1151751 
 5771000    1.3898655   -3.4436629   -1.8529273   0.20569407   -3.4436629    1.5907356  1151785 
 5772000    1.3906345   -3.4445928   -1.8530379    0.2050591   -3.4445928    1.5915549  1151829 
 5773000    1.3917052   -3.4456019   -1.8528631    0.2000552   -3.4456019    1.5927388  1151859 
 5774000    1.3905502   -3.4458459   -1.8544691   0.20557867   -3.4458459    1.5913769  1151888 
 5775000    1.3912056   -3.4461041    -1.854038   0.20449087   -3.4461041    1.5920661  1151932 
 5776000    1.3899541   -3.4452985   -1.8547198   0.20200988   -3.4452985    1.5905787  1151972 
 5777000    1.3905491   -3.4461051   -1.8548994   0.20387628   -3.4461051    1.5912057  1152011 
 5778000    1.3897483   -3.4453909   -1.8551513   0.20398729   -3.4453909    1.5902396  1152047 
 5779000     1.391438   -3.4464247   -1.8542972   0.20658623   -3.4464247    1.5921275  1152080 
 5780000    1.3907808   -3.4455462   -1.8542093   0.20219569   -3.4455462    1.5913369  1152108 
 5781000    1.3904106    -3.445219   -1.8543498   0.20259963    -3.445219    1.5908691  1152140 
 5782000    1.3922428   -3.4468677   -1.8539492    0.2029228   -3.4468677    1.5929184  1152174 
 5783000    1.3919331   -3.4465651   -1.8540466    0.1989752   -3.4465651    1.5925184  1152207 
 5784000    1.3916481   -3.4463383   -1.8541984   0.20618034   -3.4463383    1.5921399  1152245 
 5785000    1.3918574   -3.4470162   -1.8546782    0.2012682   -3.4470162    1.5923379  1152275 
 5786000    1.3919323   -3.4469498   -1.8545607   0.20401029   -3.4469498     1.592389  1152300 
 5787000    1.3920211   -3.4461049   -1.8536654   0.20423282   -3.4461049    1.5924395  1152337 
 5788000    1.3909469   -3.4458015   -1.8546572   0.20334523   -3.4458015    1.5911443  1152385 
 5789000    1.3916493   -3.4461154   -1.8542159   0.20767039   -3.4461154    1.5918995  1152420 
 5790000    1.3916005   -3.4473428   -1.8555337   0.20009923   -3.4473428    1.5918091  1152445 
 5791000    1.3909637    -3.446032   -1.8549858   0.20264016    -3.446032    1.5910462  1152470 
 5792000    1.3906695   -3.4460581   -1.8553884   0.20198627   -3.4460581    1.5906696  1152499 
 5793000    1.3903663   -3.4457404   -1.8554713   0.20215493   -3.4457404     1.590269  1152538 
 5794000    1.3904025   -3.4456184   -1.8553535   0.20050107   -3.4456184    1.5902649  1152571 
 5795000    1.3916852   -3.4468036   -1.8551199    0.2010106   -3.4468036    1.5916837  1152606 
 5796000    1.3919554    -3.447041   -1.8550952   0.20255645    -3.447041    1.5919458  1152640 
 5797000    1.3907702   -3.4458165   -1.8552677   0.20374873   -3.4458165    1.5905488  1152670 
 5798000    1.3903332   -3.4451828   -1.8551792   0.20644116   -3.4451828    1.5900036  1152703 
 5799000     1.391954   -3.4471656   -1.8553499   0.20573137   -3.4471656    1.5918157  1152733 
 5800000     1.391421   -3.4465892   -1.8554507   0.20431664   -3.4465892    1.5911385  1152782 
 5801000    1.3914052   -3.4463428   -1.8552568   0.20627671   -3.4463428     1.591086  1152807 
 5802000    1.3922784   -3.4471012   -1.8550485   0.20456638   -3.4471012    1.5920527  1152830 
 5803000    1.3910693   -3.4465871   -1.8559694   0.20692242   -3.4465871    1.5906177  1152868 
 5804000    1.3933296    -3.448493   -1.8553351   0.20395292    -3.448493     1.593158  1152900 
 5805000    1.3934466   -3.4486143   -1.8553833    0.2041974   -3.4486143     1.593231  1152944 
 5806000    1.3927668   -3.4480613   -1.8556656   0.20543629   -3.4480613    1.5923957  1152986 
 5807000    1.3918604   -3.4476741   -1.8563492   0.20554873   -3.4476741    1.5913249  1153011 
 5808000    1.3911062   -3.4468922   -1.8564847   0.20676568   -3.4468922    1.5904075  1153051 
 5809000     1.391605   -3.4474506   -1.8565378   0.20927563   -3.4474506    1.5909129  1153098 
 5810000    1.3915447    -3.447669   -1.8568706   0.20101919    -3.447669    1.5907984  1153131 
 5811000    1.3921507   -3.4478945   -1.8564474   0.20807123   -3.4478945     1.591447  1153163 
 5812000    1.3917404   -3.4469117   -1.8559766   0.20773761   -3.4469117    1.5909351  1153194 
 5813000    1.3924419   -3.4477393   -1.8560353   0.20247952   -3.4477393     1.591704  1153218 
 5814000    1.3926592   -3.4486918   -1.8567782    0.2052292   -3.4486918    1.5919137  1153246 
 5815000    1.3918552   -3.4488981   -1.8579559   0.20107115   -3.4488981    1.5909422  1153284 
 5816000    1.3932711   -3.4502658   -1.8577479    0.2001588   -3.4502658    1.5925178  1153315 
 5817000    1.3911894   -3.4477452   -1.8576577   0.20531943   -3.4477452    1.5900874  1153352 
 5818000    1.3941095   -3.4501038   -1.8567106   0.20395537   -3.4501038    1.5933933  1153375 
 5819000    1.3930538    -3.448844    -1.856703   0.20392697    -3.448844    1.5921411  1153408 
 5820000    1.3928056   -3.4488545   -1.8570413    0.2024471   -3.4488545    1.5918132  1153440 
 5821000    1.3939476   -3.4495349   -1.8564551   0.20215292   -3.4495349    1.5930798  1153468 
 5822000    1.3932833   -3.4483767   -1.8561072   0.20405396   -3.4483767    1.5922696  1153505 
 5823000    1.3920491   -3.4480404   -1.8572447   0.20498836   -3.4480404    1.5907957  1153551 
 5824000    1.3914691   -3.4476642   -1.8575741   0.20856241   -3.4476642    1.5900901  1153582 
 5825000    1.3934399   -3.4499985   -1.8576992   0.20664475   -3.4499985    1.5922993  1153613 
 5826000      1.39389   -3.4509168   -1.8581638    0.2029658   -3.4509168     1.592753  1153657 
 5827000    1.3930192   -3.4505156   -1.8588018   0.20557637   -3.4505156    1.5917138  1153689 
 5828000    1.3928845   -3.4501387   -1.8586285   0.20255092   -3.4501387    1.5915103  1153725 
 5829000    1.3936409   -3.4507331   -1.8584055   0.20274813   -3.4507331    1.5923276  1153759 
 5830000    1.3930818   -3.4497855   -1.8581354   0.20414204   -3.4497855    1.5916501  1153787 
 5831000    1.3922852   -3.4490048   -1.8583283   0.20442786   -3.4490048    1.5906766  1153833 
 5832000    1.3946263   -3.4510495   -1.8577356   0.20318356   -3.4510495     1.593314  1153860 
 5833000    1.3932872    -3.449543   -1.8578004   0.20693048    -3.449543    1.5917426  1153890 
 5834000    1.3932137   -3.4492152    -1.857613   0.20147373   -3.4492152    1.5916022  1153931 
 5835000    1.3939154    -3.450551   -1.8582051   0.20074234    -3.450551    1.5923459  1153973 
 5836000    1.3939807   -3.4505553   -1.8581707    0.2034768   -3.4505553    1.5923845  1153999 
 5837000    1.3940229   -3.4501451   -1.8577469   0.20638823   -3.4501451    1.5923983  1154024 
 5838000    1.3924171   -3.4492363   -1.8587109   0.20175581   -3.4492363    1.5905253  1154052 
 5839000    1.3923509   -3.4497698   -1.8593517   0.20190577   -3.4497698    1.5904181  1154075 
 5840000    1.3926591   -3.4500511   -1.8593292   0.20714585   -3.4500511    1.5907218  1154110 
 5841000    1.3918806   -3.4494781   -1.8596896   0.20823082   -3.4494781    1.5897885  1154142 
 5842000    1.3927517   -3.4510957   -1.8603508   0.20067502   -3.4510957    1.5907449  1154170 
 5843000    1.3909276   -3.4495639   -1.8609409   0.19944171   -3.4495639     1.588623  1154198 
 5844000    1.3924314   -3.4512123   -1.8609213   0.20210976   -3.4512123    1.5902909  1154234 
 5845000     1.391639   -3.4503428   -1.8610038   0.20468651   -3.4503428    1.5893391  1154268 
 5846000    1.3912254   -3.4499195   -1.8610954    0.2045543   -3.4499195    1.5888241  1154299 
 5847000    1.3924789   -3.4514875   -1.8612691   0.20367655   -3.4514875    1.5902184  1154326 
 5848000    1.3916425   -3.4503696   -1.8611779   0.20857054   -3.4503696    1.5891916  1154378 
 5849000    1.3938994   -3.4529621   -1.8612607   0.20108301   -3.4529621    1.5917014  1154427 
 5850000    1.3923598    -3.451187   -1.8612713   0.20314177    -3.451187    1.5899157  1154447 
 5851000    1.3926895   -3.4517681   -1.8615227   0.20262887   -3.4517681    1.5902453  1154481 
 5852000    1.3935597   -3.4516048   -1.8604182   0.20462398   -3.4516048    1.5911866  1154519 
 5853000    1.3929022    -3.452099   -1.8617058   0.20567339    -3.452099    1.5903932  1154550 
 5854000    1.3931603   -3.4520711   -1.8614356   0.20736531   -3.4520711    1.5906356  1154588 
 5855000    1.3927998   -3.4517971   -1.8616227   0.20372385   -3.4517971    1.5901744  1154624 
 5856000    1.3944663    -3.453379   -1.8613585   0.20386591    -3.453379    1.5920205  1154665 
 5857000    1.3933093   -3.4521396   -1.8614827   0.20994437   -3.4521396    1.5906569  1154696 
 5858000    1.3945466   -3.4538581   -1.8618232   0.20410534   -3.4538581    1.5920349  1154721 
 5859000    1.3937736   -3.4525045   -1.8613961   0.20533055   -3.4525045    1.5911084  1154753 
 5860000    1.3934089   -3.4526066   -1.8619503   0.20383449   -3.4526066    1.5906563  1154779 
 5861000    1.3925409   -3.4516677    -1.862045   0.20950766   -3.4516677    1.5896227  1154810 
 5862000    1.3931176   -3.4529529   -1.8627243   0.20489789   -3.4529529    1.5902286  1154848 
 5863000    1.3937613   -3.4531608   -1.8622484   0.20588148   -3.4531608    1.5909124  1154885 
 5864000    1.3921473   -3.4522922   -1.8632661   0.20534231   -3.4522922    1.5890261  1154917 
 5865000     1.392714   -3.4526046   -1.8629839   0.20916317   -3.4526046    1.5896207  1154955 
 5866000    1.3925541   -3.4524921   -1.8631132   0.20621519   -3.4524921    1.5893789  1154998 
 5867000    1.3928945   -3.4528061   -1.8630923    0.2066652   -3.4528061    1.5897138  1155037 
 5868000    1.3930509   -3.4529357    -1.863097   0.20693471   -3.4529357    1.5898387  1155076 
 5869000    1.3937055    -3.453657   -1.8631222   0.20461939    -3.453657    1.5905348  1155113 
 5870000    1.3941704   -3.4549959   -1.8639787   0.20202361   -3.4549959    1.5910172  1155148 
 5871000    1.3940964   -3.4540478   -1.8631552   0.19973119   -3.4540478    1.5908927  1155177 
 5872000     1.395015   -3.4546636   -1.8627666    0.2012856   -3.4546636    1.5918969  1155209 
 5873000    1.3942484   -3.4541539   -1.8631744    0.2018661   -3.4541539    1.5909794  1155240 
 5874000    1.3927255   -3.4526888   -1.8634857   0.20505928   -3.4526888    1.5892031  1155268 
 5875000    1.3923602   -3.4522813   -1.8635446   0.21238876   -3.4522813    1.5887367  1155304 
 5876000    1.3934198   -3.4532642   -1.8633569   0.20887237   -3.4532642    1.5899073  1155332 
 5877000     1.393761    -3.454778   -1.8645268   0.19903763    -3.454778    1.5902512  1155365 
 5878000    1.3931482    -3.454564   -1.8650478   0.20253239    -3.454564    1.5895162  1155391 
 5879000    1.3933954   -3.4546965   -1.8649505   0.20712287   -3.4546965     1.589746  1155429 
 5880000    1.3936036    -3.454116   -1.8641834   0.20534713    -3.454116    1.5899326  1155466 
 5881000    1.3943362   -3.4550073   -1.8642802       0.2005   -3.4550073    1.5907272  1155496 
 5882000    1.3942234   -3.4541134   -1.8635549   0.20470791   -3.4541134    1.5905585  1155525 
 5883000    1.3954478   -3.4551733   -1.8632579    0.2018424   -3.4551733    1.5919154  1155554 
 5884000    1.3961972   -3.4552889   -1.8625531   0.20086224   -3.4552889    1.5927358  1155579 
 5885000    1.3934946   -3.4534841   -1.8638836   0.20647119   -3.4534841    1.5896005  1155617 
 5886000    1.3953236   -3.4556153   -1.8639821   0.20225653   -3.4556153    1.5916332  1155656 
 5887000     1.393954   -3.4550948   -1.8650762   0.20252326   -3.4550948    1.5900186  1155694 
 5888000    1.3940618   -3.4554754   -1.8653736   0.20244639   -3.4554754    1.5901017  1155723 
 5889000    1.3940689   -3.4555876   -1.8655095   0.19988934   -3.4555876    1.5900781  1155746 
 5890000    1.3937193   -3.4552184   -1.8655775    0.2043087   -3.4552184    1.5896408  1155774 
 5891000    1.3939006   -3.4550418   -1.8652285   0.20224242   -3.4550418    1.5898133  1155799 
 5892000    1.3941713   -3.4550918   -1.8650124   0.20685773   -3.4550918    1.5900794  1155830 
 5893000     1.394132   -3.4544523   -1.8644783   0.20833022   -3.4544523     1.589974  1155874 
 5894000    1.3932973    -3.454886    -1.865908   0.20572113    -3.454886    1.5889781  1155906 
 5895000    1.3946951   -3.4560965   -1.8655545   0.20378719   -3.4560965    1.5905419  1155928 
 5896000    1.3950135   -3.4560737   -1.8652168   0.20691444   -3.4560737    1.5908569  1155963 
 5897000    1.3949121   -3.4576315   -1.8669549   0.20325982   -3.4576315    1.5906766  1156010 
 5898000    1.3936972   -3.4559377    -1.866703   0.20466939   -3.4559377    1.5892348  1156051 
 5899000    1.3955396   -3.4574585   -1.8661628   0.20066542   -3.4574585    1.5912957  1156080 
 5900000    1.3956576   -3.4570185   -1.8656377   0.20388857   -3.4570185    1.5913808  1156116 
 5901000    1.3951119   -3.4565967   -1.8658781   0.20577165   -3.4565967    1.5907186  1156145 
 5902000    1.3958594   -3.4572492   -1.8657224   0.20788201   -3.4572492    1.5915268  1156177 
 5903000    1.3959165   -3.4571016   -1.8655674   0.20626062   -3.4571016    1.5915342  1156219 
 5904000    1.3946156   -3.4559439   -1.8659232   0.20297887   -3.4559439    1.5900207  1156241 
 5905000    1.3952175   -3.4569102   -1.8662596   0.20118567   -3.4569102    1.5906506  1156282 
 5906000    1.3944192   -3.4559395    -1.866239   0.20982367   -3.4559395    1.5897005  1156311 
 5907000    1.3950028    -3.456647   -1.8663127    0.2065867    -3.456647    1.5903343  1156334 
 5908000    1.3960671   -3.4582775   -1.8667754   0.20137973   -3.4582775    1.5915021  1156367 
 5909000    1.3947882   -3.4570747   -1.8670841   0.20858784   -3.4570747    1.5899906  1156406 
 5910000     1.395389   -3.4584876   -1.8678768   0.19920397   -3.4584876    1.5906108  1156453 
 5911000    1.3945632   -3.4580819   -1.8684619   0.20203993   -3.4580819      1.58962  1156489 
 5912000    1.3951018   -3.4577145   -1.8675149    0.2056344   -3.4577145    1.5901995  1156514 
 5913000    1.3941422   -3.4576926   -1.8686308   0.20947958   -3.4576926    1.5890618  1156546 
 5914000    1.3945778   -3.4585613   -1.8690635   0.20466235   -3.4585613    1.5894978  1156590 
 5915000    1.3947916    -3.458081   -1.8683725   0.20162452    -3.458081    1.5897086  1156614 
 5916000    1.3947977   -3.4578748   -1.8682047   0.20551828   -3.4578748    1.5896701  1156647 
 5917000    1.3953962   -3.4584147   -1.8681147   0.19993713   -3.4584147       1.5903  1156685 
 5918000    1.3954007   -3.4587268   -1.8684643   0.20122849   -3.4587268    1.5902625  1156716 
 5919000    1.3940709   -3.4575187   -1.8688129   0.20479637   -3.4575187    1.5887058  1156746 
 5920000    1.3950006   -3.4584678   -1.8687589   0.20068036   -3.4584678    1.5897089  1156787 
 5921000    1.3946559    -3.458331   -1.8690424    0.2029217    -3.458331    1.5892886  1156807 
 5922000    1.3943567   -3.4580555   -1.8691463   0.20805634   -3.4580555    1.5889092  1156835 
 5923000    1.3944875   -3.4582129   -1.8691931   0.20899034   -3.4582129    1.5890198  1156863 
 5924000    1.3962613    -3.460222   -1.8692248   0.20585813    -3.460222    1.5909971  1156895 
 5925000    1.3954517   -3.4596987   -1.8696723   0.20357043   -3.4596987    1.5900264  1156930 
 5926000    1.3934689   -3.4581089    -1.870409   0.20752707   -3.4581089    1.5876999  1156979 
 5927000    1.3945272   -3.4597664   -1.8709183   0.20176984   -3.4597664     1.588848  1157021 
 5928000    1.3951926   -3.4598833   -1.8703238   0.20364303   -3.4598833    1.5895595  1157055 
 5929000    1.3950362   -3.4600866   -1.8707464   0.20587895   -3.4600866    1.5893402  1157085 
 5930000    1.3952399   -3.4606219   -1.8710964   0.20015512   -3.4606219    1.5895255  1157119 
 5931000    1.3936986   -3.4586615   -1.8709235   0.20509459   -3.4586615     1.587738  1157142 
 5932000    1.3946406   -3.4596045   -1.8708483   0.20799317   -3.4596045    1.5887562  1157182 
 5933000    1.3954805   -3.4599156   -1.8702452   0.20543113   -3.4599156    1.5896704  1157213 
 5934000    1.3950432   -3.4594446   -1.8703177   0.20402745   -3.4594446    1.5891269  1157246 
 5935000    1.3952709   -3.4597515   -1.8704133   0.20796828   -3.4597515    1.5893383  1157281 
 5936000    1.3967082   -3.4607734   -1.8698379   0.20190291   -3.4607734    1.5909356  1157310 
 5937000    1.3968554   -3.4611434   -1.8700938    0.2053524   -3.4611434    1.5910496  1157349 
 5938000    1.3943649   -3.4593374   -1.8711656   0.20953919   -3.4593374    1.5881718  1157379 
 5939000    1.3958431   -3.4611462   -1.8713416   0.20592478   -3.4611462    1.5898046  1157416 
 5940000    1.3951731    -3.461179    -1.872191    0.2038488    -3.461179     1.588988  1157455 
 5941000    1.3967267   -3.4617333   -1.8710158   0.20243606   -3.4617333    1.5907175  1157484 
 5942000    1.3949065   -3.4604643   -1.8718637   0.20234183   -3.4604643    1.5886006  1157516 
 5943000    1.3948441   -3.4601174   -1.8716455   0.20083248   -3.4601174    1.5884719  1157558 
 5944000    1.3958626   -3.4613298   -1.8717543   0.20483766   -3.4613298    1.5895755  1157599 
 5945000       1.3951   -3.4613116   -1.8726443    0.2019781   -3.4613116    1.5886672  1157628 
 5946000    1.3949633   -3.4612979    -1.872833   0.20132129   -3.4612979    1.5884649  1157662 
 5947000    1.3946182   -3.4600692   -1.8720535   0.20262432   -3.4600692    1.5880157  1157703 
 5948000    1.3954144    -3.461107   -1.8722203   0.20384233    -3.461107    1.5888867  1157729 
 5949000    1.3953509   -3.4615401   -1.8727642   0.20147337   -3.4615401    1.5887759  1157757 
 5950000    1.3948338   -3.4606145   -1.8724672   0.20357225   -3.4606145    1.5881473  1157786 
 5951000    1.3944256   -3.4601544   -1.8725239   0.20710999   -3.4601544    1.5876305  1157824 
 5952000    1.3957893   -3.4617374   -1.8726065   0.20218095   -3.4617374    1.5891309  1157862 
 5953000     1.395835   -3.4614751   -1.8723456   0.20607479   -3.4614751    1.5891295  1157901 
 5954000     1.395554   -3.4614393   -1.8726654    0.2053028   -3.4614393    1.5887739  1157927 
 5955000    1.3962746   -3.4621741   -1.8726389   0.20227956   -3.4621741    1.5895352  1157970 
 5956000    1.3954283   -3.4614571   -1.8729306   0.20573361   -3.4614571    1.5885265  1158003 
 5957000    1.3962849    -3.462686   -1.8732241   0.20339728    -3.462686    1.5894619  1158032 
 5958000    1.3952741   -3.4619666   -1.8737171   0.20281754   -3.4619666    1.5882495  1158077 
 5959000    1.3955125   -3.4617139   -1.8732411   0.20644715   -3.4617139    1.5884729  1158112 
 5960000    1.3960542   -3.4621625    -1.873106    0.2051971   -3.4621625    1.5890565  1158136 
 5961000    1.3952502   -3.4623706   -1.8742786   0.20543472   -3.4623706     1.588092  1158172 
 5962000    1.3961441   -3.4628398   -1.8737715   0.20395619   -3.4628398    1.5890683  1158202 
 5963000    1.3946917   -3.4613949     -1.87404   0.20534913   -3.4613949    1.5873549  1158246 
 5964000    1.3960548   -3.4632676   -1.8744011   0.20386131   -3.4632676    1.5888665  1158275 
 5965000    1.3959814   -3.4632782   -1.8745323   0.20520174   -3.4632782    1.5887459  1158302 
 5966000    1.3959886   -3.4634019   -1.8747067   0.20588053   -3.4634019    1.5886952  1158345 
 5967000    1.3955095   -3.4624296   -1.8743085   0.20786026   -3.4624296    1.5881211  1158366 
 5968000     1.395794   -3.4623655   -1.8739549   0.20632697   -3.4623655    1.5884107  1158391 
 5969000     1.396023   -3.4626859   -1.8740504   0.20722666   -3.4626859    1.5886355  1158417 
 5970000    1.3970294     -3.46359   -1.8738518   0.20775598     -3.46359    1.5897382  1158448 
 5971000    1.3963089    -3.463006   -1.8741453   0.20844165    -3.463006    1.5888608  1158490 
 5972000    1.3959736   -3.4631062    -1.874668   0.20586414   -3.4631062    1.5884381  1158520 
 5973000    1.3953707   -3.4631053   -1.8753944   0.20454317   -3.4631053    1.5877109  1158550 
 5974000    1.3957396   -3.4636593   -1.8755642   0.20721947   -3.4636593     1.588095  1158576 
 5975000    1.3966518   -3.4646156   -1.8755417   0.20057319   -3.4646156     1.589074  1158619 
 5976000    1.3968227   -3.4652258   -1.8759972   0.20247342   -3.4652258    1.5892287  1158648 
 5977000    1.3958044   -3.4642586   -1.8762364   0.20567996   -3.4642586    1.5880222  1158683 
 5978000    1.3956534   -3.4638383   -1.8760291   0.20574325   -3.4638383    1.5878092  1158713 
 5979000    1.3965729   -3.4646938    -1.875885   0.20329721   -3.4646938    1.5888088  1158747 
 5980000    1.3973524   -3.4650024   -1.8753576   0.20765973   -3.4650024    1.5896448  1158784 
 5981000    1.3964167   -3.4642847   -1.8757511   0.20397565   -3.4642847    1.5885336  1158818 
 5982000    1.3959484    -3.463522   -1.8755581   0.20545911    -3.463522     1.587964  1158845 
 5983000    1.3957493   -3.4643912   -1.8766976   0.20351703   -3.4643912    1.5876937  1158877 
 5984000    1.3971987   -3.4655749   -1.8762805   0.19996924   -3.4655749    1.5892944  1158912 
 5985000    1.3956444   -3.4640604   -1.8765697   0.20386282   -3.4640604    1.5874907  1158938 
 5986000    1.3959137   -3.4644904   -1.8767371   0.20471863   -3.4644904    1.5877533  1158970 
 5987000    1.3960478   -3.4642659   -1.8764217    0.2038466   -3.4642659    1.5878441  1159015 
 5988000    1.3967096   -3.4653911   -1.8768285   0.20480698   -3.4653911    1.5885626  1159040 
 5989000    1.3962334   -3.4653643   -1.8773858   0.20560244   -3.4653643    1.5879784  1159071 
 5990000    1.3969926   -3.4658737   -1.8770756    0.2039409   -3.4658737     1.588798  1159103 
 5991000    1.3960115   -3.4655525   -1.8779154    0.2038198   -3.4655525    1.5876371  1159136 
 5992000     1.395608   -3.4649687   -1.8778343   0.20088714   -3.4649687    1.5871343  1159168 
 5993000    1.3965586   -3.4664362   -1.8782715   0.20172578   -3.4664362    1.5881647  1159205 
 5994000    1.3958078    -3.466432   -1.8791676   0.20360505    -3.466432    1.5872644  1159239 
 5995000     1.395559   -3.4663891   -1.8794597   0.20333837   -3.4663891    1.5869294  1159277 
 5996000    1.3953125   -3.4653963   -1.8787924    0.2079614   -3.4653963    1.5866039  1159310 
 5997000    1.3953195   -3.4651777   -1.8786205   0.21011287   -3.4651777    1.5865572  1159350 
 5998000    1.3966958   -3.4669325   -1.8788447    0.2023367   -3.4669325    1.5880878  1159375 
 5999000     1.396524   -3.4668753   -1.8790362   0.20618792   -3.4668753    1.5878391  1159414 
 6000000    1.3964972   -3.4669686   -1.8792066   0.20729983   -3.4669686     1.587762  1159448 
 6001000    1.3954263   -3.4660213   -1.8795205   0.20790299   -3.4660213    1.5865007  1159480 
 6002000    1.3963306   -3.4673991   -1.8799045   0.20329603   -3.4673991    1.5874946  1159505 
 6003000    1.3967818   -3.4674896     -1.87953   0.20020585   -3.4674896    1.5879596  1159540 
 6004000    1.3967998   -3.4678843   -1.8799576   0.20537813   -3.4678843    1.5879267  1159579 
 6005000    1.3960742   -3.4670573   -1.8799897   0.20521413   -3.4670573    1.5870676  1159604 
 6006000    1.3954325   -3.4663791   -1.8800725   0.20521001   -3.4663791    1.5863067  1159627 
 6007000    1.3953149   -3.4661456   -1.8800164   0.20607781   -3.4661456    1.5861292  1159659 
 6008000    1.3966494   -3.4675361    -1.879946   0.20241193   -3.4675361    1.5875901  1159700 
 6009000    1.3962717   -3.4674541   -1.8803249   0.20065746   -3.4674541    1.5871292  1159723 
 6010000    1.3954783   -3.4673204   -1.8811231    0.2010412   -3.4673204    1.5861974  1159745 
 6011000    1.3956115   -3.4671931    -1.880876   0.20342448   -3.4671931    1.5863172  1159768 
 6012000    1.3958054    -3.467679   -1.8811797    0.2019635    -3.467679    1.5864994  1159796 
 6013000    1.3958222   -3.4668218   -1.8803649   0.20895778   -3.4668218    1.5864569  1159841 
 6014000    1.3966466   -3.4681051   -1.8807537   0.20315453   -3.4681051    1.5873515  1159872 
 6015000    1.3952038    -3.465811   -1.8801418   0.20643605    -3.465811    1.5856692  1159903 
 6016000    1.3958666   -3.4666396   -1.8802731   0.20624339   -3.4666396    1.5863665  1159944 
 6017000    1.3962896   -3.4669237   -1.8801135   0.20256829   -3.4669237    1.5868102  1159971 
 6018000    1.3964863   -3.4665839    -1.879598   0.20181724   -3.4665839    1.5869859  1160006 
 6019000    1.3964136   -3.4668943   -1.8800457   0.20202495   -3.4668943    1.5868485  1160046 
 6020000    1.3967499   -3.4670753   -1.8798815   0.20456917   -3.4670753    1.5871937  1160073 
 6021000    1.3965116   -3.4669977   -1.8801171   0.20364255   -3.4669977    1.5868806  1160104 
 6022000    1.3982708   -3.4679779   -1.8791366   0.20595566   -3.4679779    1.5888413  1160132 
 6023000    1.3971957   -3.4673971   -1.8798186   0.20469998   -3.4673971    1.5875785  1160162 
 6024000     1.397522   -3.4677047   -1.8798155   0.20456636   -3.4677047    1.5878892  1160206 
 6025000    1.3964572   -3.4668041   -1.8801644   0.20453814   -3.4668041    1.5866396  1160235 
 6026000    1.3985012   -3.4686496    -1.879726   0.20186966   -3.4686496    1.5889236  1160263 
 6027000    1.3983979   -3.4688487   -1.8800794   0.20435725   -3.4688487    1.5887693  1160290 
 6028000    1.3974805   -3.4683229    -1.880637   0.20524928   -3.4683229    1.5876859  1160320 
 6029000    1.3971642   -3.4684723   -1.8811936   0.20552156   -3.4684723    1.5872787  1160355 
 6030000    1.3960602   -3.4672505   -1.8812751   0.20939113   -3.4672505    1.5859753  1160391 
 6031000    1.3968719   -3.4686556   -1.8817978   0.20289067   -3.4686556    1.5868577  1160420 
 6032000    1.3978122   -3.4696433   -1.8817447   0.20467238   -3.4696433    1.5878986  1160440 
 6033000    1.3972544   -3.4684787   -1.8812575   0.20685428   -3.4684787    1.5872211  1160472 
 6034000     1.397405   -3.4690666   -1.8817168   0.20303337   -3.4690666    1.5873498  1160503 
 6035000     1.398406   -3.4698609   -1.8814096   0.20487462   -3.4698609    1.5884514  1160529 
 6036000    1.3981251   -3.4696673   -1.8815789   0.20542292   -3.4696673    1.5880884  1160561 
 6037000    1.3976846   -3.4688663   -1.8813234   0.20739498   -3.4688663    1.5875429  1160594 
 6038000    1.3968673   -3.4677595   -1.8811804   0.20874605   -3.4677595    1.5865791  1160620 
 6039000    1.3981524   -3.4689928   -1.8809951   0.20203095   -3.4689928    1.5879977  1160650 
 6040000    1.3968468   -3.4674503    -1.880982     0.207948   -3.4674503    1.5864683  1160684 
 6041000    1.3990047   -3.4692168   -1.8803483   0.20528865   -3.4692168    1.5888685  1160721 
 6042000    1.3978061   -3.4685622    -1.881096   0.21092699   -3.4685622    1.5874662  1160751 
 6043000     1.398569   -3.4692469   -1.8809704    0.2058281   -3.4692469    1.5882766  1160792 
 6044000    1.3980017   -3.4685702   -1.8809831   0.20444308   -3.4685702    1.5875871  1160825 
 6045000    1.3985772   -3.4693097   -1.8811059   0.20515443   -3.4693097    1.5882038  1160852 
 6046000    1.3979748   -3.4689806   -1.8814952   0.20769989   -3.4689806    1.5874854  1160877 
 6047000    1.3975307   -3.4690569    -1.882114   0.20516682   -3.4690569    1.5869429  1160905 
 6048000     1.398148   -3.4695397   -1.8819327   0.20788774   -3.4695397     1.587607  1160932 
 6049000    1.3986962   -3.4707996   -1.8826222   0.19981389   -3.4707996    1.5881774  1160970 
 6050000    1.3984899   -3.4706652    -1.882748   0.20401776   -3.4706652    1.5879172  1160989 
 6051000    1.3976011   -3.4689291    -1.882051   0.20481656   -3.4689291     1.586878  1161011 
 6052000    1.3988767   -3.4701791   -1.8819049   0.20567126   -3.4701791    1.5882743  1161049 
 6053000    1.3984533   -3.4695897   -1.8818481   0.20509361   -3.4695897    1.5877416  1161087 
 6054000     1.397633   -3.4689653   -1.8821987   0.20470496   -3.4689653    1.5867666  1161119 
 6055000    1.3980608   -3.4696227   -1.8824265   0.20547512   -3.4696227    1.5871962  1161160 
 6056000     1.397703   -3.4688003   -1.8820582   0.20645135   -3.4688003    1.5867421  1161195 
 6057000    1.3995021   -3.4708919   -1.8821538   0.20016926   -3.4708919    1.5887381  1161229 
 6058000    1.3981443   -3.4704248   -1.8832815   0.20327585   -3.4704248    1.5871433  1161268 
 6059000    1.3976777   -3.4696015   -1.8830192   0.20160299   -3.4696015    1.5865823  1161291 
 6060000    1.3984465   -3.4704679   -1.8830635   0.20555193   -3.4704679    1.5874044  1161328 
 6061000    1.3994134   -3.4717526   -1.8833013   0.19660648   -3.4717526    1.5884513  1161365 
 6062000    1.3981668   -3.4711431   -1.8841574   0.20394264   -3.4711431    1.5869858  1161402 
 6063000     1.398535   -3.4711006   -1.8837475   0.20325382   -3.4711006    1.5873531  1161439 
 6064000    1.3986303   -3.4713049   -1.8838805   0.20741306   -3.4713049    1.5874245  1161466 
 6065000    1.3979592   -3.4713161   -1.8846917   0.20601537   -3.4713161    1.5866245  1161494 
 6066000     1.398192   -3.4722438    -1.885403   0.20276781   -3.4722438    1.5868409  1161529 
 6067000    1.3981889   -3.4722623   -1.8854727   0.20425966   -3.4722623    1.5867896  1161564 
 6068000    1.3977979   -3.4721206   -1.8858348   0.20498493   -3.4721206    1.5862858  1161608 
 6069000    1.3986408   -3.4728793   -1.8856848   0.20357957   -3.4728793    1.5871945  1161643 
 6070000    1.3983922   -3.4725679   -1.8856952   0.20445853   -3.4725679    1.5868727  1161672 
 6071000    1.3980102    -3.472667   -1.8862646   0.20535919    -3.472667    1.5864024  1161699 
 6072000    1.3999211   -3.4741255   -1.8855889   0.20568246   -3.4741255    1.5885366  1161724 
 6073000    1.3995725    -3.473911    -1.885811   0.20595238    -3.473911    1.5881001  1161754 
 6074000    1.3997537   -3.4740036   -1.8857349   0.20551954   -3.4740036    1.5882687  1161781 
 6075000     1.399129    -3.473453    -1.885941   0.20195602    -3.473453     1.587512  1161816 
 6076000     1.398766   -3.4728607   -1.8858001   0.20276303   -3.4728607    1.5870606  1161845 
 6077000    1.3983624   -3.4722377   -1.8856925   0.20523842   -3.4722377    1.5865453  1161887 
 6078000    1.3984703   -3.4724355   -1.8857937   0.20648221   -3.4724355    1.5866418  1161906 
 6079000    1.3984383   -3.4726802   -1.8861417   0.20277715   -3.4726802    1.5865386  1161955 
 6080000    1.3997959   -3.4751029   -1.8870638   0.20092872   -3.4751029    1.5880392  1161984 
 6081000    1.3983304   -3.4722989   -1.8859606   0.20884049   -3.4722989    1.5863384  1162012 
 6082000    1.3977733   -3.4720855   -1.8864133   0.20754228   -3.4720855    1.5856722  1162037 
 6083000    1.3986808   -3.4728345    -1.886182   0.20935358   -3.4728345    1.5866525  1162073 
 6084000    1.3989081   -3.4740448   -1.8871645    0.2029612   -3.4740448    1.5868803  1162095 
 6085000    1.3978704   -3.4732778   -1.8876032   0.20312101   -3.4732778    1.5856746  1162116 
 6086000    1.3987744   -3.4735379   -1.8868761   0.20388148   -3.4735379    1.5866618  1162144 
 6087000    1.3985406   -3.4736794   -1.8873224   0.20169739   -3.4736794     1.586357  1162173 
 6088000     1.397484   -3.4715945   -1.8864701   0.20680548   -3.4715945    1.5851243  1162198 
 6089000    1.3978734   -3.4717485   -1.8862138   0.20609018   -3.4717485    1.5855346  1162221 
 6090000    1.3990541   -3.4729565   -1.8861126   0.20499799   -3.4729565    1.5868439  1162243 
 6091000    1.3998161    -3.473893   -1.8862395   0.20283125    -3.473893    1.5876535  1162283 
 6092000    1.3982373   -3.4725638   -1.8867501   0.20738673   -3.4725638    1.5858137  1162319 
 6093000      1.39832   -3.4725325   -1.8866673   0.20870918   -3.4725325    1.5858652  1162350 
 6094000    1.3988215   -3.4735342   -1.8871343   0.20039392   -3.4735342    1.5863998  1162375 
 6095000    1.3984987   -3.4734091   -1.8874271   0.20544809   -3.4734091     1.585982  1162413 
 6096000    1.3993881   -3.4745428   -1.8876041   0.20291393   -3.4745428    1.5869387  1162451 
 6097000     1.399572   -3.4742868   -1.8871696   0.20692984   -3.4742868    1.5871172  1162473 
 6098000    1.3987524    -3.473716   -1.8875624   0.20580757    -3.473716    1.5861537  1162498 
 6099000    1.3994086   -3.4743305   -1.8874655   0.20209023   -3.4743305     1.586865  1162522 
 6100000    1.3988223   -3.4734706   -1.8873114   0.20751641   -3.4734706    1.5861592  1162552 
 6101000    1.3993745   -3.4750396   -1.8882938   0.20545737   -3.4750396    1.5867459  1162581 
 6102000    1.4000104   -3.4758225   -1.8883952   0.20451298   -3.4758225    1.5874273  1162610 
 6103000    1.3986439   -3.4738352     -1.88799   0.20748172   -3.4738352    1.5858451  1162634 
 6104000    1.3988858   -3.4743462   -1.8882678   0.20291616   -3.4743462    1.5860785  1162664 
 6105000    1.4003599   -3.4758651   -1.8881522   0.20493832   -3.4758651    1.5877129  1162691 
 6106000    1.3982495    -3.472861   -1.8875926   0.21280409    -3.472861    1.5852684  1162729 
 6107000    1.3999399   -3.4749123    -1.887767   0.21026388   -3.4749123    1.5871453  1162758 
 6108000    1.3997185   -3.4754622   -1.8886089   0.20908129   -3.4754622    1.5868533  1162788 
 6109000    1.3988023   -3.4742686   -1.8885112    0.2064777   -3.4742686    1.5857574  1162830 
 6110000     1.400246   -3.4762446   -1.8888915   0.20430342   -3.4762446    1.5873531  1162860 
 6111000    1.4008192   -3.4759216   -1.8879515   0.21158798   -3.4759216    1.5879701  1162884 
 6112000    1.4002034    -3.474765   -1.8875394   0.20425508    -3.474765    1.5872256  1162918 
 6113000    1.3996383   -3.4744154   -1.8878658   0.20977036   -3.4744154    1.5865496  1162944 
 6114000    1.3999519   -3.4751416   -1.8882652   0.20729936   -3.4751416    1.5868764  1162965 
 6115000    1.4006104     -3.47553   -1.8879495   0.20926296     -3.47553    1.5875805  1162996 
 6116000    1.3994587   -3.4742641   -1.8880218   0.20392267   -3.4742641    1.5862423  1163020 
 6117000    1.3990515   -3.4743585   -1.8886159   0.20853135   -3.4743585    1.5857426  1163048 
 6118000    1.4004398   -3.4755258   -1.8882506   0.20445365   -3.4755258    1.5872752  1163078 
 6119000    1.4001758   -3.4755139   -1.8885817    0.2049718   -3.4755139    1.5869323  1163110 
 6120000    1.4012248   -3.4762543   -1.8881794    0.2061226   -3.4762543    1.5880748  1163144 
 6121000      1.39949   -3.4743446   -1.8882701   0.20699637   -3.4743446    1.5860746  1163169 
 6122000     1.400389    -3.474354   -1.8873016   0.20999274    -3.474354    1.5870525  1163199 
 6123000    1.4005644   -3.4752923    -1.888097   0.20985534   -3.4752923    1.5871953  1163240 
 6124000    1.4014257   -3.4757857   -1.8876716   0.20506451   -3.4757857     1.588114  1163282 
 6125000    1.4011332   -3.4755701   -1.8878243   0.20870917   -3.4755701    1.5877457  1163309 
 6126000    1.4002288   -3.4746441   -1.8879505   0.20904265   -3.4746441    1.5866936  1163329 
 6127000    1.4006284   -3.4750913   -1.8880021   0.20656228   -3.4750913    1.5870892  1163371 
 6128000    1.4006104   -3.4753286   -1.8883267   0.20907935   -3.4753286    1.5870019  1163420 
 6129000    1.4014828   -3.4764845   -1.8885391   0.20682702   -3.4764845    1.5879454  1163453 
 6130000    1.4009308   -3.4765882   -1.8893133    0.2090286   -3.4765882    1.5872749  1163486 
 6131000     1.400917    -3.476175   -1.8889471   0.20863041    -3.476175    1.5872279  1163509 
 6132000    1.3999498   -3.4758176   -1.8897278      0.20706   -3.4758176    1.5860898  1163540 
 6133000    1.4007303   -3.4762003   -1.8892549    0.2089496   -3.4762003    1.5869454  1163561 
 6134000     1.400894   -3.4761556   -1.8890643   0.20743292   -3.4761556    1.5870913  1163590 
 6135000    1.4018103   -3.4771216   -1.8890291   0.20751025   -3.4771216    1.5880925  1163617 
 6136000    1.4011673   -3.4761133   -1.8887982   0.20824352   -3.4761133    1.5873151  1163653 
 6137000    1.4008871   -3.4761854   -1.8892178   0.21005845   -3.4761854    1.5869676  1163675 
 6138000    1.4010295   -3.4766733   -1.8895744   0.20906024   -3.4766733    1.5870989  1163697 
 6139000    1.4013608   -3.4772437   -1.8898091   0.20807094   -3.4772437    1.5874346  1163726 
 6140000    1.4005656   -3.4769222    -1.890436   0.20557129   -3.4769222    1.5864862  1163761 
 6141000    1.4015892   -3.4781031   -1.8904998   0.20760934   -3.4781031    1.5876033  1163792 
 6142000    1.4000734   -3.4761751   -1.8903324    0.2088395   -3.4761751    1.5858427  1163824 
 6143000    1.4012719   -3.4782954   -1.8911483   0.20693008   -3.4782954    1.5871471  1163863 
 6144000    1.4005362   -3.4775128   -1.8912507   0.20573072   -3.4775128    1.5862621  1163901 
 6145000    1.3997201   -3.4760503   -1.8907576   0.20917565   -3.4760503    1.5852927  1163934 
 6146000    1.4018008   -3.4789542   -1.8913472   0.20832129   -3.4789542     1.587607  1163965 
 6147000    1.4020409   -3.4795955   -1.8917616   0.20041975   -3.4795955    1.5878339  1163998 
 6148000    1.4002829   -3.4781892   -1.8923912   0.20395748   -3.4781892     1.585798  1164031 
 6149000    1.3998098   -3.4776433   -1.8924219   0.20873377   -3.4776433    1.5852214  1164061 
 6150000    1.3990908   -3.4771397    -1.892783   0.20684919   -3.4771397    1.5843568  1164098 
 6151000    1.4011205   -3.4788793   -1.8922541    0.2085262   -3.4788793    1.5866252  1164120 
 6152000    1.4006481   -3.4779156    -1.891873    0.2117757   -3.4779156    1.5860426  1164155 
 6153000    1.4008547   -3.4781801   -1.8919499   0.20829515   -3.4781801    1.5862302  1164189 
 6154000    1.4008703   -3.4784919   -1.8922739   0.20811044   -3.4784919     1.586218  1164211 
 6155000    1.3998008   -3.4782537   -1.8932944   0.20685644   -3.4782537    1.5849593  1164246 
 6156000    1.4004764   -3.4786053   -1.8929206   0.20474099   -3.4786053    1.5856847  1164275 
 6157000    1.4011209   -3.4789172    -1.892549   0.21060722   -3.4789172    1.5863682  1164309 
 6158000    1.4011325   -3.4794818   -1.8931414   0.20464177   -3.4794818    1.5863404  1164339 
 6159000    1.4003063   -3.4778356   -1.8924687   0.20953099   -3.4778356    1.5853669  1164367 
 6160000    1.4009709   -3.4793109   -1.8932352   0.20615706   -3.4793109    1.5860757  1164399 
 6161000    1.4014984   -3.4798695    -1.893247    0.2090677   -3.4798695    1.5866225  1164436 
 6162000     1.401133   -3.4797082    -1.893543   0.20282463   -3.4797082    1.5861652  1164468 
 6163000    1.3997316   -3.4781618   -1.8936252   0.20625335   -3.4781618    1.5845366  1164499 
 6164000    1.4010458    -3.479253    -1.893256   0.20659396    -3.479253     1.585997  1164519 
 6165000    1.4011856   -3.4799434   -1.8938316   0.20731829   -3.4799434    1.5861118  1164551 
 6166000    1.4010194    -3.479609   -1.8937398   0.21006734    -3.479609    1.5858691  1164591 
 6167000    1.4011646   -3.4791965   -1.8932134   0.20732983   -3.4791965    1.5859831  1164628 
 6168000    1.4018081   -3.4798499   -1.8931616   0.20819082   -3.4798499    1.5866883  1164645 
 6169000    1.4024664   -3.4812282   -1.8938465   0.20356005   -3.4812282    1.5873817  1164683 
 6170000    1.3996818   -3.4779763   -1.8937723    0.2075672   -3.4779763     1.584204  1164702 
 6171000    1.3999962   -3.4787305     -1.89421   0.20715808   -3.4787305    1.5845205  1164731 
 6172000    1.4004269   -3.4790174   -1.8940558   0.20879172   -3.4790174    1.5849616  1164765 
 6173000    1.4015889    -3.480196   -1.8939574   0.20432315    -3.480196    1.5862386  1164793 
 6174000    1.4011546   -3.4794345   -1.8937159   0.20408723   -3.4794345    1.5857186  1164814 
 6175000    1.4012843   -3.4798495    -1.894029    0.2072719   -3.4798495    1.5858204  1164847 
 6176000    1.4007352   -3.4792555   -1.8941109    0.2096244   -3.4792555    1.5851446  1164887 
 6177000     1.401538   -3.4812588   -1.8952398   0.20507006   -3.4812588     1.586019  1164912 
 6178000    1.4007651   -3.4807498   -1.8956517   0.20898035   -3.4807498    1.5850981  1164946 
 6179000    1.4013749   -3.4811168   -1.8953559   0.20380935   -3.4811168    1.5857609  1164966 
 6180000    1.4006075   -3.4801374   -1.8952966   0.20881512   -3.4801374    1.5848408  1165004 
 6181000    1.3995289   -3.4792005   -1.8956209   0.21368919   -3.4792005    1.5835796  1165034 
 6182000    1.4018844   -3.4811526   -1.8949431   0.21103365   -3.4811526    1.5862095  1165060 
 6183000    1.4002223   -3.4794883    -1.895199   0.20992303   -3.4794883    1.5842893  1165089 
 6184000    1.4007481   -3.4808298   -1.8959985   0.20614072   -3.4808298    1.5848313  1165128 
 6185000    1.4006899     -3.48082   -1.8960967   0.20479227     -3.48082    1.5847233  1165159 
 6186000    1.4008991   -3.4806795   -1.8957522   0.20507956   -3.4806795    1.5849273  1165183 
 6187000    1.4022563   -3.4821476   -1.8957352   0.20526221   -3.4821476    1.5864124  1165220 
 6188000    1.4010415    -3.480867   -1.8958574   0.20897471    -3.480867    1.5850095  1165241 
 6189000    1.4024352   -3.4827859   -1.8962473   0.20454785   -3.4827859    1.5865385  1165276 
 6190000    1.4024196   -3.4816057   -1.8951175   0.20777195   -3.4816057    1.5864882  1165300 
 6191000    1.4022425   -3.4818529   -1.8956208   0.20638101   -3.4818529    1.5862321  1165341 
 6192000     1.401557   -3.4814199   -1.8960054   0.20872097   -3.4814199    1.5854145  1165372 
 6193000    1.4031649    -3.482921   -1.8957272   0.20873961    -3.482921    1.5871938  1165401 
 6194000     1.400873   -3.4812627   -1.8966968   0.20984311   -3.4812627    1.5845659  1165427 
 6195000    1.4015182   -3.4815199   -1.8962595   0.20852221   -3.4815199    1.5852604  1165453 
 6196000    1.4010459   -3.4816736   -1.8970059   0.20573547   -3.4816736    1.5846677  1165496 
 6197000    1.4018154    -3.482276   -1.8967938   0.20681958    -3.482276    1.5854823  1165537 
 6198000    1.4013367   -3.4814804   -1.8965857   0.20719303   -3.4814804    1.5848946  1165571 
 6199000    1.4020718   -3.4820144   -1.8963388   0.20547459   -3.4820144    1.5856756  1165608 
 6200000    1.4016126   -3.4808249   -1.8957026   0.20961295   -3.4808249    1.5851223  1165633 
 6201000    1.4011427   -3.4812551   -1.8967009   0.20992441   -3.4812551    1.5845542  1165660 
 6202000    1.4026771   -3.4828051   -1.8965551   0.20663177   -3.4828051      1.58625  1165689 
 6203000    1.4022936   -3.4830403   -1.8972758   0.20541794   -3.4830403    1.5857646  1165727 
 6204000    1.4007536   -3.4808533   -1.8968669   0.20779043   -3.4808533    1.5839864  1165754 
 6205000    1.4017215   -3.4813663   -1.8963302   0.20785921   -3.4813663    1.5850361  1165787 
 6206000    1.4016979    -3.481135   -1.8961568   0.21059179    -3.481135    1.5849782  1165810 
 6207000    1.4038245   -3.4838452   -1.8965114   0.20649004   -3.4838452    1.5873338  1165846 
 6208000    1.4021604   -3.4820408   -1.8966254    0.2091661   -3.4820408    1.5854154  1165873 
 6209000    1.4039747   -3.4837608   -1.8963307   0.20651659   -3.4837608    1.5874301  1165900 
 6210000    1.4018426    -3.482351   -1.8973574     0.207607    -3.482351    1.5849936  1165919 
 6211000    1.4035737   -3.4835983   -1.8966911   0.20947776   -3.4835983    1.5869072  1165951 
 6212000    1.4038345   -3.4838786   -1.8967337    0.2084714   -3.4838786    1.5871449  1165993 
 6213000    1.4034016   -3.4830946   -1.8964677   0.20736098   -3.4830946    1.5866269  1166014 
 6214000    1.4026385   -3.4827097    -1.896989   0.21104596   -3.4827097    1.5857207  1166046 
 6215000    1.4031792   -3.4837254   -1.8974288   0.20714594   -3.4837254    1.5862966  1166072 
 6216000    1.4020818   -3.4824958   -1.8974697   0.21122361   -3.4824958    1.5850261  1166094 
 6217000    1.4020336   -3.4827839   -1.8978489   0.21007246   -3.4827839     1.584935  1166121 
 6218000    1.4028379   -3.4837345   -1.8979258   0.20539143   -3.4837345    1.5858087  1166147 
 6219000    1.4022558   -3.4835951   -1.8984973   0.20578352   -3.4835951    1.5850978  1166186 
 6220000    1.4021591   -3.4838201   -1.8988752   0.20691764   -3.4838201    1.5849449  1166218 
 6221000    1.4011621   -3.4826448   -1.8988513   0.21008663   -3.4826448    1.5837936  1166236 
 6222000    1.4011753   -3.4828324    -1.899066   0.20786923   -3.4828324    1.5837663  1166267 
 6223000    1.4020364   -3.4837778   -1.8990708   0.20512415   -3.4837778     1.584707  1166291 
 6224000    1.4027753   -3.4835168   -1.8980181   0.21039402   -3.4835168    1.5854987  1166323 
 6225000    1.4032699   -3.4838082   -1.8977953   0.21133813   -3.4838082    1.5860129  1166356 
 6226000    1.4040952   -3.4850098   -1.8981063   0.21005122   -3.4850098    1.5869034  1166387 
 6227000    1.4029855   -3.4835941   -1.8979937   0.20689723   -3.4835941    1.5856004  1166423 
 6228000    1.4030881   -3.4839425   -1.8982724   0.20698413   -3.4839425      1.58567  1166457 
 6229000    1.4039287   -3.4840189   -1.8974328   0.20971111   -3.4840189    1.5865861  1166482 
 6230000    1.4038193   -3.4840091   -1.8975752   0.20672723   -3.4840091    1.5864339  1166503 
 6231000     1.403421   -3.4837511   -1.8977958   0.21203132   -3.4837511    1.5859552  1166524 
 6232000    1.4025254   -3.4833514   -1.8984585   0.21031427   -3.4833514    1.5848929  1166561 
 6233000    1.4026709   -3.4841355   -1.8991081   0.20920856   -3.4841355    1.5850274  1166583 
 6234000    1.4036864   -3.4852609   -1.8991281   0.20735693   -3.4852609    1.5861328  1166614 
 6235000    1.4033331   -3.4850347   -1.8993515   0.20729087   -3.4850347    1.5856833  1166651 
 6236000    1.4023704   -3.4842336   -1.8996775   0.21127442   -3.4842336    1.5845561  1166680 
 6237000    1.4044779   -3.4864407   -1.8995537   0.20510694   -3.4864407     1.586887  1166717 
 6238000    1.4029238   -3.4847203   -1.8996409    0.2110861   -3.4847203    1.5850794  1166755 
 6239000    1.4028192   -3.4848147     -1.89989    0.2110146   -3.4848147    1.5849246  1166782 
 6240000    1.4034262   -3.4857844   -1.9002162   0.20984243   -3.4857844    1.5855682  1166813 
 6241000    1.4038636   -3.4861126   -1.9000868   0.20869259   -3.4861126    1.5860258  1166840 
 6242000    1.4038574   -3.4860017   -1.9000128   0.20776941   -3.4860017    1.5859888  1166862 
 6243000    1.4023615   -3.4845814   -1.9003165   0.20833192   -3.4845814    1.5842649  1166887 
 6244000    1.4037561   -3.4866621   -1.9008394   0.20867798   -3.4866621    1.5858227  1166900 
 6245000    1.4035152    -3.486476    -1.900958   0.20841305    -3.486476     1.585518  1166924 
 6246000     1.402915   -3.4860204   -1.9012226   0.20908774   -3.4860204    1.5847978  1166955 
 6247000    1.4021505   -3.4857272   -1.9018351   0.20953494   -3.4857272    1.5838922  1166986 
 6248000    1.4029528    -3.486407   -1.9016316   0.20944501    -3.486407    1.5847754  1167003 
 6249000    1.4031441   -3.4868859   -1.9019352   0.20817908   -3.4868859    1.5849507  1167033 
 6250000    1.4030825    -3.486925   -1.9020832   0.20488462    -3.486925    1.5848417  1167062 
 6251000    1.4029651   -3.4862029   -1.9015263   0.21059035   -3.4862029    1.5846766  1167086 
 6252000    1.4025174   -3.4860717   -1.9019347   0.21251566   -3.4860717     1.584137  1167111 
 6253000    1.4028013    -3.487236   -1.9028123   0.20696202    -3.487236    1.5844237  1167136 
 6254000    1.4030724   -3.4869165   -1.9022273   0.20968895   -3.4869165    1.5846891  1167166 
 6255000    1.4039574   -3.4874377   -1.9017734   0.20536859   -3.4874377    1.5856642  1167184 
 6256000    1.4021992   -3.4855812   -1.9019272   0.21468935   -3.4855812     1.583654  1167202 
 6257000    1.4036794   -3.4872609   -1.9019758   0.20716446   -3.4872609    1.5852851  1167232 
 6258000    1.4024626   -3.4862192   -1.9023585   0.21247321   -3.4862192    1.5838606  1167269 
 6259000    1.4037738   -3.4872101   -1.9019081   0.20953106   -3.4872101     1.585302  1167298 
 6260000     1.403506   -3.4877539   -1.9027774   0.20529451   -3.4877539    1.5849765  1167315 
 6261000      1.40337   -3.4880537   -1.9032646   0.20659899   -3.4880537     1.584789  1167340 
 6262000     1.402189   -3.4860753    -1.902662   0.20983852   -3.4860753    1.5834133  1167371 
 6263000    1.4021338    -3.486478    -1.903184   0.20825936    -3.486478     1.583294  1167413 
 6264000    1.4023403   -3.4868422   -1.9033531    0.2047437   -3.4868422    1.5834891  1167441 
 6265000    1.4022278   -3.4870061   -1.9036737   0.20902303   -3.4870061    1.5833323  1167463 
 6266000     1.402181   -3.4861027   -1.9028544   0.20929407   -3.4861027    1.5832483  1167486 
 6267000    1.4030169   -3.4872519   -1.9031099   0.20848294   -3.4872519     1.584142  1167523 
 6268000    1.4036348   -3.4886667    -1.903876   0.20514535   -3.4886667    1.5847907  1167559 
 6269000    1.4034712   -3.4884378   -1.9038712   0.20518179   -3.4884378    1.5845667  1167588 
 6270000    1.4020803   -3.4879993   -1.9050559    0.2061058   -3.4879993    1.5829434  1167627 
 6271000    1.4029848   -3.4880495    -1.904127    0.2073372   -3.4880495    1.5839226  1167658 
 6272000    1.4026964   -3.4873178   -1.9037575   0.20776902   -3.4873178    1.5835603  1167685 
 6273000    1.4030028    -3.487728   -1.9038625   0.20537903    -3.487728    1.5838656  1167715 
 6274000    1.4034012   -3.4878308   -1.9035521   0.20858923   -3.4878308    1.5842787  1167742 
 6275000    1.4037823   -3.4889066   -1.9042562   0.20491496   -3.4889066    1.5846505  1167785 
 6276000    1.4025128   -3.4878161   -1.9046515   0.21210452   -3.4878161    1.5831646  1167824 
 6277000    1.4033306   -3.4888832   -1.9048361   0.20915913   -3.4888832     1.584047  1167854 
 6278000    1.4038787   -3.4895351   -1.9049209   0.20806351   -3.4895351    1.5846142  1167892 
 6279000     1.403661   -3.4890426   -1.9047175   0.20852907   -3.4890426     1.584325  1167924 
 6280000    1.4042793   -3.4899985   -1.9050136   0.20677319   -3.4899985    1.5849849  1167952 
 6281000    1.4022999   -3.4886661   -1.9059573   0.20764358   -3.4886661    1.5827088  1167983 
 6282000    1.4033168   -3.4892771   -1.9054694   0.21263998   -3.4892771    1.5838077  1168019 
 6283000    1.4037184   -3.4905408   -1.9063341   0.21052017   -3.4905408    1.5842067  1168059 
 6284000    1.4035783   -3.4897693   -1.9057588   0.20889789   -3.4897693    1.5840106  1168087 
 6285000    1.4036154   -3.4893217   -1.9053181   0.20325339   -3.4893217    1.5840037  1168123 
 6286000    1.4039773   -3.4899068   -1.9055409   0.20985711   -3.4899068    1.5843659  1168157 
 6287000    1.4031126   -3.4888486   -1.9054897   0.21246108   -3.4888486    1.5833589  1168180 
 6288000    1.4047483   -3.4909084   -1.9057402   0.20876011   -3.4909084    1.5851682  1168207 
 6289000    1.4025075   -3.4884934   -1.9058796   0.21223359   -3.4884934    1.5826138  1168226 
 6290000    1.4030369   -3.4897447   -1.9065809   0.20866617   -3.4897447    1.5831638  1168261 
 6291000    1.4035823   -3.4898839   -1.9061481   0.20519476   -3.4898839    1.5837358  1168293 
 6292000    1.4044871   -3.4904928   -1.9057889   0.20682735   -3.4904928    1.5847039  1168332 
 6293000    1.4038938   -3.4899061   -1.9059111   0.20679828   -3.4899061    1.5839951  1168361 
 6294000    1.4030496     -3.48934   -1.9063178   0.21124485     -3.48934    1.5830222  1168376 
 6295000    1.4031539   -3.4887341    -1.905632   0.21255817   -3.4887341     1.583102  1168404 
 6296000    1.4040397   -3.4899303   -1.9058683   0.20561923   -3.4899303    1.5840621  1168433 
 6297000    1.4026419   -3.4891858   -1.9067481    0.2056034   -3.4891858    1.5824377  1168468 
 6298000    1.4026218   -3.4900538   -1.9076835   0.20895084   -3.4900538    1.5823703  1168501 
 6299000     1.402061   -3.4901113   -1.9084197   0.20426026   -3.4901113    1.5816916  1168535 
 6300000    1.4034205   -3.4903589   -1.9071715   0.20999989   -3.4903589    1.5831874  1168563 
 6301000    1.4042089   -3.4916873   -1.9076566   0.20496799   -3.4916873    1.5840307  1168597 
 6302000     1.403262   -3.4901169   -1.9072072   0.21310261   -3.4901169    1.5829096  1168636 
 6303000    1.4028786   -3.4898414   -1.9074129   0.20684207   -3.4898414    1.5824284  1168672 
 6304000    1.4038987   -3.4910081   -1.9074777   0.20823265   -3.4910081    1.5835303  1168708 
 6305000    1.4048488   -3.4920949   -1.9075282   0.20730593   -3.4920949    1.5845667  1168734 
 6306000    1.4045272   -3.4913165   -1.9071559   0.20928906   -3.4913165    1.5841606  1168766 
 6307000    1.4030889    -3.490169   -1.9076713     0.212848    -3.490169    1.5824977  1168796 
 6308000    1.4049674   -3.4923259   -1.9077515    0.2088866   -3.4923259    1.5845744  1168827 
 6309000    1.4045423    -3.491494   -1.9074262   0.20928949    -3.491494    1.5840679  1168847 
 6310000    1.4041622   -3.4902513   -1.9066704   0.21153729   -3.4902513     1.583581  1168890 
 6311000    1.4049792   -3.4912611    -1.906786   0.20887517   -3.4912611    1.5844752  1168910 
 6312000     1.404191   -3.4910108   -1.9074651   0.20972268   -3.4910108    1.5835457  1168940 
 6313000    1.4039414   -3.4914104   -1.9081909   0.20789034   -3.4914104    1.5832195  1168973 
 6314000    1.4034272   -3.4912118   -1.9085939   0.20595117   -3.4912118    1.5826179  1168989 
 6315000    1.4045296   -3.4923094    -1.908497    0.2037553   -3.4923094    1.5838124  1169025 
 6316000    1.4045014   -3.4919983   -1.9082598   0.20818674   -3.4919983    1.5837385  1169056 
 6317000    1.4053889   -3.4926493   -1.9079494   0.20658577   -3.4926493       1.5847  1169085 
 6318000    1.4048835   -3.4916911   -1.9076179   0.20755215   -3.4916911    1.5840732  1169127 
 6319000    1.4039168   -3.4909129   -1.9079676   0.20786798   -3.4909129    1.5829453  1169155 
 6320000    1.4037739   -3.4907332   -1.9079815   0.21087345   -3.4907332    1.5827517  1169179 
 6321000    1.4045074   -3.4918892   -1.9083565   0.21311603   -3.4918892    1.5835327  1169213 
 6322000    1.4040191   -3.4915467   -1.9086051   0.20581221   -3.4915467    1.5829415  1169243 
 6323000    1.4050309   -3.4918517    -1.907821   0.20728713   -3.4918517    1.5840308  1169281 
 6324000    1.4045774   -3.4919067   -1.9084157   0.21087882   -3.4919067     1.583491  1169302 
 6325000    1.4053466   -3.4924076   -1.9080873   0.20691791   -3.4924076    1.5843203  1169330 
 6326000    1.4042119   -3.4910228   -1.9080318   0.21283589   -3.4910228     1.582991  1169367 
 6327000    1.4049731   -3.4920032   -1.9081866   0.21407276   -3.4920032    1.5838166  1169391 
 6328000    1.4055004   -3.4929533    -1.908587   0.20947633   -3.4929533    1.5843663  1169424 
 6329000     1.405719   -3.4933862   -1.9088168   0.20604035   -3.4933862    1.5845694  1169456 
 6330000    1.4050427   -3.4931012   -1.9093227   0.20414074   -3.4931012    1.5837786  1169477 
 6331000    1.4048641   -3.4933688   -1.9098348   0.20680331   -3.4933688     1.583534  1169509 
 6332000    1.4056741   -3.4937551   -1.9093488   0.20965258   -3.4937551    1.5844063  1169539 
 6333000    1.4059085   -3.4947854    -1.910165   0.21039025   -3.4947854    1.5846204  1169576 
 6334000    1.4051258   -3.4938025   -1.9100994   0.20806038   -3.4938025     1.583703  1169602 
 6335000    1.4042018   -3.4925663   -1.9099331   0.21091974   -3.4925663    1.5826332  1169623 
 6336000    1.4042984   -3.4931545   -1.9104544   0.20728241   -3.4931545    1.5827001  1169654 
 6337000    1.4040078   -3.4936945   -1.9113531   0.21040069   -3.4936945    1.5823414  1169677 
 6338000    1.4044801   -3.4939779   -1.9111503   0.21159125   -3.4939779    1.5828277  1169711 
 6339000    1.4049051   -3.4945295   -1.9112539   0.21282256   -3.4945295    1.5832755  1169734 
 6340000    1.4041338   -3.4934953   -1.9111309   0.21071207   -3.4934953    1.5823644  1169765 
 6341000    1.4047764    -3.494636   -1.9115731   0.20841116    -3.494636    1.5830629  1169784 
 6342000    1.4056731    -3.494949   -1.9109298   0.20834062    -3.494949    1.5840192  1169824 
 6343000    1.4052544   -3.4941471   -1.9106363   0.20948133   -3.4941471    1.5835108  1169851 
 6344000    1.4051813   -3.4939031   -1.9105044   0.21117456   -3.4939031    1.5833987  1169873 
 6345000    1.4048654   -3.4937894   -1.9107806    0.2068855   -3.4937894    1.5830088  1169898 
 6346000    1.4050309   -3.4939195    -1.910754   0.21362979   -3.4939195    1.5831655  1169920 
 6347000    1.4040462   -3.4929494   -1.9109191   0.21277908   -3.4929494    1.5820303  1169939 
 6348000    1.4054627   -3.4946303   -1.9110553   0.20938952   -3.4946303     1.583575  1169977 
 6349000    1.4043939   -3.4932316   -1.9108961   0.21103047   -3.4932316    1.5823355  1170003 
 6350000    1.4040494   -3.4930039   -1.9111147   0.21051157   -3.4930039    1.5818892  1170046 
 6351000      1.40437   -3.4934375   -1.9112209   0.21121375   -3.4934375    1.5822166  1170071 
 6352000    1.4047416   -3.4940151   -1.9114257   0.20883055   -3.4940151    1.5825894  1170105 
 6353000    1.4060775   -3.4957922   -1.9117303   0.20462695   -3.4957922    1.5840619  1170129 
 6354000    1.4054795   -3.4949999   -1.9116401   0.20712446   -3.4949999    1.5833598  1170150 
 6355000    1.4059214    -3.495683   -1.9118755   0.20717083    -3.495683    1.5838075  1170187 
 6356000    1.4069565   -3.4964315   -1.9114904   0.20600141   -3.4964315    1.5849411  1170211 
 6357000     1.405012   -3.4938696    -1.911146   0.21333432   -3.4938696    1.5827236  1170231 
 6358000    1.4060908   -3.4947576    -1.910854   0.21142062   -3.4947576    1.5839036  1170257 
 6359000    1.4057113   -3.4947178   -1.9112742   0.21069044   -3.4947178    1.5834436  1170281 
 6360000    1.4046852   -3.4932731   -1.9110246    0.2074576   -3.4932731    1.5822485  1170310 
 6361000     1.405097   -3.4939975   -1.9113256   0.20846101   -3.4939975    1.5826719  1170340 
 6362000    1.4037673   -3.4929468   -1.9118173   0.21324677   -3.4929468    1.5811295  1170373 
 6363000    1.4053664   -3.4950916    -1.912215   0.20865111   -3.4950916    1.5828766  1170413 
 6364000    1.4058819   -3.4952316   -1.9118258   0.20743241   -3.4952316    1.5834058  1170451 
 6365000    1.4050288   -3.4943569   -1.9119579    0.2103307   -3.4943569     1.582399  1170485 
 6366000    1.4052027   -3.4944583   -1.9119121   0.21171333   -3.4944583    1.5825462  1170521 
 6367000    1.4066058   -3.4947991   -1.9107215   0.21258923   -3.4947991    1.5840777  1170557 
 6368000    1.4070794   -3.4960425   -1.9114599   0.20962433   -3.4960425    1.5845826  1170578 
 6369000    1.4063356    -3.495294   -1.9115828   0.21105529    -3.495294    1.5837112  1170603 
 6370000    1.4074944   -3.4965304   -1.9115481   0.21037101   -3.4965304    1.5849823  1170628 
 6371000    1.4065079   -3.4955447   -1.9117194   0.20975616   -3.4955447    1.5838253  1170662 
 6372000    1.4073638   -3.4964331   -1.9116683   0.20746114   -3.4964331    1.5847648  1170680 
 6373000     1.406913   -3.4964422   -1.9122311   0.20927695   -3.4964422    1.5842112  1170714 
 6374000    1.4058137   -3.4950252   -1.9120871   0.21095305   -3.4950252    1.5829381  1170740 
 6375000    1.4051925   -3.4947246   -1.9125237   0.21173128   -3.4947246    1.5822009  1170768 
 6376000    1.4047221   -3.4945537   -1.9129312   0.21449049   -3.4945537    1.5816226  1170804 
 6377000    1.4074092   -3.4972074   -1.9126067   0.21036504   -3.4972074    1.5846006  1170839 
 6378000     1.405753   -3.4958455   -1.9131447   0.21194763   -3.4958455    1.5827008  1170865 
 6379000    1.4062345   -3.4963966   -1.9131902   0.21021116   -3.4963966    1.5832064  1170892 
 6380000    1.4061106   -3.4965855   -1.9135618   0.20997323   -3.4965855    1.5830236  1170924 
 6381000      1.40606   -3.4968983   -1.9139667    0.2074787   -3.4968983    1.5829315  1170950 
 6382000    1.4071618   -3.4982312   -1.9140972   0.20701474   -3.4982312     1.584134  1170978 
 6383000     1.405697   -3.4956829   -1.9132397   0.21192894   -3.4956829    1.5824432  1171009 
 6384000     1.406666   -3.4969349   -1.9134307   0.20983983   -3.4969349    1.5835042  1171031 
 6385000    1.4061758    -3.496758   -1.9138435    0.2077965    -3.496758    1.5829146  1171059 
 6386000      1.40734   -3.4979256   -1.9137222   0.20892331   -3.4979256    1.5842034  1171075 
 6387000    1.4080824   -3.4987465   -1.9137411   0.20914833   -3.4987465    1.5850053  1171100 
 6388000    1.4072937   -3.4974187   -1.9133594   0.21096814   -3.4974187    1.5840593  1171143 
 6389000    1.4071704   -3.4974967   -1.9136141   0.20602392   -3.4974967    1.5838827  1171171 
 6390000    1.4062196   -3.4973607   -1.9145901   0.21054205   -3.4973607    1.5827706  1171202 
 6391000    1.4055437   -3.4969631   -1.9149937   0.21286839   -3.4969631    1.5819693  1171232 
 6392000     1.406569   -3.4976324   -1.9145443   0.20876844   -3.4976324    1.5830881  1171258 
 6393000    1.4060219   -3.4970113   -1.9145808   0.20921993   -3.4970113    1.5824305  1171289 
 6394000    1.4060545   -3.4975755   -1.9151529   0.20891758   -3.4975755    1.5824226  1171322 
 6395000    1.4064435   -3.4976702   -1.9148491    0.2111422   -3.4976702    1.5828212  1171351 
 6396000    1.4054672   -3.4971006   -1.9154064   0.21336564   -3.4971006    1.5816942  1171372 
 6397000    1.4063319   -3.4977976   -1.9151655   0.21034553   -3.4977976    1.5826321  1171398 
 6398000    1.4085413   -3.5001205    -1.915048   0.20598214   -3.5001205    1.5850725  1171432 
 6399000    1.4067937   -3.4988787   -1.9158026   0.21191198   -3.4988787    1.5830761  1171454 
 6400000    1.4059936   -3.4982841   -1.9161502   0.20820155   -3.4982841     1.582134  1171485 
 6401000    1.4061153   -3.4983196   -1.9160905   0.21293172   -3.4983196     1.582229  1171516 
 6402000    1.4069071   -3.4986429   -1.9155662   0.21154008   -3.4986429    1.5830767  1171548 
 6403000    1.4070046    -3.498962   -1.9158161   0.20857208    -3.498962    1.5831459  1171578 
 6404000    1.4068467   -3.4988553   -1.9159276   0.20975162   -3.4988553    1.5829277  1171608 
 6405000    1.4065675   -3.4981047   -1.9155465   0.21400289   -3.4981047    1.5825582  1171649 
 6406000    1.4079236   -3.4990758   -1.9150311   0.20931988   -3.4990758    1.5840448  1171678 
 6407000    1.4064699   -3.4987315   -1.9163534    0.2111877   -3.4987315    1.5823781  1171701 
 6408000    1.4058907   -3.4990094   -1.9173181   0.20754235   -3.4990094    1.5816914  1171727 
 6409000    1.4060129   -3.4988296   -1.9170412   0.21073795   -3.4988296    1.5817884  1171757 
 6410000    1.4059109    -3.498484   -1.9168414   0.21117031    -3.498484    1.5816425  1171780 
 6411000     1.407643   -3.5002271   -1.9166657    0.2083841   -3.5002271    1.5835614  1171802 
 6412000    1.4064844   -3.4993187    -1.917081   0.20456913   -3.4993187    1.5822378  1171817 
 6413000    1.4067563   -3.4997963   -1.9172824   0.21178522   -3.4997963    1.5825139  1171839 
 6414000    1.4068785   -3.4992873   -1.9166778   0.21021122   -3.4992873    1.5826095  1171870 
 6415000     1.406491   -3.4986789    -1.916543    0.2120629   -3.4986789    1.5821359  1171898 
 6416000    1.4077281   -3.4999896   -1.9165082   0.21111079   -3.4999896    1.5834815  1171932 
 6417000    1.4069514   -3.4993123   -1.9167423   0.21238569   -3.4993123      1.58257  1171960 
 6418000    1.4075381   -3.5001572   -1.9169691   0.20764353   -3.5001572    1.5831881  1171991 
 6419000     1.406308   -3.4983128   -1.9165623   0.21375248   -3.4983128    1.5817505  1172031 
 6420000    1.4075687   -3.4996895   -1.9165589   0.20657677   -3.4996895    1.5831306  1172059 
 6421000    1.4078817   -3.4999515   -1.9165148   0.21027053   -3.4999515    1.5834367  1172093 
 6422000    1.4068896    -3.499238   -1.9169603   0.21260982    -3.499238    1.5822777  1172125 
 6423000    1.4071129   -3.5002011   -1.9177249   0.20781876   -3.5002011    1.5824762  1172164 
 6424000    1.4069207   -3.5001093   -1.9178992   0.21017939   -3.5001093    1.5822101  1172201 
 6425000    1.4070546   -3.5002584    -1.917922   0.20786247   -3.5002584    1.5823364  1172219 
 6426000    1.4074182   -3.5005699   -1.9178462   0.21044846   -3.5005699    1.5827237  1172235 
 6427000    1.4068975   -3.5000026   -1.9178955   0.21292452   -3.5000026    1.5821071  1172258 
 6428000    1.4069627   -3.4999809   -1.9178424   0.21438411   -3.4999809    1.5821385  1172289 
 6429000    1.4076628   -3.5006052   -1.9177252   0.21035482   -3.5006052      1.58288  1172323 
 6430000    1.4076518   -3.5002092   -1.9173916   0.21056223   -3.5002092    1.5828176  1172360 
 6431000    1.4073699   -3.5006497   -1.9181802   0.21046455   -3.5006497    1.5824696  1172383 
 6432000    1.4081244    -3.501696   -1.9184293   0.20843748    -3.501696    1.5832666  1172421 
 6433000    1.4058844   -3.4994889   -1.9187719   0.20787174   -3.4994889     1.580717  1172444 
 6434000    1.4075843   -3.5011679   -1.9185719   0.21053702   -3.5011679     1.582596  1172468 
 6435000    1.4064685   -3.5002423   -1.9189509   0.20903615   -3.5002423    1.5812915  1172505 
 6436000    1.4076028   -3.5018319   -1.9192948   0.20976194   -3.5018319    1.5825371  1172527 
 6437000    1.4070166   -3.5010073   -1.9191819   0.20899589   -3.5010073    1.5818254  1172566 
 6438000    1.4080959   -3.5022481   -1.9192511   0.20839822   -3.5022481     1.582997  1172597 
 6439000    1.4069873   -3.5005908    -1.918878   0.21560418   -3.5005908    1.5817129  1172625 
 6440000    1.4086441   -3.5025273   -1.9190005   0.20769597   -3.5025273    1.5835268  1172661 
 6441000    1.4087433   -3.5020329   -1.9184472    0.2080682   -3.5020329    1.5835857  1172700 
 6442000    1.4079955   -3.5008187   -1.9181088   0.21628786   -3.5008187      1.58271  1172726 
 6443000    1.4087801   -3.5023366   -1.9187825   0.20975832   -3.5023366    1.5835542  1172754 
 6444000    1.4074551   -3.5008033   -1.9187804   0.21171097   -3.5008033    1.5820229  1172785 
 6445000    1.4076505   -3.5008708   -1.9186674    0.2123378   -3.5008708    1.5822034  1172814 
 6446000    1.4089518   -3.5021668   -1.9185317   0.21092516   -3.5021668    1.5836351  1172837 
 6447000    1.4085054   -3.5016156   -1.9185093   0.20995634   -3.5016156    1.5831063  1172857 
 6448000    1.4091999   -3.5028136   -1.9189766   0.20847735   -3.5028136     1.583837  1172894 
 6449000    1.4073465   -3.5010473   -1.9193379   0.21763829   -3.5010473    1.5817093  1172927 
 6450000    1.4087351   -3.5028125   -1.9195897   0.20676409   -3.5028125    1.5832228  1172962 
 6451000     1.409243   -3.5028013   -1.9190632   0.21194329   -3.5028013    1.5837382  1173003 
 6452000    1.4078296   -3.5016019   -1.9194818    0.2122254   -3.5016019    1.5821202  1173025 
 6453000    1.4081654   -3.5025567   -1.9200983   0.20917138   -3.5025567    1.5824584  1173054 
 6454000    1.4085741   -3.5030259    -1.920138   0.21058379   -3.5030259    1.5828879  1173076 
 6455000    1.4076981   -3.5017774   -1.9199116   0.21059287   -3.5017774    1.5818658  1173104 
 6456000    1.4078758   -3.5032698   -1.9212407   0.21194002   -3.5032698    1.5820291  1173131 
 6457000    1.4071883   -3.5022413   -1.9210319    0.2085522   -3.5022413    1.5812094  1173166 
 6458000      1.40813   -3.5026366   -1.9204217   0.21387631   -3.5026366    1.5822149  1173205 
 6459000    1.4102319   -3.5046014   -1.9200652    0.2076312   -3.5046014    1.5845362  1173235 
 6460000    1.4094922   -3.5031703   -1.9195112   0.21084444   -3.5031703    1.5836592  1173269 
 6461000    1.4076869   -3.5016998   -1.9201163   0.21396651   -3.5016998    1.5815835  1173304 
 6462000    1.4083806   -3.5027774   -1.9204522   0.21323811   -3.5027774    1.5823252  1173332 
 6463000    1.4085446    -3.502514   -1.9200329   0.20927692    -3.502514    1.5824812  1173353 
 6464000    1.4090654   -3.5030499   -1.9200254   0.21177451   -3.5030499    1.5830244  1173384 
 6465000    1.4090432   -3.5036463   -1.9206752   0.20980284   -3.5036463    1.5829711  1173405 
 6466000    1.4086553   -3.5039795    -1.921482   0.21171331   -3.5039795    1.5824976  1173433 
 6467000    1.4078768   -3.5032408   -1.9216582   0.21444793   -3.5032408    1.5815826  1173463 
 6468000    1.4093753   -3.5039449   -1.9207194   0.20930055   -3.5039449    1.5832255  1173493 
 6469000    1.4083001   -3.5034803   -1.9215112   0.21129029   -3.5034803    1.5819691  1173529 
 6470000    1.4075363   -3.5022886   -1.9212247   0.21482809   -3.5022886     1.581064  1173564 
 6471000    1.4090759    -3.504311   -1.9215579   0.20921944    -3.504311     1.582753  1173594 
 6472000    1.4083382   -3.5045541   -1.9226729   0.20396999   -3.5045541    1.5818812  1173626 
 6473000     1.408718   -3.5042815   -1.9220088   0.21559319   -3.5042815    1.5822727  1173652 
 6474000    1.4090905   -3.5041342   -1.9214768   0.21325432   -3.5041342    1.5826575  1173677 
 6475000    1.4082114   -3.5033915   -1.9217552   0.21025603   -3.5033915    1.5816363  1173702 
 6476000    1.4091475    -3.504718   -1.9220653   0.20917199    -3.504718    1.5826527  1173728 
 6477000    1.4083151    -3.504386   -1.9227059   0.21614286    -3.504386      1.58168  1173756 
 6478000    1.4081042   -3.5037589    -1.922344   0.21184772   -3.5037589    1.5814149  1173777 
 6479000    1.4082234   -3.5040854   -1.9225785   0.21333943   -3.5040854     1.581507  1173808 
 6480000    1.4085339   -3.5040902   -1.9222723   0.21305963   -3.5040902    1.5818179  1173836 
 6481000     1.408286   -3.5041471   -1.9226452   0.21005999   -3.5041471    1.5815019  1173864 
 6482000    1.4081619   -3.5042518   -1.9229243   0.21153298   -3.5042518    1.5813275  1173890 
 6483000    1.4086461   -3.5046657   -1.9228336   0.20987372   -3.5046657    1.5818321  1173919 
 6484000     1.409087   -3.5049526   -1.9226779   0.21352296   -3.5049526    1.5822747  1173958 
 6485000    1.4091074   -3.5050207   -1.9227541   0.21372548   -3.5050207    1.5822666  1173981 
 6486000    1.4081455   -3.5046556   -1.9235122   0.21060591   -3.5046556    1.5811434  1174013 
 6487000    1.4091751   -3.5060853   -1.9238277   0.20541519   -3.5060853    1.5822576  1174044 
 6488000    1.4084569    -3.504933   -1.9235154    0.2123015    -3.504933    1.5814176  1174069 
 6489000    1.4077712   -3.5038347   -1.9232287   0.21668299   -3.5038347    1.5806059  1174100 
 6490000     1.410087   -3.5064469   -1.9232732   0.20974927   -3.5064469    1.5831737  1174124 
 6491000    1.4106512   -3.5064692   -1.9227012   0.20929373   -3.5064692     1.583768  1174153 
 6492000    1.4087344   -3.5041544   -1.9225707   0.21503061   -3.5041544    1.5815837  1174177 
 6493000    1.4094946   -3.5059723   -1.9235648   0.20930631   -3.5059723    1.5824075  1174199 
 6494000    1.4092647   -3.5046563    -1.922542   0.21499616   -3.5046563    1.5821143  1174225 
 6495000     1.410648   -3.5059202   -1.9222892   0.21335952   -3.5059202    1.5836309  1174252 
 6496000    1.4101338   -3.5053064    -1.922285   0.21589484   -3.5053064    1.5830214  1174276 
 6497000    1.4097757    -3.504709   -1.9221206   0.21417012    -3.504709    1.5825884  1174299 
 6498000    1.4086243   -3.5047209   -1.9234575   0.21107435   -3.5047209    1.5812634  1174323 
 6499000    1.4090685    -3.505065   -1.9233419   0.21222352    -3.505065    1.5817231  1174352 
 6500000    1.4093512   -3.5056976   -1.9236868   0.20896654   -3.5056976    1.5820108  1174374 
 6501000    1.4083203   -3.5052587   -1.9244509   0.21163164   -3.5052587    1.5808078  1174408 
 6502000      1.40868   -3.5055717   -1.9243911   0.21086665   -3.5055717    1.5811806  1174431 
 6503000    1.4094865    -3.506526   -1.9244752   0.21232379    -3.506526    1.5820508  1174457 
 6504000     1.408218   -3.5051202   -1.9245229   0.21029371   -3.5051202    1.5805973  1174479 
 6505000    1.4095709    -3.506299    -1.924214   0.21171278    -3.506299     1.582085  1174502 
 6506000    1.4091778    -3.505787   -1.9241783   0.20735466    -3.505787    1.5816087  1174528 
 6507000    1.4086742    -3.505281   -1.9242752   0.21188174    -3.505281    1.5810058  1174556 
 6508000    1.4092708   -3.5067938   -1.9251534   0.21288532   -3.5067938    1.5816404  1174582 
 6509000    1.4095523   -3.5071445   -1.9252206   0.21103163   -3.5071445    1.5819239  1174606 
 6510000    1.4086806   -3.5063754   -1.9254782   0.21132733   -3.5063754    1.5808972  1174642 
 6511000    1.4082067   -3.5056784   -1.9253561   0.21221544   -3.5056784    1.5803224  1174674 
 6512000    1.4097715   -3.5067526   -1.9247201   0.21093334   -3.5067526    1.5820326  1174708 
 6513000     1.410688   -3.5081313   -1.9251147   0.21027115   -3.5081313    1.5830166  1174741 
 6514000    1.4079269   -3.5052909   -1.9254036   0.21588824   -3.5052909    1.5798872  1174764 
 6515000    1.4091807   -3.5076186   -1.9263702   0.21419499   -3.5076186    1.5812484  1174798 
 6516000    1.4092807   -3.5076736    -1.926356    0.2119237   -3.5076736    1.5813176  1174830 
 6517000     1.409558   -3.5080464   -1.9264527   0.21399532   -3.5080464    1.5815937  1174856 
 6518000    1.4089191   -3.5078135   -1.9269837   0.21314236   -3.5078135    1.5808298  1174891 
 6519000    1.4087286   -3.5076791   -1.9271008   0.21433641   -3.5076791    1.5805783  1174919 
 6520000    1.4091877    -3.508141   -1.9271053    0.2129392    -3.508141    1.5810356  1174962 
 6521000    1.4092513   -3.5085387   -1.9274721   0.21073809   -3.5085387    1.5810666  1174992 
 6522000    1.4094518   -3.5091744   -1.9279327   0.20813286   -3.5091744    1.5812418  1175029 
 6523000    1.4083668   -3.5082983   -1.9283142   0.20710947   -3.5082983    1.5799841  1175059 
 6524000     1.407893   -3.5078404   -1.9284147   0.21334618   -3.5078404    1.5794257  1175079 
 6525000    1.4084349   -3.5078283   -1.9278337   0.21222185   -3.5078283    1.5799947  1175108 
 6526000    1.4078253    -3.507345   -1.9280785   0.21452378    -3.507345    1.5792665  1175141 
 6527000    1.4087563   -3.5075454   -1.9272682   0.21446212   -3.5075454    1.5802772  1175166 
 6528000    1.4086919   -3.5083862   -1.9282189   0.21518237   -3.5083862    1.5801673  1175194 
 6529000     1.409103   -3.5076354   -1.9270379   0.20990313   -3.5076354    1.5805975  1175217 
 6530000    1.4092759   -3.5085537   -1.9278348   0.21123418   -3.5085537    1.5807189  1175271 
 6531000    1.4095088   -3.5081044   -1.9271633   0.21403453   -3.5081044    1.5809411  1175300 
 6532000    1.4103732    -3.509308   -1.9274203   0.21041615    -3.509308    1.5818878  1175317 
 6533000    1.4097168   -3.5081741   -1.9270576   0.21278876   -3.5081741    1.5811165  1175343 
 6534000    1.4104074   -3.5094678   -1.9276171   0.20942886   -3.5094678    1.5818507  1175373 
 6535000     1.409962   -3.5085454   -1.9272265   0.21416862   -3.5085454    1.5813189  1175397 
 6536000    1.4101408    -3.509269   -1.9277954   0.21188193    -3.509269    1.5814737  1175431 
 6537000    1.4092387    -3.508904   -1.9284756   0.21368413    -3.508904    1.5804284  1175456 
 6538000    1.4088233   -3.5081267   -1.9282031   0.20991435   -3.5081267    1.5799235  1175485 
 6539000    1.4095387   -3.5094177   -1.9287161    0.2113031   -3.5094177    1.5807016  1175503 
 6540000    1.4086765   -3.5082114   -1.9285009   0.21261066   -3.5082114    1.5797105  1175521 
 6541000    1.4096207   -3.5093549   -1.9286246   0.21241458   -3.5093549    1.5807303  1175550 
 6542000    1.4094747   -3.5098587   -1.9293364   0.21075776   -3.5098587    1.5805223  1175583 
 6543000    1.4084727   -3.5089489   -1.9295745   0.21152033   -3.5089489    1.5793745  1175601 
 6544000     1.409187   -3.5101886   -1.9300495   0.21199848   -3.5101886    1.5801391  1175628 
 6545000    1.4096829   -3.5099812   -1.9293263    0.2107961   -3.5099812    1.5806548  1175658 
 6546000    1.4095744   -3.5092105   -1.9287203    0.2138288   -3.5092105    1.5804902  1175690 
 6547000    1.4099832   -3.5102291   -1.9293154   0.21204238   -3.5102291    1.5809137  1175716 
 6548000    1.4100802   -3.5103437   -1.9293604   0.21196856   -3.5103437    1.5809833  1175745 
 6549000    1.4107581   -3.5105123   -1.9288119   0.21042407   -3.5105123    1.5817004  1175777 
 6550000    1.4098942   -3.5091624    -1.928475   0.21239254   -3.5091624    1.5806874  1175810 
 6551000    1.4101318   -3.5096179   -1.9287071   0.21291524   -3.5096179    1.5809108  1175842 
 6552000      1.41042    -3.510142   -1.9289445   0.21318615    -3.510142    1.5811975  1175869 
 6553000    1.4093761   -3.5088185   -1.9288248   0.21201178   -3.5088185    1.5799937  1175894 
 6554000    1.4096253   -3.5094717   -1.9292281   0.21042903   -3.5094717    1.5802435  1175916 
 6555000    1.4103547   -3.5102012   -1.9291736   0.21143826   -3.5102012    1.5810276  1175941 
 6556000    1.4109728   -3.5107037   -1.9290196   0.21268932   -3.5107037    1.5816841  1175968 
 6557000     1.410566   -3.5111644    -1.929978   0.21216094   -3.5111644    1.5811864  1175999 
 6558000    1.4099535    -3.510106   -1.9296357   0.21280973    -3.510106    1.5804703  1176021 
 6559000     1.410742   -3.5110846   -1.9297681   0.21178021   -3.5110846    1.5813166  1176049 
 6560000    1.4085516   -3.5091712   -1.9303596   0.21447217   -3.5091712    1.5788116  1176086 
 6561000     1.409355   -3.5101444   -1.9304658   0.21311895   -3.5101444    1.5796785  1176111 
 6562000    1.4094607   -3.5095254    -1.929758   0.21558749   -3.5095254    1.5797675  1176133 
 6563000    1.4099513   -3.5101723   -1.9298792   0.21100908   -3.5101723    1.5802931  1176151 
 6564000    1.4096582   -3.5098684   -1.9299347   0.21006315   -3.5098684    1.5799337  1176174 
 6565000    1.4095204   -3.5101288    -1.930371   0.21146824   -3.5101288    1.5797578  1176190 
 6566000    1.4104421    -3.511316   -1.9305642   0.21368333    -3.511316    1.5807518  1176219 
 6567000    1.4092168     -3.51051   -1.9311596    0.2100688     -3.51051    1.5793504  1176240 
 6568000    1.4102855   -3.5115938   -1.9310873   0.20714724   -3.5115938    1.5805065  1176271 
 6569000    1.4101125   -3.5109145   -1.9306342   0.21868051   -3.5109145    1.5802804  1176295 
 6570000    1.4099466     -3.51087   -1.9308253    0.2100383     -3.51087    1.5800447  1176332 
 6571000    1.4106463   -3.5116903   -1.9309018   0.21358376   -3.5116903    1.5807885  1176362 
 6572000     1.409966   -3.5110813   -1.9310915   0.21272451   -3.5110813    1.5799899  1176389 
 6573000    1.4104579    -3.511789   -1.9312841   0.21216137    -3.511789    1.5805048  1176416 
 6574000    1.4101998   -3.5108439   -1.9306592   0.21574109   -3.5108439    1.5801847  1176439 
 6575000    1.4106371   -3.5116414   -1.9310016   0.21237675   -3.5116414    1.5806399  1176465 
 6576000    1.4096891   -3.5108662   -1.9313343    0.2145805   -3.5108662    1.5795319  1176499 
 6577000    1.4099383   -3.5109828   -1.9312106   0.21437123   -3.5109828    1.5797722  1176528 
 6578000     1.411226   -3.5127933   -1.9316361   0.21260076   -3.5127933    1.5811572  1176571 
 6579000    1.4114256   -3.5138534   -1.9325062   0.20795162   -3.5138534    1.5813472  1176596 
 6580000    1.4094437   -3.5118444   -1.9327526   0.21200245   -3.5118444    1.5790918  1176622 
 6581000    1.4099863   -3.5126728    -1.933016   0.21206051   -3.5126728    1.5796568  1176654 
 6582000    1.4102602   -3.5124575   -1.9325328   0.21234274   -3.5124575    1.5799248  1176683 
 6583000    1.4101556   -3.5124365   -1.9326639   0.21181325   -3.5124365    1.5797726  1176709 
 6584000      1.40976   -3.5110688   -1.9317715   0.21848987   -3.5110688    1.5792972  1176733 
 6585000    1.4110777   -3.5124756   -1.9317398   0.20921893   -3.5124756    1.5807358  1176761 
 6586000    1.4111907   -3.5124082   -1.9315807   0.21277363   -3.5124082    1.5808275  1176787 
 6587000    1.4112267   -3.5126797   -1.9318616   0.21261242   -3.5126797     1.580818  1176824 
 6588000    1.4109316   -3.5122745   -1.9318165   0.21130321   -3.5122745     1.580458  1176846 
 6589000    1.4108269   -3.5128976   -1.9325864   0.21112233   -3.5128976    1.5803112  1176868 
 6590000    1.4117673   -3.5132153   -1.9318845   0.21355929   -3.5132153    1.5813309  1176893 
 6591000     1.410984   -3.5126226   -1.9321958   0.21203614   -3.5126226    1.5804267  1176913 
 6592000    1.4108028   -3.5128992    -1.932705   0.21387462   -3.5128992    1.5801942  1176935 
 6593000    1.4109843   -3.5130186   -1.9326601   0.21219435   -3.5130186    1.5803585  1176964 
 6594000    1.4107532   -3.5127808   -1.9327227    0.2119033   -3.5127808    1.5800581  1176995 
 6595000    1.4100503   -3.5121298   -1.9328858   0.21080043   -3.5121298     1.579244  1177015 
 6596000    1.4109991   -3.5129163   -1.9326338   0.21712726   -3.5129163    1.5802824  1177033 
 6597000    1.4107131    -3.513015   -1.9330931   0.21157153    -3.513015    1.5799219  1177063 
 6598000    1.4104111   -3.5130342   -1.9334935   0.21169145   -3.5130342    1.5795408  1177095 
 6599000    1.4106117   -3.5130806   -1.9333462   0.21045233   -3.5130806    1.5797345  1177118 
 6600000    1.4104407   -3.5133102   -1.9338101   0.21137165   -3.5133102    1.5795001  1177150 
 6601000    1.4111384   -3.5141103   -1.9338732   0.21373522   -3.5141103    1.5802371  1177183 
 6602000    1.4103291   -3.5138959   -1.9345892   0.21215088   -3.5138959    1.5793067  1177201 
 6603000    1.4120313   -3.5150709   -1.9338943   0.21342767   -3.5150709    1.5811766  1177228 
 6604000    1.4106433   -3.5140248   -1.9344374   0.21349625   -3.5140248    1.5795874  1177254 
 6605000    1.4113336   -3.5142837   -1.9339582   0.21427287   -3.5142837    1.5803255  1177280 
 6606000    1.4118223   -3.5144973   -1.9336595   0.21115564   -3.5144973    1.5808378  1177306 
 6607000    1.4119435   -3.5152443   -1.9343111    0.2127798   -3.5152443    1.5809332  1177336 
 6608000    1.4114952   -3.5146171    -1.934214   0.21072601   -3.5146171    1.5804031  1177357 
 6609000    1.4120827   -3.5151612   -1.9341258    0.2129226   -3.5151612    1.5810354  1177376 
 6610000    1.4115732    -3.514243   -1.9338063   0.21421397    -3.514243    1.5804367  1177397 
 6611000    1.4114516   -3.5146945   -1.9344301   0.21276586   -3.5146945    1.5802643  1177424 
 6612000    1.4110874   -3.5145112   -1.9346909   0.21770523   -3.5145112    1.5798203  1177451 
 6613000     1.411529   -3.5152472   -1.9349687   0.21351212   -3.5152472    1.5802785  1177478 
 6614000    1.4120954   -3.5153491   -1.9344728   0.21293162   -3.5153491    1.5808764  1177505 
 6615000    1.4115537   -3.5146915   -1.9344605   0.21552416   -3.5146915     1.580231  1177534 
 6616000    1.4112467   -3.5144182   -1.9345658   0.22132186   -3.5144182    1.5798524  1177560 
 6617000    1.4116304   -3.5153221   -1.9350818   0.21505635   -3.5153221    1.5802403  1177591 
 6618000    1.4097135   -3.5138275   -1.9357771   0.21677972   -3.5138275    1.5780503  1177624 
 6619000    1.4116912   -3.5158378   -1.9356112     0.208875   -3.5158378    1.5802266  1177652 
 6620000    1.4122512    -3.515945   -1.9351305   0.21108787    -3.515945    1.5808145  1177681 
 6621000    1.4115435   -3.5145315   -1.9345562   0.21143956   -3.5145315    1.5799753  1177716 
 6622000    1.4127468   -3.5160988   -1.9348209   0.21065389   -3.5160988     1.581278  1177749 
 6623000    1.4122628   -3.5158398   -1.9351344   0.20946323   -3.5158398    1.5807054  1177772 
 6624000     1.411831   -3.5148849   -1.9347138   0.21058311   -3.5148849     1.580171  1177810 
 6625000    1.4113264   -3.5148684    -1.935301   0.21314659   -3.5148684    1.5795674  1177839 
 6626000    1.4112066     -3.51501   -1.9356128   0.21307578     -3.51501    1.5793971  1177866 
 6627000    1.4108279   -3.5143856   -1.9354566   0.21289366   -3.5143856     1.578929  1177899 
 6628000    1.4116578   -3.5154954   -1.9356738   0.20883451   -3.5154954    1.5798216  1177926 
 6629000    1.4110046   -3.5149617   -1.9359153   0.20910891   -3.5149617    1.5790464  1177959 
 6630000    1.4118381   -3.5162209   -1.9362793   0.21574304   -3.5162209    1.5799416  1177987 
 6631000    1.4120195   -3.5166686   -1.9365616   0.21098258   -3.5166686     1.580107  1178015 
 6632000    1.4122898    -3.516965   -1.9366025   0.21234162    -3.516965    1.5803626  1178050 
 6633000    1.4108865   -3.5152061   -1.9364394   0.21429061   -3.5152061    1.5787667  1178069 
 6634000     1.411829   -3.5154451   -1.9356612   0.21460041   -3.5154451    1.5797839  1178097 
 6635000    1.4125782   -3.5169079   -1.9363246   0.21283272   -3.5169079    1.5805833  1178126 
 6636000    1.4114392   -3.5154698   -1.9361931   0.21709685   -3.5154698    1.5792766  1178150 
 6637000    1.4130611   -3.5172277   -1.9361632   0.21362491   -3.5172277    1.5810645  1178170 
 6638000    1.4131011   -3.5176333   -1.9365776   0.21207028   -3.5176333    1.5810557  1178210 
 6639000    1.4135395   -3.5182979   -1.9367946   0.20728302   -3.5182979    1.5815032  1178242 
 6640000    1.4128279   -3.5177157   -1.9370315   0.21277424   -3.5177157    1.5806842  1178259 
 6641000    1.4121134   -3.5178869   -1.9380449   0.21522177   -3.5178869     1.579842  1178291 
 6642000    1.4115234   -3.5176861   -1.9385432    0.2146697   -3.5176861     1.579143  1178320 
 6643000    1.4113366   -3.5165558     -1.93767   0.21390415   -3.5165558    1.5788858  1178356 
 6644000    1.4109865   -3.5166391   -1.9381959   0.21428119   -3.5166391    1.5784432  1178394 
 6645000    1.4123501   -3.5182326   -1.9382988   0.20854362   -3.5182326    1.5799338  1178420 
 6646000    1.4119335   -3.5174543   -1.9380375   0.21041536   -3.5174543    1.5794169  1178458 
 6647000    1.4110522   -3.5170663   -1.9386742   0.21077589   -3.5170663    1.5783921  1178487 
 6648000    1.4108227   -3.5171826    -1.939086   0.21493407   -3.5171826    1.5780966  1178516 
 6649000    1.4107494   -3.5174641   -1.9395031   0.21101265   -3.5174641    1.5779611  1178556 
 6650000    1.4106155    -3.517308   -1.9395342    0.2094078    -3.517308    1.5777738  1178584 
 6651000    1.4110124   -3.5178565   -1.9396722   0.21353297   -3.5178565    1.5781843  1178609 
 6652000    1.4118061   -3.5184424   -1.9394012   0.20875339   -3.5184424    1.5790412  1178632 
 6653000    1.4120134   -3.5178821   -1.9386599    0.2133466   -3.5178821    1.5792221  1178670 
 6654000    1.4130006   -3.5191701   -1.9388747   0.21162837   -3.5191701    1.5802954  1178693 
 6655000    1.4116857   -3.5179253   -1.9391326   0.21585746   -3.5179253    1.5787927  1178717 
 6656000    1.4110963   -3.5180698   -1.9399751   0.21283617   -3.5180698    1.5780946  1178746 
 6657000    1.4118075   -3.5188782   -1.9400124   0.21228545   -3.5188782    1.5788659  1178764 
 6658000    1.4118668   -3.5189981   -1.9401021   0.21134836   -3.5189981     1.578896  1178791 
 6659000    1.4117447   -3.5192097   -1.9405037   0.21157319   -3.5192097     1.578706  1178831 
 6660000    1.4138467   -3.5211324   -1.9401282   0.21058692   -3.5211324    1.5810042  1178870 
 6661000    1.4115758   -3.5188181     -1.94038   0.21415466   -3.5188181    1.5784381  1178890 
 6662000    1.4118496   -3.5195596   -1.9408555   0.21368349   -3.5195596    1.5787041  1178920 
 6663000    1.4119209   -3.5185496   -1.9398019   0.21524849   -3.5185496    1.5787477  1178947 
 6664000    1.4122243   -3.5189891   -1.9399398   0.21339422   -3.5189891    1.5790493  1178975 
 6665000     1.411935   -3.5186943   -1.9400019   0.21325953   -3.5186943    1.5786924  1179000 
 6666000    1.4114563   -3.5187163   -1.9406006   0.21545891   -3.5187163    1.5781157  1179031 
 6667000    1.4129923   -3.5201731    -1.940383   0.21126061   -3.5201731    1.5797901  1179063 
 6668000    1.4127302   -3.5195404   -1.9400808   0.21682886   -3.5195404    1.5794596  1179091 
 6669000    1.4128783   -3.5200469   -1.9404526   0.21349856   -3.5200469    1.5795944  1179114 
 6670000    1.4123102   -3.5195671   -1.9406373   0.21392557   -3.5195671    1.5789298  1179136 
 6671000    1.4125751   -3.5190442   -1.9398637   0.21435602   -3.5190442    1.5791805  1179170 
 6672000    1.4112318   -3.5183475    -1.940709   0.21521821   -3.5183475    1.5776386  1179200 
 6673000    1.4126728   -3.5198795   -1.9406782   0.21145019   -3.5198795    1.5792012  1179236 
 6674000    1.4127268   -3.5194233   -1.9402005   0.21185158   -3.5194233    1.5792228  1179265 
 6675000    1.4133878   -3.5197518   -1.9398156   0.21411975   -3.5197518    1.5799363  1179284 
 6676000    1.4125226   -3.5197006   -1.9407757   0.21075673   -3.5197006    1.5789249  1179317 
 6677000    1.4127247   -3.5203062   -1.9411821    0.2087156   -3.5203062     1.579124  1179337 
 6678000    1.4114216   -3.5192993   -1.9416654   0.21441081   -3.5192993     1.577634  1179362 
 6679000    1.4121783   -3.5204129   -1.9419665   0.21094228   -3.5204129    1.5784464  1179387 
 6680000    1.4125865   -3.5204719   -1.9416068   0.20828877   -3.5204719    1.5788651  1179415 
 6681000    1.4118829   -3.5200778   -1.9420313   0.20930627   -3.5200778    1.5780466  1179439 
 6682000    1.4122939   -3.5204552     -1.94198   0.21139604   -3.5204552    1.5784751  1179462 
 6683000    1.4119821   -3.5197694   -1.9416802   0.20999666   -3.5197694    1.5780892  1179490 
 6684000    1.4124361   -3.5206141    -1.942059   0.21467969   -3.5206141    1.5785551  1179521 
 6685000     1.412142   -3.5204454   -1.9422711   0.21145092   -3.5204454    1.5781742  1179560 
 6686000    1.4109822   -3.5188105   -1.9419565   0.21676591   -3.5188105    1.5768541  1179578 
 6687000    1.4115868   -3.5198818   -1.9423922   0.21276915   -3.5198818    1.5774896  1179608 
 6688000    1.4122643   -3.5203385   -1.9421346   0.21355665   -3.5203385    1.5782039  1179640 
 6689000    1.4130642   -3.5214555   -1.9423858   0.21351636   -3.5214555    1.5790697  1179661 
 6690000    1.4126899   -3.5207496   -1.9421249   0.21828098   -3.5207496    1.5786246  1179681 
 6691000     1.412278   -3.5213028   -1.9431652   0.21522743   -3.5213028    1.5781376  1179701 
 6692000     1.411755   -3.5205441   -1.9430283     0.214347   -3.5205441    1.5775157  1179729 
 6693000    1.4136516   -3.5221291   -1.9425395   0.21509122   -3.5221291    1.5795896  1179763 
 6694000    1.4125496    -3.521751   -1.9434329   0.21293158    -3.521751    1.5783181  1179793 
 6695000    1.4130576   -3.5219973   -1.9431572   0.21771285   -3.5219973    1.5788402  1179827 
 6696000    1.4129537   -3.5216752   -1.9429953   0.21226001   -3.5216752    1.5786799  1179860 
 6697000    1.4123327   -3.5206511   -1.9426972   0.21588047   -3.5206511     1.577954  1179884 
 6698000    1.4136439   -3.5222752   -1.9428856   0.21699703   -3.5222752    1.5793895  1179906 
 6699000    1.4129526   -3.5215935   -1.9430192   0.21381985   -3.5215935    1.5785743  1179938 
 6700000    1.4126391   -3.5221594   -1.9439701   0.21028446   -3.5221594    1.5781892  1179964 
 6701000    1.4138947   -3.5233979   -1.9438353   0.21071632   -3.5233979    1.5795626  1179986 
 6702000    1.4121789   -3.5210534   -1.9434451   0.21298498   -3.5210534    1.5776083  1180014 
 6703000    1.4123942   -3.5220145   -1.9441979   0.20749945   -3.5220145    1.5778167  1180038 
 6704000    1.4111527   -3.5207316   -1.9443312   0.21166054   -3.5207316    1.5764004  1180060 
 6705000    1.4109817   -3.5202866   -1.9441186   0.21357153   -3.5202866     1.576168  1180091 
 6706000    1.4130546   -3.5219517   -1.9434988   0.21590803   -3.5219517    1.5784529  1180114 
 6707000    1.4124691   -3.5210562   -1.9433003   0.21564649   -3.5210562     1.577756  1180146 
 6708000    1.4122491   -3.5207612   -1.9432871   0.21415406   -3.5207612    1.5774741  1180173 
 6709000    1.4130594   -3.5215757   -1.9432178   0.21195274   -3.5215757    1.5783579  1180189 
 6710000    1.4130486   -3.5214061   -1.9431125   0.21379029   -3.5214061    1.5782936  1180228 
 6711000    1.4127208   -3.5204741    -1.942572   0.21518685   -3.5204741    1.5779021  1180247 
 6712000    1.4120902   -3.5203654   -1.9431957   0.21690921   -3.5203654    1.5771697  1180268 
 6713000    1.4134808   -3.5226441     -1.94396   0.21466558   -3.5226441    1.5786841  1180297 
 6714000    1.4137255   -3.5226132   -1.9436918   0.21513086   -3.5226132    1.5789213  1180324 
 6715000    1.4138865   -3.5226973   -1.9436163   0.20999275   -3.5226973    1.5790811  1180339 
 6716000    1.4137304   -3.5233633   -1.9444833   0.21078334   -3.5233633      1.57888  1180359 
 6717000    1.4128719   -3.5223427   -1.9444643     0.212461   -3.5223427    1.5778784  1180391 
 6718000    1.4133719   -3.5228351   -1.9444317   0.21214834   -3.5228351    1.5784034  1180416 
 6719000    1.4140467   -3.5236295   -1.9445087   0.21276356   -3.5236295    1.5791208  1180443 
 6720000    1.4130103   -3.5230402   -1.9451141   0.21480324   -3.5230402     1.577926  1180471 
 6721000    1.4125576   -3.5223834   -1.9449923   0.21880679   -3.5223834    1.5773911  1180493 
 6722000      1.41368   -3.5238994   -1.9453044   0.21235161   -3.5238994     1.578595  1180530 
 6723000    1.4123917   -3.5232508   -1.9461344   0.21494938   -3.5232508    1.5771163  1180560 
 6724000    1.4138633   -3.5249717   -1.9462496   0.21097878   -3.5249717    1.5787221  1180588 
 6725000    1.4131534   -3.5239672   -1.9460832   0.21478637   -3.5239672     1.577884  1180622 
 6726000     1.412732    -3.524697   -1.9473169   0.21358189    -3.524697    1.5773801  1180647 
 6727000    1.4126594   -3.5243447   -1.9470792    0.2129117   -3.5243447    1.5772655  1180672 
 6728000    1.4136245   -3.5253979    -1.947111   0.21194041   -3.5253979    1.5782869  1180714 
 6729000     1.413371   -3.5246147   -1.9466427   0.21368246   -3.5246147    1.5779719  1180738 
 6730000    1.4143974   -3.5252576   -1.9461812   0.21353157   -3.5252576    1.5790764  1180769 
 6731000    1.4141017   -3.5256769   -1.9469547   0.21335332   -3.5256769    1.5787222  1180787 
 6732000    1.4138264   -3.5251537   -1.9467629   0.21721945   -3.5251537    1.5783908  1180805 
 6733000    1.4126176   -3.5237448   -1.9467489   0.21425196   -3.5237448    1.5769958  1180839 
 6734000    1.4126973   -3.5234331   -1.9463803   0.21632454   -3.5234331    1.5770528  1180863 
 6735000    1.4135141   -3.5242399   -1.9463047   0.21470747   -3.5242399    1.5779352  1180885 
 6736000    1.4123102   -3.5232718    -1.946714   0.21716069   -3.5232718    1.5765579  1180910 
 6737000    1.4135649   -3.5250416   -1.9471232   0.21465572   -3.5250416    1.5779184  1180940 
 6738000    1.4124588   -3.5234177     -1.94677   0.21649314   -3.5234177    1.5766476  1180967 
 6739000    1.4137024   -3.5242877   -1.9462866   0.21214672   -3.5242877    1.5780011  1180993 
 6740000    1.4137585   -3.5243698   -1.9463449   0.21433644   -3.5243698    1.5780249  1181022 
 6741000    1.4140398   -3.5252357   -1.9469128   0.21649346   -3.5252357    1.5783229  1181034 
 6742000    1.4137979   -3.5246956   -1.9466748   0.20946566   -3.5246956    1.5780209  1181058 
 6743000    1.4132273   -3.5237484   -1.9463911   0.21840562   -3.5237484    1.5773572  1181078 
 6744000    1.4141148   -3.5246573   -1.9463496   0.21384099   -3.5246573    1.5783077  1181108 
 6745000    1.4148336   -3.5257936   -1.9467398   0.21292051   -3.5257936    1.5790538  1181150 
 6746000    1.4139222   -3.5244637   -1.9464551   0.21461267   -3.5244637    1.5780086  1181171 
 6747000    1.4144085   -3.5241733    -1.945654   0.21229798   -3.5241733    1.5785193  1181195 
 6748000     1.415156   -3.5256984    -1.946385   0.21223938   -3.5256984    1.5793134  1181225 
 6749000    1.4144493   -3.5249049   -1.9464109   0.21335137   -3.5249049     1.578494  1181248 
 6750000    1.4141573   -3.5245298   -1.9464031   0.21810288   -3.5245298    1.5781267  1181279 
 6751000     1.414557   -3.5250047   -1.9464761   0.21625814   -3.5250047    1.5785287  1181312 
 6752000    1.4131403   -3.5231494   -1.9462377   0.21538384   -3.5231494    1.5769117  1181339 
 6753000    1.4141656   -3.5253724    -1.947346   0.21158254   -3.5253724    1.5780264  1181361 
 6754000    1.4147109   -3.5256036   -1.9470061   0.21102779   -3.5256036    1.5785975  1181389 
 6755000    1.4140012   -3.5257453   -1.9479664   0.21469323   -3.5257453    1.5777789  1181409 
 6756000    1.4131079   -3.5247069   -1.9479542   0.21685232   -3.5247069    1.5767527  1181431 
 6757000    1.4146453   -3.5263329   -1.9479047   0.21559726   -3.5263329    1.5784281  1181461 
 6758000    1.4141809   -3.5258568   -1.9479816    0.2134139   -3.5258568    1.5778752  1181487 
 6759000    1.4141428    -3.526022    -1.948212   0.21453665    -3.526022      1.57781  1181504 
 6760000    1.4153433   -3.5272081   -1.9481001   0.21376661   -3.5272081     1.579108  1181535 
 6761000    1.4150911   -3.5275162   -1.9487337   0.21342053   -3.5275162    1.5787825  1181568 
 6762000    1.4151719   -3.5273847   -1.9485602   0.21075479   -3.5273847    1.5788246  1181604 
 6763000    1.4137904   -3.5258031   -1.9485611   0.21516483   -3.5258031     1.577242  1181635 
 6764000    1.4148278   -3.5274786   -1.9491127    0.2122582   -3.5274786    1.5783659  1181660 
 6765000    1.4143381   -3.5267831   -1.9489956   0.21199606   -3.5267831    1.5777875  1181684 
 6766000    1.4137423   -3.5259741   -1.9488859   0.21531117   -3.5259741    1.5770881  1181710 
 6767000    1.4146568   -3.5270094   -1.9489318   0.21624777   -3.5270094    1.5780776  1181733 
 6768000    1.4149853    -3.527432   -1.9490361    0.2164922    -3.527432    1.5783959  1181769 
 6769000    1.4149109    -3.527172   -1.9489044   0.21411525    -3.527172    1.5782676  1181803 
 6770000     1.414503   -3.5261472   -1.9483574   0.21396589   -3.5261472    1.5777898  1181820 
 6771000    1.4148868   -3.5267856    -1.948605   0.21223768   -3.5267856    1.5781806  1181848 
 6772000    1.4146717   -3.5269292    -1.949026   0.21626097   -3.5269292    1.5779033  1181876 
 6773000    1.4142315   -3.5268245   -1.9494375   0.21089539   -3.5268245    1.5773869  1181895 
 6774000    1.4143685   -3.5268249   -1.9493052   0.21000187   -3.5268249    1.5775197  1181910 
 6775000    1.4141571   -3.5266475   -1.9493956   0.21750871   -3.5266475    1.5772519  1181934 
 6776000    1.4148044   -3.5267828    -1.948845   0.21248163   -3.5267828    1.5779378  1181961 
 6777000    1.4135284   -3.5262857   -1.9497977   0.21751576   -3.5262857     1.576488  1181981 
 6778000    1.4144141    -3.527244   -1.9498029   0.21281167    -3.527244    1.5774411  1182007 
 6779000    1.4128923   -3.5255085   -1.9498073   0.22151741   -3.5255085    1.5757012  1182039 
 6780000    1.4148125   -3.5276226   -1.9498173   0.21246588   -3.5276226    1.5778053  1182067 
 6781000    1.4145283   -3.5275346   -1.9500809   0.21134438   -3.5275346    1.5774537  1182093 
 6782000    1.4138005   -3.5269475   -1.9503415   0.21144661   -3.5269475    1.5766061  1182120 
 6783000    1.4149639   -3.5281562   -1.9502901   0.21320262   -3.5281562    1.5778661  1182148 
 6784000    1.4132994   -3.5265598   -1.9505832   0.21536505   -3.5265598    1.5759766  1182173 
 6785000    1.4156955   -3.5283095    -1.949689   0.21253915   -3.5283095    1.5786205  1182194 
 6786000    1.4150172   -3.5277658   -1.9499363   0.21705342   -3.5277658    1.5778294  1182220 
 6787000    1.4154469   -3.5281368   -1.9498469   0.21593887   -3.5281368    1.5782898  1182234 
 6788000    1.4145332   -3.5273398   -1.9500994   0.21812726   -3.5273398    1.5772404  1182257 
 6789000    1.4154299   -3.5287871   -1.9505923   0.21379248   -3.5287871    1.5781948  1182291 
 6790000    1.4140649   -3.5276586    -1.951015   0.21913858   -3.5276586    1.5766435  1182313 
 6791000     1.414337   -3.5284161   -1.9515172   0.21756424   -3.5284161    1.5768989  1182349 
 6792000    1.4141298     -3.52871   -1.9520689   0.21570445     -3.52871    1.5766411  1182369 
 6793000    1.4143023   -3.5285735   -1.9517786   0.21648927   -3.5285735    1.5767948  1182398 
 6794000    1.4144361   -3.5289922   -1.9520976   0.21750831   -3.5289922    1.5768947  1182435 
 6795000    1.4153094   -3.5297658   -1.9519416   0.21562403   -3.5297658    1.5778242  1182468 
 6796000    1.4151228   -3.5292625   -1.9516797   0.21787774   -3.5292625    1.5775828  1182493 
 6797000    1.4153499   -3.5296913   -1.9518887   0.21026922   -3.5296913    1.5778026  1182518 
 6798000    1.4141489   -3.5286465    -1.952216   0.21725154   -3.5286465    1.5764305  1182543 
 6799000     1.414926   -3.5302561   -1.9529914   0.21160807   -3.5302561    1.5772647  1182567 
 6800000    1.4139979   -3.5291324   -1.9529409   0.21828467   -3.5291324    1.5761915  1182596 
 6801000    1.4153111   -3.5303049   -1.9526909   0.21395614   -3.5303049     1.577614  1182627 
 6802000    1.4153613   -3.5302137   -1.9525744   0.21665039   -3.5302137    1.5776393  1182650 
 6803000    1.4140951    -3.528526   -1.9523408   0.21877406    -3.528526    1.5761852  1182682 
 6804000    1.4157932   -3.5303124   -1.9522745   0.21642141   -3.5303124    1.5780379  1182712 
 6805000    1.4150948   -3.5292787   -1.9520606   0.21548213   -3.5292787    1.5772182  1182743 
 6806000    1.4154127   -3.5299149    -1.952389   0.21667925   -3.5299149    1.5775259  1182778 
 6807000    1.4146732   -3.5289188   -1.9522451   0.21543275   -3.5289188    1.5766737  1182799 
 6808000    1.4160592   -3.5297354   -1.9515517   0.21846164   -3.5297354    1.5781837  1182825 
 6809000    1.4163888   -3.5300618   -1.9515508   0.21660529   -3.5300618     1.578511  1182855 
 6810000    1.4165005   -3.5292245   -1.9506131   0.21168312   -3.5292245    1.5786114  1182873 
 6811000    1.4155831   -3.5286741   -1.9511172   0.21782503   -3.5286741     1.577557  1182897 
 6812000     1.415825   -3.5292526   -1.9514593   0.21799438   -3.5292526    1.5777932  1182922 
 6813000    1.4159899    -3.529022   -1.9510758    0.2179162    -3.529022    1.5779463  1182945 
 6814000    1.4166106   -3.5292388   -1.9506354     0.215682   -3.5292388    1.5786034  1182971 
 6815000    1.4167143   -3.5296354   -1.9509473   0.22012278   -3.5296354    1.5786882  1182994 
 6816000    1.4156265    -3.528596    -1.951172   0.21717598    -3.528596     1.577424  1183033 
 6817000      1.41651    -3.530156   -1.9517902       0.2102    -3.530156    1.5783658  1183065 
 6818000    1.4161324    -3.530268   -1.9523576   0.21754982    -3.530268    1.5779104  1183091 
 6819000    1.4168318   -3.5307729   -1.9521192   0.21814705   -3.5307729    1.5786536  1183118 
 6820000    1.4166392   -3.5303315   -1.9519271   0.21389229   -3.5303315    1.5784044  1183144 
 6821000    1.4161928   -3.5303855   -1.9525198   0.21343099   -3.5303855    1.5778657  1183175 
 6822000    1.4163622   -3.5311008   -1.9530864   0.21389136   -3.5311008    1.5780144  1183205 
 6823000    1.4164976    -3.531222   -1.9530861   0.21421698    -3.531222     1.578136  1183227 
 6824000    1.4171365   -3.5316694   -1.9528604    0.2131267   -3.5316694     1.578809  1183256 
 6825000    1.4157209   -3.5301725   -1.9529673   0.22006013   -3.5301725    1.5772052  1183276 
 6826000    1.4151329   -3.5298892   -1.9533643   0.21695178   -3.5298892    1.5765248  1183295 
 6827000    1.4160243   -3.5310865   -1.9535899   0.21366662   -3.5310865    1.5774966  1183311 
 6828000    1.4160007   -3.5306733   -1.9532457   0.21954435   -3.5306733    1.5774277  1183343 
 6829000    1.4164079   -3.5316552   -1.9538273   0.21581608   -3.5316552    1.5778279  1183383 
 6830000    1.4162056   -3.5320178   -1.9544459   0.21479309   -3.5320178    1.5775719  1183406 
 6831000    1.4159463   -3.5312081   -1.9539584   0.21946593   -3.5312081    1.5772497  1183431 
 6832000    1.4167567     -3.53185   -1.9537495   0.21645569     -3.53185    1.5781005  1183470 
 6833000     1.416003   -3.5308511   -1.9536289   0.21941583   -3.5308511    1.5772222  1183499 
 6834000    1.4171311   -3.5323133   -1.9538705   0.21491029   -3.5323133    1.5784428  1183526 
 6835000    1.4178627   -3.5330797   -1.9538514   0.21495953   -3.5330797    1.5792283  1183548 
 6836000    1.4169366   -3.5314563   -1.9532901   0.21897421   -3.5314563    1.5781662  1183571 
 6837000    1.4161716   -3.5304695    -1.953198   0.21916256   -3.5304695    1.5772715  1183603 
 6838000    1.4162923   -3.5308053   -1.9534301   0.21856023   -3.5308053    1.5773752  1183626 
 6839000    1.4161912   -3.5311621   -1.9539274   0.21918642   -3.5311621    1.5772347  1183647 
 6840000    1.4170336   -3.5315294   -1.9534098   0.21563805   -3.5315294    1.5781196  1183687 
 6841000     1.417141   -3.5325468   -1.9543489   0.21280821   -3.5325468    1.5781978  1183718 
 6842000    1.4169357   -3.5322447   -1.9543169   0.21341111   -3.5322447    1.5779279  1183749 
 6843000    1.4159499   -3.5310252   -1.9542364   0.21793075   -3.5310252    1.5767888  1183780 
 6844000    1.4168671   -3.5325517   -1.9547735   0.21437919   -3.5325517    1.5777782  1183804 
 6845000    1.4168266   -3.5321735   -1.9544684   0.21373339   -3.5321735    1.5777051  1183825 
 6846000    1.4176365   -3.5326261   -1.9540538   0.21619531   -3.5326261    1.5785723  1183851 
 6847000    1.4172712   -3.5330198   -1.9548849   0.21397427   -3.5330198    1.5781349  1183874 
 6848000    1.4167168    -3.532234   -1.9547578   0.21255822    -3.532234    1.5774762  1183905 
 6849000    1.4173232   -3.5329327   -1.9548119   0.21223828   -3.5329327    1.5781208  1183928 
 6850000    1.4162575   -3.5313934   -1.9544925   0.21712321   -3.5313934    1.5769009  1183953 
 6851000    1.4172922   -3.5318171   -1.9537882   0.21695158   -3.5318171    1.5780289  1183971 
 6852000    1.4181336   -3.5329336   -1.9540038   0.21330845   -3.5329336    1.5789298  1183998 
 6853000    1.4168073   -3.5314617   -1.9540487   0.21955989   -3.5314617    1.5774131  1184028 
 6854000    1.4167456   -3.5314314   -1.9541149   0.22016012   -3.5314314    1.5773165  1184049 
 6855000    1.4176013   -3.5328251   -1.9545934   0.21262568   -3.5328251    1.5782318  1184077 
 6856000    1.4172033   -3.5322468   -1.9545034   0.22193494   -3.5322468    1.5777434  1184111 
 6857000    1.4176313   -3.5327146   -1.9545441   0.21871743   -3.5327146    1.5781705  1184148 
 6858000    1.4173749   -3.5318012     -1.95394   0.22035374   -3.5318012    1.5778611  1184166 
 6859000    1.4182134   -3.5327201   -1.9539776   0.21975502   -3.5327201    1.5787425  1184205 
 6860000     1.417212   -3.5328255   -1.9552216    0.2193875   -3.5328255    1.5776039  1184223 
 6861000    1.4179655   -3.5344247   -1.9560194   0.21351657   -3.5344247    1.5784052  1184251 
 6862000    1.4174958   -3.5339111   -1.9560619   0.21530162   -3.5339111    1.5778492  1184276 
 6863000    1.4172767   -3.5340219   -1.9564459   0.21550942   -3.5340219    1.5775759  1184298 
 6864000     1.416752   -3.5333157   -1.9563598   0.21665196   -3.5333157    1.5769559  1184325 
 6865000    1.4162558   -3.5328527   -1.9564757   0.21877225   -3.5328527     1.576377  1184345 
 6866000    1.4154879   -3.5324997   -1.9570027   0.21898174   -3.5324997     1.575497  1184364 
 6867000    1.4160109   -3.5332661   -1.9572255   0.21958109   -3.5332661    1.5760405  1184393 
 6868000    1.4173903   -3.5346409   -1.9570917   0.21180998   -3.5346409    1.5775492  1184413 
 6869000    1.4171211   -3.5345576   -1.9573506   0.21481648   -3.5345576     1.577207  1184445 
 6870000    1.4168143   -3.5342883   -1.9574813   0.21226479   -3.5342883     1.576807  1184489 
 6871000    1.4175512   -3.5349698   -1.9573707   0.21516103   -3.5349698    1.5775991  1184510 
 6872000    1.4168124   -3.5343408   -1.9576065   0.21518164   -3.5343408    1.5767343  1184542 
 6873000    1.4168536    -3.535082   -1.9583338   0.21745342    -3.535082    1.5767482  1184566 
 6874000    1.4172337   -3.5353635    -1.958219   0.21357468   -3.5353635    1.5771446  1184586 
 6875000    1.4179473   -3.5360815   -1.9581947   0.21029918   -3.5360815    1.5778868  1184625 
 6876000    1.4155516   -3.5337624   -1.9585642   0.21725458   -3.5337624    1.5751982  1184642 
 6877000    1.4164662   -3.5347428   -1.9585654   0.21266282   -3.5347428    1.5761774  1184671 
 6878000    1.4164217   -3.5346324   -1.9585312   0.21880696   -3.5346324    1.5761012  1184691 
 6879000    1.4157435   -3.5341121   -1.9588027   0.21721352   -3.5341121    1.5753094  1184719 
 6880000    1.4156396   -3.5338193   -1.9586628   0.22021074   -3.5338193    1.5751565  1184747 
 6881000    1.4162917   -3.5345531   -1.9587109   0.21980594   -3.5345531    1.5758422  1184777 
 6882000    1.4173894   -3.5356263   -1.9586014   0.21839411   -3.5356263    1.5770249  1184806 
 6883000    1.4174623   -3.5358001   -1.9587327   0.21797806   -3.5358001    1.5770675  1184835 
 6884000    1.4175086   -3.5362919   -1.9592022   0.21571921   -3.5362919    1.5770897  1184857 
 6885000    1.4164078   -3.5348075   -1.9589731   0.22197675   -3.5348075    1.5758343  1184880 
 6886000    1.4170473   -3.5353086   -1.9588013   0.21610828   -3.5353086    1.5765073  1184909 
 6887000    1.4167927   -3.5352334   -1.9590413    0.2167114   -3.5352334    1.5761921  1184933 
 6888000    1.4166033   -3.5346592    -1.958715   0.21993889   -3.5346592    1.5759442  1184961 
 6889000    1.4176336   -3.5361935   -1.9591418   0.21544151   -3.5361935    1.5770517  1184990 
 6890000    1.4166549    -3.535156   -1.9592249   0.21588012    -3.535156    1.5759311  1185014 
 6891000    1.4177377     -3.53598    -1.958891   0.21819058     -3.53598     1.577089  1185049 
 6892000    1.4167901   -3.5348909   -1.9588945   0.22053915   -3.5348909    1.5759963  1185078 
 6893000    1.4174788   -3.5354284   -1.9587099     0.219859   -3.5354284    1.5767186  1185111 
 6894000    1.4168586   -3.5342327   -1.9582333   0.21898365   -3.5342327    1.5759994  1185133 
 6895000    1.4181819   -3.5355779   -1.9581479   0.21369463   -3.5355779      1.57743  1185164 
 6896000    1.4179351   -3.5356578   -1.9585409   0.21702417   -3.5356578    1.5771169  1185193 
 6897000    1.4170019     -3.53452    -1.958473   0.21978443     -3.53452     1.576047  1185217 
 6898000    1.4184956    -3.535797   -1.9581205    0.2171334    -3.535797    1.5776765  1185241 
 6899000     1.418688   -3.5358146     -1.95796   0.21554023   -3.5358146    1.5778546  1185268 
 6900000    1.4175446   -3.5348097   -1.9582615   0.21568625   -3.5348097    1.5765482  1185294 
 6901000    1.4182646   -3.5350061   -1.9576916    0.2198271   -3.5350061    1.5773145  1185320 
 6902000    1.4182122   -3.5352616   -1.9580454    0.2168885   -3.5352616    1.5772163  1185350 
 6903000    1.4177203    -3.535422   -1.9587927   0.21754604    -3.535422    1.5766293  1185380 
 6904000     1.418878   -3.5364852   -1.9586071   0.21324209   -3.5364852    1.5778782  1185409 
 6905000    1.4178961   -3.5351963   -1.9584514   0.22051255   -3.5351963    1.5767449  1185440 
 6906000    1.4192671   -3.5369572   -1.9587115    0.2154351   -3.5369572    1.5782457  1185458 
 6907000    1.4186285   -3.5361997   -1.9586909   0.22055208   -3.5361997    1.5775088  1185478 
 6908000    1.4183618   -3.5355896   -1.9584066   0.22115272   -3.5355896     1.577183  1185500 
 6909000    1.4189017   -3.5362794   -1.9585319   0.21772991   -3.5362794    1.5777475  1185527 
 6910000    1.4179579   -3.5356517   -1.9589816   0.21872935   -3.5356517    1.5766701  1185548 
 6911000     1.418643   -3.5369772   -1.9595799   0.21761941   -3.5369772    1.5773973  1185574 
 6912000    1.4187529    -3.536845   -1.9593707   0.21627113    -3.536845    1.5774742  1185608 
 6913000     1.417576   -3.5366484   -1.9605053   0.22186223   -3.5366484    1.5761431  1185625 
 6914000    1.4179766   -3.5372128   -1.9606549   0.21677727   -3.5372128    1.5765579  1185648 
 6915000     1.417905   -3.5366952   -1.9602542   0.21644272   -3.5366952     1.576441  1185676 
 6916000    1.4179793   -3.5369706   -1.9604801   0.21442965   -3.5369706    1.5764905  1185701 
 6917000    1.4176364   -3.5368171   -1.9607464   0.21768359   -3.5368171    1.5760707  1185730 
 6918000    1.4184468   -3.5378844   -1.9609461   0.21724946   -3.5378844    1.5769383  1185755 
 6919000    1.4174215   -3.5372733   -1.9614934   0.21481476   -3.5372733    1.5757799  1185769 
 6920000    1.4177607    -3.537487   -1.9613686   0.22011257    -3.537487    1.5761184  1185798 
 6921000    1.4176585   -3.5369128   -1.9609359   0.21983667   -3.5369128    1.5759769  1185819 
 6922000    1.4181161   -3.5374619   -1.9610122   0.21335848   -3.5374619    1.5764497  1185846 
 6923000    1.4183403   -3.5373271   -1.9606774   0.22207784   -3.5373271    1.5766497  1185883 
 6924000    1.4196644   -3.5386184   -1.9605234   0.21635454   -3.5386184     1.578095  1185903 
 6925000     1.418407   -3.5375727    -1.960914   0.21613217   -3.5375727    1.5766587  1185932 
 6926000    1.4173921   -3.5378607     -1.96237   0.21826476   -3.5378607    1.5754908  1185962 
 6927000    1.4185569   -3.5384878   -1.9617609   0.22300573   -3.5384878    1.5767269  1186006 
 6928000    1.4179924   -3.5381729   -1.9621119    0.2173457   -3.5381729     1.576061  1186035 
 6929000     1.418656   -3.5393208   -1.9625488   0.21566172   -3.5393208     1.576772  1186055 
 6930000    1.4180421   -3.5383063   -1.9622551   0.21802134   -3.5383063    1.5760512  1186084 
 6931000    1.4184284   -3.5386462   -1.9622083   0.21751119   -3.5386462     1.576438  1186116 
 6932000    1.4181345   -3.5385639   -1.9624938   0.21677165   -3.5385639    1.5760701  1186147 
 6933000    1.4184885   -3.5389697   -1.9625301   0.21793833   -3.5389697    1.5764396  1186165 
 6934000    1.4190554   -3.5394751   -1.9624427   0.21942887   -3.5394751    1.5770324  1186193 
 6935000    1.4184921   -3.5386792   -1.9623059   0.21714477   -3.5386792    1.5763732  1186218 
 6936000    1.4179527   -3.5381874   -1.9624508   0.21886492   -3.5381874    1.5757366  1186246 
 6937000      1.41775   -3.5383821   -1.9629014    0.2173796   -3.5383821    1.5754807  1186269 
 6938000    1.4172942   -3.5381986   -1.9632615   0.21674623   -3.5381986     1.574937  1186297 
 6939000    1.4174686   -3.5378629   -1.9627612   0.21836981   -3.5378629    1.5751017  1186319 
 6940000    1.4194929   -3.5401062   -1.9627938   0.22037206   -3.5401062    1.5773125  1186348 
 6941000    1.4195496   -3.5404706   -1.9631269   0.21162479   -3.5404706    1.5773437  1186372 
 6942000    1.4185799   -3.5393835   -1.9631466   0.21502736   -3.5393835    1.5762369  1186394 
 6943000    1.4180436   -3.5387985   -1.9631814   0.22154541   -3.5387985    1.5756171  1186412 
 6944000    1.4174212   -3.5385684   -1.9636761   0.21602426   -3.5385684    1.5748923  1186437 
 6945000    1.4186231     -3.54007   -1.9638768     0.215721     -3.54007    1.5761932  1186463 
 6946000    1.4184937   -3.5395333   -1.9635185   0.21581136   -3.5395333    1.5760149  1186489 
 6947000    1.4178206   -3.5393045   -1.9640746   0.22177607   -3.5393045    1.5752298  1186517 
 6948000    1.4180646   -3.5396036   -1.9641372   0.21330388   -3.5396036    1.5754664  1186543 
 6949000    1.4188265   -3.5400742   -1.9637932   0.21497422   -3.5400742     1.576281  1186567 
 6950000    1.4193047   -3.5402713   -1.9634949   0.21527474   -3.5402713    1.5767764  1186594 
 6951000    1.4191286   -3.5397432    -1.963189   0.22001209   -3.5397432    1.5765542  1186614 
 6952000    1.4192853   -3.5399632   -1.9632773   0.21644919   -3.5399632    1.5766858  1186646 
 6953000    1.4186114   -3.5394365   -1.9635525   0.21872988   -3.5394365     1.575884  1186686 
 6954000    1.4176818   -3.5393952   -1.9645783    0.2234922   -3.5393952    1.5748169  1186712 
 6955000    1.4189159   -3.5397791   -1.9636139   0.21900042   -3.5397791    1.5761652  1186729 
 6956000    1.4200888    -3.541113   -1.9636754   0.21590191    -3.541113    1.5774375  1186752 
 6957000    1.4205574   -3.5417125   -1.9637798   0.21941341   -3.5417125    1.5779327  1186771 
 6958000    1.4199734   -3.5415159   -1.9642584   0.21707097   -3.5415159    1.5772575  1186791 
 6959000    1.4197419   -3.5408513   -1.9638815   0.21641178   -3.5408513    1.5769698  1186814 
 6960000    1.4198878   -3.5404739    -1.963382   0.21832542   -3.5404739     1.577092  1186844 
 6961000    1.4178136   -3.5384731   -1.9637195   0.22133467   -3.5384731    1.5747536  1186870 
 6962000    1.4198507   -3.5400723    -1.963088   0.21743832   -3.5400723    1.5769843  1186894 
 6963000    1.4196681   -3.5403292   -1.9635941   0.21995667   -3.5403292    1.5767351  1186929 
 6964000    1.4195694   -3.5398946   -1.9633037   0.21692632   -3.5398946    1.5765909  1186955 
 6965000    1.4201266    -3.540325   -1.9631525   0.21715851    -3.540325    1.5771724  1186983 
 6966000    1.4194721   -3.5393108   -1.9629116   0.22228904   -3.5393108    1.5763991  1187018 
 6967000    1.4206678   -3.5411433   -1.9634562   0.21854655   -3.5411433    1.5776871  1187048 
 6968000    1.4202942   -3.5397509   -1.9625038   0.22081887   -3.5397509    1.5772471  1187067 
 6969000    1.4205664   -3.5404308   -1.9629121   0.21764506   -3.5404308    1.5775187  1187090 
 6970000    1.4203038   -3.5399475   -1.9627602    0.2221303   -3.5399475    1.5771872  1187120 
 6971000    1.4200066   -3.5402363    -1.963411   0.21952097   -3.5402363    1.5768253  1187144 
 6972000    1.4204971   -3.5405794   -1.9632426   0.21877758   -3.5405794    1.5773368  1187169 
 6973000    1.4197464   -3.5407762   -1.9643129   0.22050152   -3.5407762    1.5764633  1187199 
 6974000    1.4205998   -3.5416656   -1.9642839   0.21516648   -3.5416656    1.5773817  1187221 
 6975000    1.4201502   -3.5412222   -1.9643822   0.21531698   -3.5412222      1.57684  1187253 
 6976000    1.4192832   -3.5411483   -1.9653028   0.21713265   -3.5411483    1.5758455  1187277 
 6977000    1.4193626   -3.5419375   -1.9660411   0.22028632   -3.5419375    1.5758965  1187305 
 6978000    1.4191718   -3.5417349   -1.9660861   0.21576205   -3.5417349    1.5756488  1187332 
 6979000    1.4193124   -3.5418019   -1.9660315   0.22200045   -3.5418019    1.5757704  1187358 
 6980000    1.4183107   -3.5403079    -1.965696   0.22009091   -3.5403079    1.5746119  1187393 
 6981000    1.4196148   -3.5421161   -1.9660816   0.22289965   -3.5421161    1.5760345  1187412 
 6982000    1.4197383   -3.5424075   -1.9662719   0.21574055   -3.5424075    1.5761357  1187439 
 6983000    1.4191427   -3.5413149   -1.9658909   0.22107737   -3.5413149    1.5754241  1187477 
 6984000    1.4190812   -3.5419646   -1.9666354   0.21832811   -3.5419646    1.5753293  1187497 
 6985000     1.418726   -3.5416395   -1.9667284   0.22172725   -3.5416395    1.5749111  1187515 
 6986000    1.4204613    -3.543144   -1.9663278   0.21879023    -3.543144    1.5768162  1187531 
 6987000    1.4214296   -3.5440431   -1.9662024   0.22053131   -3.5440431    1.5778407  1187569 
 6988000    1.4191953   -3.5427001   -1.9673701   0.22159013   -3.5427001      1.57533  1187592 
 6989000    1.4196049   -3.5428759   -1.9671138   0.21733978   -3.5428759    1.5757621  1187609 
 6990000    1.4190653    -3.542168   -1.9670315   0.22045089    -3.542168    1.5751365  1187629 
 6991000    1.4185276    -3.542019   -1.9675124   0.22261422    -3.542019    1.5745066  1187654 
 6992000    1.4183459   -3.5420744    -1.967792   0.22141523   -3.5420744    1.5742824  1187671 
 6993000    1.4185202   -3.5431072   -1.9686659   0.21609998   -3.5431072    1.5744413  1187697 
 6994000    1.4194957   -3.5442097   -1.9687135   0.21277252   -3.5442097    1.5754962  1187718 
 6995000    1.4180806   -3.5419405   -1.9680307   0.22003161   -3.5419405    1.5739097  1187730 
 6996000    1.4186552    -3.543322   -1.9687958   0.21622834    -3.543322    1.5745262  1187746 
 6997000    1.4192296   -3.5432717   -1.9681465   0.21949219   -3.5432717    1.5751253  1187775 
 6998000    1.4197164   -3.5438792   -1.9682495   0.21635445   -3.5438792    1.5756297  1187802 
 6999000    1.4196541   -3.5433558   -1.9678244   0.21713214   -3.5433558    1.5755314  1187824 
 7000000    1.4199767   -3.5443585   -1.9685075   0.21741543   -3.5443585     1.575851  1187853 
 7001000    1.4190529   -3.5424936   -1.9677049   0.21949363   -3.5424936    1.5747887  1187881 
 7002000     1.420854   -3.5442651   -1.9674963    0.2121057   -3.5442651    1.5767688  1187895 
 7003000    1.4211706   -3.5442852   -1.9671916   0.22012956   -3.5442852    1.5770936  1187915 
 7004000    1.4209253   -3.5432174   -1.9664319   0.22090889   -3.5432174    1.5767855  1187942 
 7005000     1.420187   -3.5427597   -1.9668266   0.22127585   -3.5427597    1.5759331  1187967 
 7006000    1.4218656   -3.5447353   -1.9669767   0.21903566   -3.5447353    1.5777586  1187995 
 7007000    1.4214236   -3.5441044   -1.9668695   0.21820848   -3.5441044    1.5772349  1188020 
 7008000    1.4211151   -3.5433585   -1.9665057   0.22320387   -3.5433585    1.5768528  1188050 
 7009000    1.4198581   -3.5426084   -1.9671914   0.22051043   -3.5426084     1.575417  1188081 
 7010000    1.4215094   -3.5440197    -1.966793   0.22102361   -3.5440197    1.5772266  1188098 
 7011000    1.4208026   -3.5435252   -1.9671292   0.21786417   -3.5435252    1.5763959  1188133 
 7012000     1.421273   -3.5444977   -1.9676024   0.21661411   -3.5444977    1.5768953  1188150 
 7013000    1.4208464   -3.5443402   -1.9679513   0.21902632   -3.5443402    1.5763888  1188175 
 7014000    1.4206983    -3.544993   -1.9687924   0.21621661    -3.544993    1.5762006  1188193 
 7015000    1.4191215   -3.5432564   -1.9688263   0.21931431   -3.5432564    1.5744301  1188209 
 7016000    1.4190657   -3.5425167   -1.9681897   0.21918209   -3.5425167     1.574327  1188240 
 7017000    1.4206646   -3.5439967   -1.9679249   0.21596616   -3.5439967    1.5760717  1188262 
 7018000    1.4194702   -3.5436434   -1.9689298   0.21755951   -3.5436434    1.5747135  1188287 
 7019000    1.4184676   -3.5422218   -1.9686391   0.22111673   -3.5422218    1.5735827  1188301 
 7020000    1.4198761   -3.5441587     -1.96904   0.21961156   -3.5441587    1.5751188  1188321 
 7021000    1.4205477   -3.5448597   -1.9690291   0.21737517   -3.5448597    1.5758306  1188346 
 7022000    1.4206402   -3.5446475   -1.9687448   0.22141896   -3.5446475    1.5759027  1188369 
 7023000    1.4205189   -3.5445371     -1.96881   0.21872088   -3.5445371    1.5757271  1188400 
 7024000    1.4204189   -3.5453119   -1.9697355   0.21536681   -3.5453119    1.5755763  1188430 
 7025000    1.4210656   -3.5452993    -1.969028   0.21834541   -3.5452993    1.5762712  1188447 
 7026000    1.4203803   -3.5445871   -1.9691013   0.22399471   -3.5445871    1.5754859  1188466 
 7027000    1.4213332   -3.5456598   -1.9691527   0.21961808   -3.5456598     1.576507  1188493 
 7028000    1.4206849   -3.5455251   -1.9697664   0.21786182   -3.5455251    1.5757587  1188515 
 7029000    1.4205641   -3.5450356   -1.9694361    0.2190235   -3.5450356    1.5755995  1188534 
 7030000    1.4203919    -3.545908    -1.970534   0.21633092    -3.545908    1.5753741  1188560 
 7031000    1.4198472   -3.5457954   -1.9710558    0.2189217   -3.5457954    1.5747396  1188583 
 7032000    1.4181223   -3.5435534   -1.9707666   0.22020885   -3.5435534    1.5727867  1188613 
 7033000    1.4190479   -3.5448412   -1.9710636    0.2214279   -3.5448412    1.5737776  1188640 
 7034000    1.4206766   -3.5469051   -1.9713543    0.2123282   -3.5469051    1.5755507  1188665 
 7035000    1.4190245   -3.5446959   -1.9709999    0.2215759   -3.5446959     1.573696  1188682 
 7036000    1.4190054   -3.5456086   -1.9719775   0.21658699   -3.5456086    1.5736311  1188715 
 7037000     1.419936   -3.5463855   -1.9717582   0.21546906   -3.5463855    1.5746274  1188742 
 7038000    1.4201696   -3.5461307   -1.9712721   0.21449715   -3.5461307    1.5748586  1188763 
 7039000     1.419852   -3.5454147   -1.9709467   0.21725269   -3.5454147     1.574468  1188792 
 7040000    1.4198246   -3.5452676   -1.9708618   0.22038791   -3.5452676    1.5744058  1188816 
 7041000    1.4196012   -3.5453145   -1.9711829   0.21970054   -3.5453145    1.5741317  1188836 
 7042000    1.4198443    -3.545321   -1.9709543   0.22191569    -3.545321    1.5743667  1188862 
 7043000     1.420525   -3.5466643   -1.9715666   0.21892044   -3.5466643    1.5750977  1188880 
 7044000    1.4204736   -3.5475541   -1.9725544   0.21186873   -3.5475541    1.5749996  1188911 
 7045000    1.4202345   -3.5470184   -1.9723117   0.22021455   -3.5470184    1.5747067  1188932 
 7046000    1.4187936   -3.5454848   -1.9724102   0.21928129   -3.5454848    1.5730747  1188958 
 7047000    1.4206189     -3.54715   -1.9720794   0.21658396     -3.54715    1.5750706  1188979 
 7048000    1.4209161   -3.5478171   -1.9724501   0.22100696   -3.5478171     1.575367  1189004 
 7049000    1.4202017   -3.5471696   -1.9726198   0.21608029   -3.5471696    1.5745498  1189023 
 7050000    1.4190162   -3.5453877    -1.972188    0.2230983   -3.5453877    1.5731997  1189050 
 7051000    1.4210015   -3.5476105   -1.9722481   0.21516775   -3.5476105    1.5753624  1189079 
 7052000    1.4208289   -3.5475913   -1.9724521   0.21818416   -3.5475913    1.5751392  1189103 
 7053000     1.420616   -3.5473414   -1.9724793   0.21742664   -3.5473414    1.5748621  1189134 
 7054000    1.4224817   -3.5489936   -1.9720978   0.21350622   -3.5489936    1.5768958  1189160 
 7055000    1.4209921   -3.5475034   -1.9722932    0.2178324   -3.5475034    1.5752102  1189186 
 7056000    1.4220144    -3.548894   -1.9725718   0.21804755    -3.548894    1.5763222  1189202 
 7057000    1.4198602   -3.5472774   -1.9733961   0.21964188   -3.5472774    1.5738813  1189242 
 7058000    1.4201732   -3.5476083   -1.9734012   0.21788912   -3.5476083     1.574207  1189258 
 7059000    1.4211482   -3.5489564    -1.973703    0.2184686   -3.5489564    1.5752534  1189284 
 7060000    1.4196994   -3.5469926   -1.9733755   0.21986882   -3.5469926    1.5736171  1189307 
 7061000    1.4204445   -3.5479322   -1.9735263   0.22071519   -3.5479322    1.5744059  1189335 
 7062000    1.4214371   -3.5487419   -1.9732703    0.2166224   -3.5487419    1.5754716  1189361 
 7063000    1.4200506   -3.5476466   -1.9737342   0.21485357   -3.5476466    1.5739124  1189378 
 7064000    1.4190829   -3.5477265   -1.9749211   0.21984622   -3.5477265    1.5728054  1189404 
 7065000     1.419742   -3.5471304   -1.9736209   0.22176766   -3.5471304    1.5735094  1189424 
 7066000    1.4195856   -3.5474553   -1.9741496   0.21975127   -3.5474553    1.5733057  1189447 
 7067000    1.4206342   -3.5493291   -1.9749011   0.21732733   -3.5493291    1.5744281  1189477 
 7068000    1.4204391    -3.548558   -1.9743844   0.21635971    -3.548558    1.5741735  1189506 
 7069000     1.420428   -3.5483096   -1.9741775   0.21739336   -3.5483096    1.5741321  1189528 
 7070000    1.4204825   -3.5479723   -1.9738155   0.21857897   -3.5479723    1.5741568  1189555 
 7071000    1.4203064   -3.5479418   -1.9740066   0.21686423   -3.5479418    1.5739352  1189575 
 7072000    1.4211417   -3.5489077   -1.9740721   0.21487384   -3.5489077    1.5748356  1189594 
 7073000    1.4205818   -3.5484969   -1.9743187    0.2169226   -3.5484969    1.5741782  1189622 
 7074000    1.4214183   -3.5490255   -1.9739562   0.21713979   -3.5490255    1.5750694  1189649 
 7075000    1.4212616   -3.5492122   -1.9743509   0.22298558   -3.5492122    1.5748613  1189675 
 7076000    1.4200784   -3.5482687   -1.9747423   0.21759308   -3.5482687    1.5735264  1189693 
 7077000    1.4210115   -3.5495372   -1.9750219   0.21395218   -3.5495372    1.5745154  1189727 
 7078000    1.4188425   -3.5478729   -1.9757979   0.22159101   -3.5478729     1.572075  1189755 
 7079000    1.4198103   -3.5488665   -1.9757535   0.21796764   -3.5488665     1.573113  1189781 
 7080000    1.4209749   -3.5501096   -1.9757499    0.2143217   -3.5501096    1.5743597  1189814 
 7081000    1.4205166   -3.5494292   -1.9756117   0.21954998   -3.5494292    1.5738175  1189840 
 7082000       1.4206   -3.5494398   -1.9755511   0.21425633   -3.5494398    1.5738887  1189856 
 7083000    1.4190724   -3.5483115   -1.9761468   0.21857012   -3.5483115    1.5721647  1189880 
 7084000    1.4210524   -3.5497252   -1.9753961   0.21745536   -3.5497252    1.5743291  1189902 
 7085000    1.4199695   -3.5484519   -1.9753529   0.22108596   -3.5484519     1.573099  1189925 
 7086000    1.4208608   -3.5491976   -1.9751468   0.22221763   -3.5491976    1.5740507  1189952 
 7087000    1.4208292    -3.548658   -1.9746753   0.22186991    -3.548658    1.5739826  1189977 
 7088000    1.4219017   -3.5498501   -1.9747071   0.22012662   -3.5498501     1.575143  1189998 
 7089000    1.4214016   -3.5487133   -1.9741575   0.22159338   -3.5487133    1.5745558  1190023 
 7090000    1.4229061   -3.5503902   -1.9742181    0.2179731   -3.5503902    1.5761721  1190061 
 7091000    1.4217995   -3.5494883   -1.9745671     0.217235   -3.5494883    1.5749212  1190080 
 7092000    1.4227946   -3.5509421   -1.9749544   0.21830433   -3.5509421    1.5759877  1190107 
 7093000    1.4217349   -3.5499512   -1.9751505   0.22128861   -3.5499512    1.5748007  1190117 
 7094000    1.4224283   -3.5506877   -1.9751534   0.21540939   -3.5506877    1.5755343  1190143 
 7095000    1.4221503   -3.5501474   -1.9749501   0.21761444   -3.5501474    1.5751973  1190165 
 7096000     1.421899   -3.5497944   -1.9749046   0.21674178   -3.5497944    1.5748898  1190187 
 7097000    1.4221564   -3.5502529   -1.9751019   0.21743569   -3.5502529    1.5751511  1190205 
 7098000    1.4214911   -3.5500223   -1.9756292   0.21816641   -3.5500223    1.5743931  1190221 
 7099000    1.4211492   -3.5497449    -1.975757   0.21808749   -3.5497449    1.5739879  1190241 
 7100000    1.4213606   -3.5499639   -1.9757815   0.21843423   -3.5499639    1.5741824  1190271 
 7101000    1.4213202   -3.5497321   -1.9756236   0.22209144   -3.5497321    1.5741085  1190293 
 7102000    1.4215744   -3.5503669   -1.9760126   0.21792857   -3.5503669    1.5743543  1190320 
 7103000    1.4213795   -3.5507834   -1.9766714   0.21851801   -3.5507834     1.574112  1190340 
 7104000    1.4211006   -3.5501099   -1.9763331   0.21866317   -3.5501099    1.5737768  1190360 
 7105000    1.4217663   -3.5518375   -1.9773486   0.21458084   -3.5518375    1.5744888  1190379 
 7106000    1.4209141   -3.5501409   -1.9766289   0.22402794   -3.5501409     1.573512  1190404 
 7107000     1.421301   -3.5501711   -1.9762531   0.22128975   -3.5501711     1.573918  1190421 
 7108000    1.4221266   -3.5513765   -1.9765694   0.21632113   -3.5513765    1.5748071  1190440 
 7109000    1.4210548   -3.5507023   -1.9771125   0.21538617   -3.5507023    1.5735898  1190463 
 7110000    1.4221252   -3.5515975   -1.9768515   0.22185558   -3.5515975     1.574746  1190485 
 7111000    1.4223583   -3.5524229   -1.9774426   0.22107675   -3.5524229    1.5749803  1190503 
 7112000    1.4217926    -3.551909   -1.9775855   0.21737373    -3.551909    1.5743235  1190526 
 7113000    1.4210379   -3.5512671   -1.9778242   0.21670857   -3.5512671    1.5734429  1190560 
 7114000     1.422813   -3.5523255   -1.9769661    0.2170526   -3.5523255    1.5753594  1190597 
 7115000    1.4223923   -3.5520158   -1.9771698   0.21706803   -3.5520158    1.5748461  1190633 
 7116000    1.4210429    -3.551322   -1.9779977   0.21770145    -3.551322    1.5733242  1190654 
 7117000    1.4221593    -3.552333   -1.9778071   0.21869614    -3.552333    1.5745259  1190680 
 7118000     1.422012   -3.5518387   -1.9775024   0.22163918   -3.5518387    1.5743364  1190700 
 7119000    1.4214131   -3.5510761   -1.9774358   0.22252392   -3.5510761    1.5736403  1190725 
 7120000    1.4215224   -3.5517608   -1.9780391   0.21925488   -3.5517608    1.5737217  1190755 
 7121000    1.4213384   -3.5515693    -1.978091   0.22173954   -3.5515693    1.5734783  1190785 
 7122000     1.422393   -3.5523415    -1.977738   0.21695528   -3.5523415    1.5746035  1190817 
 7123000    1.4217891   -3.5513807   -1.9774907   0.22001474   -3.5513807      1.57389  1190851 
 7124000    1.4220756   -3.5518638   -1.9776805   0.22259835   -3.5518638    1.5741834  1190869 
 7125000    1.4217437   -3.5518816   -1.9780947   0.21853536   -3.5518816    1.5737869  1190891 
 7126000    1.4224104   -3.5522908   -1.9778016   0.22158957   -3.5522908    1.5744892  1190918 
 7127000    1.4219114   -3.5520374   -1.9781402   0.22157083   -3.5520374    1.5738972  1190948 
 7128000    1.4217983   -3.5520165   -1.9782814   0.21763986   -3.5520165     1.573735  1190976 
 7129000    1.4210546   -3.5511155   -1.9782406    0.2157015   -3.5511155    1.5728749  1191004 
 7130000    1.4220962   -3.5516325   -1.9776405   0.22178247   -3.5516325     1.573992  1191031 
 7131000    1.4217278   -3.5514108   -1.9778516   0.22061162   -3.5514108    1.5735592  1191050 
 7132000     1.422685   -3.5519483   -1.9773694   0.22191526   -3.5519483    1.5745789  1191080 
 7133000    1.4231219   -3.5532712   -1.9782338   0.22119837   -3.5532712    1.5750374  1191099 
 7134000    1.4216209   -3.5511541   -1.9778136   0.21894532   -3.5511541    1.5733405  1191126 
 7135000    1.4225497   -3.5518646   -1.9775345   0.22316624   -3.5518646    1.5743301  1191155 
 7136000    1.4226943   -3.5523343   -1.9778772   0.21977476   -3.5523343    1.5744571  1191180 
 7137000    1.4232419   -3.5534905   -1.9784618   0.22032135   -3.5534905    1.5750287  1191206 
 7138000    1.4226685   -3.5529601   -1.9785871   0.22266977   -3.5529601     1.574373  1191222 
 7139000     1.422181   -3.5524087   -1.9786003   0.22104039   -3.5524087    1.5738084  1191241 
 7140000    1.4220156   -3.5526916   -1.9790887   0.22162414   -3.5526916     1.573603  1191258 
 7141000     1.421576   -3.5530089   -1.9799176   0.21938681   -3.5530089    1.5730913  1191277 
 7142000    1.4221618   -3.5536277    -1.979933   0.21990544   -3.5536277    1.5736947  1191311 
 7143000    1.4216628   -3.5528658   -1.9797603   0.22041001   -3.5528658    1.5731055  1191339 
 7144000    1.4237377   -3.5554265   -1.9800686   0.21549903   -3.5554265    1.5753579  1191372 
 7145000    1.4220356   -3.5543478   -1.9809063    0.2171518   -3.5543478    1.5734415  1191397 
 7146000     1.421962   -3.5542139   -1.9808815   0.21858971   -3.5542139    1.5733324  1191418 
 7147000    1.4218768   -3.5536673   -1.9804583   0.22137245   -3.5536673     1.573209  1191440 
 7148000    1.4214285   -3.5537494     -1.98108   0.21759148   -3.5537494    1.5726694  1191473 
 7149000    1.4222932   -3.5546084    -1.981018    0.2191682   -3.5546084    1.5735905  1191500 
 7150000    1.4222352   -3.5542601   -1.9807734   0.21736399   -3.5542601    1.5734867  1191530 
 7151000    1.4224419   -3.5539167   -1.9802409   0.22204578   -3.5539167    1.5736758  1191560 
 7152000    1.4219549   -3.5537685   -1.9806606   0.22414605   -3.5537685    1.5731079  1191582 
 7153000     1.422183   -3.5537077   -1.9803818   0.22441238   -3.5537077     1.573326  1191608 
 7154000    1.4214856   -3.5531296   -1.9806029   0.22374672   -3.5531296    1.5725267  1191629 
 7155000    1.4220086   -3.5536046   -1.9805191   0.22153541   -3.5536046    1.5730855  1191644 
 7156000    1.4223594   -3.5541453   -1.9807008   0.22186997   -3.5541453    1.5734445  1191666 
 7157000    1.4223185   -3.5542246   -1.9808505   0.21852217   -3.5542246    1.5733741  1191685 
 7158000    1.4232419   -3.5546454   -1.9802814    0.2147071   -3.5546454    1.5743639  1191709 
 7159000    1.4232522    -3.554401   -1.9800521    0.2254884    -3.554401    1.5743489  1191729 
 7160000    1.4237718   -3.5552575    -1.980363   0.22162138   -3.5552575    1.5748946  1191751 
 7161000    1.4231474   -3.5540048   -1.9798353    0.2226996   -3.5540048    1.5741696  1191777 
 7162000    1.4230285   -3.5543014   -1.9802911   0.22503195   -3.5543014    1.5740103  1191798 
 7163000    1.4236886   -3.5551526   -1.9804623   0.22134788   -3.5551526    1.5746903  1191836 
 7164000     1.421978    -3.553596   -1.9808255   0.22347957    -3.553596    1.5727705  1191857 
 7165000    1.4230428   -3.5546044   -1.9806958   0.22232563   -3.5546044    1.5739086  1191887 
 7166000    1.4223914    -3.554119   -1.9809626   0.21919664    -3.554119    1.5731564  1191911 
 7167000     1.423167   -3.5551161   -1.9811243   0.21401913   -3.5551161    1.5739918  1191928 
 7168000    1.4223151   -3.5546469   -1.9816329   0.21934437   -3.5546469     1.573014  1191955 
 7169000    1.4225216   -3.5550828   -1.9818866   0.21646788   -3.5550828    1.5731962  1191990 
 7170000    1.4223824   -3.5543521   -1.9813507   0.21931821   -3.5543521    1.5730013  1192021 
 7171000    1.4220871   -3.5547256   -1.9820838   0.22120003   -3.5547256    1.5726418  1192046 
 7172000      1.42245   -3.5551727   -1.9821599   0.22162075   -3.5551727    1.5730127  1192069 
 7173000    1.4244287   -3.5570111   -1.9818472   0.21613985   -3.5570111    1.5751639  1192097 
 7174000       1.4234   -3.5557883   -1.9817844   0.22060427   -3.5557883    1.5740039  1192114 
 7175000    1.4218056    -3.554271   -1.9820526   0.22289684    -3.554271    1.5722184  1192131 
 7176000    1.4225834   -3.5552299   -1.9821937   0.22036401   -3.5552299    1.5730362  1192163 
 7177000    1.4222608   -3.5548499   -1.9821888   0.21871983   -3.5548499    1.5726611  1192177 
 7178000    1.4242588   -3.5571124   -1.9822764   0.21614046   -3.5571124     1.574836  1192203 
 7179000    1.4221427   -3.5546653   -1.9822034    0.2244719   -3.5546653    1.5724619  1192229 
 7180000    1.4218367   -3.5553584    -1.983252   0.22227896   -3.5553584    1.5721064  1192242 
 7181000    1.4228872    -3.556291   -1.9830521   0.21823505    -3.556291    1.5732389  1192264 
 7182000    1.4221199   -3.5557733   -1.9834263   0.22169962   -3.5557733     1.572347  1192297 
 7183000    1.4220175   -3.5558237   -1.9836163   0.22014166   -3.5558237    1.5722074  1192317 
 7184000    1.4216221   -3.5553492   -1.9836027   0.21813589   -3.5553492    1.5717465  1192335 
 7185000    1.4223912   -3.5562808   -1.9837091   0.22209495   -3.5562808    1.5725717  1192354 
 7186000    1.4213905   -3.5557276    -1.984286   0.22043852   -3.5557276    1.5714416  1192372 
 7187000    1.4214735   -3.5559895   -1.9844837   0.21957774   -3.5559895    1.5715058  1192393 
 7188000    1.4216766   -3.5566264   -1.9849184   0.21962919   -3.5566264    1.5717079  1192410 
 7189000    1.4211294   -3.5556822   -1.9846043   0.22025192   -3.5556822    1.5710779  1192429 
 7190000    1.4216886   -3.5557383   -1.9840751   0.22370552   -3.5557383    1.5716632  1192454 
 7191000    1.4227382   -3.5563399   -1.9835401   0.21866839   -3.5563399    1.5727998  1192472 
 7192000    1.4225943   -3.5562689   -1.9836638   0.22276367   -3.5562689    1.5726051  1192499 
 7193000    1.4223249   -3.5561715   -1.9839012   0.22351203   -3.5561715    1.5722703  1192527 
 7194000    1.4226009   -3.5564497   -1.9839151    0.2218683   -3.5564497    1.5725346  1192558 
 7195000    1.4236999    -3.556966   -1.9832456   0.22263664    -3.556966    1.5737204  1192580 
 7196000    1.4235124   -3.5567223   -1.9832488   0.22276074   -3.5567223    1.5734735  1192610 
 7197000    1.4242829   -3.5575045   -1.9832097   0.22257102   -3.5575045    1.5742948  1192633 
 7198000    1.4231416   -3.5566573   -1.9836569   0.22204497   -3.5566573    1.5730003  1192658 
 7199000    1.4240167   -3.5578127   -1.9838781   0.21888192   -3.5578127    1.5739346  1192683 
 7200000      1.42206   -3.5568807   -1.9851352    0.2200089   -3.5568807    1.5717455  1192703 
 7201000    1.4216348   -3.5561118    -1.984856   0.21699604   -3.5561118    1.5712558  1192718 
 7202000    1.4219961   -3.5563085   -1.9846837   0.21939428   -3.5563085    1.5716248  1192741 
 7203000    1.4222266   -3.5563791   -1.9845324   0.22346985   -3.5563791    1.5718467  1192766 
 7204000     1.424091   -3.5581831   -1.9843116   0.21668723   -3.5581831    1.5738715  1192793 
 7205000    1.4229263   -3.5575516   -1.9850015   0.22015793   -3.5575516    1.5725501  1192819 
 7206000    1.4224271   -3.5569496       -1.985   0.21943197   -3.5569496    1.5719496  1192856 
 7207000    1.4224143   -3.5572254   -1.9853202   0.21915376   -3.5572254    1.5719052  1192879 
 7208000    1.4218736   -3.5568649   -1.9855849   0.22241546   -3.5568649      1.57128  1192900 
 7209000    1.4235319   -3.5590573   -1.9859712   0.21762087   -3.5590573    1.5730861  1192920 
 7210000    1.4222706   -3.5573894   -1.9857327   0.21999679   -3.5573894    1.5716568  1192947 
 7211000    1.4223879   -3.5574661   -1.9857087   0.22340402   -3.5574661    1.5717574  1192969 
 7212000    1.4219656   -3.5577295   -1.9864651   0.21964736   -3.5577295    1.5712644  1192989 
 7213000    1.4224875   -3.5577273   -1.9859389   0.22257419   -3.5577273    1.5717884  1193029 
 7214000     1.423316   -3.5580067   -1.9853318   0.22222894   -3.5580067    1.5726748  1193051 
 7215000    1.4249969   -3.5594416   -1.9849358   0.21601877   -3.5594416    1.5745058  1193071 
 7216000    1.4237521   -3.5577041   -1.9846133   0.22001078   -3.5577041    1.5730908  1193101 
 7217000    1.4226882   -3.5568048   -1.9849343   0.22477236   -3.5568048    1.5718705  1193135 
 7218000    1.4241692   -3.5587616    -1.985293   0.22192608   -3.5587616    1.5734686  1193164 
 7219000     1.423641   -3.5580459   -1.9852004    0.2214064   -3.5580459    1.5728455  1193194 
 7220000     1.424256   -3.5584423   -1.9849556   0.21962131   -3.5584423    1.5734866  1193223 
 7221000    1.4233935   -3.5580708   -1.9855805   0.22258168   -3.5580708    1.5724903  1193256 
 7222000    1.4239978   -3.5589512   -1.9858276   0.22351397   -3.5589512    1.5731236  1193282 
 7223000    1.4245968   -3.5589526   -1.9852055    0.2217704   -3.5589526    1.5737471  1193311 
 7224000    1.4232462    -3.557846   -1.9856251   0.22586561    -3.557846    1.5722209  1193337 
 7225000    1.4241487   -3.5592338   -1.9860502   0.21855298   -3.5592338    1.5731836  1193363 
 7226000    1.4228033   -3.5579968    -1.986331   0.22109352   -3.5579968    1.5716658  1193387 
 7227000    1.4235417   -3.5587371   -1.9862965   0.22054441   -3.5587371    1.5724406  1193418 
 7228000    1.4240616   -3.5591069    -1.986129   0.22396153   -3.5591069    1.5729779  1193446 
 7229000    1.4228703   -3.5577692   -1.9861401    0.2247969   -3.5577692    1.5716292  1193471 
 7230000    1.4242044   -3.5589254   -1.9858556   0.22226457   -3.5589254    1.5730698  1193496 
 7231000    1.4235657   -3.5586707   -1.9863275   0.22086534   -3.5586707    1.5723432  1193512 
 7232000    1.4231681   -3.5576416   -1.9857666   0.22401833   -3.5576416     1.571875  1193534 
 7233000    1.4254099   -3.5603079   -1.9859937   0.22107597   -3.5603079    1.5743142  1193562 
 7234000    1.4243809   -3.5592962   -1.9861541   0.22276464   -3.5592962    1.5731421  1193589 
 7235000    1.4250014   -3.5595212   -1.9857188   0.22177715   -3.5595212    1.5738024  1193608 
 7236000    1.4252341   -3.5595677   -1.9855426    0.2224898   -3.5595677    1.5740251  1193634 
 7237000     1.424472   -3.5587299   -1.9855781   0.22568613   -3.5587299    1.5731518  1193658 
 7238000    1.4257639   -3.5595369   -1.9849874   0.22423435   -3.5595369    1.5745496  1193680 
 7239000    1.4259753   -3.5605007   -1.9857402   0.21769632   -3.5605007    1.5747605  1193697 
 7240000    1.4231567   -3.5571698   -1.9855627   0.22765634   -3.5571698    1.5716071  1193728 
 7241000    1.4256737   -3.5599995   -1.9856445   0.22012519   -3.5599995     1.574355  1193752 
 7242000    1.4248628   -3.5592562    -1.985827   0.22144109   -3.5592562    1.5734292  1193775 
 7243000    1.4244543   -3.5599067   -1.9869642   0.22121689   -3.5599067    1.5729425  1193802 
 7244000    1.4234324   -3.5589951     -1.98721   0.22308249   -3.5589951    1.5717851  1193824 
 7245000    1.4240884   -3.5603207   -1.9878507   0.22280768   -3.5603207      1.57247  1193854 
 7246000    1.4241587   -3.5600517   -1.9875477   0.22206022   -3.5600517    1.5725041  1193887 
 7247000    1.4234459   -3.5599996   -1.9883167   0.22076212   -3.5599996    1.5716829  1193913 
 7248000    1.4243125    -3.560776    -1.988189   0.22028972    -3.560776     1.572587  1193953 
 7249000    1.4248608   -3.5612446   -1.9880891   0.21865262   -3.5612446    1.5731555  1193981 
 7250000    1.4246773   -3.5606739   -1.9877381   0.21796281   -3.5606739    1.5729358  1193994 
 7251000    1.4250223   -3.5611644   -1.9878873   0.22250944   -3.5611644    1.5732771  1194024 
 7252000     1.425467    -3.560599   -1.9868599   0.22437632    -3.560599    1.5737391  1194046 
 7253000    1.4251371   -3.5597617   -1.9864184   0.22119454   -3.5597617    1.5733433  1194070 
 7254000    1.4252501    -3.560092   -1.9866557   0.22389235    -3.560092    1.5734364  1194094 
 7255000    1.4246217   -3.5594777   -1.9867746    0.2221146   -3.5594777    1.5727031  1194124 
 7256000    1.4247131   -3.5599044   -1.9871399   0.22588342   -3.5599044    1.5727645  1194154 
 7257000    1.4249387   -3.5607175   -1.9877368   0.22055778   -3.5607175    1.5729807  1194179 
 7258000    1.4249675   -3.5606309   -1.9876487   0.22352188   -3.5606309    1.5729822  1194202 
 7259000    1.4242759   -3.5604861   -1.9883003   0.22560898   -3.5604861    1.5721858  1194227 
 7260000    1.4260021    -3.561728   -1.9876631   0.22439187    -3.561728    1.5740649  1194247 
 7261000    1.4245098   -3.5602462   -1.9878548   0.22293793   -3.5602462    1.5723914  1194267 
 7262000    1.4252567   -3.5612014   -1.9880252   0.22270931   -3.5612014    1.5731762  1194297 
 7263000    1.4253513   -3.5612005   -1.9879594   0.22341149   -3.5612005    1.5732411  1194327 
 7264000    1.4244852   -3.5602243   -1.9879759   0.22555127   -3.5602243    1.5722484  1194355 
 7265000     1.425507   -3.5620011   -1.9886461   0.21835979   -3.5620011     1.573355  1194371 
 7266000    1.4248892   -3.5611483   -1.9884936   0.22256421   -3.5611483    1.5726547  1194385 
 7267000    1.4261621   -3.5624388   -1.9884069   0.21654976   -3.5624388    1.5740319  1194406 
 7268000    1.4256909   -3.5617975   -1.9883186   0.22310287   -3.5617975    1.5734789  1194431 
 7269000    1.4251934   -3.5613839   -1.9884856   0.22348717   -3.5613839    1.5728983  1194455 
 7270000    1.4252055   -3.5624738   -1.9896004   0.22411644   -3.5624738    1.5728734  1194484 
 7271000    1.4251389   -3.5618906   -1.9891301   0.22052154   -3.5618906    1.5727604  1194514 
 7272000    1.4250833   -3.5618966   -1.9892397   0.22313877   -3.5618966    1.5726569  1194546 
 7273000    1.4260035    -3.562929   -1.9892869    0.2183462    -3.562929    1.5736422  1194569 
 7274000    1.4250567    -3.562828    -1.990253   0.22311056    -3.562828     1.572575  1194586 
 7275000    1.4243805   -3.5628502   -1.9910517   0.22206551   -3.5628502    1.5717985  1194609 
 7276000    1.4236341   -3.5613339   -1.9903945   0.22305222   -3.5613339    1.5709394  1194636 
 7277000      1.42453   -3.5627066   -1.9908024   0.22359303   -3.5627066    1.5719042  1194654 
 7278000    1.4238112   -3.5620884   -1.9910234   0.22111178   -3.5620884     1.571065  1194689 
 7279000    1.4249689   -3.5627434    -1.990439   0.22388314   -3.5627434    1.5723044  1194718 
 7280000    1.4250697   -3.5633866   -1.9910171    0.2229356   -3.5633866    1.5723695  1194753 
 7281000    1.4244104   -3.5622084   -1.9905993   0.22316018   -3.5622084    1.5716091  1194778 
 7282000     1.424862   -3.5626004   -1.9905206   0.22212665   -3.5626004    1.5720798  1194799 
 7283000    1.4257702   -3.5632372   -1.9901804   0.22273902   -3.5632372    1.5730568  1194818 
 7284000    1.4251948    -3.562526   -1.9901382    0.2233816    -3.562526    1.5723877  1194844 
 7285000    1.4245213    -3.562377   -1.9907547   0.21984738    -3.562377    1.5716223  1194861 
 7286000    1.4249163   -3.5635719   -1.9915466    0.2197637   -3.5635719    1.5720253  1194886 
 7287000     1.424486    -3.563712   -1.9921997   0.22144545    -3.563712    1.5715123  1194915 
 7288000    1.4231845   -3.5624157   -1.9923747   0.22253182   -3.5624157    1.5700411  1194942 
 7289000    1.4235404   -3.5625565   -1.9921662   0.22081445   -3.5625565    1.5703903  1194975 
 7290000    1.4249485   -3.5642793   -1.9923658    0.2206827   -3.5642793    1.5719134  1194998 
 7291000    1.4236224   -3.5632004   -1.9927828   0.21925618   -3.5632004    1.5704177  1195023 
 7292000    1.4240466   -3.5629182    -1.992055   0.22429086   -3.5629182    1.5708632  1195040 
 7293000    1.4248679   -3.5634235   -1.9916806   0.22167145   -3.5634235    1.5717429  1195060 
 7294000    1.4254174   -3.5644642   -1.9921427   0.22018108   -3.5644642    1.5723215  1195081 
 7295000    1.4258435   -3.5645784   -1.9918158   0.22386857   -3.5645784    1.5727625  1195103 
 7296000    1.4255668   -3.5638679   -1.9914527   0.22429093   -3.5638679    1.5724152  1195135 
 7297000    1.4260343   -3.5642779   -1.9913602   0.22525141   -3.5642779    1.5729177  1195145 
 7298000    1.4256458   -3.5640191   -1.9915444   0.22322406   -3.5640191    1.5724747  1195156 
 7299000    1.4252959   -3.5635589   -1.9915004   0.22338515   -3.5635589    1.5720585  1195179 
 7300000    1.4265005   -3.5651372   -1.9917856   0.22169237   -3.5651372    1.5733517  1195206 
 7301000    1.4248759   -3.5639155   -1.9923833   0.22437874   -3.5639155    1.5715322  1195227 
 7302000     1.424153   -3.5634479   -1.9927485   0.22575319   -3.5634479    1.5706994  1195254 
 7303000    1.4250186   -3.5647967   -1.9931754    0.2149343   -3.5647967    1.5716212  1195279 
 7304000    1.4250144   -3.5650058   -1.9934234   0.21822667   -3.5650058    1.5715823  1195305 
 7305000    1.4242141    -3.563883   -1.9932134   0.22297396    -3.563883    1.5706695  1195328 
 7306000    1.4253479   -3.5657755   -1.9938873   0.21900352   -3.5657755    1.5718883  1195352 
 7307000    1.4255874   -3.5659569   -1.9938254   0.22036074   -3.5659569    1.5721315  1195368 
 7308000    1.4237609   -3.5642206   -1.9941271   0.21846211   -3.5642206    1.5700935  1195386 
 7309000    1.4242172   -3.5650691   -1.9945117   0.22162789   -3.5650691    1.5705573  1195416 
 7310000    1.4244883   -3.5645761    -1.993754   0.22503612   -3.5645761    1.5708221  1195442 
 7311000    1.4248111   -3.5648431    -1.993686   0.22277327   -3.5648431    1.5711571  1195458 
 7312000    1.4251935   -3.5651121    -1.993565   0.22442331   -3.5651121    1.5715471  1195482 
 7313000    1.4260855    -3.566181    -1.993691   0.21637104    -3.566181      1.57249  1195513 
 7314000    1.4244303   -3.5642637   -1.9936357   0.22361266   -3.5642637    1.5706281  1195541 
 7315000    1.4258989   -3.5656658   -1.9934553   0.22353835   -3.5656658    1.5722105  1195569 
 7316000    1.4256705   -3.5651098   -1.9931892   0.22378611   -3.5651098    1.5719206  1195598 
 7317000    1.4255188   -3.5654848   -1.9937643   0.22379913   -3.5654848    1.5717204  1195623 
 7318000    1.4249688   -3.5646218     -1.99353   0.22661432   -3.5646218    1.5710918  1195640 
 7319000    1.4269489   -3.5662507   -1.9930021   0.22112803   -3.5662507    1.5732485  1195660 
 7320000    1.4258609   -3.5657046   -1.9936937   0.22525373   -3.5657046    1.5720109  1195689 
 7321000    1.4259273    -3.565921   -1.9938724   0.22272781    -3.565921    1.5720486  1195716 
 7322000    1.4268569   -3.5663542   -1.9933176   0.22088447   -3.5663542    1.5730367  1195744 
 7323000    1.4251102   -3.5655024   -1.9944177    0.2260786   -3.5655024    1.5710847  1195764 
 7324000     1.425756   -3.5661647   -1.9943903   0.22078776   -3.5661647    1.5717744  1195781 
 7325000    1.4254469   -3.5656694   -1.9942673   0.22207246   -3.5656694    1.5714021  1195805 
 7326000    1.4250479   -3.5659118   -1.9949732   0.22468435   -3.5659118    1.5709386  1195823 
 7327000    1.4257084   -3.5660316   -1.9943925   0.22264757   -3.5660316     1.571639  1195844 
 7328000    1.4249057   -3.5649036   -1.9941823   0.22318125   -3.5649036    1.5707213  1195869 
 7329000    1.4261751   -3.5664762   -1.9943779   0.22339681   -3.5664762    1.5720983  1195886 
 7330000    1.4257924   -3.5660942   -1.9944493   0.22153259   -3.5660942    1.5716449  1195910 
 7331000    1.4257669   -3.5658807    -1.994306   0.22455935   -3.5658807    1.5715747  1195942 
 7332000    1.4250846   -3.5662941   -1.9954991   0.22217289   -3.5662941     1.570795  1195963 
 7333000    1.4247011   -3.5667111   -1.9963676   0.22168838   -3.5667111    1.5703435  1195985 
 7334000    1.4239666   -3.5656065   -1.9961132   0.22630761   -3.5656065    1.5694932  1196016 
 7335000     1.425127   -3.5668557   -1.9961176   0.21863986   -3.5668557    1.5707381  1196042 
 7336000    1.4239474   -3.5653215   -1.9959125   0.22315752   -3.5653215    1.5694091  1196064 
 7337000    1.4246934   -3.5671603   -1.9969553   0.21881049   -3.5671603     1.570205  1196084 
 7338000    1.4236195   -3.5663677   -1.9973738   0.21790887   -3.5663677    1.5689939  1196105 
 7339000    1.4243705   -3.5670071   -1.9972026   0.22016997   -3.5670071    1.5698045  1196118 
 7340000     1.425224   -3.5674553   -1.9967509   0.21913092   -3.5674553    1.5707044  1196149 
 7341000    1.4264698   -3.5684853   -1.9964421    0.2184109   -3.5684853    1.5720432  1196175 
 7342000    1.4252426   -3.5681168   -1.9974497   0.22008114   -3.5681168    1.5706672  1196193 
 7343000    1.4253194    -3.567644   -1.9969303   0.22229418    -3.567644    1.5707138  1196222 
 7344000    1.4250442    -3.567122   -1.9967575   0.22243976    -3.567122    1.5703646  1196257 
 7345000    1.4262344   -3.5680682   -1.9964236   0.22231903   -3.5680682    1.5716445  1196281 
 7346000    1.4249146   -3.5670258   -1.9968671   0.22574144   -3.5670258    1.5701587  1196305 
 7347000    1.4259543   -3.5690179   -1.9977384   0.22263387   -3.5690179    1.5712795  1196324 
 7348000    1.4259002   -3.5689816   -1.9977828   0.22233136   -3.5689816    1.5711988  1196340 
 7349000    1.4253406   -3.5685612   -1.9980092   0.22025173   -3.5685612     1.570552  1196363 
 7350000    1.4254195   -3.5686576   -1.9980528   0.21782968   -3.5686576    1.5706048  1196389 
 7351000    1.4259092   -3.5693574   -1.9982287   0.21651253   -3.5693574    1.5711286  1196401 
 7352000    1.4248135   -3.5686757   -1.9987793   0.22050337   -3.5686757    1.5698964  1196420 
 7353000    1.4252666   -3.5686272   -1.9982565   0.22040035   -3.5686272    1.5703707  1196439 
 7354000    1.4248353   -3.5681046   -1.9982472    0.2171534   -3.5681046    1.5698574  1196468 
 7355000    1.4246943   -3.5681967   -1.9985472    0.2218393   -3.5681967    1.5696495  1196508 
 7356000    1.4255237     -3.56855   -1.9980168   0.21937376     -3.56855    1.5705332  1196531 
 7357000    1.4249632   -3.5668647   -1.9969845   0.22183526   -3.5668647    1.5698802  1196558 
 7358000    1.4253168    -3.567408   -1.9971815   0.22254382    -3.567408    1.5702265  1196591 
 7359000    1.4263946   -3.5685113   -1.9971224   0.22078238   -3.5685113    1.5713889  1196610 
 7360000    1.4255898   -3.5676907   -1.9972186   0.22392312   -3.5676907    1.5704721  1196633 
 7361000    1.4252739   -3.5683612   -1.9982685   0.22074394   -3.5683612    1.5700926  1196657 
 7362000    1.4254546   -3.5688827    -1.998616   0.22368143   -3.5688827    1.5702667  1196676 
 7363000    1.4262907   -3.5689213   -1.9977755   0.22042734   -3.5689213    1.5711458  1196708 
 7364000    1.4266093   -3.5700534   -1.9985751   0.21938219   -3.5700534    1.5714783  1196722 
 7365000    1.4252938   -3.5687437   -1.9987433   0.22254039   -3.5687437    1.5700004  1196744 
 7366000    1.4265867   -3.5698612   -1.9984812   0.21698871   -3.5698612    1.5713799  1196778 
 7367000    1.4263223   -3.5699906   -1.9989281   0.21951364   -3.5699906    1.5710625  1196798 
 7368000    1.4258119   -3.5699056   -1.9994395    0.2196383   -3.5699056    1.5704661  1196824 
 7369000    1.4252286    -3.569357   -1.9995687   0.22011741    -3.569357    1.5697882  1196851 
 7370000    1.4253065   -3.5698739   -2.0000274   0.22015761   -3.5698739    1.5698465  1196872 
 7371000     1.425286   -3.5698665   -2.0000702   0.22161312   -3.5698665    1.5697963  1196893 
 7372000     1.425181   -3.5693352   -1.9996846     0.220567   -3.5693352    1.5696506  1196916 
 7373000    1.4261078   -3.5702741   -1.9996487   0.22268988   -3.5702741    1.5706254  1196951 
 7374000     1.426544   -3.5712782   -2.0001987   0.22236108   -3.5712782    1.5710795  1196971 
 7375000    1.4255625   -3.5705882   -2.0006211    0.2243387   -3.5705882    1.5699671  1196995 
 7376000    1.4245969   -3.5692736   -2.0004171   0.22271728   -3.5692736    1.5688565  1197031 
 7377000    1.4266001   -3.5716365   -2.0006054   0.21979581   -3.5716365    1.5710311  1197055 
 7378000    1.4241584   -3.5689139   -2.0005861   0.22439753   -3.5689139    1.5683278  1197066 
 7379000     1.424718   -3.5686469    -1.999737   0.22530285   -3.5686469    1.5689099  1197092 
 7380000    1.4255725   -3.5698431   -2.0000381   0.22255441   -3.5698431    1.5698051  1197127 
 7381000    1.4261049   -3.5707098   -2.0003382    0.2250465   -3.5707098    1.5703716  1197142 
 7382000    1.4249094   -3.5697286   -2.0007049   0.22434313   -3.5697286    1.5690237  1197166 
 7383000    1.4256921   -3.5711122   -2.0012542   0.22298698   -3.5711122     1.569858  1197187 
 7384000    1.4248087   -3.5700752   -2.0012187   0.22181888   -3.5700752    1.5688565  1197209 
 7385000    1.4250826   -3.5700916   -2.0009532   0.22339717   -3.5700916    1.5691384  1197224 
 7386000    1.4251668   -3.5705879   -2.0014014   0.22053189   -3.5705879    1.5691865  1197258 
 7387000    1.4249014   -3.5703567   -2.0014886   0.21674909   -3.5703567    1.5688681  1197278 
 7388000    1.4248983    -3.569941   -2.0011196   0.22085701    -3.569941    1.5688215  1197311 
 7389000    1.4249578   -3.5700404   -2.0011941    0.2179414   -3.5700404    1.5688463  1197342 
 7390000    1.4241451   -3.5692893   -2.0013718   0.22251357   -3.5692893    1.5679175  1197368 
 7391000    1.4259346   -3.5704558   -2.0006113   0.21770434   -3.5704558    1.5698445  1197401 
 7392000    1.4261081   -3.5703712   -2.0003619   0.22142406   -3.5703712    1.5700092  1197421 
 7393000    1.4249029   -3.5695607   -2.0009228   0.22233724   -3.5695607    1.5686379  1197455 
 7394000    1.4252275   -3.5701226   -2.0011562   0.22210566   -3.5701226    1.5689664  1197477 
 7395000    1.4268601   -3.5718611   -2.0011263    0.2154742   -3.5718611    1.5707348  1197499 
 7396000    1.4262731   -3.5714125   -2.0013619    0.2239777   -3.5714125    1.5700506  1197528 
 7397000    1.4256228    -3.570302   -2.0009974   0.22705109    -3.570302    1.5693046  1197551 
 7398000    1.4274087   -3.5724476   -2.0012165   0.21774008   -3.5724476    1.5712311  1197581 
 7399000    1.4252805   -3.5704771   -2.0016188    0.2217225   -3.5704771    1.5688583  1197604 
 7400000    1.4272318   -3.5717276   -2.0007424   0.22371341   -3.5717276    1.5709852  1197620 
 7401000    1.4254016   -3.5701083   -2.0011743   0.22391411   -3.5701083     1.568934  1197648 
 7402000    1.4272449   -3.5716203   -2.0006928   0.22010748   -3.5716203    1.5709275  1197675 
 7403000    1.4250796   -3.5700158   -2.0015056   0.22601918   -3.5700158    1.5685102  1197701 
 7404000     1.425313    -3.570449   -2.0017121   0.22540982    -3.570449    1.5687369  1197724 
 7405000    1.4253562   -3.5709251   -2.0021655   0.22345452   -3.5709251    1.5687596  1197743 
 7406000    1.4253196   -3.5714578   -2.0027764    0.2265523   -3.5714578    1.5686814  1197772 
 7407000    1.4259119   -3.5724722   -2.0031679   0.22255717   -3.5724722    1.5693044  1197794 
 7408000    1.4262481   -3.5726336   -2.0029906   0.21663919   -3.5726336     1.569643  1197818 
 7409000    1.4258662   -3.5712896   -2.0020905   0.22325119   -3.5712896    1.5691991  1197836 
 7410000    1.4261918   -3.5715453   -2.0020246   0.22413818   -3.5715453    1.5695207  1197864 
 7411000    1.4274904    -3.572809   -2.0018867   0.22375507    -3.572809    1.5709223  1197885 
 7412000    1.4272844   -3.5725574    -2.001896   0.22236042   -3.5725574    1.5706615  1197911 
 7413000    1.4271466   -3.5726972   -2.0022136   0.22092237   -3.5726972    1.5704836  1197931 
 7414000    1.4265169   -3.5713089    -2.001526   0.22199688   -3.5713089    1.5697828  1197937 
 7415000    1.4256687   -3.5705448   -2.0017163   0.22384076   -3.5705448    1.5688285  1197953 
 7416000    1.4270914   -3.5719622    -2.001597    0.2216224   -3.5719622    1.5703652  1197975 
 7417000    1.4276393   -3.5732089   -2.0022775   0.22267566   -3.5732089    1.5709314  1198003 
 7418000     1.426737   -3.5715464   -2.0016327   0.22726768   -3.5715464    1.5699136  1198022 
 7419000     1.427861   -3.5722384   -2.0011247   0.22301185   -3.5722384    1.5711137  1198050 
 7420000    1.4271418   -3.5715916    -2.001306   0.22150093   -3.5715916    1.5702856  1198078 
 7421000    1.4261681   -3.5705676   -2.0013782   0.21932697   -3.5705676    1.5691894  1198097 
 7422000    1.4277788   -3.5724375   -2.0015073    0.2211132   -3.5724375    1.5709302  1198121 
 7423000    1.4278134   -3.5723951   -2.0014596   0.22072709   -3.5723951    1.5709355  1198146 
 7424000    1.4276757   -3.5715822   -2.0008297   0.22506095   -3.5715822    1.5707525  1198170 
 7425000    1.4275488   -3.5717037   -2.0011236   0.23030231   -3.5717037    1.5705801  1198195 
 7426000    1.4281161   -3.5725305    -2.001363   0.22143975   -3.5725305    1.5711676  1198223 
 7427000    1.4284618   -3.5727159   -2.0012049   0.22230874   -3.5727159    1.5715111  1198251 
 7428000    1.4282626    -3.572992   -2.0017445   0.21975363    -3.572992    1.5712474  1198285 
 7429000     1.427542   -3.5730415    -2.002613   0.21870456   -3.5730415    1.5704285  1198305 
 7430000    1.4273076   -3.5729998   -2.0028737   0.22331135   -3.5729998    1.5701261  1198339 
 7431000    1.4272641   -3.5729978   -2.0029615   0.22425931   -3.5729978    1.5700363  1198371 
 7432000    1.4280269   -3.5735381   -2.0027034   0.22600846   -3.5735381    1.5708347  1198402 
 7433000    1.4280926   -3.5743239   -2.0034496   0.22273661   -3.5743239    1.5708743  1198427 
 7434000    1.4272678   -3.5732905    -2.003351   0.22351044   -3.5732905    1.5699395  1198448 
 7435000    1.4273186   -3.5723822   -2.0024144   0.22506628   -3.5723822    1.5699679  1198469 
 7436000    1.4282257   -3.5733238   -2.0023752    0.2256631   -3.5733238    1.5709485  1198482 
 7437000    1.4274954   -3.5730143   -2.0028952    0.2244036   -3.5730143     1.570119  1198502 
 7438000    1.4281847   -3.5739449   -2.0030926   0.22433216   -3.5739449    1.5708523  1198521 
 7439000    1.4278945    -3.573695   -2.0031959   0.22619389    -3.573695    1.5704991  1198547 
 7440000    1.4279922   -3.5744308   -2.0038493   0.22158913   -3.5744308    1.5705816  1198566 
 7441000    1.4271485   -3.5724715   -2.0028506   0.22659133   -3.5724715    1.5696209  1198591 
 7442000    1.4262637   -3.5725197    -2.003889      0.22473   -3.5725197    1.5686307  1198604 
 7443000     1.427842    -3.573649   -2.0033085   0.22145733    -3.573649    1.5703404  1198624 
 7444000    1.4278803   -3.5731805   -2.0028281   0.22569091   -3.5731805    1.5703524  1198647 
 7445000    1.4277867   -3.5733687   -2.0031506    0.2237474   -3.5733687    1.5702181  1198671 
 7446000    1.4271117   -3.5733615   -2.0039211   0.22331653   -3.5733615    1.5694404  1198698 
 7447000     1.428462   -3.5751213   -2.0042261   0.22289213   -3.5751213    1.5708952  1198721 
 7448000     1.426266   -3.5733653   -2.0049126   0.22475889   -3.5733653    1.5684527  1198742 
 7449000    1.4267113   -3.5739769   -2.0050502   0.22084818   -3.5739769    1.5689267  1198754 
 7450000    1.4273013   -3.5749502   -2.0054074   0.21915643   -3.5749502    1.5695428  1198779 
 7451000    1.4261186    -3.572855   -2.0046376   0.22240468    -3.572855    1.5682174  1198798 
 7452000    1.4271381   -3.5741246   -2.0048124   0.22458971   -3.5741246    1.5693123  1198818 
 7453000    1.4276821   -3.5750966   -2.0052123   0.22125867   -3.5750966    1.5698843  1198838 
 7454000    1.4270025   -3.5738191   -2.0047161   0.22508803   -3.5738191     1.569103  1198864 
 7455000    1.4283146   -3.5750186   -2.0045069    0.2244748   -3.5750186    1.5705116  1198890 
 7456000    1.4282488   -3.5748331   -2.0044147   0.22361298   -3.5748331    1.5704183  1198906 
 7457000    1.4288659   -3.5753918   -2.0043171   0.22052664   -3.5753918    1.5710746  1198923 
 7458000    1.4275974   -3.5747835   -2.0051377   0.22442306   -3.5747835    1.5696458  1198949 
 7459000    1.4277161   -3.5751749    -2.005426   0.22402913   -3.5751749    1.5697488  1198970 
 7460000    1.4276921   -3.5752861   -2.0055833   0.22769212   -3.5752861    1.5697028  1198985 
 7461000    1.4277623   -3.5753835   -2.0056298   0.22441549   -3.5753835    1.5697538  1199005 
 7462000    1.4291464   -3.5764276   -2.0051836   0.22210607   -3.5764276     1.571244  1199029 
 7463000    1.4284124   -3.5759575    -2.005565   0.22504237   -3.5759575    1.5703925  1199063 
 7464000    1.4275637   -3.5756375   -2.0062158   0.22123794   -3.5756375    1.5694216  1199092 
 7465000    1.4261341    -3.574323   -2.0065005    0.2280073    -3.574323    1.5678224  1199113 
 7466000    1.4270697   -3.5753102   -2.0064749   0.22017192   -3.5753102    1.5688353  1199125 
 7467000     1.426889   -3.5752848    -2.006677   0.22598741   -3.5752848    1.5686078  1199147 
 7468000     1.426747    -3.575312   -2.0068943   0.22604805    -3.575312    1.5684177  1199173 
 7469000    1.4274647   -3.5766021   -2.0074294   0.22013455   -3.5766021    1.5691727  1199199 
 7470000    1.4275798   -3.5761335   -2.0068696   0.22337155   -3.5761335    1.5692639  1199226 
 7471000    1.4282216   -3.5768295   -2.0068784   0.22408017   -3.5768295     1.569951  1199240 
 7472000    1.4282993    -3.577018   -2.0070038   0.22180148    -3.577018    1.5700142  1199257 
 7473000    1.4271161   -3.5756605   -2.0069731   0.22128944   -3.5756605    1.5686875  1199277 
 7474000    1.4269639   -3.5756755   -2.0071932     0.229426   -3.5756755    1.5684823  1199306 
 7475000    1.4268941   -3.5760065   -2.0076363   0.22393761   -3.5760065    1.5683702  1199333 
 7476000    1.4266665   -3.5767077   -2.0086124   0.22281711   -3.5767077    1.5680952  1199352 
 7477000    1.4267122    -3.577186   -2.0090628    0.2148656    -3.577186    1.5681232  1199369 
 7478000    1.4264417   -3.5769323   -2.0091482   0.22135299   -3.5769323    1.5677841  1199401 
 7479000    1.4281858   -3.5784695   -2.0087803   0.22079833   -3.5784695    1.5696892  1199410 
 7480000    1.4267484   -3.5772435   -2.0091785   0.22386706   -3.5772435     1.568065  1199444 
 7481000    1.4257781   -3.5764614   -2.0094942   0.22346693   -3.5764614    1.5669672  1199468 
 7482000    1.4271122   -3.5781038   -2.0096966   0.22287566   -3.5781038    1.5684072  1199488 
 7483000    1.4262001    -3.576808    -2.009445   0.22198809    -3.576808     1.567363  1199520 
 7484000    1.4269055   -3.5779696   -2.0098523   0.21766179   -3.5779696    1.5681173  1199536 
 7485000    1.4271531   -3.5778265    -2.009462   0.22079087   -3.5778265    1.5683646  1199555 
 7486000    1.4259098   -3.5769504   -2.0099666   0.22553495   -3.5769504    1.5669839  1199566 
 7487000    1.4275065   -3.5780324   -2.0093226   0.22254205   -3.5780324    1.5687098  1199588 
 7488000    1.4287304   -3.5793324   -2.0093011    0.2208728   -3.5793324    1.5700312  1199606 
 7489000    1.4277427   -3.5790891   -2.0101812    0.2230077   -3.5790891    1.5689078  1199635 
 7490000    1.4264321   -3.5775231   -2.0100788   0.22647077   -3.5775231    1.5674442  1199653 
 7491000    1.4274068   -3.5786735   -2.0101792   0.21945025   -3.5786735    1.5684943  1199669 
 7492000    1.4260928    -3.577184   -2.0101702    0.2269673    -3.577184    1.5670138  1199697 
 7493000    1.4261573   -3.5773467   -2.0102894    0.2269509   -3.5773467    1.5670573  1199718 
 7494000    1.4282525   -3.5793824   -2.0100543   0.22174509   -3.5793824    1.5693282  1199742 
 7495000     1.427538   -3.5786387   -2.0101284   0.22074295   -3.5786387    1.5685103  1199767 
 7496000    1.4267786   -3.5777277   -2.0100778   0.22340432   -3.5777277    1.5676499  1199787 
 7497000    1.4271906   -3.5779187   -2.0098489   0.22383873   -3.5779187    1.5680699  1199812 
 7498000    1.4266196   -3.5777235   -2.0103097   0.22355063   -3.5777235    1.5674137  1199834 
 7499000    1.4265858   -3.5773815    -2.010031   0.22258162   -3.5773815    1.5673505  1199854 
 7500000    1.4272056   -3.5775897   -2.0095909   0.22572941   -3.5775897    1.5679988  1199879 
 7501000    1.4281934   -3.5786954   -2.0096324    0.2257121   -3.5786954    1.5690631  1199895 
 7502000     1.428263   -3.5781726   -2.0090605   0.22421759   -3.5781726    1.5691121  1199916 
 7503000    1.4281896   -3.5773959   -2.0084063   0.22713388   -3.5773959    1.5689896  1199948 
 7504000    1.4293961   -3.5785915   -2.0083131   0.22364809   -3.5785915    1.5702784  1199976 
 7505000    1.4281155   -3.5772656   -2.0084189   0.22335164   -3.5772656    1.5688467  1199995 
 7506000    1.4288255   -3.5780897   -2.0084931    0.2234795   -3.5780897    1.5695966  1200018 
 7507000    1.4299062   -3.5790969    -2.008334   0.22133864   -3.5790969    1.5707628  1200034 
 7508000    1.4289682   -3.5781735   -2.0084856   0.22460144   -3.5781735    1.5696879  1200068 
 7509000    1.4290325   -3.5771974   -2.0074636   0.22534621   -3.5771974    1.5697338  1200087 
 7510000    1.4302233   -3.5786707   -2.0076656   0.22295581   -3.5786707    1.5710052  1200115 
 7511000    1.4286314    -3.577348   -2.0081137   0.22480506    -3.577348    1.5692343  1200132 
 7512000    1.4298754   -3.5785787   -2.0079975   0.22603062   -3.5785787    1.5705812  1200147 
 7513000    1.4289526   -3.5786693    -2.009141    0.2254078   -3.5786693    1.5695283  1200177 
 7514000    1.4296123   -3.5794127   -2.0091833   0.22215028   -3.5794127    1.5702294  1200195 
 7515000    1.4305347   -3.5792532   -2.0080396    0.2215299   -3.5792532    1.5712136  1200217 
 7516000    1.4305667    -3.578734   -2.0075205   0.22401952    -3.578734    1.5712135  1200244 
 7517000    1.4297247   -3.5784699   -2.0082075   0.22616975   -3.5784699    1.5702625  1200264 
 7518000    1.4286492    -3.577764   -2.0087011   0.22395425    -3.577764     1.569063  1200278 
 7519000    1.4302762   -3.5793917   -2.0085562   0.22641332   -3.5793917    1.5708356  1200289 
 7520000    1.4283321   -3.5769908   -2.0083179   0.22669102   -3.5769908    1.5686729  1200310 
 7521000    1.4296013   -3.5790064    -2.008967    0.2264613   -3.5790064    1.5700393  1200331 
 7522000    1.4288607   -3.5783619   -2.0091581   0.22550433   -3.5783619    1.5692038  1200348 
 7523000      1.42979   -3.5799936   -2.0097836   0.22142705   -3.5799936      1.57021  1200359 
 7524000    1.4291176    -3.579336   -2.0098919   0.22683824    -3.579336    1.5694441  1200380 
 7525000    1.4296656   -3.5799704   -2.0099467   0.22399697   -3.5799704    1.5700237  1200397 
 7526000    1.4292796   -3.5794025   -2.0098301   0.23030534   -3.5794025    1.5695723  1200418 
 7527000    1.4290729   -3.5799531   -2.0106405   0.22621792   -3.5799531    1.5693126  1200443 
 7528000    1.4283691   -3.5795128   -2.0109978   0.22501875   -3.5795128     1.568515  1200462 
 7529000    1.4286796   -3.5796017   -2.0107785   0.22500172   -3.5796017    1.5688232  1200487 
 7530000     1.427711   -3.5786362   -2.0109041   0.22724826   -3.5786362    1.5677321  1200508 
 7531000     1.429251   -3.5803663   -2.0109784   0.22627679   -3.5803663    1.5693879  1200535 
 7532000    1.4284579   -3.5797799   -2.0112942   0.22713757   -3.5797799    1.5684857  1200559 
 7533000    1.4289435   -3.5802025   -2.0112189   0.22501135   -3.5802025    1.5689836  1200586 
 7534000    1.4288919   -3.5805765   -2.0116888   0.22410355   -3.5805765    1.5688877  1200616 
 7535000    1.4291598   -3.5810751   -2.0119284   0.22093729   -3.5810751    1.5691467  1200643 
 7536000    1.4290602   -3.5806554   -2.0116429     0.221217   -3.5806554    1.5690125  1200662 
 7537000    1.4278146   -3.5796743   -2.0120569   0.22731912   -3.5796743    1.5676174  1200683 
 7538000     1.429011   -3.5807935   -2.0118991   0.22067406   -3.5807935    1.5688943  1200711 
 7539000    1.4294937   -3.5813696   -2.0119805    0.2203643   -3.5813696    1.5693891  1200738 
 7540000    1.4274115   -3.5791543   -2.0120839   0.22677058   -3.5791543    1.5670704  1200763 
 7541000    1.4288161   -3.5807178   -2.0121432   0.22592711   -3.5807178    1.5685746  1200792 
 7542000    1.4283878   -3.5803474   -2.0122823   0.22656484   -3.5803474    1.5680652  1200822 
 7543000    1.4285279   -3.5809957   -2.0128067   0.22638076   -3.5809957     1.568189  1200845 
 7544000    1.4286489   -3.5812423   -2.0129427   0.22594226   -3.5812423    1.5682996  1200862 
 7545000    1.4284319   -3.5804003    -2.012382   0.22418847   -3.5804003    1.5680183  1200895 
 7546000    1.4286346    -3.580305    -2.012085     0.226141    -3.580305    1.5682199  1200911 
 7547000    1.4277924   -3.5790864   -2.0118223   0.22258169   -3.5790864    1.5672641  1200935 
 7548000    1.4290988   -3.5804809   -2.0118142    0.2293001   -3.5804809    1.5686667  1200959 
 7549000    1.4294909   -3.5807468   -2.0116862   0.22493904   -3.5807468    1.5690606  1200987 
 7550000    1.4298057   -3.5806658   -2.0112858   0.22727015   -3.5806658      1.56938  1201007 
 7551000    1.4294117   -3.5804247   -2.0114955   0.22535543   -3.5804247    1.5689292  1201021 
 7552000    1.4290858   -3.5809432   -2.0123991   0.22527555   -3.5809432    1.5685441  1201042 
 7553000    1.4288834   -3.5808141   -2.0125326   0.22853452   -3.5808141    1.5682815  1201073 
 7554000    1.4284042   -3.5798527   -2.0121233   0.22708456   -3.5798527    1.5677294  1201093 
 7555000    1.4286715   -3.5808242   -2.0128262   0.22750617   -3.5808242     1.567998  1201112 
 7556000    1.4301497   -3.5807964   -2.0112074   0.22541616   -3.5807964     1.569589  1201136 
 7557000    1.4307144   -3.5811151   -2.0109391   0.22650133   -3.5811151     1.570176  1201161 
 7558000    1.4296415   -3.5805222   -2.0115523   0.23080488   -3.5805222    1.5689698  1201183 
 7559000    1.4295929   -3.5810381   -2.0121673   0.22479079   -3.5810381    1.5688708  1201218 
 7560000    1.4300233    -3.581287   -2.0119662   0.22411752    -3.581287    1.5693209  1201235 
 7561000     1.429047   -3.5799389   -2.0117102   0.23061141   -3.5799389    1.5682287  1201251 
 7562000    1.4296609   -3.5811068   -2.0122397   0.22436072   -3.5811068    1.5688671  1201278 
 7563000    1.4302525   -3.5814925   -2.0120062   0.22711702   -3.5814925    1.5694863  1201301 
 7564000    1.4300875   -3.5819606   -2.0126803   0.22494757   -3.5819606    1.5692803  1201320 
 7565000     1.430528   -3.5823483   -2.0126172   0.22271748   -3.5823483    1.5697311  1201345 
 7566000    1.4302078   -3.5818314   -2.0124778   0.22830692   -3.5818314    1.5693536  1201365 
 7567000    1.4299421   -3.5811514   -2.0121208   0.22509404   -3.5811514    1.5690306  1201389 
 7568000    1.4303445   -3.5809587   -2.0115218   0.22725677   -3.5809587    1.5694369  1201416 
 7569000    1.4310859   -3.5823094   -2.0120877   0.22186102   -3.5823094    1.5702217  1201438 
 7570000    1.4303571   -3.5810814    -2.011683   0.22606183   -3.5810814    1.5693985  1201456 
 7571000     1.430736   -3.5816002   -2.0118122     0.225811   -3.5816002    1.5697881  1201476 
 7572000    1.4292465   -3.5809531    -2.012828   0.22910635   -3.5809531    1.5681251  1201498 
 7573000    1.4298943   -3.5816319   -2.0128208   0.22703014   -3.5816319    1.5688111  1201517 
 7574000    1.4305415   -3.5821761   -2.0126889   0.22677998   -3.5821761    1.5694872  1201543 
 7575000    1.4320555   -3.5831704   -2.0120654     0.224599   -3.5831704     1.571105  1201576 
 7576000    1.4311518   -3.5820107   -2.0119127   0.22549709   -3.5820107    1.5700979  1201588 
 7577000    1.4304875   -3.5815188   -2.0121692   0.22948976   -3.5815188    1.5693496  1201603 
 7578000    1.4313331   -3.5826523   -2.0124077   0.22584901   -3.5826523    1.5702446  1201628 
 7579000    1.4314682   -3.5831434   -2.0127806   0.22444754   -3.5831434    1.5703627  1201651 
 7580000    1.4311283   -3.5831864   -2.0132083   0.22587297   -3.5831864     1.569978  1201660 
 7581000    1.4297397    -3.582015   -2.0136073   0.22684807    -3.582015    1.5684078  1201696 
 7582000    1.4292179   -3.5813646   -2.0135592   0.22836018   -3.5813646    1.5678054  1201719 
 7583000    1.4304582   -3.5823188   -2.0131816    0.2273005   -3.5823188    1.5691372  1201741 
 7584000    1.4305409   -3.5829205   -2.0137252   0.22326963   -3.5829205    1.5691953  1201766 
 7585000    1.4317993   -3.5844132   -2.0138638   0.22387926   -3.5844132    1.5705495  1201786 
 7586000    1.4298166   -3.5821308   -2.0137822   0.22726886   -3.5821308    1.5683486  1201806 
 7587000    1.4301936   -3.5830775   -2.0143468   0.22826573   -3.5830775    1.5687307  1201830 
 7588000     1.430642   -3.5835454   -2.0143502    0.2237502   -3.5835454    1.5691952  1201851 
 7589000    1.4296941   -3.5824224   -2.0142944   0.22819607   -3.5824224     1.568128  1201872 
 7590000    1.4314209   -3.5844755    -2.014486   0.22481878   -3.5844755    1.5699895  1201897 
 7591000    1.4307212    -3.583679   -2.0144871   0.22503151    -3.583679    1.5691919  1201920 
 7592000    1.4300836   -3.5825725   -2.0141111   0.22617706   -3.5825725    1.5684613  1201944 
 7593000    1.4322408   -3.5845888   -2.0138007    0.2243175   -3.5845888     1.570788  1201974 
 7594000    1.4298752   -3.5823215   -2.0141566   0.22872624   -3.5823215    1.5681649  1201996 
 7595000     1.431209   -3.5838092   -2.0142102   0.22578617   -3.5838092    1.5695991  1202018 
 7596000    1.4300835    -3.582235   -2.0139017   0.23171498    -3.582235    1.5683334  1202042 
 7597000    1.4300203   -3.5829636   -2.0147269    0.2274772   -3.5829636    1.5682367  1202063 
 7598000    1.4296957   -3.5835091   -2.0156597   0.23037744   -3.5835091    1.5678494  1202087 
 7599000    1.4299474   -3.5835265   -2.0154324   0.22773263   -3.5835265    1.5680941  1202111 
 7600000    1.4305498   -3.5843591   -2.0156279   0.22569666   -3.5843591    1.5687312  1202129 
 7601000    1.4301747   -3.5837902    -2.015516   0.22360617   -3.5837902    1.5682742  1202164 
 7602000    1.4300309   -3.5834824   -2.0153985   0.22988002   -3.5834824    1.5680839  1202189 
 7603000    1.4308978   -3.5836928   -2.0146961   0.23076367   -3.5836928    1.5689967  1202218 
 7604000    1.4306389   -3.5833198   -2.0146305   0.22904404   -3.5833198    1.5686893  1202236 
 7605000    1.4309507   -3.5833306   -2.0143307   0.22915092   -3.5833306    1.5689998  1202260 
 7606000    1.4303788   -3.5835218   -2.0151764   0.22614165   -3.5835218    1.5683454  1202281 
 7607000    1.4314816   -3.5844437   -2.0149257   0.22416385   -3.5844437     1.569518  1202309 
 7608000    1.4318816   -3.5837723   -2.0138392   0.22861661   -3.5837723    1.5699331  1202327 
 7609000    1.4315212   -3.5839477   -2.0144451   0.23009634   -3.5839477    1.5695026  1202354 
 7610000    1.4310451   -3.5841652   -2.0152211   0.22658365   -3.5841652    1.5689441  1202382 
 7611000     1.430407   -3.5839274   -2.0157076   0.22297718   -3.5839274    1.5682198  1202401 
 7612000    1.4312519   -3.5842329   -2.0151142   0.22979066   -3.5842329    1.5691187  1202422 
 7613000    1.4302924   -3.5836261    -2.015592   0.22883942   -3.5836261    1.5680341  1202447 
 7614000    1.4308339   -3.5845947   -2.0159865   0.22577204   -3.5845947    1.5686082  1202462 
 7615000    1.4311203   -3.5846369   -2.0157422   0.22625483   -3.5846369    1.5688947  1202483 
 7616000    1.4300293   -3.5840199   -2.0163406   0.22449414   -3.5840199    1.5676792  1202498 
 7617000    1.4304219   -3.5841175   -2.0160223   0.22936598   -3.5841175    1.5680953  1202509 
 7618000    1.4306313   -3.5844463   -2.0161593   0.23018065   -3.5844463     1.568287  1202538 
 7619000    1.4308396   -3.5848908   -2.0164042   0.22267349   -3.5848908    1.5684866  1202560 
 7620000    1.4304008   -3.5841753   -2.0161944   0.22848173   -3.5841753    1.5679809  1202579 
 7621000    1.4316078   -3.5857064   -2.0164272   0.22688833   -3.5857064    1.5692792  1202598 
 7622000    1.4306287   -3.5844068   -2.0162244   0.22742365   -3.5844068    1.5681825  1202616 
 7623000    1.4313041    -3.584895   -2.0159996   0.22746921    -3.584895    1.5688954  1202637 
 7624000    1.4302367   -3.5837365   -2.0160412   0.23410072   -3.5837365    1.5676953  1202660 
 7625000    1.4318769   -3.5860385   -2.0165622   0.22419951   -3.5860385    1.5694762  1202673 
 7626000    1.4316648    -3.585511   -2.0162867   0.22658487    -3.585511    1.5692242  1202688 
 7627000    1.4311652   -3.5854963   -2.0168457   0.22709142   -3.5854963    1.5686505  1202708 
 7628000    1.4318508   -3.5863546   -2.0169786   0.22979466   -3.5863546    1.5693759  1202728 
 7629000    1.4310274   -3.5860053   -2.0175555   0.22617221   -3.5860053    1.5684499  1202746 
 7630000    1.4314048   -3.5866464   -2.0178103     0.226256   -3.5866464    1.5688362  1202767 
 7631000    1.4308636    -3.586132   -2.0179216   0.22705685    -3.586132    1.5682104  1202792 
 7632000    1.4309539   -3.5863034   -2.0180227   0.22730632   -3.5863034    1.5682807  1202814 
 7633000    1.4313314   -3.5869258   -2.0182549   0.22634075   -3.5869258    1.5686709  1202832 
 7634000    1.4307264   -3.5859156   -2.0179416   0.23091357   -3.5859156     1.567974  1202858 
 7635000    1.4313584   -3.5861385    -2.017498   0.22679149   -3.5861385    1.5686405  1202878 
 7636000    1.4319077   -3.5863375   -2.0171263   0.22245691   -3.5863375    1.5692112  1202902 
 7637000    1.4318049   -3.5864207   -2.0173469   0.22440134   -3.5864207    1.5690738  1202921 
 7638000    1.4304329   -3.5856726   -2.0181258   0.23075455   -3.5856726    1.5675468  1202939 
 7639000    1.4310696   -3.5859739   -2.0177515   0.22543845   -3.5859739    1.5682223  1202956 
 7640000    1.4307658   -3.5857739   -2.0179249   0.22823875   -3.5857739    1.5678491  1202987 
 7641000    1.4320591   -3.5865658   -2.0173244   0.23025573   -3.5865658    1.5692414  1203006 
 7642000    1.4316603   -3.5862909   -2.0175125   0.22988885   -3.5862909    1.5687784  1203026 
 7643000    1.4319463   -3.5866248   -2.0175695   0.22706462   -3.5866248    1.5690553  1203054 
 7644000    1.4318579   -3.5868995   -2.0179776   0.22521041   -3.5868995    1.5689219  1203082 
 7645000    1.4318015    -3.586109   -2.0172724    0.2260688    -3.586109    1.5688366  1203100 
 7646000    1.4313884   -3.5855412   -2.0171963   0.23088119   -3.5855412    1.5683448  1203130 
 7647000    1.4312147   -3.5852885   -2.0171627   0.22683455   -3.5852885    1.5681258  1203152 
 7648000    1.4308898   -3.5846776   -2.0169285   0.22797526   -3.5846776     1.567749  1203168 
 7649000    1.4321402   -3.5855835   -2.0164919    0.2286861   -3.5855835    1.5690916  1203189 
 7650000    1.4325998   -3.5864893   -2.0169098   0.22671075   -3.5864893    1.5695795  1203201 
 7651000    1.4323114   -3.5859928    -2.016758   0.22663929   -3.5859928    1.5692348  1203223 
 7652000    1.4316419   -3.5856312   -2.0171702   0.22972329   -3.5856312    1.5684609  1203254 
 7653000    1.4325632   -3.5864088   -2.0169698   0.22947516   -3.5864088     1.569439  1203278 
 7654000    1.4322629   -3.5865306    -2.017457   0.22709406   -3.5865306    1.5690735  1203306 
 7655000    1.4315303    -3.585614   -2.0173717   0.23034518    -3.585614    1.5682423  1203328 
 7656000    1.4315506   -3.5857927   -2.0175609    0.2350877   -3.5857927    1.5682319  1203353 
 7657000    1.4326114   -3.5872749   -2.0179031   0.22613183   -3.5872749    1.5693719  1203370 
 7658000    1.4337765   -3.5885124   -2.0178877   0.22362791   -3.5885124    1.5706247  1203388 
 7659000    1.4315377   -3.5861504   -2.0180069   0.22999259   -3.5861504    1.5681435  1203410 
 7660000    1.4316605   -3.5865849    -2.018329   0.23135463   -3.5865849    1.5682559  1203427 
 7661000    1.4327376   -3.5870012   -2.0175941   0.22862327   -3.5870012     1.569407  1203449 
 7662000    1.4329074   -3.5875504   -2.0179744   0.23070052   -3.5875504    1.5695761  1203462 
 7663000    1.4323853   -3.5876833   -2.0187143   0.22553788   -3.5876833     1.568969  1203489 
 7664000    1.4315294   -3.5860628   -2.0180627   0.22896828   -3.5860628    1.5680002  1203513 
 7665000    1.4335669   -3.5887621    -2.018568   0.22602235   -3.5887621    1.5701941  1203542 
 7666000    1.4323228   -3.5869589   -2.0181587   0.22988963   -3.5869589    1.5688002  1203566 
 7667000    1.4332079   -3.5882094   -2.0184724   0.22701229   -3.5882094     1.569737  1203591 
 7668000    1.4311095   -3.5862347   -2.0188208   0.23487405   -3.5862347    1.5674139  1203610 
 7669000    1.4328824   -3.5877155   -2.0183833   0.22620151   -3.5877155    1.5693322  1203628 
 7670000    1.4335491   -3.5884009   -2.0183607   0.22462196   -3.5884009    1.5700402  1203645 
 7671000    1.4331973   -3.5878167   -2.0181943   0.22984675   -3.5878167    1.5696224  1203670 
 7672000    1.4323259   -3.5875772   -2.0189248   0.22554008   -3.5875772    1.5686524  1203682 
 7673000    1.4331085   -3.5884848   -2.0189988    0.2258546   -3.5884848    1.5694859  1203700 
 7674000    1.4313375   -3.5868973   -2.0193873   0.23272721   -3.5868973      1.56751  1203728 
 7675000    1.4324833    -3.587916   -2.0191734   0.23032743    -3.587916    1.5687426  1203745 
 7676000    1.4323157   -3.5877347   -2.0192004   0.23040335   -3.5877347    1.5685343  1203764 
 7677000    1.4313079   -3.5866078   -2.0192136   0.23743172   -3.5866078    1.5673942  1203792 
 7678000    1.4332608   -3.5885924   -2.0190909   0.22671423   -3.5885924    1.5695015  1203816 
 7679000    1.4340062   -3.5887513   -2.0184687   0.22558034   -3.5887513    1.5702826  1203843 
 7680000     1.432487   -3.5877527   -2.0191598   0.22755534   -3.5877527    1.5685929  1203863 
 7681000    1.4327431   -3.5884776   -2.0196303   0.22586927   -3.5884776    1.5688473  1203883 
 7682000    1.4335826   -3.5895555   -2.0198085   0.22623857   -3.5895555     1.569747  1203898 
 7683000    1.4331388   -3.5885453   -2.0193195    0.2271553   -3.5885453    1.5692258  1203925 
 7684000    1.4323805   -3.5879605   -2.0195871   0.23021107   -3.5879605    1.5683734  1203942 
 7685000    1.4328241    -3.588579   -2.0197472   0.22915048    -3.588579    1.5688318  1203963 
 7686000    1.4327595   -3.5885513   -2.0198112   0.22850832   -3.5885513    1.5687402  1203979 
 7687000    1.4325788   -3.5885214   -2.0199985   0.22741301   -3.5885214    1.5685228  1203994 
 7688000     1.432395   -3.5888958   -2.0206016   0.22786137   -3.5888958    1.5682942  1204015 
 7689000    1.4332823   -3.5893424   -2.0201054   0.22720118   -3.5893424     1.569237  1204037 
 7690000    1.4336501   -3.5899787   -2.0203716   0.22543027   -3.5899787    1.5696071  1204062 
 7691000    1.4326541   -3.5882973   -2.0198067   0.22931746   -3.5882973    1.5684906  1204082 
 7692000    1.4332515   -3.5892088   -2.0200968   0.22854492   -3.5892088     1.569112  1204107 
 7693000    1.4335083   -3.5897915   -2.0204361    0.2265519   -3.5897915    1.5693554  1204136 
 7694000    1.4323305   -3.5885135   -2.0204776   0.22923046   -3.5885135     1.568036  1204159 
 7695000    1.4326672   -3.5882248   -2.0198424   0.23534022   -3.5882248    1.5683824  1204176 
 7696000    1.4340437   -3.5895648   -2.0197042    0.2283036   -3.5895648    1.5698607  1204198 
 7697000    1.4339293   -3.5903387   -2.0206294   0.22823335   -3.5903387    1.5697094  1204218 
 7698000    1.4324264   -3.5882468   -2.0202151   0.22945872   -3.5882468    1.5680317  1204243 
 7699000    1.4327395   -3.5885033   -2.0201629    0.2261896   -3.5885033    1.5683404  1204269 
 7700000    1.4336128   -3.5900779    -2.020814   0.23122376   -3.5900779    1.5692639  1204294 
 7701000    1.4328452     -3.58983    -2.021435   0.22538812     -3.58983     1.568395  1204316 
 7702000    1.4322465    -3.588631   -2.0209238    0.2324594    -3.588631    1.5677071  1204341 
 7703000    1.4323014   -3.5891726   -2.0214354   0.22814037   -3.5891726    1.5677373  1204364 
 7704000    1.4326496   -3.5892434   -2.0211433   0.22854396   -3.5892434    1.5681001  1204378 
 7705000    1.4328827   -3.5895789   -2.0212496   0.23095658   -3.5895789    1.5683293  1204398 
 7706000     1.432586   -3.5886713   -2.0206994   0.22861145   -3.5886713    1.5679719  1204423 
 7707000    1.4322293   -3.5889507   -2.0213965   0.23112912   -3.5889507    1.5675542  1204444 
 7708000    1.4327843   -3.5895863   -2.0214546   0.23081996   -3.5895863    1.5681317  1204467 
 7709000    1.4329032   -3.5894582   -2.0212185   0.23169565   -3.5894582    1.5682397  1204484 
 7710000    1.4338561   -3.5905517   -2.0213082   0.22288484   -3.5905517    1.5692435  1204514 
 7711000    1.4327377    -3.589062   -2.0210672   0.22905781    -3.589062    1.5679948  1204533 
 7712000    1.4324839   -3.5894991   -2.0218185    0.2275517   -3.5894991    1.5676806  1204561 
 7713000    1.4334489   -3.5903511   -2.0216392   0.22804175   -3.5903511    1.5687119  1204580 
 7714000    1.4338722   -3.5900825   -2.0209425   0.22925127   -3.5900825      1.56914  1204607 
 7715000    1.4345689   -3.5911075   -2.0212416   0.22841958   -3.5911075    1.5698659  1204635 
 7716000    1.4331719   -3.5899569   -2.0216366   0.23018457   -3.5899569    1.5683203  1204648 
 7717000    1.4329828   -3.5899654   -2.0218834    0.2291521   -3.5899654    1.5680821  1204672 
 7718000    1.4338134   -3.5912558   -2.0222844   0.23117301   -3.5912558    1.5689714  1204687 
 7719000    1.4327705   -3.5901385   -2.0223304   0.22915695   -3.5901385    1.5678081  1204704 
 7720000    1.4326271   -3.5901798   -2.0225559   0.23379035   -3.5901798    1.5676239  1204725 
 7721000    1.4346348   -3.5920322    -2.022244   0.22391822   -3.5920322    1.5697882  1204750 
 7722000    1.4339094   -3.5912583   -2.0222847   0.22832608   -3.5912583    1.5689736  1204766 
 7723000    1.4330506   -3.5904835   -2.0224795   0.22983981   -3.5904835     1.568004  1204789 
 7724000    1.4336992   -3.5912216   -2.0225365   0.22882473   -3.5912216     1.568685  1204811 
 7725000    1.4324666   -3.5901919   -2.0228816   0.22992577   -3.5901919    1.5673103  1204831 
 7726000      1.43308   -3.5901547   -2.0221889    0.2320583   -3.5901547    1.5679659  1204843 
 7727000    1.4340892    -3.590891   -2.0218418   0.22818966    -3.590891    1.5690492  1204859 
 7728000    1.4336193   -3.5898628   -2.0213563   0.23238766   -3.5898628    1.5685065  1204881 
 7729000    1.4350069   -3.5911822   -2.0211927   0.22832542   -3.5911822    1.5699894  1204908 
 7730000     1.434752   -3.5909711   -2.0213048   0.23300122   -3.5909711    1.5696663  1204942 
 7731000    1.4343941   -3.5906306   -2.0213845   0.23433575   -3.5906306    1.5692461  1204964 
 7732000    1.4342261   -3.5903249   -2.0212926   0.23314908   -3.5903249    1.5690323  1204987 
 7733000    1.4335013   -3.5907159   -2.0225078   0.23119377   -3.5907159    1.5682082  1205011 
 7734000    1.4340026   -3.5904767   -2.0217488   0.22932343   -3.5904767    1.5687279  1205033 
 7735000    1.4343429   -3.5916129   -2.0225349   0.22871733   -3.5916129     1.569078  1205050 
 7736000    1.4343015   -3.5912968   -2.0222875   0.22763221   -3.5912968    1.5690093  1205068 
 7737000    1.4327784   -3.5905766   -2.0232569   0.23199236   -3.5905766    1.5673198  1205086 
 7738000    1.4332177   -3.5911536   -2.0233753   0.23121746   -3.5911536    1.5677782  1205103 
 7739000    1.4339232    -3.592509   -2.0239942   0.22604081    -3.592509    1.5685148  1205130 
 7740000     1.434094   -3.5931078   -2.0244387   0.22711461   -3.5931078    1.5686691  1205155 
 7741000     1.434476    -3.593413   -2.0243534    0.2269481    -3.593413    1.5690596  1205176 
 7742000    1.4338012   -3.5928805   -2.0245812   0.22954958   -3.5928805    1.5682994  1205193 
 7743000    1.4326363   -3.5920203   -2.0250224   0.23266799   -3.5920203    1.5669979  1205214 
 7744000    1.4331012     -3.59301   -2.0255257   0.22661657     -3.59301    1.5674843  1205231 
 7745000    1.4332338   -3.5927664   -2.0251501    0.2291743   -3.5927664    1.5676163  1205241 
 7746000    1.4320802   -3.5915072    -2.025167   0.22952562   -3.5915072    1.5663402  1205252 
 7747000    1.4334182    -3.592939   -2.0251613   0.22975723    -3.592939    1.5677777  1205272 
 7748000    1.4323257   -3.5914806   -2.0249147   0.23341254   -3.5914806    1.5665659  1205285 
 7749000    1.4330723   -3.5923744   -2.0250114   0.23280959   -3.5923744     1.567363  1205300 
 7750000    1.4341805   -3.5939548   -2.0254111   0.23170691   -3.5939548    1.5685437  1205324 
 7751000    1.4327568   -3.5929554   -2.0259895   0.23051443   -3.5929554    1.5669659  1205340 
 7752000     1.433527   -3.5934919   -2.0257045   0.23434173   -3.5934919    1.5677874  1205356 
 7753000    1.4327091   -3.5928432   -2.0259763   0.23116904   -3.5928432    1.5668669  1205376 
 7754000    1.4334218   -3.5935566   -2.0259389   0.23049917   -3.5935566    1.5676178  1205398 
 7755000    1.4341526   -3.5941059   -2.0257202   0.22932821   -3.5941059    1.5683857  1205422 
 7756000     1.433171   -3.5926811   -2.0254118   0.22927803   -3.5926811    1.5672693  1205455 
 7757000    1.4344988   -3.5939476   -2.0252535   0.22998611   -3.5939476     1.568694  1205476 
 7758000    1.4342206   -3.5934003   -2.0250404   0.23063856   -3.5934003    1.5683599  1205499 
 7759000    1.4347736   -3.5942881   -2.0253391    0.2266166   -3.5942881     1.568949  1205511 
 7760000    1.4336133    -3.593558   -2.0259077   0.22530445    -3.593558    1.5676503  1205534 
 7761000    1.4337345   -3.5938181   -2.0260665   0.22625556   -3.5938181    1.5677516  1205558 
 7762000    1.4342598   -3.5939506   -2.0256532   0.22512745   -3.5939506    1.5682974  1205580 
 7763000    1.4330278   -3.5924837   -2.0255633   0.22830315   -3.5924837    1.5669204  1205603 
 7764000    1.4346874   -3.5937076   -2.0249948   0.23223416   -3.5937076    1.5687129  1205620 
 7765000    1.4335164   -3.5919077   -2.0245038   0.23549334   -3.5919077    1.5674039  1205642 
 7766000    1.4340476   -3.5933351   -2.0253907   0.22697568   -3.5933351    1.5679444  1205673 
 7767000    1.4334589   -3.5931759   -2.0259063   0.22711271   -3.5931759    1.5672696  1205697 
 7768000    1.4339258   -3.5935415   -2.0257901   0.22659514   -3.5935415    1.5677514  1205719 
 7769000    1.4340473   -3.5938442    -2.025982   0.22696199   -3.5938442    1.5678622  1205736 
 7770000    1.4345465   -3.5941617   -2.0257811   0.22610437   -3.5941617    1.5683806  1205757 
 7771000    1.4336421   -3.5926017   -2.0252372   0.23057502   -3.5926017    1.5673645  1205778 
 7772000     1.432709   -3.5926064   -2.0262906    0.2332759   -3.5926064    1.5663158  1205800 
 7773000    1.4342193   -3.5937672   -2.0258367   0.22675951   -3.5937672    1.5679305  1205828 
 7774000    1.4343214   -3.5944792   -2.0264799   0.22628851   -3.5944792    1.5679993  1205861 
 7775000    1.4354936    -3.595262   -2.0260034   0.22969513    -3.595262    1.5692586  1205878 
 7776000    1.4342942    -3.594074   -2.0261565     0.231828    -3.594074    1.5679175  1205901 
 7777000    1.4331936   -3.5936043   -2.0269159   0.23190797   -3.5936043    1.5666884  1205921 
 7778000    1.4342456   -3.5950121    -2.027201   0.22909384   -3.5950121    1.5678111  1205942 
 7779000    1.4342303   -3.5950496   -2.0272838   0.23179921   -3.5950496    1.5677658  1205964 
 7780000    1.4349608   -3.5960231   -2.0274848   0.22772417   -3.5960231    1.5685383  1205984 
 7781000    1.4332895   -3.5945612   -2.0278757   0.22894963   -3.5945612    1.5666854  1206004 
 7782000    1.4335865   -3.5946729   -2.0277005   0.22912662   -3.5946729    1.5669724  1206033 
 7783000    1.4336875   -3.5940681   -2.0270049   0.23404254   -3.5940681    1.5670633  1206048 
 7784000    1.4336001   -3.5947621   -2.0278242   0.23187575   -3.5947621    1.5669379  1206071 
 7785000    1.4339069   -3.5943723   -2.0271251   0.22964825   -3.5943723    1.5672473  1206091 
 7786000    1.4334748   -3.5937981   -2.0270479   0.23271352   -3.5937981    1.5667502  1206110 
 7787000    1.4351562   -3.5954759   -2.0269086   0.23365084   -3.5954759    1.5685672  1206126 
 7788000    1.4344869   -3.5948377   -2.0270281   0.23217052   -3.5948377    1.5678097  1206146 
 7789000    1.4337886   -3.5943332   -2.0273114   0.23417102   -3.5943332    1.5670217  1206165 
 7790000     1.434559   -3.5951647   -2.0273166   0.23090113   -3.5951647    1.5678481  1206177 
 7791000    1.4348563    -3.595634   -2.0274831   0.22860806    -3.595634    1.5681509  1206194 
 7792000    1.4342049   -3.5948799   -2.0274682   0.23033161   -3.5948799    1.5674117  1206215 
 7793000    1.4342364   -3.5947774   -2.0273675   0.22792553   -3.5947774    1.5674098  1206243 
 7794000    1.4339373    -3.594233     -2.02718   0.23079589    -3.594233    1.5670531  1206266 
 7795000    1.4336682   -3.5942593   -2.0275341   0.22875314   -3.5942593    1.5667252  1206292 
 7796000    1.4341456   -3.5949018   -2.0276757   0.22831425   -3.5949018    1.5672261  1206308 
 7797000    1.4342835   -3.5948189   -2.0274615   0.22906057   -3.5948189    1.5673574  1206323 
 7798000    1.4344131   -3.5954929   -2.0280212   0.23294878   -3.5954929    1.5674717  1206344 
 7799000    1.4335558   -3.5947195   -2.0282237   0.23346333   -3.5947195    1.5664959  1206374 
 7800000    1.4333198   -3.5942017   -2.0280065   0.23462457   -3.5942017    1.5661952  1206407 
 7801000    1.4342958   -3.5954137   -2.0282002   0.22962372   -3.5954137    1.5672135  1206444 
 7802000    1.4347287   -3.5956534    -2.028011   0.23252271   -3.5956534    1.5676424  1206478 
 7803000    1.4349328   -3.5964021   -2.0285522   0.23033478   -3.5964021    1.5678499  1206490 
 7804000    1.4356017   -3.5965726   -2.0280283   0.23251098   -3.5965726    1.5685443  1206518 
 7805000    1.4348512   -3.5959799   -2.0282894   0.23015193   -3.5959799    1.5676905  1206544 
 7806000    1.4345182   -3.5963205   -2.0290186   0.22776835   -3.5963205     1.567302  1206563 
 7807000    1.4347724    -3.596756   -2.0292101   0.23274918    -3.596756    1.5675459  1206589 
 7808000    1.4349412   -3.5962678   -2.0285726   0.23162338   -3.5962678    1.5676952  1206616 
 7809000    1.4356811   -3.5973173   -2.0288527   0.22743865   -3.5973173    1.5684646  1206646 
 7810000    1.4351972   -3.5966755   -2.0287642   0.22777921   -3.5966755    1.5679113  1206665 
 7811000    1.4347955     -3.59587   -2.0284326   0.23419822     -3.59587    1.5674374  1206692 
 7812000    1.4354754   -3.5962658   -2.0281025   0.23342348   -3.5962658    1.5681633  1206705 
 7813000    1.4346262   -3.5960002   -2.0287998   0.23152402   -3.5960002    1.5672005  1206732 
 7814000    1.4348563   -3.5964778   -2.0290454   0.22671978   -3.5964778    1.5674323  1206747 
 7815000    1.4353233   -3.5971212   -2.0292021   0.23300755   -3.5971212    1.5679191  1206765 
 7816000     1.434793   -3.5963191   -2.0290091   0.23255656   -3.5963191      1.56731  1206788 
 7817000    1.4348879   -3.5964617   -2.0290688   0.23271698   -3.5964617    1.5673929  1206804 
 7818000    1.4361954   -3.5970885   -2.0282908   0.23023057   -3.5970885    1.5687977  1206822 
 7819000    1.4352959   -3.5972487   -2.0294595   0.22895897   -3.5972487    1.5677892  1206842 
 7820000    1.4350681   -3.5964488   -2.0289448   0.23043367   -3.5964488     1.567504  1206870 
 7821000    1.4352564   -3.5964013   -2.0287163   0.22977301   -3.5964013    1.5676849  1206889 
 7822000    1.4359107   -3.5964149   -2.0280439   0.23215588   -3.5964149     1.568371  1206911 
 7823000    1.4349097    -3.596025   -2.0287811   0.23254051    -3.596025    1.5672439  1206937 
 7824000    1.4356008   -3.5967762   -2.0288112   0.22787549   -3.5967762     1.567965  1206963 
 7825000    1.4351331   -3.5962802   -2.0288533   0.23200952   -3.5962802    1.5674269  1206984 
 7826000    1.4349915   -3.5954724   -2.0282274   0.23543002   -3.5954724     1.567245  1207005 
 7827000    1.4355638   -3.5965431   -2.0287095   0.23359218   -3.5965431    1.5678337  1207033 
 7828000     1.435698   -3.5966786   -2.0287152   0.23544782   -3.5966786    1.5679634  1207046 
 7829000    1.4357901   -3.5971845   -2.0291491   0.23161785   -3.5971845    1.5680354  1207068 
 7830000    1.4360837   -3.5972013    -2.028879   0.22879439   -3.5972013    1.5683222  1207094 
 7831000    1.4363231   -3.5981382   -2.0295896   0.23297636   -3.5981382    1.5685485  1207121 
 7832000    1.4362215   -3.5975302   -2.0291147   0.22873267   -3.5975302    1.5684155  1207138 
 7833000    1.4369802   -3.5975233    -2.028304   0.23234672   -3.5975233    1.5692193  1207157 
 7834000    1.4356016   -3.5964541   -2.0287753   0.23739361   -3.5964541    1.5676788  1207184 
 7835000    1.4358677    -3.596459   -2.0285117   0.23626791    -3.596459    1.5679473  1207201 
 7836000    1.4348874   -3.5960715   -2.0292322   0.23396357   -3.5960715    1.5668392  1207230 
 7837000    1.4359567   -3.5974533   -2.0294699   0.23476658   -3.5974533    1.5679834  1207248 
 7838000    1.4357126   -3.5968265   -2.0291343   0.23761637   -3.5968265    1.5676922  1207267 
 7839000    1.4372018   -3.5982163   -2.0289278   0.22926879   -3.5982163    1.5692884  1207290 
 7840000    1.4373151   -3.5987567   -2.0293783   0.23119452   -3.5987567    1.5693784  1207316 
 7841000    1.4362762   -3.5983771   -2.0301591   0.23401602   -3.5983771     1.568218  1207336 
 7842000    1.4365778   -3.5988053   -2.0302852   0.23245671   -3.5988053    1.5685201  1207357 
 7843000    1.4365725   -3.5983615   -2.0298797   0.23232187   -3.5983615    1.5684818  1207382 
 7844000    1.4367088   -3.5986549   -2.0300529   0.23343347   -3.5986549     1.568602  1207404 
 7845000    1.4353616   -3.5977879     -2.03068   0.22991732   -3.5977879    1.5671078  1207422 
 7846000    1.4355026   -3.5984547   -2.0312229   0.23078534   -3.5984547    1.5672318  1207445 
 7847000    1.4348156   -3.5974285   -2.0309778   0.23259193   -3.5974285    1.5664507  1207469 
 7848000    1.4355776    -3.598643   -2.0313759   0.22989643    -3.598643     1.567267  1207481 
 7849000    1.4353354   -3.5984982   -2.0315306   0.22903247   -3.5984982    1.5669676  1207508 
 7850000    1.4353684   -3.5989473   -2.0319709    0.2292619   -3.5989473    1.5669764  1207529 
 7851000    1.4335652    -3.597285   -2.0323018   0.23450296    -3.597285    1.5649832  1207548 
 7852000    1.4356484    -3.599532   -2.0323032   0.22945384    -3.599532    1.5672288  1207570 
 7853000    1.4363204   -3.6001597   -2.0322285   0.22964642   -3.6001597    1.5679313  1207594 
 7854000    1.4355021   -3.5990237   -2.0320221   0.23279554   -3.5990237    1.5670017  1207622 
 7855000    1.4366879   -3.5997791   -2.0315272    0.2342255   -3.5997791    1.5682519  1207656 
 7856000    1.4360917   -3.5991365   -2.0315562   0.23084495   -3.5991365    1.5675803  1207672 
 7857000    1.4362598    -3.599585   -2.0318498   0.23151569    -3.599585    1.5677352  1207694 
 7858000    1.4346598   -3.5979504   -2.0319966   0.23955961   -3.5979504    1.5659537  1207721 
 7859000    1.4359681    -3.599072   -2.0317265   0.23278689    -3.599072    1.5673455  1207749 
 7860000     1.436693   -3.5992783   -2.0311727   0.23537705   -3.5992783    1.5681055  1207773 
 7861000    1.4367225   -3.5990792     -2.03097   0.23223523   -3.5990792    1.5681091  1207795 
 7862000    1.4361039   -3.5993975   -2.0319946   0.23379004   -3.5993975    1.5674029  1207819 
 7863000    1.4375195   -3.6003746   -2.0314514   0.22827278   -3.6003746    1.5689232  1207838 
 7864000    1.4363551   -3.5999207   -2.0322982   0.23501497   -3.5999207    1.5676226  1207861 
 7865000    1.4355106    -3.599592   -2.0329184   0.22791443    -3.599592    1.5666736  1207882 
 7866000    1.4353532    -3.599877   -2.0334089   0.23402372    -3.599877    1.5664681  1207908 
 7867000    1.4359133   -3.5998973   -2.0328582   0.23187969   -3.5998973    1.5670391  1207939 
 7868000    1.4369242   -3.5993722   -2.0312545   0.23460183   -3.5993722    1.5681176  1207958 
 7869000     1.436976   -3.5989453   -2.0307841   0.23632957   -3.5989453    1.5681612  1207968 
 7870000    1.4376374   -3.5993929   -2.0305384   0.23727492   -3.5993929    1.5688545  1207990 
 7871000    1.4373716   -3.5993755   -2.0308344   0.23127207   -3.5993755     1.568541  1208008 
 7872000    1.4377077   -3.5992088   -2.0303321   0.23114991   -3.5992088    1.5688767  1208032 
 7873000    1.4380642   -3.5995686   -2.0303354   0.22877526   -3.5995686    1.5692332  1208057 
 7874000    1.4381031   -3.5995755   -2.0303311   0.23262296   -3.5995755    1.5692444  1208081 
 7875000    1.4375821   -3.5996564   -2.0309986   0.23613108   -3.5996564    1.5686577  1208095 
 7876000    1.4367421   -3.5987261   -2.0310031   0.23689212   -3.5987261    1.5677229  1208109 
 7877000    1.4377608   -3.6003858   -2.0315733   0.23088818   -3.6003858    1.5688125  1208126 
 7878000    1.4360886   -3.5989554   -2.0319883   0.23467662   -3.5989554    1.5669671  1208142 
 7879000     1.436898    -3.599826   -2.0320004   0.23327711    -3.599826    1.5678256  1208161 
 7880000    1.4371591    -3.600651     -2.03256   0.22855952    -3.600651     1.568091  1208176 
 7881000    1.4364984    -3.599911   -2.0325616    0.2339565    -3.599911    1.5673494  1208192 
 7882000    1.4369021   -3.5999475   -2.0321824   0.23340477   -3.5999475    1.5677652  1208211 
 7883000    1.4375229   -3.6008028    -2.032407   0.23378107   -3.6008028    1.5683958  1208247 
 7884000    1.4370866   -3.5999474   -2.0320626   0.23485688   -3.5999474    1.5678848  1208274 
 7885000    1.4368492   -3.6004891   -2.0328906   0.23531306   -3.6004891    1.5675985  1208295 
 7886000    1.4369602   -3.6008418   -2.0331338   0.23330529   -3.6008418     1.567708  1208304 
 7887000    1.4375337   -3.6016561   -2.0333446   0.22945793   -3.6016561    1.5683115  1208321 
 7888000    1.4365247    -3.601217    -2.034036   0.23471679    -3.601217    1.5671809  1208344 
 7889000    1.4367096   -3.6012119   -2.0338617   0.23065189   -3.6012119    1.5673502  1208369 
 7890000    1.4368984   -3.6013418   -2.0338142    0.2313982   -3.6013418    1.5675277  1208391 
 7891000    1.4359174   -3.6000616   -2.0336392   0.23938849   -3.6000616    1.5664224  1208418 
 7892000     1.436394   -3.6012703   -2.0343603   0.23239121   -3.6012703      1.56691  1208443 
 7893000    1.4368371   -3.6022973   -2.0349274   0.23363365   -3.6022973      1.56737  1208461 
 7894000     1.435931   -3.6011033   -2.0347529   0.22971955   -3.6011033    1.5663504  1208485 
 7895000    1.4354861   -3.6009906   -2.0351423   0.23215056   -3.6009906    1.5658483  1208498 
 7896000    1.4363607   -3.6024293   -2.0356439    0.2302151   -3.6024293    1.5667854  1208511 
 7897000    1.4366212    -3.602681   -2.0356347   0.23036383    -3.602681    1.5670463  1208529 
 7898000    1.4372503    -3.602554   -2.0348592   0.23337257    -3.602554    1.5676948  1208558 
 7899000    1.4364482   -3.6015613   -2.0347699   0.23481088   -3.6015613    1.5667914  1208580 
 7900000    1.4371003   -3.6017731    -2.034299   0.23449846   -3.6017731    1.5674741  1208602 
 7901000    1.4380455   -3.6029777   -2.0345102    0.2297592   -3.6029777    1.5684675  1208631 
 7902000    1.4363632   -3.6016483   -2.0350546   0.23448034   -3.6016483    1.5665937  1208661 
 7903000    1.4371221   -3.6015448   -2.0341519   0.23100126   -3.6015448    1.5673929  1208683 
 7904000    1.4373425   -3.6010659   -2.0334637     0.233724   -3.6010659    1.5676021  1208707 
 7905000    1.4380836   -3.6027145   -2.0343365   0.23012099   -3.6027145     1.568378  1208732 
 7906000    1.4371545   -3.6014266   -2.0340917   0.23361871   -3.6014266    1.5673349  1208755 
 7907000    1.4379365   -3.6023986   -2.0342239   0.23507476   -3.6023986    1.5681747  1208765 
 7908000     1.437541   -3.6026737   -2.0349536    0.2295264   -3.6026737    1.5677201  1208783 
 7909000    1.4375339   -3.6016907   -2.0339978   0.22987506   -3.6016907    1.5676929  1208798 
 7910000    1.4373975   -3.6018485   -2.0343316    0.2303211   -3.6018485    1.5675169  1208819 
 7911000    1.4371801   -3.6017655   -2.0345155   0.22952447   -3.6017655      1.56725  1208842 
 7912000     1.437797   -3.6019853   -2.0341054   0.23316399   -3.6019853      1.56788  1208875 
 7913000    1.4376489   -3.6024896   -2.0348114   0.23396414   -3.6024896    1.5676782  1208906 
 7914000    1.4377654   -3.6029397   -2.0351707    0.2347609   -3.6029397     1.567769  1208934 
 7915000    1.4379282   -3.6028141   -2.0348923   0.23058243   -3.6028141    1.5679218  1208953 
 7916000    1.4367822   -3.6012494   -2.0345992   0.23412088   -3.6012494    1.5666502  1208970 
 7917000    1.4375039   -3.6014537    -2.034049   0.23482122   -3.6014537    1.5674048  1208995 
 7918000    1.4383391   -3.6020697    -2.033779   0.23671852   -3.6020697    1.5682907  1209014 
 7919000    1.4381751   -3.6023615    -2.034304   0.23255607   -3.6023615    1.5680575  1209056 
 7920000    1.4372235   -3.6008424   -2.0338471   0.23836078   -3.6008424    1.5669953  1209075 
 7921000    1.4378501   -3.6015396   -2.0338935   0.23602082   -3.6015396    1.5676461  1209100 
 7922000    1.4382352   -3.6028306   -2.0347945   0.23431096   -3.6028306    1.5680361  1209123 
 7923000    1.4384577   -3.6037583   -2.0354926    0.2302646   -3.6037583    1.5682657  1209133 
 7924000    1.4392958   -3.6046794   -2.0355285   0.23156894   -3.6046794    1.5691509  1209155 
 7925000    1.4366485   -3.6027139   -2.0364867   0.23430843   -3.6027139    1.5662272  1209184 
 7926000    1.4370985   -3.6036287    -2.036933   0.22975301   -3.6036287    1.5666957  1209201 
 7927000    1.4375966   -3.6039744   -2.0367616   0.23558799   -3.6039744    1.5672128  1209221 
 7928000     1.437697   -3.6035639   -2.0362662   0.23300191   -3.6035639    1.5672977  1209240 
 7929000    1.4372518   -3.6036078   -2.0368214   0.23393026   -3.6036078    1.5667864  1209260 
 7930000    1.4366817   -3.6031354   -2.0369886   0.23339972   -3.6031354    1.5661468  1209274 
 7931000    1.4366283   -3.6039564   -2.0378911   0.23373996   -3.6039564    1.5660653  1209292 
 7932000    1.4374047     -3.60525   -2.0383643   0.23230584     -3.60525    1.5668857  1209312 
 7933000    1.4358453    -3.603554   -2.0383927   0.23557832    -3.603554    1.5651613  1209331 
 7934000    1.4364969   -3.6042054   -2.0383598   0.23238254   -3.6042054    1.5658456  1209351 
 7935000    1.4361015   -3.6043863   -2.0390054   0.22972156   -3.6043863     1.565381  1209377 
 7936000    1.4362675   -3.6044711   -2.0389311    0.2317384   -3.6044711      1.56554  1209394 
 7937000    1.4365032   -3.6046887   -2.0389126   0.23381617   -3.6046887    1.5657761  1209410 
 7938000    1.4366547   -3.6042396   -2.0383255   0.23603982   -3.6042396    1.5659141  1209431 
 7939000    1.4360938   -3.6039754   -2.0387024   0.23178075   -3.6039754     1.565273  1209454 
 7940000    1.4362219   -3.6045492   -2.0391599    0.2332933   -3.6045492    1.5653893  1209472 
 7941000    1.4369697   -3.6050364   -2.0388657   0.23254102   -3.6050364    1.5661706  1209498 
 7942000     1.436726    -3.604485   -2.0386123   0.23519917    -3.604485    1.5658727  1209523 
 7943000    1.4381827   -3.6056285    -2.038198   0.23109788   -3.6056285    1.5674306  1209546 
 7944000     1.436485   -3.6043084   -2.0387528   0.23199397   -3.6043084    1.5655556  1209565 
 7945000    1.4375434   -3.6054394   -2.0387562   0.23011677   -3.6054394    1.5666833  1209585 
 7946000    1.4378746   -3.6054001   -2.0383819    0.2342081   -3.6054001    1.5670182  1209605 
 7947000    1.4379639   -3.6057751   -2.0386867   0.23242999   -3.6057751    1.5670884  1209626 
 7948000    1.4387633   -3.6064374   -2.0385103   0.22939996   -3.6064374    1.5679271  1209651 
 7949000    1.4382399   -3.6058237   -2.0385007   0.23144009   -3.6058237    1.5673231  1209677 
 7950000    1.4374772   -3.6060051   -2.0395391   0.23281165   -3.6060051     1.566466  1209697 
 7951000    1.4360373   -3.6048602   -2.0400047   0.22988571   -3.6048602    1.5648556  1209729 
 7952000    1.4371084   -3.6055673   -2.0395614   0.22743684   -3.6055673    1.5660059  1209742 
 7953000     1.437231    -3.605743   -2.0396333   0.22882531    -3.605743    1.5661097  1209765 
 7954000    1.4366158   -3.6052385   -2.0398237   0.23201354   -3.6052385    1.5654148  1209784 
 7955000    1.4380085   -3.6067757   -2.0398822   0.23354159   -3.6067757    1.5668935  1209814 
 7956000    1.4372311   -3.6053692   -2.0393525   0.23555536   -3.6053692    1.5660167  1209837 
 7957000    1.4366182   -3.6056232   -2.0402886   0.23119754   -3.6056232    1.5653346  1209848 
 7958000    1.4368852   -3.6057172   -2.0401189   0.22898764   -3.6057172    1.5655983  1209869 
 7959000     1.436996   -3.6063203   -2.0406361   0.22902638   -3.6063203    1.5656841  1209896 
 7960000    1.4358785   -3.6038722   -2.0394355   0.23906407   -3.6038722    1.5644368  1209919 
 7961000    1.4370007   -3.6050888    -2.039459   0.23497237   -3.6050888    1.5656298  1209942 
 7962000     1.437935   -3.6061855    -2.039569   0.23517961   -3.6061855    1.5666165  1209966 
 7963000    1.4371762   -3.6053423   -2.0395796     0.231812   -3.6053423    1.5657627  1209987 
 7964000    1.4376043   -3.6058523   -2.0396401   0.23488166   -3.6058523    1.5662122  1210000 
 7965000    1.4367365   -3.6050771   -2.0398387   0.23586675   -3.6050771    1.5652383  1210022 
 7966000    1.4371348   -3.6049837   -2.0393386   0.23409755   -3.6049837    1.5656451  1210043 
 7967000    1.4369636    -3.605604   -2.0401686   0.23724192    -3.605604    1.5654354  1210061 
 7968000     1.437609   -3.6059909   -2.0398731   0.23104723   -3.6059909    1.5661177  1210077 
 7969000     1.438431   -3.6061743   -2.0391806   0.23608401   -3.6061743    1.5669938  1210092 
 7970000    1.4383614   -3.6068824   -2.0399904   0.22846121   -3.6068824     1.566892  1210112 
 7971000    1.4379638   -3.6057178    -2.039299   0.23439497   -3.6057178    1.5664188  1210143 
 7972000    1.4377714   -3.6053131   -2.0391414   0.23706672   -3.6053131    1.5661716  1210172 
 7973000    1.4385909   -3.6063895   -2.0393562   0.23480868   -3.6063895    1.5670333  1210196 
 7974000    1.4383069    -3.606121    -2.039423   0.23238865    -3.606121     1.566698  1210216 
 7975000    1.4392029   -3.6066606   -2.0390163   0.23436184   -3.6066606    1.5676443  1210239 
 7976000    1.4393049   -3.6064233   -2.0386861    0.2373927   -3.6064233    1.5677372  1210253 
 7977000    1.4384561   -3.6062615    -2.039467   0.23323007   -3.6062615    1.5667945  1210267 
 7978000    1.4386559   -3.6067138   -2.0397211   0.23442126   -3.6067138    1.5669927  1210282 
 7979000    1.4386236   -3.6066274   -2.0397009   0.23393622   -3.6066274    1.5669265  1210306 
 7980000    1.4373907   -3.6049779   -2.0394188   0.24420665   -3.6049779     1.565559  1210325 
 7981000    1.4379143   -3.6060656   -2.0399583   0.23468125   -3.6060656    1.5661073  1210342 
 7982000    1.4380451   -3.6058897   -2.0396851   0.23476754   -3.6058897    1.5662045  1210377 
 7983000    1.4383941   -3.6064585   -2.0398855   0.23076882   -3.6064585     1.566573  1210386 
 7984000    1.4375016   -3.6052082   -2.0396319   0.24000634   -3.6052082    1.5655764  1210405 
 7985000    1.4390431   -3.6074645   -2.0402209   0.22993251   -3.6074645    1.5672435  1210414 
 7986000    1.4387404    -3.606626   -2.0397368   0.23513944    -3.606626    1.5668892  1210433 
 7987000    1.4382553   -3.6063866    -2.040054   0.23415175   -3.6063866    1.5663325  1210455 
 7988000    1.4381383   -3.6066428    -2.040461   0.23713459   -3.6066428    1.5661818  1210473 
 7989000    1.4391854   -3.6078821   -2.0405988   0.23622268   -3.6078821    1.5672833  1210503 
 7990000    1.4394004   -3.6078107   -2.0403244   0.23424211   -3.6078107    1.5674863  1210527 
 7991000    1.4380895   -3.6070328   -2.0410102   0.23596633   -3.6070328    1.5660225  1210555 
 7992000    1.4383164   -3.6071698   -2.0409261   0.23215413   -3.6071698    1.5662437  1210575 
 7993000    1.4384612   -3.6071813   -2.0408108   0.23650292   -3.6071813    1.5663704  1210599 
 7994000    1.4386127   -3.6076483   -2.0411427   0.23452349   -3.6076483    1.5665056  1210622 
 7995000     1.438336   -3.6072963   -2.0411217   0.23504373   -3.6072963    1.5661746  1210645 
 7996000    1.4378984   -3.6071013   -2.0414265   0.23668327   -3.6071013    1.5656748  1210663 
 7997000    1.4385417    -3.608261   -2.0419129   0.23641715    -3.608261     1.566348  1210684 
 7998000    1.4374433   -3.6077597   -2.0426424   0.23552427   -3.6077597    1.5651172  1210711 
 7999000    1.4379293   -3.6086635   -2.0430404   0.22816611   -3.6086635    1.5656231  1210729 
 8000000    1.4374008   -3.6081939   -2.0431772    0.2332696   -3.6081939    1.5650166  1210753 
Loop time of 18596.4 on 192 procs for 5000000 steps with 1210753 atoms

Performance: 116151.618 tau/day, 268.869 timesteps/s
99.4% CPU use with 192 MPI tasks x 1 OpenMP threads

MPI task timing breakdown:
Section |  min time  |  avg time  |  max time  |%varavg|  %CPU | %total
-----------------------------------------------------------------------
Pair    | 6798.3     | 8603.7     | 9466.4     | 707.2 |  99.3 | 46.27
Bond    | 3.4525     | 3.7124     | 4.0625     |   6.0 | 100.0 |  0.02
Neigh   | 3546.7     | 4134.1     | 4375.3     | 287.0 |  99.6 | 22.23
Comm    | 1905.1     | 3639.2     | 5664.5     |1251.8 |  99.2 | 19.57
Output  | 277.06     | 278.22     | 278.24     |   0.5 |  99.4 |  1.50
Modify  | 1277.4     | 1452       | 2502.2     | 830.5 |  99.4 |  7.81
Other   |            | 485.4      |            |       |       |  2.61

Nlocal:        6306.01 ave        6544 max        6142 min
Histogram: 8 28 32 29 30 22 24 11 6 2
Nghost:        6354.73 ave        6791 max        4795 min
Histogram: 22 10 0 0 0 0 0 0 54 106
Neighs:        192842.0 ave      204455 max      169424 min
Histogram: 6 6 3 2 6 33 44 40 36 16

Total # of neighbors = 37025571
Ave neighs/atom = 30.580615
Ave special neighs/atom = 0.0000000
Neighbor list builds = 505000
Dangerous builds = 450000

write_restart   restart_write.dat
System init for write_restart ...
write_data	data.write
System init for write_data ...
WARNING: Not all mixed pair coeffs generated from mixing. Use write_data with 'pair ij' option to store all pair coeffs. (src/write_data.cpp:312)

Total wall time: 5:10:01
