LAMMPS (24 Dec 2020)
OMP_NUM_THREADS environment is not set. Defaulting to 1 thread. (src/comm.cpp:94)
  using 1 OpenMP thread(s) per MPI task
#Read the equilibrated lj fluid and add nanocubes

units           lj
atom_style      full
atom_modify     map array first cubes
dimension       3
boundary        p p f
pair_style      lj/cut/opt 2.5

variable        sigma           equal 1.0
variable        epsilon         equal 1.0
read_restart	restart.dat.3000000
Reading restart file ...
  restart file = 24 Dec 2020, LAMMPS = 24 Dec 2020
WARNING: Restart file used different # of processors: 48 vs. 288 (src/read_restart.cpp:697)
  restoring atom style full from restart
  orthogonal box = (0.0000000 0.0000000 0.0000000) to (80.000000 80.000000 160.00000)
  6 by 4 by 12 MPI processor grid
  restoring pair style lj/cut/opt from restart
  518400 atoms
Finding 1-2 1-3 1-4 neighbors ...
  special bond factors lj:    0        0        0       
  special bond factors coul:  0        0        0       
     0 = max # of 1-2 neighbors
     0 = max # of 1-3 neighbors
     0 = max # of 1-4 neighbors
     1 = max # of special neighbors
  special bonds CPU = 2.414 seconds
  read_restart CPU = 2.752 seconds

group		solvent type 1
518400 atoms in group solvent

read_data	data_64.cubes group cubes add append
Reading data file ...
  orthogonal box = (0.0000000 0.0000000 0.0000000) to (80.000000 80.000000 160.00000)
  6 by 4 by 12 MPI processor grid
  reading atoms ...
  73152 atoms
  reading velocities ...
  73152 velocities
Finding 1-2 1-3 1-4 neighbors ...
  special bond factors lj:    0        0        0       
  special bond factors coul:  0        0        0       
     0 = max # of 1-2 neighbors
     0 = max # of 1-3 neighbors
     0 = max # of 1-4 neighbors
     1 = max # of special neighbors
  special bonds CPU = 0.059 seconds
  read_data CPU = 0.252 seconds

group 		hull  type 2
28544 atoms in group hull
group 		dummy type 3
44608 atoms in group dummy

neighbor      0.4 bin
neigh_modify  exclude molecule/intra cubes


pair_modify   shift yes

pair_coeff    1 1 1.0 1.0 #solvent
pair_coeff    2 2 1.0 1.0 1.12 #np
pair_coeff    3 3 0.0 0.0 0.0 #dummy
pair_coeff    2 3 0.0 0.0 0.0 #np dummy
pair_coeff    1 2 ${sol} 1.0 #np solvent
pair_coeff    1 2 1.0 1.0 
pair_coeff    1 3 0.0 0.0 2.5 #dummy solvent

# delete solvent where the cubes are
delete_atoms  overlap 1.0 solvent cubes
System init for delete_atoms ...
Neighbor list info ...
  update every 1 steps, delay 10 steps, check yes
  max neighbors/atom: 2000, page size: 100000
  master list distance cutoff = 2.9
  ghost atom cutoff = 2.9
  binsize = 1.45, bins = 56 56 111
  2 neighbor lists, perpetual/occasional/extra = 1 1 0
  (1) command delete_atoms, occasional
      attributes: full, newton on
      pair build: full/bin
      stencil: full/bin/3d
      bin: standard
  (2) pair lj/cut/opt, perpetual
      attributes: half, newton on
      pair build: half/bin/newton
      stencil: half/bin/3d/newton
      bin: standard
WARNING: Delete_atoms cutoff > minimum neighbor cutoff (src/delete_atoms.cpp:307)
WARNING: Ignoring 'compress yes' for molecular system (src/delete_atoms.cpp:125)
Deleted 46325 atoms, new total = 545227



pair_coeff    1 1 1.0 1.0 #solvent
pair_coeff    2 2 1.0 1.0 1.12 #np
pair_coeff    3 3 0.0 0.0 0.0 #dummy
pair_coeff    2 3 0.0 0.0 0.0 #np dummy
pair_coeff    1 2 ${sol} 1.0 #np solvent
pair_coeff    1 2 1.0 1.0 
pair_coeff    1 3 0.0 0.0 0.0 #dummy solvent


comm_modify   mode multi cutoff/multi 1 2.5 cutoff/multi 2 2.5 cutoff/multi 3 6.95

reset_timestep 	0

balance 	1.05 shift z 10 1.05
Balancing ...
Neighbor list info ...
  update every 1 steps, delay 10 steps, check yes
  max neighbors/atom: 2000, page size: 100000
  master list distance cutoff = 2.9
  ghost atom cutoff = 6.95
  binsize = 1.45, bins = 56 56 111
  1 neighbor lists, perpetual/occasional/extra = 1 0 0
  (1) pair lj/cut/opt, perpetual
      attributes: half, newton on
      pair build: half/bin/newton
      stencil: half/bin/3d/newton
      bin: standard
 rebalancing time: 0.004 seconds
  iteration count = 4
  initial/final maximal load/proc = 2533.0000 2602.0000
  initial/final imbalance factor  = 1.3379822 1.3744294
  x cuts: 0.0000000 0.16666667 0.33333333 0.50000000 0.66666667 0.83333333 1.0000000
  y cuts: 0.0000000 0.25000000 0.50000000 0.75000000 1.0000000
  z cuts: 0.0000000 0.078125000 0.16145833 0.25520833 0.34895833 0.41145833 0.49479167 0.55729167 0.63020833 0.71354167 0.78645833 0.85937500 1.0000000

####################### WALLS ###########################

variable       epsilonWall equal 2*${epsilon}
variable       epsilonWall equal 2*1
variable       repulsive   equal   0.7147*${sigma}
variable       repulsive   equal   0.7147*1
variable       full	   equal   3*${sigma}
variable       full	   equal   3*1
region         lowWall block EDGE EDGE EDGE EDGE EDGE 2

fix            topWall all wall/lj93 zhi EDGE 	       ${epsilonWall} ${sigma} ${repulsive} units box
fix            topWall all wall/lj93 zhi EDGE 	       2 ${sigma} ${repulsive} units box
fix            topWall all wall/lj93 zhi EDGE 	       2 1 ${repulsive} units box
fix            topWall all wall/lj93 zhi EDGE 	       2 1 0.7147 units box
fix            lowSol solvent wall/lj93 zlo EDGE                ${epsilonWall} ${sigma} ${full} units box
fix            lowSol solvent wall/lj93 zlo EDGE                2 ${sigma} ${full} units box
fix            lowSol solvent wall/lj93 zlo EDGE                2 1 ${full} units box
fix            lowSol solvent wall/lj93 zlo EDGE                2 1 3 units box
fix 	       lowCub cubes wall/lj93 zlo EDGE                ${epsilonWall} ${sigma} ${repulsive} units box
fix 	       lowCub cubes wall/lj93 zlo EDGE                2 ${sigma} ${repulsive} units box
fix 	       lowCub cubes wall/lj93 zlo EDGE                2 1 ${repulsive} units box
fix 	       lowCub cubes wall/lj93 zlo EDGE                2 1 0.7147 units box


###################### COMPUTES ##########################

compute        bin1 solvent chunk/atom bin/1d z lower 1.0 units box


######################  FIXES ############################


fix             peclet solvent ave/chunk 10 10 10000 bin1 density/number norm                  none ave one file density.profile

fix              temp solvent ave/chunk 10 10 10000 bin1 temp norm                  none ave one file temp.profile

fix             1 cubes rigid/nve/small molecule
  create bodies CPU = 0.002 seconds
  64 rigid bodies with 73152 atoms
  6.9282032 = max distance from body owner to body atom

fix             2 solvent nve# temp ${temp} ${temp} 10


## Thermostat
region          regthermo block EDGE EDGE EDGE EDGE 0 15
group           thermo dynamic solvent region regthermo every 1000
dynamic group thermo defined
fix             3 thermo langevin ${temp} ${temp} 10 156453
fix             3 thermo langevin 1.0 ${temp} 10 156453
fix             3 thermo langevin 1.0 1.0 10 156453


#### Load balancing

fix             bal all balance 1000 1.05 shift z 10 1.05

############### Diagnostics and computes ###################

compute        	com cubes          rigid/local   1 mol x y z
compute        	quat cubes         rigid/local   1 mol quatw quati quatj quatk

compute 	cc2 cubes 	   chunk/atom 	 molecule
compute 	msd cubes 	   msd/chunk 	 cc2

fix 		msd all ave/time  1 1 10000 c_msd[*] file dump.msd ave one mode vector

dump            1 all custom 500000 dump.lammpstrj id mol type x y z
dump		cubetrj hull custom 500000 cubes.lammpstrj id mol type x y z
dump            com cubes local 10000 dump.*.xyz c_com[*]
dump	        xyz hull xyz 100000 cubes.xyz
dump            quat cubes      local 10000 dump.*.quat c_quat[*]
#dump		mol cubes molfile 10000 mol.xyz xyz


dump            2 all image 10000 image.*.png type type
dump_modify     2 pad 8
dump		image cubes image 10000 image_cubes.*.png type type
dump_modify	image pad 8
dump            3 all movie 5000 movie.avi type type
dump		4 cubes movie 5000 movie_cubes.avi type type


thermo          1000
thermo_style    custom step temp epair evdwl etotal press pe ke atoms

restart         1000000 restart.dat
timestep        0.005
timer           full
New timer settings: style=full  mode=nosync  timeout=off

run 		4000000
Per MPI rank memory allocation (min/avg/max) = 14.52 | 18.38 | 22.48 Mbytes
Step Temp E_pair E_vdwl TotEng Press PotEng KinEng Atoms 
       0   0.99107857   -2.9304105   -2.9304105   -1.6429029 -0.046540607   -2.9304105    1.2875076   545227 
    1000    1.0003381   -2.9440481   -2.9440481   -1.6445115  0.054944476   -2.9440481    1.2995366   545227 
    2000     1.003432   -2.9496979   -2.9496979    -1.646142  0.053537497   -2.9496979    1.3035559   545227 
    3000    1.0040618   -2.9505469   -2.9505469   -1.6461729  0.055967465   -2.9505469    1.3043741   545227 
    4000    1.0034739   -2.9511906   -2.9511906   -1.6475802  0.060409451   -2.9511906    1.3036103   545227 
    5000    1.0038103   -2.9533543   -2.9533543   -1.6493069  0.058908906   -2.9533543    1.3040474   545227 
    6000    1.0042238   -2.9542231   -2.9542231   -1.6496385  0.065406235   -2.9542231    1.3045846   545227 
    7000    1.0028085   -2.9533483   -2.9533483   -1.6506024  0.064778241   -2.9533483     1.302746   545227 
    8000    1.0045854   -2.9567669   -2.9567669   -1.6517126  0.062194359   -2.9567669    1.3050543   545227 
    9000    1.0014941   -2.9535976   -2.9535976   -1.6525592  0.055991972   -2.9535976    1.3010384   545227 
   10000    1.0022672   -2.9542389   -2.9542389   -1.6521962  0.059003601   -2.9542389    1.3020427   545227 
   11000    1.0005044   -2.9536734   -2.9536734   -1.6539207  0.053954129   -2.9536734    1.2997527   545227 
   12000    1.0009705   -2.9542414   -2.9542414   -1.6538832  0.068980485   -2.9542414    1.3003582   545227 
   13000    1.0019873   -2.9558337   -2.9558337   -1.6541547  0.063052503   -2.9558337    1.3016791   545227 
   14000    1.0006751   -2.9555316   -2.9555316   -1.6555571  0.053685313   -2.9555316    1.2999745   545227 
   15000    1.0003362   -2.9555881   -2.9555881   -1.6560539  0.054436068   -2.9555881    1.2995342   545227 
   16000   0.99899557   -2.9543624   -2.9543624   -1.6565698  0.060763589   -2.9543624    1.2977926   545227 
   17000    1.0008211   -2.9572073   -2.9572073   -1.6570432  0.049955345   -2.9572073    1.3001641   545227 
   18000     1.001392   -2.9588255   -2.9588255   -1.6579198  0.064822877   -2.9588255    1.3009057   545227 
   19000    1.0032001   -2.9615208   -2.9615208   -1.6582661  0.062315479   -2.9615208    1.3032546   545227 
   20000    1.0014452   -2.9603996   -2.9603996   -1.6594248  0.059595075   -2.9603996    1.3009749   545227 
   21000     1.000434   -2.9598781   -2.9598781   -1.6602169  0.058066558   -2.9598781    1.2996612   545227 
   22000    1.0015044   -2.9605163   -2.9605163   -1.6594646  0.052120642   -2.9605163    1.3010518   545227 
   23000    1.0018518   -2.9612776   -2.9612776   -1.6597745  0.055891114   -2.9612776    1.3015031   545227 
   24000    1.0007265    -2.959316    -2.959316   -1.6592748  0.057952589    -2.959316    1.3000412   545227 
   25000    1.0002783   -2.9582567   -2.9582567   -1.6587977  0.053195168   -2.9582567     1.299459   545227 
   26000   0.99907384   -2.9566318   -2.9566318   -1.6587375  0.050640552   -2.9566318    1.2978943   545227 
   27000   0.99806114   -2.9554916   -2.9554916    -1.658913  0.053774948   -2.9554916    1.2965787   545227 
   28000   0.99769564   -2.9554922   -2.9554922   -1.6593883    0.0595215   -2.9554922    1.2961039   545227 
   29000   0.99889001   -2.9583138   -2.9583138   -1.6606583  0.060936995   -2.9583138    1.2976555   545227 
   30000   0.99927286   -2.9585521   -2.9585521   -1.6603993  0.057953407   -2.9585521    1.2981528   545227 
   31000   0.99972401   -2.9600376   -2.9600376   -1.6612987  0.057644624   -2.9600376    1.2987389   545227 
   32000    0.9986489   -2.9592395   -2.9592395   -1.6618973  0.057967278   -2.9592395    1.2973422   545227 
   33000   0.99984343   -2.9600103   -2.9600103   -1.6611162  0.064911008   -2.9600103     1.298894   545227 
   34000    1.0001745   -2.9602168   -2.9602168   -1.6608927  0.058007589   -2.9602168    1.2993241   545227 
   35000    1.0004189   -2.9607011   -2.9607011   -1.6610595  0.047031543   -2.9607011    1.2996416   545227 
   36000    1.0001168   -2.9596066   -2.9596066   -1.6603575  0.056229851   -2.9596066    1.2992491   545227 
   37000   0.99972179   -2.9602186   -2.9602186   -1.6614826   0.05394679   -2.9602186     1.298736   545227 
   38000    1.0006213   -2.9614456   -2.9614456    -1.661541  0.065079916   -2.9614456    1.2999046   545227 
   39000    1.0009381   -2.9615491   -2.9615491    -1.661233  0.050511863   -2.9615491    1.3003161   545227 
   40000   0.99988025   -2.9605648   -2.9605648   -1.6616229  0.060838663   -2.9605648    1.2989419   545227 
   41000    1.0012655   -2.9613967   -2.9613967   -1.6606552  0.049397516   -2.9613967    1.3007415   545227 
   42000   0.99932543   -2.9596834   -2.9596834   -1.6614623  0.053576813   -2.9596834    1.2982211   545227 
   43000   0.99975138   -2.9595024   -2.9595024   -1.6607279  0.058978894   -2.9595024    1.2987745   545227 
   44000   0.99996216   -2.9601125   -2.9601125   -1.6610642  0.051176897   -2.9601125    1.2990483   545227 
   45000    1.0004586   -2.9611947   -2.9611947   -1.6615014  0.061485861   -2.9611947    1.2996932   545227 
   46000   0.99974017    -2.960319    -2.960319   -1.6615591  0.061414197    -2.960319    1.2987599   545227 
   47000   0.99935874   -2.9600426   -2.9600426   -1.6617783  0.060930345   -2.9600426    1.2982644   545227 
   48000    1.0008222   -2.9622917   -2.9622917   -1.6621261  0.058985507   -2.9622917    1.3001656   545227 
   49000    1.0001803    -2.961708    -2.961708   -1.6623763  0.062304436    -2.961708    1.2993317   545227 
   50000   0.99929143   -2.9600129   -2.9600129   -1.6618359  0.065903831   -2.9600129    1.2981769   545227 
   51000   0.99846207   -2.9588493   -2.9588493   -1.6617498  0.058184364   -2.9588493    1.2970995   545227 
   52000   0.99823042   -2.9572279   -2.9572279   -1.6604294  0.065341212   -2.9572279    1.2967986   545227 
   53000     1.000696    -2.961813    -2.961813   -1.6618114  0.058898428    -2.961813    1.3000017   545227 
   54000   0.99919417   -2.9596763   -2.9596763   -1.6616257   0.05733863   -2.9596763    1.2980506   545227 
   55000    1.0021306   -2.9629576   -2.9629576   -1.6610924  0.061403789   -2.9629576    1.3018652   545227 
   56000    1.0005857   -2.9620583   -2.9620583      -1.6622  0.059591796   -2.9620583    1.2998583   545227 
   57000   0.99958616   -2.9606242   -2.9606242   -1.6620643  0.060139018   -2.9606242    1.2985598   545227 
   58000    1.0000841   -2.9627896   -2.9627896   -1.6635829  0.052097682   -2.9627896    1.2992067   545227 
   59000   0.99831378   -2.9609413   -2.9609413   -1.6640345  0.058563732   -2.9609413    1.2969069   545227 
   60000   0.99860194   -2.9620579   -2.9620579   -1.6647766   0.06011993   -2.9620579    1.2972812   545227 
   61000   0.99918392   -2.9618193   -2.9618193    -1.663782  0.052229524   -2.9618193    1.2980373   545227 
   62000   0.99876657   -2.9622727   -2.9622727   -1.6647776  0.059466099   -2.9622727    1.2974951   545227 
   63000   0.99883944   -2.9623948   -2.9623948    -1.664805  0.059198259   -2.9623948    1.2975898   545227 
   64000   0.99924822   -2.9637211   -2.9637211   -1.6656003  0.057692822   -2.9637211    1.2981208   545227 
   65000   0.99928729   -2.9641229   -2.9641229   -1.6659513  0.060759748   -2.9641229    1.2981716   545227 
   66000   0.99888812   -2.9634273   -2.9634273   -1.6657743  0.055124725   -2.9634273     1.297653   545227 
   67000   0.99944758   -2.9644573   -2.9644573   -1.6660775  0.059629749   -2.9644573    1.2983798   545227 
   68000   0.99846487   -2.9641551   -2.9641551   -1.6670519  0.063147253   -2.9641551    1.2971032   545227 
   69000   0.99942675   -2.9648578   -2.9648578    -1.666505  0.053886325   -2.9648578    1.2983527   545227 
   70000   0.99994724   -2.9651216   -2.9651216   -1.6660927  0.061669174   -2.9651216    1.2990289   545227 
   71000    0.9969263   -2.9616692   -2.9616692   -1.6665648  0.060930971   -2.9616692    1.2951044   545227 
   72000   0.99943333   -2.9644783   -2.9644783    -1.666117   0.04669751   -2.9644783    1.2983613   545227 
   73000   0.99870727   -2.9629952   -2.9629952   -1.6655772  0.061740055   -2.9629952    1.2974181   545227 
   74000   0.99791481   -2.9621301   -2.9621301   -1.6657415  0.057910284   -2.9621301    1.2963886   545227 
   75000   0.99849901   -2.9634961   -2.9634961   -1.6663486  0.052236243   -2.9634961    1.2971475   545227 
   76000   0.99917124   -2.9637626   -2.9637626   -1.6657418  0.056200756   -2.9637626    1.2980208   545227 
   77000   0.99935642   -2.9646606   -2.9646606   -1.6663993  0.045685198   -2.9646606    1.2982614   545227 
   78000    1.0001751   -2.9659462   -2.9659462   -1.6666213  0.053309529   -2.9659462    1.2993249   545227 
   79000   0.99956202    -2.966455    -2.966455   -1.6679266  0.055588719    -2.966455    1.2985285   545227 
   80000   0.99957731   -2.9660247   -2.9660247   -1.6674764  0.052192037   -2.9660247    1.2985483   545227 
   81000   0.99912824   -2.9666672   -2.9666672   -1.6687023  0.058913593   -2.9666672    1.2979649   545227 
   82000   0.99985089   -2.9677632   -2.9677632   -1.6688595  0.062571222   -2.9677632    1.2989037   545227 
   83000    0.9997471   -2.9664332   -2.9664332   -1.6676643  0.059326298   -2.9664332    1.2987689   545227 
   84000   0.99979139   -2.9671743   -2.9671743   -1.6683479  0.057665128   -2.9671743    1.2988264   545227 
   85000   0.99859992   -2.9667625   -2.9667625   -1.6694839   0.06052614   -2.9667625    1.2972786   545227 
   86000    0.9977721   -2.9654961   -2.9654961   -1.6692929  0.058597538   -2.9654961    1.2962032   545227 
   87000   0.99917185   -2.9672001   -2.9672001   -1.6691785  0.049767903   -2.9672001    1.2980216   545227 
   88000   0.99908897   -2.9664318   -2.9664318   -1.6685179  0.045542504   -2.9664318    1.2979139   545227 
   89000   0.99801654   -2.9643096   -2.9643096   -1.6677889  0.060740088   -2.9643096    1.2965207   545227 
   90000   0.99920131   -2.9666789   -2.9666789   -1.6686191  0.055904976   -2.9666789    1.2980599   545227 
   91000    1.0004433   -2.9674375   -2.9674375   -1.6677642   0.06620229   -2.9674375    1.2996733   545227 
   92000     1.000575   -2.9684501   -2.9684501   -1.6686057  0.062698253   -2.9684501    1.2998445   545227 
   93000   0.99918963    -2.966936    -2.966936   -1.6688913  0.057138424    -2.966936    1.2980447   545227 
   94000   0.99867648   -2.9669352   -2.9669352   -1.6695572  0.058138868   -2.9669352    1.2973781   545227 
   95000   0.99890814   -2.9680175   -2.9680175   -1.6703385  0.047056837   -2.9680175     1.297679   545227 
   96000   0.99775809   -2.9656764   -2.9656764   -1.6694914  0.060871864   -2.9656764     1.296185   545227 
   97000   0.99877959   -2.9673089   -2.9673089   -1.6697969  0.057556501   -2.9673089     1.297512   545227 
   98000   0.99898325   -2.9680209   -2.9680209   -1.6702443  0.052804592   -2.9680209    1.2977766   545227 
   99000   0.99827938   -2.9675325   -2.9675325   -1.6706703  0.051921407   -2.9675325    1.2968622   545227 
  100000   0.99970605   -2.9687321   -2.9687321   -1.6700166  0.057679311   -2.9687321    1.2987156   545227 
  101000   0.99913571   -2.9680118   -2.9680118   -1.6700372  0.063217583   -2.9680118    1.2979746   545227 
  102000   0.99854739   -2.9666957   -2.9666957   -1.6694854  0.059013833   -2.9666957    1.2972104   545227 
  103000   0.99836502   -2.9668321   -2.9668321   -1.6698586  0.062378783   -2.9668321    1.2969734   545227 
  104000   0.99900399   -2.9680345   -2.9680345   -1.6702309  0.055412629   -2.9680345    1.2978035   545227 
  105000   0.99780465   -2.9665468   -2.9665468   -1.6703014  0.064767738   -2.9665468    1.2962455   545227 
  106000   0.99837578   -2.9667723   -2.9667723   -1.6697848  0.063271074   -2.9667723    1.2969874   545227 
  107000   0.99836464    -2.967073    -2.967073   -1.6701001  0.054267647    -2.967073     1.296973   545227 
  108000   0.99902743   -2.9679689   -2.9679689   -1.6701349  0.057928208   -2.9679689     1.297834   545227 
  109000    0.9982428   -2.9677804   -2.9677804   -1.6709657  0.058623542   -2.9677804    1.2968147   545227 
  110000   0.99692536   -2.9662806   -2.9662806   -1.6711775  0.057570241   -2.9662806    1.2951032   545227 
  111000   0.99700452   -2.9666115   -2.9666115   -1.6714055  0.050153545   -2.9666115     1.295206   545227 
  112000   0.99829745   -2.9677328   -2.9677328   -1.6708472  0.059805034   -2.9677328    1.2968857   545227 
  113000   0.99908364   -2.9683436   -2.9683436   -1.6704366   0.06353052   -2.9683436     1.297907   545227 
  114000   0.99932123   -2.9690231   -2.9690231   -1.6708075  0.066747592   -2.9690231    1.2982157   545227 
  115000   0.99989448   -2.9700058   -2.9700058   -1.6710454  0.059481285   -2.9700058    1.2989604   545227 
  116000    1.0012707   -2.9713025   -2.9713025   -1.6705542  0.063931541   -2.9713025    1.3007483   545227 
  117000   0.99843921   -2.9686043   -2.9686043   -1.6715345  0.065368716   -2.9686043    1.2970698   545227 
  118000   0.99950077   -2.9707702   -2.9707702   -1.6723213  0.053199055   -2.9707702    1.2984489   545227 
  119000   0.99894533   -2.9699454   -2.9699454   -1.6722181  0.060394215   -2.9699454    1.2977273   545227 
  120000   0.99847183   -2.9685908   -2.9685908   -1.6714786   0.06507391   -2.9685908    1.2971122   545227 
  121000   0.99954872   -2.9701706   -2.9701706   -1.6716594  0.059369852   -2.9701706    1.2985112   545227 
  122000   0.99903145   -2.9695084   -2.9695084   -1.6716692  0.057563899   -2.9695084    1.2978392   545227 
  123000   0.99841656   -2.9681847   -2.9681847   -1.6711443    0.0636169   -2.9681847    1.2970404   545227 
  124000       0.9984   -2.9679967   -2.9679967   -1.6709778  0.057637088   -2.9679967    1.2970189   545227 
  125000   0.99908581   -2.9689796   -2.9689796   -1.6710698  0.063521872   -2.9689796    1.2979098   545227 
  126000   0.99736681   -2.9672428   -2.9672428   -1.6715661  0.051527672   -2.9672428    1.2956767   545227 
  127000   0.99741773   -2.9664586   -2.9664586   -1.6707158  0.059842137   -2.9664586    1.2957428   545227 
  128000   0.99738265   -2.9670105   -2.9670105   -1.6713132  0.056114117   -2.9670105    1.2956972   545227 
  129000   0.99899271   -2.9692071   -2.9692071   -1.6714182  0.065061663   -2.9692071    1.2977889   545227 
  130000   0.99940718   -2.9700948   -2.9700948   -1.6717675  0.058019755   -2.9700948    1.2983273   545227 
  131000    0.9994638   -2.9697465   -2.9697465   -1.6713457  0.056825329   -2.9697465    1.2984009   545227 
  132000   0.99859635   -2.9699565   -2.9699565   -1.6726825  0.055368948   -2.9699565     1.297274   545227 
  133000   0.99886633   -2.9692139   -2.9692139   -1.6715892  0.052614963   -2.9692139    1.2976247   545227 
  134000   0.99919605   -2.9699291   -2.9699291   -1.6718761  0.060924388   -2.9699291     1.298053   545227 
  135000   0.99994498   -2.9709021   -2.9709021   -1.6718761  0.066481818   -2.9709021     1.299026   545227 
  136000   0.99787599   -2.9693269   -2.9693269   -1.6729888  0.057365259   -2.9693269    1.2963381   545227 
  137000   0.99838294   -2.9693837   -2.9693837    -1.672387  0.066144623   -2.9693837    1.2969967   545227 
  138000   0.99910769   -2.9703011   -2.9703011   -1.6723628   0.05808828   -2.9703011    1.2979382   545227 
  139000    0.9980925   -2.9692712   -2.9692712   -1.6726518  0.060848559   -2.9692712    1.2966194   545227 
  140000    1.0004131   -2.9725494   -2.9725494   -1.6729153  0.054258631   -2.9725494    1.2996341   545227 
  141000    1.0010565   -2.9732227   -2.9732227   -1.6727528   0.05807791   -2.9732227    1.3004699   545227 
  142000   0.99891189   -2.9704544   -2.9704544   -1.6727705  0.058690117   -2.9704544    1.2976839   545227 
  143000   0.99978082   -2.9721878   -2.9721878   -1.6733751  0.062584768   -2.9721878    1.2988127   545227 
  144000   0.99929242   -2.9724733   -2.9724733    -1.674295  0.060398038   -2.9724733    1.2981782   545227 
  145000   0.99945211    -2.972273    -2.972273   -1.6738873  0.062638286    -2.972273    1.2983857   545227 
  146000   0.99880424   -2.9714953   -2.9714953   -1.6739513  0.062562544   -2.9714953     1.297544   545227 
  147000   0.99862316   -2.9718563   -2.9718563   -1.6745475  0.056446383   -2.9718563    1.2973088   545227 
  148000    0.9976667   -2.9700812   -2.9700812   -1.6740149  0.057239937   -2.9700812    1.2960663   545227 
  149000   0.99743375   -2.9690513   -2.9690513   -1.6732877  0.057879754   -2.9690513    1.2957636   545227 
  150000   0.99661881   -2.9690253   -2.9690253   -1.6743203  0.043278371   -2.9690253    1.2947049   545227 
  151000   0.99713791   -2.9688215   -2.9688215   -1.6734422  0.059849405   -2.9688215    1.2953793   545227 
  152000   0.99774673   -2.9701243   -2.9701243   -1.6739541  0.056103691   -2.9701243    1.2961702   545227 
  153000   0.99690292   -2.9693352   -2.9693352   -1.6742612  0.050634376   -2.9693352     1.295074   545227 
  154000   0.99701939   -2.9697014   -2.9697014    -1.674476  0.060137048   -2.9697014    1.2952253   545227 
  155000   0.99945992   -2.9734618   -2.9734618    -1.675066  0.062938672   -2.9734618    1.2983958   545227 
  156000    1.0007018     -2.97615     -2.97615   -1.6761409  0.059552294     -2.97615    1.3000091   545227 
  157000   0.99944005   -2.9747364   -2.9747364   -1.6763664  0.057960489   -2.9747364      1.29837   545227 
  158000   0.99906123   -2.9745819   -2.9745819    -1.676704  0.064732796   -2.9745819    1.2978779   545227 
  159000   0.99914608   -2.9748953   -2.9748953   -1.6769072  0.063154611   -2.9748953    1.2979881   545227 
  160000   0.99918791   -2.9757244   -2.9757244    -1.677682  0.058415796   -2.9757244    1.2980424   545227 
  161000   0.99965799   -2.9754949   -2.9754949   -1.6768418  0.057889309   -2.9754949    1.2986531   545227 
  162000   0.99862913   -2.9736742   -2.9736742   -1.6763576  0.065903127   -2.9736742    1.2973165   545227 
  163000   0.99804357   -2.9730484   -2.9730484   -1.6764926  0.058012993   -2.9730484    1.2965559   545227 
  164000   0.99702786   -2.9721652   -2.9721652   -1.6769288  0.070238522   -2.9721652    1.2952363   545227 
  165000   0.99751688   -2.9720675   -2.9720675   -1.6761959  0.054221358   -2.9720675    1.2958716   545227 
  166000   0.99744106    -2.972502    -2.972502   -1.6767289  0.055606488    -2.972502    1.2957731   545227 
  167000   0.99734646   -2.9727403   -2.9727403   -1.6770901  0.054350705   -2.9727403    1.2956502   545227 
  168000   0.99688984   -2.9723548   -2.9723548   -1.6772977  0.055966406   -2.9723548     1.295057   545227 
  169000   0.99767551   -2.9723209   -2.9723209   -1.6762432  0.060422217   -2.9723209    1.2960777   545227 
  170000   0.99762777   -2.9723416   -2.9723416    -1.676326  0.057905208   -2.9723416    1.2960157   545227 
  171000   0.99839951   -2.9736154   -2.9736154   -1.6765972  0.058953887   -2.9736154    1.2970182   545227 
  172000   0.99780161   -2.9728626   -2.9728626    -1.676621  0.052994658   -2.9728626    1.2962415   545227 
  173000   0.99806196   -2.9731659   -2.9731659   -1.6765861  0.063253946   -2.9731659    1.2965797   545227 
  174000   0.99768538   -2.9723516   -2.9723516    -1.676261  0.068186406   -2.9723516    1.2960905   545227 
  175000    0.9975617   -2.9720452   -2.9720452   -1.6761153  0.055177524   -2.9720452    1.2959299   545227 
  176000   0.99950063     -2.97422     -2.97422   -1.6757713  0.062427511     -2.97422    1.2984487   545227 
  177000   0.99923478    -2.973306    -2.973306   -1.6752027  0.058892493    -2.973306    1.2981034   545227 
  178000   0.99843256   -2.9720754   -2.9720754   -1.6750143  0.057131563   -2.9720754    1.2970612   545227 
  179000   0.99909018   -2.9727539   -2.9727539   -1.6748384  0.064999854   -2.9727539    1.2979155   545227 
  180000   0.99844616   -2.9730545   -2.9730545   -1.6759756  0.061909432   -2.9730545    1.2970789   545227 
  181000   0.99936708   -2.9746998   -2.9746998   -1.6764246  0.056595992   -2.9746998    1.2982752   545227 
  182000   0.99873695   -2.9745022   -2.9745022   -1.6770456  0.054088078   -2.9745022    1.2974566   545227 
  183000   0.99724515     -2.97265     -2.97265   -1.6771314  0.055238094     -2.97265    1.2955186   545227 
  184000   0.99873255   -2.9742403   -2.9742403   -1.6767894  0.055742208   -2.9742403    1.2974509   545227 
  185000   0.99819007   -2.9732838   -2.9732838   -1.6765376  0.062097916   -2.9732838    1.2967462   545227 
  186000   0.99900122   -2.9746146   -2.9746146   -1.6768147  0.063084784   -2.9746146    1.2977999   545227 
  187000    0.9979236   -2.9735407   -2.9735407   -1.6771407  0.062980679   -2.9735407       1.2964   545227 
  188000   0.99789846   -2.9738747   -2.9738747   -1.6775074  0.058396621   -2.9738747    1.2963673   545227 
  189000   0.99881856   -2.9742747   -2.9742747   -1.6767121  0.054583749   -2.9742747    1.2975626   545227 
  190000   0.99706549   -2.9724957   -2.9724957   -1.6772105  0.053942418   -2.9724957    1.2952852   545227 
  191000   0.99770368   -2.9724645   -2.9724645   -1.6763502  0.058369538   -2.9724645    1.2961143   545227 
  192000   0.99924502   -2.9750951   -2.9750951   -1.6769784  0.059697109   -2.9750951    1.2981166   545227 
  193000   0.99834957   -2.9738724   -2.9738724    -1.676919  0.056030777   -2.9738724    1.2969534   545227 
  194000   0.99884259   -2.9748267   -2.9748267   -1.6772329  0.054101136   -2.9748267    1.2975939   545227 
  195000   0.99966482   -2.9759332   -2.9759332   -1.6772712  0.052618641   -2.9759332     1.298662   545227 
  196000   0.99981391   -2.9760208   -2.9760208   -1.6771651  0.058309723   -2.9760208    1.2988557   545227 
  197000   0.99846811   -2.9747962   -2.9747962   -1.6776888  0.062555116   -2.9747962    1.2971074   545227 
  198000   0.99851651   -2.9755838   -2.9755838   -1.6784136  0.054593961   -2.9755838    1.2971702   545227 
  199000    0.9976467   -2.9748116   -2.9748116   -1.6787714  0.056233744   -2.9748116    1.2960403   545227 
  200000   0.99836209   -2.9765642   -2.9765642   -1.6795946  0.067695079   -2.9765642    1.2969696   545227 
  201000   0.99987332   -2.9785231   -2.9785231   -1.6795903  0.059020202   -2.9785231    1.2989329   545227 
  202000   0.99915307   -2.9776297   -2.9776297   -1.6796325  0.057286162   -2.9776297    1.2979972   545227 
  203000   0.99820662   -2.9771079   -2.9771079   -1.6803402  0.057448218   -2.9771079    1.2967677   545227 
  204000   0.99885829   -2.9776331   -2.9776331   -1.6800188  0.058574383   -2.9776331    1.2976142   545227 
  205000   0.99925207   -2.9772821   -2.9772821   -1.6791563  0.050140649   -2.9772821    1.2981258   545227 
  206000   0.99947285    -2.977605    -2.977605   -1.6791924  0.056326102    -2.977605    1.2984126   545227 
  207000   0.99838385   -2.9769385   -2.9769385   -1.6799406  0.066477376   -2.9769385    1.2969979   545227 
  208000   0.99749716   -2.9761721   -2.9761721   -1.6803261  0.061431591   -2.9761721     1.295846   545227 
  209000   0.99633759   -2.9745909   -2.9745909   -1.6802513  0.061401569   -2.9745909    1.2943396   545227 
  210000   0.99637131   -2.9740521   -2.9740521   -1.6796687  0.052437865   -2.9740521    1.2943834   545227 
  211000   0.99444604   -2.9713962   -2.9713962   -1.6795139  0.055707138   -2.9713962    1.2918823   545227 
  212000   0.99688873   -2.9737588   -2.9737588   -1.6787032  0.054535278   -2.9737588    1.2950556   545227 
  213000   0.99706368   -2.9739154   -2.9739154   -1.6786325  0.055388292   -2.9739154    1.2952829   545227 
  214000   0.99641257   -2.9735986   -2.9735986   -1.6791616  0.053735161   -2.9735986     1.294437   545227 
  215000   0.99662201   -2.9736092   -2.9736092      -1.6789  0.055162942   -2.9736092    1.2947091   545227 
  216000   0.99857313    -2.976125    -2.976125   -1.6788812   0.05621839    -2.976125    1.2972438   545227 
  217000   0.99844892   -2.9756209   -2.9756209   -1.6785384  0.056513009   -2.9756209    1.2970824   545227 
  218000   0.99909581   -2.9761279   -2.9761279   -1.6782051  0.065566451   -2.9761279    1.2979228   545227 
  219000   0.99969364    -2.977086    -2.977086   -1.6783866  0.064763188    -2.977086    1.2986994   545227 
  220000    0.9976498   -2.9741126   -2.9741126   -1.6780683  0.059673266   -2.9741126    1.2960443   545227 
  221000   0.99966971   -2.9769405   -2.9769405   -1.6782721  0.061894228   -2.9769405    1.2986684   545227 
  222000   0.99846068   -2.9753258   -2.9753258   -1.6782281  0.051933626   -2.9753258    1.2970977   545227 
  223000   0.99861569     -2.97567     -2.97567   -1.6783709  0.053476692     -2.97567    1.2972991   545227 
  224000   0.99796327   -2.9748068   -2.9748068   -1.6783553  0.062035795   -2.9748068    1.2964515   545227 
  225000   0.99852716    -2.975449    -2.975449   -1.6782649  0.059355834    -2.975449    1.2971841   545227 
  226000   0.99806224   -2.9744349   -2.9744349   -1.6778548  0.058357716   -2.9744349    1.2965801   545227 
  227000   0.99868818   -2.9754226   -2.9754226   -1.6780293  0.057795811   -2.9754226    1.2973933   545227 
  228000   0.99859677   -2.9759539   -2.9759539   -1.6786794  0.060035607   -2.9759539    1.2972745   545227 
  229000   0.99952509   -2.9774825   -2.9774825    -1.679002  0.058415233   -2.9774825    1.2984805   545227 
  230000   0.99950884   -2.9766919   -2.9766919   -1.6782326  0.065499678   -2.9766919    1.2984594   545227 
  231000    1.0001033   -2.9780846   -2.9780846    -1.678853  0.066431536   -2.9780846    1.2992317   545227 
  232000   0.99946175   -2.9774614   -2.9774614   -1.6790632  0.059738795   -2.9774614    1.2983982   545227 
  233000   0.99950459   -2.9789668   -2.9789668   -1.6805129   0.05716981   -2.9789668    1.2984539   545227 
  234000    1.0007003   -2.9795109   -2.9795109   -1.6795037  0.063010187   -2.9795109    1.3000073   545227 
  235000   0.99805965   -2.9765859   -2.9765859   -1.6800092   0.06150925   -2.9765859    1.2965767   545227 
  236000    0.9987816   -2.9766942   -2.9766942   -1.6791796  0.058769776   -2.9766942    1.2975146   545227 
  237000   0.99798617    -2.976176    -2.976176   -1.6796947  0.057523152    -2.976176    1.2964813   545227 
  238000   0.99829921   -2.9764333   -2.9764333   -1.6795453    0.0569403   -2.9764333    1.2968879   545227 
  239000   0.99792765   -2.9761209   -2.9761209   -1.6797156  0.051485319   -2.9761209    1.2964052   545227 
  240000   0.99888842   -2.9764924   -2.9764924    -1.678839  0.053156533   -2.9764924    1.2976534   545227 
  241000   0.99705555   -2.9749896   -2.9749896   -1.6797173  0.056166075   -2.9749896    1.2952723   545227 
  242000    0.9991228   -2.9778731   -2.9778731   -1.6799152  0.056354895   -2.9778731    1.2979579   545227 
  243000   0.99770997   -2.9749498   -2.9749498   -1.6788273  0.057403543   -2.9749498    1.2961225   545227 
  244000   0.99829829   -2.9763257   -2.9763257   -1.6794389  0.055571566   -2.9763257    1.2968868   545227 
  245000   0.99890811   -2.9778379   -2.9778379   -1.6801589  0.056921605   -2.9778379     1.297679   545227 
  246000   0.99813709    -2.976679    -2.976679   -1.6800016  0.056796393    -2.976679    1.2966773   545227 
  247000   0.99937142   -2.9780826   -2.9780826   -1.6798017  0.059645701   -2.9780826    1.2982809   545227 
  248000   0.99801843   -2.9761965   -2.9761965   -1.6796733  0.057308718   -2.9761965    1.2965232   545227 
  249000    1.0009654   -2.9791365   -2.9791365   -1.6787848  0.060487459   -2.9791365    1.3003517   545227 
  250000    1.0005874   -2.9790641   -2.9790641   -1.6792036  0.056238446   -2.9790641    1.2998606   545227 
  251000   0.99894129   -2.9781417   -2.9781417   -1.6804196  0.060131709   -2.9781417    1.2977221   545227 
  252000    1.0005983   -2.9799231   -2.9799231   -1.6800484  0.065599562   -2.9799231    1.2998746   545227 
  253000   0.99979816    -2.978153    -2.978153   -1.6793177  0.063864823    -2.978153    1.2988352   545227 
  254000    0.9991895   -2.9784768   -2.9784768   -1.6804323  0.058259285   -2.9784768    1.2980445   545227 
  255000   0.99597775   -2.9750231   -2.9750231   -1.6811509  0.070086283   -2.9750231    1.2938722   545227 
  256000   0.99776226   -2.9763689   -2.9763689   -1.6801785  0.061492719   -2.9763689    1.2961904   545227 
  257000   0.99720783   -2.9757679   -2.9757679   -1.6802978   0.05558983   -2.9757679    1.2954701   545227 
  258000   0.99735671   -2.9767473   -2.9767473   -1.6810838  0.055328245   -2.9767473    1.2956635   545227 
  259000   0.99785193   -2.9775051   -2.9775051   -1.6811982   0.05657357   -2.9775051    1.2963069   545227 
  260000   0.99842449   -2.9795658   -2.9795658   -1.6825151  0.060572514   -2.9795658    1.2970507   545227 
  261000   0.99786077   -2.9777916   -2.9777916   -1.6814733  0.062969086   -2.9777916    1.2963184   545227 
  262000   0.99743292   -2.9770446   -2.9770446    -1.681282  0.068124636   -2.9770446    1.2957626   545227 
  263000    1.0003407   -2.9804958   -2.9804958   -1.6809558  0.059939287   -2.9804958      1.29954   545227 
  264000   0.99955883    -2.979697    -2.979697   -1.6811727  0.056872807    -2.979697    1.2985243   545227 
  265000    1.0009636   -2.9810495   -2.9810495   -1.6807003  0.067319936   -2.9810495    1.3003492   545227 
  266000    1.0007939   -2.9816955   -2.9816955   -1.6815667  0.060058378   -2.9816955    1.3001288   545227 
  267000   0.99973694    -2.979819    -2.979819   -1.6810633  0.066279327    -2.979819    1.2987557   545227 
  268000   0.99832519   -2.9784345   -2.9784345   -1.6815128  0.059784153   -2.9784345    1.2969217   545227 
  269000   0.99800085   -2.9790251   -2.9790251   -1.6825248  0.059226297   -2.9790251    1.2965003   545227 
  270000   0.99919538    -2.979888    -2.979888   -1.6818358  0.058010347    -2.979888    1.2980522   545227 
  271000     0.998999   -2.9790346   -2.9790346   -1.6812376  0.049568272   -2.9790346     1.297797   545227 
  272000   0.99820422   -2.9772611   -2.9772611   -1.6804966  0.052527615   -2.9772611    1.2967645   545227 
  273000    0.9974985   -2.9768632   -2.9768632   -1.6810155  0.055285826   -2.9768632    1.2958477   545227 
  274000   0.99733385   -2.9764812   -2.9764812   -1.6808473  0.063816385   -2.9764812    1.2956339   545227 
  275000   0.99805877   -2.9774764   -2.9774764   -1.6809008  0.057155864   -2.9774764    1.2965756   545227 
  276000   0.99695034   -2.9758958   -2.9758958   -1.6807602  0.060636599   -2.9758958    1.2951356   545227 
  277000   0.99726963   -2.9764111   -2.9764111   -1.6808607  0.063225297   -2.9764111    1.2955504   545227 
  278000   0.99731616   -2.9762527   -2.9762527   -1.6806418  0.058015047   -2.9762527    1.2956109   545227 
  279000   0.99810067   -2.9783715   -2.9783715   -1.6817415  0.060594407   -2.9783715      1.29663   545227 
  280000   0.99752047   -2.9773744   -2.9773744   -1.6814981  0.069289511   -2.9773744    1.2958763   545227 
  281000   0.99790143   -2.9779885   -2.9779885   -1.6816173  0.059101674   -2.9779885    1.2963712   545227 
  282000    1.0001887   -2.9803506   -2.9803506   -1.6810081  0.063510575   -2.9803506    1.2993426   545227 
  283000    0.9995456   -2.9794718   -2.9794718   -1.6809646  0.060511572   -2.9794718    1.2985071   545227 
  284000   0.99959235   -2.9804386   -2.9804386   -1.6818707  0.063602766   -2.9804386    1.2985679   545227 
  285000   0.99924682   -2.9802428   -2.9802428   -1.6821238  0.054497716   -2.9802428     1.298119   545227 
  286000   0.99874069   -2.9800461   -2.9800461   -1.6825847  0.060189245   -2.9800461    1.2974615   545227 
  287000    0.9990968   -2.9802858   -2.9802858   -1.6823617   0.06519281   -2.9802858    1.2979241   545227 
  288000   0.99820471   -2.9785393   -2.9785393   -1.6817741  0.054337912   -2.9785393    1.2967652   545227 
  289000   0.99749992   -2.9775227   -2.9775227   -1.6816731  0.055526179   -2.9775227    1.2958496   545227 
  290000   0.99669666   -2.9771679   -2.9771679   -1.6823618  0.064120198   -2.9771679    1.2948061   545227 
  291000    0.9981568   -2.9782922   -2.9782922   -1.6815892  0.062809005   -2.9782922    1.2967029   545227 
  292000   0.99720919   -2.9785691   -2.9785691   -1.6830972  0.054538585   -2.9785691    1.2954719   545227 
  293000    0.9968525   -2.9781826   -2.9781826   -1.6831741  0.057737412   -2.9781826    1.2950085   545227 
  294000   0.99744034   -2.9789058   -2.9789058   -1.6831336  0.055115194   -2.9789058    1.2957722   545227 
  295000   0.99705572   -2.9779368   -2.9779368   -1.6826642  0.061187082   -2.9779368    1.2952725   545227 
  296000    0.9980399   -2.9790179   -2.9790179   -1.6824668  0.051822932   -2.9790179    1.2965511   545227 
  297000   0.99834077   -2.9795759   -2.9795759    -1.682634  0.066578539   -2.9795759    1.2969419   545227 
  298000   0.99961331   -2.9804727   -2.9804727   -1.6818776  0.064447021   -2.9804727    1.2985951   545227 
  299000   0.99841087   -2.9786522   -2.9786522   -1.6816192  0.066862376   -2.9786522     1.297033   545227 
  300000   0.99743161   -2.9788472   -2.9788472   -1.6830864  0.058692928   -2.9788472    1.2957608   545227 
  301000   0.99747502   -2.9794454   -2.9794454   -1.6836282  0.059693738   -2.9794454    1.2958172   545227 
  302000    0.9981307   -2.9792049   -2.9792049   -1.6825359   0.06276458   -2.9792049     1.296669   545227 
  303000   0.99795191   -2.9791705   -2.9791705   -1.6827337  0.055613953   -2.9791705    1.2964368   545227 
  304000   0.99809171   -2.9788757   -2.9788757   -1.6822573  0.049629543   -2.9788757    1.2966184   545227 
  305000   0.99595334   -2.9768628   -2.9768628   -1.6830223  0.052134054   -2.9768628    1.2938404   545227 
  306000    0.9959011   -2.9760585   -2.9760585   -1.6822859  0.058121596   -2.9760585    1.2937726   545227 
  307000   0.99626059   -2.9754013   -2.9754013   -1.6811617  0.063828106   -2.9754013    1.2942396   545227 
  308000   0.99700695   -2.9767391   -2.9767391   -1.6815299  0.057700968   -2.9767391    1.2952092   545227 
  309000   0.99498259   -2.9743438   -2.9743438   -1.6817645  0.051009757   -2.9743438    1.2925793   545227 
  310000   0.99774291   -2.9777857   -2.9777857   -1.6816204  0.058992238   -2.9777857    1.2961653   545227 
  311000   0.99776801    -2.978633    -2.978633   -1.6824351  0.049933163    -2.978633    1.2961979   545227 
  312000   0.99769458   -2.9784641   -2.9784641   -1.6823616  0.058208262   -2.9784641    1.2961025   545227 
  313000   0.99789629   -2.9786501   -2.9786501   -1.6822856  0.060341758   -2.9786501    1.2963645   545227 
  314000    0.9981125   -2.9788739   -2.9788739   -1.6822285  0.061798413   -2.9788739    1.2966454   545227 
  315000   0.99826805   -2.9793536   -2.9793536   -1.6825062  0.056428268   -2.9793536    1.2968475   545227 
  316000   0.99874027   -2.9805877   -2.9805877   -1.6831268  0.055753087   -2.9805877    1.2974609   545227 
  317000    0.9995088   -2.9822966   -2.9822966   -1.6838373  0.069720796   -2.9822966    1.2984593   545227 
  318000   0.99807564   -2.9797292   -2.9797292   -1.6831317  0.063253554   -2.9797292    1.2965975   545227 
  319000   0.99686731   -2.9791814   -2.9791814   -1.6841536  0.066958266   -2.9791814    1.2950278   545227 
  320000   0.99791749   -2.9803861   -2.9803861    -1.683994  0.054467925   -2.9803861    1.2963921   545227 
  321000   0.99822868   -2.9809356   -2.9809356   -1.6841392  0.059290455   -2.9809356    1.2967963   545227 
  322000   0.99922096   -2.9831265   -2.9831265   -1.6850411  0.060405375   -2.9831265    1.2980854   545227 
  323000   0.99902788   -2.9830611   -2.9830611   -1.6852266  0.061272827   -2.9830611    1.2978346   545227 
  324000    0.9992699   -2.9825807   -2.9825807   -1.6844317  0.067862282   -2.9825807     1.298149   545227 
  325000   0.99842199   -2.9817806   -2.9817806   -1.6847332  0.070055235   -2.9817806    1.2970474   545227 
  326000   0.99840095   -2.9816918   -2.9816918   -1.6846717  0.068643142   -2.9816918    1.2970201   545227 
  327000   0.99780069   -2.9817265   -2.9817265   -1.6854862   0.05741884   -2.9817265    1.2962403   545227 
  328000   0.99706924   -2.9798978   -2.9798978   -1.6846077  0.061233602   -2.9798978    1.2952901   545227 
  329000   0.99709485     -2.97946     -2.97946   -1.6841366  0.044141596     -2.97946    1.2953234   545227 
  330000   0.99653101   -2.9786118   -2.9786118   -1.6840209  0.051698571   -2.9786118    1.2945909   545227 
  331000   0.99799946   -2.9803737   -2.9803737   -1.6838751  0.055791202   -2.9803737    1.2964985   545227 
  332000   0.99791698   -2.9802144   -2.9802144    -1.683823  0.064639562   -2.9802144    1.2963914   545227 
  333000   0.99890181   -2.9817925   -2.9817925   -1.6841217  0.053811147   -2.9817925    1.2976708   545227 
  334000    0.9987104   -2.9812169   -2.9812169   -1.6837948  0.055204218   -2.9812169    1.2974221   545227 
  335000   0.99912547   -2.9818515   -2.9818515   -1.6838902  0.056296834   -2.9818515    1.2979613   545227 
  336000   0.99881546   -2.9816603   -2.9816603   -1.6841017  0.062808709   -2.9816603    1.2975586   545227 
  337000   0.99686634   -2.9792731   -2.9792731   -1.6842466  0.048865185   -2.9792731    1.2950265   545227 
  338000   0.99909483    -2.982183    -2.982183   -1.6842615  0.059487218    -2.982183    1.2979215   545227 
  339000   0.99918795   -2.9830751   -2.9830751   -1.6850326  0.057240743   -2.9830751    1.2980425   545227 
  340000   0.99882822   -2.9826814   -2.9826814   -1.6851062  0.058331376   -2.9826814    1.2975752   545227 
  341000   0.99743165   -2.9812449   -2.9812449    -1.685484  0.055070511   -2.9812449    1.2957609   545227 
  342000   0.99802509   -2.9808786   -2.9808786   -1.6843467  0.061885084   -2.9808786    1.2965318   545227 
  343000   0.99784694   -2.9799192   -2.9799192   -1.6836188  0.052076706   -2.9799192    1.2963004   545227 
  344000    0.9983552   -2.9799455   -2.9799455   -1.6829848  0.063017066   -2.9799455    1.2969607   545227 
  345000   0.99781127   -2.9798371   -2.9798371   -1.6835831  0.053083578   -2.9798371    1.2962541   545227 
  346000   0.99719106   -2.9786494   -2.9786494   -1.6832011  0.055641519   -2.9786494    1.2954483   545227 
  347000    0.9967329   -2.9777561   -2.9777561    -1.682903  0.060572779   -2.9777561    1.2948532   545227 
  348000    0.9974337   -2.9786534   -2.9786534   -1.6828898  0.048809715   -2.9786534    1.2957636   545227 
  349000   0.99538871   -2.9760985   -2.9760985   -1.6829916  0.059329254   -2.9760985    1.2931069   545227 
  350000    0.9976503   -2.9782247   -2.9782247   -1.6821797  0.060004556   -2.9782247    1.2960449   545227 
  351000   0.99852278   -2.9805447   -2.9805447   -1.6833663  0.066760939   -2.9805447    1.2971784   545227 
  352000   0.99628522   -2.9786505   -2.9786505   -1.6843789   0.05533169   -2.9786505    1.2942716   545227 
  353000   0.99784113   -2.9811144   -2.9811144   -1.6848216  0.055331995   -2.9811144    1.2962929   545227 
  354000   0.99901146   -2.9827212   -2.9827212    -1.684908  0.057225924   -2.9827212    1.2978132   545227 
  355000   0.99899065   -2.9821691   -2.9821691   -1.6843829  0.061860843   -2.9821691    1.2977862   545227 
  356000   0.99662382    -2.978339    -2.978339   -1.6836275  0.056613895    -2.978339    1.2947114   545227 
  357000   0.99798692    -2.980059    -2.980059   -1.6835768  0.062286659    -2.980059    1.2964823   545227 
  358000   0.99685978   -2.9797503   -2.9797503   -1.6847323  0.062490631   -2.9797503     1.295018   545227 
  359000   0.99844199   -2.9820837   -2.9820837   -1.6850103  0.049940703   -2.9820837    1.2970734   545227 
  360000   0.99847633   -2.9809617   -2.9809617   -1.6838437  0.052026197   -2.9809617     1.297118   545227 
  361000    0.9945502   -2.9773871   -2.9773871   -1.6853694   0.05412219   -2.9773871    1.2920176   545227 
  362000   0.99531699   -2.9774748   -2.9774748   -1.6844611   0.05018664   -2.9774748    1.2930137   545227 
  363000   0.99411514    -2.976642    -2.976642   -1.6851896  0.050430712    -2.976642    1.2914524   545227 
  364000   0.99654992   -2.9802084   -2.9802084    -1.685593  0.052062904   -2.9802084    1.2946155   545227 
  365000    0.9970595   -2.9808238   -2.9808238   -1.6855464  0.054561645   -2.9808238    1.2952774   545227 
  366000   0.99796796   -2.9818656   -2.9818656   -1.6854079  0.062736889   -2.9818656    1.2964576   545227 
  367000   0.99778029    -2.981533    -2.981533   -1.6853192  0.060257445    -2.981533    1.2962138   545227 
  368000   0.99774216   -2.9813097   -2.9813097   -1.6851454  0.048766882   -2.9813097    1.2961643   545227 
  369000   0.99804583   -2.9821518   -2.9821518    -1.685593  0.056848577   -2.9821518    1.2965588   545227 
  370000   0.99747907   -2.9821751   -2.9821751   -1.6863526  0.053650828   -2.9821751    1.2958225   545227 
  371000   0.99730043   -2.9814574   -2.9814574    -1.685867  0.058945851   -2.9814574    1.2955904   545227 
  372000   0.99661924   -2.9804268   -2.9804268   -1.6857213  0.052402167   -2.9804268    1.2947055   545227 
  373000   0.99826459   -2.9825329   -2.9825329   -1.6856899  0.065213872   -2.9825329     1.296843   545227 
  374000   0.99873605   -2.9832777   -2.9832777   -1.6858223  0.055812115   -2.9832777    1.2974554   545227 
  375000   0.99880267   -2.9826864   -2.9826864   -1.6851444  0.048491794   -2.9826864     1.297542   545227 
  376000   0.99852869   -2.9825797   -2.9825797   -1.6853937  0.053623832   -2.9825797    1.2971861   545227 
  377000   0.99506999   -2.9789067   -2.9789067   -1.6862138  0.053553658   -2.9789067    1.2926929   545227 
  378000    0.9962825     -2.97993     -2.97993   -1.6856619  0.056100631     -2.97993     1.294268   545227 
  379000   0.99605695    -2.979549    -2.979549    -1.685574  0.059623903    -2.979549     1.293975   545227 
  380000   0.99681978   -2.9798019   -2.9798019   -1.6848359  0.060571836   -2.9798019     1.294966   545227 
  381000   0.99511628   -2.9773179   -2.9773179   -1.6845649  0.059766318   -2.9773179     1.292753   545227 
  382000   0.99653988    -2.978955    -2.978955   -1.6843526  0.052430279    -2.978955    1.2946024   545227 
  383000    0.9978409    -2.981111    -2.981111   -1.6848184  0.044916534    -2.981111    1.2962926   545227 
  384000   0.99696881   -2.9792066   -2.9792066    -1.684047  0.048826007   -2.9792066    1.2951596   545227 
  385000   0.99768119   -2.9797119   -2.9797119   -1.6836268  0.056421371   -2.9797119    1.2960851   545227 
  386000   0.99667333   -2.9781239   -2.9781239   -1.6833482  0.053433328   -2.9781239    1.2947758   545227 
  387000   0.99733248   -2.9789504   -2.9789504   -1.6833183  0.054461985   -2.9789504    1.2956321   545227 
  388000   0.99809143   -2.9797593   -2.9797593   -1.6831413  0.060240988   -2.9797593     1.296618   545227 
  389000   0.99816088   -2.9796843   -2.9796843   -1.6829761  0.053556871   -2.9796843    1.2967082   545227 
  390000   0.99688147   -2.9801052   -2.9801052    -1.685059  0.055226775   -2.9801052    1.2950462   545227 
  391000   0.99674844   -2.9799876   -2.9799876   -1.6851142  0.057691529   -2.9799876    1.2948734   545227 
  392000   0.99806437   -2.9813277   -2.9813277   -1.6847449  0.054349028   -2.9813277    1.2965829   545227 
  393000    1.0000072   -2.9841738   -2.9841738   -1.6850671  0.062908286   -2.9841738    1.2991067   545227 
  394000    1.0002718   -2.9842405   -2.9842405   -1.6847901  0.059035778   -2.9842405    1.2994505   545227 
  395000   0.99931024   -2.9835033   -2.9835033   -1.6853019  0.060174078   -2.9835033    1.2982014   545227 
  396000   0.99946336   -2.9839103   -2.9839103     -1.68551  0.063425198   -2.9839103    1.2984003   545227 
  397000     1.000027   -2.9851334   -2.9851334   -1.6860009  0.049541756   -2.9851334    1.2991325   545227 
  398000   0.99968427   -2.9844715   -2.9844715   -1.6857842  0.055973008   -2.9844715    1.2986873   545227 
  399000   0.99808377   -2.9826229   -2.9826229   -1.6860148  0.063620491   -2.9826229    1.2966081   545227 
  400000   0.99826003   -2.9836135   -2.9836135   -1.6867765  0.057113375   -2.9836135    1.2968371   545227 
  401000   0.99667915   -2.9811126   -2.9811126   -1.6863293  0.069349589   -2.9811126    1.2947833   545227 
  402000   0.99779266   -2.9832371   -2.9832371   -1.6870072  0.062376879   -2.9832371    1.2962299   545227 
  403000   0.99682505    -2.981466    -2.981466   -1.6864932  0.057497279    -2.981466    1.2949729   545227 
  404000    0.9970903   -2.9813024   -2.9813024    -1.685985  0.052671684   -2.9813024    1.2953175   545227 
  405000   0.99879203   -2.9830943   -2.9830943   -1.6855661  0.057054149   -2.9830943    1.2975282   545227 
  406000   0.99647996   -2.9801216   -2.9801216    -1.685597  0.053986982   -2.9801216    1.2945246   545227 
  407000   0.99829967   -2.9821303   -2.9821303   -1.6852417  0.059101359   -2.9821303    1.2968885   545227 
  408000   0.99781209   -2.9814334   -2.9814334   -1.6851782  0.064763763   -2.9814334    1.2962551   545227 
  409000    0.9985244   -2.9820031   -2.9820031   -1.6848226   0.06193389   -2.9820031    1.2971805   545227 
  410000   0.99972911   -2.9841927   -2.9841927   -1.6854471  0.060913921   -2.9841927    1.2987455   545227 
  411000   0.99872559   -2.9835873   -2.9835873   -1.6861455  0.059217448   -2.9835873    1.2974419   545227 
  412000   0.99787018   -2.9828553   -2.9828553   -1.6865247  0.067116378   -2.9828553    1.2963306   545227 
  413000   0.99833678   -2.9831374   -2.9831374   -1.6862006  0.061755207   -2.9831374    1.2969367   545227 
  414000   0.99892507   -2.9850072   -2.9850072   -1.6873062  0.054067622   -2.9850072     1.297701   545227 
  415000   0.99802601   -2.9837985   -2.9837985   -1.6872655  0.056917532   -2.9837985     1.296533   545227 
  416000   0.99634271   -2.9819243   -2.9819243    -1.687578  0.065791901   -2.9819243    1.2943463   545227 
  417000   0.99674249   -2.9817749   -2.9817749   -1.6869093  0.057398039   -2.9817749    1.2948656   545227 
  418000   0.99566112   -2.9807383   -2.9807383   -1.6872775  0.062736732   -2.9807383    1.2934608   545227 
  419000   0.99640864   -2.9823404   -2.9823404   -1.6879085  0.050808283   -2.9823404    1.2944319   545227 
  420000   0.99652322   -2.9822869   -2.9822869   -1.6877061  0.060364803   -2.9822869    1.2945808   545227 
  421000   0.99590208   -2.9817468   -2.9817468    -1.687973   0.05222937   -2.9817468    1.2937738   545227 
  422000   0.99673261   -2.9819246   -2.9819246   -1.6870718  0.058587053   -2.9819246    1.2948528   545227 
  423000   0.99841294   -2.9834838   -2.9834838   -1.6864481  0.062470738   -2.9834838    1.2970357   545227 
  424000   0.99829217   -2.9832536   -2.9832536   -1.6863748  0.064494784   -2.9832536    1.2968788   545227 
  425000   0.99870135   -2.9835543   -2.9835543   -1.6861439  0.054887281   -2.9835543    1.2974104   545227 
  426000   0.99581029   -2.9806548   -2.9806548   -1.6870002  0.056458574   -2.9806548    1.2936546   545227 
  427000   0.99872131   -2.9840643   -2.9840643    -1.686628  0.057743339   -2.9840643    1.2974363   545227 
  428000   0.99815304   -2.9826652   -2.9826652   -1.6859671  0.063382944   -2.9826652    1.2966981   545227 
  429000   0.99694028   -2.9817169   -2.9817169   -1.6865943   0.06265215   -2.9817169    1.2951226   545227 
  430000   0.99818962   -2.9828697   -2.9828697   -1.6861241    0.0550976   -2.9828697    1.2967456   545227 
  431000   0.99764266   -2.9832026   -2.9832026   -1.6871676  0.056241974   -2.9832026     1.296035   545227 
  432000   0.99746051   -2.9826839   -2.9826839   -1.6868855  0.053863723   -2.9826839    1.2957984   545227 
  433000   0.99749755   -2.9837707   -2.9837707   -1.6879242  0.065227517   -2.9837707    1.2958465   545227 
  434000   0.99899991   -2.9852489   -2.9852489   -1.6874506  0.062963043   -2.9852489    1.2977982   545227 
  435000   0.99800688   -2.9835915   -2.9835915   -1.6870833  0.061874251   -2.9835915    1.2965082   545227 
  436000   0.99835625   -2.9839766   -2.9839766   -1.6870146  0.059784739   -2.9839766     1.296962   545227 
  437000   0.99828886   -2.9847928   -2.9847928   -1.6879183  0.053589379   -2.9847928    1.2968745   545227 
  438000   0.99841517   -2.9847686   -2.9847686     -1.68773  0.058738074   -2.9847686    1.2970386   545227 
  439000   0.99917971   -2.9849237   -2.9849237   -1.6868919  0.055563996   -2.9849237    1.2980318   545227 
  440000   0.99717194   -2.9818484   -2.9818484   -1.6864249  0.071812189   -2.9818484    1.2954235   545227 
  441000   0.99777283   -2.9822209   -2.9822209   -1.6860167  0.063487813   -2.9822209    1.2962041   545227 
  442000   0.99643483   -2.9820834   -2.9820834   -1.6876175  0.052585158   -2.9820834    1.2944659   545227 
  443000   0.99840598   -2.9852921   -2.9852921   -1.6882654  0.050648117   -2.9852921    1.2970266   545227 
  444000   0.99724273   -2.9831291   -2.9831291   -1.6876136  0.057032499   -2.9831291    1.2955155   545227 
  445000   0.99655076   -2.9835632   -2.9835632   -1.6889466  0.060180333   -2.9835632    1.2946165   545227 
  446000   0.99634558   -2.9828333   -2.9828333   -1.6884833  0.063719628   -2.9828333      1.29435   545227 
  447000   0.99639648    -2.983878    -2.983878   -1.6894618  0.055122134    -2.983878    1.2944161   545227 
  448000   0.99673246   -2.9844288   -2.9844288   -1.6895762  0.056585085   -2.9844288    1.2948526   545227 
  449000   0.99635322   -2.9834815   -2.9834815   -1.6891216  0.058016922   -2.9834815    1.2943599   545227 
  450000   0.99635991    -2.983373    -2.983373   -1.6890044  0.049552173    -2.983373    1.2943686   545227 
  451000   0.99593958   -2.9832052   -2.9832052   -1.6893826  0.056919087   -2.9832052    1.2938226   545227 
  452000   0.99722263   -2.9853821   -2.9853821   -1.6898927  0.052381341   -2.9853821    1.2954894   545227 
  453000   0.99697354   -2.9837629   -2.9837629   -1.6885971  0.062700927   -2.9837629    1.2951658   545227 
  454000   0.99618002   -2.9827328   -2.9827328   -1.6885979  0.056057884   -2.9827328    1.2941349   545227 
  455000   0.99754854   -2.9843197   -2.9843197   -1.6884069  0.052425371   -2.9843197    1.2959128   545227 
  456000   0.99799107   -2.9850555   -2.9850555   -1.6885679  0.053859981   -2.9850555    1.2964876   545227 
  457000   0.99804526    -2.984736    -2.984736    -1.688178  0.067928684    -2.984736     1.296558   545227 
  458000   0.99814054   -2.9854753   -2.9854753   -1.6887935  0.053973005   -2.9854753    1.2966818   545227 
  459000    0.9977825   -2.9852829   -2.9852829   -1.6890663  0.051937225   -2.9852829    1.2962167   545227 
  460000   0.99595056   -2.9841364   -2.9841364   -1.6902995  0.059221462   -2.9841364    1.2938368   545227 
  461000   0.99767844   -2.9858834   -2.9858834   -1.6898019  0.062476662   -2.9858834    1.2960815   545227 
  462000   0.99619156   -2.9840128   -2.9840128   -1.6898629  0.056436149   -2.9840128    1.2941499   545227 
  463000   0.99670317   -2.9843427   -2.9843427   -1.6895282  0.052026968   -2.9843427    1.2948145   545227 
  464000   0.99524648   -2.9825378   -2.9825378   -1.6896157  0.057097298   -2.9825378    1.2929222   545227 
  465000   0.99741502   -2.9852456   -2.9852456   -1.6895063  0.058333301   -2.9852456    1.2957393   545227 
  466000   0.99763262   -2.9855507   -2.9855507   -1.6895287  0.064656633   -2.9855507     1.296022   545227 
  467000    0.9964198   -2.9841001   -2.9841001   -1.6896537  0.054932424   -2.9841001    1.2944464   545227 
  468000   0.99639399   -2.9846401   -2.9846401   -1.6902273  0.064446899   -2.9846401    1.2944129   545227 
  469000   0.99689451   -2.9851645   -2.9851645   -1.6901014   0.06129313   -2.9851645    1.2950631   545227 
  470000   0.99854557   -2.9887009   -2.9887009   -1.6914929  0.061274961   -2.9887009     1.297208   545227 
  471000   0.99820598   -2.9878435   -2.9878435   -1.6910766  0.047559313   -2.9878435    1.2967668   545227 
  472000   0.99767198   -2.9880031   -2.9880031   -1.6919299  0.066550509   -2.9880031    1.2960731   545227 
  473000   0.99722466   -2.9861682   -2.9861682   -1.6906762  0.063223526   -2.9861682     1.295492   545227 
  474000   0.99845345   -2.9876287   -2.9876287   -1.6905404  0.059136448   -2.9876287    1.2970883   545227 
  475000    0.9957149   -2.9840482   -2.9840482   -1.6905175  0.055414691   -2.9840482    1.2935307   545227 
  476000   0.99564025   -2.9831994   -2.9831994   -1.6897658  0.061960308   -2.9831994    1.2934337   545227 
  477000   0.99538859   -2.9826182   -2.9826182   -1.6895115  0.059526214   -2.9826182    1.2931068   545227 
  478000   0.99574974   -2.9829427   -2.9829427   -1.6893667  0.056963118   -2.9829427    1.2935759   545227 
  479000   0.99682668   -2.9841422   -2.9841422   -1.6891672   0.05426725   -2.9841422     1.294975   545227 
  480000   0.99678246   -2.9844122   -2.9844122   -1.6894947   0.05024056   -2.9844122    1.2949175   545227 
  481000   0.99480178   -2.9816169   -2.9816169   -1.6892724   0.06434416   -2.9816169    1.2923444   545227 
  482000    0.9951116   -2.9822229   -2.9822229    -1.689476  0.061876749   -2.9822229    1.2927469   545227 
  483000   0.99719126   -2.9850498   -2.9850498   -1.6896011  0.065335798   -2.9850498    1.2954486   545227 
  484000   0.99698645   -2.9856279   -2.9856279   -1.6904453  0.052616804   -2.9856279    1.2951825   545227 
  485000   0.99645466   -2.9858577   -2.9858577   -1.6913661  0.055672805   -2.9858577    1.2944917   545227 
  486000   0.99655325   -2.9863361   -2.9863361   -1.6917163   0.06248145   -2.9863361    1.2946198   545227 
  487000   0.99797638   -2.9869261   -2.9869261   -1.6904575  0.055410706   -2.9869261    1.2964686   545227 
  488000    0.9980919   -2.9878468   -2.9878468   -1.6912282  0.063977393   -2.9878468    1.2966186   545227 
  489000   0.99843366   -2.9887195   -2.9887195   -1.6916569  0.067024528   -2.9887195    1.2970626   545227 
  490000   0.99870469   -2.9896557   -2.9896557    -1.692241  0.067565791   -2.9896557    1.2974147   545227 
  491000   0.99682547   -2.9879562   -2.9879562   -1.6929827  0.057156611   -2.9879562    1.2949734   545227 
  492000   0.99611701   -2.9878935   -2.9878935   -1.6938405  0.056343955   -2.9878935    1.2940531   545227 
  493000   0.99645984   -2.9871324   -2.9871324    -1.692634  0.062182967   -2.9871324    1.2944984   545227 
  494000   0.99736644   -2.9873546   -2.9873546   -1.6916784  0.060677814   -2.9873546    1.2956762   545227 
  495000   0.99679746   -2.9861245   -2.9861245   -1.6911875  0.059986057   -2.9861245     1.294937   545227 
  496000   0.99722211   -2.9875483   -2.9875483   -1.6920597  0.055991638   -2.9875483    1.2954887   545227 
  497000   0.99658431    -2.985583    -2.985583   -1.6909229   0.05912751    -2.985583    1.2946601   545227 
  498000   0.99681574   -2.9853072   -2.9853072   -1.6903464  0.061321395   -2.9853072    1.2949608   545227 
  499000   0.99712707   -2.9862872   -2.9862872    -1.690922  0.048426402   -2.9862872    1.2953652   545227 
  500000   0.99747676   -2.9866764   -2.9866764   -1.6908569  0.049034438   -2.9866764    1.2958195   545227 
  501000   0.99661574   -2.9840344   -2.9840344   -1.6893335  0.064047794   -2.9840344     1.294701   545227 
  502000   0.99834008   -2.9866979   -2.9866979   -1.6897569  0.066481483   -2.9866979     1.296941   545227 
  503000    0.9985925   -2.9872005   -2.9872005   -1.6899315  0.058076664   -2.9872005     1.297269   545227 
  504000   0.99703022   -2.9860779   -2.9860779   -1.6908385  0.058286508   -2.9860779    1.2952394   545227 
  505000   0.99921574    -2.989142    -2.989142   -1.6910634  0.058190761    -2.989142    1.2980786   545227 
  506000   0.99846295   -2.9880675   -2.9880675   -1.6909669  0.062743824   -2.9880675    1.2971007   545227 
  507000   0.99859922   -2.9877429   -2.9877429   -1.6904652  0.058340751   -2.9877429    1.2972777   545227 
  508000   0.99942612   -2.9884403   -2.9884403   -1.6900884  0.063959667   -2.9884403    1.2983519   545227 
  509000   0.99901419   -2.9890654   -2.9890654   -1.6912486   0.05385967   -2.9890654    1.2978168   545227 
  510000   0.99829938   -2.9875149   -2.9875149   -1.6906268  0.063157845   -2.9875149    1.2968882   545227 
  511000   0.99704416   -2.9864151   -2.9864151   -1.6911576   0.06401854   -2.9864151    1.2952575   545227 
  512000   0.99656773   -2.9858181   -2.9858181   -1.6911795  0.059228451   -2.9858181    1.2946386   545227 
  513000   0.99468136   -2.9836674   -2.9836674   -1.6914794  0.065910517   -2.9836674     1.292188   545227 
  514000   0.99673397   -2.9856543   -2.9856543   -1.6907997  0.060288743   -2.9856543    1.2948545   545227 
  515000   0.99672891   -2.9857881   -2.9857881   -1.6909401  0.058791183   -2.9857881     1.294848   545227 
  516000   0.99574539   -2.9844753   -2.9844753   -1.6909051  0.055623844   -2.9844753    1.2935703   545227 
  517000    0.9972449   -2.9857871   -2.9857871   -1.6902688  0.064853165   -2.9857871    1.2955183   545227 
  518000   0.99722711   -2.9854279   -2.9854279   -1.6899327  0.057483094   -2.9854279    1.2954952   545227 
  519000   0.99867885   -2.9868518   -2.9868518   -1.6894707  0.048601411   -2.9868518    1.2973811   545227 
  520000   0.99715829   -2.9853492   -2.9853492   -1.6899434  0.058120012   -2.9853492    1.2954058   545227 
  521000   0.99681738   -2.9850312   -2.9850312   -1.6900683  0.049466266   -2.9850312    1.2949629   545227 
  522000   0.99720968   -2.9849795   -2.9849795   -1.6895069  0.075963681   -2.9849795    1.2954725   545227 
  523000   0.99759443   -2.9851024   -2.9851024     -1.68913   0.06563251   -2.9851024    1.2959724   545227 
  524000    0.9978975   -2.9865087   -2.9865087   -1.6901426  0.058105641   -2.9865087    1.2963661   545227 
  525000   0.99777493   -2.9851996   -2.9851996   -1.6889928  0.058760879   -2.9851996    1.2962069   545227 
  526000   0.99769416   -2.9856923   -2.9856923   -1.6895904  0.059477033   -2.9856923    1.2961019   545227 
  527000   0.99846194   -2.9871449   -2.9871449   -1.6900455  0.055424518   -2.9871449    1.2970993   545227 
  528000   0.99731934   -2.9863735   -2.9863735   -1.6907585  0.062990911   -2.9863735     1.295615   545227 
  529000    0.9964978   -2.9847839   -2.9847839   -1.6902362  0.058012072   -2.9847839    1.2945477   545227 
  530000   0.99627149   -2.9837604   -2.9837604   -1.6895066  0.060410719   -2.9837604    1.2942537   545227 
  531000   0.99831398   -2.9867201   -2.9867201   -1.6898129  0.051635685   -2.9867201    1.2969071   545227 
  532000   0.99698178     -2.98529     -2.98529   -1.6901135  0.059924286     -2.98529    1.2951765   545227 
  533000   0.99597048   -2.9842499   -2.9842499   -1.6903872  0.054777178   -2.9842499    1.2938627   545227 
  534000   0.99606338    -2.986162    -2.986162   -1.6921786   0.05339024    -2.986162    1.2939834   545227 
  535000   0.99582491   -2.9857691   -2.9857691   -1.6920955  0.049231605   -2.9857691    1.2936736   545227 
  536000   0.99942162   -2.9905696   -2.9905696   -1.6922236  0.053587717   -2.9905696    1.2983461   545227 
  537000   0.99713043   -2.9868796   -2.9868796     -1.69151  0.062550342   -2.9868796    1.2953696   545227 
  538000   0.99657709   -2.9870763   -2.9870763   -1.6924256  0.058120083   -2.9870763    1.2946507   545227 
  539000      0.99756   -2.9889163   -2.9889163   -1.6929887  0.056733293   -2.9889163    1.2959276   545227 
  540000   0.99801538   -2.9891933   -2.9891933   -1.6926741  0.057321792   -2.9891933    1.2965192   545227 
  541000   0.99987759   -2.9915405   -2.9915405   -1.6926021  0.059259357   -2.9915405    1.2989384   545227 
  542000   0.99973338   -2.9921072   -2.9921072   -1.6933562  0.058734608   -2.9921072    1.2987511   545227 
  543000   0.99924581   -2.9904075   -2.9904075   -1.6922898  0.059890239   -2.9904075    1.2981177   545227 
  544000   0.99873998   -2.9897208   -2.9897208   -1.6922602  0.060805789   -2.9897208    1.2974605   545227 
  545000   0.99788149   -2.9884524   -2.9884524   -1.6921071  0.065927894   -2.9884524    1.2963453   545227 
  546000   0.99835128   -2.9900903   -2.9900903   -1.6931347  0.052029164   -2.9900903    1.2969556   545227 
  547000   0.99873437   -2.9887275   -2.9887275   -1.6912743  0.058905201   -2.9887275    1.2974533   545227 
  548000   0.99599831   -2.9856287   -2.9856287   -1.6917298  0.057040387   -2.9856287    1.2938989   545227 
  549000   0.99669131   -2.9863975   -2.9863975   -1.6915984  0.064303867   -2.9863975    1.2947991   545227 
  550000   0.99689928   -2.9853793   -2.9853793     -1.69031  0.055684771   -2.9853793    1.2950693   545227 
  551000   0.99711091   -2.9856465   -2.9856465   -1.6903023  0.058046004   -2.9856465    1.2953442   545227 
  552000   0.99646554   -2.9845728   -2.9845728    -1.690067  0.061616656   -2.9845728    1.2945058   545227 
  553000   0.99626442   -2.9860035   -2.9860035   -1.6917589  0.068678261   -2.9860035    1.2942446   545227 
  554000   0.99715967   -2.9863951   -2.9863951   -1.6909875  0.063283293   -2.9863951    1.2954076   545227 
  555000   0.99863717   -2.9882896   -2.9882896   -1.6909626  0.063741744   -2.9882896     1.297327   545227 
  556000   0.99880386   -2.9887727   -2.9887727   -1.6912291  0.057518013   -2.9887727    1.2975435   545227 
  557000    0.9990608   -2.9893789   -2.9893789   -1.6915016  0.058939964   -2.9893789    1.2978773   545227 
  558000   0.99865471   -2.9889195   -2.9889195   -1.6915698  0.060159531   -2.9889195    1.2973498   545227 
  559000   0.99712167   -2.9879102   -2.9879102    -1.692552  0.062798366   -2.9879102    1.2953582   545227 
  560000    0.9975774   -2.9872134   -2.9872134   -1.6912632  0.059817745   -2.9872134    1.2959503   545227 
  561000    0.9990953   -2.9895341   -2.9895341   -1.6916119  0.063693026   -2.9895341    1.2979222   545227 
  562000   0.99817145   -2.9873853   -2.9873853   -1.6906634  0.058430872   -2.9873853     1.296722   545227 
  563000   0.99719845   -2.9858832   -2.9858832   -1.6904252   0.06428515   -2.9858832     1.295458   545227 
  564000    0.9971061   -2.9866794   -2.9866794   -1.6913414  0.053410662   -2.9866794     1.295338   545227 
  565000   0.99761742   -2.9872535   -2.9872535   -1.6912513  0.053077132   -2.9872535    1.2960022   545227 
  566000   0.99601303   -2.9848844   -2.9848844   -1.6909664  0.053820979   -2.9848844     1.293918   545227 
  567000   0.99715256   -2.9869663   -2.9869663   -1.6915679  0.046491094   -2.9869663    1.2953983   545227 
  568000   0.99555496   -2.9849712   -2.9849712   -1.6916483  0.053242598   -2.9849712    1.2933229   545227 
  569000   0.99537071   -2.9853717   -2.9853717   -1.6922881  0.059824458   -2.9853717    1.2930835   545227 
  570000   0.99634718   -2.9866067   -2.9866067   -1.6922546  0.049663259   -2.9866067    1.2943521   545227 
  571000   0.99513962   -2.9853454   -2.9853454   -1.6925621  0.057020535   -2.9853454    1.2927833   545227 
  572000   0.99494614   -2.9854558   -2.9854558   -1.6929239  0.057163168   -2.9854558     1.292532   545227 
  573000   0.99692054   -2.9872296   -2.9872296   -1.6921327  0.060018096   -2.9872296    1.2950969   545227 
  574000   0.99801315   -2.9883805   -2.9883805   -1.6918642  0.051902755   -2.9883805    1.2965163   545227 
  575000   0.99781218   -2.9878559   -2.9878559   -1.6916007  0.056129825   -2.9878559    1.2962552   545227 
  576000   0.99721662   -2.9874151   -2.9874151   -1.6919336   0.06045599   -2.9874151    1.2954816   545227 
  577000   0.99703325   -2.9858557   -2.9858557   -1.6906123  0.057103322   -2.9858557    1.2952433   545227 
  578000   0.99727178   -2.9870157   -2.9870157   -1.6914625  0.048819214   -2.9870157    1.2955532   545227 
  579000   0.99714826    -2.986814    -2.986814   -1.6914212  0.061630135    -2.986814    1.2953927   545227 
  580000   0.99685678   -2.9856282   -2.9856282   -1.6906141  0.057683146   -2.9856282    1.2950141   545227 
  581000   0.99679157   -2.9859738   -2.9859738   -1.6910444  0.057322907   -2.9859738    1.2949294   545227 
  582000   0.99749012   -2.9860804   -2.9860804   -1.6902435  0.057000561   -2.9860804    1.2958369   545227 
  583000   0.99690669   -2.9847619   -2.9847619    -1.689683  0.062300376   -2.9847619    1.2950789   545227 
  584000   0.99758937   -2.9868407   -2.9868407   -1.6908749  0.057664362   -2.9868407    1.2959658   545227 
  585000   0.99696878   -2.9842625   -2.9842625   -1.6891029  0.063118007   -2.9842625    1.2951596   545227 
  586000   0.99776266   -2.9856683   -2.9856683   -1.6894774  0.048227466   -2.9856683    1.2961909   545227 
  587000   0.99726251   -2.9852783   -2.9852783   -1.6897371  0.057304597   -2.9852783    1.2955412   545227 
  588000   0.99849059   -2.9872338   -2.9872338   -1.6900973  0.064071384   -2.9872338    1.2971366   545227 
  589000   0.99789235   -2.9875894   -2.9875894     -1.69123  0.065231133   -2.9875894    1.2963594   545227 
  590000   0.99641401   -2.9849119   -2.9849119    -1.690473  0.052662967   -2.9849119    1.2944389   545227 
  591000   0.99617011   -2.9848512   -2.9848512   -1.6907291  0.057329484   -2.9848512     1.294122   545227 
  592000   0.99772304   -2.9865362   -2.9865362   -1.6903967  0.059627342   -2.9865362    1.2961394   545227 
  593000    0.9972762   -2.9864895   -2.9864895   -1.6909305  0.063242501   -2.9864895     1.295559   545227 
  594000   0.99718048   -2.9857471   -2.9857471   -1.6903125   0.05544114   -2.9857471    1.2954346   545227 
  595000   0.99790062   -2.9877948   -2.9877948   -1.6914247  0.056683981   -2.9877948    1.2963701   545227 
  596000   0.99751224    -2.987128    -2.987128   -1.6912624  0.063135285    -2.987128    1.2958656   545227 
  597000   0.99743027   -2.9866959   -2.9866959   -1.6909368  0.056995277   -2.9866959    1.2957591   545227 
  598000   0.99746044   -2.9862755   -2.9862755   -1.6904772  0.070390335   -2.9862755    1.2957983   545227 
  599000    0.9966063   -2.9859838   -2.9859838   -1.6912951  0.062572712   -2.9859838    1.2946887   545227 
  600000   0.99734019    -2.987152    -2.987152   -1.6915099  0.053545851    -2.987152    1.2956421   545227 
  601000   0.99661409   -2.9863462   -2.9863462   -1.6916473   0.06958183   -2.9863462    1.2946988   545227 
  602000   0.99803945   -2.9879918   -2.9879918   -1.6914413  0.060465107   -2.9879918    1.2965505   545227 
  603000   0.99659928   -2.9868774   -2.9868774   -1.6921978   0.06002269   -2.9868774    1.2946796   545227 
  604000   0.99825461   -2.9885828   -2.9885828   -1.6917528  0.061542719   -2.9885828      1.29683   545227 
  605000   0.99713529   -2.9876182   -2.9876182   -1.6922423  0.065811498   -2.9876182    1.2953759   545227 
  606000   0.99825043   -2.9890687   -2.9890687   -1.6922441  0.063889142   -2.9890687    1.2968246   545227 
  607000   0.99718129   -2.9883471   -2.9883471   -1.6929115  0.048709016   -2.9883471    1.2954357   545227 
  608000   0.99739719   -2.9889244   -2.9889244   -1.6932083  0.057844257   -2.9889244    1.2957161   545227 
  609000   0.99672508   -2.9880717   -2.9880717   -1.6932287  0.057102144   -2.9880717     1.294843   545227 
  610000   0.99881354    -2.990979    -2.990979   -1.6934229  0.050168935    -2.990979    1.2975561   545227 
  611000   0.99665908   -2.9875898   -2.9875898   -1.6928325  0.057869345   -2.9875898    1.2947573   545227 
  612000   0.99573507   -2.9857356   -2.9857356   -1.6921787  0.059610484   -2.9857356    1.2935569   545227 
  613000   0.99607996   -2.9855313   -2.9855313   -1.6915264  0.066638785   -2.9855313    1.2940049   545227 
  614000   0.99635085   -2.9863543   -2.9863543   -1.6919974  0.054763847   -2.9863543    1.2943568   545227 
  615000   0.99588907   -2.9862356   -2.9862356   -1.6924786  0.054061705   -2.9862356    1.2937569   545227 
  616000   0.99667512   -2.9873636   -2.9873636   -1.6925855  0.059517101   -2.9873636    1.2947781   545227 
  617000    0.9964942   -2.9863917   -2.9863917   -1.6918486  0.058146595   -2.9863917    1.2945431   545227 
  618000   0.99492381    -2.985102    -2.985102    -1.692599  0.061662565    -2.985102     1.292503   545227 
  619000   0.99753479   -2.9877943   -2.9877943   -1.6918994  0.060483177   -2.9877943    1.2958949   545227 
  620000   0.99719059   -2.9876774   -2.9876774   -1.6922297  0.057807702   -2.9876774    1.2954477   545227 
  621000   0.99602988   -2.9849523   -2.9849523   -1.6910124  0.063554048   -2.9849523    1.2939399   545227 
  622000   0.99854439   -2.9875293   -2.9875293   -1.6903228  0.062932886   -2.9875293    1.2972065   545227 
  623000   0.99888836   -2.9881923   -2.9881923    -1.690539  0.055543128   -2.9881923    1.2976533   545227 
  624000   0.99744722    -2.987059    -2.987059   -1.6912778  0.061574928    -2.987059    1.2957811   545227 
  625000   0.99516424   -2.9855182   -2.9855182   -1.6927029  0.061485863   -2.9855182    1.2928153   545227 
  626000   0.99543393   -2.9865798   -2.9865798   -1.6934141  0.060410089   -2.9865798    1.2931657   545227 
  627000   0.99641452   -2.9876995   -2.9876995   -1.6932599  0.057489549   -2.9876995    1.2944396   545227 
  628000   0.99766246   -2.9889757   -2.9889757   -1.6929149  0.056241365   -2.9889757    1.2960608   545227 
  629000   0.99633784   -2.9879084   -2.9879084   -1.6935684  0.051434326   -2.9879084    1.2943399   545227 
  630000     0.997342   -2.9882905   -2.9882905   -1.6926461   0.05555849   -2.9882905    1.2956444   545227 
  631000   0.99662036   -2.9874497   -2.9874497   -1.6927428  0.060190387   -2.9874497     1.294707   545227 
  632000   0.99733947   -2.9880217   -2.9880217   -1.6923805  0.046649779   -2.9880217    1.2956412   545227 
  633000   0.99668004   -2.9866273   -2.9866273   -1.6918428  0.063531806   -2.9866273    1.2947845   545227 
  634000   0.99660549   -2.9871026   -2.9871026   -1.6924149  0.060389123   -2.9871026    1.2946876   545227 
  635000   0.99724354   -2.9875723   -2.9875723   -1.6920558  0.064288238   -2.9875723    1.2955165   545227 
  636000   0.99812649   -2.9874657   -2.9874657   -1.6908021  0.062132736   -2.9874657    1.2966636   545227 
  637000   0.99771869   -2.9869084   -2.9869084   -1.6907746  0.063531039   -2.9869084    1.2961338   545227 
  638000   0.99663309   -2.9860503   -2.9860503   -1.6913268  0.060635859   -2.9860503    1.2947235   545227 
  639000   0.99762008   -2.9872606   -2.9872606   -1.6912549  0.062415326   -2.9872606    1.2960057   545227 
  640000   0.99795709   -2.9873138   -2.9873138   -1.6908703  0.050743148   -2.9873138    1.2964435   545227 
  641000   0.99615752    -2.985534    -2.985534   -1.6914283  0.055127534    -2.985534    1.2941057   545227 
  642000   0.99582108   -2.9856014   -2.9856014   -1.6919328  0.057428586   -2.9856014    1.2936686   545227 
  643000   0.99605566    -2.985976    -2.985976   -1.6920027   0.05077536    -2.985976    1.2939734   545227 
  644000   0.99757777   -2.9868466   -2.9868466   -1.6908959  0.058516016   -2.9868466    1.2959507   545227 
  645000   0.99795562   -2.9869561   -2.9869561   -1.6905145  0.055874495   -2.9869561    1.2964416   545227 
  646000   0.99828928   -2.9878698   -2.9878698   -1.6909948  0.059814568   -2.9878698     1.296875   545227 
  647000   0.99782197   -2.9877839   -2.9877839    -1.691516  0.051030963   -2.9877839     1.296268   545227 
  648000   0.99680764   -2.9874858   -2.9874858   -1.6925356   0.05518119   -2.9874858    1.2949502   545227 
  649000   0.99735424   -2.9893068   -2.9893068   -1.6936464  0.058695828   -2.9893068    1.2956603   545227 
  650000   0.99746886   -2.9881863   -2.9881863   -1.6923771  0.059629289   -2.9881863    1.2958092   545227 
  651000   0.99807069   -2.9884314   -2.9884314   -1.6918403  0.054169268   -2.9884314    1.2965911   545227 
  652000   0.99588709   -2.9870055   -2.9870055   -1.6932511   0.06573763   -2.9870055    1.2937544   545227 
  653000   0.99482317   -2.9861618   -2.9861618   -1.6937896  0.059460867   -2.9861618    1.2923722   545227 
  654000   0.99771212   -2.9905121   -2.9905121   -1.6943869   0.06552545   -2.9905121    1.2961253   545227 
  655000    0.9987975   -2.9919361   -2.9919361   -1.6944009  0.052592224   -2.9919361    1.2975353   545227 
  656000   0.99714622   -2.9888126   -2.9888126   -1.6934225  0.063092937   -2.9888126    1.2953901   545227 
  657000    0.9966886   -2.9875761   -2.9875761   -1.6927805  0.061829418   -2.9875761    1.2947956   545227 
  658000   0.99787808   -2.9892733   -2.9892733   -1.6929325  0.063103828   -2.9892733    1.2963409   545227 
  659000   0.99731271   -2.9883039   -2.9883039   -1.6926975  0.064395954   -2.9883039    1.2956064   545227 
  660000   0.99845509   -2.9898072   -2.9898072   -1.6927168   0.06145295   -2.9898072    1.2970905   545227 
  661000   0.99578985   -2.9865609   -2.9865609   -1.6929328  0.064544743   -2.9865609     1.293628   545227 
  662000   0.99516726   -2.9858498   -2.9858498   -1.6930306  0.047032123   -2.9858498    1.2928192   545227 
  663000   0.99664603   -2.9863946   -2.9863946   -1.6916543  0.054814546   -2.9863946    1.2947403   545227 
  664000   0.99665495    -2.986717    -2.986717   -1.6919651   0.05041186    -2.986717    1.2947519   545227 
  665000   0.99788457   -2.9882603   -2.9882603    -1.691911  0.063538607   -2.9882603    1.2963493   545227 
  666000   0.99712878   -2.9869201   -2.9869201   -1.6915527  0.054774852   -2.9869201    1.2953674   545227 
  667000   0.99745775   -2.9870237   -2.9870237   -1.6912289  0.055651252   -2.9870237    1.2957948   545227 
  668000   0.99771239   -2.9877053   -2.9877053   -1.6915797  0.056037542   -2.9877053    1.2961256   545227 
  669000   0.99866898   -2.9897527   -2.9897527   -1.6923844  0.059956191   -2.9897527    1.2973683   545227 
  670000   0.99804901   -2.9896061   -2.9896061   -1.6930432  0.064936369   -2.9896061    1.2965629   545227 
  671000   0.99775486   -2.9890039   -2.9890039   -1.6928231  0.059357408   -2.9890039    1.2961808   545227 
  672000   0.99919645   -2.9895652   -2.9895652   -1.6915117  0.064812134   -2.9895652    1.2980535   545227 
  673000   0.99927585   -2.9898243   -2.9898243   -1.6916676   0.05596094   -2.9898243    1.2981567   545227 
  674000   0.99815483     -2.98868     -2.98868   -1.6919796  0.061473872     -2.98868    1.2967004   545227 
  675000   0.99773284    -2.988945    -2.988945   -1.6927928  0.049409603    -2.988945    1.2961522   545227 
  676000   0.99721915   -2.9878455   -2.9878455   -1.6923606  0.053672773   -2.9878455    1.2954848   545227 
  677000   0.99574076   -2.9866706   -2.9866706   -1.6931064  0.062430499   -2.9866706    1.2935643   545227 
  678000   0.99663156    -2.987939    -2.987939   -1.6932175   0.05118727    -2.987939    1.2947215   545227 
  679000   0.99664444   -2.9877131   -2.9877131   -1.6929749  0.062694358   -2.9877131    1.2947382   545227 
  680000   0.99789125   -2.9899546   -2.9899546   -1.6935967  0.055807427   -2.9899546     1.296358   545227 
  681000   0.99806476   -2.9908634   -2.9908634   -1.6942801  0.053760048   -2.9908634    1.2965834   545227 
  682000   0.99775695   -2.9905875   -2.9905875    -1.694404  0.062192704   -2.9905875    1.2961835   545227 
  683000    0.9973932    -2.990134    -2.990134    -1.694423  0.062848167    -2.990134    1.2957109   545227 
  684000   0.99881871   -2.9918875   -2.9918875   -1.6943247  0.060726345   -2.9918875    1.2975628   545227 
  685000   0.99824047    -2.991605    -2.991605   -1.6947933  0.064953271    -2.991605    1.2968116   545227 
  686000   0.99938511   -2.9924903   -2.9924903   -1.6941917  0.055623682   -2.9924903    1.2982986   545227 
  687000   0.99879277   -2.9913804   -2.9913804   -1.6938513  0.069792267   -2.9913804    1.2975291   545227 
  688000   0.99903865   -2.9906611   -2.9906611   -1.6928126  0.063692901   -2.9906611    1.2978485   545227 
  689000   0.99876543   -2.9909228   -2.9909228   -1.6934292  0.064225045   -2.9909228    1.2974936   545227 
  690000   0.99734372    -2.989001    -2.989001   -1.6933543  0.056291052    -2.989001    1.2956467   545227 
  691000   0.99793774   -2.9884456   -2.9884456   -1.6920272  0.065075604   -2.9884456    1.2964184   545227 
  692000   0.99674725   -2.9876604   -2.9876604   -1.6927887  0.054174235   -2.9876604    1.2948718   545227 
  693000   0.99726463   -2.9885508   -2.9885508   -1.6930069   0.05977378   -2.9885508    1.2955439   545227 
  694000   0.99743581   -2.9878528   -2.9878528   -1.6920865  0.053372628   -2.9878528    1.2957663   545227 
  695000   0.99774294   -2.9885011   -2.9885011   -1.6923358  0.056158264   -2.9885011    1.2961653   545227 
  696000   0.99575105   -2.9862218   -2.9862218   -1.6926442  0.058740372   -2.9862218    1.2935776   545227 
  697000   0.99426784   -2.9850834   -2.9850834   -1.6934326  0.059955788   -2.9850834    1.2916508   545227 
  698000   0.99572004   -2.9873508   -2.9873508   -1.6938134  0.058530585   -2.9873508    1.2935374   545227 
  699000   0.99687816   -2.9888725   -2.9888725   -1.6938306  0.055359146   -2.9888725    1.2950419   545227 
  700000   0.99918115   -2.9908247   -2.9908247   -1.6927911  0.056598262   -2.9908247    1.2980337   545227 
  701000    1.0003242   -2.9917233   -2.9917233   -1.6922047  0.061493884   -2.9917233    1.2995186   545227 
  702000    0.9995949   -2.9905318   -2.9905318   -1.6919606  0.058372495   -2.9905318    1.2985712   545227 
  703000   0.99860507   -2.9895127   -2.9895127   -1.6922274  0.058825394   -2.9895127    1.2972853   545227 
  704000   0.99942289   -2.9903653   -2.9903653   -1.6920175  0.068201214   -2.9903653    1.2983477   545227 
  705000   0.99868132   -2.9897162   -2.9897162   -1.6923318  0.063045206   -2.9897162    1.2973843   545227 
  706000   0.99873774   -2.9894835   -2.9894835   -1.6920259   0.06003883   -2.9894835    1.2974576   545227 
  707000   0.99774016    -2.987775    -2.987775   -1.6916133  0.057235498    -2.987775    1.2961617   545227 
  708000   0.99927807   -2.9892951   -2.9892951   -1.6911355  0.048450429   -2.9892951    1.2981596   545227 
  709000   0.99623374   -2.9856027   -2.9856027    -1.691398  0.057096035   -2.9856027    1.2942047   545227 
  710000   0.99438588   -2.9838912   -2.9838912    -1.692087  0.059725735   -2.9838912    1.2918041   545227 
  711000   0.99670592   -2.9868124   -2.9868124   -1.6919942  0.058648412   -2.9868124    1.2948181   545227 
  712000   0.99728704   -2.9875627   -2.9875627   -1.6919896  0.050440732   -2.9875627     1.295573   545227 
  713000     0.997638   -2.9883743   -2.9883743   -1.6923453  0.050549238   -2.9883743     1.296029   545227 
  714000     0.998184   -2.9894723   -2.9894723   -1.6927341  0.054774002   -2.9894723    1.2967383   545227 
  715000   0.99737713    -2.988445    -2.988445   -1.6927549  0.064090328    -2.988445    1.2956901   545227 
  716000   0.99917714   -2.9902418   -2.9902418   -1.6922134  0.065973211   -2.9902418    1.2980285   545227 
  717000   0.99863619   -2.9890968   -2.9890968   -1.6917711  0.071795909   -2.9890968    1.2973257   545227 
  718000    1.0004536   -2.9910655   -2.9910655   -1.6913788  0.058188774   -2.9910655    1.2996867   545227 
  719000   0.99918202   -2.9908355   -2.9908355   -1.6928007  0.059608663   -2.9908355    1.2980348   545227 
  720000   0.99831753   -2.9895508   -2.9895508   -1.6926391  0.055476918   -2.9895508    1.2969117   545227 
  721000   0.99724932   -2.9884214   -2.9884214   -1.6928973  0.060766593   -2.9884214     1.295524   545227 
  722000   0.99701351   -2.9874824   -2.9874824   -1.6922647  0.064191672   -2.9874824    1.2952177   545227 
  723000   0.99769602   -2.9889734   -2.9889734    -1.692869   0.06159776   -2.9889734    1.2961043   545227 
  724000   0.99753187   -2.9880858   -2.9880858   -1.6921947  0.061799676   -2.9880858    1.2958911   545227 
  725000   0.99651996   -2.9862657   -2.9862657   -1.6916892  0.059874286   -2.9862657    1.2945765   545227 
  726000   0.99551033   -2.9856458   -2.9856458   -1.6923809  0.048445011   -2.9856458    1.2932649   545227 
  727000   0.99694682   -2.9877197   -2.9877197   -1.6925886  0.051866395   -2.9877197    1.2951311   545227 
  728000   0.99667337    -2.986782    -2.986782   -1.6920062  0.042191759    -2.986782    1.2947758   545227 
  729000   0.99655889   -2.9861006   -2.9861006   -1.6914735  0.057440297   -2.9861006    1.2946271   545227 
  730000   0.99748219   -2.9884437   -2.9884437   -1.6926172  0.062474387   -2.9884437    1.2958266   545227 
  731000   0.99606783   -2.9870278   -2.9870278   -1.6930386  0.059410081   -2.9870278    1.2939892   545227 
  732000   0.99798385    -2.989562    -2.989562   -1.6930838  0.056623362    -2.989562    1.2964783   545227 
  733000   0.99818707   -2.9889521   -2.9889521   -1.6922099  0.060610351   -2.9889521    1.2967423   545227 
  734000   0.99938097   -2.9906407   -2.9906407   -1.6923475  0.057804463   -2.9906407    1.2982933   545227 
  735000   0.99765233   -2.9886209   -2.9886209   -1.6925733    0.0585987   -2.9886209    1.2960476   545227 
  736000   0.99830682    -2.989354    -2.989354   -1.6924562  0.062803815    -2.989354    1.2968978   545227 
  737000   0.99849425   -2.9900442   -2.9900442   -1.6929029  0.057382721   -2.9900442    1.2971413   545227 
  738000   0.99765601   -2.9889551   -2.9889551   -1.6929027  0.064253107   -2.9889551    1.2960524   545227 
  739000   0.99669663   -2.9870741   -2.9870741   -1.6922681  0.061233151   -2.9870741     1.294806   545227 
  740000   0.99583143   -2.9864426   -2.9864426   -1.6927605  0.057335176   -2.9864426    1.2936821   545227 
  741000   0.99756708   -2.9875989   -2.9875989   -1.6916621  0.052951095   -2.9875989    1.2959368   545227 
  742000    0.9978244   -2.9881459   -2.9881459   -1.6918748  0.057574443   -2.9881459    1.2962711   545227 
  743000   0.99764235   -2.9887989   -2.9887989   -1.6927643   0.05594845   -2.9887989    1.2960346   545227 
  744000   0.99673162   -2.9873754   -2.9873754   -1.6925239  0.048783413   -2.9873754    1.2948515   545227 
  745000   0.99645033   -2.9872201   -2.9872201   -1.6927341  0.055265837   -2.9872201    1.2944861   545227 
  746000   0.99585761   -2.9860585   -2.9860585   -1.6923424  0.058608375   -2.9860585    1.2937161   545227 
  747000   0.99704067   -2.9876962   -2.9876962   -1.6924432   0.05405983   -2.9876962     1.295253   545227 
  748000   0.99635579   -2.9871928   -2.9871928   -1.6928296  0.054314114   -2.9871928    1.2943633   545227 
  749000   0.99728329   -2.9875545   -2.9875545   -1.6919863  0.048667668   -2.9875545    1.2955682   545227 
  750000   0.99610689   -2.9861736   -2.9861736   -1.6921337  0.059591339   -2.9861736    1.2940399   545227 
  751000   0.99703203   -2.9885765   -2.9885765   -1.6933348  0.055965098   -2.9885765    1.2952418   545227 
  752000    0.9964108   -2.9873814   -2.9873814   -1.6929466  0.047387997   -2.9873814    1.2944347   545227 
  753000   0.99472799   -2.9862949   -2.9862949   -1.6940463  0.059091437   -2.9862949    1.2922486   545227 
  754000    0.9964629   -2.9887046   -2.9887046   -1.6942022  0.054383427   -2.9887046    1.2945024   545227 
  755000   0.99599274   -2.9877178   -2.9877178   -1.6938262  0.053575197   -2.9877178    1.2938916   545227 
  756000   0.99629009   -2.9878089   -2.9878089    -1.693531  0.062910495   -2.9878089    1.2942779   545227 
  757000   0.99783198   -2.9904777   -2.9904777   -1.6941967   0.06379697   -2.9904777     1.296281   545227 
  758000   0.99762776   -2.9901067   -2.9901067    -1.694091  0.055969674   -2.9901067    1.2960157   545227 
  759000   0.99756817   -2.9898415   -2.9898415   -1.6939033  0.057549476   -2.9898415    1.2959383   545227 
  760000   0.99722064   -2.9904968   -2.9904968     -1.69501  0.060190061   -2.9904968    1.2954868   545227 
  761000   0.99900919   -2.9922604   -2.9922604   -1.6944501  0.057294236   -2.9922604    1.2978103   545227 
  762000   0.99899297   -2.9921859   -2.9921859   -1.6943967  0.065560224   -2.9921859    1.2977892   545227 
  763000   0.99899912   -2.9926798   -2.9926798   -1.6948826  0.050481856   -2.9926798    1.2977972   545227 
  764000   0.99778348   -2.9906477   -2.9906477   -1.6944298  0.054460322   -2.9906477     1.296218   545227 
  765000   0.99800848   -2.9907675   -2.9907675   -1.6942572  0.064782849   -2.9907675    1.2965103   545227 
  766000   0.99689599   -2.9894962   -2.9894962   -1.6944312  0.059327815   -2.9894962     1.295065   545227 
  767000    0.9985956   -2.9920957   -2.9920957   -1.6948227  0.065478057   -2.9920957     1.297273   545227 
  768000    0.9960025    -2.989228    -2.989228   -1.6953237  0.061811113    -2.989228    1.2939043   545227 
  769000   0.99705924   -2.9911127   -2.9911127   -1.6958356  0.057552311   -2.9911127    1.2952771   545227 
  770000   0.99738178   -2.9917318   -2.9917318   -1.6960357  0.052700685   -2.9917318    1.2956961   545227 
  771000   0.99761016   -2.9917187   -2.9917187   -1.6957258  0.061310476   -2.9917187    1.2959928   545227 
  772000   0.99697831   -2.9908023   -2.9908023   -1.6956303  0.051974076   -2.9908023     1.295172   545227 
  773000   0.99652605   -2.9896841   -2.9896841   -1.6950997  0.065199546   -2.9896841    1.2945844   545227 
  774000   0.99546033   -2.9874398   -2.9874398   -1.6942398  0.055465265   -2.9874398       1.2932   545227 
  775000   0.99779056   -2.9903105   -2.9903105   -1.6940833  0.058000356   -2.9903105    1.2962272   545227 
  776000   0.99712408   -2.9894091   -2.9894091   -1.6940478   0.05031905   -2.9894091    1.2953613   545227 
  777000   0.99746373   -2.9901324   -2.9901324   -1.6943299  0.065552705   -2.9901324    1.2958026   545227 
  778000   0.99746159   -2.9893565   -2.9893565   -1.6935567  0.058398776   -2.9893565    1.2957998   545227 
  779000   0.99638795   -2.9887034   -2.9887034   -1.6942984  0.059658953   -2.9887034     1.294405   545227 
  780000   0.99723735   -2.9900616   -2.9900616   -1.6945531  0.063302383   -2.9900616    1.2955085   545227 
  781000    0.9961291   -2.9885799   -2.9885799   -1.6945111  0.058344981   -2.9885799    1.2940688   545227 
  782000   0.99618098   -2.9890518   -2.9890518   -1.6949156  0.054315945   -2.9890518    1.2941362   545227 
  783000   0.99677164   -2.9891883   -2.9891883   -1.6942848  0.059545315   -2.9891883    1.2949035   545227 
  784000   0.99848928   -2.9916869   -2.9916869    -1.694552  0.042344475   -2.9916869    1.2971349   545227 
  785000   0.99771389   -2.9901637   -2.9901637   -1.6940361  0.063854736   -2.9901637    1.2961276   545227 
  786000   0.99722276   -2.9896957   -2.9896957   -1.6942062  0.067226054   -2.9896957    1.2954895   545227 
  787000   0.99873409   -2.9919965   -2.9919965   -1.6945436  0.056562229   -2.9919965    1.2974529   545227 
  788000   0.99704629   -2.9900219   -2.9900219   -1.6947616  0.063931986   -2.9900219    1.2952603   545227 
  789000   0.99746589    -2.990685    -2.990685   -1.6948796  0.053859205    -2.990685    1.2958054   545227 
  790000   0.99680614   -2.9910747   -2.9910747   -1.6961264  0.057164731   -2.9910747    1.2949483   545227 
  791000   0.99680826   -2.9904411   -2.9904411   -1.6954901  0.048474321   -2.9904411    1.2949511   545227 
  792000   0.99674591   -2.9908214   -2.9908214   -1.6959513  0.056691375   -2.9908214    1.2948701   545227 
  793000    0.9984314   -2.9924322   -2.9924322   -1.6953725  0.058249213   -2.9924322    1.2970597   545227 
  794000   0.99559488   -2.9896134   -2.9896134   -1.6962386  0.069903316   -2.9896134    1.2933748   545227 
  795000   0.99568495   -2.9895152   -2.9895152   -1.6960234  0.065343927   -2.9895152    1.2934918   545227 
  796000   0.99709298   -2.9911273   -2.9911273   -1.6958063   0.06120771   -2.9911273    1.2953209   545227 
  797000     1.000085   -2.9952596   -2.9952596   -1.6960518  0.062135257   -2.9952596    1.2992078   545227 
  798000   0.99790675   -2.9926972   -2.9926972   -1.6963191  0.059526406   -2.9926972    1.2963781   545227 
  799000   0.99803617   -2.9928072   -2.9928072   -1.6962609  0.053700509   -2.9928072    1.2965462   545227 
  800000   0.99560074   -2.9908656   -2.9908656   -1.6974832  0.061842704   -2.9908656    1.2933824   545227 
  801000   0.99854634   -2.9937688   -2.9937688   -1.6965598  0.056410098   -2.9937688     1.297209   545227 
  802000   0.99676823   -2.9914552   -2.9914552   -1.6965561  0.054365841   -2.9914552    1.2948991   545227 
  803000   0.99777208   -2.9929213   -2.9929213   -1.6967181  0.054997232   -2.9929213    1.2962032   545227 
  804000   0.99784698   -2.9928447   -2.9928447   -1.6965443  0.056061529   -2.9928447    1.2963005   545227 
  805000   0.99598642   -2.9900906   -2.9900906   -1.6962072  0.053789003   -2.9900906    1.2938834   545227 
  806000   0.99676776   -2.9911132   -2.9911132   -1.6962148  0.064200957   -2.9911132    1.2948984   545227 
  807000   0.99604912   -2.9901982   -2.9901982   -1.6962334  0.066592915   -2.9901982    1.2939649   545227 
  808000   0.99782522   -2.9923394   -2.9923394   -1.6960673  0.057527343   -2.9923394    1.2962722   545227 
  809000   0.99780341   -2.9923445   -2.9923445   -1.6961006  0.057907563   -2.9923445    1.2962439   545227 
  810000   0.99721129   -2.9914607   -2.9914607    -1.695986  0.058805433   -2.9914607    1.2954746   545227 
  811000   0.99801041   -2.9931395   -2.9931395   -1.6966267   0.05263768   -2.9931395    1.2965128   545227 
  812000   0.99835685   -2.9928326   -2.9928326   -1.6958698  0.067510583   -2.9928326    1.2969628   545227 
  813000   0.99820012    -2.992988    -2.992988   -1.6962288  0.059135602    -2.992988    1.2967592   545227 
  814000   0.99727933   -2.9918098   -2.9918098   -1.6962468  0.060194011   -2.9918098     1.295563   545227 
  815000   0.99891192   -2.9944558   -2.9944558   -1.6967719  0.050505175   -2.9944558    1.2976839   545227 
  816000   0.99811088    -2.993738    -2.993738   -1.6970947  0.057965873    -2.993738    1.2966433   545227 
  817000   0.99815321   -2.9939667   -2.9939667   -1.6972684  0.063089306   -2.9939667    1.2966983   545227 
  818000   0.99627613   -2.9921776   -2.9921776   -1.6979178  0.061292832   -2.9921776    1.2942598   545227 
  819000   0.99892909   -2.9947705   -2.9947705   -1.6970643  0.051645112   -2.9947705    1.2977062   545227 
  820000   0.99781565   -2.9930545   -2.9930545   -1.6967948  0.053927756   -2.9930545    1.2962598   545227 
  821000   0.99520818   -2.9893861   -2.9893861   -1.6965137  0.055909936   -2.9893861    1.2928724   545227 
  822000   0.99714278   -2.9924519   -2.9924519   -1.6970663  0.055188122   -2.9924519    1.2953856   545227 
  823000   0.99590592    -2.991779    -2.991779   -1.6980002  0.063401228    -2.991779    1.2937788   545227 
  824000   0.99707704    -2.993017    -2.993017   -1.6977168  0.062155631    -2.993017    1.2953002   545227 
  825000   0.99715579   -2.9927055   -2.9927055    -1.697303  0.059862832   -2.9927055    1.2954025   545227 
  826000   0.99808045   -2.9933938   -2.9933938     -1.69679   0.05701832   -2.9933938    1.2966038   545227 
  827000   0.99712298   -2.9924007   -2.9924007   -1.6970408  0.056589754   -2.9924007    1.2953599   545227 
  828000   0.99784524   -2.9937987   -2.9937987   -1.6975005   0.05448104   -2.9937987    1.2962982   545227 
  829000   0.99718462   -2.9922262   -2.9922262   -1.6967862  0.059656153   -2.9922262      1.29544   545227 
  830000   0.99683259   -2.9916248   -2.9916248   -1.6966421  0.058384169   -2.9916248    1.2949827   545227 
  831000   0.99752406   -2.9925308   -2.9925308   -1.6966499  0.062619487   -2.9925308     1.295881   545227 
  832000   0.99687426   -2.9920999   -2.9920999   -1.6970631  0.058900335   -2.9920999    1.2950368   545227 
  833000     0.997684   -2.9934048   -2.9934048   -1.6973161  0.056494306   -2.9934048    1.2960887   545227 
  834000   0.99734547   -2.9934734   -2.9934734   -1.6978245  0.060396471   -2.9934734     1.295649   545227 
  835000   0.99878241   -2.9948815   -2.9948815   -1.6973658  0.061790083   -2.9948815    1.2975157   545227 
  836000   0.99834309    -2.994504    -2.994504   -1.6975591  0.058705492    -2.994504    1.2969449   545227 
  837000   0.99942173   -2.9963473   -2.9963473   -1.6980011  0.059624692   -2.9963473    1.2983462   545227 
  838000   0.99865257    -2.996729    -2.996729   -1.6993821  0.056150197    -2.996729     1.297347   545227 
  839000   0.99751328   -2.9950021   -2.9950021   -1.6991351  0.056530516   -2.9950021    1.2958669   545227 
  840000   0.99727031   -2.9935933   -2.9935933    -1.698042  0.052272659   -2.9935933    1.2955513   545227 
  841000   0.99667155   -2.9929237   -2.9929237   -1.6981502  0.055447882   -2.9929237    1.2947735   545227 
  842000   0.99750327   -2.9944569   -2.9944569   -1.6986029  0.055696301   -2.9944569    1.2958539   545227 
  843000    0.9974361   -2.9937077   -2.9937077    -1.697941  0.057058935   -2.9937077    1.2957667   545227 
  844000   0.99617926   -2.9916793   -2.9916793   -1.6975453  0.055478317   -2.9916793    1.2941339   545227 
  845000   0.99718821   -2.9923134   -2.9923134   -1.6968687  0.051003946   -2.9923134    1.2954446   545227 
  846000   0.99708066   -2.9923568   -2.9923568   -1.6970519  0.059353764   -2.9923568    1.2953049   545227 
  847000   0.99769861   -2.9922523   -2.9922523   -1.6961446  0.062865765   -2.9922523    1.2961077   545227 
  848000   0.99804042   -2.9932508   -2.9932508   -1.6966991  0.066540076   -2.9932508    1.2965518   545227 
  849000   0.99569412   -2.9918558   -2.9918558   -1.6983521  0.051181403   -2.9918558    1.2935037   545227 
  850000   0.99657987    -2.992612    -2.992612   -1.6979577  0.051443011    -2.992612    1.2946544   545227 
  851000   0.99878576   -2.9949525   -2.9949525   -1.6974324  0.054832257   -2.9949525      1.29752   545227 
  852000    0.9959816   -2.9916174   -2.9916174   -1.6977402  0.065762112   -2.9916174    1.2938772   545227 
  853000   0.99612356   -2.9933355   -2.9933355    -1.699274  0.049902355   -2.9933355    1.2940616   545227 
  854000   0.99684104   -2.9927221   -2.9927221   -1.6977284  0.057430725   -2.9927221    1.2949936   545227 
  855000   0.99572954   -2.9918064   -2.9918064   -1.6982567  0.052069922   -2.9918064    1.2935497   545227 
  856000   0.99573091   -2.9910574   -2.9910574   -1.6975059  0.051358574   -2.9910574    1.2935515   545227 
  857000   0.99548773   -2.9911209   -2.9911209   -1.6978853  0.055086021   -2.9911209    1.2932356   545227 
  858000   0.99813773   -2.9941875   -2.9941875   -1.6975093  0.060759448   -2.9941875    1.2966782   545227 
  859000   0.99527606   -2.9906408   -2.9906408   -1.6976803  0.054537026   -2.9906408    1.2929606   545227 
  860000   0.99733435   -2.9928753   -2.9928753   -1.6972408  0.050241737   -2.9928753    1.2956345   545227 
  861000   0.99786525    -2.993838    -2.993838   -1.6975138   0.04614612    -2.993838    1.2963242   545227 
  862000   0.99771575   -2.9935181   -2.9935181   -1.6973881  0.053470038   -2.9935181      1.29613   545227 
  863000   0.99773084   -2.9935264   -2.9935264   -1.6973769  0.060456832   -2.9935264    1.2961496   545227 
  864000   0.99723817   -2.9928579   -2.9928579   -1.6973483  0.057010595   -2.9928579    1.2955096   545227 
  865000   0.99716365   -2.9935353   -2.9935353   -1.6981226  0.051297346   -2.9935353    1.2954128   545227 
  866000   0.99723055   -2.9941472   -2.9941472   -1.6986476  0.062374505   -2.9941472    1.2954997   545227 
  867000   0.99785458   -2.9946092   -2.9946092   -1.6982988   0.06279548   -2.9946092    1.2963103   545227 
  868000   0.99851583   -2.9957877   -2.9957877   -1.6986183  0.065949405   -2.9957877    1.2971694   545227 
  869000   0.99927707   -2.9969763   -2.9969763    -1.698818  0.066934424   -2.9969763    1.2981583   545227 
  870000   0.99821408   -2.9967903   -2.9967903    -1.700013   0.07045267   -2.9967903    1.2967774   545227 
  871000   0.99870609   -2.9986048   -2.9986048   -1.7011883  0.068223574   -2.9986048    1.2974165   545227 
  872000   0.99881334   -2.9992901   -2.9992901   -1.7017342  0.051247865   -2.9992901    1.2975559   545227 
  873000   0.99917233   -2.9999891   -2.9999891   -1.7019669  0.056157371   -2.9999891    1.2980222   545227 
  874000   0.99938723   -3.0007302   -3.0007302   -1.7024288  0.063160935   -3.0007302    1.2983014   545227 
  875000   0.99782815   -2.9990187   -2.9990187   -1.7027427  0.058966598   -2.9990187     1.296276   545227 
  876000   0.99794935   -2.9999274   -2.9999274   -1.7034939  0.059213876   -2.9999274    1.2964334   545227 
  877000    0.9971926   -2.9984756   -2.9984756   -1.7030252  0.060345079   -2.9984756    1.2954504   545227 
  878000   0.99847993   -2.9989609   -2.9989609   -1.7018382  0.065099936   -2.9989609    1.2971227   545227 
  879000    1.0007443   -3.0023914   -3.0023914   -1.7023271  0.056813226   -3.0023914    1.3000643   545227 
  880000   0.99871154   -2.9996977   -2.9996977   -1.7022741  0.065993519   -2.9996977    1.2974236   545227 
  881000   0.99843898    -2.999994    -2.999994   -1.7029244  0.061821762    -2.999994    1.2970695   545227 
  882000    0.9978498   -2.9989414   -2.9989414   -1.7026373  0.060412285   -2.9989414    1.2963041   545227 
  883000   0.99894341   -2.9995826   -2.9995826   -1.7018578  0.054485468   -2.9995826    1.2977248   545227 
  884000   0.99877412   -2.9992293   -2.9992293   -1.7017244   0.05382638   -2.9992293    1.2975049   545227 
  885000    0.9973903   -2.9980477   -2.9980477   -1.7023405  0.065674494   -2.9980477    1.2957072   545227 
  886000    0.9976163   -2.9978287   -2.9978287   -1.7018279  0.057903825   -2.9978287    1.2960008   545227 
  887000   0.99733833   -2.9978413   -2.9978413   -1.7022016  0.053617864   -2.9978413    1.2956397   545227 
  888000   0.99628097   -2.9962519   -2.9962519   -1.7019858  0.058105026   -2.9962519    1.2942661   545227 
  889000   0.99632017   -2.9963598   -2.9963598   -1.7020428  0.053702503   -2.9963598     1.294317   545227 
  890000   0.99655284    -2.996611    -2.996611   -1.7019917  0.063107809    -2.996611    1.2946192   545227 
  891000   0.99774951   -2.9979976   -2.9979976   -1.7018238  0.065448371   -2.9979976    1.2961738   545227 
  892000   0.99707389   -2.9962897   -2.9962897   -1.7009936  0.064718962   -2.9962897    1.2952961   545227 
  893000   0.99831089   -2.9981417   -2.9981417   -1.7012386  0.062733868   -2.9981417    1.2969031   545227 
  894000   0.99696985   -2.9960624   -2.9960624   -1.7009015  0.060163318   -2.9960624     1.295161   545227 
  895000    0.9976666   -2.9969835   -2.9969835   -1.7009174  0.057633383   -2.9969835    1.2960661   545227 
  896000   0.99801763   -2.9970065   -2.9970065   -1.7004844  0.051693334   -2.9970065    1.2965221   545227 
  897000   0.99724913   -2.9963887   -2.9963887   -1.7008649   0.05853458   -2.9963887    1.2955238   545227 
  898000   0.99687437   -2.9967941   -2.9967941   -1.7017572  0.058950818   -2.9967941    1.2950369   545227 
  899000   0.99748602   -2.9976687   -2.9976687   -1.7018372  0.055508425   -2.9976687    1.2958315   545227 
  900000   0.99660935   -2.9963028   -2.9963028   -1.7016101  0.054145278   -2.9963028    1.2946927   545227 
  901000   0.99655389   -2.9964716   -2.9964716    -1.701851  0.056763551   -2.9964716    1.2946206   545227 
  902000   0.99897904   -2.9992377   -2.9992377   -1.7014666  0.062831028   -2.9992377    1.2977711   545227 
  903000   0.99897409   -2.9995188   -2.9995188   -1.7017541  0.051949355   -2.9995188    1.2977647   545227 
  904000   0.99722837   -2.9968919   -2.9968919   -1.7013951  0.057626344   -2.9968919    1.2954968   545227 
  905000   0.99646291   -2.9955781   -2.9955781   -1.7010757  0.061748743   -2.9955781    1.2945024   545227 
  906000   0.99555136   -2.9948292   -2.9948292    -1.701511  0.057552726   -2.9948292    1.2933182   545227 
  907000   0.99646329   -2.9963807   -2.9963807   -1.7018778  0.051724284   -2.9963807    1.2945029   545227 
  908000   0.99879511   -2.9980004   -2.9980004   -1.7004682  0.055744844   -2.9980004    1.2975322   545227 
  909000   0.99788287   -2.9970487   -2.9970487   -1.7007016  0.058531521   -2.9970487    1.2963471   545227 
  910000   0.99928875   -2.9987125   -2.9987125   -1.7005391  0.068076127   -2.9987125    1.2981735   545227 
  911000   0.99915245   -2.9985727   -2.9985727   -1.7005763  0.060585802   -2.9985727    1.2979964   545227 
  912000   0.99809397   -2.9974128   -2.9974128   -1.7007915  0.058932522   -2.9974128    1.2966213   545227 
  913000   0.99708105    -2.995972    -2.995972   -1.7006665  0.063329242    -2.995972    1.2953054   545227 
  914000   0.99877124   -2.9979597   -2.9979597   -1.7004586  0.050218065   -2.9979597    1.2975012   545227 
  915000   0.99824216   -2.9972412   -2.9972412   -1.7004274  0.055737789   -2.9972412    1.2968138   545227 
  916000   0.99761518   -2.9959984   -2.9959984    -1.699999  0.054253589   -2.9959984    1.2959993   545227 
  917000    0.9992156   -2.9987321   -2.9987321   -1.7006537  0.057064915   -2.9987321    1.2980784   545227 
  918000   0.99674666   -2.9962402   -2.9962402   -1.7013691  0.061546932   -2.9962402     1.294871   545227 
  919000   0.99813658   -2.9986703   -2.9986703   -1.7019936   0.05825715   -2.9986703    1.2966767   545227 
  920000   0.99736416   -2.9975081   -2.9975081   -1.7018349  0.061823999   -2.9975081    1.2956732   545227 
  921000   0.99562127   -2.9969428   -2.9969428   -1.7035338  0.060116916   -2.9969428     1.293409   545227 
  922000   0.99809649   -3.0003859   -3.0003859   -1.7037613   0.05350378   -3.0003859    1.2966246   545227 
  923000   0.99778986   -2.9989296   -2.9989296   -1.7027033  0.049648832   -2.9989296    1.2962263   545227 
  924000   0.99755191   -2.9992009   -2.9992009   -1.7032838  0.052840806   -2.9992009    1.2959171   545227 
  925000   0.99911295   -3.0009948   -3.0009948   -1.7030497  0.040828552   -3.0009948    1.2979451   545227 
  926000   0.99835371   -3.0002605   -3.0002605   -1.7033018  0.058931301   -3.0002605    1.2969587   545227 
  927000   0.99637547   -2.9976693   -2.9976693   -1.7032804  0.061817151   -2.9976693    1.2943888   545227 
  928000   0.99772512   -2.9997936   -2.9997936   -1.7036515  0.062628091   -2.9997936    1.2961422   545227 
  929000   0.99898251   -3.0011465   -3.0011465   -1.7033709   0.06428298   -3.0011465    1.2977756   545227 
  930000   0.99891767   -3.0007331   -3.0007331   -1.7030417  0.063669547   -3.0007331    1.2976914   545227 
  931000    0.9986809   -3.0016875   -3.0016875   -1.7043037  0.062848847   -3.0016875    1.2973838   545227 
  932000    0.9981506   -3.0009179   -3.0009179    -1.704223  0.067815684   -3.0009179    1.2966949   545227 
  933000   0.99885071   -3.0009602   -3.0009602   -1.7033558  0.053321403   -3.0009602    1.2976044   545227 
  934000   0.99863489   -3.0014253   -3.0014253   -1.7041013  0.058712326   -3.0014253     1.297324   545227 
  935000   0.99865532   -3.0007344   -3.0007344   -1.7033838  0.060646437   -3.0007344    1.2973506   545227 
  936000   0.99818264   -3.0000312   -3.0000312   -1.7032946   0.05494303   -3.0000312    1.2967365   545227 
  937000     1.000407   -3.0028605   -3.0028605   -1.7032344  0.065553076   -3.0028605    1.2996261   545227 
  938000   0.99956086   -3.0029745   -3.0029745   -1.7044476  0.066397339   -3.0029745    1.2985269   545227 
  939000    1.0001646    -3.003503    -3.003503   -1.7041917  0.059406395    -3.003503    1.2993113   545227 
  940000   0.99740183   -3.0009978   -3.0009978   -1.7052757  0.058414924   -3.0009978    1.2957222   545227 
  941000   0.99885104   -3.0033358   -3.0033358    -1.705731  0.056095648   -3.0033358    1.2976048   545227 
  942000   0.99871153   -3.0029362   -3.0029362   -1.7055126  0.055625832   -3.0029362    1.2974236   545227 
  943000   0.99686452    -3.000156    -3.000156   -1.7051319  0.056090854    -3.000156    1.2950241   545227 
  944000   0.99876951   -3.0025343   -3.0025343   -1.7050353  0.064537392   -3.0025343    1.2974989   545227 
  945000   0.99796309   -3.0013723   -3.0013723    -1.704921  0.060835077   -3.0013723    1.2964513   545227 
  946000   0.99715565   -3.0005077   -3.0005077   -1.7051054  0.056759176   -3.0005077    1.2954024   545227 
  947000    0.9981165   -3.0013624   -3.0013624   -1.7047118  0.056289034   -3.0013624    1.2966506   545227 
  948000   0.99762154   -3.0009008   -3.0009008   -1.7048932  0.053446724   -3.0009008    1.2960076   545227 
  949000   0.99824854   -3.0023472   -3.0023472    -1.705525  0.050452751   -3.0023472    1.2968221   545227 
  950000   0.99876797   -3.0036426   -3.0036426   -1.7061457   0.05008733   -3.0036426    1.2974969   545227 
  951000   0.99790278    -3.002131    -3.002131    -1.705758  0.066886185    -3.002131    1.2963729   545227 
  952000   0.99893975   -3.0029648   -3.0029648   -1.7052447  0.059359916   -3.0029648    1.2977201   545227 
  953000   0.99807525   -3.0017038   -3.0017038   -1.7051068  0.056734931   -3.0017038     1.296597   545227 
  954000   0.99911323   -3.0036556   -3.0036556   -1.7057101  0.063544377   -3.0036556    1.2979454   545227 
  955000   0.99769075    -3.001199    -3.001199   -1.7051015  0.062032988    -3.001199    1.2960975   545227 
  956000   0.99682524   -3.0007103   -3.0007103   -1.7057372  0.055528139   -3.0007103    1.2949731   545227 
  957000   0.99799622   -3.0014019   -3.0014019   -1.7049076  0.051874417   -3.0014019    1.2964943   545227 
  958000    0.9982234   -3.0017624   -3.0017624   -1.7049729   0.04254709   -3.0017624    1.2967895   545227 
  959000   0.99802566   -3.0013275   -3.0013275    -1.704795  0.055444535   -3.0013275    1.2965326   545227 
  960000   0.99696953   -3.0002044   -3.0002044   -1.7050438  0.066937744   -3.0002044    1.2951606   545227 
  961000   0.99740117   -3.0018317   -3.0018317   -1.7061104  0.051028367   -3.0018317    1.2957213   545227 
  962000   0.99802472   -3.0023209   -3.0023209   -1.7057895  0.057835233   -3.0023209    1.2965314   545227 
  963000   0.99765128   -3.0027337   -3.0027337   -1.7066874  0.060402599   -3.0027337    1.2960462   545227 
  964000   0.99747174    -3.003011    -3.003011   -1.7071981  0.049967884    -3.003011     1.295813   545227 
  965000   0.99783471   -3.0030467   -3.0030467   -1.7067622  0.066332626   -3.0030467    1.2962845   545227 
  966000   0.99850456   -3.0035111   -3.0035111   -1.7063564  0.059846317   -3.0035111    1.2971547   545227 
  967000   0.99813807   -3.0025033   -3.0025033   -1.7058247  0.056490554   -3.0025033    1.2966786   545227 
  968000   0.99945933   -3.0046765   -3.0046765   -1.7062814  0.056310788   -3.0046765    1.2983951   545227 
  969000    1.0002045   -3.0044903   -3.0044903   -1.7051272  0.058665198   -3.0044903    1.2993631   545227 
  970000   0.99901419   -3.0044415   -3.0044415   -1.7066247  0.055709963   -3.0044415    1.2978168   545227 
  971000   0.99722733   -3.0027877   -3.0027877   -1.7072922  0.063274898   -3.0027877    1.2954955   545227 
  972000   0.99750629    -3.002549    -3.002549   -1.7066911  0.056816032    -3.002549    1.2958579   545227 
  973000   0.99820887   -3.0044261   -3.0044261   -1.7076555  0.055554656   -3.0044261    1.2967706   545227 
  974000   0.99748169    -3.003517    -3.003517   -1.7076911  0.056000353    -3.003517    1.2958259   545227 
  975000   0.99913657   -3.0048156   -3.0048156   -1.7068398  0.050427638   -3.0048156    1.2979758   545227 
  976000   0.99827078   -3.0037214   -3.0037214   -1.7068703  0.061940292   -3.0037214     1.296851   545227 
  977000   0.99772997   -3.0035299   -3.0035299   -1.7073815  0.054126817   -3.0035299    1.2961485   545227 
  978000     0.998906    -3.005139    -3.005139   -1.7074628  0.060823018    -3.005139    1.2976762   545227 
  979000   0.99933682   -3.0052975   -3.0052975   -1.7070616  0.059245862   -3.0052975    1.2982359   545227 
  980000   0.99898718   -3.0057194   -3.0057194   -1.7079377  0.062792035   -3.0057194    1.2977817   545227 
  981000    1.0008626    -3.008416    -3.008416    -1.708198  0.060378649    -3.008416     1.300218   545227 
  982000   0.99981262   -3.0071671   -3.0071671   -1.7083131   0.06483923   -3.0071671     1.298854   545227 
  983000   0.99884834   -3.0062868   -3.0062868   -1.7086854  0.069496034   -3.0062868    1.2976013   545227 
  984000   0.99851083   -3.0061799   -3.0061799    -1.709017  0.071987523   -3.0061799    1.2971629   545227 
  985000   0.99646732   -3.0043432   -3.0043432    -1.709835  0.059015421   -3.0043432    1.2945081   545227 
  986000    0.9966156   -3.0044479   -3.0044479   -1.7097471  0.059492423   -3.0044479    1.2947008   545227 
  987000    0.9985224   -3.0061125   -3.0061125   -1.7089346  0.060402203   -3.0061125    1.2971779   545227 
  988000   0.99764955   -3.0055068   -3.0055068   -1.7094628  0.058631944   -3.0055068     1.296044   545227 
  989000    0.9970342   -3.0052775   -3.0052775    -1.710033  0.061411693   -3.0052775    1.2952446   545227 
  990000   0.99615285   -3.0045154   -3.0045154   -1.7104158  0.055745157   -3.0045154    1.2940996   545227 
  991000    0.9974679   -3.0058348   -3.0058348   -1.7100268  0.052863715   -3.0058348     1.295808   545227 
  992000   0.99795205   -3.0064672   -3.0064672   -1.7100303  0.053998807   -3.0064672     1.296437   545227 
  993000   0.99769278   -3.0064721   -3.0064721    -1.710372  0.062144547   -3.0064721    1.2961001   545227 
  994000   0.99788509   -3.0068434   -3.0068434   -1.7104934  0.062682618   -3.0068434      1.29635   545227 
  995000   0.99882604   -3.0076266   -3.0076266   -1.7100542  0.063590673   -3.0076266    1.2975724   545227 
  996000   0.99847374   -3.0070987   -3.0070987    -1.709984  0.064112568   -3.0070987    1.2971147   545227 
  997000   0.99920964    -3.007795    -3.007795   -1.7097243  0.063807394    -3.007795    1.2980707   545227 
  998000   0.99890595   -3.0067074   -3.0067074   -1.7090313   0.06988137   -3.0067074    1.2976762   545227 
  999000   0.99993109   -3.0063812   -3.0063812   -1.7073733  0.059088537   -3.0063812    1.2990079   545227 
 1000000    0.9998964    -3.006097    -3.006097   -1.7071342  0.061442762    -3.006097    1.2989628   545227 
 1001000   0.99786035    -3.004371    -3.004371   -1.7080531   0.05909491    -3.004371    1.2963178   545227 
 1002000    0.9992813   -3.0059306   -3.0059306   -1.7077669  0.060854598   -3.0059306    1.2981638   545227 
 1003000   0.99779765   -3.0045138   -3.0045138   -1.7082775  0.060400665   -3.0045138    1.2962364   545227 
 1004000   0.99641367   -3.0031189   -3.0031189   -1.7086804  0.060533097   -3.0031189    1.2944384   545227 
 1005000   0.99836031   -3.0055806   -3.0055806   -1.7086133  0.056896522   -3.0055806    1.2969673   545227 
 1006000   0.99875101    -3.006547    -3.006547   -1.7090721  0.065167581    -3.006547    1.2974749   545227 
 1007000   0.99830699   -3.0052195   -3.0052195   -1.7083215  0.054266049   -3.0052195    1.2968981   545227 
 1008000   0.99755639     -3.00517     -3.00517    -1.709247   0.06194575     -3.00517    1.2959229   545227 
 1009000   0.99789332   -3.0045831   -3.0045831   -1.7082224  0.060552923   -3.0045831    1.2963607   545227 
 1010000   0.99820591   -3.0046988   -3.0046988   -1.7079321  0.065913879   -3.0046988    1.2967667   545227 
 1011000   0.99884246   -3.0047433   -3.0047433   -1.7071496  0.054297109   -3.0047433    1.2975937   545227 
 1012000    1.0002061   -3.0070022   -3.0070022    -1.707637  0.061079261   -3.0070022    1.2993652   545227 
 1013000   0.99774451   -3.0031263   -3.0031263   -1.7069589  0.066308691   -3.0031263    1.2961673   545227 
 1014000   0.99837541   -3.0047696   -3.0047696   -1.7077826  0.056417912   -3.0047696    1.2969869   545227 
 1015000   0.99935052   -3.0045691   -3.0045691   -1.7063154   0.05807343   -3.0045691    1.2982537   545227 
 1016000   0.99956311   -3.0038362   -3.0038362   -1.7053063  0.063685425   -3.0038362    1.2985299   545227 
 1017000   0.99863441    -3.004167    -3.004167   -1.7068436  0.056999828    -3.004167    1.2973234   545227 
 1018000   0.99829142   -3.0037063   -3.0037063   -1.7068284  0.063676273   -3.0037063    1.2968778   545227 
 1019000   0.99604371   -3.0026553   -3.0026553   -1.7086974  0.059995348   -3.0026553    1.2939578   545227 
 1020000   0.99695744   -3.0032681   -3.0032681   -1.7081232  0.059132523   -3.0032681    1.2951449   545227 
 1021000     0.998643   -3.0044781   -3.0044781   -1.7071436  0.063385738   -3.0044781    1.2973346   545227 
 1022000   0.99770836   -3.0030901   -3.0030901   -1.7069697  0.052014781   -3.0030901    1.2961204   545227 
 1023000   0.99678642   -3.0027121   -3.0027121   -1.7077894  0.057341312   -3.0027121    1.2949227   545227 
 1024000   0.99752869   -3.0044901   -3.0044901   -1.7086032   0.06335486   -3.0044901     1.295887   545227 
 1025000   0.99736029   -3.0041445   -3.0041445   -1.7084763    0.0423336   -3.0041445    1.2956682   545227 
 1026000    0.9962038   -3.0025352   -3.0025352   -1.7083694  0.057753946   -3.0025352    1.2941658   545227 
 1027000   0.99592445   -3.0023005   -3.0023005   -1.7084976  0.059396722   -3.0023005    1.2938029   545227 
 1028000   0.99775454   -3.0054388   -3.0054388   -1.7092585  0.059025005   -3.0054388    1.2961804   545227 
 1029000    0.9962141   -3.0033822   -3.0033822    -1.709203   0.05434234   -3.0033822    1.2941792   545227 
 1030000   0.99560609   -3.0023192   -3.0023192   -1.7089298  0.059831906   -3.0023192    1.2933893   545227 
 1031000    0.9982575    -3.004127    -3.004127   -1.7072932  0.058367805    -3.004127    1.2968338   545227 
 1032000   0.99943152   -3.0052849   -3.0052849   -1.7069259  0.062202616   -3.0052849    1.2983589   545227 
 1033000   0.99782302   -3.0026196   -3.0026196   -1.7063502  0.060498315   -3.0026196    1.2962693   545227 
 1034000   0.99796699   -3.0036867   -3.0036867   -1.7072303  0.061417901   -3.0036867    1.2964564   545227 
 1035000   0.99648201   -3.0012113   -3.0012113   -1.7066841  0.059846395   -3.0012113    1.2945272   545227 
 1036000   0.99819197    -3.003702    -3.003702   -1.7069534  0.055999644    -3.003702    1.2967486   545227 
 1037000   0.99898719   -3.0056204   -3.0056204   -1.7078387  0.067342094   -3.0056204    1.2977817   545227 
 1038000    0.9979819   -3.0037476   -3.0037476   -1.7072718  0.060897344   -3.0037476    1.2964757   545227 
 1039000   0.99861674   -3.0042572   -3.0042572   -1.7069567  0.060946448   -3.0042572    1.2973005   545227 
 1040000   0.99710738   -3.0036388   -3.0036388   -1.7082992  0.058378213   -3.0036388    1.2953396   545227 
 1041000   0.99847358   -3.0045656   -3.0045656   -1.7074511  0.052987914   -3.0045656    1.2971145   545227 
 1042000   0.99887985   -3.0044393   -3.0044393   -1.7067971  0.058700426   -3.0044393    1.2976423   545227 
 1043000   0.99740032   -3.0033516   -3.0033516   -1.7076314  0.065267246   -3.0033516    1.2957202   545227 
 1044000   0.99596012   -3.0015524   -3.0015524   -1.7077032  0.068670941   -3.0015524    1.2938492   545227 
 1045000   0.99879357   -3.0042026   -3.0042026   -1.7066724  0.056439162   -3.0042026    1.2975302   545227 
 1046000   0.99728399   -3.0029257   -3.0029257   -1.7073566  0.058130962   -3.0029257    1.2955691   545227 
 1047000   0.99696146   -3.0028524   -3.0028524   -1.7077023  0.063088701   -3.0028524    1.2951501   545227 
 1048000   0.99640195    -3.002603    -3.002603   -1.7081798  0.065720967    -3.002603    1.2944232   545227 
 1049000    0.9963748   -3.0037611   -3.0037611   -1.7093731  0.053778585   -3.0037611     1.294388   545227 
 1050000   0.99707265   -3.0046916   -3.0046916   -1.7093971  0.055486148   -3.0046916    1.2952945   545227 
 1051000   0.99743085     -3.00439     -3.00439   -1.7086301  0.058196632     -3.00439    1.2957599   545227 
 1052000   0.99573833   -3.0031013   -3.0031013   -1.7095402  0.056035873   -3.0031013    1.2935611   545227 
 1053000   0.99674352   -3.0044644   -3.0044644   -1.7095975  0.062536181   -3.0044644     1.294867   545227 
 1054000   0.99784423   -3.0052918   -3.0052918   -1.7089949  0.062174595   -3.0052918    1.2962969   545227 
 1055000    0.9984942   -3.0043084   -3.0043084   -1.7071672  0.061117806   -3.0043084    1.2971413   545227 
 1056000   0.99894313   -3.0054305   -3.0054305    -1.707706  0.059840703   -3.0054305    1.2977245   545227 
 1057000   0.99871577   -3.0051742   -3.0051742   -1.7077451  0.056699801   -3.0051742    1.2974291   545227 
 1058000   0.99846345   -3.0045833   -3.0045833    -1.707482  0.062572339   -3.0045833    1.2971013   545227 
 1059000   0.99824646   -3.0048517   -3.0048517   -1.7080322  0.063589413   -3.0048517    1.2968194   545227 
 1060000   0.99938366   -3.0050569   -3.0050569   -1.7067602  0.061377028   -3.0050569    1.2982968   545227 
 1061000   0.99925151   -3.0056553   -3.0056553   -1.7075303  0.055821482   -3.0056553    1.2981251   545227 
 1062000   0.99815837   -3.0045757   -3.0045757   -1.7078707  0.064076387   -3.0045757     1.296705   545227 
 1063000   0.99895989   -3.0060449   -3.0060449   -1.7082987  0.061871461   -3.0060449    1.2977462   545227 
 1064000   0.99977624   -3.0072076   -3.0072076   -1.7084009  0.059252184   -3.0072076    1.2988068   545227 
 1065000   0.99811638    -3.005182    -3.005182   -1.7085316  0.060239198    -3.005182    1.2966504   545227 
 1066000   0.99715523   -3.0046239   -3.0046239   -1.7092221  0.063228178   -3.0046239    1.2954018   545227 
 1067000   0.99834146   -3.0066416   -3.0066416   -1.7096988  0.052898268   -3.0066416    1.2969428   545227 
 1068000   0.99842619   -3.0067649   -3.0067649    -1.709712  0.049758982   -3.0067649    1.2970529   545227 
 1069000   0.99702556   -3.0041515   -3.0041515   -1.7089182  0.058793458   -3.0041515    1.2952334   545227 
 1070000   0.99775787   -3.0047144   -3.0047144   -1.7085297  0.063179213   -3.0047144    1.2961847   545227 
 1071000   0.99703416    -3.004281    -3.004281   -1.7090364  0.056719211    -3.004281    1.2952445   545227 
 1072000   0.99849947   -3.0055708   -3.0055708   -1.7084227   0.05874784   -3.0055708    1.2971481   545227 
 1073000   0.99731909   -3.0045418   -3.0045418   -1.7089271  0.064049447   -3.0045418    1.2956147   545227 
 1074000   0.99848249   -3.0059432   -3.0059432   -1.7088171  0.060819089   -3.0059432    1.2971261   545227 
 1075000    0.9992309   -3.0063937   -3.0063937   -1.7082954  0.065018413   -3.0063937    1.2980983   545227 
 1076000   0.99794388   -3.0050621   -3.0050621   -1.7086357  0.065498492   -3.0050621    1.2964263   545227 
 1077000   0.99839084   -3.0049819   -3.0049819   -1.7079749  0.061432676   -3.0049819     1.297007   545227 
 1078000   0.99809007    -3.006057    -3.006057   -1.7094407  0.056050133    -3.006057    1.2966163   545227 
 1079000   0.99722987   -3.0043493   -3.0043493   -1.7088505  0.060193422   -3.0043493    1.2954988   545227 
 1080000   0.99798025   -3.0041181   -3.0041181   -1.7076445  0.065189481   -3.0041181    1.2964736   545227 
 1081000   0.99727048   -3.0029102   -3.0029102   -1.7073587  0.055157752   -3.0029102    1.2955515   545227 
 1082000   0.99613928   -3.0020295   -3.0020295   -1.7079475   0.05637177   -3.0020295     1.294082   545227 
 1083000   0.99632134   -3.0022098   -3.0022098   -1.7078913  0.055177582   -3.0022098    1.2943185   545227 
 1084000   0.99787148   -3.0041321   -3.0041321   -1.7077999  0.058867151   -3.0041321    1.2963323   545227 
 1085000   0.99623914   -3.0017606   -3.0017606   -1.7075489  0.063716288   -3.0017606    1.2942117   545227 
 1086000   0.99642921   -3.0021426   -3.0021426   -1.7076839  0.056625152   -3.0021426    1.2944586   545227 
 1087000   0.99957897   -3.0064115   -3.0064115    -1.707861  0.060613127   -3.0064115    1.2985505   545227 
 1088000   0.99689903   -3.0026717   -3.0026717   -1.7076027  0.052447369   -3.0026717     1.295069   545227 
 1089000   0.99728953   -3.0026796   -3.0026796   -1.7071034  0.055583974   -3.0026796    1.2955763   545227 
 1090000   0.99578133     -3.00012     -3.00012    -1.706503  0.054446828     -3.00012     1.293617   545227 
 1091000   0.99834766   -3.0031903   -3.0031903   -1.7062394  0.056093689   -3.0031903    1.2969509   545227 
 1092000   0.99769659   -3.0025589   -3.0025589   -1.7064538  0.064666424   -3.0025589    1.2961051   545227 
 1093000   0.99747834   -3.0027078   -3.0027078   -1.7068863  0.056546797   -3.0027078    1.2958216   545227 
 1094000   0.99831138   -3.0043718   -3.0043718    -1.707468  0.058076975   -3.0043718    1.2969038   545227 
 1095000   0.99632764   -3.0011697   -3.0011697    -1.706843  0.055420041   -3.0011697    1.2943267   545227 
 1096000   0.99771567    -3.003243    -3.003243   -1.7071132  0.054963128    -3.003243    1.2961299   545227 
 1097000   0.99707088   -3.0028167   -3.0028167   -1.7075244  0.056550097   -3.0028167    1.2952922   545227 
 1098000   0.99779319     -3.00287     -3.00287   -1.7066394  0.061639349     -3.00287    1.2962306   545227 
 1099000   0.99870102   -3.0043356   -3.0043356   -1.7069257   0.05406895   -3.0043356    1.2974099   545227 
 1100000   0.99769823   -3.0036559   -3.0036559   -1.7075487   0.05477007   -3.0036559    1.2961072   545227 
 1101000   0.99691877   -3.0031857   -3.0031857   -1.7080911  0.058941426   -3.0031857    1.2950946   545227 
 1102000   0.99677987   -3.0033903   -3.0033903   -1.7084762   0.06234669   -3.0033903    1.2949142   545227 
 1103000   0.99728978    -3.004635    -3.004635   -1.7090584  0.055823121    -3.004635    1.2955766   545227 
 1104000   0.99819395   -3.0052843   -3.0052843   -1.7085331  0.055768328   -3.0052843    1.2967512   545227 
 1105000   0.99679466   -3.0030524   -3.0030524    -1.708119  0.061721939   -3.0030524    1.2949334   545227 
 1106000   0.99829285   -3.0050389   -3.0050389   -1.7081592  0.056303353   -3.0050389    1.2968797   545227 
 1107000   0.99900589   -3.0054107   -3.0054107   -1.7076047  0.050493525   -3.0054107     1.297806   545227 
 1108000   0.99787516   -3.0037008   -3.0037008   -1.7073637  0.053277551   -3.0037008    1.2963371   545227 
 1109000   0.99867708   -3.0059093   -3.0059093   -1.7085304  0.052411393   -3.0059093    1.2973788   545227 
 1110000   0.99695422   -3.0022685   -3.0022685   -1.7071278  0.061058249   -3.0022685    1.2951407   545227 
 1111000   0.99728875   -3.0032188   -3.0032188   -1.7076436  0.061367129   -3.0032188    1.2955753   545227 
 1112000   0.99833299   -3.0037323   -3.0037323   -1.7068005  0.062026224   -3.0037323    1.2969318   545227 
 1113000   0.99763026     -3.00401     -3.00401   -1.7079911  0.063714478     -3.00401    1.2960189   545227 
 1114000   0.99644684   -3.0023087   -3.0023087   -1.7078272  0.060608882   -3.0023087    1.2944815   545227 
 1115000   0.99704724   -3.0040565   -3.0040565    -1.708795  0.063656949   -3.0040565    1.2952615   545227 
 1116000   0.99845639   -3.0057832   -3.0057832    -1.708691  0.050569516   -3.0057832    1.2970921   545227 
 1117000   0.99788391   -3.0048273   -3.0048273   -1.7084788  0.061693655   -3.0048273    1.2963484   545227 
 1118000   0.99651159    -3.003629    -3.003629   -1.7090633  0.059389736    -3.003629    1.2945656   545227 
 1119000   0.99669586   -3.0026282   -3.0026282   -1.7078231   0.05839398   -3.0026282     1.294805   545227 
 1120000   0.99688526   -3.0029144   -3.0029144   -1.7078633  0.054804392   -3.0029144    1.2950511   545227 
 1121000   0.99565302   -3.0022857   -3.0022857   -1.7088355  0.063591798   -3.0022857    1.2934503   545227 
 1122000   0.99642679   -3.0034924   -3.0034924   -1.7090369  0.058025918   -3.0034924    1.2944555   545227 
 1123000   0.99778475   -3.0048459   -3.0048459   -1.7086263  0.060258045   -3.0048459    1.2962196   545227 
 1124000   0.99521713   -3.0017151   -3.0017151   -1.7088311  0.057745699   -3.0017151     1.292884   545227 
 1125000   0.99542407   -3.0017218   -3.0017218    -1.708569  0.055176884   -3.0017218    1.2931529   545227 
 1126000   0.99628001   -3.0039716   -3.0039716   -1.7097068  0.057578458   -3.0039716    1.2942648   545227 
 1127000   0.99480174   -3.0013879   -3.0013879   -1.7090435  0.063009887   -3.0013879    1.2923444   545227 
 1128000   0.99635138   -3.0025098   -3.0025098   -1.7081522   0.05609477   -3.0025098    1.2943575   545227 
 1129000   0.99736709   -3.0041128   -3.0041128   -1.7084358  0.061447977   -3.0041128     1.295677   545227 
 1130000   0.99895855    -3.006125    -3.006125   -1.7083805  0.063556728    -3.006125    1.2977445   545227 
 1131000   0.99677436   -3.0041583   -3.0041583   -1.7092513  0.064234289   -3.0041583     1.294907   545227 
 1132000   0.99888455   -3.0055556   -3.0055556   -1.7079072  0.054124549   -3.0055556    1.2976484   545227 
 1133000   0.99749056   -3.0037255   -3.0037255    -1.707888  0.054495369   -3.0037255    1.2958374   545227 
 1134000   0.99803008   -3.0041697   -3.0041697   -1.7076314  0.052174072   -3.0041697    1.2965383   545227 
 1135000   0.99808732   -3.0039916   -3.0039916   -1.7073789  0.064563867   -3.0039916    1.2966127   545227 
 1136000   0.99694294   -3.0023561   -3.0023561   -1.7072301  0.058743597   -3.0023561     1.295126   545227 
 1137000   0.99906344   -3.0037749   -3.0037749   -1.7058941  0.057935821   -3.0037749    1.2978808   545227 
 1138000   0.99712967   -3.0017547   -3.0017547   -1.7063861  0.057153334   -3.0017547    1.2953686   545227 
 1139000   0.99880278   -3.0046077   -3.0046077   -1.7070655  0.058585931   -3.0046077    1.2975421   545227 
 1140000   0.99799557    -3.002922    -3.002922   -1.7064285  0.051412804    -3.002922    1.2964935   545227 
 1141000   0.99702852   -3.0023464   -3.0023464   -1.7071092  0.056578819   -3.0023464    1.2952372   545227 
 1142000   0.99993882   -3.0061165   -3.0061165   -1.7070985  0.061877322   -3.0061165     1.299018   545227 
 1143000   0.99727078   -3.0028807   -3.0028807   -1.7073288   0.06149515   -3.0028807    1.2955519   545227 
 1144000   0.99795588    -3.003986    -3.003986   -1.7075441  0.053845151    -3.003986    1.2964419   545227 
 1145000   0.99830539   -3.0044472   -3.0044472   -1.7075512  0.063749636   -3.0044472     1.296896   545227 
 1146000   0.99785543   -3.0031242   -3.0031242   -1.7068127  0.074254664   -3.0031242    1.2963114   545227 
 1147000   0.99717205   -3.0031654   -3.0031654   -1.7077417   0.05888235   -3.0031654    1.2954237   545227 
 1148000   0.99784331   -3.0037743   -3.0037743   -1.7074786  0.055742767   -3.0037743    1.2962957   545227 
 1149000   0.99754582   -3.0024059   -3.0024059   -1.7064967  0.064461466   -3.0024059    1.2959092   545227 
 1150000   0.99663933   -3.0019743   -3.0019743   -1.7072427   0.05584243   -3.0019743    1.2947316   545227 
 1151000   0.99816375   -3.0035311   -3.0035311   -1.7068191  0.065312708   -3.0035311     1.296712   545227 
 1152000   0.99822375    -3.004118    -3.004118   -1.7073281  0.062739719    -3.004118    1.2967899   545227 
 1153000   0.99770164    -3.004026    -3.004026   -1.7079144  0.053756371    -3.004026    1.2961116   545227 
 1154000    0.9970405    -3.002722    -3.002722   -1.7074693  0.057217327    -3.002722    1.2952528   545227 
 1155000   0.99786751   -3.0036576   -3.0036576   -1.7073304  0.059211768   -3.0036576    1.2963271   545227 
 1156000   0.99700502   -3.0016823   -3.0016823   -1.7064757  0.058595386   -3.0016823    1.2952067   545227 
 1157000   0.99773386   -3.0032547   -3.0032547   -1.7071012  0.058364472   -3.0032547    1.2961535   545227 
 1158000   0.99748492   -3.0028272   -3.0028272   -1.7069971  0.063893642   -3.0028272    1.2958301   545227 
 1159000   0.99894778   -3.0045596   -3.0045596   -1.7068291  0.061012574   -3.0045596    1.2977305   545227 
 1160000   0.99800632   -3.0038065   -3.0038065    -1.707299  0.054680562   -3.0038065    1.2965075   545227 
 1161000   0.99783641   -3.0035831   -3.0035831   -1.7072964  0.056223333   -3.0035831    1.2962867   545227 
 1162000   0.99739438   -3.0032987   -3.0032987   -1.7075862  0.063753131   -3.0032987    1.2957125   545227 
 1163000   0.99688059   -3.0028145   -3.0028145   -1.7077695  0.070260511   -3.0028145     1.295045   545227 
 1164000   0.99765909    -3.004457    -3.004457   -1.7084006  0.052082668    -3.004457    1.2960564   545227 
 1165000   0.99850881   -3.0046633   -3.0046633   -1.7075031  0.056909554   -3.0046633    1.2971602   545227 
 1166000   0.99749968   -3.0043473   -3.0043473    -1.708498  0.046379564   -3.0043473    1.2958493   545227 
 1167000   0.99763601   -3.0047119   -3.0047119   -1.7086856   0.05342777   -3.0047119    1.2960264   545227 
 1168000   0.99751378   -3.0048816   -3.0048816    -1.709014  0.054114434   -3.0048816    1.2958676   545227 
 1169000   0.99863177   -3.0067855   -3.0067855   -1.7094655  0.053710051   -3.0067855      1.29732   545227 
 1170000   0.99677912   -3.0056123   -3.0056123   -1.7106991  0.057788865   -3.0056123    1.2949132   545227 
 1171000    0.9979993    -3.006504    -3.006504   -1.7100057  0.059657819    -3.006504    1.2964983   545227 
 1172000   0.99653874   -3.0054455   -3.0054455   -1.7108445  0.061786038   -3.0054455    1.2946009   545227 
 1173000   0.99837642   -3.0060365   -3.0060365   -1.7090483  0.060871094   -3.0060365    1.2969882   545227 
 1174000   0.99911149   -3.0078185   -3.0078185   -1.7098753  0.056316769   -3.0078185    1.2979432   545227 
 1175000   0.99728899   -3.0061306   -3.0061306   -1.7105551  0.058007388   -3.0061306    1.2955756   545227 
 1176000   0.99905344   -3.0081214   -3.0081214   -1.7102536  0.055521332   -3.0081214    1.2978678   545227 
 1177000   0.99800298   -3.0061689   -3.0061689   -1.7096657  0.057472179   -3.0061689    1.2965031   545227 
 1178000   0.99919147   -3.0075558   -3.0075558   -1.7095087  0.065710629   -3.0075558    1.2980471   545227 
 1179000   0.99887148   -3.0073339   -3.0073339   -1.7097025  0.066647884   -3.0073339    1.2976314   545227 
 1180000   0.99866416   -3.0072097   -3.0072097   -1.7098477  0.069988426   -3.0072097    1.2973621   545227 
 1181000   0.99932141   -3.0074023   -3.0074023   -1.7091864  0.058670165   -3.0074023    1.2982159   545227 
 1182000   0.99972413   -3.0076759   -3.0076759   -1.7089368  0.062938955   -3.0076759    1.2987391   545227 
 1183000    1.0001173   -3.0088515   -3.0088515   -1.7096016  0.059179579   -3.0088515    1.2992499   545227 
 1184000   0.99908674   -3.0078165   -3.0078165   -1.7099055   0.06176644   -3.0078165     1.297911   545227 
 1185000   0.99856618    -3.006393    -3.006393   -1.7091583  0.071586574    -3.006393    1.2972348   545227 
 1186000   0.99855344   -3.0069972   -3.0069972    -1.709779  0.065452405   -3.0069972    1.2972182   545227 
 1187000   0.99906803   -3.0086551   -3.0086551   -1.7107684  0.056548131   -3.0086551    1.2978867   545227 
 1188000   0.99977462   -3.0089646   -3.0089646     -1.71016  0.065689104   -3.0089646    1.2988046   545227 
 1189000   0.99916333   -3.0089559   -3.0089559   -1.7109453    0.0621288   -3.0089559    1.2980105   545227 
 1190000    0.9990335   -3.0089094   -3.0089094   -1.7110676  0.063408617   -3.0089094    1.2978419   545227 
 1191000   0.99767512   -3.0065255   -3.0065255   -1.7104483  0.061473089   -3.0065255    1.2960772   545227 
 1192000   0.99655909   -3.0053837   -3.0053837   -1.7107564   0.06330644   -3.0053837    1.2946274   545227 
 1193000   0.99884191   -3.0067457   -3.0067457   -1.7091527  0.058511746   -3.0067457     1.297593   545227 
 1194000    0.9975577   -3.0050603   -3.0050603   -1.7091357  0.052052791   -3.0050603    1.2959247   545227 
 1195000    0.9975234    -3.005927    -3.005927   -1.7100469  0.067307433    -3.005927    1.2958801   545227 
 1196000   0.99840072    -3.006342    -3.006342   -1.7093222  0.055386116    -3.006342    1.2970198   545227 
 1197000   0.99760582   -3.0062036   -3.0062036   -1.7102164  0.057148009   -3.0062036    1.2959872   545227 
 1198000   0.99852369   -3.0075248   -3.0075248   -1.7103452  0.050405658   -3.0075248    1.2971796   545227 
 1199000   0.99777381   -3.0069838   -3.0069838   -1.7107784  0.062045209   -3.0069838    1.2962054   545227 
 1200000   0.99678699   -3.0054906   -3.0054906   -1.7105671  0.059770839   -3.0054906    1.2949234   545227 
 1201000   0.99760254     -3.00556     -3.00556   -1.7095771  0.060651256     -3.00556    1.2959829   545227 
 1202000   0.99657915   -3.0032438   -3.0032438   -1.7085904  0.056059542   -3.0032438    1.2946534   545227 
 1203000   0.99705766   -3.0039353   -3.0039353   -1.7086603  0.054754112   -3.0039353    1.2952751   545227 
 1204000   0.99674131   -3.0037948   -3.0037948   -1.7089308  0.057515053   -3.0037948    1.2948641   545227 
 1205000   0.99564676   -3.0028959   -3.0028959   -1.7094537  0.060799226   -3.0028959    1.2934422   545227 
 1206000   0.99568481   -3.0020027   -3.0020027   -1.7085111  0.056806712   -3.0020027    1.2934916   545227 
 1207000   0.99637835    -3.002614    -3.002614   -1.7082214  0.049887586    -3.002614    1.2943926   545227 
 1208000   0.99689712   -3.0040066   -3.0040066   -1.7089401  0.067315935   -3.0040066    1.2950665   545227 
 1209000   0.99604728   -3.0035339   -3.0035339   -1.7095715  0.055350952   -3.0035339    1.2939625   545227 
 1210000   0.99772991   -3.0051216   -3.0051216   -1.7089732  0.061854658   -3.0051216    1.2961484   545227 
 1211000   0.99837419    -3.006354    -3.006354   -1.7093686  0.055281781    -3.006354    1.2969854   545227 
 1212000   0.99661316   -3.0043291   -3.0043291   -1.7096315  0.059992162   -3.0043291    1.2946976   545227 
 1213000   0.99620133   -3.0032859   -3.0032859   -1.7091233  0.060293905   -3.0032859    1.2941626   545227 
 1214000   0.99716353   -3.0037911   -3.0037911   -1.7083785  0.061638654   -3.0037911    1.2954126   545227 
 1215000   0.99712849   -3.0027369   -3.0027369   -1.7073699  0.070467228   -3.0027369    1.2953671   545227 
 1216000   0.99758143   -3.0040487   -3.0040487   -1.7080932  0.064414298   -3.0040487    1.2959555   545227 
 1217000   0.99845394   -3.0048135   -3.0048135   -1.7077246   0.05341891   -3.0048135     1.297089   545227 
 1218000   0.99688898   -3.0041998   -3.0041998   -1.7091439   0.05630193   -3.0041998    1.2950559   545227 
 1219000   0.99868162   -3.0060343   -3.0060343   -1.7086496  0.055775522   -3.0060343    1.2973847   545227 
 1220000   0.99903408   -3.0063896   -3.0063896    -1.708547  0.055163444   -3.0063896    1.2978426   545227 
 1221000   0.99701538   -3.0043611   -3.0043611    -1.709141  0.057120631   -3.0043611    1.2952201   545227 
 1222000   0.99755002   -3.0053056   -3.0053056    -1.709391  0.050742593   -3.0053056    1.2959147   545227 
 1223000   0.99672194   -3.0038052   -3.0038052   -1.7089663  0.058271122   -3.0038052    1.2948389   545227 
 1224000   0.99698405   -3.0041359   -3.0041359   -1.7089565  0.055152759   -3.0041359    1.2951794   545227 
 1225000   0.99763586   -3.0044317   -3.0044317   -1.7084055  0.061232912   -3.0044317    1.2960262   545227 
 1226000   0.99861656   -3.0050004   -3.0050004   -1.7077002  0.070704369   -3.0050004    1.2973002   545227 
 1227000   0.99788258   -3.0050844   -3.0050844   -1.7087377  0.063801204   -3.0050844    1.2963467   545227 
 1228000   0.99858364   -3.0055196   -3.0055196   -1.7082622  0.055870303   -3.0055196    1.2972575   545227 
 1229000   0.99894273   -3.0061028   -3.0061028   -1.7083788  0.055064914   -3.0061028    1.2977239   545227 
 1230000   0.99938402   -3.0069093   -3.0069093   -1.7086121  0.058345814   -3.0069093    1.2982972   545227 
 1231000   0.99870684   -3.0057453   -3.0057453   -1.7083278  0.060067403   -3.0057453    1.2974175   545227 
 1232000   0.99773157   -3.0060295   -3.0060295    -1.709879  0.061268957   -3.0060295    1.2961505   545227 
 1233000   0.99807285   -3.0059714   -3.0059714   -1.7093775  0.064768754   -3.0059714    1.2965939   545227 
 1234000   0.99807403   -3.0064807   -3.0064807   -1.7098853  0.044480326   -3.0064807    1.2965954   545227 
 1235000   0.99691842   -3.0059974   -3.0059974   -1.7109032  0.063787667   -3.0059974    1.2950942   545227 
 1236000   0.99727327   -3.0065504   -3.0065504   -1.7109952  0.053027552   -3.0065504    1.2955552   545227 
 1237000   0.99577918   -3.0048091   -3.0048091   -1.7111949  0.052190708   -3.0048091    1.2936142   545227 
 1238000   0.99707542   -3.0068602   -3.0068602   -1.7115621  0.055650966   -3.0068602    1.2952981   545227 
 1239000   0.99798036   -3.0081926   -3.0081926   -1.7117188   0.04621912   -3.0081926    1.2964737   545227 
 1240000   0.99617453   -3.0063268   -3.0063268    -1.712199  0.061772902   -3.0063268    1.2941278   545227 
 1241000   0.99626786   -3.0054494   -3.0054494   -1.7112003  0.052796061   -3.0054494     1.294249   545227 
 1242000   0.99719426   -3.0054327   -3.0054327   -1.7099802  0.061176717   -3.0054327    1.2954525   545227 
 1243000   0.99802914   -3.0069855   -3.0069855   -1.7104484  0.056727399   -3.0069855    1.2965371   545227 
 1244000   0.99813874   -3.0070399   -3.0070399   -1.7103604  0.060635176   -3.0070399    1.2966795   545227 
 1245000   0.99653065   -3.0054552   -3.0054552   -1.7108648  0.053745324   -3.0054552    1.2945904   545227 
 1246000   0.99749145   -3.0070356   -3.0070356    -1.711197  0.055454262   -3.0070356    1.2958386   545227 
 1247000   0.99816302   -3.0075251   -3.0075251   -1.7108141   0.05602779   -3.0075251     1.296711   545227 
 1248000   0.99786305   -3.0060256   -3.0060256   -1.7097043  0.062906086   -3.0060256    1.2963213   545227 
 1249000   0.99802288    -3.006002    -3.006002   -1.7094731  0.057953335    -3.006002     1.296529   545227 
 1250000    0.9987457    -3.007597    -3.007597    -1.710129  0.062840978    -3.007597     1.297468   545227 
 1251000   0.99690367   -3.0054308   -3.0054308   -1.7103558  0.053704284   -3.0054308     1.295075   545227 
 1252000   0.99770288   -3.0061023   -3.0061023   -1.7099891  0.060425772   -3.0061023    1.2961133   545227 
 1253000   0.99734411    -3.005346    -3.005346   -1.7096988  0.054810266    -3.005346    1.2956472   545227 
 1254000   0.99729702   -3.0055586   -3.0055586   -1.7099726  0.051207929   -3.0055586     1.295586   545227 
 1255000    0.9973991   -3.0056753   -3.0056753   -1.7099567   0.05517234   -3.0056753    1.2957186   545227 
 1256000   0.99772737   -3.0066814   -3.0066814   -1.7105363  0.055596188   -3.0066814    1.2961451   545227 
 1257000   0.99832186   -3.0072239   -3.0072239   -1.7103066  0.064128792   -3.0072239    1.2969174   545227 
 1258000   0.99645014   -3.0050972   -3.0050972   -1.7106113  0.060518607   -3.0050972    1.2944858   545227 
 1259000   0.99806966   -3.0070681   -3.0070681   -1.7104783  0.056052708   -3.0070681    1.2965897   545227 
 1260000   0.99696331    -3.005444    -3.005444   -1.7102915  0.062464035    -3.005444    1.2951525   545227 
 1261000   0.99691465   -3.0051725   -3.0051725   -1.7100833  0.060132848   -3.0051725    1.2950893   545227 
 1262000   0.99734462   -3.0054392   -3.0054392   -1.7097914  0.065581955   -3.0054392    1.2956478   545227 
 1263000   0.99801643   -3.0068502   -3.0068502   -1.7103297  0.053877464   -3.0068502    1.2965206   545227 
 1264000   0.99741436   -3.0055133   -3.0055133   -1.7097748  0.063508388   -3.0055133    1.2957384   545227 
 1265000   0.99812007   -3.0071663   -3.0071663   -1.7105111  0.052396238   -3.0071663    1.2966552   545227 
 1266000    0.9978937   -3.0066001   -3.0066001   -1.7102389  0.053501573   -3.0066001    1.2963612   545227 
 1267000   0.99665969   -3.0049714   -3.0049714   -1.7102133   0.06415252   -3.0049714    1.2947581   545227 
 1268000    0.9971551    -3.004885    -3.004885   -1.7094833  0.061178217    -3.004885    1.2954016   545227 
 1269000   0.99726422   -3.0048376   -3.0048376   -1.7092942  0.067868689   -3.0048376    1.2955434   545227 
 1270000   0.99677646   -3.0044548   -3.0044548    -1.709545   0.06246996   -3.0044548    1.2949097   545227 
 1271000   0.99727186   -3.0056983   -3.0056983    -1.710145  0.075890338   -3.0056983    1.2955533   545227 
 1272000   0.99922675   -3.0080202   -3.0080202   -1.7099273  0.053739405   -3.0080202    1.2980929   545227 
 1273000   0.99769872   -3.0055237   -3.0055237   -1.7094158  0.062943598   -3.0055237    1.2961078   545227 
 1274000   0.99770508   -3.0066815   -3.0066815   -1.7105654  0.061580752   -3.0066815    1.2961161   545227 
 1275000    0.9983662   -3.0078399   -3.0078399   -1.7108649  0.052439399   -3.0078399     1.296975   545227 
 1276000   0.99802733   -3.0079983   -3.0079983   -1.7114636  0.056040599   -3.0079983    1.2965348   545227 
 1277000   0.99627567    -3.005126    -3.005126   -1.7108668  0.062689723    -3.005126    1.2942592   545227 
 1278000   0.99507636   -3.0056658   -3.0056658   -1.7129646  0.056319197   -3.0056658    1.2927011   545227 
 1279000   0.99732528   -3.0087218   -3.0087218    -1.713099  0.061027163   -3.0087218    1.2956227   545227 
 1280000   0.99786269   -3.0080058   -3.0080058    -1.711685  0.064034588   -3.0080058    1.2963209   545227 
 1281000    0.9976747   -3.0085049   -3.0085049   -1.7124283  0.064083034   -3.0085049    1.2960766   545227 
 1282000   0.99652165   -3.0070847   -3.0070847   -1.7125059  0.062440898   -3.0070847    1.2945787   545227 
 1283000   0.99849216   -3.0082401   -3.0082401   -1.7111015  0.060343574   -3.0082401    1.2971386   545227 
 1284000   0.99855255    -3.008297    -3.008297     -1.71108  0.066553976    -3.008297    1.2972171   545227 
 1285000   0.99905485   -3.0081631   -3.0081631   -1.7102935  0.063738345   -3.0081631    1.2978696   545227 
 1286000   0.99818393   -3.0073635   -3.0073635   -1.7106253   0.06598499   -3.0073635    1.2967382   545227 
 1287000   0.99948727   -3.0093655   -3.0093655   -1.7109341  0.054282842   -3.0093655    1.2984314   545227 
 1288000   0.99865191   -3.0087317   -3.0087317   -1.7113855  0.064615457   -3.0087317    1.2973461   545227 
 1289000    1.0008594   -3.0119929   -3.0119929   -1.7117791  0.063834452   -3.0119929    1.3002138   545227 
 1290000   0.99947352   -3.0100904   -3.0100904   -1.7116769  0.062574851   -3.0100904    1.2984135   545227 
 1291000   0.99779494   -3.0084077   -3.0084077   -1.7121749  0.060720624   -3.0084077    1.2962329   545227 
 1292000   0.99745609   -3.0082308   -3.0082308   -1.7124382  0.060473087   -3.0082308    1.2957927   545227 
 1293000   0.99834984   -3.0095944   -3.0095944   -1.7126407  0.067039968   -3.0095944    1.2969537   545227 
 1294000   0.99734619    -3.008542    -3.008542   -1.7128921  0.063721545    -3.008542    1.2956499   545227 
 1295000   0.99745537   -3.0092428   -3.0092428   -1.7134511  0.052198738   -3.0092428    1.2957917   545227 
 1296000   0.99606459   -3.0077486   -3.0077486   -1.7137636  0.061276486   -3.0077486     1.293985   545227 
 1297000   0.99604783   -3.0088837   -3.0088837   -1.7149205  0.059078949   -3.0088837    1.2939632   545227 
 1298000    0.9958789   -3.0083011   -3.0083011   -1.7145574   0.05758825   -3.0083011    1.2937437   545227 
 1299000   0.99699186   -3.0091693   -3.0091693   -1.7139797  0.059627458   -3.0091693    1.2951896   545227 
 1300000   0.99822122   -3.0096363   -3.0096363   -1.7128497  0.068029137   -3.0096363    1.2967866   545227 
 1301000   0.99765453   -3.0092096   -3.0092096   -1.7131591  0.063458056   -3.0092096    1.2960504   545227 
 1302000   0.99903568   -3.0107422   -3.0107422   -1.7128976  0.055774094   -3.0107422    1.2978447   545227 
 1303000    1.0000586   -3.0120199   -3.0120199   -1.7128463  0.056198751   -3.0120199    1.2991736   545227 
 1304000    0.9980661   -3.0092752   -3.0092752   -1.7126901  0.061706319   -3.0092752    1.2965851   545227 
 1305000   0.99868224   -3.0099044   -3.0099044   -1.7125188  0.059948593   -3.0099044    1.2973855   545227 
 1306000   0.99879817   -3.0091831   -3.0091831   -1.7116469  0.062746855   -3.0091831    1.2975362   545227 
 1307000   0.99867126   -3.0089618   -3.0089618   -1.7115905  0.067987576   -3.0089618    1.2973713   545227 
 1308000   0.99918943   -3.0098145   -3.0098145   -1.7117701  0.058941682   -3.0098145    1.2980444   545227 
 1309000   0.99982662   -3.0100944   -3.0100944   -1.7112222   0.07168332   -3.0100944    1.2988722   545227 
 1310000   0.99820179   -3.0090915   -3.0090915   -1.7123301  0.061919067   -3.0090915    1.2967614   545227 
 1311000   0.99819161   -3.0086912   -3.0086912    -1.711943  0.060442676   -3.0086912    1.2967482   545227 
 1312000   0.99621001   -3.0074112   -3.0074112   -1.7132373  0.068131323   -3.0074112    1.2941739   545227 
 1313000   0.99707342   -3.0078085   -3.0078085   -1.7125129  0.060838658   -3.0078085    1.2952955   545227 
 1314000   0.99648472   -3.0080244   -3.0080244   -1.7134937  0.054887659   -3.0080244    1.2945307   545227 
 1315000   0.99642802   -3.0088224   -3.0088224   -1.7143653  0.060532284   -3.0088224    1.2944571   545227 
 1316000   0.99687891   -3.0084987   -3.0084987   -1.7134558  0.057635587   -3.0084987    1.2950428   545227 
 1317000   0.99681418   -3.0086543   -3.0086543   -1.7136956  0.060965285   -3.0086543    1.2949587   545227 
 1318000   0.99732912   -3.0086101   -3.0086101   -1.7129824  0.061489251   -3.0086101    1.2956277   545227 
 1319000   0.99733833   -3.0072605   -3.0072605   -1.7116208  0.049980769   -3.0072605    1.2956397   545227 
 1320000   0.99680483   -3.0069006   -3.0069006    -1.711954  0.068955698   -3.0069006    1.2949466   545227 
 1321000   0.99838326   -3.0094644   -3.0094644   -1.7124673  0.062237062   -3.0094644    1.2969971   545227 
 1322000   0.99836169   -3.0083045   -3.0083045   -1.7113354   0.06010466   -3.0083045    1.2969691   545227 
 1323000    1.0004674   -3.0113213   -3.0113213   -1.7116167  0.062611404   -3.0113213    1.2997046   545227 
 1324000    0.9990287   -3.0101442   -3.0101442   -1.7123085  0.053019401   -3.0101442    1.2978356   545227 
 1325000   0.99871028    -3.009118    -3.009118    -1.711696  0.065911649    -3.009118     1.297422   545227 
 1326000   0.99797507    -3.007265    -3.007265   -1.7107982  0.060149973    -3.007265    1.2964669   545227 
 1327000   0.99863581   -3.0081485   -3.0081485   -1.7108233    0.0619727   -3.0081485    1.2973252   545227 
 1328000   0.99813951   -3.0071002   -3.0071002   -1.7104197  0.071076189   -3.0071002    1.2966805   545227 
 1329000   0.99794604   -3.0077778   -3.0077778   -1.7113486  0.065104056   -3.0077778    1.2964292   545227 
 1330000   0.99677011   -3.0070319   -3.0070319   -1.7121304   0.06497185   -3.0070319    1.2949015   545227 
 1331000   0.99879864   -3.0088035   -3.0088035   -1.7112668  0.068857312   -3.0088035    1.2975368   545227 
 1332000    1.0002579   -3.0096707   -3.0096707   -1.7102382  0.061434595   -3.0096707    1.2994325   545227 
 1333000   0.99948836   -3.0097658   -3.0097658    -1.711333  0.066974313   -3.0097658    1.2984328   545227 
 1334000    0.9985268   -3.0087229   -3.0087229   -1.7115393  0.061855611   -3.0087229    1.2971836   545227 
 1335000   0.99945666   -3.0107125   -3.0107125   -1.7123209  0.061022196   -3.0107125    1.2983916   545227 
 1336000     0.998486   -3.0085018   -3.0085018   -1.7113712  0.072200683   -3.0085018    1.2971306   545227 
 1337000   0.99986876   -3.0099983   -3.0099983   -1.7110713  0.064150975   -3.0099983     1.298927   545227 
 1338000   0.99970942   -3.0099098   -3.0099098   -1.7111899  0.072305395   -3.0099098    1.2987199   545227 
 1339000   0.99911391   -3.0087456   -3.0087456   -1.7107992  0.065492532   -3.0087456    1.2979463   545227 
 1340000    1.0000625   -3.0093889   -3.0093889   -1.7102103  0.052719466   -3.0093889    1.2991787   545227 
 1341000   0.99882296   -3.0082417   -3.0082417   -1.7106734  0.057332651   -3.0082417    1.2975684   545227 
 1342000   0.99811469   -3.0075423   -3.0075423   -1.7108941  0.057418424   -3.0075423    1.2966482   545227 
 1343000   0.99862301   -3.0076115   -3.0076115   -1.7103029   0.06260855   -3.0076115    1.2973086   545227 
 1344000   0.99740479   -3.0068003   -3.0068003   -1.7110743   0.05948387   -3.0068003     1.295726   545227 
 1345000   0.99905794   -3.0089656   -3.0089656    -1.711092  0.062573948   -3.0089656    1.2978736   545227 
 1346000   0.99887355   -3.0096146   -3.0096146   -1.7119805  0.063969959   -3.0096146    1.2976341   545227 
 1347000   0.99637556   -3.0066863   -3.0066863   -1.7122974  0.067316058   -3.0066863    1.2943889   545227 
 1348000   0.99869195   -3.0102737   -3.0102737   -1.7128756  0.055666013   -3.0102737    1.2973982   545227 
 1349000   0.99815131   -3.0088496   -3.0088496   -1.7121538  0.061807381   -3.0088496    1.2966958   545227 
 1350000   0.99725422   -3.0077677   -3.0077677   -1.7122373  0.059256671   -3.0077677    1.2955304   545227 
 1351000   0.99847766   -3.0074513   -3.0074513   -1.7103316  0.066281193   -3.0074513    1.2971198   545227 
 1352000   0.99824026   -3.0070074   -3.0070074    -1.710196  0.059500522   -3.0070074    1.2968114   545227 
 1353000     0.998432   -3.0072709   -3.0072709   -1.7102104  0.059180706   -3.0072709    1.2970605   545227 
 1354000   0.99918933   -3.0078635   -3.0078635   -1.7098192  0.057971635   -3.0078635    1.2980443   545227 
 1355000   0.99954047   -3.0088468   -3.0088468   -1.7103463  0.057738084   -3.0088468    1.2985005   545227 
 1356000   0.99796441    -3.007539    -3.007539    -1.711086  0.070674536    -3.007539     1.296453   545227 
 1357000   0.99913245   -3.0079969   -3.0079969   -1.7100265  0.070006099   -3.0079969    1.2979704   545227 
 1358000   0.99936515   -3.0077834   -3.0077834   -1.7095107  0.066186263   -3.0077834    1.2982727   545227 
 1359000   0.99842343   -3.0076868   -3.0076868   -1.7106375  0.058750129   -3.0076868    1.2970493   545227 
 1360000   0.99820895   -3.0068125   -3.0068125   -1.7100418  0.060409909   -3.0068125    1.2967707   545227 
 1361000    0.9977354   -3.0076942   -3.0076942   -1.7115387  0.057152517   -3.0076942    1.2961555   545227 
 1362000   0.99814817   -3.0067703   -3.0067703   -1.7100785  0.059112285   -3.0067703    1.2966917   545227 
 1363000   0.99744271   -3.0064679   -3.0064679   -1.7106926   0.06593913   -3.0064679    1.2957753   545227 
 1364000   0.99715521   -3.0059686   -3.0059686   -1.7105668   0.05170223   -3.0059686    1.2954018   545227 
 1365000   0.99724077   -3.0061126   -3.0061126   -1.7105997  0.056935414   -3.0061126    1.2955129   545227 
 1366000    0.9969495   -3.0064105   -3.0064105    -1.711276  0.049415383   -3.0064105    1.2951345   545227 
 1367000   0.99706681   -3.0061551   -3.0061551   -1.7108682  0.053838191   -3.0061551    1.2952869   545227 
 1368000    0.9976919   -3.0069669   -3.0069669   -1.7108679  0.070427231   -3.0069669     1.296099   545227 
 1369000   0.99842341   -3.0083346   -3.0083346   -1.7112853  0.059016982   -3.0083346    1.2970493   545227 
 1370000   0.99845214   -3.0085415   -3.0085415   -1.7114549  0.055015758   -3.0085415    1.2970866   545227 
 1371000   0.99807679   -3.0076707   -3.0076707   -1.7110717   0.05772097   -3.0076707     1.296599   545227 
 1372000   0.99923314   -3.0084105   -3.0084105   -1.7103093  0.063360921   -3.0084105    1.2981012   545227 
 1373000   0.99855366   -3.0068289   -3.0068289   -1.7096103  0.069645866   -3.0068289    1.2972185   545227 
 1374000   0.99831725   -3.0075252   -3.0075252   -1.7106138  0.057316601   -3.0075252    1.2969114   545227 
 1375000    0.9993577   -3.0078188   -3.0078188   -1.7095557  0.064530542   -3.0078188     1.298263   545227 
 1376000   0.99872631   -3.0072813   -3.0072813   -1.7098385  0.060442839   -3.0072813    1.2974428   545227 
 1377000   0.99782049   -3.0067252   -3.0067252   -1.7104592  0.061601075   -3.0067252     1.296266   545227 
 1378000   0.99935365   -3.0086753   -3.0086753   -1.7104175  0.063300943   -3.0086753    1.2982578   545227 
 1379000   0.99738618    -3.006592    -3.006592   -1.7108902  0.064923057    -3.006592    1.2957018   545227 
 1380000   0.99705869   -3.0062866   -3.0062866   -1.7110103  0.062925601   -3.0062866    1.2952764   545227 
 1381000   0.99807992   -3.0078503   -3.0078503   -1.7112472  0.056309976   -3.0078503    1.2966031   545227 
 1382000   0.99841932    -3.008709    -3.008709    -1.711665  0.066548819    -3.008709     1.297044   545227 
 1383000    0.9970866   -3.0075702   -3.0075702   -1.7122576  0.059798006   -3.0075702    1.2953126   545227 
 1384000   0.99780955   -3.0082203   -3.0082203   -1.7119684  0.064304399   -3.0082203    1.2962518   545227 
 1385000   0.99819315   -3.0093298   -3.0093298   -1.7125797  0.056238439   -3.0093298    1.2967502   545227 
 1386000   0.99772455   -3.0082805   -3.0082805   -1.7121391  0.064402664   -3.0082805    1.2961414   545227 
 1387000   0.99891309   -3.0100349   -3.0100349   -1.7123495  0.059831646   -3.0100349    1.2976854   545227 
 1388000   0.99883609   -3.0092656   -3.0092656   -1.7116802  0.069082098   -3.0092656    1.2975854   545227 
 1389000   0.99764891   -3.0074562   -3.0074562    -1.711413  0.054930547   -3.0074562    1.2960431   545227 
 1390000   0.99822371   -3.0080889   -3.0080889    -1.711299  0.057567032   -3.0080889    1.2967899   545227 
 1391000   0.99720027   -3.0074936   -3.0074936   -1.7120333  0.059989818   -3.0074936    1.2954603   545227 
 1392000   0.99603295   -3.0069703   -3.0069703   -1.7130264  0.074348171   -3.0069703    1.2939439   545227 
 1393000    0.9975195   -3.0082295   -3.0082295   -1.7123545  0.061198621   -3.0082295     1.295875   545227 
 1394000   0.99757737   -3.0080481   -3.0080481   -1.7120979  0.060198753   -3.0080481    1.2959502   545227 
 1395000   0.99757552   -3.0093133   -3.0093133   -1.7133655   0.06550354   -3.0093133    1.2959478   545227 
 1396000   0.99865142   -3.0099282   -3.0099282   -1.7125827  0.059753648   -3.0099282    1.2973455   545227 
 1397000   0.99874438   -3.0088734   -3.0088734   -1.7114071  0.061758319   -3.0088734    1.2974663   545227 
 1398000   0.99891162   -3.0089133   -3.0089133   -1.7112297  0.061335122   -3.0089133    1.2976835   545227 
 1399000    0.9983967   -3.0082669   -3.0082669   -1.7112523  0.069568306   -3.0082669    1.2970146   545227 
 1400000    0.9986752   -3.0082193   -3.0082193   -1.7108429   0.07517197   -3.0082193    1.2973764   545227 
 1401000   0.99870933   -3.0084611   -3.0084611   -1.7110404  0.067696868   -3.0084611    1.2974207   545227 
 1402000   0.99747854   -3.0069049   -3.0069049    -1.711083  0.066755328   -3.0069049    1.2958218   545227 
 1403000   0.99778543   -3.0078666   -3.0078666   -1.7116461   0.06520125   -3.0078666    1.2962205   545227 
 1404000    0.9984801   -3.0089682   -3.0089682   -1.7118453   0.05454737   -3.0089682    1.2971229   545227 
 1405000   0.99829654   -3.0082418   -3.0082418   -1.7113573  0.069062606   -3.0082418    1.2968845   545227 
 1406000   0.99891858   -3.0089981   -3.0089981   -1.7113056  0.068607423   -3.0089981    1.2976926   545227 
 1407000   0.99945149   -3.0100564   -3.0100564   -1.7116715  0.069235877   -3.0100564    1.2983849   545227 
 1408000   0.99914705   -3.0095373   -3.0095373   -1.7115479  0.063589232   -3.0095373    1.2979894   545227 
 1409000   0.99728529   -3.0084161   -3.0084161   -1.7128453  0.065175462   -3.0084161    1.2955708   545227 
 1410000   0.99606876   -3.0071248   -3.0071248   -1.7131344  0.060723972   -3.0071248    1.2939904   545227 
 1411000   0.99715236   -3.0091725   -3.0091725   -1.7137744  0.054650178   -3.0091725    1.2953981   545227 
 1412000   0.99713932   -3.0081496   -3.0081496   -1.7127685  0.072405422   -3.0081496    1.2953811   545227 
 1413000   0.99661847   -3.0069107   -3.0069107   -1.7122062  0.065279161   -3.0069107    1.2947045   545227 
 1414000   0.99633952     -3.00693     -3.00693   -1.7125879  0.054708244     -3.00693    1.2943421   545227 
 1415000   0.99681774   -3.0078819   -3.0078819   -1.7129185  0.057305008   -3.0078819    1.2949634   545227 
 1416000   0.99806391   -3.0088659   -3.0088659   -1.7122837  0.054559253   -3.0088659    1.2965823   545227 
 1417000   0.99711052   -3.0078486   -3.0078486   -1.7125049  0.061652478   -3.0078486    1.2953437   545227 
 1418000   0.99813356   -3.0083044   -3.0083044   -1.7116317  0.066959774   -3.0083044    1.2966727   545227 
 1419000   0.99940384   -3.0096095   -3.0096095   -1.7112865  0.058603327   -3.0096095     1.298323   545227 
 1420000    1.0000597   -3.0105579   -3.0105579   -1.7113829  0.057642546   -3.0105579     1.299175   545227 
 1421000   0.99796959   -3.0073147   -3.0073147    -1.710855  0.064494565   -3.0073147    1.2964597   545227 
 1422000   0.99779998    -3.007669    -3.007669   -1.7114296  0.065620509    -3.007669    1.2962394   545227 
 1423000    1.0009313   -3.0117018   -3.0117018   -1.7113945  0.050580954   -3.0117018    1.3003073   545227 
 1424000    1.0001088   -3.0101647   -3.0101647   -1.7109259  0.069399641   -3.0101647    1.2992388   545227 
 1425000    0.9992802   -3.0084874   -3.0084874   -1.7103251  0.070901474   -3.0084874    1.2981624   545227 
 1426000   0.99885587   -3.0090152   -3.0090152   -1.7114041  0.062098855   -3.0090152    1.2976111   545227 
 1427000   0.99918351   -3.0100337   -3.0100337    -1.711997  0.054620515   -3.0100337    1.2980367   545227 
 1428000    0.9981027   -3.0088597   -3.0088597    -1.712227  0.058104258   -3.0088597    1.2966327   545227 
 1429000   0.99960467   -3.0107393   -3.0107393   -1.7121554  0.059566661   -3.0107393    1.2985839   545227 
 1430000    0.9974353   -3.0079046   -3.0079046   -1.7121389  0.062691806   -3.0079046    1.2957656   545227 
 1431000    0.9974968   -3.0082616   -3.0082616   -1.7124161  0.065541187   -3.0082616    1.2958455   545227 
 1432000   0.99868937   -3.0094888   -3.0094888    -1.712094  0.068284123   -3.0094888    1.2973948   545227 
 1433000   0.99879465   -3.0093065   -3.0093065   -1.7117749   0.05925857   -3.0093065    1.2975316   545227 
 1434000   0.99797722   -3.0085665   -3.0085665   -1.7120969   0.06158521   -3.0085665    1.2964696   545227 
 1435000    0.9987225   -3.0098674   -3.0098674   -1.7124295  0.066948154   -3.0098674    1.2974378   545227 
 1436000   0.99876546   -3.0092376   -3.0092376    -1.711744  0.067264672   -3.0092376    1.2974937   545227 
 1437000    0.9980638   -3.0092279   -3.0092279   -1.7126458  0.066634733   -3.0092279    1.2965821   545227 
 1438000   0.99684439   -3.0076683   -3.0076683   -1.7126703  0.069281912   -3.0076683     1.294998   545227 
 1439000   0.99845285   -3.0091908   -3.0091908   -1.7121033  0.058872862   -3.0091908    1.2970875   545227 
 1440000   0.99829478   -3.0091598   -3.0091598   -1.7122776  0.066606686   -3.0091598    1.2968822   545227 
 1441000   0.99901806   -3.0098054   -3.0098054   -1.7119836  0.063231114   -3.0098054    1.2978218   545227 
 1442000   0.99912015    -3.009012    -3.009012   -1.7110576  0.063116664    -3.009012    1.2979544   545227 
 1443000   0.99883012   -3.0089971   -3.0089971   -1.7114194  0.060860212   -3.0089971    1.2975776   545227 
 1444000   0.99876663   -3.0092114   -3.0092114   -1.7117162  0.059618304   -3.0092114    1.2974952   545227 
 1445000   0.99797114   -3.0081283   -3.0081283   -1.7116666  0.060924316   -3.0081283    1.2964617   545227 
 1446000   0.99853641   -3.0078228   -3.0078228   -1.7106268    0.0485728   -3.0078228    1.2971961   545227 
 1447000   0.99930822    -3.009353    -3.009353   -1.7111542  0.063191906    -3.009353    1.2981987   545227 
 1448000   0.99891123   -3.0086884   -3.0086884   -1.7110054  0.060608394   -3.0086884     1.297683   545227 
 1449000   0.99817689   -3.0080163   -3.0080163   -1.7112873  0.062217121   -3.0080163     1.296729   545227 
 1450000    0.9984777   -3.0082313   -3.0082313   -1.7111115  0.063300444   -3.0082313    1.2971198   545227 
 1451000   0.99734787   -3.0059024   -3.0059024   -1.7102503   0.06049195   -3.0059024    1.2956521   545227 
 1452000   0.99913625   -3.0090344   -3.0090344   -1.7110591  0.061698338   -3.0090344    1.2979753   545227 
 1453000   0.99882522   -3.0088222   -3.0088222    -1.711251  0.064051623   -3.0088222    1.2975713   545227 
 1454000   0.99788741   -3.0057388   -3.0057388   -1.7093858  0.065096321   -3.0057388     1.296353   545227 
 1455000   0.99766644   -3.0075004   -3.0075004   -1.7114345  0.065598235   -3.0075004    1.2960659   545227 
 1456000   0.99806784   -3.0076079   -3.0076079   -1.7110205  0.055144808   -3.0076079    1.2965874   545227 
 1457000   0.99773558   -3.0080841   -3.0080841   -1.7119284  0.059645278   -3.0080841    1.2961557   545227 
 1458000   0.99800057   -3.0074225   -3.0074225   -1.7109225  0.064295554   -3.0074225       1.2965   545227 
 1459000   0.99671905   -3.0063184   -3.0063184   -1.7114832  0.068880921   -3.0063184    1.2948352   545227 
 1460000   0.99780194   -3.0082834   -3.0082834   -1.7120415  0.066835195   -3.0082834    1.2962419   545227 
 1461000   0.99738966   -3.0073156   -3.0073156   -1.7116092  0.059165278   -3.0073156    1.2957063   545227 
 1462000   0.99717142   -3.0067449   -3.0067449    -1.711322  0.068223744   -3.0067449    1.2954228   545227 
 1463000    0.9977083   -3.0079037   -3.0079037   -1.7117834  0.060321597   -3.0079037    1.2961203   545227 
 1464000   0.99826992   -3.0085328   -3.0085328   -1.7116829  0.056345717   -3.0085328    1.2968499   545227 
 1465000   0.99987664   -3.0100748   -3.0100748   -1.7111376  0.064443407   -3.0100748    1.2989372   545227 
 1466000    1.0003386   -3.0107106   -3.0107106   -1.7111733  0.063833143   -3.0107106    1.2995373   545227 
 1467000   0.99880686   -3.0085053   -3.0085053   -1.7109579  0.061375468   -3.0085053    1.2975474   545227 
 1468000    0.9993777   -3.0097722   -3.0097722   -1.7114832  0.061622334   -3.0097722     1.298289   545227 
 1469000    1.0001682   -3.0101023   -3.0101023   -1.7107864  0.063127945   -3.0101023    1.2993159   545227 
 1470000   0.99895846    -3.007602    -3.007602   -1.7098576   0.06740858    -3.007602    1.2977444   545227 
 1471000    0.9987845   -3.0074565   -3.0074565   -1.7099381  0.065861978   -3.0074565    1.2975184   545227 
 1472000   0.99992675   -3.0093546   -3.0093546   -1.7103523  0.059804355   -3.0093546    1.2990023   545227 
 1473000   0.99835316   -3.0069903   -3.0069903   -1.7100323  0.067153893   -3.0069903     1.296958   545227 
 1474000    1.0000634   -3.0091992   -3.0091992   -1.7100195  0.064978391   -3.0091992    1.2991798   545227 
 1475000   0.99978783   -3.0083296   -3.0083296   -1.7095078  0.066116372   -3.0083296    1.2988218   545227 
 1476000   0.99988221   -3.0081806   -3.0081806   -1.7092362  0.061856472   -3.0081806    1.2989444   545227 
 1477000    1.0000518    -3.008649    -3.008649   -1.7094843  0.067714547    -3.008649    1.2991647   545227 
 1478000    1.0009999   -3.0099579   -3.0099579   -1.7095615  0.068101489   -3.0099579    1.3003964   545227 
 1479000    1.0003593    -3.010451    -3.010451   -1.7108868  0.065257912    -3.010451    1.2995642   545227 
 1480000   0.99952747   -3.0084374   -3.0084374   -1.7099539  0.072539996   -3.0084374    1.2984836   545227 
 1481000   0.99964632   -3.0079857   -3.0079857   -1.7093477  0.063900031   -3.0079857     1.298638   545227 
 1482000   0.99966144   -3.0083771   -3.0083771   -1.7097195  0.064293844   -3.0083771    1.2986576   545227 
 1483000    0.9989229   -3.0075607   -3.0075607   -1.7098625   0.05794432   -3.0075607    1.2976982   545227 
 1484000   0.99868947   -3.0062852   -3.0062852   -1.7088903  0.057675167   -3.0062852    1.2973949   545227 
 1485000   0.99772576   -3.0059037   -3.0059037   -1.7097607  0.061785514   -3.0059037     1.296143   545227 
 1486000   0.99760641   -3.0053756   -3.0053756   -1.7093877  0.062676264   -3.0053756    1.2959879   545227 
 1487000   0.99915561   -3.0072961   -3.0072961   -1.7092956  0.053697432   -3.0072961    1.2980005   545227 
 1488000   0.99722884   -3.0049939   -3.0049939   -1.7094964  0.058069699   -3.0049939    1.2954974   545227 
 1489000   0.99758129   -3.0062251   -3.0062251   -1.7102698  0.064525391   -3.0062251    1.2959553   545227 
 1490000   0.99749318   -3.0057857   -3.0057857   -1.7099449  0.067431474   -3.0057857    1.2958408   545227 
 1491000     0.997441   -3.0063823   -3.0063823   -1.7106093  0.057396343   -3.0063823    1.2957731   545227 
 1492000   0.99888701   -3.0080014   -3.0080014   -1.7103499  0.064911025   -3.0080014    1.2976516   545227 
 1493000    0.9994783   -3.0079564   -3.0079564   -1.7095367  0.057746626   -3.0079564    1.2984197   545227 
 1494000   0.99944914   -3.0083293   -3.0083293   -1.7099474  0.057090504   -3.0083293    1.2983818   545227 
 1495000   0.99901499   -3.0071367   -3.0071367   -1.7093189  0.055007463   -3.0071367    1.2978178   545227 
 1496000   0.99881247   -3.0069099   -3.0069099   -1.7093552  0.063639118   -3.0069099    1.2975547   545227 
 1497000    1.0003406   -3.0077248   -3.0077248   -1.7081849   0.06199275   -3.0077248    1.2995399   545227 
 1498000    1.0000354   -3.0073073   -3.0073073   -1.7081639  0.060748564   -3.0073073    1.2991434   545227 
 1499000    1.0013192   -3.0093494   -3.0093494   -1.7085382  0.065912922   -3.0093494    1.3008113   545227 
 1500000    0.9989931   -3.0077852   -3.0077852   -1.7099958  0.075041159   -3.0077852    1.2977894   545227 
 1501000    1.0005358   -3.0091038   -3.0091038   -1.7093103  0.059784681   -3.0091038    1.2997935   545227 
 1502000   0.99725317   -3.0052883   -3.0052883   -1.7097593  0.073050712   -3.0052883     1.295529   545227 
 1503000    0.9989711   -3.0072992   -3.0072992   -1.7095384   0.06543857   -3.0072992    1.2977608   545227 
 1504000   0.99855491   -3.0076397   -3.0076397   -1.7104195  0.061737169   -3.0076397    1.2972201   545227 
 1505000   0.99901184   -3.0087138   -3.0087138   -1.7109001    0.0600686   -3.0087138    1.2978137   545227 
 1506000    1.0009953   -3.0102321   -3.0102321   -1.7098416  0.057819965   -3.0102321    1.3003905   545227 
 1507000   0.99954863   -3.0086307   -3.0086307   -1.7101196  0.066704301   -3.0086307    1.2985111   545227 
 1508000   0.99983979   -3.0086818   -3.0086818   -1.7097925   0.06582993   -3.0086818    1.2988893   545227 
 1509000       0.9992   -3.0081269   -3.0081269   -1.7100687  0.074799449   -3.0081269    1.2980582   545227 
 1510000   0.99911694   -3.0083004   -3.0083004   -1.7103501  0.062978039   -3.0083004    1.2979503   545227 
 1511000   0.99922032    -3.008951    -3.008951   -1.7108664  0.069100075    -3.008951    1.2980846   545227 
 1512000   0.99993164   -3.0091144   -3.0091144   -1.7101057  0.065846836   -3.0091144    1.2990086   545227 
 1513000     1.000996   -3.0099448   -3.0099448   -1.7095536  0.063735837   -3.0099448    1.3003913   545227 
 1514000    1.0002088   -3.0094716   -3.0094716   -1.7101029  0.064339473   -3.0094716    1.2993687   545227 
 1515000   0.99836854   -3.0076084   -3.0076084   -1.7106304  0.066581483   -3.0076084     1.296978   545227 
 1516000   0.99950611   -3.0088972   -3.0088972   -1.7104414  0.060988761   -3.0088972    1.2984558   545227 
 1517000   0.99879466   -3.0077735   -3.0077735    -1.710242  0.061340787   -3.0077735    1.2975316   545227 
 1518000   0.99875075   -3.0075812   -3.0075812   -1.7101066  0.066436237   -3.0075812    1.2974745   545227 
 1519000   0.99771562   -3.0058763   -3.0058763   -1.7097465  0.062134719   -3.0058763    1.2961298   545227 
 1520000   0.99659336     -3.00506     -3.00506   -1.7103881  0.064832961     -3.00506    1.2946719   545227 
 1521000   0.99830682   -3.0077265   -3.0077265   -1.7108287  0.065666607   -3.0077265    1.2968978   545227 
 1522000   0.99846117   -3.0086203   -3.0086203   -1.7115219  0.057108939   -3.0086203    1.2970983   545227 
 1523000   0.99790737   -3.0083974   -3.0083974   -1.7120185   0.06297161   -3.0083974    1.2963789   545227 
 1524000   0.99795692   -3.0086235   -3.0086235   -1.7121803  0.062220114   -3.0086235    1.2964433   545227 
 1525000    0.9978652   -3.0070983   -3.0070983   -1.7107741  0.064535368   -3.0070983    1.2963241   545227 
 1526000   0.99870231   -3.0079918   -3.0079918   -1.7105802  0.059205057   -3.0079918    1.2974116   545227 
 1527000   0.99947616   -3.0089723   -3.0089723   -1.7105554   0.05676144   -3.0089723    1.2984169   545227 
 1528000   0.99813318   -3.0075119   -3.0075119   -1.7108396  0.064024457   -3.0075119    1.2966723   545227 
 1529000   0.99889906   -3.0085395   -3.0085395   -1.7108723  0.066779646   -3.0085395    1.2976672   545227 
 1530000    0.9977572   -3.0078474   -3.0078474   -1.7116635  0.063963303   -3.0078474    1.2961838   545227 
 1531000    0.9987948     -3.00823     -3.00823   -1.7106983  0.058842435     -3.00823    1.2975318   545227 
 1532000   0.99947201   -3.0083641   -3.0083641   -1.7099525    0.0622313   -3.0083641    1.2984115   545227 
 1533000   0.99976839   -3.0086055   -3.0086055    -1.709809  0.068755165   -3.0086055    1.2987966   545227 
 1534000   0.99892429   -3.0086654   -3.0086654   -1.7109654  0.061739594   -3.0086654       1.2977   545227 
 1535000   0.99769086   -3.0074759   -3.0074759   -1.7113783  0.067761583   -3.0074759    1.2960976   545227 
 1536000   0.99911661   -3.0086966   -3.0086966   -1.7107468   0.06769462   -3.0086966    1.2979498   545227 
 1537000   0.99915095   -3.0088626   -3.0088626   -1.7108681   0.06263882   -3.0088626    1.2979944   545227 
 1538000   0.99990319   -3.0102818   -3.0102818   -1.7113101  0.066746354   -3.0102818    1.2989717   545227 
 1539000   0.99826984   -3.0083869   -3.0083869   -1.7115371  0.061891659   -3.0083869    1.2968498   545227 
 1540000   0.99759563   -3.0071051   -3.0071051   -1.7111312  0.058513899   -3.0071051    1.2959739   545227 
 1541000   0.99895486   -3.0080407   -3.0080407    -1.710301  0.060361109   -3.0080407    1.2977397   545227 
 1542000   0.99841173   -3.0070424   -3.0070424   -1.7100083  0.067462579   -3.0070424    1.2970341   545227 
 1543000   0.99956801   -3.0084906   -3.0084906   -1.7099543   0.06620754   -3.0084906    1.2985362   545227 
 1544000    1.0003408   -3.0098808   -3.0098808   -1.7103407  0.059062631   -3.0098808    1.2995401   545227 
 1545000   0.99938573   -3.0087248   -3.0087248   -1.7104253   0.06746214   -3.0087248    1.2982994   545227 
 1546000    1.0004599   -3.0091584   -3.0091584   -1.7094635    0.0560756   -3.0091584    1.2996949   545227 
 1547000   0.99892222   -3.0072647   -3.0072647   -1.7095674  0.061515312   -3.0072647    1.2976973   545227 
 1548000   0.99993718   -3.0090806   -3.0090806   -1.7100647  0.066295927   -3.0090806    1.2990158   545227 
 1549000   0.99995532   -3.0095385   -3.0095385   -1.7104991  0.060124541   -3.0095385    1.2990394   545227 
 1550000   0.99859754   -3.0084217   -3.0084217   -1.7111462  0.064189946   -3.0084217    1.2972755   545227 
 1551000   0.99845328   -3.0084432   -3.0084432   -1.7113551   0.06456855   -3.0084432    1.2970881   545227 
 1552000   0.99945236   -3.0099092   -3.0099092   -1.7115232   0.06124706   -3.0099092     1.298386   545227 
 1553000    1.0000244   -3.0093859   -3.0093859   -1.7102568  0.071870101   -3.0093859    1.2991291   545227 
 1554000   0.99979714   -3.0098046   -3.0098046   -1.7109707   0.05557306   -3.0098046    1.2988339   545227 
 1555000    0.9989357   -3.0082253   -3.0082253   -1.7105105  0.056412419   -3.0082253    1.2977148   545227 
 1556000   0.99876716   -3.0079752   -3.0079752   -1.7104793  0.058000645   -3.0079752    1.2974959   545227 
 1557000   0.99836569   -3.0073123   -3.0073123    -1.710338  0.059577461   -3.0073123    1.2969743   545227 
 1558000   0.99827733    -3.007472    -3.007472   -1.7106125  0.070336212    -3.007472    1.2968595   545227 
 1559000    0.9986475   -3.0076761   -3.0076761   -1.7103357  0.071012857   -3.0076761    1.2973404   545227 
 1560000   0.99911536   -3.0083245   -3.0083245   -1.7103762  0.063790188   -3.0083245    1.2979482   545227 
 1561000   0.99972405   -3.0095275   -3.0095275   -1.7107886   0.05480018   -3.0095275     1.298739   545227 
 1562000    0.9984033   -3.0070023   -3.0070023   -1.7099791  0.059569517   -3.0070023    1.2970232   545227 
 1563000   0.99786377   -3.0075782   -3.0075782   -1.7112559  0.057056446   -3.0075782    1.2963223   545227 
 1564000   0.99709723   -3.0079731   -3.0079731   -1.7126466  0.067275691   -3.0079731    1.2953265   545227 
 1565000   0.99624631    -3.007445    -3.007445    -1.713224  0.053649603    -3.007445     1.294221   545227 
 1566000   0.99539358   -3.0066417   -3.0066417   -1.7135284  0.057489732   -3.0066417    1.2931133   545227 
 1567000   0.99663821    -3.007388    -3.007388   -1.7126578  0.062041058    -3.007388    1.2947301   545227 
 1568000   0.99538946   -3.0052579   -3.0052579     -1.71215  0.067026928   -3.0052579    1.2931079   545227 
 1569000   0.99704613   -3.0081065   -3.0081065   -1.7128464  0.062994807   -3.0081065    1.2952601   545227 
 1570000   0.99764683   -3.0082424   -3.0082424    -1.712202  0.058976931   -3.0082424    1.2960404   545227 
 1571000    0.9978988   -3.0089225   -3.0089225   -1.7125547  0.056602575   -3.0089225    1.2963678   545227 
 1572000   0.99735088   -3.0065081   -3.0065081   -1.7108522   0.06237069   -3.0065081     1.295656   545227 
 1573000   0.99780652   -3.0078434   -3.0078434   -1.7115955  0.062091579   -3.0078434    1.2962479   545227 
 1574000   0.99748179   -3.0075655   -3.0075655   -1.7117394  0.072057816   -3.0075655     1.295826   545227 
 1575000   0.99945942   -3.0101055   -3.0101055   -1.7117103  0.061008706   -3.0101055    1.2983952   545227 
 1576000   0.99877738   -3.0082725   -3.0082725   -1.7107634  0.063561463   -3.0082725    1.2975091   545227 
 1577000   0.99913269   -3.0085825   -3.0085825   -1.7106118  0.067412359   -3.0085825    1.2979707   545227 
 1578000    0.9987571   -3.0089344   -3.0089344   -1.7114516  0.066504019   -3.0089344    1.2974828   545227 
 1579000    0.9993051   -3.0083393   -3.0083393   -1.7101446  0.065029338   -3.0083393    1.2981947   545227 
 1580000   0.99832284    -3.007718    -3.007718   -1.7107993  0.050883247    -3.007718    1.2969186   545227 
 1581000   0.99824696   -3.0081767   -3.0081767   -1.7113566  0.055380627   -3.0081767    1.2968201   545227 
 1582000    0.9993831   -3.0086962   -3.0086962   -1.7104002  0.061520375   -3.0086962     1.298296   545227 
 1583000   0.99841964   -3.0069866   -3.0069866   -1.7099422  0.070616414   -3.0069866    1.2970444   545227 
 1584000    0.9991585   -3.0087962   -3.0087962    -1.710792  0.069957282   -3.0087962    1.2980043   545227 
 1585000   0.99931571   -3.0090582   -3.0090582   -1.7108497  0.062133921   -3.0090582    1.2982085   545227 
 1586000   0.99786188   -3.0068944   -3.0068944   -1.7105746  0.067834823   -3.0068944    1.2963198   545227 
 1587000   0.99946686   -3.0077354   -3.0077354   -1.7093306   0.07149632   -3.0077354    1.2984048   545227 
 1588000    1.0005674   -3.0095734   -3.0095734   -1.7097388  0.063449234   -3.0095734    1.2998346   545227 
 1589000   0.99991864   -3.0084452   -3.0084452   -1.7094535  0.064627921   -3.0084452    1.2989917   545227 
 1590000   0.99810136    -3.007774    -3.007774    -1.711143   0.05799986    -3.007774    1.2966309   545227 
 1591000   0.99753105   -3.0078672   -3.0078672   -1.7119772  0.061626314   -3.0078672      1.29589   545227 
 1592000   0.99833485    -3.008309    -3.008309   -1.7113748  0.061123863    -3.008309    1.2969342   545227 
 1593000   0.99938279   -3.0091313   -3.0091313   -1.7108357  0.062452583   -3.0091313    1.2982956   545227 
 1594000   0.99813078   -3.0072132   -3.0072132    -1.710544  0.061293621   -3.0072132    1.2966691   545227 
 1595000   0.99832012   -3.0075213   -3.0075213   -1.7106061  0.065651064   -3.0075213    1.2969151   545227 
 1596000   0.99902407   -3.0092385   -3.0092385   -1.7114089  0.066917463   -3.0092385    1.2978296   545227 
 1597000   0.99853761    -3.007984    -3.007984   -1.7107864  0.066099943    -3.007984    1.2971977   545227 
 1598000   0.99857323   -3.0080264   -3.0080264   -1.7107824  0.059593031   -3.0080264    1.2972439   545227 
 1599000    0.9988574   -3.0086041   -3.0086041    -1.710991  0.061535615   -3.0086041    1.2976131   545227 
 1600000   0.99831387   -3.0082614   -3.0082614   -1.7113544  0.059068269   -3.0082614     1.296907   545227 
 1601000   0.99812552   -3.0067589   -3.0067589   -1.7100966  0.066769916   -3.0067589    1.2966623   545227 
 1602000    0.9992658   -3.0091423   -3.0091423   -1.7109986  0.067418162   -3.0091423    1.2981436   545227 
 1603000   0.99844789   -3.0080948   -3.0080948   -1.7110137  0.064189875   -3.0080948    1.2970811   545227 
 1604000   0.99933613   -3.0088675   -3.0088675   -1.7106325    0.0573031   -3.0088675     1.298235   545227 
 1605000   0.99765065   -3.0068748   -3.0068748   -1.7108294  0.065021276   -3.0068748    1.2960454   545227 
 1606000   0.99820245   -3.0067648   -3.0067648   -1.7100025  0.062129919   -3.0067648    1.2967622   545227 
 1607000   0.99927152   -3.0075354   -3.0075354   -1.7093844  0.061022674   -3.0075354    1.2981511   545227 
 1608000   0.99845953    -3.006929    -3.006929   -1.7098328  0.070484479    -3.006929    1.2970962   545227 
 1609000    0.9990706   -3.0069816   -3.0069816   -1.7090915  0.063552134   -3.0069816    1.2978901   545227 
 1610000    1.0013956   -3.0101256   -3.0101256   -1.7092151  0.065866582   -3.0101256    1.3009104   545227 
 1611000   0.99975812   -3.0087146   -3.0087146   -1.7099314  0.066671068   -3.0087146    1.2987832   545227 
 1612000   0.99925861   -3.0072271   -3.0072271   -1.7090927  0.065406114   -3.0072271    1.2981343   545227 
 1613000   0.99873515   -3.0067931   -3.0067931   -1.7093388  0.055906419   -3.0067931    1.2974543   545227 
 1614000   0.99778055   -3.0063534   -3.0063534   -1.7101393  0.068364912   -3.0063534    1.2962142   545227 
 1615000    0.9990768    -3.007009    -3.007009   -1.7091109  0.061555073    -3.007009    1.2978981   545227 
 1616000    1.0002174   -3.0078374   -3.0078374   -1.7084575  0.058200253   -3.0078374    1.2993799   545227 
 1617000   0.99888838   -3.0066942   -3.0066942   -1.7090408  0.066278182   -3.0066942    1.2976533   545227 
 1618000   0.99855272    -3.006166    -3.006166   -1.7089487  0.061773223    -3.006166    1.2972173   545227 
 1619000   0.99806456   -3.0059197   -3.0059197   -1.7093366  0.067141787   -3.0059197    1.2965831   545227 
 1620000    0.9992127   -3.0080297   -3.0080297    -1.709955  0.061499634   -3.0080297    1.2980747   545227 
 1621000   0.99759903   -3.0053727   -3.0053727   -1.7093944  0.061264684   -3.0053727    1.2959783   545227 
 1622000   0.99780675    -3.004846    -3.004846   -1.7085978  0.066393903    -3.004846    1.2962482   545227 
 1623000   0.99840255   -3.0056461   -3.0056461   -1.7086239  0.061060261   -3.0056461    1.2970222   545227 
 1624000   0.99989679   -3.0085427   -3.0085427   -1.7095793  0.052648774   -3.0085427    1.2989634   545227 
 1625000   0.99874926   -3.0050467   -3.0050467   -1.7075741  0.057408046   -3.0050467    1.2974726   545227 
 1626000    1.0000086   -3.0070386   -3.0070386   -1.7079299  0.068061699   -3.0070386    1.2991087   545227 
 1627000    0.9996034   -3.0071968   -3.0071968   -1.7086145  0.050431694   -3.0071968    1.2985822   545227 
 1628000   0.99915747   -3.0065877   -3.0065877   -1.7085848  0.066300872   -3.0065877    1.2980029   545227 
 1629000   0.99773962   -3.0050231   -3.0050231   -1.7088621  0.061943128   -3.0050231     1.296161   545227 
 1630000    1.0003251   -3.0075815   -3.0075815   -1.7080618  0.061316097   -3.0075815    1.2995197   545227 
 1631000   0.99988064   -3.0072645   -3.0072645   -1.7083221  0.066670308   -3.0072645    1.2989424   545227 
 1632000   0.99905768   -3.0065611   -3.0065611   -1.7086878  0.065597275   -3.0065611    1.2978733   545227 
 1633000   0.99798472   -3.0062951   -3.0062951   -1.7098157  0.064102488   -3.0062951    1.2964794   545227 
 1634000   0.99823548   -3.0072999   -3.0072999   -1.7104947   0.06765559   -3.0072999    1.2968052   545227 
 1635000   0.99751116   -3.0065099   -3.0065099   -1.7106457  0.059701545   -3.0065099    1.2958642   545227 
 1636000   0.99654966   -3.0054758   -3.0054758   -1.7108607  0.063689567   -3.0054758    1.2946151   545227 
 1637000   0.99948877   -3.0084075   -3.0084075   -1.7099742  0.060252028   -3.0084075    1.2984333   545227 
 1638000   0.99918366   -3.0080072   -3.0080072   -1.7099703  0.069960579   -3.0080072    1.2980369   545227 
 1639000    1.0002958   -3.0092706   -3.0092706   -1.7097888     0.057912   -3.0092706    1.2994818   545227 
 1640000   0.99800868    -3.006508    -3.006508   -1.7099975  0.062447851    -3.006508    1.2965105   545227 
 1641000   0.99770382   -3.0066187   -3.0066187   -1.7105042  0.057783568   -3.0066187    1.2961145   545227 
 1642000   0.99752744   -3.0066987   -3.0066987   -1.7108134  0.060023037   -3.0066987    1.2958853   545227 
 1643000   0.99789297   -3.0066607   -3.0066607   -1.7103005  0.060975423   -3.0066607    1.2963602   545227 
 1644000   0.99920478   -3.0086254   -3.0086254   -1.7105611  0.063347845   -3.0086254    1.2980644   545227 
 1645000   0.99913338   -3.0079513   -3.0079513   -1.7099797  0.063114214   -3.0079513    1.2979716   545227 
 1646000   0.99846651   -3.0072428   -3.0072428   -1.7101375  0.079295037   -3.0072428    1.2971053   545227 
 1647000   0.99906741   -3.0090854   -3.0090854   -1.7111995  0.061646547   -3.0090854    1.2978859   545227 
 1648000    0.9980396   -3.0073381   -3.0073381   -1.7107874  0.072335362   -3.0073381    1.2965507   545227 
 1649000    1.0002643   -3.0090052   -3.0090052   -1.7095644  0.062525637   -3.0090052    1.2994408   545227 
 1650000   0.99974135   -3.0087843   -3.0087843   -1.7100229  0.062047436   -3.0087843    1.2987614   545227 
 1651000   0.99965499   -3.0085391   -3.0085391   -1.7098899  0.063716557   -3.0085391    1.2986492   545227 
 1652000   0.99868438   -3.0072336   -3.0072336   -1.7098453  0.071008071   -3.0072336    1.2973883   545227 
 1653000    1.0011611   -3.0106617   -3.0106617   -1.7100559  0.061000383   -3.0106617    1.3006058   545227 
 1654000    1.0010127   -3.0095716   -3.0095716   -1.7091585  0.062120556   -3.0095716    1.3004131   545227 
 1655000   0.99946633   -3.0086097   -3.0086097   -1.7102056    0.0695666   -3.0086097    1.2984042   545227 
 1656000    1.0000009   -3.0088129   -3.0088129   -1.7097143  0.063566841   -3.0088129    1.2990986   545227 
 1657000    1.0006242   -3.0093157   -3.0093157   -1.7094074  0.068246238   -3.0093157    1.2999083   545227 
 1658000    1.0004703   -3.0090144   -3.0090144    -1.709306   0.06435151   -3.0090144    1.2997084   545227 
 1659000    1.0003537     -3.00831     -3.00831    -1.708753  0.073081078     -3.00831     1.299557   545227 
 1660000    1.0002907   -3.0081217   -3.0081217   -1.7086466  0.061754083   -3.0081217    1.2994751   545227 
 1661000   0.99915796   -3.0069206   -3.0069206   -1.7089171  0.065393339   -3.0069206    1.2980035   545227 
 1662000    0.9986531    -3.006743    -3.006743   -1.7093953  0.060283175    -3.006743    1.2973477   545227 
 1663000   0.99955932   -3.0069787   -3.0069787   -1.7084537  0.056961785   -3.0069787     1.298525   545227 
 1664000   0.99872838    -3.006185    -3.006185   -1.7087396  0.065528163    -3.006185    1.2974455   545227 
 1665000   0.99758549   -3.0043536   -3.0043536   -1.7083929  0.068459144   -3.0043536    1.2959608   545227 
 1666000   0.99858473   -3.0062215   -3.0062215   -1.7089627  0.061725526   -3.0062215    1.2972589   545227 
 1667000   0.99844503   -3.0054449   -3.0054449   -1.7083675  0.063802907   -3.0054449    1.2970774   545227 
 1668000   0.99857064   -3.0055223   -3.0055223   -1.7082818  0.069499851   -3.0055223    1.2972406   545227 
 1669000   0.99854108   -3.0050456   -3.0050456   -1.7078435  0.058494459   -3.0050456    1.2972022   545227 
 1670000   0.99999886   -3.0064668   -3.0064668   -1.7073709  0.066938813   -3.0064668     1.299096   545227 
 1671000    1.0000397   -3.0059621   -3.0059621   -1.7068131  0.060970066   -3.0059621     1.299149   545227 
 1672000    1.0008196   -3.0070949   -3.0070949   -1.7069327  0.058928448   -3.0070949    1.3001622   545227 
 1673000    1.0003208   -3.0053848   -3.0053848   -1.7058706  0.059734968   -3.0053848    1.2995142   545227 
 1674000   0.99987511   -3.0056784   -3.0056784   -1.7067432  0.068669327   -3.0056784    1.2989352   545227 
 1675000    0.9985998   -3.0046256   -3.0046256   -1.7073472  0.056912349   -3.0046256    1.2972784   545227 
 1676000   0.99829595   -3.0029959   -3.0029959   -1.7061122   0.06184494   -3.0029959    1.2968837   545227 
 1677000   0.99638955   -3.0012053   -3.0012053   -1.7067982  0.071196851   -3.0012053    1.2944071   545227 
 1678000    1.0005924   -3.0061595   -3.0061595   -1.7062925  0.059326461   -3.0061595     1.299867   545227 
 1679000   0.99950948   -3.0050245   -3.0050245   -1.7065643  0.059846637   -3.0050245    1.2984602   545227 
 1680000   0.99874485    -3.003891    -3.003891   -1.7064241  0.061856502    -3.003891    1.2974669   545227 
 1681000   0.99932736   -3.0044754   -3.0044754   -1.7062518  0.069232535   -3.0044754    1.2982236   545227 
 1682000    0.9964404    -3.001947    -3.001947   -1.7074738  0.054165171    -3.001947    1.2944732   545227 
 1683000   0.99963944   -3.0047983   -3.0047983   -1.7061692  0.060085661   -3.0047983     1.298629   545227 
 1684000   0.99894455     -3.00491     -3.00491   -1.7071837  0.066051555     -3.00491    1.2977263   545227 
 1685000   0.99989777   -3.0048298   -3.0048298   -1.7058651  0.060255063   -3.0048298    1.2989646   545227 
 1686000    0.9998867   -3.0053139   -3.0053139   -1.7063637  0.060588547   -3.0053139    1.2989502   545227 
 1687000     0.999291     -3.00552     -3.00552   -1.7073436  0.059329651     -3.00552    1.2981764   545227 
 1688000   0.99956056   -3.0058712   -3.0058712   -1.7073446  0.063487625   -3.0058712    1.2985266   545227 
 1689000   0.99988102   -3.0061879   -3.0061879    -1.707245  0.060314764   -3.0061879    1.2989429   545227 
 1690000    1.0012937   -3.0077389   -3.0077389   -1.7069608  0.053715815   -3.0077389    1.3007781   545227 
 1691000    0.9990784   -3.0055644   -3.0055644   -1.7076642  0.064254403   -3.0055644    1.2979002   545227 
 1692000   0.99905543   -3.0051648   -3.0051648   -1.7072945  0.064432727   -3.0051648    1.2978704   545227 
 1693000    1.0004693     -3.00742     -3.00742   -1.7077129  0.058758744     -3.00742    1.2997071   545227 
 1694000    0.9992147   -3.0059284   -3.0059284   -1.7078511  0.071278258   -3.0059284    1.2980773   545227 
 1695000    1.0012145   -3.0079414   -3.0079414   -1.7072662  0.061136239   -3.0079414    1.3006752   545227 
 1696000   0.99998642   -3.0066902   -3.0066902   -1.7076104  0.057915728   -3.0066902    1.2990798   545227 
 1697000    0.9998817   -3.0066139   -3.0066139   -1.7076702  0.066098936   -3.0066139    1.2989438   545227 
 1698000   0.99976789   -3.0062304   -3.0062304   -1.7074345  0.067969999   -3.0062304    1.2987959   545227 
 1699000    0.9998914   -3.0067814   -3.0067814    -1.707825  0.064408333   -3.0067814    1.2989564   545227 
 1700000     1.000609   -3.0075662   -3.0075662   -1.7076776  0.068024127   -3.0075662    1.2998886   545227 
 1701000   0.99992595   -3.0071329   -3.0071329   -1.7081317  0.064242602   -3.0071329    1.2990012   545227 
 1702000   0.99907774   -3.0070855   -3.0070855   -1.7091862  0.053042085   -3.0070855    1.2978993   545227 
 1703000    1.0002961   -3.0090903   -3.0090903   -1.7096082  0.067503765   -3.0090903    1.2994822   545227 
 1704000   0.99939496   -3.0066532   -3.0066532   -1.7083417  0.062002708   -3.0066532    1.2983114   545227 
 1705000   0.99868961   -3.0062957   -3.0062957   -1.7089006  0.075519327   -3.0062957    1.2973951   545227 
 1706000   0.99863683   -3.0071306   -3.0071306    -1.709804   0.06270958   -3.0071306    1.2973266   545227 
 1707000    0.9995115   -3.0085853   -3.0085853   -1.7101225  0.059608664   -3.0085853    1.2984628   545227 
 1708000   0.99737277   -3.0062383   -3.0062383   -1.7105539  0.066576154   -3.0062383    1.2956844   545227 
 1709000   0.99732809   -3.0057517   -3.0057517   -1.7101253  0.062180759   -3.0057517    1.2956264   545227 
 1710000   0.99759331   -3.0063244   -3.0063244   -1.7103535  0.062448612   -3.0063244    1.2959709   545227 
 1711000   0.99696481   -3.0049476   -3.0049476   -1.7097932  0.070111259   -3.0049476    1.2951544   545227 
 1712000   0.99670315   -3.0050714   -3.0050714   -1.7102569  0.058432733   -3.0050714    1.2948145   545227 
 1713000   0.99754568   -3.0044868   -3.0044868   -1.7085777  0.060196406   -3.0044868     1.295909   545227 
 1714000    0.9987051   -3.0060509   -3.0060509   -1.7086356   0.06719016   -3.0060509    1.2974152   545227 
 1715000   0.99930131   -3.0076463   -3.0076463   -1.7094565   0.06218422   -3.0076463    1.2981898   545227 
 1716000   0.99821956   -3.0067229   -3.0067229   -1.7099384  0.062562783   -3.0067229    1.2967845   545227 
 1717000   0.99888065   -3.0079095   -3.0079095   -1.7102662  0.063952219   -3.0079095    1.2976433   545227 
 1718000   0.99866324   -3.0080037   -3.0080037   -1.7106428  0.056154429   -3.0080037    1.2973609   545227 
 1719000   0.99885364   -3.0079934   -3.0079934   -1.7103852  0.066216097   -3.0079934    1.2976082   545227 
 1720000   0.99870979     -3.00662     -3.00662   -1.7091986  0.056019775     -3.00662    1.2974213   545227 
 1721000   0.99962947    -3.007266    -3.007266   -1.7086499  0.059326149    -3.007266    1.2986161   545227 
 1722000      1.00075   -3.0080136   -3.0080136   -1.7079418  0.068526837   -3.0080136    1.3000718   545227 
 1723000    1.0009158   -3.0078104   -3.0078104   -1.7075233   0.06297455   -3.0078104    1.3002871   545227 
 1724000   0.99923953   -3.0071886   -3.0071886   -1.7090791  0.058901625   -3.0071886    1.2981095   545227 
 1725000   0.99923049   -3.0067911   -3.0067911   -1.7086933  0.062562402   -3.0067911    1.2980978   545227 
 1726000     1.000352   -3.0066314   -3.0066314   -1.7070767  0.064566507   -3.0066314    1.2995547   545227 
 1727000   0.99967089   -3.0052665   -3.0052665   -1.7065966  0.075567967   -3.0052665    1.2986699   545227 
 1728000   0.99909425   -3.0058583   -3.0058583   -1.7079375  0.076751059   -3.0058583    1.2979208   545227 
 1729000    1.0000141   -3.0071592   -3.0071592   -1.7080435  0.070321273   -3.0071592    1.2991157   545227 
 1730000    1.0010549   -3.0078953   -3.0078953   -1.7074274  0.060968827   -3.0078953    1.3004679   545227 
 1731000   0.99934228    -3.005152    -3.005152    -1.706909  0.068080846    -3.005152     1.298243   545227 
 1732000   0.99958346   -3.0064573   -3.0064573    -1.707901  0.064653109   -3.0064573    1.2985563   545227 
 1733000    1.0005712   -3.0076252   -3.0076252   -1.7077856  0.060078437   -3.0076252    1.2998395   545227 
 1734000   0.99884927   -3.0055615   -3.0055615    -1.707959  0.064194609   -3.0055615    1.2976025   545227 
 1735000    1.0000937   -3.0066304   -3.0066304   -1.7074113   0.06476549   -3.0066304    1.2992191   545227 
 1736000   0.99961658   -3.0058331   -3.0058331   -1.7072338  0.064104715   -3.0058331    1.2985993   545227 
 1737000   0.99946323   -3.0063808   -3.0063808   -1.7079807   0.04980749   -3.0063808    1.2984001   545227 
 1738000   0.99809737   -3.0054586   -3.0054586   -1.7088328  0.059075875   -3.0054586    1.2966257   545227 
 1739000   0.99786631    -3.004591    -3.004591   -1.7082654  0.059166748    -3.004591    1.2963256   545227 
 1740000   0.99663578   -3.0021469   -3.0021469   -1.7074199  0.059104275   -3.0021469     1.294727   545227 
 1741000   0.99702119   -3.0030691   -3.0030691   -1.7078414  0.060576366   -3.0030691    1.2952277   545227 
 1742000   0.99787994   -3.0039103   -3.0039103    -1.707567   0.06212475   -3.0039103    1.2963433   545227 
 1743000   0.99739019   -3.0033374   -3.0033374   -1.7076303  0.062305226   -3.0033374     1.295707   545227 
 1744000   0.99781555   -3.0037089   -3.0037089   -1.7074493  0.060028756   -3.0037089    1.2962596   545227 
 1745000   0.99744019   -3.0036606   -3.0036606   -1.7078886  0.056187063   -3.0036606     1.295772   545227 
 1746000   0.99872752   -3.0053986   -3.0053986   -1.7079542  0.059432004   -3.0053986    1.2974444   545227 
 1747000   0.99778363   -3.0038325   -3.0038325   -1.7076144   0.05953844   -3.0038325    1.2962182   545227 
 1748000   0.99893193   -3.0061332   -3.0061332   -1.7084233  0.064931195   -3.0061332    1.2977099   545227 
 1749000   0.99876171   -3.0049532   -3.0049532   -1.7074644  0.063255957   -3.0049532    1.2974888   545227 
 1750000   0.99944619   -3.0049991   -3.0049991   -1.7066211  0.059486289   -3.0049991     1.298378   545227 
 1751000   0.99867236   -3.0045012   -3.0045012   -1.7071285   0.06572838   -3.0045012    1.2973727   545227 
 1752000    0.9995216    -3.005714    -3.005714   -1.7072381  0.057279718    -3.005714     1.298476   545227 
 1753000   0.99813304   -3.0036217   -3.0036217   -1.7069496  0.064880024   -3.0036217    1.2966721   545227 
 1754000   0.99944932   -3.0064666   -3.0064666   -1.7080846  0.068029919   -3.0064666    1.2983821   545227 
 1755000   0.99736516   -3.0031409   -3.0031409   -1.7074664  0.074998924   -3.0031409    1.2956745   545227 
 1756000   0.99899889   -3.0046284   -3.0046284   -1.7068315  0.065609869   -3.0046284    1.2977969   545227 
 1757000   0.99895695    -3.005114    -3.005114   -1.7073716  0.066661181    -3.005114    1.2977424   545227 
 1758000   0.99963947   -3.0057944   -3.0057944   -1.7071654  0.066385635   -3.0057944    1.2986291   545227 
 1759000   0.99741128   -3.0028879   -3.0028879   -1.7071534  0.058785005   -3.0028879    1.2957344   545227 
 1760000   0.99750755   -3.0019285   -3.0019285    -1.706069  0.069881054   -3.0019285    1.2958595   545227 
 1761000    0.9997171   -3.0047789   -3.0047789    -1.706049  0.061390128   -3.0047789    1.2987299   545227 
 1762000   0.99904806   -3.0042977   -3.0042977   -1.7064369  0.062066579   -3.0042977    1.2978608   545227 
 1763000    0.9984037    -3.003734    -3.003734   -1.7067103  0.067076737    -3.003734    1.2970237   545227 
 1764000    1.0006146   -3.0054785   -3.0054785   -1.7055826  0.062777201   -3.0054785    1.2998959   545227 
 1765000   0.99911937   -3.0032075   -3.0032075   -1.7052541  0.071109101   -3.0032075    1.2979534   545227 
 1766000    1.0001398   -3.0047472   -3.0047472   -1.7054681  0.062893401   -3.0047472     1.299279   545227 
 1767000    1.0012392   -3.0073152   -3.0073152   -1.7066079  0.066553229   -3.0073152    1.3007072   545227 
 1768000   0.99859359   -3.0038204   -3.0038204     -1.70655  0.069979276   -3.0038204    1.2972704   545227 
 1769000   0.99899404   -3.0042792   -3.0042792   -1.7064886  0.061923883   -3.0042792    1.2977906   545227 
 1770000   0.99901363   -3.0040996   -3.0040996   -1.7062836   0.06505789   -3.0040996     1.297816   545227 
 1771000   0.99822378   -3.0036439   -3.0036439   -1.7068539  0.060394747   -3.0036439      1.29679   545227 
 1772000    1.0000228   -3.0061972   -3.0061972   -1.7070703  0.056926495   -3.0061972     1.299127   545227 
 1773000   0.99710693   -3.0032996   -3.0032996   -1.7079605  0.050948908   -3.0032996    1.2953391   545227 
 1774000   0.99719468   -3.0026151   -3.0026151   -1.7071621  0.051506907   -3.0026151    1.2954531   545227 
 1775000   0.99883405   -3.0033641   -3.0033641   -1.7057814  0.064427841   -3.0033641    1.2975828   545227 
 1776000   0.99629977   -3.0020808   -3.0020808   -1.7077903  0.063484402   -3.0020808    1.2942905   545227 
 1777000   0.99871784   -3.0049656   -3.0049656   -1.7075339  0.059328818   -3.0049656    1.2974318   545227 
 1778000   0.99751418   -3.0045344   -3.0045344   -1.7086663  0.058214422   -3.0045344    1.2958681   545227 
 1779000   0.99826112   -3.0048182   -3.0048182   -1.7079797  0.065802692   -3.0048182    1.2968385   545227 
 1780000     0.998655   -3.0037884   -3.0037884   -1.7064382  0.063656618   -3.0037884    1.2973502   545227 
 1781000   0.99959572   -3.0063206   -3.0063206   -1.7077484  0.057738101   -3.0063206    1.2985722   545227 
 1782000   0.99987942   -3.0057723   -3.0057723   -1.7068315  0.060490988   -3.0057723    1.2989408   545227 
 1783000    1.0003895   -3.0057946   -3.0057946   -1.7061912  0.052722659   -3.0057946    1.2996034   545227 
 1784000   0.99975215   -3.0061024   -3.0061024   -1.7073269  0.063069425   -3.0061024    1.2987755   545227 
 1785000   0.99985459   -3.0073099   -3.0073099   -1.7084014    0.0494441   -3.0073099    1.2989085   545227 
 1786000   0.99939817   -3.0060733   -3.0060733   -1.7077577  0.064463077   -3.0060733    1.2983156   545227 
 1787000   0.99913223   -3.0060543   -3.0060543   -1.7080841  0.062417968   -3.0060543    1.2979701   545227 
 1788000   0.99884666   -3.0059789   -3.0059789   -1.7083797  0.064553631   -3.0059789    1.2975991   545227 
 1789000   0.99834745   -3.0046557   -3.0046557   -1.7077051  0.061985691   -3.0046557    1.2969506   545227 
 1790000   0.99884368   -3.0059268   -3.0059268   -1.7083315  0.054078188   -3.0059268    1.2975953   545227 
 1791000   0.99914573   -3.0055765   -3.0055765   -1.7075889  0.067976139   -3.0055765    1.2979877   545227 
 1792000   0.99994845   -3.0075699   -3.0075699   -1.7085395  0.060022356   -3.0075699    1.2990305   545227 
 1793000   0.99961333   -3.0067185   -3.0067185   -1.7081234  0.061086551   -3.0067185    1.2985951   545227 
 1794000   0.99926778   -3.0075698   -3.0075698   -1.7094236  0.061373785   -3.0075698    1.2981462   545227 
 1795000   0.99863932   -3.0055287   -3.0055287   -1.7081989  0.067503822   -3.0055287    1.2973298   545227 
 1796000   0.99792679   -3.0053981   -3.0053981   -1.7089939  0.061603826   -3.0053981    1.2964041   545227 
 1797000   0.99920142   -3.0065555   -3.0065555   -1.7084955  0.066677408   -3.0065555      1.29806   545227 
 1798000    1.0011335    -3.008554    -3.008554    -1.707984  0.064320141    -3.008554      1.30057   545227 
 1799000     1.000351   -3.0071236   -3.0071236   -1.7075702  0.069727481   -3.0071236    1.2995534   545227 
 1800000    1.0011997   -3.0091159   -3.0091159   -1.7084599     0.066516   -3.0091159     1.300656   545227 
 1801000   0.99973389   -3.0070182   -3.0070182   -1.7082665    0.0605556   -3.0070182    1.2987517   545227 
 1802000   0.99870833    -3.005642    -3.005642   -1.7082226  0.071218331    -3.005642    1.2974194   545227 
 1803000   0.99951327   -3.0059468   -3.0059468   -1.7074817  0.077044586   -3.0059468    1.2984651   545227 
 1804000     0.999793   -3.0068538   -3.0068538   -1.7080253   0.06579447   -3.0068538    1.2988285   545227 
 1805000   0.99857144   -3.0058607   -3.0058607   -1.7086191  0.064749884   -3.0058607    1.2972416   545227 
 1806000    0.9987185   -3.0063632   -3.0063632   -1.7089306  0.063970796   -3.0063632    1.2974326   545227 
 1807000    0.9996707   -3.0076035   -3.0076035   -1.7089338  0.065346708   -3.0076035    1.2986696   545227 
 1808000   0.99876377   -3.0064669   -3.0064669   -1.7089755   0.06083462   -3.0064669    1.2974915   545227 
 1809000   0.99865621   -3.0064167   -3.0064167    -1.709065  0.059908393   -3.0064167    1.2973517   545227 
 1810000   0.99949487   -3.0074047   -3.0074047   -1.7089635  0.058949514   -3.0074047    1.2984412   545227 
 1811000   0.99957034   -3.0072215   -3.0072215   -1.7086822  0.066971615   -3.0072215    1.2985393   545227 
 1812000   0.99829187   -3.0061168   -3.0061168   -1.7092384  0.057321381   -3.0061168    1.2968784   545227 
 1813000   0.99884844   -3.0069262   -3.0069262   -1.7093247  0.059803652   -3.0069262    1.2976015   545227 
 1814000   0.99804404   -3.0049904   -3.0049904    -1.708434  0.066808586   -3.0049904    1.2965565   545227 
 1815000    0.9989624   -3.0061017   -3.0061017   -1.7083522  0.059245641   -3.0061017    1.2977495   545227 
 1816000   0.99986146   -3.0064342   -3.0064342   -1.7075167  0.063141079   -3.0064342    1.2989175   545227 
 1817000     0.999176   -3.0052395   -3.0052395   -1.7072125  0.061553465   -3.0052395     1.298027   545227 
 1818000   0.99912601   -3.0057108   -3.0057108   -1.7077488  0.060719246   -3.0057108     1.297962   545227 
 1819000   0.99968065   -3.0056019   -3.0056019   -1.7069193  0.065832941   -3.0056019    1.2986826   545227 
 1820000   0.99770644   -3.0028635   -3.0028635   -1.7067456   0.06911556   -3.0028635    1.2961179   545227 
 1821000   0.99927318   -3.0044407   -3.0044407   -1.7062874  0.061015092   -3.0044407    1.2981532   545227 
 1822000   0.99807456   -3.0032144   -3.0032144   -1.7066182  0.066880097   -3.0032144    1.2965961   545227 
 1823000   0.99827273   -3.0030955   -3.0030955    -1.706242  0.060497874   -3.0030955    1.2968535   545227 
 1824000   0.99930079   -3.0050049   -3.0050049   -1.7068158   0.06011874   -3.0050049    1.2981891   545227 
 1825000   0.99752843   -3.0026869   -3.0026869   -1.7068003  0.059902266   -3.0026869    1.2958866   545227 
 1826000   0.99832478   -3.0040982   -3.0040982    -1.707177  0.054091642   -3.0040982    1.2969212   545227 
 1827000   0.99730534   -3.0028665   -3.0028665   -1.7072696  0.054525961   -3.0028665    1.2955968   545227 
 1828000   0.99761613   -3.0031469   -3.0031469   -1.7071463  0.062727099   -3.0031469    1.2960006   545227 
 1829000    0.9989219   -3.0047151   -3.0047151   -1.7070182  0.063142709   -3.0047151    1.2976969   545227 
 1830000   0.99763999   -3.0024961   -3.0024961   -1.7064645  0.060660192   -3.0024961    1.2960316   545227 
 1831000   0.99781201    -3.002493    -3.002493   -1.7062379  0.056387033    -3.002493     1.296255   545227 
 1832000   0.99815475   -3.0030417   -3.0030417   -1.7063414  0.054870084   -3.0030417    1.2967003   545227 
 1833000   0.99867886   -3.0029167   -3.0029167   -1.7055356   0.06196104   -3.0029167    1.2973812   545227 
 1834000    0.9980524   -3.0026382   -3.0026382   -1.7060709   0.06068974   -3.0026382    1.2965673   545227 
 1835000   0.99839553   -3.0035696   -3.0035696   -1.7065566   0.06489841   -3.0035696    1.2970131   545227 
 1836000   0.99770554   -3.0024438   -3.0024438   -1.7063271  0.064720634   -3.0024438    1.2961167   545227 
 1837000   0.99907767   -3.0047296   -3.0047296   -1.7068304  0.067656891   -3.0047296    1.2978992   545227 
 1838000    0.9983995   -3.0041166   -3.0041166   -1.7070984  0.056773381   -3.0041166    1.2970182   545227 
 1839000   0.99874401   -3.0040365   -3.0040365   -1.7065707  0.061570858   -3.0040365    1.2974658   545227 
 1840000   0.99864826   -3.0046994   -3.0046994    -1.707358  0.065379141   -3.0046994    1.2973414   545227 
 1841000   0.99840575   -3.0042024   -3.0042024    -1.707176   0.05966545   -3.0042024    1.2970264   545227 
 1842000   0.99820905   -3.0038693   -3.0038693   -1.7070984  0.070595009   -3.0038693    1.2967708   545227 
 1843000   0.99740219   -3.0038745   -3.0038745   -1.7081519  0.067130389   -3.0038745    1.2957226   545227 
 1844000   0.99792439   -3.0032066   -3.0032066   -1.7068056   0.06261294   -3.0032066     1.296401   545227 
 1845000   0.99749151    -3.003852    -3.003852   -1.7080133  0.059051067    -3.003852    1.2958387   545227 
 1846000   0.99808122    -3.004159    -3.004159   -1.7075543  0.052994837    -3.004159    1.2966048   545227 
 1847000   0.99721096   -3.0033332   -3.0033332    -1.707859  0.065944235   -3.0033332    1.2954742   545227 
 1848000   0.99679251   -3.0023537   -3.0023537   -1.7074231   0.06233045   -3.0023537    1.2949306   545227 
 1849000   0.99780138   -3.0035593   -3.0035593   -1.7073181  0.066535917   -3.0035593    1.2962412   545227 
 1850000   0.99822984   -3.0030471   -3.0030471   -1.7062493  0.062838411   -3.0030471    1.2967978   545227 
 1851000   0.99980227    -3.005979    -3.005979   -1.7071384  0.060816649    -3.005979    1.2988406   545227 
 1852000    0.9990567   -3.0038891   -3.0038891   -1.7060171  0.065800745   -3.0038891     1.297872   545227 
 1853000    1.0004005   -3.0056006   -3.0056006   -1.7059828  0.064582873   -3.0056006    1.2996178   545227 
 1854000    1.0018698   -3.0071643   -3.0071643   -1.7056378  0.065629584   -3.0071643    1.3015265   545227 
 1855000    1.0003549   -3.0052676   -3.0052676   -1.7057091  0.059557183   -3.0052676    1.2995585   545227 
 1856000    0.9993985   -3.0047338   -3.0047338   -1.7064178  0.063016845   -3.0047338     1.298316   545227 
 1857000    0.9991354   -3.0038219   -3.0038219   -1.7058477   0.06005075   -3.0038219    1.2979742   545227 
 1858000     1.000746   -3.0065357   -3.0065357   -1.7064691  0.060748287   -3.0065357    1.3000666   545227 
 1859000   0.99934403   -3.0049586   -3.0049586   -1.7067133  0.061762275   -3.0049586    1.2982453   545227 
 1860000   0.99865993   -3.0042347   -3.0042347   -1.7068781  0.061202072   -3.0042347    1.2973566   545227 
 1861000   0.99923026    -3.005462    -3.005462   -1.7073645  0.060580733    -3.005462    1.2980975   545227 
 1862000   0.99875092   -3.0046702   -3.0046702   -1.7071955  0.058598538   -3.0046702    1.2974748   545227 
 1863000     1.000291   -3.0058684   -3.0058684   -1.7063929  0.067890525   -3.0058684    1.2994755   545227 
 1864000   0.99788383   -3.0029676   -3.0029676   -1.7066192  0.075360085   -3.0029676    1.2963483   545227 
 1865000   0.99727928    -3.002695    -3.002695    -1.707132  0.063217204    -3.002695     1.295563   545227 
 1866000   0.99895944   -3.0042223   -3.0042223   -1.7064766  0.059407355   -3.0042223    1.2977457   545227 
 1867000   0.99864748   -3.0040547   -3.0040547   -1.7067143  0.063929373   -3.0040547    1.2973404   545227 
 1868000   0.99869234    -3.003956    -3.003956   -1.7065574  0.057103595    -3.003956    1.2973987   545227 
 1869000   0.99844814   -3.0032201   -3.0032201   -1.7061387  0.064138205   -3.0032201    1.2970814   545227 
 1870000   0.99970858   -3.0044691   -3.0044691   -1.7057502  0.066104955   -3.0044691    1.2987189   545227 
 1871000   0.99817671   -3.0032225   -3.0032225   -1.7064937  0.063776091   -3.0032225    1.2967288   545227 
 1872000   0.99892041   -3.0032289   -3.0032289    -1.705534  0.068453787   -3.0032289    1.2976949   545227 
 1873000   0.99895632   -3.0028941   -3.0028941   -1.7051525  0.067900291   -3.0028941    1.2977416   545227 
 1874000   0.99931494   -3.0033265   -3.0033265    -1.705119  0.062042051   -3.0033265    1.2982075   545227 
 1875000   0.99879241   -3.0030341   -3.0030341   -1.7055055   0.06425367   -3.0030341    1.2975287   545227 
 1876000   0.99997623   -3.0050714   -3.0050714   -1.7060049   0.05797392   -3.0050714    1.2990666   545227 
 1877000   0.99930863   -3.0050592   -3.0050592   -1.7068599  0.063142238   -3.0050592    1.2981993   545227 
 1878000   0.99887243   -3.0043914   -3.0043914   -1.7067588  0.062406502   -3.0043914    1.2976326   545227 
 1879000   0.99849566   -3.0034851   -3.0034851    -1.706342  0.062357427   -3.0034851    1.2971432   545227 
 1880000   0.99888479   -3.0046822   -3.0046822   -1.7070335  0.068091167   -3.0046822    1.2976487   545227 
 1881000   0.99868869    -3.003955    -3.003955   -1.7065611  0.063263187    -3.003955    1.2973939   545227 
 1882000   0.99927201   -3.0042631   -3.0042631   -1.7061114  0.070307423   -3.0042631    1.2981517   545227 
 1883000    0.9981823   -3.0026998   -3.0026998   -1.7059638  0.060851506   -3.0026998    1.2967361   545227 
 1884000    0.9984112    -3.003353    -3.003353   -1.7063196  0.057146463    -3.003353    1.2970334   545227 
 1885000   0.99593899   -3.0002698   -3.0002698    -1.706448  0.061878495   -3.0002698    1.2938218   545227 
 1886000   0.99921408   -3.0034855   -3.0034855   -1.7054091  0.060740357   -3.0034855    1.2980764   545227 
 1887000   0.99990346   -3.0038336   -3.0038336   -1.7048616  0.058422035   -3.0038336     1.298972   545227 
 1888000   0.99748319   -3.0007927   -3.0007927   -1.7049649  0.060122327   -3.0007927    1.2958279   545227 
 1889000   0.99940411   -3.0030994   -3.0030994   -1.7047761  0.068320456   -3.0030994    1.2983233   545227 
 1890000   0.99991748   -3.0039447   -3.0039447   -1.7049545  0.053658911   -3.0039447    1.2989902   545227 
 1891000    1.0001671   -3.0038325   -3.0038325    -1.704518  0.065480921   -3.0038325    1.2993145   545227 
 1892000   0.99909788   -3.0023884   -3.0023884   -1.7044629  0.065009491   -3.0023884    1.2979255   545227 
 1893000   0.99908356   -3.0028434   -3.0028434   -1.7049366  0.061031784   -3.0028434    1.2979069   545227 
 1894000   0.99821981   -3.0012948   -3.0012948     -1.70451  0.062668465   -3.0012948    1.2967848   545227 
 1895000   0.99869656   -3.0024391   -3.0024391    -1.705035  0.060153121   -3.0024391    1.2974041   545227 
 1896000   0.99954228   -3.0031907   -3.0031907   -1.7046879  0.062598688   -3.0031907    1.2985028   545227 
 1897000   0.99923512    -3.003831    -3.003831   -1.7057273  0.065826349    -3.003831    1.2981038   545227 
 1898000   0.99931638   -3.0043045   -3.0043045   -1.7060951   0.05983934   -3.0043045    1.2982094   545227 
 1899000   0.99895722   -3.0040475   -3.0040475   -1.7063047  0.061400741   -3.0040475    1.2977428   545227 
 1900000    1.0012142   -3.0062066   -3.0062066   -1.7055318  0.061128587   -3.0062066    1.3006748   545227 
 1901000    1.0001071   -3.0052192   -3.0052192   -1.7059826  0.068776489   -3.0052192    1.2992366   545227 
 1902000   0.99927981   -3.0035644   -3.0035644   -1.7054025   0.06763671   -3.0035644    1.2981618   545227 
 1903000       0.9982   -3.0026902   -3.0026902   -1.7059311  0.064074924   -3.0026902    1.2967591   545227 
 1904000   0.99998855   -3.0046924   -3.0046924   -1.7056098  0.064259805   -3.0046924    1.2990826   545227 
 1905000    1.0001773   -3.0050979   -3.0050979   -1.7057701  0.059404691   -3.0050979    1.2993278   545227 
 1906000    1.0002366   -3.0054169   -3.0054169   -1.7060121  0.060251058   -3.0054169    1.2994048   545227 
 1907000   0.99956249   -3.0047157   -3.0047157   -1.7061866  0.060646669   -3.0047157    1.2985291   545227 
 1908000   0.99927252   -3.0055958   -3.0055958   -1.7074434  0.053785117   -3.0055958    1.2981524   545227 
 1909000   0.99844358   -3.0046008   -3.0046008   -1.7075254  0.057393178   -3.0046008    1.2970755   545227 
 1910000   0.99910371   -3.0055791   -3.0055791    -1.707646  0.061395785   -3.0055791    1.2979331   545227 
 1911000   0.99965771   -3.0048975   -3.0048975   -1.7062447  0.061005788   -3.0048975    1.2986528   545227 
 1912000    0.9991254   -3.0044468   -3.0044468   -1.7064856  0.061962693   -3.0044468    1.2979612   545227 
 1913000    1.0005832    -3.004544    -3.004544   -1.7046889  0.068806384    -3.004544    1.2998551   545227 
 1914000    1.0000386   -3.0057335   -3.0057335   -1.7065858  0.062275322   -3.0057335    1.2991476   545227 
 1915000   0.99909243   -3.0039181   -3.0039181   -1.7059997  0.058904253   -3.0039181    1.2979184   545227 
 1916000   0.99828741   -3.0038344   -3.0038344   -1.7069618  0.065771698   -3.0038344    1.2968726   545227 
 1917000   0.99915355   -3.0056718   -3.0056718   -1.7076739  0.069636362   -3.0056718    1.2979978   545227 
 1918000   0.99948703   -3.0060523   -3.0060523   -1.7076213    0.0608712   -3.0060523     1.298431   545227 
 1919000   0.99775315   -3.0034453   -3.0034453   -1.7072667  0.071667865   -3.0034453    1.2961786   545227 
 1920000   0.99876225   -3.0047069   -3.0047069   -1.7072174  0.060011058   -3.0047069    1.2974895   545227 
 1921000   0.99827704   -3.0056226   -3.0056226   -1.7087634  0.063811218   -3.0056226    1.2968591   545227 
 1922000   0.99740477   -3.0045082   -3.0045082   -1.7087822  0.056134564   -3.0045082     1.295726   545227 
 1923000   0.99843216   -3.0056525   -3.0056525   -1.7085918   0.05857325   -3.0056525    1.2970607   545227 
 1924000   0.99774572   -3.0041107   -3.0041107   -1.7079418  0.058754076   -3.0041107    1.2961689   545227 
 1925000   0.99845501   -3.0055821   -3.0055821   -1.7084917  0.065753442   -3.0055821    1.2970904   545227 
 1926000   0.99759931   -3.0046903   -3.0046903   -1.7087115  0.071528013   -3.0046903    1.2959787   545227 
 1927000   0.99998161   -3.0075412   -3.0075412   -1.7084676  0.060860981   -3.0075412    1.2990735   545227 
 1928000   0.99902672   -3.0062458   -3.0062458   -1.7084128  0.059164908   -3.0062458    1.2978331   545227 
 1929000   0.99970858   -3.0061818   -3.0061818    -1.707463  0.065085692   -3.0061818    1.2987189   545227 
 1930000    0.9991411    -3.004564    -3.004564   -1.7065824   0.06232453    -3.004564    1.2979816   545227 
 1931000   0.99791701   -3.0034749   -3.0034749   -1.7070835  0.073622224   -3.0034749    1.2963914   545227 
 1932000   0.99855497   -3.0051027   -3.0051027   -1.7078825  0.067544171   -3.0051027    1.2972202   545227 
 1933000   0.99785666   -3.0041994   -3.0041994   -1.7078864  0.056900804   -3.0041994     1.296313   545227 
 1934000    1.0002749   -3.0070755   -3.0070755   -1.7076209  0.060531721   -3.0070755    1.2994546   545227 
 1935000    0.9986512   -3.0047987   -3.0047987   -1.7074535  0.066867833   -3.0047987    1.2973452   545227 
 1936000   0.99906354   -3.0049464   -3.0049464   -1.7070655  0.068889731   -3.0049464    1.2978809   545227 
 1937000    1.0010489   -3.0069318   -3.0069318   -1.7064717  0.062757894   -3.0069318    1.3004601   545227 
 1938000    1.0006128   -3.0059255   -3.0059255    -1.706032  0.064221638   -3.0059255    1.2998935   545227 
 1939000    1.0006624    -3.005756    -3.005756   -1.7057981   0.06112584    -3.005756    1.2999579   545227 
 1940000   0.99908434   -3.0035765   -3.0035765   -1.7056686  0.066584667   -3.0035765    1.2979079   545227 
 1941000    1.0013521   -3.0065341   -3.0065341   -1.7056801  0.064730728   -3.0065341     1.300854   545227 
 1942000    1.0011463   -3.0060118   -3.0060118   -1.7054253  0.062565661   -3.0060118    1.3005866   545227 
 1943000    1.0018659   -3.0062018   -3.0062018   -1.7046804   0.06378793   -3.0062018    1.3015215   545227 
 1944000    1.0005427   -3.0046727   -3.0046727   -1.7048702  0.063171457   -3.0046727    1.2998024   545227 
 1945000    1.0008085   -3.0051841   -3.0051841   -1.7050363  0.062715413   -3.0051841    1.3001478   545227 
 1946000    1.0011782   -3.0061424   -3.0061424   -1.7055143  0.063352889   -3.0061424    1.3006281   545227 
 1947000    1.0004292   -3.0052179   -3.0052179   -1.7055629  0.074464962   -3.0052179     1.299655   545227 
 1948000   0.99994659   -3.0034605   -3.0034605   -1.7044324  0.066718174   -3.0034605    1.2990281   545227 
 1949000    1.0002504   -3.0043708   -3.0043708   -1.7049481  0.067024833   -3.0043708    1.2994227   545227 
 1950000   0.99944908   -3.0037342   -3.0037342   -1.7053525  0.063297847   -3.0037342    1.2983817   545227 
 1951000   0.99823221   -3.0022258   -3.0022258   -1.7054249  0.063832284   -3.0022258    1.2968009   545227 
 1952000   0.99691793   -3.0014949   -3.0014949   -1.7064013   0.06128354   -3.0014949    1.2950935   545227 
 1953000   0.99993479   -3.0043395   -3.0043395   -1.7053268  0.058796018   -3.0043395    1.2990127   545227 
 1954000   0.99824328   -3.0023823   -3.0023823    -1.705567  0.057030451   -3.0023823    1.2968153   545227 
 1955000   0.99717568   -3.0011375   -3.0011375   -1.7057091  0.062346312   -3.0011375    1.2954284   545227 
 1956000   0.99874506   -3.0034633   -3.0034633   -1.7059961  0.068634194   -3.0034633    1.2974672   545227 
 1957000   0.99812464   -3.0024261   -3.0024261   -1.7057649  0.060010702   -3.0024261    1.2966612   545227 
 1958000   0.99836766     -3.00387     -3.00387   -1.7068931  0.060063506     -3.00387    1.2969769   545227 
 1959000   0.99917816   -3.0045954   -3.0045954   -1.7065656  0.067519224   -3.0045954    1.2980298   545227 
 1960000   0.99896187   -3.0034651   -3.0034651   -1.7057163  0.070426918   -3.0034651    1.2977488   545227 
 1961000   0.99893318    -3.004461    -3.004461   -1.7067495  0.068126411    -3.004461    1.2977115   545227 
 1962000    0.9986404   -3.0044694   -3.0044694   -1.7071382  0.059451162   -3.0044694    1.2973312   545227 
 1963000   0.99806534   -3.0043395   -3.0043395   -1.7077554   0.05953277   -3.0043395    1.2965841   545227 
 1964000   0.99831123   -3.0041524   -3.0041524   -1.7072488  0.060130903   -3.0041524    1.2969036   545227 
 1965000   0.99870623   -3.0034415   -3.0034415   -1.7060248   0.06919724   -3.0034415    1.2974167   545227 
 1966000   0.99966941   -3.0041502   -3.0041502   -1.7054823  0.067106434   -3.0041502     1.298668   545227 
 1967000   0.99936045    -3.004075    -3.004075   -1.7058084  0.064097358    -3.004075    1.2982666   545227 
 1968000   0.99985122   -3.0052923   -3.0052923   -1.7063881  0.062597875   -3.0052923    1.2989042   545227 
 1969000    1.0004775   -3.0064421   -3.0064421   -1.7067243  0.059442619   -3.0064421    1.2997178   545227 
 1970000    1.0008791   -3.0067496   -3.0067496   -1.7065101  0.071930231   -3.0067496    1.3002395   545227 
 1971000    1.0001367   -3.0068856   -3.0068856   -1.7076105  0.063936398   -3.0068856     1.299275   545227 
 1972000    1.0012951   -3.0076311   -3.0076311   -1.7068513  0.064795523   -3.0076311    1.3007798   545227 
 1973000    1.0002038     -3.00582     -3.00582   -1.7064578  0.065556742     -3.00582    1.2993622   545227 
 1974000    1.0005974   -3.0065221   -3.0065221   -1.7066486  0.064847606   -3.0065221    1.2998735   545227 
 1975000    1.0006305   -3.0059145   -3.0059145    -1.705998  0.065211902   -3.0059145    1.2999165   545227 
 1976000    1.0010989   -3.0061745   -3.0061745   -1.7056495  0.063341729   -3.0061745     1.300525   545227 
 1977000    1.0007942   -3.0057699   -3.0057699   -1.7056407  0.057208313   -3.0057699    1.3001292   545227 
 1978000   0.99947939   -3.0051872   -3.0051872   -1.7067661  0.062243072   -3.0051872    1.2984211   545227 
 1979000    1.0000276   -3.0064924   -3.0064924   -1.7073592  0.064059631   -3.0064924    1.2991332   545227 
 1980000    1.0001048   -3.0059879   -3.0059879   -1.7067543   0.06580676   -3.0059879    1.2992336   545227 
 1981000     0.998547   -3.0048371   -3.0048371   -1.7076273  0.060337483   -3.0048371    1.2972099   545227 
 1982000   0.99889476   -3.0049548   -3.0049548   -1.7072932  0.062187703   -3.0049548    1.2976616   545227 
 1983000    1.0009319   -3.0062987   -3.0062987   -1.7059907  0.063072285   -3.0062987     1.300308   545227 
 1984000     1.000974   -3.0071198   -3.0071198    -1.706757  0.064590561   -3.0071198    1.3003628   545227 
 1985000   0.99876983   -3.0050926   -3.0050926   -1.7075933  0.063988615   -3.0050926    1.2974993   545227 
 1986000   0.99945721   -3.0044321   -3.0044321   -1.7060398  0.067036228   -3.0044321    1.2983923   545227 
 1987000    1.0004079   -3.0054718   -3.0054718   -1.7058445   0.06743816   -3.0054718    1.2996273   545227 
 1988000   0.99975393   -3.0048707   -3.0048707   -1.7060929  0.069678807   -3.0048707    1.2987778   545227 
 1989000    1.0002992   -3.0058021   -3.0058021   -1.7063159  0.057246771   -3.0058021    1.2994861   545227 
 1990000   0.99953438   -3.0047549   -3.0047549   -1.7062624  0.066831126   -3.0047549    1.2984926   545227 
 1991000   0.99894055    -3.004278    -3.004278   -1.7065569  0.062030131    -3.004278    1.2977211   545227 
 1992000   0.99848111   -3.0031334   -3.0031334   -1.7060091  0.066158749   -3.0031334    1.2971243   545227 
 1993000   0.99989438   -3.0047629   -3.0047629   -1.7058026  0.056965969   -3.0047629    1.2989602   545227 
 1994000    1.0003207   -3.0047818   -3.0047818   -1.7052677  0.069241416   -3.0047818    1.2995141   545227 
 1995000    1.0002706   -3.0049993   -3.0049993   -1.7055503  0.064019222   -3.0049993     1.299449   545227 
 1996000   0.99938403   -3.0041913   -3.0041913   -1.7058941  0.058967813   -3.0041913    1.2982972   545227 
 1997000   0.99936062   -3.0040366   -3.0040366   -1.7057698  0.063521421   -3.0040366    1.2982668   545227 
 1998000    1.0000161    -3.004983    -3.004983   -1.7058646  0.063201779    -3.004983    1.2991184   545227 
 1999000   0.99945099   -3.0033469   -3.0033469   -1.7049626  0.060985658   -3.0033469    1.2983842   545227 
 2000000    0.9988352   -3.0027848   -3.0027848   -1.7052005  0.062393401   -3.0027848    1.2975842   545227 
 2001000    1.0004694   -3.0042123   -3.0042123    -1.704505  0.062198081   -3.0042123    1.2997073   545227 
 2002000   0.99874221   -3.0037645   -3.0037645   -1.7063011  0.058263643   -3.0037645    1.2974634   545227 
 2003000    0.9995689   -3.0034195   -3.0034195   -1.7048821  0.062704968   -3.0034195    1.2985374   545227 
 2004000    1.0001019   -3.0043239   -3.0043239   -1.7050941  0.061892536   -3.0043239    1.2992298   545227 
 2005000     1.000553   -3.0051341   -3.0051341   -1.7053183  0.054829567   -3.0051341    1.2998158   545227 
 2006000   0.99949135   -3.0024884   -3.0024884   -1.7040517  0.067613777   -3.0024884    1.2984367   545227 
 2007000   0.99998621   -3.0029913   -3.0029913   -1.7039118  0.065861376   -3.0029913    1.2990795   545227 
 2008000   0.99976169   -3.0036886   -3.0036886   -1.7049008  0.062592154   -3.0036886    1.2987878   545227 
 2009000   0.99938784   -3.0028717   -3.0028717   -1.7045695  0.058417472   -3.0028717    1.2983022   545227 
 2010000    1.0006427   -3.0042651   -3.0042651   -1.7043328  0.070573259   -3.0042651    1.2999323   545227 
 2011000    1.0002162   -3.0039523   -3.0039523    -1.704574  0.062140914   -3.0039523    1.2993783   545227 
 2012000    1.0008456   -3.0042361   -3.0042361   -1.7040402  0.064993599   -3.0042361    1.3001959   545227 
 2013000    1.0003564   -3.0048258   -3.0048258   -1.7052654   0.06167557   -3.0048258    1.2995604   545227 
 2014000    1.0000221   -3.0055862   -3.0055862     -1.70646  0.062805528   -3.0055862    1.2991262   545227 
 2015000    1.0007023   -3.0055023   -3.0055023   -1.7054925  0.059670998   -3.0055023    1.3000098   545227 
 2016000   0.99897042   -3.0036269   -3.0036269    -1.705867  0.071614982   -3.0036269    1.2977599   545227 
 2017000   0.99922161   -3.0035366   -3.0035366   -1.7054503  0.072606603   -3.0035366    1.2980862   545227 
 2018000   0.99951375   -3.0046902   -3.0046902   -1.7062245  0.054768328   -3.0046902    1.2984658   545227 
 2019000   0.99870741   -3.0030097   -3.0030097   -1.7055914    0.0691998   -3.0030097    1.2974182   545227 
 2020000   0.99964334   -3.0055249   -3.0055249   -1.7068908  0.071439353   -3.0055249    1.2986341   545227 
 2021000   0.99911622   -3.0044602   -3.0044602   -1.7065109  0.065173449   -3.0044602    1.2979493   545227 
 2022000   0.99939472   -3.0050204   -3.0050204   -1.7067093  0.063511979   -3.0050204    1.2983111   545227 
 2023000   0.99933705    -3.004024    -3.004024   -1.7057878   0.06906755    -3.004024    1.2982362   545227 
 2024000    1.0004061   -3.0053087   -3.0053087   -1.7056837  0.068080172   -3.0053087    1.2996249   545227 
 2025000    1.0010597   -3.0063539   -3.0063539   -1.7058798  0.060546996   -3.0063539    1.3004741   545227 
 2026000    1.0006001   -3.0056041   -3.0056041   -1.7057272  0.070012432   -3.0056041     1.299877   545227 
 2027000    1.0011116   -3.0067128   -3.0067128   -1.7061712  0.070969154   -3.0067128    1.3005415   545227 
 2028000    1.0013121   -3.0068361   -3.0068361   -1.7060341   0.06848229   -3.0068361     1.300802   545227 
 2029000    1.0012959   -3.0063463   -3.0063463   -1.7055654   0.06969594   -3.0063463    1.3007809   545227 
 2030000    1.0015862   -3.0072568   -3.0072568   -1.7060987  0.065568828   -3.0072568    1.3011581   545227 
 2031000    1.0012194   -3.0080223   -3.0080223   -1.7073407  0.057070612   -3.0080223    1.3006816   545227 
 2032000    1.0012141   -3.0071762   -3.0071762   -1.7065016  0.072113418   -3.0071762    1.3006746   545227 
 2033000    1.0008396   -3.0062362   -3.0062362    -1.706048  0.065584286   -3.0062362    1.3001882   545227 
 2034000    1.0008594     -3.00682     -3.00682   -1.7066061  0.064802868     -3.00682    1.3002139   545227 
 2035000    1.0007306   -3.0072759   -3.0072759   -1.7072293  0.063293848   -3.0072759    1.3000465   545227 
 2036000    1.0001237   -3.0070545   -3.0070545   -1.7077964  0.057579531   -3.0070545    1.2992581   545227 
 2037000   0.99997045   -3.0082893   -3.0082893   -1.7092303  0.064010658   -3.0082893    1.2990591   545227 
 2038000   0.99830795     -3.00568     -3.00568   -1.7087807  0.061181492     -3.00568    1.2968993   545227 
 2039000   0.99932623   -3.0068559   -3.0068559   -1.7086338  0.064610657   -3.0068559    1.2982221   545227 
 2040000    0.9988099   -3.0066471   -3.0066471   -1.7090957  0.062735359   -3.0066471    1.2975514   545227 
 2041000   0.99882332   -3.0071988   -3.0071988     -1.70963  0.063517314   -3.0071988    1.2975688   545227 
 2042000   0.99804013   -3.0041874   -3.0041874   -1.7076361  0.063592002   -3.0041874    1.2965514   545227 
 2043000    1.0006408    -3.007199    -3.007199   -1.7072691  0.064986561    -3.007199    1.2999298   545227 
 2044000   0.99900573   -3.0045412   -3.0045412   -1.7067354  0.072325247   -3.0045412    1.2978058   545227 
 2045000   0.99848351    -3.003742    -3.003742   -1.7066147  0.071906088    -3.003742    1.2971274   545227 
 2046000   0.99992572   -3.0064027   -3.0064027   -1.7074017  0.065267693   -3.0064027    1.2990009   545227 
 2047000   0.99914306   -3.0050843   -3.0050843   -1.7071001  0.068212557   -3.0050843    1.2979842   545227 
 2048000    1.0005801   -3.0079509   -3.0079509   -1.7080999  0.061466436   -3.0079509    1.2998511   545227 
 2049000   0.99922789   -3.0065114   -3.0065114    -1.708417  0.061505151   -3.0065114    1.2980944   545227 
 2050000   0.99937273   -3.0062146   -3.0062146   -1.7079321  0.054490786   -3.0062146    1.2982825   545227 
 2051000   0.99752265   -3.0041877   -3.0041877   -1.7083086  0.065210333   -3.0041877    1.2958791   545227 
 2052000     0.996865   -3.0030949   -3.0030949   -1.7080701   0.06193318   -3.0030949    1.2950248   545227 
 2053000   0.99834635   -3.0038135   -3.0038135   -1.7068643  0.062143283   -3.0038135    1.2969492   545227 
 2054000    0.9990648   -3.0043497   -3.0043497   -1.7064672  0.065294462   -3.0043497    1.2978825   545227 
 2055000   0.99878412   -3.0027933   -3.0027933   -1.7052754  0.064890301   -3.0027933    1.2975179   545227 
 2056000   0.99908655   -3.0030614   -3.0030614   -1.7051506  0.063199839   -3.0030614    1.2979108   545227 
 2057000   0.99907141   -3.0026403   -3.0026403   -1.7047492   0.06353232   -3.0026403    1.2978911   545227 
 2058000    1.0003314   -3.0040898   -3.0040898   -1.7045618  0.064549317   -3.0040898     1.299528   545227 
 2059000    1.0001152   -3.0037329   -3.0037329   -1.7044857   0.07451152   -3.0037329    1.2992472   545227 
 2060000    1.0023176   -3.0063614   -3.0063614   -1.7042532  0.064423412   -3.0063614    1.3021082   545227 
 2061000    1.0023653   -3.0070156   -3.0070156   -1.7048454  0.063719496   -3.0070156    1.3021702   545227 
 2062000    1.0021903   -3.0062667   -3.0062667   -1.7043238  0.061991117   -3.0062667    1.3019429   545227 
 2063000     1.000026   -3.0036082   -3.0036082    -1.704477  0.066209071   -3.0036082    1.2991312   545227 
 2064000    1.0017644   -3.0051886   -3.0051886    -1.703799  0.064208965   -3.0051886    1.3013896   545227 
 2065000   0.99948392   -3.0027534   -3.0027534   -1.7043264  0.063222509   -3.0027534     1.298427   545227 
 2066000   0.99936391    -3.002281    -3.002281   -1.7040099  0.068103799    -3.002281    1.2982711   545227 
 2067000   0.99949376    -3.003339    -3.003339   -1.7048992  0.060001704    -3.003339    1.2984398   545227 
 2068000   0.99981538   -3.0039657   -3.0039657   -1.7051081  0.062216256   -3.0039657    1.2988576   545227 
 2069000    1.0006697   -3.0052112   -3.0052112   -1.7052437  0.057142501   -3.0052112    1.2999675   545227 
 2070000   0.99899104   -3.0021909   -3.0021909   -1.7044042  0.065799376   -3.0021909    1.2977867   545227 
 2071000    1.0004996   -3.0046613   -3.0046613   -1.7049149  0.069288173   -3.0046613    1.2997464   545227 
 2072000   0.99946879   -3.0023872   -3.0023872   -1.7039799   0.06086674   -3.0023872    1.2984073   545227 
 2073000    1.0001557   -3.0031086   -3.0031086   -1.7038088  0.066190987   -3.0031086    1.2992997   545227 
 2074000    1.0006106   -3.0026972   -3.0026972   -1.7028066  0.057260969   -3.0026972    1.2998906   545227 
 2075000   0.99985337   -3.0021824   -3.0021824   -1.7032754  0.057471357   -3.0021824     1.298907   545227 
 2076000    1.0009165   -3.0026938   -3.0026938   -1.7024058  0.064976364   -3.0026938     1.300288   545227 
 2077000   0.99978589   -3.0019431   -3.0019431   -1.7031238  0.071782247   -3.0019431    1.2988193   545227 
 2078000    1.0002017   -3.0015802   -3.0015802   -1.7022207   0.06784184   -3.0015802    1.2993594   545227 
 2079000    1.0002277   -3.0016003   -3.0016003    -1.702207  0.069360405   -3.0016003    1.2993933   545227 
 2080000    1.0002267   -3.0020673   -3.0020673   -1.7026754   0.06467047   -3.0020673    1.2993919   545227 
 2081000    1.0001149   -3.0023349   -3.0023349   -1.7030882  0.060967637   -3.0023349    1.2992467   545227 
 2082000    1.0002142   -3.0014958   -3.0014958   -1.7021201  0.057215886   -3.0014958    1.2993757   545227 
 2083000   0.99924476    -3.001512    -3.001512   -1.7033957  0.065946181    -3.001512    1.2981163   545227 
 2084000   0.99824234   -3.0004453   -3.0004453   -1.7036313  0.061910117   -3.0004453    1.2968141   545227 
 2085000   0.99894205   -3.0015765   -3.0015765   -1.7038535  0.057868663   -3.0015765    1.2977231   545227 
 2086000   0.99813753    -3.000368    -3.000368   -1.7036901  0.065002002    -3.000368    1.2966779   545227 
 2087000     0.998039   -3.0010733   -3.0010733   -1.7045233  0.059542978   -3.0010733    1.2965499   545227 
 2088000   0.99760099   -3.0002679   -3.0002679    -1.704287  0.068866074   -3.0002679    1.2959809   545227 
 2089000    1.0009328   -3.0038624   -3.0038624   -1.7035532   0.06016848   -3.0038624    1.3003092   545227 
 2090000   0.99854953   -3.0004607   -3.0004607   -1.7032476  0.068624496   -3.0004607    1.2972131   545227 
 2091000    0.9999481   -3.0027393   -3.0027393   -1.7037093  0.069639014   -3.0027393      1.29903   545227 
 2092000   0.99852592   -3.0009799   -3.0009799   -1.7037975  0.059273511   -3.0009799    1.2971825   545227 
 2093000   0.99905042   -3.0026954   -3.0026954   -1.7048315  0.067506018   -3.0026954    1.2978638   545227 
 2094000   0.99948599   -3.0041302   -3.0041302   -1.7057005  0.060372124   -3.0041302    1.2984297   545227 
 2095000   0.99951763   -3.0035862   -3.0035862   -1.7051154   0.05440275   -3.0035862    1.2984708   545227 
 2096000   0.99949999    -3.003002    -3.003002   -1.7045541  0.058693674    -3.003002    1.2984479   545227 
 2097000   0.99873596   -3.0025693   -3.0025693   -1.7051139  0.059323373   -3.0025693    1.2974553   545227 
 2098000   0.99866621   -3.0029317   -3.0029317    -1.705567  0.059866203   -3.0029317    1.2973647   545227 
 2099000   0.99744223   -3.0027465   -3.0027465   -1.7069718  0.074963079   -3.0027465    1.2957747   545227 
 2100000   0.99887274   -3.0035191   -3.0035191   -1.7058861  0.059972255   -3.0035191     1.297633   545227 
 2101000   0.99877094   -3.0044889   -3.0044889   -1.7069881  0.069632455   -3.0044889    1.2975008   545227 
 2102000     1.001604    -3.006927    -3.006927   -1.7057459  0.062174833    -3.006927    1.3011812   545227 
 2103000   0.99987804   -3.0057966   -3.0057966   -1.7068576  0.064543288   -3.0057966     1.298939   545227 
 2104000    1.0000857    -3.006432    -3.006432   -1.7072232  0.063375568    -3.006432    1.2992088   545227 
 2105000   0.99968779   -3.0065111   -3.0065111   -1.7078193  0.063649793   -3.0065111    1.2986918   545227 
 2106000   0.99737412    -3.003025    -3.003025   -1.7073388  0.076168173    -3.003025    1.2956862   545227 
 2107000    1.0002525   -3.0055912   -3.0055912   -1.7061657  0.061277963   -3.0055912    1.2994254   545227 
 2108000   0.99866099   -3.0034544   -3.0034544   -1.7060965   0.07344906   -3.0034544    1.2973579   545227 
 2109000    1.0006136   -3.0062968   -3.0062968   -1.7064023  0.062082218   -3.0062968    1.2998946   545227 
 2110000   0.99961643   -3.0052059   -3.0052059   -1.7066067  0.071144164   -3.0052059    1.2985991   545227 
 2111000    1.0014554   -3.0074653   -3.0074653   -1.7064771   0.07180355   -3.0074653    1.3009882   545227 
 2112000   0.99945683   -3.0050381   -3.0050381   -1.7066463  0.073888117   -3.0050381    1.2983918   545227 
 2113000    1.0012207    -3.007192    -3.007192   -1.7065088  0.065674931    -3.007192    1.3006833   545227 
 2114000    1.0001105   -3.0060078   -3.0060078   -1.7067668  0.067670108   -3.0060078     1.299241   545227 
 2115000   0.99935658   -3.0037609   -3.0037609   -1.7054993  0.062007409   -3.0037609    1.2982616   545227 
 2116000    1.0011912   -3.0062252   -3.0062252   -1.7055803  0.068075002   -3.0062252    1.3006449   545227 
 2117000   0.99985257   -3.0049659   -3.0049659     -1.70606  0.061742801   -3.0049659    1.2989059   545227 
 2118000   0.99925639   -3.0048532   -3.0048532   -1.7067218  0.061199734   -3.0048532    1.2981314   545227 
 2119000   0.99886003   -3.0039854   -3.0039854   -1.7063689  0.061809438   -3.0039854    1.2976165   545227 
 2120000    1.0007939   -3.0054824   -3.0054824   -1.7053537  0.075653691   -3.0054824    1.3001287   545227 
 2121000    1.0004326   -3.0052259   -3.0052259   -1.7055665  0.065157179   -3.0052259    1.2996594   545227 
 2122000    1.0000604   -3.0042792   -3.0042792   -1.7051033    0.0638488   -3.0042792    1.2991759   545227 
 2123000    0.9998764    -3.005179    -3.005179   -1.7062422  0.061490168    -3.005179    1.2989369   545227 
 2124000   0.99841886   -3.0036219   -3.0036219   -1.7065785  0.066105435   -3.0036219    1.2970434   545227 
 2125000    0.9993893   -3.0044016   -3.0044016   -1.7060976   0.06214246   -3.0044016    1.2983041   545227 
 2126000   0.99734599   -3.0009654   -3.0009654   -1.7053158  0.067734893   -3.0009654    1.2956496   545227 
 2127000   0.99943249   -3.0032439   -3.0032439   -1.7048837  0.058178935   -3.0032439    1.2983602   545227 
 2128000   0.99994049   -3.0032584   -3.0032584   -1.7042382  0.065729979   -3.0032584    1.2990201   545227 
 2129000   0.99997055   -3.0039051   -3.0039051    -1.704846   0.06521809   -3.0039051    1.2990592   545227 
 2130000   0.99952248   -3.0029378   -3.0029378   -1.7044607  0.070162249   -3.0029378    1.2984771   545227 
 2131000   0.99867574    -3.002926    -3.002926   -1.7055489  0.067061839    -3.002926    1.2973771   545227 
 2132000   0.99804365   -3.0029717   -3.0029717   -1.7064158  0.061013565   -3.0029717     1.296556   545227 
 2133000   0.99738569   -3.0024824   -3.0024824   -1.7067812  0.057588774   -3.0024824    1.2957012   545227 
 2134000   0.99910044   -3.0037561   -3.0037561   -1.7058272  0.063939845   -3.0037561    1.2979288   545227 
 2135000   0.99892073   -3.0042226   -3.0042226   -1.7065272  0.056517698   -3.0042226    1.2976954   545227 
 2136000   0.99770568   -3.0026487   -3.0026487   -1.7065318  0.069438771   -3.0026487    1.2961169   545227 
 2137000    1.0001831   -3.0050244   -3.0050244   -1.7056891  0.058131333   -3.0050244    1.2993354   545227 
 2138000   0.99948126   -3.0047065   -3.0047065    -1.706283  0.067197371   -3.0047065    1.2984235   545227 
 2139000   0.99840284   -3.0036417   -3.0036417   -1.7066192  0.060224144   -3.0036417    1.2970226   545227 
 2140000   0.99843856   -3.0040828   -3.0040828   -1.7070138  0.061241222   -3.0040828     1.297069   545227 
 2141000    0.9999473   -3.0051765   -3.0051765   -1.7061475  0.065336228   -3.0051765     1.299029   545227 
 2142000   0.99912895    -3.003367    -3.003367   -1.7054012  0.063706778    -3.003367    1.2979659   545227 
 2143000    0.9990929   -3.0034462   -3.0034462   -1.7055271  0.059770733   -3.0034462     1.297919   545227 
 2144000   0.99919127   -3.0052609   -3.0052609   -1.7072141  0.052748235   -3.0052609    1.2980468   545227 
 2145000   0.99918099   -3.0050066   -3.0050066   -1.7069731  0.065421872   -3.0050066    1.2980335   545227 
 2146000   0.99868059   -3.0042385   -3.0042385   -1.7068551  0.066260779   -3.0042385    1.2973834   545227 
 2147000   0.99967527    -3.006552    -3.006552   -1.7078764  0.073356106    -3.006552    1.2986756   545227 
 2148000    1.0007454   -3.0083907   -3.0083907   -1.7083249  0.071922186   -3.0083907    1.3000657   545227 
 2149000    1.0001854   -3.0067599   -3.0067599   -1.7074216  0.059654692   -3.0067599    1.2993383   545227 
 2150000    0.9997933    -3.005787    -3.005787    -1.706958  0.058951773    -3.005787    1.2988289   545227 
 2151000   0.99988658   -3.0056391   -3.0056391    -1.706689  0.064204932   -3.0056391    1.2989501   545227 
 2152000    1.0002173   -3.0064085   -3.0064085   -1.7070287  0.065672464   -3.0064085    1.2993798   545227 
 2153000      1.00097   -3.0071978   -3.0071978   -1.7068403   0.06370719   -3.0071978    1.3003575   545227 
 2154000    1.0011876   -3.0069485   -3.0069485   -1.7063083  0.076146547   -3.0069485    1.3006402   545227 
 2155000    1.0022869   -3.0078122   -3.0078122   -1.7057439  0.063161185   -3.0078122    1.3020683   545227 
 2156000    1.0025127   -3.0079626   -3.0079626   -1.7056009  0.071828312   -3.0079626    1.3023617   545227 
 2157000    1.0018886   -3.0080047   -3.0080047   -1.7064538  0.071331999   -3.0080047    1.3015509   545227 
 2158000    1.0014749   -3.0077739   -3.0077739   -1.7067605  0.067515966   -3.0077739    1.3010134   545227 
 2159000    1.0012124   -3.0081594   -3.0081594   -1.7074869  0.064701207   -3.0081594    1.3006724   545227 
 2160000     1.000144   -3.0062232   -3.0062232   -1.7069387  0.066168207   -3.0062232    1.2992845   545227 
 2161000    1.0007994   -3.0058131   -3.0058131   -1.7056771  0.075666341   -3.0058131    1.3001359   545227 
 2162000    1.0014196   -3.0058241   -3.0058241   -1.7048825  0.064963293   -3.0058241    1.3009417   545227 
 2163000    1.0004658   -3.0046951   -3.0046951   -1.7049925  0.063113502   -3.0046951    1.2997026   545227 
 2164000    1.0004984   -3.0050569   -3.0050569    -1.705312  0.057350894   -3.0050569     1.299745   545227 
 2165000   0.99931232   -3.0043764   -3.0043764   -1.7061723  0.065717592   -3.0043764    1.2982041   545227 
 2166000   0.99983872   -3.0045733   -3.0045733   -1.7056854  0.055545852   -3.0045733    1.2988879   545227 
 2167000   0.99960715   -3.0040541   -3.0040541    -1.705467  0.060740789   -3.0040541    1.2985871   545227 
 2168000   0.99980015   -3.0032853   -3.0032853   -1.7044475  0.061947779   -3.0032853    1.2988378   545227 
 2169000    1.0008118   -3.0043495   -3.0043495   -1.7041974  0.060012837   -3.0043495     1.300152   545227 
 2170000   0.99927099   -3.0026908   -3.0026908   -1.7045404  0.061375668   -3.0026908    1.2981504   545227 
 2171000   0.99824555   -3.0018203   -3.0018203   -1.7050021  0.071670707   -3.0018203    1.2968182   545227 
 2172000   0.99993424   -3.0032921   -3.0032921   -1.7042801  0.065872658   -3.0032921     1.299012   545227 
 2173000    0.9998994   -3.0034638   -3.0034638   -1.7044971  0.061518868   -3.0034638    1.2989667   545227 
 2174000   0.99847495    -3.001244    -3.001244   -1.7041278  0.059565042    -3.001244    1.2971162   545227 
 2175000   0.99742243   -2.9997439   -2.9997439    -1.703995  0.066734812   -2.9997439    1.2957489   545227 
 2176000   0.99889896    -3.002026    -3.002026   -1.7043589  0.062764825    -3.002026    1.2976671   545227 
 2177000   0.99852053   -3.0002348   -3.0002348   -1.7030593  0.050052839   -3.0002348    1.2971755   545227 
 2178000   0.99751324   -2.9998863   -2.9998863   -1.7040194   0.05996435   -2.9998863    1.2958669   545227 
 2179000   0.99619505   -2.9974778   -2.9974778   -1.7033233  0.063079205   -2.9974778    1.2941544   545227 
 2180000   0.99860309   -3.0002093   -3.0002093   -1.7029265   0.06048688   -3.0002093    1.2972827   545227 
 2181000   0.99944364   -3.0009111   -3.0009111   -1.7025364  0.060482891   -3.0009111    1.2983747   545227 
 2182000    1.0015955   -3.0028455   -3.0028455   -1.7016753  0.058501939   -3.0028455    1.3011702   545227 
 2183000    1.0003639   -3.0011398   -3.0011398   -1.7015696  0.066080851   -3.0011398    1.2995702   545227 
 2184000    1.0000814   -3.0014068   -3.0014068   -1.7022035  0.060707906   -3.0014068    1.2992032   545227 
 2185000   0.99967744   -3.0008103   -3.0008103   -1.7021319  0.058237095   -3.0008103    1.2986784   545227 
 2186000    1.0004313   -3.0016252   -3.0016252   -1.7019674  0.068835099   -3.0016252    1.2996578   545227 
 2187000    1.0009629   -3.0007888   -3.0007888   -1.7004405    0.0675303   -3.0007888    1.3003483   545227 
 2188000     1.001723   -3.0025921   -3.0025921   -1.7012564  0.062644481   -3.0025921    1.3013358   545227 
 2189000    1.0022911   -3.0035705   -3.0035705   -1.7014967  0.062217175   -3.0035705    1.3020738   545227 
 2190000   0.99929915   -2.9999248   -2.9999248   -1.7017378  0.069287693   -2.9999248     1.298187   545227 
 2191000    1.0018024   -3.0042587   -3.0042587   -1.7028197   0.06577062   -3.0042587     1.301439   545227 
 2192000   0.99931591    -3.001994    -3.001994   -1.7037853  0.069525688    -3.001994    1.2982087   545227 
 2193000   0.99907966   -3.0006144   -3.0006144   -1.7027126   0.06508099   -3.0006144    1.2979018   545227 
 2194000   0.99982267   -3.0017442   -3.0017442   -1.7028772  0.072084923   -3.0017442    1.2988671   545227 
 2195000    1.0004298   -3.0037239   -3.0037239    -1.704068   0.06857044   -3.0037239    1.2996559   545227 
 2196000    0.9975264   -2.9998771   -2.9998771   -1.7039931  0.067577985   -2.9998771     1.295884   545227 
 2197000   0.99885006   -3.0014226   -3.0014226   -1.7038191  0.062882411   -3.0014226    1.2976036   545227 
 2198000    0.9994331   -3.0020771   -3.0020771   -1.7037161  0.059455505   -3.0020771     1.298361   545227 
 2199000    1.0001701   -3.0030526   -3.0030526   -1.7037342  0.066357643   -3.0030526    1.2993184   545227 
 2200000    1.0001049   -3.0032427   -3.0032427    -1.704009  0.072910313   -3.0032427    1.2992337   545227 
 2201000    1.0001598   -3.0030363   -3.0030363   -1.7037313  0.065158027   -3.0030363     1.299305   545227 
 2202000    1.0007647   -3.0039324   -3.0039324   -1.7038415  0.062682777   -3.0039324    1.3000909   545227 
 2203000   0.99973301   -3.0019744   -3.0019744   -1.7032238  0.068740181   -3.0019744    1.2987506   545227 
 2204000    1.0008631   -3.0031767   -3.0031767    -1.702958   0.06623119   -3.0031767    1.3002187   545227 
 2205000   0.99987621   -3.0023568   -3.0023568   -1.7034201  0.061558731   -3.0023568    1.2989366   545227 
 2206000    1.0014439   -3.0043085   -3.0043085   -1.7033353  0.061030255   -3.0043085    1.3009732   545227 
 2207000      1.00088   -3.0030564   -3.0030564   -1.7028157  0.075205207   -3.0030564    1.3002407   545227 
 2208000    1.0021714   -3.0041048   -3.0041048   -1.7021865  0.063758624   -3.0041048    1.3019183   545227 
 2209000    1.0008127   -3.0028342   -3.0028342    -1.702681   0.06884737   -3.0028342    1.3001532   545227 
 2210000      1.00089   -3.0036825   -3.0036825   -1.7034289  0.062090178   -3.0036825    1.3002537   545227 
 2211000   0.99919922   -3.0026939   -3.0026939   -1.7046368  0.061206484   -3.0026939    1.2980571   545227 
 2212000   0.99868127   -3.0022549   -3.0022549   -1.7048706  0.068509154   -3.0022549    1.2973843   545227 
 2213000   0.99964707   -3.0027961   -3.0027961   -1.7041572  0.063521624   -3.0027961    1.2986389   545227 
 2214000   0.99998224   -3.0032528   -3.0032528   -1.7041785  0.065637653   -3.0032528    1.2990744   545227 
 2215000   0.99980994   -3.0031935   -3.0031935   -1.7043429  0.066551943   -3.0031935    1.2988505   545227 
 2216000    1.0005512   -3.0045414   -3.0045414   -1.7047279  0.055913467   -3.0045414    1.2998135   545227 
 2217000   0.99789785   -3.0019773   -3.0019773   -1.7056107  0.069671495   -3.0019773    1.2963665   545227 
 2218000   0.99927244   -3.0036508   -3.0036508   -1.7054985  0.063947575   -3.0036508    1.2981523   545227 
 2219000   0.99927163   -3.0046786   -3.0046786   -1.7065274  0.061844232   -3.0046786    1.2981512   545227 
 2220000   0.99809378   -3.0035479   -3.0035479   -1.7069269  0.067183815   -3.0035479    1.2966211   545227 
 2221000   0.99912668   -3.0032061   -3.0032061   -1.7052431  0.065659094   -3.0032061    1.2979629   545227 
 2222000   0.99975413   -3.0046343   -3.0046343   -1.7058562  0.059622821   -3.0046343     1.298778   545227 
 2223000   0.99890307   -3.0032985   -3.0032985   -1.7056261  0.065445161   -3.0032985    1.2976724   545227 
 2224000   0.99952804   -3.0037009   -3.0037009   -1.7052165  0.067783573   -3.0037009    1.2984843   545227 
 2225000    1.0004105   -3.0052724   -3.0052724   -1.7056417  0.066605775   -3.0052724    1.2996308   545227 
 2226000    1.0003601   -3.0055617   -3.0055617   -1.7059965  0.062071028   -3.0055617    1.2995652   545227 
 2227000    0.9989214   -3.0044899   -3.0044899   -1.7067936  0.073108041   -3.0044899    1.2976962   545227 
 2228000   0.99985685   -3.0057441   -3.0057441   -1.7068327   0.05467304   -3.0057441    1.2989115   545227 
 2229000   0.99902105   -3.0045994   -3.0045994   -1.7067737  0.075446973   -3.0045994    1.2978257   545227 
 2230000    1.0005473    -3.006854    -3.006854   -1.7070455  0.064741327    -3.006854    1.2998084   545227 
 2231000    0.9996099    -3.005716    -3.005716   -1.7071254   0.06505501    -3.005716    1.2985907   545227 
 2232000   0.99950412   -3.0057911   -3.0057911   -1.7073379  0.072740179   -3.0057911    1.2984532   545227 
 2233000    1.0004002   -3.0064874   -3.0064874   -1.7068701  0.059970053   -3.0064874    1.2996173   545227 
 2234000   0.99939947   -3.0060168   -3.0060168   -1.7076995  0.061744166   -3.0060168    1.2983173   545227 
 2235000   0.99799203   -3.0038225   -3.0038225   -1.7073336  0.069306031   -3.0038225    1.2964889   545227 
 2236000   0.99944663   -3.0044153   -3.0044153   -1.7060368  0.064594261   -3.0044153    1.2983786   545227 
 2237000    1.0015173   -3.0059829   -3.0059829   -1.7049143  0.064618026   -3.0059829    1.3010686   545227 
 2238000   0.99881692   -3.0041366   -3.0041366   -1.7065761  0.065369343   -3.0041366    1.2975605   545227 
 2239000    1.0000996   -3.0056353   -3.0056353   -1.7064085  0.066510717   -3.0056353    1.2992268   545227 
 2240000    1.0002539   -3.0055823   -3.0055823    -1.706155  0.062646496   -3.0055823    1.2994273   545227 
 2241000   0.99897077   -3.0041486   -3.0041486   -1.7063882   0.06959805   -3.0041486    1.2977604   545227 
 2242000   0.99989289     -3.00602     -3.00602   -1.7070617  0.048638818     -3.00602    1.2989583   545227 
 2243000   0.99811714   -3.0039775   -3.0039775   -1.7073261  0.052812397   -3.0039775    1.2966514   545227 
 2244000   0.99996447   -3.0059637   -3.0059637   -1.7069124  0.058972621   -3.0059637    1.2990513   545227 
 2245000    1.0000865   -3.0055514   -3.0055514   -1.7063417  0.062950705   -3.0055514    1.2992098   545227 
 2246000   0.99829258   -3.0028088   -3.0028088   -1.7059295  0.064841718   -3.0028088    1.2968793   545227 
 2247000   0.99981127   -3.0044868   -3.0044868   -1.7056346  0.065547381   -3.0044868    1.2988523   545227 
 2248000   0.99886115   -3.0035626   -3.0035626   -1.7059447  0.064320106   -3.0035626     1.297618   545227 
 2249000   0.99842324   -3.0027891   -3.0027891     -1.70574  0.062697146   -3.0027891    1.2970491   545227 
 2250000   0.99940413   -3.0029537   -3.0029537   -1.7046303  0.060615402   -3.0029537    1.2983234   545227 
 2251000   0.99770254   -3.0015233   -3.0015233   -1.7054105  0.058642165   -3.0015233    1.2961128   545227 
 2252000    0.9983041   -3.0023169   -3.0023169   -1.7054226  0.060673101   -3.0023169    1.2968943   545227 
 2253000    0.9981575   -3.0017936   -3.0017936   -1.7050897  0.067430627   -3.0017936    1.2967038   545227 
 2254000   0.99829976   -3.0021465   -3.0021465   -1.7052578  0.056686184   -3.0021465    1.2968887   545227 
 2255000   0.99964359   -3.0031318   -3.0031318   -1.7044973  0.061424026   -3.0031318    1.2986344   545227 
 2256000    1.0002741   -3.0036978   -3.0036978   -1.7042443  0.064039207   -3.0036978    1.2994536   545227 
 2257000    1.0010782   -3.0044658   -3.0044658   -1.7039677  0.062913504   -3.0044658    1.3004981   545227 
 2258000   0.99848447   -3.0014548   -3.0014548   -1.7043262  0.064577577   -3.0014548    1.2971286   545227 
 2259000   0.99896554   -3.0016609   -3.0016609   -1.7039073   0.07196606   -3.0016609    1.2977536   545227 
 2260000    0.9993254   -3.0023641   -3.0023641    -1.704143  0.061887371   -3.0023641    1.2982211   545227 
 2261000   0.99935984     -3.00192     -3.00192   -1.7036542  0.057739993     -3.00192    1.2982658   545227 
 2262000   0.99789638   -3.0013621   -3.0013621   -1.7049975  0.059134916   -3.0013621    1.2963646   545227 
 2263000    0.9995573   -3.0025408   -3.0025408   -1.7040185  0.057286075   -3.0025408    1.2985223   545227 
 2264000    0.9990203   -3.0008572   -3.0008572   -1.7030325  0.071506371   -3.0008572    1.2978247   545227 
 2265000   0.99919744   -3.0016484   -3.0016484   -1.7035936  0.063377342   -3.0016484    1.2980548   545227 
 2266000    1.0002664   -3.0040573   -3.0040573   -1.7046138  0.071255082   -3.0040573    1.2994435   545227 
 2267000   0.99892598   -3.0017665   -3.0017665   -1.7040643  0.067465326   -3.0017665    1.2977022   545227 
 2268000   0.99941342   -3.0027126   -3.0027126   -1.7043772  0.065641917   -3.0027126    1.2983354   545227 
 2269000    1.0004578    -3.004542    -3.004542   -1.7048498  0.067928947    -3.004542    1.2996922   545227 
 2270000   0.99943028   -3.0037922   -3.0037922   -1.7054349  0.067202728   -3.0037922    1.2983573   545227 
 2271000   0.99822676    -3.003279    -3.003279   -1.7064852  0.066437139    -3.003279    1.2967938   545227 
 2272000    1.0005862   -3.0055156   -3.0055156   -1.7056566  0.064456478   -3.0055156     1.299859   545227 
 2273000    1.0007338   -3.0054504   -3.0054504   -1.7053997  0.065382546   -3.0054504    1.3000507   545227 
 2274000     1.000462   -3.0064551   -3.0064551   -1.7067575  0.059942543   -3.0064551    1.2996976   545227 
 2275000   0.99928696   -3.0047482   -3.0047482   -1.7065771   0.05691771   -3.0047482    1.2981711   545227 
 2276000   0.99921234    -3.004578    -3.004578   -1.7065038  0.065672515    -3.004578    1.2980742   545227 
 2277000    1.0002166   -3.0047024   -3.0047024   -1.7053235  0.068130801   -3.0047024    1.2993789   545227 
 2278000   0.99759515   -3.0021009   -3.0021009   -1.7061276  0.058553237   -3.0021009    1.2959733   545227 
 2279000   0.99978952   -3.0053538   -3.0053538   -1.7065298  0.062996248   -3.0053538     1.298824   545227 
 2280000   0.99961917   -3.0049194   -3.0049194   -1.7063166  0.073347768   -3.0049194    1.2986027   545227 
 2281000    1.0009549   -3.0066465   -3.0066465   -1.7063086  0.060070264   -3.0066465    1.3003379   545227 
 2282000   0.99940993   -3.0045675   -3.0045675   -1.7062366  0.064840728   -3.0045675    1.2983309   545227 
 2283000    1.0000182   -3.0054512   -3.0054512   -1.7063301  0.067518636   -3.0054512    1.2991211   545227 
 2284000    1.0005049   -3.0065664   -3.0065664    -1.706813  0.073767716   -3.0065664    1.2997534   545227 
 2285000    1.0010832   -3.0074662   -3.0074662   -1.7069616  0.064841941   -3.0074662    1.3005046   545227 
 2286000    1.0010103   -3.0070615   -3.0070615   -1.7066516  0.074044825   -3.0070615    1.3004099   545227 
 2287000    1.0006615   -3.0064738   -3.0064738    -1.706517  0.067089418   -3.0064738    1.2999568   545227 
 2288000    1.0003804   -3.0068381   -3.0068381   -1.7072464  0.067033916   -3.0068381    1.2995917   545227 
 2289000   0.99889277     -3.00596     -3.00596    -1.708301  0.070784986     -3.00596     1.297659   545227 
 2290000    0.9987351   -3.0059087   -3.0059087   -1.7084545  0.063288695   -3.0059087    1.2974542   545227 
 2291000   0.99969768   -3.0074262   -3.0074262   -1.7087215  0.060260311   -3.0074262    1.2987047   545227 
 2292000   0.99836262   -3.0053013   -3.0053013    -1.708331  0.069847522   -3.0053013    1.2969703   545227 
 2293000    1.0004271   -3.0077917   -3.0077917   -1.7081394  0.067121071   -3.0077917    1.2996523   545227 
 2294000    0.9985335   -3.0058034   -3.0058034   -1.7086111  0.083536448   -3.0058034    1.2971923   545227 
 2295000   0.99783253   -3.0054071   -3.0054071   -1.7091254  0.069246999   -3.0054071    1.2962817   545227 
 2296000   0.99948221   -3.0063778   -3.0063778   -1.7079531  0.061323403   -3.0063778    1.2984248   545227 
 2297000    1.0010523   -3.0088632   -3.0088632   -1.7083987  0.064989074   -3.0088632    1.3004645   545227 
 2298000    1.0007865   -3.0079375   -3.0079375   -1.7078183  0.070812511   -3.0079375    1.3001191   545227 
 2299000    1.0000935   -3.0069227   -3.0069227   -1.7077038  0.067367346   -3.0069227    1.2992189   545227 
 2300000    1.0019839   -3.0091418   -3.0091418    -1.707467  0.071392364   -3.0091418    1.3016748   545227 
 2301000    1.0013221   -3.0064678   -3.0064678   -1.7056529  0.072283264   -3.0064678     1.300815   545227 
 2302000   0.99908093   -3.0046236   -3.0046236   -1.7067202  0.073478233   -3.0046236    1.2979035   545227 
 2303000   0.99990753   -3.0060175   -3.0060175   -1.7070402  0.066206724   -3.0060175    1.2989773   545227 
 2304000    1.0000577   -3.0058477   -3.0058477   -1.7066753  0.065900368   -3.0058477    1.2991724   545227 
 2305000   0.99929683   -3.0048261   -3.0048261   -1.7066422    0.0665436   -3.0048261     1.298184   545227 
 2306000    0.9992918   -3.0041657   -3.0041657   -1.7059883  0.060820208   -3.0041657    1.2981774   545227 
 2307000   0.99944309   -3.0038681   -3.0038681   -1.7054942  0.060130337   -3.0038681     1.298374   545227 
 2308000   0.99722296    -3.001986    -3.001986   -1.7064962  0.062365954    -3.001986    1.2954898   545227 
 2309000    0.9982963    -3.003269    -3.003269   -1.7063848  0.066709772    -3.003269    1.2968842   545227 
 2310000   0.99874404   -3.0038089   -3.0038089    -1.706343  0.060185791   -3.0038089    1.2974658   545227 
 2311000   0.99784032   -3.0024449   -3.0024449   -1.7061531  0.065377506   -3.0024449    1.2962918   545227 
 2312000   0.99897489   -3.0034875   -3.0034875   -1.7057218  0.069859279   -3.0034875    1.2977657   545227 
 2313000   0.99857988    -3.002863    -3.002863   -1.7056104  0.062998613    -3.002863    1.2972526   545227 
 2314000   0.99971886   -3.0044846   -3.0044846   -1.7057524   0.06922427   -3.0044846    1.2987322   545227 
 2315000   0.99810978   -3.0021079   -3.0021079    -1.705466  0.067381586   -3.0021079    1.2966419   545227 
 2316000   0.99895208   -3.0039382   -3.0039382   -1.7062021  0.063482536   -3.0039382    1.2977361   545227 
 2317000    1.0000683   -3.0049259   -3.0049259   -1.7057397   0.07028865   -3.0049259    1.2991862   545227 
 2318000   0.99938964   -3.0038364   -3.0038364   -1.7055319  0.060036884   -3.0038364    1.2983045   545227 
 2319000    1.0004483   -3.0036712   -3.0036712   -1.7039914  0.068101168   -3.0036712    1.2996799   545227 
 2320000    0.9992874   -3.0028299   -3.0028299   -1.7046582   0.06683747   -3.0028299    1.2981717   545227 
 2321000   0.99824042   -3.0015046   -3.0015046    -1.704693  0.061238301   -3.0015046    1.2968116   545227 
 2322000    1.0014803   -3.0055743   -3.0055743   -1.7045538  0.057930412   -3.0055743    1.3010205   545227 
 2323000    1.0009369   -3.0046615   -3.0046615   -1.7043469  0.058998401   -3.0046615    1.3003146   545227 
 2324000    1.0002662    -3.003951    -3.003951   -1.7045077  0.069989718    -3.003951    1.2994433   545227 
 2325000   0.99925318   -3.0031307   -3.0031307   -1.7050034  0.062074657   -3.0031307    1.2981272   545227 
 2326000   0.99989886   -3.0037224   -3.0037224   -1.7047563  0.064535929   -3.0037224     1.298966   545227 
 2327000   0.99836594   -3.0021434   -3.0021434   -1.7051688  0.059499158   -3.0021434    1.2969746   545227 
 2328000   0.99941832   -3.0038224   -3.0038224   -1.7054806  0.061636429   -3.0038224    1.2983418   545227 
 2329000    1.0003243   -3.0043744   -3.0043744   -1.7048557  0.064191398   -3.0043744    1.2995187   545227 
 2330000   0.99939559   -3.0026566   -3.0026566   -1.7043443  0.062887786   -3.0026566    1.2983123   545227 
 2331000    1.0004095   -3.0048756   -3.0048756   -1.7052462  0.055794131   -3.0048756    1.2996294   545227 
 2332000   0.99736751   -3.0019965   -3.0019965   -1.7063189  0.062011319   -3.0019965    1.2956776   545227 
 2333000   0.99855242   -3.0037681   -3.0037681   -1.7065513  0.059925434   -3.0037681    1.2972169   545227 
 2334000   0.99942729    -3.004146    -3.004146   -1.7057926  0.052502153    -3.004146    1.2983534   545227 
 2335000    0.9980241   -3.0025218   -3.0025218   -1.7059912  0.067460697   -3.0025218    1.2965306   545227 
 2336000     1.000727    -3.005945    -3.005945   -1.7059031  0.061895689    -3.005945    1.3000419   545227 
 2337000   0.99875461   -3.0037361   -3.0037361   -1.7062565  0.064591053   -3.0037361    1.2974796   545227 
 2338000    1.0001611   -3.0061078   -3.0061078   -1.7068011   0.05777723   -3.0061078    1.2993067   545227 
 2339000    1.0005391   -3.0067225   -3.0067225   -1.7069246  0.068922648   -3.0067225    1.2997978   545227 
 2340000   0.99895304   -3.0049723   -3.0049723    -1.707235  0.060846823   -3.0049723    1.2977373   545227 
 2341000   0.99945151   -3.0048921   -3.0048921   -1.7065072  0.068787466   -3.0048921    1.2983849   545227 
 2342000   0.99882859   -3.0037098   -3.0037098   -1.7061341  0.070213177   -3.0037098    1.2975757   545227 
 2343000    1.0006229   -3.0048807   -3.0048807   -1.7049741  0.068100181   -3.0048807    1.2999066   545227 
 2344000   0.99874474   -3.0034728   -3.0034728   -1.7060061  0.065859296   -3.0034728    1.2974667   545227 
 2345000    1.0010681    -3.006701    -3.006701    -1.706216  0.070191235    -3.006701     1.300485   545227 
 2346000    1.0002688   -3.0061266   -3.0061266     -1.70668  0.064961564   -3.0061266    1.2994466   545227 
 2347000   0.99954011   -3.0056678   -3.0056678   -1.7071678  0.073413679   -3.0056678       1.2985   545227 
 2348000   0.99894579   -3.0046986   -3.0046986   -1.7069707   0.06728887   -3.0046986    1.2977279   545227 
 2349000   0.99931215   -3.0054692   -3.0054692   -1.7072653  0.054376327   -3.0054692    1.2982039   545227 
 2350000   0.99917624   -3.0053189   -3.0053189   -1.7072916  0.060547312   -3.0053189    1.2980273   545227 
 2351000   0.99909713   -3.0044354   -3.0044354   -1.7065109  0.059136841   -3.0044354    1.2979245   545227 
 2352000    0.9988033   -3.0040008   -3.0040008    -1.706458  0.070610006   -3.0040008    1.2975428   545227 
 2353000    0.9988886   -3.0050744   -3.0050744   -1.7074207  0.058912076   -3.0050744    1.2976536   545227 
 2354000   0.99781743   -3.0032141   -3.0032141    -1.706952  0.063005923   -3.0032141    1.2962621   545227 
 2355000   0.99873791   -3.0034162   -3.0034162   -1.7059583  0.067809122   -3.0034162    1.2974579   545227 
 2356000   0.99905287   -3.0041657   -3.0041657   -1.7062986  0.057725811   -3.0041657     1.297867   545227 
 2357000   0.99941391   -3.0044996   -3.0044996   -1.7061635   0.06135705   -3.0044996    1.2983361   545227 
 2358000   0.99909983   -3.0030036   -3.0030036   -1.7050755  0.068233658   -3.0030036     1.297928   545227 
 2359000   0.99989949   -3.0042946   -3.0042946   -1.7053277  0.061408459   -3.0042946    1.2989669   545227 
 2360000   0.99961929   -3.0046202   -3.0046202   -1.7060174  0.051580433   -3.0046202    1.2986029   545227 
 2361000   0.99867181   -3.0033338   -3.0033338   -1.7059618  0.070273417   -3.0033338     1.297372   545227 
 2362000   0.99947264   -3.0040252   -3.0040252   -1.7056128   0.05884698   -3.0040252    1.2984124   545227 
 2363000    1.0004993   -3.0039972   -3.0039972   -1.7042511  0.060652007   -3.0039972    1.2997461   545227 
 2364000   0.99957425     -3.00323     -3.00323   -1.7046856  0.067572478     -3.00323    1.2985443   545227 
 2365000    0.9997758   -3.0039714   -3.0039714   -1.7051652  0.065158515   -3.0039714    1.2988062   545227 
 2366000   0.99875543   -3.0027145   -3.0027145   -1.7052338   0.05680733   -3.0027145    1.2974806   545227 
 2367000   0.99895405   -3.0020874   -3.0020874   -1.7043488  0.060678628   -3.0020874    1.2977386   545227 
 2368000   0.99964306   -3.0024625   -3.0024625   -1.7038287  0.065723271   -3.0024625    1.2986337   545227 
 2369000   0.99951209      -3.0025      -3.0025   -1.7040364  0.070637563      -3.0025    1.2984636   545227 
 2370000   0.99950651   -3.0035364   -3.0035364     -1.70508  0.061880575   -3.0035364    1.2984563   545227 
 2371000   0.99967937    -3.004294    -3.004294   -1.7056131  0.065121479    -3.004294    1.2986809   545227 
 2372000   0.99917121   -3.0046254   -3.0046254   -1.7066046  0.059469205   -3.0046254    1.2980208   545227 
 2373000   0.99900145   -3.0041005   -3.0041005   -1.7063003  0.060167911   -3.0041005    1.2978002   545227 
 2374000   0.99703193   -3.0021487   -3.0021487    -1.706907  0.064288588   -3.0021487    1.2952416   545227 
 2375000   0.99805997   -3.0028455   -3.0028455   -1.7062684  0.059538045   -3.0028455    1.2965772   545227 
 2376000   0.99839346   -3.0033763   -3.0033763   -1.7063659  0.065198729   -3.0033763    1.2970104   545227 
 2377000    0.9981327   -3.0030416   -3.0030416   -1.7063699  0.056939569   -3.0030416    1.2966716   545227 
 2378000    0.9975266   -3.0020989   -3.0020989   -1.7062146  0.064851491   -3.0020989    1.2958843   545227 
 2379000   0.99750773   -3.0027055   -3.0027055   -1.7068458  0.060083857   -3.0027055    1.2958597   545227 
 2380000   0.99735566   -3.0040781   -3.0040781   -1.7084159  0.065388268   -3.0040781    1.2956622   545227 
 2381000   0.99882541   -3.0048508   -3.0048508   -1.7072793  0.065955335   -3.0048508    1.2975715   545227 
 2382000   0.99837189   -3.0040284   -3.0040284   -1.7070461  0.060296877   -3.0040284    1.2969824   545227 
 2383000   0.99982401   -3.0054506   -3.0054506   -1.7065818  0.071764172   -3.0054506    1.2988688   545227 
 2384000   0.99985154   -3.0053233   -3.0053233   -1.7064187  0.062568748   -3.0053233    1.2989046   545227 
 2385000   0.99961546   -3.0057628   -3.0057628   -1.7071649  0.061099398   -3.0057628    1.2985979   545227 
 2386000     1.000657   -3.0063565   -3.0063565   -1.7064056  0.060156679   -3.0063565     1.299951   545227 
 2387000   0.99965402   -3.0056673   -3.0056673   -1.7070193  0.057778729   -3.0056673     1.298648   545227 
 2388000    1.0001022    -3.005773    -3.005773   -1.7065428  0.070374465    -3.005773    1.2992302   545227 
 2389000    1.0009784   -3.0067017   -3.0067017   -1.7063332  0.063307811   -3.0067017    1.3003684   545227 
 2390000    1.0006469   -3.0058869   -3.0058869   -1.7059491  0.068640454   -3.0058869    1.2999378   545227 
 2391000    1.0003573    -3.006641    -3.006641   -1.7070794  0.056191681    -3.006641    1.2995616   545227 
 2392000    1.0008539   -3.0077391   -3.0077391   -1.7075323  0.066060871   -3.0077391    1.3002068   545227 
 2393000   0.99850693   -3.0049509   -3.0049509   -1.7077931  0.058543774   -3.0049509    1.2971578   545227 
 2394000    1.0006466    -3.007673    -3.007673   -1.7077356  0.055784326    -3.007673    1.2999374   545227 
 2395000    1.0005275   -3.0078655   -3.0078655   -1.7080828  0.071397066   -3.0078655    1.2997828   545227 
 2396000    1.0009034   -3.0080121   -3.0080121   -1.7077411  0.064421487   -3.0080121     1.300271   545227 
 2397000   0.99876785   -3.0052298   -3.0052298    -1.707733  0.066977997   -3.0052298    1.2974968   545227 
 2398000    1.0008606   -3.0091479   -3.0091479   -1.7089324  0.060788118   -3.0091479    1.3002155   545227 
 2399000    1.0001117   -3.0072122   -3.0072122   -1.7079696  0.063353756   -3.0072122    1.2992426   545227 
 2400000   0.99902654   -3.0068073   -3.0068073   -1.7089745  0.063315708   -3.0068073    1.2978328   545227 
 2401000    1.0000831    -3.007551    -3.007551   -1.7083456  0.058740583    -3.007551    1.2992054   545227 
 2402000   0.99920581   -3.0068396   -3.0068396   -1.7087739  0.066879603   -3.0068396    1.2980657   545227 
 2403000   0.99793558   -3.0051404   -3.0051404   -1.7087248  0.065447783   -3.0051404    1.2964156   545227 
 2404000   0.99704422   -3.0044904   -3.0044904   -1.7092328  0.066183802   -3.0044904    1.2952576   545227 
 2405000   0.99668352   -3.0042137   -3.0042137   -1.7094247  0.057191976   -3.0042137     1.294789   545227 
 2406000   0.99969874   -3.0068586   -3.0068586   -1.7081525  0.068808542   -3.0068586    1.2987061   545227 
 2407000   0.99944219   -3.0074016   -3.0074016   -1.7090289   0.07355904   -3.0074016    1.2983728   545227 
 2408000   0.99949749   -3.0066556   -3.0066556   -1.7082109  0.059509375   -3.0066556    1.2984446   545227 
 2409000   0.99861249   -3.0052171   -3.0052171   -1.7079222  0.060189421   -3.0052171    1.2972949   545227 
 2410000    1.0006951   -3.0069591   -3.0069591   -1.7069587  0.067947318   -3.0069591    1.3000004   545227 
 2411000    1.0003339   -3.0070593   -3.0070593   -1.7075282  0.059121483   -3.0070593    1.2995312   545227 
 2412000   0.99941485   -3.0064291   -3.0064291   -1.7080918  0.055870378   -3.0064291    1.2983373   545227 
 2413000    0.9991483   -3.0059623   -3.0059623   -1.7079713  0.072049047   -3.0059623     1.297991   545227 
 2414000   0.99877586   -3.0049668   -3.0049668   -1.7074596  0.065365717   -3.0049668    1.2975072   545227 
 2415000   0.99917213   -3.0046469   -3.0046469   -1.7066249  0.066458883   -3.0046469     1.298022   545227 
 2416000    1.0004044   -3.0063173   -3.0063173   -1.7066945  0.058942426   -3.0063173    1.2996228   545227 
 2417000    0.9995438   -3.0051572   -3.0051572   -1.7066524  0.064989274   -3.0051572    1.2985048   545227 
 2418000    1.0005172   -3.0066857   -3.0066857   -1.7069163  0.056361196   -3.0066857    1.2997694   545227 
 2419000   0.99911213   -3.0045328   -3.0045328   -1.7065888  0.060621236   -3.0045328     1.297944   545227 
 2420000   0.99970146   -3.0042774   -3.0042774   -1.7055678  0.076053164   -3.0042774    1.2987096   545227 
 2421000   0.99927726   -3.0040055   -3.0040055   -1.7058469  0.059529321   -3.0040055    1.2981585   545227 
 2422000   0.99844375   -3.0037974   -3.0037974   -1.7067217  0.060230239   -3.0037974    1.2970757   545227 
 2423000    0.9988594   -3.0048626   -3.0048626   -1.7072469  0.064084973   -3.0048626    1.2976157   545227 
 2424000   0.99915033   -3.0048196   -3.0048196    -1.706826  0.067005731   -3.0048196    1.2979936   545227 
 2425000   0.99880963   -3.0050861   -3.0050861    -1.707535   0.06231923   -3.0050861     1.297551   545227 
 2426000    0.9982045   -3.0038151   -3.0038151   -1.7070501  0.063834935   -3.0038151    1.2967649   545227 
 2427000   0.99914593   -3.0045454   -3.0045454   -1.7065575  0.056336033   -3.0045454    1.2979879   545227 
 2428000   0.99929998   -3.0043329   -3.0043329   -1.7061449  0.061925036   -3.0043329    1.2981881   545227 
 2429000    1.0012321   -3.0054954   -3.0054954   -1.7047974  0.061964538   -3.0054954     1.300698   545227 
 2430000   0.99909207   -3.0032926   -3.0032926   -1.7053746   0.06841467   -3.0032926     1.297918   545227 
 2431000    1.0002242   -3.0052717   -3.0052717    -1.705883  0.063163611   -3.0052717    1.2993886   545227 
 2432000    0.9999437   -3.0043759   -3.0043759   -1.7053516  0.065315982   -3.0043759    1.2990243   545227 
 2433000     1.001307   -3.0059409   -3.0059409   -1.7051455  0.064343156   -3.0059409    1.3007954   545227 
 2434000    1.0017134   -3.0065435   -3.0065435   -1.7052202  0.061575899   -3.0065435    1.3013233   545227 
 2435000     1.002281   -3.0077384   -3.0077384   -1.7056777  0.058419636   -3.0077384    1.3020607   545227 
 2436000   0.99933858   -3.0039118   -3.0039118   -1.7056736  0.077866652   -3.0039118    1.2982382   545227 
 2437000    1.0009047    -3.006225    -3.006225   -1.7059523  0.064723177    -3.006225    1.3002727   545227 
 2438000     1.000817   -3.0061485   -3.0061485   -1.7059897  0.059784302   -3.0061485    1.3001588   545227 
 2439000    0.9997127   -3.0040365   -3.0040365   -1.7053123  0.057919498   -3.0040365    1.2987242   545227 
 2440000    1.0005569   -3.0059223   -3.0059223   -1.7061014  0.060738276   -3.0059223    1.2998209   545227 
 2441000    0.9994402   -3.0049054   -3.0049054   -1.7065352  0.075130723   -3.0049054    1.2983702   545227 
 2442000   0.99974067   -3.0051879   -3.0051879   -1.7064273  0.067337362   -3.0051879    1.2987606   545227 
 2443000    1.0007756    -3.006579    -3.006579    -1.706474  0.059545387    -3.006579     1.300105   545227 
 2444000    1.0008725   -3.0067473   -3.0067473   -1.7065164  0.064284727   -3.0067473    1.3002308   545227 
 2445000   0.99980973   -3.0056302   -3.0056302     -1.70678  0.061349265   -3.0056302    1.2988503   545227 
 2446000   0.99902156   -3.0054081   -3.0054081   -1.7075818  0.066254568   -3.0054081    1.2978264   545227 
 2447000   0.99922633   -3.0041277   -3.0041277   -1.7060353  0.061027828   -3.0041277    1.2980924   545227 
 2448000   0.99922057   -3.0052648   -3.0052648   -1.7071799  0.062278319   -3.0052648    1.2980849   545227 
 2449000   0.99998302   -3.0048302   -3.0048302   -1.7057548  0.061310987   -3.0048302    1.2990754   545227 
 2450000    1.0009092   -3.0062272   -3.0062272   -1.7059487  0.061833268   -3.0062272    1.3002785   545227 
 2451000   0.99974334   -3.0043446   -3.0043446   -1.7055806  0.057436625   -3.0043446     1.298764   545227 
 2452000    1.0000408   -3.0048932   -3.0048932   -1.7057427  0.060798083   -3.0048932    1.2991505   545227 
 2453000    1.0012606   -3.0063401   -3.0063401    -1.705605  0.066584228   -3.0063401    1.3007351   545227 
 2454000    1.0023884   -3.0071058   -3.0071058   -1.7049056  0.063629156   -3.0071058    1.3022002   545227 
 2455000    1.0022147   -3.0063047   -3.0063047   -1.7043302  0.075728231   -3.0063047    1.3019745   545227 
 2456000    1.0006161   -3.0048661   -3.0048661   -1.7049683  0.071061712   -3.0048661    1.2998979   545227 
 2457000    1.0022633   -3.0066728   -3.0066728   -1.7046352  0.063923252   -3.0066728    1.3020377   545227 
 2458000    1.0020073   -3.0064211   -3.0064211    -1.704716  0.059407917   -3.0064211    1.3017051   545227 
 2459000     1.000801   -3.0047806   -3.0047806   -1.7046426  0.069509522   -3.0047806     1.300138   545227 
 2460000    1.0009622   -3.0050778   -3.0050778   -1.7047304  0.065325822   -3.0050778    1.3003474   545227 
 2461000   0.99951176   -3.0033248   -3.0033248   -1.7048616  0.058938209   -3.0033248    1.2984632   545227 
 2462000    0.9984071   -3.0017776   -3.0017776   -1.7047495  0.062302034   -3.0017776    1.2970281   545227 
 2463000    1.0002786   -3.0048745   -3.0048745   -1.7054152  0.071218315   -3.0048745    1.2994594   545227 
 2464000   0.99965008   -3.0042396   -3.0042396   -1.7055967  0.060644675   -3.0042396    1.2986429   545227 
 2465000   0.99988866   -3.0040624   -3.0040624   -1.7051096  0.067680885   -3.0040624    1.2989528   545227 
 2466000   0.99899205   -3.0025897   -3.0025897   -1.7048017  0.067163089   -3.0025897     1.297788   545227 
 2467000   0.99837822   -3.0021557   -3.0021557   -1.7051651  0.059830584   -3.0021557    1.2969906   545227 
 2468000   0.99995297   -3.0039243   -3.0039243   -1.7048879  0.058222609   -3.0039243    1.2990363   545227 
 2469000   0.99921453   -3.0028169   -3.0028169   -1.7047399  0.068921826   -3.0028169     1.298077   545227 
 2470000    1.0001718   -3.0050736   -3.0050736    -1.705753  0.066368309   -3.0050736    1.2993207   545227 
 2471000    0.9998879   -3.0043349   -3.0043349   -1.7053831  0.058602042   -3.0043349    1.2989518   545227 
 2472000    1.0006857   -3.0043434   -3.0043434   -1.7043553  0.061607438   -3.0043434    1.2999882   545227 
 2473000    1.0006552   -3.0045825   -3.0045825   -1.7046339  0.065814698   -3.0045825    1.2999486   545227 
 2474000    1.0002787   -3.0036417   -3.0036417   -1.7041822  0.072283601   -3.0036417    1.2994595   545227 
 2475000   0.99935096   -3.0029043   -3.0029043     -1.70465  0.065161896   -3.0029043    1.2982543   545227 
 2476000    1.0010915   -3.0046643   -3.0046643    -1.704149  0.060123063   -3.0046643    1.3005154   545227 
 2477000    1.0006055   -3.0029118   -3.0029118   -1.7030278  0.067221427   -3.0029118     1.299884   545227 
 2478000    1.0006418   -3.0032201   -3.0032201   -1.7032889  0.061636136   -3.0032201    1.2999312   545227 
 2479000    1.0012481     -3.00375     -3.00375   -1.7030311   0.06422026     -3.00375    1.3007189   545227 
 2480000   0.99997304    -3.003381    -3.003381   -1.7043186  0.065838559    -3.003381    1.2990624   545227 
 2481000    1.0010388   -3.0047499   -3.0047499    -1.704303  0.063827516   -3.0047499    1.3004469   545227 
 2482000    1.0008546   -3.0044089   -3.0044089   -1.7042013   0.07002975   -3.0044089    1.3002076   545227 
 2483000   0.99903224   -3.0018216   -3.0018216   -1.7039813  0.069610463   -3.0018216    1.2978402   545227 
 2484000    1.0001399    -3.002821    -3.002821   -1.7035418  0.059945739    -3.002821    1.2992792   545227 
 2485000    1.0004045   -3.0030173   -3.0030173   -1.7033944  0.061753146   -3.0030173    1.2996229   545227 
 2486000    1.0006939   -3.0034818   -3.0034818   -1.7034829  0.071285431   -3.0034818    1.2999989   545227 
 2487000    1.0009497   -3.0047906   -3.0047906   -1.7044594  0.058379206   -3.0047906    1.3003312   545227 
 2488000   0.99858527   -3.0023807   -3.0023807   -1.7051211  0.056872136   -3.0023807    1.2972596   545227 
 2489000   0.99933891   -3.0030137   -3.0030137   -1.7047751  0.068043047   -3.0030137    1.2982386   545227 
 2490000   0.99922974    -3.003093    -3.003093   -1.7049962  0.058793095    -3.003093    1.2980968   545227 
 2491000   0.99916921   -3.0036037   -3.0036037   -1.7055856  0.053453283   -3.0036037    1.2980182   545227 
 2492000     1.000173   -3.0038512   -3.0038512    -1.704529  0.060877741   -3.0038512    1.2993222   545227 
 2493000   0.99947911   -3.0042521   -3.0042521   -1.7058314  0.061159649   -3.0042521    1.2984208   545227 
 2494000   0.99968739   -3.0037731   -3.0037731   -1.7050818  0.055400505   -3.0037731    1.2986913   545227 
 2495000   0.99905679   -3.0028303   -3.0028303   -1.7049581  0.061041721   -3.0028303    1.2978721   545227 
 2496000   0.99867199   -3.0027179   -3.0027179   -1.7053457  0.059307336   -3.0027179    1.2973722   545227 
 2497000    0.9992116   -3.0041102   -3.0041102    -1.706037  0.064258834   -3.0041102    1.2980732   545227 
 2498000   0.99927624    -3.004771    -3.004771   -1.7066138  0.066086874    -3.004771    1.2981572   545227 
 2499000   0.99769514   -3.0033938   -3.0033938   -1.7072906  0.059480545   -3.0033938    1.2961032   545227 
 2500000   0.99865771   -3.0040672   -3.0040672   -1.7067136  0.068406115   -3.0040672    1.2973537   545227 
 2501000   0.99969001   -3.0048758   -3.0048758    -1.706181  0.068175319   -3.0048758    1.2986947   545227 
 2502000   0.99835363   -3.0036844   -3.0036844   -1.7067257  0.060275484   -3.0036844    1.2969587   545227 
 2503000   0.99940345   -3.0038538   -3.0038538   -1.7055314  0.065556287   -3.0038538    1.2983225   545227 
 2504000   0.99953443   -3.0043849   -3.0043849   -1.7058922  0.062011383   -3.0043849    1.2984926   545227 
 2505000    0.9985915   -3.0050128   -3.0050128   -1.7077452  0.077988318   -3.0050128    1.2972677   545227 
 2506000   0.99951839   -3.0060781   -3.0060781   -1.7076063  0.068642128   -3.0060781    1.2984718   545227 
 2507000    1.0006333   -3.0072046   -3.0072046   -1.7072844  0.066793046   -3.0072046    1.2999202   545227 
 2508000    1.0014359   -3.0071216   -3.0071216   -1.7061588  0.069043303   -3.0071216    1.3009628   545227 
 2509000    1.0008644   -3.0056833   -3.0056833    -1.705463  0.072621709   -3.0056833    1.3002203   545227 
 2510000    1.0019074   -3.0072237   -3.0072237   -1.7056483  0.069703752   -3.0072237    1.3015754   545227 
 2511000    1.0010775   -3.0060966   -3.0060966   -1.7055994  0.073033583   -3.0060966    1.3004972   545227 
 2512000     1.001552   -3.0065509   -3.0065509   -1.7054373  0.069366062   -3.0065509    1.3011136   545227 
 2513000      1.00125   -3.0068978   -3.0068978   -1.7061765  0.065943193   -3.0068978    1.3007213   545227 
 2514000    1.0004646    -3.005936    -3.005936   -1.7062349  0.068116251    -3.005936     1.299701   545227 
 2515000   0.99993141   -3.0059107   -3.0059107   -1.7069023  0.063668332   -3.0059107    1.2990083   545227 
 2516000    1.0005656   -3.0067828   -3.0067828   -1.7069506  0.064069015   -3.0067828    1.2998322   545227 
 2517000    1.0013133   -3.0075515   -3.0075515   -1.7067479  0.060063717   -3.0075515    1.3008036   545227 
 2518000   0.99919704   -3.0057778   -3.0057778   -1.7077235  0.068496412   -3.0057778    1.2980543   545227 
 2519000   0.99904227   -3.0059777   -3.0059777   -1.7081244   0.06331635   -3.0059777    1.2978533   545227 
 2520000   0.99906429   -3.0065034   -3.0065034   -1.7086215  0.060228115   -3.0065034    1.2978819   545227 
 2521000   0.99871572   -3.0062443   -3.0062443   -1.7088153   0.06738186   -3.0062443     1.297429   545227 
 2522000   0.99769634   -3.0048173   -3.0048173   -1.7087125  0.060670718   -3.0048173    1.2961048   545227 
 2523000   0.99874256   -3.0056819   -3.0056819    -1.708218  0.057107101   -3.0056819    1.2974639   545227 
 2524000   0.99881464   -3.0053896   -3.0053896   -1.7078321  0.056516938   -3.0053896    1.2975575   545227 
 2525000   0.99848781   -3.0051594   -3.0051594   -1.7080265  0.060328012   -3.0051594     1.297133   545227 
 2526000   0.99834711   -3.0049322   -3.0049322    -1.707982  0.056978808   -3.0049322    1.2969502   545227 
 2527000   0.99840882   -3.0041801   -3.0041801   -1.7071497  0.065118201   -3.0041801    1.2970303   545227 
 2528000    1.0003071   -3.0058128   -3.0058128   -1.7063164  0.059012619   -3.0058128    1.2994964   545227 
 2529000   0.99734276   -3.0019195   -3.0019195    -1.706274   0.05744851   -3.0019195    1.2956454   545227 
 2530000   0.99839991   -3.0037202   -3.0037202   -1.7067015  0.062489204   -3.0037202    1.2970188   545227 
 2531000   0.99842033    -3.003585    -3.003585   -1.7065397  0.066343305    -3.003585    1.2970453   545227 
 2532000   0.99993108   -3.0040491   -3.0040491   -1.7050412  0.055993279   -3.0040491    1.2990079   545227 
 2533000    1.0015946   -3.0060612   -3.0060612   -1.7048922  0.061637022   -3.0060612     1.301169   545227 
 2534000   0.99840126   -3.0023778   -3.0023778   -1.7053573  0.069180179   -3.0023778    1.2970205   545227 
 2535000   0.99889568   -3.0043165   -3.0043165   -1.7066537  0.066846185   -3.0043165    1.2976628   545227 
 2536000    0.9991419   -3.0044137   -3.0044137    -1.706431  0.064052549   -3.0044137    1.2979827   545227 
 2537000   0.99985228   -3.0060174   -3.0060174   -1.7071119  0.066420303   -3.0060174    1.2989055   545227 
 2538000   0.99953792   -3.0053456   -3.0053456   -1.7068484  0.069841691   -3.0053456    1.2984972   545227 
 2539000   0.99980677    -3.004892    -3.004892   -1.7060456  0.061453404    -3.004892    1.2988464   545227 
 2540000    1.0003646   -3.0061592   -3.0061592   -1.7065881  0.063962653   -3.0061592    1.2995711   545227 
 2541000    0.9980192   -3.0035353   -3.0035353   -1.7070111  0.069019692   -3.0035353    1.2965242   545227 
 2542000    0.9984274   -3.0040055   -3.0040055    -1.706951  0.059898089   -3.0040055    1.2970545   545227 
 2543000   0.99891173   -3.0048983   -3.0048983   -1.7072146  0.061190354   -3.0048983    1.2976837   545227 
 2544000   0.99894063   -3.0052795   -3.0052795   -1.7075583  0.062511385   -3.0052795    1.2977212   545227 
 2545000   0.99937808   -3.0040851   -3.0040851   -1.7057956  0.073049393   -3.0040851    1.2982895   545227 
 2546000     1.000567   -3.0052224   -3.0052224   -1.7053883  0.058956227   -3.0052224    1.2998341   545227 
 2547000   0.99937717   -3.0052892   -3.0052892   -1.7070009  0.055226041   -3.0052892    1.2982883   545227 
 2548000   0.99900206    -3.005056    -3.005056    -1.707255  0.060820893    -3.005056     1.297801   545227 
 2549000   0.99943748   -3.0043844   -3.0043844   -1.7060178   0.06423143   -3.0043844    1.2983667   545227 
 2550000   0.99842555   -3.0045109   -3.0045109   -1.7074589  0.065701146   -3.0045109    1.2970521   545227 
 2551000    1.0001852   -3.0066296   -3.0066296   -1.7072916    0.0602249   -3.0066296     1.299338   545227 
 2552000   0.99926975   -3.0056731   -3.0056731   -1.7075244  0.070189402   -3.0056731    1.2981488   545227 
 2553000   0.99888545    -3.005054    -3.005054   -1.7074045  0.068303883    -3.005054    1.2976495   545227 
 2554000   0.99913751   -3.0059513   -3.0059513   -1.7079743  0.052223234   -3.0059513     1.297977   545227 
 2555000   0.99893908   -3.0059995   -3.0059995   -1.7082803  0.061696411   -3.0059995    1.2977192   545227 
 2556000   0.99979422   -3.0062187   -3.0062187   -1.7073886  0.064191882   -3.0062187    1.2988301   545227 
 2557000   0.99846685   -3.0055964   -3.0055964   -1.7084907  0.060375329   -3.0055964    1.2971057   545227 
 2558000    0.9979191   -3.0035036   -3.0035036   -1.7071094  0.069099954   -3.0035036    1.2963941   545227 
 2559000   0.99847567    -3.004188    -3.004188   -1.7070708   0.06628932    -3.004188    1.2971172   545227 
 2560000   0.99861043   -3.0045759   -3.0045759   -1.7072836  0.063083813   -3.0045759    1.2972923   545227 
 2561000   0.99968283    -3.004863    -3.004863   -1.7061776   0.06791867    -3.004863    1.2986854   545227 
 2562000   0.99985143   -3.0061017   -3.0061017   -1.7071973  0.063935992   -3.0061017    1.2989044   545227 
 2563000   0.99949919   -3.0058723   -3.0058723   -1.7074254  0.069938787   -3.0058723    1.2984468   545227 
 2564000    1.0018481    -3.008829    -3.008829   -1.7073308  0.073573232    -3.008829    1.3014983   545227 
 2565000    1.0014856   -3.0082825   -3.0082825   -1.7072552  0.063221464   -3.0082825    1.3010273   545227 
 2566000    1.0018746   -3.0081374   -3.0081374   -1.7066047  0.074327275   -3.0081374    1.3015327   545227 
 2567000    1.0013766   -3.0082338   -3.0082338   -1.7073481   0.06936017   -3.0082338    1.3008857   545227 
 2568000    1.0003829   -3.0066376   -3.0066376   -1.7070428   0.06708673   -3.0066376    1.2995949   545227 
 2569000     1.000748   -3.0069359   -3.0069359   -1.7068667  0.074443902   -3.0069359    1.3000692   545227 
 2570000    1.0030015    -3.008875    -3.008875   -1.7058783  0.065395699    -3.008875    1.3029967   545227 
 2571000    1.0009197   -3.0066831   -3.0066831   -1.7063909  0.069084805   -3.0066831    1.3002923   545227 
 2572000    1.0013776   -3.0075189   -3.0075189   -1.7066318  0.065438781   -3.0075189    1.3008871   545227 
 2573000   0.99931946   -3.0043814   -3.0043814   -1.7061681  0.066734204   -3.0043814    1.2982133   545227 
 2574000    1.0003887    -3.005722    -3.005722   -1.7061197  0.061603185    -3.005722    1.2996024   545227 
 2575000   0.99909546   -3.0043427   -3.0043427   -1.7064204  0.067204097   -3.0043427    1.2979223   545227 
 2576000   0.99945005   -3.0052659   -3.0052659   -1.7068829  0.059097552   -3.0052659     1.298383   545227 
 2577000   0.99884604   -3.0039371   -3.0039371   -1.7063388  0.066012234   -3.0039371    1.2975983   545227 
 2578000    1.0000685   -3.0050832   -3.0050832   -1.7058968  0.071915355   -3.0050832    1.2991864   545227 
 2579000    0.9989871   -3.0030646   -3.0030646    -1.705283  0.076047413   -3.0030646    1.2977816   545227 
 2580000   0.99980142   -3.0044807   -3.0044807   -1.7056412  0.059011154   -3.0044807    1.2988395   545227 
 2581000    0.9996968   -3.0040283   -3.0040283   -1.7053247  0.059550851   -3.0040283    1.2987036   545227 
 2582000   0.99905288   -3.0030052   -3.0030052   -1.7051382  0.062610769   -3.0030052     1.297867   545227 
 2583000   0.99971376   -3.0037176   -3.0037176    -1.704992  0.054489112   -3.0037176    1.2987256   545227 
 2584000   0.99994517   -3.0027807   -3.0027807   -1.7037545  0.056652718   -3.0027807    1.2990262   545227 
 2585000   0.99918586   -3.0022621   -3.0022621   -1.7042223  0.062826877   -3.0022621    1.2980398   545227 
 2586000   0.99835799   -3.0016433   -3.0016433    -1.704679  0.065642111   -3.0016433    1.2969643   545227 
 2587000    1.0003302   -3.0040311   -3.0040311   -1.7045046  0.057818332   -3.0040311    1.2995264   545227 
 2588000   0.99942874   -3.0031817   -3.0031817   -1.7048264  0.059630356   -3.0031817    1.2983553   545227 
 2589000   0.99926456   -3.0025056   -3.0025056   -1.7043635  0.063031468   -3.0025056     1.298142   545227 
 2590000    1.0001882   -3.0039114   -3.0039114   -1.7045695  0.058119657   -3.0039114    1.2993419   545227 
 2591000    0.9980166   -3.0012875   -3.0012875   -1.7047667  0.053048001   -3.0012875    1.2965208   545227 
 2592000   0.99813809   -3.0003355   -3.0003355   -1.7036569  0.069840148   -3.0003355    1.2966786   545227 
 2593000   0.99972796   -3.0024991   -3.0024991   -1.7037551  0.060609094   -3.0024991     1.298744   545227 
 2594000   0.99902987   -3.0018753   -3.0018753   -1.7040381  0.069703195   -3.0018753    1.2978372   545227 
 2595000    1.0006319   -3.0040525   -3.0040525   -1.7041342  0.059314182   -3.0040525    1.2999183   545227 
 2596000     1.000892   -3.0033885   -3.0033885   -1.7031324  0.072071854   -3.0033885    1.3002562   545227 
 2597000    1.0002149   -3.0026106   -3.0026106    -1.703234  0.061096593   -3.0026106    1.2993766   545227 
 2598000    0.9985393    -3.001124    -3.001124   -1.7039241   0.07021093    -3.001124    1.2971999   545227 
 2599000    1.0007474   -3.0038679   -3.0038679   -1.7037994  0.066341513   -3.0038679    1.3000684   545227 
 2600000   0.99988146    -3.002672    -3.002672   -1.7037286  0.069259166    -3.002672    1.2989434   545227 
 2601000    1.0000855   -3.0031721   -3.0031721   -1.7039636  0.049969804   -3.0031721    1.2992085   545227 
 2602000    1.0008751   -3.0044041   -3.0044041   -1.7041698  0.069821019   -3.0044041    1.3002343   545227 
 2603000   0.99982185   -3.0035319   -3.0035319   -1.7046659  0.065972598   -3.0035319     1.298866   545227 
 2604000   0.99850184   -3.0025957   -3.0025957   -1.7054445  0.066902467   -3.0025957    1.2971512   545227 
 2605000    1.0004721   -3.0046604   -3.0046604   -1.7049496  0.072533979   -3.0046604    1.2997108   545227 
 2606000    1.0004097   -3.0042083   -3.0042083   -1.7045786  0.064032535   -3.0042083    1.2996297   545227 
 2607000    1.0001655   -3.0037686   -3.0037686   -1.7044561  0.062566171   -3.0037686    1.2993125   545227 
 2608000    1.0004753   -3.0051931   -3.0051931   -1.7054782   0.06749052   -3.0051931    1.2997149   545227 
 2609000    1.0006311   -3.0056074   -3.0056074   -1.7056901   0.06961078   -3.0056074    1.2999174   545227 
 2610000    1.0017591   -3.0076809   -3.0076809   -1.7062982  0.054606479   -3.0076809    1.3013826   545227 
 2611000   0.99969143   -3.0050574   -3.0050574   -1.7063609  0.062548581   -3.0050574    1.2986966   545227 
 2612000    1.0007204   -3.0064359   -3.0064359   -1.7064026  0.073493314   -3.0064359    1.3000333   545227 
 2613000   0.99949433    -3.005544    -3.005544   -1.7071035  0.065775603    -3.005544    1.2984405   545227 
 2614000   0.99832096   -3.0044236   -3.0044236   -1.7075074  0.063886441   -3.0044236    1.2969162   545227 
 2615000    1.0000969    -3.004862    -3.004862   -1.7056387  0.065296161    -3.004862    1.2992233   545227 
 2616000   0.99992052   -3.0040885   -3.0040885   -1.7050943  0.056599711   -3.0040885    1.2989942   545227 
 2617000    1.0001355   -3.0054869   -3.0054869   -1.7062135  0.063643896   -3.0054869    1.2992734   545227 
 2618000   0.99986709    -3.004197    -3.004197   -1.7052722  0.064593217    -3.004197    1.2989248   545227 
 2619000   0.99946831    -3.004592    -3.004592   -1.7061853  0.059254737    -3.004592    1.2984067   545227 
 2620000   0.99981205   -3.0046619   -3.0046619   -1.7058086  0.061913424   -3.0046619    1.2988533   545227 
 2621000    1.0005989    -3.005279    -3.005279   -1.7054036  0.068650753    -3.005279    1.2998754   545227 
 2622000    0.9997033   -3.0042405   -3.0042405   -1.7055285  0.067191414   -3.0042405     1.298712   545227 
 2623000    1.0023959   -3.0077296   -3.0077296   -1.7055196  0.066552147   -3.0077296    1.3022099   545227 
 2624000    1.0012307    -3.006316    -3.006316   -1.7056198  0.061494556    -3.006316    1.3006962   545227 
 2625000   0.99890648   -3.0036115   -3.0036115   -1.7059346   0.06646654   -3.0036115    1.2976769   545227 
 2626000   0.99879028   -3.0038746   -3.0038746   -1.7063487  0.065900872   -3.0038746    1.2975259   545227 
 2627000   0.99965022   -3.0046017   -3.0046017   -1.7059587  0.073446463   -3.0046017     1.298643   545227 
 2628000    0.9993089   -3.0041328   -3.0041328   -1.7059332  0.053244257   -3.0041328    1.2981996   545227 
 2629000    1.0001294   -3.0048955   -3.0048955     -1.70563  0.065262573   -3.0048955    1.2992656   545227 
 2630000   0.99933438   -3.0036726   -3.0036726   -1.7054399    0.0700741   -3.0036726    1.2982327   545227 
 2631000   0.99908342    -3.003628    -3.003628   -1.7057213  0.057639586    -3.003628    1.2979067   545227 
 2632000   0.99964582   -3.0038949   -3.0038949   -1.7052576  0.069964754   -3.0038949    1.2986373   545227 
 2633000   0.99901013   -3.0033896   -3.0033896   -1.7055781  0.061501577   -3.0033896    1.2978115   545227 
 2634000   0.99756545   -3.0022377   -3.0022377    -1.706303  0.063767269   -3.0022377    1.2959347   545227 
 2635000   0.99762338   -3.0022978   -3.0022978   -1.7062878  0.061517535   -3.0022978      1.29601   545227 
 2636000   0.99893649   -3.0030876   -3.0030876   -1.7053718  0.065215219   -3.0030876    1.2977158   545227 
 2637000    1.0006944   -3.0047052   -3.0047052   -1.7047056  0.057375914   -3.0047052    1.2999996   545227 
 2638000   0.99830799   -3.0018127   -3.0018127   -1.7049134  0.061776501   -3.0018127    1.2968994   545227 
 2639000   0.99968179   -3.0035197   -3.0035197   -1.7048357   0.05608119   -3.0035197    1.2986841   545227 
 2640000    1.0003907   -3.0049316   -3.0049316   -1.7053266  0.054054183   -3.0049316     1.299605   545227 
 2641000    1.0005086   -3.0034512   -3.0034512   -1.7036931  0.059383726   -3.0034512    1.2997581   545227 
 2642000   0.99774982   -3.0006027   -3.0006027   -1.7044285  0.061608515   -3.0006027    1.2961742   545227 
 2643000   0.99936752   -3.0024699   -3.0024699   -1.7041941  0.068346007   -3.0024699    1.2982758   545227 
 2644000   0.99938176   -3.0025355   -3.0025355   -1.7042412  0.066747972   -3.0025355    1.2982943   545227 
 2645000   0.99924691   -3.0021546   -3.0021546   -1.7040355  0.062418164   -3.0021546    1.2981191   545227 
 2646000   0.99896016   -3.0017326   -3.0017326    -1.703986  0.063992615   -3.0017326    1.2977466   545227 
 2647000    1.0006183   -3.0041334   -3.0041334   -1.7042328   0.06332323   -3.0041334    1.2999007   545227 
 2648000    0.9995739   -3.0028837   -3.0028837   -1.7043398  0.056095186   -3.0028837    1.2985439   545227 
 2649000    0.9996627   -3.0023935   -3.0023935   -1.7037343  0.065681864   -3.0023935    1.2986593   545227 
 2650000   0.99850062   -3.0009719   -3.0009719   -1.7038223   0.06552497   -3.0009719    1.2971496   545227 
 2651000   0.99895222   -3.0012963   -3.0012963     -1.70356  0.066785859   -3.0012963    1.2977363   545227 
 2652000   0.99881621   -3.0004095   -3.0004095   -1.7028499  0.066548859   -3.0004095    1.2975596   545227 
 2653000    1.0004423   -3.0027586   -3.0027586   -1.7030865  0.060000924   -3.0027586    1.2996721   545227 
 2654000    1.0003615   -3.0023416   -3.0023416   -1.7027745  0.065349378   -3.0023416    1.2995671   545227 
 2655000     1.000635    -3.003061    -3.003061   -1.7031387  0.061482935    -3.003061    1.2999223   545227 
 2656000    1.0009728    -3.002779    -3.002779   -1.7024178  0.058755219    -3.002779    1.3003612   545227 
 2657000    1.0011763   -3.0024843   -3.0024843   -1.7018587  0.055957192   -3.0024843    1.3006256   545227 
 2658000    1.0004641   -3.0013967   -3.0013967   -1.7016964  0.058840858   -3.0013967    1.2997003   545227 
 2659000    1.0006409   -3.0016084   -3.0016084   -1.7016784  0.060175459   -3.0016084      1.29993   545227 
 2660000    1.0003301   -3.0008397   -3.0008397   -1.7013135  0.059732004   -3.0008397    1.2995263   545227 
 2661000    1.0006415   -3.0014062   -3.0014062   -1.7014753  0.057496806   -3.0014062    1.2999309   545227 
 2662000    1.0007549   -3.0019254   -3.0019254   -1.7018472  0.063349517   -3.0019254    1.3000782   545227 
 2663000   0.99793257   -2.9986946   -2.9986946    -1.702283   0.07241353   -2.9986946    1.2964117   545227 
 2664000   0.99823144   -2.9995794   -2.9995794   -1.7027794  0.069699078   -2.9995794    1.2967999   545227 
 2665000    1.0003007     -3.00207     -3.00207   -1.7025819  0.060750622     -3.00207    1.2994881   545227 
 2666000    1.0005269   -3.0017528   -3.0017528   -1.7019709  0.066587247   -3.0017528    1.2997819   545227 
 2667000   0.99858506   -2.9991246   -2.9991246   -1.7018653  0.064354624   -2.9991246    1.2972593   545227 
 2668000   0.99998983   -3.0012548   -3.0012548   -1.7021706  0.054993576   -3.0012548    1.2990842   545227 
 2669000   0.99917653   -3.0001203   -3.0001203   -1.7020927  0.060964866   -3.0001203    1.2980277   545227 
 2670000   0.99858434   -2.9994863   -2.9994863   -1.7022279  0.059371246   -2.9994863    1.2972584   545227 
 2671000    0.9995967   -2.9993111   -2.9993111   -1.7007376  0.059626552   -2.9993111    1.2985735   545227 
 2672000    1.0000916   -3.0005952   -3.0005952   -1.7013787  0.066738849   -3.0005952    1.2992165   545227 
 2673000    1.0005079   -3.0016498   -3.0016498   -1.7018925  0.065908697   -3.0016498    1.2997573   545227 
 2674000   0.99909946    -3.000029    -3.000029   -1.7021014  0.060377144    -3.000029    1.2979276   545227 
 2675000   0.99975999   -3.0009841   -3.0009841   -1.7021985  0.059984837   -3.0009841    1.2987856   545227 
 2676000    1.0008379   -3.0020851   -3.0020851   -1.7018992   0.06697803   -3.0020851    1.3001859   545227 
 2677000   0.99958831   -3.0007714   -3.0007714   -1.7022088   0.06986533   -3.0007714    1.2985626   545227 
 2678000    1.0008484   -3.0028584   -3.0028584   -1.7026588  0.069967272   -3.0028584    1.3001996   545227 
 2679000      1.00046   -3.0032741   -3.0032741   -1.7035791  0.058703786   -3.0032741     1.299695   545227 
 2680000   0.99972267   -3.0026946   -3.0026946   -1.7039575  0.065503032   -3.0026946    1.2987372   545227 
 2681000   0.99921937   -3.0000801   -3.0000801   -1.7019968  0.066332707   -3.0000801    1.2980833   545227 
 2682000    1.0004999   -3.0027647   -3.0027647   -1.7030178  0.065725941   -3.0027647    1.2997469   545227 
 2683000    1.0000148   -3.0020833   -3.0020833   -1.7029666   0.06486337   -3.0020833    1.2991167   545227 
 2684000   0.99958799   -3.0019913   -3.0019913   -1.7034291  0.064792095   -3.0019913    1.2985622   545227 
 2685000    1.0007761   -3.0032165   -3.0032165   -1.7031109  0.064566898   -3.0032165    1.3001057   545227 
 2686000    1.0005436   -3.0037585   -3.0037585   -1.7039549  0.060901014   -3.0037585    1.2998036   545227 
 2687000   0.99904091   -3.0019097   -3.0019097   -1.7040582  0.071857113   -3.0019097    1.2978515   545227 
 2688000   0.99909434   -3.0022847   -3.0022847   -1.7043638  0.058893125   -3.0022847    1.2979209   545227 
 2689000   0.99933003   -3.0026082   -3.0026082   -1.7043812  0.062726936   -3.0026082    1.2982271   545227 
 2690000   0.99999525   -3.0033119   -3.0033119   -1.7042206  0.062540934   -3.0033119    1.2990913   545227 
 2691000   0.99807413    -3.001819    -3.001819   -1.7052235  0.069109114    -3.001819    1.2965955   545227 
 2692000   0.99895917   -3.0028659   -3.0028659   -1.7051206  0.066677168   -3.0028659    1.2977453   545227 
 2693000   0.99917033    -3.002728    -3.002728   -1.7047084  0.075279765    -3.002728    1.2980196   545227 
 2694000   0.99962947   -3.0034296   -3.0034296   -1.7048135  0.067117744   -3.0034296    1.2986161   545227 
 2695000   0.99960315   -3.0028865   -3.0028865   -1.7043047  0.064172246   -3.0028865    1.2985819   545227 
 2696000   0.99997663   -3.0034361   -3.0034361    -1.704369   0.07018265   -3.0034361    1.2990671   545227 
 2697000    1.0005479   -3.0044988   -3.0044988   -1.7046896  0.069195559   -3.0044988    1.2998092   545227 
 2698000    1.0009622   -3.0044465   -3.0044465   -1.7040991  0.063488906   -3.0044465    1.3003474   545227 
 2699000    1.0012372    -3.004868    -3.004868   -1.7041633  0.064682408    -3.004868    1.3007047   545227 
 2700000    1.0012194   -3.0051462   -3.0051462   -1.7044646  0.063803214   -3.0051462    1.3006816   545227 
 2701000    1.0017386     -3.00572     -3.00572    -1.704364  0.068214439     -3.00572    1.3013561   545227 
 2702000    1.0009698   -3.0047931   -3.0047931   -1.7044357  0.064279314   -3.0047931    1.3003573   545227 
 2703000   0.99884069   -3.0029778   -3.0029778   -1.7053864  0.066094275   -3.0029778    1.2975914   545227 
 2704000    0.9993187   -3.0023161   -3.0023161   -1.7041037  0.064607545   -3.0023161    1.2982124   545227 
 2705000    1.0003687   -3.0034263   -3.0034263   -1.7038499  0.069822931   -3.0034263    1.2995764   545227 
 2706000   0.99939709   -3.0014196   -3.0014196   -1.7031054  0.070698687   -3.0014196    1.2983142   545227 
 2707000   0.99978904   -3.0018586   -3.0018586   -1.7030352   0.07554276   -3.0018586    1.2988234   545227 
 2708000    1.0013774   -3.0041392   -3.0041392   -1.7032524  0.063184162   -3.0041392    1.3008868   545227 
 2709000    1.0013498   -3.0040098   -3.0040098   -1.7031589  0.072010274   -3.0040098    1.3008509   545227 
 2710000    1.0004473    -3.003627    -3.003627   -1.7039485  0.060386956    -3.003627    1.2996785   545227 
 2711000   0.99874748    -3.001648    -3.001648   -1.7041778  0.063954053    -3.001648    1.2974703   545227 
 2712000   0.99706228   -3.0002464   -3.0002464   -1.7049653  0.070634756   -3.0002464    1.2952811   545227 
 2713000   0.99896775   -3.0017457   -3.0017457   -1.7039893  0.063744544   -3.0017457    1.2977564   545227 
 2714000   0.99954449   -3.0023048   -3.0023048   -1.7037992  0.058715692   -3.0023048    1.2985057   545227 
 2715000    1.0001819   -3.0038297   -3.0038297    -1.704496   0.05429354   -3.0038297    1.2993337   545227 
 2716000   0.99834004   -3.0010417   -3.0010417   -1.7041008  0.060916449   -3.0010417     1.296941   545227 
 2717000   0.99749336   -3.0010438   -3.0010438   -1.7052027  0.058277738   -3.0010438    1.2958411   545227 
 2718000    0.9973807   -2.9996675   -2.9996675   -1.7039728  0.065957474   -2.9996675    1.2956947   545227 
 2719000   0.99784203   -3.0006769   -3.0006769   -1.7043829  0.065295232   -3.0006769     1.296294   545227 
 2720000    0.9975513   -3.0008648   -3.0008648   -1.7049484  0.061636429   -3.0008648    1.2959163   545227 
 2721000   0.99858297   -3.0016524   -3.0016524   -1.7043958  0.061081326   -3.0016524    1.2972566   545227 
 2722000    0.9980496   -3.0008544   -3.0008544   -1.7042907  0.061665984   -3.0008544    1.2965637   545227 
 2723000    0.9988947   -3.0026195   -3.0026195   -1.7049579  0.060641367   -3.0026195    1.2976615   545227 
 2724000    0.9988508   -3.0028856   -3.0028856   -1.7052811  0.067146821   -3.0028856    1.2976045   545227 
 2725000    1.0000208   -3.0040979   -3.0040979   -1.7049735  0.061395746   -3.0040979    1.2991245   545227 
 2726000    0.9983192   -3.0016346   -3.0016346   -1.7047207  0.062655023   -3.0016346    1.2969139   545227 
 2727000   0.99997672   -3.0036126   -3.0036126   -1.7045454  0.068482611   -3.0036126    1.2990672   545227 
 2728000   0.99969849   -3.0022753   -3.0022753   -1.7035695  0.061023664   -3.0022753    1.2987058   545227 
 2729000      0.99949   -3.0020464   -3.0020464   -1.7036115  0.066072813   -3.0020464    1.2984349   545227 
 2730000   0.99864271   -3.0013547   -3.0013547   -1.7040205  0.066938671   -3.0013547    1.2973342   545227 
 2731000    1.0000209   -3.0028123   -3.0028123   -1.7036877  0.060633354   -3.0028123    1.2991246   545227 
 2732000    1.0004436   -3.0028731   -3.0028731   -1.7031994  0.069068787   -3.0028731    1.2996737   545227 
 2733000    1.0012455   -3.0043298   -3.0043298   -1.7036144   0.07389176   -3.0043298    1.3007154   545227 
 2734000    1.0006718   -3.0039579   -3.0039579   -1.7039877  0.073039112   -3.0039579    1.2999702   545227 
 2735000    1.0004092   -3.0039561   -3.0039561    -1.704327  0.072214107   -3.0039561    1.2996291   545227 
 2736000   0.99947846   -3.0032247   -3.0032247   -1.7048048  0.067043351   -3.0032247    1.2984199   545227 
 2737000    1.0004059   -3.0048431   -3.0048431   -1.7052184  0.072602748   -3.0048431    1.2996247   545227 
 2738000    1.0006771   -3.0051535   -3.0051535   -1.7051764  0.063967926   -3.0051535    1.2999771   545227 
 2739000    1.0000882   -3.0039651   -3.0039651   -1.7047531   0.07016088   -3.0039651     1.299212   545227 
 2740000   0.99939282   -3.0031784   -3.0031784   -1.7048698  0.064218254   -3.0031784    1.2983087   545227 
 2741000   0.99983346   -3.0038703   -3.0038703   -1.7049892  0.072166596   -3.0038703    1.2988811   545227 
 2742000   0.99951558   -3.0040509   -3.0040509   -1.7055828  0.061717851   -3.0040509    1.2984681   545227 
 2743000   0.99968061   -3.0040567   -3.0040567   -1.7053742   0.06720213   -3.0040567    1.2986825   545227 
 2744000   0.99973573   -3.0044656   -3.0044656   -1.7057115  0.068214593   -3.0044656    1.2987541   545227 
 2745000    1.0006704   -3.0044097   -3.0044097   -1.7044413   0.06437211   -3.0044097    1.2999684   545227 
 2746000   0.99883118     -3.00243     -3.00243   -1.7048509  0.067919996     -3.00243     1.297579   545227 
 2747000   0.99955868   -3.0030412   -3.0030412    -1.704517  0.067971687   -3.0030412    1.2985241   545227 
 2748000     1.000324   -3.0035242   -3.0035242   -1.7040058  0.064579306   -3.0035242    1.2995183   545227 
 2749000    1.0013504   -3.0044888   -3.0044888    -1.703637  0.073666276   -3.0044888    1.3008518   545227 
 2750000    1.0009832   -3.0041554   -3.0041554   -1.7037807  0.070811136   -3.0041554    1.3003747   545227 
 2751000   0.99998793   -3.0019939   -3.0019939   -1.7029121  0.070072586   -3.0019939    1.2990818   545227 
 2752000    1.0017072   -3.0035194   -3.0035194   -1.7022041  0.060607549   -3.0035194    1.3013152   545227 
 2753000    1.0021336   -3.0052195   -3.0052195   -1.7033504  0.069073862   -3.0052195    1.3018692   545227 
 2754000    1.0013842   -3.0028965   -3.0028965   -1.7020008  0.066132709   -3.0028965    1.3008957   545227 
 2755000    1.0018104   -3.0041455   -3.0041455   -1.7026961   0.06091827   -3.0041455    1.3014493   545227 
 2756000    1.0012468    -3.003375    -3.003375   -1.7026578    0.0649788    -3.003375    1.3007172   545227 
 2757000   0.99956438   -3.0010237   -3.0010237   -1.7024922  0.072462237   -3.0010237    1.2985315   545227 
 2758000    1.0006931   -3.0023632   -3.0023632   -1.7023653  0.064187043   -3.0023632    1.2999979   545227 
 2759000    1.0008367    -3.002995    -3.002995   -1.7028106  0.064375901    -3.002995    1.3001844   545227 
 2760000   0.99985176   -3.0023482   -3.0023482   -1.7034434  0.071146415   -3.0023482    1.2989049   545227 
 2761000    1.0001393   -3.0027876   -3.0027876   -1.7035093  0.065795522   -3.0027876    1.2992783   545227 
 2762000   0.99899221    -3.001776    -3.001776   -1.7039878  0.068820289    -3.001776    1.2977882   545227 
 2763000   0.99916327   -3.0010881   -3.0010881   -1.7030777  0.067178457   -3.0010881    1.2980105   545227 
 2764000   0.99872811   -3.0009439   -3.0009439   -1.7034988  0.060320013   -3.0009439    1.2974451   545227 
 2765000   0.99740097   -2.9993566   -2.9993566   -1.7036356  0.070591897   -2.9993566    1.2957211   545227 
 2766000    1.0000825   -3.0035734   -3.0035734   -1.7043687  0.048528257   -3.0035734    1.2992046   545227 
 2767000   0.99769951   -3.0002141   -3.0002141   -1.7041052  0.071116581   -3.0002141    1.2961089   545227 
 2768000   0.99973667   -3.0025102   -3.0025102   -1.7037549  0.061650627   -3.0025102    1.2987553   545227 
 2769000   0.99807677   -2.9998437   -2.9998437   -1.7032447  0.071578474   -2.9998437     1.296599   545227 
 2770000    1.0001072   -3.0030108   -3.0030108   -1.7037742  0.053460234   -3.0030108    1.2992367   545227 
 2771000    1.0000291   -3.0021573   -3.0021573    -1.703022  0.057681375   -3.0021573    1.2991353   545227 
 2772000   0.99889108   -3.0015383   -3.0015383   -1.7038814  0.059994046   -3.0015383    1.2976568   545227 
 2773000    1.0004996   -3.0027092   -3.0027092   -1.7029628  0.070517993   -3.0027092    1.2997465   545227 
 2774000    1.0007672   -3.0031979   -3.0031979   -1.7031037  0.065004973   -3.0031979    1.3000941   545227 
 2775000    0.9996458   -3.0017996   -3.0017996   -1.7031623  0.066877155   -3.0017996    1.2986373   545227 
 2776000   0.99967192   -3.0026221   -3.0026221   -1.7039509  0.062457394   -3.0026221    1.2986712   545227 
 2777000   0.99947254   -3.0026591   -3.0026591   -1.7042468  0.065135229   -3.0026591    1.2984122   545227 
 2778000    1.0002653   -3.0031531   -3.0031531   -1.7037109  0.067376171   -3.0031531    1.2994422   545227 
 2779000    1.0009588   -3.0032136   -3.0032136   -1.7028706  0.058676079   -3.0032136     1.300343   545227 
 2780000     1.000053   -3.0029513   -3.0029513    -1.703785  0.074379276   -3.0029513    1.2991663   545227 
 2781000    1.0015031   -3.0047122   -3.0047122   -1.7036621  0.066741755   -3.0047122    1.3010501   545227 
 2782000   0.99916615   -3.0013371   -3.0013371   -1.7033229  0.064353414   -3.0013371    1.2980142   545227 
 2783000    1.0005334   -3.0026098   -3.0026098   -1.7028195  0.069757072   -3.0026098    1.2997903   545227 
 2784000    1.0014675   -3.0042746   -3.0042746   -1.7032708  0.065250343   -3.0042746    1.3010038   545227 
 2785000    1.0000809   -3.0032567   -3.0032567   -1.7040542  0.069489814   -3.0032567    1.2992025   545227 
 2786000     1.000607   -3.0030975   -3.0030975   -1.7032116  0.075912939   -3.0030975     1.299886   545227 
 2787000    1.0005265   -3.0026521   -3.0026521   -1.7028707   0.07551243   -3.0026521    1.2997814   545227 
 2788000    1.0006736   -3.0033706   -3.0033706   -1.7033981  0.068509716   -3.0033706    1.2999726   545227 
 2789000    1.0004399   -3.0036296   -3.0036296   -1.7039607  0.059850885   -3.0036296    1.2996689   545227 
 2790000   0.99969682   -3.0020892   -3.0020892   -1.7033856  0.067302196   -3.0020892    1.2987036   545227 
 2791000   0.99915224   -3.0007983   -3.0007983   -1.7028022  0.062962442   -3.0007983    1.2979961   545227 
 2792000    1.0006675   -3.0024856   -3.0024856    -1.702521  0.067526089   -3.0024856    1.2999647   545227 
 2793000    1.0002786   -3.0029545   -3.0029545   -1.7034951  0.065689687   -3.0029545    1.2994594   545227 
 2794000   0.99999257    -3.002089    -3.002089   -1.7030012  0.066769528    -3.002089    1.2990878   545227 
 2795000    1.0007667   -3.0028588   -3.0028588   -1.7027653  0.064710275   -3.0028588    1.3000935   545227 
 2796000   0.99999929   -3.0021656   -3.0021656    -1.703069  0.068950089   -3.0021656    1.2990965   545227 
 2797000   0.99960265   -3.0016746   -3.0016746   -1.7030933   0.06552626   -3.0016746    1.2985812   545227 
 2798000      1.00129   -3.0026631   -3.0026631   -1.7018898  0.066123427   -3.0026631    1.3007733   545227 
 2799000   0.99935544   -3.0006894   -3.0006894   -1.7024293  0.062758252   -3.0006894    1.2982601   545227 
 2800000    1.0006189   -3.0018587   -3.0018587   -1.7019573  0.066013415   -3.0018587    1.2999014   545227 
 2801000    1.0012589   -3.0028358   -3.0028358   -1.7021029  0.067468885   -3.0028358    1.3007329   545227 
 2802000    1.0004529   -3.0023474   -3.0023474   -1.7026616  0.070941752   -3.0023474    1.2996859   545227 
 2803000    1.0000273   -3.0016132   -3.0016132   -1.7024803  0.065793305   -3.0016132    1.2991329   545227 
 2804000   0.99990366   -3.0017437   -3.0017437   -1.7027714  0.055264851   -3.0017437    1.2989723   545227 
 2805000   0.99934047   -3.0002105   -3.0002105   -1.7019698  0.070824731   -3.0002105    1.2982406   545227 
 2806000    1.0010558   -3.0019938   -3.0019938   -1.7015248  0.061060059   -3.0019938    1.3004691   545227 
 2807000   0.99976778   -3.0014507   -3.0014507   -1.7026549  0.068209072   -3.0014507    1.2987958   545227 
 2808000    1.0003552   -3.0024862   -3.0024862   -1.7029274  0.071014678   -3.0024862    1.2995588   545227 
 2809000    1.0004157   -3.0010006   -3.0010006   -1.7013632  0.064463075   -3.0010006    1.2996374   545227 
 2810000    1.0010776    -3.002387    -3.002387   -1.7018896  0.065437129    -3.002387    1.3004974   545227 
 2811000   0.99945492   -3.0000668   -3.0000668   -1.7016775   0.06006388   -3.0000668    1.2983893   545227 
 2812000    1.0000344   -3.0014843   -3.0014843   -1.7023422  0.061691655   -3.0014843    1.2991421   545227 
 2813000    1.0007069   -3.0020208   -3.0020208   -1.7020049  0.065425773   -3.0020208    1.3000158   545227 
 2814000    1.0002241   -3.0009568   -3.0009568   -1.7015683  0.061249327   -3.0009568    1.2993885   545227 
 2815000    1.0003354   -3.0007484   -3.0007484   -1.7012152  0.062131421   -3.0007484    1.2995331   545227 
 2816000    1.0006078   -3.0011812   -3.0011812   -1.7012942  0.064629205   -3.0011812     1.299887   545227 
 2817000   0.99846223   -2.9997803   -2.9997803   -1.7026805  0.067775684   -2.9997803    1.2970997   545227 
 2818000   0.99932028   -3.0009986   -3.0009986   -1.7027841  0.058768847   -3.0009986    1.2982144   545227 
 2819000    1.0004199   -3.0012417   -3.0012417   -1.7015987    0.0718126   -3.0012417     1.299643   545227 
 2820000    1.0001782   -3.0007412   -3.0007412   -1.7014123  0.072032348   -3.0007412    1.2993289   545227 
 2821000   0.99962043   -2.9995856   -2.9995856   -1.7009813  0.063909366   -2.9995856    1.2986043   545227 
 2822000    1.0001389    -3.000996    -3.000996    -1.701718  0.061679345    -3.000996    1.2992779   545227 
 2823000    1.0003032   -3.0008476   -3.0008476   -1.7013563  0.067924783   -3.0008476    1.2994913   545227 
 2824000    1.0007961   -3.0003905   -3.0003905   -1.7002588  0.067433819   -3.0003905    1.3001317   545227 
 2825000    1.0013784   -3.0014605   -3.0014605   -1.7005724  0.064735367   -3.0014605    1.3008881   545227 
 2826000    1.0011055    -3.000036    -3.000036   -1.6995024  0.062959308    -3.000036    1.3005336   545227 
 2827000    1.0006501   -2.9996133   -2.9996133   -1.6996712  0.064051385   -2.9996133     1.299942   545227 
 2828000    1.0008228   -2.9995967   -2.9995967   -1.6994304  0.074907639   -2.9995967    1.3001663   545227 
 2829000      1.00147   -2.9996742   -2.9996742   -1.6986671  0.068452253   -2.9996742    1.3010071   545227 
 2830000     1.000967   -2.9994019   -2.9994019   -1.6990483   0.05884655   -2.9994019    1.3003536   545227 
 2831000    1.0016898   -3.0004134   -3.0004134   -1.6991208  0.066530158   -3.0004134    1.3012927   545227 
 2832000    1.0020066    -3.000707    -3.000707   -1.6990028  0.073824935    -3.000707    1.3017042   545227 
 2833000    1.0009287   -3.0003659   -3.0003659    -1.700062  0.073818636   -3.0003659    1.3003039   545227 
 2834000    1.0001246   -2.9997493   -2.9997493     -1.70049  0.069466922   -2.9997493    1.2992592   545227 
 2835000    1.0008562   -3.0000679   -3.0000679   -1.6998581   0.06578328   -3.0000679    1.3002098   545227 
 2836000    1.0010503   -3.0013486   -3.0013486   -1.7008867  0.058859584   -3.0013486    1.3004619   545227 
 2837000   0.99873249    -2.998625    -2.998625   -1.7011742  0.056427693    -2.998625    1.2974508   545227 
 2838000   0.99877118   -2.9989012   -2.9989012   -1.7014001  0.062443601   -2.9989012    1.2975011   545227 
 2839000    0.9984745   -2.9991232   -2.9991232   -1.7020075  0.061110118   -2.9991232    1.2971157   545227 
 2840000   0.99898606   -3.0001782   -3.0001782   -1.7023979   0.05983488   -3.0001782    1.2977802   545227 
 2841000    0.9975182   -2.9978213   -2.9978213    -1.701948  0.060311868   -2.9978213    1.2958733   545227 
 2842000   0.99831361    -2.999281    -2.999281   -1.7023743  0.058313839    -2.999281    1.2969067   545227 
 2843000   0.99770543   -2.9981767   -2.9981767   -1.7020601  0.059655154   -2.9981767    1.2961166   545227 
 2844000    0.9992482   -3.0006801   -3.0006801   -1.7025593  0.062061092   -3.0006801    1.2981208   545227 
 2845000   0.99852783   -2.9989556   -2.9989556   -1.7017707  0.059742212   -2.9989556    1.2971849   545227 
 2846000   0.99876054   -2.9991388   -2.9991388   -1.7016516  0.071721471   -2.9991388    1.2974873   545227 
 2847000    1.0003395   -2.9999856   -2.9999856   -1.7004472   0.06114835   -2.9999856    1.2995384   545227 
 2848000    1.0010716   -3.0010176   -3.0010176   -1.7005281  0.065785731   -3.0010176    1.3004895   545227 
 2849000    1.0003444   -2.9999341   -2.9999341   -1.7003892  0.067812391   -2.9999341    1.2995449   545227 
 2850000    1.0005819   -3.0012845   -3.0012845   -1.7014312  0.061248475   -3.0012845    1.2998533   545227 
 2851000    1.0017517   -3.0017723   -3.0017723   -1.7003992  0.058516503   -3.0017723    1.3013731   545227 
 2852000    1.0004361    -3.000982    -3.000982    -1.701318  0.067593791    -3.000982     1.299664   545227 
 2853000    1.0034143   -3.0049121   -3.0049121   -1.7013791  0.063752627   -3.0049121     1.303533   545227 
 2854000    1.0016472   -3.0025393   -3.0025393    -1.701302  0.071586377   -3.0025393    1.3012374   545227 
 2855000    1.0013413   -3.0028623   -3.0028623   -1.7020224  0.069321902   -3.0028623      1.30084   545227 
 2856000    1.0011048   -3.0027431   -3.0027431   -1.7022104  0.065074545   -3.0027431    1.3005326   545227 
 2857000    1.0018545   -3.0038593   -3.0038593   -1.7023527  0.065300641   -3.0038593    1.3015066   545227 
 2858000    1.0022999   -3.0045768   -3.0045768   -1.7024915  0.061526203   -3.0045768    1.3020853   545227 
 2859000    1.0025416   -3.0049406   -3.0049406   -1.7025413  0.064952887   -3.0049406    1.3023993   545227 
 2860000    1.0009179   -3.0024351   -3.0024351   -1.7021453  0.067406069   -3.0024351    1.3002898   545227 
 2861000    1.0015463   -3.0030306   -3.0030306   -1.7019244  0.069267345   -3.0030306    1.3011062   545227 
 2862000     1.001233   -3.0033799   -3.0033799   -1.7026808  0.071722477   -3.0033799    1.3006992   545227 
 2863000    1.0022884   -3.0055832   -3.0055832   -1.7035129  0.059203585   -3.0055832    1.3020703   545227 
 2864000   0.99990081   -3.0020795   -3.0020795   -1.7031109  0.062609841   -3.0020795    1.2989686   545227 
 2865000    1.0001242   -3.0027779   -3.0027779   -1.7035191  0.060651432   -3.0027779    1.2992588   545227 
 2866000   0.99828648   -3.0002146   -3.0002146   -1.7033432  0.063544038   -3.0002146    1.2968714   545227 
 2867000    1.0005526   -3.0027153   -3.0027153      -1.7029  0.066788523   -3.0027153    1.2998153   545227 
 2868000   0.99912773   -3.0019956   -3.0019956   -1.7040314  0.060826821   -3.0019956    1.2979643   545227 
 2869000   0.99869649   -3.0014441   -3.0014441     -1.70404  0.064918876   -3.0014441    1.2974041   545227 
 2870000    1.0001169   -3.0027408   -3.0027408   -1.7034915  0.060205634   -3.0027408    1.2992493   545227 
 2871000    1.0004342   -3.0030499   -3.0030499   -1.7033883  0.056296724   -3.0030499    1.2996615   545227 
 2872000    1.0002329   -3.0017356   -3.0017356   -1.7023356  0.065874956   -3.0017356       1.2994   545227 
 2873000    1.0023866   -3.0032302   -3.0032302   -1.7010324  0.066439479   -3.0032302    1.3021979   545227 
 2874000    1.0021092   -3.0031088   -3.0031088   -1.7012713  0.066086432   -3.0031088    1.3018375   545227 
 2875000    1.0007918   -3.0015402   -3.0015402   -1.7014142  0.066675502   -3.0015402     1.300126   545227 
 2876000    1.0005587   -3.0015802   -3.0015802   -1.7017569  0.068306261   -3.0015802    1.2998233   545227 
 2877000   0.99912097   -2.9998267   -2.9998267   -1.7018712    0.0710943   -2.9998267    1.2979555   545227 
 2878000   0.99962365   -3.0002637   -3.0002637   -1.7016551  0.067954849   -3.0002637    1.2986085   545227 
 2879000   0.99951052   -3.0006731   -3.0006731   -1.7022116  0.063597177   -3.0006731    1.2984616   545227 
 2880000    1.0011317   -3.0023306   -3.0023306    -1.701763  0.066176774   -3.0023306    1.3005676   545227 
 2881000    1.0009585   -3.0024773   -3.0024773   -1.7021348  0.064139862   -3.0024773    1.3003426   545227 
 2882000    1.0000993   -3.0003607   -3.0003607   -1.7011342  0.065044104   -3.0003607    1.2992265   545227 
 2883000     1.000634   -3.0003859   -3.0003859   -1.7004647  0.061328879   -3.0003859    1.2999211   545227 
 2884000    0.9998624   -2.9987966   -2.9987966   -1.6998779  0.059721653   -2.9987966    1.2989187   545227 
 2885000     1.000735   -3.0010028   -3.0010028   -1.7009506  0.059766128   -3.0010028    1.3000522   545227 
 2886000   0.99974002   -3.0002009   -3.0002009   -1.7014412  0.055588215   -3.0002009    1.2987597   545227 
 2887000    1.0005167   -3.0006114   -3.0006114   -1.7008427  0.066999179   -3.0006114    1.2997687   545227 
 2888000    1.0001116   -2.9996246   -2.9996246   -1.7003822  0.063669333   -2.9996246    1.2992424   545227 
 2889000    0.9997151   -2.9984647   -2.9984647   -1.6997373  0.070142954   -2.9984647    1.2987273   545227 
 2890000    1.0009671   -3.0003174   -3.0003174   -1.6999636  0.058398441   -3.0003174    1.3003538   545227 
 2891000    1.0002495   -2.9992403   -2.9992403   -1.6998187  0.064533007   -2.9992403    1.2994216   545227 
 2892000   0.99988074    -2.999313    -2.999313   -1.7003705  0.067525812    -2.999313    1.2989425   545227 
 2893000   0.99930741   -2.9981659   -2.9981659   -1.6999682  0.055673245   -2.9981659    1.2981977   545227 
 2894000   0.99987732   -2.9994178   -2.9994178   -1.7004797  0.063220831   -2.9994178    1.2989381   545227 
 2895000   0.99921992   -2.9991112   -2.9991112   -1.7010271  0.068444781   -2.9991112     1.298084   545227 
 2896000    1.0003862   -3.0001463   -3.0001463   -1.7005472  0.066168631   -3.0001463    1.2995992   545227 
 2897000    1.0006208   -3.0004881   -3.0004881   -1.7005841  0.060278221   -3.0004881     1.299904   545227 
 2898000   0.99968699   -3.0000454   -3.0000454   -1.7013546  0.058070434   -3.0000454    1.2986908   545227 
 2899000   0.99985715   -2.9997003   -2.9997003   -1.7007884   0.06540072   -2.9997003    1.2989119   545227 
 2900000     0.999252   -2.9991419   -2.9991419   -1.7010162  0.057327492   -2.9991419    1.2981257   545227 
 2901000    1.0003272   -2.9998249   -2.9998249   -1.7003023  0.072244888   -2.9998249    1.2995226   545227 
 2902000   0.99957012   -2.9983731   -2.9983731   -1.6998341  0.063350839   -2.9983731     1.298539   545227 
 2903000   0.99945934     -2.99943     -2.99943   -1.7010349  0.068829073     -2.99943    1.2983951   545227 
 2904000    1.0011979   -3.0014918   -3.0014918   -1.7008381  0.062988571   -3.0014918    1.3006537   545227 
 2905000    1.0000533   -2.9998627   -2.9998627   -1.7006959  0.068635403   -2.9998627    1.2991667   545227 
 2906000    1.0007305   -3.0012861   -3.0012861   -1.7012397  0.059435502   -3.0012861    1.3000464   545227 
 2907000    1.0012239   -3.0019853   -3.0019853   -1.7012979  0.065438681   -3.0019853    1.3006874   545227 
 2908000    1.0003006   -2.9995016   -2.9995016   -1.7000136  0.073872738   -2.9995016     1.299488   545227 
 2909000    1.0010409   -3.0006457   -3.0006457    -1.700196  0.057600687   -3.0006457    1.3004497   545227 
 2910000    1.0024327   -3.0029894   -3.0029894   -1.7007316  0.060683144   -3.0029894    1.3022578   545227 
 2911000    1.0004984   -3.0003309   -3.0003309   -1.7005859  0.076354198   -3.0003309     1.299745   545227 
 2912000    1.0016862   -3.0024327   -3.0024327   -1.7011447  0.065669829   -3.0024327     1.301288   545227 
 2913000    1.0024342   -3.0036881   -3.0036881   -1.7014285  0.071395198   -3.0036881    1.3022597   545227 
 2914000    1.0024226   -3.0031086   -3.0031086    -1.700864  0.069389086   -3.0031086    1.3022446   545227 
 2915000    1.0020108    -3.003368    -3.003368   -1.7016583  0.066134207    -3.003368    1.3017097   545227 
 2916000    1.0022177   -3.0029931   -3.0029931   -1.7010146  0.066903763   -3.0029931    1.3019785   545227 
 2917000    1.0029254   -3.0040608   -3.0040608    -1.701163  0.065545838   -3.0040608    1.3028978   545227 
 2918000    1.0018192   -3.0033162   -3.0033162   -1.7018555  0.068072145   -3.0033162    1.3014607   545227 
 2919000    1.0016449   -3.0034646   -3.0034646   -1.7022303  0.074355822   -3.0034646    1.3012343   545227 
 2920000    1.0011392   -3.0032006   -3.0032006   -1.7026232   0.06280565   -3.0032006    1.3005774   545227 
 2921000   0.99980295   -3.0023363   -3.0023363   -1.7034948  0.071689693   -3.0023363    1.2988415   545227 
 2922000    1.0008106   -3.0037088   -3.0037088   -1.7035582  0.063869433   -3.0037088    1.3001505   545227 
 2923000    1.0004107   -3.0028195   -3.0028195   -1.7031886  0.064667846   -3.0028195     1.299631   545227 
 2924000    1.0010473   -3.0038892   -3.0038892   -1.7034313  0.065987174   -3.0038892     1.300458   545227 
 2925000   0.99993906   -3.0030072   -3.0030072    -1.703989  0.073316018   -3.0030072    1.2990183   545227 
 2926000    1.0007023   -3.0035704   -3.0035704   -1.7035606  0.069912245   -3.0035704    1.3000098   545227 
 2927000    1.0014858   -3.0046117   -3.0046117   -1.7035841  0.064192953   -3.0046117    1.3010276   545227 
 2928000     1.000841   -3.0040305   -3.0040305   -1.7038405  0.064372957   -3.0040305      1.30019   545227 
 2929000    1.0022238   -3.0053883   -3.0053883   -1.7034019  0.060051072   -3.0053883    1.3019864   545227 
 2930000    1.0008937   -3.0043416   -3.0043416   -1.7040833  0.068314092   -3.0043416    1.3002584   545227 
 2931000     1.001231   -3.0035182   -3.0035182   -1.7028216  0.068272705   -3.0035182    1.3006966   545227 
 2932000    1.0020754    -3.003806    -3.003806   -1.7020124  0.064355239    -3.003806    1.3017935   545227 
 2933000    1.0004381    -3.001986    -3.001986   -1.7023194  0.061089315    -3.001986    1.2996666   545227 
 2934000    1.0030253   -3.0048804   -3.0048804   -1.7018529  0.063363148   -3.0048804    1.3030276   545227 
 2935000    1.0002811   -3.0027016   -3.0027016    -1.703239  0.068879911   -3.0027016    1.2994626   545227 
 2936000    1.0012978   -3.0041011   -3.0041011   -1.7033177  0.072042746   -3.0041011    1.3007834   545227 
 2937000    1.0015871   -3.0040332   -3.0040332    -1.702874  0.056966154   -3.0040332    1.3011592   545227 
 2938000    1.0006483   -3.0014428   -3.0014428   -1.7015032  0.057856378   -3.0014428    1.2999397   545227 
 2939000    1.0005084   -3.0014924   -3.0014924   -1.7017345  0.068332721   -3.0014924    1.2997579   545227 
 2940000    0.9997338   -3.0016979   -3.0016979   -1.7029463  0.071274936   -3.0016979    1.2987516   545227 
 2941000    1.0010688   -3.0030683   -3.0030683   -1.7025824  0.067104781   -3.0030683     1.300486   545227 
 2942000    1.0007996   -3.0021444   -3.0021444   -1.7020082  0.067320319   -3.0021444    1.3001362   545227 
 2943000   0.99977046   -3.0019359   -3.0019359   -1.7031366  0.057919734   -3.0019359    1.2987992   545227 
 2944000   0.99902234   -3.0004514   -3.0004514   -1.7026241  0.060540447   -3.0004514    1.2978274   545227 
 2945000    0.9997789   -3.0010711   -3.0010711   -1.7022609  0.067439598   -3.0010711    1.2988102   545227 
 2946000    1.0005066    -3.002442    -3.002442   -1.7026864  0.066611964    -3.002442    1.2997555   545227 
 2947000   0.99819874    -3.000941    -3.000941   -1.7041836  0.061718643    -3.000941    1.2967574   545227 
 2948000   0.99892071   -3.0010981   -3.0010981   -1.7034028   0.07242984   -3.0010981    1.2976953   545227 
 2949000   0.99923281   -3.0006836   -3.0006836   -1.7025828  0.070231117   -3.0006836    1.2981008   545227 
 2950000    0.9989941    -3.000426    -3.000426   -1.7026353   0.06298799    -3.000426    1.2977907   545227 
 2951000   0.99920794   -3.0013532   -3.0013532   -1.7032847  0.057906877   -3.0013532    1.2980685   545227 
 2952000   0.99859656   -3.0003852   -3.0003852    -1.703111  0.061074049   -3.0003852    1.2972742   545227 
 2953000   0.99916711   -3.0011166   -3.0011166   -1.7031012  0.055271288   -3.0011166    1.2980154   545227 
 2954000   0.99889427   -3.0015117   -3.0015117   -1.7038507  0.064897073   -3.0015117     1.297661   545227 
 2955000   0.99959086   -3.0020461   -3.0020461   -1.7034802  0.059430054   -3.0020461    1.2985659   545227 
 2956000   0.99900771   -3.0012374   -3.0012374    -1.703429  0.065777735   -3.0012374    1.2978084   545227 
 2957000    1.0008863   -3.0038894   -3.0038894   -1.7036405  0.063739135   -3.0038894    1.3002489   545227 
 2958000   0.99943499   -3.0019236   -3.0019236   -1.7035602   0.05724343   -3.0019236    1.2983634   545227 
 2959000   0.99831376   -2.9995954   -2.9995954   -1.7026885  0.066898818   -2.9995954    1.2969068   545227 
 2960000   0.99864135   -2.9998763   -2.9998763   -1.7025439  0.068758279   -2.9998763    1.2973324   545227 
 2961000    1.0012272   -3.0037964   -3.0037964   -1.7031047  0.062470694   -3.0037964    1.3006917   545227 
 2962000   0.99982888   -3.0024237   -3.0024237   -1.7035485  0.060795954   -3.0024237    1.2988751   545227 
 2963000   0.99973493   -3.0018694   -3.0018694   -1.7031163  0.073272242   -3.0018694    1.2987531   545227 
 2964000    1.0011024   -3.0024931   -3.0024931   -1.7019636  0.068970301   -3.0024931    1.3005295   545227 
 2965000     1.001646   -3.0032567   -3.0032567    -1.702021  0.065162449   -3.0032567    1.3012357   545227 
 2966000    1.0015752   -3.0039017   -3.0039017    -1.702758  0.066893831   -3.0039017    1.3011438   545227 
 2967000    1.0022051   -3.0029208   -3.0029208   -1.7009587  0.072583709   -3.0029208    1.3019621   545227 
 2968000    1.0023131   -3.0037367   -3.0037367   -1.7016344  0.077096222   -3.0037367    1.3021023   545227 
 2969000    1.0032041   -3.0049742   -3.0049742   -1.7017143  0.069888621   -3.0049742    1.3032599   545227 
 2970000    1.0023316   -3.0035699   -3.0035699   -1.7014435  0.066189384   -3.0035699    1.3021264   545227 
 2971000    1.0030987    -3.004928    -3.004928   -1.7018051  0.071149797    -3.004928    1.3031229   545227 
 2972000    1.0016695   -3.0033316   -3.0033316   -1.7020652  0.064042404   -3.0033316    1.3012663   545227 
 2973000    1.0011641   -3.0024005   -3.0024005   -1.7017907  0.069150555   -3.0024005    1.3006098   545227 
 2974000    1.0007267   -3.0019921   -3.0019921   -1.7019505  0.062307797   -3.0019921    1.3000415   545227 
 2975000   0.99887663   -2.9996708   -2.9996708   -1.7020327    0.0675907   -2.9996708    1.2976381   545227 
 2976000    1.0017364     -3.00393     -3.00393   -1.7025768  0.064385058     -3.00393    1.3013532   545227 
 2977000    1.0009202   -3.0031382   -3.0031382   -1.7028453  0.065158455   -3.0031382    1.3002929   545227 
 2978000    1.0008646   -3.0020456   -3.0020456    -1.701825  0.064073237   -3.0020456    1.3002207   545227 
 2979000    1.0010558   -3.0035142   -3.0035142   -1.7030451  0.060604822   -3.0035142    1.3004691   545227 
 2980000    1.0006882   -3.0022525   -3.0022525    -1.702261  0.067011487   -3.0022525    1.2999915   545227 
 2981000    1.0014053   -3.0027784   -3.0027784   -1.7018554  0.067760304   -3.0027784     1.300923   545227 
 2982000    0.9992519   -2.9999701   -2.9999701   -1.7018445  0.060381582   -2.9999701    1.2981256   545227 
 2983000   0.99992288   -3.0004926   -3.0004926   -1.7014954  0.066250646   -3.0004926    1.2989972   545227 
 2984000    1.0010714   -3.0010485   -3.0010485   -1.7005592  0.060781747   -3.0010485    1.3004893   545227 
 2985000    1.0013065   -3.0011112   -3.0011112   -1.7003166  0.071963508   -3.0011112    1.3007947   545227 
 2986000    1.0018313    -3.000592    -3.000592   -1.6991155  0.069924079    -3.000592    1.3014764   545227 
 2987000    1.0002179   -2.9984634   -2.9984634   -1.6990829  0.063403452   -2.9984634    1.2993805   545227 
 2988000    1.0009593    -3.000005    -3.000005   -1.6996614   0.06751583    -3.000005    1.3003436   545227 
 2989000    1.0019114   -3.0006757   -3.0006757   -1.6990952   0.07191663   -3.0006757    1.3015805   545227 
 2990000     1.003819   -3.0035567   -3.0035567    -1.699498  0.066180311   -3.0035567    1.3040587   545227 
 2991000    1.0026098   -3.0015015   -3.0015015   -1.6990138   0.05819728   -3.0015015    1.3024878   545227 
 2992000    1.0014815   -3.0011705   -3.0011705   -1.7001484  0.071192764   -3.0011705    1.3010221   545227 
 2993000    1.0006146    -2.999381    -2.999381   -1.6994851  0.065290209    -2.999381    1.2998959   545227 
 2994000     1.000309   -2.9995693   -2.9995693   -1.7000704  0.067568266   -2.9995693    1.2994988   545227 
 2995000   0.99976346   -2.9984316   -2.9984316   -1.6996414  0.071314769   -2.9984316    1.2987901   545227 
 2996000    1.0004366   -2.9989271   -2.9989271   -1.6992625  0.064881264   -2.9989271    1.2996646   545227 
 2997000    1.0002581   -2.9986473   -2.9986473   -1.6992146  0.054359436   -2.9986473    1.2994327   545227 
 2998000   0.99778968   -2.9953214   -2.9953214   -1.6990954  0.072357976   -2.9953214     1.296226   545227 
 2999000    1.0000704   -2.9976711   -2.9976711   -1.6984822  0.061438782   -2.9976711    1.2991889   545227 
 3000000    1.0003327   -2.9978988   -2.9978988   -1.6983693  0.063024007   -2.9978988    1.2995296   545227 
 3001000   0.99913531   -2.9965287   -2.9965287   -1.6985546  0.067950726   -2.9965287    1.2979741   545227 
 3002000     1.000688   -2.9982212   -2.9982212     -1.69823  0.067684513   -2.9982212    1.2999912   545227 
 3003000    1.0005428   -2.9978692   -2.9978692   -1.6980666  0.063396932   -2.9978692    1.2998026   545227 
 3004000   0.99946656   -2.9971689   -2.9971689   -1.6987644  0.063102411   -2.9971689    1.2984044   545227 
 3005000    1.0008791   -2.9978467   -2.9978467   -1.6976072  0.058468782   -2.9978467    1.3002394   545227 
 3006000   0.99990435    -2.996261    -2.996261   -1.6972878  0.070356678    -2.996261    1.2989732   545227 
 3007000    1.0010063   -2.9971694   -2.9971694   -1.6967647  0.070853959   -2.9971694    1.3004048   545227 
 3008000    1.0010986   -2.9980398   -2.9980398   -1.6975151   0.06464131   -2.9980398    1.3005247   545227 
 3009000   0.99891866   -2.9956018   -2.9956018   -1.6979091  0.071513445   -2.9956018    1.2976927   545227 
 3010000    1.0005596   -2.9975664   -2.9975664    -1.697742  0.060036023   -2.9975664    1.2998245   545227 
 3011000    1.0006738   -2.9974219   -2.9974219   -1.6974491   0.06048544   -2.9974219    1.2999728   545227 
 3012000   0.99954347    -2.996245    -2.996245   -1.6977406  0.054526045    -2.996245    1.2985044   545227 
 3013000   0.99876962   -2.9955495   -2.9955495   -1.6980504  0.066535657   -2.9955495    1.2974991   545227 
 3014000   0.99943114   -2.9962506   -2.9962506   -1.6978922  0.058180439   -2.9962506    1.2983584   545227 
 3015000    1.0008415   -2.9981701   -2.9981701   -1.6979795   0.06406006   -2.9981701    1.3001906   545227 
 3016000    1.0012299   -2.9982024   -2.9982024   -1.6975071  0.062064921   -2.9982024    1.3006953   545227 
 3017000     1.002098   -2.9992389   -2.9992389   -1.6974159   0.06503199   -2.9992389     1.301823   545227 
 3018000    1.0014696   -2.9981818   -2.9981818   -1.6971752  0.059085969   -2.9981818    1.3010067   545227 
 3019000    1.0007954   -2.9959295   -2.9959295   -1.6957988  0.072571439   -2.9959295    1.3001307   545227 
 3020000    1.0009684   -2.9965121   -2.9965121   -1.6961566  0.061353503   -2.9965121    1.3003554   545227 
 3021000    1.0021863   -2.9979108   -2.9979108   -1.6959731  0.069099989   -2.9979108    1.3019377   545227 
 3022000    1.0026006   -2.9992494   -2.9992494   -1.6967736  0.064897058   -2.9992494    1.3024758   545227 
 3023000    1.0026642   -2.9997712   -2.9997712   -1.6972127  0.071629683   -2.9997712    1.3025585   545227 
 3024000    1.0027019    -2.998368    -2.998368   -1.6957604  0.066626022    -2.998368    1.3026075   545227 
 3025000    1.0025468   -2.9979265   -2.9979265   -1.6955205    0.0791483   -2.9979265     1.302406   545227 
 3026000    1.0023248   -2.9990622   -2.9990622   -1.6969446  0.073512487   -2.9990622    1.3021176   545227 
 3027000    1.0012246   -2.9978555   -2.9978555   -1.6971672  0.059854741   -2.9978555    1.3006883   545227 
 3028000    1.0008034   -2.9974893   -2.9974893   -1.6973483  0.068333539   -2.9974893    1.3001411   545227 
 3029000    1.0006651   -2.9979877   -2.9979877   -1.6980261  0.062299502   -2.9979877    1.2999615   545227 
 3030000   0.99991024   -2.9973292   -2.9973292   -1.6983483  0.068948526   -2.9973292    1.2989808   545227 
 3031000   0.99998636   -2.9978527   -2.9978527    -1.698773  0.067108084   -2.9978527    1.2990797   545227 
 3032000   0.99808769   -2.9963097   -2.9963097   -1.6996966  0.061369985   -2.9963097    1.2966132   545227 
 3033000   0.99990387   -2.9976271   -2.9976271   -1.6986545  0.066906648   -2.9976271    1.2989726   545227 
 3034000    1.0008305   -2.9998003   -2.9998003   -1.6996239  0.061597809   -2.9998003    1.3001764   545227 
 3035000    1.0004728   -2.9997028   -2.9997028   -1.6999911  0.061154326   -2.9997028    1.2997117   545227 
 3036000    1.0015319   -3.0001976   -3.0001976     -1.69911  0.064080304   -3.0001976    1.3010875   545227 
 3037000    1.0020763   -2.9995228   -2.9995228   -1.6977281  0.064463221   -2.9995228    1.3017947   545227 
 3038000      1.00155    -2.999035    -2.999035   -1.6979239  0.076521579    -2.999035    1.3011111   545227 
 3039000    1.0015359   -2.9992521   -2.9992521   -1.6981594  0.067799694   -2.9992521    1.3010928   545227 
 3040000    1.0013547   -2.9987397   -2.9987397   -1.6978825  0.068904505   -2.9987397    1.3008573   545227 
 3041000    1.0006009   -2.9990766   -2.9990766   -1.6991986  0.065867675   -2.9990766     1.299878   545227 
 3042000    1.0020843   -3.0007458   -3.0007458   -1.6989406  0.062664241   -3.0007458    1.3018052   545227 
 3043000    1.0017299    -2.999909    -2.999909   -1.6985643  0.062126487    -2.999909    1.3013447   545227 
 3044000    1.0001954    -2.998058    -2.998058   -1.6987068  0.069448057    -2.998058    1.2993513   545227 
 3045000    1.0005767   -2.9990802   -2.9990802   -1.6992336  0.066003044   -2.9990802    1.2998466   545227 
 3046000   0.99995589   -2.9969623   -2.9969623   -1.6979222  0.070969731   -2.9969623    1.2990401   545227 
 3047000   0.99927304   -2.9968061   -2.9968061   -1.6986531  0.057287489   -2.9968061    1.2981531   545227 
 3048000   0.99829411   -2.9956811   -2.9956811   -1.6987998  0.067413643   -2.9956811    1.2968813   545227 
 3049000    1.0008388   -2.9999137   -2.9999137   -1.6997266  0.063954799   -2.9999137    1.3001871   545227 
 3050000    1.0019935   -3.0005753   -3.0005753    -1.698888   0.06216859   -3.0005753    1.3016872   545227 
 3051000    1.0005109   -2.9981879   -2.9981879   -1.6984268  0.061497611   -2.9981879    1.2997611   545227 
 3052000    1.0024326    -3.000471    -3.000471   -1.6982134   0.07365877    -3.000471    1.3022576   545227 
 3053000    1.0007756   -2.9987616   -2.9987616   -1.6986566  0.060953707   -2.9987616    1.3001051   545227 
 3054000    1.0012278   -2.9999082   -2.9999082   -1.6992157  0.059100934   -2.9999082    1.3006925   545227 
 3055000    1.0011596   -2.9987781   -2.9987781   -1.6981742  0.066838758   -2.9987781    1.3006039   545227 
 3056000    1.0010363   -2.9995474   -2.9995474   -1.6991037  0.071426811   -2.9995474    1.3004437   545227 
 3057000    1.0003433   -2.9983224   -2.9983224    -1.698779  0.065441766   -2.9983224    1.2995434   545227 
 3058000   0.99950518   -2.9982892   -2.9982892   -1.6998346  0.073574491   -2.9982892    1.2984546   545227 
 3059000    1.0001193   -2.9976152   -2.9976152   -1.6983628  0.061759041   -2.9976152    1.2992524   545227 
 3060000    1.0000424   -2.9981129   -2.9981129   -1.6989604   0.06198052   -2.9981129    1.2991525   545227 
 3061000   0.99901371   -2.9963971   -2.9963971   -1.6985809  0.062831915   -2.9963971    1.2978162   545227 
 3062000   0.99964974   -2.9979008   -2.9979008   -1.6992584  0.060723842   -2.9979008    1.2986424   545227 
 3063000   0.99961704   -2.9978869   -2.9978869   -1.6992869  0.059962369   -2.9978869    1.2985999   545227 
 3064000     0.999171   -2.9977042   -2.9977042   -1.6996837  0.053815277   -2.9977042    1.2980205   545227 
 3065000   0.99836154   -2.9968634   -2.9968634   -1.6998945  0.064775041   -2.9968634    1.2969689   545227 
 3066000   0.99918083   -2.9981755   -2.9981755   -1.7001422  0.057697919   -2.9981755    1.2980333   545227 
 3067000   0.99971313   -2.9988321   -2.9988321   -1.7001073   0.05014955   -2.9988321    1.2987248   545227 
 3068000   0.99965729   -2.9988345   -2.9988345   -1.7001823  0.059454807   -2.9988345    1.2986522   545227 
 3069000    0.9987451   -2.9983748   -2.9983748   -1.7009076  0.058822498   -2.9983748    1.2974672   545227 
 3070000   0.99949402   -2.9985201   -2.9985201     -1.70008  0.067540016   -2.9985201    1.2984401   545227 
 3071000   0.99977981    -3.000075    -3.000075   -1.7012636  0.049128125    -3.000075    1.2988114   545227 
 3072000    1.0004892     -3.00007     -3.00007   -1.7003371  0.058956936     -3.00007     1.299733   545227 
 3073000   0.99878389   -2.9967421   -2.9967421   -1.6992245  0.060140404   -2.9967421    1.2975176   545227 
 3074000     1.000194   -2.9982855   -2.9982855   -1.6989361  0.066359484   -2.9982855    1.2993495   545227 
 3075000   0.99983011   -2.9983368   -2.9983368   -1.6994601  0.059162838   -2.9983368    1.2988767   545227 
 3076000    0.9998861   -2.9995096   -2.9995096   -1.7005601  0.064253146   -2.9995096    1.2989495   545227 
 3077000    1.0004888   -3.0008074   -3.0008074   -1.7010749  0.062270179   -3.0008074    1.2997325   545227 
 3078000   0.99965726   -2.9991494   -2.9991494   -1.7004972  0.068311525   -2.9991494    1.2986522   545227 
 3079000    1.0004392   -2.9997165   -2.9997165   -1.7000484  0.063627373   -2.9997165    1.2996681   545227 
 3080000    1.0010084    -2.999927    -2.999927   -1.6995196  0.060452136    -2.999927    1.3004074   545227 
 3081000    1.0019126   -3.0018824   -3.0018824   -1.7003003  0.067283366   -3.0018824    1.3015821   545227 
 3082000    1.0000636   -2.9995348   -2.9995348   -1.7003548  0.061665324   -2.9995348      1.29918   545227 
 3083000    1.0032535   -3.0030945   -3.0030945   -1.6997704  0.068665537   -3.0030945    1.3033241   545227 
 3084000    1.0015967    -3.000683    -3.000683   -1.6995113   0.06704989    -3.000683    1.3011717   545227 
 3085000    1.0015661   -3.0004617   -3.0004617   -1.6993297  0.064357362   -3.0004617     1.301132   545227 
 3086000    1.0007183   -2.9991934   -2.9991934   -1.6991629  0.071163323   -2.9991934    1.3000305   545227 
 3087000    1.0008068   -2.9991907   -2.9991907   -1.6990452  0.068735853   -2.9991907    1.3001455   545227 
 3088000    1.0019972   -3.0011269   -3.0011269   -1.6994349  0.063446281   -3.0011269     1.301692   545227 
 3089000   0.99992134    -2.998539    -2.998539   -1.6995437  0.073011677    -2.998539    1.2989952   545227 
 3090000    1.0007321   -3.0003938   -3.0003938   -1.7003453  0.065393584   -3.0003938    1.3000485   545227 
 3091000   0.99974617   -3.0004362   -3.0004362   -1.7016685  0.067229412   -3.0004362    1.2987677   545227 
 3092000   0.99875849   -2.9995347   -2.9995347   -1.7020501  0.064749318   -2.9995347    1.2974846   545227 
 3093000   0.99913325   -2.9997843   -2.9997843   -1.7018129  0.068899392   -2.9997843    1.2979714   545227 
 3094000   0.99990005   -3.0005212   -3.0005212   -1.7015536    0.0593088   -3.0005212    1.2989676   545227 
 3095000    1.0012285   -3.0013147   -3.0013147   -1.7006213  0.070907147   -3.0013147    1.3006934   545227 
 3096000   0.99958817   -2.9994003   -2.9994003   -1.7008378  0.063763085   -2.9994003    1.2985624   545227 
 3097000   0.99991668   -3.0002304   -3.0002304   -1.7012412  0.066341156   -3.0002304    1.2989892   545227 
 3098000     1.000039   -2.9997672   -2.9997672    -1.700619  0.057661081   -2.9997672    1.2991482   545227 
 3099000    1.0014239   -3.0015185   -3.0015185   -1.7005713  0.064130819   -3.0015185    1.3009472   545227 
 3100000    1.0015877   -3.0011403   -3.0011403   -1.6999802  0.063885791   -3.0011403    1.3011601   545227 
 3101000    1.0014844   -3.0005411   -3.0005411   -1.6995153  0.070686254   -3.0005411    1.3010259   545227 
 3102000    1.0015523     -3.00036     -3.00036    -1.699246  0.062814324     -3.00036     1.301114   545227 
 3103000    1.0012903   -2.9999266   -2.9999266   -1.6991529   0.06424538   -2.9999266    1.3007736   545227 
 3104000    1.0022158   -3.0016105   -3.0016105   -1.6996344  0.061259345   -3.0016105     1.301976   545227 
 3105000    1.0007704   -2.9993116   -2.9993116   -1.6992133  0.066880987   -2.9993116    1.3000983   545227 
 3106000    1.0002417   -2.9987928   -2.9987928   -1.6993813  0.067879177   -2.9987928    1.2994114   545227 
 3107000    1.0005012   -2.9988599   -2.9988599   -1.6991114  0.061894898   -2.9988599    1.2997485   545227 
 3108000    1.0002224   -2.9997495   -2.9997495   -1.7003632  0.064826334   -2.9997495    1.2993863   545227 
 3109000    0.9996867   -2.9987204   -2.9987204     -1.70003   0.06300751   -2.9987204    1.2986904   545227 
 3110000    1.0001599   -3.0002039   -3.0002039   -1.7008987  0.064067746   -3.0002039    1.2993052   545227 
 3111000    1.0001454   -3.0006096   -3.0006096   -1.7013232  0.060449637   -3.0006096    1.2992864   545227 
 3112000    1.0002038   -3.0004392   -3.0004392   -1.7010771  0.064711198   -3.0004392    1.2993621   545227 
 3113000    1.0011569   -3.0005608   -3.0005608   -1.6999604  0.073633621   -3.0005608    1.3006004   545227 
 3114000    1.0013368   -3.0008127   -3.0008127   -1.6999786  0.070018163   -3.0008127    1.3008341   545227 
 3115000   0.99970032   -2.9977033   -2.9977033   -1.6989952  0.069139418   -2.9977033    1.2987081   545227 
 3116000    1.0011282   -3.0004411   -3.0004411    -1.699878  0.065119678   -3.0004411    1.3005631   545227 
 3117000    1.0007798   -2.9989073   -2.9989073   -1.6987968  0.074712929   -2.9989073    1.3001104   545227 
 3118000     1.000353   -2.9992766   -2.9992766   -1.6997207  0.068476663   -2.9992766     1.299556   545227 
 3119000    1.0014491   -2.9997179   -2.9997179   -1.6987379  0.065352324   -2.9997179      1.30098   545227 
 3120000    1.0017647   -2.9999112   -2.9999112   -1.6985213  0.068864393   -2.9999112      1.30139   545227 
 3121000    1.0024226   -3.0003282   -3.0003282   -1.6980836  0.065035839   -3.0003282    1.3022446   545227 
 3122000    1.0026836   -3.0003732   -3.0003732   -1.6977895  0.068195616   -3.0003732    1.3025837   545227 
 3123000    1.0022147   -3.0006677   -3.0006677   -1.6986931  0.061151417   -3.0006677    1.3019745   545227 
 3124000    1.0011803   -2.9995338   -2.9995338    -1.698903  0.054550995   -2.9995338    1.3006308   545227 
 3125000    1.0010837   -2.9989992   -2.9989992    -1.698494  0.069691796   -2.9989992    1.3005052   545227 
 3126000    1.0016233   -2.9997132   -2.9997132   -1.6985069  0.068944034   -2.9997132    1.3012063   545227 
 3127000    1.0015427   -2.9997754   -2.9997754   -1.6986738  0.059100106   -2.9997754    1.3011016   545227 
 3128000    1.0006414   -2.9996653   -2.9996653   -1.6997346  0.066814211   -2.9996653    1.2999307   545227 
 3129000    1.0007439    -2.998903    -2.998903   -1.6988391  0.065330815    -2.998903    1.3000639   545227 
 3130000    1.0012746    -2.999451    -2.999451   -1.6986978   0.06669206    -2.999451    1.3007533   545227 
 3131000    1.0018999   -3.0008475   -3.0008475   -1.6992819  0.073351656   -3.0008475    1.3015656   545227 
 3132000    1.0013401    -2.999998    -2.999998   -1.6991596   0.05964366    -2.999998    1.3008383   545227 
 3133000   0.99969364   -2.9983401   -2.9983401   -1.6996406  0.063028108   -2.9983401    1.2986994   545227 
 3134000    0.9998708   -2.9980049   -2.9980049   -1.6990753   0.06254618   -2.9980049    1.2989296   545227 
 3135000    1.0008431   -2.9988507   -2.9988507   -1.6986581  0.053198349   -2.9988507    1.3001926   545227 
 3136000    1.0001917    -2.998094    -2.998094   -1.6987475  0.058968913    -2.998094    1.2993465   545227 
 3137000   0.99881178   -2.9973834   -2.9973834   -1.6998296  0.060608247   -2.9973834    1.2975538   545227 
 3138000   0.99990042   -2.9982227   -2.9982227   -1.6992547  0.066360157   -2.9982227    1.2989681   545227 
 3139000     1.000115    -2.997592    -2.997592   -1.6983452  0.063603824    -2.997592    1.2992468   545227 
 3140000     1.000838   -2.9981936   -2.9981936   -1.6980076  0.068769799   -2.9981936    1.3001861   545227 
 3141000   0.99978434   -2.9973343   -2.9973343   -1.6985171  0.068249298   -2.9973343    1.2988173   545227 
 3142000    1.0008721   -2.9978959   -2.9978959   -1.6976656  0.055767146   -2.9978959    1.3002303   545227 
 3143000    1.0006773   -2.9976156   -2.9976156   -1.6976382  0.066470565   -2.9976156    1.2999773   545227 
 3144000    1.0016284   -2.9991026   -2.9991026   -1.6978897  0.058957032   -2.9991026    1.3012129   545227 
 3145000    1.0027552   -3.0000552   -3.0000552   -1.6973785  0.067817292   -3.0000552    1.3026767   545227 
 3146000    1.0006772   -2.9965132   -2.9965132    -1.696536  0.065706499   -2.9965132    1.2999772   545227 
 3147000     1.000483   -2.9977991   -2.9977991   -1.6980742   0.07715275   -2.9977991    1.2997249   545227 
 3148000    1.0006868   -2.9970638   -2.9970638   -1.6970741  0.061083913   -2.9970638    1.2999896   545227 
 3149000    1.0006962   -2.9972859   -2.9972859    -1.697284  0.064054489   -2.9972859    1.3000019   545227 
 3150000     1.000516   -2.9975067   -2.9975067    -1.697739  0.065345725   -2.9975067    1.2997677   545227 
 3151000    1.0001447   -2.9979662   -2.9979662   -1.6986807  0.066522907   -2.9979662    1.2992854   545227 
 3152000   0.99946127   -2.9971587   -2.9971587   -1.6987611  0.072191055   -2.9971587    1.2983976   545227 
 3153000     1.000862   -2.9989175   -2.9989175   -1.6987003  0.062852368   -2.9989175    1.3002172   545227 
 3154000   0.99931314   -2.9980012   -2.9980012    -1.699796  0.074663582   -2.9980012    1.2982051   545227 
 3155000   0.99956677   -2.9987638   -2.9987638   -1.7002292  0.057130602   -2.9987638    1.2985346   545227 
 3156000    0.9999406   -2.9994851   -2.9994851   -1.7004648  0.062563533   -2.9994851    1.2990203   545227 
 3157000    1.0012599   -3.0006233   -3.0006233   -1.6998891  0.061413617   -3.0006233    1.3007342   545227 
 3158000   0.99884657   -2.9981369   -2.9981369   -1.7005379  0.064097533   -2.9981369     1.297599   545227 
 3159000   0.99987964   -2.9987712   -2.9987712   -1.6998301  0.061830999   -2.9987712    1.2989411   545227 
 3160000    1.0008938   -2.9990631   -2.9990631   -1.6988045  0.060809111   -2.9990631    1.3002586   545227 
 3161000     1.002052   -3.0000664   -3.0000664   -1.6983032  0.064512053   -3.0000664    1.3017632   545227 
 3162000    1.0017802   -2.9995319   -2.9995319   -1.6981219  0.067589421   -2.9995319      1.30141   545227 
 3163000    1.0029435   -3.0005487   -3.0005487   -1.6976274  0.069155817   -3.0005487    1.3029214   545227 
 3164000    1.0024877   -3.0003116   -3.0003116   -1.6979824  0.068201332   -3.0003116    1.3023292   545227 
 3165000    1.0007158   -2.9982061   -2.9982061   -1.6981787  0.065962218   -2.9982061    1.3000273   545227 
 3166000    1.0036088   -3.0012027   -3.0012027   -1.6974171  0.072369881   -3.0012027    1.3037856   545227 
 3167000     1.002101   -2.9989469   -2.9989469   -1.6971201  0.077814399   -2.9989469    1.3018268   545227 
 3168000    1.0016695   -2.9985431   -2.9985431   -1.6972769  0.063621883   -2.9985431    1.3012662   545227 
 3169000    1.0014206    -2.999177    -2.999177   -1.6982342  0.063457707    -2.999177    1.3009429   545227 
 3170000    1.0014783   -2.9998432   -2.9998432   -1.6988252  0.072040761   -2.9998432    1.3010179   545227 
 3171000    1.0009318    -2.997774    -2.997774    -1.697466  0.071660725    -2.997774     1.300308   545227 
 3172000    1.0010083   -2.9993058   -2.9993058   -1.6988985  0.062319702   -2.9993058    1.3004073   545227 
 3173000    1.0024448   -2.9991693   -2.9991693   -1.6968959  0.069842964   -2.9991693    1.3022734   545227 
 3174000    1.0007659   -2.9974175   -2.9974175   -1.6973251  0.061466097   -2.9974175    1.3000925   545227 
 3175000    1.0001975   -2.9971914   -2.9971914   -1.6978374  0.063268906   -2.9971914     1.299354   545227 
 3176000    1.0006497   -2.9971663   -2.9971663   -1.6972249  0.075518916   -2.9971663    1.2999414   545227 
 3177000    1.0011092   -2.9979314   -2.9979314   -1.6973931  0.059001412   -2.9979314    1.3005384   545227 
 3178000   0.99956148   -2.9967532   -2.9967532   -1.6982255  0.058671467   -2.9967532    1.2985278   545227 
 3179000    1.0002882   -2.9980884   -2.9980884   -1.6986166  0.066437339   -2.9980884    1.2994718   545227 
 3180000    1.0005362   -2.9978066   -2.9978066   -1.6980126  0.063286333   -2.9978066    1.2997941   545227 
 3181000    1.0006951   -2.9985521   -2.9985521   -1.6985517  0.063587322   -2.9985521    1.3000004   545227 
 3182000    1.0003398   -2.9978069   -2.9978069    -1.698268  0.062799493   -2.9978069    1.2995389   545227 
 3183000    1.0006194   -2.9978353   -2.9978353   -1.6979331  0.065950418   -2.9978353    1.2999022   545227 
 3184000    1.0007263   -2.9987407   -2.9987407   -1.6986997  0.064563099   -2.9987407     1.300041   545227 
 3185000    1.0006387   -2.9977125   -2.9977125   -1.6977853  0.062247593   -2.9977125    1.2999271   545227 
 3186000    1.0010312   -2.9973302   -2.9973302    -1.696893  0.067361212   -2.9973302    1.3004371   545227 
 3187000    1.0005259   -2.9976821   -2.9976821   -1.6979015  0.067525096   -2.9976821    1.2997806   545227 
 3188000    1.0017165   -2.9987232   -2.9987232   -1.6973958  0.063768184   -2.9987232    1.3013274   545227 
 3189000    1.0010788   -2.9972872   -2.9972872   -1.6967884  0.067685439   -2.9972872    1.3004989   545227 
 3190000    1.0015557   -2.9984962   -2.9984962   -1.6973778  0.064153403   -2.9984962    1.3011184   545227 
 3191000    1.0030521   -3.0009189   -3.0009189   -1.6978564   0.05926654   -3.0009189    1.3030624   545227 
 3192000    1.0019512   -2.9985101   -2.9985101   -1.6968778  0.069789184   -2.9985101    1.3016323   545227 
 3193000    1.0031776   -2.9991908   -2.9991908   -1.6959653  0.072651711   -2.9991908    1.3032255   545227 
 3194000    1.0030981   -2.9998787   -2.9998787   -1.6967565  0.067912409   -2.9998787    1.3031221   545227 
 3195000    1.0026143   -2.9999358   -2.9999358   -1.6974421   0.07082173   -2.9999358    1.3024937   545227 
 3196000    1.0026966   -2.9999629   -2.9999629   -1.6973622  0.063826572   -2.9999629    1.3026006   545227 
 3197000    1.0017549   -2.9974428   -2.9974428   -1.6960656  0.069184737   -2.9974428    1.3013772   545227 
 3198000    1.0017674   -2.9974167   -2.9974167   -1.6960232  0.071504581   -2.9974167    1.3013935   545227 
 3199000    1.0017462   -2.9983491   -2.9983491   -1.6969832  0.067640011   -2.9983491    1.3013659   545227 
 3200000    1.0023365   -2.9991631   -2.9991631   -1.6970303  0.065450644   -2.9991631    1.3021328   545227 
 3201000    1.0019918   -2.9987227   -2.9987227   -1.6970377  0.064933849   -2.9987227     1.301685   545227 
 3202000    1.0024379   -3.0001821   -3.0001821   -1.6979176  0.066780915   -3.0001821    1.3022645   545227 
 3203000    1.0017927   -2.9999402   -2.9999402   -1.6985139  0.063237863   -2.9999402    1.3014264   545227 
 3204000    1.0023539    -3.000226    -3.000226   -1.6980706  0.062999663    -3.000226    1.3021554   545227 
 3205000     1.003278   -3.0004268   -3.0004268    -1.697071  0.069599886   -3.0004268    1.3033559   545227 
 3206000    1.0035578   -3.0009265   -3.0009265   -1.6972071  0.062931358   -3.0009265    1.3037194   545227 
 3207000    1.0032262   -3.0014953   -3.0014953   -1.6982067  0.073981997   -3.0014953    1.3032886   545227 
 3208000    1.0039445   -3.0017036   -3.0017036   -1.6974819  0.073282303   -3.0017036    1.3042217   545227 
 3209000     1.002282      -2.9995      -2.9995   -1.6974379  0.065325359      -2.9995     1.302062   545227 
 3210000    1.0031369   -2.9997483   -2.9997483   -1.6965757  0.068261757   -2.9997483    1.3031726   545227 
 3211000    1.0016707   -2.9966038   -2.9966038    -1.695336  0.071943707   -2.9966038    1.3012678   545227 
 3212000     1.002682    -2.998414    -2.998414   -1.6958324  0.060215147    -2.998414    1.3025816   545227 
 3213000    1.0023171   -2.9978993   -2.9978993   -1.6957918   0.06624092   -2.9978993    1.3021076   545227 
 3214000    1.0027736    -2.999416    -2.999416   -1.6967153  0.071276258    -2.999416    1.3027006   545227 
 3215000    1.0018878    -2.998354    -2.998354   -1.6968041  0.065546936    -2.998354    1.3015499   545227 
 3216000    1.0016206   -2.9971952   -2.9971952   -1.6959925  0.070236237   -2.9971952    1.3012027   545227 
 3217000    1.0018948   -2.9978208   -2.9978208   -1.6962619   0.06315162   -2.9978208    1.3015589   545227 
 3218000    1.0019542   -2.9963319   -2.9963319   -1.6946958  0.070052945   -2.9963319    1.3016361   545227 
 3219000    1.0019208   -2.9969692   -2.9969692   -1.6953764  0.063620984   -2.9969692    1.3015927   545227 
 3220000    1.0011519   -2.9961119   -2.9961119    -1.695518  0.064554691   -2.9961119    1.3005939   545227 
 3221000    1.0035465   -2.9986244   -2.9986244   -1.6949198  0.070946994   -2.9986244    1.3037047   545227 
 3222000    1.0023451   -2.9961818   -2.9961818   -1.6940379  0.060696943   -2.9961818    1.3021439   545227 
 3223000    1.0018815   -2.9965327   -2.9965327   -1.6949911  0.073086724   -2.9965327    1.3015417   545227 
 3224000    1.0016942   -2.9976754   -2.9976754    -1.696377  0.062800598   -2.9976754    1.3012984   545227 
 3225000    1.0008514    -2.996722    -2.996722   -1.6965185  0.068879077    -2.996722    1.3002035   545227 
 3226000    1.0017473   -2.9966002   -2.9966002   -1.6952328  0.069586171   -2.9966002    1.3013674   545227 
 3227000    1.0004996   -2.9954259   -2.9954259   -1.6956794  0.067343142   -2.9954259    1.2997465   545227 
 3228000    1.0012838   -2.9962214   -2.9962214   -1.6954562  0.073531972   -2.9962214    1.3007652   545227 
 3229000    1.0013282   -2.9965119   -2.9965119    -1.695689  0.076018917   -2.9965119    1.3008229   545227 
 3230000    1.0017934   -2.9974575   -2.9974575   -1.6960302  0.066515109   -2.9974575    1.3014273   545227 
 3231000    1.0010353   -2.9961141   -2.9961141   -1.6956718  0.069679594   -2.9961141    1.3004423   545227 
 3232000   0.99967907   -2.9954202   -2.9954202   -1.6967397  0.063482346   -2.9954202    1.2986805   545227 
 3233000    1.0019054   -2.9984793   -2.9984793   -1.6969065   0.05716291   -2.9984793    1.3015728   545227 
 3234000    1.0004492   -2.9952416   -2.9952416   -1.6955606  0.068796001   -2.9952416    1.2996811   545227 
 3235000    1.0028675   -2.9974701   -2.9974701   -1.6946475  0.056723714   -2.9974701    1.3028226   545227 
 3236000   0.99990529   -2.9944963   -2.9944963   -1.6955219  0.067114805   -2.9944963    1.2989744   545227 
 3237000    1.0029278   -2.9983578   -2.9983578   -1.6954569  0.072836609   -2.9983578    1.3029009   545227 
 3238000    1.0012973   -2.9962643   -2.9962643   -1.6954815  0.064603232   -2.9962643    1.3007828   545227 
 3239000    1.0014232   -2.9976612   -2.9976612   -1.6967149  0.061697158   -2.9976612    1.3009464   545227 
 3240000    1.0027185   -2.9990578   -2.9990578   -1.6964288  0.062347548   -2.9990578     1.302629   545227 
 3241000    1.0010967   -2.9974682   -2.9974682   -1.6969461  0.066654489   -2.9974682    1.3005221   545227 
 3242000    1.0031806   -2.9994079   -2.9994079   -1.6961786  0.065650253   -2.9994079    1.3032293   545227 
 3243000    1.0012381   -2.9976485   -2.9976485   -1.6969426  0.061080339   -2.9976485    1.3007058   545227 
 3244000    1.0027252   -2.9995816   -2.9995816   -1.6969439   0.07225073   -2.9995816    1.3026377   545227 
 3245000    1.0021249   -2.9986038   -2.9986038   -1.6967459  0.066919487   -2.9986038    1.3018578   545227 
 3246000    1.0015655    -2.998084    -2.998084   -1.6969528   0.06215589    -2.998084    1.3011312   545227 
 3247000    1.0021108   -2.9996746   -2.9996746   -1.6978351  0.069988406   -2.9996746    1.3018395   545227 
 3248000   0.99986014   -2.9966724   -2.9966724   -1.6977567  0.065137649   -2.9966724    1.2989158   545227 
 3249000   0.99992981   -2.9977726   -2.9977726   -1.6987664  0.064569123   -2.9977726    1.2990063   545227 
 3250000    1.0010424   -2.9991597   -2.9991597    -1.698708  0.067367056   -2.9991597    1.3004517   545227 
 3251000    1.0007358   -2.9985641   -2.9985641   -1.6985108  0.062838234   -2.9985641    1.3000533   545227 
 3252000    1.0007539    -2.998707    -2.998707   -1.6986302  0.060849054    -2.998707    1.3000768   545227 
 3253000    1.0001345    -2.998224    -2.998224   -1.6989518  0.070435325    -2.998224    1.2992722   545227 
 3254000    1.0023431   -2.9993887   -2.9993887   -1.6972473  0.068335591   -2.9993887    1.3021414   545227 
 3255000    1.0012181   -2.9994435   -2.9994435   -1.6987636  0.067531514   -2.9994435    1.3006799   545227 
 3256000    1.0005265   -2.9986932   -2.9986932   -1.6989117  0.067029794   -2.9986932    1.2997814   545227 
 3257000    1.0013645   -2.9992738   -2.9992738   -1.6984038  0.062722777   -2.9992738      1.30087   545227 
 3258000    1.0021512   -2.9995696   -2.9995696   -1.6976775  0.067029682   -2.9995696    1.3018921   545227 
 3259000    1.0031825   -3.0013952   -3.0013952   -1.6981635  0.066287535   -3.0013952    1.3032318   545227 
 3260000    1.0019934   -2.9992513   -2.9992513   -1.6975643  0.063454049   -2.9992513     1.301687   545227 
 3261000    1.0028575   -3.0009861   -3.0009861   -1.6981765  0.065612821   -3.0009861    1.3028097   545227 
 3262000    1.0019477   -3.0002464   -3.0002464   -1.6986188  0.062241575   -3.0002464    1.3016277   545227 
 3263000    1.0001011   -2.9979545   -2.9979545   -1.6987257  0.071589247   -2.9979545    1.2992288   545227 
 3264000    1.0012682   -2.9987908   -2.9987908   -1.6980458  0.064363759   -2.9987908     1.300745   545227 
 3265000    1.0030426   -3.0011837   -3.0011837   -1.6981337  0.063996928   -3.0011837      1.30305   545227 
 3266000    1.0019756   -2.9997098   -2.9997098   -1.6980458   0.06516507   -2.9997098    1.3016639   545227 
 3267000    1.0021203   -2.9995205   -2.9995205   -1.6976686   0.06956888   -2.9995205    1.3018519   545227 
 3268000    1.0016848   -2.9998302   -2.9998302    -1.698544  0.067000095   -2.9998302    1.3012862   545227 
 3269000    1.0015644   -2.9975055   -2.9975055   -1.6963757  0.065061471   -2.9975055    1.3011297   545227 
 3270000     1.002816   -2.9992003   -2.9992003   -1.6964446  0.063986554   -2.9992003    1.3027557   545227 
 3271000    1.0021794   -3.0001155   -3.0001155   -1.6981868  0.063516334   -3.0001155    1.3019287   545227 
 3272000    1.0030161   -3.0007234   -3.0007234   -1.6977078  0.061480518   -3.0007234    1.3030156   545227 
 3273000    1.0017589   -3.0000572   -3.0000572   -1.6986748  0.059286305   -3.0000572    1.3013824   545227 
 3274000    1.0006976    -2.998673    -2.998673   -1.6986694  0.067322977    -2.998673    1.3000037   545227 
 3275000     1.000759   -2.9975036   -2.9975036   -1.6974201  0.069382922   -2.9975036    1.3000835   545227 
 3276000    1.0009733   -2.9974279   -2.9974279   -1.6970661   0.07054874   -2.9974279    1.3003618   545227 
 3277000    1.0023359   -2.9995414   -2.9995414   -1.6974094  0.074181285   -2.9995414     1.302132   545227 
 3278000    1.0014424   -2.9984524   -2.9984524   -1.6974811  0.066492924   -2.9984524    1.3009713   545227 
 3279000     1.001297   -2.9980734   -2.9980734    -1.697291  0.066574786   -2.9980734    1.3007824   545227 
 3280000    1.0010353   -2.9973983   -2.9973983    -1.696956  0.068206486   -2.9973983    1.3004423   545227 
 3281000    1.0025729   -2.9992734   -2.9992734   -1.6968335   0.06488873   -2.9992734    1.3024399   545227 
 3282000    1.0015761   -2.9985019   -2.9985019   -1.6973569  0.072275748   -2.9985019     1.301145   545227 
 3283000    1.0027249   -2.9998148   -2.9998148   -1.6971775  0.066275581   -2.9998148    1.3026373   545227 
 3284000    1.0018914   -2.9988313   -2.9988313   -1.6972768  0.071484386   -2.9988313    1.3015545   545227 
 3285000    1.0005971   -2.9981802   -2.9981802   -1.6983071   0.06110129   -2.9981802    1.2998731   545227 
 3286000    1.0005492    -2.998188    -2.998188   -1.6983772  0.069553782    -2.998188    1.2998109   545227 
 3287000    1.0009154   -2.9978931   -2.9978931   -1.6976064  0.069197656   -2.9978931    1.3002867   545227 
 3288000   0.99820907   -2.9952756   -2.9952756   -1.6985047  0.076320808   -2.9952756    1.2967709   545227 
 3289000    1.0020682    -3.000387    -3.000387   -1.6986027  0.062045087    -3.000387    1.3017843   545227 
 3290000    1.0001856   -2.9979398   -2.9979398   -1.6986013  0.061939929   -2.9979398    1.2993385   545227 
 3291000    1.0002036   -2.9972312   -2.9972312   -1.6978694  0.058379044   -2.9972312    1.2993619   545227 
 3292000    1.0021163   -2.9997734   -2.9997734   -1.6979267  0.062077318   -2.9997734    1.3018468   545227 
 3293000    1.0006264   -2.9986399   -2.9986399   -1.6987287  0.058252289   -2.9986399    1.2999112   545227 
 3294000    1.0007309   -2.9986101   -2.9986101   -1.6985631  0.058529076   -2.9986101     1.300047   545227 
 3295000    1.0007759   -2.9996226   -2.9996226   -1.6995171  0.063730234   -2.9996226    1.3001055   545227 
 3296000   0.99885651   -2.9965742   -2.9965742   -1.6989623  0.072728461   -2.9965742    1.2976119   545227 
 3297000    1.0014966   -2.9994124   -2.9994124   -1.6983707   0.06135369   -2.9994124    1.3010417   545227 
 3298000    1.0008981   -2.9991811   -2.9991811   -1.6989169  0.063842621   -2.9991811    1.3002642   545227 
 3299000     1.001659   -2.9991469   -2.9991469   -1.6978942  0.070677251   -2.9991469    1.3012527   545227 
 3300000    1.0011412    -2.997987    -2.997987    -1.697407  0.071726667    -2.997987      1.30058   545227 
 3301000    1.0033825    -3.000639    -3.000639   -1.6971473  0.060279246    -3.000639    1.3034916   545227 
 3302000    1.0027188   -2.9996441   -2.9996441   -1.6970147  0.070420649   -2.9996441    1.3026294   545227 
 3303000    1.0036417   -3.0014506   -3.0014506   -1.6976222  0.065404699   -3.0014506    1.3038284   545227 
 3304000    1.0012975   -2.9987193   -2.9987193   -1.6979363   0.05999004   -2.9987193     1.300783   545227 
 3305000    1.0018457   -2.9987205   -2.9987205   -1.6972254  0.062784587   -2.9987205    1.3014952   545227 
 3306000    1.0019419   -2.9994179   -2.9994179   -1.6977978  0.065815122   -2.9994179    1.3016201   545227 
 3307000     1.002954   -3.0005624   -3.0005624   -1.6976274  0.062834946   -3.0005624     1.302935   545227 
 3308000    1.0013731   -2.9973506   -2.9973506   -1.6964694  0.064342641   -2.9973506    1.3008812   545227 
 3309000    1.0024964   -2.9998779   -2.9998779   -1.6975373  0.067925172   -2.9998779    1.3023405   545227 
 3310000    1.0013714   -2.9993218   -2.9993218   -1.6984428  0.069685098   -2.9993218     1.300879   545227 
 3311000    1.0029188   -3.0007956   -3.0007956   -1.6979064  0.065639702   -3.0007956    1.3028892   545227 
 3312000    1.0025835   -3.0008159   -3.0008159   -1.6983623  0.062970559   -3.0008159    1.3024536   545227 
 3313000    1.0007555   -2.9990395   -2.9990395   -1.6989606  0.062502732   -2.9990395    1.3000789   545227 
 3314000    1.0011634   -2.9999071   -2.9999071   -1.6992984  0.069179283   -2.9999071    1.3006087   545227 
 3315000    1.0019224   -3.0005489   -3.0005489   -1.6989541  0.066428003   -3.0005489    1.3015948   545227 
 3316000    1.0015281   -3.0000349   -3.0000349   -1.6989524  0.061959932   -3.0000349    1.3010825   545227 
 3317000    1.0007999   -2.9986627   -2.9986627    -1.698526   0.06826635   -2.9986627    1.3001366   545227 
 3318000    1.0016381   -2.9994584   -2.9994584   -1.6982329  0.059396355   -2.9994584    1.3012255   545227 
 3319000    1.0017338   -3.0008884   -3.0008884   -1.6995387  0.060849064   -3.0008884    1.3013498   545227 
 3320000    1.0003685   -2.9996635   -2.9996635   -1.7000874   0.06074449   -2.9996635    1.2995761   545227 
 3321000      1.00012   -2.9993556   -2.9993556   -1.7001022  0.066169462   -2.9993556    1.2992534   545227 
 3322000    1.0014746   -3.0005428   -3.0005428   -1.6995298   0.05910248   -3.0005428    1.3010131   545227 
 3323000    1.0003961   -2.9990682   -2.9990682   -1.6994562  0.071773367   -2.9990682     1.299612   545227 
 3324000    1.0006618   -2.9994633   -2.9994633   -1.6995061  0.061568839   -2.9994633    1.2999572   545227 
 3325000    1.0006558   -2.9986398   -2.9986398   -1.6986904  0.066352636   -2.9986398    1.2999494   545227 
 3326000    1.0015343   -3.0003147   -3.0003147    -1.699224  0.073451658   -3.0003147    1.3010907   545227 
 3327000    1.0015703   -3.0013109   -3.0013109   -1.7001735  0.066415841   -3.0013109    1.3011373   545227 
 3328000    1.0001646   -2.9991663   -2.9991663   -1.6998551  0.065212326   -2.9991663    1.2993113   545227 
 3329000    1.0008315    -2.999184    -2.999184   -1.6990064  0.073533042    -2.999184    1.3001776   545227 
 3330000    1.0020788   -3.0002643   -3.0002643   -1.6984662  0.072704023   -3.0002643     1.301798   545227 
 3331000    1.0022691   -3.0003811   -3.0003811   -1.6983359  0.070737921   -3.0003811    1.3020452   545227 
 3332000    1.0020579   -3.0003875   -3.0003875   -1.6986167  0.057008492   -3.0003875    1.3017708   545227 
 3333000    1.0013481   -3.0001398   -3.0001398    -1.699291  0.070055824   -3.0001398    1.3008488   545227 
 3334000    1.0018719   -3.0007524   -3.0007524   -1.6992232  0.069314372   -3.0007524    1.3015292   545227 
 3335000    1.0007859   -2.9987077   -2.9987077   -1.6985893  0.071371012   -2.9987077    1.3001184   545227 
 3336000    1.0013123    -3.000426    -3.000426   -1.6996237  0.070264895    -3.000426    1.3008022   545227 
 3337000    1.0013639   -3.0004788   -3.0004788   -1.6996096  0.056246513   -3.0004788    1.3008692   545227 
 3338000    1.0018604   -3.0013081   -3.0013081   -1.6997938  0.066861872   -3.0013081    1.3015143   545227 
 3339000    1.0007505   -3.0006447   -3.0006447   -1.7005722  0.064117055   -3.0006447    1.3000725   545227 
 3340000    1.0015866   -3.0013666   -3.0013666    -1.700208  0.061972384   -3.0013666    1.3011586   545227 
 3341000    1.0010787   -3.0012526   -3.0012526   -1.7007538  0.062511813   -3.0012526    1.3004988   545227 
 3342000    1.0025498   -3.0028232   -3.0028232   -1.7004133  0.062184779   -3.0028232    1.3024099   545227 
 3343000    1.0008219   -3.0018323   -3.0018323   -1.7016671  0.069548038   -3.0018323    1.3001652   545227 
 3344000    1.0000784   -3.0008715   -3.0008715   -1.7016722  0.071940636   -3.0008715    1.2991993   545227 
 3345000    1.0008853   -3.0018933   -3.0018933   -1.7016457  0.069382221   -3.0018933    1.3002475   545227 
 3346000    1.0015573   -3.0019166   -3.0019166   -1.7007961  0.069464781   -3.0019166    1.3011205   545227 
 3347000    1.0021794   -3.0035918   -3.0035918    -1.701663  0.066495076   -3.0035918    1.3019287   545227 
 3348000    1.0024573   -3.0036768   -3.0036768   -1.7013871  0.061255019   -3.0036768    1.3022897   545227 
 3349000    1.0026142   -3.0039166   -3.0039166    -1.701423  0.064882627   -3.0039166    1.3024935   545227 
 3350000    1.0030583   -3.0035781   -3.0035781   -1.7005075  0.062160072   -3.0035781    1.3030705   545227 
 3351000    1.0004874   -3.0007297   -3.0007297    -1.700999  0.072236098   -3.0007297    1.2997307   545227 
 3352000    1.0007283   -3.0009561   -3.0009561   -1.7009126  0.068298843   -3.0009561    1.3000435   545227 
 3353000    1.0024786   -3.0022137   -3.0022137   -1.6998963   0.07382658   -3.0022137    1.3023174   545227 
 3354000    1.0026379   -3.0032853   -3.0032853   -1.7007609  0.068461851   -3.0032853    1.3025244   545227 
 3355000    1.0014915   -3.0015368   -3.0015368   -1.7005017  0.077248671   -3.0015368    1.3010351   545227 
 3356000    1.0025464   -3.0022498   -3.0022498   -1.6998444  0.063691632   -3.0022498    1.3024054   545227 
 3357000    1.0020661   -3.0029003   -3.0029003   -1.7011189  0.059987173   -3.0029003    1.3017815   545227 
 3358000    1.0019722   -3.0032416   -3.0032416   -1.7015821  0.068897341   -3.0032416    1.3016595   545227 
 3359000    1.0018023   -3.0024393   -3.0024393   -1.7010005  0.061294885   -3.0024393    1.3014389   545227 
 3360000    0.9987076   -2.9986314   -2.9986314   -1.7012129  0.076189138   -2.9986314    1.2974185   545227 
 3361000    1.0017703   -3.0018372   -3.0018372     -1.70044  0.071271916   -3.0018372    1.3013972   545227 
 3362000    1.0014162   -3.0008368   -3.0008368   -1.6998996   0.07180268   -3.0008368    1.3009372   545227 
 3363000    1.0021038   -3.0009944   -3.0009944    -1.699164  0.066204125   -3.0009944    1.3018305   545227 
 3364000    1.0010909   -2.9995354   -2.9995354   -1.6990207  0.064260131   -2.9995354    1.3005147   545227 
 3365000     1.001605   -3.0005961   -3.0005961   -1.6994137  0.059815094   -3.0005961    1.3011824   545227 
 3366000    1.0023738   -3.0007734   -3.0007734   -1.6985922  0.070276552   -3.0007734    1.3021812   545227 
 3367000    1.0014156   -2.9999277   -2.9999277   -1.6989913  0.067054078   -2.9999277    1.3009364   545227 
 3368000    1.0010545   -2.9999024   -2.9999024   -1.6994351  0.059386766   -2.9999024    1.3004673   545227 
 3369000    1.0000766   -2.9987657   -2.9987657   -1.6995688    0.0677489   -2.9987657    1.2991969   545227 
 3370000    1.0010579   -2.9989532   -2.9989532   -1.6984815  0.063820973   -2.9989532    1.3004717   545227 
 3371000    1.0002607   -2.9982353   -2.9982353   -1.6987992  0.064409987   -2.9982353    1.2994361   545227 
 3372000    1.0007241   -2.9995281   -2.9995281   -1.6994899  0.063132841   -2.9995281    1.3000381   545227 
 3373000    1.0006242   -2.9987796   -2.9987796   -1.6988712  0.060491875   -2.9987796    1.2999084   545227 
 3374000    1.0008274   -2.9977312   -2.9977312   -1.6975589  0.073806898   -2.9977312    1.3001723   545227 
 3375000    1.0009059   -2.9967302   -2.9967302    -1.696456  0.062681847   -2.9967302    1.3002742   545227 
 3376000    1.0009249   -2.9976367   -2.9976367   -1.6973377  0.058290182   -2.9976367    1.3002989   545227 
 3377000    1.0000294   -2.9968087   -2.9968087   -1.6976731  0.063739293   -2.9968087    1.2991357   545227 
 3378000     1.000165    -2.996699    -2.996699   -1.6973872  0.067712773    -2.996699    1.2993118   545227 
 3379000   0.99964354    -2.995579    -2.995579   -1.6969447  0.071186056    -2.995579    1.2986344   545227 
 3380000    1.0009384   -2.9972644   -2.9972644   -1.6969479  0.064069576   -2.9972644    1.3003166   545227 
 3381000   0.99964975     -2.99536     -2.99536   -1.6967175  0.065305914     -2.99536    1.2986424   545227 
 3382000   0.99960434   -2.9950879   -2.9950879   -1.6965045  0.069211188   -2.9950879    1.2985834   545227 
 3383000    1.0023347   -2.9974992   -2.9974992   -1.6953687  0.057514962   -2.9974992    1.3021305   545227 
 3384000    1.0005421   -2.9956339   -2.9956339   -1.6958323  0.071187355   -2.9956339    1.2998016   545227 
 3385000    1.0028787   -2.9962104   -2.9962104   -1.6933732  0.064974779   -2.9962104    1.3028372   545227 
 3386000    1.0028288   -2.9957781   -2.9957781   -1.6930058  0.063385599   -2.9957781    1.3027723   545227 
 3387000    1.0030906   -2.9963174   -2.9963174    -1.693205  0.072892528   -2.9963174    1.3031124   545227 
 3388000    1.0021167   -2.9962907   -2.9962907   -1.6944435   0.06538223   -2.9962907    1.3018472   545227 
 3389000    1.0014129    -2.996268    -2.996268    -1.695335  0.065109984    -2.996268     1.300933   545227 
 3390000    1.0007565   -2.9958395   -2.9958395   -1.6957593  0.060521821   -2.9958395    1.3000802   545227 
 3391000    1.0008728   -2.9962918   -2.9962918   -1.6960606   0.06345207   -2.9962918    1.3002312   545227 
 3392000    1.0017162   -2.9972019   -2.9972019    -1.695875  0.070747794   -2.9972019    1.3013269   545227 
 3393000    1.0011165   -2.9959644   -2.9959644   -1.6954166  0.071973238   -2.9959644    1.3005479   545227 
 3394000    1.0022441   -2.9963987   -2.9963987    -1.694386  0.068741666   -2.9963987    1.3020127   545227 
 3395000    1.0010093   -2.9947027   -2.9947027   -1.6942941  0.071558285   -2.9947027    1.3004086   545227 
 3396000     1.001285   -2.9944924   -2.9944924   -1.6937257  0.065869147   -2.9944924    1.3007667   545227 
 3397000    1.0012037   -2.9942033   -2.9942033   -1.6935421  0.063458643   -2.9942033    1.3006612   545227 
 3398000    1.0023408    -2.996098    -2.996098   -1.6939596  0.072491338    -2.996098    1.3021384   545227 
 3399000    1.0007216   -2.9950787   -2.9950787   -1.6950439  0.065853469   -2.9950787    1.3000348   545227 
 3400000    1.0012053   -2.9957011   -2.9957011   -1.6950379  0.057471896   -2.9957011    1.3006633   545227 
 3401000   0.99796315   -2.9922126   -2.9922126   -1.6957612  0.071276378   -2.9922126    1.2964514   545227 
 3402000    1.0004679   -2.9956068   -2.9956068   -1.6959014  0.060029532   -2.9956068    1.2997053   545227 
 3403000    1.0003556   -2.9961304   -2.9961304    -1.696571  0.063639106   -2.9961304    1.2995594   545227 
 3404000    1.0001226   -2.9966269   -2.9966269   -1.6973702  0.057063712   -2.9966269    1.2992567   545227 
 3405000    1.0004883   -2.9973911   -2.9973911   -1.6976593  0.059331334   -2.9973911    1.2997318   545227 
 3406000   0.99959243   -2.9956669   -2.9956669   -1.6970989  0.067476138   -2.9956669     1.298568   545227 
 3407000   0.99894829   -2.9942483   -2.9942483   -1.6965171  0.061539132   -2.9942483    1.2977312   545227 
 3408000    0.9994148   -2.9945299   -2.9945299   -1.6961927  0.056466484   -2.9945299    1.2983372   545227 
 3409000    1.0021308   -2.9976858   -2.9976858   -1.6958203  0.058846174   -2.9976858    1.3018656   545227 
 3410000    1.0008185   -2.9950943   -2.9950943   -1.6949336  0.063667265   -2.9950943    1.3001607   545227 
 3411000    1.0005586   -2.9951348   -2.9951348   -1.6953117  0.061144525   -2.9951348    1.2998231   545227 
 3412000    1.0011737   -2.9966116   -2.9966116   -1.6959895   0.06204238   -2.9966116    1.3006222   545227 
 3413000    1.0003646   -2.9954585   -2.9954585   -1.6958874  0.063609404   -2.9954585    1.2995711   545227 
 3414000    1.0031179   -2.9977465   -2.9977465   -1.6945986  0.073954205   -2.9977465    1.3031479   545227 
 3415000    1.0014991    -2.996132    -2.996132   -1.6950871  0.060949349    -2.996132    1.3010449   545227 
 3416000     1.002068   -2.9971732   -2.9971732   -1.6953892  0.065663119   -2.9971732     1.301784   545227 
 3417000     1.001212   -2.9961945   -2.9961945   -1.6955226  0.074995278   -2.9961945    1.3006719   545227 
 3418000    1.0008987   -2.9965004   -2.9965004   -1.6962355  0.077066342   -2.9965004     1.300265   545227 
 3419000     1.001062   -2.9959077   -2.9959077   -1.6954306  0.078569559   -2.9959077    1.3004771   545227 
 3420000    1.0019809   -2.9969384   -2.9969384   -1.6952676  0.065255505   -2.9969384    1.3016708   545227 
 3421000    1.0009558   -2.9956247   -2.9956247   -1.6952855   0.07214102   -2.9956247    1.3003391   545227 
 3422000    1.0007881   -2.9968712   -2.9968712   -1.6967499  0.061703118   -2.9968712    1.3001213   545227 
 3423000    1.0023711   -2.9989682   -2.9989682   -1.6967905  0.064092409   -2.9989682    1.3021778   545227 
 3424000     1.001511   -2.9982454   -2.9982454    -1.697185  0.059938286   -2.9982454    1.3010604   545227 
 3425000    1.0006696   -2.9979351   -2.9979351   -1.6979677  0.059606302   -2.9979351    1.2999673   545227 
 3426000    1.0012406   -2.9982783   -2.9982783   -1.6975693  0.060120202   -2.9982783     1.300709   545227 
 3427000    1.0007819    -2.997842    -2.997842   -1.6977288  0.066809808    -2.997842    1.3001132   545227 
 3428000    1.0013484   -2.9977768   -2.9977768   -1.6969276   0.06113088   -2.9977768    1.3008492   545227 
 3429000    1.0020955     -2.99846     -2.99846   -1.6966403  0.061459086     -2.99846    1.3018197   545227 
 3430000     1.000617   -2.9958558   -2.9958558   -1.6959569  0.065904192   -2.9958558    1.2998989   545227 
 3431000    1.0037792   -3.0000393   -3.0000393   -1.6960323  0.064808719   -3.0000393     1.304007   545227 
 3432000    1.0014231   -2.9981008   -2.9981008   -1.6971547  0.059954599   -2.9981008    1.3009462   545227 
 3433000     1.001759   -2.9980047   -2.9980047   -1.6966222   0.06453931   -2.9980047    1.3013825   545227 
 3434000    1.0004917   -2.9966702   -2.9966702    -1.696934  0.070044875   -2.9966702    1.2997362   545227 
 3435000     1.002577   -2.9996173   -2.9996173    -1.697172  0.062310906   -2.9996173    1.3024453   545227 
 3436000    1.0019202   -2.9983222   -2.9983222   -1.6967303  0.065970447   -2.9983222    1.3015919   545227 
 3437000    1.0027107   -2.9985857   -2.9985857   -1.6959669  0.069129847   -2.9985857    1.3026188   545227 
 3438000    1.0013936   -2.9980726   -2.9980726   -1.6971648  0.066695315   -2.9980726    1.3009078   545227 
 3439000    1.0008427    -2.997649    -2.997649   -1.6974568  0.058637662    -2.997649    1.3001921   545227 
 3440000    0.9994867   -2.9957949   -2.9957949   -1.6973643  0.066537741   -2.9957949    1.2984306   545227 
 3441000   0.99868117    -2.995416    -2.995416   -1.6980319  0.066071253    -2.995416    1.2973842   545227 
 3442000    1.0000141   -2.9963729   -2.9963729   -1.6972572  0.056416886   -2.9963729    1.2991157   545227 
 3443000    1.0009806   -2.9979124   -2.9979124   -1.6975411  0.061314829   -2.9979124    1.3003713   545227 
 3444000   0.99970818   -2.9960393   -2.9960393    -1.697321  0.061662166   -2.9960393    1.2987183   545227 
 3445000    0.9979065   -2.9944449   -2.9944449   -1.6980671  0.058538995   -2.9944449    1.2963778   545227 
 3446000   0.99945405   -2.9963802   -2.9963802    -1.697992  0.062970755   -2.9963802    1.2983882   545227 
 3447000   0.99924912    -2.996617    -2.996617    -1.698495  0.056615405    -2.996617     1.298122   545227 
 3448000   0.99964062   -2.9966043   -2.9966043   -1.6979737  0.052770541   -2.9966043    1.2986306   545227 
 3449000   0.99942167   -2.9967789   -2.9967789   -1.6984328  0.061283036   -2.9967789    1.2983461   545227 
 3450000   0.99990678   -2.9970522   -2.9970522   -1.6980758  0.059098285   -2.9970522    1.2989763   545227 
 3451000    1.0006826   -2.9972457   -2.9972457   -1.6972616  0.061278678   -2.9972457    1.2999841   545227 
 3452000   0.99889228   -2.9968518   -2.9968518   -1.6991934  0.059458489   -2.9968518    1.2976584   545227 
 3453000    1.0014473   -2.9991763   -2.9991763   -1.6981986  0.058649764   -2.9991763    1.3009777   545227 
 3454000     1.001414   -2.9994163   -2.9994163   -1.6984819   0.07047529   -2.9994163    1.3009344   545227 
 3455000    1.0014491    -2.999843    -2.999843   -1.6988631  0.070053587    -2.999843    1.3009799   545227 
 3456000    1.0024693   -3.0001672   -3.0001672   -1.6978619  0.064062044   -3.0001672    1.3023053   545227 
 3457000     1.003761   -3.0010372   -3.0010372   -1.6970538  0.072214871   -3.0010372    1.3039834   545227 
 3458000    1.0031555   -3.0007982   -3.0007982   -1.6976014   0.06964212   -3.0007982    1.3031968   545227 
 3459000    1.0038765   -3.0018229   -3.0018229   -1.6976895  0.074300039   -3.0018229    1.3041334   545227 
 3460000    1.0028777   -3.0007885   -3.0007885   -1.6979527  0.063945131   -3.0007885    1.3028358   545227 
 3461000    1.0014993   -2.9984575   -2.9984575   -1.6974124  0.067753293   -2.9984575    1.3010451   545227 
 3462000    1.0022323   -3.0004105   -3.0004105   -1.6984131  0.061274789   -3.0004105    1.3019974   545227 
 3463000     1.003019   -3.0015011   -3.0015011   -1.6984817  0.062090804   -3.0015011    1.3030194   545227 
 3464000    1.0017139   -3.0006175   -3.0006175   -1.6992936  0.061402719   -3.0006175    1.3013239   545227 
 3465000     1.002154   -3.0015965   -3.0015965   -1.6997008  0.063727292   -3.0015965    1.3018957   545227 
 3466000    1.0011797   -3.0003022   -3.0003022   -1.6996722  0.065073336   -3.0003022      1.30063   545227 
 3467000    1.0004783   -2.9989324   -2.9989324   -1.6992136  0.064316791   -2.9989324    1.2997187   545227 
 3468000    1.0006485   -2.9990924   -2.9990924   -1.6991525  0.062737919   -2.9990924    1.2999399   545227 
 3469000    1.0003712   -2.9977714   -2.9977714   -1.6981917  0.075449453   -2.9977714    1.2995797   545227 
 3470000    1.0014943   -2.9992188   -2.9992188   -1.6981801  0.062070834   -2.9992188    1.3010387   545227 
 3471000    1.0015864   -2.9986692   -2.9986692   -1.6975109  0.060606534   -2.9986692    1.3011583   545227 
 3472000    1.0029452   -3.0004785   -3.0004785   -1.6975549  0.070817727   -3.0004785    1.3029236   545227 
 3473000      1.00212   -2.9996915   -2.9996915     -1.69784  0.067551036   -2.9996915    1.3018515   545227 
 3474000    1.0009758   -2.9977791   -2.9977791    -1.697414  0.073598116   -2.9977791    1.3003651   545227 
 3475000    1.0018891   -2.9992471   -2.9992471   -1.6976956   0.06693401   -2.9992471    1.3015515   545227 
 3476000    1.0009595   -2.9984444   -2.9984444   -1.6981004  0.066474362   -2.9984444    1.3003439   545227 
 3477000     1.001787   -2.9983709   -2.9983709    -1.696952  0.062313552   -2.9983709    1.3014189   545227 
 3478000    1.0013958   -2.9975741   -2.9975741   -1.6966633  0.071394069   -2.9975741    1.3009108   545227 
 3479000     1.000283   -2.9963658   -2.9963658   -1.6969007  0.062810254   -2.9963658    1.2994651   545227 
 3480000   0.99963851   -2.9945146   -2.9945146   -1.6958867  0.063621664   -2.9945146    1.2986278   545227 
 3481000    1.0009624   -2.9955842   -2.9955842   -1.6952366  0.060057454   -2.9955842    1.3003476   545227 
 3482000   0.99957481   -2.9943308   -2.9943308   -1.6957857  0.053986217   -2.9943308    1.2985451   545227 
 3483000    1.0007721   -2.9961055   -2.9961055    -1.696005  0.060078389   -2.9961055    1.3001004   545227 
 3484000   0.99949665   -2.9953026   -2.9953026   -1.6968591  0.058999298   -2.9953026    1.2984435   545227 
 3485000    1.0002626   -2.9955392   -2.9955392   -1.6961006  0.058638378   -2.9955392    1.2994386   545227 
 3486000   0.99881456   -2.9941931   -2.9941931   -1.6966356  0.069311494   -2.9941931    1.2975574   545227 
 3487000   0.99972752   -2.9955091   -2.9955091   -1.6967657  0.054400274   -2.9955091    1.2987435   545227 
 3488000    1.0009808   -2.9954202   -2.9954202   -1.6950487  0.068691639   -2.9954202    1.3003716   545227 
 3489000   0.99965504   -2.9933677   -2.9933677   -1.6947184  0.072667446   -2.9933677    1.2986493   545227 
 3490000   0.99994836   -2.9933234   -2.9933234    -1.694293  0.064700724   -2.9933234    1.2990304   545227 
 3491000     1.000645   -2.9939666   -2.9939666   -1.6940312  0.063737624   -2.9939666    1.2999354   545227 
 3492000    1.0002071   -2.9937115   -2.9937115    -1.694345  0.059713303   -2.9937115    1.2993665   545227 
 3493000    1.0007372   -2.9940269   -2.9940269   -1.6939717   0.06944939   -2.9940269    1.3000551   545227 
 3494000   0.99939149   -2.9930839   -2.9930839    -1.694777  0.067288171   -2.9930839    1.2983069   545227 
 3495000    1.0009405   -2.9947573   -2.9947573    -1.694438  0.071254871   -2.9947573    1.3003193   545227 
 3496000    1.0007088   -2.9942113   -2.9942113    -1.694193  0.063353871   -2.9942113    1.3000183   545227 
 3497000    1.0013781   -2.9948609   -2.9948609   -1.6939731  0.057480639   -2.9948609    1.3008877   545227 
 3498000    1.0008283   -2.9935895   -2.9935895   -1.6934161  0.058879375   -2.9935895    1.3001735   545227 
 3499000   0.99942377   -2.9929474   -2.9929474   -1.6945985  0.069119936   -2.9929474    1.2983489   545227 
 3500000   0.99974664   -2.9934087   -2.9934087   -1.6946404   0.06747838   -2.9934087    1.2987683   545227 
 3501000    1.0000202   -2.9937497   -2.9937497    -1.694626  0.071606758   -2.9937497    1.2991237   545227 
 3502000    1.0002915    -2.993659    -2.993659   -1.6941828  0.060421294    -2.993659    1.2994762   545227 
 3503000    1.0009635   -2.9951565   -2.9951565   -1.6948073  0.072234739   -2.9951565    1.3003492   545227 
 3504000    1.0019735   -2.9966073   -2.9966073   -1.6949461  0.060203323   -2.9966073    1.3016612   545227 
 3505000    1.0010032   -2.9956938   -2.9956938   -1.6952932  0.062370995   -2.9956938    1.3004007   545227 
 3506000    1.0019733   -2.9961742   -2.9961742   -1.6945133  0.064515177   -2.9961742    1.3016609   545227 
 3507000    1.0009362    -2.994944    -2.994944   -1.6946304  0.061775453    -2.994944    1.3003136   545227 
 3508000    1.0012697   -2.9951401   -2.9951401   -1.6943932  0.062985509   -2.9951401    1.3007469   545227 
 3509000    1.0003344   -2.9943094   -2.9943094   -1.6947776  0.066131065   -2.9943094    1.2995318   545227 
 3510000    1.0014594   -2.9959139   -2.9959139   -1.6949206  0.063797995   -2.9959139    1.3009933   545227 
 3511000    1.0019802   -2.9955643   -2.9955643   -1.6938945  0.062137426   -2.9955643    1.3016699   545227 
 3512000    1.0023492   -2.9966369   -2.9966369   -1.6944876  0.068427283   -2.9966369    1.3021492   545227 
 3513000     1.002157   -2.9958373   -2.9958373   -1.6939376  0.075167063   -2.9958373    1.3018996   545227 
 3514000    1.0012374   -2.9955862   -2.9955862   -1.6948812  0.061605366   -2.9955862     1.300705   545227 
 3515000    1.0022639   -2.9970434   -2.9970434   -1.6950049   0.06496732   -2.9970434    1.3020385   545227 
 3516000    1.0026382   -2.9976814   -2.9976814   -1.6951567  0.055902807   -2.9976814    1.3025248   545227 
 3517000     1.002466   -2.9962975   -2.9962975   -1.6939965  0.064143532   -2.9962975     1.302301   545227 
 3518000    1.0013977   -2.9947205   -2.9947205   -1.6938074  0.060737054   -2.9947205    1.3009131   545227 
 3519000    1.0010029   -2.9935605   -2.9935605   -1.6931602  0.068174874   -2.9935605    1.3004003   545227 
 3520000    1.0021747   -2.9958147   -2.9958147   -1.6938921  0.060161431   -2.9958147    1.3019226   545227 
 3521000    1.0010804   -2.9950265   -2.9950265   -1.6945255    0.0631891   -2.9950265     1.300501   545227 
 3522000    1.0028919   -2.9977086   -2.9977086   -1.6948542  0.064478324   -2.9977086    1.3028543   545227 
 3523000    1.0031214   -2.9975697   -2.9975697   -1.6944173  0.069973315   -2.9975697    1.3031524   545227 
 3524000    1.0034334    -2.998754    -2.998754   -1.6951962  0.065237061    -2.998754    1.3035578   545227 
 3525000    1.0023665   -2.9967775   -2.9967775   -1.6946057  0.066679575   -2.9967775    1.3021718   545227 
 3526000    1.0019573   -2.9972477   -2.9972477   -1.6956075  0.072563068   -2.9972477    1.3016402   545227 
 3527000    1.0020943   -2.9966029   -2.9966029   -1.6947847  0.063327506   -2.9966029    1.3018181   545227 
 3528000    1.0026953   -2.9973241   -2.9973241   -1.6947253  0.081261417   -2.9973241    1.3025988   545227 
 3529000    1.0022857   -2.9969831   -2.9969831   -1.6949163  0.057610557   -2.9969831    1.3020667   545227 
 3530000    1.0018421   -2.9964353   -2.9964353   -1.6949447  0.072959266   -2.9964353    1.3014906   545227 
 3531000     1.001755   -2.9960313   -2.9960313    -1.694654  0.057508212   -2.9960313    1.3013774   545227 
 3532000    1.0006569   -2.9954711   -2.9954711   -1.6955203  0.072216107   -2.9954711    1.2999508   545227 
 3533000    1.0027317   -2.9981316   -2.9981316   -1.6954854   0.07507272   -2.9981316    1.3026462   545227 
 3534000    1.0016218    -2.996734    -2.996734   -1.6955296  0.072807695    -2.996734    1.3012044   545227 
 3535000    1.0003419   -2.9950913   -2.9950913   -1.6955497  0.065476721   -2.9950913    1.2995416   545227 
 3536000    1.0016227   -2.9974549   -2.9974549   -1.6962494  0.061745363   -2.9974549    1.3012055   545227 
 3537000     1.001906   -2.9968735   -2.9968735      -1.6953   0.06555437   -2.9968735    1.3015735   545227 
 3538000    1.0017675   -2.9973012   -2.9973012   -1.6959076  0.066946587   -2.9973012    1.3013936   545227 
 3539000    1.0012973   -2.9970602   -2.9970602   -1.6962775  0.067237882   -2.9970602    1.3007827   545227 
 3540000    1.0013547   -2.9979873   -2.9979873   -1.6971299  0.062199877   -2.9979873    1.3008574   545227 
 3541000    1.0012727    -2.997233    -2.997233   -1.6964822  0.060092072    -2.997233    1.3007508   545227 
 3542000    1.0002232   -2.9948113   -2.9948113   -1.6954239  0.063514777   -2.9948113    1.2993874   545227 
 3543000    1.0003783   -2.9954541   -2.9954541   -1.6958653  0.062326326   -2.9954541    1.2995889   545227 
 3544000    1.0016415   -2.9977772   -2.9977772   -1.6965473   0.05201151   -2.9977772    1.3012299   545227 
 3545000   0.99974479   -2.9940445   -2.9940445   -1.6952786   0.06060844   -2.9940445    1.2987659   545227 
 3546000    1.0010521   -2.9961582   -2.9961582   -1.6956939  0.061948289   -2.9961582    1.3004643   545227 
 3547000    1.0012024   -2.9967866   -2.9967866   -1.6961271  0.064570098   -2.9967866    1.3006595   545227 
 3548000      1.00112   -2.9963727   -2.9963727   -1.6958202  0.066707769   -2.9963727    1.3005525   545227 
 3549000    1.0017641   -2.9973372   -2.9973372   -1.6959479  0.059228085   -2.9973372    1.3013892   545227 
 3550000    1.0012606   -2.9969378   -2.9969378   -1.6962028  0.068109747   -2.9969378     1.300735   545227 
 3551000    1.0030841   -2.9993783   -2.9993783   -1.6962744  0.065946518   -2.9993783    1.3031039   545227 
 3552000     1.001198   -2.9968963   -2.9968963   -1.6962425  0.068246134   -2.9968963    1.3006537   545227 
 3553000    1.0028083    -2.997221    -2.997221   -1.6944753  0.067547681    -2.997221    1.3027457   545227 
 3554000    1.0030805   -2.9976818   -2.9976818   -1.6945824  0.073158149   -2.9976818    1.3030993   545227 
 3555000    1.0034514   -2.9979483   -2.9979483   -1.6943672  0.062613988   -2.9979483    1.3035811   545227 
 3556000     1.001805   -2.9970469   -2.9970469   -1.6956045  0.067738077   -2.9970469    1.3014424   545227 
 3557000    1.0020738   -2.9972222   -2.9972222   -1.6954306  0.072408637   -2.9972222    1.3017916   545227 
 3558000    1.0029784   -2.9987578   -2.9987578   -1.6957911  0.059545594   -2.9987578    1.3029667   545227 
 3559000    1.0010394   -2.9958775   -2.9958775   -1.6954298  0.066811255   -2.9958775    1.3004478   545227 
 3560000    1.0019987   -2.9972577   -2.9972577   -1.6955637  0.070534015   -2.9972577    1.3016939   545227 
 3561000    1.0011061   -2.9968193   -2.9968193   -1.6962849  0.068138043   -2.9968193    1.3005344   545227 
 3562000    1.0018124   -2.9988292   -2.9988292   -1.6973773  0.067240904   -2.9988292     1.301452   545227 
 3563000    1.0003374   -2.9971689   -2.9971689   -1.6976332  0.068530512   -2.9971689    1.2995357   545227 
 3564000    1.0023034   -2.9993075   -2.9993075   -1.6972177   0.06162385   -2.9993075    1.3020898   545227 
 3565000    1.0023632   -2.9991633   -2.9991633   -1.6969959   0.06825456   -2.9991633    1.3021674   545227 
 3566000    1.0027417   -2.9990218   -2.9990218   -1.6963626  0.063957267   -2.9990218    1.3026592   545227 
 3567000    1.0030074   -2.9991163   -2.9991163    -1.696112  0.067624365   -2.9991163    1.3030043   545227 
 3568000    1.0026397   -2.9987287   -2.9987287   -1.6962021  0.062978416   -2.9987287    1.3025267   545227 
 3569000    1.0008561   -2.9960243   -2.9960243   -1.6958147  0.072500429   -2.9960243    1.3002096   545227 
 3570000    1.0027047   -2.9977258   -2.9977258   -1.6951147  0.062229413   -2.9977258    1.3026111   545227 
 3571000    1.0035869   -2.9994602   -2.9994602   -1.6957031  0.064839754   -2.9994602    1.3037572   545227 
 3572000    1.0028001   -2.9984077   -2.9984077   -1.6956726  0.081537163   -2.9984077    1.3027351   545227 
 3573000    1.0029838   -2.9985363   -2.9985363   -1.6955626  0.071889031   -2.9985363    1.3029737   545227 
 3574000    1.0031584   -2.9981345   -2.9981345   -1.6949339  0.068356523   -2.9981345    1.3032005   545227 
 3575000    1.0027422   -2.9975834   -2.9975834   -1.6949237  0.059463628   -2.9975834    1.3026598   545227 
 3576000    1.0037121    -2.998583    -2.998583   -1.6946632  0.064846222    -2.998583    1.3039198   545227 
 3577000    1.0041752   -2.9988889   -2.9988889   -1.6943674  0.066014682   -2.9988889    1.3045215   545227 
 3578000    1.0025765   -2.9978227   -2.9978227   -1.6953782  0.057277636   -2.9978227    1.3024445   545227 
 3579000    1.0008281   -2.9955315   -2.9955315   -1.6953583    0.0675294   -2.9955315    1.3001732   545227 
 3580000    1.0018462   -2.9970511   -2.9970511   -1.6955553  0.067272648   -2.9970511    1.3014958   545227 
 3581000    1.0017887   -2.9970698   -2.9970698   -1.6956487  0.067636124   -2.9970698    1.3014211   545227 
 3582000   0.99968259   -2.9944494   -2.9944494   -1.6957643  0.062979303   -2.9944494    1.2986851   545227 
 3583000    1.0012073   -2.9957091   -2.9957091   -1.6950433  0.066520438   -2.9957091    1.3006658   545227 
 3584000    1.0003614   -2.9944084   -2.9944084   -1.6948415  0.065141866   -2.9944084    1.2995669   545227 
 3585000      1.00026   -2.9943192   -2.9943192    -1.694884  0.063314877   -2.9943192    1.2994352   545227 
 3586000    1.0010784   -2.9949214   -2.9949214   -1.6944231  0.064547588   -2.9949214    1.3004984   545227 
 3587000    1.0009795   -2.9953813   -2.9953813   -1.6950114  0.067876848   -2.9953813    1.3003699   545227 
 3588000    1.0005604   -2.9948568   -2.9948568   -1.6950313  0.061940904   -2.9948568    1.2998255   545227 
 3589000    1.0029696   -2.9972123   -2.9972123    -1.694257  0.066263227   -2.9972123    1.3029553   545227 
 3590000    1.0015123   -2.9951451   -2.9951451    -1.694083  0.074508355   -2.9951451    1.3010621   545227 
 3591000    1.0033732   -2.9979096   -2.9979096   -1.6944301  0.063551179   -2.9979096    1.3034795   545227 
 3592000    1.0025939    -2.996966    -2.996966   -1.6944988  0.065622416    -2.996966    1.3024672   545227 
 3593000    1.0027469    -2.997314    -2.997314   -1.6946481  0.064851987    -2.997314     1.302666   545227 
 3594000    1.0020787   -2.9967461   -2.9967461   -1.6949483  0.071608193   -2.9967461    1.3017978   545227 
 3595000     1.002823   -2.9970819   -2.9970819   -1.6943172  0.068651548   -2.9970819    1.3027648   545227 
 3596000    1.0026986   -2.9968907   -2.9968907   -1.6942876  0.066420819   -2.9968907    1.3026031   545227 
 3597000    1.0033416   -2.9979722   -2.9979722   -1.6945337   0.06998445   -2.9979722    1.3034385   545227 
 3598000    1.0038497   -2.9985241   -2.9985241   -1.6944255  0.067343225   -2.9985241    1.3040986   545227 
 3599000    1.0036216   -2.9989962   -2.9989962    -1.695194  0.068124778   -2.9989962    1.3038023   545227 
 3600000    1.0021288   -2.9972173   -2.9972173   -1.6953543  0.073077601   -2.9972173     1.301863   545227 
 3601000    1.0017311   -2.9971506   -2.9971506   -1.6958043  0.076542646   -2.9971506    1.3013463   545227 
 3602000    1.0022996    -2.998021    -2.998021   -1.6959362  0.068281158    -2.998021    1.3020848   545227 
 3603000    1.0013297   -2.9979886   -2.9979886   -1.6971638  0.077362553   -2.9979886    1.3008248   545227 
 3604000    1.0019013   -2.9992964   -2.9992964   -1.6977289  0.063680831   -2.9992964    1.3015675   545227 
 3605000    1.0013068    -2.998038    -2.998038    -1.697243   0.06545711    -2.998038    1.3007951   545227 
 3606000   0.99945873   -2.9964145   -2.9964145   -1.6980203  0.062987879   -2.9964145    1.2983943   545227 
 3607000    1.0007721   -2.9972836   -2.9972836   -1.6971831  0.058321995   -2.9972836    1.3001005   545227 
 3608000   0.99919222   -2.9962946   -2.9962946   -1.6982466   0.06221213   -2.9962946    1.2980481   545227 
 3609000    1.0001841   -2.9968737   -2.9968737    -1.697537  0.068377614   -2.9968737    1.2993367   545227 
 3610000    1.0001095   -2.9972501   -2.9972501   -1.6980104  0.059605917   -2.9972501    1.2992397   545227 
 3611000     1.001714   -2.9988103   -2.9988103   -1.6974861  0.066580655   -2.9988103    1.3013242   545227 
 3612000    1.0021439   -2.9984102   -2.9984102   -1.6965276  0.064787574   -2.9984102    1.3018826   545227 
 3613000    1.0022224   -2.9990594   -2.9990594   -1.6970748  0.060104188   -2.9990594    1.3019846   545227 
 3614000    1.0009513   -2.9976212   -2.9976212    -1.697288  0.067919529   -2.9976212    1.3003333   545227 
 3615000    1.0027662    -2.999104    -2.999104    -1.696413  0.068366136    -2.999104     1.302691   545227 
 3616000    1.0015077   -2.9973765   -2.9973765   -1.6963204   0.06660491   -2.9973765     1.301056   545227 
 3617000    1.0021994   -2.9976225   -2.9976225   -1.6956679  0.060343753   -2.9976225    1.3019546   545227 
 3618000    1.0023245   -2.9978208   -2.9978208   -1.6957036  0.072412354   -2.9978208    1.3021171   545227 
 3619000    1.0040705   -2.9990495   -2.9990495   -1.6946641  0.061143277   -2.9990495    1.3043855   545227 
 3620000    1.0032035    -2.997774    -2.997774   -1.6945149  0.071705114    -2.997774    1.3032591   545227 
 3621000     1.003144   -2.9971855   -2.9971855   -1.6940037  0.062183209   -2.9971855    1.3031818   545227 
 3622000    1.0018367   -2.9965886   -2.9965886   -1.6951051  0.068008811   -2.9965886    1.3014835   545227 
 3623000     1.001586    -2.996098    -2.996098   -1.6949401  0.067669583    -2.996098    1.3011579   545227 
 3624000    1.0024154   -2.9977172   -2.9977172   -1.6954819  0.065531329   -2.9977172    1.3022353   545227 
 3625000    1.0016611   -2.9961264   -2.9961264    -1.694871  0.068507987   -2.9961264    1.3012554   545227 
 3626000    1.0035234   -2.9988787   -2.9988787    -1.695204  0.059149452   -2.9988787    1.3036747   545227 
 3627000    1.0020062   -2.9967113   -2.9967113   -1.6950076   0.07286528   -2.9967113    1.3017037   545227 
 3628000    1.0022388   -2.9970401   -2.9970401   -1.6950342  0.062994406   -2.9970401    1.3020059   545227 
 3629000     1.001609    -2.995272    -2.995272   -1.6940843  0.061429398    -2.995272    1.3011877   545227 
 3630000    1.0023435   -2.9964605   -2.9964605   -1.6943186  0.068228709   -2.9964605    1.3021418   545227 
 3631000     1.000996   -2.9955164   -2.9955164   -1.6951251  0.066580375   -2.9955164    1.3003913   545227 
 3632000      1.00261   -2.9963402   -2.9963402   -1.6938522   0.06075721   -2.9963402     1.302488   545227 
 3633000    1.0010876   -2.9943744   -2.9943744    -1.693864  0.056187531   -2.9943744    1.3005104   545227 
 3634000    1.0018045   -2.9946239   -2.9946239   -1.6931822   0.06798302   -2.9946239    1.3014417   545227 
 3635000    1.0014217   -2.9937156   -2.9937156   -1.6927712  0.071528284   -2.9937156    1.3009444   545227 
 3636000    1.0025774   -2.9945274   -2.9945274   -1.6920817   0.05835739   -2.9945274    1.3024457   545227 
 3637000    1.0033055   -2.9957587   -2.9957587   -1.6923671  0.072942015   -2.9957587    1.3033916   545227 
 3638000    1.0012607    -2.994408    -2.994408   -1.6936728  0.054184033    -2.994408    1.3007352   545227 
 3639000    1.0024205   -2.9956845   -2.9956845   -1.6934426  0.055716063   -2.9956845    1.3022418   545227 
 3640000    1.0023156   -2.9952356   -2.9952356   -1.6931301  0.060526402   -2.9952356    1.3021056   545227 
 3641000    1.0010663   -2.9938607   -2.9938607    -1.693378  0.069563761   -2.9938607    1.3004827   545227 
 3642000    1.0007178   -2.9936858   -2.9936858   -1.6936559  0.068710208   -2.9936858    1.3000299   545227 
 3643000    1.0016918   -2.9940597   -2.9940597   -1.6927644   0.06136083   -2.9940597    1.3012953   545227 
 3644000    1.0007721   -2.9926334   -2.9926334   -1.6925329  0.067566632   -2.9926334    1.3001005   545227 
 3645000    1.0019731   -2.9946742   -2.9946742   -1.6930135  0.069310297   -2.9946742    1.3016607   545227 
 3646000    1.0009119   -2.9924552   -2.9924552   -1.6921732  0.065127816   -2.9924552    1.3002821   545227 
 3647000    1.0007688   -2.9919003   -2.9919003   -1.6918042  0.069828551   -2.9919003    1.3000961   545227 
 3648000    1.0040389   -2.9952455   -2.9952455   -1.6909012  0.062056455   -2.9952455    1.3043443   545227 
 3649000    1.0004346   -2.9921871   -2.9921871   -1.6925251  0.067595453   -2.9921871     1.299662   545227 
 3650000    1.0006307   -2.9921644   -2.9921644   -1.6922477  0.064997798   -2.9921644    1.2999168   545227 
 3651000    1.0014836   -2.9929934   -2.9929934   -1.6919686  0.061030976   -2.9929934    1.3010248   545227 
 3652000    1.0025974   -2.9947699   -2.9947699   -1.6922981  0.066789325   -2.9947699    1.3024718   545227 
 3653000    1.0025802   -2.9949744   -2.9949744    -1.692525  0.064477311   -2.9949744    1.3024493   545227 
 3654000    1.0018081    -2.994147    -2.994147   -1.6927006   0.07004312    -2.994147    1.3014463   545227 
 3655000    1.0019565   -2.9941271   -2.9941271    -1.692488    0.0763497   -2.9941271    1.3016391   545227 
 3656000    1.0024675   -2.9941003   -2.9941003   -1.6917973  0.066809245   -2.9941003     1.302303   545227 
 3657000    1.0017237     -2.99422     -2.99422   -1.6928833  0.065244846     -2.99422    1.3013367   545227 
 3658000    1.0012654   -2.9937129   -2.9937129   -1.6929717  0.065733776   -2.9937129    1.3007413   545227 
 3659000    1.0004802   -2.9940303   -2.9940303   -1.6943091  0.075073926   -2.9940303    1.2997212   545227 
 3660000      1.00122   -2.9957895   -2.9957895   -1.6951071  0.055696898   -2.9957895    1.3006823   545227 
 3661000    1.0016341   -2.9963024   -2.9963024   -1.6950821  0.061289891   -2.9963024    1.3012203   545227 
 3662000    1.0001702   -2.9952943   -2.9952943   -1.6959757  0.065970198   -2.9952943    1.2993186   545227 
 3663000    1.0002806   -2.9956081   -2.9956081   -1.6961462  0.068244774   -2.9956081    1.2994619   545227 
 3664000    1.0010517   -2.9965649   -2.9965649   -1.6961012   0.05984597   -2.9965649    1.3004637   545227 
 3665000    1.0009302   -2.9968058   -2.9968058   -1.6964999  0.057738941   -2.9968058    1.3003059   545227 
 3666000    1.0013263   -2.9968528   -2.9968528   -1.6960324  0.069725474   -2.9968528    1.3008204   545227 
 3667000    1.0018873   -2.9967796   -2.9967796   -1.6952303  0.060762097   -2.9967796    1.3015493   545227 
 3668000    1.0028407   -2.9973562   -2.9973562   -1.6945684  0.068660792   -2.9973562    1.3027878   545227 
 3669000    1.0037861   -2.9983176   -2.9983176   -1.6943016  0.065252265   -2.9983176     1.304016   545227 
 3670000    1.0022771   -2.9976522   -2.9976522   -1.6955966  0.068313361   -2.9976522    1.3020556   545227 
 3671000    1.0041642   -2.9990823   -2.9990823   -1.6945752  0.064750694   -2.9990823    1.3045072   545227 
 3672000    1.0012665   -2.9969761   -2.9969761   -1.6962334  0.065437337   -2.9969761    1.3007427   545227 
 3673000    1.0031604   -2.9980254   -2.9980254   -1.6948223  0.069638675   -2.9980254     1.303203   545227 
 3674000    1.0018676   -2.9969969   -2.9969969   -1.6954732  0.076850205   -2.9969969    1.3015237   545227 
 3675000    1.0022754   -2.9973042   -2.9973042   -1.6952508  0.073635632   -2.9973042    1.3020534   545227 
 3676000     1.001407   -2.9961586   -2.9961586   -1.6952333  0.071511414   -2.9961586    1.3009253   545227 
 3677000    1.0028376   -2.9975078   -2.9975078    -1.694724  0.058368353   -2.9975078    1.3027838   545227 
 3678000    1.0019489    -2.996591    -2.996591   -1.6949617  0.068308511    -2.996591    1.3016293   545227 
 3679000    1.0016402   -2.9969472   -2.9969472    -1.695719  0.068838719   -2.9969472    1.3012283   545227 
 3680000    1.0029868   -2.9992984   -2.9992984   -1.6963209  0.069809684   -2.9992984    1.3029775   545227 
 3681000    1.0023858   -2.9975803   -2.9975803   -1.6953835  0.065689849   -2.9975803    1.3021968   545227 
 3682000    1.0016902   -2.9971557   -2.9971557   -1.6958626   0.06874924   -2.9971557    1.3012931   545227 
 3683000    1.0023365   -2.9972899   -2.9972899   -1.6951571  0.066984426   -2.9972899    1.3021328   545227 
 3684000    1.0027415   -2.9970069   -2.9970069    -1.694348  0.063025845   -2.9970069    1.3026589   545227 
 3685000    1.0027089   -2.9959451   -2.9959451   -1.6933286  0.068344379   -2.9959451    1.3026165   545227 
 3686000    1.0035565   -2.9964699   -2.9964699   -1.6927523  0.075569554   -2.9964699    1.3037176   545227 
 3687000    1.0015754   -2.9945352   -2.9945352   -1.6933912  0.064061861   -2.9945352     1.301144   545227 
 3688000    1.0013335   -2.9946418   -2.9946418    -1.693812  0.067028344   -2.9946418    1.3008298   545227 
 3689000    1.0015075   -2.9949319   -2.9949319    -1.693876  0.059939059   -2.9949319    1.3010559   545227 
 3690000    1.0024659   -2.9955595   -2.9955595   -1.6932586  0.068944548   -2.9955595    1.3023009   545227 
 3691000    1.0004599   -2.9944874   -2.9944874   -1.6947924  0.069588487   -2.9944874    1.2996949   545227 
 3692000   0.99968243   -2.9939068   -2.9939068   -1.6952219  0.060025325   -2.9939068    1.2986849   545227 
 3693000    1.0001748    -2.993478    -2.993478   -1.6941534  0.063894129    -2.993478    1.2993246   545227 
 3694000   0.99966794     -2.99396     -2.99396   -1.6952939   0.06203324     -2.99396    1.2986661   545227 
 3695000   0.99946774   -2.9937237   -2.9937237   -1.6953177  0.055463226   -2.9937237     1.298406   545227 
 3696000    1.0000659   -2.9940833   -2.9940833   -1.6949003  0.052788309   -2.9940833    1.2991831   545227 
 3697000    1.0000628   -2.9939243   -2.9939243   -1.6947452  0.065059625   -2.9939243    1.2991791   545227 
 3698000    1.0006165   -2.9946344   -2.9946344    -1.694736  0.058686406   -2.9946344    1.2998983   545227 
 3699000   0.99929716   -2.9931854   -2.9931854   -1.6950011  0.063397822   -2.9931854    1.2981844   545227 
 3700000   0.99837365      -2.9933      -2.9933   -1.6963153  0.062675635      -2.9933    1.2969847   545227 
 3701000    1.0006474   -2.9947582   -2.9947582   -1.6948197    0.0520809   -2.9947582    1.2999385   545227 
 3702000    1.0009339   -2.9952823   -2.9952823   -1.6949717  0.069057982   -2.9952823    1.3003106   545227 
 3703000    1.0008673   -2.9953636   -2.9953636   -1.6951395  0.059771085   -2.9953636    1.3002242   545227 
 3704000    1.0011986   -2.9955136   -2.9955136   -1.6948591  0.073862015   -2.9955136    1.3006545   545227 
 3705000    1.0031739   -2.9977277   -2.9977277    -1.694507  0.065110344   -2.9977277    1.3032206   545227 
 3706000    1.0013812   -2.9949725   -2.9949725   -1.6940807  0.065789745   -2.9949725    1.3008918   545227 
 3707000    1.0032609   -2.9980152   -2.9980152   -1.6946815  0.066800238   -2.9980152    1.3033337   545227 
 3708000    1.0030126   -2.9980277   -2.9980277   -1.6950166  0.071517025   -2.9980277    1.3030111   545227 
 3709000    1.0024859   -2.9972173   -2.9972173   -1.6948904  0.074751128   -2.9972173    1.3023268   545227 
 3710000    1.0031344   -2.9992195   -2.9992195   -1.6960501  0.063877977   -2.9992195    1.3031693   545227 
 3711000    1.0031163   -2.9994364   -2.9994364   -1.6962906  0.067373669   -2.9994364    1.3031458   545227 
 3712000    1.0035677   -3.0004258   -3.0004258   -1.6966936  0.057001477   -3.0004258    1.3037322   545227 
 3713000    1.0020764   -2.9990607   -2.9990607   -1.6972658  0.058957993   -2.9990607    1.3017949   545227 
 3714000    1.0013332   -2.9978084   -2.9978084    -1.696979  0.065102262   -2.9978084    1.3008294   545227 
 3715000    1.0021177   -2.9991439   -2.9991439   -1.6972954  0.063452123   -2.9991439    1.3018485   545227 
 3716000    1.0021617   -2.9996327   -2.9996327    -1.697727  0.063395983   -2.9996327    1.3019056   545227 
 3717000    1.0009008   -2.9974931   -2.9974931   -1.6972254  0.066185734   -2.9974931    1.3002677   545227 
 3718000    1.0006215   -2.9973925   -2.9973925   -1.6974876  0.074000883   -2.9973925    1.2999048   545227 
 3719000    1.0018774   -2.9987268   -2.9987268   -1.6971905   0.06680467   -2.9987268    1.3015364   545227 
 3720000    1.0018672   -2.9987476   -2.9987476   -1.6972245   0.05630358   -2.9987476    1.3015232   545227 
 3721000    1.0030302   -2.9999591   -2.9999591   -1.6969252   0.06251941   -2.9999591    1.3030339   545227 
 3722000    1.0011605    -2.997443    -2.997443    -1.696838  0.073061814    -2.997443     1.300605   545227 
 3723000    1.0019656   -2.9982172   -2.9982172   -1.6965663  0.068953857   -2.9982172     1.301651   545227 
 3724000     1.001798   -2.9988641   -2.9988641   -1.6974309  0.062339967   -2.9988641    1.3014332   545227 
 3725000    1.0041216   -3.0001699   -3.0001699   -1.6957181  0.067913944   -3.0001699    1.3044518   545227 
 3726000    1.0032677   -3.0000635   -3.0000635    -1.696721   0.06353577   -3.0000635    1.3033425   545227 
 3727000    1.0014369   -2.9977154   -2.9977154   -1.6967512   0.06773382   -2.9977154    1.3009642   545227 
 3728000     1.003305   -3.0000868   -3.0000868   -1.6966958  0.065196179   -3.0000868     1.303391   545227 
 3729000    1.0017622   -2.9982172   -2.9982172   -1.6968304  0.064512131   -2.9982172    1.3013868   545227 
 3730000    1.0016899   -2.9974359   -2.9974359   -1.6961431  0.060512459   -2.9974359    1.3012928   545227 
 3731000    1.0005355   -2.9953338   -2.9953338   -1.6955408   0.06312462   -2.9953338    1.2997931   545227 
 3732000     1.000413   -2.9958508   -2.9958508   -1.6962169  0.065100584   -2.9958508    1.2996339   545227 
 3733000    1.0012268   -2.9965309   -2.9965309   -1.6958398  0.063463047   -2.9965309    1.3006911   545227 
 3734000    1.0003684   -2.9960692   -2.9960692   -1.6964932  0.062301612   -2.9960692     1.299576   545227 
 3735000    1.0006604   -2.9955864   -2.9955864    -1.695631  0.065709799   -2.9955864    1.2999554   545227 
 3736000    1.0006931   -2.9951838   -2.9951838   -1.6951859  0.072554593   -2.9951838    1.2999979   545227 
 3737000    1.0012573   -2.9965401   -2.9965401   -1.6958093  0.055315144   -2.9965401    1.3007307   545227 
 3738000    1.0001345   -2.9948879   -2.9948879   -1.6956157  0.069322678   -2.9948879    1.2992721   545227 
 3739000    1.0014194   -2.9958029   -2.9958029   -1.6948615  0.063710341   -2.9958029    1.3009414   545227 
 3740000    1.0019224   -2.9962086   -2.9962086   -1.6946138  0.069888047   -2.9962086    1.3015948   545227 
 3741000     1.000724   -2.9948255   -2.9948255   -1.6947875  0.059857031   -2.9948255     1.300038   545227 
 3742000    1.0020492   -2.9956954   -2.9956954   -1.6939358  0.064167415   -2.9956954    1.3017595   545227 
 3743000    1.0025365   -2.9958068   -2.9958068   -1.6934142  0.058279377   -2.9958068    1.3023925   545227 
 3744000    1.0010349   -2.9942332   -2.9942332   -1.6937914  0.065236281   -2.9942332    1.3004418   545227 
 3745000    1.0018221   -2.9956353   -2.9956353   -1.6941708   0.06199183   -2.9956353    1.3014645   545227 
 3746000   0.99986951   -2.9928124   -2.9928124   -1.6938845  0.071960877   -2.9928124    1.2989279   545227 
 3747000    1.0030199   -2.9956782   -2.9956782   -1.6926576  0.072784575   -2.9956782    1.3030205   545227 
 3748000    1.0015418   -2.9942025   -2.9942025   -1.6931021  0.066340632   -2.9942025    1.3011004   545227 
 3749000    1.0026029   -2.9945741   -2.9945741   -1.6920952  0.060644154   -2.9945741    1.3024788   545227 
 3750000    1.0023711   -2.9951722   -2.9951722   -1.6929945  0.064327306   -2.9951722    1.3021777   545227 
 3751000    1.0012276   -2.9945696   -2.9945696   -1.6938774  0.066348093   -2.9945696    1.3006922   545227 
 3752000    1.0021441   -2.9950381   -2.9950381   -1.6931552  0.063380621   -2.9950381    1.3018829   545227 
 3753000    1.0014766   -2.9947117   -2.9947117    -1.693696  0.071473908   -2.9947117    1.3010157   545227 
 3754000    1.0008953   -2.9945422   -2.9945422   -1.6942817  0.067945355   -2.9945422    1.3002606   545227 
 3755000    1.0004763    -2.994206    -2.994206   -1.6944898   0.06132769    -2.994206    1.2997162   545227 
 3756000    1.0008852    -2.994917    -2.994917   -1.6946695  0.053685202    -2.994917    1.3002474   545227 
 3757000   0.99939211   -2.9936214   -2.9936214   -1.6953136   0.06290635   -2.9936214    1.2983077   545227 
 3758000     1.001927   -2.9962899   -2.9962899    -1.694689  0.062687087   -2.9962899    1.3016009   545227 
 3759000    1.0014414   -2.9949858   -2.9949858   -1.6940159  0.065900299   -2.9949858    1.3009699   545227 
 3760000    1.0031516   -2.9972065   -2.9972065   -1.6940149  0.057577559   -2.9972065    1.3031916   545227 
 3761000    1.0003492   -2.9946121   -2.9946121   -1.6950611  0.067628049   -2.9946121    1.2995511   545227 
 3762000   0.99969526   -2.9937345   -2.9937345   -1.6950329  0.071892616   -2.9937345    1.2987016   545227 
 3763000   0.99943966   -2.9931076   -2.9931076   -1.6947381   0.06507514   -2.9931076    1.2983695   545227 
 3764000    1.0006042   -2.9951414   -2.9951414    -1.695259  0.065513231   -2.9951414    1.2998823   545227 
 3765000    1.0003542   -2.9943849   -2.9943849   -1.6948274  0.070218573   -2.9943849    1.2995575   545227 
 3766000    1.0018574   -2.9960164   -2.9960164   -1.6945061  0.053827835   -2.9960164    1.3015104   545227 
 3767000    1.0023879   -2.9968246   -2.9968246   -1.6946251  0.055055681   -2.9968246    1.3021995   545227 
 3768000    1.0025687   -2.9978326   -2.9978326   -1.6953981  0.064197487   -2.9978326    1.3024345   545227 
 3769000    1.0023683   -2.9973124   -2.9973124   -1.6951383  0.070112225   -2.9973124    1.3021741   545227 
 3770000    1.0005747   -2.9946307   -2.9946307   -1.6947867  0.063568856   -2.9946307     1.299844   545227 
 3771000    1.0040017   -2.9994054   -2.9994054   -1.6951094  0.068588544   -2.9994054     1.304296   545227 
 3772000    1.0037538   -2.9990133   -2.9990133   -1.6950393  0.069437575   -2.9990133     1.303974   545227 
 3773000    1.0029618   -2.9987156   -2.9987156   -1.6957705  0.060369205   -2.9987156    1.3029451   545227 
 3774000    1.0014153   -2.9972035   -2.9972035   -1.6962674   0.06905162   -2.9972035    1.3009361   545227 
 3775000    1.0013481   -2.9978915   -2.9978915   -1.6970428  0.066102634   -2.9978915    1.3008487   545227 
 3776000    1.0005123   -2.9963939   -2.9963939   -1.6966309  0.072082095   -2.9963939     1.299763   545227 
 3777000    1.0014508   -2.9985444   -2.9985444   -1.6975622  0.062802306   -2.9985444    1.3009822   545227 
 3778000   0.99988978   -2.9972392   -2.9972392    -1.698285  0.063619861   -2.9972392    1.2989542   545227 
 3779000   0.99937265   -2.9970281   -2.9970281   -1.6987457  0.061402443   -2.9970281    1.2982825   545227 
 3780000     1.001405   -2.9982539   -2.9982539   -1.6973312  0.062401218   -2.9982539    1.3009227   545227 
 3781000    1.0021145   -2.9990741   -2.9990741   -1.6972297  0.063019637   -2.9990741    1.3018444   545227 
 3782000     1.001775   -2.9986587   -2.9986587   -1.6972553  0.070103421   -2.9986587    1.3014034   545227 
 3783000    1.0023611   -2.9993244   -2.9993244   -1.6971596  0.060920182   -2.9993244    1.3021648   545227 
 3784000    1.0017848   -2.9986415   -2.9986415   -1.6972255  0.065149129   -2.9986415     1.301416   545227 
 3785000    1.0015309   -2.9968266   -2.9968266   -1.6957404  0.072924018   -2.9968266    1.3010862   545227 
 3786000    1.0025372   -2.9981778   -2.9981778   -1.6957843   0.06455887   -2.9981778    1.3023935   545227 
 3787000    1.0048732   -2.9999227   -2.9999227   -1.6944946  0.068881077   -2.9999227    1.3054282   545227 
 3788000    1.0045643   -2.9992921   -2.9992921   -1.6942652  0.068613002   -2.9992921    1.3050269   545227 
 3789000    1.0052284   -3.0001402   -3.0001402   -1.6942506   0.06024409   -3.0001402    1.3058896   545227 
 3790000    1.0022417   -2.9980654   -2.9980654   -1.6960558  0.074345227   -2.9980654    1.3020096   545227 
 3791000    1.0017367   -2.9978133   -2.9978133   -1.6964597  0.078768462   -2.9978133    1.3013536   545227 
 3792000     1.000685   -2.9972775   -2.9972775   -1.6972901  0.058466274   -2.9972775    1.2999874   545227 
 3793000    1.0010816   -2.9973165   -2.9973165    -1.696814  0.068336988   -2.9973165    1.3005025   545227 
 3794000    1.0024352   -2.9995414   -2.9995414   -1.6972804   0.06926525   -2.9995414     1.302261   545227 
 3795000    1.0019625   -2.9975284   -2.9975284   -1.6958814  0.062339232   -2.9975284    1.3016469   545227 
 3796000     1.000352   -2.9962496   -2.9962496   -1.6966948  0.066725819   -2.9962496    1.2995548   545227 
 3797000    1.0019202   -2.9977219   -2.9977219   -1.6961299  0.064496137   -2.9977219     1.301592   545227 
 3798000    1.0020505   -2.9970302   -2.9970302   -1.6952689  0.065949571   -2.9970302    1.3017613   545227 
 3799000    1.0019396   -2.9956525   -2.9956525   -1.6940354   0.05842974   -2.9956525    1.3016171   545227 
 3800000    1.0016793   -2.9956438   -2.9956438   -1.6943648  0.066402259   -2.9956438     1.301279   545227 
 3801000    1.0024565   -2.9955235   -2.9955235   -1.6932348  0.066782852   -2.9955235    1.3022886   545227 
 3802000    1.0016619   -2.9947196   -2.9947196   -1.6934632  0.078946406   -2.9947196    1.3012564   545227 
 3803000    1.0033094   -2.9971826   -2.9971826   -1.6937859  0.067877393   -2.9971826    1.3033967   545227 
 3804000    1.0021537   -2.9960416   -2.9960416   -1.6941463  0.070162741   -2.9960416    1.3018953   545227 
 3805000    1.0036804   -2.9973502   -2.9973502   -1.6934716  0.062046513   -2.9973502    1.3038786   545227 
 3806000    1.0028929   -2.9965509   -2.9965509   -1.6936953  0.062520859   -2.9965509    1.3028556   545227 
 3807000    1.0028358    -2.996754    -2.996754   -1.6939726  0.073231866    -2.996754    1.3027814   545227 
 3808000    1.0023596   -2.9949462   -2.9949462   -1.6927834  0.066760863   -2.9949462    1.3021628   545227 
 3809000    1.0008809   -2.9943888   -2.9943888    -1.694147  0.067244282   -2.9943888    1.3002418   545227 
 3810000    1.0026556   -2.9963364   -2.9963364   -1.6937891  0.063150261   -2.9963364    1.3025473   545227 
 3811000    1.0000599   -2.9931957   -2.9931957   -1.6940205  0.070726002   -2.9931957    1.2991752   545227 
 3812000    1.0018241   -2.9944625   -2.9944625   -1.6929954  0.074891369   -2.9944625    1.3014671   545227 
 3813000    1.0021557   -2.9943177   -2.9943177   -1.6924198  0.071812694   -2.9943177    1.3018979   545227 
 3814000    1.0008387   -2.9923846   -2.9923846   -1.6921977  0.067167812   -2.9923846    1.3001869   545227 
 3815000    1.0016021   -2.9930078   -2.9930078    -1.691829  0.058358548   -2.9930078    1.3011788   545227 
 3816000    1.0013481   -2.9939126   -2.9939126   -1.6930638    0.0577523   -2.9939126    1.3008488   545227 
 3817000    1.0017522   -2.9943464   -2.9943464   -1.6929726  0.063813615   -2.9943464    1.3013738   545227 
 3818000    1.0009481   -2.9927728   -2.9927728   -1.6924437  0.066085489   -2.9927728    1.3003291   545227 
 3819000    1.0025863   -2.9942515   -2.9942515   -1.6917941  0.058211984   -2.9942515    1.3024574   545227 
 3820000    1.0017545   -2.9926052   -2.9926052   -1.6912285  0.065498662   -2.9926052    1.3013767   545227 
 3821000    1.0018066   -2.9928447   -2.9928447   -1.6914002  0.064557726   -2.9928447    1.3014444   545227 
 3822000    1.0026858   -2.9940818   -2.9940818   -1.6914953  0.071087614   -2.9940818    1.3025866   545227 
 3823000     1.003389   -2.9936198   -2.9936198   -1.6901197  0.058131429   -2.9936198    1.3035001   545227 
 3824000    1.0040603   -2.9946549   -2.9946549   -1.6902827  0.063079112   -2.9946549    1.3043722   545227 
 3825000    1.0024279   -2.9924044   -2.9924044   -1.6901529  0.064090648   -2.9924044    1.3022515   545227 
 3826000    1.0023574   -2.9932018   -2.9932018   -1.6910419  0.065975092   -2.9932018    1.3021599   545227 
 3827000    1.0032023   -2.9937804   -2.9937804   -1.6905229  0.064394167   -2.9937804    1.3032575   545227 
 3828000    1.0028635   -2.9928238   -2.9928238   -1.6900064  0.062384564   -2.9928238    1.3028174   545227 
 3829000    1.0029467   -2.9939117   -2.9939117   -1.6909862  0.064168204   -2.9939117    1.3029256   545227 
 3830000    1.0023533   -2.9945129   -2.9945129   -1.6923582   0.06067626   -2.9945129    1.3021547   545227 
 3831000    1.0007432   -2.9925051   -2.9925051   -1.6924421  0.060151481   -2.9925051    1.3000629   545227 
 3832000    1.0012204    -2.993329    -2.993329   -1.6926462    0.0559452    -2.993329    1.3006828   545227 
 3833000    1.0006442    -2.991778    -2.991778   -1.6918437  0.054344731    -2.991778    1.2999343   545227 
 3834000    1.0010656   -2.9932157   -2.9932157   -1.6927339  0.063938407   -2.9932157    1.3004818   545227 
 3835000    1.0012673   -2.9934605   -2.9934605   -1.6927167  0.061523745   -2.9934605    1.3007438   545227 
 3836000    1.0015217   -2.9928744   -2.9928744   -1.6918001  0.060473266   -2.9928744    1.3010743   545227 
 3837000    1.0014658    -2.993198    -2.993198   -1.6921963  0.068130332    -2.993198    1.3010016   545227 
 3838000    1.0009915   -2.9935133   -2.9935133   -1.6931278   0.06060025   -2.9935133    1.3003855   545227 
 3839000    1.0018542   -2.9945031   -2.9945031   -1.6929969  0.058183149   -2.9945031    1.3015063   545227 
 3840000    1.0009107    -2.994173    -2.994173   -1.6938924  0.058590226    -2.994173    1.3002805   545227 
 3841000    1.0012852   -2.9945145   -2.9945145   -1.6937475  0.068264983   -2.9945145     1.300767   545227 
 3842000    1.0000002   -2.9923551   -2.9923551   -1.6932573  0.070575771   -2.9923551    1.2990977   545227 
 3843000    1.0028422    -2.995318    -2.995318   -1.6925282  0.067009204    -2.995318    1.3027898   545227 
 3844000    1.0025064   -2.9948105   -2.9948105   -1.6924569   0.06605625   -2.9948105    1.3023535   545227 
 3845000    1.0014448   -2.9944782   -2.9944782   -1.6935038   0.06401537   -2.9944782    1.3009744   545227 
 3846000    1.0009456   -2.9943075   -2.9943075   -1.6939817  0.068146964   -2.9943075    1.3003258   545227 
 3847000    1.0024012   -2.9954576   -2.9954576   -1.6932407  0.065589439   -2.9954576    1.3022169   545227 
 3848000    1.0024452   -2.9952351   -2.9952351   -1.6929612  0.062603559   -2.9952351    1.3022739   545227 
 3849000    1.0018911   -2.9947325   -2.9947325   -1.6931783  0.060303682   -2.9947325    1.3015542   545227 
 3850000     1.003521   -2.9970321   -2.9970321   -1.6933605  0.062214203   -2.9970321    1.3036716   545227 
 3851000    1.0024902    -2.995657    -2.995657   -1.6933246  0.069907925    -2.995657    1.3023325   545227 
 3852000    1.0027443   -2.9971086   -2.9971086    -1.694446  0.061102072   -2.9971086    1.3026626   545227 
 3853000    1.0022045   -2.9972254   -2.9972254   -1.6952641  0.058236832   -2.9972254    1.3019613   545227 
 3854000    1.0002958   -2.9960022   -2.9960022   -1.6965205  0.073549471   -2.9960022    1.2994817   545227 
 3855000    1.0006658   -2.9960566   -2.9960566   -1.6960942  0.060135058   -2.9960566    1.2999624   545227 
 3856000    1.0008736   -2.9951881   -2.9951881   -1.6949558  0.069531535   -2.9951881    1.3002323   545227 
 3857000    1.0027205   -2.9983456   -2.9983456   -1.6957139  0.063337457   -2.9983456    1.3026316   545227 
 3858000    1.0025651    -2.997558    -2.997558   -1.6951282  0.061998134    -2.997558    1.3024298   545227 
 3859000    1.0028166   -2.9970514   -2.9970514   -1.6942949  0.060353977   -2.9970514    1.3027565   545227 
 3860000    1.0019272   -2.9957683   -2.9957683   -1.6941673  0.064033224   -2.9957683     1.301601   545227 
 3861000   0.99972455   -2.9940166   -2.9940166    -1.695277  0.067498261   -2.9940166    1.2987396   545227 
 3862000    1.0023387   -2.9960934   -2.9960934   -1.6939577  0.068530701   -2.9960934    1.3021357   545227 
 3863000    1.0028854   -2.9959567   -2.9959567   -1.6931108  0.073708758   -2.9959567    1.3028459   545227 
 3864000    1.0040232   -2.9975271   -2.9975271   -1.6932031  0.060292266   -2.9975271     1.304324   545227 
 3865000    1.0032915   -2.9962915   -2.9962915    -1.692918   0.06653248   -2.9962915    1.3033734   545227 
 3866000    1.0034474   -2.9961425   -2.9961425   -1.6925666  0.066115079   -2.9961425    1.3035759   545227 
 3867000    1.0015794    -2.993303    -2.993303   -1.6921537  0.067634273    -2.993303    1.3011493   545227 
 3868000    1.0032609    -2.995619    -2.995619   -1.6922853  0.070433079    -2.995619    1.3033337   545227 
 3869000    1.0034004   -2.9961152   -2.9961152   -1.6926003   0.06456424   -2.9961152    1.3035149   545227 
 3870000    1.0011007   -2.9933757   -2.9933757   -1.6928484  0.062215824   -2.9933757    1.3005273   545227 
 3871000    1.0012282   -2.9936591   -2.9936591   -1.6929661  0.059475377   -2.9936591     1.300693   545227 
 3872000    1.0020904   -2.9947574   -2.9947574   -1.6929443  0.061138662   -2.9947574    1.3018131   545227 
 3873000    1.0017194   -2.9952637   -2.9952637   -1.6939326  0.064796788   -2.9952637    1.3013311   545227 
 3874000    1.0012409   -2.9945066   -2.9945066   -1.6937971  0.066808274   -2.9945066    1.3007095   545227 
 3875000    1.0012072   -2.9938675   -2.9938675   -1.6932018  0.060967268   -2.9938675    1.3006657   545227 
 3876000    1.0013724   -2.9939381   -2.9939381   -1.6930578  0.055852277   -2.9939381    1.3008803   545227 
 3877000    1.0019592   -2.9943686   -2.9943686    -1.692726  0.064479929   -2.9943686    1.3016426   545227 
 3878000    1.0017017   -2.9946953   -2.9946953   -1.6933871  0.057374213   -2.9946953    1.3013082   545227 
 3879000    1.0020645   -2.9938155   -2.9938155   -1.6920361  0.059972795   -2.9938155    1.3017794   545227 
 3880000    1.0018465   -2.9939124   -2.9939124   -1.6924161  0.059620153   -2.9939124    1.3014963   545227 
 3881000    1.0018583   -2.9928211   -2.9928211   -1.6913096  0.067302168   -2.9928211    1.3015116   545227 
 3882000    1.0030389   -2.9939187   -2.9939187   -1.6908735  0.063436265   -2.9939187    1.3030452   545227 
 3883000    1.0027136   -2.9946687   -2.9946687   -1.6920461  0.060261902   -2.9946687    1.3026226   545227 
 3884000    1.0026326   -2.9927842   -2.9927842   -1.6902667  0.066446249   -2.9927842    1.3025175   545227 
 3885000    1.0047823   -2.9957206   -2.9957206   -1.6904105  0.069615603   -2.9957206    1.3053101   545227 
 3886000    1.0033132    -2.995258    -2.995258   -1.6918564  0.059871945    -2.995258    1.3034016   545227 
 3887000    1.0034533   -2.9947874   -2.9947874   -1.6912038  0.060546223   -2.9947874    1.3035836   545227 
 3888000     1.003568   -2.9948315   -2.9948315   -1.6910989  0.065877452   -2.9948315    1.3037326   545227 
 3889000     1.004151   -2.9966175   -2.9966175   -1.6921276  0.064241813   -2.9966175    1.3044899   545227 
 3890000     1.002074   -2.9924683   -2.9924683   -1.6906764  0.072206375   -2.9924683    1.3017918   545227 
 3891000    1.0027169   -2.9936048   -2.9936048   -1.6909778  0.075284985   -2.9936048     1.302627   545227 
 3892000     1.001202   -2.9921856   -2.9921856   -1.6915267  0.060000463   -2.9921856    1.3006589   545227 
 3893000     1.002109   -2.9920919   -2.9920919   -1.6902547  0.073952643   -2.9920919    1.3018372   545227 
 3894000    1.0028399    -2.993469    -2.993469   -1.6906822  0.064695231    -2.993469    1.3027868   545227 
 3895000    1.0029382   -2.9942191   -2.9942191   -1.6913047  0.057832069   -2.9942191    1.3029144   545227 
 3896000    1.0019703   -2.9927839   -2.9927839   -1.6911268  0.062771938   -2.9927839    1.3016571   545227 
 3897000     1.000163   -2.9916104   -2.9916104   -1.6923013  0.065099358   -2.9916104    1.2993091   545227 
 3898000    1.0018535   -2.9930416   -2.9930416   -1.6915363  0.067236405   -2.9930416    1.3015053   545227 
 3899000    1.0020576    -2.991777    -2.991777   -1.6900066   0.07114386    -2.991777    1.3017704   545227 
 3900000    1.0023213    -2.992986    -2.992986   -1.6908729  0.063323809    -2.992986    1.3021131   545227 
 3901000    1.0026607    -2.993621    -2.993621    -1.691067    0.0662415    -2.993621     1.302554   545227 
 3902000    1.0015858   -2.9918913   -2.9918913   -1.6907337  0.063725335   -2.9918913    1.3011576   545227 
 3903000    1.0028717   -2.9931565   -2.9931565   -1.6903285  0.064986524   -2.9931565     1.302828   545227 
 3904000    1.0021582   -2.9926344   -2.9926344   -1.6907331  0.066404559   -2.9926344    1.3019012   545227 
 3905000    1.0027833   -2.9932385   -2.9932385   -1.6905254  0.062254284   -2.9932385    1.3027132   545227 
 3906000    1.0015881   -2.9921433   -2.9921433   -1.6909828  0.066286938   -2.9921433    1.3011605   545227 
 3907000    1.0028573   -2.9930148   -2.9930148   -1.6902055  0.059446125   -2.9930148    1.3028093   545227 
 3908000    1.0018963   -2.9924032   -2.9924032   -1.6908423  0.068201378   -2.9924032    1.3015609   545227 
 3909000    1.0025885   -2.9928883   -2.9928883   -1.6904281  0.059227323   -2.9928883    1.3024602   545227 
 3910000    1.0021344   -2.9926365   -2.9926365   -1.6907663  0.066190637   -2.9926365    1.3018703   545227 
 3911000    1.0004074   -2.9908976   -2.9908976   -1.6912709  0.067026126   -2.9908976    1.2996266   545227 
 3912000    1.0002501   -2.9909263   -2.9909263   -1.6915039  0.065243371   -2.9909263    1.2994223   545227 
 3913000    1.0013378   -2.9929215   -2.9929215   -1.6920862  0.062604714   -2.9929215    1.3008354   545227 
 3914000    1.0011151    -2.991626    -2.991626   -1.6910799  0.059001818    -2.991626    1.3005461   545227 
 3915000    1.0010259   -2.9912759   -2.9912759   -1.6908458  0.067190974   -2.9912759    1.3004301   545227 
 3916000    1.0022262   -2.9925292   -2.9925292   -1.6905396  0.064251939   -2.9925292    1.3019895   545227 
 3917000    1.0030098   -2.9939686   -2.9939686   -1.6909611   0.06949312   -2.9939686    1.3030074   545227 
 3918000    1.0017504   -2.9920957   -2.9920957   -1.6907243  0.064083679   -2.9920957    1.3013714   545227 
 3919000    1.0033402   -2.9943695   -2.9943695   -1.6909328  0.062233006   -2.9943695    1.3034367   545227 
 3920000    1.0016074   -2.9922701   -2.9922701   -1.6910845    0.0629825   -2.9922701    1.3011855   545227 
 3921000    1.0020972   -2.9925107   -2.9925107   -1.6906888  0.067514899   -2.9925107    1.3018219   545227 
 3922000    1.0024892    -2.993378    -2.993378   -1.6910469   0.06673166    -2.993378    1.3023312   545227 
 3923000    1.0019576   -2.9916546   -2.9916546    -1.690014  0.062281805   -2.9916546    1.3016405   545227 
 3924000    1.0026708   -2.9930168   -2.9930168   -1.6904498  0.062127046   -2.9930168     1.302567   545227 
 3925000    1.0025112   -2.9930035   -2.9930035   -1.6906438  0.063908606   -2.9930035    1.3023598   545227 
 3926000     1.004211   -2.9942665   -2.9942665   -1.6896986  0.067231009   -2.9942665    1.3045679   545227 
 3927000    1.0046585   -2.9950696   -2.9950696   -1.6899203  0.063124778   -2.9950696    1.3051493   545227 
 3928000    1.0034156   -2.9934194   -2.9934194   -1.6898847  0.064365861   -2.9934194    1.3035346   545227 
 3929000    1.0045997   -2.9947804   -2.9947804   -1.6897075  0.066417447   -2.9947804     1.305073   545227 
 3930000    1.0043986   -2.9950549   -2.9950549   -1.6902433   0.06323091   -2.9950549    1.3048116   545227 
 3931000    1.0033308   -2.9938337   -2.9938337   -1.6904092  0.066464408   -2.9938337    1.3034245   545227 
 3932000    1.0034208   -2.9951398   -2.9951398   -1.6915983  0.069633606   -2.9951398    1.3035415   545227 
 3933000    1.0024923    -2.993306    -2.993306   -1.6909708  0.055693904    -2.993306    1.3023352   545227 
 3934000    1.0026195   -2.9943895   -2.9943895   -1.6918891  0.057960645   -2.9943895    1.3025004   545227 
 3935000    1.0023525   -2.9931358   -2.9931358   -1.6909823  0.065052238   -2.9931358    1.3021535   545227 
 3936000    1.0015592   -2.9935471   -2.9935471   -1.6924241  0.062486418   -2.9935471     1.301123   545227 
 3937000    1.0004643   -2.9916067   -2.9916067   -1.6919061  0.072512382   -2.9916067    1.2997006   545227 
 3938000    1.0018187   -2.9940525   -2.9940525   -1.6925924  0.062799318   -2.9940525      1.30146   545227 
 3939000    1.0027125   -2.9946735   -2.9946735   -1.6920523  0.065276128   -2.9946735    1.3026212   545227 
 3940000    1.0023979   -2.9951512   -2.9951512   -1.6929387  0.059382122   -2.9951512    1.3022125   545227 
 3941000    1.0017836   -2.9939202   -2.9939202   -1.6925057  0.064771686   -2.9939202    1.3014145   545227 
 3942000     1.001459   -2.9942208   -2.9942208    -1.693228  0.067694015   -2.9942208    1.3009928   545227 
 3943000    1.0031417   -2.9953035   -2.9953035   -1.6921247  0.058248844   -2.9953035    1.3031788   545227 
 3944000    1.0026538   -2.9941474   -2.9941474   -1.6916024  0.073030327   -2.9941474     1.302545   545227 
 3945000    1.0032153   -2.9951937   -2.9951937   -1.6919193  0.072409933   -2.9951937    1.3032744   545227 
 3946000    1.0037705   -2.9950616   -2.9950616   -1.6910659  0.061677506   -2.9950616    1.3039957   545227 
 3947000    1.0031195   -2.9948749   -2.9948749   -1.6917248  0.069125339   -2.9948749      1.30315   545227 
 3948000    1.0027197   -2.9948563   -2.9948563   -1.6922257   0.06963996   -2.9948563    1.3026306   545227 
 3949000    1.0024518   -2.9937106   -2.9937106    -1.691428  0.069388482   -2.9937106    1.3022826   545227 
 3950000     1.002872   -2.9938648   -2.9938648   -1.6910363  0.071317545   -2.9938648    1.3028285   545227 
 3951000    1.0032971   -2.9944684   -2.9944684   -1.6910877  0.069183647   -2.9944684    1.3033806   545227 
 3952000    1.0029008   -2.9933815   -2.9933815   -1.6905156  0.071358401   -2.9933815    1.3028659   545227 
 3953000     1.003491   -2.9950806   -2.9950806   -1.6914481  0.066118805   -2.9950806    1.3036325   545227 
 3954000    1.0031556   -2.9948909   -2.9948909   -1.6916941  0.066508965   -2.9948909    1.3031969   545227 
 3955000    1.0024303   -2.9926196   -2.9926196    -1.690365  0.064364163   -2.9926196    1.3022546   545227 
 3956000    1.0026224    -2.992907    -2.992907   -1.6904027  0.063228632    -2.992907    1.3025042   545227 
 3957000    1.0022348   -2.9918191   -2.9918191   -1.6898184  0.069064285   -2.9918191    1.3020007   545227 
 3958000    1.0025416   -2.9925331   -2.9925331   -1.6901339  0.073577673   -2.9925331    1.3023992   545227 
 3959000    1.0026392   -2.9935143   -2.9935143   -1.6909883  0.060119543   -2.9935143     1.302526   545227 
 3960000    1.0020107    -2.993247    -2.993247   -1.6915374    0.0626031    -2.993247    1.3017096   545227 
 3961000    1.0009609   -2.9911988   -2.9911988   -1.6908531   0.07155771   -2.9911988    1.3003457   545227 
 3962000    1.0014203    -2.991411    -2.991411   -1.6904685  0.059746569    -2.991411    1.3009426   545227 
 3963000    1.0009461   -2.9911583   -2.9911583   -1.6908318  0.065476317   -2.9911583    1.3003265   545227 
 3964000    1.0018266   -2.9926114   -2.9926114    -1.691141  0.066234315   -2.9926114    1.3014704   545227 
 3965000    1.0027078   -2.9932936   -2.9932936   -1.6906785  0.068078112   -2.9932936    1.3026151   545227 
 3966000    1.0015798   -2.9918505   -2.9918505   -1.6907008  0.075996558   -2.9918505    1.3011498   545227 
 3967000    1.0018594   -2.9927273   -2.9927273   -1.6912144  0.063419156   -2.9927273     1.301513   545227 
 3968000    1.0016108   -2.9918056   -2.9918056   -1.6906155  0.074386549   -2.9918056      1.30119   545227 
 3969000    1.0015662   -2.9918006   -2.9918006   -1.6906685  0.058938179   -2.9918006    1.3011321   545227 
 3970000    1.0009935   -2.9905098   -2.9905098   -1.6901217  0.065764569   -2.9905098    1.3003881   545227 
 3971000   0.99999668    -2.989614    -2.989614   -1.6905208  0.064637595    -2.989614    1.2990931   545227 
 3972000      1.00245   -2.9934851   -2.9934851   -1.6912049  0.067784022   -2.9934851    1.3022802   545227 
 3973000   0.99975685   -2.9903842   -2.9903842   -1.6916026  0.065097936   -2.9903842    1.2987816   545227 
 3974000    1.0006665   -2.9911542   -2.9911542    -1.691191  0.061363826   -2.9911542    1.2999632   545227 
 3975000    1.0009041   -2.9928985   -2.9928985   -1.6926265  0.060555025   -2.9928985     1.300272   545227 
 3976000     1.001811   -2.9934519   -2.9934519   -1.6920018  0.061861499   -2.9934519      1.30145   545227 
 3977000    1.0019203   -2.9933042   -2.9933042   -1.6917121  0.064398958   -2.9933042     1.301592   545227 
 3978000    1.0027245   -2.9936163   -2.9936163   -1.6909794  0.068589805   -2.9936163    1.3026368   545227 
 3979000    1.0015507   -2.9926554   -2.9926554   -1.6915435  0.065435795   -2.9926554     1.301112   545227 
 3980000    1.0031321   -2.9947859   -2.9947859   -1.6916197  0.053449988   -2.9947859    1.3031663   545227 
 3981000    1.0033805   -2.9950501   -2.9950501    -1.691561  0.063145868   -2.9950501    1.3034891   545227 
 3982000    1.0028116   -2.9932851   -2.9932851   -1.6905352  0.059498087   -2.9932851    1.3027499   545227 
 3983000    1.0026766    -2.992791    -2.992791   -1.6902165  0.066282844    -2.992791    1.3025746   545227 
 3984000    1.0033078   -2.9933215   -2.9933215   -1.6899268  0.070036934   -2.9933215    1.3033946   545227 
 3985000    1.0026436   -2.9928736   -2.9928736   -1.6903418  0.063505697   -2.9928736    1.3025318   545227 
 3986000    1.0022131   -2.9923254   -2.9923254   -1.6903529  0.070097369   -2.9923254    1.3019725   545227 
 3987000     1.001499   -2.9918652   -2.9918652   -1.6908204  0.068068173   -2.9918652    1.3010448   545227 
 3988000    1.0026467   -2.9935793   -2.9935793   -1.6910436  0.059971575   -2.9935793    1.3025357   545227 
 3989000     1.002727   -2.9938336   -2.9938336   -1.6911935  0.063955977   -2.9938336      1.30264   545227 
 3990000    1.0015296   -2.9925717   -2.9925717   -1.6914871  0.072729842   -2.9925717    1.3010845   545227 
 3991000    1.0034279   -2.9954195   -2.9954195   -1.6918689  0.069993587   -2.9954195    1.3035507   545227 
 3992000    1.0015444   -2.9937686   -2.9937686   -1.6926649  0.061519314   -2.9937686    1.3011038   545227 
 3993000    1.0024385   -2.9945767   -2.9945767   -1.6923114  0.070971994   -2.9945767    1.3022653   545227 
 3994000    1.0021593    -2.993834    -2.993834   -1.6919315  0.072318757    -2.993834    1.3019025   545227 
 3995000    1.0022858   -2.9939285   -2.9939285   -1.6918616  0.059004286   -2.9939285    1.3020669   545227 
 3996000     1.001931   -2.9938589   -2.9938589    -1.692253  0.068860102   -2.9938589     1.301606   545227 
 3997000    1.0020766   -2.9943215   -2.9943215   -1.6925263  0.063726402   -2.9943215    1.3017952   545227 
 3998000    1.0040983   -2.9952419   -2.9952419   -1.6908204  0.061653592   -2.9952419    1.3044215   545227 
 3999000    1.0037344   -2.9949076   -2.9949076   -1.6909588  0.063147484   -2.9949076    1.3039487   545227 
 4000000     1.000123   -2.9910719   -2.9910719   -1.6918147  0.071409042   -2.9910719    1.2992572   545227 
Loop time of 6665.75 on 288 procs for 4000000 steps with 545227 atoms

Performance: 259235.668 tau/day, 600.083 timesteps/s
98.6% CPU use with 288 MPI tasks x 1 OpenMP threads

MPI task timing breakdown:
Section |  min time  |  avg time  |  max time  |%varavg|  %CPU | %total
-----------------------------------------------------------------------
Pair    | 1348.8     | 1979.4     | 2329.2     | 551.6 |  98.6 | 29.70
Bond    | 2.588      | 2.7564     | 2.927      |   3.3 | 100.0 |  0.04
Neigh   | 1041.5     | 1469.2     | 1932.7     | 440.1 |  99.5 | 22.04
Comm    | 1248.8     | 1916.2     | 2733.2     | 789.8 |  98.3 | 28.75
Output  | 160.98     | 162.3      | 165.18     |   9.8 |  96.9 |  2.43
Modify  | 767.87     | 1058       | 1425.2     | 569.8 |  98.4 | 15.87
Other   |            | 77.88      |            |       |       |  1.17

Nlocal:        1893.15 ave        2452 max        1558 min
Histogram: 10 28 58 88 45 27 12 13 5 2
Nghost:        4031.44 ave        6971 max        2194 min
Histogram: 48 8 70 26 42 37 24 22 9 2
Neighs:        47569.7 ave       58937 max       23129 min
Histogram: 2 4 10 13 20 33 47 67 67 25

Total # of neighbors = 13700068
Ave neighs/atom = 25.127274
Ave special neighs/atom = 0.0000000
Neighbor list builds = 400000
Dangerous builds = 396000

Total wall time: 1:51:11
