LAMMPS (24 Dec 2020)
OMP_NUM_THREADS environment is not set. Defaulting to 1 thread. (src/comm.cpp:94)
  using 1 OpenMP thread(s) per MPI task
#Read the equilibrated lj fluid and add nanocubes

units           lj
atom_style      full
#atom_modify     map array first cubes
dimension       3
boundary        p p f
pair_style      lj/smooth/linear 2.0

variable        sigma           equal 1.0
variable        epsilon         equal 1.0
read_restart	restart.dat.5000000
Reading restart file ...
  restart file = 24 Dec 2020, LAMMPS = 24 Dec 2020
WARNING: Restart file used different # of processors: 288 vs. 336 (src/read_restart.cpp:697)
  restoring atom style full from restart
  orthogonal box = (0.0000000 0.0000000 0.0000000) to (80.000000 80.000000 160.00000)
  6 by 4 by 14 MPI processor grid
  restoring pair style lj/smooth/linear from restart
  426349 atoms
Finding 1-2 1-3 1-4 neighbors ...
  special bond factors lj:    0        0        0       
  special bond factors coul:  0        0        0       
     0 = max # of 1-2 neighbors
     0 = max # of 1-3 neighbors
     0 = max # of 1-4 neighbors
     1 = max # of special neighbors
  special bonds CPU = 2.830 seconds
  read_restart CPU = 3.306 seconds

group		solvent type 1
353197 atoms in group solvent
group 		hull  type 2
28544 atoms in group hull
group 		dummy type 3
44608 atoms in group dummy

neighbor      0.4 bin
neigh_modify  exclude molecule/intra cubes


pair_modify   shift yes

pair_coeff    1 1 1.0 1.0 #solvent
pair_coeff    2 2 1.0 1.0 1.12 #np
pair_coeff    3 3 0.0 0.0 0.0 #dummy
pair_coeff    2 3 0.0 0.0 0.0 #np dummy
pair_coeff    1 2 ${eps} ${sig} ${nscut} #np solvent
pair_coeff    1 2 1.0 ${sig} ${nscut} 
pair_coeff    1 2 1.0 1.0 ${nscut} 
pair_coeff    1 2 1.0 1.0 4.0 
pair_coeff    1 3 0.0 0.0 0.0 #dummy solvent


comm_modify   mode multi cutoff/multi 1 2.0 cutoff/multi 2 2.0 cutoff/multi 3 6.95

reset_timestep 	0

balance 	1.05 shift z 10 1.05
Balancing ...
Unused restart file global fix info:
  fix style: STORE, fix ID: msd_COMPUTE_STORE
Unused restart file peratom fix info:
  fix style: STORE, fix ID: bin1_COMPUTE_STORE
Neighbor list info ...
  update every 1 steps, delay 10 steps, check yes
  max neighbors/atom: 2000, page size: 100000
  master list distance cutoff = 4.4
  ghost atom cutoff = 6.95
  binsize = 2.2, bins = 37 37 73
  1 neighbor lists, perpetual/occasional/extra = 1 0 0
  (1) pair lj/smooth/linear, perpetual
      attributes: half, newton on
      pair build: half/bin/newton
      stencil: half/bin/3d/newton
      bin: standard
 rebalancing time: 0.081 seconds
  iteration count = 5
  initial/final maximal load/proc = 2727.0000 2031.0000
  initial/final imbalance factor  = 2.1491126 1.6006042
  x cuts: 0.0000000 0.16666667 0.33333333 0.50000000 0.66666667 0.83333333 1.0000000
  y cuts: 0.0000000 0.25000000 0.50000000 0.75000000 1.0000000
  z cuts: 0.0000000 0.046875000 0.095982143 0.13839286 0.18303571 0.21875000 0.26116071 0.30580357 0.34821429 0.38392857 0.43750000 0.46205357 0.51116071 0.60491071 1.0000000

####################### WALLS ###########################

variable       epsilonWall equal 2*${epsilon}
variable       epsilonWall equal 2*1
variable       repulsive   equal   0.7147*${sigma}
variable       repulsive   equal   0.7147*1
variable       full	   equal   3*${sigma}
variable       full	   equal   3*1
#region         lowWall block EDGE EDGE EDGE EDGE EDGE 2

fix            topWall all wall/lj93 zhi EDGE 	       ${epsilonWall} ${sigma} ${repulsive} units box
fix            topWall all wall/lj93 zhi EDGE 	       2 ${sigma} ${repulsive} units box
fix            topWall all wall/lj93 zhi EDGE 	       2 1 ${repulsive} units box
fix            topWall all wall/lj93 zhi EDGE 	       2 1 0.7147 units box
fix            lowSol solvent wall/lj93 zlo EDGE                ${epsilonWall} ${sigma} ${full} units box
fix            lowSol solvent wall/lj93 zlo EDGE                2 ${sigma} ${full} units box
fix            lowSol solvent wall/lj93 zlo EDGE                2 1 ${full} units box
fix            lowSol solvent wall/lj93 zlo EDGE                2 1 3 units box
fix 	       lowCub cubes wall/lj93 zlo EDGE                ${epsilonWall} ${sigma} ${repulsive} units box
fix 	       lowCub cubes wall/lj93 zlo EDGE                2 ${sigma} ${repulsive} units box
fix 	       lowCub cubes wall/lj93 zlo EDGE                2 1 ${repulsive} units box
fix 	       lowCub cubes wall/lj93 zlo EDGE                2 1 0.7147 units box


###################### COMPUTES ##########################

compute        bin1 solvent chunk/atom bin/1d z lower 1.0 units box


######################  FIXES ############################


fix             peclet solvent ave/chunk 100 1 10000 bin1 density/number norm                  none ave one file density.profile

fix              temp solvent ave/chunk 100 1 10000 bin1 temp norm                  none ave one file temp.profile

fix             1 cubes rigid/nve/small molecule
  create bodies CPU = 0.033 seconds
  64 rigid bodies with 73152 atoms
  6.9282032 = max distance from body owner to body atom

fix             2 solvent nve


## Thermostat
region          regthermo block EDGE EDGE EDGE EDGE 0 15
group           thermo dynamic solvent region regthermo every 1000
dynamic group thermo defined
fix             3 thermo langevin ${temp} ${temp} 10 156453
fix             3 thermo langevin 0.6 ${temp} 10 156453
fix             3 thermo langevin 0.6 0.6 10 156453

## Evaporation
region		regevap block EDGE EDGE EDGE EDGE 140 EDGE
fix		4 solvent evaporate ${evap} 1 regevap 156415
fix		4 solvent evaporate 185 1 regevap 156415


#### Load balancing

fix             bal all balance 1000 1.05 shift z 10 1.05

############### Diagnostics and computes ###################

compute          cluster all cluster/atom 1.5
compute          cc1 all chunk/atom c_cluster compress yes
compute          size all property/chunk cc1 count
compute          myChunk all temp/chunk cc1 temp
fix              tempe all ave/time 5000 1 5000 c_myChunk file tmp.out mode scalar
compute          comChunk all com/chunk cc1
fix              com all ave/time 10000 1 10000 c_size c_comChunk[*] file com.xyz mode vector


compute        	com cubes          rigid/local   1 mol x y z
compute        	quat cubes         rigid/local   1 mol quatw quati quatj quatk

compute 	cc2 cubes 	   chunk/atom 	 molecule
compute 	msd cubes 	   msd/chunk 	 cc2

fix 		msd all ave/time  1 1 10000 c_msd[*] file dump.msd ave one mode vector

dump            1 all custom 100000 dump.lammpstrj id mol type x y z c_cluster c_cc1
dump		hulltrj hull custom 100000 hull.lammpstrj id mol type x y z
dump		cubestrj cubes custom 100000 cubes.lammpstrj id mol type x y z

dump            com cubes local 100000 dump.*.xyz c_com[*]
dump	        xyz cubes xyz 100000 cubes.*.xyz
dump            quat cubes      local 100000 dump.*.quat c_quat[*]


dump            2 all image 10000 image.*.png type type zoom 1.5 size 1280 720
dump_modify     2 pad 8
dump		image cubes image 10000 image_cubes.*.png type type zoom 1.5 size 1280 720
dump_modify	image pad 8
dump            3 all movie 5000 movie.avi type type zoom 1.5 size 1280 720
dump		4 cubes movie 5000 movie_cubes.avi type type zoom 1.5 size 1280 720


thermo          10000
thermo_style    custom step temp epair evdwl etotal press pe ke atoms

restart         1000000 restart.dat
timestep        0.005
timer           full
New timer settings: style=full  mode=nosync  timeout=off

run 		30000000
Neighbor list info ...
  update every 1 steps, delay 10 steps, check yes
  max neighbors/atom: 2000, page size: 100000
  master list distance cutoff = 4.4
  ghost atom cutoff = 6.95
  binsize = 2.2, bins = 37 37 73
  2 neighbor lists, perpetual/occasional/extra = 1 1 0
  (1) pair lj/smooth/linear, perpetual
      attributes: half, newton on
      pair build: half/bin/newton
      stencil: half/bin/3d/newton
      bin: standard
  (2) compute cluster/atom, occasional
      attributes: full, newton on
      pair build: full/bin
      stencil: full/bin/3d
      bin: standard
Per MPI rank memory allocation (min/avg/max) = 24.91 | 30.69 | 36.07 Mbytes
Step Temp E_pair E_vdwl TotEng Press PotEng KinEng Atoms 
       0    0.6022542   -2.1842339   -2.1842339   -1.4355836  0.059961447   -2.1842339   0.74865027   426349 
   10000   0.60220535   -2.1864397   -2.1864397   -1.4377553  0.033065613   -2.1864397   0.74868437   426295 
   20000    0.6041823   -2.1900324   -2.1900324    -1.438795  0.031772993   -2.1900324   0.75123736   426241 
   30000   0.60389168    -2.189198    -2.189198   -1.4382269  0.038560996    -2.189198   0.75097114   426187 
   40000   0.60343927   -2.1878525   -2.1878525   -1.4373489  0.032172352   -2.1878525   0.75050363   426133 
   50000   0.60235431   -2.1885469   -2.1885469   -1.4392977  0.025809617   -2.1885469    0.7492492   426079 
   60000   0.60415627   -2.1887814   -2.1887814   -1.4371955  0.033743149   -2.1887814   0.75158586   426025 
   70000   0.60294623   -2.1891283   -2.1891283   -1.4389527  0.035124676   -2.1891283   0.75017562   425971 
   80000   0.60235627    -2.189734    -2.189734   -1.4401974  0.033891604    -2.189734   0.74953662   425917 
   90000   0.60369998   -2.1914513   -2.1914513   -1.4401474  0.034113174   -2.1914513   0.75130391   425863 
  100000   0.60412442   -2.1910125   -2.1910125    -1.439085  0.039388925   -2.1910125   0.75192747   425809 
  110000   0.60193679   -2.1888843   -2.1888843   -1.4395846  0.029491533   -2.1888843   0.74929965   425755 
  120000   0.60154499   -2.1889209   -2.1889209    -1.440014  0.032750168   -2.1889209   0.74890691   425701 
  130000   0.60237292   -2.1902638   -2.1902638    -1.440231   0.03786661   -2.1902638   0.75003281   425647 
  140000   0.60279841   -2.1904943   -2.1904943   -1.4398365  0.031080047   -2.1904943   0.75065782   425593 
  150000   0.60253442   -2.1910015   -2.1910015   -1.4405772  0.033051646   -2.1910015    0.7504243   425539 
  160000   0.60332522   -2.1923658   -2.1923658   -1.4408612  0.028449894   -2.1923658   0.75150457   425485 
  170000   0.60202924   -2.1904373   -2.1904373   -1.4404518  0.031387711   -2.1904373   0.74998547   425431 
  180000   0.60219989   -2.1900504   -2.1900504   -1.4397571  0.037606831   -2.1900504    0.7502933   425377 
  190000   0.60119977   -2.1893652   -2.1893652   -1.4402211  0.039579645   -2.1893652   0.74914409   425322 
  200000    0.6016396   -2.1914877   -2.1914877   -1.4417004  0.037328332   -2.1914877   0.74978734   425268 
  210000   0.60281994   -2.1938032   -2.1938032   -1.4424495   0.03914767   -2.1938032   0.75135374   425214 
  220000   0.60162973    -2.193078    -2.193078   -1.4431125  0.035795845    -2.193078    0.7499655   425160 
  230000   0.60300494   -2.1933514   -2.1933514   -1.4415762  0.036614742   -2.1933514   0.75177527   425106 
  240000   0.60280989    -2.195014    -2.195014   -1.4433864  0.040940346    -2.195014   0.75162757   425052 
  250000   0.60194348   -2.1930294   -2.1930294   -1.4423868  0.038043482   -2.1930294   0.75064263   424998 
  260000   0.60113177   -2.1916242   -2.1916242   -1.4418985  0.032337698   -2.1916242   0.74972566   424944 
  270000   0.60193207   -2.1935953   -2.1935953   -1.4427761  0.027052075   -2.1935953    0.7508192   424890 
  280000   0.60208858   -2.1955279   -2.1955279    -1.444418  0.039823956   -2.1955279   0.75110989   424836 
  290000   0.60093449    -2.194042    -2.194042   -1.4442766  0.033637247    -2.194042   0.74976544   424782 
  300000   0.60076946   -2.1929966   -2.1929966   -1.4433418  0.038314806   -2.1929966   0.74965485   424728 
  310000   0.60102282   -2.1944194   -2.1944194   -1.4443531   0.03817316   -2.1944194   0.75006635   424674 
  320000   0.60058758   -2.1931747   -2.1931747   -1.4435562  0.039502878   -2.1931747   0.74961851   424620 
  330000   0.59983097   -2.1934853   -2.1934853    -1.444716  0.033302424   -2.1934853   0.74876938   424566 
  340000   0.60029388   -2.1939293   -2.1939293   -1.4444868  0.036823329   -2.1939293   0.74944255   424512 
  350000   0.60066125   -2.1953899   -2.1953899   -1.4453933   0.03579835   -2.1953899   0.74999659   424458 
  360000   0.60004636   -2.1945813   -2.1945813   -1.4452571  0.029828462   -2.1945813   0.74932415   424404 
  370000   0.60068387   -2.1949713   -2.1949713   -1.4447538   0.03521315   -2.1949713   0.75021749   424349 
  380000   0.59747729   -2.1914015   -2.1914015   -1.4450938  0.029802579   -2.1914015   0.74630764   424295 
  390000   0.60095884   -2.1947625   -2.1947625   -1.4440105  0.031270784   -2.1947625   0.75075199   424241 
  400000   0.60067767    -2.195481    -2.195481   -1.4449848   0.03479909    -2.195481   0.75049625   424187 
  410000   0.59980141   -2.1961195   -2.1961195   -1.4466226  0.033887673   -2.1961195   0.74949686   424133 
  420000   0.59805312   -2.1948413   -2.1948413   -1.4474339  0.031221975   -2.1948413   0.74740739   424079 
  430000    0.5992663   -2.1951965   -2.1951965   -1.4461776  0.031139448   -2.1951965   0.74901892   424025 
  440000   0.59924219   -2.1956569   -2.1956569   -1.4465727  0.035775707   -2.1956569   0.74908418   423971 
  450000   0.59994915   -2.1964463   -2.1964463   -1.4463829  0.034912209   -2.1964463   0.75006346   423917 
  460000    0.5993296   -2.1961772   -2.1961772   -1.4467929  0.047717362   -2.1961772   0.74938434   423863 
  470000   0.59919606   -2.1949963   -2.1949963   -1.4456834  0.034048306   -2.1949963   0.74931283   423809 
  480000    0.5987109   -2.1945956   -2.1945956    -1.445794  0.031126953   -2.1945956   0.74880154   423755 
  490000   0.59917633   -2.1970986   -2.1970986   -1.4476194  0.038909353   -2.1970986   0.74947916   423701 
  500000   0.59933733    -2.196708    -2.196708   -1.4469319  0.039664582    -2.196708   0.74977609   423647 
  510000   0.59790708   -2.1959092   -2.1959092    -1.447827  0.029447454   -2.1959092    0.7480822   423593 
  520000   0.59902029   -2.1971234   -2.1971234   -1.4475528  0.024716654   -2.1971234   0.74957057   423539 
  530000   0.59786784   -2.1958429   -2.1958429    -1.447619  0.039851477   -2.1958429   0.74822387   423485 
  540000   0.59793017   -2.1978047   -2.1978047   -1.4494074  0.037864977   -2.1978047    0.7483973   423431 
  550000   0.59936047   -2.1981757   -2.1981757   -1.4478925  0.033644749   -2.1981757   0.75028321   423377 
  560000   0.59963086   -2.1992818   -2.1992818   -1.4485625  0.029149653   -2.1992818   0.75071922   423322 
  570000   0.59796791   -2.1970531   -2.1970531   -1.4483203  0.033600429   -2.1970531   0.74873277   423268 
  580000   0.59682906   -2.1982823   -2.1982823   -1.4508802  0.031612731   -2.1982823   0.74740213   423214 
  590000    0.5981802   -2.2006419   -2.2006419   -1.4514522  0.032076191   -2.2006419   0.74918974   423160 
  600000   0.59793405   -2.2008479   -2.2008479   -1.4518709  0.033375308   -2.2008479   0.74897702   423106 
  610000   0.59759377   -2.1986348   -2.1986348   -1.4499884  0.033143823   -2.1986348   0.74864634   423052 
  620000    0.5974761   -2.1990522   -2.1990522   -1.4504577   0.03737054   -2.1990522   0.74859448   422998 
  630000   0.59919336   -2.1990796   -2.1990796   -1.4482377  0.035900668   -2.1990796   0.75084194   422944 
  640000   0.59626456   -2.1956999   -2.1956999   -1.4484326  0.033851171   -2.1956999    0.7472673   422890 
  650000   0.59854196   -2.2001372   -2.2001372   -1.4499199  0.032931745   -2.2001372   0.75021724   422836 
  660000   0.59686855    -2.200076    -2.200076   -1.4518607  0.035714992    -2.200076   0.74821533   422782 
  670000   0.59756951   -2.2006265   -2.2006265   -1.4514367  0.037615962   -2.2006265   0.74918973   422728 
  680000   0.59760444   -2.1999606   -2.1999606   -1.4506313  0.039033252   -2.1999606   0.74932924   422674 
  690000   0.59680351   -2.1994257   -2.1994257   -1.4510051  0.032487942   -2.1994257   0.74842058   422620 
  700000   0.59665243   -2.2003044   -2.2003044   -1.4519777  0.034579272   -2.2003044   0.74832674   422566 
  710000   0.59631568   -2.2007102   -2.2007102   -1.4527102  0.033858392   -2.2007102   0.74799996   422512 
  720000   0.59500346   -2.1998482   -2.1998482   -1.4533989  0.032650813   -2.1998482   0.74644936   422458 
  730000   0.59532082   -2.2019565   -2.2019565   -1.4550135   0.03278935   -2.2019565   0.74694298   422404 
  740000   0.59601604   -2.2006468   -2.2006468   -1.4527342  0.033371799   -2.2006468   0.74791264   422349 
  750000   0.59520549   -2.2022745   -2.2022745   -1.4552834  0.039425393   -2.2022745   0.74699103   422295 
  760000   0.59628014   -2.2031999   -2.2031999   -1.4547645  0.033981844   -2.2031999   0.74843543   422241 
  770000   0.59374078   -2.2014172   -2.2014172   -1.4560738  0.037107928   -2.2014172   0.74534342   422187 
  780000   0.59479363   -2.2023344   -2.2023344   -1.4555737  0.030900447   -2.2023344   0.74676061   422133 
  790000    0.5942528   -2.2007478   -2.2007478   -1.4545708   0.03474693   -2.2007478   0.74617705   422079 
  800000   0.59373666   -2.1997441   -2.1997441   -1.4541197   0.03572454   -2.1997441   0.74562436   422025 
  810000   0.59446183   -2.1994572   -2.1994572   -1.4528266  0.033603764   -2.1994572   0.74663057   421971 
  820000   0.59330343   -2.1989517   -2.1989517   -1.4536807  0.028659518   -2.1989517   0.74527102   421917 
  830000   0.59567269   -2.2025285   -2.2025285   -1.4541856  0.031321089   -2.2025285   0.74834292   421863 
  840000    0.5946756   -2.2014526   -2.2014526   -1.4542667  0.035430681   -2.2014526   0.74718591   421809 
  850000   0.59423525   -2.2000162   -2.2000162    -1.453288  0.034110922   -2.2000162   0.74672823   421755 
  860000   0.59407536   -2.2003148   -2.2003148   -1.4536919  0.036348297   -2.2003148   0.74662291   421701 
  870000   0.59370992   -2.2019554   -2.2019554   -1.4556963  0.033077861   -2.2019554   0.74625918   421647 
  880000   0.59525308   -2.2038655   -2.2038655   -1.4555708  0.029999593   -2.2038655   0.74829467   421593 
  890000   0.59348399   -2.2017052   -2.2017052   -1.4555388  0.034349213   -2.2017052   0.74616633   421539 
  900000   0.59309791   -2.2017032   -2.2017032   -1.4559267  0.033268708   -2.2017032   0.74577646   421485 
  910000   0.59471078   -2.2049341   -2.2049341   -1.4570338  0.028534374   -2.2049341   0.74790034   421431 
  920000    0.5945075   -2.2041522   -2.2041522   -1.4564117  0.038240111   -2.2041522   0.74774051   421377 
  930000   0.59171121   -2.2012354   -2.2012354   -1.4569147  0.035019664   -2.2012354   0.74432063   421322 
  940000   0.59341032   -2.2040621   -2.2040621   -1.4575085  0.037028884   -2.2040621   0.74655365   421268 
  950000    0.5934482   -2.2068272   -2.2068272   -1.4601302  0.034010462   -2.2068272   0.74669701   421214 
  960000   0.59171922   -2.2034454   -2.2034454   -1.4588284  0.027161721   -2.2034454   0.74461701   421160 
  970000   0.59289772   -2.2040718   -2.2040718   -1.4578761  0.038991649   -2.2040718   0.74619571   421106 
  980000   0.59262031   -2.2038255   -2.2038255   -1.4578832  0.034851897   -2.2038255   0.74594223   421052 
  990000   0.59265758   -2.2047671   -2.2047671   -1.4586823  0.032972609   -2.2047671   0.74608482   420998 
 1000000   0.59345257   -2.2062054   -2.2062054   -1.4590239  0.031682235   -2.2062054   0.74718146   420944 
 1010000   0.59221096   -2.2064261   -2.2064261   -1.4607122  0.024727089   -2.2064261   0.74571388   420890 
 1020000   0.59230718   -2.2060962   -2.2060962   -1.4601655  0.037292495   -2.2060962   0.74593074   420836 
 1030000   0.59259525   -2.2064798   -2.2064798   -1.4600904  0.025903961   -2.2064798   0.74638931   420782 
 1040000   0.59292886   -2.2056458   -2.2056458   -1.4587405  0.033780236   -2.2056458   0.74690535   420728 
 1050000   0.59195085   -2.2053336   -2.2053336   -1.4595645  0.044574991   -2.2053336   0.74576908   420674 
 1060000   0.59201611   -2.2061583   -2.2061583   -1.4602113   0.04058146   -2.2061583   0.74594705   420620 
 1070000   0.59172686    -2.206634    -2.206634   -1.4609556  0.028427601    -2.206634   0.74567833   420566 
 1080000   0.59036533   -2.2049614   -2.2049614   -1.4609033   0.03313083   -2.2049614    0.7440581   420512 
 1090000   0.59047741   -2.2060501   -2.2060501   -1.4617552  0.035598774   -2.2060501   0.74429493   420458 
 1100000   0.59104093   -2.2077067   -2.2077067   -1.4626058  0.035749838   -2.2077067   0.74510095   420404 
 1110000   0.59261562   -2.2089117   -2.2089117   -1.4617278  0.030867762   -2.2089117   0.74718384   420349 
 1120000   0.59137534   -2.2075173   -2.2075173   -1.4618014  0.039852605   -2.2075173   0.74571587   420295 
 1130000   0.59172811   -2.2080975   -2.2080975   -1.4618409  0.031784085   -2.2080975   0.74625658   420241 
 1140000   0.59025497   -2.2072223   -2.2072223   -1.4627279  0.028372135   -2.2072223    0.7444944   420187 
 1150000    0.5913833   -2.2088861   -2.2088861   -1.4628727  0.032831855   -2.2088861   0.74601345   420133 
 1160000   0.59065264   -2.2071419   -2.2071419   -1.4619544  0.040642378   -2.2071419   0.74518753   420079 
 1170000   0.58915121   -2.2043879   -2.2043879   -1.4609991  0.032235298   -2.2043879   0.74338883   420025 
 1180000   0.59063033   -2.2068681   -2.2068681   -1.4615171  0.038791337   -2.2068681     0.745351   419971 
 1190000   0.59060557   -2.2064003   -2.2064003   -1.4609847  0.038795101   -2.2064003   0.74541561   419917 
 1200000   0.59132364   -2.2077792   -2.2077792   -1.4613613  0.030392071   -2.2077792   0.74641789   419863 
 1210000   0.59052902   -2.2076976   -2.2076976   -1.4621868  0.041158664   -2.2076976   0.74551073   419809 
 1220000   0.59126243   -2.2086706   -2.2086706    -1.462138  0.037262892   -2.2086706   0.74653264   419755 
 1230000   0.58944973    -2.205402    -2.205402   -1.4610624  0.028303806    -2.205402   0.74433967   419701 
 1240000    0.5903889   -2.2054634   -2.2054634   -1.4598418  0.032687156   -2.2054634   0.74562156   419647 
 1250000    0.5906001   -2.2072855   -2.2072855   -1.4613012  0.039499567   -2.2072855   0.74598429   419593 
 1260000   0.58976676   -2.2067951   -2.2067951   -1.4617676  0.030881934   -2.2067951   0.74502757   419539 
 1270000   0.58962757   -2.2054503   -2.2054503   -1.4605027  0.030714024   -2.2054503   0.74494764   419485 
 1280000   0.58920511   -2.2062718   -2.2062718    -1.461762  0.023610269   -2.2062718   0.74450973   419431 
 1290000    0.5893928   -2.2079042   -2.2079042   -1.4630614  0.037709684   -2.2079042   0.74484278   419377 
 1300000   0.58965564     -2.20746     -2.20746   -1.4621874  0.031306305     -2.20746   0.74527269   419322 
 1310000   0.58906719   -2.2061565   -2.2061565   -1.4615317  0.036220111   -2.2061565   0.74462483   419268 
 1320000    0.5895619    -2.205796    -2.205796   -1.4604498  0.031546681    -2.205796   0.74534618   419214 
 1330000   0.58859285   -2.2054431   -2.2054431   -1.4612262    0.0411426   -2.2054431   0.74421694   419160 
 1340000   0.58921129   -2.2074869   -2.2074869    -1.462392  0.030085286   -2.2074869   0.74509488   419106 
 1350000   0.58914983   -2.2076162   -2.2076162    -1.462503  0.029845305   -2.2076162   0.74511316   419052 
 1360000   0.58932045   -2.2066165   -2.2066165   -1.4611915  0.034416106   -2.2066165     0.745425   418998 
 1370000   0.58879915   -2.2055476   -2.2055476    -1.460686  0.032974013   -2.2055476   0.74486162   418944 
 1380000   0.58962477    -2.206104    -2.206104   -1.4601018  0.028874485    -2.206104   0.74600223   418890 
 1390000   0.58895019   -2.2062913   -2.2062913   -1.4610465  0.027518554   -2.2062913   0.74524481   418836 
 1400000   0.58872672    -2.204464    -2.204464   -1.4594059  0.037254601    -2.204464   0.74505809   418782 
 1410000   0.58926263   -2.2055277   -2.2055277   -1.4596952  0.036194448   -2.2055277   0.74583249   418728 
 1420000   0.58953594    -2.206922    -2.206922   -1.4606473  0.034361004    -2.206922   0.74627466   418674 
 1430000   0.58931032   -2.2083178   -2.2083178   -1.4622325  0.029713574   -2.2083178   0.74608528   418620 
 1440000   0.58716484    -2.207358    -2.207358    -1.463893  0.026163622    -2.207358   0.74346494   418566 
 1450000   0.58839306   -2.2081086   -2.2081086   -1.4629924  0.039472379   -2.2081086   0.74511624   418512 
 1460000   0.58679508   -2.2066358   -2.2066358   -1.4634472   0.03502219   -2.2066358   0.74318851   418458 
 1470000   0.58806975   -2.2067054   -2.2067054   -1.4618064   0.03052258   -2.2067054   0.74489903   418404 
 1480000   0.58629286   -2.2052251   -2.2052251   -1.4624792  0.031022025   -2.2052251    0.7427459   418349 
 1490000   0.58808651   -2.2078519   -2.2078519   -1.4627375  0.031325392   -2.2078519   0.74511437   418295 
 1500000   0.58811231   -2.2091034   -2.2091034   -1.4638602   0.04028064   -2.2091034   0.74524328   418241 
 1510000   0.58610988   -2.2078062   -2.2078062   -1.4650045  0.035066539   -2.2078062   0.74280174   418187 
 1520000   0.58673404   -2.2071478   -2.2071478    -1.463459  0.031616036   -2.2071478   0.74368879   418133 
 1530000   0.58546967   -2.2067089   -2.2067089   -1.4645268  0.032649762   -2.2067089   0.74218205   418079 
 1540000   0.58779321   -2.2071966   -2.2071966   -1.4619728  0.037678664   -2.2071966   0.74522379   418025 
 1550000   0.58619068   -2.2065301   -2.2065301   -1.4632421  0.031403636   -2.2065301   0.74328806   417971 
 1560000   0.58668769   -2.2084239   -2.2084239   -1.4644095  0.027225692   -2.2084239   0.74401439   417917 
 1570000    0.5853675   -2.2081581   -2.2081581    -1.465722  0.035288747   -2.2081581   0.74243611   417863 
 1580000   0.58677906   -2.2099283   -2.2099283   -1.4656057  0.044009289   -2.2099283   0.74432262   417809 
 1590000   0.58722804   -2.2088094   -2.2088094    -1.463821  0.032553058   -2.2088094   0.74498843   417755 
 1600000   0.58658892   -2.2094495   -2.2094495   -1.4651757  0.027120693   -2.2094495   0.74427381   417701 
 1610000   0.58569811   -2.2113611   -2.2113611   -1.4681214  0.038770649   -2.2113611   0.74323962   417647 
 1620000   0.58631018   -2.2114281   -2.2114281   -1.4673156  0.038305705   -2.2114281   0.74411254   417593 
 1630000    0.5861805    -2.209217    -2.209217   -1.4651728  0.034761718    -2.209217   0.74404417   417539 
 1640000   0.58465025   -2.2072523   -2.2072523   -1.4650545   0.03299389   -2.2072523    0.7421978   417485 
 1650000   0.58585202   -2.2096007   -2.2096007    -1.465781  0.034699614   -2.2096007   0.74381962   417431 
 1660000   0.58545884   -2.2104728   -2.2104728   -1.4670562  0.032835732   -2.2104728   0.74341659   417377 
 1670000   0.58482773   -2.2100649   -2.2100649   -1.4673518  0.033480273   -2.2100649   0.74271309   417322 
 1680000   0.58446103   -2.2082414   -2.2082414    -1.465898  0.034631481   -2.2082414   0.74234344   417268 
 1690000   0.58458522   -2.2084429   -2.2084429   -1.4658456  0.030429104   -2.2084429   0.74259729   417214 
 1700000     0.583972   -2.2075852   -2.2075852   -1.4656708  0.041941048   -2.2075852   0.74191434   417160 
 1710000   0.58342425   -2.2085653   -2.2085653   -1.4672509  0.030738476   -2.2085653    0.7413144   417106 
 1720000   0.58337532   -2.2087363   -2.2087363   -1.4673881  0.031111053   -2.2087363    0.7413482   417052 
 1730000    0.5832528   -2.2092277   -2.2092277   -1.4679392  0.034489589   -2.2092277   0.74128849   416998 
 1740000   0.58500575   -2.2090989   -2.2090989   -1.4654862  0.031725067   -2.2090989    0.7436127   416944 
 1750000   0.58461094   -2.2095016   -2.2095016   -1.4662945  0.032204906   -2.2095016   0.74320711   416890 
 1760000    0.5842627   -2.2103634   -2.2103634   -1.4675027  0.036748757   -2.2103634   0.74286063   416836 
 1770000   0.58455804    -2.210617    -2.210617   -1.4672846  0.028946374    -2.210617   0.74333244   416782 
 1780000   0.58316576   -2.2084161   -2.2084161   -1.4667581  0.031809477   -2.2084161   0.74165808   416728 
 1790000   0.58270937   -2.2094992   -2.2094992   -1.4683255  0.033374318   -2.2094992   0.74117369   416674 
 1800000    0.5845798   -2.2114421   -2.2114421   -1.4677929  0.033866815   -2.2114421   0.74364915   416620 
 1810000   0.58258926   -2.2090015   -2.2090015   -1.4677885  0.029843051   -2.2090015   0.74121304   416566 
 1820000   0.58179221   -2.2089784   -2.2089784   -1.4686834  0.032439975   -2.2089784   0.74029494   416512 
 1830000   0.58380972   -2.2102228   -2.2102228   -1.4672644   0.03322894   -2.2102228   0.74295842   416458 
 1840000   0.58224045   -2.2084905   -2.2084905   -1.4674331  0.032006425   -2.2084905   0.74105745   416404 
 1850000   0.58450842   -2.2101204   -2.2101204   -1.4660781   0.03085634   -2.2101204   0.74404233   416349 
 1860000   0.58262399   -2.2075459   -2.2075459   -1.4658062  0.031964175   -2.2075459   0.74173977   416295 
 1870000   0.58350619   -2.2084043   -2.2084043    -1.465445  0.035193371   -2.2084043   0.74295928   416241 
 1880000   0.58378481   -2.2113427   -2.2113427   -1.4679322  0.029845989   -2.2113427   0.74341048   416187 
 1890000   0.58164351   -2.2108396   -2.2108396   -1.4700599  0.031764522   -2.2108396   0.74077979   416133 
 1900000   0.58179998   -2.2093968   -2.2093968   -1.4683216  0.029656743   -2.2093968   0.74107524   416079 
 1910000   0.58097381   -2.2076645   -2.2076645   -1.4675456  0.027957608   -2.2076645   0.74011895   416025 
 1920000    0.5807393   -2.2081747   -2.2081747   -1.4682585  0.034603656   -2.2081747   0.73991624   415971 
 1930000   0.58251594   -2.2106337   -2.2106337   -1.4683575  0.037219731   -2.2106337   0.74227621   415917 
 1940000    0.5818061    -2.210778    -2.210778     -1.46931  0.031123553    -2.210778   0.74146795   415863 
 1950000   0.58227822     -2.21064     -2.21064    -1.468474  0.036893041     -2.21064     0.742166   415809 
 1960000   0.58169324   -2.2086158   -2.2086158   -1.4670991  0.035112373   -2.2086158   0.74151669   415755 
 1970000   0.58187381   -2.2084931   -2.2084931   -1.4666499  0.029805658   -2.2084931   0.74184323   415701 
 1980000   0.58166198   -2.2097228   -2.2097228   -1.4680533  0.034881295   -2.2097228   0.74166951   415647 
 1990000   0.58155085   -2.2095916   -2.2095916   -1.4679675  0.029873294   -2.2095916   0.74162415   415593 
 2000000   0.58157957   -2.2082689   -2.2082689   -1.4665117  0.038508666   -2.2082689   0.74175717   415539 
 2010000   0.58003025   -2.2087954   -2.2087954   -1.4689182  0.029249241   -2.2087954   0.73987728   415485 
 2020000   0.58111414   -2.2107379   -2.2107379   -1.4693817  0.035815359   -2.2107379   0.74135622   415431 
 2030000   0.58138793   -2.2087116   -2.2087116   -1.4669096  0.034480422   -2.2087116   0.74180193   415377 
 2040000   0.58165284   -2.2095979   -2.2095979   -1.4673597  0.031052983   -2.2095979   0.74223822   415322 
 2050000   0.57973062    -2.207786    -2.207786   -1.4679045  0.034162084    -2.207786    0.7398815   415268 
 2060000   0.58073868   -2.2093349   -2.2093349   -1.4680705  0.029489563   -2.2093349   0.74126443   415214 
 2070000   0.58123677   -2.2116819   -2.2116819   -1.4696852  0.035395738   -2.2116819    0.7419967   415160 
 2080000   0.58078668   -2.2116526   -2.2116526   -1.4701341   0.02997562   -2.2116526   0.74151858   415106 
 2090000   0.58055626   -2.2115186   -2.2115186   -1.4701978  0.029954065   -2.2115186   0.74132082   415052 
 2100000   0.57889047   -2.2102118   -2.2102118   -1.4709219  0.032588959   -2.2102118   0.73928994   414998 
 2110000   0.58106834   -2.2135484   -2.2135484   -1.4713806  0.033117185   -2.2135484   0.74216782   414944 
 2120000   0.57997254   -2.2121393   -2.2121393   -1.4712747  0.026257335   -2.2121393   0.74086463   414890 
 2130000   0.57981482   -2.2121819   -2.2121819   -1.4714223  0.033971203   -2.2121819   0.74075957   414836 
 2140000   0.57974337   -2.2119859   -2.2119859   -1.4712212  0.029421289   -2.2119859   0.74076472   414782 
 2150000   0.58024034   -2.2122364   -2.2122364   -1.4707401  0.037672573   -2.2122364   0.74149625   414728 
 2160000   0.58022934   -2.2122006   -2.2122006   -1.4706218  0.027435318   -2.2122006   0.74157875   414674 
 2170000   0.58012193   -2.2114676   -2.2114676   -1.4699296  0.024413775   -2.2114676   0.74153803   414620 
 2180000   0.57964122   -2.2092105   -2.2092105   -1.4681904  0.039821804   -2.2092105   0.74102008   414566 
 2190000   0.57921406   -2.2115949   -2.2115949   -1.4710245  0.037360214   -2.2115949   0.74057046   414512 
 2200000   0.57866985   -2.2119887   -2.2119887   -1.4720176  0.033472105   -2.2119887   0.73997104   414458 
 2210000    0.5794835   -2.2123332   -2.2123332   -1.4712251  0.031436008   -2.2123332   0.74110805   414404 
 2220000   0.57945305   -2.2129787   -2.2129787   -1.4718112  0.031647068   -2.2129787   0.74116748   414349 
 2230000   0.57930244   -2.2133525   -2.2133525    -1.472281   0.02713751   -2.2133525   0.74107142   414295 
 2240000   0.57884718   -2.2139972   -2.2139972   -1.4734116  0.028441261   -2.2139972   0.74058556   414241 
 2250000   0.57934796   -2.2132648   -2.2132648   -1.4719419  0.027819308   -2.2132648   0.74132289   414187 
 2260000   0.57840093   -2.2116591   -2.2116591   -1.4714515  0.032684392   -2.2116591    0.7402076   414133 
 2270000   0.57927362   -2.2136085   -2.2136085   -1.4721874  0.034652781   -2.2136085    0.7414211   414079 
 2280000   0.57908011   -2.2137284   -2.2137284   -1.4724583  0.033919011   -2.2137284    0.7412701   414025 
 2290000   0.57849562   -2.2123669   -2.2123669   -1.4717484  0.033174283   -2.2123669    0.7406185   413971 
 2300000   0.57791042   -2.2123071   -2.2123071   -1.4723413  0.033594937   -2.2123071   0.73996582   413917 
 2310000    0.5795082   -2.2146907   -2.2146907   -1.4725822  0.034054791   -2.2146907   0.74210845   413863 
 2320000   0.57697052   -2.2127876   -2.2127876   -1.4738324  0.025999171   -2.2127876   0.73895516   413809 
 2330000   0.57777916   -2.2147081   -2.2147081   -1.4746207  0.036790191   -2.2147081   0.74008741   413755 
 2340000   0.57934701   -2.2167753   -2.2167753   -1.4745828  0.035970664   -2.2167753   0.74219256   413701 
 2350000   0.57810365   -2.2140348   -2.2140348   -1.4733384  0.032030641   -2.2140348    0.7406964   413647 
 2360000   0.57701726   -2.2116344   -2.2116344   -1.4722334  0.037856171   -2.2116344   0.73940098   413593 
 2370000   0.57644097   -2.2114814   -2.2114814   -1.4727224  0.025804147   -2.2114814   0.73875897   413539 
 2380000   0.57804742   -2.2135182   -2.2135182   -1.4726037  0.029329404   -2.2135182   0.74091452   413485 
 2390000   0.57789289    -2.213433    -2.213433   -1.4726198   0.04001369    -2.213433    0.7408132   413431 
 2400000   0.57757452   -2.2135711   -2.2135711   -1.4730693  0.027970985   -2.2135711   0.74050179   413377 
 2410000   0.57743377   -2.2133365   -2.2133365   -1.4729166  0.035906202   -2.2133365   0.74041985   413322 
 2420000   0.57742025   -2.2129173   -2.2129173   -1.4724181  0.024134542   -2.2129173   0.74049926   413268 
 2430000   0.57641947   -2.2125226   -2.2125226   -1.4732102  0.028371491   -2.2125226   0.73931244   413214 
 2440000   0.57705638   -2.2143544   -2.2143544   -1.4741283  0.027251646   -2.2143544   0.74022607   413160 
 2450000    0.5749296   -2.2133496   -2.2133496   -1.4757552  0.035019066   -2.2133496   0.73759432   413106 
 2460000   0.57578759   -2.2135568   -2.2135568   -1.4747651  0.035273304   -2.2135568   0.73879163   413052 
 2470000   0.57707499   -2.2155315   -2.2155315   -1.4749912  0.027060924   -2.2155315   0.74054031   412998 
 2480000   0.57528454   -2.2147552   -2.2147552    -1.476416  0.034946965   -2.2147552   0.73833922   412944 
 2490000    0.5750669   -2.2159302   -2.2159302   -1.4777737  0.036314794   -2.2159302   0.73815642   412890 
 2500000   0.57581333    -2.217302    -2.217302   -1.4780907  0.034545122    -2.217302   0.73921122   412836 
 2510000   0.57497212   -2.2141993   -2.2141993   -1.4759714   0.03004847   -2.2141993   0.73822786   412782 
 2520000   0.57470111   -2.2133896   -2.2133896   -1.4754131  0.031806553   -2.2133896   0.73797644   412728 
 2530000   0.57632814    -2.214776    -2.214776   -1.4746134  0.028358364    -2.214776   0.74016257   412674 
 2540000   0.57621415   -2.2136335   -2.2136335   -1.4735204  0.028513281   -2.2136335   0.74011302   412620 
 2550000   0.57558774   -2.2129824   -2.2129824   -1.4735773  0.028397341   -2.2129824   0.73940519   412566 
 2560000   0.57569252   -2.2140727   -2.2140727   -1.4744361  0.035856309   -2.2140727   0.73963661   412512 
 2570000    0.5761481   -2.2149775   -2.2149775   -1.4746586  0.036907728   -2.2149775   0.74031884   412458 
 2580000    0.5756401   -2.2142753   -2.2142753   -1.4745124  0.035038147   -2.2142753   0.73976293   412404 
 2590000   0.57533259   -2.2138406   -2.2138406   -1.4743742  0.026865223   -2.2138406   0.73946638   412349 
 2600000   0.57516372   -2.2134407   -2.2134407   -1.4740945  0.031064879   -2.2134407   0.73934614   412295 
 2610000   0.57438662   -2.2132062   -2.2132062   -1.4747623  0.037069603   -2.2132062   0.73844394   412241 
 2620000   0.57499527   -2.2139653   -2.2139653   -1.4746421  0.031386882   -2.2139653   0.73932327   412187 
 2630000   0.57424053   -2.2118929   -2.2118929   -1.4734434  0.038050299   -2.2118929   0.73844958   412133 
 2640000   0.57450429    -2.212914    -2.212914   -1.4740284  0.029579748    -2.212914   0.73888557   412079 
 2650000   0.57564657   -2.2135945   -2.2135945   -1.4731427  0.031844311   -2.2135945   0.74045173   412025 
 2660000   0.57467538   -2.2126838   -2.2126838   -1.4733845   0.03836071   -2.2126838   0.73929939   411971 
 2670000   0.57425624   -2.2135292   -2.2135292   -1.4746721  0.030384162   -2.2135292   0.73885701   411917 
 2680000   0.57434248   -2.2129144   -2.2129144   -1.4738495  0.032688819   -2.2129144   0.73906486   411863 
 2690000   0.57490615   -2.2130339   -2.2130339   -1.4731467   0.03487461   -2.2130339   0.73988721   411809 
 2700000   0.57533773   -2.2119047   -2.2119047    -1.471365  0.031082729   -2.2119047   0.74053975   411755 
 2710000   0.57481424   -2.2117748   -2.2117748   -1.4718118   0.02821121   -2.2117748   0.73996299   411701 
 2720000   0.57437166   -2.2102442   -2.2102442    -1.470754  0.029534997   -2.2102442   0.73949023   411647 
 2730000   0.57457948   -2.2116245   -2.2116245   -1.4717697  0.031224345   -2.2116245   0.73985485   411593 
 2740000   0.57500329   -2.2123347   -2.2123347    -1.471837  0.027588944   -2.2123347   0.74049773   411539 
 2750000   0.57370065   -2.2108995   -2.2108995   -1.4719823   0.02651009   -2.2108995   0.73891713   411485 
 2760000   0.57425863   -2.2124571   -2.2124571   -1.4727242  0.036207886   -2.2124571   0.73973287   411431 
 2770000   0.57350251   -2.2106078   -2.2106078    -1.471752  0.037716823   -2.2106078   0.73885584   411377 
 2780000   0.57329731   -2.2094142   -2.2094142   -1.4707239  0.031815532   -2.2094142   0.73869024   411322 
 2790000   0.57427464   -2.2112125   -2.2112125   -1.4711658  0.030791255   -2.2112125   0.74004669   411268 
 2800000   0.57327167   -2.2111306   -2.2111306   -1.4722794  0.030744752   -2.2111306   0.73885121   411214 
 2810000   0.57450548   -2.2128686   -2.2128686   -1.4723299  0.027800571   -2.2128686   0.74053863   411160 
 2820000   0.57399463   -2.2123621   -2.2123621   -1.4723848  0.029421337   -2.2123621   0.73997732   411106 
 2830000   0.57267476   -2.2100084   -2.2100084   -1.4716357  0.027582036   -2.2100084   0.73837277   411052 
 2840000   0.57278141   -2.2122967   -2.2122967   -1.4736894  0.029042535   -2.2122967   0.73860731   410998 
 2850000   0.57401354   -2.2141225   -2.2141225   -1.4738291   0.02892646   -2.2141225   0.74029342   410944 
 2860000   0.57287901    -2.213701    -2.213701   -1.4747736  0.032723447    -2.213701   0.73892734   410890 
 2870000   0.57253751   -2.2118128   -2.2118128   -1.4732289  0.028517493   -2.2118128   0.73858392   410836 
 2880000   0.57299313   -2.2127146   -2.2127146   -1.4734458  0.028383187   -2.2127146   0.73926885   410782 
 2890000   0.57277977   -2.2130714   -2.2130714   -1.4739807  0.030628673   -2.2130714   0.73909073   410728 
 2900000   0.57165847    -2.212314    -2.212314   -1.4745731  0.024125063    -2.212314   0.73774084   410674 
 2910000   0.57427279    -2.215722    -2.215722   -1.4745098  0.036625854    -2.215722   0.74121217   410620 
 2920000   0.57222726   -2.2123246   -2.2123246   -1.4736555  0.033223157   -2.2123246   0.73866915   410566 
 2930000    0.5718878   -2.2132676   -2.2132676   -1.4749395  0.031703419   -2.2132676   0.73832806   410512 
 2940000   0.57223001   -2.2152031   -2.2152031    -1.476336  0.036211509   -2.2152031   0.73886705   410458 
 2950000   0.57347347   -2.2158815   -2.2158815   -1.4753115   0.03061054   -2.2158815   0.74057006   410404 
 2960000    0.5716056     -2.21415     -2.21415   -1.4758931  0.030961817     -2.21415   0.73825687   410349 
 2970000   0.57148958   -2.2135223   -2.2135223   -1.4753181  0.031398798   -2.2135223   0.73820416   410295 
 2980000   0.57251225   -2.2160247   -2.2160247   -1.4764022  0.029303244   -2.2160247   0.73962251   410241 
 2990000   0.57187224   -2.2131974   -2.2131974   -1.4743045  0.032983888   -2.2131974   0.73889295   410187 
 3000000    0.5712268   -2.2119759   -2.2119759   -1.4738197  0.029841709   -2.2119759   0.73815617   410133 
 3010000   0.57331115   -2.2142432   -2.2142432    -1.473296  0.029005646   -2.2142432   0.74094719   410079 
 3020000   0.57172932   -2.2120401   -2.2120401     -1.47304  0.037336323   -2.2120401   0.73900015   410025 
 3030000   0.57124898   -2.2121594   -2.2121594   -1.4736828  0.028540914   -2.2121594   0.73847654   409971 
 3040000   0.57105233   -2.2111012   -2.2111012   -1.4727816  0.024820818   -2.2111012   0.73831956   409917 
 3050000   0.57062421   -2.2098996   -2.2098996   -1.4720364  0.030817856   -2.2098996   0.73786324   409863 
 3060000   0.57094691   -2.2114411   -2.2114411   -1.4730633  0.029741312   -2.2114411   0.73837781   409809 
 3070000   0.57150083   -2.2136441   -2.2136441   -1.4744525  0.034133158   -2.2136441   0.73919157   409755 
 3080000    0.5705047   -2.2137841   -2.2137841   -1.4757837  0.028039334   -2.2137841   0.73800041   409701 
 3090000   0.57100431   -2.2135358   -2.2135358   -1.4747917  0.031434146   -2.2135358   0.73874407   409647 
 3100000   0.56983283    -2.213382    -2.213382   -1.4760564  0.030065903    -2.213382   0.73732564   409593 
 3110000   0.57051315   -2.2123216   -2.2123216   -1.4740184  0.031859185   -2.2123216   0.73830327   409539 
 3120000   0.56971893   -2.2125121   -2.2125121   -1.4751394  0.032252471   -2.2125121   0.73737269   409485 
 3130000   0.57047815   -2.2126607   -2.2126607   -1.4742079  0.028630744   -2.2126607   0.73845271   409431 
 3140000   0.56917076   -2.2106512   -2.2106512   -1.4737936  0.026999674   -2.2106512   0.73685755   409377 
 3150000   0.57080665   -2.2132124   -2.2132124   -1.4741377  0.028939843   -2.2132124    0.7390747   409322 
 3160000   0.56912836   -2.2129436   -2.2129436   -1.4759448  0.036376753   -2.2129436   0.73699889   409268 
 3170000   0.56875004     -2.21306     -2.21306   -1.4764539  0.034653271     -2.21306   0.73660618   409214 
 3180000   0.56966789   -2.2127447   -2.2127447   -1.4748524  0.033429101   -2.2127447   0.73789228   409160 
 3190000   0.56897157   -2.2123254   -2.2123254   -1.4752378  0.032560197   -2.2123254   0.73708762   409106 
 3200000   0.56936743   -2.2133738   -2.2133738    -1.475676  0.033895495   -2.2133738   0.73769782   409052 
 3210000   0.56797677   -2.2131267   -2.2131267   -1.4771335  0.034325039   -2.2131267   0.73599318   408998 
 3220000   0.56838572   -2.2158037   -2.2158037   -1.4791834  0.036657586   -2.2158037   0.73662036   408944 
 3230000    0.5689192   -2.2157778   -2.2157778   -1.4783687  0.035813574   -2.2157778   0.73740911   408890 
 3240000   0.56730071   -2.2124336   -2.2124336   -1.4770252  0.030802538   -2.2124336   0.73540841   408836 
 3250000   0.56823455   -2.2132209   -2.2132209   -1.4765047  0.031867589   -2.2132209   0.73671628   408782 
 3260000   0.56885601   -2.2149658   -2.2149658   -1.4773464  0.028735922   -2.2149658   0.73761944   408728 
 3270000   0.56779685   -2.2141072   -2.2141072   -1.4777639  0.026850568   -2.2141072   0.73634334   408674 
 3280000   0.56880191   -2.2150199   -2.2150199   -1.4772757  0.033123043   -2.2150199   0.73774423   408620 
 3290000   0.56801391   -2.2154507   -2.2154507   -1.4786311  0.023816169   -2.2154507   0.73681956   408566 
 3300000   0.56661272   -2.2133913   -2.2133913   -1.4782922   0.03405943   -2.2133913   0.73509911   408512 
 3310000   0.56831142   -2.2132596   -2.2132596   -1.4758592  0.028491086   -2.2132596    0.7374004   408458 
 3320000   0.56996591   -2.2136355   -2.2136355   -1.4739906  0.030135053   -2.2136355   0.73964495   408404 
 3330000    0.5676454   -2.2119459   -2.2119459   -1.4752131  0.024805672   -2.2119459   0.73673283   408349 
 3340000   0.56786739    -2.213101    -2.213101   -1.4759825  0.034264082    -2.213101   0.73711842   408295 
 3350000   0.56782835   -2.2149888   -2.2149888   -1.4778236  0.030954346   -2.2149888   0.73716524   408241 
 3360000   0.56757616   -2.2135594   -2.2135594   -1.4766241  0.032168558   -2.2135594   0.73693532   408187 
 3370000   0.56731274    -2.213353    -2.213353   -1.4766623  0.027205709    -2.213353   0.73669075   408133 
 3380000   0.56857698   -2.2148228   -2.2148228   -1.4763927  0.035460432   -2.2148228   0.73843016   408079 
 3390000   0.56802884    -2.213545    -2.213545   -1.4757291   0.02647504    -2.213545    0.7378159   408025 
 3400000   0.56649967   -2.2111588   -2.2111588   -1.4752318  0.039068291   -2.2111588   0.73592705   407971 
 3410000   0.56749132    -2.212688    -2.212688   -1.4753752  0.037112197    -2.212688   0.73731287   407917 
 3420000   0.56774697   -2.2133527   -2.2133527     -1.47561  0.033998012   -2.2133527   0.73774269   407863 
 3430000   0.56520142   -2.2124318   -2.2124318   -1.4778996  0.031958207   -2.2124318   0.73453219   407809 
 3440000   0.56656706   -2.2144111   -2.2144111   -1.4780067  0.034469091   -2.2144111   0.73640448   407755 
 3450000   0.56806572   -2.2157948   -2.2157948   -1.4773447  0.037564432   -2.2157948   0.73845019   407701 
 3460000   0.56784698   -2.2136206   -2.2136206    -1.475357  0.030494682   -2.2136206   0.73826361   407647 
 3470000   0.56677057   -2.2103213   -2.2103213   -1.4733595  0.029672892   -2.2103213   0.73696179   407593 
 3480000   0.56632491   -2.2112586   -2.2112586   -1.4747788  0.029174128   -2.2112586   0.73647988   407539 
 3490000    0.5661048   -2.2123304   -2.2123304   -1.4760392  0.030451859   -2.2123304    0.7362912   407485 
 3500000   0.56724757   -2.2126581   -2.2126581   -1.4747828  0.033619461   -2.2126581    0.7378753   407431 
 3510000   0.56553458   -2.2114159   -2.2114159   -1.4756713    0.0309246   -2.2114159   0.73574456   407377 
 3520000   0.56704494   -2.2137116   -2.2137116   -1.4759025  0.036354267   -2.2137116   0.73780911   407322 
 3530000   0.56642445   -2.2132524   -2.2132524   -1.4761529  0.032376452   -2.2132524   0.73709948   407268 
 3540000   0.56594508   -2.2126973   -2.2126973    -1.476124  0.028094325   -2.2126973   0.73657332   407214 
 3550000   0.56600982   -2.2105994   -2.2105994   -1.4738441   0.03083947   -2.2105994   0.73675529   407160 
 3560000   0.56643509   -2.2111488   -2.2111488   -1.4737421  0.029479219   -2.2111488   0.73740663   407106 
 3570000   0.56526962     -2.21074     -2.21074    -1.474753  0.029656681     -2.21074   0.73598701   407052 
 3580000   0.56640441    -2.212325    -2.212325   -1.4747626  0.032077525    -2.212325   0.73756237   406998 
 3590000   0.56562528   -2.2099254   -2.2099254   -1.4732799  0.025454805   -2.2099254   0.73664554   406944 
 3600000   0.56512874   -2.2116739   -2.2116739   -1.4755773  0.026308933   -2.2116739   0.73609654   406890 
 3610000   0.56476357   -2.2123952   -2.2123952   -1.4766766  0.030437779   -2.2123952   0.73571853   406836 
 3620000   0.56504145   -2.2125235   -2.2125235   -1.4763453  0.029805539   -2.2125235   0.73617824   406782 
 3630000   0.56398393   -2.2105768   -2.2105768   -1.4756788  0.024659415   -2.2105768   0.73489798   406728 
 3640000   0.56555806   -2.2135643   -2.2135643   -1.4765173  0.033034211   -2.2135643     0.737047   406674 
 3650000   0.56529708     -2.21278     -2.21278   -1.4759753  0.029393721     -2.21278   0.73680472   406620 
 3660000   0.56546011   -2.2129423   -2.2129423   -1.4758272  0.024770055   -2.2129423   0.73711511   406566 
 3670000   0.56507823   -2.2127511   -2.2127511    -1.476036    0.0324802   -2.2127511   0.73671516   406512 
 3680000    0.5644937   -2.2110488   -2.2110488    -1.474998  0.031746812   -2.2110488   0.73605085   406458 
 3690000   0.56392705   -2.2114282   -2.2114282   -1.4760185  0.029657289   -2.2114282    0.7354097   406404 
 3700000   0.56531443   -2.2135823   -2.2135823   -1.4762635  0.037274315   -2.2135823   0.73731874   406349 
 3710000    0.5655309   -2.2131454   -2.2131454   -1.4754463  0.036794643   -2.2131454   0.73769911   406295 
 3720000   0.56350506   -2.2112357   -2.2112357   -1.4760814  0.031682189   -2.2112357   0.73515424   406241 
 3730000   0.56427081   -2.2132127   -2.2132127   -1.4769616  0.025483561   -2.2132127   0.73625111   406187 
 3740000   0.56352163   -2.2132319   -2.2132319   -1.4778606  0.039660133   -2.2132319   0.73537136   406133 
 3750000   0.56273011   -2.2120823   -2.2120823   -1.4776462  0.024831084   -2.2120823   0.73443611   406079 
 3760000   0.56502314   -2.2133877   -2.2133877   -1.4758608  0.029328015   -2.2133877   0.73752688   406025 
 3770000   0.56377706    -2.211778    -2.211778   -1.4757798  0.038093565    -2.211778   0.73599826   405971 
 3780000   0.56301094   -2.2091805   -2.2091805   -1.4740846  0.032026264   -2.2091805   0.73509588   405917 
 3790000   0.56469027     -2.21028     -2.21028   -1.4728934   0.02577446     -2.21028    0.7373866   405863 
 3800000   0.56393482   -2.2112737   -2.2112737   -1.4747756  0.031575665   -2.2112737   0.73649811   405809 
 3810000   0.56395114    -2.212447    -2.212447   -1.4758296  0.036593523    -2.212447   0.73661744   405755 
 3820000   0.56362722   -2.2127327   -2.2127327   -1.4764404  0.036307655   -2.2127327   0.73629233   405701 
 3830000   0.56390628   -2.2108678   -2.2108678   -1.4741128  0.027716689   -2.2108678   0.73675495   405647 
 3840000   0.56370559   -2.2099805   -2.2099805   -1.4733897  0.034508358   -2.2099805   0.73659079   405593 
 3850000   0.56341196   -2.2107629   -2.2107629   -1.4744578  0.029971434   -2.2107629   0.73630515   405539 
 3860000   0.56389105   -2.2120008   -2.2120008   -1.4749714  0.028141882   -2.2120008   0.73702939   405485 
 3870000   0.56377649   -2.2123903   -2.2123903   -1.4754125  0.029817279   -2.2123903   0.73697781   405431 
 3880000   0.56346822    -2.211711    -2.211711    -1.475038  0.025081005    -2.211711   0.73667294   405377 
 3890000   0.56409471   -2.2142774   -2.2142774   -1.4766853  0.028028445   -2.2142774   0.73759209   405322 
 3900000   0.56259319   -2.2119286   -2.2119286   -1.4762019  0.037789708   -2.2119286   0.73572676   405268 
 3910000   0.56279213   -2.2136625   -2.2136625   -1.4775775  0.025371745   -2.2136625   0.73608501   405214 
 3920000    0.5612544   -2.2114255   -2.2114255   -1.4772539   0.02802082   -2.2114255   0.73417162   405160 
 3930000   0.56233703   -2.2118021   -2.2118021   -1.4761163  0.034039624   -2.2118021   0.73568585   405106 
 3940000   0.56139845   -2.2124811   -2.2124811   -1.4779252  0.028630916   -2.2124811   0.73455586   405052 
 3950000   0.56278947     -2.21441     -2.21441   -1.4779359  0.032650782     -2.21441   0.73647411   404998 
 3960000   0.56281921   -2.2121585   -2.2121585   -1.4755473  0.031202404   -2.2121585   0.73661124   404944 
 3970000   0.56199069   -2.2117821   -2.2117821   -1.4761571  0.036223798   -2.2117821   0.73562498   404890 
 3980000    0.5626392   -2.2116409   -2.2116409   -1.4750688  0.030810004   -2.2116409   0.73657209   404836 
 3990000   0.56205103   -2.2116828   -2.2116828   -1.4757825  0.036271879   -2.2116828   0.73590025   404782 
 4000000   0.56129693    -2.208783    -2.208783    -1.473772  0.028711336    -2.208783   0.73501096   404728 
 4010000   0.56109232   -2.2106398   -2.2106398   -1.4757987  0.023470469   -2.2106398   0.73484107   404674 
 4020000     0.561946   -2.2115197   -2.2115197   -1.4754624  0.037438136   -2.2115197   0.73605732   404620 
 4030000   0.56103275   -2.2120266   -2.2120266   -1.4770674  0.024532823   -2.2120266    0.7349592   404566 
 4040000   0.56121002    -2.212467    -2.212467   -1.4771775  0.030292389    -2.212467   0.73528957   404512 
 4050000   0.56183661   -2.2113119   -2.2113119   -1.4751031  0.024813341   -2.2113119    0.7362088   404458 
 4060000    0.5615649    -2.209642    -2.209642    -1.473691  0.032471384    -2.209642   0.73595101   404404 
 4070000    0.5603976   -2.2077211   -2.2077211      -1.4732  0.034202096   -2.2077211   0.73452113   404349 
 4080000   0.56082483   -2.2075045   -2.2075045   -1.4723252  0.041381986   -2.2075045   0.73517929   404295 
 4090000   0.56147763   -2.2080759   -2.2080759   -1.4719426  0.031836454   -2.2080759   0.73613335   404241 
 4100000   0.56093277   -2.2095637   -2.2095637   -1.4740465  0.028589104   -2.2095637   0.73551725   404187 
 4110000   0.56017052   -2.2095576   -2.2095576   -1.4749417  0.034195486   -2.2095576   0.73461592   404133 
 4120000   0.56015694   -2.2085463   -2.2085463     -1.47385  0.032394978   -2.2085463   0.73469628   404079 
 4130000   0.56081063   -2.2093084   -2.2093084   -1.4736564  0.034438858   -2.2093084   0.73565196   404025 
 4140000   0.56027036   -2.2083817   -2.2083817   -1.4733402  0.035263331   -2.2083817   0.73504149   403971 
 4150000   0.55981336   -2.2106292   -2.2106292    -1.476089  0.034575658   -2.2106292   0.73454013   403917 
 4160000   0.56113852   -2.2115767   -2.2115767   -1.4751994  0.032459297   -2.2115767   0.73637734   403863 
 4170000   0.55968559   -2.2085841   -2.2085841   -1.4740152  0.033424544   -2.2085841   0.73456888   403809 
 4180000   0.55879584   -2.2071225   -2.2071225   -1.4736233  0.031606594   -2.2071225    0.7334992   403755 
 4190000   0.56066077    -2.211045    -2.211045   -1.4749993  0.029852869    -2.211045   0.73604563   403701 
 4200000   0.56013845   -2.2105859   -2.2105859   -1.4751276  0.029377197   -2.2105859   0.73545831   403647 
 4210000   0.55942437   -2.2082478   -2.2082478   -1.4736288  0.034928078   -2.2082478     0.734619   403593 
 4220000   0.55891392   -2.2089486   -2.2089486   -1.4749017  0.031374139   -2.2089486   0.73404691   403539 
 4230000   0.56071538   -2.2115074   -2.2115074    -1.474996  0.031321954   -2.2115074   0.73651139   403485 
 4240000   0.55941592   -2.2095945   -2.2095945   -1.4746916  0.030991558   -2.2095945   0.73490289   403431 
 4250000   0.55906308    -2.208693    -2.208693   -1.4741553  0.023994424    -2.208693   0.73453769   403377 
 4260000   0.55931019   -2.2087641   -2.2087641   -1.4738016  0.027153431   -2.2087641   0.73496256   403322 
 4270000   0.55888956   -2.2080918   -2.2080918   -1.4735836  0.035861384   -2.2080918   0.73450818   403268 
 4280000   0.55882428   -2.2083259   -2.2083259   -1.4738051   0.02705393   -2.2083259   0.73452074   403214 
 4290000   0.55838972   -2.2085743   -2.2085743   -1.4745264  0.034678797   -2.2085743   0.73404786   403160 
 4300000   0.55966849   -2.2104976   -2.2104976   -1.4746701  0.027816509   -2.2104976   0.73582746   403106 
 4310000   0.55901051   -2.2093252   -2.2093252   -1.4742643  0.029170836   -2.2093252   0.73506085   403052 
 4320000   0.55938133   -2.2083489   -2.2083489   -1.4727019  0.025687046   -2.2083489   0.73564701   402998 
 4330000   0.55861956   -2.2074462   -2.2074462   -1.4727026  0.028214191   -2.2074462   0.73474365   402944 
 4340000    0.5590421   -2.2084817   -2.2084817   -1.4730837  0.032147159   -2.2084817   0.73539797   402890 
 4350000   0.55875701   -2.2099587   -2.2099587   -1.4748372  0.034010055   -2.2099587   0.73512147   402836 
 4360000   0.55830424   -2.2081235   -2.2081235   -1.4734993  0.031365119   -2.2081235   0.73462427   402782 
 4370000   0.55916158   -2.2078475   -2.2078475   -1.4719964  0.025178539   -2.2078475   0.73585102   402728 
 4380000   0.55874511   -2.2076332   -2.2076332   -1.4722317  0.019567149   -2.2076332   0.73540156   402674 
 4390000   0.55879656   -2.2084116   -2.2084116   -1.4728437  0.031220941   -2.2084116   0.73556792   402620 
 4400000   0.55771264   -2.2076723   -2.2076723   -1.4734327  0.030016032   -2.2076723   0.73423958   402566 
 4410000   0.55722168   -2.2066642   -2.2066642   -1.4729726  0.032809729   -2.2066642   0.73369164   402512 
 4420000   0.55643624   -2.2076335   -2.2076335   -1.4748778  0.034016923   -2.2076335   0.73275575   402458 
 4430000   0.55736354   -2.2078417   -2.2078417   -1.4737663  0.035675358   -2.2078417   0.73407539   402404 
 4440000    0.5579839   -2.2089457   -2.2089457   -1.4739528  0.027651406   -2.2089457    0.7349929   402349 
 4450000   0.55630904   -2.2075217   -2.2075217   -1.4746366  0.033702777   -2.2075217   0.73288508   402295 
 4460000    0.5581352   -2.2104088   -2.2104088   -1.4750192  0.024583533   -2.2104088   0.73538958   402241 
 4470000   0.55730741   -2.2069727   -2.2069727   -1.4725752  0.030738754   -2.2069727    0.7343975   402187 
 4480000   0.55870181    -2.208749    -2.208749   -1.4724151  0.044289471    -2.208749   0.73633385   402133 
 4490000   0.55785667   -2.2084438   -2.2084438   -1.4731251  0.027915541   -2.2084438   0.73531875   402079 
 4500000   0.55715999   -2.2091392   -2.2091392   -1.4746401   0.02931484   -2.2091392   0.73449908   402025 
 4510000   0.55691441    -2.208366    -2.208366    -1.474092  0.026036489    -2.208366   0.73427397   401971 
 4520000   0.55600998   -2.2077827   -2.2077827   -1.4746027  0.033238791   -2.2077827   0.73317999   401917 
 4530000   0.55554093   -2.2084747   -2.2084747   -1.4758148  0.033728634   -2.2084747   0.73265992   401863 
 4540000   0.55772333   -2.2094678   -2.2094678   -1.4738308  0.037071531   -2.2094678   0.73563698   401809 
 4550000   0.55526806   -2.2085037   -2.2085037   -1.4760068  0.025167606   -2.2085037   0.73249692   401755 
 4560000   0.55773811   -2.2106884   -2.2106884   -1.4748341  0.030949226   -2.2106884   0.73585425   401701 
 4570000   0.55633822   -2.2110278   -2.2110278   -1.4769218  0.033214754   -2.2110278   0.73410599   401647 
 4580000   0.55739687    -2.213084    -2.213084   -1.4774822   0.03063268    -2.213084   0.73560181   401593 
 4590000    0.5569077   -2.2110119   -2.2110119   -1.4759568  0.027680783   -2.2110119   0.73505508   401539 
 4600000   0.55590926   -2.2081497   -2.2081497   -1.4743138  0.031785681   -2.2081497   0.73383595   401485 
 4610000   0.55536769    -2.207233    -2.207233   -1.4740133   0.03246796    -2.207233   0.73321966   401431 
 4620000   0.55633621    -2.207343    -2.207343   -1.4727459  0.033935065    -2.207343   0.73459716   401377 
 4630000   0.55658628   -2.2088501   -2.2088501    -1.473822  0.033588483   -2.2088501   0.73502807   401322 
 4640000   0.55497679   -2.2086192   -2.2086192    -1.475618  0.036115949   -2.2086192    0.7330012   401268 
 4650000   0.55518215   -2.2091161   -2.2091161   -1.4757449  0.030403018   -2.2091161   0.73337113   401214 
 4660000   0.55492889   -2.2081775   -2.2081775   -1.4750423  0.038248767   -2.2081775   0.73313527   401160 
 4670000    0.5567099   -2.2098416   -2.2098416   -1.4742544  0.033610022   -2.2098416   0.73558724   401106 
 4680000   0.55525081   -2.2096767   -2.2096767   -1.4759186  0.032762743   -2.2096767    0.7337581   401052 
 4690000   0.55587161   -2.2096507   -2.2096507   -1.4749733  0.031948577   -2.2096507   0.73467741   400998 
 4700000   0.55416166   -2.2069985   -2.2069985   -1.4744824  0.027672625   -2.2069985   0.73251607   400944 
 4710000    0.5557038   -2.2084936   -2.2084936   -1.4738402  0.021839368   -2.2084936   0.73465348   400890 
 4720000   0.55651034   -2.2091682   -2.2091682   -1.4733493   0.03753161   -2.2091682   0.73581886   400836 
 4730000   0.55478771   -2.2075327   -2.2075327   -1.4738927  0.028670369   -2.2075327   0.73364003   400782 
 4740000   0.55452993   -2.2091037   -2.2091037   -1.4757057  0.031238227   -2.2091037   0.73339797   400728 
 4750000   0.55606838   -2.2114913   -2.2114913   -1.4759595   0.02985761   -2.2114913   0.73553178   400674 
 4760000   0.55428579   -2.2094273   -2.2094273   -1.4761546  0.026197073   -2.2094273    0.7332727   400620 
 4770000   0.55293103   -2.2064999   -2.2064999   -1.4749208  0.033894042   -2.2064999   0.73157908   400566 
 4780000   0.55430194   -2.2078827   -2.2078827   -1.4743909  0.036119103   -2.2078827   0.73349181   400512 
 4790000   0.55363222   -2.2080492   -2.2080492   -1.4753448  0.023633378   -2.2080492   0.73270437   400458 
 4800000   0.55359986   -2.2080345   -2.2080345   -1.4752741  0.030414978   -2.2080345   0.73276034   400404 
 4810000   0.55304908   -2.2066448   -2.2066448   -1.4745129  0.023922625   -2.2066448   0.73213189   400349 
 4820000   0.55453457   -2.2063701   -2.2063701   -1.4721726    0.0357086   -2.2063701   0.73419743   400295 
 4830000   0.55324881   -2.2051021   -2.2051021   -1.4725082  0.031350918   -2.2051021   0.73259392   400241 
 4840000    0.5539167   -2.2066617   -2.2066617   -1.4730845   0.02856236   -2.2066617   0.73357729   400187 
 4850000   0.55282689    -2.206084    -2.206084   -1.4738512  0.027397555    -2.206084   0.73223282   400133 
 4860000   0.55392145   -2.2067979   -2.2067979   -1.4730163  0.029879047   -2.2067979   0.73378162   400079 
 4870000    0.5523401   -2.2055223   -2.2055223   -1.4737367  0.035756862   -2.2055223   0.73178556   400025 
 4880000   0.55408015   -2.2063507   -2.2063507   -1.4721607  0.035435346   -2.2063507   0.73419003   399971 
 4890000   0.55399505   -2.2062925   -2.2062925   -1.4721161  0.030066445   -2.2062925    0.7341764   399917 
 4900000   0.55452176   -2.2063657   -2.2063657   -1.4713921  0.035755235   -2.2063657   0.73497365   399863 
 4910000   0.55291826   -2.2046921   -2.2046921   -1.4717448  0.032791491   -2.2046921   0.73294732   399809 
 4920000   0.55520548   -2.2059774   -2.2059774   -1.4698987  0.026523616   -2.2059774   0.73607868   399755 
 4930000   0.55376057   -2.2052243   -2.2052243    -1.470962  0.027739357   -2.2052243   0.73426224   399701 
 4940000    0.5527324    -2.203295    -2.203295   -1.4702971   0.03572481    -2.203295   0.73299796   399647 
 4950000   0.55325278    -2.206165    -2.206165   -1.4723778  0.032061268    -2.206165    0.7337872   399593 
 4960000   0.55299158    -2.205939    -2.205939   -1.4723991  0.031711295    -2.205939   0.73353989   399539 
 4970000   0.55178743    -2.203715    -2.203715   -1.4716735  0.024292026    -2.203715   0.73204154   399485 
 4980000   0.55222292   -2.2056911   -2.2056911   -1.4729728   0.03343226   -2.2056911   0.73271833   399431 
 4990000    0.5513936   -2.2046006   -2.2046006   -1.4728837  0.020572126   -2.2046006   0.73171687   399377 
 5000000   0.55330437   -2.2060927   -2.2060927    -1.471739  0.029248183   -2.2060927   0.73435366   399322 
 5010000   0.55319714   -2.2064331   -2.2064331   -1.4721224  0.032785416   -2.2064331   0.73431064   399268 
 5020000   0.55089982   -2.2039862   -2.2039862   -1.4726261  0.033821619   -2.2039862    0.7313601   399214 
 5030000   0.55237197    -2.205562    -2.205562   -1.4721483  0.029811524    -2.205562   0.73341369   399160 
 5040000   0.55203635    -2.205186    -2.205186   -1.4721187  0.033684677    -2.205186   0.73306725   399106 
 5050000   0.55294322   -2.2062891   -2.2062891   -1.4719182   0.02921127   -2.2062891   0.73437087   399052 
 5060000   0.55138516    -2.202394    -2.202394   -1.4699933  0.027823205    -2.202394    0.7324007   398998 
 5070000   0.55181254   -2.2058855   -2.2058855   -1.4728179  0.033706761   -2.2058855    0.7330676   398944 
 5080000   0.55121732   -2.2065636   -2.2065636   -1.4741876   0.02605137   -2.2065636     0.732376   398890 
 5090000   0.55176784   -2.2052214   -2.2052214   -1.4720147  0.031601137   -2.2052214    0.7332067   398836 
 5100000   0.55172961   -2.2041047   -2.2041047   -1.4708495  0.030855105   -2.2041047   0.73325518   398782 
 5110000   0.55137318   -2.2029504   -2.2029504   -1.4700697  0.026562882   -2.2029504   0.73288073   398728 
 5120000   0.55210542   -2.2049809   -2.2049809   -1.4710275  0.034398727   -2.2049809   0.73395341   398674 
 5130000   0.55064916   -2.2030123   -2.2030123   -1.4708957  0.033846719   -2.2030123   0.73211667   398620 
 5140000   0.55183462   -2.2040861   -2.2040861   -1.4702939  0.025395693   -2.2040861    0.7337922   398566 
 5150000   0.55081565   -2.2029837   -2.2029837   -1.4704472  0.033655727   -2.2029837    0.7325365   398512 
 5160000   0.55087456   -2.2037055   -2.2037055   -1.4709914  0.030581648   -2.2037055   0.73271412   398458 
 5170000   0.55151352    -2.203134    -2.203134   -1.4694706   0.03786462    -2.203134   0.73366343   398404 
 5180000   0.55123568   -2.2033294   -2.2033294   -1.4699344  0.036483551   -2.2033294   0.73339507   398349 
 5190000   0.55110569   -2.2014929   -2.2014929   -1.4681714  0.040636823   -2.2014929   0.73332154   398295 
 5200000   0.55251051   -2.2031237   -2.2031237   -1.4678332   0.03180888   -2.2031237   0.73529053   398241 
 5210000   0.55027131    -2.199692    -2.199692   -1.4672821  0.031044309    -2.199692   0.73240987   398187 
 5220000   0.55028048   -2.2018432   -2.2018432   -1.4693218  0.026577771   -2.2018432   0.73252143   398133 
 5230000   0.55079174   -2.2038491   -2.2038491   -1.4705477   0.02592891   -2.2038491   0.73330146   398079 
 5240000   0.55146246   -2.2046184   -2.2046184   -1.4703244   0.03073742   -2.2046184   0.73429404   398025 
 5250000    0.5490565   -2.2008293   -2.2008293   -1.4696397  0.032507778   -2.2008293    0.7311896   397971 
 5260000   0.55103664   -2.2033153   -2.2033153   -1.4693891  0.029386396   -2.2033153   0.73392618   397917 
 5270000   0.54893763   -2.2001536   -2.2001536   -1.4689238  0.029004278   -2.2001536   0.73122975   397863 
 5280000   0.55006555   -2.2026106   -2.2026106    -1.469779    0.0369031   -2.2026106   0.73283168   397809 
 5290000    0.5500991   -2.2032618   -2.2032618   -1.4702859  0.031464341   -2.2032618   0.73297588   397755 
 5300000    0.5506823    -2.204687    -2.204687   -1.4708344  0.028589435    -2.204687   0.73385259   397701 
 5310000   0.54952294   -2.2020425   -2.2020425   -1.4696354  0.029790066   -2.2020425   0.73240704   397647 
 5320000   0.54852972   -2.2002183   -2.2002183   -1.4690357  0.027631373   -2.2002183   0.73118257   397593 
 5330000   0.54871054   -2.2022431   -2.2022431   -1.4707202   0.02813472   -2.2022431   0.73152295   397539 
 5340000   0.54982244   -2.2040065   -2.2040065   -1.4709016  0.035663334   -2.2040065   0.73310489   397485 
 5350000   0.54828178   -2.2029687   -2.2029687   -1.4718187  0.029298401   -2.2029687   0.73114998   397431 
 5360000   0.55026712    -2.205043    -2.205043   -1.4711458  0.040834574    -2.205043    0.7338972   397377 
 5370000   0.54913195   -2.2047961   -2.2047961   -1.4723115  0.031709076   -2.2047961   0.73248459   397322 
 5380000   0.54862684   -2.2034188   -2.2034188   -1.4715085  0.034037722   -2.2034188   0.73191031   397268 
 5390000   0.54988884   -2.2029095   -2.2029095   -1.4692159  0.028981974   -2.2029095   0.73369365   397214 
 5400000   0.54947025   -2.2014678   -2.2014678    -1.468233   0.02880567   -2.2014678   0.73323481   397160 
 5410000   0.54817377   -2.2018057   -2.2018057   -1.4702015  0.025487171   -2.2018057   0.73160422   397106 
 5420000   0.54926833   -2.2048964   -2.2048964   -1.4717316  0.036120929   -2.2048964   0.73316474   397052 
 5430000    0.5485218   -2.2016116   -2.2016116   -1.4693437    0.0296834   -2.2016116   0.73226786   396998 
 5440000   0.54837516    -2.201541    -2.201541   -1.4693694  0.023559733    -2.201541   0.73217169   396944 
 5450000   0.54837951   -2.2015923   -2.2015923   -1.4693152  0.032958904   -2.2015923   0.73227711   396890 
 5460000   0.54867925   -2.2009251   -2.2009251    -1.468148  0.037979112   -2.2009251   0.73277707   396836 
 5470000   0.54945328   -2.2005108   -2.2005108   -1.4666002  0.030409491   -2.2005108   0.73391067   396782 
 5480000   0.54909305    -2.201468    -2.201468   -1.4679387  0.026981313    -2.201468   0.73352935   396728 
 5490000    0.5483225   -2.2019073   -2.2019073   -1.4693076   0.02611974   -2.2019073   0.73259969   396674 
 5500000     0.547143   -2.2000116   -2.2000116   -1.4688882  0.039643199   -2.2000116   0.73112332   396620 
 5510000   0.54889745   -2.2024402   -2.2024402   -1.4688726  0.034455522   -2.2024402   0.73356758   396566 
 5520000   0.54814855    -2.201964    -2.201964   -1.4692975  0.027579142    -2.201964    0.7326665   396512 
 5530000   0.54861453   -2.2026783   -2.2026783   -1.4692891  0.028518984   -2.2026783   0.73338921   396458 
 5540000   0.54677455   -2.2016716   -2.2016716   -1.4706425  0.033144317   -2.2016716   0.73102909   396404 
 5550000   0.54683978   -2.2004869   -2.2004869   -1.4692691  0.033682408   -2.2004869   0.73121775   396349 
 5560000   0.54620218   -2.1993534   -2.1993534   -1.4688887  0.034854123   -2.1993534    0.7304647   396295 
 5570000   0.54711388    -2.203258    -2.203258   -1.4714743  0.034108084    -2.203258   0.73178368   396241 
 5580000   0.54640259   -2.2042063   -2.2042063   -1.4732744   0.03307309   -2.2042063   0.73093192   396187 
 5590000   0.54672966   -2.2031808   -2.2031808   -1.4717117  0.031912461   -2.2031808   0.73146914   396133 
 5600000     0.547255   -2.2040649   -2.2040649   -1.4717931  0.023136983   -2.2040649   0.73227182   396079 
 5610000    0.5470668   -2.2007509   -2.2007509   -1.4686311   0.03308854   -2.2007509    0.7321198   396025 
 5620000   0.54643707    -2.199929    -2.199929   -1.4685522  0.029326752    -2.199929   0.73137679   395971 
 5630000   0.54751836   -2.2022477   -2.2022477   -1.4693238   0.02846325   -2.2022477   0.73292399   395917 
 5640000   0.54719509   -2.2025699   -2.2025699   -1.4699787  0.028000225   -2.2025699   0.73259117   395863 
 5650000   0.54702636   -2.2014607   -2.2014607   -1.4689955  0.032004528   -2.2014607   0.73246519   395809 
 5660000   0.54700296   -2.2002599   -2.2002599   -1.4677262  0.030606611   -2.2002599   0.73253379   395755 
 5670000   0.54614815   -2.1996479   -2.1996479   -1.4681591  0.028096582   -2.1996479   0.73148886   395701 
 5680000   0.54711709    -2.200672    -2.200672   -1.4677854  0.032725387    -2.200672   0.73288663   395647 
 5690000   0.54652866   -2.2003627   -2.2003627   -1.4681644  0.028803477   -2.2003627   0.73219834   395593 
 5700000   0.54644935   -2.2005104   -2.2005104   -1.4683184  0.028676876   -2.2005104   0.73219204   395539 
 5710000   0.54604022   -2.1994045   -2.1994045   -1.4676607  0.031017599   -2.1994045   0.73174374   395485 
 5720000   0.54574493   -2.1998347   -2.1998347   -1.4683868  0.033843772   -2.1998347    0.7314479   395431 
 5730000   0.54598905   -2.2001259   -2.2001259   -1.4682509  0.030802832   -2.2001259   0.73187502   395377 
 5740000   0.54582247   -2.2009317   -2.2009317   -1.4691782  0.027632356   -2.2009317   0.73175352   395322 
 5750000   0.54422557   -2.1981506   -2.1981506   -1.4684382  0.028717152   -2.1981506   0.72971233   395268 
 5760000   0.54577945   -2.2001124   -2.2001124   -1.4682166  0.033436763   -2.2001124   0.73189581   395214 
 5770000   0.54599131   -2.2007489   -2.2007489    -1.468469  0.029109157   -2.2007489   0.73227996   395160 
 5780000   0.54471786   -2.2009049   -2.2009049    -1.470233  0.032252283   -2.2009049   0.73067187   395106 
 5790000   0.54471815   -2.1992323   -2.1992323   -1.4684602  0.030552353   -2.1992323   0.73077213   395052 
 5800000   0.54525337   -2.1999431   -2.1999431   -1.4683529  0.029524112   -2.1999431   0.73159016   394998 
 5810000   0.54419526    -2.198638    -2.198638   -1.4683677  0.030172655    -2.198638   0.73027028   394944 
 5820000   0.54521874   -2.2010156   -2.2010156   -1.4692718  0.036756089   -2.2010156   0.73174378   394890 
 5830000   0.54394237   -2.2007053   -2.2007053   -1.4705747  0.030143637   -2.2007053   0.73013058   394836 
 5840000   0.54498146   -2.2008011   -2.2008011   -1.4691757  0.026882103   -2.2008011   0.73162541   394782 
 5850000   0.54508358    -2.200529    -2.200529   -1.4686664  0.030535148    -2.200529   0.73186261   394728 
 5860000   0.54450824   -2.1983717   -2.1983717   -1.4671815  0.029302406   -2.1983717   0.73119016   394674 
 5870000   0.54422086   -2.1993498   -2.1993498   -1.4684455  0.034905112   -2.1993498   0.73090425   394620 
 5880000   0.54473492   -2.2003715   -2.2003715   -1.4686767  0.030766867   -2.2003715   0.73169477   394566 
 5890000   0.54435719   -2.2025957   -2.2025957   -1.4713082  0.031579082   -2.2025957   0.73128748   394512 
 5900000   0.54368438   -2.2002448   -2.2002448   -1.4697611  0.036419272   -2.2002448   0.73048362   394458 
 5910000   0.54373594   -2.1982314   -2.1982314   -1.4675784  0.024579528   -2.1982314   0.73065292   394404 
 5920000   0.54395091   -2.1999263   -2.1999263   -1.4688826  0.031006375   -2.1999263   0.73104374   394349 
 5930000   0.54418764   -2.2018131   -2.2018131    -1.470351  0.033587218   -2.2018131   0.73146206   394295 
 5940000   0.54332915   -2.2006837   -2.2006837   -1.4702756  0.025993382   -2.2006837   0.73040815   394241 
 5950000   0.54295798   -2.1980626   -2.1980626   -1.4680534  0.028781717   -2.1980626   0.73000918   394187 
 5960000   0.54356035     -2.19914     -2.19914   -1.4682208  0.032348645     -2.19914   0.73091919   394133 
 5970000   0.54361491   -2.1995022   -2.1995022   -1.4684095  0.034705663   -2.1995022   0.73109273   394079 
 5980000   0.54419529   -2.1996639   -2.1996639   -1.4676903  0.032262546   -2.1996639   0.73197357   394025 
 5990000   0.54333033   -2.1986704   -2.1986704   -1.4677601  0.031199803   -2.1986704   0.73091031   393971 
 6000000   0.54354507   -2.1994053   -2.1994053   -1.4681059  0.028792356   -2.1994053   0.73129942   393917 
 6010000   0.54323379   -2.1993259   -2.1993259   -1.4683451  0.032700092   -2.1993259   0.73098083   393863 
 6020000   0.54197175   -2.1970583   -2.1970583   -1.4676757  0.034985978   -2.1970583   0.72938262   393809 
 6030000   0.54361985   -2.1969127   -2.1969127   -1.4652118  0.032682867   -2.1969127   0.73170095   393755 
 6040000   0.54289256   -2.1955389   -2.1955389   -1.4647167  0.032959792   -2.1955389   0.73082226   393701 
 6050000   0.54325938   -2.1968738   -2.1968738   -1.4654574  0.034170883   -2.1968738   0.73141638   393647 
 6060000   0.54259539   -2.1971069   -2.1971069   -1.4664843  0.028270384   -2.1971069   0.73062264   393593 
 6070000   0.54256565   -2.1968731   -2.1968731   -1.4661903  0.025057009   -2.1968731   0.73068285   393539 
 6080000   0.54113934   -2.1943071   -2.1943071   -1.4654451  0.031763898   -2.1943071   0.72886203   393485 
 6090000   0.54190437   -2.1955244   -2.1955244   -1.4655317  0.028817604   -2.1955244   0.72999263   393431 
 6100000   0.54266099   -2.1954708   -2.1954708   -1.4643585   0.02933907   -2.1954708    0.7311122   393377 
 6110000   0.54037374   -2.1956866   -2.1956866   -1.4675541   0.03135344   -2.1956866   0.72813246   393322 
 6120000   0.54346067   -2.1972379   -2.1972379   -1.4648453  0.027708735   -2.1972379   0.73239253   393268 
 6130000   0.54262567   -2.1962278   -2.1962278   -1.4648601  0.031064175   -2.1962278   0.73136768   393214 
 6140000   0.54188631   -2.1925295   -2.1925295    -1.462058  0.030504575   -2.1925295   0.73047146   393160 
 6150000   0.54044606    -2.191543    -2.191543   -1.4629129  0.023248402    -2.191543   0.72863005   393106 
 6160000   0.54280679   -2.1959176   -2.1959176   -1.4640043  0.027835488   -2.1959176   0.73191333   393052 
 6170000   0.54206994   -2.1944316   -2.1944316   -1.4634114  0.026036053   -2.1944316   0.73102021   392998 
 6180000   0.54128382   -2.1926838   -2.1926838   -1.4626234  0.021547751   -2.1926838   0.73006038   392944 
 6190000   0.54094903   -2.1935521   -2.1935521    -1.463843  0.034502082   -2.1935521   0.72970911   392890 
 6200000   0.54066903   -2.1937825   -2.1937825   -1.4643509   0.03619907   -2.1937825   0.72943166   392836 
 6210000   0.54056285   -2.1927473   -2.1927473   -1.4633586  0.029488983   -2.1927473   0.72938867   392782 
 6220000   0.54137775   -2.1929449   -2.1929449   -1.4623563  0.026689196   -2.1929449   0.73058868   392728 
 6230000   0.54134587   -2.1941335   -2.1941335   -1.4634874  0.031404632   -2.1941335   0.73064611   392674 
 6240000   0.54157959   -2.1962337   -2.1962337   -1.4651716  0.030241047   -2.1962337    0.7310621   392620 
 6250000   0.54118372   -2.1942252   -2.1942252   -1.4635969  0.024545144   -2.1942252   0.73062821   392566 
 6260000   0.54270883   -2.1943127   -2.1943127   -1.4615247  0.038043442   -2.1943127     0.732788   392512 
 6270000   0.54010855   -2.1926391   -2.1926391   -1.4632618  0.034796892   -2.1926391   0.72937733   392458 
 6280000   0.54054343    -2.193671    -2.193671   -1.4636059  0.032101305    -2.193671   0.73006506   392404 
 6290000    0.5412218   -2.1946059   -2.1946059   -1.4635222  0.028743928   -2.1946059   0.73108375   392349 
 6300000   0.54119531   -2.1959928   -2.1959928   -1.4648442  0.030584935   -2.1959928   0.73114859   392295 
 6310000   0.54110526    -2.195028    -2.195028   -1.4639005  0.025605346    -2.195028   0.73112757   392241 
 6320000   0.53909453   -2.1930509   -2.1930509   -1.4645398  0.027650845   -2.1930509   0.72851103   392187 
 6330000   0.53986226   -2.1918091   -2.1918091   -1.4621601   0.02647321   -2.1918091   0.72964897   392133 
 6340000   0.54027507   -2.1934385   -2.1934385   -1.4631311  0.032660664   -2.1934385   0.73030747   392079 
 6350000    0.5404896   -2.1946379   -2.1946379   -1.4639398  0.035592762   -2.1946379    0.7306981   392025 
 6360000   0.53846232   -2.1937252   -2.1937252   -1.4656675  0.023636808   -2.1937252   0.72805766   391971 
 6370000    0.5405447   -2.1943751   -2.1943751   -1.4634012  0.035288072   -2.1943751   0.73097397   391917 
 6380000   0.53961828   -2.1924867   -2.1924867    -1.462665  0.028602964   -2.1924867   0.72982174   391863 
 6390000   0.54022267   -2.1935329   -2.1935329    -1.462793   0.03140083   -2.1935329   0.73073986   391809 
 6400000   0.53915845   -2.1948135   -2.1948135   -1.4654127  0.025950362   -2.1948135   0.72940085   391755 
 6410000   0.53942141   -2.1946899   -2.1946899   -1.4648327  0.030086824   -2.1946899    0.7298572   391701 
 6420000   0.53845123   -2.1952866   -2.1952866   -1.4666417  0.023784883   -2.1952866   0.72864496   391647 
 6430000   0.53943757   -2.1965711   -2.1965711   -1.4664907  0.034730785   -2.1965711   0.73008037   391593 
 6440000   0.53816028   -2.1957057   -2.1957057   -1.4672536  0.023931689   -2.1957057   0.72845212   391539 
 6450000   0.53937459   -2.1956767   -2.1956767   -1.4654802  0.029482018   -2.1956767   0.73019651   391485 
 6460000   0.53810523   -2.1938842   -2.1938842   -1.4653056  0.033624491   -2.1938842   0.72857857   391431 
 6470000   0.53907206   -2.1938801   -2.1938801   -1.4638918  0.027478881   -2.1938801   0.72998833   391377 
 6480000   0.53865669   -2.1938732   -2.1938732   -1.4643448  0.033992438   -2.1938732   0.72952838   391322 
 6490000   0.53913271   -2.1919871   -2.1919871   -1.4617133  0.034375899   -2.1919871   0.73027384   391268 
 6500000   0.53877522   -2.1923999   -2.1923999   -1.4625095  0.027191361   -2.1923999   0.72989035   391214 
 6510000   0.53924208   -2.1943017   -2.1943017   -1.4636781  0.034611163   -2.1943017   0.73062367   391160 
 6520000   0.53859963   -2.1939354   -2.1939354   -1.4640814  0.031031347   -2.1939354   0.72985396   391106 
 6530000   0.53820449   -2.1935667   -2.1935667   -1.4641475  0.030635934   -2.1935667   0.72941922   391052 
 6540000   0.53850812   -2.1921521   -2.1921521   -1.4622206  0.032012296   -2.1921521   0.72993152   390998 
 6550000   0.53825273   -2.1910444   -2.1910444   -1.4613582  0.035195711   -2.1910444   0.72968612   390944 
 6560000   0.53861182   -2.1913412   -2.1913412   -1.4610674  0.030163475   -2.1913412   0.73027379   390890 
 6570000   0.53859036   -2.1933132   -2.1933132   -1.4629676  0.034768483   -2.1933132   0.73034559   390836 
 6580000   0.53854613   -2.1947674   -2.1947674   -1.4643809  0.028053865   -2.1947674   0.73038653   390782 
 6590000   0.53874933   -2.1949233   -2.1949233   -1.4641602  0.029488695   -2.1949233   0.73076309   390728 
 6600000   0.53658292    -2.190103    -2.190103   -1.4621779  0.032398243    -2.190103   0.72792516   390674 
 6610000   0.53729882    -2.191449    -2.191449   -1.4624519  0.027294796    -2.191449   0.72899711   390620 
 6620000   0.53831378   -2.1927604   -2.1927604   -1.4622852  0.037735076   -2.1927604   0.73047518   390566 
 6630000   0.53745468   -2.1929443   -2.1929443    -1.463534  0.034304977   -2.1929443   0.72941026   390512 
 6640000   0.53769171   -2.1920034   -2.1920034   -1.4621706  0.031690402   -2.1920034   0.72983285   390458 
 6650000   0.53751976   -2.1904483   -2.1904483   -1.4607479  0.025059447   -2.1904483   0.72970039   390404 
 6660000   0.53708876   -2.1887288   -2.1887288   -1.4595108  0.027438525   -2.1887288   0.72921801   390349 
 6670000   0.53597997   -2.1891695   -2.1891695   -1.4613562  0.030476303   -2.1891695   0.72781326   390295 
 6680000   0.53650426   -2.1892712   -2.1892712   -1.4606451   0.02625405   -2.1892712   0.72862601   390241 
 6690000   0.53688284   -2.1896858   -2.1896858   -1.4604447  0.032578971   -2.1896858   0.72924108   390187 
 6700000   0.53693084   -2.1915784   -2.1915784   -1.4621712  0.027327452   -2.1915784   0.72940723   390133 
 6710000   0.53748185   -2.1927634   -2.1927634   -1.4625066  0.035413915   -2.1927634   0.73025684   390079 
 6720000   0.53821293   -2.1918481   -2.1918481   -1.4604967  0.031294655   -2.1918481   0.73135137   390025 
 6730000   0.53741259   -2.1902868   -2.1902868   -1.4599219  0.035789004   -2.1902868   0.73036495   389971 
 6740000   0.53726798   -2.1922117   -2.1922117   -1.4619422  0.040690254   -2.1922117   0.73026954   389917 
 6750000   0.53708825   -2.1935333   -2.1935333   -1.4634069  0.039756897   -2.1935333   0.73012635   389863 
 6760000   0.53544655   -2.1897418   -2.1897418   -1.4617463  0.032019412   -2.1897418   0.72799544   389809 
 6770000   0.53506772   -2.1891082   -2.1891082    -1.461527  0.034010311   -2.1891082   0.72758118   389755 
 6780000    0.5361108   -2.1893622   -2.1893622   -1.4602616  0.035544756   -2.1893622   0.72910057   389701 
 6790000   0.53774643   -2.1918183   -2.1918183   -1.4603919  0.037369152   -2.1918183   0.73142634   389647 
 6800000   0.53647972   -2.1896082   -2.1896082   -1.4598037  0.039792646   -2.1896082   0.72980454   389593 
 6810000   0.53630574   -2.1895434   -2.1895434   -1.4598743  0.033950239   -2.1895434     0.729669   389539 
 6820000   0.53623719   -2.1902366   -2.1902366   -1.4605597  0.027341778   -2.1902366   0.72967689   389485 
 6830000   0.53511002   -2.1909468   -2.1909468   -1.4627028   0.03768643   -2.1909468   0.72824407   389431 
 6840000   0.53553669   -2.1915085   -2.1915085   -1.4625827  0.032627912   -2.1915085   0.72892582   389377 
 6850000   0.53583255   -2.1906426   -2.1906426    -1.461211  0.030402715   -2.1906426   0.72943155   389322 
 6860000   0.53553531   -2.1895158   -2.1895158   -1.4603878  0.028428833   -2.1895158   0.72912805   389268 
 6870000   0.53483329   -2.1893502   -2.1893502    -1.461077   0.02985166   -2.1893502   0.72827327   389214 
 6880000   0.53469509   -2.1922865   -2.1922865   -1.4641004  0.033258297   -2.1922865   0.72818613   389160 
 6890000   0.53567923   -2.1925231   -2.1925231   -1.4628954  0.033940284   -2.1925231   0.72962764   389106 
 6900000   0.53552672   -2.1913398   -2.1913398   -1.4618187  0.026362213   -2.1913398   0.72952115   389052 
 6910000   0.53554359   -2.1924797   -2.1924797   -1.4628343  0.033291188   -2.1924797   0.72964541   388998 
 6920000   0.53348248   -2.1917564   -2.1917564   -1.4648183  0.031543931   -2.1917564   0.72693818   388944 
 6930000   0.53445846   -2.1918875   -2.1918875   -1.4635183  0.029994399   -2.1918875   0.72836921   388890 
 6940000   0.53472108   -2.1927416   -2.1927416   -1.4639133  0.033947092   -2.1927416   0.72882831   388836 
 6950000    0.5353133   -2.1937197   -2.1937197   -1.4639829   0.03415618   -2.1937197   0.72973685   388782 
 6960000   0.53428106   -2.1924084   -2.1924084   -1.4639775  0.031166679   -2.1924084   0.72843088   388728 
 6970000   0.53500729   -2.1943308   -2.1943308   -1.4648084  0.034396111   -2.1943308   0.72952235   388674 
 6980000   0.53441531   -2.1925504   -2.1925504    -1.463734  0.031443722   -2.1925504    0.7288164   388620 
 6990000   0.53503704   -2.1932382   -2.1932382   -1.4634725  0.025182857   -2.1932382    0.7297657   388566 
 7000000   0.53412446   -2.1929403   -2.1929403   -1.4643181   0.03617388   -2.1929403   0.72862225   388512 
 7010000   0.53446226   -2.1935514   -2.1935514    -1.464367  0.034634667   -2.1935514   0.72918441   388458 
 7020000    0.5337688   -2.1934349   -2.1934349   -1.4650953  0.033601295   -2.1934349   0.72833954   388404 
 7030000   0.53416961   -2.1938144   -2.1938144   -1.4648248  0.035604669   -2.1938144   0.72898968   388349 
 7040000   0.53409356   -2.1926872   -2.1926872      -1.4637  0.027138603   -2.1926872   0.72898726   388295 
 7050000   0.53378671   -2.1920377   -2.1920377   -1.4633679  0.041020458   -2.1920377   0.72866978   388241 
 7060000   0.53243434   -2.1904211   -2.1904211   -1.4634963  0.035840386   -2.1904211   0.72692477   388187 
 7070000   0.53358972    -2.193677    -2.193677   -1.4650735  0.027953159    -2.193677   0.72860355   388133 
 7080000   0.53257606   -2.1913345   -2.1913345   -1.4640139  0.036026898   -2.1913345   0.72732061   388079 
 7090000   0.53355505   -2.1915149   -2.1915149    -1.462756  0.032832816   -2.1915149   0.72875899   388025 
 7100000   0.53324126   -2.1918042   -2.1918042   -1.4633724  0.035842213   -2.1918042   0.72843177   387971 
 7110000   0.53201103   -2.1885318   -2.1885318   -1.4616794  0.039952051   -2.1885318   0.72685239   387917 
 7120000   0.53318159    -2.190514    -2.190514   -1.4619609    0.0351899    -2.190514   0.72855307   387863 
 7130000   0.53482479   -2.1932202   -2.1932202   -1.4623201  0.026481438   -2.1932202   0.73090014   387809 
 7140000    0.5330921    -2.192778    -2.192778   -1.4641443   0.02788365    -2.192778   0.72863367   387755 
 7150000   0.53281177   -2.1916255   -2.1916255   -1.4632736  0.040651646   -2.1916255   0.72835195   387701 
 7160000   0.53333178   -2.1909307   -2.1909307   -1.4617663  0.025332878   -2.1909307   0.72916436   387647 
 7170000    0.5325664   -2.1898634   -2.1898634    -1.461644  0.027620025   -2.1898634   0.72821939   387593 
 7180000   0.53258659     -2.18963     -2.18963   -1.4612816  0.028693201     -2.18963   0.72834846   387539 
 7190000   0.53271081   -2.1882668   -2.1882668   -1.4596469  0.033714685   -2.1882668   0.72861987   387485 
 7200000   0.53276337   -2.1875856   -2.1875856   -1.4587923  0.030779005   -2.1875856   0.72879333   387431 
 7210000   0.53304987   -2.1876308   -2.1876308   -1.4583439  0.030180449   -2.1876308   0.72928689   387377 
 7220000   0.53271841   -2.1886537   -2.1886537   -1.4597168  0.027281395   -2.1886537    0.7289369   387322 
 7230000   0.53139483   -2.1885989   -2.1885989   -1.4613717  0.033434807   -2.1885989    0.7272272   387268 
 7240000   0.53145712   -2.1886364   -2.1886364   -1.4612225  0.034894333   -2.1886364   0.72741386   387214 
 7250000     0.531536   -2.1880007   -2.1880007   -1.4603774  0.030934213   -2.1880007    0.7276233   387160 
 7260000   0.53301263    -2.189011    -2.189011   -1.4592645  0.029846766    -2.189011   0.72974646   387106 
 7270000   0.53077084   -2.1856747   -2.1856747   -1.4588961   0.02733095   -2.1856747   0.72677861   387052 
 7280000   0.53209374   -2.1888059   -2.1888059   -1.4601142  0.031044233   -2.1888059    0.7286917   386998 
 7290000   0.53201045   -2.1898591   -2.1898591   -1.4611798  0.028857476   -2.1898591   0.72867932   386944 
 7300000   0.53263911   -2.1903067   -2.1903067   -1.4606645  0.032980732   -2.1903067    0.7296422   386890 
 7310000   0.53105982   -2.1891334   -2.1891334   -1.4615531  0.026819181   -2.1891334   0.72758034   386836 
 7320000   0.53158967   -2.1906719   -2.1906719    -1.462264  0.026093474   -2.1906719   0.72840795   386782 
 7330000   0.53101088   -2.1894025   -2.1894025    -1.461686  0.028822469   -2.1894025   0.72771647   386728 
 7340000   0.53057318   -2.1900979   -2.1900979   -1.4628797  0.024537149   -2.1900979   0.72721816   386674 
 7350000    0.5316651   -2.1895499   -2.1895499   -1.4607334  0.033487457   -2.1895499   0.72881657   386620 
 7360000   0.53214207   -2.1891501   -2.1891501   -1.4595778    0.0326028   -2.1891501    0.7295723   386566 
 7370000   0.53218011    -2.190811    -2.190811   -1.4610846  0.035834244    -2.190811   0.72972639   386512 
 7380000   0.52939734    -2.188255    -2.188255   -1.4622429  0.028788959    -2.188255   0.72601209   386458 
 7390000   0.53148251   -2.1888131   -2.1888131   -1.4598396  0.032225229   -2.1888131   0.72897353   386404 
 7400000   0.53106414   -2.1879151   -2.1879151   -1.4594117  0.029164691   -2.1879151    0.7285034   386349 
 7410000    0.5305769   -2.1875978   -2.1875978   -1.4596611  0.032589481   -2.1875978   0.72793676   386295 
 7420000   0.53035126   -2.1882624   -2.1882624   -1.4605335  0.029993961   -2.1882624   0.72772891   386241 
 7430000   0.52935936   -2.1878494   -2.1878494   -1.4613799  0.029673623   -2.1878494   0.72646943   386187 
 7440000   0.53090281   -2.1867656   -2.1867656   -1.4580762  0.032851144   -2.1867656   0.72868948   386133 
 7450000   0.53161144    -2.188077    -2.188077   -1.4583128  0.026235651    -2.188077   0.72976416   386079 
 7460000    0.5299476     -2.18661     -2.18661   -1.4590281  0.024285756     -2.18661   0.72758191   386025 
 7470000   0.53017865   -2.1875385   -2.1875385   -1.4595375  0.036213981   -2.1875385   0.72800096   385971 
 7480000   0.53021111   -2.1878098   -2.1878098   -1.4596624  0.030452189   -2.1878098   0.72814741   385917 
 7490000   0.52973523   -2.1877055   -2.1877055   -1.4601098  0.030731381   -2.1877055   0.72759569   385863 
 7500000   0.52943863   -2.1874314   -2.1874314   -1.4601413  0.024098318   -2.1874314   0.72729009   385809 
 7510000   0.52932348   -2.1853557   -2.1853557    -1.458122  0.027321955   -2.1853557    0.7272337   385755 
 7520000   0.52975043   -2.1861055   -2.1861055   -1.4581833  0.036075899   -2.1861055   0.72792218   385701 
 7530000   0.52932439   -2.1854509   -2.1854509   -1.4580123   0.02502284   -2.1854509   0.72743861   385647 
 7540000   0.52925268    -2.186057    -2.186057   -1.4586151  0.032641813    -2.186057   0.72744192   385593 
 7550000    0.5287458   -2.1856412   -2.1856412   -1.4587941  0.033011714   -2.1856412   0.72684702   385539 
 7560000   0.52900153   -2.1855746   -2.1855746   -1.4582742  0.024632371   -2.1855746   0.72730042   385485 
 7570000   0.52844879   -2.1855897   -2.1855897   -1.4589474  0.032508502   -2.1855897   0.72664228   385431 
 7580000   0.53106568   -2.1880417   -2.1880417   -1.4576988  0.029030841   -2.1880417   0.73034295   385377 
 7590000   0.52905731   -2.1853675   -2.1853675   -1.4576827  0.033113094   -2.1853675   0.72768481   385322 
 7600000   0.52851843   -2.1849965   -2.1849965    -1.457951  0.023699248   -2.1849965    0.7270455   385268 
 7610000   0.52919691   -2.1861388   -2.1861388   -1.4580579  0.030992933   -2.1861388   0.72808089   385214 
 7620000   0.52890337   -2.1866024   -2.1866024   -1.4588234  0.036688114   -2.1866024   0.72777906   385160 
 7630000   0.52763593   -2.1858003   -2.1858003   -1.4596634  0.026270279   -2.1858003   0.72613685   385106 
 7640000   0.52817804   -2.1866748   -2.1866748     -1.45969    0.0354347   -2.1866748   0.72698484   385052 
 7650000    0.5291206   -2.1879807   -2.1879807   -1.4595964  0.029844968   -2.1879807   0.72838433   384998 
 7660000   0.52867851     -2.18494     -2.18494   -1.4570622  0.030451031     -2.18494   0.72787785   384944 
 7670000   0.52790064   -2.1840239   -2.1840239    -1.457115  0.027165939   -2.1840239   0.72690885   384890 
 7680000   0.52814609   -2.1859177   -2.1859177   -1.4585689  0.031565089   -2.1859177   0.72734889   384836 
 7690000   0.52739194   -2.1858888   -2.1858888   -1.4594766  0.029149168   -2.1858888   0.72641222   384782 
 7700000   0.52865233   -2.1862297   -2.1862297   -1.4579792  0.030554284   -2.1862297   0.72825044   384728 
 7710000   0.52673868   -2.1843637   -2.1843637   -1.4586476  0.034464907   -2.1843637   0.72571613   384674 
 7720000   0.52789661   -2.1859994   -2.1859994   -1.4585858  0.032012706   -2.1859994   0.72741359   384620 
 7730000   0.52682688   -2.1863736   -2.1863736   -1.4603321  0.038602176   -2.1863736   0.72604149   384566 
 7740000    0.5281732   -2.1875542   -2.1875542   -1.4595551  0.034758763   -2.1875542   0.72799913   384512 
 7750000   0.52726889   -2.1865563   -2.1865563   -1.4597015  0.033052452   -2.1865563   0.72685477   384458 
 7760000   0.52551969   -2.1845615   -2.1845615   -1.4600163  0.027138085   -2.1845615   0.72454521   384404 
 7770000   0.52828844   -2.1850073   -2.1850073   -1.4565406  0.028740862   -2.1850073   0.72846678   384349 
 7780000   0.52727285   -2.1850424   -2.1850424   -1.4578739  0.032578582   -2.1850424   0.72716853   384295 
 7790000   0.52712568   -2.1872718   -2.1872718   -1.4602041  0.029793392   -2.1872718   0.72706773   384241 
 7800000   0.52567476    -2.185438    -2.185438   -1.4602696  0.026940599    -2.185438   0.72516838   384187 
 7810000   0.52650577   -2.1868852   -2.1868852   -1.4604683  0.028995409   -2.1868852   0.72641686   384133 
 7820000   0.52778782   -2.1885738   -2.1885738   -1.4602857  0.028416836   -2.1885738   0.72828807   384079 
 7830000    0.5268015    -2.189632    -2.189632   -1.4626028  0.040501996    -2.189632   0.72702928   384025 
 7840000   0.52630378   -2.1896188   -2.1896188   -1.4631743   0.03236152   -2.1896188   0.72644453   383971 
 7850000   0.52641167   -2.1884136   -2.1884136    -1.461718  0.024831861   -2.1884136   0.72669565   383917 
 7860000   0.52685751   -2.1859694   -2.1859694   -1.4585559  0.030489897   -2.1859694   0.72741344   383863 
 7870000   0.52653104   -2.1843857   -2.1843857   -1.4573208  0.031289603   -2.1843857   0.72706497   383809 
 7880000   0.52546413   -2.1856092   -2.1856092   -1.4599154  0.022257869   -2.1856092   0.72569382   383755 
 7890000   0.52678253   -2.1874683   -2.1874683   -1.4598514  0.034804483   -2.1874683   0.72761699   383701 
 7900000   0.52525975   -2.1852369   -2.1852369   -1.4596212   0.02978369   -2.1852369   0.72561577   383647 
 7910000   0.52522258   -2.1860629   -2.1860629   -1.4603964  0.029792113   -2.1860629   0.72566656   383593 
 7920000   0.52585822   -2.1881505   -2.1881505   -1.4615034   0.03233779   -2.1881505   0.72664708   383539 
 7930000   0.52569642   -2.1877846   -2.1877846   -1.4612588  0.029805863   -2.1877846   0.72652579   383485 
 7940000   0.52606849   -2.1876217   -2.1876217   -1.4604793  0.027621654   -2.1876217   0.72714239   383431 
 7950000   0.52628653   -2.1872945   -2.1872945   -1.4597482  0.031597757   -2.1872945   0.72754623   383377 
 7960000   0.52601228   -2.1861293   -2.1861293   -1.4588579  0.029613125   -2.1861293   0.72727144   383322 
 7970000   0.52565227   -2.1877681   -2.1877681   -1.4608921  0.026426881   -2.1877681   0.72687608   383268 
 7980000   0.52516654    -2.189872    -2.189872   -1.4635653  0.035255227    -2.189872   0.72630674   383214 
 7990000   0.52419635   -2.1875058   -2.1875058   -1.4624386  0.028865554   -2.1875058   0.72506714   383160 
 8000000   0.52464799   -2.1867343   -2.1867343   -1.4609402  0.033088166   -2.1867343   0.72579414   383106 
 8010000   0.52481289   -2.1879884   -2.1879884   -1.4618638  0.029942169   -2.1879884   0.72612462   383052 
 8020000   0.52462042   -2.1878238   -2.1878238   -1.4618631   0.03035645   -2.1878238   0.72596066   382998 
 8030000   0.52423339   -2.1849497   -2.1849497   -1.4594223  0.036741066   -2.1849497   0.72552739   382944 
 8040000   0.52386123   -2.1839484   -2.1839484   -1.4588338  0.029752408   -2.1839484   0.72511457   382890 
 8050000   0.52446667    -2.184411    -2.184411    -1.458356  0.026652098    -2.184411   0.72605501   382836 
 8060000   0.52439024   -2.1849318   -2.1849318   -1.4588802  0.026008549   -2.1849318   0.72605161   382782 
 8070000   0.52415691   -2.1842446   -2.1842446   -1.4584136  0.035691157   -2.1842446   0.72583094   382728 
 8080000   0.52360788   -2.1851253   -2.1851253   -1.4599523  0.024960397   -2.1851253   0.72517298   382674 
 8090000   0.52355999   -2.1862076   -2.1862076   -1.4609986  0.023683714   -2.1862076     0.725209   382620 
 8100000    0.5229807   -2.1849779   -2.1849779   -1.4604691   0.03042151   -2.1849779   0.72450884   382566 
 8110000   0.52416843   -2.1856677   -2.1856677   -1.4594109  0.028233351   -2.1856677   0.72625676   382512 
 8120000   0.52422598   -2.1851674   -2.1851674   -1.4587284  0.031552409   -2.1851674   0.72643906   382458 
 8130000   0.52334248   -2.1840243   -2.1840243   -1.4587071   0.03510624   -2.1840243   0.72531717   382404 
 8140000   0.52276543    -2.181448    -2.181448   -1.4568264  0.032451585    -2.181448   0.72462165   382349 
 8150000   0.52339745   -2.1815327   -2.1815327   -1.4559326  0.032709394   -2.1815327   0.72560018   382295 
 8160000   0.52396129   -2.1839867   -2.1839867   -1.4575022  0.024907317   -2.1839867   0.72648446   382241 
 8170000   0.52375753   -2.1819535   -2.1819535    -1.455649  0.031167293   -2.1819535   0.72630456   382187 
 8180000   0.52180422   -2.1790875   -2.1790875   -1.4553894  0.024759606   -2.1790875   0.72369812   382133 
 8190000   0.52374473    -2.181412    -2.181412   -1.4549199  0.031988459    -2.181412    0.7264921   382079 
 8200000   0.52283035   -2.1795489   -2.1795489   -1.4542227  0.032984306   -2.1795489   0.72532626   382025 
 8210000   0.52356293   -2.1794978   -2.1794978   -1.4530525  0.036674626   -2.1794978   0.72644526   381971 
 8220000    0.5230007   -2.1786025   -2.1786025   -1.4528347  0.029536905   -2.1786025   0.72576777   381917 
 8230000   0.52227741   -2.1785437   -2.1785437   -1.4536772  0.026666719   -2.1785437   0.72486656   381863 
 8240000   0.52377009   -2.1794154   -2.1794154   -1.4523743  0.034511477   -2.1794154   0.72704105   381809 
 8250000    0.5232352   -2.1793472   -2.1793472   -1.4529459  0.032848928   -2.1793472   0.72640131   381755 
 8260000   0.52288938   -2.1814306   -2.1814306   -1.4554067  0.031177414   -2.1814306   0.72602391   381701 
 8270000   0.52351933   -2.1828369   -2.1828369   -1.4558355   0.02691115   -2.1828369   0.72700144   381647 
 8280000   0.52252816   -2.1800987   -2.1800987    -1.454371  0.033672682   -2.1800987   0.72572769   381593 
 8290000   0.52182883   -2.1797358   -2.1797358   -1.4548768  0.032906819   -2.1797358   0.72485899   381539 
 8300000   0.52273839   -2.1834887   -2.1834887   -1.4572634  0.030288161   -2.1834887   0.72622522   381485 
 8310000   0.52353176   -2.1847081   -2.1847081   -1.4572777  0.028391663   -2.1847081    0.7274304   381431 
 8320000   0.52138753   -2.1835465   -2.1835465   -1.4589929  0.030896537   -2.1835465   0.72455363   381377 
 8330000   0.52163419   -2.1831164   -2.1831164   -1.4581155  0.027659455   -2.1831164   0.72500097   381322 
 8340000   0.52232331   -2.1834078   -2.1834078   -1.4573462  0.030281681   -2.1834078   0.72606157   381268 
 8350000   0.52187638   -2.1820786   -2.1820786   -1.4565355  0.030312265   -2.1820786   0.72554306   381214 
 8360000   0.52153783   -2.1819556   -2.1819556   -1.4567805  0.033897543   -2.1819556   0.72517511   381160 
 8370000   0.52046433   -2.1831435   -2.1831435   -1.4593585  0.029024846   -2.1831435   0.72378501   381106 
 8380000   0.52067241    -2.182801    -2.182801   -1.4586241  0.034659129    -2.182801   0.72417699   381052 
 8390000   0.52042738   -2.1821336   -2.1821336   -1.4581948  0.032983885   -2.1821336   0.72393878   380998 
 8400000   0.52043697   -2.1836242   -2.1836242   -1.4595695  0.029976071   -2.1836242   0.72405474   380944 
 8410000   0.52074677   -2.1851211   -2.1851211   -1.4605326  0.027646447   -2.1851211   0.72458846   380890 
 8420000   0.52079057   -2.1822382   -2.1822382   -1.4574861  0.026675977   -2.1822382   0.72475215   380836 
 8430000   0.52037555   -2.1808881   -2.1808881   -1.4566108  0.026519712   -2.1808881    0.7242773   380782 
 8440000   0.52087455   -2.1814216   -2.1814216   -1.4563469  0.031108693   -2.1814216   0.72507465   380728 
 8450000   0.51989842   -2.1816553   -2.1816553   -1.4578368  0.033260554   -2.1816553    0.7238185   380674 
 8460000   0.52137469   -2.1820149   -2.1820149   -1.4560381  0.033715528   -2.1820149   0.72597679   380620 
 8470000   0.52038859    -2.181054    -2.181054   -1.4563475  0.033278372    -2.181054   0.72470653   380566 
 8480000   0.52082386   -2.1824172   -2.1824172   -1.4570016  0.030906177   -2.1824172   0.72541563   380512 
 8490000   0.52108976    -2.181439    -2.181439     -1.45555  0.032508088    -2.181439     0.725889   380458 
 8500000   0.52118234   -2.1822087   -2.1822087   -1.4560877  0.030177246   -2.1822087   0.72612103   380404 
 8510000   0.52128224   -2.1814852   -2.1814852     -1.45512  0.028918964   -2.1814852   0.72636523   380349 
 8520000   0.52032633   -2.1792048   -2.1792048   -1.4540686   0.02971169   -2.1792048    0.7251362   380295 
 8530000   0.51960305   -2.1780649   -2.1780649   -1.4538339   0.03525404   -2.1780649   0.72423106   380241 
 8540000   0.52120284   -2.1801095   -2.1801095   -1.4535454  0.033910496   -2.1801095   0.72656406   380187 
 8550000     0.521118   -2.1790238   -2.1790238   -1.4524748  0.028304057   -2.1790238   0.72654899   380133 
 8560000   0.51980425   -2.1770982   -2.1770982   -1.4522779  0.031783152   -2.1770982    0.7248203   380079 
 8570000   0.51930767   -2.1778759   -2.1778759   -1.4536451  0.034981912   -2.1778759   0.72423077   380025 
 8580000   0.51981177   -2.1795374   -2.1795374   -1.4545006  0.033082545   -2.1795374   0.72503681   379971 
 8590000   0.51968736   -2.1798772   -2.1798772   -1.4549109  0.027023567   -2.1798772   0.72496631   379917 
 8600000   0.52123114   -2.1801574   -2.1801574   -1.4529341  0.027186022   -2.1801574   0.72722326   379863 
 8610000   0.51937642   -2.1760362   -2.1760362   -1.4512976   0.03041987   -2.1760362   0.72473857   379809 
 8620000   0.52051495    -2.178243    -2.178243   -1.4518124  0.032311005    -2.178243   0.72643056   379755 
 8630000    0.5194288   -2.1758054   -2.1758054   -1.4507876  0.027080113   -2.1758054   0.72501782   379701 
 8640000   0.51928141   -2.1741895   -2.1741895   -1.4492743  0.034371362   -2.1741895    0.7249152   379647 
 8650000   0.52119621   -2.1772702   -2.1772702   -1.4495784  0.032073574   -2.1772702   0.72769175   379593 
 8660000   0.51947799   -2.1784644   -2.1784644   -1.4530685  0.036071534   -2.1784644   0.72539597   379539 
 8670000   0.51847156   -2.1771198   -2.1771198   -1.4530262  0.032413234   -2.1771198   0.72409362   379485 
 8680000   0.51855265   -2.1759947   -2.1759947   -1.4516848  0.036794646   -2.1759947   0.72430994   379431 
 8690000    0.5212208   -2.1787129   -2.1787129   -1.4505724  0.030041764   -2.1787129   0.72814042   379377 
 8700000   0.51816678   -2.1737872   -2.1737872   -1.4498082  0.023998912   -2.1737872   0.72397893   379322 
 8710000    0.5179115   -2.1755586   -2.1755586   -1.4518333  0.035107839   -2.1755586   0.72372529   379268 
 8720000   0.51958865   -2.1775207   -2.1775207   -1.4513484  0.032352168   -2.1775207   0.72617231   379214 
 8730000   0.51868937   -2.1765167   -2.1765167    -1.451498  0.033002209   -2.1765167   0.72501874   379160 
 8740000   0.51907608   -2.1761878   -2.1761878   -1.4505252  0.035426678   -2.1761878   0.72566262   379106 
 8750000   0.51989132   -2.1759375   -2.1759375   -1.4490317  0.027718845   -2.1759375   0.72690586   379052 
 8760000   0.51743329    -2.174077    -2.174077   -1.4505049  0.027445153    -2.174077   0.72357215   378998 
 8770000   0.52017356   -2.1792381   -2.1792381   -1.4517303  0.027622488   -2.1792381   0.72750777   378944 
 8780000   0.51875933   -2.1766843   -2.1766843    -1.451051  0.029198386   -2.1766843   0.72563326   378890 
 8790000   0.51753275   -2.1753141   -2.1753141   -1.4512934  0.030264327   -2.1753141   0.72402072   378836 
 8800000   0.51920529   -2.1757911   -2.1757911   -1.4493269  0.032399438   -2.1757911   0.72646413   378782 
 8810000   0.51808181   -2.1755635   -2.1755635   -1.4505679  0.030078129   -2.1755635   0.72499553   378728 
 8820000   0.51813887   -2.1766063   -2.1766063   -1.4514275  0.032209749   -2.1766063   0.72517877   378674 
 8830000   0.51839171   -2.1777095   -2.1777095   -1.4520734  0.027146652   -2.1777095   0.72563612   378620 
 8840000   0.51829145   -2.1770218   -2.1770218   -1.4514226  0.026969437   -2.1770218   0.72559926   378566 
 8850000   0.51742938   -2.1762735   -2.1762735   -1.4517778  0.032602272   -2.1762735   0.72449573   378512 
 8860000   0.51731176   -2.1746475   -2.1746475   -1.4502131  0.033464865   -2.1746475   0.72443439   378458 
 8870000    0.5160205   -2.1731949   -2.1731949   -1.4504656  0.027054817   -2.1731949   0.72272925   378404 
 8880000   0.51694333   -2.1751387   -2.1751387   -1.4510117  0.031415124   -2.1751387     0.724127   378349 
 8890000    0.5173122   -2.1759482   -2.1759482   -1.4512011  0.029196632   -2.1759482   0.72474715   378295 
 8900000   0.51854641   -2.1751249   -2.1751249   -1.4485449  0.029584763   -2.1751249   0.72657998   378241 
 8910000   0.51773233   -2.1737936   -2.1737936   -1.4482507  0.034793261   -2.1737936   0.72554289   378187 
 8920000   0.51719308   -2.1732471   -2.1732471   -1.4483564  0.029954077   -2.1732471   0.72489069   378133 
 8930000   0.51703458    -2.172591    -2.172591    -1.447819  0.035541019    -2.172591   0.72477204   378079 
 8940000   0.51715254   -2.1731963   -2.1731963   -1.4481553  0.027228843   -2.1731963   0.72504096   378025 
 8950000   0.51662086   -2.1735566   -2.1735566   -1.4491575   0.03708634   -2.1735566   0.72439902   377971 
 8960000   0.51632061   -2.1746388   -2.1746388   -1.4505574  0.022786486   -2.1746388   0.72408147   377917 
 8970000   0.51603128   -2.1752876   -2.1752876   -1.4515084  0.035595359   -2.1752876   0.72377913   377863 
 8980000   0.51626622   -2.1759167   -2.1759167   -1.4517046  0.032996404   -2.1759167   0.72421215   377809 
 8990000   0.51484408   -2.1731961   -2.1731961   -1.4508757  0.029220472   -2.1731961   0.72232042   377755 
 9000000   0.51639094   -2.1745588   -2.1745588   -1.4499646  0.037861458   -2.1745588   0.72459424   377701 
 9010000    0.5156736   -2.1736981   -2.1736981    -1.450007  0.031755762   -2.1736981   0.72369114   377647 
 9020000   0.51605871    -2.173025    -2.173025   -1.4486898  0.032834258    -2.173025   0.72433518   377593 
 9030000   0.51583395   -2.1748258   -2.1748258   -1.4507025  0.023608609   -2.1748258   0.72412327   377539 
 9040000   0.51562086   -2.1732185   -2.1732185   -1.4492908  0.030075758   -2.1732185   0.72392768   377485 
 9050000   0.51664485   -2.1755742   -2.1755742    -1.450105  0.034763312   -2.1755742   0.72546913   377431 
 9060000   0.51612399    -2.174644    -2.174644   -1.4498026  0.032108449    -2.174644   0.72484145   377377 
 9070000   0.51568787   -2.1732541   -2.1732541   -1.4489196  0.031168182   -2.1732541   0.72433452   377322 
 9080000   0.51434741   -2.1717195   -2.1717195   -1.4491644  0.031191174   -2.1717195   0.72255513   377268 
 9090000   0.51486136   -2.1723243   -2.1723243   -1.4489436   0.03203313   -2.1723243   0.72338066   377214 
 9100000   0.51429928   -2.1731672   -2.1731672   -1.4504728  0.030151408   -2.1731672    0.7226944   377160 
 9110000    0.5159642   -2.1742451   -2.1742451   -1.4491073  0.033701072   -2.1742451   0.72513777   377106 
 9120000   0.51439947   -2.1718838   -2.1718838   -1.4488415  0.027756256   -2.1718838   0.72304222   377052 
 9130000   0.51543748   -2.1734524   -2.1734524   -1.4488473  0.026390522   -2.1734524   0.72460503   376998 
 9140000   0.51489599   -2.1719993   -2.1719993   -1.4480518  0.025984892   -2.1719993   0.72394749   376944 
 9150000   0.51579516   -2.1743411   -2.1743411   -1.4490254  0.034383286   -2.1743411   0.72531565   376890 
 9160000   0.51638826   -2.1749583   -2.1749583   -1.4487046  0.028141782   -2.1749583   0.72625373   376836 
 9170000   0.51398865   -2.1729878   -2.1729878   -1.4500053   0.03084114   -2.1729878   0.72298249   376782 
 9180000   0.51519751   -2.1734503   -2.1734503   -1.4486635  0.030462421   -2.1734503   0.72478676   376728 
 9190000   0.51542103   -2.1734161   -2.1734161    -1.448211  0.027809124   -2.1734161   0.72520516   376674 
 9200000   0.51432794    -2.170116    -2.170116   -1.4463451  0.026795308    -2.170116   0.72377093   376620 
 9210000   0.51368857     -2.16861     -2.16861   -1.4456352  0.029938768     -2.16861   0.72297486   376566 
 9220000   0.51271059    -2.169096    -2.169096   -1.4473941  0.033656571    -2.169096   0.72170192   376512 
 9230000   0.51426204   -2.1720609   -2.1720609   -1.4480713  0.033356574   -2.1720609   0.72398961   376458 
 9240000    0.5140302   -2.1708941   -2.1708941    -1.447127  0.029569479   -2.1708941   0.72376704   376404 
 9250000   0.51501417   -2.1714703   -2.1714703   -1.4462118  0.036750616   -2.1714703   0.72525846   376349 
 9260000   0.51336087   -2.1716815   -2.1716815   -1.4486475  0.028182115   -2.1716815   0.72303399   376295 
 9270000   0.51389524   -2.1723312   -2.1723312   -1.4484407  0.034431802   -2.1723312   0.72389049   376241 
 9280000   0.51360353   -2.1715547   -2.1715547   -1.4479713  0.033083991   -2.1715547   0.72358344   376187 
 9290000    0.5142179   -2.1703347   -2.1703347   -1.4457817   0.03108466   -2.1703347   0.72455298   376133 
 9300000   0.51275368    -2.170426    -2.170426   -1.4478324  0.032151295    -2.170426   0.72259358   376079 
 9310000   0.51439485   -2.1712005   -2.1712005   -1.4461901   0.02932413   -2.1712005   0.72501048   376025 
 9320000   0.51357572   -2.1703871   -2.1703871   -1.4464271  0.027549394   -2.1703871   0.72395994   375971 
 9330000   0.51324135   -2.1688197   -2.1688197   -1.4452271  0.033101932   -2.1688197   0.72359253   375917 
 9340000   0.51404987   -2.1712699   -2.1712699   -1.4464334  0.036604858   -2.1712699   0.72483654   375863 
 9350000    0.5134286   -2.1714596   -2.1714596    -1.447395   0.03668877   -2.1714596   0.72406455   375809 
 9360000   0.51397288   -2.1701286   -2.1701286   -1.4451923  0.034759809   -2.1701286   0.72493627   375755 
 9370000    0.5142406   -2.1710938   -2.1710938   -1.4456757  0.034511623   -2.1710938   0.72541814   375701 
 9380000   0.51268222   -2.1701553   -2.1701553   -1.4468316   0.03247857   -2.1701553   0.72332376   375647 
 9390000   0.51289918   -2.1708804   -2.1708804   -1.4471465  0.023107118   -2.1708804   0.72373389   375593 
 9400000   0.51373235   -2.1706435   -2.1706435   -1.4456297  0.027936927   -2.1706435   0.72501379   375539 
 9410000   0.51370933    -2.170246    -2.170246   -1.4451605  0.033360898    -2.170246   0.72508556   375485 
 9420000   0.51224269   -2.1686918   -2.1686918   -1.4455724  0.030391245   -2.1686918   0.72311943   375431 
 9430000   0.51286781   -2.1698561   -2.1698561   -1.4457501  0.031031014   -2.1698561   0.72410606   375377 
 9440000   0.51236042   -2.1703457   -2.1703457   -1.4468501  0.027577324   -2.1703457   0.72349569   375322 
 9450000   0.51161529   -2.1688451   -2.1688451   -1.4462976  0.030351735   -2.1688451   0.72254746   375268 
 9460000   0.51205274   -2.1700962   -2.1700962   -1.4468269  0.037607185   -2.1700962   0.72326934   375214 
 9470000   0.51192936   -2.1694748   -2.1694748   -1.4462757  0.033620994   -2.1694748   0.72319916   375160 
 9480000   0.51191327   -2.1719297   -2.1719297   -1.4486491  0.030120124   -2.1719297   0.72328053   375106 
 9490000   0.51157188   -2.1719272   -2.1719272    -1.449025  0.035961117   -2.1719272   0.72290224   375052 
 9500000   0.51152207   -2.1715527   -2.1715527   -1.4486167  0.032614635   -2.1715527   0.72293595   374998 
 9510000   0.51111365   -2.1713743   -2.1713743   -1.4489115  0.030212991   -2.1713743   0.72246277   374944 
 9520000   0.51196699   -2.1744995   -2.1744995   -1.4507263  0.029928909   -2.1744995   0.72377321   374890 
 9530000   0.51139517   -2.1736644   -2.1736644   -1.4505954  0.030009411   -2.1736644   0.72306897   374836 
 9540000   0.51074292   -2.1722727   -2.1722727    -1.450022  0.032848795   -2.1722727   0.72225079   374782 
 9550000   0.51096163   -2.1710084   -2.1710084   -1.4483442  0.033340924   -2.1710084    0.7226642   374728 
 9560000   0.51161173   -2.1709074   -2.1709074   -1.4472194  0.034744079   -2.1709074   0.72368793   374674 
 9570000   0.51094463   -2.1685613   -2.1685613   -1.4457128  0.032082112   -2.1685613   0.72284849   374620 
 9580000   0.51180694   -2.1702743   -2.1702743   -1.4461015  0.034796029   -2.1702743   0.72417281   374566 
 9590000   0.51080997    -2.168662    -2.168662   -1.4457957  0.030002292    -2.168662   0.72286637   374512 
 9600000   0.51114523   -2.1701963   -2.1701963   -1.4467512  0.022057151   -2.1701963   0.72344513   374458 
 9610000   0.51047719   -2.1688001   -2.1688001   -1.4461963  0.033097956   -2.1688001   0.72260383   374404 
 9620000   0.51063721   -2.1700018   -2.1700018   -1.4470653  0.029270961   -2.1700018   0.72293654   374349 
 9630000   0.51099411   -2.1715541   -2.1715541   -1.4480079  0.025042842   -2.1715541    0.7235462   374295 
 9640000    0.5116298   -2.1694551   -2.1694551   -1.4449043  0.035677257   -2.1694551   0.72455084   374241 
 9650000   0.50849415   -2.1671775   -2.1671775   -1.4469633  0.032182441   -2.1671775   0.72021417   374187 
 9660000   0.51089238   -2.1700784   -2.1700784    -1.446363  0.031667239   -2.1700784   0.72371539   374133 
 9670000   0.51036986    -2.170776    -2.170776   -1.4476964  0.027392209    -2.170776   0.72307957   374079 
 9680000   0.50967019   -2.1687681   -2.1687681   -1.4465755  0.032091481   -2.1687681   0.72219255   374025 
 9690000   0.50972902   -2.1683323   -2.1683323   -1.4459521  0.033405078   -2.1683323    0.7223802   373971 
 9700000   0.51017139   -2.1691135   -2.1691135    -1.446002  0.031034649   -2.1691135   0.72311153   373917 
 9710000   0.50991253   -2.1691929   -2.1691929   -1.4463439  0.026881673   -2.1691929   0.72284902   373863 
 9720000   0.51019618   -2.1695201   -2.1695201   -1.4461646  0.036726851   -2.1695201    0.7233556   373809 
 9730000   0.51007844   -2.1683285   -2.1683285   -1.4450353  0.027690236   -2.1683285   0.72329315   373755 
 9740000   0.50961039   -2.1678806   -2.1678806   -1.4451468  0.030681122   -2.1678806   0.72273388   373701 
 9750000   0.51036882   -2.1676025   -2.1676025   -1.4436884   0.02919625   -2.1676025   0.72391409   373647 
 9760000   0.50911862   -2.1662715   -2.1662715   -1.4440263  0.030110448   -2.1662715   0.72224517   373593 
 9770000   0.50989755   -2.1699573   -2.1699573   -1.4465025  0.035421001   -2.1699573   0.72345475   373539 
 9780000   0.51025921    -2.170332    -2.170332   -1.4462594  0.027112351    -2.170332   0.72407255   373485 
 9790000   0.50877381    -2.166305    -2.166305   -1.4442359  0.030320968    -2.166305   0.72206912   373431 
 9800000   0.51003422   -2.1670105   -2.1670105   -1.4430479  0.029480798   -2.1670105   0.72396264   373377 
 9810000    0.5085538   -2.1663395   -2.1663395   -1.4443719  0.030259643   -2.1663395   0.72196762   373322 
 9820000   0.50823695   -2.1660995   -2.1660995   -1.4444773  0.032229971   -2.1660995   0.72162219   373268 
 9830000   0.50964648   -2.1701881   -2.1701881   -1.4464599  0.026353659   -2.1701881    0.7237282   373214 
 9840000   0.50875382    -2.170946    -2.170946   -1.4483809  0.024442305    -2.170946   0.72256513   373160 
 9850000   0.50791202   -2.1687936   -2.1687936   -1.4473197  0.037909257   -2.1687936   0.72147394   373106 
 9860000   0.50802772   -2.1673144   -2.1673144   -1.4455716  0.033962181   -2.1673144   0.72174275   373052 
 9870000   0.50873541   -2.1688354   -2.1688354   -1.4459826  0.030397527   -2.1688354   0.72285279   372998 
 9880000   0.50750627   -2.1679995   -2.1679995   -1.4467888     0.032194   -2.1679995   0.72121074   372944 
 9890000    0.5074345   -2.1679069   -2.1679069   -1.4466937  0.036197092   -2.1679069   0.72121318   372890 
 9900000   0.50853526   -2.1703598   -2.1703598   -1.4474774  0.029939038   -2.1703598   0.72288236   372836 
 9910000   0.50776023   -2.1687052   -2.1687052     -1.44682  0.025752942   -2.1687052   0.72188521   372782 
 9920000   0.50795836   -2.1690988   -2.1690988   -1.4468273  0.032250006   -2.1690988   0.72227152   372728 
 9930000   0.50807697   -2.1675788   -2.1675788   -1.4450339   0.02670724   -2.1675788   0.72254485   372674 
 9940000   0.50803603    -2.167053    -2.167053   -1.4444617  0.031323044    -2.167053   0.72259133   372620 
 9950000    0.5088512   -2.1687186   -2.1687186   -1.4448629  0.033932245   -2.1687186   0.72385567   372566 
 9960000   0.50819134   -2.1682015   -2.1682015   -1.4451797  0.024609875   -2.1682015    0.7230218   372512 
 9970000   0.50818172   -2.1693952   -2.1693952   -1.4462822  0.032550683   -2.1693952   0.72311294   372458 
 9980000   0.50870074   -2.1692829   -2.1692829   -1.4453265  0.039275916   -2.1692829   0.72395644   372404 
 9990000   0.50665259   -2.1654362   -2.1654362   -1.4442881  0.034505248   -2.1654362   0.72114812   372349 
10000000   0.50755535    -2.168275    -2.168275   -1.4457371   0.02871092    -2.168275   0.72253785   372295 
10010000   0.50782616   -2.1682845   -2.1682845   -1.4452563  0.032206108   -2.1682845   0.72302823   372241 
10020000   0.50687844   -2.1665702   -2.1665702   -1.4447866  0.027554539   -2.1665702   0.72178361   372187 
10030000   0.50705173   -2.1668636   -2.1668636   -1.4447285  0.031059429   -2.1668636   0.72213515   372133 
10040000   0.50636884   -2.1670321   -2.1670321   -1.4457648  0.028406447   -2.1670321   0.72126724   372079 
10050000   0.50597135   -2.1636983   -2.1636983   -1.4428926   0.03028874   -2.1636983   0.72080568   372025 
10060000   0.50764176   -2.1658742   -2.1658742   -1.4425839   0.02782398   -2.1658742   0.72329033   371971 
10070000   0.50598397   -2.1653867   -2.1653867   -1.4443537  0.036821787   -2.1653867   0.72103297   371917 
10080000   0.50625902   -2.1654221   -2.1654221   -1.4438924  0.030385619   -2.1654221   0.72152968   371863 
10090000   0.50581065   -2.1660442   -2.1660442   -1.4450489  0.027654962   -2.1660442   0.72099536   371809 
10100000   0.50659069   -2.1670246   -2.1670246   -1.4448124  0.033901918   -2.1670246   0.72221213   371755 
10110000   0.50547342    -2.165762    -2.165762    -1.445038  0.028980181    -2.165762   0.72072401   371701 
10120000   0.50535024   -2.1654732   -2.1654732   -1.4448201  0.024591512   -2.1654732   0.72065307   371647 
10130000   0.50529956    -2.167348    -2.167348   -1.4466625  0.031237896    -2.167348   0.72068551   371593 
10140000   0.50601852   -2.1666098   -2.1666098   -1.4447939  0.028522446   -2.1666098   0.72181583   371539 
10150000    0.5050881   -2.1649845   -2.1649845   -1.4443911  0.031990667   -2.1649845   0.72059335   371485 
10160000   0.50596544   -2.1678759   -2.1678759   -1.4459259  0.028914013   -2.1678759   0.72194998   371431 
10170000   0.50391101   -2.1665349   -2.1665349   -1.4474118  0.032785756   -2.1665349    0.7191231   371377 
10180000   0.50657086   -2.1671458   -2.1671458   -1.4441198  0.032606573   -2.1671458   0.72302601   371322 
10190000   0.50393839   -2.1632056   -2.1632056   -1.4438323  0.036025946   -2.1632056   0.71937332   371268 
10200000   0.50492093   -2.1668675   -2.1668675   -1.4459867  0.036763732   -2.1668675   0.72088075   371214 
10210000   0.50406761   -2.1679662   -2.1679662    -1.448199  0.030357773   -2.1679662   0.71976715   371160 
10220000   0.50538241   -2.1678578   -2.1678578   -1.4461082  0.028159719   -2.1678578   0.72174958   371106 
10230000   0.50431379   -2.1648933   -2.1648933    -1.444565  0.037281514   -2.1648933   0.72032828   371052 
10240000   0.50520435   -2.1659643   -2.1659643    -1.444259  0.022960395   -2.1659643   0.72170532   370998 
10250000   0.50465133    -2.164002    -2.164002   -1.4429817  0.028819826    -2.164002   0.72102026   370944 
10260000   0.50566335   -2.1664455   -2.1664455   -1.4438741  0.031685246   -2.1664455   0.72257137   370890 
10270000   0.50510579   -2.1656714   -2.1656714   -1.4437917  0.025409126   -2.1656714   0.72187975   370836 
10280000   0.50307009   -2.1648561   -2.1648561    -1.445781  0.033011915   -2.1648561    0.7190751   370782 
10290000   0.50472965   -2.1666431   -2.1666431   -1.4450908  0.030555026   -2.1666431   0.72155231   370728 
10300000   0.50402085   -2.1655646   -2.1655646   -1.4449206  0.031065348   -2.1655646     0.720644   370674 
10310000   0.50432943   -2.1648832   -2.1648832    -1.443693  0.028072382   -2.1648832   0.72119027   370620 
10320000   0.50457858   -2.1658498   -2.1658498   -1.4441981  0.027593565   -2.1658498    0.7216517   370566 
10330000   0.50400269    -2.164806    -2.164806   -1.4438729  0.033330193    -2.164806   0.72093311   370512 
10340000   0.50328455   -2.1654623   -2.1654623   -1.4454515  0.030129367   -2.1654623   0.72001081   370458 
10350000   0.50267858   -2.1628626   -2.1628626   -1.4436139  0.035467421   -2.1628626   0.71924873   370404 
10360000   0.50348838   -2.1645916   -2.1645916   -1.4440772  0.034610423   -2.1645916   0.72051442   370349 
10370000   0.50296283   -2.1641618   -2.1641618   -1.4442945  0.030299061   -2.1641618   0.71986729   370295 
10380000   0.50339889   -2.1640427   -2.1640427   -1.4434463  0.032841197   -2.1640427   0.72059648   370241 
10390000   0.50390186   -2.1667334   -2.1667334   -1.4453117  0.031002219   -2.1667334   0.72142169   370187 
10400000   0.50205202   -2.1652159   -2.1652159   -1.4463377  0.033071742   -2.1652159   0.71887819   370133 
10410000   0.50356454   -2.1661839   -2.1661839   -1.4450348   0.02900735   -2.1661839   0.72114916   370079 
10420000   0.50289033   -2.1647097   -2.1647097    -1.444421  0.036304118   -2.1647097   0.72028872   370025 
10430000   0.50249096   -2.1643148   -2.1643148    -1.444493  0.022706894   -2.1643148   0.71982175   369971 
10440000   0.50254109   -2.1645744   -2.1645744   -1.4445758  0.034236065   -2.1645744   0.71999866   369917 
10450000   0.50250433   -2.1667717   -2.1667717   -1.4467206  0.026520758   -2.1667717    0.7200511   369863 
10460000   0.50320545   -2.1651347   -2.1651347   -1.4439736  0.030364963   -2.1651347   0.72116104   369809 
10470000   0.50153845   -2.1633391   -2.1633391   -1.4444621  0.027628439   -2.1633391   0.71887697   369755 
10480000   0.50209584   -2.1647885   -2.1647885   -1.4450074  0.034800073   -2.1647885   0.71978103   369701 
10490000   0.50116136   -2.1634522   -2.1634522   -1.4449058  0.035725717   -2.1634522   0.71854636   369647 
10500000    0.5021986   -2.1630867   -2.1630867    -1.442948  0.033462833   -2.1630867   0.72013871   369593 
10510000   0.50180319   -2.1627065   -2.1627065   -1.4430297  0.029747299   -2.1627065   0.71967686   369539 
10520000   0.50177898   -2.1641415   -2.1641415   -1.4443942  0.038036301   -2.1641415    0.7197473   369485 
10530000   0.50213745   -2.1640447   -2.1640447    -1.443678  0.033629519   -2.1640447   0.72036677   369431 
10540000   0.50191494   -2.1658057   -2.1658057   -1.4456529  0.033123348   -2.1658057   0.72015284   369377 
10550000   0.50112982    -2.164149    -2.164149   -1.4450156  0.031649793    -2.164149    0.7191334   369322 
10560000   0.50134311   -2.1634434   -2.1634434   -1.4438987  0.029493244   -2.1634434   0.71954469   369268 
10570000   0.50141817   -2.1646846   -2.1646846   -1.4449269  0.030519214   -2.1646846   0.71975768   369214 
10580000   0.50187243   -2.1651062   -2.1651062   -1.4445911  0.025068051   -2.1651062   0.72051511   369160 
10590000   0.50032408   -2.1634596   -2.1634596   -1.4450623  0.034215188   -2.1634596   0.71839731   369106 
10600000   0.50182593   -2.1635563   -2.1635563   -1.4428971  0.027453397   -2.1635563   0.72065919   369052 
10610000    0.5016115   -2.1626474   -2.1626474   -1.4421908   0.02929098   -2.1626474   0.72045667   368998 
10620000    0.5012012   -2.1593146   -2.1593146   -1.4393419  0.036810989   -2.1593146   0.71997273   368944 
10630000   0.50129474   -2.1600613   -2.1600613   -1.4398488  0.028827388   -2.1600613   0.72021251   368890 
10640000   0.50222193   -2.1632619   -2.1632619   -1.4416117  0.034325351   -2.1632619   0.72165026   368836 
10650000   0.50130212    -2.161649    -2.161649   -1.4412149  0.027831671    -2.161649   0.72043404   368782 
10660000   0.50153764   -2.1619849   -2.1619849   -1.4411068  0.026619018   -2.1619849   0.72087806   368728 
10670000   0.50134143    -2.164912    -2.164912   -1.4442104  0.028649176    -2.164912   0.72070159   368674 
10680000   0.50026149   -2.1614631   -2.1614631   -1.4422087  0.026890779   -2.1614631   0.71925449   368620 
10690000   0.50087452   -2.1609122   -2.1609122   -1.4406708  0.030146019   -2.1609122   0.72024138   368566 
10700000    0.5011403    -2.162338    -2.162338   -1.4416088   0.03482783    -2.162338   0.72072915   368512 
10710000   0.50012468   -2.1620137   -2.1620137   -1.4426397  0.037206553   -2.1620137   0.71937392   368458 
10720000   0.50108636   -2.1626816   -2.1626816   -1.4418187  0.035831965   -2.1626816   0.72086284   368404 
10730000   0.49916525    -2.160848    -2.160848   -1.4426417  0.025285359    -2.160848   0.71820636   368349 
10740000   0.49925233   -2.1596591   -2.1596591   -1.4412221   0.02748205   -2.1596591   0.71843698   368295 
10750000   0.50024227    -2.162413    -2.162413   -1.4424459  0.039453525    -2.162413   0.71996709   368241 
10760000   0.50085422   -2.1667682   -2.1667682   -1.4458147  0.033155797   -2.1667682   0.72095355   368187 
10770000   0.49907022   -2.1625753   -2.1625753   -1.4440844  0.036875717   -2.1625753   0.71849095   368133 
10780000   0.49958784   -2.1592485   -2.1592485   -1.4399068   0.03102382   -2.1592485   0.71934166   368079 
10790000   0.49975077   -2.1577753   -2.1577753   -1.4380934  0.029387819   -2.1577753   0.71968185   368025 
10800000    0.4999749    -2.159563    -2.159563   -1.4394527      0.03264    -2.159563   0.72011027   367971 
10810000   0.50027799   -2.1600948   -2.1600948   -1.4394422    0.0278968   -2.1600948   0.72065257   367917 
10820000   0.49982671   -2.1593651   -2.1593651   -1.4392569  0.030290404   -2.1593651   0.72010819   367863 
10830000   0.49867009   -2.1602333   -2.1602333    -1.441686  0.030668497   -2.1602333   0.71854731   367809 
10840000   0.50000934   -2.1626948   -2.1626948    -1.442112   0.02437816   -2.1626948   0.72058285   367755 
10850000   0.49899248   -2.1580369   -2.1580369   -1.4388139  0.029051312   -2.1580369   0.71922303   367701 
10860000   0.49829487   -2.1577747   -2.1577747   -1.4394517  0.028028951   -2.1577747   0.71832302   367647 
10870000   0.49937306   -2.1605624   -2.1605624   -1.4405794  0.029838859   -2.1605624   0.71998306   367593 
10880000   0.49997896   -2.1611944   -2.1611944   -1.4402318  0.025861973   -2.1611944   0.72096254   367539 
10890000     0.499447   -2.1604632   -2.1604632   -1.4401619  0.034866126   -2.1604632   0.72030129   367485 
10900000   0.49894437     -2.16101     -2.16101   -1.4413278  0.030823036     -2.16101   0.71968214   367431 
10910000   0.49932005   -2.1605255   -2.1605255   -1.4401957  0.036582315   -2.1605255   0.72032989   367377 
10920000   0.49769493   -2.1590006   -2.1590006   -1.4409076   0.02853224   -2.1590006   0.71809297   367322 
10930000   0.49877059   -2.1596795   -2.1596795   -1.4399288  0.026663962   -2.1596795   0.71975078   367268 
10940000   0.49812919   -2.1598135   -2.1598135   -1.4408826  0.031794863   -2.1598135   0.71893092   367214 
10950000   0.49738936   -2.1596648   -2.1596648    -1.441696  0.033732283   -2.1596648   0.71796872   367160 
10960000   0.49720723   -2.1575545   -2.1575545   -1.4397431  0.023379272   -2.1575545    0.7178114   367106 
10970000   0.49900055    -2.158814    -2.158814   -1.4383077  0.031022726    -2.158814   0.72050637   367052 
10980000   0.49759581   -2.1572474   -2.1572474   -1.4386636  0.030377646   -2.1572474   0.71858379   366998 
10990000   0.49872336   -2.1597217   -2.1597217   -1.4394036  0.032780143   -2.1597217   0.72031808   366944 
11000000   0.49782776   -2.1578464   -2.1578464    -1.438716  0.035981515   -2.1578464   0.71913037   366890 
11010000   0.49810749   -2.1586491   -2.1586491   -1.4390088  0.026121475   -2.1586491   0.71964037   366836 
11020000   0.49877763   -2.1587414   -2.1587414   -1.4380268  0.033464418   -2.1587414   0.72071465   366782 
11030000   0.49757223   -2.1589767   -2.1589767    -1.439898  0.028062024   -2.1589767   0.71907876   366728 
11040000    0.4970403    -2.157812    -2.157812   -1.4393962  0.026930314    -2.157812   0.71841582   366674 
11050000   0.49712554   -2.1574145   -2.1574145   -1.4387696  0.032049442   -2.1574145   0.71864486   366620 
11060000    0.4979687    -2.160034    -2.160034   -1.4400643   0.02742093    -2.160034   0.71996977   366566 
11070000   0.49781883   -2.1597078   -2.1597078   -1.4398486   0.02988412   -2.1597078   0.71985913   366512 
11080000   0.49659223   -2.1578541   -2.1578541   -1.4396629  0.035990688   -2.1578541   0.71819125   366458 
11090000   0.49781132   -2.1621746   -2.1621746   -1.4421142  0.032454208   -2.1621746   0.72006045   366404 
11100000   0.49786653   -2.1593399   -2.1593399   -1.4390915  0.019378433   -2.1593399   0.72024843   366349 
11110000    0.4968236   -2.1554394   -2.1554394   -1.4365937  0.030757036   -2.1554394   0.71884561   366295 
11120000   0.49586096   -2.1559175   -2.1559175   -1.4383589  0.035774008   -2.1559175   0.71755857   366241 
11130000   0.49680661   -2.1572372   -2.1572372   -1.4382042  0.034472864   -2.1572372   0.71903303   366187 
11140000   0.49678619   -2.1561579   -2.1561579   -1.4370484  0.032582748   -2.1561579   0.71910952   366133 
11150000    0.4964903   -2.1569833   -2.1569833   -1.4381961  0.031328713   -2.1569833   0.71878723   366079 
11160000   0.49640586    -2.159115    -2.159115    -1.440344  0.026748727    -2.159115     0.718771   366025 
11170000   0.49576596   -2.1569162   -2.1569162   -1.4389658  0.029301211   -2.1569162   0.71795038   365971 
11180000   0.49723865   -2.1571692   -2.1571692   -1.4369799  0.039984156   -2.1571692   0.72018934   365917 
11190000   0.49577169   -2.1551128   -2.1551128   -1.4369421  0.033186247   -2.1551128   0.71817062   365863 
11200000   0.49657985   -2.1568481   -2.1568481   -1.4374006  0.032952848   -2.1568481    0.7194475   365809 
11210000   0.49733305   -2.1576282   -2.1576282   -1.4369831  0.027003617   -2.1576282   0.72064512   365755 
11220000   0.49559012   -2.1549748   -2.1549748   -1.4367492  0.032348764   -2.1549748   0.71822562   365701 
11230000   0.49562056   -2.1556376   -2.1556376   -1.4372618  0.034631257   -2.1556376   0.71837581   365647 
11240000   0.49623264   -2.1555369   -2.1555369   -1.4361677  0.033791652   -2.1555369   0.71936922   365593 
11250000   0.49666196   -2.1543982   -2.1543982   -1.4343002  0.031531853   -2.1543982   0.72009796   365539 
11260000   0.49570311   -2.1535106   -2.1535106   -1.4346966  0.034855882   -2.1535106   0.71881392   365485 
11270000   0.49559337   -2.1558919   -2.1558919   -1.4371309  0.027897011   -2.1558919   0.71876099   365431 
11280000   0.49506287   -2.1531259   -2.1531259   -1.4350282  0.031555362   -2.1531259   0.71809771   365377 
11290000   0.49430199   -2.1532418   -2.1532418   -1.4361398  0.023643831   -2.1532418   0.71710199   365322 
11300000   0.49594719   -2.1569769   -2.1569769   -1.4373818  0.033141222   -2.1569769   0.71959512   365268 
11310000   0.49528475   -2.1562759   -2.1562759   -1.4375357  0.027275172   -2.1562759    0.7187402   365214 
11320000   0.49454805   -2.1528056   -2.1528056   -1.4350284  0.029958674   -2.1528056   0.71777726   365160 
11330000   0.49464013    -2.153866    -2.153866    -1.435849  0.031031097    -2.153866   0.71801708   365106 
11340000   0.49479888   -2.1537169   -2.1537169   -1.4353632  0.029056636   -2.1537169   0.71835377   365052 
11350000   0.49442359   -2.1541563   -2.1541563   -1.4362412  0.029190628   -2.1541563   0.71791511   364998 
11360000   0.49412681   -2.1539967   -2.1539967   -1.4364064  0.029899982   -2.1539967   0.71759034   364944 
11370000   0.49467758   -2.1569991   -2.1569991   -1.4385026  0.035121672   -2.1569991   0.71849652   364890 
11380000   0.49426337   -2.1546325   -2.1546325   -1.4366314  0.036428332   -2.1546325   0.71800114   364836 
11390000   0.49395078    -2.152639    -2.152639   -1.4349857  0.029153342    -2.152639   0.71765328   364782 
11400000   0.49326899   -2.1521992   -2.1521992   -1.4354304  0.026249878   -2.1521992   0.71676882   364728 
11410000   0.49500947   -2.1562835   -2.1562835   -1.4368791  0.028204795   -2.1562835   0.71940442   364674 
11420000    0.4940285   -2.1561039   -2.1561039   -1.4380188  0.031482486   -2.1561039    0.7180851   364620 
11430000   0.49334552    -2.154059    -2.154059   -1.4368604  0.032321304    -2.154059   0.71719858   364566 
11440000   0.49463137    -2.154933    -2.154933   -1.4357586  0.034677962    -2.154933   0.71917441   364512 
11450000   0.49435563   -2.1532356   -2.1532356   -1.4343556  0.028621287   -2.1532356      0.71888   364458 
11460000   0.49480275   -2.1535147   -2.1535147   -1.4338779  0.029379114   -2.1535147    0.7196368   364404 
11470000    0.4946883   -2.1515769   -2.1515769    -1.431998  0.027144195   -2.1515769   0.71957895   364349 
11480000   0.49413712   -2.1522917   -2.1522917    -1.433408  0.030791396   -2.1522917   0.71888375   364295 
11490000   0.49420867   -2.1545979   -2.1545979   -1.4355035  0.031337801   -2.1545979   0.71909443   364241 
11500000   0.49395289   -2.1544211   -2.1544211   -1.4355923   0.03664206   -2.1544211   0.71882884   364187 
11510000   0.49298856   -2.1521104   -2.1521104   -1.4345785  0.031005714   -2.1521104   0.71753187   364133 
11520000     0.493238   -2.1515409   -2.1515409   -1.4335395  0.025861012   -2.1515409   0.71800141   364079 
11530000   0.49318914   -2.1536428   -2.1536428    -1.435606  0.041596589   -2.1536428   0.71803678   364025 
11540000   0.49355759    -2.152337    -2.152337   -1.4336572  0.028781893    -2.152337   0.71867982   363971 
11550000   0.49244334   -2.1509847   -2.1509847    -1.433821  0.034468749   -2.1509847   0.71716374   363917 
11560000   0.49309422   -2.1531028   -2.1531028   -1.4348846   0.02999788   -2.1531028   0.71821822   363863 
11570000   0.49149736   -2.1516934   -2.1516934   -1.4356948  0.026743979   -2.1516934   0.71599856   363809 
11580000    0.4927193   -2.1518007   -2.1518007   -1.4339155  0.027774716   -2.1518007    0.7178852   363755 
11590000   0.49204641   -2.1502356   -2.1502356   -1.4332243  0.036103327   -2.1502356   0.71701126   363701 
11600000   0.49177033   -2.1491575   -2.1491575   -1.4324422  0.032595277   -2.1491575   0.71671536   363647 
11610000   0.49383146   -2.1516437   -2.1516437   -1.4318175  0.027727887   -2.1516437   0.71982619   363593 
11620000   0.49137606   -2.1486087   -2.1486087   -1.4322552  0.034018574   -2.1486087   0.71635349   363539 
11630000    0.4921413   -2.1506479   -2.1506479   -1.4330722  0.029916655   -2.1506479   0.71757569   363485 
11640000     0.491368   -2.1488889   -2.1488889   -1.4323343  0.028184878   -2.1488889   0.71655461   363431 
11650000   0.49329751   -2.1491783   -2.1491783    -1.429703  0.029843868   -2.1491783   0.71947529   363377 
11660000   0.49406075   -2.1524567   -2.1524567   -1.4317591  0.033108927   -2.1524567   0.72069756   363322 
11670000   0.49143163   -2.1497782   -2.1497782   -1.4328092  0.025578883   -2.1497782   0.71696897   363268 
11680000   0.49338186   -2.1505343   -2.1505343   -1.4306131  0.033271783   -2.1505343   0.71992126   363214 
11690000    0.4919646   -2.1477894   -2.1477894   -1.4298294  0.034105466   -2.1477894      0.71796   363160 
11700000   0.49208751   -2.1475981   -2.1475981   -1.4293519  0.026160111   -2.1475981   0.71824617   363106 
11710000   0.49280749   -2.1500817   -2.1500817   -1.4306777  0.033710983   -2.1500817   0.71940402   363052 
11720000    0.4923089   -2.1471893   -2.1471893   -1.4284062  0.032037892   -2.1471893    0.7187831   362998 
11730000   0.49163039   -2.1484604   -2.1484604   -1.4305611  0.031291772   -2.1484604   0.71789925   362944 
11740000   0.49088234   -2.1497797   -2.1497797   -1.4328661  0.029834247   -2.1497797   0.71691358   362890 
11750000   0.49091827   -2.1486841   -2.1486841   -1.4316114  0.035915588   -2.1486841   0.71707275   362836 
11760000   0.49140575   -2.1495768   -2.1495768   -1.4316851  0.028339867   -2.1495768   0.71789164   362782 
11770000   0.49190726   -2.1505893   -2.1505893    -1.431858  0.031558507   -2.1505893   0.71873129   362728 
11780000   0.49142848   -2.1508472   -2.1508472   -1.4327086  0.028700679   -2.1508472   0.71813865   362674 
11790000   0.49091993    -2.150833    -2.150833   -1.4333307  0.030561749    -2.150833   0.71750231   362620 
11800000   0.49205148   -2.1516799   -2.1516799   -1.4324166  0.036825676   -2.1516799   0.71926324   362566 
11810000   0.48970908   -2.1506006   -2.1506006   -1.4346547  0.027304075   -2.1506006   0.71594584   362512 
11820000   0.49186009   -2.1541427   -2.1541427    -1.434945  0.034543599   -2.1541427   0.71919771   362458 
11830000   0.49171991    -2.152466    -2.152466   -1.4333661  0.030091713    -2.152466   0.71909987   362404 
11840000   0.49139155    -2.150814    -2.150814   -1.4320852  0.031109167    -2.150814   0.71872875   362349 
11850000   0.49172385   -2.1485112   -2.1485112   -1.4291892  0.025188482   -2.1485112   0.71932197   362295 
11860000   0.49144767   -2.1498865   -2.1498865   -1.4308613  0.032250951   -2.1498865   0.71902514   362241 
11870000   0.49121369   -2.1470923   -2.1470923   -1.4283024  0.032959195   -2.1470923   0.71878996   362187 
11880000   0.49052641   -2.1462534   -2.1462534   -1.4283621   0.03515201   -2.1462534   0.71789129   362133 
11890000    0.4915585   -2.1486115   -2.1486115   -1.4291024  0.029603743   -2.1486115   0.71950907   362079 
11900000   0.49050478   -2.1484524   -2.1484524   -1.4303786  0.035831764   -2.1484524   0.71807379   362025 
11910000   0.49009831   -2.1491961   -2.1491961   -1.4316104  0.033610517   -2.1491961   0.71758578   361971 
11920000   0.49003845   -2.1493388   -2.1493388   -1.4317336  0.030904729   -2.1493388    0.7176052   361917 
11930000   0.48999533   -2.1492251   -2.1492251   -1.4315759  0.033753409   -2.1492251   0.71764913   361863 
11940000   0.49028189   -2.1490488   -2.1490488   -1.4308728  0.036737043   -2.1490488     0.718176   361809 
11950000   0.48937233   -2.1481342   -2.1481342   -1.4311835  0.033194473   -2.1481342   0.71695066   361755 
11960000   0.49062163   -2.1483625   -2.1483625   -1.4294742  0.030444518   -2.1483625   0.71888824   361701 
11970000   0.48945062    -2.146373    -2.146373   -1.4290935  0.029940025    -2.146373    0.7172795   361647 
11980000   0.49055427   -2.1482886   -2.1482886   -1.4292844  0.030605041   -2.1482886   0.71900423   361593 
11990000     0.490228   -2.1455471   -2.1455471   -1.4269138  0.031215878   -2.1455471   0.71863333   361539 
12000000   0.48917286   -2.1453156   -2.1453156   -1.4281219  0.032470366   -2.1453156   0.71719371   361485 
12010000   0.48887135    -2.146071    -2.146071   -1.4292122  0.037057516    -2.146071   0.71685875   361431 
12020000   0.48927546   -2.1470202   -2.1470202   -1.4294617  0.029585067   -2.1470202   0.71755852   361377 
12030000   0.48813747   -2.1443828   -2.1443828   -1.4283843  0.025102009   -2.1443828   0.71599854   361322 
12040000   0.48840381   -2.1460394   -2.1460394   -1.4295431  0.032433714   -2.1460394    0.7164963   361268 
12050000   0.48906522   -2.1477487   -2.1477487   -1.4301749  0.027613668   -2.1477487   0.71757385   361214 
12060000   0.48785388   -2.1467255   -2.1467255   -1.4308219  0.034931468   -2.1467255   0.71590356   361160 
12070000   0.48856262   -2.1460222   -2.1460222   -1.4289714  0.033493198   -2.1460222   0.71705081   361106 
12080000    0.4886018   -2.1431846   -2.1431846    -1.425969  0.028620688   -2.1431846   0.71721557   361052 
12090000   0.48801578   -2.1434252   -2.1434252   -1.4269626  0.034749062   -2.1434252   0.71646251   360998 
12100000   0.48849516   -2.1441783   -2.1441783   -1.4269048  0.024713131   -2.1441783   0.71727358   360944 
12110000   0.48982228   -2.1461752   -2.1461752   -1.4268453  0.037619973   -2.1461752   0.71932985   360890 
12120000    0.4880911   -2.1446662   -2.1446662   -1.4277714   0.02958863   -2.1446662   0.71689479   360836 
12130000   0.48929378   -2.1464283   -2.1464283   -1.4276595  0.030318189   -2.1464283   0.71876882   360782 
12140000   0.48838342   -2.1438221   -2.1438221   -1.4262832  0.032503583   -2.1438221    0.7175389   360728 
12150000   0.48750294   -2.1434277   -2.1434277   -1.4270751  0.021544723   -2.1434277   0.71635254   360674 
12160000   0.48760864   -2.1453504   -2.1453504   -1.4287352  0.027085568   -2.1453504   0.71661515   360620 
12170000   0.48861359   -2.1472129   -2.1472129   -1.4290133  0.029729925   -2.1472129   0.71819961   360566 
12180000   0.48681786   -2.1467391   -2.1467391   -1.4310718  0.028154331   -2.1467391    0.7156673   360512 
12190000   0.48818364   -2.1483271   -2.1483271   -1.4305444   0.03113896   -2.1483271   0.71778264   360458 
12200000   0.48727472   -2.1464706   -2.1464706    -1.429917  0.028278937   -2.1464706   0.71655359   360404 
12210000    0.4869825   -2.1425673   -2.1425673   -1.4263341  0.030259978   -2.1425673   0.71623318   360349 
12220000   0.48743043   -2.1432859   -2.1432859   -1.4262865  0.032923085   -2.1432859   0.71699941   360295 
12230000   0.48809488   -2.1471418   -2.1471418   -1.4290573  0.031844742   -2.1471418   0.71808444   360241 
12240000    0.4875672   -2.1461815   -2.1461815   -1.4287659   0.03065468   -2.1461815   0.71741565   360187 
12250000   0.48475271   -2.1423234   -2.1423234   -1.4289421  0.026021355   -2.1423234    0.7133813   360133 
12260000   0.48612449   -2.1458592   -2.1458592   -1.4303519  0.030980826   -2.1458592   0.71550736   360079 
12270000   0.48586523   -2.1447529   -2.1447529   -1.4295199  0.025863551   -2.1447529   0.71523303   360025 
12280000   0.48566574    -2.143948    -2.143948   -1.4289014  0.038759655    -2.143948    0.7150466   359971 
12290000   0.48603731   -2.1433071   -2.1433071   -1.4276061  0.030432005   -2.1433071   0.71570104   359917 
12300000   0.48836811   -2.1457809   -2.1457809   -1.4265398  0.031475897   -2.1457809    0.7192411   359863 
12310000   0.48715716   -2.1419647   -2.1419647   -1.4243994  0.025380945   -2.1419647   0.71756536   359809 
12320000   0.48738502   -2.1424813   -2.1424813   -1.4244725   0.03427378   -2.1424813   0.71800875   359755 
12330000   0.48569077   -2.1413757   -2.1413757   -1.4257554  0.033060683   -2.1413757   0.71562022   359701 
12340000   0.48684568   -2.1450935   -2.1450935   -1.4276639  0.030022428   -2.1450935   0.71742957   359647 
12350000   0.48564606   -2.1430829   -2.1430829   -1.4273136  0.033377385   -2.1430829   0.71576925   359593 
12360000   0.48712246   -2.1434876   -2.1434876   -1.4254345  0.033514149   -2.1434876   0.71805308   359539 
12370000   0.48587345   -2.1426126   -2.1426126   -1.4262931  0.026011951   -2.1426126   0.71631953   359485 
12380000   0.48622214   -2.1450759   -2.1450759   -1.4281346  0.033838642   -2.1450759    0.7169413   359431 
12390000   0.48581562   -2.1422737   -2.1422737   -1.4258242  0.028637563   -2.1422737   0.71644951   359377 
12400000   0.48484493    -2.138607    -2.138607   -1.4234795  0.033359272    -2.138607   0.71512745   359322 
12410000   0.48615156   -2.1396678   -2.1396678   -1.4225054  0.031984246   -2.1396678   0.71716245   359268 
12420000   0.48659829   -2.1420049   -2.1420049   -1.4240756  0.032474009   -2.1420049   0.71792938   359214 
12430000   0.48638647   -2.1412388   -2.1412388   -1.4235141  0.029191744   -2.1412388   0.71772474   359160 
12440000   0.48469563   -2.1409602   -2.1409602   -1.4256229  0.027816013   -2.1409602   0.71533725   359106 
12450000   0.48495007   -2.1422619   -2.1422619   -1.4264415  0.027592859   -2.1422619   0.71582041   359052 
12460000   0.48486781   -2.1409643   -2.1409643   -1.4251577  0.028822695   -2.1409643   0.71580664   358998 
12470000   0.48558697   -2.1409347   -2.1409347   -1.4239586  0.031796536   -2.1409347   0.71697617   358944 
12480000   0.48629684   -2.1409493   -2.1409493    -1.422817  0.026367706   -2.1409493   0.71813234   358890 
12490000   0.48563972   -2.1409305   -2.1409305   -1.4236606  0.028497588   -2.1409305   0.71726987   358836 
12500000   0.48450098   -2.1415104   -2.1415104   -1.4258147  0.025654158   -2.1415104    0.7156957   358782 
12510000   0.48401753   -2.1412903   -2.1412903   -1.4262011  0.032187988   -2.1412903   0.71508919   358728 
12520000   0.48424814   -2.1418453   -2.1418453   -1.4263077  0.031098525   -2.1418453    0.7155376   358674 
12530000   0.48537721   -2.1409406   -2.1409406   -1.4236266  0.032186469   -2.1409406   0.71731394   358620 
12540000   0.48479708   -2.1387303   -2.1387303   -1.4221658  0.027618257   -2.1387303    0.7165645   358566 
12550000   0.48359737   -2.1386741   -2.1386741   -1.4237752  0.029060604   -2.1386741   0.71489891   358512 
12560000   0.48476404   -2.1412791   -2.1412791   -1.4245475  0.030915659   -2.1412791   0.71673154   358458 
12570000   0.48486717   -2.1399514   -2.1399514   -1.4229594  0.033454765   -2.1399514   0.71699203   358404 
12580000   0.48359014   -2.1392221   -2.1392221   -1.4240087  0.026933944   -2.1392221    0.7152134   358349 
12590000   0.48206251   -2.1367947   -2.1367947   -1.4237332  0.032665551   -2.1367947   0.71306154   358295 
12600000   0.48307779   -2.1394892   -2.1394892   -1.4248182     0.036294   -2.1394892   0.71467104   358241 
12610000   0.48155297   -2.1394396   -2.1394396    -1.426917  0.034276557   -2.1394396    0.7125226   358187 
12620000   0.48326953   -2.1403195   -2.1403195   -1.4251492  0.031582288   -2.1403195    0.7151703   358133 
12630000   0.48346121   -2.1399371   -2.1399371   -1.4243753  0.029605767   -2.1399371   0.71556185   358079 
12640000   0.48388236   -2.1389333   -2.1389333   -1.4226401  0.032661692   -2.1389333   0.71629321   358025 
12650000   0.48388799   -2.1408999   -2.1408999   -1.4244903  0.037322211   -2.1408999   0.71640959   357971 
12660000   0.48304281    -2.138716    -2.138716   -1.4234498  0.025293476    -2.138716   0.71526618   357917 
12670000   0.48300749   -2.1381608   -2.1381608    -1.422839  0.031121502   -2.1381608   0.71532181   357863 
12680000   0.48354165    -2.137682    -2.137682    -1.421461  0.035984458    -2.137682   0.71622096   357809 
12690000   0.48353113   -2.1378971   -2.1378971   -1.4215837  0.030216186   -2.1378971   0.71631348   357755 
12700000    0.4824718   -2.1385718   -2.1385718   -1.4237197  0.032098155   -2.1385718   0.71485207   357701 
12710000     0.483202   -2.1409497   -2.1409497   -1.4249076  0.032220813   -2.1409497   0.71604206   357647 
12720000   0.48229569   -2.1404047   -2.1404047   -1.4255977  0.032180305   -2.1404047   0.71480696   357593 
12730000   0.48260757   -2.1396904   -2.1396904   -1.4243131  0.029628388   -2.1396904   0.71537722   357539 
12740000   0.48249936   -2.1406705   -2.1406705   -1.4253456  0.028928943   -2.1406705   0.71532486   357485 
12750000    0.4815544   -2.1360534   -2.1360534   -1.4220216   0.03034628   -2.1360534   0.71403177   357431 
12760000   0.48246786   -2.1370881   -2.1370881   -1.4215938  0.030673744   -2.1370881   0.71549431   357377 
12770000   0.48205631   -2.1375576   -2.1375576   -1.4225636  0.025684938   -2.1375576   0.71499403   357322 
12780000   0.48300398   -2.1374293   -2.1374293   -1.4209214  0.031759831   -2.1374293   0.71650791   357268 
12790000   0.48134163    -2.136764    -2.136764   -1.4226142  0.038531367    -2.136764   0.71414985   357214 
12800000   0.48185798   -2.1381341   -2.1381341     -1.42311  0.033791414   -2.1381341   0.71502403   357160 
12810000   0.48056513   -2.1392151   -2.1392151   -1.4260017  0.029939556   -2.1392151   0.71321341   357106 
12820000   0.48078592   -2.1387795   -2.1387795   -1.4251305  0.029436968   -2.1387795   0.71364901   357052 
12830000    0.4816159   -2.1394237   -2.1394237   -1.4244345  0.024491984   -2.1394237   0.71498911   356998 
12840000   0.48102409   -2.1402604   -2.1402604   -1.4260419   0.03212441   -2.1402604   0.71421856   356944 
12850000   0.48028078   -2.1417394   -2.1417394   -1.4285166  0.035462057   -2.1417394   0.71322281   356890 
12860000   0.48106263   -2.1426062   -2.1426062   -1.4281142  0.026387432   -2.1426062   0.71449198   356836 
12870000   0.47977177   -2.1397674   -2.1397674   -1.4270848  0.032059009   -2.1397674   0.71268259   356782 
12880000    0.4801072   -2.1393938   -2.1393938    -1.426105  0.031182578   -2.1393938   0.71328881   356728 
12890000   0.48144399   -2.1403052   -2.1403052   -1.4249221  0.033021509   -2.1403052   0.71538316   356674 
12900000   0.48038034   -2.1383519   -2.1383519   -1.4244411  0.033171179   -2.1383519   0.71391076   356620 
12910000   0.48029246   -2.1403336   -2.1403336   -1.4264453  0.028001814   -2.1403336   0.71388826   356566 
12920000   0.47995719    -2.140998    -2.140998   -1.4275001  0.026378265    -2.140998   0.71349798   356512 
12930000   0.48028627   -2.1395693   -2.1395693    -1.425474  0.032108186   -2.1395693   0.71409535   356458 
12940000   0.48075821   -2.1367174   -2.1367174   -1.4218121  0.030130358   -2.1367174   0.71490534   356404 
12950000   0.48031415   -2.1394748   -2.1394748   -1.4251196  0.033202017   -2.1394748   0.71435523   356349 
12960000   0.48063191   -2.1403397   -2.1403397   -1.4254035  0.036696467   -2.1403397   0.71493617   356295 
12970000    0.4803076   -2.1395544   -2.1395544   -1.4249923  0.035069608   -2.1395544   0.71456207   356241 
12980000   0.47988453   -2.1368256   -2.1368256   -1.4227847  0.027435163   -2.1368256   0.71404089   356187 
12990000   0.47973297   -2.1378153   -2.1378153   -1.4238917  0.023228719   -2.1378153   0.71392362   356133 
13000000   0.47914976   -2.1368131   -2.1368131   -1.4236493  0.029147325   -2.1368131   0.71316383   356079 
13010000   0.47967142   -2.1383309   -2.1383309   -1.4242824  0.025389787   -2.1383309   0.71404856   356025 
13020000   0.47922196   -2.1367211   -2.1367211   -1.4232334  0.036296951   -2.1367211   0.71348769   355971 
13030000   0.47945671   -2.1358112   -2.1358112   -1.4218657  0.039424263   -2.1358112   0.71394551   355917 
13040000   0.47874478   -2.1351198   -2.1351198   -1.4221262  0.028285781   -2.1351198   0.71299358   355863 
13050000   0.47872004   -2.1359295   -2.1359295   -1.4228646  0.027399944   -2.1359295   0.71306493   355809 
13060000   0.47970998   -2.1364291   -2.1364291   -1.4217812  0.031674972   -2.1364291   0.71464792   355755 
13070000   0.47918556   -2.1365714   -2.1365714   -1.4225963  0.027307092   -2.1365714   0.71397505   355701 
13080000   0.47997791   -2.1356392   -2.1356392    -1.420375  0.032901161   -2.1356392   0.71526422   355647 
13090000   0.47903794   -2.1350118   -2.1350118   -1.4210399  0.037270016   -2.1350118   0.71397188   355593 
13100000   0.47876042   -2.1335683   -2.1335683   -1.4199017  0.035157228   -2.1335683   0.71366663   355539 
13110000   0.48009999   -2.1348837   -2.1348837   -1.4191116   0.03052883   -2.1348837   0.71577217   355485 
13120000   0.47979697   -2.1348654   -2.1348654   -1.4194363  0.035351971   -2.1348654   0.71542909   355431 
13130000   0.47893857   -2.1344653   -2.1344653   -1.4202076  0.027172349   -2.1344653   0.71425763   355377 
13140000   0.47858031   -2.1331691   -2.1331691   -1.4193353  0.035397959   -2.1331691   0.71383383   355322 
13150000    0.4788507   -2.1357055   -2.1357055   -1.4213598  0.032915468   -2.1357055    0.7143457   355268 
13160000   0.47804345   -2.1341581   -2.1341581   -1.4209083  0.032637977   -2.1341581   0.71324987   355214 
13170000   0.47794035   -2.1310114   -2.1310114    -1.417807  0.028959451   -2.1310114   0.71320446   355160 
13180000   0.47810334   -2.1321556   -2.1321556   -1.4185994  0.035558103   -2.1321556   0.71355616   355106 
13190000   0.47951395   -2.1347482   -2.1347482   -1.4189779   0.03212582   -2.1347482   0.71577031   355052 
13200000   0.47820059     -2.13365     -2.13365   -1.4197316  0.020938821     -2.13365   0.71391844   354998 
13210000   0.47734203   -2.1322248   -2.1322248   -1.4194797  0.019601152   -2.1322248   0.71274509   354944 
13220000   0.47786143   -2.1329639   -2.1329639   -1.4193347  0.034945472   -2.1329639    0.7136292   354890 
13230000   0.47783511   -2.1323178   -2.1323178   -1.4186193  0.029856743   -2.1323178    0.7136985   354836 
13240000   0.47778094   -2.1331753   -2.1331753   -1.4194491  0.031159929   -2.1331753    0.7137262   354782 
13250000    0.4771179   -2.1312694   -2.1312694   -1.4184252   0.02524391   -2.1312694   0.71284424   354728 
13260000   0.47758524   -2.1318455   -2.1318455   -1.4181944  0.033656972   -2.1318455    0.7136511   354674 
13270000   0.47825476   -2.1340811   -2.1340811   -1.4193207  0.029890674   -2.1340811   0.71476038   354620 
13280000   0.47756324   -2.1338261   -2.1338261   -1.4199905  0.040424489   -2.1338261    0.7138356   354566 
13290000   0.47587022   -2.1318477   -2.1318477   -1.4204344  0.024175915   -2.1318477   0.71141331   354512 
13300000   0.47744345   -2.1338018   -2.1338018   -1.4199278  0.027919878   -2.1338018   0.71387399   354458 
13310000   0.47822326   -2.1362137   -2.1362137   -1.4210648  0.034196823   -2.1362137   0.71514891   354404 
13320000   0.47794595   -2.1331729   -2.1331729   -1.4183278  0.034514706   -2.1331729   0.71484514   354349 
13330000   0.47725997   -2.1339421   -2.1339421   -1.4200141  0.030855892   -2.1339421   0.71392795   354295 
13340000   0.47604996   -2.1348069   -2.1348069   -1.4225805  0.032539973   -2.1348069   0.71222646   354241 
13350000    0.4785677   -2.1344316   -2.1344316   -1.4183291   0.02827161   -2.1344316   0.71610245   354187 
13360000   0.47609834   -2.1307533   -2.1307533   -1.4182372  0.032391822   -2.1307533   0.71251608   354133 
13370000   0.47722933    -2.133325    -2.133325   -1.4190074  0.031503113    -2.133325   0.71431761   354079 
13380000   0.47766921   -2.1333969   -2.1333969   -1.4183118  0.031365693   -2.1333969   0.71508507   354025 
13390000   0.47546754   -2.1302283   -2.1302283   -1.4183306  0.031304408   -2.1302283    0.7118977   353971 
13400000    0.4763158   -2.1309492   -2.1309492   -1.4176726  0.027962913   -2.1309492   0.71327657   353917 
13410000    0.4773406   -2.1323485   -2.1323485   -1.4174282  0.031536852   -2.1323485   0.71492029   353863 
13420000   0.47642032   -2.1322287   -2.1322287   -1.4185778  0.030377506   -2.1322287   0.71365087   353809 
13430000   0.47619781   -2.1321313   -2.1321313   -1.4187048  0.032752721   -2.1321313   0.71342644   353755 
13440000   0.47619871   -2.1315369   -2.1315369   -1.4180002  0.027492578   -2.1315369   0.71353671   353701 
13450000   0.47737918   -2.1329275   -2.1329275   -1.4175127  0.031167086   -2.1329275   0.71541476   353647 
13460000   0.47676846   -2.1317612   -2.1317612   -1.4171526  0.028483165   -2.1317612   0.71460863   353593 
13470000   0.47654659   -2.1329518   -2.1329518   -1.4185666   0.03302341   -2.1329518   0.71438517   353539 
13480000   0.47415087   -2.1315321   -2.1315321   -1.4206298  0.030406923   -2.1315321   0.71090237   353485 
13490000   0.47529268   -2.1348678   -2.1348678   -1.4221446  0.029141987   -2.1348678   0.71272318   353431 
13500000   0.47638794   -2.1364721   -2.1364721   -1.4219974  0.037158766   -2.1364721   0.71447474   353377 
13510000   0.47567929    -2.134386    -2.134386   -1.4208631  0.032113277    -2.134386   0.71352297   353322 
13520000   0.47532554    -2.132201    -2.132201   -1.4190997  0.029931911    -2.132201   0.71310134   353268 
13530000   0.47629587    -2.131121    -2.131121   -1.4164547   0.03719475    -2.131121    0.7146663   353214 
13540000   0.47564064   -2.1307282   -2.1307282   -1.4169359  0.035479748   -2.1307282   0.71379228   353160 
13550000    0.4755896   -2.1316532   -2.1316532   -1.4178283   0.03181342   -2.1316532   0.71382483   353106 
13560000   0.47425043   -2.1323045   -2.1323045   -1.4203808    0.0294331   -2.1323045   0.71192371   353052 
13570000    0.4753393   -2.1337103   -2.1337103   -1.4200429  0.027990373   -2.1337103   0.71366742   352998 
13580000   0.47468194   -2.1319236   -2.1319236   -1.4191341  0.031834508   -2.1319236   0.71278951   352944 
13590000   0.47472417   -2.1303594   -2.1303594   -1.4173973   0.02583628   -2.1303594   0.71296201   352890 
13600000   0.47548383    -2.133109    -2.133109   -1.4188968  0.033219394    -2.133109   0.71421219   352836 
13610000   0.47474262   -2.1306018   -2.1306018   -1.4173938  0.032369458   -2.1306018   0.71320799   352782 
13620000   0.47497021   -2.1312217   -2.1312217   -1.4175625  0.035770431   -2.1312217   0.71365914   352728 
13630000   0.47532409   -2.1337225   -2.1337225   -1.4194223  0.029033308   -2.1337225   0.71430022   352674 
13640000   0.47535574   -2.1324811   -2.1324811   -1.4180239  0.039401527   -2.1324811   0.71445717   352620 
13650000   0.47368256   -2.1296946   -2.1296946   -1.4176431  0.028031321   -2.1296946   0.71205144   352566 
13660000   0.47448736    -2.131386    -2.131386   -1.4180155  0.025010515    -2.131386   0.71337048   352512 
13670000   0.47413026   -2.1324851   -2.1324851   -1.4195423  0.028933628   -2.1324851   0.71294283   352458 
13680000   0.47454577    -2.129119    -2.129119    -1.415442  0.031139253    -2.129119   0.71367696   352404 
13690000    0.4741879   -2.1279199   -2.1279199   -1.4146699  0.036082034   -2.1279199   0.71325007   352349 
13700000   0.47498437   -2.1291026   -2.1291026    -1.414545  0.025049752   -2.1291026    0.7145576   352295 
13710000   0.47469017   -2.1295008   -2.1295008   -1.4152763  0.033146332   -2.1295008   0.71422448   352241 
13720000   0.47340809     -2.12936     -2.12936   -1.4169553  0.024495596     -2.12936   0.71240466   352187 
13730000   0.47396251   -2.1294314   -2.1294314   -1.4160831  0.029397611   -2.1294314   0.71334835   352133 
13740000   0.47432323    -2.128857    -2.128857   -1.4148562  0.035164887    -2.128857   0.71400076   352079 
13750000   0.47382061   -2.1296019   -2.1296019   -1.4162484  0.033776265   -2.1296019   0.71335356   352025 
13760000   0.47380359   -2.1313474   -2.1313474     -1.41791  0.034426802   -2.1313474   0.71343738   351971 
13770000   0.47313068   -2.1292233   -2.1292233   -1.4166899  0.030999535   -2.1292233   0.71253346   351917 
13780000   0.47265286    -2.130002    -2.130002   -1.4180789  0.032170781    -2.130002   0.71192311   351863 
13790000   0.47231705   -2.1328124   -2.1328124   -1.4212859  0.030991155   -2.1328124   0.71152649   351809 
13800000   0.47338641   -2.1315264   -2.1315264   -1.4182795  0.026126496   -2.1315264   0.71324692   351755 
13810000   0.47316384   -2.1314418   -2.1314418   -1.4184208  0.028670879   -2.1314418   0.71302103   351701 
13820000   0.47127206   -2.1284938   -2.1284938   -1.4182144  0.031706864   -2.1284938   0.71027933   351647 
13830000   0.47369007   -2.1317509   -2.1317509   -1.4177177  0.035645732   -2.1317509   0.71403328   351593 
13840000   0.47312013   -2.1299694   -2.1299694   -1.4166857  0.028584794   -2.1299694   0.71328372   351539 
13850000   0.47274061   -2.1277584   -2.1277584   -1.4149373  0.036213199   -2.1277584   0.71282105   351485 
13860000    0.4729317   -2.1299404   -2.1299404   -1.4167217  0.031016157   -2.1299404   0.71321876   351431 
13870000   0.47232564   -2.1287724   -2.1287724   -1.4163581  0.032648773   -2.1287724   0.71241424   351377 
13880000    0.4711801   -2.1290848   -2.1290848   -1.4182871  0.032784012   -2.1290848   0.71079767   351322 
13890000   0.47217156    -2.127288    -2.127288   -1.4148852  0.031755753    -2.127288   0.71240283   351268 
13900000   0.47349099   -2.1281317   -2.1281317   -1.4136283  0.036048044   -2.1281317   0.71450339   351214 
13910000   0.47151095   -2.1265795   -2.1265795   -1.4149546   0.02814946   -2.1265795    0.7116249   351160 
13920000   0.47279306   -2.1279668   -2.1279668   -1.4142971  0.028181614   -2.1279668   0.71366967   351106 
13930000   0.47238368   -2.1242972   -2.1242972   -1.4111358  0.031180667   -2.1242972    0.7131614   351052 
13940000   0.47208076   -2.1258098   -2.1258098   -1.4129961  0.028014454   -2.1258098   0.71281373   350998 
13950000   0.47342749   -2.1288124   -2.1288124   -1.4138552  0.035523615   -2.1288124    0.7149572   350944 
13960000   0.47079186   -2.1260326   -2.1260326   -1.4149462  0.029396425   -2.1260326   0.71108637   350890 
13970000   0.47114137   -2.1271287   -2.1271287   -1.4154049  0.032928331   -2.1271287    0.7117238   350836 
13980000   0.47116052   -2.1290344   -2.1290344   -1.4171721  0.033098237   -2.1290344   0.71186229   350782 
13990000    0.4716807   -2.1297041   -2.1297041   -1.4169462  0.034137925   -2.1297041   0.71275794   350728 
14000000   0.47239443   -2.1290807   -2.1290807   -1.4151343  0.027872521   -2.1290807   0.71394638   350674 
14010000   0.47074397   -2.1242642   -2.1242642   -1.4127026  0.024564426   -2.1242642   0.71156156   350620 
14020000   0.47123862    -2.123136    -2.123136    -1.410717  0.034632798    -2.123136   0.71241898   350566 
14030000    0.4714481   -2.1257247   -2.1257247   -1.4128792   0.03343766   -2.1257247   0.71284548   350512 
14040000   0.47215053   -2.1270097   -2.1270097   -1.4129921  0.022121787   -2.1270097   0.71401757   350458 
14050000   0.47122957   -2.1241317   -2.1241317    -1.411397  0.028577079   -2.1241317   0.71273466   350404 
14060000   0.47102192   -2.1224196   -2.1224196   -1.4098872   0.02721241   -2.1224196   0.71253243   350349 
14070000   0.47151932   -2.1257436   -2.1257436   -1.4123488  0.028725618   -2.1257436   0.71339483   350295 
14080000   0.47017395   -2.1246297   -2.1246297   -1.4131607  0.031715762   -2.1246297     0.711469   350241 
14090000   0.47006614   -2.1236114   -2.1236114   -1.4121958   0.03012115   -2.1236114   0.71141554   350187 
14100000   0.47106723    -2.125259    -2.125259   -1.4122184  0.026220322    -2.125259   0.71304058   350133 
14110000   0.47043271   -2.1243077   -2.1243077   -1.4121177  0.031558814   -2.1243077   0.71218997   350079 
14120000   0.47038646   -2.1273207   -2.1273207   -1.4150908  0.029615307   -2.1273207   0.71222981   350025 
14130000   0.47040821   -2.1266918   -2.1266918   -1.4143191  0.030979963   -2.1266918   0.71237264   349971 
14140000    0.4692641   -2.1247399   -2.1247399   -1.4139901  0.028970199   -2.1247399    0.7107497   349917 
14150000   0.46981069   -2.1242213   -2.1242213   -1.4125339  0.028735005   -2.1242213   0.71168739   349863 
14160000   0.46954592   -2.1242827   -2.1242827   -1.4128866  0.031519165   -2.1242827   0.71139612   349809 
14170000   0.47017994   -2.1280069   -2.1280069   -1.4155403  0.025511898   -2.1280069   0.71246669   349755 
14180000   0.46831538   -2.1259061   -2.1259061   -1.4161552  0.029137626   -2.1259061   0.70975089   349701 
14190000   0.46944081   -2.1263255   -2.1263255   -1.4147591  0.028576946   -2.1263255    0.7115664   349647 
14200000   0.46920067   -2.1263303   -2.1263303    -1.415018  0.025041501   -2.1263303   0.71131226   349593 
14210000   0.46913517   -2.1266276   -2.1266276   -1.4153048  0.031283501   -2.1266276   0.71132283   349539 
14220000   0.46895393   -2.1238719   -2.1238719    -1.412714  0.031439763   -2.1238719    0.7111579   349485 
14230000   0.46832075   -2.1262857   -2.1262857   -1.4159783  0.027049817   -2.1262857   0.71030744   349431 
14240000   0.46980824   -2.1289037   -2.1289037     -1.41623  0.035091632   -2.1289037   0.71267367   349377 
14250000   0.46888947   -2.1273326   -2.1273326   -1.4159406  0.029217736   -2.1273326   0.71139194   349322 
14260000   0.46814663   -2.1271626   -2.1271626   -1.4167878   0.03067462   -2.1271626   0.71037473   349268 
14270000   0.46970108   -2.1275704   -2.1275704   -1.4147267  0.038002624   -2.1275704   0.71284369   349214 
14280000   0.46818648   -2.1274002   -2.1274002   -1.4167452  0.024899785   -2.1274002   0.71065494   349160 
14290000   0.46924274    -2.129994    -2.129994   -1.4176256  0.035533712    -2.129994   0.71236841   349106 
14300000   0.46816143   -2.1280686   -2.1280686   -1.4172318  0.027469417   -2.1280686    0.7108368   349052 
14310000   0.46724086   -2.1286264   -2.1286264   -1.4190776  0.031182147   -2.1286264   0.70954881   348998 
14320000   0.46890696   -2.1279384   -2.1279384   -1.4157493  0.035582703   -2.1279384   0.71218913   348944 
14330000   0.46679623   -2.1255104   -2.1255104   -1.4164174  0.029678673   -2.1255104   0.70909303   348890 
14340000   0.46684531   -2.1273968   -2.1273968   -1.4181194  0.030398878   -2.1273968   0.70927737   348836 
14350000   0.46765975   -2.1257759   -2.1257759   -1.4151511  0.034543617   -2.1257759   0.71062475   348782 
14360000   0.46824047   -2.1268813   -2.1268813   -1.4152639  0.031345137   -2.1268813   0.71161735   348728 
14370000   0.46731532   -2.1254464   -2.1254464   -1.4151251  0.026578871   -2.1254464   0.71032132   348674 
14380000    0.4672477   -2.1258173   -2.1258173   -1.4154887  0.029364933   -2.1258173   0.71032855   348620 
14390000   0.46742849   -2.1263351   -2.1263351   -1.4156216  0.027270962   -2.1263351   0.71071349   348566 
14400000   0.46762053   -2.1244011   -2.1244011   -1.4132854  0.032433967   -2.1244011   0.71111564   348512 
14410000   0.46768399   -2.1237964   -2.1237964    -1.412474   0.03332549   -2.1237964   0.71132235   348458 
14420000   0.46748077   -2.1245405   -2.1245405   -1.4134171  0.030254415   -2.1245405   0.71112347   348404 
14430000   0.46666811   -2.1261284   -2.1261284   -1.4161291  0.029794035   -2.1261284   0.70999936   348349 
14440000   0.46612695   -2.1240761   -2.1240761   -1.4147902  0.029754841   -2.1240761   0.70928598   348295 
14450000   0.46721984   -2.1247182   -2.1247182    -1.413659  0.033830849   -2.1247182   0.71105922   348241 
14460000   0.46644172    -2.123898    -2.123898   -1.4139129  0.028574485    -2.123898    0.7099851   348187 
14470000   0.46799216   -2.1266075   -2.1266075   -1.4141519  0.033233987   -2.1266075   0.71245557   348133 
14480000   0.46767127   -2.1230413   -2.1230413   -1.4109638  0.033660101   -2.1230413   0.71207751   348079 
14490000   0.46665299   -2.1214377   -2.1214377   -1.4108004  0.034046253   -2.1214377   0.71063732   348025 
14500000   0.46766441    -2.125029    -2.125029    -1.412741  0.030696329    -2.125029   0.71228806   347971 
14510000   0.46739472   -2.1245201   -2.1245201   -1.4125323  0.028293431   -2.1245201   0.71198779   347917 
14520000   0.46767634   -2.1229845   -2.1229845   -1.4104571  0.024303264   -2.1229845   0.71252738   347863 
14530000   0.46670507   -2.1210912   -2.1210912   -1.4099332  0.025367043   -2.1210912     0.711158   347809 
14540000   0.46551036   -2.1200801   -2.1200801   -1.4106324  0.032002967   -2.1200801   0.70944767   347755 
14550000   0.46701933   -2.1235142   -2.1235142   -1.4116563  0.026238825   -2.1235142   0.71185791   347701 
14560000   0.46613674   -2.1242001   -2.1242001   -1.4135772  0.026217817   -2.1242001   0.71062298   347647 
14570000   0.46708308   -2.1269285   -2.1269285   -1.4147522   0.02727079   -2.1269285   0.71217629   347593 
14580000   0.46594829    -2.125821    -2.125821   -1.4152646  0.034060616    -2.125821   0.71055642   347539 
14590000   0.46642602   -2.1231351   -2.1231351   -1.4117396  0.028709958   -2.1231351   0.71139548   347485 
14600000   0.46548556   -2.1226902   -2.1226902   -1.4126188   0.02886855   -2.1226902   0.71007144   347431 
14610000   0.46662619   -2.1242268   -2.1242268   -1.4123048  0.026655529   -2.1242268   0.71192205   347377 
14620000   0.46593107   -2.1227304   -2.1227304   -1.4117563  0.029020126   -2.1227304   0.71097409   347322 
14630000   0.46575125   -2.1232377   -2.1232377   -1.4124275  0.033757299   -2.1232377   0.71081022   347268 
14640000   0.46455246   -2.1218585   -2.1218585   -1.4127675  0.031863703   -2.1218585   0.70909093   347214 
14650000   0.46512225   -2.1239425   -2.1239425   -1.4138714  0.030751316   -2.1239425   0.71007109   347160 
14660000   0.46554211    -2.126487    -2.126487   -1.4156644  0.034393595    -2.126487   0.71082263   347106 
14670000   0.46510472   -2.1234149   -2.1234149   -1.4131496  0.036483986   -2.1234149   0.71026529   347052 
14680000   0.46472834   -2.1217948   -2.1217948   -1.4119939  0.032613314   -2.1217948   0.70980097   346998 
14690000   0.46519867   -2.1206484   -2.1206484   -1.4100185  0.030134255   -2.1206484    0.7106299   346944 
14700000   0.46484382   -2.1210607   -2.1210607   -1.4108623  0.032181733   -2.1210607   0.71019838   346890 
14710000   0.46507218   -2.1220648   -2.1220648   -1.4114069  0.026163678   -2.1220648   0.71065791   346836 
14720000    0.4651227   -2.1215095   -2.1215095   -1.4106637  0.036600879   -2.1215095   0.71084577   346782 
14730000   0.46364954   -2.1199443   -2.1199443   -1.4112396  0.026472739   -2.1199443    0.7087047   346728 
14740000   0.46511501   -2.1235483   -2.1235483   -1.4124928  0.030490191   -2.1235483   0.71105547   346674 
14750000   0.46488995   -2.1240179   -2.1240179   -1.4131958  0.029522433   -2.1240179   0.71082212   346620 
14760000   0.46391344   -2.1234501   -2.1234501   -1.4140105  0.028825642   -2.1234501   0.70943955   346566 
14770000   0.46516692   -2.1226454   -2.1226454   -1.4111781  0.030403122   -2.1226454   0.71146729   346512 
14780000   0.46487275   -2.1244274   -2.1244274   -1.4132992  0.028663143   -2.1244274   0.71112818   346458 
14790000   0.46471492   -2.1239395   -2.1239395   -1.4129419  0.038536372   -2.1239395   0.71099757   346404 
14800000   0.46405019   -2.1202528   -2.1202528   -1.4101595  0.031740075   -2.1202528    0.7100933   346349 
14810000   0.46520994   -2.1210819   -2.1210819   -1.4091029  0.030977399   -2.1210819   0.71197897   346295 
14820000   0.46323789   -2.1209757   -2.1209757   -1.4119043  0.036974456   -2.1209757   0.70907142   346241 
14830000   0.46376254   -2.1221048   -2.1221048   -1.4121196  0.027762568   -2.1221048   0.70998521   346187 
14840000   0.46330953   -2.1183047   -2.1183047   -1.4089024  0.029967687   -2.1183047   0.70940236   346133 
14850000   0.46347093   -2.1152875   -2.1152875   -1.4055273  0.028242458   -2.1152875   0.70976021   346079 
14860000   0.46362925    -2.116977    -2.116977   -1.4068635  0.030447616    -2.116977   0.71011346   346025 
14870000   0.46296774   -2.1206419   -2.1206419   -1.4114309  0.035473271   -2.1206419   0.70921095   345971 
14880000   0.46374447   -2.1222669   -2.1222669   -1.4117552  0.033996703   -2.1222669    0.7105117   345917 
14890000   0.46233923   -2.1192076   -2.1192076   -1.4107383  0.029978846   -2.1192076   0.70846931   345863 
14900000   0.46256998   -2.1193345   -2.1193345    -1.410401  0.034399705   -2.1193345   0.70893358   345809 
14910000   0.46278381   -2.1223973   -2.1223973   -1.4130252  0.027038574   -2.1223973   0.70937207   345755 
14920000   0.46237305   -2.1212932   -2.1212932   -1.4124401  0.034479229   -2.1212932   0.70885314   345701 
14930000   0.46306969   -2.1208813   -2.1208813   -1.4108492  0.033852168   -2.1208813   0.71003207   345647 
14940000   0.46375834   -2.1224841   -2.1224841    -1.411285  0.026830164   -2.1224841   0.71119909   345593 
14950000   0.46230196   -2.1191282   -2.1191282   -1.4100518  0.029145702   -2.1191282   0.70907644   345539 
14960000   0.46305887   -2.1219201   -2.1219201   -1.4115717  0.028115601   -2.1219201    0.7103484   345485 
14970000   0.46215043   -2.1210961   -2.1210961   -1.4120305   0.02424719   -2.1210961   0.70906565   345431 
14980000   0.46216973   -2.1197951   -2.1197951    -1.410589  0.033397784   -2.1197951   0.70920613   345377 
14990000   0.46133932   -2.1205852   -2.1205852   -1.4125406  0.029415123   -2.1205852    0.7080446   345322 
15000000   0.46229528    -2.118843    -2.118843   -1.4092203  0.032878577    -2.118843   0.70962274   345268 
15010000   0.46178694   -2.1173106   -2.1173106   -1.4083573  0.024129443   -2.1173106   0.70895332   345214 
15020000   0.46227329   -2.1213289   -2.1213289   -1.4115178  0.030221796   -2.1213289   0.70981102   345160 
15030000   0.46078602   -2.1171936   -2.1171936   -1.4095555  0.028754195   -2.1171936   0.70763806   345106 
15040000   0.46159408   -2.1186692   -2.1186692   -1.4096793  0.034714624   -2.1186692   0.70898995   345052 
15050000   0.46050588   -2.1164857   -2.1164857   -1.4090564   0.03112319   -2.1164857   0.70742923   344998 
15060000   0.46196237   -2.1182549   -2.1182549   -1.4084771  0.027990732   -2.1182549   0.70977778   344944 
15070000   0.46265423   -2.1193617   -2.1193617   -1.4084097   0.03349746   -2.1193617   0.71095208   344890 
15080000   0.46227955   -2.1176588   -2.1176588   -1.4071712  0.026199169   -2.1176588   0.71048756   344836 
15090000     0.461367   -2.1176693   -2.1176693   -1.4084732  0.032237636   -2.1176693    0.7091961   344782 
15100000   0.46092377   -2.1187666   -2.1187666   -1.4101408  0.033393475   -2.1187666   0.70862577   344728 
15110000   0.46160292    -2.118895    -2.118895   -1.4091139  0.034529545    -2.118895   0.70978108   344674 
15120000   0.46117609   -2.1179074   -2.1179074   -1.4086716  0.033387712   -2.1179074   0.70923588   344620 
15130000   0.46142243   -2.1197991   -2.1197991   -1.4100732  0.031462875   -2.1197991   0.70972594   344566 
15140000   0.46171819   -2.1169812   -2.1169812    -1.406689  0.031965024   -2.1169812   0.71029218   344512 
15150000    0.4619639   -2.1178874   -2.1178874   -1.4071058  0.035123135   -2.1178874   0.71078157   344458 
15160000   0.46067994    -2.115926    -2.115926   -1.4070088  0.032925352    -2.115926    0.7089172   344404 
15170000   0.46090906   -2.1188852   -2.1188852   -1.4095022  0.032503181   -2.1188852   0.70938306   344349 
15180000   0.45969505   -2.1171136   -2.1171136    -1.409488  0.026314523   -2.1171136   0.70762556   344295 
15190000   0.46122186   -2.1184444   -2.1184444   -1.4083572  0.027585434   -2.1184444   0.71008721   344241 
15200000    0.4609482    -2.117114    -2.117114   -1.4073368  0.037668767    -2.117114   0.70977723   344187 
15210000   0.46073901   -2.1157637   -2.1157637   -1.4061972  0.037633756   -2.1157637   0.70956644   344133 
15220000   0.45933133   -2.1165186   -2.1165186    -1.409009    0.0267938   -2.1165186   0.70750954   344079 
15230000   0.46012949   -2.1184543   -2.1184543   -1.4096041  0.030199298   -2.1184543    0.7088502   344025 
15240000   0.46046862   -2.1188829   -2.1188829   -1.4093989  0.028836256   -2.1188829   0.70948401   343971 
15250000   0.45980773    -2.116669    -2.116669    -1.408092  0.033906217    -2.116669   0.70857695   343917 
15260000   0.45972241   -2.1140462   -2.1140462   -1.4054895  0.033111365   -2.1140462   0.70855672   343863 
15270000   0.45982506   -2.1149977   -2.1149977   -1.4061715  0.026278896   -2.1149977   0.70882625   343809 
15280000   0.45899984   -2.1130168   -2.1130168   -1.4053515  0.030766417   -2.1130168   0.70766531   343755 
15290000   0.45879145   -2.1153371   -2.1153371   -1.4078819  0.023330222   -2.1153371   0.70745516   343701 
15300000    0.4592951   -2.1158497   -2.1158497   -1.4075066  0.030097669   -2.1158497   0.70834307   343647 
15310000   0.45870189    -2.115097    -2.115097   -1.4075576  0.027162342    -2.115097   0.70753939   343593 
15320000   0.45956615    -2.114155    -2.114155   -1.4051711  0.031845302    -2.114155   0.70898391   343539 
15330000   0.45903526   -2.1119198   -2.1119198   -1.4036436  0.026354876   -2.1119198   0.70827624   343485 
15340000   0.45935103   -2.1141736   -2.1141736   -1.4052987  0.033344629   -2.1141736    0.7088749   343431 
15350000   0.46082823   -2.1161054   -2.1161054    -1.404839  0.027479742   -2.1161054   0.71126637   343377 
15360000   0.45914256   -2.1133091   -2.1133091   -1.4045309  0.035053069   -2.1133091   0.70877814   343322 
15370000   0.45812986   -2.1132761   -2.1132761     -1.40595   0.03679319   -2.1132761   0.70732609   343268 
15380000   0.45871654   -2.1144181   -2.1144181   -1.4060748  0.024348226   -2.1144181   0.70834332   343214 
15390000   0.45792394   -2.1129398   -2.1129398   -1.4057091  0.028149782   -2.1129398   0.70723068   343160 
15400000   0.45882141   -2.1152406   -2.1152406   -1.4065123  0.030109947   -2.1152406   0.70872828   343106 
15410000    0.4584315   -2.1128105   -2.1128105    -1.404573  0.031713141   -2.1128105   0.70823746   343052 
15420000   0.45830333   -2.1139952   -2.1139952   -1.4058443   0.03631981   -2.1139952   0.70815091   342998 
15430000   0.45791541   -2.1139165   -2.1139165   -1.4062536  0.024152911   -2.1139165   0.70766293   342944 
15440000   0.45803458   -2.1133293   -2.1133293   -1.4053708  0.025846642   -2.1133293   0.70795857   342890 
15450000   0.45839749   -2.1134693   -2.1134693   -1.4048382  0.037170195   -2.1134693    0.7086311   342836 
15460000   0.45748473   -2.1106858   -2.1106858   -1.4033543  0.028587026   -2.1106858   0.70733149   342782 
15470000   0.45865024   -2.1141424   -2.1141424   -1.4048972  0.030620019   -2.1141424   0.70924525   342728 
15480000   0.45854062   -2.1136222   -2.1136222   -1.4044347  0.032538494   -2.1136222   0.70918748   342674 
15490000   0.45700936   -2.1118215   -2.1118215   -1.4048909   0.03756738   -2.1118215    0.7069306   342620 
15500000   0.45703259   -2.1143139   -2.1143139   -1.4072359  0.042201145   -2.1143139   0.70707798   342566 
15510000   0.45635242   -2.1132675   -2.1132675   -1.4071305  0.027583729   -2.1132675   0.70613699   342512 
15520000   0.45713107   -2.1149947   -2.1149947   -1.4075413  0.029270385   -2.1149947   0.70745337   342458 
15530000   0.45828376   -2.1144032   -2.1144032   -1.4050541  0.033543298   -2.1144032   0.70934913   342404 
15540000   0.45637326   -2.1108192   -2.1108192   -1.4043137  0.034471011   -2.1108192   0.70650546   342349 
15550000   0.45704752   -2.1100474   -2.1100474   -1.4023865  0.022162565   -2.1100474    0.7076609   342295 
15560000   0.45606424   -2.1104465   -2.1104465   -1.4041966  0.030025843   -2.1104465   0.70624988   342241 
15570000   0.45724011    -2.111151    -2.111151   -1.4029684  0.027641493    -2.111151   0.70818254   342187 
15580000   0.45648549   -2.1094356   -2.1094356   -1.4023102  0.032879029   -2.1094356   0.70712536   342133 
15590000   0.45687205   -2.1086173   -2.1086173   -1.4007815   0.03191066   -2.1086173   0.70783588   342079 
15600000   0.45602239    -2.108748    -2.108748    -1.402117  0.032866059    -2.108748   0.70663105   342025 
15610000   0.45636228   -2.1119963   -2.1119963   -1.4047269  0.029690171   -2.1119963   0.70726939   341971 
15620000    0.4570882   -2.1148639   -2.1148639   -1.4063576  0.031829013   -2.1148639   0.70850629   341917 
15630000   0.45671653   -2.1128418   -2.1128418   -1.4047998   0.02777919   -2.1128418   0.70804202   341863 
15640000   0.45765597   -2.1104651   -2.1104651   -1.4008546  0.027295426   -2.1104651    0.7096105   341809 
15650000   0.45601174     -2.11066     -2.11066   -1.4034872  0.026322437     -2.11066   0.70717279   341755 
15660000    0.4567639   -2.1150898   -2.1150898   -1.4066386  0.031967653   -2.1150898   0.70845117   341701 
15670000   0.45480399   -2.1119412   -2.1119412   -1.4064184  0.026970716   -2.1119412    0.7055228   341647 
15680000   0.45519374   -2.1112597   -2.1112597   -1.4050207  0.023212002   -2.1112597   0.70623903   341593 
15690000   0.45535775   -2.1107458   -2.1107458   -1.4041406  0.032048134   -2.1107458   0.70660519   341539 
15700000   0.45612686   -2.1130538   -2.1130538   -1.4051432  0.038859201   -2.1130538    0.7079106   341485 
15710000     0.455058   -2.1121644   -2.1121644    -1.405801  0.028762792   -2.1121644   0.70636341   341431 
15720000   0.45561099   -2.1104334   -2.1104334   -1.4030998  0.033643867   -2.1104334   0.70733368   341377 
15730000   0.45562594   -2.1121189   -2.1121189    -1.404648  0.027893329   -2.1121189   0.70747086   341322 
15740000   0.45616865   -2.1128528   -2.1128528   -1.4044272  0.034570716   -2.1128528   0.70842563   341268 
15750000   0.45519299   -2.1088646   -2.1088646   -1.4018423   0.02937409   -2.1088646   0.70702231   341214 
15760000   0.45422093   -2.1079181   -2.1079181    -1.402294  0.031157879   -2.1079181   0.70562415   341160 
15770000   0.45509725   -2.1081398   -2.1081398   -1.4010424  0.022255384   -2.1081398   0.70709742   341106 
15780000   0.45558279   -2.1074045   -2.1074045   -1.3994406  0.029483701   -2.1074045   0.70796389   341052 
15790000   0.45446993    -2.107546    -2.107546   -1.4011997   0.03195415    -2.107546   0.70634637   340998 
15800000   0.45479066   -2.1091957   -2.1091957   -1.4022389  0.026272861   -2.1091957    0.7069568   340944 
15810000   0.45578277   -2.1076437   -2.1076437   -1.3990325  0.034026788   -2.1076437   0.70861125   340890 
15820000   0.45438262    -2.106034    -2.106034   -1.3994877  0.025303419    -2.106034   0.70654634   340836 
15830000   0.45446501    -2.106995    -2.106995   -1.4002086   0.03243418    -2.106995   0.70678642   340782 
15840000   0.45483116   -2.1060136   -2.1060136   -1.3985457  0.030599558   -2.1060136   0.70746798   340728 
15850000   0.45479116   -2.1052669   -2.1052669    -1.397749  0.025173152   -2.1052669   0.70751789   340674 
15860000    0.4556695    -2.106405    -2.106405   -1.3974083  0.033389878    -2.106405   0.70899671   340620 
15870000   0.45467496   -2.1071656   -2.1071656   -1.3996042  0.025381446   -2.1071656   0.70756142   340566 
15880000   0.45498364   -2.1066556   -2.1066556   -1.3985015  0.024318021   -2.1066556   0.70815407   340512 
15890000   0.45376303   -2.1031131   -2.1031131   -1.3967468  0.024075279   -2.1031131   0.70636629   340458 
15900000    0.4544688   -2.1047098   -2.1047098   -1.3971326  0.030963803   -2.1047098   0.70757717   340404 
15910000   0.45219985    -2.105043    -2.105043   -1.4008846  0.028224457    -2.105043   0.70415835   340349 
15920000   0.45325374   -2.1062552   -2.1062552   -1.4003437  0.032046279   -2.1062552   0.70591145   340295 
15930000   0.45413438   -2.1070865   -2.1070865   -1.3996913  0.028362023   -2.1070865   0.70739524   340241 
15940000   0.45329146   -2.1030046   -2.1030046   -1.3968102  0.031876896   -2.1030046   0.70619433   340187 
15950000   0.45437512   -2.1027359   -2.1027359   -1.3947409  0.028274084   -2.1027359   0.70799497   340133 
15960000   0.45339253   -2.1043366   -2.1043366   -1.3977605   0.03675362   -2.1043366   0.70657609   340079 
15970000   0.45375991   -2.1052979   -2.1052979    -1.398037  0.034961725   -2.1052979   0.70726094   340025 
15980000   0.45381273   -2.1062365   -2.1062365   -1.3987809  0.034401055   -2.1062365   0.70745561   339971 
15990000   0.45353153   -2.1068863   -2.1068863   -1.3997567  0.030815714   -2.1068863   0.70712956   339917 
16000000   0.45393172   -2.1063784   -2.1063784   -1.3985124  0.036167692   -2.1063784   0.70786599   339863 
16010000   0.45106488   -2.1076688   -2.1076688   -1.4041616   0.03095848   -2.1076688   0.70350718   339809 
16020000   0.45275008   -2.1092473   -2.1092473   -1.4029995   0.03490494   -2.1092473   0.70624775   339755 
16030000   0.45270395    -2.106274    -2.106274    -1.399986  0.035393661    -2.106274   0.70628805   339701 
16040000    0.4540414   -2.1079588   -2.1079588   -1.3994715  0.030510305   -2.1079588   0.70848729   339647 
16050000   0.45204364   -2.1053627   -2.1053627   -1.3998806  0.027826548   -2.1053627   0.70548215   339593 
16060000   0.45313117   -2.1068479   -2.1068479    -1.399556  0.037456432   -2.1068479   0.70729188   339539 
16070000   0.45115479   -2.1060423   -2.1060423   -1.4017234   0.03234416   -2.1060423   0.70431896   339485 
16080000   0.45262215   -2.1060845   -2.1060845   -1.3993623  0.031833912   -2.1060845   0.70672214   339431 
16090000   0.45250113   -2.1054759   -2.1054759   -1.3988303  0.030859377   -2.1054759    0.7066456   339377 
16100000   0.45111576   -2.1044236   -2.1044236   -1.3998273  0.031795785   -2.1044236   0.70459633   339322 
16110000   0.45215147   -2.1064662   -2.1064662   -1.4001398  0.030891087   -2.1064662   0.70632642   339268 
16120000   0.45352313   -2.1078992   -2.1078992   -1.3993172  0.032474957   -2.1078992   0.70858193   339214 
16130000   0.45238675   -2.1065124   -2.1065124   -1.3995934  0.029979411   -2.1065124   0.70691899   339160 
16140000   0.45306615   -2.1056154   -2.1056154    -1.397522  0.029288139   -2.1056154   0.70809339   339106 
16150000   0.45083133   -2.1038124   -2.1038124   -1.3990996  0.029490953   -2.1038124   0.70471283   339052 
16160000   0.45202218   -2.1070752   -2.1070752   -1.4003884  0.033980102   -2.1070752   0.70668685   338998 
16170000   0.45101174   -2.1070587   -2.1070587   -1.4018392  0.023187655   -2.1070587   0.70521947   338944 
16180000   0.45265593   -2.1089124   -2.1089124   -1.4010092  0.034162003   -2.1089124   0.70790318   338890 
16190000   0.45207454   -2.1082995   -2.1082995   -1.4011929  0.033722078   -2.1082995   0.70710661   338836 
16200000   0.45079459   -2.1065251   -2.1065251   -1.4013081   0.03331504   -2.1065251   0.70521699   338782 
16210000   0.45264127   -2.1105588   -2.1105588     -1.40234  0.036299898   -2.1105588    0.7082188   338728 
16220000   0.45046384   -2.1075766   -2.1075766   -1.4026524   0.03192767   -2.1075766   0.70492429   338674 
16230000   0.44907999   -2.1035746   -2.1035746   -1.4007038  0.032186656   -2.1035746   0.70287079   338620 
16240000   0.45127053   -2.1067974   -2.1067974   -1.4003855  0.027351024   -2.1067974   0.70641194   338566 
16250000   0.45046505   -2.1083026   -2.1083026   -1.4030391  0.033010689   -2.1083026   0.70526354   338512 
16260000   0.45022485   -2.1081241   -2.1081241   -1.4031242  0.029035958   -2.1081241   0.70499994   338458 
16270000   0.44953826   -2.1071837   -2.1071837   -1.4031466   0.02451538   -2.1071837   0.70403713   338404 
16280000   0.45022458    -2.108886    -2.108886   -1.4036594  0.033054322    -2.108886   0.70522662   338349 
16290000   0.45025227   -2.1083378   -2.1083378   -1.4029552  0.032010376   -2.1083378   0.70538258   338295 
16300000   0.44962171   -2.1060579   -2.1060579   -1.4015508  0.029813635   -2.1060579   0.70450717   338241 
16310000   0.44968041   -2.1063594   -2.1063594   -1.4016477  0.029387764   -2.1063594   0.70471166   338187 
16320000   0.44972485   -2.1084507   -2.1084507   -1.4035568  0.031501583   -2.1084507   0.70489386   338133 
16330000   0.45047612   -2.1073374   -2.1073374   -1.4011533  0.032038258   -2.1073374   0.70618417   338079 
16340000    0.4491247   -2.1053463   -2.1053463   -1.4011682  0.033978055   -2.1053463    0.7041781   338025 
16350000   0.44945411   -2.1048281   -2.1048281   -1.4000209  0.031502604   -2.1048281   0.70480718   337971 
16360000   0.44987295   -2.1054088   -2.1054088   -1.3998321  0.025865022   -2.1054088   0.70557671   337917 
16370000   0.44883705   -2.1046259   -2.1046259   -1.4005614  0.035276921   -2.1046259   0.70406452   337863 
16380000   0.44944059   -2.1052437   -2.1052437   -1.4001197  0.031505189   -2.1052437   0.70512397   337809 
16390000    0.4503897    -2.107157    -2.107157    -1.400431  0.022859875    -2.107157   0.70672599   337755 
16400000   0.44950274   -2.1059402   -2.1059402   -1.4004932  0.028566089   -2.1059402     0.705447   337701 
16410000   0.44804678   -2.1043315   -2.1043315    -1.401057  0.030062868   -2.1043315   0.70327448   337647 
16420000    0.4497159   -2.1045586   -2.1045586   -1.3985513  0.025451161   -2.1045586   0.70600732   337593 
16430000   0.44969539   -2.1039751   -2.1039751    -1.397887  0.031347963   -2.1039751   0.70608807   337539 
16440000   0.44985702   -2.1043464   -2.1043464   -1.3978915   0.03740612   -2.1043464   0.70645487   337485 
16450000   0.44895459   -2.1033702   -2.1033702   -1.3982197  0.026478635   -2.1033702   0.70515053   337431 
16460000   0.44889811   -2.1060587   -2.1060587    -1.400884  0.031203579   -2.1060587   0.70517466   337377 
16470000   0.45004164   -2.1049016   -2.1049016   -1.3978153  0.028093067   -2.1049016   0.70708632   337322 
16480000   0.44961571   -2.1029301   -2.1029301   -1.3963999  0.028211371   -2.1029301   0.70653022   337268 
16490000   0.44931558   -2.1029654   -2.1029654   -1.3967937  0.034339491   -2.1029654   0.70617165   337214 
16500000   0.44979348   -2.1060226   -2.1060226   -1.3989866  0.031046139   -2.1060226   0.70703597   337160 
16510000   0.44776383   -2.1028997   -2.1028997   -1.3989414  0.031924063   -2.1028997   0.70395829   337106 
16520000   0.44936066   -2.1054907   -2.1054907   -1.3989087  0.035664926   -2.1054907   0.70658195   337052 
16530000   0.44829998    -2.105101    -2.105101   -1.4000739  0.028062832    -2.105101   0.70502707   336998 
16540000   0.44797061   -2.1047341   -2.1047341   -1.4001121   0.02971451   -2.1047341   0.70462199   336944 
16550000   0.44730086   -2.1043851   -2.1043851   -1.4007038  0.030571648   -2.1043851    0.7036813   336890 
16560000    0.4489816   -2.1044702   -2.1044702   -1.3980316  0.028002749   -2.1044702   0.70643863   336836 
16570000   0.44811779   -2.1033462   -2.1033462   -1.3981537  0.034856787   -2.1033462   0.70519254   336782 
16580000   0.44783726   -2.1027663   -2.1027663   -1.3979022  0.026569468   -2.1027663    0.7048641   336728 
16590000   0.44929647   -2.1038128   -2.1038128   -1.3965386  0.037093021   -2.1038128   0.70727421   336674 
16600000    0.4485884   -2.1042447   -2.1042447   -1.3979718  0.034937439   -2.1042447   0.70627287   336620 
16610000   0.44640691   -2.1019351   -2.1019351   -1.3989841  0.031895705   -2.1019351   0.70295101   336566 
16620000   0.44823908   -2.1022193   -2.1022193   -1.3962699  0.023063764   -2.1022193   0.70594937   336512 
16630000   0.44820699   -2.1005538   -2.1005538   -1.3945417  0.039223948   -2.1005538   0.70601213   336458 
16640000   0.44898033   -2.1015393   -2.1015393   -1.3941955  0.026868612   -2.1015393   0.70734381   336404 
16650000   0.44775882   -2.1009541   -2.1009541   -1.3954194  0.032225362   -2.1009541   0.70553474   336349 
16660000   0.44723573   -2.0992359   -2.0992359   -1.3944123  0.033915791   -2.0992359   0.70482367   336295 
16670000   0.44853736   -2.1000405   -2.1000405    -1.393052  0.030217364   -2.1000405   0.70698851   336241 
16680000   0.44729072   -2.0959585   -2.0959585   -1.3908217  0.026430013   -2.0959585   0.70513679   336187 
16690000   0.44864822   -2.0987242   -2.0987242   -1.3913337  0.028691779   -2.0987242   0.70739046   336133 
16700000   0.44716306   -2.0996246   -2.0996246   -1.3944625  0.026661924   -2.0996246   0.70516207   336079 
16710000   0.44626469   -2.0972662   -2.0972662   -1.3934077  0.030521998   -2.0972662   0.70385846   336025 
16720000   0.44636213   -2.0957911   -2.0957911   -1.3916658  0.032550936   -2.0957911   0.70412529   335971 
16730000   0.44665482   -2.0980629   -2.0980629   -1.3933626  0.030776544   -2.0980629   0.70470027   335917 
16740000   0.44672965   -2.0990482   -2.0990482   -1.3941165  0.029735884   -2.0990482   0.70493166   335863 
16750000   0.44616125   -2.1000266   -2.1000266   -1.3958786  0.032713556   -2.1000266   0.70414794   335809 
16760000   0.44667166   -2.1000144   -2.1000144   -1.3949475  0.028131274   -2.1000144   0.70506686   335755 
16770000   0.44539172   -2.1002015   -2.1002015   -1.3970419  0.026453869   -2.1002015   0.70315958   335701 
16780000   0.44786532   -2.1020606   -2.1020606   -1.3948821  0.037912898   -2.1020606   0.70717852   335647 
16790000   0.44666668   -2.0994171   -2.0994171   -1.3940178  0.032993632   -2.0994171   0.70539936   335593 
16800000   0.44690541    -2.099963    -2.099963   -1.3940731  0.026748001    -2.099963   0.70588996   335539 
16810000   0.44569876   -2.0964028   -2.0964028   -1.3923055  0.033512834   -2.0964028   0.70409736   335485 
16820000   0.44614551   -2.0975665   -2.0975665   -1.3926499  0.029337143   -2.0975665   0.70491659   335431 
16830000    0.4463543   -2.0974398   -2.0974398   -1.3920798  0.032255347   -2.0974398   0.70536003   335377 
16840000   0.44565241    -2.096913    -2.096913   -1.3925466  0.023855122    -2.096913   0.70436637   335322 
16850000   0.44583083   -2.0959976   -2.0959976   -1.3912357  0.031636614   -2.0959976   0.70476186   335268 
16860000   0.44540921   -2.0962019   -2.0962019   -1.3919931  0.030127671   -2.0962019    0.7042088   335214 
16870000   0.44572036   -2.0971665   -2.0971665   -1.3923522  0.031736176   -2.0971665   0.70481426   335160 
16880000   0.44504882   -2.0969135   -2.0969135   -1.3930477  0.030060765   -2.0969135   0.70386577   335106 
16890000   0.44674231   -2.0968701   -2.0968701   -1.3902121  0.033721921   -2.0968701   0.70665798   335052 
16900000   0.44556325   -2.0954614   -2.0954614   -1.3905548  0.020668593   -2.0954614   0.70490656   334998 
16910000   0.44408027   -2.0933522   -2.0933522   -1.3906785  0.029512412   -2.0933522   0.70267365   334944 
16920000   0.44556019   -2.0978787   -2.0978787   -1.3927497   0.03468647   -2.0978787   0.70512904   334890 
16930000   0.44350149   -2.0936319   -2.0936319   -1.3916477  0.026581363   -2.0936319   0.70198419   334836 
16940000   0.44437279   -2.0948925   -2.0948925   -1.3914157  0.030632544   -2.0948925   0.70347676   334782 
16950000    0.4440597   -2.0950393   -2.0950393   -1.3919448  0.030489604   -2.0950393   0.70309452   334728 
16960000   0.44530674   -2.0961707   -2.0961707   -1.3909879  0.031283317   -2.0961707   0.70518277   334674 
16970000   0.44428092   -2.0951849   -2.0951849   -1.3915131  0.031300899   -2.0951849   0.70367182   334620 
16980000   0.44340271   -2.0938766   -2.0938766   -1.3914824  0.029679655   -2.0938766   0.70239423   334566 
16990000   0.44494545   -2.0964953   -2.0964953   -1.3915435  0.033030719   -2.0964953   0.70495187   334512 
17000000   0.44380508    -2.092141    -2.092141   -1.3888824  0.034905373    -2.092141   0.70325865   334458 
17010000   0.44403956   -2.0928286   -2.0928286   -1.3890848  0.032978573   -2.0928286   0.70374383   334404 
17020000   0.44412984   -2.0954356   -2.0954356   -1.3914329  0.032800743   -2.0954356   0.70400269   334349 
17030000   0.44337736   -2.0942607   -2.0942607   -1.3913373   0.02501121   -2.0942607   0.70292345   334295 
17040000   0.44404122   -2.0936793   -2.0936793   -1.3895896  0.028754928   -2.0936793   0.70408965   334241 
17050000   0.44362299    -2.094607    -2.094607   -1.3910668   0.03040025    -2.094607   0.70354016   334187 
17060000    0.4431334   -2.0961386   -2.0961386   -1.3932613  0.029316704   -2.0961386    0.7028773   334133 
17070000   0.44412507   -2.0971987   -2.0971987   -1.3926346  0.026529253   -2.0971987    0.7045641   334079 
17080000   0.44292896    -2.094214    -2.094214   -1.3914338   0.02767702    -2.094214   0.70278018   334025 
17090000   0.44236126    -2.093932    -2.093932   -1.3919391   0.03293086    -2.093932   0.70199292   333971 
17100000   0.44330551   -2.0945003   -2.0945003   -1.3908951  0.035680021   -2.0945003   0.70360513   333917 
17110000   0.44357475   -2.0924412   -2.0924412   -1.3882949  0.026914982   -2.0924412   0.70414633   333863 
17120000   0.44429098   -2.0911034   -2.0911034    -1.385706  0.031647034   -2.0911034   0.70539739   333809 
17130000   0.44378815    -2.090406    -2.090406    -1.385693  0.036361784    -2.090406   0.70471305   333755 
17140000   0.44287486   -2.0913511   -2.0913511   -1.3879745  0.029260368   -2.0913511   0.70337661   333701 
17150000   0.44456121   -2.0962495   -2.0962495   -1.3900804  0.034389264   -2.0962495   0.70616915   333647 
17160000   0.44363185   -2.0964784   -2.0964784   -1.3916715  0.025804569   -2.0964784   0.70480696   333593 
17170000   0.44330925   -2.0946843   -2.0946843   -1.3902758   0.02931288   -2.0946843   0.70440847   333539 
17180000   0.44302545   -2.0921793   -2.0921793   -1.3881078  0.030235685   -2.0921793    0.7040715   333485 
17190000   0.44379578    -2.091348    -2.091348   -1.3859381  0.035628007    -2.091348   0.70540997   333431 
17200000   0.44200078   -2.0909817   -2.0909817   -1.3883111  0.034852079   -2.0909817   0.70267062   333377 
17210000   0.44288002   -2.0922515   -2.0922515    -1.388067  0.035970261   -2.0922515   0.70418458   333322 
17220000   0.44128295   -2.0905995   -2.0905995   -1.3888406  0.036953622   -2.0905995   0.70175891   333268 
17230000   0.44202841   -2.0920371   -2.0920371   -1.3889788  0.032157402   -2.0920371   0.70305831   333214 
17240000   0.44351506   -2.0965602   -2.0965602   -1.3910231  0.032339432   -2.0965602    0.7055372   333160 
17250000   0.44149171   -2.0917459   -2.0917459   -1.3893136   0.02928817   -2.0917459   0.70243234   333106 
17260000   0.44144065   -2.0894229   -2.0894229   -1.3869579  0.028445812   -2.0894229   0.70246498   333052 
17270000   0.44255853   -2.0913346   -2.0913346   -1.3869765  0.031079719   -2.0913346   0.70435806   332998 
17280000   0.44210359   -2.0912102   -2.0912102   -1.3874621  0.031886466   -2.0912102   0.70374812   332944 
17290000   0.44288886    -2.092599    -2.092599   -1.3874866  0.026848539    -2.092599   0.70511249   332890 
17300000   0.44172508   -2.0934394   -2.0934394   -1.3900656  0.033166485   -2.0934394   0.70337376   332836 
17310000   0.44151604   -2.0935916   -2.0935916   -1.3904366  0.033790944   -2.0935916   0.70315498   332782 
17320000   0.44110248   -2.0935992   -2.0935992   -1.3909888  0.034853733   -2.0935992   0.70261036   332728 
17330000   0.44040569   -2.0926141   -2.0926141   -1.3909998  0.034449937   -2.0926141   0.70161434   332674 
17340000   0.44064797   -2.0940767   -2.0940767   -1.3919624  0.041697875   -2.0940767   0.70211429   332620 
17350000     0.439769   -2.0938252   -2.0938252   -1.3929977  0.028967369   -2.0938252   0.70082755   332566 
17360000   0.44037748   -2.0909148   -2.0909148   -1.3890036  0.027030969   -2.0909148   0.70191121   332512 
17370000   0.44013533   -2.0905415   -2.0905415   -1.3889023  0.029254833   -2.0905415   0.70163919   332458 
17380000   0.44022342   -2.0920451   -2.0920451   -1.3901515  0.028223653   -2.0920451   0.70189363   332404 
17390000   0.44025979   -2.0931651   -2.0931651   -1.3910973  0.029614512   -2.0931651   0.70206778   332349 
17400000   0.44067727   -2.0934709   -2.0934709   -1.3906232  0.033401478   -2.0934709   0.70284772   332295 
17410000   0.43987516    -2.093642    -2.093642   -1.3919596  0.031349409    -2.093642   0.70168244   332241 
17420000   0.44040368   -2.0962669   -2.0962669   -1.3936271  0.029129557   -2.0962669   0.70263973   332187 
17430000   0.44043393   -2.0955839   -2.0955839   -1.3927816  0.032269865   -2.0955839   0.70280224   332133 
17440000   0.44026928   -2.0935304   -2.0935304   -1.3908766  0.033459627   -2.0935304   0.70265376   332079 
17450000    0.4389972   -2.0902791   -2.0902791   -1.3895416  0.032893869   -2.0902791    0.7007375   332025 
17460000   0.43981857   -2.0897806   -2.0897806   -1.3876178  0.031590654   -2.0897806    0.7021628   331971 
17470000    0.4395627   -2.0897339   -2.0897339   -1.3878655   0.03395371   -2.0897339   0.70186847   331917 
17480000   0.43938334   -2.0898413   -2.0898413    -1.388145  0.031290118   -2.0898413   0.70169624   331863 
17490000   0.44028524   -2.0910836   -2.0910836   -1.3878326  0.034131227   -2.0910836     0.703251   331809 
17500000    0.4384558   -2.0879397   -2.0879397   -1.3874968  0.025421629   -2.0879397    0.7004429   331755 
17510000   0.43918931   -2.0931381   -2.0931381   -1.3914091  0.024842461   -2.0931381   0.70172892   331701 
17520000   0.43851266   -2.0910231   -2.0910231   -1.3902613  0.035972961   -2.0910231   0.70076186   331647 
17530000   0.43984394   -2.0926813   -2.0926813   -1.3896775  0.036216212   -2.0926813   0.70300377   331593 
17540000   0.43880666   -2.0895763   -2.0895763   -1.3881162  0.022416271   -2.0895763   0.70146012   331539 
17550000   0.43879423   -2.0921823   -2.0921823   -1.3906278  0.033660941   -2.0921823   0.70155451   331485 
17560000   0.43865172   -2.0919867   -2.0919867   -1.3905457  0.030198615   -2.0919867   0.70144094   331431 
17570000   0.43797293   -2.0913999   -2.0913999   -1.3909303  0.030480634   -2.0913999   0.70046962   331377 
17580000    0.4387181   -2.0927245   -2.0927245   -1.3909467  0.027894481   -2.0927245   0.70177787   331322 
17590000   0.43727862     -2.08799     -2.08799   -1.3884007  0.024647821     -2.08799    0.6995893   331268 
17600000   0.43814388   -2.0887073   -2.0887073   -1.3876194   0.02986191   -2.0887073   0.70108788   331214 
17610000   0.43846388   -2.0925013   -2.0925013    -1.390787  0.029997796   -2.0925013   0.70171433   331160 
17620000   0.43800777   -2.0916601   -2.0916601   -1.3905614  0.032916031   -2.0916601    0.7010987   331106 
17630000   0.43607231    -2.090319    -2.090319   -1.3922044  0.028589439    -2.090319   0.69811456   331052 
17640000   0.43654608   -2.0911019   -2.0911019   -1.3921149  0.031090499   -2.0911019   0.69898704   330998 
17650000    0.4362123    -2.092293    -2.092293   -1.3937264  0.032315094    -2.092293   0.69856656   330944 
17660000   0.43729162   -2.0916045   -2.0916045   -1.3911952  0.029131626   -2.0916045   0.70040931   330890 
17670000   0.43711676   -2.0911366   -2.0911366    -1.390893  0.032705339   -2.0911366   0.70024352   330836 
17680000   0.43814749   -2.0925497   -2.0925497   -1.3905404  0.037142847   -2.0925497   0.70200929   330782 
17690000    0.4368821   -2.0908058   -2.0908058   -1.3907097  0.031949459   -2.0908058   0.70009615   330728 
17700000   0.43689292   -2.0893202   -2.0893202   -1.3890923  0.031019268   -2.0893202   0.70022782   330674 
17710000   0.43695764   -2.0902262   -2.0902262   -1.3897803  0.025215789   -2.0902262   0.70044593   330620 
17720000   0.43813863   -2.0934524   -2.0934524   -1.3909986  0.029375429   -2.0934524    0.7024538   330566 
17730000   0.43655158   -2.0903835   -2.0903835   -1.3903599  0.027833076   -2.0903835   0.70002367   330512 
17740000   0.43764602   -2.0882681   -2.0882681   -1.3863747  0.029350168   -2.0882681   0.70189333   330458 
17750000   0.43704958   -2.0903958   -2.0903958   -1.3893444  0.028339936   -2.0903958   0.70105131   330404 
17760000   0.43719669   -2.0941215   -2.0941215   -1.3927174  0.025394691   -2.0941215   0.70140404   330349 
17770000    0.4371209   -2.0931447   -2.0931447   -1.3917476  0.033971833   -2.0931447   0.70139711   330295 
17780000   0.43659917   -2.0897019   -2.0897019   -1.3890274  0.026973494   -2.0897019    0.7006745   330241 
17790000   0.43600713   -2.0881405   -2.0881405   -1.3883017  0.031346651   -2.0881405    0.6998388   330187 
17800000   0.43704869   -2.0910129   -2.0910129   -1.3893875  0.026014082   -2.0910129   0.70162536   330133 
17810000   0.43613498   -2.0879676   -2.0879676   -1.3876945  0.029578728   -2.0879676   0.70027307   330079 
17820000   0.43616802   -2.0891081   -2.0891081   -1.3886674  0.032524656   -2.0891081    0.7004407   330025 
17830000   0.43660357   -2.0906562   -2.0906562   -1.3894013  0.037909659   -2.0906562    0.7012549   329971 
17840000    0.4355075    -2.088451    -2.088451   -1.3888421  0.037972552    -2.088451   0.69960892   329917 
17850000   0.43557875   -2.0872679   -2.0872679   -1.3874299   0.02779549   -2.0872679   0.69983794   329863 
17860000   0.43547768   -2.0893104   -2.0893104   -1.3895203  0.034948977   -2.0893104    0.6997901   329809 
17870000   0.43535307   -2.0900797   -2.0900797   -1.3903753   0.02792413   -2.0900797   0.69970443   329755 
17880000   0.43495675   -2.0885808   -2.0885808   -1.3893989  0.035556164   -2.0885808   0.69918195   329701 
17890000   0.43652426   -2.0893515   -2.0893515   -1.3875349  0.030555996   -2.0893515   0.70181663   329647 
17900000    0.4358031   -2.0885542   -2.0885542   -1.3877822  0.032414693   -2.0885542   0.70077199   329593 
17910000   0.43454558   -2.0869253   -2.0869253   -1.3880609  0.024588023   -2.0869253   0.69886439   329539 
17920000   0.43450892   -2.0881655   -2.0881655   -1.3892456  0.029925018   -2.0881655   0.69891997   329485 
17930000   0.43528093   -2.0875606   -2.0875606    -1.387284  0.033068784   -2.0875606   0.70027653   329431 
17940000   0.43492029   -2.0869282   -2.0869282   -1.3871171  0.036453604   -2.0869282   0.69981106   329377 
17950000   0.43567038   -2.0888057   -2.0888057   -1.3876707    0.0342211   -2.0888057   0.70113507   329322 
17960000   0.43496952   -2.0877386   -2.0877386   -1.3876166  0.031710781   -2.0877386   0.70012196   329268 
17970000    0.4348607   -2.0870227   -2.0870227   -1.3869611  0.031858228   -2.0870227   0.70006161   329214 
17980000   0.43440784   -2.0872762   -2.0872762   -1.3878289  0.034494247   -2.0872762   0.69944731   329160 
17990000   0.43394156   -2.0881091   -2.0881091    -1.389298  0.032216243   -2.0881091   0.69881117   329106 
18000000   0.43408531   -2.0869128   -2.0869128   -1.3877555  0.024396166   -2.0869128   0.69915738   329052 
18010000   0.43273962   -2.0840241   -2.0840241   -1.3869197  0.031393109   -2.0840241   0.69710436   328998 
18020000    0.4327723   -2.0840252   -2.0840252   -1.3867538   0.03119759   -2.0840252   0.69727145   328944 
18030000   0.43346375   -2.0869135   -2.0869135   -1.3884134  0.034084832   -2.0869135   0.69850016   328890 
18040000    0.4334377   -2.0854624   -2.0854624   -1.3868895  0.030405926   -2.0854624   0.69857288   328836 
18050000   0.43427784   -2.0844164   -2.0844164   -1.3843745  0.035846406   -2.0844164    0.7000419   328782 
18060000   0.43345243   -2.0833707   -2.0833707   -1.3845445  0.029848898   -2.0833707   0.69882615   328728 
18070000   0.43441933   -2.0859584   -2.0859584   -1.3854583  0.031822104   -2.0859584   0.70050008   328674 
18080000   0.43324136   -2.0847294   -2.0847294    -1.386014  0.033411618   -2.0847294    0.6987154   328620 
18090000   0.43446806   -2.0853104   -2.0853104   -1.3845015  0.028257226   -2.0853104   0.70080895   328566 
18100000    0.4329369   -2.0833316   -2.0833316   -1.3848777  0.036899806   -2.0833316   0.69845393   328512 
18110000   0.43405305   -2.0877099   -2.0877099   -1.3873401  0.031261075   -2.0877099   0.70036973   328458 
18120000   0.43261169   -2.0834765   -2.0834765   -1.3853177  0.026356378   -2.0834765   0.69815879   328404 
18130000   0.43427926   -2.0845872   -2.0845872   -1.3836198  0.035732295   -2.0845872   0.70096734   328349 
18140000   0.43392275   -2.0851022   -2.0851022   -1.3845951  0.031330161   -2.0851022   0.70050711   328295 
18150000   0.43298577   -2.0816315   -2.0816315    -1.382522    0.0224844   -2.0816315   0.69910948   328241 
18160000   0.43476117    -2.082767    -2.082767   -1.3806754  0.031183783    -2.082767   0.70209159   328187 
18170000   0.43347795   -2.0810481   -2.0810481   -1.3809136  0.029749365   -2.0810481   0.70013453   328133 
18180000   0.43413395   -2.0826268   -2.0826268   -1.3813173  0.022811304   -2.0826268    0.7013095   328079 
18190000   0.43336328    -2.084647    -2.084647   -1.3844672  0.029826065    -2.084647   0.70017977   328025 
18200000   0.43188136    -2.084713    -2.084713   -1.3868126  0.029546455    -2.084713   0.69790035   327971 
18210000   0.43274122   -2.0849758   -2.0849758   -1.3855708  0.032832769   -2.0849758     0.699405   327917 
18220000   0.43343065   -2.0847557   -2.0847557    -1.384121   0.03417448   -2.0847557   0.70063464   327863 
18230000   0.43317461   -2.0862037   -2.0862037   -1.3858676  0.031869159   -2.0862037   0.70033611   327809 
18240000   0.43271066   -2.0843222   -2.0843222   -1.3846209  0.033207461   -2.0843222   0.69970127   327755 
18250000   0.43197578   -2.0818242   -2.0818242   -1.3831962  0.030087144   -2.0818242   0.69862806   327701 
18260000   0.43328935   -2.0838137   -2.0838137   -1.3829457  0.033168638   -2.0838137   0.70086797   327647 
18270000   0.43274313   -2.0826392   -2.0826392   -1.3825394  0.030475304   -2.0826392   0.70009982   327593 
18280000   0.43227081   -2.0808872   -2.0808872   -1.3814362  0.033096641   -2.0808872   0.69945099   327539 
18290000   0.43271976   -2.0835837   -2.0835837   -1.3832908   0.03322546   -2.0835837   0.70029289   327485 
18300000    0.4326624   -2.0840809   -2.0840809   -1.3837653  0.027076292   -2.0840809   0.70031554   327431 
18310000   0.43291926   -2.0828057   -2.0828057   -1.3819589   0.03067999   -2.0828057   0.70084687   327377 
18320000   0.43169985   -2.0821424   -2.0821424   -1.3831522   0.03530844   -2.0821424   0.69899022   327322 
18330000   0.43146747   -2.0838533   -2.0838533    -1.385124  0.029672178   -2.0838533   0.69872923   327268 
18340000   0.43222546    -2.084473    -2.084473   -1.3844007  0.030642481    -2.084473   0.70007226   327214 
18350000   0.43154289    -2.081579    -2.081579   -1.3824969  0.035548102    -2.081579   0.69908207   327160 
18360000   0.43178334   -2.0809628   -2.0809628   -1.3813757  0.033383769   -2.0809628   0.69958705   327106 
18370000   0.43161554   -2.0806392   -2.0806392   -1.3812086  0.028820979   -2.0806392   0.69943065   327052 
18380000   0.43158621   -2.0829843   -2.0829843   -1.3834857   0.03102219   -2.0829843   0.69949861   326998 
18390000   0.43180005   -2.0828682   -2.0828682   -1.3829074   0.03058809   -2.0828682   0.69996079   326944 
18400000   0.43125521   -2.0816776   -2.0816776   -1.3824845  0.031383835   -2.0816776   0.69919307   326890 
18410000   0.43097484   -2.0812213   -2.0812213   -1.3823673   0.02949088   -2.0812213   0.69885395   326836 
18420000   0.43102118   -2.0827306   -2.0827306    -1.383686  0.033732027   -2.0827306   0.69904459   326782 
18430000   0.43152645   -2.0810899   -2.0810899   -1.3811102  0.027939333   -2.0810899   0.69997973   326728 
18440000   0.43048126   -2.0804938   -2.0804938    -1.382094  0.032172227   -2.0804938   0.69839976   326674 
18450000   0.43047715   -2.0787786   -2.0787786     -1.38027  0.032046756   -2.0787786   0.69850855   326620 
18460000   0.43180406   -2.0813618   -2.0813618   -1.3805843  0.031303769   -2.0813618   0.70077751   326566 
18470000    0.4319339   -2.0822343   -2.0822343   -1.3811301  0.029037202   -2.0822343   0.70110415   326512 
18480000   0.43125445   -2.0788802   -2.0788802   -1.3787631  0.035762564   -2.0788802   0.70011708   326458 
18490000   0.43019946   -2.0782293   -2.0782293   -1.3797094   0.02679766   -2.0782293    0.6985199   326404 
18500000    0.4306651   -2.0778668   -2.0778668   -1.3784729  0.032118433   -2.0778668   0.69939382   326349 
18510000   0.43086925   -2.0795847   -2.0795847   -1.3797436  0.030459017   -2.0795847   0.69984116   326295 
18520000   0.43102457   -2.0798331   -2.0798331   -1.3796237   0.02933467   -2.0798331   0.70020931   326241 
18530000   0.43042497   -2.0793029   -2.0793029   -1.3799519  0.030551201   -2.0793029   0.69935101   326187 
18540000   0.43052213   -2.0792569   -2.0792569   -1.3796322    0.0368456   -2.0792569    0.6996247   326133 
18550000    0.4308535   -2.0803967   -2.0803967   -1.3801176  0.029359129   -2.0803967   0.70027915   326079 
18560000   0.43055141    -2.079693    -2.079693    -1.379789   0.03063736    -2.079693   0.69990406   326025 
18570000   0.43015557   -2.0773402   -2.0773402   -1.3779637  0.028050764   -2.0773402   0.69937641   325971 
18580000   0.43038176   -2.0791817   -2.0791817   -1.3793216  0.029503097   -2.0791817   0.69986011   325917 
18590000   0.42929591   -2.0795965   -2.0795965   -1.3813865  0.020770663   -2.0795965   0.69821005   325863 
18600000   0.43006515   -2.0805539   -2.0805539   -1.3809769  0.037390309   -2.0805539   0.69957708   325809 
18610000    0.4295969    -2.079584    -2.079584   -1.3806528  0.037896138    -2.079584   0.69893123   325755 
18620000    0.4298809   -2.0781409   -2.0781409   -1.3786316  0.031446593   -2.0781409   0.69950924   325701 
18630000    0.4301467   -2.0756222   -2.0756222   -1.3755644  0.028719383   -2.0756222   0.70005782   325647 
18640000   0.42877751   -2.0754622   -2.0754622   -1.3775169  0.024123063   -2.0754622   0.69794522   325593 
18650000   0.43022431   -2.0774942   -2.0774942   -1.3770778  0.030496091   -2.0774942   0.70041642   325539 
18660000   0.42987935   -2.0768199   -2.0768199    -1.376849  0.029083797   -2.0768199   0.69997092   325485 
18670000   0.42838726   -2.0766692   -2.0766692   -1.3790121  0.025024146   -2.0766692   0.69765711   325431 
18680000   0.42882342   -2.0762278   -2.0762278   -1.3777445  0.031196891   -2.0762278   0.69848332   325377 
18690000   0.42951119   -2.0752404   -2.0752404   -1.3755185  0.028949367   -2.0752404   0.69972186   325322 
18700000   0.42920945   -2.0763945   -2.0763945   -1.3770482  0.033161453   -2.0763945   0.69934638   325268 
18710000   0.42906657   -2.0781831   -2.0781831   -1.3789534  0.033020061   -2.0781831   0.69922966   325214 
18720000   0.42966185    -2.076545    -2.076545   -1.3762289  0.026384809    -2.076545   0.70031604   325160 
18730000   0.42982677   -2.0786884   -2.0786884   -1.3779872  0.033267178   -2.0786884   0.70070123   325106 
18740000   0.42872623   -2.0792398   -2.0792398   -1.3802166  0.026980648   -2.0792398   0.69902322   325052 
18750000   0.42906109   -2.0804313   -2.0804313   -1.3807458  0.029397893   -2.0804313   0.69968544   324998 
18760000    0.4288184   -2.0762299   -2.0762299    -1.376824  0.033721836   -2.0762299   0.69940589   324944 
18770000    0.4283552   -2.0767747   -2.0767747   -1.3780082  0.029571448   -2.0767747   0.69876653   324890 
18780000   0.42789208    -2.075856    -2.075856   -1.3777289  0.030564133    -2.075856   0.69812709   324836 
18790000   0.42945162   -2.0775361   -2.0775361   -1.3767481  0.032247647   -2.0775361   0.70078806   324782 
18800000   0.42847466   -2.0765088   -2.0765088   -1.3771987  0.032607159   -2.0765088    0.6993101   324728 
18810000   0.42838053   -2.0751855   -2.0751855   -1.3759127  0.031734337   -2.0751855   0.69927275   324674 
18820000   0.42738294   -2.0729133   -2.0729133   -1.3751529  0.024187787   -2.0729133   0.69776038   324620 
18830000   0.42832855   -2.0768469   -2.0768469   -1.3774263  0.032228252   -2.0768469   0.69942057   324566 
18840000   0.42721221   -2.0757501   -2.0757501   -1.3780363  0.030214886   -2.0757501   0.69771377   324512 
18850000   0.42743355   -2.0765908   -2.0765908   -1.3783993  0.030901426   -2.0765908   0.69819143   324458 
18860000   0.42793811   -2.0787378   -2.0787378   -1.3796058  0.031706579   -2.0787378   0.69913197   324404 
18870000   0.42662476   -2.0747057   -2.0747057   -1.3776012  0.025017972   -2.0747057    0.6971045   324349 
18880000    0.4283166   -2.0773697   -2.0773697   -1.3773841  0.028427368   -2.0773697   0.69998551   324295 
18890000   0.42694991   -2.0756021   -2.0756021    -1.377734  0.027327936   -2.0756021   0.69786817   324241 
18900000   0.42774694   -2.0750669   -2.0750669   -1.3757795   0.02661029   -2.0750669   0.69928742   324187 
18910000   0.42667707   -2.0739583   -2.0739583   -1.3763037  0.029929654   -2.0739583   0.69765458   324133 
18920000   0.42785657   -2.0748171   -2.0748171   -1.3751174  0.029174229   -2.0748171   0.69969975   324079 
18930000    0.4262045   -2.0734216   -2.0734216   -1.3763075   0.03237091   -2.0734216   0.69711416   324025 
18940000   0.42694399   -2.0736076   -2.0736076   -1.3751675  0.029782187   -2.0736076   0.69844009   323971 
18950000   0.42669152   -2.0744905   -2.0744905    -1.376347  0.030978542   -2.0744905   0.69814345   323917 
18960000   0.42697593   -2.0779559   -2.0779559   -1.3792307  0.033089533   -2.0779559   0.69872529   323863 
18970000   0.42636156   -2.0738893   -2.0738893    -1.376053  0.029198912   -2.0738893   0.69783625   323809 
18980000    0.4263079   -2.0726043   -2.0726043   -1.3747395  0.036551184   -2.0726043    0.6978648   323755 
18990000   0.42593433   -2.0725435   -2.0725435    -1.375174  0.030892565   -2.0725435   0.69736958   323701 
19000000   0.42665922   -2.0758502   -2.0758502   -1.3771773  0.035354221   -2.0758502   0.69867297   323647 
19010000   0.42684752   -2.0769206   -2.0769206   -1.3778227  0.032370404   -2.0769206   0.69909797   323593 
19020000   0.42441451   -2.0732435   -2.0732435   -1.3780143  0.028281049   -2.0732435   0.69522917   323539 
19030000   0.42602922   -2.0766551   -2.0766551   -1.3786644   0.03357125   -2.0766551   0.69799069   323485 
19040000   0.42420103   -2.0740259   -2.0740259   -1.3789144  0.027085308   -2.0740259   0.69511149   323431 
19050000   0.42593289   -2.0757861   -2.0757861   -1.3777202  0.028991053   -2.0757861   0.69806594   323377 
19060000   0.42555762   -2.0752097   -2.0752097   -1.3776401    0.0326868   -2.0752097   0.69756955   323322 
19070000   0.42606181   -2.0753359   -2.0753359   -1.3768232   0.03116468   -2.0753359   0.69851267   323268 
19080000    0.4246736   -2.0733485   -2.0733485   -1.3769954  0.031417692   -2.0733485   0.69635308   323214 
19090000   0.42481528   -2.0715369   -2.0715369   -1.3748351   0.03269291   -2.0715369    0.6967018   323160 
19100000   0.42509554   -2.0724948   -2.0724948   -1.3752169  0.028212773   -2.0724948   0.69727794   323106 
19110000   0.42556844   -2.0739306   -2.0739306   -1.3757603  0.033604539   -2.0739306   0.69817031   323052 
19120000   0.42505944   -2.0718508   -2.0718508   -1.3743989  0.026532748   -2.0718508   0.69745185   322998 
19130000   0.42550596   -2.0727592   -2.0727592   -1.3744579  0.036097887   -2.0727592   0.69830126   322944 
19140000   0.42406376   -2.0728198   -2.0728198    -1.376769  0.030429102   -2.0728198   0.69605084   322890 
19150000    0.4234587   -2.0724736   -2.0724736   -1.3772996  0.027692449   -2.0724736   0.69517397   322836 
19160000   0.42469513   -2.0744908   -2.0744908   -1.3771704   0.02966171   -2.0744908   0.69732039   322782 
19170000   0.42326802    -2.073281    -2.073281   -1.3781875  0.031189633    -2.073281   0.69509348   322728 
19180000   0.42442836   -2.0730326   -2.0730326   -1.3759169  0.030659017   -2.0730326   0.69711563   322674 
19190000   0.42546741   -2.0755039   -2.0755039   -1.3765647  0.027240801   -2.0755039   0.69893922   322620 
19200000   0.42375525   -2.0737722   -2.0737722   -1.3775291  0.030728566   -2.0737722   0.69624309   322566 
19210000   0.42311343   -2.0713802   -2.0713802   -1.3760752  0.027072729   -2.0713802   0.69530497   322512 
19220000   0.42327764   -2.0737832   -2.0737832   -1.3780919  0.032414643   -2.0737832   0.69569129   322458 
19230000   0.42341038   -2.0710802   -2.0710802   -1.3750542  0.029133152   -2.0710802   0.69602602   322404 
19240000   0.42303097   -2.0714157   -2.0714157   -1.3758947  0.032057361   -2.0714157   0.69552097   322349 
19250000   0.42408835   -2.0718634   -2.0718634   -1.3744871  0.029850724   -2.0718634   0.69737628   322295 
19260000   0.42322581   -2.0723033   -2.0723033   -1.3762287  0.020734632   -2.0723033   0.69607454   322241 
19270000   0.42369158   -2.0754336   -2.0754336   -1.3784762  0.038437116   -2.0754336   0.69695738   322187 
19280000    0.4241826   -2.0734921   -2.0734921     -1.37561  0.024224779   -2.0734921   0.69788205   322133 
19290000    0.4238441   -2.0699275   -2.0699275   -1.3724855  0.032441998   -2.0699275   0.69744205   322079 
19300000   0.42321619   -2.0701344   -2.0701344   -1.3736088  0.025780396   -2.0701344    0.6965256   322025 
19310000   0.42316886   -2.0718352   -2.0718352   -1.3752707  0.033165085   -2.0718352    0.6965645   321971 
19320000   0.42269114   -2.0705411   -2.0705411   -1.3746462  0.035637236   -2.0705411   0.69589486   321917 
19330000   0.42310265   -2.0696921   -2.0696921   -1.3730029   0.02673996   -2.0696921   0.69668922   321863 
19340000   0.42356343   -2.0707386   -2.0707386   -1.3731736  0.036014704   -2.0707386   0.69756498   321809 
19350000    0.4224863   -2.0694063   -2.0694063   -1.3734985  0.027224985   -2.0694063   0.69590783   321755 
19360000   0.42341686   -2.0714036   -2.0714036   -1.3738459  0.033059917   -2.0714036    0.6975577   321701 
19370000    0.4231398   -2.0723003   -2.0723003   -1.3750821   0.02196942   -2.0723003   0.69721829   321647 
19380000   0.42296787   -2.0706765   -2.0706765   -1.3736245  0.024670506   -2.0706765   0.69705202   321593 
19390000   0.42369821   -2.0707093   -2.0707093   -1.3723364  0.039018562   -2.0707093   0.69837288   321539 
19400000   0.42169407   -2.0680094   -2.0680094   -1.3728231  0.031300478   -2.0680094   0.69518625   321485 
19410000   0.42271545   -2.0699815   -2.0699815   -1.3729943  0.030971903   -2.0699815   0.69698712   321431 
19420000   0.42295863    -2.070772    -2.070772   -1.3732667   0.02967831    -2.070772   0.69750528   321377 
19430000   0.42310353   -2.0701977   -2.0701977   -1.3723341  0.028189019   -2.0701977   0.69786366   321322 
19440000   0.42308983   -2.0698504   -2.0698504    -1.371892  0.034076485   -2.0698504   0.69795837   321268 
19450000   0.42194303   -2.0686057   -2.0686057   -1.3724222  0.031453797   -2.0686057   0.69618353   321214 
19460000   0.42292147   -2.0705819   -2.0705819   -1.3726667  0.028564618   -2.0705819   0.69791524   321160 
19470000   0.42168896   -2.0705148   -2.0705148   -1.3745165  0.027511214   -2.0705148   0.69599835   321106 
19480000   0.42052456    -2.067981    -2.067981   -1.3737877   0.03614565    -2.067981   0.69419325   321052 
19490000   0.42137436   -2.0702253   -2.0702253   -1.3745122  0.032591987   -2.0702253    0.6957131   320998 
19500000    0.4211865   -2.0696741   -2.0696741   -1.3741542  0.034647061   -2.0696741   0.69551993   320944 
19510000   0.42042507   -2.0704465   -2.0704465   -1.3760671  0.029588339   -2.0704465   0.69437939   320890 
19520000    0.4205156   -2.0707059   -2.0707059   -1.3760601   0.03061063   -2.0707059    0.6946458   320836 
19530000   0.41971422    -2.070351    -2.070351   -1.3769123  0.035722471    -2.070351   0.69343873   320782 
19540000   0.42124742   -2.0722301   -2.0722301   -1.3761411   0.02627204   -2.0722301   0.69608901   320728 
19550000   0.42073892   -2.0712431   -2.0712431   -1.3758773  0.024509004   -2.0712431   0.69536582   320674 
19560000   0.42083652   -2.0717906   -2.0717906   -1.3761463  0.032132967   -2.0717906   0.69564426   320620 
19570000    0.4216022   -2.0721484   -2.0721484    -1.375121  0.032451689   -2.0721484   0.69702733   320566 
19580000   0.42032546   -2.0704309   -2.0704309   -1.3753973  0.030805501   -2.0704309   0.69503361   320512 
19590000   0.42035892   -2.0685326   -2.0685326   -1.3733266  0.036326226   -2.0685326   0.69520606   320458 
19600000    0.4193516   -2.0691896   -2.0691896   -1.3755326  0.030477684   -2.0691896     0.693657   320404 
19610000   0.42014144   -2.0715136   -2.0715136   -1.3764308  0.027938631   -2.0715136   0.69508281   320349 
19620000   0.42059397   -2.0733392   -2.0733392   -1.3773904  0.028840619   -2.0733392   0.69594879   320295 
19630000    0.4194554   -2.0706316   -2.0706316   -1.3764498  0.031624893   -2.0706316   0.69418185   320241 
19640000    0.4205198   -2.0693266   -2.0693266   -1.3732658  0.036424491   -2.0693266   0.69606075   320187 
19650000   0.41957719   -2.0681883   -2.0681883   -1.3735706  0.035111649   -2.0681883   0.69461767   320133 
19660000   0.42072284   -2.0708177   -2.0708177   -1.3741858   0.03396524   -2.0708177   0.69663182   320079 
19670000   0.41970387   -2.0686915   -2.0686915   -1.3736296  0.030435168   -2.0686915   0.69506187   320025 
19680000   0.41778936   -2.0664033   -2.0664033   -1.3743952  0.034809122   -2.0664033   0.69200806   319971 
19690000   0.42068612   -2.0712704   -2.0712704   -1.3743467  0.028738925   -2.0712704   0.69692374   319917 
19700000   0.41894212   -2.0682917   -2.0682917     -1.37414  0.026359457   -2.0682917   0.69415174   319863 
19710000   0.41987328   -2.0671922   -2.0671922   -1.3713802  0.029542177   -2.0671922   0.69581206   319809 
19720000    0.4203312   -2.0689633   -2.0689633   -1.3722747    0.0363813   -2.0689633   0.69668856   319755 
19730000   0.41983114   -2.0657182   -2.0657182    -1.369741  0.034191226   -2.0657182   0.69597726   319701 
19740000   0.41958816    -2.065315    -2.065315   -1.3696231  0.031656616    -2.065315   0.69569197   319647 
19750000   0.41961505   -2.0653478   -2.0653478   -1.3694937  0.027448928   -2.0653478   0.69585411   319593 
19760000   0.41904271   -2.0662096   -2.0662096   -1.3711872  0.032548571   -2.0662096   0.69502242   319539 
19770000   0.41899535    -2.068523    -2.068523   -1.3734617  0.035209133    -2.068523   0.69506133   319485 
19780000    0.4193117   -2.0712156   -2.0712156   -1.3755119  0.032741393   -2.0712156   0.69570371   319431 
19790000   0.41939375   -2.0702469   -2.0702469   -1.3742894    0.0327065   -2.0702469   0.69595748   319377 
19800000   0.41853928   -2.0668016   -2.0668016   -1.3721425  0.037026267   -2.0668016   0.69465918   319322 
19810000   0.41878422    -2.066104    -2.066104   -1.3709207  0.024680295    -2.066104   0.69518327   319268 
19820000   0.41935667   -2.0689223   -2.0689223    -1.372671  0.032932828   -2.0689223   0.69625131   319214 
19830000   0.41767944    -2.067449    -2.067449   -1.3738651  0.036011849    -2.067449   0.69358396   319160 
19840000   0.41937724   -2.0717032   -2.0717032   -1.3751821  0.030507904   -2.0717032   0.69652111   319106 
19850000   0.41686085   -2.0656039   -2.0656039    -1.373145  0.034730622   -2.0656039   0.69245895   319052 
19860000   0.41780573   -2.0648616   -2.0648616   -1.3707156  0.035698745   -2.0648616   0.69414601   318998 
19870000   0.41777121   -2.0652831   -2.0652831   -1.3710769  0.033167597   -2.0652831   0.69420618   318944 
19880000   0.41782442   -2.0643109   -2.0643109   -1.3698987  0.029519796   -2.0643109   0.69441216   318890 
19890000   0.41806943   -2.0642467   -2.0642467   -1.3693097  0.035055786   -2.0642467   0.69493704   318836 
19900000   0.41760801   -2.0646528   -2.0646528   -1.3703652  0.032808075   -2.0646528   0.69428764   318782 
19910000   0.41860511   -2.0660778   -2.0660778   -1.3700145  0.035374822   -2.0660778   0.69606325   318728 
19920000   0.41684644   -2.0637952   -2.0637952   -1.3705389  0.029696975   -2.0637952   0.69325636   318674 
19930000   0.41821662   -2.0661848   -2.0661848   -1.3705318  0.029041543   -2.0661848   0.69565298   318620 
19940000   0.41658386   -2.0665576   -2.0665576   -1.3735031  0.027512234   -2.0665576   0.69305454   318566 
19950000    0.4170064   -2.0668586   -2.0668586   -1.3729835    0.0320091   -2.0668586   0.69387513   318512 
19960000   0.41744578   -2.0646819   -2.0646819   -1.3699579  0.031967693   -2.0646819   0.69472402   318458 
19970000    0.4172151   -2.0625527   -2.0625527   -1.3680948  0.029206028   -2.0625527   0.69445787   318404 
19980000   0.41775139   -2.0635244   -2.0635244   -1.3680537  0.030022536   -2.0635244   0.69547065   318349 
19990000   0.41608494   -2.0625238   -2.0625238   -1.3697099  0.029924819   -2.0625238   0.69281387   318295 
20000000   0.41720224   -2.0644294   -2.0644294   -1.3696373  0.026961125   -2.0644294   0.69479214   318241 
20010000   0.41654073   -2.0635408   -2.0635408   -1.3697325  0.032232575   -2.0635408   0.69380822   318187 
20020000   0.41653181   -2.0614448   -2.0614448   -1.3675336  0.030356964   -2.0614448   0.69391113   318133 
20030000   0.41624985   -2.0595306   -2.0595306   -1.3659715  0.033324196   -2.0595306   0.69355913   318079 
20040000   0.41702489   -2.0610804   -2.0610804   -1.3661119  0.032186581   -2.0610804   0.69496849   318025 
20050000   0.41608982    -2.061425    -2.061425   -1.3678971   0.03137671    -2.061425   0.69352796   317971 
20060000    0.4170773    -2.061653    -2.061653    -1.366361  0.029251252    -2.061653   0.69529195   317917 
20070000   0.41643362   -2.0610451   -2.0610451   -1.3667083  0.026473833   -2.0610451   0.69433683   317863 
20080000    0.4170101   -2.0591891   -2.0591891    -1.363773   0.02932507   -2.0591891   0.69541616   317809 
20090000   0.41628901   -2.0604911   -2.0604911   -1.3661595   0.02570246   -2.0604911   0.69433162   317755 
20100000   0.41556328   -2.0598056   -2.0598056   -1.3665666  0.029623567   -2.0598056   0.69323898   317701 
20110000   0.41574003   -2.0620529   -2.0620529   -1.3684011  0.030361564   -2.0620529   0.69365175   317647 
20120000   0.41566957   -2.0614816   -2.0614816   -1.3678294  0.031802998   -2.0614816   0.69365211   317593 
20130000   0.41441667   -2.0592496   -2.0592496   -1.3675707  0.029999803   -2.0592496   0.69167891   317539 
20140000   0.41589532   -2.0620545   -2.0620545   -1.3677896  0.028900981   -2.0620545   0.69426492   317485 
20150000   0.41506274   -2.0608677   -2.0608677   -1.3678748   0.03065694   -2.0608677   0.69299294   317431 
20160000   0.41515302   -2.0594907   -2.0594907   -1.3662291  0.034700016   -2.0594907    0.6932616   317377 
20170000   0.41560053   -2.0630984   -2.0630984   -1.3689692  0.038110514   -2.0630984   0.69412918   317322 
20180000   0.41501833   -2.0638224   -2.0638224   -1.3705476   0.03203988   -2.0638224   0.69327479   317268 
20190000   0.41385887   -2.0565998   -2.0565998   -1.3651442  0.029228479   -2.0565998   0.69145563   317214 
20200000   0.41479344   -2.0601027   -2.0601027   -1.3669677  0.034592876   -2.0601027   0.69313506   317160 
20210000   0.41412262   -2.0603077   -2.0603077   -1.3681758  0.027871557   -2.0603077   0.69213194   317106 
20220000   0.41435547   -2.0589647   -2.0589647   -1.3663257  0.036789485   -2.0589647   0.69263906   317052 
20230000   0.41487036   -2.0582297   -2.0582297   -1.3646118  0.035754498   -2.0582297   0.69361788   316998 
20240000   0.41452495   -2.0607628   -2.0607628   -1.3676043  0.026499965   -2.0607628   0.69315847   316944 
20250000   0.41471712   -2.0591122   -2.0591122   -1.3655142  0.040549915   -2.0591122   0.69359798   316890 
20260000   0.41319365   -2.0609458   -2.0609458   -1.3697779  0.027508374   -2.0609458   0.69116782   316836 
20270000   0.41428776   -2.0628435   -2.0628435   -1.3697274  0.032037358   -2.0628435   0.69311613   316782 
20280000    0.4136931   -2.0604987   -2.0604987   -1.3682594  0.019964723   -2.0604987   0.69223924   316728 
20290000   0.41472646   -2.0621485   -2.0621485   -1.3680618  0.024251525   -2.0621485   0.69408673   316674 
20300000   0.41282594   -2.0598126   -2.0598126   -1.3687888  0.024623134   -2.0598126   0.69102384   316620 
20310000   0.41411348   -2.0620927   -2.0620927   -1.3687954   0.03965711   -2.0620927   0.69329728   316566 
20320000   0.41242628   -2.0616395   -2.0616395   -1.3710491  0.029111949   -2.0616395   0.69059041   316512 
20330000   0.41396325   -2.0632767   -2.0632767   -1.3699944  0.032846205   -2.0632767   0.69328229   316458 
20340000   0.41339025   -2.0625561   -2.0625561   -1.3701153  0.027470407   -2.0625561   0.69244081   316404 
20350000   0.41340045   -2.0621779   -2.0621779   -1.3695996  0.031468124   -2.0621779    0.6925783   316349 
20360000   0.41206277   -2.0614777   -2.0614777   -1.3710226  0.028226329   -2.0614777   0.69045511   316295 
20370000   0.41333168   -2.0644061   -2.0644061   -1.3717065  0.026290746   -2.0644061   0.69269957   316241 
20380000   0.41196782   -2.0619825   -2.0619825   -1.3714507  0.026496201   -2.0619825   0.69053179   316187 
20390000   0.41247347   -2.0617062   -2.0617062   -1.3702088  0.027915349   -2.0617062   0.69149745   316133 
20400000   0.41311418   -2.0616302   -2.0616302   -1.3689402  0.031504865   -2.0616302   0.69268991   316079 
20410000   0.41232439   -2.0595623   -2.0595623   -1.3680785  0.025589563   -2.0595623   0.69148375   316025 
20420000   0.41264885   -2.0603275   -2.0603275   -1.3681814   0.03765567   -2.0603275   0.69214616   315971 
20430000   0.41261964   -2.0622234   -2.0622234   -1.3700079  0.027447368   -2.0622234   0.69221546   315917 
20440000   0.41209762   -2.0617646   -2.0617646   -1.3703067  0.027865237   -2.0617646    0.6914579   315863 
20450000   0.41202708   -2.0621063   -2.0621063   -1.3706485  0.029156166   -2.0621063   0.69145777   315809 
20460000   0.41362143   -2.0625573   -2.0625573   -1.3683052  0.027303941   -2.0625573   0.69425208   315755 
20470000   0.41336138   -2.0615521   -2.0615521   -1.3676179  0.032610126   -2.0615521   0.69393428   315701 
20480000    0.4108061   -2.0589787   -2.0589787   -1.3692162  0.032647678   -2.0589787   0.68976255   315647 
20490000   0.41173432   -2.0626528   -2.0626528   -1.3712134  0.033833825   -2.0626528   0.69143938   315593 
20500000   0.41220998   -2.0628587   -2.0628587    -1.370502  0.026713386   -2.0628587   0.69235664   315539 
20510000   0.41217352   -2.0617801   -2.0617801   -1.3693662  0.031237074   -2.0617801   0.69241388   315485 
20520000   0.41124526   -2.0616298   -2.0616298    -1.370657  0.032697321   -2.0616298   0.69097277   315431 
20530000   0.41095853   -2.0595674   -2.0595674   -1.3689581  0.027010881   -2.0595674   0.69060923   315377 
20540000   0.41104012   -2.0599178   -2.0599178    -1.369051  0.038568385   -2.0599178   0.69086683   315322 
20550000   0.41052682   -2.0583039   -2.0583039   -1.3681816  0.030654383   -2.0583039   0.69012226   315268 
20560000   0.41132413    -2.057653    -2.057653    -1.366072  0.032013743    -2.057653   0.69158105   315214 
20570000   0.41214896   -2.0613189   -2.0613189   -1.3682322  0.032582932   -2.0613189   0.69308661   315160 
20580000   0.41090471   -2.0591187   -2.0591187    -1.368006  0.031212909   -2.0591187   0.69111266   315106 
20590000   0.41174515    -2.060515    -2.060515   -1.3678701   0.02931887    -2.060515   0.69264492   315052 
20600000   0.41058731   -2.0586252   -2.0586252   -1.3678096  0.020798092   -2.0586252   0.69081557   314998 
20610000    0.4105311   -2.0617917   -2.0617917   -1.3709522  0.028693238   -2.0617917   0.69083944   314944 
20620000   0.41073027   -2.0629454   -2.0629454   -1.3716523  0.031026984   -2.0629454   0.69129313   314890 
20630000   0.41055035   -2.0619954   -2.0619954   -1.3708866  0.029400983   -2.0619954   0.69110882   314836 
20640000   0.41229163   -2.0623557   -2.0623557   -1.3681966  0.029526472   -2.0623557    0.6941591   314782 
20650000   0.41123419   -2.0590906   -2.0590906   -1.3665931  0.025641241   -2.0590906   0.69249753   314728 
20660000   0.41084667     -2.05949     -2.05949   -1.3675263  0.037661837     -2.05949    0.6919637   314674 
20670000   0.40960225    -2.058031    -2.058031   -1.3680448   0.03640742    -2.058031   0.68998621   314620 
20680000   0.41130384   -2.0590112   -2.0590112   -1.3660397  0.036330145   -2.0590112   0.69297151   314566 
20690000   0.41014685   -2.0561723   -2.0561723   -1.3650315  0.019801197   -2.0561723   0.69114084   314512 
20700000   0.41064463   -2.0559186   -2.0559186   -1.3638202  0.036789304   -2.0559186   0.69209848   314458 
20710000   0.40903025   -2.0521298   -2.0521298   -1.3626338  0.028812896   -2.0521298   0.68949603   314404 
20720000   0.41066431    -2.056281    -2.056281   -1.3639094  0.029696145    -2.056281   0.69237164   314349 
20730000   0.40948255   -2.0569089   -2.0569089   -1.3664111  0.032279314   -2.0569089   0.69049784   314295 
20740000   0.40953464   -2.0552097   -2.0552097   -1.3645053  0.032351557   -2.0552097   0.69070436   314241 
20750000   0.40913085   -2.0529269   -2.0529269   -1.3627849  0.029741854   -2.0529269   0.69014193   314187 
20760000   0.41135309   -2.0579528   -2.0579528    -1.363943  0.035794735   -2.0579528   0.69400979   314133 
20770000   0.40929786   -2.0536112   -2.0536112   -1.3629501  0.024839292   -2.0536112   0.69066106   314079 
20780000   0.41063467   -2.0542905   -2.0542905   -1.3612545  0.035416859   -2.0542905   0.69303599   314025 
20790000   0.40960742   -2.0555954   -2.0555954   -1.3641742   0.02770166   -2.0555954   0.69142117   313971 
20800000   0.41004919   -2.0544923   -2.0544923   -1.3622063  0.023818914   -2.0544923   0.69228595   313917 
20810000   0.40919744   -2.0543794   -2.0543794   -1.3634126  0.034329151   -2.0543794    0.6909668   313863 
20820000   0.40974945   -2.0524416   -2.0524416   -1.3604236  0.029126435   -2.0524416   0.69201798   313809 
20830000   0.40785016   -2.0511273   -2.0511273   -1.3621985  0.027421045   -2.0511273   0.68892886   313755 
20840000   0.41015679   -2.0571557   -2.0571557   -1.3642113  0.033996951   -2.0571557   0.69294442   313701 
20850000   0.40914118   -2.0557752   -2.0557752   -1.3644276  0.025324024   -2.0557752    0.6913476   313647 
20860000   0.40907711   -2.0538083   -2.0538083   -1.3624499  0.027489177   -2.0538083   0.69135836   313593 
20870000   0.40938154   -2.0536989   -2.0536989   -1.3617069  0.026225928   -2.0536989   0.69199201   313539 
20880000   0.40984138   -2.0540921   -2.0540921   -1.3612034  0.034980193   -2.0540921   0.69288864   313485 
20890000   0.40956231   -2.0527051   -2.0527051   -1.3601689   0.02598934   -2.0527051   0.69253612   313431 
20900000   0.40924967   -2.0519876   -2.0519876   -1.3598608  0.027773107   -2.0519876   0.69212673   313377 
20910000   0.40845015   -2.0519837   -2.0519837   -1.3610879  0.031942095   -2.0519837   0.69089582   313322 
20920000   0.40789307   -2.0514184   -2.0514184    -1.361346  0.029616584   -2.0514184   0.69007245   313268 
20930000   0.40804987   -2.0527002   -2.0527002   -1.3622435  0.032821261   -2.0527002   0.69045674   313214 
20940000    0.4087788    -2.052696    -2.052696   -1.3608866  0.031115427    -2.052696   0.69180942   313160 
20950000   0.40871072   -2.0539466   -2.0539466   -1.3621331  0.034435236   -2.0539466   0.69181351   313106 
20960000   0.40921202   -2.0550301   -2.0550301   -1.3622486  0.028192065   -2.0550301   0.69278153   313052 
20970000   0.40822786   -2.0514029   -2.0514029   -1.3601683  0.031114511   -2.0514029   0.69123461   312998 
20980000   0.40804926   -2.0513236   -2.0513236   -1.3602722  0.026019992   -2.0513236   0.69105142   312944 
20990000   0.40825352   -2.0528959   -2.0528959   -1.3613793  0.031462896   -2.0528959   0.69151667   312890 
21000000   0.40723696   -2.0492295   -2.0492295   -1.3593156  0.025089205   -2.0492295   0.68991384   312836 
21010000   0.40792416   -2.0527312   -2.0527312   -1.3615338  0.033004128   -2.0527312   0.69119736   312782 
21020000   0.40770523   -2.0496938   -2.0496938   -1.3587482  0.032558379   -2.0496938   0.69094569   312728 
21030000   0.40880645   -2.0494556   -2.0494556    -1.356524  0.034926613   -2.0494556    0.6929316   312674 
21040000   0.40804995   -2.0497819   -2.0497819   -1.3580131  0.031489975   -2.0497819    0.6917688   312620 
21050000   0.40798533   -2.0503592   -2.0503592   -1.3585804  0.030051032   -2.0503592   0.69177874   312566 
21060000   0.40767752   -2.0518608   -2.0518608   -1.3604845  0.027063098   -2.0518608   0.69137627   312512 
21070000   0.40735231   -2.0535844   -2.0535844   -1.3626402  0.032148602   -2.0535844   0.69094413   312458 
21080000   0.40701047   -2.0518659   -2.0518659   -1.3613823  0.034172181   -2.0518659   0.69048364   312404 
21090000   0.40677232    -2.051726    -2.051726   -1.3615248  0.031054705    -2.051726   0.69020114   312349 
21100000    0.4078061    -2.053339    -2.053339   -1.3612642  0.023888208    -2.053339   0.69207487   312295 
21110000   0.40731707   -2.0516579   -2.0516579   -1.3602934  0.029716483   -2.0516579   0.69136451   312241 
21120000   0.40683016   -2.0512283   -2.0512283   -1.3605708  0.032089746   -2.0512283   0.69065748   312187 
21130000    0.4075437   -2.0533949   -2.0533949   -1.3614064  0.029626458   -2.0533949   0.69198853   312133 
21140000   0.40642764   -2.0531293   -2.0531293   -1.3629164  0.028101027   -2.0531293   0.69021292   312079 
21150000   0.40718428   -2.0511758   -2.0511758   -1.3595582  0.033963745   -2.0511758   0.69161755   312025 
21160000   0.40651471   -2.0520497   -2.0520497   -1.3614499   0.03313903   -2.0520497   0.69059979   311971 
21170000   0.40606268    -2.051237    -2.051237   -1.3612857  0.031535792    -2.051237   0.68995129   311917 
21180000   0.40504147   -2.0473763   -2.0473763    -1.359041  0.031418418   -2.0473763   0.68833529   311863 
21190000   0.40630458    -2.048531    -2.048531   -1.3579296  0.025051118    -2.048531   0.69060142   311809 
21200000   0.40590537   -2.0508229   -2.0508229   -1.3607805  0.030182822   -2.0508229   0.69004239   311755 
21210000   0.40666478   -2.0502266   -2.0502266   -1.3587734  0.032035033   -2.0502266   0.69145316   311701 
21220000   0.40495078   -2.0474941   -2.0474941    -1.358836  0.033066362   -2.0474941   0.68865815   311647 
21230000   0.40610168   -2.0493603   -2.0493603   -1.3586252  0.031112566   -2.0493603   0.69073504   311593 
21240000   0.40643991   -2.0505988   -2.0505988   -1.3591686  0.031400656   -2.0505988   0.69143017   311539 
21250000   0.40490319   -2.0485457   -2.0485457   -1.3596104  0.024263362   -2.0485457   0.68893534   311485 
21260000   0.40398051   -2.0474562   -2.0474562   -1.3599716  0.026680507   -2.0474562   0.68748459   311431 
21270000   0.40550615   -2.0492329   -2.0492329   -1.3590324   0.03078995   -2.0492329   0.69020056   311377 
21280000   0.40415096   -2.0475732   -2.0475732   -1.3595577  0.034641797   -2.0475732   0.68801547   311322 
21290000   0.40415493   -2.0486226   -2.0486226    -1.360481  0.035592547   -2.0486226   0.68814158   311268 
21300000   0.40353691   -2.0485829   -2.0485829   -1.3613743   0.03143232   -2.0485829   0.68720852   311214 
21310000   0.40503727   -2.0516645   -2.0516645   -1.3617812  0.036945192   -2.0516645   0.68988328   311160 
21320000   0.40439023   -2.0520267   -2.0520267   -1.3631259   0.03503619   -2.0520267   0.68890076   311106 
21330000   0.40408463   -2.0476744   -2.0476744   -1.3591747  0.024452016   -2.0476744   0.68849966   311052 
21340000   0.40525613   -2.0470238   -2.0470238   -1.3564082  0.030518611   -2.0470238   0.69061561   310998 
21350000   0.40486864   -2.0473956   -2.0473956   -1.3573205  0.025868414   -2.0473956    0.6900751   310944 
21360000    0.4043525   -2.0461438   -2.0461438   -1.3568288  0.025613995   -2.0461438   0.68931508   310890 
21370000   0.40437589   -2.0472667   -2.0472667    -1.357792   0.02356465   -2.0472667   0.68947471   310836 
21380000    0.4039893   -2.0467106   -2.0467106   -1.3577753  0.032013083   -2.0467106   0.68893524   310782 
21390000   0.40511406   -2.0477307   -2.0477307   -1.3567573   0.03085643   -2.0477307    0.6909734   310728 
21400000   0.40337583   -2.0474319   -2.0474319   -1.3593037  0.026621402   -2.0474319   0.68812821   310674 
21410000   0.40446722   -2.0485684   -2.0485684   -1.3584584  0.036510602   -2.0485684   0.69010999   310620 
21420000   0.40469019   -2.0467439   -2.0467439   -1.3561334  0.031097784   -2.0467439   0.69061048   310566 
21430000   0.40315646   -2.0451687   -2.0451687   -1.3570559  0.037773035   -2.0451687   0.68811279   310512 
21440000   0.40391254   -2.0473352   -2.0473352    -1.357812  0.025495827   -2.0473352    0.6895232   310458 
21450000   0.40433509    -2.047797    -2.047797   -1.3574324  0.027197265    -2.047797   0.69036461   310404 
21460000   0.40415796    -2.048185    -2.048185   -1.3580006  0.033181339    -2.048185   0.69018447   310349 
21470000   0.40307564   -2.0446896   -2.0446896   -1.3562336  0.027438946   -2.0446896   0.68845598   310295 
21480000   0.40368794   -2.0476866   -2.0476866   -1.3580648   0.02960595   -2.0476866    0.6896218   310241 
21490000   0.40364561   -2.0447058   -2.0447058   -1.3550363  0.030581002   -2.0447058   0.68966953   310187 
21500000   0.40294125   -2.0447018   -2.0447018   -1.3561159  0.029240905   -2.0447018   0.68858593   310133 
21510000   0.40335595     -2.04532     -2.04532   -1.3559053  0.026517016     -2.04532   0.68941466   310079 
21520000   0.40251105   -2.0460506   -2.0460506   -1.3579603  0.030504245   -2.0460506   0.68809038   310025 
21530000   0.40230077   -2.0451454   -2.0451454   -1.3572947  0.029539744   -2.0451454   0.68785071   309971 
21540000   0.40207693   -2.0442496   -2.0442496   -1.3566618   0.03096902   -2.0442496   0.68758779   309917 
21550000   0.40185299   -2.0460892   -2.0460892   -1.3587646  0.031385916   -2.0460892   0.68732458   309863 
21560000   0.40242641    -2.047372    -2.047372   -1.3589467  0.028471753    -2.047372   0.68842533   309809 
21570000   0.40167942    -2.043372    -2.043372   -1.3561047  0.024880707    -2.043372   0.68726726   309755 
21580000   0.40219487   -2.0466723   -2.0466723   -1.3584032  0.028911202   -2.0466723   0.68826917   309701 
21590000   0.40306759   -2.0475715   -2.0475715   -1.3576886  0.032046764   -2.0475715   0.68988293   309647 
21600000   0.40123692   -2.0438175   -2.0438175   -1.3569481  0.031238304   -2.0438175   0.68686938   309593 
21610000   0.40314188   -2.0430699   -2.0430699   -1.3528191  0.039664136   -2.0430699   0.69025083   309539 
21620000    0.4018733   -2.0427333   -2.0427333   -1.3545345  0.027828731   -2.0427333   0.68819886   309485 
21630000   0.40161671   -2.0432092   -2.0432092   -1.3553298   0.03441295   -2.0432092   0.68787948   309431 
21640000   0.40159656   -2.0456783   -2.0456783   -1.3577133  0.034381507   -2.0456783   0.68796502   309377 
21650000   0.40339522   -2.0456498   -2.0456498   -1.3544806  0.030531435   -2.0456498   0.69116913   309322 
21660000   0.40133729   -2.0453344   -2.0453344   -1.3575712  0.035904079   -2.0453344   0.68776319   309268 
21670000   0.40145981   -2.0449974   -2.0449974   -1.3569041  0.034627827   -2.0449974   0.68809329   309214 
21680000   0.40118084   -2.0446094   -2.0446094   -1.3568741   0.02920414   -2.0446094   0.68773524   309160 
21690000   0.40084604   -2.0449928   -2.0449928   -1.3577115  0.032173683   -2.0449928   0.68728135   309106 
21700000    0.4011112   -2.0442255   -2.0442255   -1.3563693  0.036080796   -2.0442255   0.68785615   309052 
21710000   0.40169305   -2.0442959   -2.0442959   -1.3553216   0.03217205   -2.0442959   0.68897433   308998 
21720000   0.40093432    -2.044167    -2.044167   -1.3563738  0.030839926    -2.044167   0.68779318   308944 
21730000   0.40102234   -2.0427848   -2.0427848   -1.3547204  0.028804436   -2.0427848   0.68806444   308890 
21740000   0.40086007   -2.0431418   -2.0431418   -1.3552355  0.027964324   -2.0431418   0.68790628   308836 
21750000   0.40136423   -2.0422005   -2.0422005   -1.3533086  0.026595395   -2.0422005   0.68889191   308782 
21760000   0.40090363   -2.0428178   -2.0428178    -1.354596  0.029828109   -2.0428178   0.68822171   308728 
21770000   0.40035746   -2.0456173   -2.0456173   -1.3582129  0.024951582   -2.0456173   0.68740435   308674 
21780000   0.40032508   -2.0463529   -2.0463529   -1.3588839  0.031569109   -2.0463529   0.68746902   308620 
21790000   0.39897355   -2.0445118   -2.0445118   -1.3592439  0.024931574   -2.0445118   0.68526797   308566 
21800000   0.40005704   -2.0451283   -2.0451283   -1.3578791  0.032601891   -2.0451283   0.68724922   308512 
21810000   0.39990436   -2.0424452   -2.0424452    -1.355338  0.026293211   -2.0424452    0.6871072   308458 
21820000    0.4001514   -2.0425381   -2.0425381    -1.354886  0.033570109   -2.0425381   0.68765204   308404 
21830000    0.3997709   -2.0413588   -2.0413588   -1.3542381  0.031954841   -2.0413588   0.68712069   308349 
21840000   0.39968544   -2.0422443   -2.0422443   -1.3551502  0.026475514   -2.0422443   0.68709414   308295 
21850000   0.39943395   -2.0424996   -2.0424996   -1.3557175   0.02546266   -2.0424996   0.68678211   308241 
21860000   0.39935018   -2.0423035   -2.0423035   -1.3555451  0.030925125   -2.0423035   0.68675838   308187 
21870000   0.39909196   -2.0438127   -2.0438127   -1.3573781  0.025591006   -2.0438127    0.6864346   308133 
21880000   0.39944794   -2.0428338   -2.0428338   -1.3556665  0.027662718   -2.0428338    0.6871673   308079 
21890000   0.39819557   -2.0406149   -2.0406149   -1.3554819  0.030140683   -2.0406149   0.68513295   308025 
21900000   0.40007961   -2.0416819   -2.0416819   -1.3531865  0.025155973   -2.0416819   0.68849532   307971 
21910000   0.39927948   -2.0387801   -2.0387801   -1.3515412  0.033252812   -2.0387801   0.68723888   307917 
21920000   0.39888787   -2.0376034   -2.0376034   -1.3509182  0.032725494   -2.0376034   0.68668527   307863 
21930000    0.3990031   -2.0378546   -2.0378546   -1.3508505   0.03182647   -2.0378546   0.68700415   307809 
21940000   0.39844906   -2.0362769   -2.0362769   -1.3501063  0.035128731   -2.0362769   0.68617058   307755 
21950000   0.39946734    -2.040108    -2.040108   -1.3520632  0.029508324    -2.040108   0.68804488   307701 
21960000   0.39937591   -2.0426901   -2.0426901   -1.3546819  0.027607336   -2.0426901   0.68800815   307647 
21970000    0.3984747   -2.0410508   -2.0410508   -1.3544747  0.032210988   -2.0410508   0.68657613   307593 
21980000   0.39942045   -2.0389028   -2.0389028   -1.3505763  0.034646011   -2.0389028   0.68832652   307539 
21990000   0.39788909   -2.0393142   -2.0393142   -1.3535062  0.025102819   -2.0393142   0.68580792   307485 
22000000   0.39982009   -2.0440932   -2.0440932    -1.354836  0.029174521   -2.0440932   0.68925727   307431 
22010000   0.39777234   -2.0405673   -2.0405673   -1.3547197  0.027684427   -2.0405673   0.68584757   307377 
22020000   0.39888907   -2.0402574   -2.0402574   -1.3523613  0.032768427   -2.0402574   0.68789615   307322 
22030000   0.39785431    -2.039871    -2.039871   -1.3536387  0.028655291    -2.039871   0.68623227   307268 
22040000   0.39870514   -2.0421179   -2.0421179   -1.3542973  0.029894621   -2.0421179   0.68782068   307214 
22050000   0.39830281   -2.0401136   -2.0401136   -1.3528662  0.037606102   -2.0401136    0.6872474   307160 
22060000   0.39784319   -2.0418771   -2.0418771    -1.355302  0.024444756   -2.0418771   0.68657507   307106 
22070000    0.3977564   -2.0390577   -2.0390577   -1.3525117  0.033335547   -2.0390577   0.68654601   307052 
22080000   0.39755053   -2.0385468   -2.0385468   -1.3522354  0.033760567   -2.0385468   0.68631136   306998 
22090000   0.39752027   -2.0407479   -2.0407479    -1.354368  0.025608385   -2.0407479   0.68637985   306944 
22100000    0.3968267   -2.0401048   -2.0401048    -1.354802  0.030124615   -2.0401048   0.68530287   306890 
22110000   0.39743203   -2.0423011   -2.0423011   -1.3558321  0.028811644   -2.0423011   0.68646904   306836 
22120000   0.39743785   -2.0390829   -2.0390829    -1.352483   0.02294641   -2.0390829   0.68659992   306782 
22130000   0.39752018   -2.0376574   -2.0376574   -1.3507943  0.024866926   -2.0376574   0.68686306   306728 
22140000   0.39844039   -2.0393636   -2.0393636   -1.3507893  0.035599832   -2.0393636   0.68857428   306674 
22150000    0.3972287   -2.0382084   -2.0382084   -1.3516072   0.03119241   -2.0382084   0.68660117   306620 
22160000   0.39701203    -2.036899    -2.036899   -1.3505515  0.030368158    -2.036899   0.68634754   306566 
22170000   0.39735729   -2.0367859   -2.0367859   -1.3497205    0.0336658   -2.0367859   0.68706544   306512 
22180000   0.39731336   -2.0379261   -2.0379261   -1.3508156  0.028605012   -2.0379261   0.68711053   306458 
22190000   0.39810847   -2.0394596   -2.0394596   -1.3508526  0.026509642   -2.0394596   0.68860693   306404 
22200000   0.39705703    -2.038607    -2.038607   -1.3516954  0.021944315    -2.038607   0.68691156   306349 
22210000   0.39673648   -2.0383816   -2.0383816   -1.3519036  0.032021163   -2.0383816   0.68647801   306295 
22220000   0.39732643   -2.0401836   -2.0401836   -1.3525636  0.027471161   -2.0401836   0.68762003   306241 
22230000   0.39641887   -2.0404417   -2.0404417   -1.3542714  0.034973377   -2.0404417   0.68617039   306187 
22240000   0.39677061    -2.042065    -2.042065   -1.3551646  0.025694894    -2.042065   0.68690037   306133 
22250000   0.39598016    -2.039256    -2.039256   -1.3536031  0.034567343    -2.039256   0.68565285   306079 
22260000   0.39633286   -2.0377472   -2.0377472   -1.3513626  0.038445722   -2.0377472   0.68638466   306025 
22270000   0.39625751   -2.0373574   -2.0373574   -1.3509822  0.034742844   -2.0373574   0.68637528   305971 
22280000   0.39802738   -2.0400621   -2.0400621   -1.3504995  0.024705473   -2.0400621   0.68956266   305917 
22290000   0.39595695   -2.0351371   -2.0351371   -1.3490403  0.039690869   -2.0351371   0.68609684   305863 
22300000   0.39605973   -2.0361635   -2.0361635   -1.3497674  0.031160466   -2.0361635   0.68639613   305809 
22310000   0.39508448   -2.0380153   -2.0380153   -1.3531884  0.031807352   -2.0380153   0.68482687   305755 
22320000   0.39626242   -2.0408629   -2.0408629   -1.3538729  0.023198304   -2.0408629   0.68699002   305701 
22330000   0.39497753   -2.0359579   -2.0359579   -1.3510745  0.034156868   -2.0359579   0.68488342   305647 
22340000    0.3954543   -2.0371979   -2.0371979   -1.3513666  0.030331244   -2.0371979    0.6858313   305593 
22350000   0.39606326   -2.0372703   -2.0372703   -1.3502615  0.035226997   -2.0372703   0.68700881   305539 
22360000   0.39491746   -2.0368658   -2.0368658   -1.3517234  0.028592071   -2.0368658    0.6851424   305485 
22370000   0.39549885   -2.0373469   -2.0373469   -1.3510745  0.024976055   -2.0373469   0.68627235   305431 
22380000   0.39517115   -2.0363359   -2.0363359   -1.3505109  0.032853705   -2.0363359   0.68582499   305377 
22390000   0.39466793   -2.0345882   -2.0345882   -1.3495132  0.029446042   -2.0345882   0.68507502   305322 
22400000   0.39534694   -2.0342364   -2.0342364   -1.3478613  0.026281506   -2.0342364   0.68637507   305268 
22410000   0.39514085   -2.0334873   -2.0334873   -1.3473487  0.031877868   -2.0334873   0.68613864   305214 
22420000   0.39509333   -2.0339676   -2.0339676   -1.3477901  0.037218882   -2.0339676   0.68617752   305160 
22430000   0.39533481   -2.0353189   -2.0353189   -1.3486005  0.031067496   -2.0353189   0.68671844   305106 
22440000   0.39542385   -2.0335396   -2.0335396   -1.3465449  0.027576115   -2.0335396   0.68699469   305052 
22450000   0.39479802   -2.0305454   -2.0305454   -1.3445166  0.020978739   -2.0305454   0.68602883   304998 
22460000   0.39534947   -2.0323608   -2.0323608   -1.3452521  0.029860424   -2.0323608   0.68710873   304944 
22470000   0.39517618   -2.0315669   -2.0315669   -1.3446377  0.030923967   -2.0315669   0.68692919   304890 
22480000    0.3942934   -2.0301769   -2.0301769   -1.3446608  0.032609241   -2.0301769   0.68551609   304836 
22490000   0.39399918   -2.0332843   -2.0332843   -1.3481583  0.030814799   -2.0332843   0.68512593   304782 
22500000   0.39484681    -2.033761    -2.033761   -1.3470394  0.025598618    -2.033761   0.68672155   304728 
22510000   0.39365325    -2.031587    -2.031587     -1.34682  0.028538577    -2.031587   0.68476704   304674 
22520000   0.39416489    -2.030835    -2.030835   -1.3450564  0.029744612    -2.030835    0.6857786   304620 
22530000   0.39353106   -2.0287404   -2.0287404   -1.3439431  0.030482113   -2.0287404   0.68479722   304566 
22540000   0.39364891   -2.0290267   -2.0290267   -1.3439029  0.032731849   -2.0290267   0.68512378   304512 
22550000   0.39396942   -2.0313413   -2.0313413    -1.345538   0.03424308   -2.0313413   0.68580323   304458 
22560000   0.39448349   -2.0308627   -2.0308627   -1.3440428  0.039272292   -2.0308627    0.6868199   304404 
22570000   0.39388205   -2.0298326   -2.0298326   -1.3439359  0.029465775   -2.0298326   0.68589669   304349 
22580000   0.39491131   -2.0296802   -2.0296802   -1.3418692  0.032346051   -2.0296802   0.68781105   304295 
22590000   0.39486939   -2.0307147   -2.0307147   -1.3428546  0.037623852   -2.0307147   0.68786011   304241 
22600000   0.39429119   -2.0284428   -2.0284428    -1.341468  0.026774815   -2.0284428   0.68697482   304187 
22610000   0.39482789    -2.030052    -2.030052     -1.34202  0.030698956    -2.030052   0.68803206   304133 
22620000   0.39293578    -2.030776    -2.030776   -1.3459196  0.033063592    -2.030776   0.68485644   304079 
22630000   0.39309441     -2.02985     -2.02985   -1.3445954  0.030042924     -2.02985   0.68525462   304025 
22640000   0.39452458   -2.0340087   -2.0340087   -1.3461388  0.029535869   -2.0340087    0.6878699   303971 
22650000   0.39203038   -2.0301541   -2.0301541   -1.3465115  0.028574542   -2.0301541   0.68364262   303917 
22660000   0.39262073   -2.0318595   -2.0318595   -1.3470657  0.027643099   -2.0318595   0.68479377   303863 
22670000   0.39311783   -2.0324704   -2.0324704   -1.3466878  0.030003709   -2.0324704   0.68578267   303809 
22680000   0.39280186   -2.0327893   -2.0327893    -1.347436   0.02828195   -2.0327893   0.68535328   303755 
22690000   0.39118843   -2.0288224   -2.0288224   -1.3461628  0.032809475   -2.0288224   0.68265955   303701 
22700000   0.39282131   -2.0311636   -2.0311636   -1.3455326  0.032922036   -2.0311636     0.685631   303647 
22710000   0.39178458   -2.0308764   -2.0308764   -1.3469333  0.026677625   -2.0308764   0.68394311   303593 
22720000   0.39205286   -2.0327668   -2.0327668   -1.3482336  0.027846464   -2.0327668   0.68453321   303539 
22730000   0.39139484    -2.032242    -2.032242   -1.3487361  0.031218493    -2.032242    0.6835059   303485 
22740000   0.39254737   -2.0337138   -2.0337138   -1.3480732  0.037455363   -2.0337138   0.68564059   303431 
22750000   0.39245556   -2.0332269   -2.0332269   -1.3476246  0.033472205   -2.0332269   0.68560225   303377 
22760000   0.39048937   -2.0318947   -2.0318947   -1.3496036  0.031116794   -2.0318947   0.68229109   303322 
22770000   0.39155948   -2.0328008   -2.0328008   -1.3485181  0.033269655   -2.0328008   0.68428269   303268 
22780000   0.39257758   -2.0312093   -2.0312093   -1.3450252  0.031276644   -2.0312093   0.68618408   303214 
22790000   0.39232456   -2.0315483   -2.0315483   -1.3456843  0.027058862   -2.0315483   0.68586399   303160 
22800000    0.3916981   -2.0313273   -2.0313273   -1.3464365  0.030451617   -2.0313273   0.68489079   303106 
22810000   0.39118907     -2.03104     -2.03104   -1.3469173  0.030757485     -2.03104   0.68412264   303052 
22820000   0.39016029   -2.0295001   -2.0295001    -1.347055  0.028404669   -2.0295001   0.68244508   302998 
22830000   0.39109791   -2.0266128   -2.0266128   -1.3424058  0.025416921   -2.0266128   0.68420704   302944 
22840000   0.39172052   -2.0288617   -2.0288617   -1.3434433  0.033293079   -2.0288617   0.68541845   302890 
22850000   0.39105026   -2.0289958   -2.0289958   -1.3446282  0.033340835   -2.0289958   0.68436765   302836 
22860000    0.3909127   -2.0304848   -2.0304848   -1.3462359  0.034769532   -2.0304848   0.68424893   302782 
22870000   0.39050612    -2.029069    -2.029069   -1.3454098  0.031740525    -2.029069   0.68365918   302728 
22880000   0.38987612   -2.0293854   -2.0293854   -1.3467074  0.032647541   -2.0293854   0.68267802   302674 
22890000   0.39055279   -2.0330491   -2.0330491   -1.3490641  0.033196024   -2.0330491   0.68398491   302620 
22900000   0.38909782   -2.0279946   -2.0279946   -1.3464362  0.036459804   -2.0279946   0.68155839   302566 
22910000   0.39035114   -2.0283206   -2.0283206   -1.3444448    0.0294258   -2.0283206   0.68387581   302512 
22920000   0.39046558   -2.0279415   -2.0279415   -1.3437431  0.034513403   -2.0279415   0.68419844   302458 
22930000   0.38999781   -2.0240502   -2.0240502   -1.3405494  0.036508184   -2.0240502   0.68350081   302404 
22940000   0.39050854   -2.0269154   -2.0269154    -1.342395  0.030196538   -2.0269154    0.6845204   302349 
22950000   0.39104259   -2.0275311   -2.0275311   -1.3419521  0.030058388   -2.0275311   0.68557898   302295 
22960000   0.38944786   -2.0244617   -2.0244617   -1.3415566    0.0302292   -2.0244617   0.68290508   302241 
22970000    0.3900986   -2.0264017   -2.0264017   -1.3422333  0.026941344   -2.0264017    0.6841684   302187 
22980000   0.39011836   -2.0278512   -2.0278512   -1.3435258  0.029497584   -2.0278512   0.68432534   302133 
22990000   0.38895834   -2.0242473   -2.0242473   -1.3418348  0.030154664   -2.0242473   0.68241247   302079 
23000000    0.3902062   -2.0240205   -2.0240205   -1.3392963  0.030844473   -2.0240205   0.68472418   302025 
23010000   0.38987256   -2.0243108   -2.0243108   -1.3400497  0.025780399   -2.0243108   0.68426107   301971 
23020000   0.38987492   -2.0251267   -2.0251267   -1.3407391  0.041479292   -2.0251267   0.68438759   301917 
23030000   0.38964366   -2.0236941   -2.0236941   -1.3395901    0.0290113   -2.0236941   0.68410399   301863 
23040000   0.38885637   -2.0237359   -2.0237359    -1.340892   0.03447301   -2.0237359    0.6828439   301809 
23050000   0.38950682   -2.0240958   -2.0240958   -1.3399873  0.034126452   -2.0240958   0.68410851   301755 
23060000   0.39052473   -2.0252876   -2.0252876   -1.3392685  0.028919721   -2.0252876   0.68601907   301701 
23070000   0.38909828   -2.0274244   -2.0274244   -1.3437887  0.025210102   -2.0274244   0.68363565   301647 
23080000   0.38909326   -2.0276859   -2.0276859   -1.3439367  0.032153717   -2.0276859   0.68374923   301593 
23090000    0.3890356   -2.0274897   -2.0274897   -1.3437194  0.028317959   -2.0274897   0.68377032   301539 
23100000   0.38850486    -2.024747    -2.024747   -1.3417872  0.031141878    -2.024747    0.6829598   301485 
23110000   0.38759136   -2.0264139   -2.0264139   -1.3449378  0.027043976   -2.0264139   0.68147601   301431 
23120000   0.38816667   -2.0304206   -2.0304206   -1.3478108  0.025669802   -2.0304206   0.68260982   301377 
23130000   0.38762795   -2.0271603   -2.0271603   -1.3453734   0.03421987   -2.0271603   0.68178689   301322 
23140000   0.38844438   -2.0260765   -2.0260765   -1.3427312   0.02912194   -2.0260765   0.68334533   301268 
23150000    0.3892395   -2.0281426   -2.0281426   -1.3432758  0.027491782   -2.0281426   0.68486686   301214 
23160000   0.38810781   -2.0264963   -2.0264963   -1.3434982  0.031521927   -2.0264963   0.68299809   301160 
23170000   0.38788455   -2.0284339   -2.0284339   -1.3457063  0.025531152   -2.0284339   0.68272761   301106 
23180000   0.38832065    -2.025862    -2.025862   -1.3422442  0.026976359    -2.025862    0.6836178   301052 
23190000   0.38771536   -2.0271228   -2.0271228   -1.3444481  0.032079442   -2.0271228   0.68267469   300998 
23200000   0.38786755   -2.0269501   -2.0269501   -1.3438849  0.025839709   -2.0269501   0.68306519   300944 
23210000   0.38674378    -2.023404    -2.023404   -1.3421957  0.031984176    -2.023404   0.68120837   300890 
23220000    0.3883396   -2.0273251   -2.0273251    -1.343183   0.03384332   -2.0273251   0.68414202   300836 
23230000   0.38844581   -2.0263641   -2.0263641   -1.3419121  0.028977113   -2.0263641   0.68445199   300782 
23240000   0.38636643   -2.0224577   -2.0224577   -1.3415474  0.029799431   -2.0224577   0.68091031   300728 
23250000   0.38744784   -2.0252116   -2.0252116   -1.3422729  0.030365895   -2.0252116   0.68293877   300674 
23260000   0.38785614   -2.0274791   -2.0274791   -1.3436979  0.026084924   -2.0274791   0.68378127   300620 
23270000   0.38604217   -2.0240766   -2.0240766   -1.3433711  0.033636747   -2.0240766   0.68070556   300566 
23280000   0.38801398   -2.0265569   -2.0265569   -1.3422515  0.028074685   -2.0265569   0.68430538   300512 
23290000   0.38703509   -2.0250482   -2.0250482   -1.3423466  0.026295895   -2.0250482   0.68270168   300458 
23300000    0.3868042   -2.0260806   -2.0260806   -1.3436635  0.036133013   -2.0260806   0.68241705   300404 
23310000   0.38646496   -2.0250042   -2.0250042   -1.3430608  0.028967979   -2.0250042   0.68194339   300349 
23320000   0.38642802   -2.0248074   -2.0248074   -1.3428065  0.029963609   -2.0248074   0.68200083   300295 
23330000   0.38552403   -2.0243596   -2.0243596   -1.3438318  0.030988246   -2.0243596   0.68052777   300241 
23340000   0.38656516   -2.0243864   -2.0243864   -1.3418981  0.037888381   -2.0243864   0.68248832   300187 
23350000   0.38636052   -2.0253963   -2.0253963   -1.3431465   0.03458799   -2.0253963   0.68224975   300133 
23360000   0.38591572    -2.024932    -2.024932   -1.3433451  0.027697454    -2.024932   0.68158694   300079 
23370000   0.38582243   -2.0242782   -2.0242782   -1.3427333  0.031169749   -2.0242782   0.68154483   300025 
23380000   0.38626438   -2.0257211   -2.0257211   -1.3432727  0.029538564   -2.0257211   0.68244835   299971 
23390000   0.38538128   -2.0251087   -2.0251087    -1.344098  0.034373672   -2.0251087   0.68101069   299917 
23400000   0.38622078   -2.0255752   -2.0255752   -1.3429581  0.027592471   -2.0255752   0.68261709   299863 
23410000   0.38586223   -2.0235677   -2.0235677   -1.3414615  0.034915416   -2.0235677    0.6821062   299809 
23420000    0.3858357   -2.0252228   -2.0252228   -1.3430406  0.024698614   -2.0252228   0.68218218   299755 
23430000   0.38622645   -2.0234214   -2.0234214   -1.3404253  0.030876938   -2.0234214   0.68299608   299701 
23440000   0.38619177   -2.0265422   -2.0265422   -1.3434844  0.032181164   -2.0265422   0.68305784   299647 
23450000   0.38514365   -2.0255274   -2.0255274   -1.3442006  0.028110521   -2.0255274    0.6813268   299593 
23460000   0.38514546   -2.0239882   -2.0239882   -1.3425354  0.027524659   -2.0239882   0.68145284   299539 
23470000   0.38514801   -2.0261208   -2.0261208   -1.3445406  0.029327362   -2.0261208   0.68158023   299485 
23480000   0.38418488   -2.0242829   -2.0242829   -1.3442844  0.034963605   -2.0242829   0.67999842   299431 
23490000   0.38603506   -2.0231056   -2.0231056   -1.3397092  0.028382242   -2.0231056   0.68339645   299377 
23500000   0.38546808   -2.0230904   -2.0230904   -1.3405723  0.024446768   -2.0230904    0.6825181   299322 
23510000   0.38567169   -2.0264561   -2.0264561   -1.3434542   0.02550685   -2.0264561   0.68300184   299268 
23520000   0.38479896   -2.0237946   -2.0237946   -1.3422153  0.027243991   -2.0237946   0.68157927   299214 
23530000   0.38403364   -2.0206584   -2.0206584   -1.3403119  0.035164589   -2.0206584   0.68034647   299160 
23540000   0.38486996   -2.0231023   -2.0231023   -1.3411511  0.038810952   -2.0231023   0.68195118   299106 
23550000   0.38515785   -2.0228888   -2.0228888   -1.3403043   0.02658668   -2.0228888   0.68258453   299052 
23560000    0.3841733   -2.0195774   -2.0195774   -1.3386147  0.036063099   -2.0195774   0.68096264   298998 
23570000   0.38434871   -2.0202353   -2.0202353   -1.3388387   0.02302009   -2.0202353   0.68139664   298944 
23580000   0.38343278    -2.021023    -2.021023   -1.3411274  0.021761147    -2.021023   0.67989563   298890 
23590000    0.3841809   -2.0225292   -2.0225292   -1.3411839  0.026164542   -2.0225292   0.68134528   298836 
23600000   0.38337128   -2.0211876   -2.0211876   -1.3411553  0.028529952   -2.0211876    0.6800323   298782 
23610000   0.38479616   -2.0240515   -2.0240515   -1.3413683  0.038713072   -2.0240515   0.68268318   298728 
23620000   0.38364034   -2.0209058   -2.0209058   -1.3401501  0.024739414   -2.0209058   0.68075564   298674 
23630000   0.38447411   -2.0222727   -2.0222727   -1.3399142  0.027571798   -2.0222727   0.68235849   298620 
23640000   0.38244059   -2.0196435   -2.0196435   -1.3407712  0.031426687   -2.0196435    0.6788722   298566 
23650000    0.3833841   -2.0206442   -2.0206442    -1.339974  0.027584537   -2.0206442   0.68067015   298512 
23660000   0.38311819    -2.020314    -2.020314   -1.3399929   0.03215139    -2.020314    0.6803211   298458 
23670000   0.38326392   -2.0221438   -2.0221438   -1.3414407  0.024870903   -2.0221438   0.68070304   298404 
23680000   0.38251975   -2.0227657   -2.0227657   -1.3432591  0.032636336   -2.0227657    0.6795066   298349 
23690000   0.38364456   -2.0221664   -2.0221664   -1.3405383  0.027974539   -2.0221664   0.68162807   298295 
23700000      0.38407    -2.023277    -2.023277   -1.3407695  0.033309088    -2.023277   0.68250751   298241 
23710000   0.38219472   -2.0210954   -2.0210954   -1.3417974  0.033456075   -2.0210954   0.67929806   298187 
23720000   0.38214919   -2.0191137   -2.0191137   -1.3397736  0.031350989   -2.0191137   0.67934015   298133 
23730000    0.3833302   -2.0202165   -2.0202165   -1.3386535  0.032728315   -2.0202165   0.68156308   298079 
23740000    0.3832122   -2.0192239   -2.0192239   -1.3377471  0.030060651   -2.0192239   0.68147673   298025 
23750000   0.38334993   -2.0198525   -2.0198525   -1.3380073  0.031212006   -2.0198525    0.6818452   297971 
23760000   0.38338481   -2.0199468   -2.0199468    -1.337916  0.031337998   -2.0199468   0.68203084   297917 
23770000   0.38242502   -2.0188843   -2.0188843   -1.3384376  0.026119852   -2.0188843   0.68044673   297863 
23780000   0.38276218   -2.0168399   -2.0168399   -1.3356698  0.029196257   -2.0168399   0.68117013   297809 
23790000   0.38156292    -2.018118    -2.018118    -1.338959  0.029642313    -2.018118   0.67915907   297755 
23800000   0.38246936    -2.020883    -2.020883   -1.3399871  0.035548507    -2.020883   0.68089596   297701 
23810000   0.38257097   -2.0206922   -2.0206922   -1.3394918  0.026446701   -2.0206922    0.6812004   297647 
23820000   0.38172911   -2.0180745   -2.0180745   -1.3382498  0.032973714   -2.0180745   0.67982474   297593 
23830000   0.38242124   -2.0190574   -2.0190574   -1.3378764  0.024218314   -2.0190574   0.68118096   297539 
23840000   0.38103481   -2.0164334   -2.0164334   -1.3375988  0.030858662   -2.0164334   0.67883461   297485 
23850000   0.38223175   -2.0190938   -2.0190938   -1.3380032  0.030567829   -2.0190938   0.68109065   297431 
23860000   0.38154617   -2.0173125   -2.0173125     -1.33732  0.028093416   -2.0173125    0.6799925   297377 
23870000   0.38115608   -2.0150284   -2.0150284   -1.3356055  0.028210478   -2.0150284   0.67942293   297322 
23880000   0.38154595   -2.0172053   -2.0172053   -1.3369639   0.02754204   -2.0172053   0.68024144   297268 
23890000   0.38180909   -2.0206524   -2.0206524   -1.3398182  0.028914853   -2.0206524   0.68083426   297214 
23900000   0.38134598   -2.0191251   -2.0191251    -1.338993  0.034717542   -2.0191251   0.68013202   297160 
23910000   0.38248381   -2.0210411   -2.0210411   -1.3387558  0.029579659   -2.0210411   0.68228532   297106 
23920000   0.38196811   -2.0208122   -2.0208122   -1.3393229  0.031475299   -2.0208122   0.68148928   297052 
23930000   0.38135399   -2.0192577   -2.0192577   -1.3387404  0.028945008   -2.0192577   0.68051729   296998 
23940000   0.38116361   -2.0182959   -2.0182959   -1.3379947  0.033213944   -2.0182959   0.68030125   296944 
23950000   0.38126131     -2.02015     -2.02015   -1.3395506  0.031613543     -2.02015    0.6805994   296890 
23960000   0.38079529    -2.017764    -2.017764   -1.3378729   0.02634968    -2.017764   0.67989117   296836 
23970000   0.38168907   -2.0210288   -2.0210288   -1.3394178  0.035616593   -2.0210288   0.68161096   296782 
23980000   0.38133749   -2.0191576   -2.0191576   -1.3380506  0.022435929   -2.0191576   0.68110704   296728 
23990000   0.38008942   -2.0205779   -2.0205779   -1.3415764  0.025435106   -2.0205779   0.67900144   296674 
24000000   0.38032253    -2.019794    -2.019794   -1.3402525  0.031233236    -2.019794   0.67954155   296620 
24010000   0.38044704   -2.0178313   -2.0178313   -1.3379435  0.039374204   -2.0178313   0.67988779   296566 
24020000   0.37898296   -2.0170527   -2.0170527    -1.339658  0.030678662   -2.0170527   0.67739472   296512 
24030000   0.38058261   -2.0202628   -2.0202628    -1.339885  0.027534098   -2.0202628   0.68037785   296458 
24040000   0.38009376   -2.0173278   -2.0173278   -1.3377001  0.030294458   -2.0173278    0.6796277   296404 
24050000   0.38080435   -2.0147277   -2.0147277    -1.333703  0.028293088   -2.0147277   0.68102465   296349 
24060000   0.38108079   -2.0154796   -2.0154796   -1.3338363  0.030501475   -2.0154796   0.68164324   296295 
24070000   0.37983371   -2.0120763   -2.0120763   -1.3325398  0.030996447   -2.0120763   0.67953643   296241 
24080000   0.38015248   -2.0126518   -2.0126518    -1.332421  0.033633812   -2.0126518   0.68023071   296187 
24090000   0.37974453   -2.0127544   -2.0127544   -1.3331298  0.032174523   -2.0127544   0.67962465   296133 
24100000   0.37932995   -2.0103403   -2.0103403   -1.3313338  0.024811638   -2.0103403   0.67900649   296079 
24110000   0.38004984    -2.013526    -2.013526   -1.3331068  0.029127457    -2.013526   0.68041921   296025 
24120000   0.37988695    -2.012358    -2.012358   -1.3321063  0.031572415    -2.012358   0.68025167   295971 
24130000   0.37923016   -2.0119845   -2.0119845    -1.332785  0.028728238   -2.0119845   0.67919949   295917 
24140000   0.37967894   -2.0109647   -2.0109647   -1.3308373  0.025455513   -2.0109647   0.68012737   295863 
24150000   0.37965382   -2.0107713   -2.0107713   -1.3305648  0.025678314   -2.0107713   0.68020651   295809 
24160000   0.37860273   -2.0068677   -2.0068677   -1.3284205  0.032200692   -2.0068677   0.67844719   295755 
24170000   0.37958618    -2.010558    -2.010558   -1.3302243  0.029793662    -2.010558   0.68033372   295701 
24180000   0.38030557    -2.014122    -2.014122   -1.3323744  0.032859941    -2.014122   0.68174758   295647 
24190000   0.37993237     -2.01401     -2.01401    -1.332807  0.028882384     -2.01401   0.68120299   295593 
24200000    0.3787127   -2.0107693   -2.0107693    -1.331629  0.020503947   -2.0107693   0.67914025   295539 
24210000   0.37738095   -2.0097338   -2.0097338   -1.3328581  0.031278131   -2.0097338   0.67687571   295485 
24220000   0.37927999   -2.0114828   -2.0114828   -1.3310766  0.028508709   -2.0114828   0.68040619   295431 
24230000   0.37804445   -2.0087408   -2.0087408   -1.3304271  0.030210448   -2.0087408    0.6783137   295377 
24240000   0.37846195   -2.0118467   -2.0118467   -1.3326574  0.030439354   -2.0118467   0.67918927   295322 
24250000   0.37937419   -2.0121706   -2.0121706   -1.3312197  0.028310969   -2.0121706   0.68095089   295268 
24260000   0.37785691   -2.0079186   -2.0079186   -1.3295671  0.027248156   -2.0079186   0.67835154   295214 
24270000   0.37796942   -2.0098319   -2.0098319   -1.3311542   0.03106837   -2.0098319   0.67867767   295160 
24280000   0.37846927   -2.0122724   -2.0122724   -1.3325728  0.028214883   -2.0122724   0.67969955   295106 
24290000    0.3775986   -2.0100623   -2.0100623   -1.3318023  0.029603184   -2.0100623   0.67826001   295052 
24300000   0.37837537   -2.0108537   -2.0108537    -1.331074  0.028618513   -2.0108537    0.6797797   294998 
24310000   0.37784246   -2.0106914   -2.0106914   -1.3317448  0.026495456   -2.0106914   0.67894655   294944 
24320000   0.37759173   -2.0105672   -2.0105672   -1.3319469  0.025044405   -2.0105672   0.67862026   294890 
24330000   0.37731011   -2.0117164   -2.0117164   -1.3334781  0.031180905   -2.0117164   0.67823834   294836 
24340000   0.37662827   -2.0115617   -2.0115617    -1.334425  0.038468165   -2.0115617   0.67713669   294782 
24350000   0.37885685   -2.0136245   -2.0136245   -1.3323563   0.02811109   -2.0136245   0.68126824   294728 
24360000   0.37672823   -2.0107624   -2.0107624   -1.3331977  0.029728577   -2.0107624   0.67756466   294674 
24370000   0.37900465   -2.0152729   -2.0152729   -1.3334891  0.038721653   -2.0152729   0.68178385   294620 
24380000   0.37711744   -2.0128782   -2.0128782   -1.3343648  0.030108151   -2.0128782   0.67851336   294566 
24390000   0.37759942   -2.0140179   -2.0140179   -1.3345128  0.033042659   -2.0140179    0.6795051   294512 
24400000    0.3757119   -2.0079818   -2.0079818   -1.3317494  0.026935558   -2.0079818   0.67623243   294458 
24410000   0.37753999   -2.0111001   -2.0111001   -1.3314527  0.026725461   -2.0111001   0.67964739   294404 
24420000   0.37747066   -2.0083374   -2.0083374   -1.3286879  0.029790997   -2.0083374   0.67964955   294349 
24430000   0.37712779   -2.0077446   -2.0077446   -1.3285878  0.030964205   -2.0077446   0.67915679   294295 
24440000     0.377355   -2.0097559   -2.0097559   -1.3300653  0.030476449   -2.0097559   0.67969069   294241 
24450000   0.37668363   -2.0074196   -2.0074196   -1.3288136   0.02723362   -2.0074196   0.67860596   294187 
24460000   0.37804951   -2.0105837   -2.0105837    -1.329392  0.026524379   -2.0105837   0.68119167   294133 
24470000   0.37622552   -2.0093581   -2.0093581   -1.3313286  0.029757505   -2.0093581   0.67802956   294079 
24480000   0.37658399   -2.0104371   -2.0104371   -1.3316369  0.028009053   -2.0104371   0.67880025   294025 
24490000   0.37581397   -2.0106166   -2.0106166   -1.3330799  0.028740685   -2.0106166    0.6775367   293971 
24500000   0.37548643    -2.010409    -2.010409   -1.3333384  0.028005567    -2.010409   0.67707058   293917 
24510000   0.37620728   -2.0101709   -2.0101709   -1.3316758  0.033676626   -2.0101709   0.67849506   293863 
24520000   0.37546212   -2.0072151   -2.0072151   -1.3299395  0.026663715   -2.0072151    0.6772756   293809 
24530000   0.37685287   -2.0103545   -2.0103545   -1.3304453  0.034912289   -2.0103545   0.67990925   293755 
24540000    0.3764289   -2.0054898   -2.0054898   -1.3262206  0.024560507   -2.0054898   0.67926922   293701 
24550000   0.37634396   -2.0053286   -2.0053286   -1.3260878  0.035710069   -2.0053286   0.67924082   293647 
24560000   0.37608173   -2.0048852   -2.0048852   -1.3259928  0.027068554   -2.0048852   0.67889238   293593 
24570000   0.37632963   -2.0036439   -2.0036439    -1.324179  0.029368269   -2.0036439   0.67946485   293539 
24580000   0.37558693   -2.0065167   -2.0065167    -1.328268  0.028559933   -2.0065167   0.67824868   293485 
24590000    0.3760417   -2.0054803   -2.0054803   -1.3262854  0.033523338   -2.0054803    0.6791949   293431 
24600000     0.375628   -2.0071832   -2.0071832   -1.3286107  0.027889137   -2.0071832   0.67857256   293377 
24610000   0.37585666   -2.0042564   -2.0042564   -1.3251434  0.039175998   -2.0042564   0.67911295   293322 
24620000   0.37621582   -2.0055851   -2.0055851    -1.325698  0.029753165   -2.0055851   0.67988705   293268 
24630000   0.37577506   -2.0046318   -2.0046318   -1.3254162  0.030513791   -2.0046318   0.67921559   293214 
24640000   0.37594841   -2.0065669   -2.0065669   -1.3269128   0.02988248   -2.0065669   0.67965409   293160 
24650000   0.37558913   -2.0048628   -2.0048628   -1.3257331  0.028718044   -2.0048628   0.67912966   293106 
24660000   0.37460875   -2.0043622   -2.0043622   -1.3268804  0.030504024   -2.0043622   0.67748178   293052 
24670000   0.37603462   -2.0057271   -2.0057271   -1.3255412  0.035595118   -2.0057271   0.68018582   292998 
24680000   0.37482736   -2.0037806   -2.0037806   -1.3256536  0.034100381   -2.0037806   0.67812706   292944 
24690000    0.3747397   -2.0023271   -2.0023271   -1.3242337     0.028099   -2.0023271   0.67809346   292890 
24700000   0.37490159   -2.0006583   -2.0006583   -1.3221468  0.022188517   -2.0006583   0.67851151   292836 
24710000   0.37525382   -2.0031494   -2.0031494   -1.3238751  0.026103502   -2.0031494   0.67927425   292782 
24720000   0.37457708   -2.0014391   -2.0014391   -1.3232648  0.026310731   -2.0014391   0.67817432   292728 
24730000   0.37420047   -2.0026997   -2.0026997   -1.3250822  0.032598769   -2.0026997   0.67761744   292674 
24740000   0.37393006   -2.0031276   -2.0031276   -1.3258748   0.03009373   -2.0031276   0.67725274   292620 
24750000   0.37463058   -2.0040548   -2.0040548    -1.325408  0.031237103   -2.0040548   0.67864675   292566 
24760000     0.373645   -2.0039224   -2.0039224   -1.3269361  0.034301963   -2.0039224   0.67698631   292512 
24770000   0.37380264   -2.0049594   -2.0049594   -1.3275625  0.028283817   -2.0049594   0.67739698   292458 
24780000    0.3749809    -2.003746    -2.003746   -1.3240883   0.02993831    -2.003746   0.67965768   292404 
24790000   0.37371017   -2.0018635   -2.0018635   -1.3243816  0.024422469   -2.0018635    0.6774819   292349 
24800000   0.37378566   -2.0001307   -2.0001307   -1.3223868  0.025745357   -2.0001307   0.67774395   292295 
24810000   0.37452536   -2.0028459   -2.0028459   -1.3236352  0.030365546   -2.0028459   0.67921064   292241 
24820000   0.37353295   -2.0000455   -2.0000455   -1.3225094  0.030357262   -2.0000455   0.67753608   292187 
24830000   0.37421581   -2.0025588   -2.0025588   -1.3236586  0.030762404   -2.0025588   0.67890016   292133 
24840000   0.37383232   -2.0045738   -2.0045738    -1.326244  0.032253309   -2.0045738   0.67832982   292079 
24850000   0.37311033   -2.0037082   -2.0037082   -1.3265633  0.031310586   -2.0037082   0.67714494   292025 
24860000   0.37281924   -2.0031079   -2.0031079   -1.3263661  0.024173515   -2.0031079   0.67674178   291971 
24870000   0.37270165   -2.0049573   -2.0049573   -1.3283039  0.027513328   -2.0049573   0.67665349   291917 
24880000   0.37284315   -2.0034472   -2.0034472   -1.3264116  0.029685445   -2.0034472   0.67703564   291863 
24890000   0.37364714   -2.0062942   -2.0062942   -1.3276731  0.036048452   -2.0062942   0.67862112   291809 
24900000   0.37244406   -2.0050722   -2.0050722   -1.3285109  0.036592204   -2.0050722   0.67656128   291755 
24910000   0.37220274   -2.0051824   -2.0051824   -1.3289344  0.025242485   -2.0051824   0.67624809   291701 
24920000   0.37255312   -2.0051426   -2.0051426   -1.3281326  0.028674867   -2.0051426   0.67701002   291647 
24930000   0.37341868   -2.0066829   -2.0066829   -1.3279743  0.041366822   -2.0066829   0.67870858   291593 
24940000   0.37206942    -2.004633    -2.004633   -1.3282515  0.028515774    -2.004633   0.67638149   291539 
24950000   0.37214817   -2.0059428   -2.0059428   -1.3292928  0.028317097   -2.0059428   0.67664998   291485 
24960000   0.37245941   -2.0057073   -2.0057073   -1.3283659  0.030709366   -2.0057073   0.67734137   291431 
24970000   0.37214534   -2.0044423   -2.0044423   -1.3275466   0.02875902   -2.0044423   0.67689563   291377 
24980000   0.37159416   -2.0047515   -2.0047515   -1.3287308  0.032370195   -2.0047515    0.6760207   291322 
24990000   0.37060536   -2.0028673   -2.0028673   -1.3285205  0.026956031   -2.0028673   0.67434684   291268 
25000000   0.37158203   -2.0052168   -2.0052168   -1.3289675  0.031817417   -2.0052168   0.67624933   291214 
25010000   0.37255629   -2.0043236   -2.0043236   -1.3261754  0.028111492   -2.0043236   0.67814815   291160 
25020000   0.37185128   -2.0051064   -2.0051064    -1.328116  0.027131516   -2.0051064   0.67699041   291106 
25030000   0.37156427   -2.0057029   -2.0057029   -1.3291095  0.035003995   -2.0057029   0.67659339   291052 
25040000   0.37101649   -2.0062135   -2.0062135   -1.3304922  0.025024849   -2.0062135    0.6757213   290998 
25050000   0.36990588     -2.00258     -2.00258   -1.3287564   0.03372915     -2.00258   0.67382361   290944 
25060000   0.37048489    -2.004056    -2.004056   -1.3290523   0.02682395    -2.004056   0.67500362   290890 
25070000   0.37110969   -2.0035789   -2.0035789   -1.3273114  0.023773708   -2.0035789   0.67626751   290836 
25080000   0.37146839   -2.0016159   -2.0016159   -1.3245691  0.031598016   -2.0016159   0.67704689   290782 
25090000   0.37005414    -2.001817    -2.001817   -1.3272225  0.032549751    -2.001817   0.67459452   290728 
25100000   0.37106402   -2.0036767   -2.0036767   -1.3271156  0.030062547   -2.0036767   0.67656115   290674 
25110000   0.37138504   -2.0018467   -2.0018467   -1.3245744   0.03222521   -2.0018467   0.67727229   290620 
25120000   0.37147244   -2.0004164   -2.0004164   -1.3228589  0.031136351   -2.0004164   0.67755758   290566 
25130000   0.37118218   -2.0017573   -2.0017573   -1.3246033  0.032885617   -2.0017573   0.67715398   290512 
25140000   0.37060595   -2.0041057   -2.0041057   -1.3278773  0.029189047   -2.0041057   0.67622846   290458 
25150000   0.37010968   -1.9994898   -1.9994898   -1.3240413  0.031096761   -1.9994898   0.67544851   290404 
25160000   0.37073804   -2.0014591   -2.0014591   -1.3247356  0.030050541   -2.0014591   0.67672342   290349 
25170000   0.37025932   -1.9983578   -1.9983578   -1.3223824  0.031525864   -1.9983578   0.67597532   290295 
25180000   0.37035159   -2.0006315   -2.0006315   -1.3243619  0.029423736   -2.0006315   0.67626958   290241 
25190000   0.36967583   -1.9996666   -1.9996666   -1.3245054  0.026525911   -1.9996666   0.67516124   290187 
25200000    0.3700888   -2.0021155   -2.0021155   -1.3260742  0.037569792   -2.0021155   0.67604127   290133 
25210000   0.36891127   -2.0002459   -2.0002459   -1.3262302   0.02517473   -2.0002459   0.67401572   290079 
25220000   0.36932195   -2.0000587   -2.0000587    -1.325167  0.025088289   -2.0000587   0.67489169   290025 
25230000   0.37037612   -2.0013851   -2.0013851    -1.324441  0.031133829   -2.0013851   0.67694411   289971 
25240000   0.37004899   -1.9981851   -1.9981851   -1.3217129  0.031939113   -1.9981851   0.67647218   289917 
25250000   0.36965011    -2.000728    -2.000728   -1.3248592  0.027622857    -2.000728   0.67586888   289863 
25260000    0.3686454   -2.0006715   -2.0006715    -1.326514  0.029116894   -2.0006715   0.67415747   289809 
25270000   0.36823424   -2.0006164   -2.0006164   -1.3270854  0.026124519   -2.0006164   0.67353105   289755 
25280000   0.36891253   -2.0016138   -2.0016138   -1.3267163  0.029214652   -2.0016138   0.67489748   289701 
25290000   0.36882035   -1.9993151   -1.9993151   -1.3244605  0.033197459   -1.9993151   0.67485463   289647 
25300000   0.36966433    -2.000531    -2.000531    -1.324006  0.036342533    -2.000531   0.67652505   289593 
25310000   0.36969026   -2.0001328   -2.0001328   -1.3234341  0.026559413   -2.0001328   0.67669869   289539 
25320000   0.36923518   -1.9996875   -1.9996875   -1.3236957  0.030022236   -1.9996875   0.67599176   289485 
25330000    0.3681854   -1.9992968   -1.9992968   -1.3251012  0.025658321   -1.9992968    0.6741956   289431 
25340000   0.36701068    -1.996434    -1.996434   -1.3242641  0.023563655    -1.996434   0.67216994   289377 
25350000   0.36859763   -1.9982194   -1.9982194   -1.3230147  0.034541612   -1.9982194   0.67520474   289322 
25360000   0.36907835   -1.9999761   -1.9999761   -1.3237646  0.031153099   -1.9999761   0.67621153   289268 
25370000   0.36799736     -1.99771     -1.99771   -1.3233531  0.029202138     -1.99771   0.67435687   289214 
25380000   0.36885359   -1.9986574   -1.9986574   -1.3226053  0.028564667   -1.9986574   0.67605214   289160 
25390000   0.36837177   -1.9973749   -1.9973749   -1.3220798  0.030508918   -1.9973749   0.67529515   289106 
25400000   0.36831521   -1.9952667   -1.9952667   -1.3199491  0.026636892   -1.9952667   0.67531761   289052 
25410000   0.36726896   -1.9938196   -1.9938196   -1.3202945  0.027470256   -1.9938196   0.67352509   288998 
25420000   0.36795619   -1.9978684   -1.9978684   -1.3229569  0.031885168   -1.9978684    0.6749115   288944 
25430000   0.36911427   -1.9974782   -1.9974782    -1.320316   0.02655902   -1.9974782   0.67716222   288890 
25440000   0.36855465   -1.9986728   -1.9986728   -1.3224109  0.029053885   -1.9986728   0.67626198   288836 
25450000   0.36784498   -1.9981184   -1.9981184   -1.3230324  0.028890719   -1.9981184   0.67508601   288782 
25460000   0.36689853   -1.9951875   -1.9951875   -1.3217125  0.028752951   -1.9951875   0.67347498   288728 
25470000   0.36681727   -1.9991778   -1.9991778   -1.3257261  0.027749359   -1.9991778   0.67345177   288674 
25480000    0.3676094   -2.0002575   -2.0002575   -1.3252252  0.025059509   -2.0002575   0.67503235   288620 
25490000   0.36611219   -1.9984658   -1.9984658    -1.326057  0.028847361   -1.9984658   0.67240887   288566 
25500000   0.36654626   -1.9973163   -1.9973163   -1.3239842  0.031872966   -1.9973163   0.67333208   288512 
25510000   0.36783924   -1.9975979   -1.9975979   -1.3217641  0.030883663   -1.9975979   0.67583374   288458 
25520000   0.36630248   -1.9953765   -1.9953765   -1.3222402  0.032400899   -1.9953765   0.67313625   288404 
25530000   0.36748142   -1.9969781   -1.9969781   -1.3215466  0.029792761   -1.9969781   0.67543153   288349 
25540000   0.36699281   -1.9970644   -1.9970644   -1.3224046  0.033966593   -1.9970644   0.67465982   288295 
25550000   0.36611783   -1.9941692   -1.9941692   -1.3209918  0.031836716   -1.9941692   0.67317738   288241 
25560000   0.36712314    -1.997402    -1.997402   -1.3222497  0.029571915    -1.997402   0.67515233   288187 
25570000   0.36630167   -1.9937678   -1.9937678        -1.32  0.026945646   -1.9937678   0.67376786   288133 
25580000   0.36694589    -1.993995    -1.993995   -1.3189156  0.029807442    -1.993995   0.67507935   288079 
25590000   0.36658836   -1.9940693   -1.9940693   -1.3195213   0.03183451   -1.9940693   0.67454804   288025 
25600000   0.36680382   -1.9958603   -1.9958603   -1.3207893  0.030945704   -1.9958603   0.67507107   287971 
25610000   0.36546657   -1.9967438   -1.9967438   -1.3240077  0.034946145   -1.9967438   0.67273612   287917 
25620000   0.36582355   -1.9969981   -1.9969981   -1.3234786   0.02407611   -1.9969981   0.67351956   287863 
25630000   0.36482084   -1.9932579   -1.9932579   -1.3214584  0.023218686   -1.9932579   0.67179949   287809 
25640000    0.3658803   -1.9960059   -1.9960059   -1.3221291  0.026441658   -1.9960059   0.67387686   287755 
25650000   0.36564345    -1.997829    -1.997829    -1.324262  0.030662168    -1.997829   0.67356703   287701 
25660000   0.36669571   -1.9950808   -1.9950808   -1.3194486  0.026885824   -1.9950808   0.67563225   287647 
25670000   0.36508964   -1.9909349   -1.9909349   -1.3181355   0.02725086   -1.9909349    0.6727994   287593 
25680000   0.36567126   -1.9949945   -1.9949945   -1.3209967  0.030613215   -1.9949945   0.67399778   287539 
25690000   0.36541573   -1.9967401   -1.9967401   -1.3230868  0.027650666   -1.9967401   0.67365332   287485 
25700000   0.36478273   -1.9957217   -1.9957217    -1.323109  0.022744072   -1.9957217    0.6726127   287431 
25710000   0.36527917   -1.9965679   -1.9965679   -1.3229132  0.034626455   -1.9965679   0.67365463   287377 
25720000   0.36508207   -1.9946979   -1.9946979   -1.3212779  0.027742424   -1.9946979   0.67342002   287322 
25730000    0.3645916   -1.9931323   -1.9931323   -1.3204906  0.031154126   -1.9931323   0.67264173   287268 
25740000    0.3648766   -1.9953019   -1.9953019   -1.3220078  0.031066069   -1.9953019   0.67329409   287214 
25750000   0.36481252   -1.9953277   -1.9953277   -1.3220253  0.028374151   -1.9953277   0.67330244   287160 
25760000    0.3640957   -1.9928018   -1.9928018   -1.3206959   0.03004621   -1.9928018   0.67210586   287106 
25770000   0.36429632   -1.9955274   -1.9955274   -1.3229247  0.030262532   -1.9955274   0.67260269   287052 
25780000   0.36447631   -1.9949252   -1.9949252   -1.3218636  0.027901169   -1.9949252   0.67306163   286998 
25790000   0.36306542   -1.9910871   -1.9910871   -1.3205047  0.035139216   -1.9910871   0.67058237   286944 
25800000   0.36441864   -1.9931356   -1.9931356   -1.3199272  0.036001776   -1.9931356   0.67320847   286890 
25810000   0.36345058    -1.993772    -1.993772   -1.3222255  0.031404428    -1.993772   0.67154652   286836 
25820000   0.36468563   -1.9970362   -1.9970362   -1.3230808  0.029507049   -1.9970362   0.67395541   286782 
25830000   0.36302544   -1.9950647   -1.9950647   -1.3240511  0.025327425   -1.9950647   0.67101364   286728 
25840000   0.36281815   -1.9926274   -1.9926274   -1.3218706  0.029029035   -1.9926274   0.67075683   286674 
25850000   0.36328271   -1.9933482   -1.9933482    -1.321606  0.029497988   -1.9933482   0.67174221   286620 
25860000   0.36344822   -1.9917833   -1.9917833   -1.3196084  0.031130038   -1.9917833   0.67217488   286566 
25870000   0.36425505   -1.9940392   -1.9940392   -1.3202452  0.031400137   -1.9940392   0.67379404   286512 
25880000   0.36352299   -1.9948225   -1.9948225   -1.3222559  0.035159223   -1.9948225   0.67256665   286458 
25890000   0.36328068   -1.9942165   -1.9942165   -1.3219714  0.029404576   -1.9942165   0.67224505   286404 
25900000   0.36306661   -1.9935611   -1.9935611   -1.3215832  0.032232133   -1.9935611   0.67197798   286349 
25910000   0.36283373   -1.9908702   -1.9908702   -1.3191966  0.028020602   -1.9908702   0.67167361   286295 
25920000   0.36330078   -1.9908787   -1.9908787   -1.3182137  0.027177182   -1.9908787   0.67266508   286241 
25930000   0.36236861   -1.9898432   -1.9898432   -1.3187774  0.025503093   -1.9898432   0.67106573   286187 
25940000   0.36346959   -1.9935492   -1.9935492   -1.3203176   0.02878816   -1.9935492   0.67323166   286133 
25950000   0.36186696   -1.9951227   -1.9951227   -1.3247329  0.035400168   -1.9951227   0.67038973   286079 
25960000    0.3621752   -1.9970306   -1.9970306   -1.3259432  0.032621565   -1.9970306   0.67108744   286025 
25970000   0.36184729   -1.9931494   -1.9931494    -1.322543  0.022122087   -1.9931494   0.67060645   285971 
25980000   0.36152298   -1.9919996   -1.9919996   -1.3218677  0.030904493   -1.9919996   0.67013196   285917 
25990000   0.36241223   -1.9943472   -1.9943472   -1.3224399  0.033801583   -1.9943472    0.6719072   285863 
26000000   0.36029072   -1.9911786   -1.9911786   -1.3230784  0.026480195   -1.9911786   0.66810017   285809 
26010000   0.36152279   -1.9947158   -1.9947158   -1.3242043  0.032720493   -1.9947158   0.67051151   285755 
26020000   0.36088805   -1.9931649   -1.9931649   -1.3237041  0.031811986   -1.9931649   0.66946077   285701 
26030000   0.36151212   -1.9932588   -1.9932588   -1.3225135  0.024730858   -1.9932588   0.67074522   285647 
26040000   0.36211287   -1.9937305   -1.9937305   -1.3217436  0.032848402   -1.9937305    0.6719869   285593 
26050000   0.36088481   -1.9935187   -1.9935187   -1.3236841  0.032123852   -1.9935187   0.66983459   285539 
26060000   0.36100397   -1.9920798   -1.9920798   -1.3218973  0.025250671   -1.9920798    0.6701825   285485 
26070000   0.36165475   -1.9910575   -1.9910575   -1.3195398  0.029056625   -1.9910575   0.67151766   285431 
26080000   0.36096732   -1.9921468   -1.9921468   -1.3217788  0.023926523   -1.9921468   0.67036806   285377 
26090000    0.3606186   -1.9893631   -1.9893631   -1.3195135  0.030567035   -1.9893631   0.66984954   285322 
26100000   0.36048676    -1.989492    -1.989492   -1.3197606  0.031471732    -1.989492    0.6697314   285268 
26110000   0.36158118   -1.9908056   -1.9908056   -1.3189138  0.030711925   -1.9908056   0.67189186   285214 
26120000   0.36065589   -1.9889808   -1.9889808   -1.3186814  0.029515152   -1.9889808   0.67029938   285160 
26130000   0.36046983   -1.9882663   -1.9882663   -1.3181858  0.029102623   -1.9882663   0.67008047   285106 
26140000   0.35970741   -1.9900597   -1.9900597   -1.3212699  0.025992697   -1.9900597   0.66878987   285052 
26150000   0.35928459   -1.9884236   -1.9884236   -1.3202933  0.030701871   -1.9884236   0.66813031   284998 
26160000   0.36088258   -1.9891783   -1.9891783   -1.3179491  0.031977027   -1.9891783   0.67122913   284944 
26170000   0.35955757   -1.9895809   -1.9895809   -1.3206894  0.029253031   -1.9895809   0.66889142   284890 
26180000   0.35942595   -1.9859262   -1.9859262   -1.3171529  0.027040827   -1.9859262   0.66877334   284836 
26190000   0.35868084   -1.9859187   -1.9859187   -1.3184053  0.029042698   -1.9859187   0.66751348   284782 
26200000   0.35983299   -1.9864574   -1.9864574   -1.3166727  0.036403617   -1.9864574   0.66978466   284728 
26210000   0.36009827   -1.9865054   -1.9865054   -1.3160998  0.029378707   -1.9865054   0.67040559   284674 
26220000   0.35976388   -1.9863831   -1.9863831    -1.316473  0.034424964   -1.9863831   0.66991013   284620 
26230000   0.35911831   -1.9832826   -1.9832826   -1.3144477  0.025993397   -1.9832826   0.66883491   284566 
26240000   0.36023048    -1.984906    -1.984906   -1.3138724  0.031990674    -1.984906    0.6710336   284512 
26250000   0.36038973   -1.9862817   -1.9862817    -1.314824  0.030318599   -1.9862817   0.67145769   284458 
26260000   0.35922112   -1.9846056   -1.9846056   -1.3151981  0.027525298   -1.9846056   0.66940747   284404 
26270000   0.35924766   -1.9854896   -1.9854896   -1.3159032  0.027561269   -1.9854896   0.66958642   284349 
26280000   0.35860546   -1.9828744   -1.9828744    -1.314358  0.029251079   -1.9828744   0.66851641   284295 
26290000   0.35871285   -1.9821833   -1.9821833   -1.3133396  0.028855344   -1.9821833   0.66884365   284241 
26300000   0.35994189   -1.9827367   -1.9827367   -1.3114739  0.029370093   -1.9827367    0.6712628   284187 
26310000   0.35890576   -1.9834892   -1.9834892   -1.3140315   0.02825691   -1.9834892    0.6694577   284133 
26320000   0.35898116   -1.9847553   -1.9847553   -1.3150296  0.032901661   -1.9847553   0.66972564   284079 
26330000   0.35828817   -1.9830098   -1.9830098   -1.3144499  0.034168038   -1.9830098   0.66855985   284025 
26340000   0.35888519   -1.9821003   -1.9821003   -1.3122991  0.029360464   -1.9821003   0.66980123   283971 
26350000   0.35863542   -1.9858326   -1.9858326   -1.3163702  0.027586036   -1.9858326   0.66946238   283917 
26360000   0.35820631   -1.9819324   -1.9819324   -1.3131438   0.02830235   -1.9819324   0.66878856   283863 
26370000   0.35948042   -1.9816931   -1.9816931    -1.310398  0.030549754   -1.9816931    0.6712951   283809 
26380000   0.35860634   -1.9811111   -1.9811111   -1.3113208  0.030223378   -1.9811111   0.66979028   283755 
26390000   0.35859299   -1.9801648   -1.9801648   -1.3102719  0.029355714   -1.9801648   0.66989283   283701 
26400000    0.3579598   -1.9796321   -1.9796321   -1.3107948  0.035949293   -1.9796321   0.66883727   283647 
26410000   0.35814058   -1.9810986   -1.9810986   -1.3117961  0.029466777   -1.9810986   0.66930247   283593 
26420000   0.35796574   -1.9808699   -1.9808699   -1.3117668   0.02800956   -1.9808699   0.66910312   283539 
26430000   0.35724232    -1.978859    -1.978859   -1.3109809  0.021465971    -1.978859   0.66787811   283485 
26440000   0.35840901   -1.9813161   -1.9813161   -1.3111291  0.022343696   -1.9813161   0.67018695   283431 
26450000   0.35819363   -1.9826881   -1.9826881   -1.3127763   0.03266876   -1.9826881   0.66991185   283377 
26460000   0.35647745   -1.9799496   -1.9799496    -1.313118  0.029668264   -1.9799496   0.66683159   283322 
26470000   0.35797761   -1.9835531   -1.9835531   -1.3137877  0.034922316   -1.9835531   0.66976546   283268 
26480000   0.35778094   -1.9842621   -1.9842621   -1.3147369  0.028121452   -1.9842621   0.66952512   283214 
26490000   0.35836656   -1.9826144   -1.9826144   -1.3118655  0.027737884   -1.9826144    0.6707489   283160 
26500000   0.35785603    -1.978876    -1.978876   -1.3089549  0.034754384    -1.978876   0.66992112   283106 
26510000   0.35827652   -1.9794643   -1.9794643   -1.3086281  0.032205498   -1.9794643   0.67083624   283052 
26520000    0.3582801    -1.980746    -1.980746    -1.309775  0.029774863    -1.980746   0.67097096   282998 
26530000   0.35696036   -1.9831691   -1.9831691   -1.3145422  0.031545629   -1.9831691   0.66862699   282944 
26540000   0.35703366   -1.9827067   -1.9827067   -1.3138148  0.036457625   -1.9827067   0.66889194   282890 
26550000   0.35684839   -1.9789796   -1.9789796   -1.3103071  0.027396584   -1.9789796   0.66867249   282836 
26560000   0.35700178   -1.9810054   -1.9810054   -1.3119177   0.02750395   -1.9810054   0.66908765   282782 
26570000   0.35675753   -1.9814469   -1.9814469   -1.3126893  0.031484766   -1.9814469   0.66875759   282728 
26580000   0.35675939   -1.9820566   -1.9820566   -1.3131678   0.02480701   -1.9820566   0.66888883   282674 
26590000    0.3564252   -1.9791024   -1.9791024   -1.3107124  0.031562637   -1.9791024   0.66838995   282620 
26600000     0.356456    -1.978386    -1.978386   -1.3098106  0.022660992    -1.978386   0.66857545   282566 
26610000   0.35567414   -1.9775365   -1.9775365      -1.3103  0.028714827   -1.9775365   0.66723649   282512 
26620000   0.35574992   -1.9779807   -1.9779807   -1.3104745  0.029718639   -1.9779807   0.66750623   282458 
26630000   0.35655585   -1.9794127   -1.9794127   -1.3102663  0.027273891   -1.9794127   0.66914636   282404 
26640000   0.35635386   -1.9781188   -1.9781188   -1.3092213  0.027219174   -1.9781188   0.66889756   282349 
26650000   0.35642463   -1.9778056   -1.9778056   -1.3086472   0.03340929   -1.9778056   0.66915837   282295 
26660000   0.35670385   -1.9781612   -1.9781612   -1.3083505  0.024751455   -1.9781612   0.66981072   282241 
26670000   0.35541276   -1.9757065   -1.9757065   -1.3081924  0.024094131   -1.9757065   0.66751406   282187 
26680000   0.35628444   -1.9765617   -1.9765617   -1.3072824  0.027113805   -1.9765617   0.66927925   282133 
26690000   0.35571069   -1.9791818   -1.9791818   -1.3108524  0.028484329   -1.9791818   0.66832938   282079 
26700000   0.35618958   -1.9802109   -1.9802109   -1.3108536   0.02975683   -1.9802109   0.66935729   282025 
26710000   0.35583355   -1.9772308   -1.9772308   -1.3084145  0.033868126   -1.9772308    0.6688163   281971 
26720000   0.35487188   -1.9767904   -1.9767904   -1.3096538  0.027927165   -1.9767904   0.66713653   281917 
26730000   0.35566987   -1.9801892   -1.9801892   -1.3114244  0.029175949   -1.9801892    0.6687648   281863 
26740000   0.35631579   -1.9790507   -1.9790507    -1.308943  0.024518073   -1.9790507    0.6701077   281809 
26750000   0.35503674   -1.9770707   -1.9770707   -1.3092404  0.026647713   -1.9770707   0.66783022   281755 
26760000   0.35460258   -1.9753416   -1.9753416   -1.3082002  0.037885829   -1.9753416   0.66714141   281701 
26770000   0.35455876   -1.9763427   -1.9763427   -1.3091559  0.034754226   -1.9763427   0.66718686   281647 
26780000   0.35429989   -1.9785772   -1.9785772   -1.3117497  0.031191022   -1.9785772   0.66682759   281593 
26790000   0.35441925   -1.9782109   -1.9782109   -1.3110307  0.022781308   -1.9782109   0.66718018   281539 
26800000   0.35484373   -1.9764733   -1.9764733   -1.3083659  0.028094641   -1.9764733    0.6681074   281485 
26810000    0.3553965   -1.9782038   -1.9782038   -1.3089272  0.033968119   -1.9782038   0.66927654   281431 
26820000   0.35466643   -1.9771329   -1.9771329    -1.309103  0.030189796   -1.9771329   0.66802987   281377 
26830000   0.35372075   -1.9759611   -1.9759611   -1.3095822  0.024960363   -1.9759611   0.66637891   281322 
26840000   0.35585208    -1.979303    -1.979303   -1.3087802  0.029994095    -1.979303   0.67052285   281268 
26850000   0.35411915   -1.9736161   -1.9736161   -1.3062304  0.026317037   -1.9736161   0.66738566   281214 
26860000   0.35391922   -1.9763273   -1.9763273   -1.3091903  0.026839779   -1.9763273   0.66713698   281160 
26870000   0.35363768   -1.9762766   -1.9762766   -1.3095423  0.030536678   -1.9762766   0.66673432   281106 
26880000   0.35454555   -1.9754067   -1.9754067   -1.3068323  0.029004797   -1.9754067   0.66857443   281052 
26890000   0.35433486   -1.9789418   -1.9789418   -1.3106363  0.024988174   -1.9789418   0.66830552   280998 
26900000   0.35344851   -1.9784128   -1.9784128   -1.3116509  0.033472724   -1.9784128   0.66676193   280944 
26910000   0.35287662   -1.9765085   -1.9765085   -1.3106975  0.034263812   -1.9765085   0.66581106   280890 
26920000   0.35367682   -1.9766034   -1.9766034   -1.3091542  0.030726811   -1.9766034   0.66744919   280836 
26930000   0.35269266   -1.9767227   -1.9767227   -1.3110028  0.023655551   -1.9767227   0.66571992   280782 
26940000   0.35328334   -1.9737024   -1.9737024   -1.3067392  0.027555764   -1.9737024   0.66696313   280728 
26950000   0.35318991   -1.9722763   -1.9722763   -1.3053613  0.032011521   -1.9722763   0.66691503   280674 
26960000   0.35279379   -1.9735608   -1.9735608   -1.3072655  0.028532351   -1.9735608   0.66629524   280620 
26970000    0.3544899   -1.9767172   -1.9767172   -1.3070898  0.029116094   -1.9767172   0.66962741   280566 
26980000   0.35432806   -1.9764296   -1.9764296   -1.3069791  0.033945451   -1.9764296   0.66945055   280512 
26990000    0.3530768   -1.9731397   -1.9731397   -1.3059248  0.030825357   -1.9731397   0.66721491   280458 
27000000   0.35302502   -1.9749642   -1.9749642   -1.3077187  0.025093954   -1.9749642   0.66724555   280404 
27010000   0.35315565   -1.9722383   -1.9722383    -1.304615  0.029948099   -1.9722383   0.66762338   280349 
27020000    0.3530757   -1.9715415   -1.9715415   -1.3039406  0.025088993   -1.9715415   0.66760083   280295 
27030000   0.35217171   -1.9718574   -1.9718574   -1.3058375  0.028926896   -1.9718574   0.66601987   280241 
27040000    0.3538821   -1.9757752   -1.9757752   -1.3063917  0.035795865   -1.9757752   0.66938351   280187 
27050000   0.35323129   -1.9733656   -1.9733656   -1.3050843  0.034637108   -1.9733656   0.66828127   280133 
27060000   0.35251511   -1.9724406   -1.9724406   -1.3053857  0.024587043   -1.9724406   0.66705491   280079 
27070000   0.35213166    -1.973833    -1.973833   -1.3073752  0.030359618    -1.973833   0.66645782   280025 
27080000   0.35224466   -1.9726843   -1.9726843    -1.305884  0.030263367   -1.9726843   0.66680027   279971 
27090000    0.3508252   -1.9707917   -1.9707917   -1.3065504  0.027900062   -1.9707917   0.66424135   279917 
27100000   0.35121425   -1.9715344   -1.9715344   -1.3064282  0.035178868   -1.9715344   0.66510626   279863 
27110000   0.35195124   -1.9702411   -1.9702411   -1.3036105  0.027894684   -1.9702411   0.66663056   279809 
27120000   0.35130748   -1.9717493   -1.9717493   -1.3062096  0.032094983   -1.9717493   0.66553966   279755 
27130000   0.35154529   -1.9738063   -1.9738063   -1.3076875  0.028348758   -1.9738063   0.66611876   279701 
27140000   0.35142196   -1.9722316   -1.9722316   -1.3062179  0.028533646   -1.9722316   0.66601364   279647 
27150000    0.3528234   -1.9713317   -1.9713317   -1.3025329   0.02211079   -1.9713317   0.66879879   279593 
27160000   0.35131484   -1.9694684   -1.9694684   -1.3034005  0.033365184   -1.9694684   0.66606788   279539 
27170000   0.35135938   -1.9689556   -1.9689556   -1.3026745  0.037483831   -1.9689556   0.66628103   279485 
27180000   0.35162067   -1.9697755   -1.9697755   -1.3028701  0.026400503   -1.9697755   0.66690536   279431 
27190000   0.35169225   -1.9714288   -1.9714288   -1.3042587  0.028751727   -1.9714288   0.66717005   279377 
27200000   0.35064646   -1.9689466   -1.9689466   -1.3036295   0.03323138   -1.9689466   0.66531714   279322 
27210000   0.35026412   -1.9674301   -1.9674301   -1.3027098  0.026009417   -1.9674301    0.6647202   279268 
27220000   0.35110123   -1.9696781   -1.9696781   -1.3032404  0.036692664   -1.9696781    0.6664377   279214 
27230000   0.35133658   -1.9700038   -1.9700038   -1.3029904  0.030065173   -1.9700038   0.66701343   279160 
27240000   0.35071443   -1.9687195   -1.9687195   -1.3027584  0.040149396   -1.9687195   0.66596109   279106 
27250000   0.35019195   -1.9683551   -1.9683551   -1.3032574  0.024499476   -1.9683551   0.66509766   279052 
27260000   0.35139787   -1.9695035   -1.9695035   -1.3019864  0.031682394   -1.9695035   0.66751717   278998 
27270000   0.35085432    -1.968474    -1.968474   -1.3018604  0.028086051    -1.968474   0.66661365   278944 
27280000   0.35134231   -1.9685152   -1.9685152   -1.3008451  0.021656777   -1.9685152   0.66767006   278890 
27290000   0.35045511   -1.9684331   -1.9684331     -1.30232  0.034496008   -1.9684331   0.66611307   278836 
27300000   0.35103236   -1.9695583   -1.9695583   -1.3022189  0.022943841   -1.9695583   0.66733948   278782 
27310000   0.35070165   -1.9681278   -1.9681278   -1.3012878  0.033793574   -1.9681278   0.66683994   278728 
27320000   0.35011105   -1.9674489   -1.9674489    -1.301603  0.027324576   -1.9674489   0.66584595   278674 
27330000   0.35003834   -1.9691287   -1.9691287    -1.303292  0.026740137   -1.9691287   0.66583669   278620 
27340000   0.34967554   -1.9685277   -1.9685277   -1.3032522   0.02995461   -1.9685277   0.66527552   278566 
27350000   0.35086593   -1.9694932   -1.9694932   -1.3018235  0.025855491   -1.9694932   0.66766973   278512 
27360000   0.34993224   -1.9660526   -1.9660526   -1.3000304  0.031211809   -1.9660526   0.66602213   278458 
27370000   0.35092297    -1.965598    -1.965598   -1.2975607  0.029887785    -1.965598   0.66803732   278404 
27380000   0.34919864   -1.9643978   -1.9643978   -1.2995116   0.03084811   -1.9643978   0.66488614   278349 
27390000   0.35055588   -1.9673998   -1.9673998   -1.2997999  0.033635903   -1.9673998   0.66759988   278295 
27400000   0.34997907   -1.9673781   -1.9673781   -1.3007473  0.030258534   -1.9673781   0.66663076   278241 
27410000   0.34940556   -1.9673026   -1.9673026   -1.3016351  0.025089497   -1.9673026   0.66566754   278187 
27420000    0.3499639   -1.9649952   -1.9649952   -1.2981345  0.032408609   -1.9649952    0.6668607   278133 
27430000   0.34967767   -1.9647329   -1.9647329   -1.2982882  0.023459744   -1.9647329   0.66644468   278079 
27440000   0.35004366   -1.9628408   -1.9628408   -1.2955691  0.032545007   -1.9628408   0.66727179   278025 
27450000   0.34972293   -1.9645128   -1.9645128   -1.2977229  0.030533056   -1.9645128   0.66678991   277971 
27460000   0.34799299   -1.9635929   -1.9635929   -1.2999724  0.027107931   -1.9635929   0.66362049   277917 
27470000   0.34927857    -1.965756    -1.965756   -1.2995545   0.03138381    -1.965756   0.66620152   277863 
27480000   0.34935314   -1.9690078   -1.9690078   -1.3025345  0.031098887   -1.9690078   0.66647327   277809 
27490000   0.34948781   -1.9690502   -1.9690502   -1.3021903  0.031182149   -1.9690502   0.66685981   277755 
27500000   0.34893662   -1.9658754   -1.9658754   -1.2999379  0.030636176   -1.9658754   0.66593754   277701 
27510000    0.3490859   -1.9668378   -1.9668378   -1.3004858  0.032481344   -1.9668378   0.66635203   277647 
27520000   0.34996388   -1.9675551   -1.9675551   -1.2993972  0.030080069   -1.9675551   0.66815791   277593 
27530000   0.34929725   -1.9677757   -1.9677757   -1.3007607  0.039447268   -1.9677757   0.66701491   277539 
27540000   0.34930257    -1.965199    -1.965199   -1.2980442  0.032586205    -1.965199   0.66715488   277485 
27550000   0.34854314   -1.9642778   -1.9642778   -1.2984438  0.026942908   -1.9642778   0.66583396   277431 
27560000    0.3490597   -1.9681538   -1.9681538   -1.3012032  0.030723035   -1.9681538   0.66695059   277377 
27570000   0.34820151   -1.9675002   -1.9675002   -1.3020574  0.029516124   -1.9675002    0.6654428   277322 
27580000   0.34757321   -1.9641739   -1.9641739   -1.2998025  0.029669815   -1.9641739   0.66437142   277268 
27590000   0.34913889    -1.966908    -1.966908   -1.2994138  0.035991065    -1.966908   0.66749415   277214 
27600000    0.3481085   -1.9626877   -1.9626877   -1.2970339   0.02882494   -1.9626877   0.66565388   277160 
27610000   0.34780359   -1.9655616   -1.9655616   -1.3003611  0.029159569   -1.9655616   0.66520045   277106 
27620000   0.34725028    -1.965583    -1.965583   -1.3013114   0.02764202    -1.965583   0.66427163   277052 
27630000    0.3484088   -1.9688595   -1.9688595   -1.3022417  0.036466795   -1.9688595   0.66661776   276998 
27640000    0.3475345   -1.9647067   -1.9647067   -1.2996321  0.036145688   -1.9647067    0.6650746   276944 
27650000   0.34743865   -1.9651873   -1.9651873   -1.3001665  0.036568528   -1.9651873   0.66502084   276890 
27660000   0.34641311   -1.9630936   -1.9630936   -1.2999064  0.028669066   -1.9630936   0.66318722   276836 
27670000   0.34779134   -1.9645047   -1.9645047    -1.298549  0.031997727   -1.9645047   0.66595566   276782 
27680000   0.34732263   -1.9659755   -1.9659755   -1.3007875  0.029874586   -1.9659755   0.66518795   276728 
27690000   0.34694787   -1.9627392   -1.9627392   -1.2981393  0.042772383   -1.9627392   0.66459989   276674 
27700000   0.34691802   -1.9629022   -1.9629022   -1.2982298   0.02581378   -1.9629022   0.66467245   276620 
27710000   0.34589613   -1.9633773   -1.9633773   -1.3005334  0.037836795   -1.9633773   0.66284397   276566 
27720000   0.34665051   -1.9655475   -1.9655475   -1.3011282  0.029319023   -1.9655475   0.66441932   276512 
27730000   0.34783016   -1.9644201   -1.9644201   -1.2976095  0.027093087   -1.9644201   0.66681057   276458 
27740000   0.34630327    -1.960629    -1.960629   -1.2966158  0.029533805    -1.960629   0.66401313   276404 
27750000   0.34598161   -1.9623555   -1.9623555   -1.2988271  0.035473737   -1.9623555    0.6635284   276349 
27760000   0.34591746   -1.9623186   -1.9623186   -1.2987836   0.03331044   -1.9623186   0.66353504   276295 
27770000   0.34657838   -1.9613358   -1.9613358    -1.296403  0.031496526   -1.9613358   0.66493275   276241 
27780000   0.34665623   -1.9638514   -1.9638514   -1.2986392  0.026914967   -1.9638514   0.66521216   276187 
27790000   0.34672415   -1.9632436   -1.9632436    -1.297771  0.027761515   -1.9632436   0.66547261   276133 
27800000   0.34649232   -1.9632855   -1.9632855   -1.2981278  0.031913001   -1.9632855   0.66515772   276079 
27810000   0.34553488   -1.9593369   -1.9593369   -1.2958874  0.036083972   -1.9593369   0.66344949   276025 
27820000   0.34518887   -1.9580202   -1.9580202   -1.2951053  0.025345587   -1.9580202   0.66291484   275971 
27830000   0.34572594   -1.9580481   -1.9580481   -1.2939719  0.025201863   -1.9580481   0.66407619   275917 
27840000   0.34584455   -1.9629099   -1.9629099   -1.2984758  0.029061498   -1.9629099   0.66443405   275863 
27850000   0.34579862   -1.9604574   -1.9604574   -1.2959816  0.034374287   -1.9604574   0.66447587   275809 
27860000   0.34552401   -1.9566872   -1.9566872    -1.292609  0.035528386   -1.9566872   0.66407821   275755 
27870000   0.34542755   -1.9601517   -1.9601517   -1.2961288  0.028093496   -1.9601517   0.66402286   275701 
27880000   0.34576351    -1.958473    -1.958473   -1.2936741  0.029289606    -1.958473    0.6647989   275647 
27890000   0.34573726   -1.9577486   -1.9577486     -1.29287  0.026423721   -1.9577486   0.66487866   275593 
27900000   0.34545125   -1.9594851   -1.9594851   -1.2950263  0.032931454   -1.9594851   0.66445885   275539 
27910000   0.34514902   -1.9598485   -1.9598485   -1.2958408  0.033967607   -1.9598485   0.66400766   275485 
27920000   0.34529497   -1.9587028   -1.9587028   -1.2942842  0.025235649   -1.9587028   0.66441868   275431 
27930000   0.34513947   -1.9562936   -1.9562936   -1.2920439  0.031897496   -1.9562936   0.66424968   275377 
27940000   0.34481945    -1.956727    -1.956727   -1.2929606  0.031128606    -1.956727   0.66376636   275322 
27950000   0.34563065   -1.9588542   -1.9588542   -1.2933958  0.035952623   -1.9588542   0.66545841   275268 
27960000   0.34516265   -1.9600992   -1.9600992   -1.2954114  0.035690349   -1.9600992   0.66468774   275214 
27970000   0.34510835   -1.9599747   -1.9599747   -1.2952611  0.031065875   -1.9599747    0.6647136   275160 
27980000   0.34480848   -1.9578659   -1.9578659   -1.2935995  0.034481258   -1.9578659   0.66426639   275106 
27990000   0.34374276   -1.9573563   -1.9573563    -1.295013  0.033781595   -1.9573563   0.66234329   275052 
28000000   0.34338359   -1.9592886   -1.9592886   -1.2975074  0.031939851   -1.9592886   0.66178116   274998 
28010000   0.34344157   -1.9595526   -1.9595526   -1.2975297  0.031617076   -1.9595526   0.66202289   274944 
28020000   0.34380125   -1.9606197   -1.9606197   -1.2977733  0.027550646   -1.9606197   0.66284641   274890 
28030000   0.34319823   -1.9562886   -1.9562886   -1.2944748  0.030148749   -1.9562886    0.6618138   274836 
28040000   0.34375714   -1.9586648   -1.9586648    -1.295643  0.029972968   -1.9586648   0.66302186   274782 
28050000   0.34424963   -1.9564786   -1.9564786   -1.2923763  0.024061379   -1.9564786   0.66410226   274728 
28060000   0.34422062   -1.9583052   -1.9583052   -1.2941284  0.031195703   -1.9583052   0.66417683   274674 
28070000    0.3439095   -1.9562677   -1.9562677   -1.2925607  0.028479751   -1.9562677   0.66370702   274620 
28080000   0.34361892    -1.955182    -1.955182   -1.2919054  0.028000533    -1.955182   0.66327665   274566 
28090000   0.34478609   -1.9574693   -1.9574693   -1.2918088  0.032185183   -1.9574693   0.66566051   274512 
28100000   0.34389074   -1.9563625   -1.9563625      -1.2923  0.032161009   -1.9563625   0.66406254   274458 
28110000    0.3433401   -1.9566049   -1.9566049   -1.2934752  0.026896855   -1.9566049   0.66312972   274404 
28120000   0.34313656    -1.954675    -1.954675   -1.2918055  0.028325534    -1.954675   0.66286946   274349 
28130000   0.34343979    -1.953758    -1.953758   -1.2901721  0.027731002    -1.953758   0.66358584   274295 
28140000   0.34279773   -1.9531946   -1.9531946   -1.2907189  0.032250343   -1.9531946   0.66247569   274241 
28150000   0.34364743   -1.9542909   -1.9542909   -1.2900424  0.034727989   -1.9542909   0.66424858   274187 
28160000    0.3424635   -1.9552002   -1.9552002   -1.2931097  0.026038931   -1.9552002   0.66209053   274133 
28170000   0.34224652   -1.9544463   -1.9544463   -1.2926449   0.02757323   -1.9544463   0.66180139   274079 
28180000   0.34308342    -1.955388    -1.955388   -1.2918376  0.031103511    -1.955388   0.66355043   274025 
28190000   0.34228129    -1.953375    -1.953375   -1.2912455  0.034552454    -1.953375   0.66212955   273971 
28200000   0.34190695   -1.9531264   -1.9531264   -1.2915906  0.031266094   -1.9531264   0.66153578   273917 
28210000   0.34253091   -1.9536555   -1.9536555   -1.2907818  0.027265811   -1.9536555   0.66287372   273863 
28220000   0.34192242   -1.9526014   -1.9526014   -1.2907747  0.029749329   -1.9526014   0.66182665   273809 
28230000    0.3420728   -1.9524601   -1.9524601   -1.2902117  0.026307059   -1.9524601   0.66224834   273755 
28240000   0.34322486    -1.953413    -1.953413   -1.2888032  0.029293087    -1.953413   0.66460981   273701 
28250000   0.34147796   -1.9486888   -1.9486888   -1.2873312  0.022811939   -1.9486888   0.66135765   273647 
28260000   0.34267428   -1.9533744   -1.9533744   -1.2895688  0.033785501   -1.9533744   0.66380562   273593 
28270000   0.34218516   -1.9526053   -1.9526053   -1.2896163  0.033828676   -1.9526053   0.66298899   273539 
28280000   0.34102992   -1.9529775   -1.9529775   -1.2920964  0.028440072   -1.9529775   0.66088116   273485 
28290000   0.34167997   -1.9523184   -1.9523184   -1.2900468  0.029679362   -1.9523184   0.66227165   273431 
28300000   0.34172718   -1.9490534   -1.9490534   -1.2865594  0.026887776   -1.9490534     0.662494   273377 
28310000   0.34036338   -1.9490293   -1.9490293   -1.2890464  0.037177879   -1.9490293   0.65998283   273322 
28320000   0.34141916   -1.9489987   -1.9489987   -1.2868379  0.034758543   -1.9489987   0.66216085   273268 
28330000   0.34169187   -1.9510484   -1.9510484   -1.2882276  0.032405034   -1.9510484   0.66282074   273214 
28340000   0.34156572   -1.9498346   -1.9498346   -1.2871276  0.025666569   -1.9498346   0.66270703   273160 
28350000   0.34019087   -1.9491046   -1.9491046   -1.2889346  0.032707803   -1.9491046   0.66017004   273106 
28360000   0.34160382    -1.949839    -1.949839   -1.2867959  0.027383767    -1.949839    0.6630431   273052 
28370000   0.34205938   -1.9480388   -1.9480388   -1.2839801  0.028854652   -1.9480388   0.66405865   272998 
28380000    0.3415153   -1.9516168   -1.9516168   -1.2884833  0.035301873   -1.9516168   0.66313356   272944 
28390000   0.34103059   -1.9511106   -1.9511106   -1.2887872   0.03520988   -1.9511106   0.66232341   272890 
28400000   0.33935452   -1.9485904   -1.9485904   -1.2893917  0.024342947   -1.9485904   0.65919873   272836 
28410000   0.34059045    -1.949188    -1.949188   -1.2874575  0.031655505    -1.949188    0.6617305   272782 
28420000   0.34026743   -1.9474159   -1.9474159   -1.2861821  0.032622989   -1.9474159   0.66123381   272728 
28430000     0.341387   -1.9495843   -1.9495843   -1.2860435  0.025383787   -1.9495843   0.66354083   272674 
28440000   0.33967889   -1.9465992   -1.9465992   -1.2862475  0.028358494   -1.9465992   0.66035161   272620 
28450000   0.34076509   -1.9503819   -1.9503819   -1.2877874  0.030175248   -1.9503819   0.66259449   272566 
28460000   0.34056173   -1.9465929   -1.9465929   -1.2842626  0.032278969   -1.9465929   0.66233028   272512 
28470000   0.33926954    -1.945534    -1.945534    -1.285586  0.027342512    -1.945534   0.65994798   272458 
28480000   0.34048714     -1.95056     -1.95056   -1.2881123   0.02899916     -1.95056   0.66244775   272404 
28490000   0.33967364   -1.9494029   -1.9494029   -1.2884044  0.026829073   -1.9494029   0.66099847   272349 
28500000   0.33927301   -1.9464776   -1.9464776   -1.2861278  0.030854046   -1.9464776   0.66034979   272295 
28510000   0.33912966   -1.9479449   -1.9479449   -1.2877432  0.029021943   -1.9479449   0.66020171   272241 
28520000   0.33928401   -1.9503026   -1.9503026   -1.2896694  0.029336387   -1.9503026   0.66063322   272187 
28530000   0.33909108   -1.9494972   -1.9494972   -1.2891087  0.033618485   -1.9494972   0.66038859   272133 
28540000   0.33833374   -1.9465865   -1.9465865   -1.2875421   0.02970024   -1.9465865   0.65904442   272079 
28550000   0.33958036   -1.9466634   -1.9466634   -1.2850593  0.026104822   -1.9466634   0.66160404   272025 
28560000   0.33885158    -1.944211    -1.944211   -1.2838958  0.030991982    -1.944211   0.66031522   271971 
28570000   0.33958659   -1.9468728   -1.9468728   -1.2849939  0.026044137   -1.9468728   0.66187895   271917 
28580000   0.34050204   -1.9458249   -1.9458249   -1.2820299  0.029724979   -1.9458249   0.66379505   271863 
28590000    0.3396579   -1.9416773   -1.9416773   -1.2793963  0.025879758   -1.9416773   0.66228099   271809 
28600000   0.33955435   -1.9448416   -1.9448416   -1.2826309  0.031133717   -1.9448416   0.66221064   271755 
28610000   0.33960429   -1.9466859   -1.9466859   -1.2842462  0.027830031   -1.9466859   0.66243967   271701 
28620000   0.33857641   -1.9463495   -1.9463495   -1.2857835  0.035803098   -1.9463495   0.66056595   271647 
28630000   0.33923404   -1.9474991   -1.9474991   -1.2855186  0.031747432   -1.9474991   0.66198058   271593 
28640000   0.33961965   -1.9490088   -1.9490088    -1.286144  0.030331939   -1.9490088   0.66286485   271539 
28650000   0.33894347   -1.9464606   -1.9464606   -1.2847839  0.028614372   -1.9464606   0.66167669   271485 
28660000   0.33920077   -1.9477088   -1.9477088    -1.285398  0.028651907   -1.9477088   0.66231071   271431 
28670000   0.33780004   -1.9434521   -1.9434521   -1.2837451  0.028810538   -1.9434521   0.65970694   271377 
28680000    0.3382885   -1.9479848   -1.9479848   -1.2871899  0.031309196   -1.9479848   0.66079481   271322 
28690000   0.33869376   -1.9469301   -1.9469301    -1.285212  0.027747901   -1.9469301   0.66171812   271268 
28700000   0.33897003   -1.9476491   -1.9476491   -1.2852594  0.025157988   -1.9476491   0.66238974   271214 
28710000    0.3378947   -1.9436214   -1.9436214   -1.2832015  0.028964262   -1.9436214    0.6604199   271160 
28720000    0.3385984   -1.9451042   -1.9451042   -1.2831771  0.028686594   -1.9451042   0.66192711   271106 
28730000    0.3376336   -1.9436102   -1.9436102   -1.2834377  0.028238798   -1.9436102   0.66017251   271052 
28740000   0.33817571   -1.9425668   -1.9425668   -1.2812025  0.024045738   -1.9425668   0.66136426   270998 
28750000   0.33693396   -1.9414015   -1.9414015   -1.2823344   0.03289549   -1.9414015   0.65906712   270944 
28760000   0.33727456    -1.942056    -1.942056   -1.2821911  0.026987946    -1.942056   0.65986487   270890 
28770000   0.33762146   -1.9446838   -1.9446838   -1.2840086  0.026361808   -1.9446838   0.66067527   270836 
28780000    0.3380506   -1.9428997   -1.9428997   -1.2812528  0.019930952   -1.9428997   0.66164696   270782 
28790000   0.33823473   -1.9423235   -1.9423235   -1.2801841   0.02687539   -1.9423235   0.66213939   270728 
28800000    0.3378808   -1.9445804   -1.9445804    -1.283002  0.035556674   -1.9445804   0.66157848   270674 
28810000    0.3375105   -1.9458697   -1.9458697   -1.2848844  0.037682482   -1.9458697   0.66098529   270620 
28820000   0.33771723   -1.9429199   -1.9429199   -1.2813977  0.029675358   -1.9429199   0.66152215   270566 
28830000   0.33786018   -1.9435721   -1.9435721   -1.2816379  0.032086863   -1.9435721   0.66193427   270512 
28840000   0.33711053   -1.9418325   -1.9418325   -1.2812351  0.032341119   -1.9418325   0.66059743   270458 
28850000   0.33747566   -1.9420231   -1.9420231   -1.2805781  0.034238807   -1.9420231   0.66144501   270404 
28860000   0.33744539   -1.9431571   -1.9431571   -1.2816369  0.031382751   -1.9431571   0.66152022   270349 
28870000   0.33716575   -1.9417985   -1.9417985   -1.2806944  0.025781769   -1.9417985   0.66110408   270295 
28880000   0.33645956   -1.9417346   -1.9417346   -1.2818834   0.03313952   -1.9417346   0.65985123   270241 
28890000   0.33639833   -1.9407994   -1.9407994   -1.2809364  0.030545028   -1.9407994   0.65986299   270187 
28900000   0.33587394   -1.9426913   -1.9426913   -1.2837252  0.025751925   -1.9426913   0.65896608   270133 
28910000   0.33610729    -1.943117    -1.943117   -1.2835612  0.030208714    -1.943117   0.65955574   270079 
28920000   0.33583716   -1.9416638   -1.9416638   -1.2825064  0.026983461   -1.9416638   0.65915746   270025 
28930000   0.33642514   -1.9411135   -1.9411135   -1.2806699  0.023653575   -1.9411135   0.66044359   269971 
28940000   0.33646353   -1.9439021   -1.9439021    -1.283251  0.028802262   -1.9439021   0.66065109   269917 
28950000   0.33635604   -1.9421586   -1.9421586   -1.2815865  0.035243619   -1.9421586   0.66057218   269863 
28960000   0.33555801   -1.9426788   -1.9426788    -1.283542  0.024407413   -1.9426788   0.65913683   269809 
28970000   0.33590531   -1.9427747   -1.9427747   -1.2828236  0.027423143   -1.9427747    0.6599511   269755 
28980000   0.33489179   -1.9417057   -1.9417057   -1.2836141   0.02983017   -1.9417057    0.6580916   269701 
28990000   0.33528296   -1.9409129   -1.9409129   -1.2819207  0.033167883   -1.9409129   0.65899222   269647 
29000000    0.3354944   -1.9410067   -1.9410067   -1.2814668  0.029162483   -1.9410067   0.65953988   269593 
29010000    0.3351814   -1.9403039   -1.9403039   -1.2812473  0.027530244   -1.9403039   0.65905658   269539 
29020000   0.33550161   -1.9442246   -1.9442246   -1.2844062  0.026682826   -1.9442246   0.65981839   269485 
29030000    0.3351009    -1.942159    -1.942159   -1.2829966  0.027033312    -1.942159    0.6591624   269431 
29040000   0.33490289   -1.9423331   -1.9423331   -1.2834282  0.031439387   -1.9423331   0.65890497   269377 
29050000   0.33426392   -1.9400717   -1.9400717   -1.2822895  0.029979803   -1.9400717   0.65778213   269322 
29060000   0.33439951   -1.9411392   -1.9411392   -1.2829583  0.035933165   -1.9411392   0.65818092   269268 
29070000   0.33513241   -1.9430389   -1.9430389   -1.2832832  0.030106339   -1.9430389   0.65975576   269214 
29080000   0.33479838   -1.9438751   -1.9438751   -1.2846447  0.030648657   -1.9438751    0.6592304   269160 
29090000   0.33446145   -1.9428695   -1.9428695   -1.2841704  0.031115675   -1.9428695   0.65869912   269106 
29100000   0.33437011   -1.9428951   -1.9428951   -1.2842437  0.031291486   -1.9428951    0.6586514   269052 
29110000   0.33383477   -1.9443125   -1.9443125   -1.2865837  0.029473801   -1.9443125   0.65772888   268998 
29120000   0.33500134   -1.9430003   -1.9430003   -1.2828405  0.027502734   -1.9430003   0.66015982   268944 
29130000   0.33404281   -1.9455447   -1.9455447   -1.2871416  0.031123108   -1.9455447   0.65840311   268890 
29140000   0.33479846   -1.9450706   -1.9450706   -1.2850455  0.024874671   -1.9450706   0.66002505   268836 
29150000   0.33427112   -1.9433371   -1.9433371   -1.2842192  0.030478176   -1.9433371   0.65911785   268782 
29160000   0.33330508    -1.942422    -1.942422   -1.2850769  0.031366579    -1.942422   0.65734507   268728 
29170000   0.33396132   -1.9413872   -1.9413872   -1.2826155  0.028099083   -1.9413872   0.65877168   268674 
29180000   0.33434228   -1.9410033   -1.9410033   -1.2813476  0.030517307   -1.9410033   0.65965575   268620 
29190000   0.33439507   -1.9425501   -1.9425501   -1.2826575  0.027974048   -1.9425501   0.65989255   268566 
29200000   0.33324191   -1.9378841   -1.9378841   -1.2801349  0.025859656   -1.9378841   0.65774917   268512 
29210000   0.33413924   -1.9405314   -1.9405314   -1.2808784   0.03241567   -1.9405314   0.65965298   268458 
29220000   0.33369758   -1.9396454   -1.9396454   -1.2807318  0.030292222   -1.9396454    0.6589136   268404 
29230000   0.33338918   -1.9377978   -1.9377978   -1.2793583  0.027055225   -1.9377978   0.65843957   268349 
29240000   0.33272468   -1.9380481   -1.9380481   -1.2807886  0.027997634   -1.9380481   0.65725944   268295 
29250000   0.33359678   -1.9380146   -1.9380146   -1.2788998  0.027031972   -1.9380146   0.65911484   268241 
29260000   0.33376929   -1.9410787   -1.9410787   -1.2814902  0.029093714   -1.9410787   0.65958845   268187 
29270000   0.33287373   -1.9383023   -1.9383023   -1.2803511  0.030804164   -1.9383023   0.65795116   268133 
29280000   0.33268815   -1.9377066   -1.9377066   -1.2799898  0.030681939   -1.9377066   0.65771679   268079 
29290000   0.33236972   -1.9358731   -1.9358731   -1.2786534  0.031636418   -1.9358731   0.65721966   268025 
29300000    0.3331302   -1.9375687   -1.9375687   -1.2787125  0.027168269   -1.9375687   0.65885615   267971 
29310000   0.33313502   -1.9395855   -1.9395855    -1.280587   0.03460698   -1.9395855   0.65899849   267917 
29320000   0.33417256    -1.940582    -1.940582   -1.2793978  0.025643269    -1.940582   0.66118417   267863 
29330000    0.3337433   -1.9410788   -1.9410788   -1.2806108  0.037868854   -1.9410788     0.660468   267809 
29340000   0.33240149   -1.9375896   -1.9375896   -1.2796443  0.026250006   -1.9375896   0.65794528   267755 
29350000   0.33310134   -1.9374823   -1.9374823   -1.2780188  0.031391091   -1.9374823   0.65946354   267701 
29360000   0.33144795   -1.9369064   -1.9369064   -1.2805839  0.029372388   -1.9369064   0.65632259   267647 
29370000   0.33196239   -1.9391037   -1.9391037   -1.2816298  0.028011504   -1.9391037   0.65747391   267593 
29380000    0.3326536   -1.9401296   -1.9401296   -1.2811537   0.02717262   -1.9401296   0.65897589   267539 
29390000   0.33286572   -1.9393745   -1.9393745   -1.2798453  0.021065413   -1.9393745   0.65952922   267485 
29400000   0.33167125   -1.9350999   -1.9350999   -1.2778047  0.031502515   -1.9350999   0.65729523   267431 
29410000   0.33249348   -1.9326391   -1.9326391   -1.2735813  0.027735772   -1.9326391   0.65905777   267377 
29420000   0.33256091   -1.9333818   -1.9333818   -1.2740548  0.032062449   -1.9333818   0.65932704   267322 
29430000   0.33132094   -1.9349664   -1.9349664   -1.2779649  0.033172168   -1.9349664   0.65700143   267268 
29440000   0.33056334   -1.9335083   -1.9335083   -1.2778767  0.033153504   -1.9335083   0.65563159   267214 
29450000   0.33136674   -1.9348202   -1.9348202   -1.2774623  0.034881732   -1.9348202    0.6573579   267160 
29460000   0.33065755   -1.9308284   -1.9308284   -1.2747448  0.028806179   -1.9308284   0.65608363   267106 
29470000   0.33124408    -1.931729    -1.931729   -1.2743487  0.026815214    -1.931729    0.6573803   267052 
29480000   0.33162611    -1.935118    -1.935118   -1.2768464  0.030025045    -1.935118   0.65827158   266998 
29490000   0.33063436   -1.9339049   -1.9339049   -1.2774692  0.030898508   -1.9339049   0.65643575   266944 
29500000   0.33089951   -1.9367594   -1.9367594   -1.2796643  0.033358536   -1.9367594   0.65709508   266890 
29510000   0.33072134   -1.9323395   -1.9323395   -1.2754654  0.032921203   -1.9323395   0.65687418   266836 
29520000    0.3313432   -1.9346233   -1.9346233   -1.2763808  0.030737494   -1.9346233   0.65824252   266782 
29530000   0.33093059   -1.9323856   -1.9323856   -1.2748297  0.027325704   -1.9323856   0.65755594   266728 
29540000   0.33004074   -1.9330547   -1.9330547   -1.2771341  0.027458641   -1.9330547   0.65592061   266674 
29550000   0.33017829   -1.9358063   -1.9358063   -1.2794794  0.028326718   -1.9358063   0.65632687   266620 
29560000   0.33014105   -1.9359176   -1.9359176   -1.2795318  0.023478938   -1.9359176   0.65638579   266566 
29570000     0.329712   -1.9349047   -1.9349047   -1.2792392  0.027818103   -1.9349047   0.65566558   266512 
29580000   0.33032648      -1.9341      -1.9341   -1.2770793  0.030795593      -1.9341   0.65702066   266458 
29590000   0.33070192   -1.9351667   -1.9351667    -1.277266  0.031978691   -1.9351667   0.65790074   266404 
29600000   0.32970727    -1.933179    -1.933179   -1.2771216  0.034829739    -1.933179   0.65605742   266349 
29610000    0.3305274   -1.9366154   -1.9366154   -1.2787927  0.033161481   -1.9366154   0.65782269   266295 
29620000   0.32936423   -1.9333627   -1.9333627    -1.277722  0.030463231   -1.9333627   0.65564068   266241 
29630000   0.32901064    -1.933022    -1.933022   -1.2779523  0.032664783    -1.933022   0.65506969   266187 
29640000   0.32835084   -1.9335982   -1.9335982   -1.2797096  0.032556605   -1.9335982   0.65388866   266133 
29650000   0.32913385    -1.936714    -1.936714    -1.281133  0.035021699    -1.936714   0.65558098   266079 
29660000   0.32928568    -1.936105    -1.936105   -1.2800885  0.029866861    -1.936105   0.65601654   266025 
29670000   0.32854637   -1.9342773   -1.9342773   -1.2796008  0.030912933   -1.9342773   0.65467654   265971 
29680000   0.32875683   -1.9308511   -1.9308511   -1.2756221  0.031337757   -1.9308511   0.65522895   265917 
29690000   0.32840621   -1.9309299   -1.9309299   -1.2762668  0.031782545   -1.9309299   0.65466309   265863 
29700000   0.32911745   -1.9305374   -1.9305374   -1.2743232   0.02889036   -1.9305374    0.6562142   265809 
29710000   0.32883926   -1.9334207   -1.9334207    -1.277628  0.028305394   -1.9334207   0.65579275   265755 
29720000   0.32923598   -1.9329236   -1.9329236   -1.2762063  0.030882984   -1.9329236   0.65671737   265701 
29730000   0.32872736   -1.9328933   -1.9328933   -1.2770571  0.029449338   -1.9328933   0.65583613   265647 
29740000   0.32753845   -1.9329622   -1.9329622   -1.2793652  0.027534311   -1.9329622   0.65359702   265593 
29750000   0.32841708   -1.9378612   -1.9378612   -1.2823777  0.029000691   -1.9378612   0.65548358   265539 
29760000   0.32788212   -1.9327482   -1.9327482   -1.2781992  0.027208393   -1.9327482   0.65454897   265485 
29770000   0.32781315   -1.9320865   -1.9320865   -1.2775421   0.02665147   -1.9320865   0.65454443   265431 
29780000   0.32702539   -1.9285681   -1.9285681   -1.2754637  0.031088734   -1.9285681   0.65310438   265377 
29790000   0.32790131   -1.9316507   -1.9316507   -1.2766613  0.021991579   -1.9316507   0.65498942   265322 
29800000   0.32932503   -1.9319078   -1.9319078   -1.2739405  0.031927792   -1.9319078   0.65796725   265268 
29810000   0.32753214   -1.9311701   -1.9311701   -1.2766517  0.029313253   -1.9311701   0.65451842   265214 
29820000   0.32749742   -1.9304661   -1.9304661   -1.2758838  0.029749061   -1.9304661   0.65458231   265160 
29830000   0.32852376   -1.9342639   -1.9342639   -1.2774965  0.035319726   -1.9342639   0.65676745   265106 
29840000    0.3268111   -1.9314201   -1.9314201   -1.2779434  0.027469484   -1.9314201   0.65347671   265052 
29850000   0.32840991   -1.9304203   -1.9304203   -1.2736129  0.029573039   -1.9304203   0.65680744   264998 
29860000   0.32728287   -1.9301582   -1.9301582   -1.2754714  0.035338179   -1.9301582   0.65468681   264944 
29870000   0.32710084   -1.9297315   -1.9297315   -1.2752754  0.032002853   -1.9297315   0.65445606   264890 
29880000   0.32711985   -1.9306398   -1.9306398   -1.2760123   0.02751822   -1.9306398   0.65462754   264836 
29890000   0.32713568   -1.9312986   -1.9312986   -1.2765058  0.027093488   -1.9312986   0.65479273   264782 
29900000     0.326724   -1.9315499   -1.9315499   -1.2774478  0.024008865   -1.9315499   0.65410213   264728 
29910000   0.32640683   -1.9308334   -1.9308334    -1.277233  0.031732825   -1.9308334   0.65360048   264674 
29920000   0.32700031   -1.9294628   -1.9294628   -1.2745403  0.031155221   -1.9294628   0.65492248   264620 
29930000   0.32669228   -1.9273985   -1.9273985   -1.2729594  0.028338693   -1.9273985   0.65443911   264566 
29940000    0.3285856   -1.9303957   -1.9303957   -1.2720294  0.030382072   -1.9303957   0.65836623   264512 
29950000   0.32633572   -1.9279883   -1.9279883   -1.2739965  0.029128735   -1.9279883    0.6539918   264458 
29960000   0.32631694   -1.9289735   -1.9289735   -1.2748857  0.032590703   -1.9289735   0.65408772   264404 
29970000   0.32643154   -1.9266517   -1.9266517   -1.2721981  0.029151884   -1.9266517   0.65445356   264349 
29980000   0.32562339   -1.9255557   -1.9255557    -1.272589  0.031706949   -1.9255557   0.65296671   264295 
29990000   0.32710484   -1.9284419   -1.9284419   -1.2723704  0.036730511   -1.9284419   0.65607149   264241 
30000000   0.32620486   -1.9282961   -1.9282961    -1.273896  0.034011713   -1.9282961   0.65440013   264187 
Loop time of 73374.7 on 336 procs for 30000000 steps with 264187 atoms

Performance: 176627.699 tau/day, 408.860 timesteps/s
89.5% CPU use with 336 MPI tasks x 1 OpenMP threads

MPI task timing breakdown:
Section |  min time  |  avg time  |  max time  |%varavg|  %CPU | %total
-----------------------------------------------------------------------
Pair    | 1006.1     | 9475.5     | 15412      |3547.1 |  92.6 | 12.91
Bond    | 18.772     | 20.509     | 26.828     |  19.7 | 100.0 |  0.03
Neigh   | 2811.4     | 14642      | 23253      |3854.5 |  98.7 | 19.95
Comm    | 19888      | 31083      | 50493      |3526.6 |  87.1 | 42.36
Output  | 3180.5     | 3589.5     | 4109.1     | 355.6 |  81.8 |  4.89
Modify  | 7224.7     | 13964      | 34429      |4250.9 |  87.4 | 19.03
Other   |            | 600.4      |            |       |       |  0.82

Nlocal:        786.271 ave        2212 max         225 min
Histogram: 9 12 200 107 5 0 0 1 0 2
Nghost:        5409.20 ave        8546 max        1187 min
Histogram: 45 7 23 12 17 35 32 85 66 14
Neighs:        19097.4 ave       54735 max         669 min
Histogram: 60 9 53 59 91 50 11 0 2 1
FullNghs:      38194.8 ave      115248 max        1494 min
Histogram: 58 12 64 69 86 37 7 0 2 1

Total # of neighbors = 12833442
Ave neighs/atom = 48.577114
Ave special neighs/atom = 0.0000000
Neighbor list builds = 3017550
Dangerous builds = 2171204
Total wall time: 20:23:00
