LAMMPS (24 Dec 2020)
OMP_NUM_THREADS environment is not set. Defaulting to 1 thread. (src/comm.cpp:94)
  using 1 OpenMP thread(s) per MPI task
# Simple rigid body system
# needed variables: startTemp, temp

units		lj
atom_style	full
dimension 	3
boundary	p p f
pair_style	lj/cut/opt 2.5

variable 	gcmcdisplace	equal 0
variable 	sigma		equal 1.0
variable 	epsilon 	equal 1.0


read_restart	restart.dat.3000000
Reading restart file ...
  restart file = 24 Dec 2020, LAMMPS = 24 Dec 2020
WARNING: Restart file used different # of processors: 48 vs. 192 (src/read_restart.cpp:697)
  restoring atom style full from restart
  orthogonal box = (0.0000000 0.0000000 0.0000000) to (80.000000 80.000000 160.00000)
  6 by 4 by 8 MPI processor grid
  restoring pair style lj/cut/opt from restart
  439061 atoms
Finding 1-2 1-3 1-4 neighbors ...
  special bond factors lj:    0        0        0       
  special bond factors coul:  0        0        0       
     0 = max # of 1-2 neighbors
     0 = max # of 1-3 neighbors
     0 = max # of 1-4 neighbors
     1 = max # of special neighbors
  special bonds CPU = 1.412 seconds
  read_restart CPU = 1.703 seconds

mass		1 1.0
mass		2 1.0
mass		3 1.0


group		solvent type 1
439061 atoms in group solvent


neighbor 	0.4 bin

pair_coeff	1 1 1.0 1.0
pair_coeff	2 2 0.0 0.0
pair_coeff	3 3 0.0 0.0
pair_coeff	2 3 0.0 0.0
pair_coeff	1 2*3 0.0 0.0

pair_modify 	shift yes


balance 	1.05 shift z 10 1.05
Balancing ...
Neighbor list info ...
  update every 1 steps, delay 10 steps, check yes
  max neighbors/atom: 2000, page size: 100000
  master list distance cutoff = 2.9
  ghost atom cutoff = 2.9
  binsize = 1.45, bins = 56 56 111
  1 neighbor lists, perpetual/occasional/extra = 1 0 0
  (1) pair lj/cut/opt, perpetual
      attributes: half, newton on
      pair build: half/bin/newton
      stencil: half/bin/3d/newton
      bin: standard
 rebalancing time: 0.026 seconds
  iteration count = 5
  initial/final maximal load/proc = 3162.0000 2575.0000
  initial/final imbalance factor  = 1.3827327 1.1260394
  x cuts: 0.0000000 0.16666667 0.33333333 0.50000000 0.66666667 0.83333333 1.0000000
  y cuts: 0.0000000 0.25000000 0.50000000 0.75000000 1.0000000
  z cuts: 0.0000000 0.097656250 0.18359375 0.27734375 0.37890625 0.47656250 0.57031250 0.67968750 1.0000000


####################### WALLS ###########################


variable       epsilonWall equal 2*${epsilon}
variable       epsilonWall equal 2*1

variable       cutoffTop   equal   0.7147*${sigma}
variable       cutoffTop   equal   0.7147*1

variable       cutoffLow   equal   3*${sigma}
variable       cutoffLow   equal   3*1


fix            topWall all wall/lj93 zhi EDGE                ${epsilonWall} ${sigma} ${cutoffTop} units box
fix            topWall all wall/lj93 zhi EDGE                2 ${sigma} ${cutoffTop} units box
fix            topWall all wall/lj93 zhi EDGE                2 1 ${cutoffTop} units box
fix            topWall all wall/lj93 zhi EDGE                2 1 0.7147 units box

fix            lowWall all wall/lj93 zlo EDGE                ${epsilonWall} ${sigma} ${cutoffLow} units box
fix            lowWall all wall/lj93 zlo EDGE                2 ${sigma} ${cutoffLow} units box
fix            lowWall all wall/lj93 zlo EDGE                2 1 ${cutoffLow} units box
fix            lowWall all wall/lj93 zlo EDGE                2 1 3 units box


###################### COMPUTES ##########################

compute        bin1 solvent chunk/atom bin/1d z upper 1.0



######################	FIXES ############################


fix 		peclet solvent ave/chunk 1000 1 1000 bin1 density/number norm 		 none ave one file density.profile

fix 		 temp solvent ave/chunk 1000 1 1000 bin1 temp norm none ave one file temp.profile

fix 		2 solvent nve

## Thermostat


region		regthermo block EDGE EDGE EDGE EDGE 0 20

group 		thermo dynamic solvent region regthermo every 1000
dynamic group thermo defined

fix 		3 thermo langevin ${startTemp} ${temp} 10 156453
fix 		3 thermo langevin 1.0 ${temp} 10 156453
fix 		3 thermo langevin 1.0 1.0 10 156453


## Evaporation

region		regevap block EDGE EDGE EDGE EDGE 140 158
#fix 		gcmc solvent gcmc 100 100 0 1 780493 ${temp} ${mu} ${gcmcdisplace} region regevap
fix 		evap solvent evaporate ${evap} 1 regevap 4379103
fix 		evap solvent evaporate 150 1 regevap 4379103

#### Load balancing

fix 		bal all balance 1000 1.05 shift z 10 1.05

############### Diagnostics and computes ###################
#compute 	com cube	  rigid/local	1 mol x y z
#compute 	quat cube	  rigid/local	1 mol quatw quati quatj quatk

thermo 		1000
thermo_style 	custom step temp epair etotal press pe ke atoms

dump		1 all custom 100000 dump.lammpstrj id mol type x y z
dump 		2 all image 10000 image.*.png type type
dump 		3 all movie 1000 movie.avi type type
#dump 		com cube local 1000 dump.*.xyz c_com[*]
#dump		quat cube      local 1000 dump.*.quat c_quat[*]


restart 	1000000 restart.dat
timestep 	0.005
timer 		full
New timer settings: style=full  mode=nosync  timeout=off


run		5000000
Per MPI rank memory allocation (min/avg/max) = 9.923 | 9.986 | 10.01 Mbytes
Step Temp E_pair TotEng Press PotEng KinEng Atoms 
 3000000     1.016004   -3.1352716   -1.6112691  0.079025997   -3.1352716    1.5240025   439061 
 3001000    1.0148611   -3.1343377   -1.6120288  0.078865602   -3.1343377    1.5223089   439055 
 3002000    1.0163092   -3.1357919   -1.6112865  0.078939322   -3.1357919    1.5245055   439048 
 3003000    1.0155587   -3.1352698   -1.6118658  0.072236663   -3.1352698     1.523404   439041 
 3004000    1.0142407     -3.13419   -1.6127423  0.075824224     -3.13419    1.5214477   439035 
 3005000    1.0159858   -3.1351795   -1.6110898  0.081146211   -3.1351795    1.5240897   439028 
 3006000    1.0158049   -3.1350491   -1.6112064  0.080389955   -3.1350491    1.5238427   439021 
 3007000    1.0144961    -3.133735   -1.6118349  0.075958983    -3.133735    1.5219001   439015 
 3008000    1.0168375   -3.1363034   -1.6108665  0.073012549   -3.1363034    1.5254369   439008 
 3009000    1.0162308   -3.1346196   -1.6100685  0.075684188   -3.1346196    1.5245511   439001 
 3010000    1.0166757   -3.1356359   -1.6103966   0.07794231   -3.1356359    1.5252393   438995 
 3011000    1.0154807   -3.1350348   -1.6115639  0.077259865   -3.1350348    1.5234708   438988 
 3012000    1.0164669   -3.1362993   -1.6113245  0.074549548   -3.1362993    1.5249748   438981 
 3013000    1.0150272   -3.1340006    -1.611165  0.080235721   -3.1340006    1.5228356   438975 
 3014000    1.0141288   -3.1328871   -1.6113751  0.078364711   -3.1328871     1.521512   438968 
 3015000    1.0156725    -3.134615   -1.6107627  0.071521113    -3.134615    1.5238523   438961 
 3016000    1.0157892   -3.1354051   -1.6113568  0.072997167   -3.1354051    1.5240482   438955 
 3017000    1.0151372   -3.1338896   -1.6107953  0.077177537   -3.1338896    1.5230943   438948 
 3018000    1.0165598   -3.1349408   -1.6096877  0.076625092   -3.1349408    1.5252531   438941 
 3019000    1.0159142   -3.1340296   -1.6097243  0.081060495   -3.1340296    1.5243053   438935 
 3020000    1.0142703   -3.1333684   -1.6115054  0.078426693   -3.1333684     1.521863   438928 
 3021000     1.014815   -3.1339703   -1.6112657  0.075604241   -3.1339703    1.5227046   438921 
 3022000    1.0180305   -3.1371771    -1.609627  0.077806123   -3.1371771    1.5275502   438915 
 3023000    1.0164992   -3.1354796   -1.6102027  0.080346988   -3.1354796    1.5252769   438908 
 3024000    1.0174192   -3.1358047    -1.609123  0.072776549   -3.1358047    1.5266817   438901 
 3025000    1.0163854   -3.1343253    -1.609174  0.081875356   -3.1343253    1.5251513   438895 
 3026000    1.0153126   -3.1342527   -1.6106869  0.078290119   -3.1342527    1.5235658   438888 
 3027000    1.0150188   -3.1333953    -1.610246  0.077073485   -3.1333953    1.5231492   438881 
 3028000    1.0172562   -3.1364499   -1.6099224  0.074963139   -3.1364499    1.5265275   438875 
 3029000    1.0173816   -3.1360831    -1.609343  0.077251093   -3.1360831    1.5267401   438868 
 3030000    1.0163729   -3.1355161   -1.6102655  0.079394258   -3.1355161    1.5252506   438861 
 3031000    1.0151388   -3.1345733   -1.6111538  0.077969844   -3.1345733    1.5234196   438855 
 3032000    1.0154445   -3.1363952   -1.6124927  0.078148722   -3.1363952    1.5239026   438848 
 3033000    1.0147644   -3.1355026   -1.6125963  0.073302552   -3.1355026    1.5229063   438841 
 3034000     1.015707   -3.1369489   -1.6126073  0.076018548   -3.1369489    1.5243416   438835 
 3035000    1.0157629   -3.1362798   -1.6118299  0.077897104   -3.1362798    1.5244499   438828 
 3036000      1.01667   -3.1370234   -1.6111878  0.075134225   -3.1370234    1.5258356   438821 
 3037000    1.0160415   -3.1373754   -1.6124622  0.080965338   -3.1373754    1.5249132   438815 
 3038000    1.0145176   -3.1360168   -1.6133665  0.076667953   -3.1360168    1.5226503   438808 
 3039000    1.0155472   -3.1378543   -1.6136344  0.076813941   -3.1378543    1.5242199   438801 
 3040000    1.0136367    -3.135037   -1.6136638   0.08126596    -3.135037    1.5213732   438795 
 3041000    1.0131506   -3.1355846   -1.6149166  0.079038737   -3.1355846     1.520668   438788 
 3042000    1.0132393   -3.1350592   -1.6142339   0.07463387   -3.1350592    1.5208253   438781 
 3043000    1.0128817   -3.1347104   -1.6144009  0.077085288   -3.1347104    1.5203095   438775 
 3044000    1.0139405   -3.1355364   -1.6136136  0.076232038   -3.1355364    1.5219229   438768 
 3045000    1.0151099   -3.1388815   -1.6151789  0.073804773   -3.1388815    1.5237025   438761 
 3046000     1.015407   -3.1402571   -1.6160878  0.073725273   -3.1402571    1.5241693   438755 
 3047000    1.0134917    -3.137587   -1.6162685  0.075132977    -3.137587    1.5213186   438748 
 3048000    1.0155054    -3.139877   -1.6155114  0.071928073    -3.139877    1.5243657   438741 
 3049000     1.015492   -3.1394165   -1.6150502  0.076700289   -3.1394165    1.5243663   438735 
 3050000    1.0149291   -3.1394539   -1.6159082     0.071727   -3.1394539    1.5235456   438728 
 3051000    1.0158013   -3.1411787   -1.6162993  0.072163615   -3.1411787    1.5248793   438721 
 3052000     1.013981   -3.1399187   -1.6177511  0.071919106   -3.1399187    1.5221675   438715 
 3053000     1.014843   -3.1410191   -1.6175331  0.078344043   -3.1410191    1.5234859   438708 
 3054000     1.015934   -3.1414571    -1.616309  0.080145543   -3.1414571    1.5251481   438701 
 3055000     1.015911   -3.1412457   -1.6161114   0.08132242   -3.1412457    1.5251343   438695 
 3056000    1.0155849   -3.1407795   -1.6161105  0.075745178   -3.1407795    1.5246691   438688 
 3057000    1.0145227   -3.1398078   -1.6167089  0.075065409   -3.1398078    1.5230989   438681 
 3058000    1.0135934    -3.138854   -1.6171296  0.074674152    -3.138854    1.5217245   438675 
 3059000    1.0143429   -3.1404607   -1.6175866  0.073505388   -3.1404607     1.522874   438668 
 3060000    1.0139943   -3.1407739    -1.618399  0.077037187   -3.1407739    1.5223749   438661 
 3061000    1.0158434   -3.1442857   -1.6191138  0.077929751   -3.1442857     1.525172   438655 
 3062000    1.0136747     -3.14136   -1.6194198  0.082220459     -3.14136    1.5219402   438648 
 3063000    1.0158766   -3.1451925    -1.619922  0.071100067   -3.1451925    1.5252704   438641 
 3064000    1.0152042   -3.1427082   -1.6184265  0.080192695   -3.1427082    1.5242817   438635 
 3065000    1.0155787   -3.1428162   -1.6179478   0.07097436   -3.1428162    1.5248684   438628 
 3066000    1.0153091   -3.1412975   -1.6168096  0.079911706   -3.1412975    1.5244879   438621 
 3067000    1.0155042   -3.1415323   -1.6167306  0.071462693   -3.1415323    1.5248017   438615 
 3068000    1.0140938   -3.1408923    -1.618184  0.075589759   -3.1408923    1.5227082   438608 
 3069000    1.0140188   -3.1399003   -1.6172803  0.075349644   -3.1399003      1.52262   438601 
 3070000    1.0144537   -3.1401959    -1.616902  0.075335677   -3.1401959    1.5232939   438595 
 3071000    1.0135341   -3.1385333    -1.616596  0.076989799   -3.1385333    1.5219373   438588 
 3072000    1.0147461   -3.1402844   -1.6165028  0.078051629   -3.1402844    1.5237816   438581 
 3073000    1.0146894   -3.1390668   -1.6153496  0.076951244   -3.1390668    1.5237172   438575 
 3074000    1.0136359   -3.1378736   -1.6157141  0.074419758   -3.1378736    1.5221596   438568 
 3075000     1.012521    -3.135986   -1.6154764  0.075310232    -3.135986    1.5205096   438561 
 3076000    1.0133213   -3.1370225   -1.6152903  0.074851317   -3.1370225    1.5217322   438555 
 3077000      1.01297   -3.1349072   -1.6136781  0.071841793   -3.1349072     1.521229   438548 
 3078000    1.0126423   -3.1360593   -1.6152982  0.074934426   -3.1360593     1.520761   438541 
 3079000     1.012485   -3.1342282   -1.6136825  0.077853264   -3.1342282    1.5205457   438535 
 3080000    1.0127116   -3.1358918   -1.6149815  0.075488269   -3.1358918    1.5209103   438528 
 3081000    1.0144968   -3.1374016    -1.613786  0.073923045   -3.1374016    1.5236156   438521 
 3082000    1.0126537     -3.13471   -1.6138416  0.074713847     -3.13471    1.5208684   438515 
 3083000    1.0139759   -3.1358094   -1.6129309  0.078182771   -3.1358094    1.5228785   438508 
 3084000    1.0117289   -3.1337526   -1.6142246  0.073229612   -3.1337526     1.519528   438501 
 3085000    1.0135822   -3.1357633   -1.6134311  0.077387362   -3.1357633    1.5223323   438495 
 3086000    1.0141485   -3.1362814   -1.6130743  0.071076876   -3.1362814    1.5232072   438488 
 3087000    1.0154223   -3.1370194   -1.6118747  0.075388846   -3.1370194    1.5251447   438481 
 3088000    1.0141622   -3.1368632   -1.6135904  0.078481483   -3.1368632    1.5232729   438475 
 3089000    1.0141905   -3.1369606   -1.6136208  0.074072709   -3.1369606    1.5233397   438468 
 3090000    1.0139929   -3.1377267   -1.6146594  0.078526642   -3.1377267    1.5230672   438461 
 3091000    1.0135099   -3.1368295   -1.6144669  0.074845266   -3.1368295    1.5223625   438455 
 3092000    1.0152494   -3.1400678    -1.615068  0.070924375   -3.1400678    1.5249997   438448 
 3093000    1.0135168   -3.1371702   -1.6147487  0.074072026   -3.1371702    1.5224215   438441 
 3094000     1.016009   -3.1407515   -1.6145655  0.074812132   -3.1407515     1.526186   438435 
 3095000    1.0148666   -3.1403251   -1.6158308  0.076835997   -3.1403251    1.5244943   438428 
 3096000    1.0140534   -3.1395722   -1.6162751  0.075470531   -3.1395722    1.5232971   438421 
 3097000    1.0140264   -3.1384086   -1.6151312  0.076353412   -3.1384086    1.5232774   438415 
 3098000    1.0154708     -3.14004   -1.6145684  0.076275008     -3.14004    1.5254715   438408 
 3099000    1.0142794    -3.137391   -1.6136849  0.075168167    -3.137391    1.5237061   438401 
 3100000    1.0151412   -3.1368089   -1.6117873  0.076584467   -3.1368089    1.5250217   438395 
 3101000    1.0122708   -3.1352859   -1.6145521  0.078447998   -3.1352859    1.5207338   438388 
 3102000    1.0134361   -3.1385948   -1.6160861   0.07514097   -3.1385948    1.5225087   438381 
 3103000    1.0136043   -3.1393158   -1.6165335  0.075813737   -3.1393158    1.5227823   438375 
 3104000    1.0112101   -3.1353259   -1.6161163  0.078915895   -3.1353259    1.5192096   438368 
 3105000    1.0124941   -3.1389182   -1.6177554  0.076001192   -3.1389182    1.5211628   438361 
 3106000    1.0131709    -3.139734   -1.6175335  0.072935995    -3.139734    1.5222005   438355 
 3107000    1.0121544   -3.1393407   -1.6186431  0.070591569   -3.1393407    1.5206976   438348 
 3108000    1.0117723   -3.1401163   -1.6199684  0.070831418   -3.1401163    1.5201479   438341 
 3109000    1.0116186   -3.1399758   -1.6200381  0.071906983   -3.1399758    1.5199377   438335 
 3110000      1.01198   -3.1402545   -1.6197495  0.068703181   -3.1402545     1.520505   438328 
 3111000    1.0126455   -3.1408669   -1.6193378  0.069852526   -3.1408669    1.5215292   438321 
 3112000    1.0126129   -3.1404156   -1.6189147  0.072896669   -3.1404156     1.521501   438315 
 3113000    1.0139727    -3.142077   -1.6185085  0.072592756    -3.142077    1.5235685   438308 
 3114000    1.0124501   -3.1397122   -1.6184072  0.075734057   -3.1397122    1.5213049   438301 
 3115000    1.0144696   -3.1430593   -1.6186989  0.079174126   -3.1430593    1.5243604   438295 
 3116000    1.0133394   -3.1433405    -1.620654   0.08020465   -3.1433405    1.5226865   438288 
 3117000    1.0122753   -3.1412079   -1.6200962  0.072053291   -3.1412079    1.5211117   438281 
 3118000    1.0139686   -3.1437195   -1.6200425  0.074499289   -3.1437195    1.5236771   438275 
 3119000    1.0140879   -3.1443702   -1.6204895  0.074070645   -3.1443702    1.5238807   438268 
 3120000    1.0141063   -3.1430154   -1.6190828  0.080494533   -3.1430154    1.5239326   438261 
 3121000    1.0132177   -3.1429813   -1.6203631   0.07650412   -3.1429813    1.5226182   438255 
 3122000    1.0133573   -3.1435297   -1.6206774  0.074047854   -3.1435297    1.5228523   438248 
 3123000    1.0134073   -3.1428235   -1.6198717  0.072125026   -3.1428235    1.5229517   438241 
 3124000    1.0129005   -3.1436321   -1.6214212  0.080653704   -3.1436321     1.522211   438235 
 3125000    1.0130605   -3.1443039   -1.6218282  0.073772757   -3.1443039    1.5224757   438228 
 3126000    1.0128633    -3.146228   -1.6240244  0.074510969    -3.146228    1.5222037   438221 
 3127000    1.0128224   -3.1467021    -1.624539  0.076110116   -3.1467021    1.5221631   438215 
 3128000    1.0129105   -3.1448528    -1.622533  0.082311372   -3.1448528    1.5223198   438208 
 3129000    1.0142447   -3.1465856   -1.6222361  0.079968271   -3.1465856    1.5243494   438201 
 3130000    1.0159043   -3.1474171   -1.6205525  0.078476955   -3.1474171    1.5268646   438195 
 3131000    1.0136324   -3.1454994   -1.6220251  0.080485715   -3.1454994    1.5234743   438188 
 3132000    1.0137225   -3.1458856   -1.6222515  0.073755426   -3.1458856    1.5236341   438181 
 3133000    1.0141043   -3.1472453   -1.6230164  0.076300381   -3.1472453    1.5242288   438175 
 3134000    1.0144137   -3.1473205   -1.6226023  0.076200786   -3.1473205    1.5247182   438168 
 3135000    1.0123949   -3.1464367   -1.6247286   0.07769045   -3.1464367    1.5217081   438161 
 3136000    1.0129633   -3.1466398   -1.6240564  0.081345826   -3.1466398    1.5225834   438155 
 3137000    1.0130108    -3.147799     -1.62512  0.076894293    -3.147799     1.522679   438148 
 3138000    1.0131991   -3.1472573    -1.624271   0.07484681   -3.1472573    1.5229864   438141 
 3139000    1.0156086   -3.1500428   -1.6234135  0.072746311   -3.1500428    1.5266292   438135 
 3140000    1.0128272   -3.1462894   -1.6238169  0.070716524   -3.1462894    1.5224725   438128 
 3141000    1.0117063   -3.1447642   -1.6239522  0.073802943   -3.1447642     1.520812   438121 
 3142000     1.014518   -3.1471188   -1.6220594  0.076936232   -3.1471188    1.5250594   438115 
 3143000    1.0127743   -3.1443883   -1.6219257  0.080192358   -3.1443883    1.5224626   438108 
 3144000    1.0126428   -3.1430703   -1.6207812  0.075313366   -3.1430703    1.5222891   438101 
 3145000    1.0116149   -3.1434154   -1.6226505  0.077755356   -3.1434154    1.5207648   438095 
 3146000    1.0117849   -3.1441906    -1.623146  0.075710724   -3.1441906    1.5210446   438088 
 3147000    1.0129219    -3.145485   -1.6227068  0.069679139    -3.145485    1.5227782   438081 
 3148000    1.0105157   -3.1421889   -1.6230071  0.076986345   -3.1421889    1.5191818   438075 
 3149000     1.011636   -3.1425038   -1.6216135  0.070668889   -3.1425038    1.5208903   438068 
 3150000    1.0120819   -3.1421439   -1.6205589  0.077234972   -3.1421439     1.521585   438061 
 3151000    1.0136248   -3.1437644   -1.6198389  0.069792977   -3.1437644    1.5239255   438055 
 3152000    1.0130532   -3.1423069   -1.6192166  0.071789854   -3.1423069    1.5230904   438048 
 3153000     1.012737   -3.1417537   -1.6191144  0.073923702   -3.1417537    1.5226393   438041 
 3154000     1.013048   -3.1428923   -1.6197646  0.080148739   -3.1428923    1.5231277   438035 
 3155000    1.0130463   -3.1428386    -1.619689   0.07367362   -3.1428386    1.5231496   438028 
 3156000    1.0116662   -3.1391315   -1.6180326  0.076054669   -3.1391315    1.5210988   438021 
 3157000    1.0133692   -3.1411548   -1.6174746  0.068824266   -3.1411548    1.5236803   438015 
 3158000    1.0109644   -3.1389999   -1.6189111  0.080365936   -3.1389999    1.5200888   438008 
 3159000    1.0110808   -3.1394804   -1.6191924  0.079615182   -3.1394804     1.520288   438001 
 3160000     1.011736   -3.1396643   -1.6183701  0.074309525   -3.1396643    1.5212942   437995 
 3161000    1.0113399   -3.1393193   -1.6185964  0.071545218   -3.1393193    1.5207229   437988 
 3162000    1.0118983   -3.1405054   -1.6189187   0.07293456   -3.1405054    1.5215868   437981 
 3163000    1.0121513   -3.1413589   -1.6193709   0.07440514   -3.1413589     1.521988   437975 
 3164000    1.0130365   -3.1412235     -1.61788  0.076590579   -3.1412235    1.5233435   437968 
 3165000    1.0116799   -3.1407204   -1.6193926  0.070948739   -3.1407204    1.5213278   437961 
 3166000    1.0110868   -3.1418678    -1.621411  0.072655689   -3.1418678    1.5204567   437955 
 3167000    1.0101154   -3.1399929   -1.6209726   0.07259147   -3.1399929    1.5190203   437948 
 3168000    1.0110233   -3.1402316   -1.6198218  0.066025862   -3.1402316    1.5204099   437941 
 3169000    1.0115185   -3.1409492   -1.6197738  0.075708839   -3.1409492    1.5211754   437935 
 3170000    1.0124111   -3.1427752   -1.6202331  0.074480083   -3.1427752    1.5225421   437928 
 3171000    1.0131366   -3.1438203   -1.6201628  0.073931974   -3.1438203    1.5236575   437921 
 3172000    1.0127249   -3.1446877   -1.6216285  0.077263276   -3.1446877    1.5230592   437915 
 3173000    1.0129828   -3.1450997   -1.6216282  0.071905962   -3.1450997    1.5234715   437908 
 3174000    1.0122197   -3.1441204   -1.6217723  0.073250443   -3.1441204    1.5223481   437901 
 3175000     1.012585   -3.1457376   -1.6228192   0.07308499   -3.1457376    1.5229184   437895 
 3176000    1.0123277   -3.1454705   -1.6229147  0.078619502   -3.1454705    1.5225558   437888 
 3177000    1.0143001   -3.1482227    -1.622676  0.076176463   -3.1482227    1.5255466   437881 
 3178000    1.0122523   -3.1458567   -1.6233692  0.075493988   -3.1458567    1.5224875   437875 
 3179000    1.0127316   -3.1465491   -1.6233163  0.076996054   -3.1465491    1.5232328   437868 
 3180000    1.0131748   -3.1476174   -1.6236936  0.077896522   -3.1476174    1.5239238   437861 
 3181000    1.0114224   -3.1462391   -1.6249303  0.071033522   -3.1462391    1.5213088   437855 
 3182000    1.0119839   -3.1473834   -1.6252056   0.07631623   -3.1473834    1.5221778   437848 
 3183000    1.0113812   -3.1470054   -1.6257099  0.072962709   -3.1470054    1.5212955   437841 
 3184000    1.0113042   -3.1483275   -1.6271269  0.079570676   -3.1483275    1.5212005   437835 
 3185000    1.0107107   -3.1476207   -1.6272885   0.07543502   -3.1476207    1.5203321   437828 
 3186000    1.0113719   -3.1484087   -1.6270577  0.078079365   -3.1484087    1.5213509   437821 
 3187000    1.0116312   -3.1503503   -1.6285883  0.077629493   -3.1503503     1.521762   437815 
 3188000    1.0117154   -3.1482611   -1.6263482  0.076796384   -3.1482611    1.5219128   437808 
 3189000    1.0108805   -3.1475604   -1.6268791  0.071863767   -3.1475604    1.5206813   437801 
 3190000     1.011032   -3.1471698   -1.6262398   0.07408412   -3.1471698      1.52093   437795 
 3191000    1.0132012   -3.1500413   -1.6258236  0.079360669   -3.1500413    1.5242177   437788 
 3192000    1.0146632   -3.1517878   -1.6253464  0.073168341   -3.1517878    1.5264414   437781 
 3193000    1.0114245   -3.1457795   -1.6241895  0.079777393   -3.1457795      1.52159   437775 
 3194000    1.0137584   -3.1501582   -1.6250327  0.075186719   -3.1501582    1.5251255   437768 
 3195000     1.009797   -3.1460112    -1.626821  0.082051616   -3.1460112    1.5191902   437761 
 3196000    1.0107568   -3.1477067   -1.6270517  0.077577139   -3.1477067     1.520655   437755 
 3197000    1.0102379   -3.1449471   -1.6250486  0.074115899   -3.1449471    1.5198986   437748 
 3198000    1.0101424   -3.1465532   -1.6267739  0.074949933   -3.1465532    1.5197793   437741 
 3199000    1.0105029    -3.147343   -1.6270006  0.078318469    -3.147343    1.5203424   437735 
 3200000    1.0105958   -3.1466913   -1.6261848  0.070041636   -3.1466913    1.5205065   437728 
 3201000    1.0097625   -3.1463647   -1.6270876   0.07643634   -3.1463647    1.5192772   437721 
 3202000    1.0105201   -3.1457507    -1.625313  0.074352918   -3.1457507    1.5204377   437715 
 3203000    1.0100198   -3.1474691   -1.6277598  0.069212553   -3.1474691    1.5197093   437708 
 3204000    1.0097806   -3.1455014   -1.6261277  0.076192873   -3.1455014    1.5193737   437701 
 3205000    1.0089639   -3.1450976   -1.6269319  0.070838643   -3.1450976    1.5181657   437695 
 3206000    1.0099727   -3.1450899   -1.6253819  0.070945098   -3.1450899     1.519708   437688 
 3207000    1.0116548   -3.1466232   -1.6243598  0.076665524   -3.1466232    1.5222634   437681 
 3208000    1.0105771   -3.1452605   -1.6245979   0.07428004   -3.1452605    1.5206626   437675 
 3209000    1.0116888   -3.1455613   -1.6232016  0.073507471   -3.1455613    1.5223597   437668 
 3210000    1.0114348   -3.1449762   -1.6229744  0.070649822   -3.1449762    1.5220018   437661 
 3211000    1.0099911   -3.1429014   -1.6230512  0.074146278   -3.1429014    1.5198502   437655 
 3212000    1.0121587    -3.145726   -1.6225896  0.074131459    -3.145726    1.5231364   437648 
 3213000    1.0116617    -3.146788   -1.6243751  0.072503113    -3.146788    1.5224128   437641 
 3214000    1.0100386   -3.1452552   -1.6252641  0.071956585   -3.1452552    1.5199911   437635 
 3215000     1.010486   -3.1454957    -1.624807  0.071424694   -3.1454957    1.5206888   437628 
 3216000    1.0114811   -3.1461337   -1.6239232  0.073082496   -3.1461337    1.5222106   437621 
 3217000      1.01218   -3.1471653    -1.623882  0.072330952   -3.1471653    1.5232833   437615 
 3218000    1.0114632   -3.1457367   -1.6235077  0.078194641   -3.1457367     1.522229   437608 
 3219000    1.0130804   -3.1472763   -1.6225892  0.075096852   -3.1472763    1.5246871   437601 
 3220000    1.0102755   -3.1441747   -1.6236881  0.072107765   -3.1441747    1.5204867   437595 
 3221000    1.0112851   -3.1464609   -1.6244305  0.077534667   -3.1464609    1.5220305   437588 
 3222000    1.0108269    -3.146878   -1.6255128  0.074716017    -3.146878    1.5213652   437581 
 3223000    1.0096582   -3.1447918   -1.6251648  0.071210857   -3.1447918     1.519627   437575 
 3224000    1.0099391   -3.1457359   -1.6256617   0.07779057   -3.1457359    1.5200742   437568 
 3225000    1.0116316   -3.1477743   -1.6251284   0.07695449   -3.1477743    1.5226459   437561 
 3226000     1.010631   -3.1468807     -1.62572  0.074825268   -3.1468807    1.5211607   437555 
 3227000    1.0109524   -3.1484754   -1.6268067  0.075043472   -3.1484754    1.5216687   437548 
 3228000     1.011515   -3.1491612   -1.6266212  0.071981978   -3.1491612      1.52254   437541 
 3229000    1.0103276   -3.1473332   -1.6265597  0.075078764   -3.1473332    1.5207736   437535 
 3230000    1.0098271   -3.1472525   -1.6272081  0.071969113   -3.1472525    1.5200445   437528 
 3231000    1.0098369   -3.1491203   -1.6290368  0.073567858   -3.1491203    1.5200835   437521 
 3232000    1.0100427   -3.1482362    -1.627822  0.069207827   -3.1482362    1.5204143   437515 
 3233000    1.0099469   -3.1468096   -1.6265153  0.070746813   -3.1468096    1.5202942   437508 
 3234000    1.0099938   -3.1489686   -1.6285794  0.070557434   -3.1489686    1.5203892   437501 
 3235000      1.00913    -3.147652   -1.6285421  0.069879931    -3.147652    1.5191098   437495 
 3236000    1.0107219   -3.1500289   -1.6284984  0.075359856   -3.1500289    1.5215305   437488 
 3237000    1.0095444   -3.1514934   -1.6317111  0.069449611   -3.1514934    1.5197823   437481 
 3238000    1.0090937   -3.1490575   -1.6299329  0.075411919   -3.1490575    1.5191246   437475 
 3239000    1.0105277   -3.1501492   -1.6288414  0.073031301   -3.1501492    1.5213077   437468 
 3240000    1.0102607    -3.149653    -1.628723  0.075289676    -3.149653      1.52093   437461 
 3241000    1.0102758   -3.1494173   -1.6284437  0.079890453   -3.1494173    1.5209736   437455 
 3242000    1.0117644   -3.1513765   -1.6281373  0.071892813   -3.1513765    1.5232392   437448 
 3243000    1.0108142   -3.1511657   -1.6293328  0.071951315   -3.1511657    1.5218329   437441 
 3244000    1.0095808   -3.1498845   -1.6298876  0.073920749   -3.1498845    1.5199969   437435 
 3245000     1.010526   -3.1498155   -1.6283713  0.074196897   -3.1498155    1.5214442   437428 
 3246000    1.0111063   -3.1522275   -1.6298851  0.071597145   -3.1522275    1.5223424   437421 
 3247000      1.00959   -3.1496429   -1.6295628  0.073863322   -3.1496429    1.5200802   437415 
 3248000    1.0093765    -3.150681   -1.6308979  0.077417568    -3.150681    1.5197831   437408 
 3249000    1.0087578   -3.1488906   -1.6300147  0.069230953   -3.1488906    1.5188759   437401 
 3250000    1.0109423   -3.1505427   -1.6283567  0.066866965   -3.1505427    1.5221859   437395 
 3251000     1.010495   -3.1491914   -1.6276547  0.069621529   -3.1491914    1.5215368   437388 
 3252000    1.0090339   -3.1469992   -1.6276381  0.072284715   -3.1469992    1.5193611   437381 
 3253000    1.0107266   -3.1487933   -1.6268626   0.07476633   -3.1487933    1.5219307   437375 
 3254000    1.0093026   -3.1471316   -1.6273207  0.075764537   -3.1471316    1.5198108   437368 
 3255000    1.0092715   -3.1477271   -1.6279389  0.075092994   -3.1477271    1.5197882   437361 
 3256000    1.0119523   -3.1510847   -1.6272386  0.074352037   -3.1510847    1.5238461   437355 
 3257000    1.0095382   -3.1495925   -1.6293575  0.070722206   -3.1495925    1.5202351   437348 
 3258000    1.0103406     -3.14943   -1.6279623  0.074939677     -3.14943    1.5214677   437341 
 3259000    1.0099517   -3.1491691   -1.6282661  0.074612984   -3.1491691     1.520903   437335 
 3260000    1.0111946   -3.1497329   -1.6269339  0.076113076   -3.1497329     1.522799   437328 
 3261000    1.0100952   -3.1470338   -1.6258661  0.075672877   -3.1470338    1.5211677   437321 
 3262000    1.0097951   -3.1474787    -1.626742  0.073739492   -3.1474787    1.5207367   437315 
 3263000    1.0095346   -3.1478636   -1.6274949  0.075792874   -3.1478636    1.5203687   437308 
 3264000    1.0099796   -3.1480965   -1.6270333  0.071353378   -3.1480965    1.5210632   437301 
 3265000    1.0109055   -3.1498095    -1.627331  0.069349171   -3.1498095    1.5224786   437295 
 3266000    1.0095921   -3.1489813   -1.6284565  0.074205781   -3.1489813    1.5205248   437288 
 3267000    1.0093831   -3.1493989   -1.6291645  0.070542834   -3.1493989    1.5202344   437281 
 3268000    1.0082038   -3.1495162   -1.6310372  0.072841864   -3.1495162    1.5184791   437275 
 3269000      1.00827   -3.1494071    -1.630804  0.068660844   -3.1494071     1.518603   437268 
 3270000    1.0091324   -3.1503534   -1.6304271  0.071028917   -3.1503534    1.5199263   437261 
 3271000    1.0093924   -3.1503664   -1.6300275  0.067352447   -3.1503664    1.5203388   437255 
 3272000     1.009665    -3.150666   -1.6298922  0.071935362    -3.150666    1.5207738   437248 
 3273000    1.0105544   -3.1530551   -1.6309173  0.070386584   -3.1530551    1.5221378   437241 
 3274000    1.0101657   -3.1524208   -1.6308476  0.075932162   -3.1524208    1.5215731   437235 
 3275000    1.0102345   -3.1533148   -1.6316137  0.075934841   -3.1533148    1.5217011   437228 
 3276000    1.0094993   -3.1531216   -1.6325035   0.07164449   -3.1531216     1.520618   437221 
 3277000    1.0115875   -3.1562817   -1.6324972  0.073054685   -3.1562817    1.5237845   437215 
 3278000    1.0093301   -3.1531054   -1.6326971  0.079498921   -3.1531054    1.5204083   437208 
 3279000    1.0104931   -3.1544862   -1.6323016  0.076766228   -3.1544862    1.5221846   437201 
 3280000    1.0111215   -3.1550842   -1.6319321  0.076346039   -3.1550842    1.5231521   437195 
 3281000     1.010072   -3.1525394   -1.6309439  0.076818418   -3.1525394    1.5215955   437188 
 3282000    1.0111084   -3.1549542   -1.6317729  0.076977496   -3.1549542    1.5231813   437181 
 3283000    1.0106488   -3.1564042   -1.6338944  0.076580663   -3.1564042    1.5225098   437175 
 3284000    1.0095863   -3.1555184   -1.6345849  0.075634432   -3.1555184    1.5209335   437168 
 3285000    1.0119778   -3.1581103   -1.6335497  0.078812951   -3.1581103    1.5245606   437161 
 3286000    1.0092221   -3.1535442   -1.6331142  0.077714897   -3.1535442      1.52043   437155 
 3287000    1.0087783   -3.1531312   -1.6333455  0.075744323   -3.1531312    1.5197857   437148 
 3288000    1.0099923   -3.1567379   -1.6350988  0.072781988   -3.1567379    1.5216391   437141 
 3289000    1.0091804   -3.1540521   -1.6336154  0.072159508   -3.1540521    1.5204367   437135 
 3290000    1.0086014   -3.1534843   -1.6338956  0.069022118   -3.1534843    1.5195887   437128 
 3291000    1.0085782   -3.1527195   -1.6331414  0.075943142   -3.1527195    1.5195781   437121 
 3292000    1.0096273   -3.1545705   -1.6333909  0.073244744   -3.1545705    1.5211796   437115 
 3293000    1.0080124   -3.1532973   -1.6345264  0.073156419   -3.1532973    1.5187709   437108 
 3294000    1.0075164   -3.1518271   -1.6337793  0.071165322   -3.1518271    1.5180478   437101 
 3295000    1.0092683   -3.1550897   -1.6343813  0.073607775   -3.1550897    1.5207084   437095 
 3296000    1.0089741   -3.1537765    -1.633487  0.076696037   -3.1537765    1.5202894   437088 
 3297000    1.0083723   -3.1516054   -1.6321985   0.07326522   -3.1516054    1.5194069   437081 
 3298000    1.0073707   -3.1511728   -1.6332542  0.078444702   -3.1511728    1.5179185   437075 
 3299000    1.0090857   -3.1530572   -1.6325301  0.072835128   -3.1530572    1.5205271   437068 
 3300000    1.0087729    -3.152428   -1.6323478   0.07979841    -3.152428    1.5200802   437061 
 3301000    1.0098161   -3.1520728   -1.6303997  0.078242066   -3.1520728     1.521673   437055 
 3302000    1.0086077   -3.1520426   -1.6321661  0.070429207   -3.1520426    1.5198764   437048 
 3303000    1.0087724   -3.1534012   -1.6332522  0.075766842   -3.1534012     1.520149   437041 
 3304000    1.0101111   -3.1546091   -1.6324219  0.079537309   -3.1546091    1.5221871   437035 
 3305000    1.0086853   -3.1528939    -1.632831  0.077273839   -3.1528939    1.5200629   437028 
 3306000    1.0087667   -3.1527622   -1.6325523  0.070336354   -3.1527622    1.5202099   437021 
 3307000    1.0095337   -3.1537848   -1.6323981  0.068309312   -3.1537848    1.5213867   437015 
 3308000    1.0089002   -3.1530455   -1.6325891  0.073248741   -3.1530455    1.5204564   437008 
 3309000    1.0077626   -3.1514099   -1.6326436  0.074656861   -3.1514099    1.5187663   437001 
 3310000     1.008231   -3.1530305   -1.6335374  0.072580676   -3.1530305    1.5194931   436995 
 3311000    1.0064981   -3.1518263   -1.6349206  0.074379149   -3.1518263    1.5169057   436988 
 3312000    1.0072118   -3.1521568   -1.6341511  0.072022453   -3.1521568    1.5180057   436981 
 3313000    1.0083534   -3.1534387   -1.6336917   0.06797001   -3.1534387     1.519747   436975 
 3314000    1.0083536   -3.1539174   -1.6341456  0.077844774   -3.1539174    1.5197718   436968 
 3315000    1.0089562   -3.1556376   -1.6349333   0.06934591   -3.1556376    1.5207042   436961 
 3316000    1.0096957   -3.1557549   -1.6339151  0.071210969   -3.1557549    1.5218398   436955 
 3317000    1.0071436   -3.1528374   -1.6348199  0.075265471   -3.1528374    1.5180174   436948 
 3318000    1.0081357   -3.1537686   -1.6342315   0.07540786   -3.1537686    1.5195372   436941 
 3319000    1.0067578   -3.1530552   -1.6355741  0.075793113   -3.1530552    1.5174811   436935 
 3320000    1.0083443   -3.1563464   -1.6364496  0.074399641   -3.1563464    1.5198968   436928 
 3321000    1.0090297   -3.1566735   -1.6357193  0.073874512   -3.1566735    1.5209543   436921 
 3322000    1.0090356   -3.1583028   -1.6373187  0.068269627   -3.1583028    1.5209841   436915 
 3323000    1.0085109   -3.1563262   -1.6361088  0.078472275   -3.1563262    1.5202175   436908 
 3324000    1.0108835   -3.1582852   -1.6344668  0.077131155   -3.1582852    1.5238184   436901 
 3325000    1.0092634    -3.159292   -1.6378949  0.073767332    -3.159292    1.5213971   436895 
 3326000     1.008487   -3.1592923   -1.6390413  0.076052254   -3.1592923     1.520251   436888 
 3327000    1.0071539   -3.1580633   -1.6397975  0.072432597   -3.1580633    1.5182658   436881 
 3328000    1.0086819   -3.1594085   -1.6388184  0.074748091   -3.1594085    1.5205901   436875 
 3329000    1.0095566   -3.1597799   -1.6378468  0.076787486   -3.1597799    1.5219331   436868 
 3330000    1.0080929   -3.1590209   -1.6392699  0.075918898   -3.1590209     1.519751   436861 
 3331000    1.0081147   -3.1597109   -1.6399063  0.073679131   -3.1597109    1.5198046   436855 
 3332000    1.0070464   -3.1584271   -1.6402087  0.074306684   -3.1584271    1.5182184   436848 
 3333000    1.0080073   -3.1601828   -1.6404914  0.071949448   -3.1601828    1.5196915   436841 
 3334000    1.0087981   -3.1598488   -1.6389442  0.069624819   -3.1598488    1.5209046   436835 
 3335000    1.0093271   -3.1600143   -1.6382879  0.071802814   -3.1600143    1.5217264   436828 
 3336000    1.0089666   -3.1593319   -1.6381245  0.070008627   -3.1593319    1.5212074   436821 
 3337000    1.0080557   -3.1592593   -1.6394044  0.075266627   -3.1592593    1.5198549   436815 
 3338000    1.0082142   -3.1590834   -1.6389652  0.068903628   -3.1590834    1.5201182   436808 
 3339000    1.0073032   -3.1571648   -1.6383958  0.076457506   -3.1571648     1.518769   436801 
 3340000     1.008623   -3.1581968    -1.637417  0.078566062   -3.1581968    1.5207798   436795 
 3341000    1.0089231   -3.1593453   -1.6380886  0.073049316   -3.1593453    1.5212567   436788 
 3342000    1.0088857   -3.1606569   -1.6394322  0.071311045   -3.1606569    1.5212246   436781 
 3343000    1.0082631   -3.1597587   -1.6394519  0.073081527   -3.1597587    1.5203067   436775 
 3344000    1.0079639   -3.1605767   -1.6406967  0.068534741   -3.1605767    1.5198801   436768 
 3345000    1.0073309   -3.1594914   -1.6405415    0.0718151   -3.1594914    1.5189499   436761 
 3346000    1.0074143   -3.1586744   -1.6395779  0.073241152   -3.1586744    1.5190965   436755 
 3347000    1.0073403   -3.1591401   -1.6401309  0.071826678   -3.1591401    1.5190092   436748 
 3348000    1.0064608   -3.1577958   -1.6400885  0.073682821   -3.1577958    1.5177073   436741 
 3349000    1.0094351   -3.1607032   -1.6384898  0.076549218   -3.1607032    1.5222133   436735 
 3350000    1.0086689   -3.1592312   -1.6381489  0.073586344   -3.1592312    1.5210823   436728 
 3351000    1.0085796   -3.1581354   -1.6371634  0.070624414   -3.1581354     1.520972   436721 
 3352000    1.0074997   -3.1573784    -1.638014   0.07700866   -3.1573784    1.5193644   436715 
 3353000     1.006949   -3.1574059   -1.6388475  0.075226028   -3.1574059    1.5185583   436708 
 3354000    1.0071822   -3.1584743   -1.6395401  0.071611523   -3.1584743    1.5189342   436701 
 3355000    1.0054614   -3.1559049    -1.639545  0.077823543   -3.1559049    1.5163599   436695 
 3356000    1.0075163   -3.1600003   -1.6405169  0.074187947   -3.1600003    1.5194834   436688 
 3357000    1.0063753   -3.1591577   -1.6413709  0.073146779   -3.1591577    1.5177868   436681 
 3358000    1.0069903   -3.1604291   -1.6416939  0.068687908   -3.1604291    1.5187353   436675 
 3359000    1.0067588   -3.1588273   -1.6404167  0.069932387   -3.1588273    1.5184106   436668 
 3360000    1.0065027   -3.1579235   -1.6398749   0.07379748   -3.1579235    1.5180486   436661 
 3361000     1.006848   -3.1582369   -1.6396466  0.070364569   -3.1582369    1.5185902   436655 
 3362000    1.0075154   -3.1592494   -1.6396282  0.080593162   -3.1592494    1.5196212   436648 
 3363000    1.0070643   -3.1583819   -1.6394168  0.070811779   -3.1583819    1.5189651   436641 
 3364000    1.0070482   -3.1577684   -1.6388066  0.077124327   -3.1577684    1.5189618   436635 
 3365000    1.0083392   -3.1603908   -1.6394574  0.071862543   -3.1603908    1.5209334   436628 
 3366000    1.0093722   -3.1613419   -1.6388259  0.073997536   -3.1613419     1.522516   436621 
 3367000    1.0067406   -3.1582841   -1.6397168  0.077249214   -3.1582841    1.5185673   436615 
 3368000    1.0070576   -3.1601577   -1.6410878  0.076856273   -3.1601577    1.5190699   436608 
 3369000    1.0070936   -3.1586123   -1.6394637  0.073570277   -3.1586123    1.5191486   436601 
 3370000    1.0081013   -3.1598134   -1.6391239  0.073603632   -3.1598134    1.5206895   436595 
 3371000    1.0064615   -3.1575752   -1.6393349  0.072379968   -3.1575752    1.5182403   436588 
 3372000    1.0069295   -3.1585153   -1.6395447  0.075107557   -3.1585153    1.5189706   436581 
 3373000    1.0070223   -3.1589849   -1.6398534  0.074483814   -3.1589849    1.5191315   436575 
 3374000    1.0066813   -3.1577868   -1.6391454  0.076263282   -3.1577868    1.5186414   436568 
 3375000    1.0046332   -3.1566885   -1.6411125  0.071762366   -3.1566885    1.5155761   436561 
 3376000    1.0063312    -3.157734   -1.6395756  0.068633708    -3.157734    1.5181584   436555 
 3377000    1.0071572   -3.1587531   -1.6393242  0.073718224   -3.1587531    1.5194289   436548 
 3378000    1.0074325   -3.1595184   -1.6396497  0.076757027   -3.1595184    1.5198687   436541 
 3379000    1.0067448   -3.1590884   -1.6402364  0.070038578   -3.1590884     1.518852   436535 
 3380000    1.0069433   -3.1599762   -1.6408003  0.071746299   -3.1599762    1.5191759   436528 
 3381000    1.0069588   -3.1606387   -1.6414152   0.07462223   -3.1606387    1.5192235   436521 
 3382000    1.0068636    -3.160124   -1.6410232  0.071220516    -3.160124    1.5191008   436515 
 3383000    1.0076012    -3.160859   -1.6406209  0.073656118    -3.160859    1.5202381   436508 
 3384000    1.0076465   -3.1608934   -1.6405626  0.074739136   -3.1608934    1.5203309   436501 
 3385000    1.0077921   -3.1599376   -1.6393663  0.080170365   -3.1599376    1.5205714   436495 
 3386000    1.0051337    -3.157844   -1.6412594  0.073969999    -3.157844    1.5165846   436488 
 3387000    1.0065697   -3.1592718   -1.6404961  0.076732382   -3.1592718    1.5187757   436481 
 3388000    1.0068473   -3.1597514   -1.6405359  0.073885528   -3.1597514    1.5192155   436475 
 3389000    1.0073621   -3.1599236    -1.639907  0.075857024   -3.1599236    1.5200165   436468 
 3390000    1.0072104   -3.1592818   -1.6394697  0.071355002   -3.1592818    1.5198121   436461 
 3391000    1.0067778   -3.1597825   -1.6406023  0.073965237   -3.1597825    1.5191802   436455 
 3392000    1.0064371   -3.1590549   -1.6403645  0.073010584   -3.1590549    1.5186904   436448 
 3393000    1.0060668   -3.1578485   -1.6396925  0.077502779   -3.1578485    1.5181561   436441 
 3394000    1.0057491   -3.1581202   -1.6404228  0.076013399   -3.1581202    1.5176974   436435 
 3395000    1.0075038   -3.1594131   -1.6390433  0.074372821   -3.1594131    1.5203698   436428 
 3396000    1.0075083   -3.1573152   -1.6369143  0.073301211   -3.1573152    1.5204009   436421 
 3397000    1.0074692   -3.1590091   -1.6386462  0.070889188   -3.1590091    1.5203629   436415 
 3398000    1.0061309   -3.1578321   -1.6394645   0.07647412   -3.1578321    1.5183676   436408 
 3399000    1.0053332   -3.1573648   -1.6401767  0.072837338   -3.1573648    1.5171881   436401 
 3400000     1.006659   -3.1608781   -1.6416683  0.069808894   -3.1608781    1.5192098   436395 
 3401000     1.006001   -3.1600084   -1.6417674  0.068090591   -3.1600084    1.5182411   436388 
 3402000    1.0056824   -3.1600476   -1.6422629  0.068880656   -3.1600476    1.5177847   436381 
 3403000    1.0050151   -3.1603405   -1.6435421  0.068500175   -3.1603405    1.5167984   436375 
 3404000    1.0064544   -3.1630378   -1.6440428  0.070639853   -3.1630378     1.518995   436368 
 3405000    1.0052013   -3.1614505   -1.6443225  0.072519958   -3.1614505     1.517128   436361 
 3406000    1.0050914   -3.1618568   -1.6448738  0.070124115   -3.1618568     1.516983   436355 
 3407000    1.0053433   -3.1607416    -1.643354  0.071651743   -3.1607416    1.5173876   436348 
 3408000    1.0061839   -3.1602636   -1.6415829  0.079433418   -3.1602636    1.5186807   436341 
 3409000    1.0045123   -3.1591332   -1.6429547  0.071533205   -3.1591332    1.5161785   436335 
 3410000     1.005646   -3.1621836   -1.6442696  0.070377371   -3.1621836     1.517914   436328 
 3411000    1.0053388   -3.1610874   -1.6436128  0.077123698   -3.1610874    1.5174746   436321 
 3412000    1.0055014    -3.162263    -1.644522  0.073271058    -3.162263     1.517741   436315 
 3413000    1.0068762   -3.1648958   -1.6450553  0.072320748   -3.1648958    1.5198406   436308 
 3414000    1.0065331   -3.1649513   -1.6456043   0.07394705   -3.1649513     1.519347   436301 
 3415000    1.0066286   -3.1654802   -1.6459681  0.078959328   -3.1654802    1.5195122   436295 
 3416000    1.0062423   -3.1646283    -1.645675    0.0755235   -3.1646283    1.5189533   436288 
 3417000    1.0072365     -3.16524   -1.6447616  0.068736988     -3.16524    1.5204785   436281 
 3418000    1.0073927   -3.1661735   -1.6454382  0.070393041   -3.1661735    1.5207353   436275 
 3419000    1.0059191   -3.1643478   -1.6458127  0.073807714   -3.1643478    1.5185351   436268 
 3420000    1.0043811   -3.1629253   -1.6466877  0.069319669   -3.1629253    1.5162377   436261 
 3421000    1.0056599   -3.1640886   -1.6458996  0.073096578   -3.1640886     1.518189   436255 
 3422000    1.0051755   -3.1646026   -1.6471204  0.072251679   -3.1646026    1.5174822   436248 
 3423000     1.005435   -3.1640036   -1.6461054  0.074452156   -3.1640036    1.5178982   436241 
 3424000    1.0066196   -3.1660964   -1.6463889   0.07034532   -3.1660964    1.5197076   436235 
 3425000    1.0057281   -3.1645752   -1.6461892  0.070563987   -3.1645752     1.518386   436228 
 3426000    1.0060732   -3.1664878   -1.6475564  0.073077535   -3.1664878    1.5189314   436221 
 3427000    1.0055588   -3.1646626    -1.646487   0.07640157   -3.1646626    1.5181755   436215 
 3428000    1.0037101   -3.1636539   -1.6482451  0.074471186   -3.1636539    1.5154088   436208 
 3429000    1.0032116   -3.1638025   -1.6491221  0.064571368   -3.1638025    1.5146805   436201 
 3430000    1.0042237   -3.1641887   -1.6479592  0.070274218   -3.1641887    1.5162295   436195 
 3431000    1.0052641   -3.1658596   -1.6480351  0.074721023   -3.1658596    1.5178245   436188 
 3432000    1.0033736   -3.1638419   -1.6488474  0.071426397   -3.1638419    1.5149945   436181 
 3433000       1.0025    -3.163341   -1.6496448  0.069952659    -3.163341    1.5136963   436175 
 3434000     1.003749   -3.1655982   -1.6499917  0.067756782   -3.1655982    1.5156065   436168 
 3435000    1.0038432   -3.1648952   -1.6491222  0.070986503   -3.1648952    1.5157731   436161 
 3436000    1.0038265   -3.1664812   -1.6507124   0.07188776   -3.1664812    1.5157687   436155 
 3437000    1.0036178   -3.1653272   -1.6498492  0.070637428   -3.1653272    1.5154779   436148 
 3438000    1.0031809   -3.1650811   -1.6502386  0.068044579   -3.1650811    1.5148425   436141 
 3439000    1.0050356   -3.1666068   -1.6489427  0.072357895   -3.1666068    1.5176641   436135 
 3440000    1.0045265   -3.1666739   -1.6497542   0.07051497   -3.1666739    1.5169196   436128 
 3441000    1.0046653   -3.1672107   -1.6500572  0.070508828   -3.1672107    1.5171535   436121 
 3442000    1.0047953    -3.167952   -1.6505812   0.07231435    -3.167952    1.5173708   436115 
 3443000    1.0058661   -3.1690535   -1.6500413   0.07606657   -3.1690535    1.5190122   436108 
 3444000    1.0043256   -3.1657383   -1.6490281  0.072299251   -3.1657383    1.5167101   436101 
 3445000    1.0047143   -3.1663222   -1.6490042  0.076431373   -3.1663222     1.517318   436095 
 3446000    1.0057835   -3.1664537   -1.6474966  0.079174301   -3.1664537    1.5189571   436088 
 3447000    1.0053945   -3.1665055   -1.6481116  0.071471512   -3.1665055     1.518394   436081 
 3448000    1.0048741   -3.1651135   -1.6474846  0.075278942   -3.1651135    1.5176289   436075 
 3449000    1.0033536   -3.1640103   -1.6486535  0.075491505   -3.1640103    1.5153568   436068 
 3450000    1.0047728    -3.166101   -1.6485763  0.072143181    -3.166101    1.5175246   436061 
 3451000     1.005927   -3.1665975   -1.6473087  0.072370942   -3.1665975    1.5192888   436055 
 3452000    1.0037378   -3.1662005   -1.6501939   0.06692697   -3.1662005    1.5160066   436048 
 3453000    1.0038421   -3.1662404   -1.6500519  0.073461434   -3.1662404    1.5161885   436041 
 3454000    1.0034897   -3.1649242    -1.649247  0.075468001   -3.1649242    1.5156772   436035 
 3455000    1.0028043   -3.1633819   -1.6487156  0.071621836   -3.1633819    1.5146663   436028 
 3456000    1.0037009   -3.1633389   -1.6472942  0.065618578   -3.1633389    1.5160447   436021 
 3457000    1.0039875   -3.1642872   -1.6477887  0.072242095   -3.1642872    1.5164985   436015 
 3458000    1.0018757   -3.1629494   -1.6496162  0.067202565   -3.1629494    1.5133331   436008 
 3459000    1.0017998   -3.1618789   -1.6486362  0.069243306   -3.1618789    1.5132427   436001 
 3460000    1.0035238   -3.1639245   -1.6480568  0.069008823   -3.1639245    1.5158677   435995 
 3461000    1.0032177   -3.1634019   -1.6479723  0.069953083   -3.1634019    1.5154297   435988 
 3462000    1.0044655   -3.1655968   -1.6482579  0.068359712   -3.1655968    1.5173389   435981 
 3463000    1.0046561   -3.1656372   -1.6479895  0.072556868   -3.1656372    1.5176477   435975 
 3464000    1.0055626    -3.165348   -1.6463065  0.070843994    -3.165348    1.5190414   435968 
 3465000    1.0061409   -3.1657387   -1.6457993   0.07295538   -3.1657387    1.5199394   435961 
 3466000    1.0064098   -3.1670304   -1.6466638  0.072459992   -3.1670304    1.5203666   435955 
 3467000    1.0034498   -3.1618496   -1.6459304  0.074433414   -3.1618496    1.5159193   435948 
 3468000    1.0060783   -3.1647408   -1.6448261  0.077358878   -3.1647408    1.5199146   435941 
 3469000    1.0048301   -3.1653133   -1.6472635  0.071047855   -3.1653133    1.5180498   435935 
 3470000    1.0062131   -3.1676733   -1.6475097  0.070829323   -3.1676733    1.5201637   435928 
 3471000    1.0035741   -3.1637609   -1.6475599  0.074454172   -3.1637609     1.516201   435921 
 3472000    1.0046126   -3.1659953   -1.6482045  0.066909636   -3.1659953    1.5177909   435915 
 3473000    1.0034407   -3.1646372   -1.6485926    0.0679514   -3.1646372    1.5160446   435908 
 3474000    1.0051577   -3.1670127   -1.6483495  0.072442064   -3.1670127    1.5186632   435901 
 3475000    1.0038884   -3.1657688   -1.6490025  0.074680197   -3.1657688    1.5167663   435895 
 3476000    1.0020134   -3.1644352   -1.6504774  0.070442755   -3.1644352    1.5139578   435888 
 3477000    1.0045359   -3.1676033     -1.64981  0.070475004   -3.1676033    1.5177933   435881 
 3478000    1.0037566   -3.1671816   -1.6505447  0.064229784   -3.1671816    1.5166368   435875 
 3479000    1.0040345   -3.1653721    -1.648291  0.074563289   -3.1653721    1.5170811   435868 
 3480000    1.0044106   -3.1654601   -1.6477864  0.078666529   -3.1654601    1.5176737   435861 
 3481000    1.0043803   -3.1667814   -1.6491326  0.072129729   -3.1667814    1.5176488   435855 
 3482000     1.004602   -3.1669352    -1.648927   0.07313937   -3.1669352    1.5180082   435848 
 3483000    1.0065345   -3.1692586   -1.6483058  0.073077824   -3.1692586    1.5209527   435841 
 3484000    1.0058654   -3.1680892   -1.6481266  0.073158012   -3.1680892    1.5199627   435835 
 3485000    1.0058563   -3.1684485   -1.6484753  0.072880194   -3.1684485    1.5199732   435828 
 3486000    1.0053152    -3.168109   -1.6489291  0.075181639    -3.168109    1.5191799   435821 
 3487000     1.004139    -3.166893   -1.6494695  0.075423364    -3.166893    1.5174235   435815 
 3488000    1.0045243   -3.1669714   -1.6489413  0.078241688   -3.1669714    1.5180301   435808 
 3489000    1.0057558    -3.169751   -1.6498356  0.068076742    -3.169751    1.5199155   435801 
 3490000     1.004123   -3.1685514   -1.6510825  0.075183555   -3.1685514    1.5174689   435795 
 3491000    1.0046213   -3.1693681   -1.6511218  0.073327819   -3.1693681    1.5182463   435788 
 3492000    1.0048797   -3.1698215   -1.6511603  0.074550535   -3.1698215    1.5186612   435781 
 3493000    1.0064461   -3.1721895   -1.6511401  0.070883145   -3.1721895    1.5210494   435775 
 3494000    1.0038894   -3.1677785   -1.6505685  0.073459693   -3.1677785    1.5172099   435768 
 3495000    1.0047389    -3.168759   -1.6502408  0.076817553    -3.168759    1.5185182   435761 
 3496000    1.0049672    -3.168712   -1.6498279  0.077495328    -3.168712    1.5188841   435755 
 3497000    1.0072606   -3.1719213   -1.6495465  0.077309349   -3.1719213    1.5223748   435748 
 3498000    1.0062217   -3.1701681   -1.6493391  0.071267203   -3.1701681     1.520829   435741 
 3499000    1.0052907   -3.1687251   -1.6492823  0.069215697   -3.1687251    1.5194428   435735 
 3500000     1.005001    -3.167293   -1.6482637  0.072643203    -3.167293    1.5190294   435728 
 3501000    1.0058057   -3.1688752   -1.6486051  0.072173863   -3.1688752    1.5202701   435721 
 3502000    1.0064544   -3.1692702   -1.6479986  0.065525796   -3.1692702    1.5212716   435715 
 3503000    1.0045244   -3.1662093   -1.6478306  0.073508138   -3.1662093    1.5183786   435708 
 3504000      1.00416    -3.165087   -1.6472348  0.075946687    -3.165087    1.5178522   435701 
 3505000    1.0047444    -3.165896   -1.6471394  0.074081826    -3.165896    1.5187566   435695 
 3506000    1.0045592   -3.1670123   -1.6485114  0.065064181   -3.1670123     1.518501   435688 
 3507000    1.0043162   -3.1661714   -1.6480133  0.070214013   -3.1661714    1.5181581   435681 
 3508000    1.0029026   -3.1636666   -1.6476245  0.070212284   -3.1636666    1.5160421   435675 
 3509000    1.0036851   -3.1654412   -1.6481918  0.065876938   -3.1654412    1.5172494   435668 
 3510000    1.0028957   -3.1642458   -1.6481654  0.074789625   -3.1642458    1.5160804   435661 
 3511000    1.0021027   -3.1632081   -1.6483057  0.070461695   -3.1632081    1.5149024   435655 
 3512000    1.0016353   -3.1620802   -1.6478601  0.061130153   -3.1620802    1.5142201   435648 
 3513000    1.0026554   -3.1637688   -1.6479822  0.072342107   -3.1637688    1.5157866   435641 
 3514000    1.0026509   -3.1649489   -1.6491481   0.06516457   -3.1649489    1.5158008   435635 
 3515000    1.0027435   -3.1635271    -1.647562  0.076198915   -3.1635271    1.5159651   435628 
 3516000    1.0021772   -3.1630344   -1.6479011  0.066003009   -3.1630344    1.5151334   435621 
 3517000    1.0032733   -3.1653435   -1.6485321  0.066381734   -3.1653435    1.5168114   435615 
 3518000     1.004567   -3.1664771   -1.6476855  0.068743521   -3.1664771    1.5187917   435608 
 3519000    1.0033415   -3.1646262    -1.647663  0.072705026   -3.1646262    1.5169632   435601 
 3520000    1.0037949   -3.1661239   -1.6484544  0.075068325   -3.1661239    1.5176695   435595 
 3521000    1.0037306   -3.1672834   -1.6496866  0.067352593   -3.1672834    1.5175968   435588 
 3522000    1.0031941    -3.167535    -1.650725  0.073918269    -3.167535      1.51681   435581 
 3523000    1.0025293   -3.1674207    -1.651595  0.073244417   -3.1674207    1.5158257   435575 
 3524000    1.0044308   -3.1694168   -1.6506916  0.072815652   -3.1694168    1.5187252   435568 
 3525000    1.0041126   -3.1686119   -1.6503434  0.067942146   -3.1686119    1.5182685   435561 
 3526000    1.0022589   -3.1656601   -1.6501736   0.07208609   -3.1656601    1.5154864   435555 
 3527000    1.0020771   -3.1655746   -1.6503388   0.07408429   -3.1655746    1.5152358   435548 
 3528000     1.004016    -3.168906   -1.6507139  0.070928349    -3.168906    1.5181921   435541 
 3529000    1.0031571   -3.1685366   -1.6516224  0.071225171   -3.1685366    1.5169142   435535 
 3530000    1.0026432   -3.1680282   -1.6518667   0.07084937   -3.1680282    1.5161614   435528 
 3531000    1.0028634   -3.1696678   -1.6531489  0.072167054   -3.1696678    1.5165189   435521 
 3532000    1.0039457    -3.170967   -1.6527905  0.073424883    -3.170967    1.5181764   435515 
 3533000    1.0036158   -3.1703215   -1.6526195  0.074120119   -3.1703215    1.5177019   435508 
 3534000    1.0049041   -3.1729437   -1.6532691  0.071466646   -3.1729437    1.5196746   435501 
 3535000    1.0038493    -3.170428   -1.6523276  0.070956048    -3.170428    1.5181003   435495 
 3536000    1.0057199    -3.173772   -1.6528182  0.069842969    -3.173772    1.5209537   435488 
 3537000    1.0050909   -3.1736872   -1.6536603  0.075458999   -3.1736872    1.5200269   435481 
 3538000    1.0036805   -3.1721042   -1.6541894  0.075229268   -3.1721042    1.5179148   435475 
 3539000    1.0044339   -3.1729667   -1.6538881  0.075556869   -3.1729667    1.5190786   435468 
 3540000    1.0046474   -3.1749445   -1.6555186  0.069826475   -3.1749445    1.5194259   435461 
 3541000    1.0034904   -3.1718852   -1.6541882  0.079581216   -3.1718852     1.517697   435455 
 3542000    1.0023603   -3.1715158   -1.6555037  0.072802837   -3.1715158    1.5160122   435448 
 3543000    1.0027766   -3.1727853   -1.6561191  0.068322584   -3.1727853    1.5166662   435441 
 3544000    1.0011509   -3.1704075   -1.6561793  0.071034695   -3.1704075    1.5142283   435435 
 3545000    1.0009141   -3.1711636   -1.6572692  0.072120878   -3.1711636    1.5138944   435428 
 3546000    1.0003559   -3.1711646   -1.6580902  0.068174741   -3.1711646    1.5130745   435421 
 3547000    1.0008938   -3.1707491   -1.6568402  0.072835593   -3.1707491    1.5139089   435415 
 3548000    1.0014959    -3.170941   -1.6560971  0.070121389    -3.170941    1.5148439   435408 
 3549000    1.0010834    -3.169873   -1.6556287  0.073580997    -3.169873    1.5142443   435401 
 3550000     1.001065    -3.170119   -1.6558817  0.065756117    -3.170119    1.5142374   435395 
 3551000    1.0009239   -3.1688066   -1.6547583  0.073189326   -3.1688066    1.5140483   435388 
 3552000    1.0018143   -3.1696824   -1.6542628  0.068630459   -3.1696824    1.5154195   435381 
 3553000    1.0009768   -3.1683653   -1.6541919  0.075426922   -3.1683653    1.5141735   435375 
 3554000    1.0013322   -3.1694223   -1.6546867  0.069304623   -3.1694223    1.5147355   435368 
 3555000    1.0030703   -3.1718051   -1.6544159  0.075234272   -3.1718051    1.5173892   435361 
 3556000     1.002559   -3.1714615   -1.6548249  0.070425741   -3.1714615    1.5166365   435355 
 3557000    1.0018171   -3.1697016   -1.6541629  0.075730064   -3.1697016    1.5155387   435348 
 3558000    1.0038569   -3.1719012   -1.6532524  0.075927406   -3.1719012    1.5186488   435341 
 3559000    1.0035734   -3.1708354   -1.6525945  0.074611406   -3.1708354    1.5182409   435335 
 3560000    1.0035733   -3.1698195   -1.6515542  0.074747251   -3.1698195    1.5182652   435328 
 3561000    1.0033132   -3.1702973   -1.6524012  0.073441508   -3.1702973    1.5178961   435321 
 3562000    1.0036389   -3.1708465   -1.6524368  0.073618673   -3.1708465    1.5184098   435315 
 3563000    1.0034024   -3.1713029   -1.6532265  0.073547484   -3.1713029    1.5180763   435308 
 3564000    1.0020974   -3.1713089   -1.6551825  0.073203435   -3.1713089    1.5161264   435301 
 3565000    1.0019577    -3.171982   -1.6560461  0.069866176    -3.171982    1.5159359   435295 
 3566000    1.0000901   -3.1689056    -1.655771  0.076326473   -3.1689056    1.5131346   435288 
 3567000      1.00142    -3.170684   -1.6555129  0.071648929    -3.170684    1.5151711   435281 
 3568000    1.0020007   -3.1716148   -1.6555442  0.075242478   -3.1716148    1.5160706   435275 
 3569000    1.0011214   -3.1701841   -1.6554195  0.072171665   -3.1701841    1.5147646   435268 
 3570000    1.0020683   -3.1717229   -1.6555012  0.071061376   -3.1717229    1.5162217   435261 
 3571000    1.0014992   -3.1701871   -1.6548056  0.073794714   -3.1701871    1.5153814   435255 
 3572000    1.0015077   -3.1712444   -1.6558256  0.070928543   -3.1712444    1.5154187   435248 
 3573000    1.0027984   -3.1730317   -1.6556356  0.072424307   -3.1730317    1.5173961   435241 
 3574000    1.0022409   -3.1715053   -1.6549319  0.072895121   -3.1715053    1.5165735   435235 
 3575000    1.0015742   -3.1710969   -1.6555079  0.070541275   -3.1710969     1.515589   435228 
 3576000    1.0027695   -3.1720067   -1.6545846  0.069341886   -3.1720067    1.5174221   435221 
 3577000     1.002161   -3.1704355   -1.6539134  0.070516657   -3.1704355    1.5165222   435215 
 3578000    1.0022977   -3.1694651   -1.6527117  0.073321959   -3.1694651    1.5167534   435208 
 3579000     1.001989   -3.1688354   -1.6525247  0.073077933   -3.1688354    1.5163107   435201 
 3580000    1.0016807   -3.1698656   -1.6540006  0.074717632   -3.1698656    1.5158651   435195 
 3581000    1.0029906   -3.1713945   -1.6535227   0.07760839   -3.1713945    1.5178718   435188 
 3582000    1.0022023   -3.1714128   -1.6547096  0.071033481   -3.1714128    1.5167031   435181 
 3583000     1.004112   -3.1728062   -1.6531919  0.073055044   -3.1728062    1.5196143   435175 
 3584000    1.0023731   -3.1696716   -1.6526646  0.077006997   -3.1696716     1.517007   435168 
 3585000    1.0033428   -3.1719012   -1.6534022  0.075643356   -3.1719012     1.518499   435161 
 3586000    1.0030735   -3.1726411   -1.6545287  0.070562222   -3.1726411    1.5181124   435155 
 3587000    1.0004261   -3.1703337   -1.6562038  0.073790222   -3.1703337    1.5141299   435148 
 3588000    1.0011783   -3.1704686   -1.6551758  0.075132475   -3.1704686    1.5152929   435141 
 3589000    1.0015878   -3.1694286   -1.6534951  0.074006906   -3.1694286    1.5159335   435135 
 3590000    1.0025929   -3.1700859   -1.6526067   0.07140563   -3.1700859    1.5174792   435128 
 3591000     1.002233   -3.1712056   -1.6542469  0.067732778   -3.1712056    1.5169587   435121 
 3592000    1.0024533   -3.1714284   -1.6541153  0.069791724   -3.1714284    1.5173131   435115 
 3593000    1.0020706   -3.1707194   -1.6539611  0.070671121   -3.1707194    1.5167583   435108 
 3594000    1.0029253   -3.1705936   -1.6525171  0.072409522   -3.1705936    1.5180765   435101 
 3595000    1.0009165   -3.1683578   -1.6533011   0.07504177   -3.1683578    1.5150568   435095 
 3596000    1.0006048   -3.1668374   -1.6522282   0.06967605   -3.1668374    1.5146092   435088 
 3597000    1.0021389   -3.1700893   -1.6531335  0.073483481   -3.1700893    1.5169558   435081 
 3598000    1.0036025   -3.1714403    -1.652248  0.070666248   -3.1714403    1.5191923   435075 
 3599000    1.0027925   -3.1703194   -1.6523289  0.067723487   -3.1703194    1.5179905   435068 
 3600000    1.0008092    -3.168342   -1.6533294  0.071703931    -3.168342    1.5150126   435061 
 3601000    1.0008596    -3.167648   -1.6525382  0.071010518    -3.167648    1.5151099   435055 
 3602000   0.99994181   -3.1684753   -1.6547305   0.06824354   -3.1684753    1.5137449   435048 
 3603000   0.99971286   -3.1677814   -1.6543588  0.068638221   -3.1677814    1.5134226   435041 
 3604000     1.000035   -3.1694904   -1.6555592  0.069800572   -3.1694904    1.5139312   435035 
 3605000   0.99968105   -3.1684724   -1.6550527  0.071127381   -3.1684724    1.5134197   435028 
 3606000   0.99985599   -3.1697777   -1.6560689  0.065528509   -3.1697777    1.5137089   435021 
 3607000   0.99887963   -3.1684858   -1.6562342  0.069585467   -3.1684858    1.5122516   435015 
 3608000    1.0001578   -3.1712022   -1.6569912  0.071690726   -3.1712022     1.514211   435008 
 3609000    1.0024903   -3.1724062   -1.6546394  0.072312388   -3.1724062    1.5177668   435001 
 3610000    1.0006344   -3.1700721   -1.6550942  0.075401758   -3.1700721    1.5149779   434995 
 3611000    1.0022501   -3.1729004   -1.6554519  0.069504442   -3.1729004    1.5174486   434988 
 3612000    1.0018327   -3.1717324   -1.6548914  0.075226023   -3.1717324     1.516841   434981 
 3613000    1.0008928   -3.1725386   -1.6570998  0.068557072   -3.1725386    1.5154387   434975 
 3614000     1.000968   -3.1726254   -1.6570484  0.070014994   -3.1726254     1.515577   434968 
 3615000   0.99995196   -3.1705761   -1.6565131  0.072567054   -3.1705761     1.514063   434961 
 3616000   0.99990296   -3.1715718   -1.6575621  0.073047263   -3.1715718    1.5140097   434955 
 3617000    1.0021943   -3.1748778   -1.6573742  0.069941188   -3.1748778    1.5175036   434948 
 3618000    1.0000923    -3.172562   -1.6582168  0.071247081    -3.172562    1.5143452   434941 
 3619000   0.99995541   -3.1738205   -1.6596617  0.075262233   -3.1738205    1.5141587   434935 
 3620000   0.99971238   -3.1729938   -1.6591787   0.06675963   -3.1729938    1.5138151   434928 
 3621000   0.99770645   -3.1715154   -1.6607135  0.069019976   -3.1715154    1.5108019   434921 
 3622000    0.9988894   -3.1727352   -1.6601211  0.071344121   -3.1727352    1.5126141   434915 
 3623000   0.99980753    -3.173582   -1.6595532  0.072803533    -3.173582    1.5140288   434908 
 3624000    1.0006587   -3.1760404   -1.6606982  0.074085595   -3.1760404    1.5153422   434901 
 3625000   0.99937919   -3.1741463   -1.6607209  0.078035115   -3.1741463    1.5134254   434895 
 3626000   0.99918361   -3.1731026    -1.659949  0.073048419   -3.1731026    1.5131536   434888 
 3627000   0.99952216   -3.1724165   -1.6587259  0.072021318   -3.1724165    1.5136906   434881 
 3628000    0.9986318   -3.1707185   -1.6583554  0.075112712   -3.1707185    1.5123631   434875 
 3629000   0.99969023   -3.1726477   -1.6586573  0.069007013   -3.1726477    1.5139904   434868 
 3630000    1.0002544   -3.1746898   -1.6598206  0.072097855   -3.1746898    1.5148692   434861 
 3631000   0.99858077    -3.173574   -1.6612186  0.068507802    -3.173574    1.5123554   434855 
 3632000   0.99882599   -3.1738109   -1.6610598   0.06624097   -3.1738109    1.5127511   434848 
 3633000   0.99967028    -3.173275   -1.6592208  0.071372574    -3.173275    1.5140542   434841 
 3634000   0.99918935   -3.1728793   -1.6595326  0.070036671   -3.1728793    1.5133467   434835 
 3635000   0.99987808   -3.1733523   -1.6589381  0.070590898   -3.1733523    1.5144142   434828 
 3636000    1.0000728     -3.17143   -1.6566965  0.072608466     -3.17143    1.5147335   434821 
 3637000   0.99977061   -3.1701251   -1.6558284  0.078632389   -3.1701251    1.5142967   434815 
 3638000    1.0002191   -3.1717561   -1.6567557  0.074996643   -3.1717561    1.5150004   434808 
 3639000    1.0008967   -3.1740522   -1.6580011  0.067839498   -3.1740522    1.5160511   434801 
 3640000   0.99992775    -3.171935   -1.6573306  0.068802728    -3.171935    1.5146044   434795 
 3641000   0.99956393   -3.1728539   -1.6587762  0.066422905   -3.1728539    1.5140777   434788 
 3642000   0.99951137   -3.1711322   -1.6571098  0.073393044   -3.1711322    1.5140225   434781 
 3643000    1.0008553   -3.1742095   -1.6581304  0.067228204   -3.1742095    1.5160792   434775 
 3644000    1.0003113   -3.1721528   -1.6568733  0.073263025   -3.1721528    1.5152795   434768 
 3645000   0.99956967   -3.1720154    -1.657835   0.06724288   -3.1720154    1.5141804   434761 
 3646000    0.9993406   -3.1714593    -1.657605  0.068558483   -3.1714593    1.5138543   434755 
 3647000   0.99927717   -3.1711359   -1.6573534  0.071535311   -3.1711359    1.5137826   434748 
 3648000   0.99839636   -3.1691574   -1.6566848  0.072906759   -3.1691574    1.5124726   434741 
 3649000   0.99980921   -3.1716069   -1.6569731  0.064260901   -3.1716069    1.5146339   434735 
 3650000    1.0005606   -3.1722782   -1.6564817   0.07507646   -3.1722782    1.5157965   434728 
 3651000   0.99934303   -3.1705439   -1.6565675  0.068381058   -3.1705439    1.5139764   434721 
 3652000    1.0001156   -3.1718924   -1.6567247  0.071369809   -3.1718924    1.5151677   434715 
 3653000    1.0008124   -3.1749193   -1.6586716  0.065103282   -3.1749193    1.5162478   434708 
 3654000   0.99951604     -3.17306   -1.6587519  0.071780283     -3.17306    1.5143082   434701 
 3655000   0.99773874   -3.1714146   -1.6597783  0.071588921   -3.1714146    1.5116363   434695 
 3656000    0.9993579   -3.1724011   -1.6582873  0.070650497   -3.1724011    1.5141138   434688 
 3657000   0.99863876    -3.172671   -1.6596223  0.064571657    -3.172671    1.5130487   434681 
 3658000   0.99928571   -3.1717175   -1.6576677  0.067762091   -3.1717175    1.5140498   434675 
 3659000   0.99858801   -3.1708776   -1.6578606    0.0725357   -3.1708776     1.513017   434668 
 3660000   0.99932447   -3.1723176   -1.6581604  0.072165386   -3.1723176    1.5141572   434661 
 3661000   0.99967779   -3.1740076   -1.6592941   0.06846022   -3.1740076    1.5147135   434655 
 3662000   0.99979046   -3.1743505   -1.6594418  0.072061153   -3.1743505    1.5149086   434648 
 3663000   0.99911733   -3.1725887   -1.6586757  0.073017779   -3.1725887     1.513913   434641 
 3664000    1.0014548    -3.174845   -1.6573691  0.073514972    -3.174845    1.5174758   434635 
 3665000    1.0015153   -3.1747856   -1.6571937  0.069737522   -3.1747856    1.5175919   434628 
 3666000    1.0013921   -3.1742989   -1.6568692  0.072697625   -3.1742989    1.5174298   434621 
 3667000    1.0012704   -3.1734147   -1.6561484  0.072870543   -3.1734147    1.5172662   434615 
 3668000    1.0008124   -3.1740096    -1.657413  0.069369779   -3.1740096    1.5165966   434608 
 3669000   0.99984982   -3.1731028   -1.6579404  0.071802923   -3.1731028    1.5151624   434601 
 3670000   0.99995655   -3.1741541    -1.658809  0.075415208   -3.1741541    1.5153451   434595 
 3671000    1.0014799   -3.1756851   -1.6580072  0.072662195   -3.1756851     1.517678   434588 
 3672000   0.99921687   -3.1729147   -1.6586418  0.073616204   -3.1729147    1.5142729   434581 
 3673000    1.0008656   -3.1748849   -1.6580925  0.073913868   -3.1748849    1.5167925   434575 
 3674000    1.0017633   -3.1766214   -1.6584441  0.073468308   -3.1766214    1.5181773   434568 
 3675000    1.0000227   -3.1759577   -1.6603938   0.07074071   -3.1759577    1.5155639   434561 
 3676000   0.99885715   -3.1739709   -1.6601525  0.066719122   -3.1739709    1.5138183   434555 
 3677000    1.0003137   -3.1756447   -1.6595944  0.070289335   -3.1756447    1.5160503   434548 
 3678000   0.99831961   -3.1739837   -1.6609313  0.070693736   -3.1739837    1.5130524   434541 
 3679000   0.99862752   -3.1744318   -1.6608918  0.070169757   -3.1744318      1.51354   434535 
 3680000   0.99945058   -3.1738234   -1.6590115   0.07124012   -3.1738234    1.5148118   434528 
 3681000   0.99773658   -3.1722396   -1.6600012  0.072962706   -3.1722396    1.5122384   434521 
 3682000    1.0001473   -3.1769626   -1.6610494  0.066210774   -3.1769626    1.5159132   434515 
 3683000   0.99881334   -3.1742835   -1.6603679  0.067501209   -3.1742835    1.5139157   434508 
 3684000   0.99835981   -3.1733714   -1.6601188  0.065137512   -3.1733714    1.5132526   434501 
 3685000   0.99769225    -3.171449   -1.6591873  0.070827797    -3.171449    1.5122617   434495 
 3686000   0.99894083    -3.171858   -1.6576793  0.071403156    -3.171858    1.5141786   434488 
 3687000    1.0005199   -3.1746538   -1.6580573  0.070130175   -3.1746538    1.5165966   434481 
 3688000   0.99849692   -3.1719453   -1.6583943  0.071023465   -3.1719453     1.513551   434475 
 3689000   0.99983799   -3.1753172   -1.6597089   0.06785438   -3.1753172    1.5156083   434468 
 3690000   0.99873445   -3.1748216   -1.6608617  0.071586483   -3.1748216    1.5139599   434461 
 3691000    1.0010906   -3.1768392   -1.6592867  0.067235897   -3.1768392    1.5175525   434455 
 3692000    1.0000035   -3.1752211   -1.6592922   0.06752648   -3.1752211    1.5159289   434448 
 3693000   0.99795123   -3.1728611   -1.6600189  0.070184443   -3.1728611    1.5128423   434441 
 3694000   0.99763175   -3.1728879    -1.660509  0.071526572   -3.1728879    1.5123788   434435 
 3695000   0.99776632   -3.1722178   -1.6596106  0.068761107   -3.1722178    1.5126072   434428 
 3696000   0.99904298   -3.1732525   -1.6586855  0.067665186   -3.1732525     1.514567   434421 
 3697000   0.99852969   -3.1729314   -1.6591216  0.076869144   -3.1729314    1.5138098   434415 
 3698000   0.99908496   -3.1733288   -1.6586529   0.07070786   -3.1733288     1.514676   434408 
 3699000   0.99816205   -3.1720541   -1.6587529  0.065622569   -3.1720541    1.5133012   434401 
 3700000    1.0010355   -3.1762297   -1.6585512   0.06901518   -3.1762297    1.5176785   434395 
 3701000    1.0010302   -3.1757882   -1.6580932  0.067435382   -3.1757882     1.517695   434388 
 3702000   0.99961686   -3.1742207   -1.6586441  0.068672043   -3.1742207    1.5155766   434381 
 3703000   0.99879295     -3.17313   -1.6587817   0.07045372     -3.17313    1.5143483   434375 
 3704000    1.0010683   -3.1763966    -1.658574  0.069608187   -3.1763966    1.5178226   434368 
 3705000   0.99925093   -3.1738117   -1.6587202   0.06679458   -3.1738117    1.5150915   434361 
 3706000   0.99964887    -3.174471   -1.6587551  0.068090931    -3.174471    1.5157158   434355 
 3707000   0.99899409   -3.1748883   -1.6601409  0.067692213   -3.1748883    1.5147474   434348 
 3708000   0.99816297   -3.1737757   -1.6602641  0.069231274   -3.1737757    1.5135116   434341 
 3709000   0.99771874   -3.1725599   -1.6597009  0.070285452   -3.1725599    1.5128589   434335 
 3710000   0.99865868   -3.1754753   -1.6611667  0.069367807   -3.1754753    1.5143086   434328 
 3711000   0.99821277   -3.1749069   -1.6612501  0.068999413   -3.1749069    1.5136568   434321 
 3712000   0.99842562   -3.1756288   -1.6616283  0.069974167   -3.1756288    1.5140005   434315 
 3713000   0.99795893   -3.1757942    -1.662477  0.072233268   -3.1757942    1.5133172   434308 
 3714000   0.99711674   -3.1745055    -1.662441  0.074297283   -3.1745055    1.5120645   434301 
 3715000   0.99875984   -3.1768535   -1.6622764  0.071642235   -3.1768535    1.5145771   434295 
 3716000   0.99767129   -3.1750721   -1.6621214  0.071893035   -3.1750721    1.5129507   434288 
 3717000   0.99873465   -3.1753424   -1.6607547  0.068888928   -3.1753424    1.5145877   434281 
 3718000     0.998783   -3.1751359    -1.660454  0.071431844   -3.1751359    1.5146819   434275 
 3719000   0.99849749   -3.1747797   -1.6605064   0.07267341   -3.1747797    1.5142734   434268 
 3720000   0.99957846   -3.1773085   -1.6613714  0.075368322   -3.1773085    1.5159371   434261 
 3721000   0.99786398   -3.1739032   -1.6605453  0.073429802   -3.1739032    1.5133579   434255 
 3722000   0.99945914   -3.1763648   -1.6605633  0.071102958   -3.1763648    1.5158016   434248 
 3723000   0.99774399   -3.1746268   -1.6614021  0.080008562   -3.1746268    1.5132247   434241 
 3724000   0.99913369   -3.1767601   -1.6614068  0.071115751   -3.1767601    1.5153533   434235 
 3725000   0.99831811   -3.1755813   -1.6614405  0.072124163   -3.1755813    1.5141408   434228 
 3726000    1.0006609   -3.1783009   -1.6605823  0.075679149   -3.1783009    1.5177186   434221 
 3727000   0.99951431   -3.1771936   -1.6611932   0.07349981   -3.1771936    1.5160004   434215 
 3728000   0.99859306   -3.1767082   -1.6620806  0.070423774   -3.1767082    1.5146276   434208 
 3729000   0.99704218   -3.1747631   -1.6624635  0.073902281   -3.1747631    1.5122996   434201 
 3730000   0.99947657   -3.1778456   -1.6618326  0.072575963   -3.1778456     1.516013   434195 
 3731000   0.99923138   -3.1762294   -1.6605638  0.072821672   -3.1762294    1.5156656   434188 
 3732000   0.99857161   -3.1746908   -1.6600016  0.069552254   -3.1746908    1.5146892   434181 
 3733000   0.99979244   -3.1753993   -1.6588373  0.068600744   -3.1753993     1.516562   434175 
 3734000    1.0000616   -3.1769112   -1.6599164  0.067625868   -3.1769112    1.5169948   434168 
 3735000   0.99892534   -3.1743994   -1.6591039   0.07631598   -3.1743994    1.5152956   434161 
 3736000   0.99935126   -3.1766683   -1.6607057  0.076057491   -3.1766683    1.5159626   434155 
 3737000   0.99909346   -3.1755056   -1.6599096  0.075413828   -3.1755056     1.515596   434148 
 3738000   0.99874649   -3.1755401   -1.6604461  0.072672883   -3.1755401    1.5150941   434141 
 3739000    0.9979416   -3.1749871   -1.6610931    0.0675737   -3.1749871     1.513894   434135 
 3740000   0.99780101   -3.1740819   -1.6603768  0.064536743   -3.1740819    1.5137051   434128 
 3741000   0.99487632   -3.1727034   -1.6634109   0.07088998   -3.1727034    1.5092926   434121 
 3742000   0.99508901   -3.1732714   -1.6636353  0.066468386   -3.1732714    1.5096361   434115 
 3743000   0.99555843   -3.1738208   -1.6634483   0.06666969   -3.1738208    1.5103726   434108 
 3744000   0.99421892    -3.172976   -1.6646113  0.064442517    -3.172976    1.5083647   434101 
 3745000    0.9954271   -3.1745153   -1.6642967  0.069556099   -3.1745153    1.5102186   434095 
 3746000   0.99659478   -3.1751411   -1.6631266  0.070240162   -3.1751411    1.5120145   434088 
 3747000    0.9963304   -3.1747684   -1.6631306  0.070678315   -3.1747684    1.5116378   434081 
 3748000   0.99626109   -3.1747421   -1.6631885  0.067251538   -3.1747421    1.5115535   434075 
 3749000   0.99796627   -3.1770465   -1.6628814  0.071323145   -3.1770465    1.5141651   434068 
 3750000   0.99763438   -3.1766297   -1.6629438  0.072228976   -3.1766297    1.5136859   434061 
 3751000   0.99993933   -3.1800191    -1.662815   0.06948675   -3.1800191    1.5172041   434055 
 3752000    0.9993704     -3.17964   -1.6632746  0.070146021     -3.17964    1.5163654   434048 
 3753000    1.0004788   -3.1807489   -1.6626774  0.068152533   -3.1807489    1.5180716   434041 
 3754000   0.99829178   -3.1777927   -1.6630186  0.071095146   -3.1777927    1.5147741   434035 
 3755000    0.9986838   -3.1799327   -1.6645393  0.073121997   -3.1799327    1.5153934   434028 
 3756000   0.99955753   -3.1816007   -1.6648571  0.068588778   -3.1816007    1.5167436   434021 
 3757000   0.99809398   -3.1793018    -1.664758  0.075572479   -3.1793018    1.5145438   434015 
 3758000   0.99799438   -3.1798707   -1.6654536    0.0725911   -3.1798707    1.5144171   434008 
 3759000   0.99661532    -3.178073   -1.6657242  0.071428294    -3.178073    1.5123488   434001 
 3760000   0.99682684   -3.1781572   -1.6654666  0.066109735   -3.1781572    1.5126907   433995 
 3761000   0.99812627   -3.1804143   -1.6657273  0.072505638   -3.1804143     1.514687   433988 
 3762000   0.99716548   -3.1786279   -1.6653746  0.073199721   -3.1786279    1.5132534   433981 
 3763000   0.99847152   -3.1791907   -1.6639344   0.07205588   -3.1791907    1.5152563   433975 
 3764000   0.99790468   -3.1809482   -1.6665277   0.06936266   -3.1809482    1.5144205   433968 
 3765000   0.99727582    -3.179946   -1.6664554  0.064143624    -3.179946    1.5134906   433961 
 3766000   0.99811231   -3.1810655   -1.6662845  0.070637307   -3.1810655     1.514781   433955 
 3767000   0.99655921   -3.1791621   -1.6667138  0.073409771   -3.1791621    1.5124483   433948 
 3768000   0.99810442   -3.1805664   -1.6657485  0.073744108   -3.1805664    1.5148179   433941 
 3769000   0.99769291   -3.1789613    -1.664747  0.073840725   -3.1789613    1.5142143   433935 
 3770000   0.99725123   -3.1783007   -1.6647323  0.066729681   -3.1783007    1.5135684   433928 
 3771000   0.99764393   -3.1793535   -1.6651647  0.070751232   -3.1793535    1.5141888   433921 
 3772000   0.99731355   -3.1787246   -1.6650163  0.076484569   -3.1787246    1.5137083   433915 
 3773000   0.99760896   -3.1793184   -1.6651373  0.074344401   -3.1793184    1.5141811   433908 
 3774000   0.99678731   -3.1793293    -1.666371  0.072791169   -3.1793293    1.5129584   433901 
 3775000   0.99548271   -3.1783867   -1.6673876  0.072232419   -3.1783867    1.5109991   433895 
 3776000   0.99708991   -3.1798359   -1.6663729  0.068282827   -3.1798359     1.513463   433888 
 3777000   0.99603809   -3.1780676   -1.6661768  0.068811024   -3.1780676    1.5118909   433881 
 3778000   0.99623818   -3.1781582   -1.6659427  0.067395985   -3.1781582    1.5122155   433875 
 3779000   0.99635937   -3.1780155   -1.6655917  0.069711216   -3.1780155    1.5124239   433868 
 3780000   0.99674478   -3.1781814   -1.6651481  0.065472405   -3.1781814    1.5130333   433861 
 3781000   0.99645702   -3.1776156   -1.6649981   0.06874812   -3.1776156    1.5126174   433855 
 3782000   0.99696723   -3.1791924   -1.6657761  0.069626198   -3.1791924    1.5134163   433848 
 3783000   0.99627271   -3.1788488   -1.6664623  0.070909041   -3.1788488    1.5123864   433841 
 3784000   0.99754619   -3.1790965   -1.6647559  0.068542246   -3.1790965    1.5143406   433835 
 3785000   0.99783155   -3.1785883   -1.6637901  0.072126158   -3.1785883    1.5147982   433828 
 3786000   0.99684684   -3.1784721   -1.6651444  0.072315278   -3.1784721    1.5133278   433821 
 3787000   0.99797639   -3.1808801   -1.6658166  0.067258306   -3.1808801    1.5150635   433815 
 3788000   0.99896004   -3.1812168   -1.6646356  0.062301383   -3.1812168    1.5165813   433808 
 3789000   0.99522599   -3.1769345   -1.6659978  0.077431634   -3.1769345    1.5109368   433801 
 3790000   0.99546684   -3.1788042   -1.6674809  0.069584454   -3.1788042    1.5113233   433795 
 3791000   0.99518482   -3.1787848   -1.6678652   0.06422096   -3.1787848    1.5109196   433788 
 3792000   0.99595063   -3.1774852   -1.6653785  0.066203632   -3.1774852    1.5121066   433781 
 3793000   0.99447439   -3.1758884   -1.6660022  0.072921899   -3.1758884    1.5098862   433775 
 3794000   0.99553156   -3.1774362   -1.6659206  0.067211378   -3.1774362    1.5115157   433768 
 3795000   0.99556621    -3.176907   -1.6653143  0.070139747    -3.176907    1.5115927   433761 
 3796000   0.99569928   -3.1776591   -1.6658434  0.071326774   -3.1776591    1.5118156   433755 
 3797000   0.99477011    -3.176518   -1.6660888  0.067409558    -3.176518    1.5104292   433748 
 3798000   0.99599387   -3.1786624   -1.6663507  0.068750306   -3.1786624    1.5123117   433741 
 3799000   0.99674624   -3.1781813   -1.6647062  0.066411507   -3.1781813    1.5134751   433735 
 3800000   0.99589338   -3.1778708   -1.6656663  0.072505912   -3.1778708    1.5122045   433728 
 3801000   0.99527506   -3.1785978   -1.6673078  0.068357728   -3.1785978      1.51129   433721 
 3802000   0.99571458   -3.1783035   -1.6663252  0.075359956   -3.1783035    1.5119783   433715 
 3803000   0.99530604   -3.1777255   -1.6663432   0.07530392   -3.1777255    1.5113823   433708 
 3804000   0.99647053   -3.1782057   -1.6650306  0.070710038   -3.1782057     1.513175   433701 
 3805000   0.99730219   -3.1804616   -1.6660027  0.069281761   -3.1804616    1.5144589   433695 
 3806000   0.99776408   -3.1807544   -1.6655697   0.07426011   -3.1807544    1.5151848   433688 
 3807000   0.99616038   -3.1782544   -1.6654806  0.076765977   -3.1782544    1.5127738   433681 
 3808000   0.99625121   -3.1781046    -1.665172  0.075394372   -3.1781046    1.5129327   433675 
 3809000   0.99601224   -3.1774909   -1.6648967   0.07083308   -3.1774909    1.5125942   433668 
 3810000   0.99886876   -3.1802515   -1.6632948  0.064231362   -3.1802515    1.5169567   433661 
 3811000   0.99806385   -3.1798947   -1.6641394   0.06902269   -3.1798947    1.5157553   433655 
 3812000   0.99730365   -3.1788455   -1.6642202  0.073939098   -3.1788455    1.5146253   433648 
 3813000   0.99815839   -3.1788535   -1.6629057  0.067964974   -3.1788535    1.5159478   433641 
 3814000   0.99743502   -3.1780536   -1.6631834  0.058325731   -3.1780536    1.5148702   433635 
 3815000   0.99649273   -3.1772382   -1.6637747  0.069587108   -3.1772382    1.5134635   433628 
 3816000    0.9959621   -3.1758286   -1.6631466   0.07380013   -3.1758286     1.512682   433621 
 3817000   0.99663734   -3.1773295    -1.663601  0.064295339   -3.1773295    1.5137285   433615 
 3818000    0.9966845   -3.1780462   -1.6642216  0.068915529   -3.1780462    1.5138246   433608 
 3819000   0.99486518   -3.1754058   -1.6643201  0.070915747   -3.1754058    1.5110857   433601 
 3820000   0.99628733   -3.1781748   -1.6649081  0.066704192   -3.1781748    1.5132667   433595 
 3821000   0.99460262   -3.1749527   -1.6642205  0.069202802   -3.1749527    1.5107322   433588 
 3822000   0.99491515   -3.1753024   -1.6640712  0.068377851   -3.1753024    1.5112313   433581 
 3823000   0.99326708   -3.1735653   -1.6648165  0.069078096   -3.1735653    1.5087488   433575 
 3824000   0.99586759   -3.1756803    -1.662957  0.068292022   -3.1756803    1.5127234   433568 
 3825000   0.99573957   -3.1757931   -1.6632398  0.071062234   -3.1757931    1.5125533   433561 
 3826000   0.99714892   -3.1788174   -1.6641022  0.070596052   -3.1788174    1.5147151   433555 
 3827000   0.99544514   -3.1762071   -1.6640557  0.070198778   -3.1762071    1.5121514   433548 
 3828000   0.99641604   -3.1773049   -1.6636542  0.066585596   -3.1773049    1.5136507   433541 
 3829000    0.9967097   -3.1764721   -1.6623543  0.068782629   -3.1764721    1.5141178   433535 
 3830000   0.99493132   -3.1750462   -1.6636056  0.072143877   -3.1750462    1.5114406   433528 
 3831000   0.99539108   -3.1759385   -1.6637751  0.069471438   -3.1759385    1.5121635   433521 
 3832000   0.99511053     -3.17595   -1.6641918   0.07133489     -3.17595    1.5117582   433515 
 3833000   0.99660535   -3.1767406    -1.662687  0.069795868   -3.1767406    1.5140535   433508 
 3834000   0.99559294   -3.1751334   -1.6625935  0.072274826   -3.1751334    1.5125399   433501 
 3835000   0.99637516   -3.1772451   -1.6634959  0.066890552   -3.1772451    1.5137492   433495 
 3836000   0.99612895   -3.1778395   -1.6644399  0.071161628   -3.1778395    1.5133996   433488 
 3837000   0.99808008   -3.1788371   -1.6624487  0.073126633   -3.1788371    1.5163884   433481 
 3838000   0.99926163   -3.1794319   -1.6612274  0.070465855   -3.1794319    1.5182045   433475 
 3839000   0.99688974   -3.1784466   -1.6638213  0.074726567   -3.1784466    1.5146253   433468 
 3840000   0.99633724   -3.1793819   -1.6655716  0.074378645   -3.1793819    1.5138103   433461 
 3841000   0.99631285   -3.1804268   -1.6666325  0.071206211   -3.1804268    1.5137942   433455 
 3842000   0.99469563   -3.1775619   -1.6662005  0.075546475   -3.1775619    1.5113614   433448 
 3843000   0.99554094   -3.1790702      -1.6664  0.068895068   -3.1790702    1.5126702   433441 
 3844000   0.99649832   -3.1816883   -1.6675424  0.066007712   -3.1816883    1.5141459   433435 
 3845000   0.99678066   -3.1810819   -1.6664825  0.068356333   -3.1810819    1.5145994   433428 
 3846000   0.99529294   -3.1796906   -1.6673274  0.069382154   -3.1796906    1.5123632   433421 
 3847000   0.99502478   -3.1793391   -1.6673624  0.073051937   -3.1793391    1.5119767   433415 
 3848000   0.99550663   -3.1800674   -1.6673341  0.068244788   -3.1800674    1.5127333   433408 
 3849000   0.99551123   -3.1786361   -1.6658714  0.069990345   -3.1786361    1.5127647   433401 
 3850000   0.99534188   -3.1791731   -1.6666448  0.070517962   -3.1791731    1.5125283   433395 
 3851000    0.9965779    -3.181629   -1.6671979   0.06730085    -3.181629     1.514431   433388 
 3852000   0.99552715   -3.1801847    -1.667326  0.070030928   -3.1801847    1.5128587   433381 
 3853000   0.99511165   -3.1802188   -1.6679706  0.065422134   -3.1802188    1.5122482   433375 
 3854000   0.99700032   -3.1833362   -1.6681933  0.063769854   -3.1833362    1.5151429   433368 
 3855000   0.99543131   -3.1825966   -1.6698137  0.070466248   -3.1825966    1.5127829   433361 
 3856000   0.99492637   -3.1815559   -1.6695194  0.068667851   -3.1815559    1.5120365   433355 
 3857000   0.99384639   -3.1798681   -1.6694486  0.066044415   -3.1798681    1.5104196   433348 
 3858000   0.99428119   -3.1817469   -1.6706422  0.067393294   -3.1817469    1.5111048   433341 
 3859000   0.99433464   -3.1817329    -1.670526  0.069849836   -3.1817329    1.5112069   433335 
 3860000   0.99387481   -3.1803533   -1.6698208  0.065116056   -3.1803533    1.5105325   433328 
 3861000    0.9955418   -3.1849336   -1.6718431  0.064552208   -3.1849336    1.5130905   433321 
 3862000    0.9972846   -3.1848237   -1.6690635   0.07292108   -3.1848237    1.5157603   433315 
 3863000   0.99582893   -3.1841145   -1.6705423  0.070229363   -3.1841145    1.5135723   433308 
 3864000   0.99457973   -3.1830996   -1.6714016  0.072966255   -3.1830996     1.511698   433301 
 3865000   0.99531414   -3.1855892    -1.672754  0.070342788   -3.1855892    1.5128352   433295 
 3866000   0.99560188   -3.1860882   -1.6727912  0.074183998   -3.1860882     1.513297   433288 
 3867000   0.99771247   -3.1885068   -1.6719772  0.071780454   -3.1885068    1.5165296   433281 
 3868000   0.99599357   -3.1857062   -1.6717684  0.065647012   -3.1857062    1.5139378   433275 
 3869000   0.99685627   -3.1860795   -1.6708059  0.072515145   -3.1860795    1.5152736   433268 
 3870000   0.99621342   -3.1868721   -1.6725512  0.069120081   -3.1868721    1.5143209   433261 
 3871000   0.99525423   -3.1849421   -1.6720582   0.07227869   -3.1849421    1.5128838   433255 
 3872000   0.99436246   -3.1839569   -1.6724042  0.073261317   -3.1839569    1.5115527   433248 
 3873000   0.99435151   -3.1844492   -1.6728887  0.075260049   -3.1844492    1.5115605   433241 
 3874000   0.99465019   -3.1866733   -1.6746379  0.070369804   -3.1866733    1.5120354   433235 
 3875000    0.9948658   -3.1863768   -1.6739891  0.069518296   -3.1863768    1.5123876   433228 
 3876000   0.99572839   -3.1866707   -1.6729473  0.071369166   -3.1866707    1.5137234   433221 
 3877000   0.99487662   -3.1857692   -1.6733197  0.073826975   -3.1857692    1.5124495   433215 
 3878000   0.99415167   -3.1863468    -1.674975  0.067475891   -3.1863468    1.5113718   433208 
 3879000   0.99507715   -3.1858165   -1.6730132  0.065230938   -3.1858165    1.5128032   433201 
 3880000   0.99437192   -3.1851152   -1.6733632  0.071134381   -3.1851152     1.511752   433195 
 3881000   0.99508527   -3.1860002   -1.6731392  0.070219618   -3.1860002    1.5128609   433188 
 3882000   0.99701534   -3.1872582   -1.6714384  0.070253639   -3.1872582    1.5158198   433181 
 3883000   0.99540768   -3.1859838   -1.6725872  0.070223442   -3.1859838    1.5133965   433175 
 3884000   0.99393755   -3.1849564   -1.6737706  0.071596227   -3.1849564    1.5111858   433168 
 3885000   0.99300416   -3.1840629   -1.6742718  0.067001725   -3.1840629    1.5097911   433161 
 3886000   0.99378899   -3.1843097   -1.6733044  0.069304947   -3.1843097    1.5110053   433155 
 3887000   0.99426585   -3.1851179   -1.6733631  0.065449385   -3.1851179    1.5117547   433148 
 3888000    0.9915036   -3.1806786   -1.6730994  0.071930432   -3.1806786    1.5075792   433141 
 3889000   0.99348475   -3.1830563   -1.6724439  0.070803464   -3.1830563    1.5106124   433135 
 3890000   0.99265998   -3.1820897   -1.6727069  0.072314596   -3.1820897    1.5093828   433128 
 3891000   0.99609652   -3.1857345   -1.6711018  0.064000197   -3.1857345    1.5146326   433121 
 3892000   0.99458815   -3.1833942   -1.6710342  0.069577077   -3.1833942      1.51236   433115 
 3893000   0.99403808   -3.1834898   -1.6719418  0.073307419   -3.1834898     1.511548   433108 
 3894000   0.99483147   -3.1839178   -1.6711389  0.070479677   -3.1839178    1.5127789   433101 
 3895000   0.99342166   -3.1820306   -1.6713746   0.07279333   -3.1820306     1.510656   433095 
 3896000   0.99453133   -3.1827831   -1.6704152  0.073416941   -3.1827831    1.5123679   433088 
 3897000   0.99457137   -3.1847465   -1.6722933  0.068879631   -3.1847465    1.5124532   433081 
 3898000   0.99316338   -3.1822752   -1.6719422  0.073526579   -3.1822752     1.510333   433075 
 3899000   0.99304118    -3.183193   -1.6730214  0.070191121    -3.183193    1.5101716   433068 
 3900000   0.99531298   -3.1855651   -1.6719142  0.068074465   -3.1855651    1.5136509   433061 
 3901000   0.99381627   -3.1855594   -1.6741638  0.070379546   -3.1855594    1.5113957   433055 
 3902000   0.99361079   -3.1852368   -1.6741292  0.066594765   -3.1852368    1.5111076   433048 
 3903000   0.99260046   -3.1840421   -1.6744467  0.071046898   -3.1840421    1.5095955   433041 
 3904000   0.99254653   -3.1848183   -1.6752839  0.070175574   -3.1848183    1.5095344   433035 
 3905000   0.99215163   -3.1841861    -1.675228  0.073003863   -3.1841861    1.5089582   433028 
 3906000   0.99418231   -3.1849973   -1.6729262  0.069736342   -3.1849973    1.5120711   433021 
 3907000   0.99289234   -3.1843604   -1.6742303  0.066143743   -3.1843604    1.5101301   433015 
 3908000   0.99497999   -3.1873645   -1.6740348  0.070803355   -3.1873645    1.5133297   433008 
 3909000   0.99418734   -3.1862228   -1.6740742  0.068787122   -3.1862228    1.5121486   433001 
 3910000   0.99439267   -3.1866837   -1.6742018  0.070674779   -3.1866837    1.5124818   432995 
 3911000    0.9942555   -3.1858059   -1.6735083  0.073428153   -3.1858059    1.5122976   432988 
 3912000   0.99495429   -3.1873267   -1.6739417  0.069891542   -3.1873267     1.513385   432981 
 3913000   0.99366966    -3.186524    -1.675072  0.070244444    -3.186524    1.5114519   432975 
 3914000   0.99346083   -3.1849579   -1.6737992  0.073948682   -3.1849579    1.5111587   432968 
 3915000   0.99396028   -3.1840823   -1.6721394  0.071482085   -3.1840823    1.5119429   432961 
 3916000   0.99538594   -3.1858961   -1.6717636  0.068449799   -3.1858961    1.5141325   432955 
 3917000   0.99411434   -3.1851557   -1.6729331  0.067902514   -3.1851557    1.5122226   432948 
 3918000   0.99417051   -3.1859013   -1.6735688  0.069850824   -3.1859013    1.5123325   432941 
 3919000   0.99385025   -3.1857976   -1.6739312  0.068229641   -3.1857976    1.5118663   432935 
 3920000   0.99476867   -3.1865063   -1.6732184  0.070791862   -3.1865063    1.5132879   432928 
 3921000   0.99294503   -3.1842126   -1.6736745  0.068681328   -3.1842126    1.5105381   432921 
 3922000   0.99315354   -3.1861436   -1.6752674  0.072059076   -3.1861436    1.5108762   432915 
 3923000   0.99304998   -3.1846778   -1.6739347  0.069770536   -3.1846778    1.5107431   432908 
 3924000   0.99138878   -3.1836898   -1.6754495  0.070883914   -3.1836898    1.5082403   432901 
 3925000   0.99344279   -3.1867721    -1.675386   0.07015247   -3.1867721    1.5113861   432895 
 3926000   0.99202244   -3.1848182   -1.6755685  0.073636476   -3.1848182    1.5092496   432888 
 3927000   0.99369635    -3.185792   -1.6739713   0.07442258    -3.185792    1.5118208   432881 
 3928000   0.99355539   -3.1863933    -1.674766  0.065916012   -3.1863933    1.5116273   432875 
 3929000   0.99231486   -3.1848467   -1.6750824  0.068436436   -3.1848467    1.5097643   432868 
 3930000   0.99154547   -3.1833863   -1.6747682  0.073879298   -3.1833863    1.5086181   432861 
 3931000    0.9918917   -3.1832426   -1.6740768  0.069455206   -3.1832426    1.5091658   432855 
 3932000   0.99240673   -3.1847599   -1.6747861  0.066828073   -3.1847599    1.5099738   432848 
 3933000   0.99370641   -3.1856494   -1.6736737  0.066273821   -3.1856494    1.5119758   432841 
 3934000   0.99471382   -3.1866308   -1.6731012  0.071060201   -3.1866308    1.5135296   432835 
 3935000   0.99379171   -3.1855395   -1.6733886  0.068312975   -3.1855395     1.512151   432828 
 3936000   0.99318033   -3.1844991   -1.6732539  0.069838823   -3.1844991    1.5112451   432821 
 3937000    0.9925716   -3.1836596   -1.6733198  0.069223817   -3.1836596    1.5103398   432815 
 3938000   0.99277168   -3.1836266   -1.6729579  0.071994992   -3.1836266    1.5106687   432808 
 3939000   0.99466575   -3.1846952   -1.6711199  0.070360148   -3.1846952    1.5135753   432801 
 3940000   0.99437716   -3.1842174   -1.6710603  0.069722976   -3.1842174    1.5131572   432795 
 3941000   0.99273089   -3.1827417   -1.6720652  0.070192623   -3.1827417    1.5106764   432788 
 3942000   0.99500102   -3.1858442   -1.6716888  0.066158342   -3.1858442    1.5141555   432781 
 3943000   0.99360321   -3.1836027   -1.6715534  0.072697093   -3.1836027    1.5120493   432775 
 3944000   0.99341833   -3.1836105    -1.671818  0.073537612   -3.1836105    1.5117924   432768 
 3945000   0.99321332   -3.1828571   -1.6713523  0.073574323   -3.1828571    1.5115049   432761 
 3946000   0.99341661   -3.1830582    -1.671223  0.069347036   -3.1830582    1.5118352   432755 
 3947000   0.99270545   -3.1832951   -1.6725177  0.071243577   -3.1832951    1.5107774   432748 
 3948000   0.99265149   -3.1834206    -1.672701  0.064300958   -3.1834206    1.5107197   432741 
 3949000   0.99254122   -3.1827394   -1.6721666  0.066006759   -3.1827394    1.5105728   432735 
 3950000   0.99251806   -3.1818125   -1.6712505  0.069007232   -3.1818125     1.510562   432728 
 3951000   0.99314907   -3.1828423   -1.6712955  0.068363519   -3.1828423    1.5115468   432721 
 3952000   0.99209532   -3.1809409   -1.6709769  0.068473165   -3.1809409     1.509964   432715 
 3953000   0.99206867   -3.1815281   -1.6715803  0.068814957   -3.1815281    1.5099478   432708 
 3954000   0.99257179   -3.1834459   -1.6727079  0.060698865   -3.1834459     1.510738   432701 
 3955000   0.99257415   -3.1833008   -1.6725382   0.06617103   -3.1833008    1.5107626   432695 
 3956000   0.99180042   -3.1802473    -1.670638  0.067147525   -3.1802473    1.5096093   432688 
 3957000   0.99374989   -3.1822551    -1.669654   0.06438928   -3.1822551    1.5126011   432681 
 3958000   0.99239881   -3.1802467   -1.6696812  0.068102123   -3.1802467    1.5105655   432675 
 3959000    0.9926881   -3.1821456   -1.6711153  0.070006714   -3.1821456    1.5110303   432668 
 3960000   0.99293754   -3.1818439   -1.6704095  0.067589378   -3.1818439    1.5114344   432661 
 3961000    0.9928414   -3.1822178   -1.6709088  0.071502618   -3.1822178    1.5113091   432655 
 3962000    0.9938834   -3.1846959   -1.6717762  0.069727732   -3.1846959    1.5129197   432648 
 3963000   0.99418849   -3.1838593   -1.6704507  0.073792112   -3.1838593    1.5134086   432641 
 3964000   0.99233464   -3.1820242   -1.6714168  0.071403597   -3.1820242    1.5106075   432635 
 3965000   0.99301662   -3.1834147   -1.6717446  0.069600362   -3.1834147    1.5116701   432628 
 3966000   0.99255071   -3.1832913    -1.672306  0.067266182   -3.1832913    1.5109853   432621 
 3967000   0.99080692   -3.1809511   -1.6725995  0.068954999   -3.1809511    1.5083516   432615 
 3968000   0.99301327   -3.1839093   -1.6721744  0.070985799   -3.1839093    1.5117349   432608 
 3969000   0.99325924   -3.1839235   -1.6717897  0.072120942   -3.1839235    1.5121338   432601 
 3970000   0.99297384   -3.1840573    -1.672337  0.066178684   -3.1840573    1.5117203   432595 
 3971000   0.99216462   -3.1842654   -1.6737527  0.068751122   -3.1842654    1.5105128   432588 
 3972000   0.99212979   -3.1846406   -1.6741564  0.067086729   -3.1846406    1.5104842   432581 
 3973000   0.99267252    -3.184163   -1.6728316  0.065642487    -3.184163    1.5113314   432575 
 3974000   0.99274306   -3.1838703    -1.672407  0.073869046   -3.1838703    1.5114633   432568 
 3975000   0.99297586   -3.1841993   -1.6723571   0.06764747   -3.1841993    1.5118422   432561 
 3976000   0.99210636    -3.183303   -1.6727637  0.065760962    -3.183303    1.5105393   432555 
 3977000   0.99281641   -3.1842328   -1.6725879  0.062228832   -3.1842328    1.5116449   432548 
 3978000   0.99061699   -3.1806927   -1.6723723  0.072939824   -3.1806927    1.5083205   432541 
 3979000   0.99170155   -3.1826628     -1.67267   0.06781845   -3.1826628    1.5099928   432535 
 3980000   0.99260603   -3.1837836   -1.6723892  0.068256781   -3.1837836    1.5113944   432528 
 3981000    0.9922859    -3.184287   -1.6733556  0.068417967    -3.184287    1.5109314   432521 
 3982000   0.99240005   -3.1844039   -1.6732776  0.065059457   -3.1844039    1.5111262   432515 
 3983000   0.99274105   -3.1855593   -1.6738894  0.065141248   -3.1855593    1.5116699   432508 
 3984000   0.99286271    -3.185291   -1.6734114  0.072301825    -3.185291    1.5118796   432501 
 3985000   0.99235194   -3.1845859   -1.6734631  0.071105777   -3.1845859    1.5111228   432495 
 3986000    0.9917529    -3.184733   -1.6744979  0.071736625    -3.184733    1.5102351   432488 
 3987000   0.99144351   -3.1846434    -1.674855  0.069114128   -3.1846434    1.5097884   432481 
 3988000   0.99342734   -3.1870361   -1.6742058  0.066083077   -3.1870361    1.5128304   432475 
 3989000   0.99245199   -3.1857057   -1.6743362  0.067976002   -3.1857057    1.5113695   432468 
 3990000    0.9928576   -3.1863112   -1.6742995  0.067301922   -3.1863112    1.5120117   432461 
 3991000   0.99361656   -3.1880936   -1.6749051  0.066019826   -3.1880936    1.5131885   432455 
 3992000   0.99206555   -3.1869766   -1.6761257   0.06979103   -3.1869766    1.5108509   432448 
 3993000   0.99300692   -3.1871807   -1.6748717  0.071730824   -3.1871807     1.512309   432441 
 3994000   0.99433402   -3.1890882    -1.674737  0.068382607   -3.1890882    1.5143512   432435 
 3995000   0.99341047      -3.1873   -1.6743309  0.073600884      -3.1873    1.5129691   432428 
 3996000   0.99217368    -3.185068   -1.6739581  0.075092211    -3.185068    1.5111099   432421 
 3997000   0.99287214   -3.1866904   -1.6744957  0.068868356   -3.1866904    1.5121947   432415 
 3998000   0.99345117    -3.185939   -1.6728379  0.066917179    -3.185939    1.5131011   432408 
 3999000   0.99346766   -3.1850045   -1.6718538  0.072406052   -3.1850045    1.5131507   432401 
 4000000   0.99191613   -3.1841274   -1.6733189  0.076290061   -3.1841274    1.5108085   432395 
 4001000   0.99198588   -3.1849183   -1.6739791  0.071806291   -3.1849183    1.5109392   432388 
 4002000   0.99323419   -3.1867471    -1.673882  0.066544268   -3.1867471    1.5128651   432381 
 4003000   0.99275353   -3.1849463   -1.6727924  0.068818399   -3.1849463    1.5121539   432375 
 4004000   0.99352938   -3.1845264   -1.6711662  0.074851428   -3.1845264    1.5133602   432368 
 4005000   0.99310577   -3.1841645   -1.6714251  0.069965165   -3.1841645    1.5127394   432361 
 4006000   0.99157213   -3.1835321   -1.6731078  0.072266779   -3.1835321    1.5104243   432355 
 4007000   0.99048249    -3.181997   -1.6732082   0.06858909    -3.181997    1.5087889   432348 
 4008000   0.99018434   -3.1831578   -1.6747987  0.066358569   -3.1831578    1.5083592   432341 
 4009000   0.99049821   -3.1838983   -1.6750401  0.061775181   -3.1838983    1.5088582   432335 
 4010000   0.99078282   -3.1845798   -1.6752636  0.068166689   -3.1845798    1.5093162   432328 
 4011000   0.99216319   -3.1859168   -1.6744734  0.066266371   -3.1859168    1.5114435   432321 
 4012000   0.99098932   -3.1834085   -1.6737323  0.069277903   -3.1834085    1.5096762   432315 
 4013000   0.99196699   -3.1854001   -1.6742101  0.065579475   -3.1854001      1.51119   432308 
 4014000   0.99116242   -3.1842016   -1.6742128  0.062879052   -3.1842016    1.5099888   432301 
 4015000   0.98995781   -3.1821684   -1.6739939  0.069899456   -3.1821684    1.5081745   432295 
 4016000   0.99144257   -3.1834912   -1.6730302   0.06387207   -3.1834912     1.510461   432288 
 4017000    0.9917367   -3.1843203   -1.6733868  0.070846262   -3.1843203    1.5109336   432281 
 4018000   0.99194286   -3.1838539   -1.6725852  0.072118036   -3.1838539    1.5112686   432275 
 4019000   0.99391863   -3.1872306   -1.6729273  0.063928559   -3.1872306    1.5143033   432268 
 4020000   0.99157086   -3.1827035   -1.6719527  0.065855022   -3.1827035    1.5107508   432261 
 4021000     0.992709   -3.1840104   -1.6715046   0.07044335   -3.1840104    1.5125059   432255 
 4022000   0.99370335   -3.1855589   -1.6715135   0.07395194   -3.1855589    1.5140454   432248 
 4023000   0.99186692   -3.1850562   -1.6737844  0.071292414   -3.1850562    1.5112718   432241 
 4024000   0.99217114   -3.1850889   -1.6733326  0.068312747   -3.1850889    1.5117563   432235 
 4025000   0.99227469     -3.18531   -1.6733714  0.066876237     -3.18531    1.5119386   432228 
 4026000   0.99130839   -3.1845201   -1.6740294  0.073949225   -3.1845201    1.5104907   432221 
 4027000    0.9913224   -3.1851851   -1.6746521  0.069014466   -3.1851851     1.510533   432215 
 4028000   0.99141149   -3.1862135   -1.6755202  0.071432103   -3.1862135    1.5106932   432208 
 4029000   0.99063427   -3.1853669   -1.6758336  0.067274211   -3.1853669    1.5095334   432201 
 4030000     0.992595   -3.1866454   -1.6741033    0.0694083   -3.1866454    1.5125421   432195 
 4031000   0.99220369   -3.1868559   -1.6748856  0.070667655   -3.1868559    1.5119703   432188 
 4032000    0.9921461   -3.1882242   -1.6763172  0.066928452   -3.1882242    1.5119071   432181 
 4033000   0.99265579   -3.1871445   -1.6744397  0.068329105   -3.1871445    1.5127048   432175 
 4034000   0.99235669   -3.1872382   -1.6749648  0.069226797   -3.1872382    1.5122734   432168 
 4035000   0.99247962   -3.1869501   -1.6744648  0.071046628   -3.1869501    1.5124853   432161 
 4036000    0.9930428   -3.1869297   -1.6735651  0.069532518   -3.1869297    1.5133646   432155 
 4037000    0.9921724   -3.1857519   -1.6736894  0.071922863   -3.1857519    1.5120626   432148 
 4038000   0.99303329   -3.1885299   -1.6751309  0.070887536   -3.1885299    1.5133991   432141 
 4039000   0.99183266   -3.1870291   -1.6754388  0.069691922   -3.1870291    1.5115903   432135 
 4040000   0.99183082   -3.1873131   -1.6757011  0.066972457   -3.1873131     1.511612   432128 
 4041000   0.99343255   -3.1886282   -1.6745506   0.06838459   -3.1886282    1.5140776   432121 
 4042000    0.9928868   -3.1877163   -1.6744494  0.074369315   -3.1877163    1.5132669   432115 
 4043000   0.99224422   -3.1863861   -1.6740741  0.071427003   -3.1863861     1.512312   432108 
 4044000   0.99157538   -3.1866124   -1.6752953  0.070336658   -3.1866124    1.5113171   432101 
 4045000   0.99182237   -3.1882044   -1.6764898   0.06866686   -3.1882044    1.5117145   432095 
 4046000   0.99119423   -3.1885568   -1.6777752  0.066144675   -3.1885568    1.5107816   432088 
 4047000   0.99030922   -3.1878348   -1.6783777  0.069558987   -3.1878348    1.5094571   432081 
 4048000   0.99040565   -3.1869679   -1.6773428  0.063414107   -3.1869679    1.5096251   432075 
 4049000   0.98965142   -3.1863399     -1.67784   0.06868205   -3.1863399    1.5084999   432068 
 4050000   0.99038855   -3.1867449    -1.677097  0.068189829   -3.1867449    1.5096479   432061 
 4051000   0.99105002   -3.1878189   -1.6771417  0.066827967   -3.1878189    1.5106772   432055 
 4052000   0.99138877   -3.1889392   -1.6777212  0.069211479   -3.1889392     1.511218   432048 
 4053000    0.9914031   -3.1882349   -1.6769705  0.067141546   -3.1882349    1.5112644   432041 
 4054000   0.99211468   -3.1893308   -1.6769607  0.068217973   -3.1893308    1.5123701   432035 
 4055000   0.99139999   -3.1877877   -1.6764826  0.067272651   -3.1877877    1.5113051   432028 
 4056000   0.99279282   -3.1883588   -1.6749059   0.07323713   -3.1883588    1.5134529   432021 
 4057000   0.99144123   -3.1864954   -1.6750819  0.065733546   -3.1864954    1.5114134   432015 
 4058000   0.99144278   -3.1861223    -1.674682  0.070824814   -3.1861223    1.5114403   432008 
 4059000   0.99369822   -3.1887438   -1.6738406  0.066619573   -3.1887438    1.5149032   432001 
 4060000   0.99216762   -3.1865242   -1.6739333  0.073536116   -3.1865242    1.5125908   431995 
 4061000   0.99281313   -3.1875305    -1.673931  0.071302671   -3.1875305    1.5135994   431988 
 4062000   0.99292578   -3.1887844   -1.6749887  0.071878176   -3.1887844    1.5137957   431981 
 4063000   0.99206294   -3.1878122    -1.675311  0.068834048   -3.1878122    1.5125013   431975 
 4064000   0.99013069   -3.1854561   -1.6758763  0.066808065   -3.1854561    1.5095798   431968 
 4065000   0.99055028   -3.1860255   -1.6757815  0.069415414   -3.1860255     1.510244   431961 
 4066000   0.99093105   -3.1867153   -1.6758697  0.069160999   -3.1867153    1.5108455   431955 
 4067000   0.99188749    -3.186519   -1.6741907  0.066738017    -3.186519    1.5123283   431948 
 4068000   0.99228338    -3.187636   -1.6746796   0.06892187    -3.187636    1.5129564   431941 
 4069000   0.99108358   -3.1861047   -1.6749566  0.068107783   -3.1861047    1.5111481   431935 
 4070000   0.99066557   -3.1852068   -1.6746716  0.069580406   -3.1852068    1.5105352   431928 
 4071000   0.99105196   -3.1860992   -1.6749504   0.06920605   -3.1860992    1.5111488   431921 
 4072000   0.99007806   -3.1848417   -1.6751569  0.071757552   -3.1848417    1.5096848   431915 
 4073000   0.99033254   -3.1865083    -1.676411   0.06560067   -3.1865083    1.5100973   431908 
 4074000   0.99038136   -3.1855272    -1.675331  0.071174125   -3.1855272    1.5101962   431901 
 4075000   0.99084138   -3.1863859   -1.6754672  0.063986447   -3.1863859    1.5109187   431895 
 4076000   0.99115917   -3.1887057   -1.6772779   0.06708574   -3.1887057    1.5114278   431888 
 4077000   0.99003562   -3.1859502   -1.6762112  0.068340307   -3.1859502    1.5097389   431881 
 4078000   0.99078448   -3.1873453   -1.6764434  0.069669399   -3.1873453    1.5109019   431875 
 4079000    0.9915228   -3.1877301   -1.6756778  0.069518808   -3.1877301    1.5120523   431868 
 4080000   0.98981794   -3.1858343   -1.6763574  0.070776707   -3.1858343    1.5094769   431861 
 4081000   0.99017404   -3.1866544   -1.6766135  0.065569015   -3.1866544    1.5100409   431855 
 4082000    0.9908526   -3.1868701   -1.6757699  0.067250272   -3.1868701    1.5111002   431848 
 4083000   0.99140376   -3.1878255   -1.6758602  0.068950693   -3.1878255    1.5119653   431841 
 4084000   0.99063866   -3.1866171   -1.6757977  0.070420715   -3.1866171    1.5108194   431835 
 4085000   0.99021813   -3.1880451   -1.6778426  0.066210721   -3.1880451    1.5102026   431828 
 4086000   0.99088262   -3.1889405      -1.6777  0.064900406   -3.1889405    1.5112405   431821 
 4087000   0.99030064   -3.1881581   -1.6777842  0.073631139   -3.1881581    1.5103739   431815 
 4088000   0.99021238   -3.1890428   -1.6787791  0.064764427   -3.1890428    1.5102638   431808 
 4089000   0.99055747   -3.1898198   -1.6790052  0.067346321   -3.1898198    1.5108146   431801 
 4090000   0.99182085   -3.1907865    -1.678024  0.067236356   -3.1907865    1.5127625   431795 
 4091000   0.99072374   -3.1889066    -1.677793  0.071079167   -3.1889066    1.5111137   431788 
 4092000   0.99121662   -3.1907148   -1.6788249  0.072720922   -3.1907148      1.51189   431781 
 4093000   0.99061064   -3.1904957   -1.6795091   0.07308103   -3.1904957    1.5109867   431775 
 4094000   0.99038084   -3.1912617   -1.6806011   0.06986881   -3.1912617    1.5106606   431768 
 4095000   0.99053736   -3.1919903   -1.6810665   0.07182324   -3.1919903    1.5109239   431761 
 4096000   0.99057603    -3.191529   -1.6805252  0.070894138    -3.191529    1.5110038   431755 
 4097000   0.99051331   -3.1913279   -1.6803953  0.075157807   -3.1913279    1.5109327   431748 
 4098000   0.99199976      -3.1937   -1.6804754  0.070424207      -3.1937    1.5132246   431741 
 4099000    0.9907974   -3.1909727   -1.6795611  0.075489982   -3.1909727    1.5114115   431735 
 4100000   0.98944418   -3.1905072   -1.6811355  0.071439126   -3.1905072    1.5093717   431728 
 4101000   0.99051538    -3.193002   -1.6819717  0.067187592    -3.193002    1.5110303   431721 
 4102000   0.99009381   -3.1917034   -1.6812951   0.06995787   -3.1917034    1.5104082   431715 
 4103000   0.99134276   -3.1925436   -1.6802056  0.066043764   -3.1925436     1.512338   431708 
 4104000    0.9906256   -3.1904179   -1.6791494  0.072282619   -3.1904179    1.5112685   431701 
 4105000   0.99077676   -3.1911539   -1.6796338  0.070909739   -3.1911539    1.5115201   431695 
 4106000   0.99038601   -3.1911207   -1.6801722  0.073756433   -3.1911207    1.5109485   431688 
 4107000   0.98997716   -3.1894114   -1.6790622  0.071527666   -3.1894114    1.5103492   431681 
 4108000   0.99119557    -3.190944   -1.6787149  0.068110232    -3.190944    1.5122291   431675 
 4109000    0.9905899    -3.190847   -1.6795175  0.063678577    -3.190847    1.5113295   431668 
 4110000   0.99138247   -3.1935252   -1.6809619  0.069398253   -3.1935252    1.5125633   431661 
 4111000    0.9898494   -3.1898703   -1.6796251  0.071147644   -3.1898703    1.5102453   431655 
 4112000   0.98950964   -3.1888181   -1.6790668  0.068121528   -3.1888181    1.5097514   431648 
 4113000   0.98879187   -3.1882204   -1.6795398  0.070214499   -3.1882204    1.5086807   431641 
 4114000   0.98907276   -3.1891743    -1.680044  0.068913192   -3.1891743    1.5091302   431635 
 4115000   0.98973251   -3.1892462   -1.6790848  0.069006924   -3.1892462    1.5101614   431628 
 4116000   0.98779554   -3.1878271   -1.6805968  0.067661812   -3.1878271    1.5072303   431621 
 4117000    0.9878648   -3.1878547   -1.6804978  0.068947112   -3.1878547     1.507357   431615 
 4118000   0.98927912    -3.189922   -1.6803825  0.065105854    -3.189922    1.5095395   431608 
 4119000   0.98956845   -3.1896547   -1.6796492  0.066887509   -3.1896547    1.5100055   431601 
 4120000   0.98857707   -3.1895008   -1.6809871  0.065904868   -3.1895008    1.5085137   431595 
 4121000   0.98788094   -3.1892224   -1.6817465  0.072454135   -3.1892224    1.5074759   431588 
 4122000   0.98747913   -3.1891505   -1.6822633  0.068994251   -3.1891505    1.5068872   431581 
 4123000   0.98908929   -3.1897264   -1.6803611  0.065461153   -3.1897264    1.5093653   431575 
 4124000   0.98918929   -3.1892265   -1.6796841  0.070945056   -3.1892265    1.5095423   431568 
 4125000   0.98970201    -3.189449   -1.6790997  0.070493432    -3.189449    1.5103493   431561 
 4126000   0.98973435   -3.1902226    -1.679803  0.069911931   -3.1902226    1.5104196   431555 
 4127000   0.98829702   -3.1877949   -1.6795443  0.067028782   -3.1877949    1.5082506   431548 
 4128000   0.98992642   -3.1897225   -1.6789607  0.069509347   -3.1897225    1.5107618   431541 
 4129000   0.99077567   -3.1909626   -1.6788838  0.068848892   -3.1909626    1.5120789   431535 
 4130000   0.98993675   -3.1896344   -1.6788114  0.072095013   -3.1896344     1.510823   431528 
 4131000   0.99113227   -3.1918793   -1.6792071  0.068382276   -3.1918793    1.5126722   431521 
 4132000   0.99021832   -3.1915151   -1.6802168  0.070073856   -3.1915151    1.5112983   431515 
 4133000   0.98932063   -3.1899823   -1.6800296  0.067103588   -3.1899823    1.5099527   431508 
 4134000   0.98801983   -3.1896022   -1.6816104  0.064360751   -3.1896022    1.5079918   431501 
 4135000   0.98903595    -3.190427   -1.6808633  0.068658614    -3.190427    1.5095637   431495 
 4136000   0.99089228   -3.1924644   -1.6800428  0.069330393   -3.1924644    1.5124215   431488 
 4137000   0.98999065   -3.1907032   -1.6796333  0.070672452   -3.1907032    1.5110699   431481 
 4138000   0.98850025   -3.1895998   -1.6807838   0.06882251   -3.1895998     1.508816   431475 
 4139000    0.9891119   -3.1904529   -1.6806788  0.065725132   -3.1904529    1.5097741   431468 
 4140000   0.98876697    -3.190591   -1.6813189  0.073860552    -3.190591    1.5092721   431461 
 4141000   0.98982968   -3.1928028   -1.6818876  0.069906216   -3.1928028    1.5109152   431455 
 4142000   0.98845544   -3.1912317   -1.6823897  0.069280976   -3.1912317     1.508842   431448 
 4143000   0.98812984   -3.1904811   -1.6821116  0.065493947   -3.1904811    1.5083695   431441 
 4144000   0.98716882   -3.1884652   -1.6815418   0.06159278   -3.1884652    1.5069234   431435 
 4145000   0.98807549   -3.1897637   -1.6814317  0.061815741   -3.1897637     1.508332   431428 
 4146000   0.98849975   -3.1911998   -1.6821957  0.063181617   -3.1911998    1.5090041   431421 
 4147000   0.98717551   -3.1885335     -1.68153  0.070280558   -3.1885335    1.5070035   431415 
 4148000   0.98770825   -3.1900757   -1.6822344   0.06640625   -3.1900757    1.5078412   431408 
 4149000     0.988075   -3.1895483   -1.6811227  0.068778251   -3.1895483    1.5084256   431401 
 4150000   0.98670604   -3.1885976    -1.682241  0.068945412   -3.1885976    1.5063567   431395 
 4151000   0.98763852   -3.1886582   -1.6808535  0.067765964   -3.1886582    1.5078047   431388 
 4152000   0.98862704   -3.1904628   -1.6811245   0.06880028   -3.1904628    1.5093383   431381 
 4153000    0.9880862   -3.1891211   -1.6805875  0.066249921   -3.1891211    1.5085336   431375 
 4154000   0.99055003   -3.1920716   -1.6797519  0.064841878   -3.1920716    1.5123197   431368 
 4155000   0.98897111   -3.1894117    -1.679478  0.062896296   -3.1894117    1.5099336   431361 
 4156000   0.98896509    -3.188688   -1.6787426  0.068680174    -3.188688    1.5099454   431355 
 4157000   0.99101905   -3.1910807   -1.6779747  0.069933899   -3.1910807     1.513106   431348 
 4158000   0.99131431   -3.1925225   -1.6789412  0.064419317   -3.1925225    1.5135813   431341 
 4159000   0.98985133   -3.1911893   -1.6798207  0.067100734   -3.1911893    1.5113686   431335 
 4160000   0.98899972   -3.1918493   -1.6817564  0.070975484   -3.1918493    1.5100928   431328 
 4161000   0.98875485   -3.1898907   -1.6801473  0.066732198   -3.1898907    1.5097435   431321 
 4162000   0.98998043   -3.1919661   -1.6803303  0.073096052   -3.1919661    1.5116358   431315 
 4163000   0.98864949   -3.1909727   -1.6813446  0.066504663   -3.1909727    1.5096281   431308 
 4164000   0.98821544    -3.191537   -1.6825472   0.07010943    -3.191537    1.5089898   431301 
 4165000   0.98864045   -3.1918623   -1.6822025   0.06288748   -3.1918623    1.5096598   431295 
 4166000   0.98871775   -3.1916115   -1.6818092  0.065968724   -3.1916115    1.5098023   431288 
 4167000   0.98956621   -3.1923032   -1.6811808  0.068737514   -3.1923032    1.5111225   431281 
 4168000   0.98865044   -3.1919169   -1.6821719  0.067286877   -3.1919169     1.509745   431275 
 4169000   0.98892497   -3.1913041   -1.6811153  0.066385496   -3.1913041    1.5101888   431268 
 4170000   0.98919517   -3.1929847   -1.6823588  0.060486863   -3.1929847    1.5106259   431261 
 4171000    0.9896922   -3.1932179   -1.6818119  0.065233377   -3.1932179     1.511406   431255 
 4172000   0.98927742   -3.1925184   -1.6817214  0.066821325   -3.1925184    1.5107971   431248 
 4173000   0.99037972   -3.1938986   -1.6813936  0.065984326   -3.1938986     1.512505   431241 
 4174000     0.988935   -3.1921172   -1.6817975  0.071194765   -3.1921172    1.5103197   431235 
 4175000   0.98892556   -3.1934384   -1.6831086  0.065098662   -3.1934384    1.5103298   431228 
 4176000   0.98841826   -3.1929188   -1.6833393  0.062030434   -3.1929188    1.5095795   431221 
 4177000   0.98982508   -3.1944673   -1.6827182  0.072070802   -3.1944673    1.5117491   431215 
 4178000   0.98796749   -3.1929828   -1.6840462  0.068165461   -3.1929828    1.5089365   431208 
 4179000   0.98751614   -3.1930003   -1.6847287  0.069224669   -3.1930003    1.5082717   431201 
 4180000   0.98801679    -3.192123   -1.6830657  0.068020964    -3.192123    1.5090573   431195 
 4181000   0.98691409   -3.1902657   -1.6828681  0.069401167   -3.1902657    1.5073976   431188 
 4182000    0.9883219   -3.1932774    -1.683705  0.062477181   -3.1932774    1.5095724   431181 
 4183000   0.98920445   -3.1940416   -1.6831002  0.067558896   -3.1940416    1.5109414   431175 
 4184000   0.98798349   -3.1933394   -1.6842384  0.069541344   -3.1933394     1.509101   431168 
 4185000   0.98905404   -3.1956644   -1.6849037  0.073792003   -3.1956644    1.5107607   431161 
 4186000   0.98842611   -3.1942949   -1.6844724  0.065206844   -3.1942949    1.5098226   431155 
 4187000   0.98806138   -3.1927175   -1.6834276  0.073366396   -3.1927175      1.50929   431148 
 4188000   0.98994417   -3.1948276   -1.6826371   0.06661145   -3.1948276    1.5121905   431141 
 4189000   0.99024291   -3.1945554   -1.6818875  0.067383031   -3.1945554    1.5126679   431135 
 4190000   0.98858713   -3.1923137   -1.6821506  0.067903714   -3.1923137    1.5101631   431128 
 4191000   0.98882906   -3.1927733   -1.6822161  0.071658791   -3.1927733    1.5105572   431121 
 4192000   0.98837078   -3.1919344   -1.6820562  0.071797162   -3.1919344    1.5098781   431115 
 4193000   0.98805761   -3.1926769   -1.6832527  0.076121008   -3.1926769    1.5094242   431108 
 4194000   0.98859443   -3.1937842   -1.6835154  0.067828804   -3.1937842    1.5102688   431101 
 4195000    0.9888012   -3.1932124   -1.6826067  0.068231695   -3.1932124    1.5106057   431095 
 4196000   0.98925931   -3.1928304   -1.6815003  0.070817152   -3.1928304    1.5113301   431088 
 4197000   0.98900614    -3.193443   -1.6824751    0.0671148    -3.193443    1.5109679   431081 
 4198000   0.98643685   -3.1914068   -1.6843432  0.066268379   -3.1914068    1.5070636   431075 
 4199000   0.98686864   -3.1918402   -1.6840924  0.066688173   -3.1918402    1.5077478   431068 
 4200000   0.98839023   -3.1927336   -1.6826366  0.067134392   -3.1927336     1.510097   431061 
 4201000   0.98770378    -3.192186   -1.6831168  0.065471909    -3.192186    1.5090692   431055 
 4202000   0.98770775   -3.1938718    -1.684772  0.064216119   -3.1938718    1.5090998   431048 
 4203000   0.98762054   -3.1935396   -1.6845486  0.065507085   -3.1935396    1.5089911   431041 
 4204000   0.98781442   -3.1924978   -1.6831895   0.06587891   -3.1924978    1.5093083   431035 
 4205000   0.98789019   -3.1917731   -1.6823245  0.067393433   -3.1917731    1.5094486   431028 
 4206000   0.98718542   -3.1915872    -1.683191  0.065196659   -3.1915872    1.5083962   431021 
 4207000   0.98737961   -3.1924318   -1.6837178  0.059242175   -3.1924318    1.5087139   431015 
 4208000   0.98457117   -3.1880324   -1.6835854  0.065971042   -3.1880324    1.5044471   431008 
 4209000   0.98672317   -3.1898306   -1.6820707  0.064953515   -3.1898306    1.5077599   431001 
 4210000   0.98701786   -3.1899374   -1.6817062  0.065982689   -3.1899374    1.5082312   430995 
 4211000   0.98797264   -3.1917321   -1.6820174  0.066689669   -3.1917321    1.5097147   430988 
 4212000   0.98822388   -3.1927422   -1.6826191  0.062242629   -3.1927422    1.5101231   430981 
 4213000   0.98820899   -3.1936127   -1.6834914  0.063892389   -3.1936127    1.5101214   430975 
 4214000   0.98737204   -3.1923079    -1.683441  0.065920659   -3.1923079    1.5088669   430968 
 4215000   0.98595194    -3.191617   -1.6848958  0.070199539    -3.191617    1.5067212   430961 
 4216000   0.98572832   -3.1906534   -1.6842529  0.065362451   -3.1906534    1.5064005   430955 
 4217000   0.98480246   -3.1891535   -1.6841435  0.068507441   -3.1891535      1.50501   430948 
 4218000   0.98566748   -3.1919818   -1.6856253  0.063963925   -3.1919818    1.5063564   430941 
 4219000    0.9856709   -3.1906397   -1.6842571  0.068170959   -3.1906397    1.5063826   430935 
 4220000   0.98691101   -3.1929754    -1.684673  0.065886234   -3.1929754    1.5083024   430928 
 4221000   0.98583219   -3.1911798   -1.6845017  0.063302648   -3.1911798    1.5066781   430921 
 4222000   0.98765512   -3.1943962   -1.6849111  0.064137928   -3.1943962    1.5094851   430915 
 4223000   0.98632553    -3.191647   -1.6841695  0.067542418    -3.191647    1.5074775   430908 
 4224000   0.98781948   -3.1936269   -1.6838415  0.064292508   -3.1936269    1.5097854   430901 
 4225000   0.98795308   -3.1931819   -1.6831713  0.071397682   -3.1931819    1.5100106   430895 
 4226000   0.98679613   -3.1907454   -1.6824786    0.0690921   -3.1907454    1.5082668   430888 
 4227000   0.98787607   -3.1929481   -1.6830062  0.070197833   -3.1929481     1.509942   430881 
 4228000    0.9886458   -3.1950635    -1.683924  0.068630243   -3.1950635    1.5111395   430875 
 4229000   0.98822433    -3.196056   -1.6855362  0.064974645    -3.196056    1.5105198   430868 
 4230000   0.98851577   -3.1946581   -1.6836683   0.06898988   -3.1946581    1.5109899   430861 
 4231000   0.98828013   -3.1938551   -1.6832044   0.06909343   -3.1938551    1.5106507   430855 
 4232000   0.98844271   -3.1946576   -1.6837338  0.067333586   -3.1946576    1.5109238   430848 
 4233000   0.98829586   -3.1953691   -1.6846452  0.068855674   -3.1953691    1.5107238   430841 
 4234000   0.98760442   -3.1938646   -1.6841766  0.071807169   -3.1938646    1.5096879   430835 
 4235000   0.98692369   -3.1942607   -1.6855888  0.065098475   -3.1942607    1.5086718   430828 
 4236000   0.98693498   -3.1928727   -1.6841591  0.065982939   -3.1928727    1.5087136   430821 
 4237000   0.98536142   -3.1923891     -1.68606  0.068954332   -3.1923891    1.5063291   430815 
 4238000   0.98631772   -3.1937562   -1.6859407  0.069056353   -3.1937562    1.5078155   430808 
 4239000   0.98549433   -3.1929202   -1.6863389  0.066463558   -3.1929202    1.5065813   430801 
 4240000   0.98712889    -3.194994   -1.6858929  0.065645455    -3.194994    1.5091011   430795 
 4241000   0.98599896   -3.1938875   -1.6864893  0.066699518   -3.1938875    1.5073982   430788 
 4242000   0.98679824   -3.1935716    -1.684927  0.066449664   -3.1935716    1.5086446   430781 
 4243000   0.98749037   -3.1949581   -1.6852343   0.06658931   -3.1949581    1.5097238   430775 
 4244000   0.98763679    -3.195146   -1.6851738  0.064630038    -3.195146    1.5099722   430768 
 4245000   0.98525796    -3.191433   -1.6850733  0.065596998    -3.191433    1.5063598   430761 
 4246000   0.98511488   -3.1920025   -1.6858405  0.069162171   -3.1920025     1.506162   430755 
 4247000   0.98621385   -3.1950228   -1.6871561  0.068377251   -3.1950228    1.5078667   430748 
 4248000   0.98822332   -3.1971148   -1.6861512  0.068928195   -3.1971148    1.5109637   430741 
 4249000   0.98647522   -3.1939938    -1.685682  0.066983984   -3.1939938    1.5083119   430735 
 4250000   0.98561024   -3.1930073   -1.6859935  0.068085071   -3.1930073    1.5070138   430728 
 4251000   0.98600566   -3.1938105   -1.6861676  0.064188847   -3.1938105    1.5076429   430721 
 4252000   0.98611335    -3.194343   -1.6865144  0.065695411    -3.194343    1.5078286   430715 
 4253000    0.9870302   -3.1936394   -1.6843844  0.068420033   -3.1936394     1.509255   430708 
 4254000   0.98644081   -3.1935516   -1.6851732   0.06600796   -3.1935516    1.5083783   430701 
 4255000   0.98712629   -3.1957918   -1.6863443  0.063210419   -3.1957918    1.5094475   430695 
 4256000   0.98648049   -3.1939469   -1.6854624  0.067210461   -3.1939469    1.5084845   430688 
 4257000     0.986764   -3.1944713   -1.6855287   0.06894026   -3.1944713    1.5089426   430681 
 4258000   0.98525224   -3.1920785   -1.6854267  0.058859354   -3.1920785    1.5066518   430675 
 4259000   0.98575253   -3.1928871   -1.6854458  0.058346431   -3.1928871    1.5074414   430668 
 4260000   0.98474373   -3.1912353   -1.6853121  0.066127313   -3.1912353    1.5059232   430661 
 4261000   0.98588829   -3.1929956   -1.6853011   0.06042801   -3.1929956    1.5076945   430655 
 4262000   0.98512214   -3.1926085   -1.6860611  0.065128513   -3.1926085    1.5065473   430648 
 4263000   0.98635213   -3.1941436   -1.6856907  0.065342097   -3.1941436    1.5084529   430641 
 4264000   0.98460538   -3.1930715    -1.687269  0.065289424   -3.1930715    1.5058025   430635 
 4265000   0.98533492   -3.1936869   -1.6867442  0.067341907   -3.1936869    1.5069427   430628 
 4266000   0.98633185   -3.1940422   -1.6855503  0.064054476   -3.1940422    1.5084919   430621 
 4267000   0.98623761   -3.1943746   -1.6860058  0.059083173   -3.1943746    1.5083688   430615 
 4268000   0.98700102   -3.1950784   -1.6855175   0.06584285   -3.1950784    1.5095609   430608 
 4269000   0.98518104   -3.1938195   -1.6870177  0.067593576   -3.1938195    1.5068018   430601 
 4270000    0.9865498   -3.1952062   -1.6862899  0.065468987   -3.1952062    1.5089163   430595 
 4271000   0.98526685   -3.1930229   -1.6860444  0.067240237   -3.1930229    1.5069786   430588 
 4272000   0.98449552   -3.1926664   -1.6868431  0.064076402   -3.1926664    1.5058233   430581 
 4273000    0.9847649   -3.1940624    -1.687806  0.059907984   -3.1940624    1.5062563   430575 
 4274000   0.98478574   -3.1954778   -1.6891651  0.068739344   -3.1954778    1.5063127   430568 
 4275000   0.98505351   -3.1950531   -1.6883064  0.060582827   -3.1950531    1.5067468   430561 
 4276000   0.98544316    -3.194962   -1.6875982  0.066379813    -3.194962    1.5073638   430555 
 4277000   0.98537752   -3.1944519    -1.687164  0.070229361   -3.1944519    1.5072879   430548 
 4278000   0.98530908   -3.1964476   -1.6892399  0.063951632   -3.1964476    1.5072077   430541 
 4279000   0.98690654   -3.1987036   -1.6890313  0.064951961   -3.1987036    1.5096723   430535 
 4280000   0.98472283   -3.1960865   -1.6897301  0.066775082   -3.1960865    1.5063564   430528 
 4281000   0.98525055   -3.1968543   -1.6896661  0.065826294   -3.1968543    1.5071882   430521 
 4282000   0.98642111   -3.1972144   -1.6882145  0.069267084   -3.1972144    1.5089999   430515 
 4283000   0.98685202   -3.1970062   -1.6873226  0.069659636   -3.1970062    1.5096836   430508 
 4284000   0.98720553   -3.1994585   -1.6892095  0.064641402   -3.1994585     1.510249   430501 
 4285000   0.98606194   -3.1982115    -1.689691  0.068836767   -3.1982115    1.5085205   430495 
 4286000   0.98575747   -3.1981135   -1.6900343  0.072983465   -3.1981135    1.5080792   430488 
 4287000   0.98671747   -3.1977028   -1.6881304   0.06425275   -3.1977028    1.5095724   430481 
 4288000   0.98485114   -3.1953051   -1.6885669  0.071463189   -3.1953051    1.5067382   430475 
 4289000   0.98672433   -3.1983177   -1.6886891  0.069217795   -3.1983177    1.5096285   430468 
 4290000   0.98659278   -3.1973375   -1.6878857  0.069135784   -3.1973375    1.5094518   430461 
 4291000   0.98646773   -3.1972496   -1.6879681  0.068224706   -3.1972496    1.5092815   430455 
 4292000   0.98631895   -3.1971305   -1.6880521  0.068692812   -3.1971305    1.5090784   430448 
 4293000   0.98634163   -3.1975108   -1.6883731  0.064594892   -3.1975108    1.5091377   430441 
 4294000   0.98524071   -3.1956901   -1.6882158  0.073487034   -3.1956901    1.5074743   430435 
 4295000   0.98611277   -3.1953301    -1.686497  0.071811196   -3.1953301    1.5088331   430428 
 4296000   0.98439657   -3.1933054   -1.6870737  0.071388076   -3.1933054    1.5062317   430421 
 4297000   0.98366606   -3.1927152   -1.6875804  0.067316222   -3.1927152    1.5051349   430415 
 4298000   0.98318187   -3.1912374   -1.6868189  0.062982717   -3.1912374    1.5044185   430408 
 4299000   0.98414116   -3.1926392   -1.6867283  0.064997052   -3.1926392    1.5059108   430401 
 4300000   0.98380379    -3.193825   -1.6884094  0.060961613    -3.193825    1.5054156   430395 
 4301000   0.98415556   -3.1933398   -1.6873615  0.065546369   -3.1933398    1.5059784   430388 
 4302000   0.98382611   -3.1932498   -1.6877511  0.057504539   -3.1932498    1.5054987   430381 
 4303000    0.9845171     -3.19307   -1.6864929  0.062727993     -3.19307    1.5065771   430375 
 4304000   0.98211335   -3.1903724   -1.6874493   0.06428997   -3.1903724    1.5029232   430368 
 4305000   0.98405002   -3.1928337   -1.6869224  0.066061563   -3.1928337    1.5059113   430361 
 4306000   0.98408475   -3.1925466   -1.6865611  0.066079863   -3.1925466    1.5059855   430355 
 4307000   0.98446937   -3.1930513   -1.6864527  0.071222928   -3.1930513    1.5065986   430348 
 4308000   0.98593421    -3.194159   -1.6852941  0.065480644    -3.194159    1.5088649   430341 
 4309000   0.98470984   -3.1926283   -1.6856162  0.064893512   -3.1926283    1.5070121   430335 
 4310000   0.98371873   -3.1925261   -1.6870063  0.061519165   -3.1925261    1.5055198   430328 
 4311000   0.98322992   -3.1902659   -1.6854697  0.069129958   -3.1902659    1.5047962   430321 
 4312000    0.9844198   -3.1945186   -1.6878803  0.057577999   -3.1945186    1.5066383   430315 
 4313000   0.98432892   -3.1953649   -1.6888412  0.062765578   -3.1953649    1.5065237   430308 
 4314000   0.98370121   -3.1941932   -1.6886058  0.063767756   -3.1941932    1.5055874   430301 
 4315000   0.98353971   -3.1945544   -1.6891932  0.066446072   -3.1945544    1.5053612   430295 
 4316000   0.98314598   -3.1963228   -1.6915397  0.067673345   -3.1963228    1.5047831   430288 
 4317000   0.98297824    -3.195408   -1.6908572  0.068286545    -3.195408    1.5045508   430281 
 4318000   0.98389378   -3.1973333   -1.6913602  0.066989097   -3.1973333    1.5059732   430275 
 4319000   0.98459925   -3.1981034   -1.6910259  0.062127464   -3.1981034    1.5070775   430268 
 4320000   0.98433452   -3.1983443   -1.6916475  0.065821644   -3.1983443    1.5066968   430261 
 4321000   0.98490432    -3.198336   -1.6907461  0.065368353    -3.198336      1.50759   430255 
 4322000   0.98387659   -3.1982202   -1.6921788  0.064761145   -3.1982202    1.5060414   430248 
 4323000   0.98418112     -3.19942    -1.692888  0.065665684     -3.19942     1.506532   430241 
 4324000   0.98510037    -3.201863   -1.6939028  0.067318181    -3.201863    1.5079602   430235 
 4325000   0.98666492   -3.2043494   -1.6939696  0.062687152   -3.2043494    1.5103797   430228 
 4326000   0.98416534   -3.2014141   -1.6948362   0.06784695   -3.2014141    1.5065779   430221 
 4327000   0.98568926   -3.2027064   -1.6937747  0.063971366   -3.2027064    1.5089318   430215 
 4328000   0.98507519    -3.201328   -1.6933117  0.071860396    -3.201328    1.5080163   430208 
 4329000   0.98511212    -3.200866   -1.6927686  0.074470245    -3.200866    1.5080974   430201 
 4330000   0.98701218   -3.2036092    -1.692582  0.068132681   -3.2036092    1.5110272   430195 
 4331000   0.98707062   -3.2041901   -1.6930488  0.068382837   -3.2041901    1.5111413   430188 
 4332000   0.98599181   -3.2027205   -1.6932063  0.067959451   -3.2027205    1.5095142   430181 
 4333000   0.98528528   -3.2020085   -1.6935548  0.071029182   -3.2020085    1.5084536   430175 
 4334000   0.98632741   -3.2052968   -1.6952232  0.069110947   -3.2052968    1.5100737   430168 
 4335000   0.98558442   -3.2039906   -1.6950299   0.06771064   -3.2039906    1.5089607   430161 
 4336000   0.98571693   -3.2043635   -1.6951788  0.066251302   -3.2043635    1.5091846   430155 
 4337000   0.98444161   -3.2022645   -1.6950079  0.064596541   -3.2022645    1.5072566   430148 
 4338000   0.98344862   -3.2020382   -1.6962775  0.065785459   -3.2020382    1.5057607   430141 
 4339000   0.98333915   -3.2015492   -1.6959351  0.068509285   -3.2015492    1.5056141   430135 
 4340000   0.98608081   -3.2028193   -1.6929828   0.06608417   -3.2028193    1.5098365   430128 
 4341000   0.98523274   -3.2018084   -1.6932458  0.067719853   -3.2018084    1.5085625   430121 
 4342000   0.98331435   -3.1994296   -1.6937835  0.065130549   -3.1994296    1.5056462   430115 
 4343000   0.98344454   -3.1998101   -1.6939401  0.068725354   -3.1998101      1.50587   430108 
 4344000   0.98445407   -3.1998313   -1.6923909   0.06381019   -3.1998313    1.5074404   430101 
 4345000   0.98396813    -3.200008   -1.6932907  0.065005636    -3.200008    1.5067173   430095 
 4346000   0.98355333   -3.1986998   -1.6925932  0.067943779   -3.1986998    1.5061066   430088 
 4347000   0.98412798   -3.1994656   -1.6924545  0.068573516   -3.1994656    1.5070111   430081 
 4348000   0.98421282    -3.199188    -1.692026  0.067312491    -3.199188     1.507162   430075 
 4349000   0.98452092   -3.1998121   -1.6921537  0.067920402   -3.1998121    1.5076584   430068 
 4350000   0.98389408   -3.1980398   -1.6913168  0.065190848   -3.1980398     1.506723   430061 
 4351000   0.98367896   -3.1968066    -1.690392  0.064672611   -3.1968066    1.5064146   430055 
 4352000   0.98407429   -3.1982822   -1.6912377  0.061993655   -3.1982822    1.5070445   430048 
 4353000   0.98268976   -3.1968567    -1.691908  0.068302381   -3.1968567    1.5049487   430041 
 4354000   0.98426773   -3.1965391   -1.6891528  0.067815476   -3.1965391    1.5073863   430035 
 4355000   0.98179776   -3.1944811    -1.690853  0.067382366   -3.1944811    1.5036281   430028 
 4356000   0.98478683    -3.198233   -1.6900026  0.062137113    -3.198233    1.5082304   430021 
 4357000   0.98289091   -3.1954243   -1.6900765  0.068334626   -3.1954243    1.5053478   430015 
 4358000   0.98245265   -3.1946831   -1.6899821  0.071631789   -3.1946831    1.5047011   430008 
 4359000   0.98304506   -3.1952688   -1.6896359  0.064734565   -3.1952688    1.5056329   430001 
 4360000   0.98254646   -3.1952696   -1.6903794  0.062265669   -3.1952696    1.5048902   429995 
 4361000   0.98266953   -3.1973968   -1.6922936  0.065893189   -3.1973968    1.5051032   429988 
 4362000   0.98231178    -3.196959   -1.6923792  0.068361456    -3.196959    1.5045798   429981 
 4363000   0.98247781   -3.1977272   -1.6928721   0.06174972   -3.1977272    1.5048551   429975 
 4364000   0.98225436   -3.1984698   -1.6939325  0.066479228   -3.1984698    1.5045373   429968 
 4365000   0.98294407   -3.1996789   -1.6940606  0.058386523   -3.1996789    1.5056183   429961 
 4366000    0.9809478    -3.198155   -1.6955736  0.066120884    -3.198155    1.5025815   429955 
 4367000   0.98204403   -3.1998457   -1.6955606   0.05927791   -3.1998457    1.5042851   429948 
 4368000   0.98075215   -3.1975232   -1.6951925  0.062856383   -3.1975232    1.5023307   429941 
 4369000   0.98238115   -3.2004627   -1.6956157  0.066283006   -3.2004627     1.504847   429935 
 4370000   0.98309694    -3.201983    -1.696015  0.057218403    -3.201983     1.505968   429928 
 4371000   0.98475592   -3.2027848   -1.6942509  0.068585485   -3.2027848    1.5085339   429921 
 4372000   0.98357916   -3.2020996   -1.6953473  0.067615097   -3.2020996    1.5067523   429915 
 4373000    0.9847016   -3.2049911   -1.6964948  0.064332745   -3.2049911    1.5084963   429908 
 4374000   0.98548915   -3.2066141   -1.6968868  0.071038136   -3.2066141    1.5097273   429901 
 4375000   0.98523756   -3.2067305   -1.6973675  0.067987032   -3.2067305     1.509363   429895 
 4376000   0.98598482   -3.2083324   -1.6978001  0.067012354   -3.2083324    1.5105324   429888 
 4377000   0.98648211   -3.2078364   -1.6965176  0.069214539   -3.2078364    1.5113188   429881 
 4378000   0.98569577   -3.2081717   -1.6980365  0.071584648   -3.2081717    1.5101352   429875 
 4379000   0.98520385   -3.2085239   -1.6991178  0.070113027   -3.2085239    1.5094062   429868 
 4380000   0.98298483   -3.2054076   -1.6993766  0.069073233   -3.2054076     1.506031   429861 
 4381000   0.98466645   -3.2081079   -1.6994795  0.065118421   -3.2081079    1.5086284   429855 
 4382000   0.98434869   -3.2054618   -1.6972957  0.068711505   -3.2054618    1.5081662   429848 
 4383000   0.98497692   -3.2061308   -1.6969776  0.071854098   -3.2061308    1.5091533   429841 
 4384000   0.98462146   -3.2056852   -1.6970555  0.069856731   -3.2056852    1.5086297   429835 
 4385000   0.98508091   -3.2054485   -1.6960902     0.067973   -3.2054485    1.5093582   429828 
 4386000   0.98539925   -3.2049518   -1.6950812  0.070836546   -3.2049518    1.5098706   429821 
 4387000   0.98510522   -3.2050051    -1.695564   0.07279675   -3.2050051    1.5094411   429815 
 4388000   0.98553564   -3.2051423    -1.695017  0.064322426   -3.2051423    1.5101253   429808 
 4389000   0.98366457   -3.2021746   -1.6948919   0.06993567   -3.2021746    1.5072828   429801 
 4390000   0.98318569    -3.201147   -1.6945769   0.07058905    -3.201147      1.50657   429795 
 4391000   0.98279304   -3.2013421   -1.6953492  0.062627015   -3.2013421    1.5059929   429788 
 4392000   0.98152707   -3.1989002   -1.6948227   0.06514152   -3.1989002    1.5040775   429781 
 4393000   0.98310637   -3.2017017   -1.6951831  0.056713983   -3.2017017    1.5065186   429775 
 4394000   0.98116072   -3.1984567   -1.6948951   0.06388962   -3.1984567    1.5035615   429768 
 4395000   0.98115509   -3.2000095   -1.6964321  0.064253237   -3.2000095    1.5035774   429761 
 4396000   0.97890277    -3.196965   -1.6968182  0.061689337    -3.196965    1.5001468   429755 
 4397000   0.98085052   -3.1990669   -1.6959108  0.060597548   -3.1990669    1.5031561   429748 
 4398000    0.9795475   -3.1970004   -1.6958167  0.067617852   -3.1970004    1.5011837   429741 
 4399000   0.97946521   -3.1965361   -1.6954575  0.061400976   -3.1965361    1.5010786   429735 
 4400000    0.9814904    -3.198015   -1.6938083  0.065221283    -3.198015    1.5042068   429728 
 4401000   0.97886786   -3.1953371   -1.6951252  0.058744906   -3.1953371     1.500212   429721 
 4402000    0.9795113   -3.1948133   -1.6935943  0.057943147   -3.1948133    1.5012191   429715 
 4403000   0.98202926   -3.1983542   -1.6932515   0.05831153   -3.1983542    1.5051027   429708 
 4404000   0.98346429   -3.1986815   -1.6913549  0.067652365   -3.1986815    1.5073266   429701 
 4405000   0.98408556   -3.2000896   -1.6917897  0.065168953   -3.2000896    1.5082999   429695 
 4406000   0.98224706   -3.1961521   -1.6906455  0.075947349   -3.1961521    1.5055065   429688 
 4407000   0.98234938   -3.1975588   -1.6918709  0.069100132   -3.1975588    1.5056879   429681 
 4408000   0.98440929   -3.1989326   -1.6900664  0.068094864   -3.1989326    1.5088663   429675 
 4409000   0.98580867   -3.2011909   -1.6901551  0.068862151   -3.2011909    1.5110358   429668 
 4410000   0.98618814   -3.2018926   -1.6902505  0.067384972   -3.2018926    1.5116421   429661 
 4411000   0.98232551   -3.1984156   -1.6926732   0.06752595   -3.1984156    1.5057424   429655 
 4412000    0.9834435   -3.2000837    -1.692603  0.069111345   -3.2000837    1.5074807   429648 
 4413000   0.98370358   -3.1998442   -1.6919403  0.067127395   -3.1998442    1.5079039   429641 
 4414000   0.98358586    -3.199725   -1.6919805  0.063267275    -3.199725    1.5077445   429635 
 4415000   0.98276657   -3.1988406   -1.6923274  0.067405253   -3.1988406    1.5065132   429628 
 4416000   0.98167537   -3.1988235   -1.6939585  0.067854334   -3.1988235    1.5048649   429621 
 4417000   0.98152209   -3.1984663   -1.6938153  0.066197814   -3.1984663     1.504651   429615 
 4418000   0.98107588    -3.198704   -1.6947126  0.066329585    -3.198704    1.5039915   429608 
 4419000   0.98339045   -3.2024851   -1.6949209  0.065737921   -3.2024851    1.5075643   429601 
 4420000   0.98411406   -3.2030599   -1.6943653  0.064599771   -3.2030599    1.5086947   429595 
 4421000   0.98219482   -3.2007422   -1.6949653  0.068659414   -3.2007422    1.5057769   429588 
 4422000   0.98316729   -3.2016122   -1.6943199  0.063773391   -3.2016122    1.5072923   429581 
 4423000    0.9833301     -3.20222   -1.6946571  0.066603682     -3.20222     1.507563   429575 
 4424000   0.98290984   -3.2027832     -1.69584  0.065257093   -3.2027832    1.5069432   429568 
 4425000   0.98410399   -3.2032096   -1.6944109  0.065523045   -3.2032096    1.5087986   429561 
 4426000   0.98283797   -3.2011149   -1.6942363   0.07344077   -3.2011149    1.5068786   429555 
 4427000   0.98329298   -3.2018705   -1.6942697  0.066307598   -3.2018705    1.5076008   429548 
 4428000    0.9838616   -3.2022226   -1.6937253  0.065129453   -3.2022226    1.5084972   429541 
 4429000   0.98145365   -3.1988905   -1.6940643  0.071666391   -3.1988905    1.5048263   429535 
 4430000   0.98115443   -3.1994774   -1.6950853  0.067878761   -3.1994774     1.504392   429528 
 4431000   0.98273941   -3.2008364   -1.6939896  0.068229831   -3.2008364    1.5068468   429521 
 4432000   0.98259947   -3.2005417   -1.6938884  0.068334197   -3.2005417    1.5066533   429515 
 4433000   0.98067393   -3.1983436   -1.6946183   0.06802838   -3.1983436    1.5037253   429508 
 4434000   0.98105614   -3.2001041   -1.6957682  0.058854463   -3.2001041    1.5043359   429501 
 4435000   0.98207424   -3.2004848   -1.6945668  0.066115935   -3.2004848    1.5059181   429495 
 4436000   0.98170667   -3.1997246   -1.6943456  0.062951486   -3.1997246    1.5053789   429488 
 4437000   0.98124018   -3.1989591    -1.694271  0.065734246   -3.1989591    1.5046881   429481 
 4438000   0.98299412   -3.2004662   -1.6930674   0.06790695   -3.2004662    1.5073988   429475 
 4439000   0.98105974   -3.1974037   -1.6929468  0.068889665   -3.1974037     1.504457   429468 
 4440000   0.98147639   -3.1985624   -1.6934419  0.066983996   -3.1985624    1.5051205   429461 
 4441000   0.98169275   -3.1974114   -1.6919381  0.067562955   -3.1974114    1.5054733   429455 
 4442000   0.98043775   -3.1973249   -1.6937517  0.068921884   -3.1973249    1.5035732   429448 
 4443000   0.98054835   -3.1977244   -1.6939571  0.064307685   -3.1977244    1.5037673   429441 
 4444000   0.97983339    -3.197448   -1.6947562  0.066936036    -3.197448    1.5026918   429435 
 4445000   0.98073416   -3.1974787   -1.6933809  0.062708246   -3.1974787    1.5040978   429428 
 4446000   0.98135713   -3.1975328   -1.6924551  0.060748479   -3.1975328    1.5050777   429421 
 4447000   0.98173653   -3.1979679   -1.6922873  0.061829693   -3.1979679    1.5056807   429415 
 4448000   0.97947019   -3.1951482   -1.6929189  0.064297863   -3.1951482    1.5022293   429408 
 4449000   0.98127588   -3.1981375   -1.6931142  0.064524809   -3.1981375    1.5050232   429401 
 4450000   0.98101227   -3.1970994   -1.6924594  0.062289891   -3.1970994      1.50464   429395 
 4451000   0.98102228   -3.1968513   -1.6921715  0.066939178   -3.1968513    1.5046798   429388 
 4452000   0.98046111    -3.195062   -1.6912184  0.063944159    -3.195062    1.5038436   429381 
 4453000   0.98035446   -3.1969063   -1.6932052  0.068058377   -3.1969063    1.5037011   429375 
 4454000   0.97954217   -3.1954299   -1.6929503  0.059773386   -3.1954299    1.5024796   429368 
 4455000   0.98036272   -3.1970834   -1.6933206  0.062854623   -3.1970834    1.5037628   429361 
 4456000   0.98016448   -3.1965173   -1.6930376  0.062890761   -3.1965173    1.5034797   429355 
 4457000   0.97883931   -3.1945345   -1.6930631  0.066310556   -3.1945345    1.5014715   429348 
 4458000   0.97995147   -3.1957963   -1.6925943  0.061263724   -3.1957963     1.503202   429341 
 4459000   0.97987708   -3.1971245   -1.6940156  0.062847676   -3.1971245    1.5031089   429335 
 4460000    0.9807649   -3.1967676   -1.6922723  0.066917861   -3.1967676    1.5044953   429328 
 4461000   0.98211253   -3.1985427   -1.6919555  0.060792554   -3.1985427    1.5065871   429321 
 4462000   0.98086494   -3.1967618   -1.6920675  0.066318832   -3.1967618    1.5046943   429315 
 4463000   0.98098352   -3.1970244   -1.6921237  0.069251956   -3.1970244    1.5049008   429308 
 4464000   0.98269853   -3.1994626   -1.6919063  0.064206588   -3.1994626    1.5075563   429301 
 4465000   0.98126848   -3.1971747   -1.6917912  0.070433877   -3.1971747    1.5053835   429295 
 4466000   0.98225042   -3.1985063   -1.6915919  0.067444579   -3.1985063    1.5069145   429288 
 4467000   0.98171174   -3.1999548   -1.6938421  0.070201521   -3.1999548    1.5061126   429281 
 4468000   0.98191335   -3.1996166   -1.6931736    0.0717168   -3.1996166     1.506443   429275 
 4469000   0.98328309   -3.2006829   -1.6921139  0.066973723   -3.2006829     1.508569   429268 
 4470000     0.980502   -3.1976525   -1.6933258  0.069616309   -3.1976525    1.5043268   429261 
 4471000   0.97980385   -3.1986757   -1.6953991  0.067665634   -3.1986757    1.5032766   429255 
 4472000   0.98039401   -3.1998707   -1.6956641  0.063774049   -3.1998707    1.5042066   429248 
 4473000   0.97964801   -3.1984712   -1.6953846    0.0644769   -3.1984712    1.5030866   429241 
 4474000   0.97964157   -3.1976473   -1.6945496  0.069812428   -3.1976473    1.5030977   429235 
 4475000   0.98141271   -3.1998783   -1.6940385  0.067008967   -3.1998783    1.5058398   429228 
 4476000   0.98219586   -3.2015782   -1.6945122  0.065123633   -3.2015782     1.507066   429221 
 4477000    0.9814787   -3.2000773   -1.6940907  0.064524021   -3.2000773    1.5059866   429215 
 4478000   0.98065262   -3.1987658   -1.6940221  0.067367897   -3.1987658    1.5047436   429208 
 4479000   0.98108922   -3.1991214   -1.6936833  0.069607357   -3.1991214    1.5054381   429201 
 4480000   0.98138678   -3.1982997   -1.6923839  0.067343634   -3.1982997    1.5059158   429195 
 4481000   0.98115468   -3.1984382    -1.692854  0.066569428   -3.1984382    1.5055842   429188 
 4482000   0.98177296   -3.2003103   -1.6937528  0.062368708   -3.2003103    1.5065575   429181 
 4483000   0.98088035    -3.198257   -1.6930482  0.067040453    -3.198257    1.5052088   429175 
 4484000    0.9813479   -3.1992281   -1.6932773   0.06331981   -3.1992281    1.5059508   429168 
 4485000    0.9806302   -3.1976194   -1.6927454  0.067519337   -3.1976194     1.504874   429161 
 4486000   0.98061489   -3.1982035   -1.6933319  0.068013007   -3.1982035    1.5048716   429155 
 4487000   0.98026068   -3.1978534   -1.6935009  0.065922948   -3.1978534    1.5043525   429148 
 4488000   0.98229398   -3.1999783   -1.6924808  0.064111816   -3.1999783    1.5074975   429141 
 4489000   0.98115008   -3.1985016   -1.6927385  0.063312966   -3.1985016    1.5057631   429135 
 4490000   0.97990479   -3.1965793   -1.6927028  0.065579661   -3.1965793    1.5038765   429128 
 4491000   0.98163171   -3.1989003   -1.6923489  0.064610949   -3.1989003    1.5065514   429121 
 4492000   0.98080526   -3.1975996   -1.6922956  0.061391675   -3.1975996     1.505304   429115 
 4493000   0.98096092   -3.1982126   -1.6926451   0.06161537   -3.1982126    1.5055675   429108 
 4494000   0.97977784   -3.1971966   -1.6934203  0.063086865   -3.1971966    1.5037762   429101 
 4495000   0.97989495    -3.196967   -1.6929899  0.062838809    -3.196967     1.503977   429095 
 4496000   0.98036932   -3.1967761   -1.6920464  0.069206074   -3.1967761    1.5047296   429088 
 4497000   0.98212134   -3.1980959   -1.6906526  0.073544543   -3.1980959    1.5074433   429081 
 4498000   0.98233047   -3.1992858   -1.6915004  0.067383341   -3.1992858    1.5077854   429075 
 4499000   0.98110256   -3.1966036   -1.6906784  0.068625585   -3.1966036    1.5059252   429068 
 4500000   0.98229433   -3.1978738   -1.6900947   0.06794159   -3.1978738    1.5077791   429061 
 4501000    0.9812452   -3.1971052   -1.6909153   0.06894858   -3.1971052    1.5061898   429055 
 4502000   0.98052455   -3.1968988   -1.6917906    0.0692194   -3.1968988    1.5051082   429048 
 4503000   0.98135467   -3.1974715   -1.6910645  0.067193626   -3.1974715     1.506407   429041 
 4504000   0.97964814   -3.1952684   -1.6914599  0.061857005   -3.1952684    1.5038085   429035 
 4505000   0.97831162   -3.1946812   -1.6928998  0.068251042   -3.1946812    1.5017814   429028 
 4506000    0.9785721   -3.1960089   -1.6938031  0.064681488   -3.1960089    1.5022057   429021 
 4507000   0.98108452   -3.1992727   -1.6931891  0.062292749   -3.1992727    1.5060836   429015 
 4508000   0.97866243   -3.1957962   -1.6934063  0.066624237   -3.1957962    1.5023899   429008 
 4509000   0.97900919    -3.195491   -1.6925442  0.063124974    -3.195491    1.5029468   429001 
 4510000   0.97930487   -3.1968883   -1.6934666  0.066288204   -3.1968883    1.5034217   428995 
 4511000   0.97948855   -3.1966745   -1.6929462  0.066788203   -3.1966745    1.5037282   428988 
 4512000   0.97993377      -3.1976   -1.6931637  0.068069012      -3.1976    1.5044363   428981 
 4513000    0.9774067   -3.1949861   -1.6944085  0.069576781   -3.1949861    1.5005776   428975 
 4514000   0.98030799   -3.1988447   -1.6937883  0.066869303   -3.1988447    1.5050564   428968 
 4515000   0.97961244   -3.1976128   -1.6935997  0.070987158   -3.1976128    1.5040131   428961 
 4516000   0.98025327   -3.1989175   -1.6938995  0.061453934   -3.1989175     1.505018   428955 
 4517000   0.98066257   -3.1995264   -1.6938554  0.065346938   -3.1995264     1.505671   428948 
 4518000   0.98187082   -3.2007775   -1.6932268  0.065970142   -3.2007775    1.5075507   428941 
 4519000   0.97970979   -3.1974992   -1.6932455  0.066874495   -3.1974992    1.5042537   428935 
 4520000    0.9806558   -3.1980695   -1.6923387  0.068598898   -3.1980695    1.5057308   428928 
 4521000   0.97928302   -3.1971853   -1.6935378   0.06736753   -3.1971853    1.5036475   428921 
 4522000   0.97914599   -3.1980282     -1.69457  0.069915306   -3.1980282    1.5034582   428915 
 4523000   0.98074659    -3.200192   -1.6942516  0.063890122    -3.200192    1.5059404   428908 
 4524000    0.9781741   -3.1970049     -1.69499  0.064909193   -3.1970049    1.5020149   428901 
 4525000   0.97980579   -3.1992961   -1.6947546  0.068555894   -3.1992961    1.5045414   428895 
 4526000   0.98057722   -3.2002729   -1.6945223   0.06729444   -3.2002729    1.5057506   428888 
 4527000   0.97903973    -3.197569   -1.6941548  0.065974952    -3.197569    1.5034142   428881 
 4528000   0.97800096   -3.1968572   -1.6950171  0.065536011   -3.1968572      1.50184   428875 
 4529000   0.97943428   -3.1992699   -1.6952042  0.066983202   -3.1992699    1.5040656   428868 
 4530000   0.97913246   -3.1992535   -1.6956268  0.060552026   -3.1992535    1.5036267   428861 
 4531000   0.98047322   -3.1999974   -1.6942907  0.058221917   -3.1999974    1.5057067   428855 
 4532000   0.98052761   -3.1987467   -1.6929318  0.066733601   -3.1987467    1.5058148   428848 
 4533000    0.9793574    -3.198529   -1.6944867  0.070068907    -3.198529    1.5040423   428841 
 4534000   0.97958688   -3.1996705   -1.6952547  0.062006269   -3.1996705    1.5044157   428835 
 4535000   0.97903647   -3.1991013   -1.6955063  0.067993315   -3.1991013     1.503595   428828 
 4536000   0.98046472   -3.1992912   -1.6934782  0.067850188   -3.1992912     1.505813   428821 
 4537000   0.98071574   -3.2013014   -1.6950818  0.064890786   -3.2013014    1.5062197   428815 
 4538000   0.98081051   -3.2018592   -1.6954694  0.066483798   -3.2018592    1.5063898   428808 
 4539000   0.98109305   -3.2020598   -1.6952114  0.065221674   -3.2020598    1.5068483   428801 
 4540000   0.98074278   -3.2009588   -1.6946274   0.06355447   -3.2009588    1.5063314   428795 
 4541000   0.98032723    -3.200994   -1.6952763  0.066204977    -3.200994    1.5057178   428788 
 4542000    0.9809943   -3.2020801   -1.6953132  0.064884348   -3.2020801    1.5067669   428781 
 4543000   0.98173468   -3.2035691   -1.6956438  0.061395294   -3.2035691    1.5079252   428775 
 4544000   0.98036711   -3.2018659   -1.6960167     0.068492   -3.2018659    1.5058493   428768 
 4545000   0.98090868   -3.2017569   -1.6950512  0.067559942   -3.2017569    1.5067057   428761 
 4546000   0.98026939   -3.1987007   -1.6929559  0.070653175   -3.1987007    1.5057448   428755 
 4547000   0.98061326    -3.201103   -1.6948054  0.068479238    -3.201103    1.5062976   428748 
 4548000   0.98079652    -3.201058   -1.6944543  0.069702168    -3.201058    1.5066037   428741 
 4549000   0.98170374   -3.2015855   -1.6935671  0.069319768   -3.2015855    1.5080184   428735 
 4550000   0.98108947   -3.2007717   -1.6936723  0.069485159   -3.2007717    1.5070994   428728 
 4551000   0.98105266   -3.2009477   -1.6938802   0.06866042   -3.2009477    1.5070675   428721 
 4552000   0.98144815   -3.2029488   -1.6952527  0.063186079   -3.2029488    1.5076961   428715 
 4553000   0.98015374   -3.2006516   -1.6949193  0.066328659   -3.2006516    1.5057322   428708 
 4554000   0.98029574   -3.2009151   -1.6949401   0.06310158   -3.2009151     1.505975   428701 
 4555000   0.98145868   -3.2015551   -1.6937724  0.067593209   -3.2015551    1.5077826   428695 
 4556000   0.98197279   -3.2010662   -1.6924692  0.068468204   -3.2010662    1.5085971   428688 
 4557000   0.98048406   -3.1996547   -1.6933202  0.065995275   -3.1996547    1.5063345   428681 
 4558000   0.97840683   -3.1971939   -1.6940296  0.067060639   -3.1971939    1.5031643   428675 
 4559000   0.97888979   -3.1966627   -1.6927319   0.06644496   -3.1966627    1.5039308   428668 
 4560000   0.97971601   -3.1984574   -1.6932326  0.062986804   -3.1984574    1.5052248   428661 
 4561000   0.97843889   -3.1968061   -1.6935224  0.065778419   -3.1968061    1.5032837   428655 
 4562000   0.97797115   -3.1973044   -1.6947148  0.064918805   -3.1973044    1.5025896   428648 
 4563000   0.97861145   -3.1970685   -1.6934706  0.063475917   -3.1970685    1.5035979   428641 
 4564000   0.97877758   -3.1964388   -1.6925646  0.062540783   -3.1964388    1.5038742   428635 
 4565000   0.97754323   -3.1955923   -1.6935901  0.057829338   -3.1955923    1.5020022   428628 
 4566000   0.97837471   -3.1959528   -1.6926484  0.067561569   -3.1959528    1.5033043   428621 
 4567000   0.97925608     -3.19695   -1.6922704  0.060162181     -3.19695    1.5046796   428615 
 4568000   0.97854864   -3.1956793   -1.6920621  0.064985141   -3.1956793    1.5036172   428608 
 4569000   0.97870863   -3.1959876      -1.6921  0.065587394   -3.1959876    1.5038876   428601 
 4570000   0.98107209   -3.1976999   -1.6901595  0.060935581   -3.1976999    1.5075404   428595 
 4571000   0.97982945   -3.1950232   -1.6893677  0.064931996   -3.1950232    1.5056555   428588 
 4572000   0.98020998   -3.1960709    -1.689806  0.063246083   -3.1960709    1.5062648   428581 
 4573000   0.98054134   -3.1966892   -1.6898941  0.063781303   -3.1966892    1.5067951   428575 
 4574000   0.98093834   -3.1978711   -1.6904413  0.059337931   -3.1978711    1.5074298   428568 
 4575000   0.98146026   -3.1981462   -1.6898897  0.063167624   -3.1981462    1.5082565   428561 
 4576000   0.98098632   -3.1976272   -1.6900779  0.063718886   -3.1976272    1.5075493   428555 
 4577000   0.97925542    -3.195857   -1.6909431  0.065272702    -3.195857    1.5049139   428548 
 4578000   0.98065979   -3.1977114   -1.6906147  0.066230812   -3.1977114    1.5070967   428541 
 4579000   0.98092651   -3.1991948   -1.6916671  0.066804967   -3.1991948    1.5075277   428535 
 4580000   0.97953505   -3.1980956   -1.6926818  0.069054517   -3.1980956    1.5054139   428528 
 4581000   0.97903919   -3.1981378   -1.6934615  0.067832522   -3.1981378    1.5046764   428521 
 4582000   0.97983374   -3.1980307   -1.6921121  0.063082246   -3.1980307    1.5059186   428515 
 4583000     0.979649   -3.1977849   -1.6921257  0.066440655   -3.1977849    1.5056592   428508 
 4584000   0.97943465   -3.1982106   -1.6928563  0.069693963   -3.1982106    1.5053544   428501 
 4585000   0.97902165   -3.1983128   -1.6935721  0.073368661   -3.1983128    1.5047407   428495 
 4586000   0.98010578    -3.198125   -1.6916934  0.065120408    -3.198125    1.5064316   428488 
 4587000   0.97968827   -3.1995989   -1.6937844  0.068694346   -3.1995989    1.5058145   428481 
 4588000   0.98047443   -3.2007611   -1.6937171  0.062521825   -3.2007611    1.5070439   428475 
 4589000   0.97905359   -3.2000877    -1.695203  0.062434378   -3.2000877    1.5048846   428468 
 4590000    0.9786773   -3.2002238    -1.695893  0.069657237   -3.2002238    1.5043308   428461 
 4591000   0.97959126   -3.2024353   -1.6966786  0.065345476   -3.2024353    1.5057567   428455 
 4592000   0.97998971   -3.2019242   -1.6955304  0.063212682   -3.2019242    1.5063938   428448 
 4593000   0.97807536   -3.2014481   -1.6979724  0.060386431   -3.2014481    1.5034757   428441 
 4594000   0.97882894   -3.2026738   -1.6980186  0.067820942   -3.2026738    1.5046552   428435 
 4595000   0.97896496   -3.2022215   -1.6973326  0.065357489   -3.2022215    1.5048889   428428 
 4596000   0.97723833   -3.1988585   -1.6965993  0.072253329   -3.1988585    1.5022592   428421 
 4597000   0.97886756   -3.2031825   -1.6983977  0.064727929   -3.2031825    1.5047848   428415 
 4598000    0.9776877   -3.2021969   -1.6992012    0.0695613   -3.2021969    1.5029956   428408 
 4599000   0.98087007   -3.2073758   -1.6994633  0.063035786   -3.2073758    1.5079125   428401 
 4600000    0.9785347   -3.2048281   -1.7004848  0.065734363   -3.2048281    1.5043433   428395 
 4601000   0.97975035   -3.2055188    -1.699282  0.065894972   -3.2055188    1.5062368   428388 
 4602000   0.97986702   -3.2054547   -1.6990138  0.067032977   -3.2054547    1.5064408   428381 
 4603000   0.98087964   -3.2054353   -1.6974166  0.065618743   -3.2054353    1.5080187   428375 
 4604000   0.98078172   -3.2050737   -1.6971809  0.073881291   -3.2050737    1.5078928   428368 
 4605000   0.98161872   -3.2055693    -1.696365  0.064042322   -3.2055693    1.5092043   428361 
 4606000   0.98058828   -3.2039476   -1.6963064  0.067614285   -3.2039476    1.5076412   428355 
 4607000    0.9818076   -3.2059098   -1.6963692  0.067817295   -3.2059098    1.5095405   428348 
 4608000   0.98126856   -3.2059734    -1.697237  0.067955046   -3.2059734    1.5087364   428341 
 4609000    0.9803823   -3.2048971   -1.6975023  0.070656461   -3.2048971    1.5073949   428335 
 4610000   0.98018077   -3.2047224   -1.6976127  0.067377116   -3.2047224    1.5071096   428328 
 4611000   0.98016211   -3.2057668   -1.6986613  0.063216305   -3.2057668    1.5071056   428321 
 4612000    0.9772016   -3.2024192   -1.6998447  0.065514002   -3.2024192    1.5025745   428315 
 4613000   0.97734584    -3.200934   -1.6981132  0.069862276    -3.200934    1.5028209   428308 
 4614000   0.97865139   -3.2030899   -1.6982369  0.067798535   -3.2030899    1.5048529   428301 
 4615000   0.97864729   -3.2017163   -1.6968486  0.068073486   -3.2017163    1.5048677   428295 
 4616000   0.97789173   -3.2008289   -1.6970984  0.064153342   -3.2008289    1.5037305   428288 
 4617000   0.97829288   -3.2015311   -1.6971591  0.067320611   -3.2015311    1.5043719   428281 
 4618000    0.9791429    -3.202281   -1.6965809  0.066050235    -3.202281    1.5057001   428275 
 4619000   0.97826449   -3.2010145   -1.6966406  0.066004055   -3.2010145    1.5043739   428268 
 4620000   0.97907058   -3.2016855   -1.6960473  0.063718296   -3.2016855    1.5056381   428261 
 4621000   0.97894764   -3.2008562    -1.695386  0.065099586   -3.2008562    1.5054702   428255 
 4622000   0.98126906   -3.2047735   -1.6957087  0.062803576   -3.2047735    1.5090648   428248 
 4623000   0.97929835   -3.2028567   -1.6967979  0.056671503   -3.2028567    1.5060587   428241 
 4624000    0.9781247   -3.2010951   -1.6968203  0.063707889   -3.2010951    1.5042749   428235 
 4625000   0.97843937   -3.2003838   -1.6956004  0.072256102   -3.2003838    1.5047834   428228 
 4626000   0.97824985   -3.1992834   -1.6947669  0.065897501   -3.1992834    1.5045165   428221 
 4627000    0.9789983   -3.1994506   -1.6937619  0.065341017   -3.1994506    1.5056887   428215 
 4628000   0.97923515   -3.1997541   -1.6936765  0.063354124   -3.1997541    1.5060776   428208 
 4629000   0.97800191   -3.1986369   -1.6944315  0.061848475   -3.1986369    1.5042054   428201 
 4630000   0.97683467   -3.1991787   -1.6967475  0.061293258   -3.1991787    1.5024312   428195 
 4631000   0.97895181   -3.2029259   -1.6972137  0.065569824   -3.2029259    1.5057121   428188 
 4632000   0.97769514   -3.2019328   -1.6981289   0.06279247   -3.2019328    1.5038039   428181 
 4633000   0.97852736    -3.200975     -1.69587  0.064237745    -3.200975     1.505105   428175 
 4634000   0.97730975   -3.1999084   -1.6966517   0.06221816   -3.1999084    1.5032567   428168 
 4635000   0.97890167    -3.201321    -1.695591  0.070161448    -3.201321      1.50573   428161 
 4636000   0.97745639   -3.1996375   -1.6961095  0.065119816   -3.1996375    1.5035279   428155 
 4637000   0.97857582   -3.2008262   -1.6955518  0.064229376   -3.2008262    1.5052745   428148 
 4638000   0.97879735   -3.2022475   -1.6966076  0.066612302   -3.2022475    1.5056398   428141 
 4639000   0.97799589   -3.2019113   -1.6974832   0.06642029   -3.2019113    1.5044281   428135 
 4640000   0.97829327    -3.202718   -1.6978078  0.066445025    -3.202718    1.5049101   428128 
 4641000   0.98004476   -3.2050101    -1.697381  0.066492166   -3.2050101    1.5076291   428121 
 4642000   0.97995106   -3.2045921   -1.6970861  0.063172711   -3.2045921    1.5075061   428115 
 4643000   0.98015521   -3.2041248     -1.69628  0.071632486   -3.2041248    1.5078448   428108 
 4644000   0.97845631   -3.2030974   -1.6978415  0.070315638   -3.2030974    1.5052559   428101 
 4645000   0.98043633   -3.2064759   -1.6981528  0.065967045   -3.2064759    1.5083231   428095 
 4646000   0.97904227   -3.2038515   -1.6976485  0.070424526   -3.2038515     1.506203   428088 
 4647000   0.97889672   -3.2046144   -1.6986107  0.061283751   -3.2046144    1.5060037   428081 
 4648000    0.9779064    -3.203416   -1.6989147  0.071468689    -3.203416    1.5045013   428075 
 4649000   0.98044709   -3.2071496   -1.6987148  0.064541549   -3.2071496    1.5084348   428068 
 4650000   0.97799888   -3.2064802   -1.7017874  0.060342964   -3.2064802    1.5046927   428061 
 4651000   0.97722244   -3.2050103   -1.7014911  0.068455434   -3.2050103    1.5035192   428055 
 4652000    0.9779682   -3.2054888   -1.7007976  0.064695266   -3.2054888    1.5046912   428048 
 4653000   0.97793311   -3.2052873   -1.7006254  0.066737581   -3.2052873    1.5046619   428041 
 4654000   0.97846327    -3.205916   -1.7004174  0.064954805    -3.205916    1.5054987   428035 
 4655000   0.97968825    -3.208517   -1.7011088  0.063009048    -3.208517    1.5074081   428028 
 4656000    0.9768915   -3.2049565    -1.701827  0.059470338   -3.2049565    1.5031295   428021 
 4657000   0.97803133   -3.2073326   -1.7024282  0.069495382   -3.2073326    1.5049044   428015 
 4658000   0.97765447   -3.2060159   -1.7016667   0.06431815   -3.2060159    1.5043491   428008 
 4659000   0.97987129   -3.2071357   -1.6993508  0.063653482   -3.2071357    1.5077849   428001 
 4660000   0.97887697   -3.2057669   -1.6994909   0.06130946   -3.2057669     1.506276   427995 
 4661000   0.98035679   -3.2089637    -1.700386  0.067041211   -3.2089637    1.5085778   427988 
 4662000   0.97779687   -3.2060638   -1.7014007  0.068087327   -3.2060638    1.5046632   427981 
 4663000   0.97975039   -3.2090704     -1.70138  0.065080667   -3.2090704    1.5076904   427975 
 4664000   0.97729956   -3.2064077   -1.7024641  0.064443384   -3.2064077    1.5039436   427968 
 4665000   0.97769855    -3.207307   -1.7027249  0.064401339    -3.207307    1.5045822   427961 
 4666000   0.97648296   -3.2056754   -1.7029428  0.066305111   -3.2056754    1.5027326   427955 
 4667000   0.97627086   -3.2053423   -1.7029115  0.063967191   -3.2053423    1.5024307   427948 
 4668000   0.97654191   -3.2075977   -1.7047253  0.065258102   -3.2075977    1.5028724   427941 
 4669000   0.97616579   -3.2067487   -1.7044341  0.063030058   -3.2067487    1.5023147   427935 
 4670000   0.97765881   -3.2079836   -1.7033466  0.065808742   -3.2079836     1.504637   427928 
 4671000   0.97725272   -3.2079209   -1.7038842  0.065663267   -3.2079209    1.5040367   427921 
 4672000   0.97683351   -3.2068894   -1.7034768  0.070680474   -3.2068894    1.5034126   427915 
 4673000   0.97777547   -3.2091212   -1.7042343  0.072941188   -3.2091212    1.5048869   427908 
 4674000   0.97874891   -3.2113075   -1.7048977  0.064953059   -3.2113075    1.5064098   427901 
 4675000   0.97883543   -3.2100268   -1.7034627   0.06639948   -3.2100268    1.5065641   427895 
 4676000   0.97800587   -3.2078199   -1.7025081  0.069411669   -3.2078199    1.5053119   427888 
 4677000   0.97972366   -3.2093159   -1.7013354  0.070670435   -3.2093159    1.5079805   427881 
 4678000   0.97765468   -3.2086358   -1.7038188  0.070658008   -3.2086358     1.504817   427875 
 4679000   0.97786421   -3.2106138   -1.7054496  0.063451721   -3.2106138    1.5051642   427868 
 4680000   0.97846723    -3.209934    -1.703817   0.06570535    -3.209934     1.506117   427861 
 4681000   0.97620377   -3.2084391    -1.705785  0.067769962   -3.2084391     1.502654   427855 
 4682000   0.97733695   -3.2086954   -1.7042724  0.070858259   -3.2086954    1.5044229   427848 
 4683000   0.97838649   -3.2101658   -1.7041027  0.066653445   -3.2101658    1.5060631   427841 
 4684000   0.97791722   -3.2113664   -1.7060045   0.06756554   -3.2113664    1.5053619   427835 
 4685000   0.97537764   -3.2084873   -1.7070101  0.065294917   -3.2084873    1.5014771   427828 
 4686000   0.97717955   -3.2103003   -1.7060248   0.06778519   -3.2103003    1.5042756   427821 
 4687000    0.9777599   -3.2100081    -1.704818  0.066698363   -3.2100081    1.5051901   427815 
 4688000   0.97666376   -3.2086455   -1.7051182  0.065145584   -3.2086455    1.5035272   427808 
 4689000   0.97742362   -3.2102054   -1.7054838  0.062740689   -3.2102054    1.5047216   427801 
 4690000   0.97766139   -3.2089033   -1.7037945  0.073499742   -3.2089033    1.5051088   427795 
 4691000   0.97840007   -3.2091194   -1.7028488  0.067260441   -3.2091194    1.5062706   427788 
 4692000   0.97945049    -3.211463   -1.7035506  0.063948025    -3.211463    1.5079124   427781 
 4693000   0.97759657   -3.2085369   -1.7034575   0.06881819   -3.2085369    1.5050794   427775 
 4694000   0.97884625    -3.210168     -1.70314  0.067915103    -3.210168     1.507028   427768 
 4695000   0.97846441   -3.2086423   -1.7021776  0.070853035   -3.2086423    1.5064648   427761 
 4696000   0.97842833   -3.2077193   -1.7012889  0.068685873   -3.2077193    1.5064304   427755 
 4697000   0.97817203   -3.2068977   -1.7008373  0.067621707   -3.2068977    1.5060604   427748 
 4698000   0.97842743   -3.2075368   -1.7010585  0.064248722   -3.2075368    1.5064783   427741 
 4699000   0.97833138    -3.206805   -1.7004535  0.064199686    -3.206805    1.5063515   427735 
 4700000    0.9783134   -3.2071883   -1.7008399  0.067235216   -3.2071883    1.5063485   427728 
 4701000   0.97641803   -3.2057802   -1.7023255  0.065062848   -3.2057802    1.5034547   427721 
 4702000   0.97853481   -3.2084778   -1.7017426  0.069790895   -3.2084778    1.5067352   427715 
 4703000   0.97688329   -3.2072736   -1.7030568   0.06681395   -3.2072736    1.5042168   427708 
 4704000   0.97728657   -3.2065147   -1.7016523  0.065779813   -3.2065147    1.5048624   427701 
 4705000   0.97778528   -3.2057031   -1.7000517  0.069584266   -3.2057031    1.5056515   427695 
 4706000   0.97689572   -3.2048658   -1.7005595  0.064113818   -3.2048658    1.5043063   427688 
 4707000   0.97821873   -3.2071009   -1.7007327  0.061732506   -3.2071009    1.5063682   427681 
 4708000   0.97515013   -3.2029762   -1.7013123  0.069933568   -3.2029762    1.5016639   427675 
 4709000   0.97761134    -3.207335   -1.7018563  0.065505395    -3.207335    1.5054787   427668 
 4710000   0.97755907   -3.2070021   -1.7015792  0.065071059   -3.2070021    1.5054228   427661 
 4711000   0.97512868   -3.2037579   -1.7020568  0.064435769   -3.2037579    1.5017011   427655 
 4712000   0.97521805     -3.20244   -1.7005766  0.068739064     -3.20244    1.5018633   427648 
 4713000   0.97594723   -3.2039615   -1.7009506  0.063356098   -3.2039615    1.5030109   427641 
 4714000    0.9753969   -3.2028402   -1.7006557  0.065093235   -3.2028402    1.5021844   427635 
 4715000   0.97514189   -3.2028108   -1.7009945  0.060992394   -3.2028108    1.5018163   427628 
 4716000   0.97585653    -3.205766   -1.7028245  0.062912353    -3.205766    1.5029415   427621 
 4717000   0.97788964   -3.2081637   -1.7020698  0.066906878   -3.2081637    1.5060939   427615 
 4718000   0.97801818   -3.2069361   -1.7006196  0.062270749   -3.2069361    1.5063165   427608 
 4719000   0.97764737   -3.2068334   -1.7010634  0.066810018   -3.2068334    1.5057701   427601 
 4720000   0.97863915   -3.2071821   -1.6998633    0.0641302   -3.2071821    1.5073187   427595 
 4721000   0.97794753   -3.2058182   -1.6995401  0.064143688   -3.2058182    1.5062781   427588 
 4722000   0.97637832   -3.2054392   -1.7015534  0.066912036   -3.2054392    1.5038858   427581 
 4723000   0.97778019   -3.2077227   -1.7016565   0.06837761   -3.2077227    1.5060662   427575 
 4724000   0.97869376   -3.2080694   -1.7005713  0.066662069   -3.2080694     1.507498   427568 
 4725000   0.97791449   -3.2083782   -1.7020559   0.06336784   -3.2083782    1.5063224   427561 
 4726000   0.97770014    -3.208044   -1.7020306  0.067434899    -3.208044    1.5060134   427555 
 4727000   0.97713387   -3.2062592   -1.7010935   0.06746508   -3.2062592    1.5051657   427548 
 4728000   0.97746229   -3.2074631   -1.7017668  0.065725909   -3.2074631    1.5056963   427541 
 4729000   0.97634773   -3.2049248   -1.7009243  0.068516814   -3.2049248    1.5040005   427535 
 4730000   0.97782908    -3.207362   -1.7010549  0.062962082    -3.207362    1.5063071   427528 
 4731000   0.97847451   -3.2076591   -1.7003331  0.064197337   -3.2076591     1.507326   427521 
 4732000   0.97745462   -3.2069645   -1.7011884   0.06373824   -3.2069645     1.505776   427515 
 4733000   0.97895203   -3.2090056   -1.7008981  0.061838313   -3.2090056    1.5081075   427508 
 4734000   0.97759748   -3.2069879   -1.7009425  0.068127552   -3.2069879    1.5060454   427501 
 4735000   0.97858292   -3.2085209   -1.7009361  0.068720581   -3.2085209    1.5075847   427495 
 4736000   0.97833231   -3.2087229   -1.7014996   0.06849008   -3.2087229    1.5072233   427488 
 4737000   0.97937056   -3.2087349   -1.6998874  0.072168052   -3.2087349    1.5088475   427481 
 4738000   0.97768845   -3.2059012    -1.699624  0.069613386   -3.2059012    1.5062772   427475 
 4739000   0.97733592   -3.2070695   -1.7013108  0.065463121   -3.2070695    1.5057587   427468 
 4740000   0.97768818   -3.2071934   -1.7008673  0.065118069   -3.2071934    1.5063261   427461 
 4741000   0.97715594   -3.2062168   -1.7006896  0.064237946   -3.2062168    1.5055272   427455 
 4742000   0.97630178   -3.2056327   -1.7013969  0.063528994   -3.2056327    1.5042358   427448 
 4743000    0.9766078   -3.2055822   -1.7008503  0.064069868   -3.2055822     1.504732   427441 
 4744000   0.97775381   -3.2071338    -1.700615  0.070325271   -3.2071338    1.5065188   427435 
 4745000   0.97765054   -3.2064377   -1.7000533   0.06657753   -3.2064377    1.5063844   427428 
 4746000   0.97796879   -3.2066019   -1.6997025  0.068354934   -3.2066019    1.5068994   427421 
 4747000   0.97682027   -3.2049003   -1.6997494  0.063861055   -3.2049003    1.5051509   427415 
 4748000   0.97747111   -3.2052498   -1.6990714  0.064380056   -3.2052498    1.5061784   427408 
 4749000    0.9749103   -3.2029727   -1.7007156  0.061999057   -3.2029727    1.5022571   427401 
 4750000   0.97656174   -3.2048321   -1.7000091  0.063522232   -3.2048321    1.5048229   427395 
 4751000   0.97550892   -3.2033982    -1.700173  0.066748759   -3.2033982    1.5032252   427388 
 4752000   0.97406109   -3.2028446   -1.7018258   0.06301441   -3.2028446    1.5010187   427381 
 4753000   0.97540982   -3.2039309   -1.7008127  0.066666933   -3.2039309    1.5031182   427375 
 4754000   0.97500799    -3.202611   -1.7000874  0.060370154    -3.202611    1.5025236   427368 
 4755000   0.97503422   -3.2020768   -1.6994881  0.067360633   -3.2020768    1.5025886   427361 
 4756000   0.97633962   -3.2041243   -1.6995028  0.063078203   -3.2041243    1.5046215   427355 
 4757000   0.97611666   -3.2044083   -1.7001057  0.062348511   -3.2044083    1.5043025   427348 
 4758000   0.97749928   -3.2069623   -1.7005044  0.067021629   -3.2069623     1.506458   427341 
 4759000   0.97621517    -3.204673   -1.7001729  0.067513349    -3.204673    1.5045001   427335 
 4760000   0.97573863   -3.2044651   -1.7006748   0.06687284   -3.2044651    1.5037903   427328 
 4761000   0.97711027   -3.2075084   -1.7015795  0.060945926   -3.2075084    1.5059289   427321 
 4762000   0.97498306   -3.2048169   -1.7021453   0.06817952   -3.2048169    1.5026716   427315 
 4763000   0.97452323    -3.203567   -1.7015795  0.064033054    -3.203567    1.5019875   427308 
 4764000   0.97566625   -3.2063837   -1.7026099  0.064377915   -3.2063837    1.5037738   427301 
 4765000   0.97457022   -3.2044846    -1.702379  0.066014239   -3.2044846    1.5021056   427295 
 4766000   0.97436722   -3.2041624   -1.7023451  0.063218544   -3.2041624    1.5018173   427288 
 4767000    0.9751218   -3.2060989    -1.703094  0.065929083   -3.2060989     1.503005   427281 
 4768000   0.97540514   -3.2058775   -1.7024147  0.065260249   -3.2058775    1.5034628   427275 
 4769000   0.97718436   -3.2095641   -1.7033342  0.060619611   -3.2095641    1.5062299   427268 
 4770000    0.9768367   -3.2068389   -1.7011202  0.066241578   -3.2068389    1.5057187   427261 
 4771000   0.97688924   -3.2082776   -1.7024567  0.065251553   -3.2082776    1.5058208   427255 
 4772000    0.9770602    -3.209325   -1.7032159  0.064278997    -3.209325     1.506109   427248 
 4773000   0.97555629   -3.2070964   -1.7032809  0.065764167   -3.2070964    1.5038154   427241 
 4774000   0.97657861   -3.2086376   -1.7032251  0.065804724   -3.2086376    1.5054125   427235 
 4775000   0.97774826   -3.2092763    -1.702036   0.05947814   -3.2092763    1.5072402   427228 
 4776000   0.97641696   -3.2070215   -1.7018089  0.067494859   -3.2070215    1.5052126   427221 
 4777000   0.97628168   -3.2071044   -1.7020792  0.068413961   -3.2071044    1.5050252   427215 
 4778000   0.97775866   -3.2084998    -1.701173  0.063885396   -3.2084998    1.5073268   427208 
 4779000   0.97530212   -3.2054285   -1.7018641  0.064352494   -3.2054285    1.5035644   427201 
 4780000   0.97627137   -3.2069853   -1.7019055  0.067671903   -3.2069853    1.5050798   427195 
 4781000   0.97432119   -3.2043484   -1.7022505  0.071540378   -3.2043484    1.5020979   427188 
 4782000   0.97604619   -3.2067959   -1.7020139  0.067014865   -3.2067959    1.5047819   427181 
 4783000   0.97709272   -3.2088638   -1.7024472  0.060624131   -3.2088638    1.5064166   427175 
 4784000    0.9772258   -3.2093901   -1.7027437  0.064386985   -3.2093901    1.5066464   427168 
 4785000   0.97620129   -3.2075232   -1.7024317  0.064223261   -3.2075232    1.5050915   427161 
 4786000   0.97578741   -3.2066074   -1.7021328  0.067503372   -3.2066074    1.5044746   427155 
 4787000   0.97483972    -3.205263    -1.702225     0.067804    -3.205263     1.503038   427148 
 4788000   0.97508002   -3.2056519   -1.7022188  0.062674633   -3.2056519    1.5034332   427141 
 4789000   0.97575242   -3.2064268   -1.7019358  0.063701319   -3.2064268    1.5044911   427135 
 4790000   0.97580303   -3.2068356   -1.7022418  0.063368277   -3.2068356    1.5045938   427128 
 4791000   0.97513827   -3.2056363   -1.7020429  0.066196772   -3.2056363    1.5035934   427121 
 4792000   0.97600339    -3.206887   -1.7019385   0.06399618    -3.206887    1.5049485   427115 
 4793000    0.9735881    -3.203492   -1.7022432  0.061151653    -3.203492    1.5012488   427108 
 4794000   0.97409043   -3.2056413   -1.7035933  0.062003115   -3.2056413     1.502048   427101 
 4795000   0.97412273   -3.2046221   -1.7025031  0.064509855   -3.2046221    1.5021189   427095 
 4796000   0.97329657   -3.2040635   -1.7031939  0.062447254   -3.2040635    1.5008696   427088 
 4797000   0.97340541   -3.2053239   -1.7042619  0.060445076   -3.2053239     1.501062   427081 
 4798000   0.97471224   -3.2077072   -1.7046088  0.060328555   -3.2077072    1.5030984   427075 
 4799000   0.97510242    -3.208461   -1.7047363   0.06195219    -3.208461    1.5037247   427068 
 4800000   0.97318962   -3.2065435    -1.705744  0.064618665   -3.2065435    1.5007995   427061 
 4801000   0.97419273   -3.2076842   -1.7053166  0.061417614   -3.2076842    1.5023676   427055 
 4802000     0.975446   -3.2086777   -1.7043527  0.063508144   -3.2086777     1.504325   427048 
 4803000   0.97484984   -3.2078691   -1.7044388  0.067530406   -3.2078691    1.5034303   427041 
 4804000   0.97620683   -3.2101197   -1.7045755  0.060775339   -3.2101197    1.5055442   427035 
 4805000   0.97585973   -3.2090649   -1.7040314  0.066255779   -3.2090649    1.5050335   427028 
 4806000   0.97579519   -3.2087636    -1.703805  0.071544832   -3.2087636    1.5049587   427021 
 4807000   0.97795235   -3.2114669     -1.70316  0.070153817   -3.2114669    1.5083068   427015 
 4808000   0.97748754   -3.2128381   -1.7052234  0.066082816   -3.2128381    1.5076147   427008 
 4809000    0.9762717   -3.2111339   -1.7053698  0.070037837   -3.2111339    1.5057641   427001 
 4810000   0.97698194   -3.2140664   -1.7071856  0.064884259   -3.2140664    1.5068807   426995 
 4811000   0.97561729   -3.2128479   -1.7080474   0.06554444   -3.2128479    1.5048006   426988 
 4812000   0.97534058   -3.2119373   -1.7075388  0.071734175   -3.2119373    1.5043984   426981 
 4813000   0.97597812   -3.2127278   -1.7073249  0.067924445   -3.2127278     1.505403   426975 
 4814000   0.97387698   -3.2096263   -1.7074397  0.068317692   -3.2096263    1.5021867   426968 
 4815000    0.9745366   -3.2125295   -1.7093008  0.064879457   -3.2125295    1.5032288   426961 
 4816000   0.97501177   -3.2137118    -1.709729   0.06035294   -3.2137118    1.5039829   426955 
 4817000   0.97394218   -3.2122006   -1.7098429  0.060095467   -3.2122006    1.5023576   426948 
 4818000   0.97545909   -3.2137833   -1.7090611  0.066989413   -3.2137833    1.5047222   426941 
 4819000   0.97528696   -3.2130813   -1.7086035  0.063125201   -3.2130813    1.5044778   426935 
 4820000   0.97579002   -3.2132526   -1.7079741  0.071646148   -3.2132526    1.5052785   426928 
 4821000   0.97569403   -3.2131984   -1.7080433   0.06646305   -3.2131984    1.5051551   426921 
 4822000   0.97645541   -3.2144819   -1.7081311  0.062471018   -3.2144819    1.5063508   426915 
 4823000   0.97609355   -3.2132606   -1.7074433  0.061257308   -3.2132606    1.5058173   426908 
 4824000   0.97612464   -3.2123483   -1.7064584  0.065267942   -3.2123483      1.50589   426901 
 4825000   0.97512952   -3.2103898   -1.7060139  0.065936965   -3.2103898    1.5043759   426895 
 4826000   0.97565809   -3.2110695   -1.7058534  0.065085052   -3.2110695     1.505216   426888 
 4827000   0.97534113   -3.2112362   -1.7064845  0.065486391   -3.2112362    1.5047517   426881 
 4828000   0.97492077   -3.2120548   -1.7079305  0.064483468   -3.2120548    1.5041243   426875 
 4829000   0.97441603   -3.2105154   -1.7071451    0.0675254   -3.2105154    1.5033703   426868 
 4830000   0.97536003   -3.2129514      -1.7081  0.065423136   -3.2129514    1.5048514   426861 
 4831000   0.97588785    -3.213586   -1.7078991  0.067177387    -3.213586    1.5056869   426855 
 4832000   0.97255837   -3.2088553   -1.7082808  0.061361751   -3.2088553    1.5005745   426848 
 4833000   0.97277105    -3.212458   -1.7115308   0.05989389    -3.212458    1.5009272   426841 
 4834000   0.97100452    -3.209952   -1.7117294  0.062551312    -3.209952    1.4982227   426835 
 4835000   0.97229327   -3.2113209   -1.7110852  0.064072247   -3.2113209    1.5002357   426828 
 4836000   0.97404593   -3.2131937   -1.7102289  0.063547157   -3.2131937    1.5029647   426821 
 4837000   0.97370184   -3.2137888   -1.7113338  0.063114011   -3.2137888    1.5024549   426815 
 4838000   0.97360095   -3.2140887   -1.7117648  0.063984767   -3.2140887    1.5023239   426808 
 4839000   0.97352171   -3.2146122    -1.712386  0.062966146   -3.2146122    1.5022262   426801 
 4840000   0.97308807   -3.2130811   -1.7115029  0.065963225   -3.2130811    1.5015782   426795 
 4841000   0.97505647   -3.2157067   -1.7110664  0.059908245   -3.2157067    1.5046403   426788 
 4842000   0.97375617   -3.2130567   -1.7103982  0.068887814   -3.2130567    1.5026585   426781 
 4843000   0.97527721   -3.2140856   -1.7090588  0.067371225   -3.2140856    1.5050268   426775 
 4844000   0.97546156   -3.2159132   -1.7105772  0.072113352   -3.2159132     1.505336   426768 
 4845000   0.97746661   -3.2188135   -1.7103586  0.067210549   -3.2188135    1.5084549   426761 
 4846000   0.97667877   -3.2167965   -1.7095362  0.066991599   -3.2167965    1.5072603   426755 
 4847000   0.97726925   -3.2170561   -1.7088599  0.069829983   -3.2170561    1.5081963   426748 
 4848000   0.97724077   -3.2180432   -1.7098661  0.070275529   -3.2180432    1.5081771   426741 
 4849000    0.9749484   -3.2135007   -1.7088403   0.07018585   -3.2135007    1.5046604   426735 
 4850000   0.97582296   -3.2162254   -1.7101906  0.070983423   -3.2162254    1.5060349   426728 
 4851000   0.97428554   -3.2152753   -1.7115886  0.067527193   -3.2152753    1.5036868   426721 
 4852000   0.97461864    -3.215694    -1.711472  0.063621825    -3.215694     1.504222   426715 
 4853000   0.97411402   -3.2165225   -1.7130546  0.063901452   -3.2165225    1.5034678   426708 
 4854000   0.97339821   -3.2158678   -1.7134801  0.063092915   -3.2158678    1.5023877   426701 
 4855000   0.97399866   -3.2159899   -1.7126544  0.062660593   -3.2159899    1.5033356   426695 
 4856000   0.97169003    -3.213598   -1.7138011  0.065842706    -3.213598    1.4997969   426688 
 4857000   0.97105577   -3.2123959   -1.7135534  0.066479717   -3.2123959    1.4988425   426681 
 4858000   0.97270217   -3.2148692   -1.7134643  0.065051993   -3.2148692    1.5014049   426675 
 4859000   0.97322937   -3.2156876   -1.7134444  0.061732081   -3.2156876    1.5022433   426668 
 4860000   0.97383288   -3.2165296   -1.7133302  0.063944572   -3.2165296    1.5031995   426661 
 4861000   0.97271905   -3.2146529   -1.7131516  0.068857804   -3.2146529    1.5015013   426655 
 4862000   0.97189136   -3.2152564   -1.7150081  0.067768314   -3.2152564    1.5002483   426648 
 4863000   0.97224176   -3.2152022   -1.7143884  0.068176035   -3.2152022    1.5008138   426641 
 4864000   0.97254513   -3.2133708   -1.7120676  0.063118543   -3.2133708    1.5013032   426635 
 4865000   0.97424382   -3.2159966   -1.7120464  0.065603561   -3.2159966    1.5039501   426628 
 4866000   0.97251749   -3.2144779   -1.7131681  0.066579835   -3.2144779    1.5013098   426621 
 4867000       0.9721   -3.2133405   -1.7126541  0.070810621   -3.2133405    1.5006864   426615 
 4868000   0.97361102   -3.2165718    -1.713528  0.062825738   -3.2165718    1.5030437   426608 
 4869000   0.97369626   -3.2142844   -1.7110844   0.06863461   -3.2142844       1.5032   426601 
 4870000   0.97452211   -3.2154625   -1.7109664  0.065497404   -3.2154625    1.5044961   426595 
 4871000    0.9730483   -3.2145888   -1.7123434  0.067664324   -3.2145888    1.5022454   426588 
 4872000   0.97419808   -3.2146531   -1.7106079  0.068959796   -3.2146531    1.5040452   426581 
 4873000   0.97546225   -3.2170786   -1.7110605  0.065131375   -3.2170786    1.5060181   426575 
 4874000   0.97558621   -3.2166684   -1.7104342  0.064491429   -3.2166684    1.5062342   426568 
 4875000    0.9746925   -3.2161983   -1.7113192   0.06652628   -3.2161983    1.5048791   426561 
 4876000   0.97470754   -3.2155968   -1.7106733  0.064449572   -3.2155968    1.5049235   426555 
 4877000   0.97402589   -3.2153304   -1.7114347  0.068688819   -3.2153304    1.5038957   426548 
 4878000   0.97278742   -3.2138273   -1.7118191  0.062640751   -3.2138273    1.5020082   426541 
 4879000   0.97254074   -3.2135812   -1.7119328   0.06280739   -3.2135812    1.5016484   426535 
 4880000   0.97314881    -3.214409   -1.7117971  0.060732852    -3.214409     1.502612   426528 
 4881000   0.97182878   -3.2116051   -1.7110068  0.060551279   -3.2116051    1.5005984   426521 
 4882000   0.97199831   -3.2123598   -1.7114786  0.058959965   -3.2123598    1.5008813   426515 
 4883000   0.97200336   -3.2118316   -1.7109179  0.063146459   -3.2118316    1.5009137   426508 
 4884000   0.97270226   -3.2121805    -1.710163  0.062526819   -3.2121805    1.5020175   426501 
 4885000   0.97333356   -3.2121836   -1.7091701  0.063985142   -3.2121836    1.5030135   426495 
 4886000   0.97251985   -3.2097426    -1.707961  0.070657498   -3.2097426    1.5017816   426488 
 4887000   0.97344422   -3.2102817   -1.7070479  0.060950173   -3.2102817    1.5032337   426481 
 4888000   0.97359563   -3.2109342   -1.7074454  0.061313395   -3.2109342    1.5034887   426475 
 4889000   0.97382015    -3.210503   -1.7066429  0.063547209    -3.210503    1.5038601   426468 
 4890000   0.97280173   -3.2100301   -1.7077181  0.063767169   -3.2100301     1.502312   426461 
 4891000   0.97316783   -3.2118538   -1.7089552   0.05940687   -3.2118538    1.5028986   426455 
 4892000   0.97167647   -3.2087648   -1.7081448  0.063606258   -3.2087648      1.50062   426448 
 4893000   0.97120025   -3.2076753   -1.7077661  0.059956123   -3.2076753    1.4999092   426441 
 4894000   0.97335077   -3.2105942   -1.7073426  0.060829251   -3.2105942    1.5032516   426435 
 4895000   0.97153899   -3.2080732   -1.7075951  0.063200932   -3.2080732    1.5004781   426428 
 4896000   0.97235284   -3.2096635   -1.7079038  0.058710197   -3.2096635    1.5017597   426421 
 4897000    0.9716583   -3.2088138   -1.7081057  0.056645816   -3.2088138    1.5007081   426415 
 4898000   0.97288969   -3.2089328   -1.7062982  0.064344752   -3.2089328    1.5026346   426408 
 4899000   0.97187235   -3.2075175   -1.7064296   0.06784805   -3.2075175     1.501088   426401 
 4900000   0.97296853   -3.2079814   -1.7051792  0.063666112   -3.2079814    1.5028022   426395 
 4901000   0.97415689   -3.2096761   -1.7050137  0.063621086   -3.2096761    1.5046624   426388 
 4902000   0.97413387    -3.208525   -1.7038734   0.07072003    -3.208525    1.5046515   426381 
 4903000   0.97273815   -3.2061175   -1.7036007  0.061448586   -3.2061175    1.5025168   426375 
 4904000    0.9735203   -3.2079078   -1.7041581  0.066711488   -3.2079078    1.5037497   426368 
 4905000   0.97420611   -3.2084637     -1.70363   0.06525346   -3.2084637    1.5048337   426361 
 4906000   0.97362118   -3.2076378   -1.7036865  0.061215091   -3.2076378    1.5039513   426355 
 4907000   0.97275224   -3.2071155   -1.7044817  0.062000509   -3.2071155    1.5026338   426348 
 4908000   0.97270947   -3.2069375   -1.7043451  0.063319788   -3.2069375    1.5025924   426341 
 4909000   0.97297325   -3.2065692   -1.7035482  0.061549412   -3.2065692     1.503021   426335 
 4910000   0.97338251   -3.2090489    -1.705371  0.060783436   -3.2090489    1.5036779   426328 
 4911000   0.97446215   -3.2108385   -1.7054681  0.065980813   -3.2108385    1.5053704   426321 
 4912000   0.97214369   -3.2079426   -1.7061326  0.062927599   -3.2079426      1.50181   426315 
 4913000   0.97205789   -3.2086809   -1.7069788  0.060517841   -3.2086809    1.5017021   426308 
 4914000   0.97271734   -3.2098639   -1.7071184  0.059696546   -3.2098639    1.5027455   426301 
 4915000   0.97179129   -3.2092174   -1.7078814  0.064681083   -3.2092174     1.501336   426295 
 4916000   0.97253377   -3.2089316   -1.7064239  0.064511436   -3.2089316    1.5025077   426288 
 4917000   0.97285736   -3.2093592   -1.7063268   0.06672205   -3.2093592    1.5030323   426281 
 4918000   0.97056501   -3.2078972   -1.7083854  0.060544859   -3.2078972    1.4995118   426275 
 4919000   0.97090576   -3.2079815   -1.7079186   0.06707202   -3.2079815    1.5000629   426268 
 4920000   0.97339063    -3.212326   -1.7083992  0.060735662    -3.212326    1.5039268   426261 
 4921000   0.97487331   -3.2127332   -1.7064944  0.063580211   -3.2127332    1.5062388   426255 
 4922000   0.97303428   -3.2108769   -1.7074548  0.066732881   -3.2108769    1.5034221   426248 
 4923000   0.97339743   -3.2126231   -1.7086153  0.068951587   -3.2126231    1.5040079   426241 
 4924000   0.97296396   -3.2135334   -1.7101741  0.069805983   -3.2135334    1.5033593   426235 
 4925000   0.97222347   -3.2121171   -1.7098773  0.063810419   -3.2121171    1.5022398   426228 
 4926000   0.97416671   -3.2145202   -1.7092531  0.063727839   -3.2145202    1.5052671   426221 
 4927000   0.97329879   -3.2138462    -1.709899  0.062456315   -3.2138462    1.5039472   426215 
 4928000   0.97393025   -3.2135034   -1.7085558  0.066244617   -3.2135034    1.5049476   426208 
 4929000    0.9730671   -3.2146598   -1.7110212  0.064314133   -3.2146598    1.5036386   426201 
 4930000   0.97403063   -3.2158056   -1.7106569  0.063632191   -3.2158056    1.5051487   426195 
 4931000   0.97252243    -3.213217   -1.7103742  0.066948745    -3.213217    1.5028428   426188 
 4932000   0.97406081   -3.2155109   -1.7102662  0.061709808   -3.2155109    1.5052447   426181 
 4933000   0.97319905   -3.2144967   -1.7105625  0.067576224   -3.2144967    1.5039342   426175 
 4934000   0.97386117   -3.2142527   -1.7092706  0.067572911   -3.2142527    1.5049821   426168 
 4935000   0.97388834   -3.2147807   -1.7097318  0.064405777   -3.2147807    1.5050489   426161 
 4936000   0.97234256   -3.2132559   -1.7105748  0.062440149   -3.2132559    1.5026811   426155 
 4937000   0.97264524   -3.2126564   -1.7094827  0.061532105   -3.2126564    1.5031736   426148 
 4938000   0.97221976   -3.2123873   -1.7098465  0.069550962   -3.2123873    1.5025407   426141 
 4939000    0.9710358   -3.2106234   -1.7098914  0.068392997   -3.2106234    1.5007321   426135 
 4940000   0.97046454   -3.2111869    -1.711313   0.06500404   -3.2111869    1.4998738   426128 
 4941000   0.97068673      -3.2111   -1.7108581  0.061292824      -3.2111    1.5002419   426121 
 4942000   0.97170081   -3.2124485   -1.7106182  0.062825095   -3.2124485    1.5018303   426115 
 4943000   0.97107951   -3.2108126   -1.7099179  0.066053935   -3.2108126    1.5008947   426108 
 4944000   0.97276033   -3.2129539   -1.7094366  0.058281934   -3.2129539    1.5035173   426101 
 4945000   0.96960553   -3.2094477   -1.7107854  0.065191151   -3.2094477    1.4986623   426095 
 4946000   0.97095804   -3.2101277   -1.7093503  0.067391143   -3.2101277    1.5007774   426088 
 4947000   0.97237427   -3.2105061    -1.707515  0.066384517   -3.2105061    1.5029911   426081 
 4948000   0.97275331   -3.2118704   -1.7082722  0.066635016   -3.2118704    1.5035982   426075 
 4949000   0.97337658   -3.2122919   -1.7077055   0.06621427   -3.2122919    1.5045863   426068 
 4950000    0.9729914    -3.211806   -1.7077903  0.064728298    -3.211806    1.5040156   426061 
 4951000   0.97250626   -3.2109735   -1.7076866  0.069818871   -3.2109735    1.5032869   426055 
 4952000   0.97289567   -3.2115464   -1.7076328  0.059974773   -3.2115464    1.5039135   426048 
 4953000   0.97231688   -3.2118738   -1.7088303  0.061877748   -3.2118738    1.5030435   426041 
 4954000   0.97261317   -3.2118448    -1.708322  0.062971271   -3.2118448    1.5035227   426035 
 4955000   0.97248412   -3.2120851   -1.7087372  0.065164456   -3.2120851    1.5033479   426028 
 4956000     0.971471    -3.210514   -1.7087076  0.066172072    -3.210514    1.5018065   426021 
 4957000   0.97209245    -3.210734   -1.7079457  0.066373163    -3.210734    1.5027883   426015 
 4958000   0.97284693   -3.2122132   -1.7082338  0.061056237   -3.2122132    1.5039794   426008 
 4959000   0.97116541   -3.2090648   -1.7076602  0.070445466   -3.2090648    1.5014045   426001 
 4960000   0.97341289   -3.2131968   -1.7082965  0.059494901   -3.2131968    1.5049003   425995 
 4961000   0.97350448   -3.2127575   -1.7076909  0.062351332   -3.2127575    1.5050666   425988 
 4962000   0.97169949   -3.2104772   -1.7081764  0.066158605   -3.2104772    1.5023007   425981 
 4963000    0.9721681   -3.2119209   -1.7088745  0.064182605   -3.2119209    1.5030464   425975 
 4964000   0.97244003   -3.2125006   -1.7090091  0.064523709   -3.2125006    1.5034915   425968 
 4965000   0.97346297   -3.2147617   -1.7096638  0.065910136   -3.2147617    1.5050978   425961 
 4966000   0.97251788   -3.2129662   -1.7093084  0.061849813   -3.2129662    1.5036578   425955 
 4967000   0.97077937   -3.2109008   -1.7099064  0.063233598   -3.2109008    1.5009945   425948 
 4968000   0.97168452   -3.2127302   -1.7103116   0.06851614   -3.2127302    1.5024187   425941 
 4969000   0.97145749   -3.2121091   -1.7100203  0.063809952   -3.2121091    1.5020888   425935 
 4970000   0.97126499   -3.2121438    -1.710328  0.064840147   -3.2121438    1.5018158   425928 
 4971000   0.97352252   -3.2139131   -1.7085819  0.064454724   -3.2139131    1.5053313   425921 
 4972000   0.97144825   -3.2110105   -1.7088655  0.066603725   -3.2110105     1.502145   425915 
 4973000   0.97107987   -3.2118508   -1.7102507  0.060291113   -3.2118508    1.5016001   425908 
 4974000   0.97329955   -3.2147497   -1.7096926  0.059400649   -3.2147497    1.5050572   425901 
 4975000   0.97026131   -3.2106363   -1.7102562    0.0620251   -3.2106363    1.5003801   425895 
 4976000   0.96972214   -3.2098213   -1.7102503  0.067429911   -3.2098213     1.499571   425888 
 4977000   0.97227698   -3.2143684   -1.7108219   0.06265257   -3.2143684    1.5035465   425881 
 4978000   0.97104871   -3.2124072    -1.710739  0.060997391   -3.2124072    1.5016683   425875 
 4979000   0.97214654   -3.2129603   -1.7095696  0.064212676   -3.2129603    1.5033907   425868 
 4980000   0.97030502   -3.2119963   -1.7114288  0.068550162   -3.2119963    1.5005675   425861 
 4981000   0.97141466   -3.2148769   -1.7125722  0.057737286   -3.2148769    1.5023047   425855 
 4982000   0.97020377   -3.2112264   -1.7107697  0.066000001   -3.2112264    1.5004567   425848 
 4983000   0.96971583   -3.2098709   -1.7101441  0.066620936   -3.2098709    1.4997268   425841 
 4984000   0.97027996   -3.2092861   -1.7086657  0.068400758   -3.2092861    1.5006204   425835 
 4985000   0.97215605   -3.2140192   -1.7104725  0.057743509   -3.2140192    1.5035466   425828 
 4986000    0.9696635    -3.209952   -1.7102358    0.0623702    -3.209952    1.4997163   425821 
 4987000   0.97175558    -3.212165   -1.7091919  0.064587285    -3.212165    1.5029731   425815 
 4988000   0.97294755   -3.2136073   -1.7087658  0.064500818   -3.2136073    1.5048414   425808 
 4989000   0.97054906   -3.2107782   -1.7096218  0.065592875   -3.2107782    1.5011564   425801 
 4990000    0.9718814   -3.2121873   -1.7089489   0.05923874   -3.2121873    1.5032383   425795 
 4991000   0.97081426   -3.2120129   -1.7104004  0.065099465   -3.2120129    1.5016125   425788 
 4992000    0.9724175   -3.2127425   -1.7086255  0.062871423   -3.2127425     1.504117   425781 
 4993000   0.97163882   -3.2122257    -1.709292  0.065392272   -3.2122257    1.5029337   425775 
 4994000   0.97143409   -3.2132443   -1.7106025  0.063891402   -3.2132443    1.5026418   425768 
 4995000    0.9719411   -3.2150793   -1.7116285   0.06455194   -3.2150793    1.5034507   425761 
 4996000   0.97082936   -3.2135093   -1.7117571  0.063248628   -3.2135093    1.5017522   425755 
 4997000   0.97081252   -3.2152466   -1.7134958  0.061586931   -3.2152466    1.5017508   425748 
 4998000    0.9681869   -3.2117388    -1.714025  0.062318084   -3.2117388    1.4977139   425741 
 4999000    0.9698813   -3.2118549   -1.7114987  0.064164264   -3.2118549    1.5003562   425735 
 5000000   0.97160626   -3.2137466   -1.7106973  0.066795613   -3.2137466    1.5030493   425728 
 5001000   0.97044938   -3.2151379   -1.7138536  0.063932252   -3.2151379    1.5012843   425721 
 5002000    0.9718681   -3.2154498   -1.7119495   0.06453297   -3.2154498    1.5035003   425715 
 5003000   0.97108584    -3.215644   -1.7133293  0.064348245    -3.215644    1.5023148   425708 
 5004000   0.97084499   -3.2161371   -1.7141702  0.066046556   -3.2161371    1.5019669   425701 
 5005000   0.97018572    -3.214666   -1.7136979  0.066597975    -3.214666    1.5009681   425695 
 5006000   0.97116013   -3.2155503     -1.71305  0.061476401   -3.2155503    1.5025003   425688 
 5007000   0.97016429   -3.2153024   -1.7143181  0.067286731   -3.2153024    1.5009843   425681 
 5008000   0.97061374   -3.2151846   -1.7134837  0.067514222   -3.2151846    1.5017008   425675 
 5009000   0.97161759   -3.2174553   -1.7141767  0.062872613   -3.2174553    1.5032787   425668 
 5010000   0.97067511   -3.2153379   -1.7134928  0.065591543   -3.2153379    1.5018452   425661 
 5011000   0.97160258   -3.2173361   -1.7140347  0.061093317   -3.2173361    1.5033014   425655 
 5012000    0.9723241   -3.2171431   -1.7127006   0.06459162   -3.2171431    1.5044425   425648 
 5013000   0.97033145   -3.2149635   -1.7135795  0.069538525   -3.2149635     1.501384   425641 
 5014000   0.97001925   -3.2153024   -1.7143802  0.067047876   -3.2153024    1.5009221   425635 
 5015000    0.9704608   -3.2159151   -1.7142851  0.060356307   -3.2159151      1.50163   425628 
 5016000   0.96881187    -3.213913   -1.7148098  0.062855485    -3.213913    1.4991032   425621 
 5017000   0.96926203   -3.2141459   -1.7143249  0.068599253   -3.2141459    1.4998209   425615 
 5018000   0.96981271   -3.2145276   -1.7138299  0.066799661   -3.2145276    1.5006977   425608 
 5019000   0.96924342   -3.2145691   -1.7147276  0.063481615   -3.2145691    1.4998415   425601 
 5020000   0.96836265   -3.2141906    -1.715691  0.060555814   -3.2141906    1.4984996   425595 
 5021000   0.96888538    -3.216059   -1.7167258  0.062082203    -3.216059    1.4993332   425588 
 5022000   0.96789322   -3.2140242   -1.7162017  0.062454488   -3.2140242    1.4978225   425581 
 5023000    0.9696242   -3.2148451   -1.7143228   0.06176337   -3.2148451    1.5005224   425575 
 5024000   0.96997323   -3.2148077   -1.7137206  0.064128434   -3.2148077    1.5010872   425568 
 5025000   0.96976006   -3.2157484   -1.7149664  0.063730553   -3.2157484     1.500782   425561 
 5026000   0.97054497   -3.2164915   -1.7144736  0.061980887   -3.2164915    1.5020179   425555 
 5027000   0.96913676   -3.2159953   -1.7161321  0.056245468   -3.2159953    1.4998632   425548 
 5028000   0.96875786   -3.2159804    -1.716679  0.061752191   -3.2159804    1.4993015   425541 
 5029000   0.97082656   -3.2177621   -1.7152379  0.067269828   -3.2177621    1.5025243   425535 
 5030000   0.97062034   -3.2190684   -1.7168385  0.063432238   -3.2190684    1.5022298   425528 
 5031000   0.96846368   -3.2148663   -1.7159497  0.061807981   -3.2148663    1.4989166   425521 
 5032000   0.96994333   -3.2175799    -1.716352   0.06276006   -3.2175799    1.5012279   425515 
 5033000   0.96881682   -3.2161122   -1.7166033  0.063631522   -3.2161122     1.499509   425508 
 5034000   0.96904369   -3.2183364   -1.7184516  0.068909202   -3.2183364    1.4998848   425501 
 5035000   0.97093539   -3.2196571   -1.7168232  0.062468718   -3.2196571     1.502834   425495 
 5036000   0.96914335   -3.2165204   -1.7164355  0.065129117   -3.2165204    1.5000849   425488 
 5037000   0.96987716   -3.2181005   -1.7168551  0.064715028   -3.2181005    1.5012454   425481 
 5038000   0.97187982   -3.2200177   -1.7156512  0.066484006   -3.2200177    1.5043665   425475 
 5039000   0.97028127   -3.2181436   -1.7162268  0.071394966   -3.2181436    1.5019168   425468 
 5040000   0.97172889   -3.2204705   -1.7162881  0.064857611   -3.2204705    1.5041824   425461 
 5041000   0.97098991   -3.2200695   -1.7170098  0.070758975   -3.2200695    1.5030596   425455 
 5042000   0.97155964     -3.21908   -1.7151137  0.072504437     -3.21908    1.5039663   425448 
 5043000   0.97206566   -3.2202631   -1.7154887  0.059861775   -3.2202631    1.5047744   425441 
 5044000   0.97157915   -3.2189958   -1.7149533  0.065701508   -3.2189958    1.5040425   425435 
 5045000   0.97244328   -3.2208424   -1.7154374  0.066459015   -3.2208424     1.505405   425428 
 5046000   0.97075593   -3.2187991   -1.7159816  0.059524684   -3.2187991    1.5028176   425421 
 5047000   0.97115047   -3.2199422   -1.7164926  0.065826485   -3.2199422    1.5034495   425415 
 5048000   0.96931267   -3.2180289   -1.7173998  0.068850035   -3.2180289    1.5006291   425408 
 5049000   0.96788537   -3.2161838   -1.7177397  0.066156248   -3.2161838    1.4984441   425401 
 5050000    0.9679474    -3.215554   -1.7169927  0.066528185    -3.215554    1.4985613   425395 
 5051000   0.96824177    -3.215143   -1.7161013   0.06083513    -3.215143    1.4990417   425388 
 5052000   0.96822272    -3.215794   -1.7167572  0.064629501    -3.215794    1.4990369   425381 
 5053000   0.96939556   -3.2163782   -1.7155043  0.068867605   -3.2163782    1.5008739   425375 
 5054000   0.96816026    -3.214463    -1.715477  0.064289349    -3.214463     1.498986   425368 
 5055000   0.96963221   -3.2152141   -1.7139244  0.064429839   -3.2152141    1.5012897   425361 
 5056000   0.97120756   -3.2170607   -1.7133107  0.065764054   -3.2170607      1.50375   425355 
 5057000   0.96975974   -3.2153237   -1.7137907  0.064483581   -3.2153237     1.501533   425348 
 5058000    0.9711621   -3.2164778   -1.7127487  0.067491356   -3.2164778    1.5037291   425341 
 5059000   0.97034307   -3.2148809   -1.7123988  0.065391938   -3.2148809    1.5024821   425335 
 5060000   0.96912158    -3.212684   -1.7120686   0.06624196    -3.212684    1.5006155   425328 
 5061000   0.96996035   -3.2141501   -1.7122111  0.063291157   -3.2141501     1.501939   425321 
 5062000   0.97100523   -3.2158177   -1.7122396  0.060809301   -3.2158177    1.5035781   425315 
 5063000   0.96931282    -3.212608   -1.7116258  0.062784376    -3.212608    1.5009822   425308 
 5064000   0.96904005   -3.2119792   -1.7113947  0.069673592   -3.2119792    1.5005845   425301 
 5065000   0.96891828   -3.2131455   -1.7127284  0.067411734   -3.2131455    1.5004171   425295 
 5066000    0.9690517   -3.2130561   -1.7124077  0.067866233   -3.2130561    1.5006484   425288 
 5067000   0.96858616    -3.213523   -1.7135708  0.062240412    -3.213523    1.4999522   425281 
 5068000   0.96935697    -3.215959   -1.7147919  0.066718585    -3.215959     1.501167   425275 
 5069000   0.96936302    -3.217847   -1.7166458  0.054992126    -3.217847    1.5012011   425268 
 5070000   0.97024116   -3.2164474   -1.7138616  0.064503893   -3.2164474    1.5025858   425261 
 5071000   0.97020034   -3.2166661   -1.7141224    0.0651982   -3.2166661    1.5025438   425255 
 5072000   0.96922954    -3.215399    -1.714334  0.063416185    -3.215399     1.501065   425248 
 5073000   0.96938789   -3.2164719   -1.7151369  0.063360766   -3.2164719    1.5013349   425241 
 5074000   0.96862751   -3.2151613   -1.7149828  0.061201136   -3.2151613    1.5001785   425235 
 5075000   0.96816039    -3.215156   -1.7156763  0.069389299    -3.215156    1.4994797   425228 
 5076000    0.9697795   -3.2166814   -1.7146693  0.059161614   -3.2166814    1.5020121   425221 
 5077000   0.96867509   -3.2146538   -1.7143311  0.064945536   -3.2146538    1.5003227   425215 
 5078000   0.96933149   -3.2157094   -1.7143453  0.068271641   -3.2157094    1.5013641   425208 
 5079000    0.9692156   -3.2165722   -1.7153629  0.072488313   -3.2165722    1.5012093   425201 
 5080000    0.9687793   -3.2164838   -1.7159291  0.068605851   -3.2164838    1.5005547   425195 
 5081000   0.96898401   -3.2172387   -1.7163422  0.067433265   -3.2172387    1.5008965   425188 
 5082000   0.97052588   -3.2195689   -1.7162593  0.061940364   -3.2195689    1.5033095   425181 
 5083000   0.97031316   -3.2191223   -1.7161211  0.062307664   -3.2191223    1.5030012   425175 
 5084000   0.97082399   -3.2189053    -1.715088  0.066127469   -3.2189053    1.5038172   425168 
 5085000   0.97091829   -3.2185993   -1.7146112  0.067008847   -3.2185993    1.5039881   425161 
 5086000   0.97137311   -3.2199057   -1.7151919  0.069637839   -3.2199057    1.5047138   425155 
 5087000   0.96986853    -3.220455   -1.7180471  0.067566468    -3.220455    1.5024079   425148 
 5088000   0.97008073   -3.2197636   -1.7170023  0.063976399   -3.2197636    1.5027614   425141 
 5089000   0.96881669   -3.2178859   -1.7170615  0.062659657   -3.2178859    1.5008244   425135 
 5090000   0.96970975   -3.2181891   -1.7159565  0.068501708   -3.2181891    1.5022326   425128 
 5091000   0.96975016   -3.2196111   -1.7172912  0.064172164   -3.2196111    1.5023199   425121 
 5092000   0.97021754   -3.2194765   -1.7164113   0.06684747   -3.2194765    1.5030652   425115 
 5093000   0.97021889   -3.2192851    -1.716193  0.066715071   -3.2192851    1.5030921   425108 
 5094000    0.9707399   -3.2207536   -1.7168296  0.067459423   -3.2207536     1.503924   425101 
 5095000   0.96936339   -3.2189897   -1.7171771  0.068588224   -3.2189897    1.5018126   425095 
 5096000   0.96965445   -3.2190902   -1.7168019  0.067325407   -3.2190902    1.5022883   425088 
 5097000    0.9703658   -3.2195782   -1.7161631  0.063598376   -3.2195782    1.5034151   425081 
 5098000   0.97075133   -3.2211622   -1.7171285  0.066447046   -3.2211622    1.5040337   425075 
 5099000   0.96935787   -3.2185296   -1.7166301  0.063586535   -3.2185296    1.5018995   425068 
 5100000   0.96945234   -3.2178063   -1.7157357  0.060144944   -3.2178063    1.5020706   425061 
 5101000   0.96978745   -3.2192223   -1.7166113  0.063467452   -3.2192223     1.502611   425055 
 5102000   0.96859538   -3.2174241   -1.7166354  0.062013736   -3.2174241    1.5007887   425048 
 5103000   0.96786085   -3.2154981   -1.7158229  0.068153405   -3.2154981    1.4996753   425041 
 5104000   0.96906039    -3.216467   -1.7149119   0.06502913    -3.216467    1.5015551   425035 
 5105000   0.96877584   -3.2157321   -1.7145932  0.062851512   -3.2157321    1.5011389   425028 
 5106000   0.97129962   -3.2190563    -1.713982  0.062235428   -3.2190563    1.5050744   425021 
 5107000   0.96960451   -3.2157707   -1.7133017   0.06247586   -3.2157707    1.5024689   425015 
 5108000   0.96995428   -3.2166859   -1.7136503  0.063047182   -3.2166859    1.5030357   425008 
 5109000   0.96912544   -3.2158117   -1.7140357  0.060545275   -3.2158117     1.501776   425001 
 5110000   0.96806353    -3.214747   -1.7145954  0.059890435    -3.214747    1.5001517   424995 
 5111000   0.96855355   -3.2142569   -1.7133211  0.069438284   -3.2142569    1.5009358   424988 
 5112000   0.97048847   -3.2159046   -1.7119456  0.063190814   -3.2159046     1.503959   424981 
 5113000   0.96982656    -3.214484   -1.7115295  0.061724716    -3.214484    1.5029545   424975 
 5114000   0.96839817    -3.212834   -1.7120684  0.059672626    -3.212834    1.5007656   424968 
 5115000   0.96826292   -3.2127916   -1.7122109  0.065057852   -3.2127916    1.5005807   424961 
 5116000   0.96846065    -3.213046   -1.7121376  0.062070871    -3.213046    1.5009083   424955 
 5117000   0.96806578   -3.2127561   -1.7124351  0.064543937   -3.2127561    1.5003211   424948 
 5118000    0.9685664   -3.2120242   -1.7109026  0.055642959   -3.2120242    1.5011217   424941 
 5119000   0.96936594   -3.2139312   -1.7115492  0.067732207   -3.2139312     1.502382   424935 
 5120000    0.9699898   -3.2147435   -1.7113698  0.061622391   -3.2147435    1.5033737   424928 
 5121000    0.9706284   -3.2145093   -1.7101211  0.060053847   -3.2145093    1.5043882   424921 
 5122000   0.97059901   -3.2141249    -1.709761  0.067016125   -3.2141249    1.5043639   424915 
 5123000   0.97019199   -3.2134765   -1.7097186  0.060302034   -3.2134765    1.5037579   424908 
 5124000   0.96876541   -3.2124721   -1.7109006  0.062435187   -3.2124721    1.5015715   424901 
 5125000   0.96927113   -3.2126361   -1.7102596  0.060433043   -3.2126361    1.5023765   424895 
 5126000     0.969357   -3.2123517   -1.7098173  0.063109901   -3.2123517    1.5025344   424888 
 5127000   0.96932459   -3.2127336   -1.7102247  0.067344575   -3.2127336    1.5025089   424881 
 5128000   0.96981405   -3.2148521   -1.7115633  0.064713839   -3.2148521    1.5032888   424875 
 5129000   0.96854154   -3.2128498   -1.7115087  0.057624359   -3.2128498    1.5013411   424868 
 5130000   0.96772603   -3.2114345   -1.7113329  0.063399073   -3.2114345    1.5001017   424861 
 5131000   0.96840249   -3.2129822   -1.7118107  0.061986621   -3.2129822    1.5011714   424855 
 5132000   0.96724839   -3.2120011    -1.712594  0.065882858   -3.2120011    1.4994071   424848 
 5133000   0.96704965   -3.2123057   -1.7131819  0.066219549   -3.2123057    1.4991237   424841 
 5134000   0.96789616   -3.2135018   -1.7130446   0.06396585   -3.2135018    1.5004572   424835 
 5135000   0.96893164   -3.2134251   -1.7113379  0.063888057   -3.2134251    1.5020872   424828 
 5136000   0.96860954   -3.2138379   -1.7122253  0.063667612   -3.2138379    1.5016126   424821 
 5137000    0.9713238   -3.2172292   -1.7113875  0.069025195   -3.2172292    1.5058417   424815 
 5138000   0.97014871   -3.2160138   -1.7119691  0.061616817   -3.2160138    1.5040447   424808 
 5139000   0.97073649   -3.2155966   -1.7106158  0.065869512   -3.2155966    1.5049808   424801 
 5140000   0.97079148   -3.2150954   -1.7100081  0.065893091   -3.2150954    1.5050873   424795 
 5141000    0.9714366   -3.2177389   -1.7116266  0.061617379   -3.2177389    1.5061123   424788 
 5142000   0.96999797   -3.2151104   -1.7112038  0.063999734   -3.2151104    1.5039066   424781 
 5143000   0.96978131   -3.2151301   -1.7115382  0.062116389   -3.2151301     1.503592   424775 
 5144000   0.96914644   -3.2149562   -1.7123238  0.064316426   -3.2149562    1.5026324   424768 
 5145000   0.96832681   -3.2153379   -1.7139516  0.064833496   -3.2153379    1.5013863   424761 
 5146000   0.96793702   -3.2148529   -1.7140497  0.065831631   -3.2148529    1.5008031   424755 
 5147000   0.96929581   -3.2176676   -1.7147329  0.063926078   -3.2176676    1.5029347   424748 
 5148000   0.96919211   -3.2180367    -1.715238  0.067337975   -3.2180367    1.5027987   424741 
 5149000   0.96975218   -3.2173349   -1.7136465   0.06705041   -3.2173349    1.5036884   424735 
 5150000   0.96784873   -3.2151865   -1.7144248  0.068892182   -3.2151865    1.5007617   424728 
 5151000   0.96663992   -3.2129979   -1.7140859  0.066712014   -3.2129979     1.498912   424721 
 5152000   0.96855504   -3.2153084   -1.7134056  0.068897837   -3.2153084    1.5019028   424715 
 5153000   0.96801614   -3.2152986   -1.7142067  0.067824599   -3.2152986    1.5010919   424708 
 5154000   0.96764234   -3.2151396   -1.7146025  0.064803813   -3.2151396     1.500537   424701 
 5155000   0.96813648   -3.2158797   -1.7145552  0.067096128   -3.2158797    1.5013245   424695 
 5156000   0.96825124   -3.2173747   -1.7158475  0.063794288   -3.2173747    1.5015272   424688 
 5157000   0.96804665   -3.2166333   -1.7153986  0.065562104   -3.2166333    1.5012347   424681 
 5158000   0.96843524   -3.2175621   -1.7157036  0.060069978   -3.2175621    1.5018585   424675 
 5159000   0.96861808   -3.2184687   -1.7163019   0.06412542   -3.2184687    1.5021668   424668 
 5160000   0.96833935   -3.2170768   -1.7153175  0.061394357   -3.2170768    1.5017593   424661 
 5161000   0.96824014    -3.215686   -1.7140594  0.065724562    -3.215686    1.5016267   424655 
 5162000   0.96734734   -3.2124648    -1.712198  0.062381483   -3.2124648    1.5002668   424648 
 5163000   0.96907026   -3.2161301   -1.7131665  0.064017445   -3.2161301    1.5029636   424641 
 5164000   0.96921983   -3.2170622   -1.7138454  0.063417582   -3.2170622    1.5032169   424635 
 5165000   0.96796336   -3.2156817   -1.7143888   0.06665781   -3.2156817    1.5012929   424628 
 5166000   0.96825625   -3.2163121   -1.7145402  0.064581723   -3.2163121    1.5017719   424621 
 5167000   0.96842616   -3.2161419   -1.7140852  0.063048063   -3.2161419    1.5020567   424615 
 5168000   0.96923869   -3.2170178   -1.7136761  0.064808523   -3.2170178    1.5033417   424608 
 5169000    0.9685896   -3.2150081   -1.7126484  0.064123611   -3.2150081    1.5023597   424601 
 5170000   0.96793914   -3.2157723   -1.7144003   0.06299177   -3.2157723     1.501372   424595 
 5171000    0.9671329   -3.2164306   -1.7162844  0.063587251   -3.2164306    1.5001462   424588 
 5172000   0.96764516   -3.2169529   -1.7159874  0.064633924   -3.2169529    1.5009655   424581 
 5173000   0.96807733   -3.2158959   -1.7142388  0.063846017   -3.2158959    1.5016571   424575 
 5174000   0.96774941   -3.2158416   -1.7146684  0.064574682   -3.2158416    1.5011732   424568 
 5175000   0.96747948   -3.2171042    -1.716325  0.062981314   -3.2171042    1.5007792   424561 
 5176000   0.96835978   -3.2179357   -1.7157698  0.060816019   -3.2179357     1.502166   424555 
 5177000   0.96813716   -3.2161509   -1.7143055  0.061971274   -3.2161509    1.5018454   424548 
 5178000   0.96658828   -3.2151506   -1.7156832  0.067273981   -3.2151506    1.4994674   424541 
 5179000   0.96781024   -3.2175784   -1.7161942  0.062991661   -3.2175784    1.5013842   424535 
 5180000   0.96797644    -3.217787   -1.7161202  0.061138284    -3.217787    1.5016668   424528 
 5181000   0.96868423   -3.2177125   -1.7149229  0.065019781   -3.2177125    1.5027896   424521 
 5182000   0.96854823   -3.2170793   -1.7144794  0.061827619   -3.2170793    1.5025999   424515 
 5183000   0.96810996   -3.2175247     -1.71558  0.063003226   -3.2175247    1.5019447   424508 
 5184000   0.96833567   -3.2194974   -1.7171777   0.06219636   -3.2194974    1.5023196   424501 
 5185000   0.96660809   -3.2173653   -1.7177047  0.061899249   -3.2173653    1.4996606   424495 
 5186000   0.96729332   -3.2182237   -1.7174753  0.059623793   -3.2182237    1.5007484   424488 
 5187000    0.9678451   -3.2183902   -1.7167609  0.059870089   -3.2183902    1.5016293   424481 
 5188000   0.96679753   -3.2184268   -1.7184017  0.060860184   -3.2184268    1.5000252   424475 
 5189000   0.96596386   -3.2167605   -1.7180041  0.061733202   -3.2167605    1.4987564   424468 
 5190000   0.96873747   -3.2204762   -1.7173915  0.058169638   -3.2204762    1.5030846   424461 
 5191000    0.9663111   -3.2180985   -1.7187574  0.065411299   -3.2180985    1.4993411   424455 
 5192000    0.9665358   -3.2172231   -1.7175087  0.062222102   -3.2172231    1.4997145   424448 
 5193000   0.96745128   -3.2184347    -1.717275  0.064244549   -3.2184347    1.5011597   424441 
 5194000   0.96828592   -3.2195817   -1.7171056  0.061733402   -3.2195817    1.5024761   424435 
 5195000   0.96804495   -3.2192724   -1.7171455  0.066790581   -3.2192724    1.5021269   424428 
 5196000   0.96792476    -3.218875   -1.7169098  0.061666542    -3.218875    1.5019652   424421 
 5197000    0.9684678   -3.2193664   -1.7165373  0.068220713   -3.2193664    1.5028291   424415 
 5198000   0.97005879   -3.2202111   -1.7148883   0.07168628   -3.2202111    1.5053228   424408 
 5199000   0.96873324   -3.2197996    -1.716509   0.06393833   -3.2197996    1.5032906   424401 
 5200000   0.96736682    -3.218682   -1.7174906  0.064031108    -3.218682    1.5011914   424395 
 5201000   0.96660504   -3.2181697   -1.7181358  0.064908093   -3.2181697     1.500034   424388 
 5202000   0.96768792   -3.2200492     -1.71831  0.064172989   -3.2200492    1.5017392   424381 
 5203000   0.96756293   -3.2199437   -1.7183773  0.063519116   -3.2199437    1.5015665   424375 
 5204000   0.96732959   -3.2200567   -1.7188276   0.06299782   -3.2200567    1.5012291   424368 
 5205000   0.96680879   -3.2202234   -1.7197778  0.062664756   -3.2202234    1.5004456   424361 
 5206000   0.96638107   -3.2187237   -1.7189206  0.063096835   -3.2187237     1.499803   424355 
 5207000   0.96834384   -3.2196332   -1.7167592  0.067054334   -3.2196332     1.502874   424348 
 5208000   0.96855207   -3.2219334   -1.7187115  0.064757641   -3.2219334     1.503222   424341 
 5209000   0.96771645   -3.2195894   -1.7176431  0.063865323   -3.2195894    1.5019463   424335 
 5210000   0.96895152   -3.2215482   -1.7176602  0.062862296   -3.2215482     1.503888   424328 
 5211000    0.9684949   -3.2208962   -1.7176921  0.063189953   -3.2208962    1.5032041   424321 
 5212000   0.96701476   -3.2192484   -1.7183204  0.060115183   -3.2192484     1.500928   424315 
 5213000   0.96817275   -3.2196465   -1.7168964  0.059123289   -3.2196465    1.5027501   424308 
 5214000   0.96589732   -3.2166549   -1.7174119  0.064761473   -3.2166549     1.499243   424301 
 5215000   0.96637136   -3.2194168   -1.7194167  0.065745039   -3.2194168          1.5   424295 
 5216000   0.96617574   -3.2179452   -1.7182241  0.063795319   -3.2179452    1.4997211   424288 
 5217000   0.96691545   -3.2193218   -1.7184277  0.062777602   -3.2193218    1.5008941   424281 
 5218000   0.96727281   -3.2187152   -1.7172452  0.061870883   -3.2187152      1.50147   424275 
 5219000   0.96786087   -3.2190628   -1.7166551   0.05789895   -3.2190628    1.5024076   424268 
 5220000   0.96721083   -3.2178869   -1.7164635  0.061429274   -3.2178869    1.5014234   424261 
 5221000   0.96850664   -3.2193853   -1.7159292  0.066459663   -3.2193853    1.5034561   424255 
 5222000   0.96806018   -3.2183382   -1.7155503  0.066435531   -3.2183382    1.5027879   424248 
 5223000   0.97067182    -3.222164    -1.715297   0.06403005    -3.222164     1.506867   424241 
 5224000   0.96847585   -3.2173838   -1.7139046  0.063384269   -3.2173838    1.5034792   424235 
 5225000    0.9685766    -3.217823   -1.7141625   0.06397408    -3.217823    1.5036604   424228 
 5226000   0.96772209   -3.2174273   -1.7150686  0.055418283   -3.2174273    1.5023587   424221 
 5227000   0.96735342   -3.2180003   -1.7161927  0.059641569   -3.2180003    1.5018075   424215 
 5228000   0.96787759    -3.217689   -1.7150429  0.057860362    -3.217689    1.5026461   424208 
 5229000   0.96782794   -3.2171518    -1.714558  0.060144879   -3.2171518    1.5025938   424201 
 5230000    0.9684192   -3.2180881   -1.7145551  0.066359405   -3.2180881     1.503533   424195 
 5231000   0.96711502   -3.2161351   -1.7146022  0.063499761   -3.2161351     1.501533   424188 
 5232000   0.96758148   -3.2160689   -1.7137868  0.065760305   -3.2160689     1.502282   424181 
 5233000   0.96763666   -3.2168113   -1.7144224  0.062939866   -3.2168113    1.5023889   424175 
 5234000   0.96872063   -3.2179233   -1.7138265  0.060856038   -3.2179233    1.5040968   424168 
 5235000    0.9669026   -3.2163777   -1.7150789  0.063729226   -3.2163777    1.5012988   424161 
 5236000   0.96748244   -3.2176616   -1.7154413  0.064708394   -3.2176616    1.5022203   424155 
 5237000   0.96742473   -3.2171574   -1.7150019  0.062067008   -3.2171574    1.5021555   424148 
 5238000   0.96626511   -3.2156088   -1.7152291   0.06436998   -3.2156088    1.5003797   424141 
 5239000   0.96721608    -3.215878   -1.7140004  0.064242603    -3.215878    1.5018776   424135 
 5240000   0.96817433   -3.2169717   -1.7135813  0.060097275   -3.2169717    1.5033903   424128 
 5241000   0.96844155   -3.2171671    -1.713337  0.065538803   -3.2171671    1.5038301   424121 
 5242000   0.96661297   -3.2159901   -1.7149783  0.066443093   -3.2159901    1.5010118   424115 
 5243000   0.96776036   -3.2169827   -1.7141643  0.059949734   -3.2169827    1.5028184   424108 
 5244000    0.9675274   -3.2182619   -1.7157805  0.061017866   -3.2182619    1.5024814   424101 
 5245000   0.96662148   -3.2155804   -1.7144845  0.066353642   -3.2155804    1.5010958   424095 
 5246000   0.96708031   -3.2176577   -1.7158245  0.062429378   -3.2176577    1.5018332   424088 
 5247000   0.96772641   -3.2185344    -1.715673  0.059029017   -3.2185344    1.5028613   424081 
 5248000   0.96666757   -3.2168608   -1.7156226  0.062234224   -3.2168608    1.5012382   424075 
 5249000   0.96809811   -3.2180434   -1.7145588  0.064168578   -3.2180434    1.5034847   424068 
 5250000   0.96582648   -3.2167222   -1.7167407  0.061208437   -3.2167222    1.4999815   424061 
 5251000   0.96652753   -3.2185849   -1.7174934  0.061699336   -3.2185849    1.5010915   424055 
 5252000   0.96680137   -3.2181389   -1.7165973  0.064311578   -3.2181389    1.5015416   424048 
 5253000   0.96555183   -3.2164321   -1.7168064  0.067467868   -3.2164321    1.4996257   424041 
 5254000   0.96498358   -3.2147245   -1.7159602  0.066359109   -3.2147245    1.4987643   424035 
 5255000   0.96671516   -3.2178667   -1.7163882  0.063467146   -3.2178667    1.5014785   424028 
 5256000   0.96624617   -3.2183291   -1.7175542  0.065572426   -3.2183291    1.5007749   424021 
 5257000   0.96614756   -3.2194366   -1.7187936  0.063754708   -3.2194366     1.500643   424015 
 5258000   0.96653368   -3.2195799   -1.7183125  0.066279732   -3.2195799    1.5012675   424008 
 5259000   0.96564708   -3.2187284   -1.7188132  0.064032945   -3.2187284    1.4999151   424001 
 5260000   0.96540472   -3.2192574   -1.7196975  0.064250491   -3.2192574    1.4995599   423995 
 5261000   0.96720361   -3.2202386   -1.7178597  0.066664069   -3.2202386    1.5023789   423988 
 5262000     0.966998   -3.2199458   -1.7178615  0.064736698   -3.2199458    1.5020843   423981 
 5263000   0.96817662   -3.2205234    -1.716587  0.070288953   -3.2205234    1.5039364   423975 
 5264000   0.96731348   -3.2204684   -1.7178479  0.069004106   -3.2204684    1.5026205   423968 
 5265000   0.96722303   -3.2207753   -1.7182706  0.068752017   -3.2207753    1.5025047   423961 
 5266000   0.96617435   -3.2186356   -1.7177387  0.064592058   -3.2186356    1.5008969   423955 
 5267000   0.96537889   -3.2189763   -1.7192903   0.06323928   -3.2189763     1.499686   423948 
 5268000   0.96485131   -3.2173017   -1.7184105  0.063925513   -3.2173017    1.4988912   423941 
 5269000    0.9669605   -3.2202266   -1.7180376  0.068009826   -3.2202266    1.5021891   423935 
 5270000   0.96610126   -3.2193675   -1.7184885  0.066839676   -3.2193675     1.500879   423928 
 5271000   0.96385897   -3.2168064   -1.7193862  0.067103924   -3.2168064    1.4974202   423921 
 5272000   0.96544919   -3.2179989    -1.718087  0.061130197   -3.2179989     1.499912   423915 
 5273000   0.96461739    -3.217368   -1.7187236  0.062234294    -3.217368    1.4986444   423908 
 5274000   0.96325886   -3.2154136   -1.7188551  0.061390444   -3.2154136    1.4965585   423901 
 5275000   0.96374101   -3.2171834   -1.7198546  0.066221398   -3.2171834    1.4973288   423895 
 5276000   0.96465762   -3.2183015   -1.7195239  0.066238288   -3.2183015    1.4987777   423888 
 5277000   0.96532154   -3.2186358   -1.7188019  0.066817372   -3.2186358    1.4998339   423881 
 5278000   0.96682061   -3.2194455   -1.7172612  0.063858908   -3.2194455    1.5021843   423875 
 5279000   0.96774903   -3.2217225   -1.7180708  0.056518336   -3.2217225    1.5036517   423868 
 5280000   0.96615421   -3.2181051   -1.7169065  0.069030115   -3.2181051    1.5011985   423861 
 5281000   0.96579214   -3.2164516   -1.7157944  0.066847265   -3.2164516    1.5006572   423855 
 5282000   0.96685443   -3.2177056    -1.715373  0.064804612   -3.2177056    1.5023326   423848 
 5283000   0.96539698   -3.2151339   -1.7150411  0.069262099   -3.2151339    1.5000927   423841 
 5284000   0.96710031    -3.216967   -1.7142063  0.070367873    -3.216967    1.5027607   423835 
 5285000   0.96674031   -3.2179378   -1.7157116  0.063995477   -3.2179378    1.5022261   423828 
 5286000   0.96615438   -3.2156973   -1.7143569  0.064713478   -3.2156973    1.5013405   423821 
 5287000   0.96689271   -3.2189056   -1.7163965  0.063014452   -3.2189056     1.502509   423815 
 5288000   0.96489913    -3.215924   -1.7164881  0.060803741    -3.215924    1.4994359   423808 
 5289000   0.96511091   -3.2145736   -1.7147839  0.057332602   -3.2145736    1.4997897   423801 
 5290000   0.96586728   -3.2171429   -1.7161565  0.061061415   -3.2171429    1.5009864   423795 
 5291000    0.9668147   -3.2171217   -1.7146381  0.059985195   -3.2171217    1.5024835   423788 
 5292000   0.96623894   -3.2158695   -1.7142559  0.064076887   -3.2158695    1.5016136   423781 
 5293000   0.96523843   -3.2143803   -1.7143004  0.067362632   -3.2143803    1.5000799   423775 
 5294000   0.96703325   -3.2165818   -1.7136877  0.062205844   -3.2165818    1.5028941   423768 
 5295000   0.96501778   -3.2150714   -1.7152848  0.065059378   -3.2150714    1.4997866   423761 
 5296000   0.96741493   -3.2159895   -1.7124561  0.067269142   -3.2159895    1.5035334   423755 
 5297000   0.96835025    -3.215777   -1.7107651  0.067132448    -3.215777    1.5050119   423748 
 5298000    0.9657422   -3.2133233     -1.71234    0.0711395   -3.2133233    1.5009833   423741 
 5299000   0.96746733    -3.216726   -1.7130402  0.063101554    -3.216726    1.5036858   423735 
 5300000   0.96650362   -3.2136816   -1.7114688  0.062411816   -3.2136816    1.5022128   423728 
 5301000   0.96712796   -3.2147434   -1.7115354  0.062260864   -3.2147434     1.503208   423721 
 5302000   0.96716066   -3.2144694   -1.7111893  0.068318073   -3.2144694    1.5032801   423715 
 5303000   0.96456021   -3.2122256   -1.7129627  0.064626286   -3.2122256     1.499263   423708 
 5304000   0.96548982   -3.2134956   -1.7127629  0.065852514   -3.2134956    1.5007327   423701 
 5305000   0.96458664   -3.2118178   -1.7124677  0.060540092   -3.2118178      1.49935   423695 
 5306000    0.9659637   -3.2137352   -1.7122199  0.066212612   -3.2137352    1.5015154   423688 
 5307000    0.9664078   -3.2151014   -1.7128709  0.061729245   -3.2151014    1.5022305   423681 
 5308000   0.96733517   -3.2165625   -1.7128692  0.063165565   -3.2165625    1.5036933   423675 
 5309000   0.96713117    -3.215622    -1.712221  0.068225517    -3.215622    1.5034011   423668 
 5310000   0.96349777   -3.2100871   -1.7123094  0.065080106   -3.2100871    1.4977777   423661 
 5311000   0.96465758   -3.2126713   -1.7130694  0.059430817   -3.2126713    1.4996019   423655 
 5312000   0.96617953   -3.2142947    -1.712302  0.064124719   -3.2142947    1.5019926   423648 
 5313000    0.9664892   -3.2139055   -1.7114066  0.056543399   -3.2139055    1.5024989   423641 
 5314000   0.96501156   -3.2135955   -1.7133725  0.059483099   -3.2135955     1.500223   423635 
 5315000   0.96708733   -3.2158532   -1.7123784  0.061531711   -3.2158532    1.5034749   423628 
 5316000   0.96555174   -3.2141963    -1.713084  0.068505454   -3.2141963    1.5011124   423621 
 5317000   0.96635897   -3.2156502   -1.7132615  0.060921122   -3.2156502    1.5023886   423615 
 5318000   0.96632671   -3.2167595   -1.7143962  0.065185393   -3.2167595    1.5023633   423608 
 5319000   0.96663606   -3.2162691      -1.7134  0.064942709   -3.2162691    1.5028691   423601 
 5320000   0.96734603   -3.2166889   -1.7126947  0.064073495   -3.2166889    1.5039942   423595 
 5321000   0.96527263   -3.2148475   -1.7140521  0.064865033   -3.2148475    1.5007953   423588 
 5322000   0.96644058   -3.2163724   -1.7137363  0.059052944   -3.2163724    1.5026361   423581 
 5323000   0.96581167   -3.2137105    -1.712031  0.062305052   -3.2137105    1.5016795   423575 
 5324000   0.96532957    -3.214484   -1.7135292  0.065627209    -3.214484    1.5009548   423568 
 5325000   0.96566535   -3.2139045   -1.7124028  0.059884261   -3.2139045    1.5015017   423561 
 5326000   0.96487228   -3.2122081   -1.7119183  0.064782223   -3.2122081    1.5002898   423555 
 5327000   0.96550921   -3.2142571   -1.7129522  0.063402988   -3.2142571     1.501305   423548 
 5328000   0.96530044   -3.2128459   -1.7118407  0.063752885   -3.2128459    1.5010051   423541 
 5329000   0.96667183   -3.2156574   -1.7124985  0.061541114   -3.2156574    1.5031589   423535 
 5330000    0.9652573    -3.213612   -1.7126279  0.060825934    -3.213612    1.5009841   423528 
 5331000   0.96511982   -3.2126025   -1.7118073  0.068387524   -3.2126025    1.5007952   423521 
 5332000    0.9664327   -3.2143437   -1.7114857  0.065065618   -3.2143437     1.502858   423515 
 5333000    0.9658887   -3.2131578   -1.7111209  0.068594298   -3.2131578    1.5020369   423508 
 5334000   0.96707713   -3.2170367   -1.7131269  0.066395015   -3.2170367    1.5039099   423501 
 5335000   0.96426327   -3.2107262    -1.711171  0.064229009   -3.2107262    1.4995552   423495 
 5336000    0.9640902   -3.2098407   -1.7105298  0.066829627   -3.2098407    1.4993109   423488 
 5337000   0.96653355   -3.2136476   -1.7105121  0.061434471   -3.2136476    1.5031355   423481 
 5338000   0.96524768   -3.2121149   -1.7109578  0.057981961   -3.2121149     1.501157   423475 
 5339000    0.9650276   -3.2124099   -1.7115703  0.059788976   -3.2124099    1.5008396   423468 
 5340000   0.96518742   -3.2133611   -1.7122482  0.058958352   -3.2133611    1.5011129   423461 
 5341000   0.96457601   -3.2119668   -1.7117835  0.062629289   -3.2119668    1.5001833   423455 
 5342000   0.96558274   -3.2127017   -1.7109278  0.064451393   -3.2127017    1.5017739   423448 
 5343000   0.96585661   -3.2105356   -1.7083109  0.064605146   -3.2105356    1.5022246   423441 
 5344000   0.96576019   -3.2130449   -1.7109489  0.059981019   -3.2130449     1.502096   423435 
 5345000   0.96539734   -3.2126027   -1.7110462   0.06591746   -3.2126027    1.5015564   423428 
 5346000    0.9663213   -3.2137784     -1.71076  0.062575519   -3.2137784    1.5030184   423421 
 5347000   0.96517186   -3.2125013   -1.7112495  0.061517029   -3.2125013    1.5012518   423415 
 5348000   0.96551374   -3.2123748   -1.7105664  0.061667102   -3.2123748    1.5018084   423408 
 5349000    0.9645693   -3.2123623   -1.7119981  0.061333492   -3.2123623    1.5003642   423401 
 5350000   0.96272471   -3.2125121   -1.7149959  0.061509626   -3.2125121    1.4975162   423395 
 5351000   0.96396941    -3.213783   -1.7143059  0.063356183    -3.213783    1.4994771   423388 
 5352000   0.96418242   -3.2142551   -1.7144219  0.059975242   -3.2142551    1.4998332   423381 
 5353000   0.96347591   -3.2146131   -1.7158576  0.062692686   -3.2146131    1.4987555   423375 
 5354000   0.96496067   -3.2161499   -1.7150599  0.064746226   -3.2161499    1.5010899   423368 
 5355000   0.96426025   -3.2158591   -1.7158339  0.066130327   -3.2158591    1.5000252   423361 
 5356000   0.96461547   -3.2150056   -1.7144066  0.061457749   -3.2150056     1.500599   423355 
 5357000   0.96442601   -3.2138408   -1.7135117  0.062688251   -3.2138408    1.5003291   423348 
 5358000   0.96619254   -3.2143625   -1.7112604   0.06891248   -3.2143625    1.5031021   423341 
 5359000   0.96649245   -3.2147914   -1.7112014  0.067849784   -3.2147914      1.50359   423335 
 5360000   0.96606414   -3.2155356   -1.7125871  0.068432493   -3.2155356    1.5029485   423328 
 5361000   0.96618047   -3.2162726   -1.7131182  0.065619026   -3.2162726    1.5031543   423321 
 5362000   0.96630803   -3.2161749   -1.7128008  0.066040571   -3.2161749    1.5033741   423315 
 5363000     0.965717   -3.2156554    -1.713176  0.067088696   -3.2156554    1.5024794   423308 
 5364000   0.96496021    -3.215224   -1.7138972  0.071095027    -3.215224    1.5013268   423301 
 5365000   0.96411415     -3.21488   -1.7148482  0.063233089     -3.21488    1.5000318   423295 
 5366000   0.96665312   -3.2181924   -1.7141855  0.060377194   -3.2181924    1.5040069   423288 
 5367000   0.96481854   -3.2153443   -1.7141669    0.0645834   -3.2153443    1.5011773   423281 
 5368000   0.96388431   -3.2139217   -1.7141767  0.072162398   -3.2139217     1.499745   423275 
 5369000   0.96511139   -3.2152021    -1.713523  0.063890921   -3.2152021    1.5016791   423268 
 5370000   0.96547077   -3.2145425   -1.7122794  0.059673567   -3.2145425    1.5022631   423261 
 5371000   0.96324814   -3.2135378   -1.7147118  0.058815372   -3.2135378     1.498826   423255 
 5372000    0.9633494   -3.2140961   -1.7150878  0.061126801   -3.2140961    1.4990083   423248 
 5373000   0.96326786   -3.2144568   -1.7155506   0.06185794   -3.2144568    1.4989062   423241 
 5374000   0.96339278   -3.2141596   -1.7150377  0.059695648   -3.2141596    1.4991219   423235 
 5375000   0.96380835   -3.2147707   -1.7149774  0.058139136   -3.2147707    1.4997934   423228 
 5376000   0.96476227   -3.2146136    -1.713311  0.061783245   -3.2146136    1.5013026   423221 
 5377000   0.96503548   -3.2143936   -1.7126446  0.064233813   -3.2143936     1.501749   423215 
 5378000   0.96578258   -3.2159588   -1.7130223  0.058694743   -3.2159588    1.5029365   423208 
 5379000    0.9641242    -3.213443   -1.7130625  0.064337159    -3.213443    1.5003806   423201 
 5380000   0.96351422    -3.213323   -1.7138704  0.063120182    -3.213323    1.4994526   423195 
 5381000   0.96420731   -3.2145041   -1.7139481  0.063879423   -3.2145041     1.500556   423188 
 5382000   0.96309417   -3.2130919   -1.7142434  0.065713836   -3.2130919    1.4988485   423181 
 5383000   0.96243055   -3.2138516   -1.7160146   0.06333536   -3.2138516    1.4978369   423175 
 5384000    0.9622087    -3.213349   -1.7158326  0.068054234    -3.213349    1.4975164   423168 
 5385000   0.96346188   -3.2158505    -1.716359  0.060709116   -3.2158505    1.4994916   423161 
 5386000   0.96191292   -3.2151486   -1.7180465    0.0620784   -3.2151486    1.4971021   423155 
 5387000   0.96259295   -3.2161308   -1.7179455  0.056489175   -3.2161308    1.4981853   423148 
 5388000   0.96308245    -3.215976   -1.7170041  0.056367829    -3.215976    1.4989719   423141 
 5389000    0.9626261   -3.2139396   -1.7156567  0.062288117   -3.2139396    1.4982829   423135 
 5390000   0.96295775   -3.2151097   -1.7162858  0.060568842   -3.2151097    1.4988239   423128 
 5391000   0.96178181   -3.2142188   -1.7172005  0.064936941   -3.2142188    1.4970183   423121 
 5392000   0.96396942   -3.2181361   -1.7176915   0.06148172   -3.2181361    1.5004446   423115 
 5393000   0.96565188   -3.2192667   -1.7161785   0.06352071   -3.2192667    1.5030883   423108 
 5394000    0.9645594    -3.219591   -1.7181784  0.056632264    -3.219591    1.5014126   423101 
 5395000   0.96368169   -3.2174878   -1.7174202  0.059392582   -3.2174878    1.5000677   423095 
 5396000   0.96423721   -3.2173738   -1.7164166  0.056895209   -3.2173738    1.5009572   423088 
 5397000   0.96318657   -3.2164736    -1.717127  0.066920018   -3.2164736    1.4993466   423081 
 5398000   0.96248605   -3.2160357   -1.7177584  0.062630845   -3.2160357    1.4982773   423075 
 5399000   0.96438538   -3.2183173   -1.7170584  0.060388034   -3.2183173    1.5012588   423068 
 5400000    0.9648551   -3.2193307   -1.7173158  0.056915791   -3.2193307    1.5020149   423061 
 5401000   0.96447209   -3.2192794   -1.7178395  0.063567817   -3.2192794    1.5014399   423055 
 5402000    0.9639568   -3.2195183   -1.7188557   0.06525664   -3.2195183    1.5006626   423048 
 5403000   0.96338046   -3.2185066   -1.7187164  0.060990259   -3.2185066    1.4997902   423041 
 5404000   0.96488263    -3.221439   -1.7192889  0.056470105    -3.221439    1.5021501   423035 
 5405000   0.96441033   -3.2189771   -1.7175374  0.069608815   -3.2189771    1.5014396   423028 
 5406000   0.96463627   -3.2190546   -1.7172384  0.064754729   -3.2190546    1.5018162   423021 
 5407000   0.96518421   -3.2185624   -1.7158718  0.064031624   -3.2185624    1.5026906   423015 
 5408000    0.9665374   -3.2210946   -1.7162723  0.060318102   -3.2210946    1.5048223   423008 
 5409000   0.96430126    -3.218861   -1.7174954  0.069000482    -3.218861    1.5013656   423001 
 5410000   0.96556904   -3.2186177   -1.7152568   0.06732821   -3.2186177    1.5033608   422995 
 5411000   0.96353431   -3.2168088   -1.7165912  0.063044315   -3.2168088    1.5002177   422988 
 5412000   0.96319581   -3.2174505   -1.7177351  0.063092655   -3.2174505    1.4997154   422981 
 5413000   0.96336684   -3.2162618   -1.7162588  0.061385242   -3.2162618     1.500003   422975 
 5414000   0.96428153   -3.2183724   -1.7169203  0.062667418   -3.2183724    1.5014521   422968 
 5415000   0.96148664   -3.2147662   -1.7176412  0.059660864   -3.2147662     1.497125   422961 
 5416000   0.96315092   -3.2162236   -1.7164859  0.062599047   -3.2162236    1.4997377   422955 
 5417000   0.96212908   -3.2147323   -1.7165609  0.062262434   -3.2147323    1.4981714   422948 
 5418000    0.9620697   -3.2158782   -1.7177745  0.058716014   -3.2158782    1.4981037   422941 
 5419000    0.9628991    -3.215508   -1.7160915  0.061003283    -3.215508    1.4994165   422935 
 5420000    0.9615589   -3.2158947   -1.7185404  0.056596094   -3.2158947    1.4973543   422928 
 5421000   0.96085749   -3.2145519    -1.718265  0.065414745   -3.2145519    1.4962869   422921 
 5422000   0.96129389   -3.2143761   -1.7173884  0.063125853   -3.2143761    1.4969877   422915 
 5423000    0.9604236   -3.2150837   -1.7194265  0.058022052   -3.2150837    1.4956572   422908 
 5424000   0.96053231   -3.2141243   -1.7182731  0.060726196   -3.2141243    1.4958512   422901 
 5425000   0.96223256   -3.2148637   -1.7163434  0.060308347   -3.2148637    1.4985203   422895 
 5426000   0.96214107   -3.2135555   -1.7151529  0.061820485   -3.2135555    1.4984026   422888 
 5427000    0.9614162   -3.2137408   -1.7164423  0.066131083   -3.2137408    1.4972985   422881 
 5428000   0.96174778   -3.2125557   -1.7147196  0.065954541   -3.2125557    1.4978362   422875 
 5429000    0.9633338   -3.2161306   -1.7157995  0.059506746   -3.2161306    1.5003311   422868 
 5430000   0.96270181   -3.2159396    -1.716568  0.058624329   -3.2159396    1.4993716   422861 
 5431000   0.96249293   -3.2165795    -1.717512  0.063942295   -3.2165795    1.4990676   422855 
 5432000   0.96214907    -3.214848   -1.7162911  0.063431918    -3.214848    1.4985568   422848 
 5433000   0.96109129   -3.2145409   -1.7176068  0.061200201   -3.2145409    1.4969341   422841 
 5434000   0.96338525   -3.2173247   -1.7167964  0.058052616   -3.2173247    1.5005283   422835 
 5435000   0.96292425   -3.2171296   -1.7172945  0.060505104   -3.2171296    1.4998351   422828 
 5436000   0.96296322   -3.2173961   -1.7174755  0.058096991   -3.2173961    1.4999206   422821 
 5437000   0.96292807   -3.2182902    -1.718403  0.063215576   -3.2182902    1.4998872   422815 
 5438000   0.96261271    -3.218399   -1.7189782  0.061935069    -3.218399    1.4994208   422808 
 5439000   0.96371701   -3.2193501   -1.7181844  0.067197983   -3.2193501    1.5011658   422801 
 5440000    0.9630014   -3.2187313   -1.7186589  0.059546207   -3.2187313    1.5000723   422795 
 5441000      0.96395   -3.2195392   -1.7179644  0.063024279   -3.2195392    1.5015749   422788 
 5442000   0.96291667   -3.2172778   -1.7172878  0.068317386   -3.2172778      1.49999   422781 
 5443000   0.96316939   -3.2174727   -1.7170677  0.064163724   -3.2174727     1.500405   422775 
 5444000   0.96285838   -3.2191162   -1.7191708  0.061134346   -3.2191162    1.4999454   422768 
 5445000   0.96341947   -3.2202134   -1.7193691  0.065371781   -3.2202134    1.5008443   422761 
 5446000   0.96262627   -3.2198146   -1.7201847   0.06454044   -3.2198146    1.4996299   422755 
 5447000   0.96267455   -3.2208628   -1.7211329  0.064266324   -3.2208628    1.4997299   422748 
 5448000   0.96225153   -3.2189342   -1.7198384  0.063993891   -3.2189342    1.4990957   422741 
 5449000   0.96177405   -3.2182509   -1.7198777  0.061653038   -3.2182509    1.4983732   422735 
 5450000   0.96182705   -3.2183924   -1.7199119   0.05886317   -3.2183924    1.4984805   422728 
 5451000   0.96076638   -3.2193339   -1.7224811  0.062691952   -3.2193339    1.4968528   422721 
 5452000   0.96209573   -3.2216252     -1.72268   0.06207721   -3.2216252    1.4989452   422715 
 5453000   0.96117056   -3.2222588   -1.7247302  0.063993392   -3.2222588    1.4975286   422708 
 5454000   0.96183189   -3.2218361   -1.7232523  0.058478104   -3.2218361    1.4985838   422701 
 5455000   0.96158764     -3.22005   -1.7218256  0.057913496     -3.22005    1.4982245   422695 
 5456000   0.96217354   -3.2198975   -1.7207353  0.062936242   -3.2198975    1.4991622   422688 
 5457000   0.96148291   -3.2191913   -1.7210803  0.065229614   -3.2191913    1.4981109   422681 
 5458000   0.96170949   -3.2200822   -1.7215969  0.063024077   -3.2200822    1.4984852   422675 
 5459000   0.96183913   -3.2203791    -1.721667  0.063930232   -3.2203791    1.4987121   422668 
 5460000   0.96142538   -3.2192231   -1.7211309  0.060888392   -3.2192231    1.4980922   422661 
 5461000   0.96262531   -3.2203545   -1.7203713  0.060517281   -3.2203545    1.4999832   422655 
 5462000   0.96103171   -3.2179304   -1.7204055  0.062532681   -3.2179304    1.4975248   422648 
 5463000   0.96085111    -3.218025   -1.7207568  0.064556366    -3.218025    1.4972682   422641 
 5464000   0.96107525   -3.2199696   -1.7223309  0.057629053   -3.2199696    1.4976387   422635 
 5465000   0.96052553   -3.2183764   -1.7215695  0.064877179   -3.2183764    1.4968069   422628 
 5466000   0.96081387   -3.2188661    -1.721585  0.060171734   -3.2188661     1.497281   422621 
 5467000    0.9609053    -3.218722   -1.7212772  0.058797985    -3.218722    1.4974448   422615 
 5468000   0.96150093   -3.2198214   -1.7214236  0.057255273   -3.2198214    1.4983978   422608 
 5469000    0.9606981   -3.2169532   -1.7197817  0.063965602   -3.2169532    1.4971715   422601 
 5470000   0.96185658   -3.2179828   -1.7189847  0.062070303   -3.2179828    1.4989982   422595 
 5471000   0.96341489   -3.2198202   -1.7183686   0.06455943   -3.2198202    1.5014516   422588 
 5472000   0.96342875   -3.2198768   -1.7183787  0.066328624   -3.2198768     1.501498   422581 
 5473000   0.96374991   -3.2212319    -1.719212  0.064582251   -3.2212319    1.5020199   422575 
 5474000    0.9634478   -3.2203405   -1.7187666  0.065346286   -3.2203405    1.5015739   422568 
 5475000   0.96215049   -3.2195221   -1.7199453  0.061052145   -3.2195221    1.4995769   422561 
 5476000   0.96405178   -3.2211329   -1.7185715  0.063364641   -3.2211329    1.5025615   422555 
 5477000   0.96190151   -3.2195269    -1.720292  0.066100745   -3.2195269    1.4992349   422548 
 5478000   0.96135903   -3.2185969   -1.7201827  0.060864901   -3.2185969    1.4984142   422541 
 5479000   0.96111889   -3.2177578   -1.7196966  0.062348231   -3.2177578    1.4980612   422535 
 5480000   0.96150665   -3.2184676   -1.7197772  0.060718449   -3.2184676    1.4986904   422528 
 5481000   0.96193195   -3.2197618   -1.7203836  0.059173777   -3.2197618    1.4993782   422521 
 5482000   0.96133755   -3.2191131   -1.7206401   0.06326472   -3.2191131    1.4984729   422515 
 5483000   0.96251069    -3.219634   -1.7193076  0.062248142    -3.219634    1.5003264   422508 
 5484000   0.96242864   -3.2203243   -1.7201009  0.061721691   -3.2203243    1.5002234   422501 
 5485000   0.96148013   -3.2193807   -1.7206146  0.059800793   -3.2193807    1.4987661   422495 
 5486000   0.96265686   -3.2192345   -1.7186092  0.063852168   -3.2192345    1.5006253   422488 
 5487000   0.96323741   -3.2198239   -1.7182687  0.062553985   -3.2198239    1.5015552   422481 
 5488000   0.96296634   -3.2186906   -1.7175367  0.063878641   -3.2186906    1.5011539   422475 
 5489000   0.96241896   -3.2189214    -1.718596  0.063820278   -3.2189214    1.5003255   422468 
 5490000    0.9627447   -3.2194491    -1.718591  0.057429458   -3.2194491    1.5008581   422461 
 5491000   0.96043559   -3.2164492   -1.7191696  0.064417052   -3.2164492    1.4972796   422455 
 5492000   0.96124347   -3.2187834   -1.7202195  0.061153246   -3.2187834    1.4985639   422448 
 5493000     0.961636   -3.2188613   -1.7196606  0.059128682   -3.2188613    1.4992007   422441 
 5494000   0.96218883   -3.2196329   -1.7195489  0.060102294   -3.2196329    1.5000839   422435 
 5495000   0.96191127   -3.2182915   -1.7186155  0.064650793   -3.2182915     1.499676   422428 
 5496000   0.96207603   -3.2183524   -1.7183947  0.059763551   -3.2183524    1.4999577   422421 
 5497000   0.96107032   -3.2175785   -1.7191675  0.067125768   -3.2175785    1.4984111   422415 
 5498000   0.96198762   -3.2188861     -1.71902  0.065016446   -3.2188861    1.4998661   422408 
 5499000    0.9597631   -3.2161292   -1.7197067  0.063032898   -3.2161292    1.4964225   422401 
 5500000   0.96047043   -3.2184419   -1.7208952  0.058009171   -3.2184419    1.4975467   422395 
 5501000   0.96151104   -3.2187374   -1.7195434  0.061183738   -3.2187374     1.499194   422388 
 5502000    0.9608528    -3.217582   -1.7193895  0.060340907    -3.217582    1.4981925   422381 
 5503000   0.95941826   -3.2163976   -1.7204206  0.062976499   -3.2163976     1.495977   422375 
 5504000   0.96095987   -3.2192966    -1.720891  0.057056414   -3.2192966    1.4984056   422368 
 5505000   0.96113008   -3.2193272   -1.7206314  0.063353612   -3.2193272    1.4986958   422361 
 5506000   0.96078478   -3.2176617    -1.719483  0.064775356   -3.2176617    1.4981787   422355 
 5507000   0.96115825   -3.2200459   -1.7212601   0.06315495   -3.2200459    1.4987859   422348 
 5508000   0.96096241    -3.219728   -1.7212227  0.065324453    -3.219728    1.4985053   422341 
 5509000   0.96212489   -3.2209501   -1.7206108  0.066166257   -3.2209501    1.5003394   422335 
 5510000   0.96192881   -3.2198774    -1.719819  0.064436663   -3.2198774    1.5000585   422328 
 5511000   0.96095364   -3.2196187   -1.7210561  0.063041224   -3.2196187    1.4985626   422321 
 5512000   0.96189166   -3.2208211   -1.7207744  0.060903067   -3.2208211    1.5000467   422315 
 5513000   0.96202712   -3.2204412   -1.7201584  0.064383369   -3.2204412    1.5002828   422308 
 5514000    0.9624985   -3.2209824   -1.7199396   0.05645496   -3.2209824    1.5010428   422301 
 5515000   0.96193253    -3.220025   -1.7198435  0.065174443    -3.220025    1.5001815   422295 
 5516000   0.96192699   -3.2203734   -1.7201756  0.060766415   -3.2203734    1.5001977   422288 
 5517000   0.96159514   -3.2209498   -1.7212448  0.063611285   -3.2209498     1.499705   422281 
 5518000   0.96082417   -3.2210779    -1.722554  0.064031357   -3.2210779    1.4985239   422275 
 5519000   0.96215005   -3.2230148   -1.7223981  0.063846502   -3.2230148    1.5006167   422268 
 5520000   0.96153671   -3.2220682   -1.7223833  0.064089842   -3.2220682    1.4996849   422261 
 5521000   0.96152797   -3.2217615   -1.7220689  0.060157546   -3.2217615    1.4996926   422255 
 5522000    0.9602904   -3.2213882    -1.723601  0.063082217   -3.2213882    1.4977872   422248 
 5523000   0.96192909   -3.2235014   -1.7231334  0.060343851   -3.2235014     1.500368   422241 
 5524000   0.96033689   -3.2201401   -1.7222343  0.066111072   -3.2201401    1.4979058   422235 
 5525000   0.95989793   -3.2197752   -1.7225292  0.065575418   -3.2197752     1.497246   422228 
 5526000   0.96056657   -3.2207632   -1.7224495  0.064199988   -3.2207632    1.4983138   422221 
 5527000   0.96068615   -3.2206999   -1.7221783  0.062343666   -3.2206999    1.4985216   422215 
 5528000   0.96119565   -3.2204535   -1.7211124   0.06366922   -3.2204535    1.4993412   422208 
 5529000   0.95941239   -3.2182827   -1.7216983   0.06759305   -3.2182827    1.4965843   422201 
 5530000   0.95937731   -3.2193539    -1.722803  0.059177039   -3.2193539    1.4965509   422195 
 5531000   0.96073368    -3.220638   -1.7219464  0.064467161    -3.220638    1.4986916   422188 
 5532000   0.95984306   -3.2183385   -1.7210115  0.063191747   -3.2183385    1.4973271   422181 
 5533000    0.9607027   -3.2200651   -1.7213757  0.064845455   -3.2200651    1.4986894   422175 
 5534000   0.95972982   -3.2189544   -1.7217579  0.061701174   -3.2189544    1.4971965   422168 
 5535000   0.96014971   -3.2182598   -1.7203834  0.063757061   -3.2182598    1.4978764   422161 
 5536000   0.95971591    -3.217355   -1.7201341  0.061271227    -3.217355    1.4972209   422155 
 5537000   0.96027487   -3.2195947    -1.721477  0.063902771   -3.2195947    1.4981178   422148 
 5538000   0.96011926    -3.218571   -1.7206712  0.066097794    -3.218571    1.4978998   422141 
 5539000    0.9596864   -3.2180653   -1.7208195   0.05991897   -3.2180653    1.4972458   422135 
 5540000    0.9623413   -3.2216631   -1.7202503  0.054701394   -3.2216631    1.5014127   422128 
 5541000   0.96017436   -3.2175606   -1.7195038   0.06479057   -3.2175606    1.4980568   422121 
 5542000   0.96074181   -3.2188126   -1.7198492  0.063541079   -3.2188126    1.4989634   422115 
 5543000   0.96158131    -3.219332   -1.7190339  0.059745276    -3.219332    1.5002981   422108 
 5544000   0.96111292   -3.2191034   -1.7195112  0.058231895   -3.2191034    1.4995922   422101 
 5545000   0.95982109   -3.2179465   -1.7203486  0.069365366   -3.2179465    1.4975979   422095 
 5546000   0.96220138   -3.2209151   -1.7195784  0.063922175   -3.2209151    1.5013367   422088 
 5547000    0.9602867   -3.2190372   -1.7206631  0.064307177   -3.2190372    1.4983741   422081 
 5548000   0.96153778   -3.2214902   -1.7211427  0.057183036   -3.2214902    1.5003475   422075 
 5549000   0.96058753   -3.2189231   -1.7200335  0.059487922   -3.2189231    1.4988896   422068 
 5550000   0.96044283   -3.2199229   -1.7212342  0.063036099   -3.2199229    1.4986887   422061 
 5551000   0.96034472   -3.2191611   -1.7206042    0.0544449   -3.2191611    1.4985569   422055 
 5552000   0.95928505   -3.2171594   -1.7202313  0.067583253   -3.2171594    1.4969282   422048 
 5553000   0.95897746   -3.2173937   -1.7209207  0.064843054   -3.2173937     1.496473   422041 
 5554000   0.96043634   -3.2182957   -1.7195249  0.063206948   -3.2182957    1.4987709   422035 
 5555000   0.96118345   -3.2180685   -1.7181069  0.060074416   -3.2180685    1.4999616   422028 
 5556000   0.96075875   -3.2164905   -1.7171667   0.06943725   -3.2164905    1.4993237   422021 
 5557000   0.96339992    -3.219428   -1.7159611  0.066850406    -3.219428    1.5034668   422015 
 5558000   0.96090088   -3.2166075   -1.7170158  0.068280051   -3.2166075    1.4995917   422008 
 5559000   0.96410587   -3.2217692   -1.7171508  0.065728219   -3.2217692    1.5046184   422001 
 5560000   0.95975147   -3.2150945   -1.7172504  0.066244751   -3.2150945    1.4978441   421995 
 5561000   0.96102064   -3.2169222   -1.7170724  0.066784954   -3.2169222    1.4998497   421988 
 5562000   0.96258531   -3.2190049   -1.7166884  0.060007233   -3.2190049    1.5023166   421981 
 5563000   0.95999302   -3.2160432   -1.7177511  0.060338126   -3.2160432    1.4982921   421975 
 5564000   0.95856284   -3.2156151   -1.7195304  0.062823072   -3.2156151    1.4960848   421968 
 5565000   0.95996054   -3.2186456   -1.7203545  0.057984774   -3.2186456    1.4982911   421961 
 5566000   0.95842646   -3.2164543   -1.7205363  0.060704395   -3.2164543     1.495918   421955 
 5567000   0.96032406   -3.2182945   -1.7193899   0.06041396   -3.2182945    1.4989047   421948 
 5568000   0.95954107   -3.2171149   -1.7194075  0.059707792   -3.2171149    1.4977074   421941 
 5569000   0.95899314   -3.2156319   -1.7187584  0.058076593   -3.2156319    1.4968734   421935 
 5570000   0.95873327   -3.2156601   -1.7191674  0.059198815   -3.2156601    1.4964926   421928 
 5571000   0.95896078   -3.2148145   -1.7179419  0.063819838   -3.2148145    1.4968726   421921 
 5572000   0.95964608   -3.2156255   -1.7176619  0.059543029   -3.2156255    1.4979636   421915 
 5573000   0.96117522   -3.2174644    -1.717089  0.062716776   -3.2174644    1.5003754   421908 
 5574000   0.96207907   -3.2180894   -1.7162781  0.057309584   -3.2180894    1.5018112   421901 
 5575000   0.96112698     -3.21509   -1.7147436  0.060629012     -3.21509    1.5003463   421895 
 5576000   0.96121964   -3.2165084   -1.7159925  0.067034889   -3.2165084    1.5005159   421888 
 5577000    0.9592085    -3.215074   -1.7176728  0.058906554    -3.215074    1.4974012   421881 
 5578000   0.96034058   -3.2166945   -1.7175047   0.06302972   -3.2166945    1.4991898   421875 
 5579000   0.95992193   -3.2172048   -1.7186437  0.059118889   -3.2172048    1.4985611   421868 
 5580000   0.96033409    -3.216853   -1.7176235  0.060365393    -3.216853    1.4992294   421861 
 5581000   0.96159565   -3.2180638   -1.7168435  0.060213756   -3.2180638    1.5012203   421855 
 5582000   0.96012941   -3.2152808   -1.7163247  0.067629774   -3.2152808    1.4989561   421848 
 5583000   0.95970172   -3.2157992    -1.717486  0.066746727   -3.2157992    1.4983132   421841 
 5584000   0.96235038   -3.2187953   -1.7163256  0.064573085   -3.2187953    1.5024698   421835 
 5585000    0.9603769   -3.2165418   -1.7171282  0.058679177   -3.2165418    1.4994136   421828 
 5586000   0.95889864   -3.2136922   -1.7165618   0.06732884   -3.2136922    1.4971304   421821 
 5587000   0.96026292    -3.217408   -1.7181261  0.063186296    -3.217408    1.4992818   421815 
 5588000   0.96054251   -3.2173481   -1.7176048  0.056654608   -3.2173481    1.4997432   421808 
 5589000   0.96070575   -3.2172854   -1.7172624  0.062417579   -3.2172854     1.500023   421801 
 5590000   0.95999723   -3.2149097   -1.7159716  0.064495806   -3.2149097     1.498938   421795 
 5591000   0.96053034   -3.2151686   -1.7153733  0.061525476   -3.2151686    1.4997953   421788 
 5592000   0.96135094   -3.2158431   -1.7147416   0.06303052   -3.2158431    1.5011016   421781 
 5593000   0.96110821   -3.2163458   -1.7156019  0.058712105   -3.2163458    1.5007439   421775 
 5594000   0.96105638   -3.2166155   -1.7159276   0.06232583   -3.2166155    1.5006879   421768 
 5595000   0.95956688    -3.215663   -1.7172761  0.061379125    -3.215663    1.4983869   421761 
 5596000    0.9599004   -3.2157515   -1.7168225  0.057765754   -3.2157515     1.498929   421755 
 5597000   0.96019294   -3.2148416   -1.7154309  0.067148569   -3.2148416    1.4994107   421748 
 5598000   0.95921963   -3.2154425   -1.7175268   0.06063507   -3.2154425    1.4979157   421741 
 5599000   0.96021491   -3.2153825   -1.7158912  0.060206568   -3.2153825    1.4994912   421735 
 5600000   0.95783796   -3.2148011   -1.7189969  0.057470905   -3.2148011    1.4958042   421728 
 5601000   0.95940282    -3.215178   -1.7169052  0.059052854    -3.215178    1.4982728   421721 
 5602000   0.95915053   -3.2160086   -1.7181085  0.059833661   -3.2160086    1.4979001   421715 
 5603000   0.95877536    -3.216479   -1.7191399  0.060671029    -3.216479    1.4973391   421708 
 5604000   0.95872188   -3.2166804      -1.7194  0.063726102   -3.2166804    1.4972804   421701 
 5605000   0.95886342    -3.215845   -1.7183223  0.061350686    -3.215845    1.4975228   421695 
 5606000   0.95941881   -3.2157661    -1.717351  0.063335758   -3.2157661     1.498415   421688 
 5607000   0.96163976   -3.2195822   -1.7176736  0.060638754   -3.2195822    1.5019086   421681 
 5608000   0.96077353   -3.2168932   -1.7163162  0.066242865   -3.2168932    1.5005771   421675 
 5609000   0.96134205   -3.2183002   -1.7168103  0.062648929   -3.2183002    1.5014899   421668 
 5610000   0.96045691   -3.2163122   -1.7161798  0.059723772   -3.2163122    1.5001324   421661 
 5611000   0.96172347   -3.2195622   -1.7174302  0.066864663   -3.2195622     1.502132   421655 
 5612000   0.96150324   -3.2192772   -1.7174643  0.063223856   -3.2192772    1.5018129   421648 
 5613000   0.96028886   -3.2189221    -1.718981  0.062615586   -3.2189221     1.499941   421641 
 5614000    0.9599646   -3.2176054   -1.7181495  0.063811383   -3.2176054    1.4994559   421635 
 5615000   0.95829966   -3.2166643   -1.7197842  0.061970852   -3.2166643    1.4968801   421628 
 5616000   0.95983515   -3.2190524    -1.719749  0.063711842   -3.2190524    1.4993035   421621 
 5617000   0.95892456   -3.2172339   -1.7193315  0.061230491   -3.2172339    1.4979024   421615 
 5618000   0.95732423    -3.216388   -1.7209606  0.064213533    -3.216388    1.4954274   421608 
 5619000   0.95713217   -3.2159434   -1.7207912  0.060906989   -3.2159434    1.4951522   421601 
 5620000   0.95932725   -3.2210881   -1.7224856  0.061050862   -3.2210881    1.4986025   421595 
 5621000   0.95977466   -3.2211046   -1.7217782  0.058751268   -3.2211046    1.4993263   421588 
 5622000   0.95980924   -3.2217939   -1.7223886  0.060324189   -3.2217939    1.4994053   421581 
 5623000   0.95949527   -3.2207983   -1.7218622  0.059322309   -3.2207983    1.4989361   421575 
 5624000   0.95918659   -3.2215535   -1.7230747  0.063128583   -3.2215535    1.4984788   421568 
 5625000   0.96125065   -3.2226616   -1.7209333  0.066328762   -3.2226616    1.5017283   421561 
 5626000   0.95936136   -3.2218179   -1.7230199  0.063134767   -3.2218179     1.498798   421555 
 5627000   0.95974466   -3.2217175   -1.7222958  0.059819824   -3.2217175    1.4994217   421548 
 5628000   0.95982664   -3.2215024   -1.7219276   0.06593938   -3.2215024    1.4995747   421541 
 5629000   0.96029813    -3.224262   -1.7239293  0.059469605    -3.224262    1.5003327   421535 
 5630000   0.95916965   -3.2211145     -1.72252  0.059373745   -3.2211145    1.4985945   421528 
 5631000   0.95816171    -3.220186   -1.7231415  0.067880861    -3.220186    1.4970446   421521 
 5632000   0.95909754   -3.2215212   -1.7229931  0.062018652   -3.2215212     1.498528   421515 
 5633000    0.9607411   -3.2230146   -1.7218937  0.064755189   -3.2230146    1.5011209   421508 
 5634000   0.96134044   -3.2242068   -1.7221245  0.065056249   -3.2242068    1.5020823   421501 
 5635000   0.95905376   -3.2222031   -1.7236724  0.064107543   -3.2222031    1.4985307   421495 
 5636000   0.95907022   -3.2224299   -1.7238486  0.063424215   -3.2224299    1.4985814   421488 
 5637000   0.96111384   -3.2255428   -1.7237432  0.059972742   -3.2255428    1.5017995   421481 
 5638000   0.96000111    -3.222355   -1.7222728  0.066249885    -3.222355    1.5000822   421475 
 5639000   0.95932808   -3.2216863   -1.7226309  0.069396245   -3.2216863    1.4990554   421468 
 5640000   0.96036412    -3.223496   -1.7227968  0.061871349    -3.223496    1.5006992   421461 
 5641000    0.9596013   -3.2212166    -1.721688  0.066157673   -3.2212166    1.4995286   421455 
 5642000    0.9581621   -3.2189006   -1.7215961  0.062013296   -3.2189006    1.4973045   421448 
 5643000    0.9604637   -3.2210232   -1.7200971  0.061152916   -3.2210232    1.5009261   421441 
 5644000   0.95986927   -3.2200392   -1.7200207  0.069035188   -3.2200392    1.5000185   421435 
 5645000   0.96038069   -3.2201815   -1.7193388  0.064754458   -3.2201815    1.5008427   421428 
 5646000   0.96062951   -3.2208548   -1.7195984  0.063450889   -3.2208548    1.5012564   421421 
 5647000   0.95943019   -3.2206044   -1.7212009  0.062470772   -3.2206044    1.4994035   421415 
 5648000   0.95827254   -3.2192615   -1.7216423  0.066383278   -3.2192615    1.4976192   421408 
 5649000   0.95927271    -3.219024   -1.7198168  0.065136123    -3.219024    1.4992072   421401 
 5650000   0.96026965   -3.2200499   -1.7192632   0.06070833   -3.2200499    1.5007866   421395 
 5651000   0.95869186    -3.218326   -1.7199804  0.061414491    -3.218326    1.4983456   421388 
 5652000   0.95743425   -3.2173684   -1.7209634  0.060563688   -3.2173684     1.496405   421381 
 5653000   0.95695437   -3.2169817   -1.7213054  0.061790774   -3.2169817    1.4956762   421375 
 5654000   0.95649794   -3.2165424   -1.7215547  0.059150422   -3.2165424    1.4949877   421368 
 5655000    0.9567362   -3.2173072   -1.7219223  0.063154583   -3.2173072    1.4953849   421361 
 5656000   0.95788788   -3.2187841   -1.7215778    0.0626184   -3.2187841    1.4972063   421355 
 5657000   0.95954423   -3.2193516   -1.7195314  0.063078916   -3.2193516    1.4998202   421348 
 5658000     0.958723   -3.2175186   -1.7189571  0.066597065   -3.2175186    1.4985615   421341 
 5659000   0.95981243   -3.2181852   -1.7178996  0.066525831   -3.2181852    1.5002857   421335 
 5660000   0.95977833   -3.2183471   -1.7180898  0.063820947   -3.2183471    1.5002573   421328 
 5661000   0.95896708   -3.2170507   -1.7180366  0.064734369   -3.2170507    1.4990141   421321 
 5662000   0.95949582   -3.2185325   -1.7186705  0.063993195   -3.2185325     1.499862   421315 
 5663000   0.95988031   -3.2196177   -1.7191298  0.061244854   -3.2196177    1.5004879   421308 
 5664000    0.9599258   -3.2200662   -1.7194823  0.061488434   -3.2200662     1.500584   421301 
 5665000   0.95865405   -3.2188591   -1.7202418  0.059680037   -3.2188591    1.4986173   421295 
 5666000   0.95981871   -3.2205095   -1.7200466  0.060266974   -3.2205095    1.5004629   421288 
 5667000    0.9598039   -3.2186605   -1.7181958  0.064292507   -3.2186605    1.5004647   421281 
 5668000   0.95947369   -3.2181289   -1.7181591  0.063193021   -3.2181289    1.4999698   421275 
 5669000   0.96016774   -3.2191006   -1.7180208  0.063630764   -3.2191006    1.5010798   421268 
 5670000   0.96091154   -3.2202727   -1.7180051  0.059504071   -3.2202727    1.5022676   421261 
 5671000   0.95979206   -3.2179709   -1.7174322  0.061979376   -3.2179709    1.5005388   421255 
 5672000   0.95979194   -3.2186789   -1.7181154   0.06731454   -3.2186789    1.5005635   421248 
 5673000   0.96078294   -3.2211924   -1.7190546  0.060838473   -3.2211924    1.5021378   421241 
 5674000   0.96032965   -3.2216038   -1.7201533  0.058760452   -3.2216038    1.5014505   421235 
 5675000   0.95940507   -3.2215104   -1.7214806  0.057118103   -3.2215104    1.5000299   421228 
 5676000   0.95876984   -3.2185528   -1.7194912  0.061586044   -3.2185528    1.4990616   421221 
 5677000   0.95712428   -3.2177655   -1.7212554  0.060830552   -3.2177655      1.49651   421215 
 5678000   0.95717735   -3.2200251   -1.7234072  0.060759186   -3.2200251    1.4966179   421208 
 5679000   0.95746965   -3.2203419   -1.7232421   0.05827577   -3.2203419    1.4970998   421201 
 5680000   0.95841198   -3.2225248   -1.7239302  0.060735148   -3.2225248    1.4985946   421195 
 5681000   0.95856926   -3.2212429   -1.7223774  0.060649982   -3.2212429    1.4988654   421188 
 5682000   0.95819241   -3.2205337   -1.7222326  0.064475558   -3.2205337    1.4983011   421181 
 5683000   0.96019286    -3.222583   -1.7211325  0.062298893    -3.222583    1.5014505   421175 
 5684000   0.95952171   -3.2209272   -1.7205013  0.070546863   -3.2209272     1.500426   421168 
 5685000   0.95830331   -3.2206748   -1.7221292  0.065352107   -3.2206748    1.4985456   421161 
 5686000    0.9595834   -3.2216133   -1.7210445  0.065220277   -3.2216133    1.5005688   421155 
 5687000    0.9601927   -3.2226428   -1.7210963  0.062443452   -3.2226428    1.5015465   421148 
 5688000   0.95849991   -3.2205402   -1.7216159  0.064251613   -3.2205402    1.4989242   421141 
 5689000   0.95820709   -3.2198121   -1.7213244   0.05941058   -3.2198121    1.4984877   421135 
 5690000   0.95780771   -3.2202926   -1.7224046  0.062721669   -3.2202926     1.497888   421128 
 5691000    0.9587664   -3.2226939   -1.7232818  0.058605339   -3.2226939    1.4994122   421121 
 5692000   0.95771713   -3.2226253   -1.7248327  0.059444243   -3.2226253    1.4977926   421115 
 5693000   0.95718322   -3.2210266   -1.7240441  0.063007937   -3.2210266    1.4969825   421108 
 5694000   0.95862279   -3.2229095   -1.7236507  0.063810001   -3.2229095    1.4992588   421101 
 5695000   0.95915107   -3.2251258   -1.7250194  0.065249648   -3.2251258    1.5001064   421095 
 5696000   0.95909199   -3.2249389      -1.7249  0.062227647   -3.2249389    1.5000389   421088 
 5697000    0.9587104   -3.2235037   -1.7240367  0.058219619   -3.2235037     1.499467   421081 
 5698000   0.96118212   -3.2263202   -1.7229659   0.06479558   -3.2263202    1.5033543   421075 
 5699000   0.96037638   -3.2244049   -1.7222859  0.066385743   -3.2244049    1.5021191   421068 
 5700000   0.96062645    -3.224465   -1.7219298  0.061960339    -3.224465    1.5025352   421061 
 5701000   0.95943448   -3.2241578   -1.7234656  0.064966394   -3.2241578    1.5006922   421055 
 5702000   0.95905999   -3.2242073   -1.7240759  0.069186515   -3.2242073    1.5001314   421048 
 5703000    0.9607616   -3.2280863   -1.7252683   0.06233256   -3.2280863     1.502818   421041 
 5704000   0.95931776   -3.2253792   -1.7247983  0.059937508   -3.2253792    1.5005809   421035 
 5705000   0.95892987   -3.2238883   -1.7238892  0.069010146   -3.2238883    1.4999991   421028 
 5706000   0.96032929   -3.2254972   -1.7232841  0.059326165   -3.2254972    1.5022131   421021 
 5707000   0.95909986   -3.2244586   -1.7241473  0.064033386   -3.2244586    1.5003113   421015 
 5708000   0.95981782   -3.2262205   -1.7247611  0.066217484   -3.2262205    1.5014594   421008 
 5709000   0.96021961   -3.2246909    -1.722578   0.06392971   -3.2246909    1.5021129   421001 
 5710000   0.95974366   -3.2265226   -1.7251328  0.062576224   -3.2265226    1.5013898   420995 
 5711000   0.95849896   -3.2249015    -1.725434    0.0649598   -3.2249015    1.4994675   420988 
 5712000   0.95861678   -3.2260756   -1.7263988  0.064890716   -3.2260756    1.4996768   420981 
 5713000   0.95801941   -3.2249899   -1.7262263  0.060833662   -3.2249899    1.4987636   420975 
 5714000   0.95651282   -3.2224541   -1.7260226  0.062789986   -3.2224541    1.4964315   420968 
 5715000   0.95727426   -3.2234999   -1.7258523  0.057196254   -3.2234999    1.4976477   420961 
 5716000   0.95830444   -3.2241839   -1.7249032   0.05630554   -3.2241839    1.4992807   420955 
 5717000   0.95852489   -3.2247874   -1.7251368  0.058879227   -3.2247874    1.4996506   420948 
 5718000   0.95712898   -3.2233186   -1.7258271  0.062375612   -3.2233186    1.4974915   420941 
 5719000   0.95750253   -3.2242966   -1.7261993  0.063199622   -3.2242966    1.4980973   420935 
 5720000   0.95963688   -3.2272857    -1.725824  0.061533706   -3.2272857    1.5014617   420928 
 5721000   0.95828152   -3.2245523   -1.7251864  0.064666308   -3.2245523     1.499366   420921 
 5722000    0.9571099   -3.2222302    -1.724676  0.064571457   -3.2222302    1.4975542   420915 
 5723000   0.95725726   -3.2234328   -1.7256231  0.065129045   -3.2234328    1.4978096   420908 
 5724000   0.95868868   -3.2263995   -1.7263252  0.054799917   -3.2263995    1.5000743   420901 
 5725000   0.95764018   -3.2252026   -1.7267476  0.063269773   -3.2252026    1.4984551   420895 
 5726000   0.95792558   -3.2241828   -1.7252562  0.063055837   -3.2241828    1.4989266   420888 
 5727000   0.95862761   -3.2253185   -1.7252685  0.063492893   -3.2253185      1.50005   420881 
 5728000   0.95681562    -3.224662    -1.727426  0.062510803    -3.224662     1.497236   420875 
 5729000   0.95770118   -3.2264264   -1.7277798  0.064370037   -3.2264264    1.4986467   420868 
 5730000   0.95813842   -3.2258038    -1.726448  0.063702017   -3.2258038    1.4993558   420861 
 5731000    0.9570736   -3.2259779   -1.7282671  0.061015964   -3.2259779    1.4977109   420855 
 5732000   0.95729034   -3.2257141   -1.7276391  0.061831599   -3.2257141    1.4980749   420848 
 5733000   0.95750057   -3.2253677   -1.7269389  0.063883226   -3.2253677    1.4984289   420841 
 5734000   0.95879248   -3.2272768   -1.7268048   0.06251127   -3.2272768     1.500472   420835 
 5735000   0.95976032   -3.2272133   -1.7252016  0.066857484   -3.2272133    1.5020116   420828 
 5736000   0.95958517   -3.2272307   -1.7254682  0.061630447   -3.2272307    1.5017625   420821 
 5737000     0.959601   -3.2267815   -1.7249728  0.064679748   -3.2267815    1.5018087   420815 
 5738000    0.9610671   -3.2303356   -1.7262074   0.06958634   -3.2303356    1.5041282   420808 
 5739000   0.95883473   -3.2272053   -1.7265459  0.067313618   -3.2272053    1.5006594   420801 
 5740000   0.95988911    -3.228318    -1.725987  0.063338087    -3.228318     1.502331   420795 
 5741000   0.95991449   -3.2284786   -1.7260829  0.065189165   -3.2284786    1.5023957   420788 
 5742000   0.95749839    -3.224527   -1.7258879  0.062752605    -3.224527    1.4986391   420781 
 5743000   0.95638493    -3.223896   -1.7269783  0.060159944    -3.223896    1.4969177   420775 
 5744000   0.95850024   -3.2256944   -1.7254409  0.061266754   -3.2256944    1.5002535   420768 
 5745000   0.95733604   -3.2241319   -1.7256757  0.062286279   -3.2241319    1.4984562   420761 
 5746000   0.95825731   -3.2256354   -1.7257158  0.066698875   -3.2256354    1.4999196   420755 
 5747000   0.95742181   -3.2256964   -1.7270596  0.064277019   -3.2256964    1.4986368   420748 
 5748000   0.95663418   -3.2252126   -1.7277837  0.060523715   -3.2252126    1.4974288   420741 
 5749000    0.9571353   -3.2260985   -1.7278639  0.063447331   -3.2260985    1.4982346   420735 
 5750000   0.95593613    -3.224324   -1.7279416  0.062268078    -3.224324    1.4963824   420728 
 5751000   0.95918911   -3.2272233   -1.7257238  0.062746961   -3.2272233    1.5014995   420721 
 5752000    0.9577478   -3.2249813   -1.7257167  0.059462012   -3.2249813    1.4992646   420715 
 5753000   0.95692811    -3.223548   -1.7255416  0.063306372    -3.223548    1.4980064   420708 
 5754000   0.95789825   -3.2240327   -1.7244826  0.066821604   -3.2240327    1.4995501   420701 
 5755000   0.95771578   -3.2215344   -1.7222486  0.068032492   -3.2215344    1.4992858   420695 
 5756000   0.95804682   -3.2223751   -1.7225461  0.063425906   -3.2223751     1.499829   420688 
 5757000   0.95719984   -3.2225591   -1.7240312  0.063432511   -3.2225591     1.498528   420681 
 5758000   0.95775257   -3.2241603   -1.7247456  0.065766476   -3.2241603    1.4994147   420675 
 5759000   0.95755689   -3.2225497   -1.7234164  0.065938774   -3.2225497    1.4991333   420668 
 5760000   0.95941441   -3.2256632   -1.7235968  0.060526842   -3.2256632    1.5020664   420661 
 5761000   0.95953752   -3.2254429   -1.7231623  0.061487901   -3.2254429    1.5022805   420655 
 5762000   0.95922834   -3.2254098   -1.7235883  0.063116547   -3.2254098    1.5018215   420648 
 5763000   0.95830603   -3.2242061   -1.7238037  0.062256943   -3.2242061    1.5004024   420641 
 5764000   0.95781085    -3.222965   -1.7233165  0.065671215    -3.222965    1.4996485   420635 
 5765000   0.95694823   -3.2214655   -1.7231427  0.065353019   -3.2214655    1.4983228   420628 
 5766000   0.95802268   -3.2221701     -1.72214  0.061395602   -3.2221701    1.5000301   420621 
 5767000    0.9579401   -3.2222441   -1.7223219   0.05938149   -3.2222441    1.4999222   420615 
 5768000    0.9578116   -3.2226349   -1.7228889  0.058868509   -3.2226349    1.4997459   420608 
 5769000   0.95679588   -3.2200539   -1.7218734  0.062727693   -3.2200539    1.4981805   420601 
 5770000   0.95790503   -3.2222399   -1.7223014  0.067221772   -3.2222399    1.4999386   420595 
 5771000   0.95905235   -3.2229731   -1.7212129  0.066113339   -3.2229731    1.5017601   420588 
 5772000   0.95826953   -3.2210276   -1.7204683  0.064787957   -3.2210276    1.5005593   420581 
 5773000   0.95767395   -3.2214528   -1.7218047  0.069151662   -3.2214528    1.4996481   420575 
 5774000   0.95793928    -3.223197   -1.7231085  0.064421687    -3.223197    1.5000885   420568 
 5775000   0.95707263   -3.2220533    -1.723297  0.059829148   -3.2220533    1.4987563   420561 
 5776000   0.95768291    -3.222843   -1.7231096  0.061123893    -3.222843    1.4997334   420555 
 5777000   0.95661385   -3.2206256   -1.7225414   0.06196851   -3.2206256    1.4980842   420548 
 5778000    0.9552276   -3.2175822    -1.721644  0.068033404   -3.2175822    1.4959382   420541 
 5779000   0.95734124   -3.2223654   -1.7230957  0.059805783   -3.2223654    1.4992697   420535 
 5780000   0.95632564    -3.220533    -1.722829  0.057305836    -3.220533    1.4977041   420528 
 5781000    0.9563117   -3.2208977   -1.7231905  0.060458773   -3.2208977    1.4977072   420521 
 5782000   0.95661003   -3.2228889   -1.7246931  0.062149719   -3.2228889    1.4981958   420515 
 5783000   0.95590286   -3.2214946   -1.7243814  0.063458342   -3.2214946    1.4971132   420508 
 5784000   0.95800826   -3.2227816   -1.7223461  0.061141483   -3.2227816    1.5004356   420501 
 5785000   0.95748181   -3.2217801   -1.7221476  0.061309257   -3.2217801    1.4996324   420495 
 5786000   0.95689468   -3.2219954   -1.7232576  0.064801161   -3.2219954    1.4987378   420488 
 5787000   0.95806817   -3.2244021   -1.7238014  0.061572656   -3.2244021    1.5006008   420481 
 5788000   0.95716729   -3.2227183   -1.7235071  0.063869017   -3.2227183    1.4992111   420475 
 5789000   0.95725936   -3.2233714   -1.7239911  0.060430401   -3.2233714    1.4993803   420468 
 5790000   0.95930299   -3.2249025   -1.7222961  0.066633655   -3.2249025    1.5026063   420461 
 5791000   0.95920002   -3.2256414   -1.7231749  0.057514461   -3.2256414    1.5024665   420455 
 5792000   0.95688377   -3.2217209   -1.7228576  0.068866646   -3.2217209    1.4988633   420448 
 5793000   0.95725566   -3.2239862   -1.7245154  0.064543794   -3.2239862    1.4994708   420441 
 5794000   0.95734823   -3.2239455   -1.7243083  0.057496531   -3.2239455    1.4996372   420435 
 5795000    0.9594917    -3.227862   -1.7248421  0.056213945    -3.227862    1.5030199   420428 
 5796000   0.95812306   -3.2251012   -1.7242003  0.062947002   -3.2251012    1.5009009   420421 
 5797000   0.95728491   -3.2246306   -1.7250212   0.07117175   -3.2246306    1.4996094   420415 
 5798000   0.95717963   -3.2233332   -1.7238638  0.066333138   -3.2233332    1.4994694   420408 
 5799000   0.95772368   -3.2235261   -1.7231794  0.066871738   -3.2235261    1.5003467   420401 
 5800000   0.95839219   -3.2244442   -1.7230288   0.06690711   -3.2244442    1.5014154   420395 
 5801000   0.95803129   -3.2240595   -1.7231846  0.066366563   -3.2240595     1.500875   420388 
 5802000   0.95863633   -3.2256017   -1.7237538   0.06233368   -3.2256017    1.5018478   420381 
 5803000   0.95805486   -3.2255704   -1.7246121   0.06477936   -3.2255704    1.5009583   420375 
 5804000   0.95848698   -3.2246379   -1.7229776  0.064994033   -3.2246379    1.5016603   420368 
 5805000   0.95745658   -3.2258852   -1.7258142  0.065461197   -3.2258852     1.500071   420361 
 5806000   0.95653383   -3.2233703   -1.7247236  0.062991919   -3.2233703    1.4986467   420355 
 5807000    0.9574784   -3.2243106    -1.724159  0.061173318   -3.2243106    1.5001515   420348 
 5808000   0.95544848   -3.2208058   -1.7238097  0.065582942   -3.2208058    1.4969961   420341 
 5809000   0.95721126   -3.2231136   -1.7233342  0.059087878   -3.2231136    1.4997794   420335 
 5810000   0.95628494   -3.2215256   -1.7231726  0.060794619   -3.2215256     1.498353   420328 
 5811000   0.95529157    -3.221591   -1.7247696  0.060720511    -3.221591    1.4968214   420321 
 5812000   0.95562602   -3.2201518    -1.722785   0.06097933   -3.2201518    1.4973668   420315 
 5813000   0.95436789   -3.2204467   -1.7250263  0.062006201   -3.2204467    1.4954204   420308 
 5814000   0.95443621   -3.2209002   -1.7253478  0.060445924   -3.2209002    1.4955523   420301 
 5815000   0.95662075   -3.2227429   -1.7237461  0.062642636   -3.2227429    1.4989968   420295 
 5816000   0.95526022   -3.2210808    -1.724191  0.060502521   -3.2210808    1.4968898   420288 
 5817000   0.95618858   -3.2217916   -1.7234221  0.061458726   -3.2217916    1.4983695   420281 
 5818000   0.95511565   -3.2219478   -1.7252382  0.056813422   -3.2219478    1.4967096   420275 
 5819000   0.95634599   -3.2228577   -1.7241951   0.06218198   -3.2228577    1.4986625   420268 
 5820000   0.95549438   -3.2220575   -1.7247046  0.064138452   -3.2220575    1.4973529   420261 
 5821000   0.95488307   -3.2216412   -1.7252249  0.060907107   -3.2216412    1.4964163   420255 
 5822000   0.95422953   -3.2207891    -1.725372  0.058543417   -3.2207891     1.495417   420248 
 5823000   0.95629243   -3.2244654   -1.7257905  0.059315901   -3.2244654    1.4986749   420241 
 5824000    0.9541509   -3.2224976   -1.7271575  0.058664075   -3.2224976    1.4953401   420235 
 5825000   0.95489962   -3.2234546   -1.7269162  0.060404113   -3.2234546    1.4965384   420228 
 5826000   0.95501815    -3.224143   -1.7273939  0.063176647    -3.224143    1.4967491   420221 
 5827000   0.95648544   -3.2263514   -1.7272813  0.065809968   -3.2263514    1.4990701   420215 
 5828000   0.95485733    -3.223409   -1.7268657  0.066320647    -3.223409    1.4965434   420208 
 5829000   0.95689876   -3.2268622   -1.7270943  0.063167773   -3.2268622    1.4997679   420201 
 5830000   0.95715406    -3.227946   -1.7277566  0.065959792    -3.227946    1.5001894   420195 
 5831000   0.95672853   -3.2276326   -1.7280852   0.06135409   -3.2276326    1.4995475   420188 
 5832000   0.95515799   -3.2257493   -1.7286386  0.066833612   -3.2257493    1.4971108   420181 
 5833000   0.95661421    -3.227445   -1.7280304  0.065550924    -3.227445    1.4994147   420175 
 5834000    0.9568423   -3.2259664   -1.7261693  0.064474805   -3.2259664    1.4997972   420168 
 5835000   0.95606555    -3.226049   -1.7274444  0.067902855    -3.226049    1.4986046   420161 
 5836000   0.95808882    -3.229022   -1.7272245  0.065260187    -3.229022    1.5017975   420155 
 5837000   0.95712032   -3.2280437   -1.7277394  0.064915506   -3.2280437    1.5003043   420148 
 5838000   0.95757595   -3.2294802   -1.7284366  0.062757402   -3.2294802    1.5010436   420141 
 5839000   0.95869087   -3.2291572   -1.7263445  0.069420027   -3.2291572    1.5028127   420135 
 5840000    0.9580024   -3.2280719   -1.7263134  0.065843199   -3.2280719    1.5017585   420128 
 5841000   0.95903913   -3.2288872   -1.7254785  0.062180643   -3.2288872    1.5034087   420121 
 5842000   0.95792683   -3.2262363   -1.7245498  0.068568196   -3.2262363    1.5016865   420115 
 5843000   0.95747011    -3.226587   -1.7255914  0.067348351    -3.226587    1.5009956   420108 
 5844000   0.95609034   -3.2258224   -1.7269649  0.064430713   -3.2258224    1.4988575   420101 
 5845000   0.95427982   -3.2228825   -1.7268419  0.065039534   -3.2228825    1.4960405   420095 
 5846000   0.95549659   -3.2266597   -1.7286866   0.06107542   -3.2266597     1.497973   420088 
 5847000   0.95403023   -3.2239587   -1.7282597  0.062394386   -3.2239587    1.4956991   420081 
 5848000   0.95351522   -3.2218788   -1.7269658  0.063296892   -3.2218788     1.494913   420075 
 5849000    0.9536123   -3.2214861   -1.7263959  0.061117106   -3.2214861    1.4950901   420068 
 5850000   0.95447137   -3.2220189    -1.725557   0.05782763   -3.2220189    1.4964619   420061 
 5851000   0.95390467   -3.2212999   -1.7257051  0.058798629   -3.2212999    1.4955948   420055 
 5852000   0.95480557   -3.2218674   -1.7248351  0.062535646   -3.2218674    1.4970323   420048 
 5853000   0.95488855   -3.2225576   -1.7253703  0.055129834   -3.2225576    1.4971873   420041 
 5854000   0.95450841   -3.2214358   -1.7248232  0.066830055   -3.2214358    1.4966127   420035 
 5855000   0.95416686   -3.2204479   -1.7243458  0.061595107   -3.2204479    1.4961021   420028 
 5856000   0.95454817    -3.221941   -1.7252161   0.06285241    -3.221941    1.4967249   420021 
 5857000   0.95487341   -3.2213235   -1.7240673  0.057766332   -3.2213235    1.4972562   420015 
 5858000   0.95520117   -3.2207005   -1.7229054  0.060858541   -3.2207005    1.4977951   420008 
 5859000   0.95418738   -3.2215122   -1.7252818  0.062078218   -3.2215122    1.4962304   420001 
 5860000   0.95535611   -3.2220435   -1.7239591  0.064270899   -3.2220435    1.4980845   419995 
 5861000    0.9550061   -3.2219868   -1.7244262  0.061447343   -3.2219868    1.4975606   419988 
 5862000    0.9556485   -3.2221548   -1.7235619   0.06453523   -3.2221548    1.4985929   419981 
 5863000    0.9553015   -3.2224009   -1.7243307  0.061372144   -3.2224009    1.4980702   419975 
 5864000   0.95674775    -3.224297   -1.7239339  0.062287097    -3.224297    1.5003631   419968 
 5865000   0.95693514   -3.2254842   -1.7248022  0.059567458   -3.2254842     1.500682   419961 
 5866000   0.95499683    -3.223163   -1.7254993  0.065982227    -3.223163    1.4976637   419955 
 5867000   0.95518797   -3.2239706   -1.7259821  0.063657713   -3.2239706    1.4979884   419948 
 5868000   0.95617764   -3.2253647   -1.7257992  0.056365759   -3.2253647    1.4995655   419941 
 5869000   0.95710261   -3.2260014   -1.7249638  0.059800857   -3.2260014    1.5010376   419935 
 5870000   0.95740067   -3.2272982   -1.7257681  0.062882849   -3.2272982      1.50153   419928 
 5871000   0.95706493   -3.2275951   -1.7265666   0.05910313   -3.2275951    1.5010285   419921 
 5872000   0.95477772   -3.2233168   -1.7258541  0.062507294   -3.2233168    1.4974627   419915 
 5873000   0.95629551   -3.2264754   -1.7266072  0.063798546   -3.2264754    1.4998682   419908 
 5874000   0.95503484   -3.2260042   -1.7280882   0.06636281   -3.2260042    1.4979159   419901 
 5875000   0.95679052   -3.2272542   -1.7265631  0.067916647   -3.2272542    1.5006911   419895 
 5876000   0.95611407   -3.2277141    -1.728059  0.060001683   -3.2277141    1.4996551   419888 
 5877000   0.95700621   -3.2281674    -1.727088  0.061405215   -3.2281674    1.5010794   419881 
 5878000   0.95433165   -3.2246475   -1.7277418    0.0656768   -3.2246475    1.4969057   419875 
 5879000   0.95377621   -3.2235137   -1.7274543  0.059694776   -3.2235137    1.4960594   419868 
 5880000   0.95497003   -3.2260246   -1.7280676  0.061050598   -3.2260246     1.497957   419861 
 5881000   0.95426012   -3.2250786   -1.7282138  0.063443449   -3.2250786    1.4968648   419855 
 5882000   0.95465356   -3.2249959    -1.727489  0.059047926   -3.2249959    1.4975069   419848 
 5883000   0.95482877    -3.225774   -1.7279673  0.065029321    -3.225774    1.4978067   419841 
 5884000   0.95342742   -3.2233995   -1.7277697  0.065322207   -3.2233995    1.4956299   419835 
 5885000   0.95621325   -3.2266893   -1.7266643  0.060620298   -3.2266893     1.500025   419828 
 5886000    0.9556211    -3.226532   -1.7274109  0.062366801    -3.226532    1.4991211   419821 
 5887000   0.95540209   -3.2248448   -1.7260459  0.064978128   -3.2248448    1.4987989   419815 
 5888000   0.95659359   -3.2272301    -1.726537  0.066028456   -3.2272301    1.5006931   419808 
 5889000   0.95520775   -3.2248222   -1.7262782  0.061769332   -3.2248222     1.498544   419801 
 5890000   0.95609256   -3.2261553   -1.7262017  0.064173399   -3.2261553    1.4999535   419795 
 5891000   0.95607677   -3.2261667   -1.7262129  0.063085103   -3.2261667    1.4999538   419788 
 5892000   0.95478986   -3.2240326   -1.7260728  0.060715859   -3.2240326    1.4979598   419781 
 5893000   0.95509924   -3.2248842   -1.7264176  0.062039412   -3.2248842    1.4984666   419775 
 5894000   0.95561148   -3.2254468   -1.7261516  0.059481428   -3.2254468    1.4992952   419768 
 5895000   0.95616263   -3.2268478   -1.7266628   0.05544134   -3.2268478     1.500185   419761 
 5896000   0.95347689   -3.2232679   -1.7272754  0.062594806   -3.2232679    1.4959925   419755 
 5897000   0.95582082   -3.2260823   -1.7263871   0.05631288   -3.2260823    1.4996951   419748 
 5898000   0.95458009   -3.2244709   -1.7266975  0.061639446   -3.2244709    1.4977734   419741 
 5899000   0.95418231   -3.2242061   -1.7270354  0.061033535   -3.2242061    1.4971707   419735 
 5900000   0.95417905   -3.2242933   -1.7271027  0.061429571   -3.2242933    1.4971905   419728 
 5901000     0.953995   -3.2243181   -1.7273914  0.066581182   -3.2243181    1.4969267   419721 
 5902000   0.95482467   -3.2254797   -1.7272297  0.064692067   -3.2254797      1.49825   419715 
 5903000   0.95465149   -3.2248807   -1.7268775  0.064566436   -3.2248807    1.4980032   419708 
 5904000   0.95328421   -3.2233125   -1.7274299  0.059647304   -3.2233125    1.4958827   419701 
 5905000   0.95422689   -3.2265526   -1.7291693  0.059251932   -3.2265526    1.4973833   419695 
 5906000    0.9546761   -3.2262556   -1.7281424  0.061492636   -3.2262556    1.4981132   419688 
 5907000   0.95457388   -3.2250569   -1.7270792  0.061158446   -3.2250569    1.4979778   419681 
 5908000   0.95492837   -3.2261662   -1.7276107  0.064358417   -3.2261662    1.4985555   419675 
 5909000   0.95477519   -3.2257596   -1.7274195  0.062776805   -3.2257596    1.4983401   419668 
 5910000   0.95454412   -3.2264844   -1.7284819   0.05937673   -3.2264844    1.4980025   419661 
 5911000   0.95440548   -3.2266331   -1.7288268  0.061121702   -3.2266331    1.4978063   419655 
 5912000   0.95509794   -3.2287416   -1.7298236  0.060286519   -3.2287416     1.498918   419648 
 5913000   0.95452295   -3.2273665   -1.7293259  0.061282435   -3.2273665    1.4980406   419641 
 5914000   0.95543714   -3.2281782   -1.7286814  0.063568467   -3.2281782    1.4994968   419635 
 5915000    0.9567237   -3.2290815   -1.7275405  0.066056057   -3.2290815     1.501541   419628 
 5916000   0.95633794    -3.228236   -1.7272753  0.061441337    -3.228236    1.5009606   419621 
 5917000   0.95528003   -3.2290725   -1.7297508  0.061243336   -3.2290725    1.4993217   419615 
 5918000   0.95451336   -3.2272743   -1.7291309  0.064149337   -3.2272743    1.4981434   419608 
 5919000   0.95626889   -3.2296035   -1.7286797  0.068142979   -3.2296035    1.5009238   419601 
 5920000   0.95664307   -3.2302751   -1.7287426  0.059113248   -3.2302751    1.5015326   419595 
 5921000   0.95521033   -3.2280549   -1.7287462  0.066151632   -3.2280549    1.4993088   419588 
 5922000   0.95559171   -3.2287232   -1.7287908  0.063088068   -3.2287232    1.4999324   419581 
 5923000   0.95317907   -3.2255214   -1.7293545  0.062532765   -3.2255214    1.4961668   419575 
 5924000   0.95419575   -3.2261838   -1.7283961  0.065313181   -3.2261838    1.4977877   419568 
 5925000   0.95470657   -3.2266685    -1.728054  0.060255602   -3.2266685    1.4986145   419561 
 5926000   0.95299068   -3.2240736   -1.7281311  0.061813103   -3.2240736    1.4959424   419555 
 5927000   0.95340853   -3.2263243   -1.7297009  0.058795789   -3.2263243    1.4966233   419548 
 5928000   0.95300179   -3.2259712   -1.7299614  0.060740454   -3.2259712    1.4960098   419541 
 5929000    0.9533976   -3.2251715   -1.7285189  0.066551048   -3.2251715    1.4966525   419535 
 5930000   0.95349372   -3.2249105   -1.7280821  0.062589374   -3.2249105    1.4968284   419528 
 5931000   0.95247637   -3.2226031   -1.7273468  0.061308514   -3.2226031    1.4952563   419521 
 5932000   0.95433797   -3.2246821   -1.7264819  0.060790206   -3.2246821    1.4982002   419515 
 5933000   0.95470157   -3.2247272   -1.7259313  0.067680766   -3.2247272     1.498796   419508 
 5934000    0.9546843   -3.2248131   -1.7260192  0.060082038   -3.2248131    1.4987939   419501 
 5935000   0.95525202   -3.2258597    -1.726153  0.065017659   -3.2258597    1.4997066   419495 
 5936000    0.9534322    -3.223978   -1.7271034  0.064766816    -3.223978    1.4968746   419488 
 5937000   0.95381065   -3.2249831   -1.7274894  0.058005729   -3.2249831    1.4974937   419481 
 5938000   0.95339603   -3.2240075   -1.7271433  0.061705388   -3.2240075    1.4968642   419475 
 5939000   0.95470637   -3.2264751   -1.7275287  0.062553769   -3.2264751    1.4989465   419468 
 5940000   0.95256102    -3.223157   -1.7275539  0.062808519    -3.223157    1.4956031   419461 
 5941000   0.95511123   -3.2264967   -1.7268681  0.062505423   -3.2264967    1.4996286   419455 
 5942000   0.95361872   -3.2246051    -1.727295  0.060823539   -3.2246051    1.4973102   419448 
 5943000   0.95367279    -3.225851    -1.728431  0.060662693    -3.225851      1.49742   419441 
 5944000   0.95375473   -3.2270283   -1.7294582  0.064160247   -3.2270283    1.4975701   419435 
 5945000   0.95407772   -3.2261661   -1.7280639  0.062250555   -3.2261661    1.4981023   419428 
 5946000   0.95446001   -3.2263014   -1.7275738  0.061057402   -3.2263014    1.4987276   419421 
 5947000   0.95246445   -3.2244816   -1.7288662  0.062061226   -3.2244816    1.4956155   419415 
 5948000   0.95306382    -3.224784   -1.7282024  0.059403031    -3.224784    1.4965816   419408 
 5949000   0.95413849   -3.2268875   -1.7285933  0.061600712   -3.2268875    1.4982942   419401 
 5950000    0.9542589   -3.2268984   -1.7283938  0.059341822   -3.2268984    1.4985047   419395 
 5951000   0.95361359   -3.2262404   -1.7287241  0.066914871   -3.2262404    1.4975163   419388 
 5952000    0.9546401   -3.2263359   -1.7271826  0.067091727   -3.2263359    1.4991533   419381 
 5953000   0.95588285   -3.2277919   -1.7266655  0.066728832   -3.2277919    1.5011264   419375 
 5954000   0.95622507   -3.2296708   -1.7279819  0.062378508   -3.2296708    1.5016889   419368 
 5955000   0.95469339   -3.2271349   -1.7278264  0.063955044   -3.2271349    1.4993085   419361 
 5956000   0.95272656   -3.2256968   -1.7294557  0.066148001   -3.2256968    1.4962411   419355 
 5957000   0.95282356   -3.2269558   -1.7305374  0.059075517   -3.2269558    1.4964184   419348 
 5958000   0.95128029   -3.2260558   -1.7320362  0.063800392   -3.2260558    1.4940196   419341 
 5959000   0.95192225   -3.2261204   -1.7310712  0.062082847   -3.2261204    1.4950492   419335 
 5960000   0.95260589   -3.2268859    -1.730738  0.057030722   -3.2268859    1.4961479   419328 
 5961000   0.95224279   -3.2253376    -1.729735  0.058858816   -3.2253376    1.4956026   419321 
 5962000   0.95200615   -3.2258185   -1.7305662   0.06240802   -3.2258185    1.4952523   419315 
 5963000   0.95255092   -3.2248455   -1.7287125  0.060489305   -3.2248455    1.4961329   419308 
 5964000   0.95383774   -3.2269032   -1.7287241  0.060006371   -3.2269032    1.4981791   419301 
 5965000   0.95377685   -3.2262786   -1.7281737  0.063846142   -3.2262786    1.4981049   419295 
 5966000   0.95515996   -3.2278489   -1.7275465  0.061134058   -3.2278489    1.5003024   419288 
 5967000    0.9549424    -3.227951   -1.7279652  0.058618807    -3.227951    1.4999857   419281 
 5968000   0.95411399   -3.2286214   -1.7299154  0.061292716   -3.2286214    1.4987059   419275 
 5969000   0.95379358   -3.2268142   -1.7285865  0.061854968   -3.2268142    1.4982277   419268 
 5970000   0.95310435   -3.2256092   -1.7284392  0.066017593   -3.2256092      1.49717   419261 
 5971000   0.95467191   -3.2268506   -1.7271967  0.064933755   -3.2268506    1.4996539   419255 
 5972000   0.95331282   -3.2246439      -1.7271  0.063574631   -3.2246439    1.4975439   419248 
 5973000    0.9540296    -3.226174    -1.727479  0.063907048    -3.226174    1.4986949   419241 
 5974000   0.95454201   -3.2270148   -1.7274934  0.066961435   -3.2270148    1.4995213   419235 
 5975000   0.95335267   -3.2251905   -1.7275126  0.062678221   -3.2251905     1.497678   419228 
 5976000   0.95460589   -3.2268531   -1.7271813  0.059027159   -3.2268531    1.4996717   419221 
 5977000   0.95399675   -3.2267358   -1.7279996   0.06145013   -3.2267358    1.4987363   419215 
 5978000   0.95234185   -3.2246095   -1.7284481  0.060798845   -3.2246095    1.4961614   419208 
 5979000   0.95192949   -3.2245854   -1.7290469  0.061243111   -3.2245854    1.4955385   419201 
 5980000   0.95175189   -3.2244848   -1.7292039  0.059981268   -3.2244848    1.4952809   419195 
 5981000   0.95168509   -3.2245978   -1.7293969  0.060680228   -3.2245978    1.4952009   419188 
 5982000   0.95238783   -3.2239331   -1.7276031  0.061778304   -3.2239331      1.49633   419181 
 5983000   0.95321748   -3.2264575   -1.7288026  0.062875326   -3.2264575    1.4976549   419175 
 5984000   0.95327627   -3.2272616   -1.7294894  0.061368066   -3.2272616    1.4977723   419168 
 5985000   0.95181661    -3.224098   -1.7285941  0.060949201    -3.224098    1.4955039   419161 
 5986000   0.95187622    -3.224631    -1.729012  0.059462739    -3.224631     1.495619   419155 
 5987000   0.95326165   -3.2280425   -1.7302217  0.055870674   -3.2280425    1.4978208   419148 
 5988000   0.95404391   -3.2282806   -1.7292056  0.056815854   -3.2282806     1.499075   419141 
 5989000   0.95238597   -3.2255651   -1.7290738  0.058200599   -3.2255651    1.4964913   419135 
 5990000   0.95354908   -3.2276052   -1.7292613  0.057288493   -3.2276052    1.4983439   419128 
 5991000   0.95400494   -3.2266571   -1.7275719  0.061203797   -3.2266571    1.4990853   419121 
 5992000    0.9518563   -3.2246998   -1.7289695  0.057114581   -3.2246998    1.4957304   419115 
 5993000   0.95179621   -3.2253514   -1.7296905  0.059060879   -3.2253514    1.4956609   419108 
 5994000    0.9530998   -3.2274575   -1.7297231  0.057755594   -3.2274575    1.4977344   419101 
 5995000    0.9535812   -3.2274156   -1.7289032  0.061402879   -3.2274156    1.4985124   419095 
 5996000   0.95447568    -3.228343      -1.7284  0.060601046    -3.228343    1.4999431   419088 
 5997000   0.95489224   -3.2302217   -1.7295989  0.065217826   -3.2302217    1.5006227   419081 
 5998000   0.95421832   -3.2284922    -1.728907  0.057743853   -3.2284922    1.4995851   419075 
 5999000   0.95406424   -3.2280387   -1.7286707  0.062945166   -3.2280387     1.499368   419068 
 6000000   0.95305308   -3.2262213   -1.7284173  0.064447296   -3.2262213     1.497804   419061 
 6001000   0.95427111   -3.2278366   -1.7280969  0.067333027   -3.2278366    1.4997397   419055 
 6002000   0.95398249   -3.2282558   -1.7289447  0.065623826   -3.2282558    1.4993111   419048 
 6003000   0.95326742   -3.2264796   -1.7282672  0.064167079   -3.2264796    1.4982123   419041 
 6004000   0.95308427   -3.2262156   -1.7282697  0.065549559   -3.2262156    1.4979459   419035 
 6005000   0.95436001    -3.227127    -1.727151  0.068146916    -3.227127     1.499976   419028 
 6006000   0.95355279   -3.2249346   -1.7262022  0.068069782   -3.2249346    1.4987324   419021 
 6007000   0.95207994   -3.2253153   -1.7288765  0.062714376   -3.2253153    1.4964388   419015 
 6008000   0.95250166   -3.2267517    -1.729625  0.058219533   -3.2267517    1.4971267   419008 
 6009000   0.95225847   -3.2256001   -1.7288307  0.063763689   -3.2256001    1.4967695   419001 
 6010000   0.95282581   -3.2276413   -1.7299586  0.057337435   -3.2276413    1.4976827   418995 
 6011000   0.95114815   -3.2248664   -1.7297958  0.060604321   -3.2248664    1.4950706   418988 
 6012000   0.95204292   -3.2264354   -1.7299333   0.06131996   -3.2264354    1.4965021   418981 
 6013000   0.95311298   -3.2262196   -1.7280141  0.060186599   -3.2262196    1.4982056   418975 
 6014000   0.95234337   -3.2262276   -1.7292067  0.061197214   -3.2262276    1.4970208   418968 
 6015000    0.9516488   -3.2254587   -1.7295047  0.062290673   -3.2254587     1.495954   418961 
 6016000   0.95155909   -3.2242294    -1.728395  0.061681544   -3.2242294    1.4958344   418955 
 6017000   0.95338908   -3.2262137   -1.7274776  0.061386345   -3.2262137    1.4987362   418948 
 6018000   0.95118821   -3.2231276   -1.7278263   0.06286205   -3.2231276    1.4953013   418941 
 6019000   0.94964528    -3.220306   -1.7274088  0.061937189    -3.220306    1.4928972   418935 
 6020000   0.95079896   -3.2214379   -1.7267021  0.066366427   -3.2214379    1.4947358   418928 
 6021000   0.95166857   -3.2228583   -1.7267304  0.059300683   -3.2228583    1.4961279   418921 
 6022000   0.95331662   -3.2248527   -1.7261124  0.064807398   -3.2248527    1.4987403   418915 
 6023000   0.95310378   -3.2248949   -1.7264642  0.058824586   -3.2248949    1.4984307   418908 
 6024000   0.95297949   -3.2241778   -1.7259175  0.062510308   -3.2241778    1.4982604   418901 
 6025000   0.95266653   -3.2233434   -1.7255536   0.06626431   -3.2233434    1.4977898   418895 
 6026000   0.95336359   -3.2223843   -1.7234735   0.06638449   -3.2223843    1.4989108   418888 
 6027000   0.95301945   -3.2221725   -1.7237777  0.061885031   -3.2221725    1.4983947   418881 
 6028000   0.95136617   -3.2203828   -1.7245661  0.060978872   -3.2203828    1.4958168   418875 
 6029000   0.95298476   -3.2211225   -1.7227358  0.059760494   -3.2211225    1.4983867   418868 
 6030000    0.9530624    -3.221047   -1.7225132   0.05785177    -3.221047    1.4985338   418861 
 6031000   0.95277346   -3.2206754   -1.7225745  0.061509274   -3.2206754     1.498101   418855 
 6032000   0.95355354   -3.2220305    -1.722678     0.060878   -3.2220305    1.4993526   418848 
 6033000   0.95121206   -3.2176283   -1.7219324  0.060092679   -3.2176283    1.4956959   418841 
 6034000   0.95344671   -3.2203689   -1.7211378  0.064784132   -3.2203689    1.4992311   418835 
 6035000   0.95283019   -3.2187294   -1.7204427  0.059647969   -3.2187294    1.4982867   418828 
 6036000   0.95195295   -3.2177007   -1.7207684  0.059748662   -3.2177007    1.4969323   418821 
 6037000   0.95218548   -3.2181203   -1.7208009  0.061407994   -3.2181203    1.4973194   418815 
 6038000   0.95187169   -3.2172765   -1.7204254  0.063130156   -3.2172765     1.496851   418808 
 6039000   0.95080642   -3.2146008      -1.7194  0.062408231   -3.2146008    1.4952008   418801 
 6040000   0.95233268   -3.2184565   -1.7208341  0.058651004   -3.2184565    1.4976224   418795 
 6041000   0.95190958   -3.2169218   -1.7199398  0.055380792   -3.2169218    1.4969821   418788 
 6042000   0.95247685   -3.2196043   -1.7217051  0.057233916   -3.2196043    1.4978992   418781 
 6043000   0.95305267   -3.2190833   -1.7202571  0.062969541   -3.2190833    1.4988262   418775 
 6044000   0.95141259   -3.2174425   -1.7211705  0.060841939   -3.2174425     1.496272   418768 
 6045000   0.95303994   -3.2207024   -1.7218461  0.054374494   -3.2207024    1.4988563   418761 
 6046000   0.95189632   -3.2185002    -1.721421  0.057259327   -3.2185002    1.4970792   418755 
 6047000   0.95277088   -3.2207099   -1.7222302  0.061870678   -3.2207099    1.4984797   418748 
 6048000   0.95210057   -3.2185793   -1.7211288  0.061638938   -3.2185793    1.4974505   418741 
 6049000   0.95257562   -3.2197401    -1.721521  0.062668222   -3.2197401    1.4982191   418735 
 6050000    0.9519748   -3.2182834   -1.7209842  0.061764249   -3.2182834    1.4972992   418728 
 6051000    0.9543633   -3.2215675   -1.7204865  0.059980117   -3.2215675     1.501081   418721 
 6052000   0.95331832   -3.2206954   -1.7212365  0.055396748   -3.2206954    1.4994589   418715 
 6053000   0.95284031   -3.2187711   -1.7200391  0.061130242   -3.2187711     1.498732   418708 
 6054000   0.95364356   -3.2199259   -1.7199053  0.064396573   -3.2199259    1.5000206   418701 
 6055000   0.95472528   -3.2215386    -1.719795  0.063472729   -3.2215386    1.5017436   418695 
 6056000   0.95405921   -3.2215888   -1.7208678  0.064601046   -3.2215888     1.500721   418688 
 6057000   0.95400973   -3.2207264   -1.7200582  0.063337962   -3.2207264    1.5006682   418681 
 6058000   0.95437496   -3.2217252    -1.720461  0.067373395   -3.2217252    1.5012642   418675 
 6059000   0.95333174   -3.2207466   -1.7210983  0.062852981   -3.2207466    1.4996483   418668 
 6060000   0.95373892   -3.2229184   -1.7226045  0.063427186   -3.2229184    1.5003139   418661 
 6061000   0.95419272    -3.222976   -1.7219267  0.061292882    -3.222976    1.5010493   418655 
 6062000   0.95244683   -3.2211127   -1.7227849  0.059752314   -3.2211127    1.4983278   418648 
 6063000   0.95322842   -3.2225473   -1.7229648  0.065439349   -3.2225473    1.4995825   418641 
 6064000   0.95209849   -3.2216294    -1.723803  0.062927643   -3.2216294    1.4978264   418635 
 6065000   0.95340302   -3.2240639   -1.7241602  0.057377666   -3.2240639    1.4999037   418628 
 6066000   0.95264002   -3.2212986   -1.7225702  0.063802344   -3.2212986    1.4987284   418621 
 6067000   0.95348665   -3.2222185   -1.7221367   0.06079069   -3.2222185    1.5000819   418615 
 6068000   0.95450811   -3.2245781    -1.722864  0.057433899   -3.2245781     1.501714   418608 
 6069000   0.95298295   -3.2223849   -1.7230454  0.064227907   -3.2223849    1.4993396   418601 
 6070000   0.95332155    -3.222437   -1.7225432  0.060459119    -3.222437    1.4998938   418595 
 6071000   0.95298462   -3.2219516   -1.7225628  0.067749065   -3.2219516    1.4993888   418588 
 6072000   0.95395267   -3.2245449   -1.7236079   0.06970515   -3.2245449     1.500937   418581 
 6073000   0.95299954   -3.2220834   -1.7226246  0.064469683   -3.2220834    1.4994588   418575 
 6074000   0.95289585   -3.2228182   -1.7234975  0.065901773   -3.2228182    1.4993207   418568 
 6075000   0.95299695   -3.2229816   -1.7234768  0.059049303   -3.2229816    1.4995049   418561 
 6076000   0.95281105   -3.2231698    -1.723936   0.06395966   -3.2231698    1.4992339   418555 
 6077000   0.95406838   -3.2261485   -1.7249111  0.060236331   -3.2261485    1.5012374   418548 
 6078000    0.9529911   -3.2252584   -1.7256911  0.062906743   -3.2252584    1.4995673   418541 
 6079000   0.95195873   -3.2219036   -1.7239393  0.063296702   -3.2219036    1.4979643   418535 
 6080000   0.95293726   -3.2226668   -1.7231376  0.065872711   -3.2226668    1.4995292   418528 
 6081000   0.95332137   -3.2247166   -1.7245579  0.064907683   -3.2247166    1.5001587   418521 
 6082000   0.95194561   -3.2226174   -1.7246021   0.06481916   -3.2226174    1.4980153   418515 
 6083000   0.95323675   -3.2236582   -1.7235861  0.064806168   -3.2236582    1.5000721   418508 
 6084000   0.95176384   -3.2223918   -1.7246124  0.061985281   -3.2223918    1.4977793   418501 
 6085000   0.95220189   -3.2229673   -1.7244771  0.061648512   -3.2229673    1.4984902   418495 
 6086000   0.95433123   -3.2250622    -1.723196  0.063820162   -3.2250622    1.5018662   418488 
 6087000   0.95302423   -3.2222711   -1.7224367  0.068472806   -3.2222711    1.4998345   418481 
 6088000   0.95252068   -3.2230425    -1.723979  0.066313109   -3.2230425    1.4990635   418475 
 6089000   0.95213944   -3.2224534   -1.7239648  0.061345514   -3.2224534    1.4984886   418468 
 6090000   0.95314562   -3.2243266   -1.7242294  0.058818207   -3.2243266    1.5000972   418461 
 6091000   0.95358117   -3.2245037   -1.7236995  0.068286691   -3.2245037    1.5008042   418455 
 6092000   0.95228847   -3.2227728   -1.7239781  0.059895306   -3.2227728    1.4987947   418448 
 6093000   0.95162032   -3.2214239   -1.7236557   0.06257302   -3.2214239    1.4977682   418441 
 6094000   0.95252343   -3.2227438   -1.7235326  0.065538967   -3.2227438    1.4992111   418435 
 6095000   0.95279228   -3.2239519   -1.7242925  0.059039635   -3.2239519    1.4996594   418428 
 6096000   0.95197379   -3.2222379   -1.7238418  0.059727929   -3.2222379    1.4983962   418421 
 6097000   0.95305569   -3.2233668   -1.7232462   0.06383318   -3.2233668    1.5001206   418415 
 6098000   0.95241459   -3.2221047   -1.7229681  0.064222971   -3.2221047    1.4991365   418408 
 6099000   0.95147658   -3.2222041    -1.724519  0.061220206   -3.2222041    1.4976851   418401 
 6100000   0.95405319   -3.2243575    -1.722595  0.062131352   -3.2243575    1.5017624   418395 
 6101000   0.95341926   -3.2238266   -1.7230369  0.059191412   -3.2238266    1.5007897   418388 
 6102000   0.95205141   -3.2212678   -1.7226062  0.060641606   -3.2212678    1.4986616   418381 
 6103000   0.95266487    -3.221006   -1.7213572  0.066114454    -3.221006    1.4996488   418375 
 6104000   0.95326808   -3.2215987   -1.7209753  0.064820304   -3.2215987    1.5006234   418368 
 6105000   0.95221839   -3.2210705   -1.7220744  0.065225064   -3.2210705    1.4989961   418361 
 6106000   0.95260354   -3.2212365   -1.7216126  0.062373675   -3.2212365    1.4996239   418355 
 6107000   0.95204048   -3.2211046    -1.722342  0.065539528   -3.2211046    1.4987626   418348 
 6108000   0.95272729   -3.2217425   -1.7218736  0.065696182   -3.2217425    1.4998689   418341 
 6109000   0.95252441   -3.2220718   -1.7225008   0.06280421   -3.2220718     1.499571   418335 
 6110000   0.95299734   -3.2230863   -1.7227456  0.061495078   -3.2230863    1.5003407   418328 
 6111000   0.95277864   -3.2224774   -1.7224559  0.060813748   -3.2224774    1.5000215   418321 
 6112000   0.95111372   -3.2210142   -1.7235924  0.058504932   -3.2210142    1.4974218   418315 
 6113000    0.9521243   -3.2227687   -1.7237308  0.060807155   -3.2227687    1.4990379   418308 
 6114000   0.95149557   -3.2215141    -1.723441  0.066047628   -3.2215141    1.4980731   418301 
 6115000     0.951838   -3.2211956   -1.7225619  0.061529091   -3.2211956    1.4986337   418295 
 6116000   0.95143457   -3.2205408   -1.7225172   0.06604756   -3.2205408    1.4980236   418288 
 6117000   0.95261487   -3.2219968   -1.7220897  0.067772266   -3.2219968    1.4999071   418281 
 6118000   0.95210023   -3.2215975   -1.7224792  0.060253456   -3.2215975    1.4991183   418275 
 6119000   0.95299788   -3.2216079   -1.7210511  0.060795515   -3.2216079    1.5005568   418268 
 6120000   0.95311438   -3.2213738   -1.7206085  0.063679341   -3.2213738    1.5007653   418261 
 6121000   0.95324488   -3.2210225   -1.7200302  0.064555345   -3.2210225    1.5009923   418255 
 6122000   0.95321625   -3.2208671   -1.7198947  0.063422525   -3.2208671    1.5009724   418248 
 6123000   0.95212323   -3.2191835   -1.7199072  0.062767305   -3.2191835    1.4992764   418241 
 6124000   0.95287163   -3.2218249   -1.7213486  0.068171797   -3.2218249    1.5004764   418235 
 6125000    0.9511472   -3.2210216   -1.7232356  0.059676886   -3.2210216     1.497786   418228 
 6126000   0.95153262   -3.2202731   -1.7218551  0.062930592   -3.2202731     1.498418   418221 
 6127000   0.95045117   -3.2191851   -1.7224487  0.064081545   -3.2191851    1.4967365   418215 
 6128000   0.95054262   -3.2186399   -1.7217344  0.064307223   -3.2186399    1.4969055   418208 
 6129000   0.95077275   -3.2196862   -1.7223932  0.060123229   -3.2196862     1.497293   418201 
 6130000   0.95305909   -3.2220487   -1.7211336  0.056908562   -3.2220487    1.5009151   418195 
 6131000   0.95199077   -3.2195199   -1.7202621  0.064794923   -3.2195199    1.4992578   418188 
 6132000    0.9510335   -3.2180649   -1.7202896  0.063289351   -3.2180649    1.4977753   418181 
 6133000   0.95064483   -3.2179696    -1.720785  0.065218435   -3.2179696    1.4971846   418175 
 6134000    0.9516165   -3.2203899   -1.7216499  0.063816234   -3.2203899      1.49874   418168 
 6135000   0.95109285   -3.2201031   -1.7221627  0.059062037   -3.2201031    1.4979404   418161 
 6136000   0.95149608   -3.2199382   -1.7213413  0.066604059   -3.2199382    1.4985969   418155 
 6137000   0.95160317   -3.2195048   -1.7207141  0.067005702   -3.2195048    1.4987907   418148 
 6138000   0.95194135   -3.2215713   -1.7222228  0.063225489   -3.2215713    1.4993484   418141 
 6139000   0.95058198   -3.2201477   -1.7229188  0.062523106   -3.2201477    1.4972289   418135 
 6140000   0.95054109   -3.2206746   -1.7234851  0.060185417   -3.2206746    1.4971895   418128 
 6141000   0.95136306   -3.2213277   -1.7228185  0.058338278   -3.2213277    1.4985093   418121 
 6142000   0.95115164    -3.221239   -1.7230412   0.06461672    -3.221239    1.4981978   418115 
 6143000   0.95036989   -3.2199567   -1.7229652  0.063480708   -3.2199567    1.4969915   418108 
 6144000   0.95080815   -3.2218549    -1.724148  0.057157273   -3.2218549    1.4977069   418101 
 6145000   0.94988707   -3.2196703   -1.7233928  0.061340468   -3.2196703    1.4962775   418095 
 6146000   0.95095121   -3.2219293   -1.7239505  0.064796189   -3.2219293    1.4979788   418088 
 6147000   0.94803507   -3.2183988   -1.7249887  0.060413271   -3.2183988    1.4934102   418081 
 6148000   0.94986737    -3.222323    -1.726005  0.057664635    -3.222323     1.496318   418075 
 6149000   0.94833152   -3.2207384   -1.7268148  0.057578159   -3.2207384    1.4939236   418068 
 6150000   0.94888135   -3.2211662   -1.7263514  0.058050045   -3.2211662    1.4948148   418061 
 6151000   0.95000968    -3.223922   -1.7273082  0.055565915    -3.223922    1.4966138   418055 
 6152000   0.94962903   -3.2224311   -1.7263919   0.05977611   -3.2224311    1.4960392   418048 
 6153000   0.95005942    -3.223633   -1.7268907  0.057189865    -3.223633    1.4967423   418041 
 6154000   0.94970418   -3.2245015   -1.7282974  0.057935467   -3.2245015    1.4962041   418035 
 6155000   0.95015377   -3.2245067   -1.7275692  0.059977351   -3.2245067    1.4969375   418028 
 6156000   0.95158733   -3.2247385   -1.7255174  0.064333503   -3.2247385    1.4992211   418021 
 6157000   0.95196761   -3.2251742   -1.7253325  0.062571606   -3.2251742    1.4998417   418015 
 6158000   0.95149757   -3.2250738   -1.7259475  0.061045142   -3.2250738    1.4991263   418008 
 6159000   0.95247598    -3.225189   -1.7244961  0.064874923    -3.225189     1.500693   418001 
 6160000   0.95219358   -3.2251727   -1.7249032  0.063081285   -3.2251727    1.5002696   417995 
 6161000    0.9523264    -3.225323   -1.7248191  0.064143786    -3.225323     1.500504   417988 
 6162000   0.95171999    -3.225018   -1.7254444  0.067295638    -3.225018    1.4995736   417981 
 6163000   0.95235675   -3.2252277   -1.7246292  0.065844282   -3.2252277    1.5005984   417975 
 6164000   0.95276647   -3.2254753   -1.7242061  0.064101797   -3.2254753    1.5012692   417968 
 6165000     0.952598   -3.2244467   -1.7234179  0.066463918   -3.2244467    1.5010288   417961 
 6166000   0.95153979   -3.2230328   -1.7236499  0.063574647   -3.2230328    1.4993829   417955 
 6167000    0.9510668   -3.2241657    -1.725503  0.062747543   -3.2241657    1.4986627   417948 
 6168000   0.94991954   -3.2234132   -1.7265332  0.062233663   -3.2234132      1.49688   417941 
 6169000   0.94981156   -3.2237027   -1.7269714   0.06372437   -3.2237027    1.4967313   417935 
 6170000   0.95005344   -3.2241278   -1.7269902   0.06201218   -3.2241278    1.4971375   417928 
 6171000   0.94952801   -3.2236347   -1.7273002  0.060579479   -3.2236347    1.4963346   417921 
 6172000   0.94928898   -3.2222232   -1.7262438  0.063125752   -3.2222232    1.4959794   417915 
 6173000   0.94962499   -3.2224069   -1.7258729   0.06361557   -3.2224069     1.496534   417908 
 6174000   0.95020182   -3.2217006   -1.7242325  0.062257805   -3.2217006    1.4974681   417901 
 6175000   0.95076591   -3.2227244   -1.7243458  0.062265257   -3.2227244    1.4983786   417895 
 6176000   0.94928581   -3.2202473   -1.7241762  0.061476345   -3.2202473    1.4960711   417888 
 6177000   0.95006233   -3.2224682   -1.7251482    0.0584035   -3.2224682    1.4973199   417881 
 6178000   0.95150795   -3.2245166   -1.7248968  0.060555681   -3.2245166    1.4996198   417875 
 6179000   0.94860764    -3.220322   -1.7252482   0.06177869    -3.220322    1.4950738   417868 
 6180000   0.95147034   -3.2243989   -1.7247882  0.065976803   -3.2243989    1.4996108   417861 
 6181000   0.95088258   -3.2248615   -1.7261556  0.054737531   -3.2248615    1.4987059   417855 
 6182000   0.95022794    -3.222791   -1.7250918  0.060445746    -3.222791    1.4976992   417848 
 6183000   0.95084495   -3.2237356   -1.7250387  0.058550287   -3.2237356    1.4986968   417841 
 6184000   0.95075712   -3.2237069    -1.725127  0.067065296   -3.2237069    1.4985799   417835 
 6185000   0.94996285   -3.2237844   -1.7264314  0.065595193   -3.2237844    1.4973531   417828 
 6186000   0.95054379   -3.2239021   -1.7256083   0.06131079   -3.2239021    1.4982939   417821 
 6187000   0.95102269   -3.2248777   -1.7258075  0.057988141   -3.2248777    1.4990702   417815 
 6188000   0.95016102   -3.2229884   -1.7252513  0.067008368   -3.2229884    1.4977371   417808 
 6189000   0.95197323   -3.2256011   -1.7249823  0.057937512   -3.2256011    1.5006188   417801 
 6190000   0.94867304   -3.2231421    -1.727704  0.057229981   -3.2231421    1.4954381   417795 
 6191000   0.95038812   -3.2252269   -1.7270601  0.063109403   -3.2252269    1.4981668   417788 
 6192000   0.94924414   -3.2222519   -1.7258633  0.064683698   -3.2222519    1.4963885   417781 
 6193000   0.95063109   -3.2236953   -1.7250988  0.062637696   -3.2236953    1.4985964   417775 
 6194000   0.95105678   -3.2239287   -1.7246361  0.062917127   -3.2239287    1.4992926   417768 
 6195000   0.95169861   -3.2246716    -1.724342  0.062104961   -3.2246716    1.5003296   417761 
 6196000   0.95073834   -3.2242022   -1.7253649  0.063472499   -3.2242022    1.4988373   417755 
 6197000   0.94965518   -3.2227518    -1.725597  0.063148805   -3.2227518    1.4971548   417748 
 6198000   0.94952866   -3.2223481   -1.7253678  0.064189972   -3.2223481    1.4969804   417741 
 6199000   0.94895851   -3.2230556   -1.7269526  0.061646757   -3.2230556     1.496103   417735 
 6200000   0.95001403   -3.2240519   -1.7262597  0.065761494   -3.2240519    1.4977922   417728 
 6201000   0.94960177   -3.2242033    -1.727036  0.061227615   -3.2242033    1.4971673   417721 
 6202000   0.94893182   -3.2236353   -1.7275027  0.068036305   -3.2236353    1.4961325   417715 
 6203000   0.95088168    -3.225471   -1.7262391  0.058326727    -3.225471    1.4992319   417708 
 6204000   0.94967311   -3.2234075    -1.726056  0.063514863   -3.2234075    1.4973515   417701 
 6205000   0.95080079   -3.2267361   -1.7275851   0.05496417   -3.2267361     1.499151   417695 
 6206000   0.94916486   -3.2227422   -1.7261455  0.061930117   -3.2227422    1.4965967   417688 
 6207000   0.94998677   -3.2224832   -1.7245654   0.05915971   -3.2224832    1.4979178   417681 
 6208000   0.95078562   -3.2236907   -1.7244918  0.063580428   -3.2236907    1.4991989   417675 
 6209000   0.94848572   -3.2199596   -1.7243621  0.061907842   -3.2199596    1.4955975   417668 
 6210000   0.95145461   -3.2223401   -1.7220361  0.061534175   -3.2223401    1.5003041   417661 
 6211000    0.9490687   -3.2205124   -1.7239491   0.06066151   -3.2205124    1.4965633   417655 
 6212000   0.94882359   -3.2212833   -1.7250814  0.063522952   -3.2212833    1.4962019   417648 
 6213000   0.94988831   -3.2215704   -1.7236644  0.063364622   -3.2215704     1.497906   417641 
 6214000   0.95081835   -3.2223584   -1.7229643   0.06710291   -3.2223584    1.4993941   417635 
 6215000   0.94927358    -3.220455   -1.7234718  0.062117796    -3.220455    1.4969832   417628 
 6216000   0.94944696    -3.221336   -1.7240543  0.062342282    -3.221336    1.4972817   417621 
 6217000   0.94806142   -3.2192394   -1.7241212  0.060832714   -3.2192394    1.4951182   417615 
 6218000   0.94878599   -3.2203369    -1.724051  0.063311289   -3.2203369    1.4962859   417608 
 6219000   0.94810293   -3.2192391   -1.7240054  0.059460128   -3.2192391    1.4952338   417601 
 6220000   0.94900013   -3.2210337   -1.7243635  0.067199133   -3.2210337    1.4966702   417595 
 6221000    0.9484768   -3.2201644   -1.7242944  0.061575013   -3.2201644    1.4958699   417588 
 6222000   0.94849753   -3.2203726   -1.7244449  0.060057845   -3.2203726    1.4959277   417581 
 6223000   0.94852878   -3.2211189   -1.7251204  0.061445384   -3.2211189    1.4959985   417575 
 6224000   0.94835404     -3.22066   -1.7249121  0.061111594     -3.22066     1.495748   417568 
 6225000   0.94875572   -3.2218593   -1.7254527  0.058651992   -3.2218593    1.4964066   417561 
 6226000   0.94934379   -3.2208918   -1.7235361  0.059897083   -3.2208918    1.4973556   417555 
 6227000   0.94992704   -3.2226916   -1.7243909  0.059221591   -3.2226916    1.4983007   417548 
 6228000   0.95091641   -3.2231232   -1.7232368  0.058476442   -3.2231232    1.4998863   417541 
 6229000   0.95144272   -3.2243686   -1.7236305  0.058579974   -3.2243686     1.500738   417535 
 6230000   0.95001425   -3.2213189   -1.7228089  0.064155182   -3.2213189      1.49851   417528 
 6231000   0.95047904   -3.2231161   -1.7238478  0.063490722   -3.2231161    1.4992683   417521 
 6232000   0.95024912   -3.2237815   -1.7248544  0.058299517   -3.2237815    1.4989272   417515 
 6233000   0.95100524   -3.2245685   -1.7244235   0.06357027   -3.2245685     1.500145   417508 
 6234000   0.94986386   -3.2234526   -1.7250829  0.066854541   -3.2234526    1.4983697   417501 
 6235000   0.94869974   -3.2199183   -1.7233635  0.063282911   -3.2199183    1.4965548   417495 
 6236000   0.95015814   -3.2217634   -1.7228828  0.060973624   -3.2217634    1.4988806   417488 
 6237000   0.94935758   -3.2219122   -1.7242695  0.059780211   -3.2219122    1.4976428   417481 
 6238000   0.94889033   -3.2210737   -1.7241465  0.068303454   -3.2210737    1.4969272   417475 
 6239000   0.95077982   -3.2246008   -1.7246677  0.061049217   -3.2246008    1.4999331   417468 
 6240000   0.94979199   -3.2231728   -1.7247729  0.064920144   -3.2231728    1.4983999   417461 
 6241000   0.94883456   -3.2224672   -1.7255563  0.064283881   -3.2224672    1.4969109   417455 
 6242000   0.95107986   -3.2243976   -1.7239193   0.06323024   -3.2243976    1.5004784   417448 
 6243000     0.949288   -3.2214473   -1.7237707   0.06415979   -3.2214473    1.4976765   417441 
 6244000   0.94873187   -3.2213519   -1.7245313  0.059499657   -3.2213519    1.4968206   417435 
 6245000   0.94781906   -3.2211094   -1.7257038  0.056890631   -3.2211094    1.4954056   417428 
 6246000   0.94900087   -3.2223137   -1.7250184  0.060368959   -3.2223137    1.4972953   417421 
 6247000    0.9480122   -3.2211187   -1.7253619  0.061724176   -3.2211187    1.4957569   417415 
 6248000   0.94897292   -3.2216332   -1.7243354  0.063776669   -3.2216332    1.4972978   417408 
 6249000   0.94884989   -3.2215002   -1.7243715  0.059686944   -3.2215002    1.4971288   417401 
 6250000   0.94970643    -3.221889   -1.7233872  0.064236225    -3.221889    1.4985018   417395 
 6251000   0.95039769   -3.2213427   -1.7217251  0.061885121   -3.2213427    1.4996177   417388 
 6252000   0.95011028   -3.2204878   -1.7212985  0.064717058   -3.2204878    1.4991893   417381 
 6253000   0.95045363     -3.22012   -1.7203674  0.064346161     -3.22012    1.4997526   417375 
 6254000   0.94986964   -3.2200531   -1.7211969  0.064763096   -3.2200531    1.4988563   417368 
 6255000   0.95072571   -3.2219123     -1.72168  0.060278817   -3.2219123    1.5002323   417361 
 6256000   0.94884464   -3.2192212   -1.7219357  0.066110255   -3.2192212    1.4972855   417355 
 6257000   0.94709494   -3.2165945    -1.722045  0.060451071   -3.2165945    1.4945495   417348 
 6258000   0.94897381   -3.2182693   -1.7207298  0.065015021   -3.2182693    1.4975396   417341 
 6259000   0.94857447   -3.2187869    -1.721856  0.058756793   -3.2187869    1.4969309   417335 
 6260000   0.94774092   -3.2171372   -1.7214967  0.060200872   -3.2171372    1.4956406   417328 
 6261000   0.94921587   -3.2187848   -1.7207915  0.061045283   -3.2187848    1.4979933   417321 
 6262000   0.94857622   -3.2160673   -1.7190619  0.063974185   -3.2160673    1.4970054   417315 
 6263000   0.94992985   -3.2183147   -1.7191479  0.059740162   -3.2183147    1.4991668   417308 
 6264000    0.9486173   -3.2156204   -1.7184999  0.062849485   -3.2156204    1.4971205   417301 
 6265000   0.94864301   -3.2161109   -1.7189283  0.061381234   -3.2161109    1.4971826   417295 
 6266000   0.94875382   -3.2161307   -1.7187482  0.058770811   -3.2161307    1.4973826   417288 
 6267000   0.94902406   -3.2160008   -1.7181666  0.056227674   -3.2160008    1.4978342   417281 
 6268000   0.94842363   -3.2153506   -1.7184426  0.065316772   -3.2153506    1.4969081   417275 
 6269000    0.9483549   -3.2149444   -1.7181197  0.062024265   -3.2149444    1.4968247   417268 
 6270000   0.94698688   -3.2146444   -1.7199538  0.058303894   -3.2146444    1.4946906   417261 
 6271000   0.94854556    -3.215476   -1.7183037  0.060330489    -3.215476    1.4971723   417255 
 6272000   0.94646918   -3.2148166   -1.7208966  0.062512263   -3.2148166      1.49392   417248 
 6273000   0.94761598   -3.2162905   -1.7205353  0.054668429   -3.2162905    1.4957552   417241 
 6274000   0.94648168   -3.2134765   -1.7194902  0.061628185   -3.2134765    1.4939863   417235 
 6275000   0.94679199   -3.2163226   -1.7218215  0.058817976   -3.2163226    1.4945012   417228 
 6276000   0.94593369   -3.2151968   -1.7220254  0.061079523   -3.2151968    1.4931714   417221 
 6277000   0.94769965   -3.2188005     -1.72282  0.054999355   -3.2188005    1.4959805   417215 
 6278000   0.94664044   -3.2172055   -1.7228719  0.057912357   -3.2172055    1.4943336   417208 
 6279000   0.94642038   -3.2168011   -1.7227898  0.059528836   -3.2168011    1.4940113   417201 
 6280000   0.94680266   -3.2179243   -1.7232881  0.063955096   -3.2179243    1.4946362   417195 
 6281000   0.94809585   -3.2198221   -1.7231193  0.054415732   -3.2198221    1.4967028   417188 
 6282000    0.9479444   -3.2191042   -1.7226154  0.056319122   -3.2191042    1.4964888   417181 
 6283000   0.94861604   -3.2205043   -1.7229337   0.06467916   -3.2205043    1.4975707   417175 
 6284000   0.95022689   -3.2226174   -1.7224785  0.062803279   -3.2226174    1.5001389   417168 
 6285000   0.95050855   -3.2227527    -1.722144  0.061318655   -3.2227527    1.5006087   417161 
 6286000   0.94931321   -3.2215569   -1.7228138  0.059276923   -3.2215569    1.4987431   417155 
 6287000   0.95014462   -3.2231597   -1.7230788   0.06102127   -3.2231597    1.5000809   417148 
 6288000   0.94957301   -3.2239587   -1.7247551   0.06529182   -3.2239587    1.4992036   417141 
 6289000   0.94913633   -3.2238308   -1.7252951  0.066131385   -3.2238308    1.4985357   417135 
 6290000   0.94857745   -3.2241781   -1.7264996  0.066337553   -3.2241781    1.4976785   417128 
 6291000   0.94891499   -3.2245057   -1.7262692  0.061318855   -3.2245057    1.4982365   417121 
 6292000   0.94844218   -3.2243372   -1.7268257  0.067335148   -3.2243372    1.4975116   417115 
 6293000   0.94838396   -3.2247701   -1.7273253  0.060735081   -3.2247701    1.4974448   417108 
 6294000   0.94736751   -3.2226545   -1.7267895  0.061223086   -3.2226545     1.495865   417101 
 6295000   0.94816283   -3.2236696   -1.7265273  0.065550265   -3.2236696    1.4971423   417095 
 6296000   0.94664025   -3.2239315   -1.7291683  0.058822167   -3.2239315    1.4947632   417088 
 6297000   0.94690891   -3.2249905   -1.7297779  0.058207063   -3.2249905    1.4952125   417081 
 6298000   0.94776137   -3.2272196   -1.7306395  0.059483295   -3.2272196    1.4965801   417075 
 6299000   0.94617719   -3.2246257   -1.7305221  0.062447819   -3.2246257    1.4941037   417068 
 6300000   0.94757997   -3.2237802   -1.7274363  0.061435174   -3.2237802    1.4963439   417061 
 6301000   0.94863644   -3.2250007   -1.7269669  0.056566124   -3.2250007    1.4980338   417055 
 6302000   0.94855015   -3.2263819   -1.7284592  0.059244234   -3.2263819    1.4979226   417048 
 6303000   0.94834051   -3.2254333   -1.7278166  0.058009626   -3.2254333    1.4976167   417041 
 6304000     0.947133   -3.2231854   -1.7274541  0.063184302   -3.2231854    1.4957314   417035 
 6305000   0.94742732   -3.2238137   -1.7275924  0.062799318   -3.2238137    1.4962213   417028 
 6306000   0.94624838   -3.2201477   -1.7257632  0.063182927   -3.2201477    1.4943845   417021 
 6307000   0.94845962   -3.2229943   -1.7250961  0.061384757   -3.2229943    1.4978982   417015 
 6308000   0.94877028   -3.2217345   -1.7233205  0.061121249   -3.2217345     1.498414   417008 
 6309000   0.94763142   -3.2206149   -1.7239744  0.060863924   -3.2206149    1.4966405   417001 
 6310000   0.94653436   -3.2202372   -1.7253079  0.059272617   -3.2202372    1.4949294   416995 
 6311000   0.94667734   -3.2224233    -1.727243   0.05987369   -3.2224233    1.4951803   416988 
 6312000   0.94700842   -3.2218474   -1.7261191  0.061869459   -3.2218474    1.4957283   416981 
 6313000   0.94622242   -3.2207501   -1.7262418   0.05900826   -3.2207501    1.4945084   416975 
 6314000   0.94722614   -3.2202479   -1.7241291  0.064156379   -3.2202479    1.4961188   416968 
 6315000   0.94722856   -3.2211853   -1.7250375  0.058097888   -3.2211853    1.4961477   416961 
 6316000   0.94635099   -3.2172153   -1.7224321  0.061681788   -3.2172153    1.4947831   416955 
 6317000   0.94820032   -3.2196446   -1.7219153  0.059042204   -3.2196446    1.4977293   416948 
 6318000   0.94730099   -3.2180082   -1.7216743  0.054588361   -3.2180082    1.4963339   416941 
 6319000   0.94786722   -3.2201609   -1.7229111  0.058929173   -3.2201609    1.4972499   416935 
 6320000   0.94824359   -3.2207038   -1.7228342  0.063735083   -3.2207038    1.4978695   416928 
 6321000   0.94755812   -3.2215114   -1.7246995   0.05488554   -3.2215114    1.4968119   416921 
 6322000    0.9476396   -3.2210495   -1.7240874  0.059807858   -3.2210495    1.4969621   416915 
 6323000   0.94641747   -3.2188587    -1.723802  0.062291064   -3.2188587    1.4950567   416908 
 6324000   0.94585815   -3.2185044   -1.7243062  0.062057199   -3.2185044    1.4941982   416901 
 6325000   0.94580227    -3.218902   -1.7247706  0.054395762    -3.218902    1.4941314   416895 
 6326000    0.9467325    -3.220594    -1.724968  0.055852606    -3.220594    1.4956261   416888 
 6327000   0.94578833   -3.2207662   -1.7266066  0.057381564   -3.2207662    1.4941596   416881 
 6328000   0.94599991   -3.2212929   -1.7267775  0.058481731   -3.2212929    1.4945153   416875 
 6329000   0.94545304    -3.221105   -1.7274286  0.062499037    -3.221105    1.4936765   416868 
 6330000   0.94465595   -3.2197551   -1.7273128  0.059028538   -3.2197551    1.4924422   416861 
 6331000   0.94730932   -3.2231366   -1.7264808  0.062641173   -3.2231366    1.4966558   416855 
 6332000   0.94789262   -3.2234255    -1.725823  0.064046416   -3.2234255    1.4976025   416848 
 6333000   0.94857023   -3.2238008   -1.7251026  0.064442537   -3.2238008    1.4986982   416841 
 6334000   0.95011726   -3.2266777   -1.7255137  0.065081325   -3.2266777    1.5011641   416835 
 6335000   0.94867206   -3.2244201   -1.7255142  0.063619278   -3.2244201    1.4989059   416828 
 6336000   0.94945515   -3.2251472   -1.7249789   0.06586377   -3.2251472    1.5001683   416821 
 6337000   0.94842432    -3.224983   -1.7264218  0.068075054    -3.224983    1.4985612   416815 
 6338000   0.95009007   -3.2264085   -1.7251901  0.065639035   -3.2264085    1.5012184   416808 
 6339000   0.94892025   -3.2257155   -1.7263204  0.064120101   -3.2257155    1.4993951   416801 
 6340000     0.948107   -3.2259237    -1.727792  0.056845211   -3.2259237    1.4981317   416795 
 6341000   0.94754771   -3.2253458   -1.7280728  0.059625896   -3.2253458    1.4972731   416788 
 6342000   0.94751395   -3.2243321   -1.7270872  0.061672993   -3.2243321    1.4972449   416781 
 6343000   0.94689777   -3.2251205   -1.7288278  0.063212454   -3.2251205    1.4962927   416775 
 6344000   0.94642833   -3.2236755   -1.7280994  0.067375029   -3.2236755     1.495576   416768 
 6345000   0.94780204   -3.2255912   -1.7278192  0.063024047   -3.2255912     1.497772   416761 
 6346000   0.94744776   -3.2248901   -1.7276564  0.061226929   -3.2248901    1.4972337   416755 
 6347000    0.9468218   -3.2227275   -1.7264579  0.064185504   -3.2227275    1.4962696   416748 
 6348000   0.94621284   -3.2221265   -1.7267941  0.066979634   -3.2221265    1.4953324   416741 
 6349000   0.94820886   -3.2248224   -1.7263141  0.059905457   -3.2248224    1.4985083   416735 
 6350000    0.9483688   -3.2244191   -1.7256329  0.062911836   -3.2244191    1.4987863   416728 
 6351000   0.94692275   -3.2235302   -1.7270041  0.060313446   -3.2235302    1.4965261   416721 
 6352000   0.94533076   -3.2203751   -1.7263435  0.059611666   -3.2203751    1.4940316   416715 
 6353000   0.94578844   -3.2208397   -1.7260597  0.062934281   -3.2208397    1.4947801   416708 
 6354000   0.94577648   -3.2206464   -1.7258602  0.064282045   -3.2206464    1.4947863   416701 
 6355000   0.94498095   -3.2196214    -1.726071   0.06249783   -3.2196214    1.4935504   416695 
 6356000   0.94542418   -3.2211013   -1.7268253  0.059886384   -3.2211013    1.4942761   416688 
 6357000   0.94680905   -3.2211321   -1.7246421   0.05559085   -3.2211321    1.4964901   416681 
 6358000   0.94579098   -3.2190765    -1.724174  0.057697938   -3.2190765    1.4949025   416675 
 6359000   0.94660787   -3.2209275   -1.7247088  0.062623243   -3.2209275    1.4962188   416668 
 6360000   0.94785623   -3.2213136   -1.7230965  0.055350537   -3.2213136    1.4982171   416661 
 6361000   0.94703945   -3.2196403   -1.7226927  0.060069665   -3.2196403    1.4969476   416655 
 6362000   0.94780537   -3.2204678   -1.7222843   0.05991838   -3.2204678    1.4981835   416648 
 6363000   0.94748773   -3.2196304   -1.7219238  0.066053231   -3.2196304    1.4977065   416641 
 6364000   0.94766784   -3.2200841   -1.7220713  0.063720202   -3.2200841    1.4980128   416635 
 6365000   0.94704867   -3.2190871   -1.7220279  0.064939597   -3.2190871    1.4970592   416628 
 6366000   0.94851461   -3.2200232   -1.7206215  0.064426788   -3.2200232    1.4994017   416621 
 6367000   0.94556117    -3.217999   -1.7232445  0.064542478    -3.217999    1.4947545   416615 
 6368000   0.94600002   -3.2196388   -1.7241654  0.063919183   -3.2196388    1.4954733   416608 
 6369000   0.94692883   -3.2203818   -1.7234151  0.060443836   -3.2203818    1.4969668   416601 
 6370000   0.94712477   -3.2204501    -1.723152  0.061128568   -3.2204501    1.4972981   416595 
 6371000   0.94543051   -3.2185233   -1.7238785  0.061532708   -3.2185233    1.4946448   416588 
 6372000   0.94644508   -3.2194613   -1.7231874  0.063033951   -3.2194613    1.4962739   416581 
 6373000   0.94699354   -3.2183107   -1.7211481  0.064608859   -3.2183107    1.4971625   416575 
 6374000    0.9473706   -3.2199953   -1.7222115  0.061117336   -3.2199953    1.4977838   416568 
 6375000   0.94761754    -3.220868   -1.7226686  0.058950233    -3.220868    1.4981994   416561 
 6376000   0.94807228   -3.2193162   -1.7203763  0.063478529   -3.2193162    1.4989399   416555 
 6377000    0.9478647   -3.2217226   -1.7230857  0.062112825   -3.2217226    1.4986369   416548 
 6378000   0.94651568   -3.2192897   -1.7227605  0.065011196   -3.2192897    1.4965292   416541 
 6379000    0.9464625   -3.2206415   -1.7241748  0.058776227   -3.2206415    1.4964667   416535 
 6380000   0.94551802   -3.2197046   -1.7247061  0.059467314   -3.2197046    1.4949984   416528 
 6381000   0.94627689   -3.2213872   -1.7251637  0.056923547   -3.2213872    1.4962235   416521 
 6382000   0.94582732   -3.2211768   -1.7256426  0.063096397   -3.2211768    1.4955342   416515 
 6383000   0.94782429    -3.223846   -1.7251291  0.059654704    -3.223846     1.498717   416508 
 6384000   0.94711933   -3.2217941   -1.7241666   0.06262797   -3.2217941    1.4976274   416501 
 6385000   0.94629162   -3.2216932    -1.725353  0.060625166   -3.2216932    1.4963402   416495 
 6386000    0.9477334   -3.2242081   -1.7255629   0.05974791   -3.2242081    1.4986452   416488 
 6387000   0.94873345    -3.224171   -1.7239192  0.063093865    -3.224171    1.5002518   416481 
 6388000   0.94849299    -3.224474   -1.7245809  0.065408588    -3.224474    1.4998932   416475 
 6389000   0.94759393   -3.2221923   -1.7236957  0.064463958   -3.2221923    1.4984966   416468 
 6390000   0.94813215   -3.2242131   -1.7248402  0.065409918   -3.2242131    1.4993729   416461 
 6391000   0.94725581   -3.2211463   -1.7231376  0.065140031   -3.2211463    1.4980087   416455 
 6392000   0.94778923   -3.2227626   -1.7238851  0.065034726   -3.2227626    1.4988774   416448 
 6393000   0.94880445   -3.2228857   -1.7223775  0.061771457   -3.2228857    1.5005082   416441 
 6394000   0.94850751   -3.2255591    -1.725499  0.064795823   -3.2255591    1.5000602   416435 
 6395000   0.94753558   -3.2217926   -1.7232443  0.068964591   -3.2217926    1.4985483   416428 
 6396000    0.9483393   -3.2252075   -1.7253629  0.060610257   -3.2252075    1.4998446   416421 
 6397000   0.94667638   -3.2229585   -1.7257223   0.05684839   -3.2229585    1.4972362   416415 
 6398000   0.94636422    -3.223742   -1.7269744  0.056594683    -3.223742    1.4967676   416408 
 6399000   0.94707574   -3.2229354   -1.7250173  0.059930573   -3.2229354    1.4979181   416401 
 6400000   0.94700306   -3.2231809   -1.7253561  0.058958472   -3.2231809    1.4978248   416395 
 6401000   0.94608648   -3.2226128   -1.7262126  0.055147527   -3.2226128    1.4964002   416388 
 6402000   0.94568251   -3.2221188   -1.7263324  0.058045399   -3.2221188    1.4957864   416381 
 6403000   0.94576778   -3.2217764   -1.7258335  0.062528464   -3.2217764    1.4959428   416375 
 6404000   0.94531508   -3.2225758   -1.7273238  0.059819832   -3.2225758    1.4952519   416368 
 6405000   0.94503966   -3.2226927   -1.7278513    0.0618445   -3.2226927    1.4948414   416361 
 6406000   0.94603033   -3.2224849   -1.7260549   0.06472401   -3.2224849      1.49643   416355 
 6407000   0.94842531   -3.2246213   -1.7243777  0.059559599   -3.2246213    1.5002436   416348 
 6408000   0.94767194   -3.2235301    -1.724453  0.064038166   -3.2235301    1.4990771   416341 
 6409000   0.94706209   -3.2216521   -1.7235181   0.06297071   -3.2216521     1.498134   416335 
 6410000   0.94791761   -3.2216118   -1.7220992  0.063606169   -3.2216118    1.4995126   416328 
 6411000    0.9471308   -3.2224067   -1.7241136  0.063669919   -3.2224067    1.4982931   416321 
 6412000    0.9460304   -3.2214096   -1.7248358  0.064388565   -3.2214096    1.4965739   416315 
 6413000   0.94764869   -3.2245677   -1.7254085  0.061758724   -3.2245677    1.4991592   416308 
 6414000   0.94676386    -3.223396   -1.7256115  0.058860089    -3.223396    1.4977846   416301 
 6415000   0.94536772   -3.2211475   -1.7255501  0.061187599   -3.2211475    1.4955974   416295 
 6416000   0.94603917   -3.2224661   -1.7257813  0.062856921   -3.2224661    1.4966848   416288 
 6417000   0.94778278   -3.2231886     -1.72372   0.06533543   -3.2231886    1.4994685   416281 
 6418000   0.94533562   -3.2213684   -1.7257499  0.055662534   -3.2213684    1.4956185   416275 
 6419000   0.94568508   -3.2221697   -1.7259732  0.060219401   -3.2221697    1.4961965   416268 
 6420000   0.94483513   -3.2200324   -1.7251555  0.062502168   -3.2200324    1.4948769   416261 
 6421000   0.94545011   -3.2222043   -1.7263328  0.061574212   -3.2222043    1.4958715   416255 
 6422000   0.94702247   -3.2234931   -1.7251087  0.062502401   -3.2234931    1.4983844   416248 
 6423000   0.94718455   -3.2232632   -1.7245972  0.062031386   -3.2232632    1.4986661   416241 
 6424000   0.94567779   -3.2209413   -1.7246377  0.063054614   -3.2209413    1.4963036   416235 
 6425000   0.94666142   -3.2221158   -1.7242306  0.064695715   -3.2221158    1.4978852   416228 
 6426000   0.94650524   -3.2233732     -1.72571  0.064297541   -3.2233732    1.4976632   416221 
 6427000   0.94543317    -3.222134   -1.7261456  0.067281936    -3.222134    1.4959884   416215 
 6428000   0.94646314   -3.2230176   -1.7253742  0.064005075   -3.2230176    1.4976434   416208 
 6429000   0.94505662   -3.2224732   -1.7270303   0.06168653   -3.2224732    1.4954429   416201 
 6430000   0.94501854   -3.2226355   -1.7272312  0.061316068   -3.2226355    1.4954042   416195 
 6431000    0.9456223   -3.2212314   -1.7248466  0.066893717   -3.2212314    1.4963848   416188 
 6432000   0.94562658   -3.2223977    -1.725981  0.058352096   -3.2223977    1.4964167   416181 
 6433000   0.94721034   -3.2242368   -1.7252923  0.070129871   -3.2242368    1.4989446   416175 
 6434000   0.94897644   -3.2261443   -1.7243796  0.060375624   -3.2261443    1.5017647   416168 
 6435000    0.9477582   -3.2240752   -1.7242132  0.063410888   -3.2240752     1.499862   416161 
 6436000   0.94870935   -3.2245404   -1.7231515  0.065038896   -3.2245404    1.5013889   416155 
 6437000   0.94905304   -3.2248539   -1.7228959  0.060393476   -3.2248539     1.501958   416148 
 6438000   0.94739345    -3.224966   -1.7256092   0.06446504    -3.224966    1.4993568   416141 
 6439000   0.94894041   -3.2267654   -1.7249387   0.06123897   -3.2267654    1.5018267   416135 
 6440000   0.94690479   -3.2243802   -1.7257499  0.063730927   -3.2243802    1.4986303   416128 
 6441000   0.94588267   -3.2229155   -1.7258777  0.067544734   -3.2229155    1.4970378   416121 
 6442000   0.94569477   -3.2236042   -1.7268422  0.062935559   -3.2236042     1.496762   416115 
 6443000   0.94639932   -3.2240398   -1.7261375  0.056773222   -3.2240398    1.4979023   416108 
 6444000   0.94455229   -3.2214579   -1.7264538  0.059614021   -3.2214579    1.4950041   416101 
 6445000   0.94654018   -3.2237656   -1.7255936  0.058657012   -3.2237656     1.498172   416095 
 6446000   0.94527263   -3.2229595   -1.7267685  0.054326172   -3.2229595     1.496191   416088 
 6447000   0.94524846   -3.2232212   -1.7270433  0.059313371   -3.2232212    1.4961779   416081 
 6448000   0.94420578   -3.2204208   -1.7258718  0.062817115   -3.2204208     1.494549   416075 
 6449000   0.94578697   -3.2222054   -1.7251284    0.0606365   -3.2222054     1.497077   416068 
 6450000   0.94418005   -3.2206475    -1.726089  0.064510237   -3.2206475    1.4945586   416061 
 6451000   0.94353682    -3.221194   -1.7276321   0.05759164    -3.221194    1.4935619   416055 
 6452000   0.94413307   -3.2215263   -1.7269954  0.054203628   -3.2215263    1.4945309   416048 
 6453000   0.94536576   -3.2221622   -1.7256548  0.057658008   -3.2221622    1.4965074   416041 
 6454000   0.94473993   -3.2223016   -1.7267633  0.064652003   -3.2223016    1.4955383   416035 
 6455000   0.94500606   -3.2234562   -1.7274715   0.06180603   -3.2234562    1.4959847   416028 
 6456000   0.94494416   -3.2217481   -1.7258361  0.060154966   -3.2217481    1.4959119   416021 
 6457000   0.94620481   -3.2232731   -1.7253439  0.059462438   -3.2232731    1.4979292   416015 
 6458000   0.94504293   -3.2225468   -1.7264318  0.063739997   -3.2225468     1.496115   416008 
 6459000   0.94531681   -3.2215942   -1.7250204  0.059661957   -3.2215942    1.4965738   416001 
 6460000   0.94516049   -3.2208553   -1.7245074  0.063055352   -3.2208553    1.4963479   415995 
 6461000   0.94660612   -3.2244577   -1.7257959  0.057383363   -3.2244577    1.4986618   415988 
 6462000   0.94516706   -3.2238959   -1.7274872  0.064611939   -3.2238959    1.4964087   415981 
 6463000   0.94556727   -3.2222139   -1.7251501  0.056467109   -3.2222139    1.4970639   415975 
 6464000   0.94540859   -3.2236103   -1.7267724  0.062451475   -3.2236103    1.4968378   415968 
 6465000    0.9463997   -3.2247532    -1.726321  0.061963928   -3.2247532    1.4984323   415961 
 6466000   0.94525458    -3.223821   -1.7271802  0.060414061    -3.223821    1.4966408   415955 
 6467000   0.94527263   -3.2235507   -1.7268561  0.064484396   -3.2235507    1.4966945   415948 
 6468000   0.94658268   -3.2247023   -1.7259083  0.057025927   -3.2247023     1.498794   415941 
 6469000   0.94602003   -3.2236898    -1.725765  0.061034711   -3.2236898    1.4979248   415935 
 6470000   0.94629595    -3.225618   -1.7272312  0.064599798    -3.225618    1.4983869   415928 
 6471000   0.94500734   -3.2226516     -1.72628  0.064158191   -3.2226516    1.4963716   415921 
 6472000   0.94575519   -3.2242302   -1.7266528   0.06083983   -3.2242302    1.4975774   415915 
 6473000    0.9462067   -3.2228548   -1.7245372  0.064362927   -3.2228548    1.4983176   415908 
 6474000   0.94405978   -3.2212615   -1.7263184  0.063761136   -3.2212615    1.4949431   415901 
 6475000   0.94495631   -3.2209265   -1.7245422  0.067668711   -3.2209265    1.4963844   415895 
 6476000   0.94475966   -3.2218335   -1.7257353  0.054915399   -3.2218335    1.4960981   415888 
 6477000   0.94486672   -3.2220447   -1.7257519  0.059407285   -3.2220447    1.4962929   415881 
 6478000   0.94298692   -3.2192064   -1.7258689  0.061022031   -3.2192064    1.4933376   415875 
 6479000   0.94595713   -3.2221601   -1.7240937  0.058491583   -3.2221601    1.4980665   415868 
 6480000   0.94699991   -3.2230688   -1.7233257  0.061239975   -3.2230688    1.4997431   415861 
 6481000   0.94578819   -3.2203034   -1.7224576  0.062768331   -3.2203034    1.4978457   415855 
 6482000   0.94528065   -3.2202231   -1.7231559  0.063251131   -3.2202231    1.4970672   415848 
 6483000   0.94567793   -3.2215019   -1.7237803  0.062347609   -3.2215019    1.4977215   415841 
 6484000    0.9461941   -3.2229322   -1.7243716   0.05754628   -3.2229322    1.4985607   415835 
 6485000   0.94543583   -3.2211726   -1.7237877  0.060701274   -3.2211726    1.4973849   415828 
 6486000   0.94507958   -3.2207339    -1.723888  0.058459753   -3.2207339    1.4968459   415821 
 6487000   0.94450837   -3.2203033   -1.7243405  0.063310061   -3.2203033    1.4959628   415815 
 6488000   0.94400436   -3.2196599   -1.7244702  0.061007524   -3.2196599    1.4951897   415808 
 6489000   0.94617415   -3.2197928   -1.7211412  0.062698822   -3.2197928    1.4986516   415801 
 6490000   0.94616486   -3.2206585       -1.722  0.060922032   -3.2206585    1.4986585   415795 
 6491000   0.94531686   -3.2190968   -1.7217562  0.068274158   -3.2190968    1.4973405   415788 
 6492000    0.9456979   -3.2189156   -1.7209463  0.064124482   -3.2189156    1.4979693   415781 
 6493000   0.94595889   -3.2192641   -1.7208597  0.060872128   -3.2192641    1.4984043   415775 
 6494000   0.94537876   -3.2180024   -1.7204918  0.066985872   -3.2180024    1.4975106   415768 
 6495000   0.94745908   -3.2206722    -1.719841  0.063927798   -3.2206722    1.5008312   415761 
 6496000   0.94526685   -3.2191049   -1.7217248   0.05602413   -3.2191049    1.4973802   415755 
 6497000       0.9454   -3.2188551   -1.7212388  0.064964063   -3.2188551    1.4976163   415748 
 6498000   0.94529892   -3.2196082   -1.7221268  0.059650334   -3.2196082    1.4974814   415741 
 6499000   0.94510427   -3.2191074   -1.7219128  0.057706657   -3.2191074    1.4971947   415735 
 6500000   0.94502178   -3.2198299   -1.7227407  0.060761807   -3.2198299    1.4970892   415728 
 6501000   0.94406828    -3.217659   -1.7220552  0.062993155    -3.217659    1.4956039   415721 
 6502000   0.94452511   -3.2206318   -1.7242826  0.057787216   -3.2206318    1.4963492   415715 
 6503000   0.94351498   -3.2185938   -1.7238198  0.057807435   -3.2185938     1.494774   415708 
 6504000   0.94322818   -3.2184696   -1.7241248  0.061493509   -3.2184696    1.4943448   415701 
 6505000   0.94437679   -3.2203982   -1.7242121  0.056700611   -3.2203982    1.4961862   415695 
 6506000   0.94454042   -3.2199375   -1.7234668  0.059228184   -3.2199375    1.4964706   415688 
 6507000   0.94488796   -3.2212262   -1.7241798   0.05763389   -3.2212262    1.4970464   415681 
 6508000   0.94555287   -3.2227552   -1.7246337   0.05668162   -3.2227552    1.4981215   415675 
 6509000   0.94519632   -3.2210384   -1.7234566  0.062065388   -3.2210384    1.4975818   415668 
 6510000   0.94497975   -3.2211498   -1.7238859  0.067556059   -3.2211498    1.4972639   415661 
 6511000   0.94670606   -3.2236745   -1.7236537  0.059543038   -3.2236745    1.5000208   415655 
 6512000   0.94520404   -3.2227971   -1.7251309  0.058947628   -3.2227971    1.4976661   415648 
 6513000   0.94584745   -3.2239543   -1.7252435   0.06954796   -3.2239543    1.4987108   415641 
 6514000   0.94511863   -3.2236423   -1.7260647  0.063407132   -3.2236423    1.4975776   415635 
 6515000   0.94739028   -3.2261253   -1.7249229  0.061272339   -3.2261253    1.5012024   415628 
 6516000   0.94599109   -3.2246069   -1.7255963  0.060379833   -3.2246069    1.4990106   415621 
 6517000   0.94432305    -3.222164    -1.725775  0.060373515    -3.222164     1.496389   415615 
 6518000   0.94454367   -3.2238448    -1.727081  0.060840384   -3.2238448    1.4967638   415608 
 6519000   0.94480336   -3.2245828   -1.7273822  0.057473687   -3.2245828    1.4972005   415601 
 6520000   0.94370211   -3.2241978   -1.7287208  0.063878481   -3.2241978     1.495477   415595 
 6521000   0.94293315   -3.2230447    -1.728761  0.059148593   -3.2230447    1.4942836   415588 
 6522000   0.94272393   -3.2223667   -1.7283895  0.063989493   -3.2223667    1.4939772   415581 
 6523000   0.94403229   -3.2236576   -1.7275853  0.061771025   -3.2236576    1.4960723   415575 
 6524000   0.94381553   -3.2254856   -1.7297316   0.06141499   -3.2254856    1.4957539   415568 
 6525000   0.94501479   -3.2266116   -1.7289319   0.06253449   -3.2266116    1.4976797   415561 
 6526000   0.94472365   -3.2257211   -1.7284812  0.064106749   -3.2257211      1.49724   415555 
 6527000   0.94520566   -3.2244933   -1.7264643  0.063042196   -3.2244933    1.4980291   415548 
 6528000   0.94513453   -3.2247191   -1.7267775  0.060460422   -3.2247191    1.4979416   415541 
 6529000   0.94569987   -3.2257116   -1.7268524   0.06404606   -3.2257116    1.4988593   415535 
 6530000   0.94554797   -3.2255901   -1.7269464  0.059104717   -3.2255901    1.4986437   415528 
 6531000   0.94555125   -3.2263618   -1.7276876  0.061461813   -3.2263618    1.4986742   415521 
 6532000   0.94606247   -3.2265173   -1.7270112  0.064677513   -3.2265173    1.4995061   415515 
 6533000   0.94489316   -3.2243426   -1.7266646  0.063086683   -3.2243426     1.497678   415508 
 6534000   0.94499541   -3.2244796   -1.7266143  0.064552499   -3.2244796    1.4978653   415501 
 6535000   0.94323916   -3.2218182   -1.7267151  0.058314929   -3.2218182    1.4951031   415495 
 6536000   0.94363253    -3.222228   -1.7264761  0.062404009    -3.222228    1.4957519   415488 
 6537000   0.94333657   -3.2219734   -1.7266655  0.056749724   -3.2219734    1.4953079   415481 
 6538000   0.94354701   -3.2202089   -1.7245458  0.057568156   -3.2202089    1.4956631   415475 
 6539000   0.94438318   -3.2221358    -1.725122  0.056158695   -3.2221358    1.4970138   415468 
 6540000   0.94413125   -3.2211859   -1.7245462  0.059716337   -3.2211859    1.4966396   415461 
 6541000   0.94352605   -3.2211979    -1.725496  0.060114684   -3.2211979    1.4957019   415455 
 6542000   0.94408988   -3.2208612   -1.7242403  0.062596689   -3.2208612    1.4966209   415448 
 6543000    0.9430603   -3.2207107   -1.7256968  0.053828598   -3.2207107    1.4950139   415441 
 6544000   0.94225434   -3.2180435   -1.7242857  0.058983262   -3.2180435    1.4937578   415435 
 6545000   0.94362912   -3.2197267   -1.7237642  0.061613573   -3.2197267    1.4959625   415428 
 6546000   0.94377641   -3.2203996   -1.7241784  0.056901112   -3.2203996    1.4962212   415421 
 6547000   0.94344999   -3.2196094   -1.7238841  0.061947255   -3.2196094    1.4957253   415415 
 6548000     0.943839   -3.2185368   -1.7221695  0.063785612   -3.2185368    1.4963673   415408 
 6549000   0.94309211    -3.217877   -1.7226687  0.064892659    -3.217877    1.4952083   415401 
 6550000   0.94383407   -3.2193181   -1.7229119   0.05861417   -3.2193181    1.4964063   415395 
 6551000   0.94338538   -3.2193588   -1.7236387  0.066860464   -3.2193588    1.4957201   415388 
 6552000   0.94378479   -3.2204302   -1.7240517  0.063603026   -3.2204302    1.4963786   415381 
 6553000    0.9441028   -3.2206867   -1.7237823  0.059222215   -3.2206867    1.4969044   415375 
 6554000   0.94478935   -3.2207918   -1.7227737  0.060925995   -3.2207918    1.4980182   415368 
 6555000   0.94431265   -3.2199084   -1.7226208  0.057721016   -3.2199084    1.4972876   415361 
 6556000   0.94303428   -3.2182317   -1.7229495  0.062151904   -3.2182317    1.4952822   415355 
 6557000   0.94231657   -3.2159743   -1.7218049  0.062124239   -3.2159743    1.4941694   415348 
 6558000   0.94352335   -3.2204099   -1.7243017  0.056709027   -3.2204099    1.4961081   415341 
 6559000   0.94363288   -3.2207381   -1.7244347  0.062875086   -3.2207381    1.4963034   415335 
 6560000    0.9448945   -3.2221238   -1.7237946  0.061210229   -3.2221238    1.4983292   415328 
 6561000   0.94457518   -3.2215003   -1.7236522  0.067245542   -3.2215003    1.4978481   415321 
 6562000   0.94617258   -3.2233307   -1.7229279  0.060163848   -3.2233307    1.5004028   415315 
 6563000   0.94603196   -3.2220554   -1.7218503  0.067501899   -3.2220554    1.5002051   415308 
 6564000     0.943834   -3.2195934   -1.7228486  0.064403581   -3.2195934    1.4967448   415301 
 6565000   0.94342267   -3.2216507   -1.7255365  0.056078476   -3.2216507    1.4961142   415295 
 6566000   0.94262489   -3.2211238   -1.7262496  0.065394118   -3.2211238    1.4948742   415288 
 6567000   0.94188228   -3.2211964   -1.7274746  0.064359271   -3.2211964    1.4937217   415281 
 6568000   0.94213649   -3.2206228   -1.7264764  0.058911602   -3.2206228    1.4941465   415275 
 6569000   0.94264497   -3.2204645   -1.7254865  0.065912946   -3.2204645    1.4949781   415268 
 6570000    0.9425749   -3.2197943   -1.7249021  0.057527297   -3.2197943    1.4948921   415261 
 6571000   0.94048975   -3.2168663   -1.7252596  0.063341417   -3.2168663    1.4916067   415255 
 6572000   0.94257385   -3.2202454   -1.7253081  0.063569105   -3.2202454    1.4949373   415248 
 6573000   0.94340322   -3.2209576   -1.7246797  0.059954222   -3.2209576    1.4962779   415241 
 6574000    0.9435939   -3.2207486   -1.7241467   0.06214798   -3.2207486    1.4966019   415235 
 6575000   0.94429631   -3.2215207   -1.7237795  0.060100723   -3.2215207    1.4977413   415228 
 6576000   0.94468982   -3.2237466    -1.725356  0.060065994   -3.2237466    1.4983907   415221 
 6577000   0.94468409   -3.2241553   -1.7257521  0.059301752   -3.2241553    1.4984032   415215 
 6578000   0.94375984   -3.2207768   -1.7238143  0.067125992   -3.2207768    1.4969625   415208 
 6579000   0.94408648    -3.221974   -1.7244682  0.062496975    -3.221974    1.4975058   415201 
 6580000   0.94466462   -3.2225371   -1.7240925  0.061224384   -3.2225371    1.4984445   415195 
 6581000    0.9441649   -3.2218903   -1.7242132  0.061029055   -3.2218903    1.4976771   415188 
 6582000   0.94352169   -3.2227071   -1.7260251  0.053598444   -3.2227071     1.496682   415181 
 6583000   0.94360039    -3.222603   -1.7257745  0.055301651    -3.222603    1.4968285   415175 
 6584000   0.94320599   -3.2218999   -1.7256718  0.062316899   -3.2218999    1.4962281   415168 
 6585000   0.94368038   -3.2230524   -1.7260465  0.062960912   -3.2230524    1.4970059   415161 
 6586000   0.94395615   -3.2230708   -1.7256058  0.059372062   -3.2230708     1.497465   415155 
 6587000   0.94420148   -3.2222422   -1.7243627    0.0640253   -3.2222422    1.4978794   415148 
 6588000   0.94407841   -3.2216595     -1.72395  0.064385467   -3.2216595    1.4977094   415141 
 6589000    0.9433376   -3.2223721   -1.7258163  0.059888566   -3.2223721    1.4965558   415135 
 6590000   0.94281557   -3.2218896   -1.7261367  0.065643852   -3.2218896    1.4957529   415128 
 6591000   0.94281222   -3.2221155   -1.7263427  0.055843402   -3.2221155    1.4957728   415121 
 6592000    0.9418303   -3.2213912   -1.7271547  0.057554852   -3.2213912    1.4942366   415115 
 6593000   0.94333537   -3.2236349   -1.7269852  0.058738416   -3.2236349    1.4966496   415108 
 6594000   0.94204596   -3.2203413   -1.7257121  0.058903598   -3.2203413    1.4946291   415101 
 6595000   0.94122671   -3.2222731   -1.7289222   0.05567267   -3.2222731    1.4933509   415095 
 6596000   0.94261992   -3.2228519   -1.7272653   0.06175562   -3.2228519    1.4955866   415088 
 6597000   0.94279811   -3.2218251   -1.7259306  0.060408475   -3.2218251    1.4958946   415081 
 6598000   0.94394954   -3.2243483   -1.7266052  0.062751706   -3.2243483    1.4977431   415075 
 6599000   0.94269713   -3.2231827   -1.7274015  0.062273948   -3.2231827    1.4957812   415068 
 6600000   0.94308651    -3.223328   -1.7269038  0.062026143    -3.223328    1.4964242   415061 
 6601000   0.94332209   -3.2239852   -1.7271655  0.057328623   -3.2239852    1.4968197   415055 
 6602000   0.94406403   -3.2240299   -1.7260077  0.062623421   -3.2240299    1.4980222   415048 
 6603000   0.94430836   -3.2233876   -1.7249524  0.060323045   -3.2233876    1.4984352   415041 
 6604000   0.94225446   -3.2224661   -1.7272684  0.058719318   -3.2224661    1.4951977   415035 
 6605000   0.94307706   -3.2240779   -1.7275496  0.060507059   -3.2240779    1.4965282   415028 
 6606000   0.94183808   -3.2228931   -1.7283057  0.062962578   -3.2228931    1.4945874   415021 
 6607000   0.94381703   -3.2248763   -1.7271269  0.062589876   -3.2248763    1.4977494   415015 
 6608000    0.9432913   -3.2235333    -1.726593  0.064682794   -3.2235333    1.4969403   415008 
 6609000    0.9422177    -3.222546   -1.7272841  0.063246256    -3.222546    1.4952618   415001 
 6610000   0.94335249   -3.2260327   -1.7289483  0.057929998   -3.2260327    1.4970843   414995 
 6611000   0.94279591   -3.2241635   -1.7279372  0.060683054   -3.2241635    1.4962263   414988 
 6612000   0.94292615   -3.2247692    -1.728311  0.062598013   -3.2247692    1.4964582   414981 
 6613000   0.94303385   -3.2246818    -1.728031  0.066805122   -3.2246818    1.4966508   414975 
 6614000    0.9443388   -3.2256389   -1.7268918  0.058354198   -3.2256389    1.4987471   414968 
 6615000   0.94450632   -3.2245764   -1.7255381  0.063192936   -3.2245764    1.4990383   414961 
 6616000    0.9445826   -3.2241913   -1.7250103  0.061888638   -3.2241913     1.499181   414955 
 6617000   0.94440922   -3.2251613   -1.7262301  0.059413766   -3.2251613    1.4989311   414948 
 6618000   0.94232676   -3.2224315   -1.7267804  0.064972199   -3.2224315    1.4956511   414941 
 6619000   0.94337153   -3.2258569   -1.7285259  0.058325357   -3.2258569     1.497331   414935 
 6620000   0.94399751   -3.2265324   -1.7281825  0.062653008   -3.2265324    1.4983499   414928 
 6621000   0.94288367   -3.2255372     -1.72893  0.068337074   -3.2255372    1.4966072   414921 
 6622000   0.94252952   -3.2249587    -1.728892  0.060516621   -3.2249587    1.4960667   414915 
 6623000   0.94279333   -3.2229011   -1.7263904  0.062788367   -3.2229011    1.4965107   414908 
 6624000   0.94401594   -3.2229808   -1.7245042  0.059604681   -3.2229808    1.4984766   414901 
 6625000   0.94435493   -3.2238371   -1.7248007   0.05996311   -3.2238371    1.4990364   414895 
 6626000   0.94354511   -3.2238667   -1.7260905  0.059959938   -3.2238667    1.4977762   414888 
 6627000   0.94248038   -3.2220156   -1.7259043  0.058739653   -3.2220156    1.4961113   414881 
 6628000   0.94282523   -3.2210875   -1.7244071  0.061969715   -3.2210875    1.4966804   414875 
 6629000    0.9437252   -3.2230963    -1.724962  0.055491088   -3.2230963    1.4981343   414868 
 6630000   0.94209314   -3.2215535   -1.7259848  0.059443016   -3.2215535    1.4955687   414861 
 6631000   0.94192796   -3.2206883   -1.7253602  0.062978649   -3.2206883    1.4953281   414855 
 6632000   0.94318605   -3.2226008   -1.7252502  0.060749913   -3.2226008    1.4973506   414848 
 6633000    0.9431471   -3.2214675   -1.7241534  0.066452414   -3.2214675     1.497314   414841 
 6634000   0.94180043   -3.2198049   -1.7246071  0.064224833   -3.2198049    1.4951977   414835 
 6635000   0.94121107   -3.2201621   -1.7258749  0.060142333   -3.2201621    1.4942873   414828 
 6636000   0.94220592   -3.2217117   -1.7258197  0.054613961   -3.2217117     1.495892   414821 
 6637000    0.9425368   -3.2225936   -1.7261547  0.058886051   -3.2225936    1.4964389   414815 
 6638000   0.94114849   -3.2205238   -1.7262639  0.065470682   -3.2205238    1.4942599   414808 
 6639000   0.94119298   -3.2190643   -1.7247085  0.061810653   -3.2190643    1.4943558   414801 
 6640000   0.94176035   -3.2201082   -1.7248299  0.064502941   -3.2201082    1.4952783   414795 
 6641000   0.94319036   -3.2230755   -1.7255015  0.057162856   -3.2230755     1.497574   414788 
 6642000   0.94279125   -3.2226121   -1.7256465  0.061697412   -3.2226121    1.4969656   414781 
 6643000   0.94108179   -3.2203757   -1.7261028  0.063143028   -3.2203757    1.4942729   414775 
 6644000    0.9412517   -3.2221845   -1.7276165    0.0655214   -3.2221845     1.494568   414768 
 6645000   0.94208642   -3.2237747   -1.7278561  0.060925332   -3.2237747    1.4959186   414761 
 6646000    0.9421524   -3.2230434   -1.7269984  0.064570425   -3.2230434     1.496045   414755 
 6647000    0.9418524   -3.2239684   -1.7283745  0.060203096   -3.2239684    1.4955939   414748 
 6648000   0.94201179   -3.2239665   -1.7280943  0.056264819   -3.2239665    1.4958722   414741 
 6649000   0.94207321   -3.2246269   -1.7286355  0.067088628   -3.2246269    1.4959914   414735 
 6650000   0.94233661   -3.2250743   -1.7286393  0.062794182   -3.2250743    1.4964349   414728 
 6651000   0.94253882   -3.2256609   -1.7288796  0.061037439   -3.2256609    1.4967813   414721 
 6652000   0.94369662   -3.2283202   -1.7296786  0.060170631   -3.2283202    1.4986416   414715 
 6653000    0.9445606   -3.2277773   -1.7277383  0.064369396   -3.2277773     1.500039   414708 
 6654000   0.94305134   -3.2256506   -1.7279831  0.059151102   -3.2256506    1.4976674   414701 
 6655000   0.94180807   -3.2245814   -1.7288667  0.058068607   -3.2245814    1.4957146   414695 
 6656000    0.9432085   -3.2277943   -1.7298304  0.059164713   -3.2277943     1.497964   414688 
 6657000   0.94157988   -3.2257347   -1.7303319  0.065286351   -3.2257347    1.4954027   414681 
 6658000   0.94291663   -3.2281329   -1.7305855  0.062633604   -3.2281329    1.4975474   414675 
 6659000   0.94167282   -3.2243622    -1.728765  0.065410908   -3.2243622    1.4955972   414668 
 6660000   0.94239602   -3.2271691    -1.730398  0.063201551   -3.2271691    1.4967711   414661 
 6661000   0.94165797    -3.225935   -1.7303145   0.06089333    -3.225935    1.4956205   414655 
 6662000   0.94089542    -3.224308   -1.7298734  0.060513888    -3.224308    1.4944346   414648 
 6663000   0.94257353   -3.2263948   -1.7292696   0.05258581   -3.2263948    1.4971252   414641 
 6664000   0.94212743   -3.2269728   -1.7305345   0.06169149   -3.2269728    1.4964383   414635 
 6665000   0.94144087   -3.2255992   -1.7302261  0.064673359   -3.2255992    1.4953731   414628 
 6666000   0.94246744   -3.2264759   -1.7294469  0.064336186   -3.2264759    1.4970289   414621 
 6667000     0.942166   -3.2257012   -1.7291294  0.062446104   -3.2257012    1.4965718   414615 
 6668000   0.94245787   -3.2256146   -1.7285539  0.062066017   -3.2256146    1.4970607   414608 
 6669000   0.94270984   -3.2265341   -1.7290479  0.061856081   -3.2265341    1.4974862   414601 
 6670000   0.94108751   -3.2244213   -1.7294905  0.061409192   -3.2244213    1.4949308   414595 
 6671000   0.94228614    -3.226351   -1.7294909  0.057598479    -3.226351    1.4968601   414588 
 6672000   0.94195249   -3.2259716   -1.7296163  0.056971887   -3.2259716    1.4963553   414581 
 6673000   0.94124944   -3.2248557   -1.7295956  0.062730621   -3.2248557    1.4952601   414575 
 6674000   0.94262405   -3.2273012   -1.7298321  0.059307684   -3.2273012    1.4974691   414568 
 6675000   0.94206896   -3.2261793   -1.7295668  0.065312685   -3.2261793    1.4966126   414561 
 6676000    0.9433141   -3.2269643   -1.7283519  0.065563684   -3.2269643    1.4986123   414555 
 6677000   0.94309824   -3.2270681   -1.7287734  0.064586557   -3.2270681    1.4982947   414548 
 6678000    0.9430646   -3.2261631   -1.7278966  0.063218633   -3.2261631    1.4982666   414541 
 6679000   0.94187428   -3.2245493   -1.7281521  0.062128439   -3.2245493    1.4963971   414535 
 6680000   0.94132687   -3.2251957    -1.729643  0.060914702   -3.2251957    1.4955527   414528 
 6681000   0.94095883   -3.2249647   -1.7299715  0.060203443   -3.2249647    1.4949932   414521 
 6682000   0.94164138   -3.2258162   -1.7297169  0.055705113   -3.2258162    1.4960993   414515 
 6683000   0.94232176   -3.2258467   -1.7286411   0.05901089   -3.2258467    1.4972056   414508 
 6684000   0.94136542     -3.22417   -1.7284586  0.059232585     -3.22417    1.4957113   414501 
 6685000   0.94154967   -3.2254845   -1.7294587  0.062346608   -3.2254845    1.4960258   414495 
 6686000     0.941708   -3.2256863   -1.7293837  0.066561234   -3.2256863    1.4963026   414488 
 6687000   0.94172216   -3.2264668   -1.7301165  0.058928618   -3.2264668    1.4963504   414481 
 6688000   0.94212807   -3.2267093   -1.7296923  0.060316785   -3.2267093     1.497017   414475 
 6689000   0.94186024   -3.2255222   -1.7289054  0.062679907   -3.2255222    1.4966167   414468 
 6690000   0.94304521   -3.2271963   -1.7286713  0.061270951   -3.2271963    1.4985249   414461 
 6691000    0.9414167   -3.2247878    -1.728829  0.064340914   -3.2247878    1.4959588   414455 
 6692000   0.94256914   -3.2264198   -1.7286044  0.060316577   -3.2264198    1.4978154   414448 
 6693000   0.94218369   -3.2253416   -1.7281134  0.059614796   -3.2253416    1.4972282   414441 
 6694000   0.94146139   -3.2234676   -1.7273655  0.066594666   -3.2234676    1.4961021   414435 
 6695000   0.94362393   -3.2268199    -1.727256  0.062947913   -3.2268199    1.4995639   414428 
 6696000   0.94173072   -3.2244711   -1.7278905  0.060589561   -3.2244711    1.4965806   414421 
 6697000   0.94101125      -3.2243   -1.7288411  0.063886131      -3.2243    1.4954589   414415 
 6698000   0.94316238   -3.2274513   -1.7285485  0.060220064   -3.2274513    1.4989028   414408 
 6699000   0.94169054   -3.2257423   -1.7291533  0.061846147   -3.2257423     1.496589   414401 
 6700000   0.94241358   -3.2257785   -1.7280188  0.062082949   -3.2257785    1.4977598   414395 
 6701000   0.94120001   -3.2248963   -1.7290399  0.067353868   -3.2248963    1.4958563   414388 
 6702000   0.94280676   -3.2278047   -1.7293694  0.062968764   -3.2278047    1.4984353   414381 
 6703000   0.94213561   -3.2253622   -1.7279719  0.052903282   -3.2253622    1.4973903   414375 
 6704000   0.94258882   -3.2266453   -1.7285095  0.061530708   -3.2266453    1.4981359   414368 
 6705000   0.94044295   -3.2253912   -1.7306407  0.062019692   -3.2253912    1.4947505   414361 
 6706000   0.94229557   -3.2267751   -1.7290583  0.060954331   -3.2267751    1.4977168   414355 
 6707000   0.94095848   -3.2246739    -1.729057  0.060906908   -3.2246739    1.4956168   414348 
 6708000   0.94222337   -3.2251376    -1.727485  0.062124328   -3.2251376    1.4976526   414341 
 6709000   0.94248468   -3.2260259   -1.7279362  0.055823359   -3.2260259    1.4980897   414335 
 6710000    0.9434388   -3.2260493   -1.7264178  0.059415455   -3.2260493    1.4996316   414328 
 6711000   0.94173069   -3.2224838    -1.725542  0.060578717   -3.2224838    1.4969418   414321 
 6712000   0.94282478   -3.2246575   -1.7259549  0.067486059   -3.2246575    1.4987026   414315 
 6713000   0.94250108   -3.2233513   -1.7251379  0.059300258   -3.2233513    1.4982134   414308 
 6714000   0.94457497    -3.227151   -1.7256155  0.061080259    -3.227151    1.5015354   414301 
 6715000   0.94197006   -3.2231877   -1.7257715  0.064280849   -3.2231877    1.4974162   414295 
 6716000   0.94165235   -3.2221852   -1.7252488  0.060336528   -3.2221852    1.4969365   414288 
 6717000   0.94143149     -3.22155   -1.7249394  0.061957322     -3.22155    1.4966107   414281 
 6718000   0.94105032   -3.2217108   -1.7256844   0.06068643   -3.2217108    1.4960264   414275 
 6719000   0.94211937   -3.2231431   -1.7253919  0.060581192   -3.2231431    1.4977512   414268 
 6720000   0.94345026   -3.2251185   -1.7252261  0.058271547   -3.2251185    1.4998923   414261 
 6721000   0.94309335   -3.2245301   -1.7251835  0.064837321   -3.2245301    1.4993467   414255 
 6722000   0.94488584   -3.2269884   -1.7247666  0.061673491   -3.2269884    1.5022218   414248 
 6723000   0.94316691   -3.2250582   -1.7255439  0.059900731   -3.2250582    1.4995143   414241 
 6724000   0.94174144   -3.2223445   -1.7250749  0.060050475   -3.2223445    1.4972696   414235 
 6725000    0.9424015   -3.2231781   -1.7248337  0.055091422   -3.2231781    1.4983444   414228 
 6726000   0.94092092   -3.2221604   -1.7261448  0.055308669   -3.2221604    1.4960157   414221 
 6727000   0.93971503    -3.221164    -1.727044  0.055077841    -3.221164      1.49412   414215 
 6728000   0.94140364   -3.2222586   -1.7254284  0.062292204   -3.2222586    1.4968301   414208 
 6729000   0.93924548     -3.21908   -1.7256561  0.064302107     -3.21908    1.4934239   414201 
 6730000   0.94124476   -3.2227207   -1.7260962  0.061944834   -3.2227207    1.4966245   414195 
 6731000   0.94155399   -3.2226858   -1.7255443  0.061385517   -3.2226858    1.4971415   414188 
 6732000   0.94201387   -3.2213262   -1.7234281  0.060817626   -3.2213262    1.4978981   414181 
 6733000   0.94096795   -3.2179103   -1.7216537  0.066252611   -3.2179103    1.4962566   414175 
 6734000   0.94267168   -3.2204009   -1.7214098  0.065921213   -3.2204009    1.4989911   414168 
 6735000   0.94230712   -3.2202937    -1.721857  0.066622222   -3.2202937    1.4984367   414161 
 6736000   0.94238888   -3.2208951   -1.7223067  0.059703398   -3.2208951    1.4985884   414155 
 6737000   0.94351303   -3.2225694    -1.722168  0.059180627   -3.2225694    1.5004014   414148 
 6738000   0.94401725   -3.2235336    -1.722305  0.061966124   -3.2235336    1.5012286   414141 
 6739000   0.94350629   -3.2205768    -1.720139  0.066452102   -3.2205768    1.5004378   414135 
 6740000   0.94396499   -3.2217108   -1.7205181  0.067158189   -3.2217108    1.5011926   414128 
 6741000    0.9420749   -3.2194507   -1.7212386  0.065042037   -3.2194507    1.4982121   414121 
 6742000    0.9415177   -3.2203643   -1.7230166  0.063745433   -3.2203643    1.4973477   414115 
 6743000   0.94131355   -3.2200998   -1.7230515  0.061264859   -3.2200998    1.4970483   414108 
 6744000   0.94206534   -3.2210362   -1.7227669  0.059196139   -3.2210362    1.4982693   414101 
 6745000   0.94105106   -3.2209888   -1.7243109  0.061566398   -3.2209888    1.4966779   414095 
 6746000   0.94052739   -3.2200844   -1.7242141  0.061330112   -3.2200844    1.4958703   414088 
 6747000    0.9397629   -3.2180048   -1.7233252  0.064593807   -3.2180048    1.4946797   414081 
 6748000   0.94235983   -3.2224757   -1.7236439  0.056555528   -3.2224757    1.4988318   414075 
 6749000   0.94160322   -3.2224973   -1.7248436  0.059351073   -3.2224973    1.4976537   414068 
 6750000   0.94062877   -3.2203412   -1.7242121  0.059562766   -3.2203412    1.4961291   414061 
 6751000   0.94045656   -3.2205106   -1.7246338  0.058718788   -3.2205106    1.4958768   414055 
 6752000   0.94101015    -3.220104   -1.7233213  0.061223908    -3.220104    1.4967827   414048 
 6753000   0.93938311   -3.2192297   -1.7250097  0.058057823   -3.2192297    1.4942199   414041 
 6754000   0.94138447   -3.2211387   -1.7237136  0.061595371   -3.2211387    1.4974251   414035 
 6755000   0.93902517   -3.2190802   -1.7253827   0.06088441   -3.2190802    1.4936975   414028 
 6756000   0.94112125   -3.2223798   -1.7253228  0.062796718   -3.2223798     1.497057   414021 
 6757000   0.93962569   -3.2223975   -1.7276978  0.055339268   -3.2223975    1.4946997   414015 
 6758000   0.93970334   -3.2218689   -1.7270204  0.054030349   -3.2218689    1.4948485   414008 
 6759000   0.93941913   -3.2208533   -1.7264317  0.058264418   -3.2208533    1.4944216   414001 
 6760000   0.94035129   -3.2230436   -1.7271175  0.054413124   -3.2230436    1.4959262   413995 
 6761000   0.93900318   -3.2219178    -1.728111  0.061555009   -3.2219178    1.4938068   413988 
 6762000   0.93944013    -3.222001   -1.7274738  0.060834815    -3.222001    1.4945272   413981 
 6763000   0.94079509   -3.2243913   -1.7276868  0.061429986   -3.2243913    1.4967045   413975 
 6764000   0.94169961   -3.2248007   -1.7266319  0.061293485   -3.2248007    1.4981688   413968 
 6765000   0.94175903   -3.2254237   -1.7271351  0.058198529   -3.2254237    1.4982887   413961 
 6766000   0.94086776    -3.224613   -1.7277205  0.060031142    -3.224613    1.4968924   413955 
 6767000   0.94093663   -3.2250585   -1.7280312  0.059639421   -3.2250585    1.4970273   413948 
 6768000   0.94065714    -3.226164   -1.7295561  0.066708568    -3.226164    1.4966079   413941 
 6769000    0.9418831    -3.227847   -1.7292668  0.063844243    -3.227847    1.4985802   413935 
 6770000   0.94080192   -3.2241538   -1.7272685   0.06161396   -3.2241538    1.4968853   413928 
 6771000   0.94229296   -3.2273308   -1.7280478  0.063376468   -3.2273308     1.499283   413921 
 6772000   0.93985995   -3.2247852   -1.7293517  0.068045869   -3.2247852    1.4954335   413915 
 6773000   0.94071758    -3.225719   -1.7288956  0.063237948    -3.225719    1.4968234   413908 
 6774000   0.94215615   -3.2269947    -1.727857  0.062125066   -3.2269947    1.4991378   413901 
 6775000   0.94182394   -3.2267278   -1.7280969  0.062243108   -3.2267278    1.4986309   413895 
 6776000   0.94091924   -3.2246433   -1.7274266  0.065267663   -3.2246433    1.4972166   413888 
 6777000   0.94053754   -3.2248826    -1.728248   0.06524622   -3.2248826    1.4966346   413881 
 6778000   0.94225327   -3.2268421   -1.7274556  0.058226144   -3.2268421    1.4993865   413875 
 6779000   0.94187616    -3.226826   -1.7280143   0.06448656    -3.226826    1.4988117   413868 
 6780000   0.94073508   -3.2248483   -1.7278271  0.062330993   -3.2248483    1.4970213   413861 
 6781000   0.93907266   -3.2215787   -1.7271812  0.059838502   -3.2215787    1.4943975   413855 
 6782000   0.94036206   -3.2232383   -1.7267637  0.056433448   -3.2232383    1.4964747   413848 
 6783000   0.93984874   -3.2222028   -1.7265197  0.063283342   -3.2222028    1.4956831   413841 
 6784000   0.93901371   -3.2212514   -1.7268756  0.063807274   -3.2212514    1.4943759   413835 
 6785000   0.93859782   -3.2211063    -1.727367  0.059576875   -3.2211063    1.4937393   413828 
 6786000   0.94039824   -3.2239943   -1.7273644  0.061819263   -3.2239943    1.4966299   413821 
 6787000   0.93907233   -3.2216006   -1.7270593  0.057279775   -3.2216006    1.4945414   413815 
 6788000   0.93797056   -3.2182447   -1.7254315   0.06279737   -3.2182447    1.4928132   413808 
 6789000   0.94035581   -3.2216154   -1.7249807  0.062039833   -3.2216154    1.4966347   413801 
 6790000    0.9400548   -3.2221983    -1.726021  0.058636737   -3.2221983    1.4961773   413795 
 6791000    0.9391976   -3.2218329   -1.7269946  0.060619967   -3.2218329    1.4948383   413788 
 6792000    0.9399536   -3.2211078    -1.725041   0.05581404   -3.2211078    1.4960669   413781 
 6793000   0.94024217   -3.2213593   -1.7248114  0.060278965   -3.2213593    1.4965479   413775 
 6794000   0.93922923   -3.2185347   -1.7235738  0.059670215   -3.2185347    1.4949609   413768 
 6795000   0.93930764   -3.2188689   -1.7237579   0.05480064   -3.2188689     1.495111   413761 
 6796000   0.93898063   -3.2165661   -1.7219539   0.05767518   -3.2165661    1.4946122   413755 
 6797000   0.94145229   -3.2202092   -1.7216374  0.062015753   -3.2202092    1.4985717   413748 
 6798000   0.94021305   -3.2195443   -1.7229198  0.062705439   -3.2195443    1.4966245   413741 
 6799000   0.93934238   -3.2188928   -1.7236325   0.06211263   -3.2188928    1.4952602   413735 
 6800000    0.9400807   -3.2220424   -1.7255815  0.060349774   -3.2220424    1.4964608   413728 
 6801000   0.93844231   -3.2201324   -1.7262544  0.057474553   -3.2201324     1.493878   413721 
 6802000   0.93799476   -3.2195429   -1.7263556  0.055313876   -3.2195429    1.4931873   413715 
 6803000    0.9381594   -3.2204096    -1.726935    0.0577727   -3.2204096    1.4934746   413708 
 6804000   0.93741839   -3.2195638   -1.7272436  0.056212208   -3.2195638    1.4923203   413701 
 6805000   0.93866781   -3.2223514   -1.7280205    0.0523572   -3.2223514    1.4943309   413695 
 6806000   0.93702173   -3.2191943   -1.7274586  0.058967411   -3.2191943    1.4917357   413688 
 6807000   0.93946268   -3.2219923   -1.7263453  0.059214668   -3.2219923     1.495647   413681 
 6808000   0.93976149   -3.2236913    -1.727547  0.064327806   -3.2236913    1.4961444   413675 
 6809000   0.94044643   -3.2234329   -1.7261727  0.063236989   -3.2234329    1.4972602   413668 
 6810000   0.94152525   -3.2244301    -1.725427  0.065070872   -3.2244301    1.4990031   413661 
 6811000   0.94064585   -3.2230335   -1.7254088   0.06360689   -3.2230335    1.4976247   413655 
 6812000   0.94079141   -3.2221425   -1.7242607  0.070779482   -3.2221425    1.4978818   413648 
 6813000   0.94012566   -3.2234631   -1.7266159  0.063769039   -3.2234631    1.4968472   413641 
 6814000   0.94140217   -3.2244708   -1.7255694  0.061112555   -3.2244708    1.4989013   413635 
 6815000   0.94068434   -3.2233047   -1.7255209  0.059356231   -3.2233047    1.4977838   413628 
 6816000    0.9402801   -3.2243923   -1.7272268  0.061186754   -3.2243923    1.4971655   413621 
 6817000   0.94065045   -3.2250768   -1.7272999  0.062454084   -3.2250768    1.4977769   413615 
 6818000    0.9410301   -3.2254114   -1.7270047  0.064362351   -3.2254114    1.4984067   413608 
 6819000   0.93965113   -3.2242627   -1.7280264  0.059663108   -3.2242627    1.4962363   413601 
 6820000    0.9387549   -3.2226089    -1.727778   0.06087256   -3.2226089    1.4948309   413595 
 6821000    0.9387063   -3.2225525   -1.7277736  0.058347511   -3.2225525    1.4947788   413588 
 6822000   0.93766545   -3.2218836    -1.728737  0.059869433   -3.2218836    1.4931467   413581 
 6823000   0.93914133   -3.2230197   -1.7275011  0.060716476   -3.2230197    1.4955186   413575 
 6824000   0.93998792    -3.223359   -1.7264669  0.059333806    -3.223359     1.496892   413568 
 6825000    0.9394023    -3.222338   -1.7263533  0.063492604    -3.222338    1.4959848   413561 
 6826000   0.93921411   -3.2214478    -1.725741  0.063770685   -3.2214478    1.4957068   413555 
 6827000   0.93967025   -3.2226102   -1.7261517  0.064039588   -3.2226102    1.4964585   413548 
 6828000   0.94046092   -3.2222238   -1.7244808  0.066679212   -3.2222238     1.497743   413541 
 6829000   0.93915912   -3.2209981   -1.7253066  0.058787062   -3.2209981    1.4956916   413535 
 6830000   0.93928106   -3.2229762   -1.7270651   0.05922328   -3.2229762    1.4959111   413528 
 6831000   0.93884312   -3.2227292   -1.7274903  0.058918012   -3.2227292    1.4952389   413521 
 6832000    0.9385102   -3.2222943   -1.7275639  0.059221756   -3.2222943    1.4947304   413515 
 6833000   0.93704498   -3.2208078   -1.7283858  0.060607482   -3.2208078     1.492422   413508 
 6834000   0.93749867   -3.2208587   -1.7276888  0.059998025   -3.2208587    1.4931699   413501 
 6835000   0.93633648   -3.2194831   -1.7281426  0.061191786   -3.2194831    1.4913405   413495 
 6836000   0.93861744   -3.2227587     -1.72776  0.052704617   -3.2227587    1.4949988   413488 
 6837000   0.93885424   -3.2221639   -1.7267627  0.061796895   -3.2221639    1.4954013   413481 
 6838000    0.9392443   -3.2233475   -1.7273033  0.062538276   -3.2233475    1.4960443   413475 
 6839000   0.93963679   -3.2241628   -1.7274681  0.059348552   -3.2241628    1.4966948   413468 
 6840000   0.93855653   -3.2220694     -1.72707  0.063363677   -3.2220694    1.4949994   413461 
 6841000   0.93930216   -3.2240354   -1.7278266  0.058630824   -3.2240354    1.4962088   413455 
 6842000   0.93817351   -3.2222617   -1.7278254  0.061369559   -3.2222617    1.4944363   413448 
 6843000   0.93946084   -3.2231564   -1.7266442  0.064898588   -3.2231564    1.4965122   413441 
 6844000   0.93988529   -3.2228167   -1.7256066  0.066410637   -3.2228167    1.4972101   413435 
 6845000   0.93798061   -3.2214897   -1.7272884  0.062067067   -3.2214897    1.4942013   413428 
 6846000   0.93932684   -3.2252049   -1.7288338  0.059770863   -3.2252049    1.4963712   413421 
 6847000    0.9391487    -3.223925   -1.7278159  0.062121647    -3.223925    1.4961091   413415 
 6848000   0.93862732   -3.2245531   -1.7292492  0.056610314   -3.2245531    1.4953038   413408 
 6849000   0.93948654   -3.2252824   -1.7285845  0.057547815   -3.2252824     1.496698   413401 
 6850000   0.93799156   -3.2227559   -1.7284179  0.062897855   -3.2227559     1.494338   413395 
 6851000   0.93919707   -3.2255239     -1.72924  0.058779685   -3.2255239    1.4962839   413388 
 6852000     0.937583    -3.224485   -1.7307473  0.063766757    -3.224485    1.4937377   413381 
 6853000   0.93956725   -3.2284273   -1.7315066  0.059822945   -3.2284273    1.4969207   413375 
 6854000   0.93779755    -3.227455   -1.7333285  0.058343997    -3.227455    1.4941265   413368 
 6855000   0.93693155   -3.2258855   -1.7331135  0.058262166   -3.2258855     1.492772   413361 
 6856000   0.93679139   -3.2260141   -1.7334437  0.060115055   -3.2260141    1.4925704   413355 
 6857000    0.9389262   -3.2284031   -1.7324061  0.057299473   -3.2284031    1.4959971   413348 
 6858000   0.93856253   -3.2272592   -1.7318162  0.057341787   -3.2272592     1.495443   413341 
 6859000   0.93836456    -3.225799   -1.7306498  0.057742721    -3.225799    1.4951493   413335 
 6860000   0.93905141   -3.2271273   -1.7308583  0.063389908   -3.2271273     1.496269   413328 
 6861000   0.93792939   -3.2271895    -1.732683  0.061811164   -3.2271895    1.4945065   413321 
 6862000   0.93866747   -3.2269963    -1.731292  0.058190447   -3.2269963    1.4957043   413315 
 6863000   0.93980717   -3.2270491   -1.7295034  0.070286572   -3.2270491    1.4975457   413308 
 6864000    0.9398419   -3.2291001   -1.7314737  0.066787084   -3.2291001    1.4976264   413301 
 6865000   0.93965545   -3.2285929   -1.7312419  0.059271152   -3.2285929     1.497351   413295 
 6866000   0.93822317   -3.2274038   -1.7323099  0.063522421   -3.2274038     1.495094   413288 
 6867000   0.93814313   -3.2271147   -1.7321229  0.063585207   -3.2271147    1.4949918   413281 
 6868000    0.9395266   -3.2290134   -1.7317953  0.060632628   -3.2290134    1.4972181   413275 
 6869000   0.93882362    -3.228377   -1.7322538  0.062011206    -3.228377    1.4961232   413268 
 6870000   0.93693071   -3.2263187   -1.7331868  0.067615429   -3.2263187    1.4931319   413261 
 6871000   0.93845654   -3.2284584   -1.7328731  0.060624167   -3.2284584    1.4955853   413255 
 6872000   0.93809475   -3.2271064   -1.7320724   0.06090793   -3.2271064     1.495034   413248 
 6873000   0.93865651   -3.2275964   -1.7316417  0.060742483   -3.2275964    1.4959546   413241 
 6874000   0.93906146   -3.2276012   -1.7309794  0.057738878   -3.2276012    1.4966217   413235 
 6875000   0.93756635   -3.2264174   -1.7321532  0.062656278   -3.2264174    1.4942642   413228 
 6876000   0.93667352   -3.2259274   -1.7330608  0.059334087   -3.2259274    1.4928666   413221 
 6877000   0.93803393   -3.2280294   -1.7329729  0.058648103   -3.2280294    1.4950565   413215 
 6878000   0.93882395   -3.2279865   -1.7316455  0.061619919   -3.2279865     1.496341   413208 
 6879000   0.93840512   -3.2276184   -1.7319197  0.062247007   -3.2276184    1.4956988   413201 
 6880000    0.9378105   -3.2252776   -1.7305049  0.063588282   -3.2252776    1.4947727   413195 
 6881000    0.9372996   -3.2236985   -1.7297148  0.068437005   -3.2236985    1.4939837   413188 
 6882000    0.9389339   -3.2244953   -1.7278813  0.062773879   -3.2244953     1.496614   413181 
 6883000   0.93842301   -3.2255402   -1.7297188  0.059075448   -3.2255402    1.4958214   413175 
 6884000   0.93884765   -3.2258935   -1.7293699   0.06572331   -3.2258935    1.4965236   413168 
 6885000   0.93838786   -3.2257439   -1.7299278  0.056201485   -3.2257439    1.4958161   413161 
 6886000   0.93758281   -3.2241591   -1.7296046  0.060148187   -3.2241591    1.4945545   413155 
 6887000   0.93731916   -3.2230374   -1.7288779  0.063654537   -3.2230374    1.4941595   413148 
 6888000   0.93712877   -3.2225864    -1.728705   0.06438807   -3.2225864    1.4938814   413141 
 6889000   0.93839497   -3.2255508   -1.7296293  0.057627254   -3.2255508    1.4959215   413135 
 6890000   0.93696798   -3.2238715   -1.7301994  0.061773469   -3.2238715     1.493672   413128 
 6891000   0.93598826   -3.2219418   -1.7298063  0.056934865   -3.2219418    1.4921355   413121 
 6892000    0.9378328   -3.2249457    -1.729848   0.06274487   -3.2249457    1.4950977   413115 
 6893000   0.93765517   -3.2235203   -1.7286805   0.06049549   -3.2235203    1.4948399   413108 
 6894000   0.93790988   -3.2246371   -1.7293658  0.058943223   -3.2246371    1.4952713   413101 
 6895000   0.93835373   -3.2253349   -1.7293343  0.061056508   -3.2253349    1.4960006   413095 
 6896000   0.93770458   -3.2222738   -1.7272828  0.062690688   -3.2222738     1.494991   413088 
 6897000   0.93906989   -3.2257177   -1.7285246  0.061036159   -3.2257177    1.4971931   413081 
 6898000   0.93838063   -3.2251719    -1.729056  0.062678804   -3.2251719     1.496116   413075 
 6899000   0.93757613   -3.2244268   -1.7295682  0.064024268   -3.2244268    1.4948586   413068 
 6900000    0.9386329   -3.2253914   -1.7288225  0.063487327   -3.2253914    1.4965689   413061 
 6901000   0.93806125   -3.2243005   -1.7286213  0.059690357   -3.2243005    1.4956792   413055 
 6902000   0.93788553   -3.2233567   -1.7279323  0.062319849   -3.2233567    1.4954243   413048 
 6903000   0.93813899   -3.2242598    -1.728406  0.065139703   -3.2242598    1.4958538   413041 
 6904000   0.93874071   -3.2255428   -1.7287078  0.060164271   -3.2255428     1.496835   413035 
 6905000   0.94053489   -3.2275763   -1.7278551  0.057559055   -3.2275763    1.4997213   413028 
 6906000   0.93891678   -3.2255949   -1.7284284  0.063649747   -3.2255949    1.4971665   413021 
 6907000   0.93922731     -3.22614   -1.7284566  0.057852483     -3.22614    1.4976834   413015 
 6908000   0.93977571   -3.2267168   -1.7281336  0.061721677   -3.2267168    1.4985833   413008 
 6909000   0.94030238   -3.2260369   -1.7265884  0.060098258   -3.2260369    1.4994485   413001 
 6910000   0.93806112   -3.2223224   -1.7264261   0.06471057   -3.2223224    1.4958963   412995 
 6911000   0.93856188   -3.2218983   -1.7251781  0.068158059   -3.2218983    1.4967202   412988 
 6912000   0.93871479   -3.2241986   -1.7272092  0.064246234   -3.2241986    1.4969894   412981 
 6913000   0.93729193   -3.2234454   -1.7287034   0.05742553   -3.2234454     1.494742   412975 
 6914000   0.93792625   -3.2242912   -1.7285123  0.065205832   -3.2242912     1.495779   412968 
 6915000   0.93738454   -3.2240541   -1.7291136  0.060621772   -3.2240541    1.4949404   412961 
 6916000   0.93543404   -3.2214573   -1.7296059  0.059396135   -3.2214573    1.4918514   412955 
 6917000   0.93595371   -3.2230726   -1.7303671  0.058626925   -3.2230726    1.4927055   412948 
 6918000   0.93519817   -3.2197843   -1.7282585  0.061748737   -3.2197843    1.4915258   412941 
 6919000   0.93525934   -3.2206146   -1.7289696  0.058481124   -3.2206146    1.4916451   412935 
 6920000   0.93665382   -3.2235378   -1.7296433  0.057428186   -3.2235378    1.4938944   412928 
 6921000   0.93668704   -3.2228927     -1.72892   0.05875962   -3.2228927    1.4939727   412921 
 6922000   0.93809136   -3.2233993    -1.727165   0.06882378   -3.2233993    1.4962343   412915 
 6923000   0.93833723   -3.2237422   -1.7270903  0.063323919   -3.2237422    1.4966518   412908 
 6924000    0.9383995    -3.222206   -1.7254295  0.063650082    -3.222206    1.4967765   412901 
 6925000   0.93959288   -3.2242925   -1.7255907  0.061903663   -3.2242925    1.4987018   412895 
 6926000   0.93949578   -3.2241425   -1.7255702  0.066440128   -3.2241425    1.4985723   412888 
 6927000   0.94019829   -3.2246238   -1.7249055  0.060896914   -3.2246238    1.4997183   412881 
 6928000   0.93957408   -3.2238635   -1.7251191  0.061343543   -3.2238635    1.4987444   412875 
 6929000   0.93937326   -3.2226353   -1.7241858   0.06433753   -3.2226353    1.4984495   412868 
 6930000   0.93885793   -3.2233866   -1.7257338  0.061477944   -3.2233866    1.4976528   412861 
 6931000    0.9372241   -3.2222284   -1.7271601  0.065262287   -3.2222284    1.4950683   412855 
 6932000   0.93864686   -3.2241571   -1.7267938  0.062802187   -3.2241571    1.4973633   412848 
 6933000   0.93732334   -3.2219897   -1.7267124  0.063675549   -3.2219897    1.4952773   412841 
 6934000    0.9387208   -3.2257189   -1.7281905  0.060715117   -3.2257189    1.4975284   412835 
 6935000   0.93754213   -3.2233734      -1.7277   0.06211453   -3.2233734    1.4956734   412828 
 6936000   0.93745271   -3.2235054   -1.7279492  0.063193087   -3.2235054    1.4955561   412821 
 6937000   0.93876712   -3.2257468    -1.728072   0.05835917   -3.2257468    1.4976748   412815 
 6938000   0.93710677   -3.2234051   -1.7283538   0.05816535   -3.2234051    1.4950513   412808 
 6939000   0.93867669   -3.2246515   -1.7270701  0.057536645   -3.2246515    1.4975814   412801 
 6940000   0.93765731   -3.2240809   -1.7281041  0.060346833   -3.2240809    1.4959768   412795 
 6941000   0.93851736    -3.226012   -1.7286377  0.061364963    -3.226012    1.4973743   412788 
 6942000   0.93780139    -3.224224   -1.7279666  0.061886326    -3.224224    1.4962574   412781 
 6943000   0.93716521   -3.2239131    -1.728649  0.062526947   -3.2239131    1.4952641   412775 
 6944000   0.93801374   -3.2249644   -1.7283211  0.061817544   -3.2249644    1.4966433   412768 
 6945000   0.93840852   -3.2264573   -1.7291587   0.06097633   -3.2264573    1.4972986   412761 
 6946000   0.93866981   -3.2269706   -1.7292333  0.062631538   -3.2269706    1.4977373   412755 
 6947000   0.93680876   -3.2260178   -1.7312247  0.067449095   -3.2260178    1.4947931   412748 
 6948000   0.93753093   -3.2279806   -1.7320098  0.061706617   -3.2279806    1.4959708   412741 
 6949000   0.93609854   -3.2255336   -1.7318266  0.059181004   -3.2255336    1.4937069   412735 
 6950000    0.9374661   -3.2268719   -1.7309574  0.064921939   -3.2268719    1.4959145   412728 
 6951000   0.93727732   -3.2260328   -1.7303942  0.059284638   -3.2260328    1.4956386   412721 
 6952000   0.93735821   -3.2281458   -1.7323563  0.059676276   -3.2281458    1.4957895   412715 
 6953000   0.93624327   -3.2258889   -1.7318532  0.056772161   -3.2258889    1.4940356   412708 
 6954000   0.93724097   -3.2273406   -1.7316875  0.064542269   -3.2273406    1.4956531   412701 
 6955000    0.9374753   -3.2272025   -1.7311537  0.066015212   -3.2272025    1.4960488   412695 
 6956000   0.93801308   -3.2284582   -1.7315258  0.059785783   -3.2284582    1.4969324   412688 
 6957000   0.93692827   -3.2268773   -1.7316507  0.064177098   -3.2268773    1.4952266   412681 
 6958000   0.93792881   -3.2285386   -1.7316935  0.065783173   -3.2285386    1.4968451   412675 
 6959000   0.93811825   -3.2303296   -1.7331568  0.060712396   -3.2303296    1.4971728   412668 
 6960000   0.93828349   -3.2312757   -1.7338138  0.060456272   -3.2312757    1.4974619   412661 
 6961000   0.93569175   -3.2281195   -1.7347722  0.054218277   -3.2281195    1.4933473   412655 
 6962000    0.9360059   -3.2273466   -1.7334726  0.061935978   -3.2273466     1.493874   412648 
 6963000   0.93574306   -3.2257073   -1.7322274  0.062586359   -3.2257073    1.4934799   412641 
 6964000    0.9376802   -3.2283082   -1.7317148  0.057718669   -3.2283082    1.4965934   412635 
 6965000   0.93576635   -3.2257556   -1.7321916  0.064775182   -3.2257556    1.4935641   412628 
 6966000   0.93638001   -3.2258986   -1.7313298  0.058207071   -3.2258986    1.4945689   412621 
 6967000   0.93691161    -3.227822   -1.7323829  0.061737645    -3.227822    1.4954391   412615 
 6968000   0.93636498   -3.2246436   -1.7300516  0.070233727   -3.2246436     1.494592   412608 
 6969000   0.93771899    -3.224975   -1.7281964  0.069104383    -3.224975    1.4967786   412601 
 6970000   0.93816139    -3.225191   -1.7276844  0.058712897    -3.225191    1.4975065   412595 
 6971000   0.93845069   -3.2262768   -1.7282831  0.057872365   -3.2262768    1.4979937   412588 
 6972000   0.93669945   -3.2244165   -1.7291928  0.064045285   -3.2244165    1.4952237   412581 
 6973000   0.93813081   -3.2256867   -1.7281564  0.064304663   -3.2256867    1.4975303   412575 
 6974000   0.93819402    -3.225579   -1.7279223   0.06273924    -3.225579    1.4976566   412568 
 6975000   0.93463389   -3.2217252   -1.7297263  0.062463719   -3.2217252    1.4919988   412561 
 6976000   0.93618441   -3.2237837   -1.7292879  0.055209473   -3.2237837    1.4944957   412555 
 6977000   0.93647974   -3.2244379   -1.7294454  0.059282999   -3.2244379    1.4949926   412548 
 6978000   0.93521589   -3.2219665   -1.7289662  0.057859116   -3.2219665    1.4930003   412541 
 6979000   0.93546626   -3.2234615   -1.7300398  0.054651308   -3.2234615    1.4934217   412535 
 6980000   0.93622939   -3.2231516   -1.7284863  0.062617267   -3.2231516    1.4946654   412528 
 6981000   0.93533954   -3.2216371    -1.728367  0.063568196   -3.2216371    1.4932701   412521 
 6982000   0.93588728   -3.2194372   -1.7252709  0.060530819   -3.2194372    1.4941663   412515 
 6983000   0.93670814   -3.2204781   -1.7249759  0.063182723   -3.2204781    1.4955022   412508 
 6984000   0.93535796   -3.2209343   -1.7275625  0.060903424   -3.2209343    1.4933719   412501 
 6985000   0.93507446   -3.2203574   -1.7274164  0.063206663   -3.2203574     1.492941   412495 
 6986000   0.93539807    -3.220629    -1.727146  0.054338966    -3.220629     1.493483   412488 
 6987000   0.93651754   -3.2220684   -1.7267727  0.059997104   -3.2220684    1.4952957   412481 
 6988000   0.93576435   -3.2208956   -1.7267807  0.055790095   -3.2208956    1.4941149   412475 
 6989000   0.93658693    -3.221191   -1.7257373  0.054446171    -3.221191    1.4954537   412468 
 6990000   0.93658624   -3.2212783   -1.7258003  0.062190593   -3.2212783     1.495478   412461 
 6991000   0.93766261   -3.2217221   -1.7245037  0.058506669   -3.2217221    1.4972184   412455 
 6992000   0.93723497   -3.2215472   -1.7249862  0.062716478   -3.2215472     1.496561   412448 
 6993000    0.9374494   -3.2204428    -1.723514  0.060624816   -3.2204428    1.4969288   412441 
 6994000   0.93907605   -3.2220266   -1.7224786  0.063163159   -3.2220266     1.499548   412435 
 6995000   0.93849436   -3.2214963   -1.7228517  0.063335257   -3.2214963    1.4986446   412428 
 6996000   0.93807881   -3.2225357   -1.7245293  0.064122336   -3.2225357    1.4980065   412421 
 6997000   0.93840265   -3.2241142   -1.7255688  0.059599765   -3.2241142    1.4985454   412415 
 6998000   0.93763422   -3.2223162   -1.7249725  0.062950388   -3.2223162    1.4973437   412408 
 6999000   0.93698344   -3.2209896   -1.7246598  0.066443984   -3.2209896    1.4963298   412401 
 7000000   0.93603039   -3.2196814   -1.7248518   0.06276012   -3.2196814    1.4948296   412395 
 7001000   0.93651166   -3.2214704   -1.7258468  0.054251456   -3.2214704    1.4956236   412388 
 7002000   0.93607955   -3.2189357   -1.7239768  0.066429508   -3.2189357    1.4949589   412381 
 7003000   0.93661123   -3.2215247    -1.725695  0.061602032   -3.2215247    1.4958297   412375 
 7004000   0.93614743    -3.221593   -1.7264786  0.059558152    -3.221593    1.4951144   412368 
 7005000   0.93692569   -3.2223051   -1.7259224  0.061225213   -3.2223051    1.4963828   412361 
 7006000   0.93590906   -3.2199609   -1.7251801  0.056152282   -3.2199609    1.4947808   412355 
 7007000   0.93607329   -3.2207452   -1.7256767  0.058202701   -3.2207452    1.4950685   412348 
 7008000     0.937472   -3.2231153   -1.7257874  0.061274642   -3.2231153    1.4973279   412341 
 7009000   0.93727669   -3.2211118   -1.7240741  0.061492646   -3.2211118    1.4970377   412335 
 7010000   0.93675017    -3.221165   -1.7249429   0.05755442    -3.221165    1.4962222   412328 
 7011000    0.9363776   -3.2218039   -1.7261515  0.057354224   -3.2218039    1.4956525   412321 
 7012000   0.93601527   -3.2200479   -1.7249524  0.057673075   -3.2200479    1.4950955   412315 
 7013000   0.93596137   -3.2205325   -1.7254978  0.057528551   -3.2205325    1.4950348   412308 
 7014000   0.93712634   -3.2223545   -1.7254335   0.05552101   -3.2223545     1.496921   412301 
 7015000   0.93555779   -3.2186222   -1.7241849  0.064528519   -3.2186222    1.4944373   412295 
 7016000   0.93487496   -3.2185201   -1.7251483   0.06128713   -3.2185201    1.4933719   412288 
 7017000   0.93651095     -3.21977   -1.7237594  0.060437108     -3.21977    1.4960106   412281 
 7018000   0.93657304   -3.2205982   -1.7244666  0.057494607   -3.2205982    1.4961316   412275 
 7019000   0.93597907   -3.2197748   -1.7245667  0.063795552   -3.2197748    1.4952081   412268 
 7020000   0.93588987   -3.2204119   -1.7253209  0.059354446   -3.2204119     1.495091   412261 
 7021000   0.93800024    -3.222434   -1.7239499  0.057983268    -3.222434    1.4984841   412255 
 7022000   0.93655057   -3.2200395   -1.7238458  0.058812206   -3.2200395    1.4961937   412248 
 7023000   0.93583644   -3.2192788   -1.7242006  0.060779816   -3.2192788    1.4950782   412241 
 7024000   0.93701957   -3.2201184   -1.7231283    0.0618059   -3.2201184    1.4969901   412235 
 7025000   0.93715717   -3.2205007   -1.7232654  0.061818538   -3.2205007    1.4972354   412228 
 7026000   0.93549925   -3.2187241   -1.7241121  0.066996984   -3.2187241     1.494612   412221 
 7027000   0.93758487    -3.221527   -1.7235611  0.061947219    -3.221527    1.4979659   412215 
 7028000   0.93642675   -3.2204704   -1.7243294  0.057976222   -3.2204704     1.496141   412208 
 7029000   0.93504578   -3.2186495   -1.7246895  0.057689385   -3.2186495      1.49396   412201 
 7030000   0.93667301   -3.2198867    -1.723305  0.064997266   -3.2198867    1.4965817   412195 
 7031000   0.93670457   -3.2197098   -1.7230523  0.063567454   -3.2197098    1.4966575   412188 
 7032000   0.93657106   -3.2208416    -1.724372  0.059868711   -3.2208416    1.4964696   412181 
 7033000   0.93553245   -3.2198331   -1.7250012  0.056749579   -3.2198331    1.4948318   412175 
 7034000   0.93438086   -3.2194192    -1.726402  0.061759274   -3.2194192    1.4930172   412168 
 7035000   0.93414332    -3.218257   -1.7255941  0.055279525    -3.218257    1.4926629   412161 
 7036000    0.9346119   -3.2188549   -1.7254215  0.059196406   -3.2188549    1.4934334   412155 
 7037000   0.93654892   -3.2228338   -1.7262798  0.055657672   -3.2228338     1.496554   412148 
 7038000    0.9351255   -3.2205255   -1.7262207  0.059453488   -3.2205255    1.4943049   412141 
 7039000   0.93466566   -3.2184885   -1.7248967  0.059354771   -3.2184885    1.4935918   412135 
 7040000   0.93508968   -3.2191546   -1.7248598  0.061042518   -3.2191546    1.4942948   412128 
 7041000   0.93502492   -3.2194152   -1.7251986  0.058573558   -3.2194152    1.4942167   412121 
 7042000   0.93669016   -3.2222557   -1.7253561  0.058936952   -3.2222557    1.4968996   412115 
 7043000   0.93630807   -3.2211671   -1.7248527  0.062176656   -3.2211671    1.4963144   412108 
 7044000   0.93681057   -3.2230121   -1.7258692  0.061969661   -3.2230121    1.4971429   412101 
 7045000   0.93681951   -3.2239713   -1.7267924  0.058073898   -3.2239713     1.497179   412095 
 7046000   0.93597831   -3.2214773   -1.7256173  0.062951059   -3.2214773      1.49586   412088 
 7047000   0.93641293   -3.2234671   -1.7268871  0.062730475   -3.2234671      1.49658   412081 
 7048000   0.93583565   -3.2217829   -1.7261037  0.057945719   -3.2217829    1.4956792   412075 
 7049000   0.93642431   -3.2224718   -1.7258263  0.060073599   -3.2224718    1.4966454   412068 
 7050000   0.93544999   -3.2221987    -1.727085  0.058889787   -3.2221987    1.4951136   412061 
 7051000   0.93599505   -3.2221015   -1.7260949   0.05935098   -3.2221015    1.4960066   412055 
 7052000   0.93440652   -3.2191656   -1.7256727   0.05936676   -3.2191656     1.493493   412048 
 7053000   0.93662322   -3.2228315     -1.72577  0.056588363   -3.2228315    1.4970614   412041 
 7054000   0.93547789   -3.2209199   -1.7256673  0.058452483   -3.2209199    1.4952526   412035 
 7055000   0.93701574   -3.2230133   -1.7252772  0.061220531   -3.2230133    1.4977361   412028 
 7056000   0.93691832   -3.2217958     -1.72419  0.060357636   -3.2217958    1.4976058   412021 
 7057000   0.93778072   -3.2224653   -1.7234592  0.058819059   -3.2224653    1.4990061   412015 
 7058000   0.93559888      -3.2198    -1.724256  0.063617796      -3.2198    1.4955439   412008 
 7059000   0.93621119   -3.2211559   -1.7246078  0.059668988   -3.2211559    1.4965481   412001 
 7060000   0.93514275   -3.2211373   -1.7262753  0.065541306   -3.2211373     1.494862   411995 
 7061000   0.93552765   -3.2219544   -1.7264517  0.056211098   -3.2219544    1.4955027   411988 
 7062000   0.93433165   -3.2212359   -1.7276197  0.058609993   -3.2212359    1.4936162   411981 
 7063000   0.93526785   -3.2210659   -1.7259314  0.060513937   -3.2210659    1.4951345   411975 
 7064000   0.93404595   -3.2193061   -1.7260995  0.058664001   -3.2193061    1.4932066   411968 
 7065000    0.9353973   -3.2203548   -1.7249625  0.063427631   -3.2203548    1.4953923   411961 
 7066000   0.93478521   -3.2187028   -1.7242673   0.06225265   -3.2187028    1.4944355   411955 
 7067000    0.9355444   -3.2209828   -1.7253081  0.059788458   -3.2209828    1.4956747   411948 
 7068000   0.93461888   -3.2199696   -1.7257492  0.061137245   -3.2199696    1.4942204   411941 
 7069000   0.93744137   -3.2231829   -1.7244282  0.057806708   -3.2231829    1.4987547   411935 
 7070000   0.93750703   -3.2215054   -1.7226202  0.066143998   -3.2215054    1.4988851   411928 
 7071000   0.93755607    -3.222586    -1.723597  0.062744686    -3.222586     1.498989   411921 
 7072000   0.93686284   -3.2206609   -1.7227584    0.0640885   -3.2206609    1.4979025   411915 
 7073000   0.93798577   -3.2205448   -1.7208214  0.065841439   -3.2205448    1.4997234   411908 
 7074000   0.93764323   -3.2204116   -1.7212104  0.060736965   -3.2204116    1.4992012   411901 
 7075000   0.93795301   -3.2220925   -1.7223742  0.065111044   -3.2220925    1.4997183   411895 
 7076000   0.93783183   -3.2211254   -1.7215754  0.061813988   -3.2211254      1.49955   411888 
 7077000    0.9374366    -3.219723   -1.7207795  0.061682343    -3.219723    1.4989436   411881 
 7078000   0.93764072    -3.221396   -1.7221042  0.065336589    -3.221396    1.4992918   411875 
 7079000   0.93538045   -3.2189236   -1.7232206  0.061737368   -3.2189236     1.495703   411868 
 7080000   0.93560352   -3.2200881    -1.724003  0.061011291   -3.2200881    1.4960851   411861 
 7081000   0.93368226   -3.2172652   -1.7242305  0.062032993   -3.2172652    1.4930347   411855 
 7082000   0.93472531   -3.2182204   -1.7234924  0.059589961   -3.2182204     1.494728   411848 
 7083000   0.93307292   -3.2156818   -1.7235708  0.059445533   -3.2156818     1.492111   411841 
 7084000   0.93351274   -3.2146899   -1.7218538  0.056573155   -3.2146899    1.4928361   411835 
 7085000   0.93407531   -3.2155811     -1.72182  0.057088906   -3.2155811    1.4937611   411828 
 7086000   0.93500404   -3.2172412   -1.7219694  0.056593541   -3.2172412    1.4952718   411821 
 7087000   0.93529285   -3.2179594    -1.722204   0.05867649   -3.2179594    1.4957554   411815 
 7088000   0.93283021   -3.2146747   -1.7228322  0.057664045   -3.2146747    1.4918424   411808 
 7089000   0.93526368   -3.2180458   -1.7222862  0.055632241   -3.2180458    1.4957596   411801 
 7090000   0.93486359   -3.2179335    -1.722792  0.059322569   -3.2179335    1.4951415   411795 
 7091000   0.93528088   -3.2183678   -1.7225334  0.060648647   -3.2183678    1.4958344   411788 
 7092000    0.9334788   -3.2160069   -1.7230293  0.056693976   -3.2160069    1.4929776   411781 
 7093000   0.93513861   -3.2181863   -1.7225323  0.060790891   -3.2181863     1.495654   411775 
 7094000   0.93373948   -3.2174062   -1.7239646  0.057879752   -3.2174062    1.4934417   411768 
 7095000   0.93410442   -3.2169007     -1.72285  0.058017144   -3.2169007    1.4940507   411761 
 7096000   0.93536598    -3.217874   -1.7217837  0.058687353    -3.217874    1.4960903   411755 
 7097000   0.93732937   -3.2197677   -1.7205115  0.062796044   -3.2197677    1.4992562   411748 
 7098000   0.93751661   -3.2210179   -1.7214367  0.061738639   -3.2210179    1.4995812   411741 
 7099000    0.9371408   -3.2215727   -1.7225708  0.061812242   -3.2215727    1.4990019   411735 
 7100000   0.93681714   -3.2196655   -1.7211558  0.059159079   -3.2196655    1.4985097   411728 
 7101000   0.93629277   -3.2198732   -1.7221768  0.062735725   -3.2198732    1.4976964   411721 
 7102000   0.93817295   -3.2227016   -1.7219758  0.059351868   -3.2227016    1.5007258   411715 
 7103000   0.93696398   -3.2207288   -1.7219114  0.061689867   -3.2207288    1.4988174   411708 
 7104000   0.93684947   -3.2211464   -1.7224868  0.060694598   -3.2211464    1.4986597   411701 
 7105000   0.93455684   -3.2177779   -1.7227639  0.063452246   -3.2177779     1.495014   411695 
 7106000   0.93614028   -3.2202209   -1.7226484  0.062563489   -3.2202209    1.4975725   411688 
 7107000   0.93607847   -3.2205295   -1.7230304  0.060927971   -3.2205295    1.4974991   411681 
 7108000    0.9368497   -3.2202426   -1.7214879  0.063652214   -3.2202426    1.4987547   411675 
 7109000   0.93618726   -3.2187525   -1.7210321  0.061904085   -3.2187525    1.4977204   411668 
 7110000    0.9368104   -3.2199169   -1.7211741  0.060805804   -3.2199169    1.4987428   411661 
 7111000   0.93535625   -3.2172706   -1.7208324  0.060532361   -3.2172706    1.4964382   411655 
 7112000   0.93468443   -3.2167616   -1.7213727   0.06129869   -3.2167616    1.4953888   411648 
 7113000   0.93654791   -3.2204059   -1.7220102  0.061607093   -3.2204059    1.4983957   411641 
 7114000   0.93565249   -3.2180458   -1.7210609  0.065166193   -3.2180458    1.4969849   411635 
 7115000   0.93543456   -3.2183885   -1.7217268  0.055236603   -3.2183885    1.4966617   411628 
 7116000   0.93531873   -3.2163503   -1.7198485  0.064030341   -3.2163503    1.4965018   411621 
 7117000   0.93497805   -3.2166106   -1.7206321  0.060253323   -3.2166106    1.4959785   411615 
 7118000   0.93453477   -3.2151092   -1.7198145  0.059223233   -3.2151092    1.4952947   411608 
 7119000   0.93514398   -3.2147453   -1.7184504  0.053724792   -3.2147453    1.4962949   411601 
 7120000   0.93522575   -3.2142162   -1.7177687  0.058414649   -3.2142162    1.4964476   411595 
 7121000   0.93406174   -3.2125832   -1.7179727  0.062442734   -3.2125832    1.4946104   411588 
 7122000   0.93536797   -3.2151286   -1.7184026  0.063613288   -3.2151286     1.496726   411581 
 7123000   0.93516297   -3.2142956   -1.7178758  0.063093793   -3.2142956    1.4964198   411575 
 7124000   0.93679985    -3.216155   -1.7170904  0.057169498    -3.216155    1.4990646   411568 
 7125000   0.93630213   -3.2156324   -1.7173388  0.061343137   -3.2156324    1.4982936   411561 
 7126000   0.93559594    -3.214945   -1.7177596  0.059894822    -3.214945    1.4971854   411555 
 7127000   0.93513368   -3.2143534   -1.7178823   0.05870213   -3.2143534    1.4964711   411548 
 7128000    0.9336992   -3.2130107   -1.7188097  0.060166409   -3.2130107     1.494201   411541 
 7129000   0.93434491   -3.2127552   -1.7174991  0.060254648   -3.2127552    1.4952561   411535 
 7130000   0.93572387   -3.2159698   -1.7184814  0.055997057   -3.2159698    1.4974883   411528 
 7131000   0.93374041    -3.213863   -1.7195235  0.054878615    -3.213863    1.4943395   411521 
 7132000   0.93434604   -3.2151207   -1.7197901  0.058797759   -3.2151207    1.4953306   411515 
 7133000   0.93433457    -3.214147   -1.7188094  0.060178399    -3.214147    1.4953377   411508 
 7134000   0.93385886   -3.2145451   -1.7199434  0.054168157   -3.2145451    1.4946017   411501 
 7135000   0.93507939   -3.2151021   -1.7185252  0.063590753   -3.2151021     1.496577   411495 
 7136000   0.93417795    -3.214517   -1.7193573  0.064906852    -3.214517    1.4951597   411488 
 7137000   0.93471081    -3.216438      -1.7204  0.061104224    -3.216438     1.496038   411481 
 7138000   0.93539762   -3.2170823   -1.7199232  0.061081303   -3.2170823    1.4971591   411475 
 7139000   0.93383615   -3.2147113   -1.7200261  0.065980108   -3.2147113    1.4946852   411468 
 7140000   0.93410835    -3.216771   -1.7216246  0.063680337    -3.216771    1.4951464   411461 
 7141000   0.93401206   -3.2165109   -1.7214968  0.059403903   -3.2165109     1.495014   411455 
 7142000    0.9365827   -3.2197546   -1.7206004  0.057296572   -3.2197546    1.4991542   411448 
 7143000   0.93492328   -3.2168867   -1.7203632  0.064186802   -3.2168867    1.4965235   411441 
 7144000   0.93489398   -3.2180487   -1.7215503  0.061242209   -3.2180487    1.4964984   411435 
 7145000   0.93455762   -3.2181903   -1.7222048  0.061723188   -3.2181903    1.4959854   411428 
 7146000   0.93467963   -3.2187679   -1.7225617  0.061126539   -3.2187679    1.4962062   411421 
 7147000   0.93450895   -3.2181386   -1.7221838   0.06302216   -3.2181386    1.4959548   411415 
 7148000   0.93503258   -3.2202113   -1.7233928  0.061837453   -3.2202113    1.4968185   411408 
 7149000   0.93576516   -3.2221874   -1.7241707  0.063947568   -3.2221874    1.4980167   411401 
 7150000   0.93473898   -3.2226361   -1.7262403  0.058625828   -3.2226361    1.4963958   411395 
 7151000   0.93477964   -3.2235346   -1.7270482  0.060934066   -3.2235346    1.4964863   411388 
 7152000   0.93346989   -3.2199051   -1.7254901  0.063904296   -3.2199051     1.494415   411381 
 7153000   0.93317919   -3.2208854   -1.7269139   0.05882709   -3.2208854    1.4939714   411375 
 7154000   0.93430443   -3.2227664   -1.7269681  0.062963054   -3.2227664    1.4957983   411368 
 7155000    0.9337421   -3.2222556   -1.7273322  0.063760372   -3.2222556    1.4949235   411361 
 7156000   0.93462645   -3.2230782   -1.7267171  0.061939096   -3.2230782    1.4963611   411355 
 7157000   0.93371889   -3.2213869   -1.7264534  0.066269794   -3.2213869    1.4949335   411348 
 7158000   0.93330822   -3.2214062   -1.7271047  0.064008013   -3.2214062    1.4943015   411341 
 7159000   0.93591097   -3.2246229   -1.7261324  0.061144206   -3.2246229    1.4984905   411335 
 7160000   0.93513039   -3.2229082    -1.725642  0.066916779   -3.2229082    1.4972662   411328 
 7161000   0.93469966   -3.2224422   -1.7258402  0.064475203   -3.2224422     1.496602   411321 
 7162000   0.93558872   -3.2249089   -1.7268615  0.063974126   -3.2249089    1.4980474   411315 
 7163000   0.93429964   -3.2237913   -1.7277825  0.057812252   -3.2237913    1.4960088   411308 
 7164000   0.93456423   -3.2255185   -1.7290606  0.063016938   -3.2255185     1.496458   411301 
 7165000   0.93356364   -3.2233544   -1.7284769  0.063894462   -3.2233544    1.4948776   411295 
 7166000   0.93392586   -3.2247437   -1.7292606  0.057649136   -3.2247437     1.495483   411288 
 7167000   0.93359238   -3.2241002   -1.7291257  0.061499295   -3.2241002    1.4949745   411281 
 7168000   0.93432656   -3.2254904   -1.7293185  0.064346747   -3.2254904     1.496172   411275 
 7169000   0.93432562   -3.2249593   -1.7287633    0.0602114   -3.2249593    1.4961959   411268 
 7170000   0.93295558   -3.2235089   -1.7294814  0.064928111   -3.2235089    1.4940274   411261 
 7171000   0.93339738   -3.2252496   -1.7304928   0.05864562   -3.2252496    1.4947567   411255 
 7172000   0.93441292   -3.2256603   -1.7292518  0.064764769   -3.2256603    1.4964085   411248 
 7173000   0.93452172   -3.2267748   -1.7301666  0.063645024   -3.2267748    1.4966082   411241 
 7174000   0.93460296   -3.2273465   -1.7305864   0.06486572   -3.2273465    1.4967602   411235 
 7175000    0.9343184   -3.2263261   -1.7299962  0.063408673   -3.2263261    1.4963299   411228 
 7176000   0.93352158   -3.2239466   -1.7288674  0.065263377   -3.2239466    1.4950792   411221 
 7177000   0.93572146   -3.2261033    -1.727479   0.06388074   -3.2261033    1.4986243   411215 
 7178000   0.93427555    -3.224441   -1.7281069  0.062009754    -3.224441    1.4963341   411208 
 7179000   0.93426173   -3.2258647   -1.7295273  0.061596187   -3.2258647    1.4963374   411201 
 7180000   0.93428999   -3.2262272   -1.7298227  0.062746411   -3.2262272    1.4964045   411195 
 7181000    0.9347636   -3.2262409   -1.7290524  0.059676385   -3.2262409    1.4971885   411188 
 7182000   0.93446229   -3.2247153   -1.7279839  0.061023749   -3.2247153    1.4967314   411181 
 7183000    0.9331523   -3.2236365   -1.7289814  0.060832848   -3.2236365     1.494655   411175 
 7184000   0.93497747   -3.2250399    -1.727436   0.06403794   -3.2250399    1.4976039   411168 
 7185000   0.93543215   -3.2255795   -1.7272218   0.05914316   -3.2255795    1.4983577   411161 
 7186000   0.93471999   -3.2246802   -1.7274414  0.059152494   -3.2246802    1.4972388   411155 
 7187000   0.93391982   -3.2236433   -1.7276607  0.065495283   -3.2236433    1.4959826   411148 
 7188000   0.93402025   -3.2226231   -1.7264541  0.064998619   -3.2226231    1.4961689   411141 
 7189000   0.93307047   -3.2221633   -1.7274939   0.05772991   -3.2221633    1.4946694   411135 
 7190000   0.93256138   -3.2203866   -1.7265073  0.060504797   -3.2203866    1.4938793   411128 
 7191000   0.93536132   -3.2244869   -1.7260969  0.058434988   -3.2244869      1.49839   411121 
 7192000   0.93509519   -3.2242865   -1.7263009  0.060462031   -3.2242865    1.4979856   411115 
 7193000    0.9331225   -3.2213976   -1.7265468  0.065805869   -3.2213976    1.4948509   411108 
 7194000   0.93375569   -3.2221765   -1.7262858  0.063888033   -3.2221765    1.4958907   411101 
 7195000   0.93458716   -3.2224773   -1.7252328  0.066428791   -3.2224773    1.4972446   411095 
 7196000   0.93399263   -3.2216365   -1.7253189  0.062837747   -3.2216365    1.4963176   411088 
 7197000   0.93438819   -3.2205143   -1.7235376  0.060358891   -3.2205143    1.4969768   411081 
 7198000   0.93374859   -3.2195204   -1.7235465  0.064520405   -3.2195204    1.4959739   411075 
 7199000   0.93348822   -3.2203667   -1.7247844  0.061255194   -3.2203667    1.4955823   411068 
 7200000   0.93359926   -3.2196529   -1.7238673  0.063121872   -3.2196529    1.4957856   411061 
 7201000   0.93362587   -3.2187083   -1.7228582  0.064004687   -3.2187083    1.4958501   411055 
 7202000   0.93369611   -3.2195887   -1.7236006  0.061584313   -3.2195887    1.4959881   411048 
 7203000   0.93332378   -3.2191748   -1.7237578  0.060022833   -3.2191748     1.495417   411041 
 7204000   0.93338497   -3.2207421   -1.7252052  0.057587788   -3.2207421    1.4955369   411035 
 7205000   0.93254075   -3.2193412   -1.7251316  0.057137356   -3.2193412    1.4942097   411028 
 7206000   0.93344595    -3.219486   -1.7238005  0.059679218    -3.219486    1.4956855   411021 
 7207000    0.9325395   -3.2193123   -1.7250574  0.061413581   -3.2193123    1.4942549   411015 
 7208000   0.93330525   -3.2195535   -1.7240462  0.065291589   -3.2195535    1.4955074   411008 
 7209000   0.93302026   -3.2189627   -1.7238865  0.059206396   -3.2189627    1.4950762   411001 
 7210000   0.93327087   -3.2206059   -1.7251063   0.05459794   -3.2206059    1.4954996   410995 
 7211000   0.93317883   -3.2206042   -1.7252266  0.061663133   -3.2206042    1.4953776   410988 
 7212000   0.93318724   -3.2210879   -1.7256714  0.059984376   -3.2210879    1.4954165   410981 
 7213000   0.93322966   -3.2205379   -1.7250316   0.05788614   -3.2205379    1.4955063   410975 
 7214000   0.93306262     -3.22055   -1.7252859  0.063385657     -3.22055    1.4952641   410968 
 7215000   0.93263291   -3.2201595   -1.7255586  0.059907163   -3.2201595     1.494601   410961 
 7216000   0.93240364   -3.2212607   -1.7270054  0.062151329   -3.2212607    1.4942554   410955 
 7217000    0.9331382   -3.2225574   -1.7270993  0.056444171   -3.2225574     1.495458   410948 
 7218000    0.9322836   -3.2217022   -1.7275883   0.05505414   -3.2217022    1.4941139   410941 
 7219000   0.93347802   -3.2234622   -1.7274122  0.059302337   -3.2234622    1.4960499   410935 
 7220000   0.93284734   -3.2228441   -1.7277794  0.059598553   -3.2228441    1.4950647   410928 
 7221000   0.93455455     -3.22402   -1.7261937  0.069412589     -3.22402    1.4978263   410921 
 7222000    0.9334401   -3.2227263   -1.7266643  0.061772677   -3.2227263     1.496062   410915 
 7223000   0.93248336   -3.2225635   -1.7280095   0.06256938   -3.2225635    1.4945541   410908 
 7224000   0.93236614   -3.2228308   -1.7284391  0.062518812   -3.2228308    1.4943916   410901 
 7225000   0.93418769   -3.2235549   -1.7262218  0.065683494   -3.2235549    1.4973331   410895 
 7226000   0.93399258   -3.2239152   -1.7268694  0.063897374   -3.2239152    1.4970458   410888 
 7227000   0.93340783   -3.2247654   -1.7286313  0.061469019   -3.2247654    1.4961341   410881 
 7228000   0.93283578   -3.2252578   -1.7300188  0.063110892   -3.2252578     1.495239   410875 
 7229000   0.93327293   -3.2263293   -1.7303641  0.060587258   -3.2263293    1.4959652   410868 
 7230000   0.93306249   -3.2245192   -1.7288659  0.058921515   -3.2245192    1.4956533   410861 
 7231000   0.93350302    -3.223571   -1.7271896   0.06083539    -3.223571    1.4963813   410855 
 7232000   0.93375598   -3.2255605   -1.7287481  0.059336496   -3.2255605    1.4968123   410848 
 7233000   0.93435022   -3.2250564    -1.727266  0.060119325   -3.2250564    1.4977904   410841 
 7234000   0.93335255    -3.224449    -1.728236  0.059145617    -3.224449     1.496213   410835 
 7235000   0.93407149   -3.2259735   -1.7285825  0.059134079   -3.2259735     1.497391   410828 
 7236000   0.93455426    -3.225552   -1.7273616   0.06207837    -3.225552    1.4981904   410821 
 7237000   0.93358938   -3.2233454   -1.7266799   0.05842592   -3.2233454    1.4966655   410815 
 7238000    0.9326885   -3.2213541   -1.7261073  0.063083383   -3.2213541    1.4952467   410808 
 7239000   0.93274421   -3.2214901   -1.7261286  0.061634435   -3.2214901    1.4953615   410801 
 7240000   0.93226603   -3.2211883   -1.7265716  0.060708241   -3.2211883    1.4946167   410795 
 7241000   0.93214187   -3.2210181   -1.7265749  0.057009793   -3.2210181    1.4944431   410788 
 7242000    0.9322898   -3.2208263   -1.7261205  0.059802712   -3.2208263    1.4947058   410781 
 7243000   0.93232047   -3.2202321   -1.7254553  0.064354501   -3.2202321    1.4947768   410775 
 7244000    0.9317267    -3.219219   -1.7253687  0.059005214    -3.219219    1.4938503   410768 
 7245000   0.93107749   -3.2190029   -1.7261681  0.060154312   -3.2190029    1.4928348   410761 
 7246000   0.93112708   -3.2183421    -1.725406  0.058636773   -3.2183421    1.4929361   410755 
 7247000   0.93224338   -3.2196033   -1.7248519   0.06093518   -3.2196033    1.4947515   410748 
 7248000   0.93171378   -3.2204035   -1.7264758  0.056917526   -3.2204035    1.4939278   410741 
 7249000   0.93192814   -3.2208333     -1.72654  0.055684096   -3.2208333    1.4942933   410735 
 7250000   0.93205634   -3.2187145   -1.7241902  0.057483387   -3.2187145    1.4945243   410728 
 7251000   0.93199226   -3.2187681    -1.724321  0.062138007   -3.2187681     1.494447   410721 
 7252000   0.93201006   -3.2183167   -1.7238193  0.062040431   -3.2183167    1.4944974   410715 
 7253000   0.93289755   -3.2196108   -1.7236648  0.057961028   -3.2196108     1.495946   410708 
 7254000   0.93206748    -3.219651   -1.7250106   0.06132832    -3.219651    1.4946404   410701 
 7255000   0.93271331   -3.2207342   -1.7250362  0.060158487   -3.2207342    1.4956979   410695 
 7256000   0.93211702   -3.2180035   -1.7232363  0.066425324   -3.2180035    1.4947672   410688 
 7257000   0.93339142   -3.2183306   -1.7214942  0.060356085   -3.2183306    1.4968364   410681 
 7258000   0.93352629   -3.2200473   -1.7229728  0.060472082   -3.2200473    1.4970745   410675 
 7259000   0.93300067   -3.2188081    -1.722551   0.06218361   -3.2188081    1.4962571   410668 
 7260000    0.9333016   -3.2200681   -1.7233029   0.06008587   -3.2200681    1.4967652   410661 
 7261000   0.93345136   -3.2188147   -1.7217875  0.060861908   -3.2188147    1.4970273   410655 
 7262000   0.93379284    -3.219327   -1.7217266  0.061597859    -3.219327    1.4976004   410648 
 7263000   0.93381984   -3.2202952   -1.7226259  0.055251736   -3.2202952    1.4976693   410641 
 7264000   0.93323373   -3.2199607   -1.7232096   0.05917627   -3.2199607    1.4967511   410635 
 7265000   0.93197314   -3.2187679   -1.7240131  0.063050305   -3.2187679    1.4947548   410628 
 7266000    0.9330901    -3.220386   -1.7238142  0.057968702    -3.220386    1.4965718   410621 
 7267000   0.93237749   -3.2192083   -1.7237576  0.064938026   -3.2192083    1.4954507   410615 
 7268000    0.9319618   -3.2189331   -1.7241237  0.059456827   -3.2189331    1.4948095   410608 
 7269000   0.93154443   -3.2172828   -1.7231173  0.058622086   -3.2172828    1.4941655   410601 
 7270000   0.93083791   -3.2171963   -1.7241422  0.059291244   -3.2171963    1.4930541   410595 
 7271000    0.9314853   -3.2191433   -1.7250253  0.059549556   -3.2191433    1.4941179   410588 
 7272000   0.93074607   -3.2187407    -1.725783  0.060977045   -3.2187407    1.4929577   410581 
 7273000   0.93286522   -3.2214228    -1.725044  0.061067192   -3.2214228    1.4963788   410575 
 7274000   0.93201954   -3.2215683   -1.7265206  0.065183842   -3.2215683    1.4950477   410568 
 7275000   0.93201084   -3.2210704   -1.7260112  0.059177568   -3.2210704    1.4950592   410561 
 7276000   0.93083305   -3.2176757    -1.724484  0.064121263   -3.2176757    1.4931918   410555 
 7277000   0.93290091   -3.2228407   -1.7263063  0.063373493   -3.2228407    1.4965344   410548 
 7278000   0.93277104   -3.2205851   -1.7242335  0.062545325   -3.2205851    1.4963516   410541 
 7279000   0.93193822   -3.2200724   -1.7250349   0.05931816   -3.2200724    1.4950374   410535 
 7280000   0.93196858   -3.2203616   -1.7252499  0.062775494   -3.2203616    1.4951116   410528 
 7281000   0.93338106    -3.222615   -1.7252119  0.061291867    -3.222615    1.4974031   410521 
 7282000   0.93308597   -3.2219141   -1.7249625   0.05924489   -3.2219141    1.4969516   410515 
 7283000   0.93244184   -3.2222581   -1.7263143  0.062521925   -3.2222581    1.4959437   410508 
 7284000   0.93305995   -3.2227214   -1.7257605   0.06442031   -3.2227214    1.4969609   410501 
 7285000    0.9331521   -3.2234769   -1.7263463  0.064531759   -3.2234769    1.4971306   410495 
 7286000    0.9327246   -3.2223271   -1.7258568  0.062525193   -3.2223271    1.4964703   410488 
 7287000    0.9323812   -3.2201242   -1.7241793   0.06298564   -3.2201242    1.4959448   410481 
 7288000    0.9320401   -3.2211135   -1.7256941  0.060587575   -3.2211135    1.4954194   410475 
 7289000   0.93269615   -3.2226815    -1.726184  0.058818708   -3.2226815    1.4964976   410468 
 7290000    0.9331735   -3.2232673   -1.7259783  0.061634415   -3.2232673     1.497289   410461 
 7291000   0.93108336   -3.2207677   -1.7268105  0.058020896   -3.2207677    1.4939572   410455 
 7292000   0.93296404   -3.2235566   -1.7265563   0.06055661   -3.2235566    1.4970003   410448 
 7293000   0.93176276   -3.2228682   -1.7277699  0.060306793   -3.2228682    1.4950983   410441 
 7294000    0.9324107    -3.223847   -1.7276872  0.062870268    -3.223847    1.4961598   410435 
 7295000   0.93080314   -3.2223551   -1.7287493  0.060788843   -3.2223551    1.4936058   410428 
 7296000   0.93111519   -3.2227461   -1.7286141  0.061105001   -3.2227461     1.494132   410421 
 7297000   0.93200554   -3.2226027   -1.7270201  0.060429035   -3.2226027    1.4955826   410415 
 7298000   0.93112064    -3.220376   -1.7261879  0.061603371    -3.220376    1.4941881   410408 
 7299000   0.93162813    -3.222238   -1.7272101  0.063618111    -3.222238     1.495028   410401 
 7300000   0.93038187   -3.2218995   -1.7288497  0.063754455   -3.2218995    1.4930499   410395 
 7301000   0.93123644   -3.2226635   -1.7282168  0.063659178   -3.2226635    1.4944467   410388 
 7302000   0.93263969   -3.2234703   -1.7267461  0.062050815   -3.2234703    1.4967242   410381 
 7303000   0.93127195    -3.220985   -1.7264339  0.061541988    -3.220985    1.4945511   410375 
 7304000   0.93273785   -3.2236385   -1.7267093  0.064547142   -3.2236385    1.4969291   410368 
 7305000   0.93136755   -3.2203782   -1.7256227  0.066726627   -3.2203782    1.4947555   410361 
 7306000   0.93365634   -3.2238612   -1.7254105  0.062557323   -3.2238612    1.4984507   410355 
 7307000   0.93391236   -3.2227991   -1.7239119  0.063920047   -3.2227991    1.4988871   410348 
 7308000   0.93241424   -3.2235183     -1.72701  0.060553124   -3.2235183    1.4965083   410341 
 7309000   0.93122363   -3.2219809   -1.7273617  0.059862399   -3.2219809    1.4946192   410335 
 7310000    0.9330132   -3.2242001   -1.7266831   0.06045103   -3.2242001     1.497517   410328 
 7311000   0.93230697    -3.222772    -1.726363  0.062827722    -3.222772     1.496409   410321 
 7312000   0.93102306   -3.2214861    -1.727116  0.062441515   -3.2214861    1.4943701   410315 
 7313000   0.93128422   -3.2212733   -1.7264585  0.060309327   -3.2212733    1.4948148   410308 
 7314000    0.9305701   -3.2215431   -1.7278491  0.061006743   -3.2215431    1.4936941   410301 
 7315000   0.93118271   -3.2224932    -1.727794  0.064822263   -3.2224932    1.4946992   410295 
 7316000   0.93135655   -3.2230828    -1.728079  0.061595851   -3.2230828    1.4950038   410288 
 7317000   0.93103324   -3.2223362   -1.7278259  0.063949052   -3.2223362    1.4945103   410281 
 7318000   0.93047145   -3.2203339   -1.7267036  0.064270346   -3.2203339    1.4936304   410275 
 7319000   0.93164159    -3.221851   -1.7263167  0.058455786    -3.221851    1.4955342   410268 
 7320000    0.9315633   -3.2220499   -1.7266159    0.0618544   -3.2220499    1.4954341   410261 
 7321000   0.93163672   -3.2223839   -1.7268101  0.062997634   -3.2223839    1.4955738   410255 
 7322000   0.93062428   -3.2226098   -1.7286358  0.062444337   -3.2226098     1.493974   410248 
 7323000   0.93127752   -3.2230338   -1.7279856  0.059983425   -3.2230338    1.4950482   410241 
 7324000   0.92972128    -3.221437   -1.7288654  0.063855172    -3.221437    1.4925717   410235 
 7325000   0.93021008   -3.2200794   -1.7266976  0.066208616   -3.2200794    1.4933819   410228 
 7326000   0.93211185   -3.2220471   -1.7255865  0.060322832   -3.2220471    1.4964605   410221 
 7327000   0.93048139   -3.2211743   -1.7273095  0.060489851   -3.2211743    1.4938648   410215 
 7328000   0.92975863   -3.2208628   -1.7281329  0.058390106   -3.2208628    1.4927299   410208 
 7329000   0.93086783   -3.2204276   -1.7258914  0.066137874   -3.2204276    1.4945362   410201 
 7330000   0.93245157   -3.2238022   -1.7267014  0.063763729   -3.2238022    1.4971008   410195 
 7331000   0.93226099   -3.2234592   -1.7266388   0.06390317   -3.2234592    1.4968204   410188 
 7332000   0.93117405    -3.220329   -1.7252282  0.064634664    -3.220329    1.4951007   410181 
 7333000   0.93288158   -3.2220617   -1.7241974  0.058862008   -3.2220617    1.4978643   410175 
 7334000   0.93264433   -3.2225861   -1.7250772   0.06070265   -3.2225861    1.4975089   410168 
 7335000   0.93192161    -3.222571    -1.726197  0.060321849    -3.222571     1.496374   410161 
 7336000   0.93219405   -3.2248132   -1.7279799  0.060779494   -3.2248132    1.4968333   410155 
 7337000   0.93071453   -3.2220298   -1.7275466  0.060855713   -3.2220298    1.4944832   410148 
 7338000   0.93229102   -3.2243678   -1.7273277  0.061838801   -3.2243678    1.4970401   410141 
 7339000   0.93048865   -3.2220272   -1.7278594  0.061202385   -3.2220272    1.4941678   410135 
 7340000   0.93022242   -3.2217827   -1.7280169  0.062892259   -3.2217827    1.4937658   410128 
 7341000   0.92997161   -3.2211349   -1.7277464  0.059739156   -3.2211349    1.4933885   410121 
 7342000   0.93051501   -3.2210677   -1.7267846  0.063350076   -3.2210677     1.494283   410115 
 7343000   0.92999637   -3.2204163   -1.7269407  0.063664691   -3.2204163    1.4934756   410108 
 7344000   0.93188269   -3.2238935   -1.7273631  0.062650426   -3.2238935    1.4965304   410101 
 7345000   0.93187488   -3.2244309   -1.7278911   0.05836761   -3.2244309    1.4965398   410095 
 7346000   0.93207216   -3.2230687   -1.7261866  0.063895166   -3.2230687    1.4968821   410088 
 7347000   0.93397555   -3.2278287   -1.7278641   0.05865488   -3.2278287    1.4999645   410081 
 7348000   0.93297206   -3.2260334   -1.7276585  0.058218353   -3.2260334    1.4983749   410075 
 7349000   0.93150443    -3.222598   -1.7265546   0.06186379    -3.222598    1.4960433   410068 
 7350000   0.93133508   -3.2233362   -1.7275393   0.05902161   -3.2233362    1.4957969   410061 
 7351000   0.93069056   -3.2233602   -1.7285765   0.06023999   -3.2233602    1.4947836   410055 
 7352000   0.92975834   -3.2223831   -1.7290712  0.059694554   -3.2223831    1.4933119   410048 
 7353000   0.92887965   -3.2217803   -1.7298543  0.059127538   -3.2217803    1.4919261   410041 
 7354000   0.93058247   -3.2239797   -1.7292968  0.062536771   -3.2239797    1.4946829   410035 
 7355000   0.92847201   -3.2204257   -1.7291071  0.066442597   -3.2204257    1.4913186   410028 
 7356000   0.93142899   -3.2253665   -1.7292729  0.059447923   -3.2253665    1.4960937   410021 
 7357000   0.93034479   -3.2239431   -1.7295691  0.065559691   -3.2239431    1.4943741   410015 
 7358000   0.93029986    -3.224539   -1.7302116  0.060618269    -3.224539    1.4943274   410008 
 7359000   0.92915759   -3.2228403   -1.7303222  0.060836109   -3.2228403    1.4925181   410001 
 7360000   0.93043427   -3.2231824   -1.7285917  0.059529661   -3.2231824    1.4945907   409995 
 7361000   0.92924604    -3.221441   -1.7287335  0.060612776    -3.221441    1.4927075   409988 
 7362000   0.92949981   -3.2199372   -1.7267966  0.061360323   -3.2199372    1.4931406   409981 
 7363000   0.93021726    -3.223145   -1.7288301  0.062620399    -3.223145     1.494315   409975 
 7364000   0.93070242   -3.2258125   -1.7306926  0.055443132   -3.2258125    1.4951199   409968 
 7365000   0.93170334   -3.2259249   -1.7291716  0.064454893   -3.2259249    1.4967534   409961 
 7366000   0.93031407   -3.2234062   -1.7288627  0.064288387   -3.2234062    1.4945434   409955 
 7367000   0.93162269      -3.2257   -1.7290288  0.058755366      -3.2257    1.4966713   409948 
 7368000   0.93276091   -3.2273351   -1.7288097  0.061580248   -3.2273351    1.4985254   409941 
 7369000   0.93343798   -3.2259832   -1.7263481  0.061609827   -3.2259832    1.4996351   409935 
 7370000   0.93235341   -3.2246153   -1.7266971  0.063913861   -3.2246153    1.4979183   409928 
 7371000    0.9317601   -3.2246576    -1.727667  0.065711829   -3.2246576    1.4969906   409921 
 7372000   0.93204617   -3.2259256   -1.7284535  0.060120243   -3.2259256    1.4974721   409915 
 7373000   0.93054872   -3.2239755   -1.7288837  0.058691279   -3.2239755    1.4950918   409908 
 7374000   0.92960048   -3.2230031   -1.7294094  0.062335351   -3.2230031    1.4935938   409901 
 7375000   0.93014229   -3.2239073   -1.7294211  0.058543305   -3.2239073    1.4944862   409895 
 7376000   0.93035863   -3.2259662   -1.7311069  0.064237738   -3.2259662    1.4948593   409888 
 7377000    0.9297272    -3.225107   -1.7312368  0.062013637    -3.225107    1.4938703   409881 
 7378000   0.92900736   -3.2233911   -1.7306557  0.059526125   -3.2233911    1.4927355   409875 
 7379000   0.92874006   -3.2231659   -1.7308344  0.062687583   -3.2231659    1.4923315   409868 
 7380000   0.93185241   -3.2275126   -1.7301546  0.056684242   -3.2275126    1.4973581   409861 
 7381000   0.93148442   -3.2271961   -1.7304075  0.059001803   -3.2271961    1.4967887   409855 
 7382000   0.92957941   -3.2249068   -1.7311537   0.06492601   -3.2249068    1.4937531   409848 
 7383000   0.92904558   -3.2243014   -1.7313807   0.05549045   -3.2243014    1.4929207   409841 
 7384000    0.9294173    -3.223905    -1.730365  0.055720399    -3.223905    1.4935399   409835 
 7385000   0.92736085   -3.2225512   -1.7322905    0.0534194   -3.2225512    1.4902608   409828 
 7386000   0.92835862   -3.2244641   -1.7325744  0.058750427   -3.2244641    1.4918896   409821 
 7387000    0.9275774   -3.2233127   -1.7326567   0.06126267   -3.2233127     1.490656   409815 
 7388000   0.92784627   -3.2254103   -1.7342967  0.054872739   -3.2254103    1.4911136   409808 
 7389000   0.92857895   -3.2245638   -1.7322473  0.061339449   -3.2245638    1.4923165   409801 
 7390000   0.92830603   -3.2248794   -1.7329796  0.057307957   -3.2248794    1.4918998   409795 
 7391000   0.92952357   -3.2272658   -1.7333838  0.054590393   -3.2272658     1.493882   409788 
 7392000   0.92955391   -3.2263685   -1.7324122   0.06174072   -3.2263685    1.4939563   409781 
 7393000   0.93062266   -3.2275789   -1.7318831  0.060144722   -3.2275789    1.4956959   409775 
 7394000   0.92985226   -3.2258564   -1.7313732  0.061029081   -3.2258564    1.4944832   409768 
 7395000    0.9306065   -3.2264403   -1.7307193  0.060149089   -3.2264403     1.495721   409761 
 7396000   0.93105106    -3.226578   -1.7301206  0.065669112    -3.226578    1.4964574   409755 
 7397000   0.93079423    -3.228062   -1.7319918  0.061544839    -3.228062    1.4960702   409748 
 7398000   0.93081418    -3.227414   -1.7312862  0.062319352    -3.227414    1.4961278   409741 
 7399000   0.93145957   -3.2288277   -1.7316406   0.06373702   -3.2288277    1.4971871   409735 
 7400000   0.93038918   -3.2267961   -1.7313039  0.062245205   -3.2267961    1.4954922   409728 
 7401000    0.9294378   -3.2251817   -1.7311932   0.06223925   -3.2251817    1.4939884   409721 
 7402000   0.93074221   -3.2272629   -1.7311559  0.060945221   -3.2272629    1.4961071   409715 
 7403000   0.93030353   -3.2265345    -1.731107  0.063182774   -3.2265345    1.4954275   409708 
 7404000    0.9291555   -3.2261879   -1.7325803  0.061868316   -3.2261879    1.4936076   409701 
 7405000   0.92837442   -3.2243034   -1.7319296   0.06185643   -3.2243034    1.4923739   409695 
 7406000   0.92863354   -3.2258817   -1.7330658  0.063362346   -3.2258817    1.4928159   409688 
 7407000   0.92749852    -3.223008   -1.7319912  0.059320883    -3.223008    1.4910168   409681 
 7408000   0.92867445   -3.2249236   -1.7319946  0.059029035   -3.2249236     1.492929   409675 
 7409000   0.92780751   -3.2237083   -1.7321475  0.061677942   -3.2237083    1.4915608   409668 
 7410000   0.92845469   -3.2230379   -1.7304111  0.058326193   -3.2230379    1.4926268   409661 
 7411000   0.92816652   -3.2233194    -1.731134   0.05569747   -3.2233194    1.4921853   409655 
 7412000   0.92931609   -3.2237605   -1.7297015  0.065478884   -3.2237605     1.494059   409648 
 7413000   0.93017782   -3.2243781   -1.7289081  0.059116234   -3.2243781      1.49547   409641 
 7414000   0.92919989   -3.2224992   -1.7285796  0.058058881   -3.2224992    1.4939196   409635 
 7415000   0.92972316    -3.222608   -1.7278216  0.061410491    -3.222608    1.4947864   409628 
 7416000   0.92796766   -3.2208222   -1.7288327  0.062174449   -3.2208222    1.4919895   409621 
 7417000   0.92811537   -3.2199473   -1.7276985  0.064342512   -3.2199473    1.4922488   409615 
 7418000   0.92730395   -3.2181867    -1.727217  0.065466509   -3.2181867    1.4909697   409608 
 7419000   0.92859625   -3.2210739   -1.7280009  0.061312058   -3.2210739     1.493073   409601 
 7420000   0.92835494   -3.2214019    -1.728695  0.058599579   -3.2214019    1.4927069   409595 
 7421000   0.92877193   -3.2218713   -1.7284684  0.061847453   -3.2218713    1.4934029   409588 
 7422000   0.92839706   -3.2208441   -1.7280184  0.060769877   -3.2208441    1.4928256   409581 
 7423000   0.92962941   -3.2224892   -1.7276601  0.062467698   -3.2224892    1.4948291   409575 
 7424000   0.92842365   -3.2199092   -1.7269934  0.062318404   -3.2199092    1.4929158   409568 
 7425000   0.92896607   -3.2213677   -1.7275542  0.060081341   -3.2213677    1.4938135   409561 
 7426000   0.92836812    -3.220309   -1.7274351  0.059170956    -3.220309    1.4928739   409555 
 7427000   0.92922608   -3.2195287   -1.7252496   0.05875635   -3.2195287    1.4942791   409548 
 7428000   0.92839041   -3.2198685   -1.7269078  0.056522536   -3.2198685    1.4929608   409541 
 7429000   0.92961284   -3.2217971   -1.7268486  0.062709768   -3.2217971    1.4949485   409535 
 7430000   0.92890943   -3.2196291   -1.7257863  0.060887818   -3.2196291    1.4938428   409528 
 7431000   0.92918854   -3.2192718   -1.7249546  0.061987338   -3.2192718    1.4943172   409521 
 7432000   0.93069299   -3.2226264   -1.7258678  0.063010855   -3.2226264    1.4967586   409515 
 7433000   0.93005837   -3.2221601   -1.7263966  0.060664879   -3.2221601    1.4957636   409508 
 7434000   0.92985457   -3.2220068   -1.7265454  0.061390887   -3.2220068    1.4954614   409501 
 7435000   0.92894491    -3.221078   -1.7270577   0.06154293    -3.221078    1.4940203   409495 
 7436000   0.92937657   -3.2217651   -1.7270251  0.062354894   -3.2217651    1.4947401   409488 
 7437000   0.92795252   -3.2199447   -1.7274695  0.060135565   -3.2199447    1.4924752   409481 
 7438000   0.92836607   -3.2221124   -1.7289502  0.057575786   -3.2221124    1.4931622   409475 
 7439000   0.92843196    -3.222512   -1.7292182   0.05570137    -3.222512    1.4932938   409468 
 7440000   0.92950614   -3.2230136   -1.7279665  0.057230698   -3.2230136     1.495047   409461 
 7441000   0.92770382   -3.2210336   -1.7288636  0.057737696   -3.2210336      1.49217   409455 
 7442000   0.92817719   -3.2210574   -1.7281005  0.063045942   -3.2210574    1.4929569   409448 
 7443000   0.92901905   -3.2217092   -1.7273726  0.062012378   -3.2217092    1.4943366   409441 
 7444000   0.92952091   -3.2221496   -1.7269839  0.059733115   -3.2221496    1.4951657   409435 
 7445000   0.92983836   -3.2238341   -1.7281322  0.059097407   -3.2238341    1.4957019   409428 
 7446000   0.93050959   -3.2263001   -1.7294929  0.058286688   -3.2263001    1.4968072   409421 
 7447000   0.92863375   -3.2243787    -1.730567  0.060435042   -3.2243787    1.4938117   409415 
 7448000    0.9287397   -3.2247245   -1.7307169  0.057873764   -3.2247245    1.4940076   409408 
 7449000    0.9265902   -3.2237262   -1.7331508  0.059826749   -3.2237262    1.4905753   409401 
 7450000   0.92820623   -3.2254264   -1.7322295  0.058667132   -3.2254264    1.4931969   409395 
 7451000   0.92834293   -3.2266103    -1.733168  0.058792343   -3.2266103    1.4934423   409388 
 7452000   0.92913689   -3.2266327   -1.7318875  0.056711922   -3.2266327    1.4947452   409381 
 7453000    0.9282747     -3.22497     -1.73159  0.056010157     -3.22497      1.49338   409375 
 7454000   0.92852929   -3.2265318   -1.7327167  0.058295757   -3.2265318    1.4938151   409368 
 7455000   0.92849817   -3.2259868   -1.7321962  0.064247401   -3.2259868    1.4937906   409361 
 7456000   0.92893816   -3.2261717   -1.7316514  0.058391815   -3.2261717    1.4945204   409355 
 7457000   0.92978985   -3.2272474   -1.7313312  0.058101527   -3.2272474    1.4959162   409348 
 7458000   0.92944385   -3.2262872   -1.7309021  0.059694036   -3.2262872    1.4953851   409341 
 7459000   0.93154461   -3.2300154   -1.7312284  0.059112684   -3.2300154     1.498787   409335 
 7460000   0.93022151   -3.2282347   -1.7315509  0.066369713   -3.2282347    1.4966838   409328 
 7461000   0.92933813    -3.226754    -1.731466  0.061669326    -3.226754     1.495288   409321 
 7462000   0.92919905   -3.2274031   -1.7323169   0.06262635   -3.2274031    1.4950862   409315 
 7463000   0.92810328    -3.225497   -1.7321484    0.0605818    -3.225497    1.4933486   409308 
 7464000   0.92721377   -3.2255948   -1.7336519  0.062132751   -3.2255948    1.4919429   409301 
 7465000     0.927818    -3.225781    -1.732844  0.061552825    -3.225781     1.492937   409295 
 7466000   0.92905253   -3.2275449   -1.7325959  0.054994116   -3.2275449     1.494949   409288 
 7467000   0.92817099   -3.2256878   -1.7321317    0.0628181   -3.2256878    1.4935561   409281 
 7468000    0.9283737   -3.2257433   -1.7318391  0.059055664   -3.2257433    1.4939042   409275 
 7469000   0.92668861   -3.2223626   -1.7311445  0.061748071   -3.2223626    1.4912181   409268 
 7470000   0.92726013   -3.2224471   -1.7302838  0.057650581   -3.2224471    1.4921633   409261 
 7471000   0.92774116   -3.2239665   -1.7310073   0.05626446   -3.2239665    1.4929593   409255 
 7472000   0.92850149   -3.2250768   -1.7308684  0.051737869   -3.2250768    1.4942084   409248 
 7473000    0.9280165   -3.2246059   -1.7311524  0.058170293   -3.2246059    1.4934535   409241 
 7474000   0.92681335   -3.2220195   -1.7304804  0.062996498   -3.2220195    1.4915391   409235 
 7475000   0.92683277   -3.2228251   -1.7312292  0.061315011   -3.2228251    1.4915959   409228 
 7476000   0.92699758    -3.222421   -1.7305344  0.060241355    -3.222421    1.4918866   409221 
 7477000   0.92783657   -3.2237619   -1.7305032  0.060236764   -3.2237619    1.4932588   409215 
 7478000   0.92651916   -3.2195053   -1.7283412  0.062854341   -3.2195053     1.491164   409208 
 7479000   0.92793141   -3.2215892   -1.7281267   0.05944025   -3.2215892    1.4934625   409201 
 7480000   0.92775112   -3.2227081   -1.7295139  0.061172971   -3.2227081    1.4931942   409195 
 7481000   0.92835121   -3.2232694   -1.7290838  0.058660522   -3.2232694    1.4941856   409188 
 7482000   0.92873441   -3.2221277   -1.7272998  0.062636966   -3.2221277     1.494828   409181 
 7483000   0.92811904   -3.2215687   -1.7277093  0.062485565   -3.2215687    1.4938594   409175 
 7484000   0.92702872   -3.2206504   -1.7285204  0.061637032   -3.2206504      1.49213   409168 
 7485000   0.92872403   -3.2226011   -1.7277168  0.063639782   -3.2226011    1.4948843   409161 
 7486000    0.9290405   -3.2212542   -1.7258386  0.060480103   -3.2212542    1.4954156   409155 
 7487000   0.92884879   -3.2218447   -1.7267121  0.061943042   -3.2218447    1.4951326   409148 
 7488000   0.92762596   -3.2194023   -1.7262124  0.062534605   -3.2194023    1.4931898   409141 
 7489000   0.92933056   -3.2237637   -1.7278081  0.058081595   -3.2237637    1.4959556   409135 
 7490000   0.92735814   -3.2229621   -1.7301559  0.060198908   -3.2229621    1.4928061   409128 
 7491000   0.92533062   -3.2189791   -1.7294112  0.060063016   -3.2189791    1.4895679   409121 
 7492000   0.92648578   -3.2205986   -1.7291493  0.055932338   -3.2205986    1.4914493   409115 
 7493000   0.92638533   -3.2200713   -1.7287582  0.058208589   -3.2200713    1.4913131   409108 
 7494000   0.92661694   -3.2207807   -1.7290692  0.057307196   -3.2207807    1.4917115   409101 
 7495000   0.92651885   -3.2203257   -1.7287503  0.056794697   -3.2203257    1.4915754   409095 
 7496000   0.92723225   -3.2212645   -1.7285151  0.058970953   -3.2212645    1.4927494   409088 
 7497000   0.92837035   -3.2226082    -1.728001  0.058586094   -3.2226082    1.4946073   409081 
 7498000   0.92895165   -3.2233382   -1.7277731  0.063334036   -3.2233382     1.495565   409075 
 7499000   0.92754717   -3.2208725    -1.727543  0.062687388   -3.2208725    1.4933295   409068 
 7500000   0.92980609   -3.2248151   -1.7278233  0.060742928   -3.2248151    1.4969919   409061 
 7501000   0.92918464   -3.2237962    -1.727783  0.065659534   -3.2237962    1.4960133   409055 
 7502000   0.92931153    -3.224899   -1.7286559  0.060738112    -3.224899    1.4962432   409048 
 7503000    0.9275541   -3.2231339   -1.7296947  0.059253059   -3.2231339    1.4934392   409041 
 7504000   0.92750935   -3.2231381    -1.729749  0.062081619   -3.2231381     1.493389   409035 
 7505000   0.92729193   -3.2225969   -1.7295324   0.06516422   -3.2225969    1.4930645   409028 
 7506000   0.92745396   -3.2253614   -1.7320104  0.053842998   -3.2253614     1.493351   409021 
 7507000   0.92681414   -3.2247439   -1.7324013  0.060590077   -3.2247439    1.4923426   409015 
 7508000   0.92727828    -3.224017   -1.7309015  0.056262061    -3.224017    1.4931155   409008 
 7509000   0.92821931    -3.222048   -1.7273917  0.059073962    -3.222048    1.4946564   409001 
 7510000   0.92828647   -3.2248142   -1.7300277  0.057700951   -3.2248142    1.4947865   408995 
 7511000   0.92908426   -3.2248337    -1.728737  0.065363751   -3.2248337    1.4960967   408988 
 7512000   0.92959655    -3.225268   -1.7283207    0.0633092    -3.225268    1.4969473   408981 
 7513000   0.92936099   -3.2251224   -1.7285325  0.064703245   -3.2251224    1.4965899   408975 
 7514000   0.92975659   -3.2274486    -1.730196  0.061238789   -3.2274486    1.4972526   408968 
 7515000   0.92887743   -3.2250475   -1.7291851  0.062219787   -3.2250475    1.4958624   408961 
 7516000   0.92910172    -3.225807   -1.7295615  0.061824899    -3.225807    1.4962456   408955 
 7517000   0.92777601   -3.2250441   -1.7309079  0.066811786   -3.2250441    1.4941362   408948 
 7518000   0.92867464    -3.225654    -1.730045  0.058336156    -3.225654     1.495609   408941 
 7519000   0.92943119   -3.2275725   -1.7307232  0.059276656   -3.2275725    1.4968493   408935 
 7520000   0.92760046   -3.2252646    -1.731338  0.062532281   -3.2252646    1.4939265   408928 
 7521000   0.92784692   -3.2247548   -1.7304058  0.061097697   -3.2247548     1.494349   408921 
 7522000   0.92797021   -3.2247581   -1.7301886  0.061840817   -3.2247581    1.4945695   408915 
 7523000   0.92734611   -3.2265003   -1.7329104    0.0552644   -3.2265003    1.4935899   408908 
 7524000   0.92666779   -3.2255023   -1.7329793  0.063690534   -3.2255023     1.492523   408901 
 7525000   0.92714083   -3.2246585   -1.7313517  0.059408016   -3.2246585    1.4933068   408895 
 7526000   0.92768794   -3.2245873   -1.7303737  0.061959278   -3.2245873    1.4942136   408888 
 7527000   0.92848249   -3.2259725   -1.7304535  0.061922166   -3.2259725     1.495519   408881 
 7528000   0.92875148   -3.2265703   -1.7305962    0.0607557   -3.2265703    1.4959742   408875 
 7529000    0.9301357   -3.2277193   -1.7294899  0.059874183   -3.2277193    1.4982294   408868 
 7530000   0.92893833   -3.2247983   -1.7284719  0.063602128   -3.2247983    1.4963264   408861 
 7531000   0.92836656   -3.2233633    -1.727936  0.062468985   -3.2233633    1.4954273   408855 
 7532000   0.92804774   -3.2239973    -1.729058   0.06295138   -3.2239973    1.4949393   408848 
 7533000   0.92970962   -3.2252786   -1.7276366  0.057754157   -3.2252786     1.497642   408841 
 7534000   0.92797459   -3.2237763   -1.7289073   0.06098316   -3.2237763     1.494869   408835 
 7535000   0.92839016   -3.2238925   -1.7283284   0.05590555   -3.2238925    1.4955641   408828 
 7536000   0.92687733   -3.2207865   -1.7276339   0.05669663   -3.2207865    1.4931526   408821 
 7537000   0.92823602   -3.2238375   -1.7284741  0.059792554   -3.2238375    1.4953633   408815 
 7538000    0.9277219   -3.2234627   -1.7289021   0.05748688   -3.2234627    1.4945607   408808 
 7539000   0.92673265   -3.2211792   -1.7281867  0.058499612   -3.2211792    1.4929926   408801 
 7540000   0.92836335   -3.2225306    -1.726889  0.056447004   -3.2225306    1.4956416   408795 
 7541000   0.92839595   -3.2233596   -1.7276398  0.060152972   -3.2233596    1.4957198   408788 
 7542000   0.92914997   -3.2223597   -1.7253995  0.057711775   -3.2223597    1.4969602   408781 
 7543000   0.92843865   -3.2218467   -1.7260106   0.05406239   -3.2218467    1.4958361   408775 
 7544000   0.92750104   -3.2211483   -1.7267972  0.055677938   -3.2211483    1.4943511   408768 
 7545000   0.92651639   -3.2212438   -1.7284536   0.05645373   -3.2212438    1.4927902   408761 
 7546000   0.92726471   -3.2212726   -1.7272548   0.05998749   -3.2212726    1.4940178   408755 
 7547000   0.92603822   -3.2192869   -1.7272196  0.059560576   -3.2192869    1.4920673   408748 
 7548000   0.92735958   -3.2205382   -1.7263163  0.059071719   -3.2205382    1.4942219   408741 
 7549000   0.92747306   -3.2202106   -1.7257839  0.061892628   -3.2202106    1.4944267   408735 
 7550000   0.92797185   -3.2200682   -1.7248123   0.05955217   -3.2200682     1.495256   408728 
 7551000    0.9287788   -3.2219172   -1.7253353  0.064102135   -3.2219172    1.4965818   408721 
 7552000   0.92834038   -3.2201492   -1.7242519  0.066634524   -3.2201492    1.4958974   408715 
 7553000   0.92861725   -3.2212838   -1.7249147  0.062795451   -3.2212838    1.4963691   408708 
 7554000   0.92828474   -3.2199246   -1.7240656  0.057542091   -3.2199246    1.4958589   408701 
 7555000   0.92894262   -3.2220466   -1.7251055   0.06162093   -3.2220466    1.4969411   408695 
 7556000   0.92918919   -3.2208894   -1.7235254  0.062060477   -3.2208894     1.497364   408688 
 7557000   0.93031406   -3.2212115   -1.7220091  0.058717272   -3.2212115    1.4992024   408681 
 7558000   0.92925206   -3.2210662   -1.7235532  0.062464685   -3.2210662     1.497513   408675 
 7559000   0.92680719   -3.2182358   -1.7246372   0.06121531   -3.2182358    1.4935986   408668 
 7560000   0.92890134    -3.221193    -1.724194  0.062019157    -3.221193    1.4969991   408661 
 7561000   0.92757386   -3.2186563   -1.7237746  0.067929842   -3.2186563    1.4948817   408655 
 7562000   0.92859057   -3.2218854   -1.7253396  0.063276395   -3.2218854    1.4965458   408648 
 7563000   0.92724106   -3.2193071   -1.7249105  0.063201707   -3.2193071    1.4943965   408641 
 7564000   0.92757405   -3.2200396   -1.7250844  0.060390235   -3.2200396    1.4949551   408635 
 7565000   0.92833489   -3.2215575   -1.7253504  0.059192465   -3.2215575     1.496207   408628 
 7566000   0.92781263   -3.2204081   -1.7250172   0.06077539   -3.2204081    1.4953909   408621 
 7567000   0.92578721   -3.2180383   -1.7258899  0.057894432   -3.2180383    1.4921483   408615 
 7568000   0.92579311   -3.2184252   -1.7262418  0.057900638   -3.2184252    1.4921834   408608 
 7569000   0.92702598   -3.2195361     -1.72534  0.061390034   -3.2195361    1.4941961   408601 
 7570000   0.92715502   -3.2193219   -1.7248958  0.062616112   -3.2193219    1.4944261   408595 
 7571000   0.92516631   -3.2182803   -1.7270341  0.058602917   -3.2182803    1.4912461   408588 
 7572000   0.92652709   -3.2193845   -1.7259194    0.0648332   -3.2193845    1.4934651   408581 
 7573000   0.92650473   -3.2187782   -1.7253272   0.05665745   -3.2187782     1.493451   408575 
 7574000   0.92617329   -3.2191723     -1.72623  0.060203006   -3.2191723    1.4929423   408568 
 7575000   0.92537768   -3.2180848   -1.7263994  0.056881728   -3.2180848    1.4916854   408561 
 7576000   0.92662234   -3.2195168   -1.7258031  0.059296127   -3.2195168    1.4937137   408555 
 7577000   0.92542955   -3.2179354   -1.7261188  0.062694361   -3.2179354    1.4918165   408548 
 7578000   0.92600825   -3.2189842   -1.7262093  0.059085359   -3.2189842     1.492775   408541 
 7579000   0.92742849   -3.2216794    -1.726593  0.058002226   -3.2216794    1.4950864   408535 
 7580000   0.92682824   -3.2205979   -1.7264535  0.063700052   -3.2205979    1.4941444   408528 
 7581000   0.92630834   -3.2201511   -1.7268193  0.057395421   -3.2201511    1.4933318   408521 
 7582000   0.92650092    -3.219978   -1.7263138  0.063695659    -3.219978    1.4936642   408515 
 7583000   0.92798828   -3.2220997    -1.726012  0.063024358   -3.2220997    1.4960877   408508 
 7584000   0.92557012    -3.218073   -1.7258582  0.062693937    -3.218073    1.4922148   408501 
 7585000   0.92789402   -3.2209686   -1.7249853  0.066084191   -3.2209686    1.4959834   408495 
 7586000   0.92740635   -3.2232523   -1.7280296  0.057464809   -3.2232523    1.4952227   408488 
 7587000   0.92615051   -3.2213011   -1.7280775  0.062264637   -3.2213011    1.4932236   408481 
 7588000   0.92715161   -3.2232669   -1.7284073  0.058486046   -3.2232669    1.4948596   408475 
 7589000   0.92801094   -3.2243841   -1.7281133  0.056444183   -3.2243841    1.4962708   408468 
 7590000     0.926941   -3.2218169   -1.7272457  0.063812464   -3.2218169    1.4945713   408461 
 7591000   0.92615854   -3.2216532   -1.7283216  0.061228845   -3.2216532    1.4933316   408455 
 7592000   0.92703721   -3.2219655   -1.7271916  0.059086124   -3.2219655     1.494774   408448 
 7593000   0.92766641   -3.2234045   -1.7275904  0.062223224   -3.2234045    1.4958141   408441 
 7594000   0.92721091   -3.2223264   -1.7272247  0.061714698   -3.2223264    1.4951016   408435 
 7595000   0.92738711   -3.2219407   -1.7265293  0.061870443   -3.2219407    1.4954114   408428 
 7596000   0.92816077   -3.2230902   -1.7264057  0.064095896   -3.2230902    1.4966845   408421 
 7597000   0.92821324   -3.2228142   -1.7260231  0.061890126   -3.2228142    1.4967912   408415 
 7598000    0.9277541   -3.2207144    -1.724638   0.06732643   -3.2207144    1.4960764   408408 
 7599000   0.92706526   -3.2205291   -1.7255378  0.067524673   -3.2205291    1.4949912   408401 
 7600000   0.92645464   -3.2198889   -1.7258604  0.059986707   -3.2198889    1.4940285   408395 
 7601000   0.92821964   -3.2219336   -1.7250332  0.062289055   -3.2219336    1.4969004   408388 
 7602000   0.92661858   -3.2207102   -1.7263661  0.056562774   -3.2207102    1.4943441   408381 
 7603000   0.92560965   -3.2195705   -1.7268316  0.060715934   -3.2195705    1.4927389   408375 
 7604000   0.92480499   -3.2189481   -1.7274812  0.057710658   -3.2189481    1.4914668   408368 
 7605000   0.92427171   -3.2177803    -1.727148   0.05508271   -3.2177803    1.4906323   408361 
 7606000   0.92578855    -3.220122   -1.7270214  0.057495942    -3.220122    1.4931006   408355 
 7607000   0.92658384    -3.219851   -1.7254421  0.055266934    -3.219851    1.4944088   408348 
 7608000   0.92595835   -3.2186326    -1.725207  0.061935248   -3.2186326    1.4934256   408341 
 7609000   0.92631914   -3.2180989   -1.7240694  0.061864565   -3.2180989    1.4940295   408335 
 7610000   0.92573491   -3.2164094   -1.7232966  0.060871335   -3.2164094    1.4931128   408328 
 7611000   0.92638814   -3.2180309   -1.7238389  0.054382903   -3.2180309     1.494192   408321 
 7612000   0.92617694   -3.2177425   -1.7238692  0.060404661   -3.2177425    1.4938733   408315 
 7613000     0.926075   -3.2178402   -1.7241057   0.05891553   -3.2178402    1.4937345   408308 
 7614000   0.92548475   -3.2173458   -1.7245378  0.059922795   -3.2173458     1.492808   408301 
 7615000   0.92630616   -3.2184602   -1.7243053  0.055439922   -3.2184602    1.4941549   408295 
 7616000   0.92738794   -3.2191192   -1.7231937  0.059669224   -3.2191192    1.4959255   408288 
 7617000   0.92787644   -3.2190995   -1.7223603  0.059276771   -3.2190995    1.4967391   408281 
 7618000   0.92887737   -3.2214533   -1.7230776  0.064484846   -3.2214533    1.4983757   408275 
 7619000   0.92771159   -3.2176905   -1.7211697  0.062946965   -3.2176905    1.4965209   408268 
 7620000   0.92723536   -3.2180011   -1.7222228  0.060758878   -3.2180011    1.4957783   408261 
 7621000   0.92636841   -3.2160338   -1.7216321  0.059588177   -3.2160338    1.4944017   408255 
 7622000   0.92761635   -3.2173209   -1.7208804  0.063020114   -3.2173209    1.4964405   408248 
 7623000   0.92685537   -3.2165953   -1.7213567  0.062946229   -3.2165953    1.4952385   408241 
 7624000   0.92659902   -3.2167335   -1.7218865  0.066283682   -3.2167335     1.494847   408235 
 7625000   0.92879108   -3.2192418   -1.7208328  0.060685814   -3.2192418     1.498409   408228 
 7626000   0.92663813   -3.2174665   -1.7225052  0.057429422   -3.2174665    1.4949613   408221 
 7627000   0.92617678   -3.2175026   -1.7232636  0.059952628   -3.2175026     1.494239   408215 
 7628000   0.92685789   -3.2196176   -1.7242541  0.055681337   -3.2196176    1.4953635   408208 
 7629000    0.9262245   -3.2170479   -1.7226807  0.065806946   -3.2170479    1.4943672   408201 
 7630000   0.92593032   -3.2168323   -1.7229177  0.061204477   -3.2168323    1.4939146   408195 
 7631000    0.9257933   -3.2178818   -1.7241627  0.061004069   -3.2178818    1.4937191   408188 
 7632000   0.92529333   -3.2172134   -1.7242754  0.065130149   -3.2172134     1.492938   408181 
 7633000   0.92535811   -3.2179066   -1.7248421  0.052852049   -3.2179066    1.4930645   408175 
 7634000    0.9261428   -3.2177243   -1.7233681  0.060511682   -3.2177243    1.4943562   408168 
 7635000   0.92474293   -3.2161235   -1.7240004  0.061677118   -3.2161235    1.4921231   408161 
 7636000   0.92611161   -3.2179498   -1.7235963  0.059628388   -3.2179498    1.4943535   408155 
 7637000    0.9270998   -3.2190856   -1.7231119  0.060716879   -3.2190856    1.4959737   408148 
 7638000   0.92494384   -3.2162331   -1.7237127  0.059159086   -3.2162331    1.4925204   408141 
 7639000   0.92744177   -3.2200402   -1.7234671  0.058483586   -3.2200402    1.4965731   408135 
 7640000    0.9267643   -3.2208006    -1.725295  0.059851767   -3.2208006    1.4955056   408128 
 7641000   0.92646792   -3.2185942   -1.7235413  0.059629411   -3.2185942     1.495053   408121 
 7642000   0.92795455   -3.2219353   -1.7244613  0.058085463   -3.2219353     1.497474   408115 
 7643000   0.92678515   -3.2206055    -1.724993   0.05848927   -3.2206055    1.4956125   408108 
 7644000   0.92582528   -3.2194916   -1.7254025   0.06114851   -3.2194916    1.4940891   408101 
 7645000   0.92841887   -3.2227623   -1.7244656  0.057237747   -3.2227623    1.4982967   408095 
 7646000   0.92593186   -3.2201905   -1.7258818  0.057299495   -3.2201905    1.4943087   408088 
 7647000   0.92437425   -3.2169133   -1.7250927  0.055981659   -3.2169133    1.4918206   408081 
 7648000   0.92647376   -3.2202912   -1.7250603  0.062974358   -3.2202912    1.4952309   408075 
 7649000   0.92562524   -3.2183101    -1.724423  0.062373578   -3.2183101    1.4938871   408068 
 7650000   0.92473889   -3.2181781   -1.7256959  0.059173104   -3.2181781    1.4924822   408061 
 7651000   0.92513649   -3.2186909    -1.725545  0.060407512   -3.2186909    1.4931459   408055 
 7652000   0.92611167   -3.2206733   -1.7259278  0.062952457   -3.2206733    1.4947454   408048 
 7653000   0.92775236   -3.2218038   -1.7243846  0.061509734   -3.2218038    1.4974192   408041 
 7654000   0.92615786   -3.2191675   -1.7242999    0.0621776   -3.2191675    1.4948676   408035 
 7655000   0.92756518   -3.2204788    -1.723314  0.058271111   -3.2204788    1.4971648   408028 
 7656000   0.92692251    -3.219435   -1.7232819  0.061269731    -3.219435    1.4961531   408021 
 7657000   0.92591581    -3.217487   -1.7229368  0.056500488    -3.217487    1.4945502   408015 
 7658000   0.92691505   -3.2190476   -1.7228588   0.05753201   -3.2190476    1.4961888   408008 
 7659000   0.92710657      -3.2196   -1.7230764  0.056783438      -3.2196    1.4965236   408001 
 7660000   0.92625045     -3.21957   -1.7244064  0.058420105     -3.21957    1.4951636   407995 
 7661000   0.92780098   -3.2225127   -1.7248205  0.058378225   -3.2225127    1.4976922   407988 
 7662000   0.92639065   -3.2182334   -1.7227921  0.057153552   -3.2182334    1.4954413   407981 
 7663000    0.9253417   -3.2168516   -1.7230817  0.064017047   -3.2168516    1.4937699   407975 
 7664000   0.92622308   -3.2181187   -1.7229003  0.059307435   -3.2181187    1.4952184   407968 
 7665000   0.92485335   -3.2148483   -1.7218155  0.064050931   -3.2148483    1.4930328   407961 
 7666000   0.92575069   -3.2176208   -1.7231173  0.057673979   -3.2176208    1.4945034   407955 
 7667000   0.92617364    -3.217325   -1.7221132   0.06556049    -3.217325    1.4952119   407948 
 7668000   0.92722991   -3.2183219   -1.7213791  0.060370916   -3.2183219    1.4969428   407941 
 7669000   0.92627069   -3.2167754   -1.7213592  0.061970018   -3.2167754    1.4954162   407935 
 7670000   0.92748247   -3.2186806   -1.7212824  0.059485709   -3.2186806    1.4973983   407928 
 7671000   0.92802482   -3.2190352   -1.7207356  0.059708124   -3.2190352    1.4982996   407921 
 7672000   0.92583783   -3.2159814   -1.7211907  0.059904933   -3.2159814    1.4947907   407915 
 7673000   0.92618255   -3.2155215   -1.7201486  0.061607492   -3.2155215    1.4953729   407908 
 7674000   0.92690956   -3.2180032   -1.7214308  0.060933562   -3.2180032    1.4965724   407901 
 7675000   0.92596275   -3.2159805   -1.7209149  0.058790983   -3.2159805    1.4950657   407895 
 7676000   0.92657099   -3.2162744    -1.720201   0.06402521   -3.2162744    1.4960734   407888 
 7677000   0.92700045   -3.2174049   -1.7206124  0.057145781   -3.2174049    1.4967925   407881 
 7678000   0.92581096   -3.2148442   -1.7199503  0.064494048   -3.2148442    1.4948939   407875 
 7679000   0.92475551   -3.2129962    -1.719781  0.064567704   -3.2129962    1.4932153   407868 
 7680000   0.92703342   -3.2153947   -1.7184755  0.061969785   -3.2153947    1.4969191   407861 
 7681000   0.92668924   -3.2164392   -1.7200538  0.062133414   -3.2164392    1.4963854   407855 
 7682000   0.92749626   -3.2163953    -1.718681  0.059160779   -3.2163953    1.4977143   407848 
 7683000   0.92719246   -3.2178008   -1.7205514  0.057485895   -3.2178008    1.4972494   407841 
 7684000   0.92669848   -3.2172665   -1.7207928  0.059592057   -3.2172665    1.4964737   407835 
 7685000   0.92579791   -3.2154878   -1.7204427  0.060340901   -3.2154878    1.4950451   407828 
 7686000   0.92552236   -3.2142758   -1.7196501  0.060977475   -3.2142758    1.4946258   407821 
 7687000    0.9253904   -3.2148443   -1.7204097  0.062548432   -3.2148443    1.4944346   407815 
 7688000    0.9263803   -3.2159634   -1.7199045  0.060604652   -3.2159634    1.4960589   407808 
 7689000   0.92514228   -3.2137242    -1.719639   0.05692596   -3.2137242    1.4940852   407801 
 7690000   0.92677636   -3.2154543    -1.718708  0.062898414   -3.2154543    1.4967463   407795 
 7691000    0.9280119   -3.2180967   -1.7193293  0.058032108   -3.2180967    1.4987674   407788 
 7692000    0.9258757   -3.2148658   -1.7195228  0.062146504   -3.2148658     1.495343   407781 
 7693000   0.92443557   -3.2152185   -1.7221794  0.063935429   -3.2152185    1.4930391   407775 
 7694000   0.92644533   -3.2173324   -1.7210217  0.056783069   -3.2173324    1.4963107   407768 
 7695000   0.92434928   -3.2131289   -1.7201779  0.058908823   -3.2131289     1.492951   407761 
 7696000   0.92569627   -3.2154589   -1.7203103  0.059136023   -3.2154589    1.4951486   407755 
 7697000   0.92753156   -3.2183337   -1.7201951  0.058557462   -3.2183337    1.4981386   407748 
 7698000   0.92703218   -3.2177305   -1.7203728  0.058156384   -3.2177305    1.4973577   407741 
 7699000   0.92643912   -3.2161333   -1.7197116  0.060125065   -3.2161333    1.4964218   407735 
 7700000   0.92600782   -3.2166959   -1.7209451  0.063995176   -3.2166959    1.4957508   407728 
 7701000   0.92547893   -3.2155388   -1.7206166  0.069554731   -3.2155388    1.4949222   407721 
 7702000   0.92575809   -3.2160276   -1.7206325  0.064039913   -3.2160276    1.4953951   407715 
 7703000   0.92676613   -3.2192291     -1.72218  0.063313932   -3.2192291    1.4970491   407708 
 7704000   0.92763714   -3.2208059    -1.722324  0.061076728   -3.2208059    1.4984818   407701 
 7705000   0.92610808   -3.2163368    -1.720303  0.062007401   -3.2163368    1.4960338   407695 
 7706000   0.92704102    -3.217187   -1.7196203  0.059306675    -3.217187    1.4975666   407688 
 7707000   0.92697038   -3.2177859   -1.7203077  0.062496561   -3.2177859    1.4974782   407681 
 7708000   0.92680661   -3.2173105   -1.7200748  0.061731642   -3.2173105    1.4972357   407675 
 7709000   0.92631545   -3.2177018   -1.7212338  0.060460287   -3.2177018    1.4964679   407668 
 7710000   0.92699405    -3.219726    -1.722136  0.059710048    -3.219726    1.4975899   407661 
 7711000    0.9264119   -3.2181339   -1.7214624  0.061450642   -3.2181339    1.4966715   407655 
 7712000     0.926329   -3.2169564   -1.7203932  0.059999792   -3.2169564    1.4965633   407648 
 7713000   0.92495061   -3.2159831   -1.7216211  0.056612533   -3.2159831     1.494362   407641 
 7714000   0.92438838   -3.2145506   -1.7210749  0.056039962   -3.2145506    1.4934756   407635 
 7715000   0.92597125   -3.2170251   -1.7209664  0.060667855   -3.2170251    1.4960587   407628 
 7716000   0.92491408   -3.2164623    -1.722086  0.057115848   -3.2164623    1.4943763   407621 
 7717000    0.9252067   -3.2165678   -1.7216967  0.057808296   -3.2165678    1.4948711   407615 
 7718000   0.92570447    -3.215772   -1.7200709  0.065686379    -3.215772     1.495701   407608 
 7719000   0.92486553   -3.2143155   -1.7199444  0.059341894   -3.2143155    1.4943712   407601 
 7720000   0.92588152   -3.2149249     -1.71889   0.06059829   -3.2149249    1.4960348   407595 
 7721000   0.92645347   -3.2165578   -1.7195732  0.059789653   -3.2165578    1.4969847   407588 
 7722000   0.92583624   -3.2168786   -1.7208655  0.059384865   -3.2168786     1.496013   407581 
 7723000   0.92705619   -3.2168952   -1.7188889  0.055742826   -3.2168952    1.4980063   407575 
 7724000   0.92530361   -3.2144873   -1.7192872  0.059407725   -3.2144873    1.4952001   407568 
 7725000   0.92542541   -3.2145463   -1.7191237  0.059392417   -3.2145463    1.4954226   407561 
 7726000   0.92434703   -3.2139537   -1.7202517  0.062687876   -3.2139537     1.493702   407555 
 7727000   0.92462231   -3.2162085    -1.722036  0.059466793   -3.2162085    1.4941725   407548 
 7728000   0.92562516    -3.218524   -1.7227053  0.058911778    -3.218524    1.4958188   407541 
 7729000   0.92328303   -3.2152019   -1.7231461  0.060517997   -3.2152019    1.4920558   407535 
 7730000   0.92680725   -3.2195662   -1.7217893  0.056267718   -3.2195662    1.4977768   407528 
 7731000   0.92337047   -3.2143083   -1.7220599  0.059406312   -3.2143083    1.4922484   407521 
 7732000   0.92542202     -3.21832   -1.7227341  0.060074181     -3.21832    1.4955859   407515 
 7733000   0.92287323   -3.2169135   -1.7254211  0.057377371   -3.2169135    1.4914924   407508 
 7734000   0.92421152   -3.2179181   -1.7242372  0.055846185   -3.2179181    1.4936809   407501 
 7735000   0.92391332   -3.2179952   -1.7247743  0.058884663   -3.2179952     1.493221   407495 
 7736000   0.92471056   -3.2205938   -1.7260586  0.059197302   -3.2205938    1.4945351   407488 
 7737000   0.92407883   -3.2199698     -1.72643  0.063372253   -3.2199698    1.4935398   407481 
 7738000   0.92498632   -3.2224089   -1.7273804  0.059444711   -3.2224089    1.4950285   407475 
 7739000   0.92438119   -3.2202062   -1.7261301   0.06215913   -3.2202062    1.4940761   407468 
 7740000    0.9257911   -3.2231147   -1.7267341  0.059837532   -3.2231147    1.4963807   407461 
 7741000   0.92580996   -3.2243795   -1.7279463  0.064539629   -3.2243795    1.4964332   407455 
 7742000   0.92516636   -3.2215906    -1.726172  0.066117941   -3.2215906    1.4954186   407448 
 7743000   0.92663529   -3.2234984   -1.7256797  0.063180264   -3.2234984    1.4978187   407441 
 7744000   0.92788832   -3.2245474   -1.7246813  0.066973464   -3.2245474    1.4998662   407435 
 7745000   0.92659847   -3.2232506   -1.7254436  0.068635259   -3.2232506    1.4978069   407428 
 7746000   0.92634509   -3.2233444   -1.7259213   0.06613472   -3.2233444    1.4974231   407421 
 7747000   0.92612293   -3.2236985   -1.7266125  0.065950561   -3.2236985     1.497086   407415 
 7748000   0.92656982   -3.2249696   -1.7271355  0.061951064   -3.2249696    1.4978341   407408 
 7749000    0.9269296   -3.2248224   -1.7263809  0.063106055   -3.2248224    1.4984415   407401 
 7750000   0.92623001   -3.2245407    -1.727208  0.060284499   -3.2245407    1.4973326   407395 
 7751000   0.92618088   -3.2255745   -1.7282956  0.062144756   -3.2255745    1.4972789   407388 
 7752000   0.92552577   -3.2243533   -1.7281077  0.062616434   -3.2243533    1.4962456   407381 
 7753000   0.92436374    -3.223379     -1.72899  0.058072772    -3.223379     1.494389   407375 
 7754000   0.92488157   -3.2251308    -1.729879  0.062818488   -3.2251308    1.4952518   407368 
 7755000   0.92605144   -3.2262671   -1.7290982  0.060259928   -3.2262671    1.4971689   407361 
 7756000   0.92529575   -3.2250067   -1.7290375  0.056299542   -3.2250067    1.4959692   407355 
 7757000   0.92458491   -3.2238673   -1.7290217  0.063783548   -3.2238673    1.4948456   407348 
 7758000   0.92336247   -3.2226841   -1.7297892  0.058406543   -3.2226841    1.4928949   407341 
 7759000   0.92197463   -3.2201637   -1.7294908  0.062699992   -3.2201637     1.490673   407335 
 7760000   0.92305972    -3.221794    -1.729341  0.051584865    -3.221794     1.492453   407328 
 7761000   0.92303956   -3.2198443   -1.7273983   0.05726907   -3.2198443    1.4924461   407321 
 7762000   0.92336177    -3.221229     -1.72824  0.058136582    -3.221229     1.492989   407315 
 7763000   0.92342283    -3.221613   -1.7284996  0.058095563    -3.221613    1.4931134   407308 
 7764000   0.92401166   -3.2213834   -1.7272922  0.063474248   -3.2213834    1.4940912   407301 
 7765000   0.92407908   -3.2197973   -1.7255751  0.066241427   -3.2197973    1.4942222   407295 
 7766000   0.92515834   -3.2224943   -1.7265013  0.064046808   -3.2224943    1.4959931   407288 
 7767000   0.92528126   -3.2219432   -1.7257256  0.062123506   -3.2219432    1.4962176   407281 
 7768000   0.92618828   -3.2223575   -1.7246512  0.062088784   -3.2223575    1.4977063   407275 
 7769000   0.92673808   -3.2221482   -1.7235271  0.057219749   -3.2221482    1.4986211   407268 
 7770000   0.92697433   -3.2231642   -1.7241352  0.060598952   -3.2231642    1.4990289   407261 
 7771000   0.92598818   -3.2220755   -1.7246193   0.06359663   -3.2220755    1.4974563   407255 
 7772000   0.92567216   -3.2236342   -1.7266632  0.062183145   -3.2236342     1.496971   407248 
 7773000   0.92433967   -3.2208257   -1.7259839  0.059089578   -3.2208257    1.4948418   407241 
 7774000   0.92441766   -3.2214854   -1.7264954  0.056654546   -3.2214854    1.4949899   407235 
 7775000   0.92444767   -3.2216127   -1.7265485  0.058841102   -3.2216127    1.4950642   407228 
 7776000   0.92338106   -3.2196621   -1.7262972  0.064013685   -3.2196621    1.4933649   407221 
 7777000   0.92354622   -3.2200097   -1.7263558  0.061538065   -3.2200097     1.493654   407215 
 7778000   0.92324736   -3.2208239   -1.7276276  0.062061077   -3.2208239    1.4931963   407208 
 7779000   0.92446501   -3.2206985   -1.7255071  0.060417031   -3.2206985    1.4951913   407201 
 7780000   0.92438123   -3.2213968   -1.7263189  0.064356188   -3.2213968    1.4950779   407195 
 7781000   0.92370592   -3.2212928   -1.7272815  0.060203212   -3.2212928    1.4940113   407188 
 7782000   0.92338218   -3.2208316   -1.7273182  0.060579205   -3.2208316    1.4935134   407181 
 7783000   0.92374581   -3.2212411   -1.7271176  0.061757305   -3.2212411    1.4941235   407175 
 7784000   0.92525014   -3.2229119   -1.7263295  0.058215603   -3.2229119    1.4965825   407168 
 7785000   0.92483091   -3.2223967   -1.7264666  0.059510636   -3.2223967    1.4959301   407161 
 7786000   0.92489807   -3.2219515   -1.7258908  0.062814521   -3.2219515    1.4960608   407155 
 7787000   0.92550581   -3.2231773   -1.7261078   0.05501692   -3.2231773    1.4970695   407148 
 7788000   0.92572565   -3.2242349    -1.726784  0.062260973   -3.2242349    1.4974509   407141 
 7789000   0.92484557   -3.2225429   -1.7264936  0.063392091   -3.2225429    1.4960493   407135 
 7790000    0.9248023   -3.2231548   -1.7271497  0.064044864   -3.2231548    1.4960051   407128 
 7791000   0.92461545   -3.2232245    -1.727496  0.062591705   -3.2232245    1.4957285   407121 
 7792000   0.92508681   -3.2236642   -1.7271511  0.061316546   -3.2236642    1.4965131   407115 
 7793000   0.92479376   -3.2238987   -1.7278339  0.061365876   -3.2238987    1.4960647   407108 
 7794000   0.92350515   -3.2202822   -1.7262764  0.065276118   -3.2202822    1.4940058   407101 
 7795000   0.92496595   -3.2235599   -1.7271688   0.06107878   -3.2235599    1.4963911   407095 
 7796000   0.92419176   -3.2233861   -1.7282218  0.062790657   -3.2233861    1.4951643   407088 
 7797000   0.92524558   -3.2229339   -1.7260389   0.05976832   -3.2229339    1.4968949   407081 
 7798000   0.92471835   -3.2237707   -1.7277067  0.064688154   -3.2237707     1.496064   407075 
 7799000    0.9246409   -3.2234153   -1.7274509  0.061208312   -3.2234153    1.4959644   407068 
 7800000   0.92431316   -3.2232068   -1.7277469  0.061523257   -3.2232068    1.4954599   407061 
 7801000       0.9244   -3.2232577   -1.7276352  0.060345331   -3.2232577    1.4956225   407055 
 7802000   0.92429481    -3.223834   -1.7283561  0.060416241    -3.223834     1.495478   407048 
 7803000    0.9222842   -3.2226456   -1.7303951  0.062106718   -3.2226456    1.4922505   407041 
 7804000   0.92374526    -3.222526   -1.7278894   0.06280768    -3.222526    1.4946366   407035 
 7805000   0.92354129   -3.2218623   -1.7275301  0.061590123   -3.2218623    1.4943322   407028 
 7806000   0.92387018   -3.2219391    -1.727049  0.061233375   -3.2219391    1.4948901   407021 
 7807000   0.92474638   -3.2214906   -1.7251607  0.059479552   -3.2214906    1.4963299   407015 
 7808000    0.9263315    -3.223911   -1.7249904  0.061745395    -3.223911    1.4989206   407008 
 7809000   0.92442465   -3.2213071   -1.7254463   0.05941479   -3.2213071    1.4958608   407001 
 7810000   0.92396429   -3.2213783   -1.7262404  0.062832809   -3.2213783    1.4951379   406995 
 7811000    0.9253145   -3.2224754   -1.7251269  0.065442476   -3.2224754    1.4973485   406988 
 7812000   0.92415236   -3.2210748   -1.7255812  0.062297232   -3.2210748    1.4954937   406981 
 7813000   0.92450745    -3.221538   -1.7254477  0.063855414    -3.221538    1.4960903   406975 
 7814000   0.92476583   -3.2214145   -1.7248803  0.062657647   -3.2214145    1.4965342   406968 
 7815000   0.92251453   -3.2203555   -1.7274389  0.062864347   -3.2203555    1.4929166   406961 
 7816000   0.92366428   -3.2225942   -1.7277949  0.054156833   -3.2225942    1.4947993   406955 
 7817000   0.92285805   -3.2211273    -1.727607  0.059847282   -3.2211273    1.4935203   406948 
 7818000   0.92251369   -3.2207337   -1.7277451  0.058031339   -3.2207337    1.4929886   406941 
 7819000   0.92295513   -3.2205517   -1.7268266  0.056439384   -3.2205517    1.4937251   406935 
 7820000   0.92215931   -3.2192374   -1.7267746  0.056345623   -3.2192374    1.4924628   406928 
 7821000   0.92127862   -3.2185426   -1.7274795   0.06137187   -3.2185426    1.4910631   406921 
 7822000   0.92233507   -3.2200789    -1.727284  0.058961791   -3.2200789    1.4927949   406915 
 7823000   0.92458133    -3.223268   -1.7268118  0.062920779    -3.223268    1.4964562   406908 
 7824000   0.92466175   -3.2225733   -1.7259611  0.060814725   -3.2225733    1.4966122   406901 
 7825000   0.92401972   -3.2213697   -1.7257747  0.057370444   -3.2213697    1.4955951   406895 
 7826000   0.92487408    -3.221054   -1.7240503  0.063719554    -3.221054    1.4970036   406888 
 7827000   0.92247856   -3.2190214   -1.7258695  0.062305085   -3.2190214    1.4931519   406881 
 7828000   0.92416927    -3.221286   -1.7253754  0.063280091    -3.221286    1.4959106   406875 
 7829000   0.92470727   -3.2221865   -1.7253793  0.060597464   -3.2221865    1.4968072   406868 
 7830000   0.92413916   -3.2218089   -1.7258956  0.059915211   -3.2218089    1.4959134   406861 
 7831000   0.92432491   -3.2223564   -1.7261203   0.06082639   -3.2223564    1.4962361   406855 
 7832000   0.92425741   -3.2209931   -1.7248405  0.064661617   -3.2209931    1.4961526   406848 
 7833000   0.92486146   -3.2228472   -1.7256911  0.065462309   -3.2228472    1.4971562   406841 
 7834000   0.92306587   -3.2197018   -1.7254303  0.062133811   -3.2197018    1.4942715   406835 
 7835000   0.92375043   -3.2226573   -1.7272519  0.062196928   -3.2226573    1.4954054   406828 
 7836000   0.92347106   -3.2217793   -1.7268004  0.059588181   -3.2217793    1.4949789   406821 
 7837000   0.92303173   -3.2205919   -1.7263022  0.064681127   -3.2205919    1.4942897   406815 
 7838000   0.92508517   -3.2238696   -1.7262299  0.062481644   -3.2238696    1.4976398   406808 
 7839000   0.92353576   -3.2210991    -1.725942  0.059506075   -3.2210991    1.4951571   406801 
 7840000   0.92302412   -3.2205686   -1.7262178  0.063362781   -3.2205686    1.4943509   406795 
 7841000   0.92255874   -3.2202308   -1.7266077  0.062101982   -3.2202308    1.4936231   406788 
 7842000   0.92430249   -3.2227935   -1.7263215  0.065333596   -3.2227935     1.496472   406781 
 7843000   0.92385398   -3.2213358   -1.7255678   0.06540952   -3.2213358    1.4957679   406775 
 7844000   0.92437309   -3.2222664   -1.7256323  0.057411766   -3.2222664    1.4966341   406768 
 7845000   0.92347176   -3.2204316   -1.7252311  0.060192732   -3.2204316    1.4952005   406761 
 7846000    0.9219434   -3.2191893   -1.7264413  0.060750431   -3.2191893     1.492748   406755 
 7847000   0.92272437   -3.2186561   -1.7246179  0.057699369   -3.2186561    1.4940382   406748 
 7848000   0.92401114   -3.2202777   -1.7241302  0.059154332   -3.2202777    1.4961474   406741 
 7849000   0.92362376    -3.219347   -1.7238047  0.059372662    -3.219347    1.4955422   406735 
 7850000     0.923108   -3.2201425   -1.7254097  0.059075212   -3.2201425    1.4947328   406728 
 7851000   0.92284638   -3.2179845   -1.7236495   0.06669052   -3.2179845    1.4943349   406721 
 7852000   0.92270882   -3.2184937   -1.7243595  0.062314323   -3.2184937    1.4941342   406715 
 7853000   0.92391927   -3.2203528   -1.7242327  0.062668347   -3.2203528      1.49612   406708 
 7854000   0.92540881   -3.2207584   -1.7222005  0.059456672   -3.2207584    1.4985579   406701 
 7855000   0.92476905   -3.2207334   -1.7231895  0.058238524   -3.2207334     1.497544   406695 
 7856000   0.92251375   -3.2176084   -1.7236909  0.061617229   -3.2176084    1.4939175   406688 
 7857000   0.92477969   -3.2217716   -1.7241588  0.057671162   -3.2217716    1.4976128   406681 
 7858000   0.92131592   -3.2167364   -1.7247109  0.061603815   -3.2167364    1.4920255   406675 
 7859000    0.9234464   -3.2203339   -1.7248325   0.06093074   -3.2203339    1.4955014   406668 
 7860000   0.92241159   -3.2196388   -1.7257876  0.059984371   -3.2196388    1.4938513   406661 
 7861000   0.92295338   -3.2199459   -1.7251952  0.058201105   -3.2199459    1.4947508   406655 
 7862000   0.92243404   -3.2190236   -1.7250882  0.061725215   -3.2190236    1.4939354   406648 
 7863000   0.92312519   -3.2172377   -1.7221572  0.062917093   -3.2172377    1.4950805   406641 
 7864000   0.92352842   -3.2173186    -1.721563  0.060702072   -3.2173186    1.4957556   406635 
 7865000   0.92422848   -3.2174099   -1.7204947  0.068003523   -3.2174099    1.4969152   406628 
 7866000   0.92382062   -3.2157351   -1.7194547  0.062210365   -3.2157351    1.4962804   406621 
 7867000   0.92511533   -3.2179058   -1.7195064  0.061121438   -3.2179058    1.4983995   406615 
 7868000    0.9248629   -3.2184392   -1.7204228  0.057059496   -3.2184392    1.4980164   406608 
 7869000   0.92483964   -3.2184189   -1.7204144  0.065174588   -3.2184189    1.4980045   406601 
 7870000   0.92397274   -3.2183904   -1.7217679  0.069168137   -3.2183904    1.4966225   406595 
 7871000   0.92304229   -3.2186656   -1.7235245  0.060593386   -3.2186656    1.4951411   406588 
 7872000    0.9227322   -3.2185304   -1.7238658  0.062628784   -3.2185304    1.4946645   406581 
 7873000   0.92198718   -3.2169742   -1.7234944  0.060111323   -3.2169742    1.4934798   406575 
 7874000   0.92328147   -3.2190841   -1.7234821  0.057720998   -3.2190841    1.4956021   406568 
 7875000   0.92381474   -3.2202573   -1.7237657  0.059843863   -3.2202573    1.4964917   406561 
 7876000   0.92192362   -3.2174961   -1.7240459  0.056152734   -3.2174961    1.4934503   406555 
 7877000   0.92237451   -3.2196073   -1.7254009  0.053833898   -3.2196073    1.4942064   406548 
 7878000   0.92103335   -3.2175043   -1.7254448  0.056191226   -3.2175043    1.4920595   406541 
 7879000   0.92038676    -3.216617    -1.725583   0.06205059    -3.216617     1.491034   406535 
 7880000   0.92112103   -3.2176619   -1.7254126   0.05680191   -3.2176619    1.4922492   406528 
 7881000   0.92191473   -3.2195907   -1.7260299  0.060731222   -3.2195907    1.4935608   406521 
 7882000   0.92170312   -3.2199963   -1.7267563  0.064476904   -3.2199963      1.49324   406515 
 7883000   0.92374964   -3.2238436   -1.7272623  0.058859137   -3.2238436    1.4965813   406508 
 7884000   0.92343852   -3.2227266   -1.7266235  0.066050975   -3.2227266     1.496103   406501 
 7885000   0.92263621   -3.2222001   -1.7273748     0.065876   -3.2222001    1.4948252   406495 
 7886000   0.92209485   -3.2212917   -1.7273179  0.061766684   -3.2212917    1.4939739   406488 
 7887000   0.92285196   -3.2223241   -1.7270978  0.063710804   -3.2223241    1.4952263   406481 
 7888000    0.9228353   -3.2221782   -1.7269568  0.066598861   -3.2221782    1.4952214   406475 
 7889000   0.92281455   -3.2224937   -1.7272802  0.060445929   -3.2224937    1.4952135   406468 
 7890000   0.92243741   -3.2234045   -1.7287764  0.062693274   -3.2234045    1.4946281   406461 
 7891000   0.92061416   -3.2228035   -1.7311075   0.05481783   -3.2228035     1.491696   406455 
 7892000   0.92056707     -3.22298   -1.7313347  0.063672764     -3.22298    1.4916453   406448 
 7893000   0.92144459   -3.2241387   -1.7310457  0.063568356   -3.2241387    1.4930929   406441 
 7894000   0.92376905   -3.2271611   -1.7302795  0.062768246   -3.2271611    1.4968816   406435 
 7895000   0.92247316   -3.2257919   -1.7309844  0.063311053   -3.2257919    1.4948074   406428 
 7896000   0.92360769   -3.2274017     -1.73073  0.062195578   -3.2274017    1.4966717   406421 
 7897000   0.92425426   -3.2275124   -1.7297709  0.058658027   -3.2275124    1.4977415   406415 
 7898000   0.92357433   -3.2257485    -1.729083  0.060315417   -3.2257485    1.4966655   406408 
 7899000   0.92312651   -3.2257455     -1.72978  0.068461292   -3.2257455    1.4959655   406401 
 7900000   0.92384475   -3.2276311   -1.7304795  0.063629901   -3.2276311    1.4971516   406395 
 7901000   0.92283412   -3.2245113   -1.7289718  0.066094796   -3.2245113    1.4955395   406388 
 7902000   0.92427987    -3.227689   -1.7297807  0.062500907    -3.227689    1.4979083   406381 
 7903000   0.92447527   -3.2281217   -1.7298746  0.063012447   -3.2281217    1.4982471   406375 
 7904000   0.92341805   -3.2243468   -1.7277872  0.062554328   -3.2243468    1.4965595   406368 
 7905000   0.92271079   -3.2254707   -1.7300316  0.060710193   -3.2254707     1.495439   406361 
 7906000   0.92324174   -3.2262457    -1.729924  0.056615477   -3.2262457    1.4963216   406355 
 7907000   0.92206928   -3.2255495   -1.7311023  0.057523915   -3.2255495    1.4944471   406348 
 7908000   0.92200146   -3.2256062   -1.7312433   0.06198791   -3.2256062     1.494363   406341 
 7909000   0.92065736   -3.2243304   -1.7321239  0.061719867   -3.2243304    1.4922065   406335 
 7910000   0.92077668   -3.2239758   -1.7315502  0.063598097   -3.2239758    1.4924256   406328 
 7911000   0.92251102    -3.225539   -1.7302766  0.061707075    -3.225539    1.4952624   406321 
 7912000   0.92092206   -3.2220206   -1.7293116  0.065602209   -3.2220206     1.492709   406315 
 7913000   0.92158487    -3.223457   -1.7296479  0.057405034    -3.223457    1.4938091   406308 
 7914000    0.9227381   -3.2237859   -1.7280818  0.059507645   -3.2237859    1.4957041   406301 
 7915000   0.92263594   -3.2238135   -1.7282529  0.059090672   -3.2238135    1.4955606   406295 
 7916000   0.92224008   -3.2226509   -1.7277062  0.057629996   -3.2226509    1.4949447   406288 
 7917000   0.92113552   -3.2213109   -1.7281309  0.062490374   -3.2213109      1.49318   406281 
 7918000   0.92168227   -3.2234449   -1.7293566  0.057646656   -3.2234449    1.4940883   406275 
 7919000   0.92020588   -3.2220629   -1.7303422  0.056779852   -3.2220629    1.4917207   406268 
 7920000   0.91914849   -3.2202454   -1.7302131   0.06092886   -3.2202454    1.4900323   406261 
 7921000   0.91995315   -3.2208856   -1.7295268   0.06007482   -3.2208856    1.4913587   406255 
 7922000   0.92138135   -3.2231585   -1.7294587  0.062039327   -3.2231585    1.4936998   406248 
 7923000   0.92072304   -3.2234284   -1.7307701  0.057883267   -3.2234284    1.4926583   406241 
 7924000   0.92057964   -3.2235419    -1.731094  0.063575452   -3.2235419    1.4924478   406235 
 7925000    0.9212379   -3.2254217    -1.731881  0.057625923   -3.2254217    1.4935407   406228 
 7926000   0.92005535   -3.2235387   -1.7318894  0.059073554   -3.2235387    1.4916493   406221 
 7927000    0.9206845   -3.2233517   -1.7306604  0.059657145   -3.2233517    1.4926913   406215 
 7928000   0.92077606   -3.2246358   -1.7317703  0.062488824   -3.2246358    1.4928655   406208 
 7929000   0.92160667   -3.2260014   -1.7317635   0.06033359   -3.2260014    1.4942379   406201 
 7930000   0.92166733   -3.2267129   -1.7323545  0.062298395   -3.2267129    1.4943583   406195 
 7931000   0.92213684   -3.2270104   -1.7318651  0.057289377   -3.2270104    1.4951454   406188 
 7932000   0.92128242   -3.2252383   -1.7314526  0.063183234   -3.2252383    1.4937857   406181 
 7933000   0.92196113   -3.2261404   -1.7312321   0.05899926   -3.2261404    1.4949083   406175 
 7934000   0.92332213   -3.2285225   -1.7313817  0.061945231   -3.2285225    1.4971409   406168 
 7935000   0.92204407   -3.2271693    -1.732075  0.057873886   -3.2271693    1.4950943   406161 
 7936000   0.92246091   -3.2283431   -1.7325508   0.06445766   -3.2283431    1.4957923   406155 
 7937000   0.92326118   -3.2296072   -1.7324915  0.058689269   -3.2296072    1.4971158   406148 
 7938000   0.92137332   -3.2272142   -1.7331339  0.059875186   -3.2272142    1.4940803   406141 
 7939000   0.92088968   -3.2265082   -1.7331901  0.064913128   -3.2265082    1.4933181   406135 
 7940000    0.9216919   -3.2269792   -1.7323345  0.061429429   -3.2269792    1.4946447   406128 
 7941000     0.921142   -3.2264889   -1.7327102  0.058918816   -3.2264889    1.4937787   406121 
 7942000   0.92105415    -3.225297   -1.7316386  0.060597614    -3.225297    1.4936583   406115 
 7943000   0.92319148   -3.2273018   -1.7301516  0.059887424   -3.2273018    1.4971502   406108 
 7944000     0.922694   -3.2257984   -1.7294292  0.066404715   -3.2257984    1.4963692   406101 
 7945000    0.9211247   -3.2245116   -1.7306653  0.066261066   -3.2245116    1.4938463   406095 
 7946000    0.9221556   -3.2247418   -1.7291978  0.061908001   -3.2247418     1.495544   406088 
 7947000   0.92194795   -3.2245419   -1.7293089  0.062064044   -3.2245419     1.495233   406081 
 7948000   0.92317864   -3.2264497   -1.7291987  0.061085221   -3.2264497    1.4972511   406075 
 7949000   0.92221222   -3.2248605    -1.729151  0.062110201   -3.2248605    1.4957095   406068 
 7950000   0.92050409   -3.2212789    -1.728314  0.060357917   -3.2212789    1.4929648   406061 
 7951000   0.92241326   -3.2234004    -1.727317  0.059423133   -3.2234004    1.4960834   406055 
 7952000   0.92065602   -3.2198062   -1.7265471  0.061563323   -3.2198062    1.4932591   406048 
 7953000   0.92206891    -3.222367   -1.7267905  0.058498094    -3.222367    1.4955765   406041 
 7954000   0.92142806    -3.221431   -1.7268719  0.059260115    -3.221431    1.4945591   406035 
 7955000   0.92041275   -3.2187277   -1.7257897  0.058550305   -3.2187277     1.492938   406028 
 7956000   0.92112195   -3.2201056   -1.7259915  0.058994476   -3.2201056    1.4941141   406021 
 7957000   0.92061504   -3.2178178   -1.7245038  0.066631919   -3.2178178    1.4933139   406015 
 7958000   0.92148169   -3.2186443   -1.7238989  0.060072089   -3.2186443    1.4947455   406008 
 7959000   0.92182403   -3.2196462   -1.7243196  0.058280072   -3.2196462    1.4953266   406001 
 7960000     0.921695   -3.2183821   -1.7232427  0.055618134   -3.2183821    1.4951394   405995 
 7961000   0.91997181   -3.2155371   -1.7231673  0.065749038   -3.2155371    1.4923698   405988 
 7962000    0.9202249   -3.2149493   -1.7221432  0.063591043   -3.2149493    1.4928061   405981 
 7963000   0.92161074   -3.2180567   -1.7229804  0.057839259   -3.2180567    1.4950763   405975 
 7964000   0.91979769   -3.2161464   -1.7239855  0.055674423   -3.2161464    1.4921609   405968 
 7965000   0.92034741   -3.2174597   -1.7243813    0.0568573   -3.2174597    1.4930784   405961 
 7966000   0.91994933   -3.2149902   -1.7225356  0.055736586   -3.2149902    1.4924547   405955 
 7967000   0.92070575   -3.2154397   -1.7217322   0.06595177   -3.2154397    1.4937076   405948 
 7968000   0.92010771   -3.2146338   -1.7218707  0.059727136   -3.2146338    1.4927631   405941 
 7969000   0.92143513    -3.217026   -1.7220873  0.060885725    -3.217026    1.4949388   405935 
 7970000   0.92210465    -3.218074   -1.7220232  0.061990109    -3.218074    1.4960508   405928 
 7971000   0.92192856   -3.2185078    -1.722717  0.060735045   -3.2185078    1.4957909   405921 
 7972000   0.92057332   -3.2161671   -1.7225529  0.058323279   -3.2161671    1.4936141   405915 
 7973000   0.91943567    -3.216026    -1.724232  0.060302676    -3.216026    1.4917941   405908 
 7974000   0.92039934   -3.2179973    -1.724614   0.05825196   -3.2179973    1.4933834   405901 
 7975000   0.92014252   -3.2168736   -1.7238849  0.060356048   -3.2168736    1.4929887   405895 
 7976000   0.92175113   -3.2172752   -1.7216506  0.064336162   -3.2172752    1.4956246   405888 
 7977000   0.92191586   -3.2181279   -1.7222102  0.059301234   -3.2181279    1.4959177   405881 
 7978000   0.92184654   -3.2209952   -1.7251679  0.060759105   -3.2209952    1.4958273   405875 
 7979000   0.92031646   -3.2191891   -1.7258188  0.064262428   -3.2191891    1.4933703   405868 
 7980000   0.92239268   -3.2214947   -1.7247296  0.063954115   -3.2214947    1.4967651   405861 
 7981000   0.92164593   -3.2210178   -1.7254423  0.056881323   -3.2210178    1.4955755   405855 
 7982000   0.92123744   -3.2198258   -1.7248874  0.063508463   -3.2198258    1.4949384   405848 
 7983000   0.92249587   -3.2217112   -1.7247049   0.06381583   -3.2217112    1.4970063   405841 
 7984000   0.92120014   -3.2200929   -1.7251671  0.055284651   -3.2200929    1.4949258   405835 
 7985000   0.92289467   -3.2213927   -1.7236913  0.061859719   -3.2213927    1.4977015   405828 
 7986000   0.92237035   -3.2224214    -1.725545  0.061427754   -3.2224214    1.4968764   405821 
 7987000    0.9216129   -3.2194459   -1.7237766  0.062766859   -3.2194459    1.4956693   405815 
 7988000   0.92349966   -3.2230137   -1.7242565  0.060296973   -3.2230137    1.4987571   405808 
 7989000   0.92144252   -3.2202524    -1.724808  0.061564028   -3.2202524    1.4954444   405801 
 7990000   0.92063573   -3.2198753   -1.7257182  0.061091271   -3.2198753    1.4941571   405795 
 7991000   0.92038529   -3.2194704    -1.725694  0.064238476   -3.2194704    1.4937764   405788 
 7992000   0.92100245   -3.2215539     -1.72675  0.059650578   -3.2215539    1.4948039   405781 
 7993000   0.92008127   -3.2198859   -1.7265551  0.062970695   -3.2198859    1.4933308   405775 
 7994000   0.92045393   -3.2195911   -1.7256297  0.062479737   -3.2195911    1.4939615   405768 
 7995000   0.92142182   -3.2206214   -1.7250632  0.057671249   -3.2206214    1.4955582   405761 
 7996000   0.92120506   -3.2199418   -1.7247133  0.058741555   -3.2199418    1.4952285   405755 
 7997000   0.92217302   -3.2214317   -1.7246062  0.059949335   -3.2214317    1.4968254   405748 
 7998000   0.92321328   -3.2213842   -1.7228444  0.058623758   -3.2213842    1.4985398   405741 
 7999000   0.92087854   -3.2169045   -1.7221323  0.064383195   -3.2169045    1.4947722   405735 
 8000000   0.92192704   -3.2188264   -1.7223265  0.066798083   -3.2188264    1.4964999   405728 
Loop time of 7204.25 on 192 procs for 5000000 steps with 405728 atoms

Performance: 299823.023 tau/day, 694.035 timesteps/s
99.1% CPU use with 192 MPI tasks x 1 OpenMP threads

MPI task timing breakdown:
Section |  min time  |  avg time  |  max time  |%varavg|  %CPU | %total
-----------------------------------------------------------------------
Pair    | 1395.4     | 3049.9     | 3378       |1076.2 |  99.1 | 42.33
Bond    | 3.2253     | 3.4088     | 3.5712     |   3.6 | 100.0 |  0.05
Neigh   | 893.97     | 1486.2     | 1635.2     | 535.1 |  99.5 | 20.63
Comm    | 1217.6     | 1998.8     | 4288       |1843.9 |  98.9 | 27.74
Output  | 285.7      | 286.63     | 286.64     |   0.4 |  98.9 |  3.98
Modify  | 161.56     | 248.03     | 709.53     | 994.2 |  99.1 |  3.44
Other   |            | 131.3      |            |       |       |  1.82

Nlocal:        2113.17 ave        2386 max        1854 min
Histogram: 2 2 1 12 91 70 10 1 1 2
Nghost:        3253.13 ave        3557 max        2512 min
Histogram: 17 25 5 1 0 0 0 4 62 78
Neighs:        56918.0 ave       66004 max       17991 min
Histogram: 5 13 4 2 0 0 0 0 76 92

Total # of neighbors = 10928247
Ave neighs/atom = 26.934910
Ave special neighs/atom = 0.0000000
Neighbor list builds = 500000
Dangerous builds = 463333

write_restart   restart_write.dat
System init for write_restart ...
write_data	data.write
System init for write_data ...
WARNING: Not all mixed pair coeffs generated from mixing. Use write_data with 'pair ij' option to store all pair coeffs. (src/write_data.cpp:312)

Total wall time: 2:00:10
