LAMMPS (29 Oct 2020)
  using 1 OpenMP thread(s) per MPI task
# Simple rigid body system

units		lj
atom_style	full
dimension 	3
boundary	p p f
pair_style	lj/cut/opt 2.5


variable 	sigma		equal 1.0
variable 	epsilon 	equal 1.0


region		box block 0 80 0 80 0 80
create_box 	3 box
Created orthogonal box = (0.0000000 0.0000000 0.0000000) to (80.000000 80.000000 80.000000)
  2 by 4 by 4 MPI processor grid
lattice 	sc 1.0
Lattice spacing in x,y,z = 1.0000000 1.0000000 1.0000000

create_atoms 	1 region box
Created 512000 atoms
  create_atoms CPU = 0.010 seconds

mass		1 1.0
mass		2 1.0
mass		3 1.0


group		solvent type 1
512000 atoms in group solvent


velocity 	solvent create 1.0 563435 loop geom

read_data	data.vac add append
Reading data file ...
  orthogonal box = (0.0000000 0.0000000 0.0000000) to (80.000000 80.000000 160.00000)
  2 by 2 by 8 MPI processor grid
Finding 1-2 1-3 1-4 neighbors ...
  special bond factors lj:    0.0      0.0      0.0     
  special bond factors coul:  0.0      0.0      0.0     
     0 = max # of 1-2 neighbors
     0 = max # of 1-3 neighbors
     0 = max # of 1-4 neighbors
     1 = max # of special neighbors
  special bonds CPU = 0.383 seconds
  read_data CPU = 0.398 seconds

neighbor 	0.4 bin

pair_coeff	1 1 1.0 1.0
pair_coeff	2 2 0.0 0.0
pair_coeff	3 3 0.0 0.0
pair_coeff	2 3 0.0 0.0
pair_coeff	1 2*3 0.0 0.0

pair_modify 	shift yes


balance 	1.05 shift z 10 1.05
Balancing ...
Neighbor list info ...
  update every 1 steps, delay 10 steps, check yes
  max neighbors/atom: 2000, page size: 100000
  master list distance cutoff = 2.9
  ghost atom cutoff = 2.9
  binsize = 1.45, bins = 56 56 111
  1 neighbor lists, perpetual/occasional/extra = 1 0 0
  (1) pair lj/cut/opt, perpetual
      attributes: half, newton on
      pair build: half/bin/newton
      stencil: half/bin/3d/newton
      bin: standard
 rebalancing time: 0.027 seconds
  iteration count = 5
  initial/final maximal load/proc = 32000.000 19200.000
  initial/final imbalance factor  = 2.0000000 1.2000000
  x cuts: 0.0000000 0.5 1.0000000
  y cuts: 0.0000000 0.5 1.0000000
  z cuts: 0.0000000 0.0625 0.12890625 0.1875 0.2578125 0.30859375 0.38671875 0.4375 1.0000000


####################### WALLS ###########################


region	       low block  EDGE EDGE EDGE EDGE 0 2

region 	       top block  EDGE EDGE EDGE EDGE 159 160


delete_atoms   region low
WARNING: Ignoring 'compress yes' for molecular system (src/delete_atoms.cpp:125)
Deleted 19200 atoms, new total = 492800

delete_atoms   region top
WARNING: Ignoring 'compress yes' for molecular system (src/delete_atoms.cpp:125)
Deleted 0 atoms, new total = 492800


variable       epsilonWall equal 2*${epsilon}
variable       epsilonWall equal 2*1

variable       cutoffTop   equal   0.7147*${sigma}
variable       cutoffTop   equal   0.7147*1

variable       cutoffLow   equal   3*${sigma}
variable       cutoffLow   equal   3*1


fix            topWall all wall/lj93 zhi EDGE                ${epsilonWall} ${sigma} ${cutoffTop} units box
fix            topWall all wall/lj93 zhi EDGE                2 ${sigma} ${cutoffTop} units box
fix            topWall all wall/lj93 zhi EDGE                2 1 ${cutoffTop} units box
fix            topWall all wall/lj93 zhi EDGE                2 1 0.7147 units box

fix            lowWall all wall/lj93 zlo EDGE                ${epsilonWall} ${sigma} ${cutoffLow} units box
fix            lowWall all wall/lj93 zlo EDGE                2 ${sigma} ${cutoffLow} units box
fix            lowWall all wall/lj93 zlo EDGE                2 1 ${cutoffLow} units box
fix            lowWall all wall/lj93 zlo EDGE                2 1 3 units box


###################### COMPUTES ##########################

compute        bin1 solvent chunk/atom bin/1d z upper 1.0



######################	FIXES ############################


fix 		peclet solvent ave/chunk 1000 1 1000 bin1 density/number norm 		 none ave one file density.profile

fix 		2 solvent nve

## Thermostat


region		regthermo block EDGE EDGE EDGE EDGE 0 20

group 		thermo dynamic solvent region regthermo every 1000
dynamic group thermo defined

fix 		3 thermo langevin ${temp} ${temp} 10 156453
fix 		3 thermo langevin 1.2 ${temp} 10 156453
fix 		3 thermo langevin 1.2 1.2 10 156453



#### Load balancing


fix 		bal all balance 1000 1.05 shift z 10 1.05


############### Diagnostics and computes ###################
#compute 	com cube	  rigid/local	1 mol x y z
#compute 	quat cube	  rigid/local	1 mol quatw quati quatj quatk

thermo 		1000
thermo_style 	custom step temp epair evdwl etotal press pe ke vol

dump		1 all custom 100000 dump.lammpstrj id mol type x y z
dump 		2 all image 10000 image.*.png type type
dump 		3 all movie 1000 movie.avi type type
#dump 		com cube local 1000 dump.*.xyz c_com[*]
#dump		quat cube      local 1000 dump.*.quat c_quat[*]


restart 	500000 restart.dat
timestep 	0.0025
timer 		full
New timer settings: style=full  mode=nosync  timeout=off


run		1000000
Per MPI rank memory allocation (min/avg/max) = 21.45 | 22.19 | 22.73 Mbytes
Step Temp E_pair E_vdwl TotEng Press PotEng KinEng Volume 
       0   0.99997028   -3.2974116   -3.2974116   -1.7974593    8.5725801   -3.2974116    1.4999524      1024000 
    1000    1.7467404   -4.4849226   -4.4849226   -1.8648174    4.5385892   -4.4849226    2.6201053      1024000 
    2000    1.7136389   -4.5310438   -4.5310438   -1.9605906    3.2116109   -4.5310438    2.5704531      1024000 
    3000    1.6559991   -4.5263761   -4.5263761   -2.0423825    2.2039658   -4.5263761    2.4839936      1024000 
    4000    1.6382785   -4.5360951   -4.5360951   -2.0786823    1.2032466   -4.5360951    2.4574128      1024000 
    5000    1.5889506   -4.4526716   -4.4526716   -2.0692504   0.53874431   -4.4526716    2.3834211      1024000 
    6000    1.5256181   -4.3230516   -4.3230516   -2.0346291   0.19180433   -4.3230516    2.2884224      1024000 
    7000    1.4711984   -4.2006694   -4.2006694   -1.9938763  0.049668119   -4.2006694    2.2067931      1024000 
    8000    1.4394627   -4.1126244   -4.1126244   -1.9534347  0.045392492   -4.1126244    2.1591897      1024000 
    9000    1.4379654       -4.075       -4.075   -1.9180562   0.10751236       -4.075    2.1569438      1024000 
   10000    1.4436313   -4.0530994   -4.0530994   -1.8876568   0.15380669   -4.0530994    2.1654426      1024000 
   11000    1.4461363   -4.0318436   -4.0318436   -1.8626435   0.17888955   -4.0318436    2.1692001      1024000 
   12000    1.4515161   -4.0193643   -4.0193643   -1.8420946   0.20138406   -4.0193643    2.1772697      1024000 
   13000    1.4581561   -4.0112994   -4.0112994   -1.8240696    0.2363567   -4.0112994    2.1872297      1024000 
   14000    1.4641208   -4.0046105   -4.0046105   -1.8084336   0.26555965   -4.0046105    2.1961768      1024000 
   15000    1.4677704   -3.9960183   -3.9960183   -1.7943671   0.27487265   -3.9960183    2.2016512      1024000 
   16000    1.4680473   -3.9841796   -3.9841796    -1.782113   0.29051397   -3.9841796    2.2020666      1024000 
   17000    1.4685173   -3.9747846   -3.9747846   -1.7720132   0.29779137   -3.9747846    2.2027714      1024000 
   18000    1.4746256    -3.975389    -3.975389   -1.7634551   0.41850224    -3.975389    2.2119339      1024000 
   19000    1.4787167   -3.9734958   -3.9734958   -1.7554253    1.0309586   -3.9734958    2.2180706      1024000 
   20000    1.4912039   -3.9839182   -3.9839182   -1.7471168      1.49805   -3.9839182    2.2368014      1024000 
   21000     1.486127   -3.9678245   -3.9678245   -1.7386385    2.1735894   -3.9678245     2.229186      1024000 
   22000    1.4900125   -3.9665644   -3.9665644   -1.7315501    2.1943666   -3.9665644    2.2350142      1024000 
   23000    1.4779187    -3.941432    -3.941432   -1.7245585    1.8073726    -3.941432    2.2168735      1024000 
   24000    1.4742313   -3.9291841   -3.9291841   -1.7178416    1.4924208   -3.9291841    2.2113425      1024000 
   25000    1.4631125    -3.905692    -3.905692   -1.7110277    1.4844258    -3.905692    2.1946643      1024000 
   26000    1.4298383   -3.8497949   -3.8497949   -1.7050417    1.5734838   -3.8497949    2.1447532      1024000 
   27000     1.403608   -3.8047626   -3.8047626   -1.6993549    1.2716798   -3.8047626    2.1054078      1024000 
   28000    1.3654887   -3.7416148   -3.7416148   -1.6933858   0.91971315   -3.7416148     2.048229      1024000 
   29000    1.3129788   -3.6585273   -3.6585273   -1.6890631   0.62541179   -3.6585273    1.9694642      1024000 
   30000    1.2404702   -3.5446059   -3.5446059   -1.6839044   0.37758595   -3.5446059    1.8607015      1024000 
   31000    1.1907078   -3.4655742   -3.4655742   -1.6795161   0.28234955   -3.4655742    1.7860581      1024000 
   32000    1.1571988   -3.4106381   -3.4106381   -1.6748435   0.21270127   -3.4106381    1.7357946      1024000 
   33000    1.1358961   -3.3741092   -3.3741092   -1.6702684   0.16202729   -3.3741092    1.7038407      1024000 
   34000    1.1217944   -3.3488713   -3.3488713    -1.666183   0.12160631   -3.3488713    1.6826882      1024000 
   35000    1.1146065   -3.3355607   -3.3355607   -1.6636543   0.10869861   -3.3355607    1.6719064      1024000 
   36000     1.109757   -3.3299885   -3.3299885   -1.6653565    0.1059743   -3.3299885    1.6646321      1024000 
   37000    1.1043859   -3.3288713   -3.3288713   -1.6722958  0.099457786   -3.3288713    1.6565754      1024000 
   38000    1.1014202   -3.3373122   -3.3373122   -1.6851853  0.094206805   -3.3373122    1.6521269      1024000 
   39000    1.0964949   -3.3473163   -3.3473163   -1.7025773  0.094598683   -3.3473163     1.644739      1024000 
   40000    1.0943821    -3.363918    -3.363918   -1.7223482    0.1082225    -3.363918    1.6415698      1024000 
   41000    1.0927225    -3.382102    -3.382102   -1.7430217   0.12856185    -3.382102    1.6390804      1024000 
   42000     1.093225    -3.404413    -3.404413   -1.7645788   0.13959835    -3.404413    1.6398342      1024000 
   43000    1.0943264   -3.4278409   -3.4278409   -1.7863547   0.15710564   -3.4278409    1.6414862      1024000 
   44000    1.0947642   -3.4489047   -3.4489047   -1.8067618   0.17549696   -3.4489047    1.6421429      1024000 
   45000    1.0930174   -3.4650853   -3.4650853   -1.8255625   0.19039344   -3.4650853    1.6395227      1024000 
   46000    1.0925104     -3.48016     -3.48016   -1.8413976   0.19424663     -3.48016    1.6387623      1024000 
   47000    1.0894722    -3.489788    -3.489788    -1.855583   0.19685819    -3.489788     1.634205      1024000 
   48000    1.0821599    -3.491497    -3.491497   -1.8682604     0.185763    -3.491497    1.6232366      1024000 
   49000    1.0754664   -3.4907605   -3.4907605   -1.8775642   0.16159511   -3.4907605    1.6131963      1024000 
   50000    1.0691515   -3.4898981   -3.4898981   -1.8861741   0.15384275   -3.4898981     1.603724      1024000 
   51000    1.0641966   -3.4904716   -3.4904716   -1.8941798   0.14205158   -3.4904716    1.5962917      1024000 
   52000    1.0614205   -3.4921616   -3.4921616   -1.9000341    0.1426775   -3.4921616    1.5921275      1024000 
   53000    1.0594841   -3.4944542   -3.4944542   -1.9052312    0.1429969   -3.4944542    1.5892229      1024000 
   54000    1.0623313   -3.5028127   -3.5028127   -1.9093189   0.14377944   -3.5028127    1.5934937      1024000 
   55000    1.0652562   -3.5100591   -3.5100591    -1.912178   0.16490288   -3.5100591    1.5978811      1024000 
   56000    1.0737038    -3.524377    -3.524377   -1.9138246   0.18493731    -3.524377    1.6105525      1024000 
   57000    1.0820733   -3.5386674   -3.5386674   -1.9155607    0.2154658   -3.5386674    1.6231066      1024000 
   58000    1.0929805   -3.5556239   -3.5556239   -1.9161565    0.2574782   -3.5556239    1.6394674      1024000 
   59000    1.1042836   -3.5733203   -3.5733203   -1.9168982   0.30324494   -3.5733203    1.6564221      1024000 
   60000    1.1166625   -3.5915083   -3.5915083    -1.916518    0.3476114   -3.5915083    1.6749903      1024000 
   61000    1.1244706   -3.6033554   -3.6033554   -1.9166529   0.37679181   -3.6033554    1.6867025      1024000 
   62000    1.1284771   -3.6092262   -3.6092262    -1.916514   0.38614048   -3.6092262    1.6927122      1024000 
   63000    1.1288423   -3.6098779   -3.6098779   -1.9166178    0.3750889   -3.6098779      1.69326      1024000 
   64000    1.1235899   -3.6055177   -3.6055177   -1.9201363   0.35406774   -3.6055177    1.6853814      1024000 
   65000    1.1189046    -3.603614    -3.603614   -1.9252605   0.31539668    -3.603614    1.6783534      1024000 
   66000     1.107716   -3.5935651   -3.5935651   -1.9319945   0.29587727   -3.5935651    1.6615706      1024000 
   67000    1.0976304   -3.5879987   -3.5879987   -1.9415565   0.26938048   -3.5879987    1.6464423      1024000 
   68000    1.0897274   -3.5866115   -3.5866115   -1.9520238   0.25450691   -3.5866115    1.6345878      1024000 
   69000    1.0803364   -3.5873646   -3.5873646   -1.9668633    0.2376005   -3.5873646    1.6205013      1024000 
   70000    1.0719108   -3.5898978   -3.5898978   -1.9820349   0.22768194   -3.5898978    1.6078629      1024000 
   71000    1.0645346   -3.5946704   -3.5946704   -1.9978717   0.22202878   -3.5946704    1.5967987      1024000 
   72000    1.0589829   -3.5984554   -3.5984554   -2.0099843   0.22173231   -3.5984554    1.5884711      1024000 
   73000    1.0547925   -3.6021327   -3.6021327   -2.0199472   0.21137411   -3.6021327    1.5821855      1024000 
   74000    1.0531862   -3.6060944   -3.6060944   -2.0263183   0.21068123   -3.6060944    1.5797761      1024000 
   75000    1.0532431   -3.6092628   -3.6092628   -2.0294014    0.2093051   -3.6092628    1.5798614      1024000 
   76000    1.0514985   -3.6097664   -3.6097664   -2.0325218   0.21083587   -3.6097664    1.5772445      1024000 
   77000    1.0501233   -3.6062678   -3.6062678   -2.0310861   0.21907617   -3.6062678    1.5751817      1024000 
   78000    1.0503583   -3.6044232   -3.6044232    -2.028889    0.2204164   -3.6044232    1.5755342      1024000 
   79000    1.0514677   -3.6019574   -3.6019574    -2.024759    0.2197134   -3.6019574    1.5771984      1024000 
   80000    1.0512665   -3.5967019   -3.5967019   -2.0198054    0.2215927   -3.5967019    1.5768965      1024000 
   81000    1.0511132   -3.5923363   -3.5923363   -2.0156697   0.21216198   -3.5923363    1.5766666      1024000 
   82000    1.0481717   -3.5828045   -3.5828045   -2.0105501   0.20549435   -3.5828045    1.5722544      1024000 
   83000    1.0460572   -3.5727052   -3.5727052   -2.0036226   0.19338871   -3.5727052    1.5690826      1024000 
   84000    1.0410859   -3.5601901   -3.5601901   -1.9985644   0.17710888   -3.5601901    1.5616256      1024000 
   85000    1.0346709     -3.54656     -3.54656   -1.9945569   0.15599036     -3.54656    1.5520031      1024000 
   86000    1.0290261   -3.5345725   -3.5345725   -1.9910365     0.133532   -3.5345725     1.543536      1024000 
   87000    1.0233136   -3.5207362   -3.5207362   -1.9857689   0.11905927   -3.5207362    1.5349673      1024000 
   88000    1.0181161   -3.5088849   -3.5088849   -1.9817139   0.10755406   -3.5088849     1.527171      1024000 
   89000    1.0132513    -3.499369    -3.499369   -1.9794951   0.09469976    -3.499369    1.5198739      1024000 
   90000    1.0083751   -3.4884231   -3.4884231   -1.9758635  0.089429645   -3.4884231    1.5125596      1024000 
   91000    1.0066798    -3.482738    -3.482738   -1.9727214   0.08082531    -3.482738    1.5100166      1024000 
   92000    1.0019434   -3.4729611   -3.4729611    -1.970049  0.078603869   -3.4729611    1.5029121      1024000 
   93000    1.0003161     -3.46676     -3.46676   -1.9662889  0.073686655     -3.46676    1.5004711      1024000 
   94000   0.99835171   -3.4596513   -3.4596513   -1.9621268  0.070183532   -3.4596513    1.4975245      1024000 
   95000   0.99736348   -3.4539408   -3.4539408   -1.9578986  0.066990636   -3.4539408    1.4960422      1024000 
   96000   0.99618488   -3.4466562   -3.4466562   -1.9523819  0.070603163   -3.4466562    1.4942743      1024000 
   97000   0.99536652   -3.4415195   -3.4415195   -1.9484727  0.072019614   -3.4415195    1.4930467      1024000 
   98000    0.9942769   -3.4340055   -3.4340055   -1.9425932    0.0701411   -3.4340055    1.4914123      1024000 
   99000   0.99517795    -3.429889    -3.429889   -1.9371251  0.067747906    -3.429889    1.4927639      1024000 
  100000   0.99416002   -3.4237773   -3.4237773   -1.9325403  0.069743259   -3.4237773     1.491237      1024000 
  101000   0.99398002   -3.4188059   -3.4188059   -1.9278389   0.06857752   -3.4188059     1.490967      1024000 
  102000   0.99386485   -3.4137543   -3.4137543   -1.9229601  0.064780505   -3.4137543    1.4907943      1024000 
  103000   0.99434729   -3.4092097   -3.4092097   -1.9176918  0.065533682   -3.4092097    1.4915179      1024000 
  104000   0.99292385   -3.4021094   -3.4021094   -1.9127266  0.059228766   -3.4021094    1.4893828      1024000 
  105000   0.99489974   -3.3991841   -3.3991841   -1.9068375  0.063243666   -3.3991841    1.4923466      1024000 
  106000   0.99399214   -3.3936228   -3.3936228   -1.9026376  0.068490197   -3.3936228    1.4909852      1024000 
  107000   0.99342835   -3.3885213   -3.3885213   -1.8983818  0.071599602   -3.3885213    1.4901395      1024000 
  108000   0.99467401   -3.3845315   -3.3845315   -1.8925236  0.074719618   -3.3845315     1.492008      1024000 
  109000   0.99415267    -3.379005    -3.379005    -1.887779  0.075480322    -3.379005     1.491226      1024000 
  110000   0.99541087   -3.3760381   -3.3760381   -1.8829248  0.077160168   -3.3760381    1.4931133      1024000 
  111000   0.99560402   -3.3721978   -3.3721978   -1.8787948  0.075097512   -3.3721978     1.493403      1024000 
  112000   0.99578052   -3.3688134   -3.3688134   -1.8751456  0.075382123   -3.3688134    1.4936677      1024000 
  113000   0.99548448   -3.3637452   -3.3637452   -1.8705215  0.072493981   -3.3637452    1.4932237      1024000 
  114000    0.9971537    -3.362544    -3.362544   -1.8668165  0.074362557    -3.362544    1.4957275      1024000 
  115000   0.99696652   -3.3578955   -3.3578955   -1.8624488  0.072430633   -3.3578955    1.4954467      1024000 
  116000   0.99822368   -3.3555292   -3.3555292   -1.8581967  0.076836943   -3.3555292    1.4973325      1024000 
  117000   0.99872347   -3.3529034   -3.3529034   -1.8548212   0.07791764   -3.3529034    1.4980822      1024000 
  118000   0.99860378   -3.3488273   -3.3488273   -1.8509247  0.083040761   -3.3488273    1.4979026      1024000 
  119000   0.99934129   -3.3464707   -3.3464707   -1.8474618  0.075249195   -3.3464707    1.4990089      1024000 
  120000   0.99917524   -3.3423831   -3.3423831   -1.8436233   0.07989172   -3.3423831    1.4987598      1024000 
  121000    1.0013284   -3.3427805   -3.3427805   -1.8407909  0.075590852   -3.3427805    1.5019895      1024000 
  122000    1.0004196    -3.338436    -3.338436   -1.8378096  0.079746274    -3.338436    1.5006264      1024000 
  123000     1.002441   -3.3385029   -3.3385029   -1.8348444   0.08720353   -3.3385029    1.5036585      1024000 
  124000    1.0043795   -3.3373762   -3.3373762   -1.8308099  0.088047605   -3.3373762    1.5065663      1024000 
  125000    1.0039631   -3.3334939   -3.3334939   -1.8275523  0.093567965   -3.3334939    1.5059417      1024000 
  126000    1.0065813   -3.3342393   -3.3342393   -1.8243704  0.092183703   -3.3342393    1.5098688      1024000 
  127000    1.0089946   -3.3349812   -3.3349812   -1.8214924  0.096060211   -3.3349812    1.5134888      1024000 
  128000    1.0099684    -3.333585    -3.333585   -1.8186355   0.10587794    -3.333585    1.5149495      1024000 
  129000     1.013575   -3.3363818   -3.3363818   -1.8160223   0.11645799   -3.3363818    1.5203595      1024000 
  130000    1.0182293   -3.3395538   -3.3395538    -1.812213   0.12455443   -3.3395538    1.5273408      1024000 
  131000    1.0225474     -3.34296     -3.34296    -1.809142   0.14876967     -3.34296     1.533818      1024000 
  132000    1.0313238    -3.353494    -3.353494   -1.8065114   0.16811213    -3.353494    1.5469826      1024000 
  133000    1.0395601    -3.363039    -3.363039   -1.8037021   0.20403011    -3.363039    1.5593369      1024000 
  134000    1.0487206   -3.3747839   -3.3747839   -1.8017061    0.2361577   -3.3747839    1.5730778      1024000 
  135000    1.0570309   -3.3839147   -3.3839147   -1.7983716   0.26655141   -3.3839147    1.5855432      1024000 
  136000    1.0649421   -3.3929078   -3.3929078   -1.7954979   0.29354764   -3.3929078    1.5974099      1024000 
  137000    1.0728579   -3.4025897   -3.4025897   -1.7933061   0.31222801   -3.4025897    1.6092836      1024000 
  138000    1.0786988   -3.4089438   -3.4089438   -1.7908989   0.32376757   -3.4089438    1.6180449      1024000 
  139000    1.0842411   -3.4147839   -3.4147839   -1.7884255   0.33889123   -3.4147839    1.6263584      1024000 
  140000    1.0871976   -3.4168673   -3.4168673   -1.7860742   0.34254885   -3.4168673    1.6307931      1024000 
  141000    1.0921628   -3.4221171   -3.4221171   -1.7838763   0.34232037   -3.4221171    1.6382409      1024000 
  142000    1.0940814   -3.4219771   -3.4219771   -1.7808583   0.34116216   -3.4219771    1.6411188      1024000 
  143000    1.0966758   -3.4239418   -3.4239418   -1.7789315   0.34394469   -3.4239418    1.6450103      1024000 
  144000    1.0989772    -3.425186    -3.425186   -1.7767236   0.33852257    -3.425186    1.6484624      1024000 
  145000    1.0982218   -3.4222489   -3.4222489   -1.7749195    0.3301202   -3.4222489    1.6473294      1024000 
  146000     1.096707   -3.4184352   -3.4184352    -1.773378   0.31944086   -3.4184352    1.6450572      1024000 
  147000    1.0954079   -3.4143967   -3.4143967   -1.7712882   0.30413555   -3.4143967    1.6431085      1024000 
  148000    1.0897401   -3.4039129   -3.4039129    -1.769306   0.28941015   -3.4039129    1.6346069      1024000 
  149000    1.0843204   -3.3936084   -3.3936084   -1.7671311   0.27198254   -3.3936084    1.6264773      1024000 
  150000    1.0781827   -3.3825338   -3.3825338    -1.765263   0.25600733   -3.3825338    1.6172708      1024000 
  151000    1.0719905   -3.3711699   -3.3711699   -1.7631873   0.23221827   -3.3711699    1.6079826      1024000 
  152000     1.067278   -3.3623605   -3.3623605   -1.7614468   0.20971274   -3.3623605    1.6009137      1024000 
  153000    1.0586848   -3.3485497   -3.3485497   -1.7605258   0.19605464   -3.3485497    1.5880239      1024000 
  154000    1.0518431    -3.337573    -3.337573   -1.7598116   0.17178348    -3.337573    1.5777614      1024000 
  155000     1.044568   -3.3262066   -3.3262066   -1.7593578   0.15582694   -3.3262066    1.5668488      1024000 
  156000    1.0381988   -3.3170093   -3.3170093   -1.7597143   0.14325174   -3.3170093    1.5572951      1024000 
  157000    1.0315082   -3.3091571   -3.3091571   -1.7618979   0.13049974   -3.3091571    1.5472592      1024000 
  158000    1.0249756   -3.3020142   -3.3020142   -1.7645539   0.11112811   -3.3020142    1.5374603      1024000 
  159000    1.0190666   -3.2951067   -3.2951067   -1.7665099   0.10339852   -3.2951067    1.5285968      1024000 
  160000    1.0142974   -3.2908283   -3.2908283   -1.7693853  0.088467518   -3.2908283     1.521443      1024000 
  161000    1.0101785   -3.2869795   -3.2869795   -1.7717148  0.085676047   -3.2869795    1.5152646      1024000 
  162000    1.0079018   -3.2862657   -3.2862657   -1.7744161  0.075309045   -3.2862657    1.5118496      1024000 
  163000    1.0035273    -3.283107    -3.283107   -1.7778191  0.073448708    -3.283107    1.5052879      1024000 
  164000    1.0011157   -3.2820173   -3.2820173   -1.7803467   0.07294693   -3.2820173    1.5016705      1024000 
  165000   0.99815224    -3.281418    -3.281418   -1.7841927  0.068373601    -3.281418    1.4972253      1024000 
  166000   0.99691044   -3.2819462   -3.2819462   -1.7865835  0.070724775   -3.2819462    1.4953626      1024000 
  167000   0.99793224   -3.2859295   -3.2859295   -1.7890342   0.06557266   -3.2859295    1.4968953      1024000 
  168000   0.99651795   -3.2856076   -3.2856076   -1.7908337  0.070694194   -3.2856076    1.4947739      1024000 
  169000    0.9975209    -3.289162    -3.289162   -1.7928837  0.068948905    -3.289162    1.4962783      1024000 
  170000    0.9982473   -3.2907511   -3.2907511   -1.7933832  0.073407674   -3.2907511    1.4973679      1024000 
  171000   0.99743224   -3.2918807   -3.2918807   -1.7957353  0.079085103   -3.2918807    1.4961453      1024000 
  172000   0.99942877   -3.2960226   -3.2960226   -1.7968825  0.077803458   -3.2960226    1.4991401      1024000 
  173000    1.0001418   -3.2985575   -3.2985575   -1.7983479  0.082096409   -3.2985575    1.5002096      1024000 
  174000    1.0028102   -3.3035591   -3.3035591   -1.7993469  0.088197838   -3.3035591    1.5042122      1024000 
  175000    1.0027773   -3.3034841   -3.3034841   -1.7993213  0.089909673   -3.3034841    1.5041628      1024000 
  176000    1.0045025   -3.3070103   -3.3070103   -1.8002597  0.088607576   -3.3070103    1.5067506      1024000 
  177000    1.0069668   -3.3113554   -3.3113554   -1.8009082  0.086761637   -3.3113554    1.5104472      1024000 
  178000    1.0079561   -3.3122515   -3.3122515   -1.8003203  0.095450092   -3.3122515    1.5119311      1024000 
  179000    1.0102063   -3.3154779   -3.3154779   -1.8001716  0.097221197   -3.3154779    1.5153063      1024000 
  180000    1.0117041   -3.3172753   -3.3172753   -1.7997222  0.099222345   -3.3172753    1.5175531      1024000 
  181000    1.0134887   -3.3202547   -3.3202547   -1.8000247   0.10372727   -3.3202547    1.5202299      1024000 
  182000    1.0137176   -3.3212259   -3.3212259   -1.8006525    0.1051761   -3.3212259    1.5205733      1024000 
  183000    1.0149026    -3.322955    -3.322955   -1.8006041   0.10772355    -3.322955    1.5223509      1024000 
  184000    1.0136826   -3.3209417   -3.3209417    -1.800421   0.11427058   -3.3209417    1.5205207      1024000 
  185000    1.0169014   -3.3254165   -3.3254165   -1.8000675   0.11308477   -3.3254165    1.5253489      1024000 
  186000    1.0184268   -3.3272129   -3.3272129   -1.7995758   0.11445252   -3.3272129     1.527637      1024000 
  187000    1.0168718   -3.3251906   -3.3251906    -1.799886   0.11142152   -3.3251906    1.5253046      1024000 
  188000    1.0173791   -3.3255229   -3.3255229   -1.7994574   0.11480445   -3.3255229    1.5260655      1024000 
  189000    1.0154798   -3.3229124   -3.3229124   -1.7996959   0.11284189   -3.3229124    1.5232165      1024000 
  190000    1.0154566   -3.3229224   -3.3229224   -1.7997406   0.10574334   -3.3229224    1.5231819      1024000 
  191000    1.0142864   -3.3219834   -3.3219834   -1.8005569   0.10851675   -3.3219834    1.5214266      1024000 
  192000    1.0140929   -3.3213207   -3.3213207   -1.8001844  0.099514968   -3.3213207    1.5211363      1024000 
  193000    1.0118625   -3.3180101   -3.3180101   -1.8002195   0.10104523   -3.3180101    1.5177906      1024000 
  194000    1.0096567   -3.3146928   -3.3146928   -1.8002109   0.10098123   -3.3146928    1.5144819      1024000 
  195000    1.0094442    -3.315053    -3.315053   -1.8008897  0.090884086    -3.315053    1.5141633      1024000 
  196000    1.0083589   -3.3136325   -3.3136325   -1.8010972  0.092218434   -3.3136325    1.5125353      1024000 
  197000    1.0062793   -3.3107424   -3.3107424   -1.8013266  0.087743706   -3.3107424    1.5094159      1024000 
  198000    1.0061519   -3.3107239   -3.3107239   -1.8014992  0.088178851   -3.3107239    1.5092247      1024000 
  199000    1.0066397   -3.3114272   -3.3114272   -1.8014708  0.084126647   -3.3114272    1.5099564      1024000 
  200000    1.0037685   -3.3068085   -3.3068085   -1.8011589  0.086669008   -3.3068085    1.5056497      1024000 
  201000    1.0024643   -3.3062804   -3.3062804    -1.802587  0.082737143   -3.3062804    1.5036934      1024000 
  202000    1.0012752   -3.3050755   -3.3050755   -1.8031656  0.088263452   -3.3050755    1.5019098      1024000 
  203000    1.0001042   -3.3030712   -3.3030712   -1.8029179  0.084134184   -3.3030712    1.5001533      1024000 
  204000   0.99985481   -3.3028738   -3.3028738   -1.8030946  0.082307366   -3.3028738    1.4997792      1024000 
  205000    0.9990062   -3.3012801   -3.3012801   -1.8027739   0.07502521   -3.3012801    1.4985063      1024000 
  206000   0.99914107   -3.3019905   -3.3019905   -1.8032819   0.07624473   -3.3019905    1.4987086      1024000 
  207000   0.99848536   -3.3010592   -3.3010592   -1.8033342  0.078272794   -3.3010592     1.497725      1024000 
  208000   0.99988663   -3.3024545   -3.3024545   -1.8026276  0.078211999   -3.3024545    1.4998269      1024000 
  209000    1.0004705   -3.3035734   -3.3035734   -1.8028707  0.079103174   -3.3035734    1.5007027      1024000 
  210000   0.99904726   -3.3013795   -3.3013795   -1.8028116  0.081022657   -3.3013795    1.4985678      1024000 
  211000    1.0002345   -3.3022881   -3.3022881   -1.8019394  0.083656231   -3.3022881    1.5003487      1024000 
  212000   0.99906618   -3.3001911   -3.3001911   -1.8015948  0.086253953   -3.3001911    1.4985962      1024000 
  213000    1.0006965   -3.3027128   -3.3027128   -1.8016711   0.08204184   -3.3027128    1.5010417      1024000 
  214000     1.002553   -3.3041628   -3.3041628   -1.8003365  0.086625619   -3.3041628    1.5038264      1024000 
  215000    1.0025762   -3.3037831   -3.3037831   -1.7999218  0.085391767   -3.3037831    1.5038613      1024000 
  216000    1.0046583   -3.3060508   -3.3060508   -1.7990664  0.092266719   -3.3060508    1.5069844      1024000 
  217000    1.0033051   -3.3029871   -3.3029871   -1.7980324  0.090455537   -3.3029871    1.5049547      1024000 
  218000    1.0056997   -3.3060528   -3.3060528   -1.7975062   0.08436815   -3.3060528    1.5085466      1024000 
  219000    1.0041391   -3.3029857   -3.3029857   -1.7967801  0.094589819   -3.3029857    1.5062055      1024000 
  220000    1.0072933   -3.3063368   -3.3063368      -1.7954  0.092535071   -3.3063368    1.5109368      1024000 
  221000     1.006889   -3.3044348   -3.3044348   -1.7941043  0.097877717   -3.3044348    1.5103305      1024000 
  222000    1.0055876   -3.3027193   -3.3027193    -1.794341  0.096430484   -3.3027193    1.5083783      1024000 
  223000    1.0073966   -3.3047108   -3.3047108    -1.793619   0.09067531   -3.3047108    1.5110918      1024000 
  224000    1.0083259   -3.3052448   -3.3052448    -1.792759   0.09177446   -3.3052448    1.5124858      1024000 
  225000    1.0071039   -3.3023842   -3.3023842   -1.7917314  0.099279745   -3.3023842    1.5106528      1024000 
  226000    1.0079128   -3.3023693   -3.3023693   -1.7905032  0.098168918   -3.3023693    1.5118662      1024000 
  227000    1.0087297   -3.3035189   -3.3035189   -1.7904274  0.097100394   -3.3035189    1.5130915      1024000 
  228000    1.0080199    -3.301667    -3.301667   -1.7896403  0.095029481    -3.301667    1.5120267      1024000 
  229000    1.0092111   -3.3014028   -3.3014028   -1.7875892   0.10235104   -3.3014028    1.5138135      1024000 
  230000    1.0111617   -3.3033742   -3.3033742   -1.7866347  0.099017621   -3.3033742    1.5167395      1024000 
  231000     1.009643   -3.3006136   -3.3006136   -1.7861522   0.09984264   -3.3006136    1.5144614      1024000 
  232000    1.0117012   -3.3022078   -3.3022078   -1.7846591   0.10303346   -3.3022078    1.5175488      1024000 
  233000    1.0129311   -3.3028944   -3.3028944   -1.7835009   0.11058048   -3.3028944    1.5193935      1024000 
  234000     1.013139   -3.3022218   -3.3022218   -1.7825163   0.10932581   -3.3022218    1.5197054      1024000 
  235000    1.0152348   -3.3046033   -3.3046033   -1.7817542   0.12201131   -3.3046033    1.5228491      1024000 
  236000    1.0171598   -3.3067551   -3.3067551   -1.7810184    0.1207876   -3.3067551    1.5257367      1024000 
  237000    1.0190401   -3.3085814   -3.3085814   -1.7800243   0.12921149   -3.3085814     1.528557      1024000 
  238000    1.0212525   -3.3118715   -3.3118715   -1.7799958   0.13623711   -3.3118715    1.5318757      1024000 
  239000    1.0234905   -3.3141211   -3.3141211   -1.7788885    0.1398763   -3.3141211    1.5352326      1024000 
  240000    1.0273024    -3.319587    -3.319587   -1.7786365   0.15097787    -3.319587    1.5409505      1024000 
  241000    1.0297471    -3.321874    -3.321874   -1.7772565   0.15982333    -3.321874    1.5446175      1024000 
  242000    1.0319688    -3.324936    -3.324936    -1.776986   0.16635915    -3.324936      1.54795      1024000 
  243000    1.0348543   -3.3280673   -3.3280673   -1.7757891   0.17138393   -3.3280673    1.5522782      1024000 
  244000    1.0367926   -3.3299599   -3.3299599   -1.7747742   0.18032303   -3.3299599    1.5551857      1024000 
  245000    1.0396026    -3.333267    -3.333267   -1.7738664   0.18294129    -3.333267    1.5594007      1024000 
  246000    1.0415927   -3.3355596   -3.3355596   -1.7731737   0.18687467   -3.3355596    1.5623858      1024000 
  247000    1.0433795   -3.3370379   -3.3370379   -1.7719717   0.19459599   -3.3370379    1.5650661      1024000 
  248000    1.0454443   -3.3393203   -3.3393203   -1.7711571   0.19272081   -3.3393203    1.5681632      1024000 
  249000    1.0466206   -3.3400714   -3.3400714   -1.7701437   0.20117173   -3.3400714    1.5699278      1024000 
  250000    1.0481011   -3.3415171   -3.3415171   -1.7693686   0.20288743   -3.3415171    1.5721485      1024000 
  251000    1.0496486   -3.3429032   -3.3429032   -1.7684335   0.19356283   -3.3429032    1.5744698      1024000 
  252000      1.04968   -3.3423451   -3.3423451   -1.7678282   0.19501699   -3.3423451    1.5745169      1024000 
  253000    1.0477934   -3.3389069   -3.3389069     -1.76722   0.19361298   -3.3389069    1.5716868      1024000 
  254000    1.0484085   -3.3390291   -3.3390291   -1.7664195   0.18715283   -3.3390291    1.5726096      1024000 
  255000    1.0471762   -3.3360753   -3.3360753   -1.7653141   0.18426045   -3.3360753    1.5707611      1024000 
  256000    1.0457098   -3.3324309   -3.3324309   -1.7638693   0.17820809   -3.3324309    1.5685616      1024000 
  257000     1.044815   -3.3301882   -3.3301882   -1.7629689   0.17147608   -3.3301882    1.5672193      1024000 
  258000    1.0430852   -3.3270915   -3.3270915   -1.7624669   0.16351665   -3.3270915    1.5646246      1024000 
  259000    1.0405143    -3.322394    -3.322394   -1.7616257     0.158728    -3.322394    1.5607684      1024000 
  260000    1.0381788   -3.3186963   -3.3186963   -1.7614313   0.15022741   -3.3186963    1.5572651      1024000 
  261000    1.0353152   -3.3139345   -3.3139345   -1.7609648   0.14889588   -3.3139345    1.5529697      1024000 
  262000    1.0325392   -3.3101651   -3.3101651   -1.7613594    0.1419222   -3.3101651    1.5488057      1024000 
  263000    1.0307786   -3.3076644   -3.3076644   -1.7614997   0.13334056   -3.3076644    1.5461648      1024000 
  264000    1.0280296   -3.3038311   -3.3038311   -1.7617899   0.13357063   -3.3038311    1.5420413      1024000 
  265000     1.024524   -3.2992717   -3.2992717   -1.7624888    0.1250975   -3.2992717    1.5367829      1024000 
  266000    1.0236314   -3.2986047   -3.2986047   -1.7631607   0.12008018   -3.2986047     1.535444      1024000 
  267000    1.0212178   -3.2957494   -3.2957494   -1.7639258   0.11515699   -3.2957494    1.5318236      1024000 
  268000    1.0186516   -3.2923408   -3.2923408   -1.7643665   0.11303903   -3.2923408    1.5279743      1024000 
  269000    1.0170998   -3.2908631   -3.2908631   -1.7652165    0.1086286   -3.2908631    1.5256466      1024000 
  270000    1.0161655   -3.2901002   -3.2901002   -1.7658551   0.10183055   -3.2901002    1.5242451      1024000 
  271000     1.014729   -3.2893558   -3.2893558   -1.7672654   0.10048959   -3.2893558    1.5220904      1024000 
  272000    1.0140316   -3.2893004   -3.2893004    -1.768256  0.093875348   -3.2893004    1.5210444      1024000 
  273000    1.0125441   -3.2874375   -3.2874375   -1.7686244  0.099793247   -3.2874375    1.5188131      1024000 
  274000    1.0113031   -3.2864804   -3.2864804   -1.7695289  0.097883583   -3.2864804    1.5169515      1024000 
  275000    1.0095393    -3.285942    -3.285942   -1.7716362  0.091239008    -3.285942    1.5143058      1024000 
  276000    1.0087094   -3.2853378   -3.2853378   -1.7722767  0.089977697   -3.2853378     1.513061      1024000 
  277000     1.007705   -3.2843394   -3.2843394    -1.772785  0.095962222   -3.2843394    1.5115544      1024000 
  278000    1.0080689     -3.28506     -3.28506   -1.7729598   0.09100076     -3.28506    1.5121003      1024000 
  279000    1.0088282   -3.2868411   -3.2868411   -1.7736018   0.08626278   -3.2868411    1.5132392      1024000 
  280000    1.0082664   -3.2863583   -3.2863583   -1.7739617  0.086383133   -3.2863583    1.5123965      1024000 
  281000    1.0090482    -3.287775    -3.287775   -1.7742059  0.087896853    -3.287775    1.5135692      1024000 
  282000     1.008271   -3.2876307   -3.2876307   -1.7752273  0.089900196   -3.2876307    1.5124034      1024000 
  283000    1.0103163   -3.2906346   -3.2906346   -1.7751632  0.088709654   -3.2906346    1.5154713      1024000 
  284000    1.0086355   -3.2884701   -3.2884701   -1.7755199  0.093188966   -3.2884701    1.5129502      1024000 
  285000    1.0090732   -3.2897149   -3.2897149   -1.7761081   0.09196122   -3.2897149    1.5136067      1024000 
  286000     1.008754   -3.2892719   -3.2892719    -1.776144  0.094784231   -3.2892719    1.5131279      1024000 
  287000    1.0109897    -3.292802    -3.292802   -1.7763206  0.090061625    -3.292802    1.5164814      1024000 
  288000     1.010433   -3.2919497   -3.2919497   -1.7763033  0.096398868   -3.2919497    1.5156464      1024000 
  289000    1.0099021   -3.2908309   -3.2908309   -1.7759808  0.099077567   -3.2908309    1.5148501      1024000 
  290000    1.0095731   -3.2908789   -3.2908789   -1.7765223  0.095443755   -3.2908789    1.5143566      1024000 
  291000    1.0098492   -3.2912814   -3.2912814   -1.7765106  0.095606012   -3.2912814    1.5147708      1024000 
  292000    1.0106253   -3.2928991   -3.2928991   -1.7769643   0.10070037   -3.2928991    1.5159349      1024000 
  293000    1.0091041   -3.2908862   -3.2908862   -1.7772331  0.099166188   -3.2908862    1.5136531      1024000 
  294000    1.0096357   -3.2913438   -3.2913438   -1.7768933  0.099009092   -3.2913438    1.5144505      1024000 
  295000    1.0116257   -3.2938262   -3.2938262   -1.7763906  0.096689911   -3.2938262    1.5174355      1024000 
  296000    1.0089839   -3.2903763   -3.2903763   -1.7769035  0.095468819   -3.2903763    1.5134728      1024000 
  297000    1.0100928   -3.2916476   -3.2916476   -1.7765114  0.090656879   -3.2916476    1.5151362      1024000 
  298000     1.009055   -3.2899148   -3.2899148   -1.7763353  0.098031004   -3.2899148    1.5135795      1024000 
  299000    1.0090451   -3.2900752   -3.2900752   -1.7765106  0.096768659   -3.2900752    1.5135646      1024000 
  300000    1.0101714    -3.290401    -3.290401   -1.7751469  0.095830663    -3.290401     1.515254      1024000 
  301000     1.009924   -3.2899531   -3.2899531   -1.7750702  0.097083217   -3.2899531    1.5148829      1024000 
  302000    1.0098134   -3.2899681   -3.2899681   -1.7752511  0.096315293   -3.2899681     1.514717      1024000 
  303000     1.009757     -3.29028     -3.29028   -1.7756476  0.096573881     -3.29028    1.5146324      1024000 
  304000    1.0091968   -3.2888131   -3.2888131   -1.7750211  0.096291002   -3.2888131    1.5137921      1024000 
  305000    1.0103857   -3.2898469   -3.2898469   -1.7742714  0.095373983   -3.2898469    1.5155755      1024000 
  306000    1.0108632   -3.2905024   -3.2905024   -1.7742107  0.098772772   -3.2905024    1.5162917      1024000 
  307000    1.0098637   -3.2886198   -3.2886198   -1.7738274  0.099930941   -3.2886198    1.5147924      1024000 
  308000    1.0101366   -3.2888516   -3.2888516   -1.7736498  0.092630279   -3.2888516    1.5152018      1024000 
  309000     1.011439   -3.2904023   -3.2904023   -1.7732468  0.094297677   -3.2904023    1.5171555      1024000 
  310000    1.0093803    -3.287102    -3.287102   -1.7730347  0.099299448    -3.287102    1.5140673      1024000 
  311000    1.0122693   -3.2910643   -3.2910643   -1.7726634  0.098138108   -3.2910643    1.5184009      1024000 
  312000       1.0108    -3.288713    -3.288713   -1.7725161   0.10479265    -3.288713    1.5161969      1024000 
  313000     1.012475   -3.2902991   -3.2902991   -1.7715896    0.1052423   -3.2902991    1.5187095      1024000 
  314000    1.0131168   -3.2911613   -3.2911613   -1.7714891   0.10280998   -3.2911613    1.5196722      1024000 
  315000    1.0130889   -3.2902413   -3.2902413   -1.7706111   0.10821002   -3.2902413    1.5196302      1024000 
  316000    1.0140231   -3.2917761   -3.2917761   -1.7707445    0.1106811   -3.2917761    1.5210316      1024000 
  317000    1.0143588   -3.2921281   -3.2921281    -1.770593   0.11217851   -3.2921281    1.5215351      1024000 
  318000     1.015954   -3.2937172   -3.2937172   -1.7697893   0.11110164   -3.2937172    1.5239279      1024000 
  319000    1.0179877   -3.2972571   -3.2972571   -1.7702787   0.12096715   -3.2972571    1.5269784      1024000 
  320000    1.0195396   -3.2992738   -3.2992738   -1.7699675   0.12359266   -3.2992738    1.5293063      1024000 
  321000    1.0206098   -3.3004716   -3.3004716     -1.76956   0.12226967   -3.3004716    1.5309115      1024000 
  322000    1.0211251   -3.3008043   -3.3008043   -1.7691197   0.12538891   -3.3008043    1.5316846      1024000 
  323000    1.0215933   -3.3010913   -3.3010913   -1.7687044   0.13151746   -3.3010913    1.5323869      1024000 
  324000     1.022305   -3.3010311   -3.3010311   -1.7675766    0.1330633   -3.3010311    1.5334544      1024000 
  325000    1.0237492    -3.303127    -3.303127   -1.7675063   0.13981884    -3.303127    1.5356207      1024000 
  326000    1.0255296   -3.3047243   -3.3047243    -1.766433   0.14009536   -3.3047243    1.5382913      1024000 
  327000    1.0277564   -3.3071563   -3.3071563   -1.7655248   0.13556572   -3.3071563    1.5416315      1024000 
  328000    1.0262525   -3.3042581   -3.3042581   -1.7648825   0.14214746   -3.3042581    1.5393757      1024000 
  329000    1.0280395   -3.3061857   -3.3061857   -1.7641296   0.14038131   -3.3061857    1.5420561      1024000 
  330000     1.029353    -3.308113    -3.308113   -1.7640867   0.14972275    -3.308113    1.5440263      1024000 
  331000    1.0304899   -3.3096534   -3.3096534   -1.7639216   0.14435499   -3.3096534    1.5457317      1024000 
  332000    1.0297265    -3.308177    -3.308177   -1.7635904   0.14702908    -3.308177    1.5445866      1024000 
  333000    1.0308285   -3.3088581   -3.3088581   -1.7626185    0.1496251   -3.3088581    1.5462396      1024000 
  334000    1.0309378   -3.3084924   -3.3084924   -1.7620888   0.15253101   -3.3084924    1.5464035      1024000 
  335000    1.0320824   -3.3100064   -3.3100064    -1.761886   0.14540858   -3.3100064    1.5481205      1024000 
  336000    1.0323249   -3.3091372   -3.3091372    -1.760653   0.14725274   -3.3091372    1.5484843      1024000 
  337000    1.0314241   -3.3071597   -3.3071597   -1.7600266   0.14775537   -3.3071597     1.547133      1024000 
  338000    1.0321313   -3.3081068   -3.3081068   -1.7599129   0.14503282   -3.3081068    1.5481939      1024000 
  339000    1.0302036   -3.3045998   -3.3045998   -1.7592975   0.14766882   -3.3045998    1.5453023      1024000 
  340000    1.0326218   -3.3082052   -3.3082052   -1.7592757   0.13843671   -3.3082052    1.5489296      1024000 
  341000    1.0313168    -3.305404    -3.305404   -1.7584319   0.14672027    -3.305404    1.5469721      1024000 
  342000    1.0306365   -3.3046032   -3.3046032   -1.7586516   0.14080844   -3.3046032    1.5459516      1024000 
  343000    1.0309924   -3.3042393   -3.3042393   -1.7577538   0.14035795   -3.3042393    1.5464855      1024000 
  344000    1.0295969   -3.3025756   -3.3025756   -1.7581833   0.14208166   -3.3025756    1.5443923      1024000 
  345000    1.0291876   -3.3016777   -3.3016777   -1.7578995   0.13714437   -3.3016777    1.5437783      1024000 
  346000    1.0288041   -3.3011345   -3.3011345   -1.7579315   0.13578741   -3.3011345     1.543203      1024000 
  347000    1.0277861    -3.298917    -3.298917    -1.757241   0.13287457    -3.298917     1.541676      1024000 
  348000    1.0260145   -3.2969478   -3.2969478   -1.7579292   0.12521013   -3.2969478    1.5390186      1024000 
  349000    1.0243181   -3.2951152   -3.2951152   -1.7586412    0.1247384   -3.2951152     1.536474      1024000 
  350000    1.0232857   -3.2936984   -3.2936984    -1.758773   0.11911613   -3.2936984    1.5349254      1024000 
  351000    1.0218349   -3.2920528   -3.2920528   -1.7593036   0.12312104   -3.2920528    1.5327492      1024000 
  352000    1.0204595   -3.2897611   -3.2897611    -1.759075   0.11721084   -3.2897611    1.5306861      1024000 
  353000    1.0203488   -3.2898762   -3.2898762   -1.7593561   0.11277424   -3.2898762      1.53052      1024000 
  354000    1.0208844   -3.2904342   -3.2904342   -1.7591108   0.10341983   -3.2904342    1.5313234      1024000 
  355000    1.0191714   -3.2879315   -3.2879315   -1.7591775   0.11106671   -3.2879315     1.528754      1024000 
  356000    1.0183479   -3.2880307   -3.2880307    -1.760512   0.11166189   -3.2880307    1.5275187      1024000 
  357000     1.016124   -3.2855801   -3.2855801   -1.7613972   0.10762825   -3.2855801     1.524183      1024000 
  358000    1.0165627    -3.287256    -3.287256   -1.7624151   0.10530894    -3.287256    1.5248409      1024000 
  359000    1.0150036   -3.2852318   -3.2852318   -1.7627295   0.10734201   -3.2852318    1.5225023      1024000 
  360000    1.0157801   -3.2856991   -3.2856991   -1.7620321   0.10378682   -3.2856991    1.5236671      1024000 
  361000    1.0145456   -3.2830081   -3.2830081   -1.7611928   0.10346198   -3.2830081    1.5218153      1024000 
  362000    1.0146194   -3.2836861   -3.2836861     -1.76176   0.10136084   -3.2836861    1.5219261      1024000 
  363000    1.0157214   -3.2858394   -3.2858394   -1.7622605   0.10459967   -3.2858394     1.523579      1024000 
  364000     1.015156    -3.284677    -3.284677   -1.7619461   0.10415365    -3.284677    1.5227309      1024000 
  365000    1.0163158   -3.2869658   -3.2869658   -1.7624952    0.0982114   -3.2869658    1.5244706      1024000 
  366000    1.0135494   -3.2828979   -3.2828979   -1.7625769   0.10698821   -3.2828979     1.520321      1024000 
  367000    1.0126319   -3.2820721   -3.2820721   -1.7631274   0.10623405   -3.2820721    1.5189447      1024000 
  368000    1.0142622   -3.2841529   -3.2841529   -1.7627626   0.10526427   -3.2841529    1.5213902      1024000 
  369000    1.0135654   -3.2834614   -3.2834614   -1.7631164   0.10468508   -3.2834614     1.520345      1024000 
  370000    1.0137725   -3.2836762   -3.2836762   -1.7630205    0.1010014   -3.2836762    1.5206557      1024000 
  371000    1.0145379    -3.284357    -3.284357   -1.7625533    0.1032278    -3.284357    1.5218037      1024000 
  372000    1.0153075   -3.2849075   -3.2849075   -1.7619493   0.10109489   -3.2849075    1.5229581      1024000 
  373000    1.0163228   -3.2859327   -3.2859327   -1.7614516   0.10336524   -3.2859327    1.5244811      1024000 
  374000    1.0146394    -3.284435    -3.284435   -1.7624791   0.10083089    -3.284435    1.5219559      1024000 
  375000    1.0148401   -3.2842611   -3.2842611    -1.762004   0.10237676   -3.2842611    1.5222571      1024000 
  376000    1.0141509    -3.283768    -3.283768   -1.7625447   0.10347641    -3.283768    1.5212233      1024000 
  377000    1.0135847    -3.283623    -3.283623   -1.7632491   0.10801872    -3.283623    1.5203739      1024000 
  378000    1.0148178   -3.2849036   -3.2849036     -1.76268  0.098114945   -3.2849036    1.5222236      1024000 
  379000    1.0131713    -3.282864    -3.282864   -1.7631102   0.10175833    -3.282864    1.5197538      1024000 
  380000    1.0122006   -3.2811502   -3.2811502   -1.7628524   0.10685687   -3.2811502    1.5182978      1024000 
  381000      1.01315   -3.2817708   -3.2817708   -1.7620489    0.1082656   -3.2817708    1.5197219      1024000 
  382000    1.0144411    -3.283626    -3.283626   -1.7619674  0.096680031    -3.283626    1.5216586      1024000 
  383000    1.0160879   -3.2854616   -3.2854616   -1.7613329   0.11107383   -3.2854616    1.5241287      1024000 
  384000    1.0154941   -3.2842941   -3.2842941    -1.761056   0.10583863   -3.2842941    1.5232381      1024000 
  385000    1.0172334   -3.2861708   -3.2861708   -1.7603239   0.10589433   -3.2861708    1.5258469      1024000 
  386000     1.016732   -3.2849889   -3.2849889    -1.759894   0.10302699   -3.2849889    1.5250949      1024000 
  387000    1.0158494   -3.2838518   -3.2838518   -1.7600808   0.10415968   -3.2838518    1.5237709      1024000 
  388000    1.0159794   -3.2834489   -3.2834489   -1.7594828   0.10976341   -3.2834489    1.5239661      1024000 
  389000    1.0162604   -3.2835893   -3.2835893   -1.7592018   0.11035898   -3.2835893    1.5243875      1024000 
  390000    1.0166949   -3.2843825   -3.2843825   -1.7593433   0.10823915   -3.2843825    1.5250393      1024000 
  391000    1.0162532   -3.2838563   -3.2838563   -1.7594796   0.11225636   -3.2838563    1.5243767      1024000 
  392000    1.0182124   -3.2872343   -3.2872343   -1.7599188   0.10288031   -3.2872343    1.5273155      1024000 
  393000    1.0174483   -3.2855167   -3.2855167   -1.7593473   0.11350508   -3.2855167    1.5261694      1024000 
  394000     1.017329   -3.2856891   -3.2856891   -1.7596987   0.11661461   -3.2856891    1.5259903      1024000 
  395000    1.0198454   -3.2881825   -3.2881825   -1.7584175   0.11659454   -3.2881825    1.5297651      1024000 
  396000    1.0198166   -3.2878099   -3.2878099   -1.7580881   0.11497863   -3.2878099    1.5297218      1024000 
  397000    1.0193237   -3.2867526   -3.2867526   -1.7577702   0.11870447   -3.2867526    1.5289824      1024000 
  398000    1.0207635   -3.2884548   -3.2884548   -1.7573127   0.12164402   -3.2884548    1.5311421      1024000 
  399000    1.0212566   -3.2891662   -3.2891662   -1.7572843   0.12040036   -3.2891662    1.5318818      1024000 
  400000    1.0222869   -3.2905764   -3.2905764   -1.7571492   0.11773931   -3.2905764    1.5334272      1024000 
  401000    1.0223111   -3.2901135   -3.2901135   -1.7566499   0.12436647   -3.2901135    1.5334636      1024000 
  402000    1.0230212   -3.2904167   -3.2904167    -1.755888   0.12965911   -3.2904167    1.5345287      1024000 
  403000    1.0238076   -3.2910858   -3.2910858   -1.7553776   0.12251203   -3.2910858    1.5357083      1024000 
  404000     1.024294   -3.2910854   -3.2910854   -1.7546475   0.12250895   -3.2910854     1.536438      1024000 
  405000    1.0253845   -3.2923338   -3.2923338   -1.7542602   0.12807837   -3.2923338    1.5380736      1024000 
  406000    1.0252414   -3.2916712   -3.2916712   -1.7538122   0.12899344   -3.2916712     1.537859      1024000 
  407000    1.0271238   -3.2944849   -3.2944849   -1.7538023   0.13097384   -3.2944849    1.5406825      1024000 
  408000     1.025886   -3.2928542   -3.2928542   -1.7540284   0.13627963   -3.2928542    1.5388259      1024000 
  409000    1.0268963   -3.2938166   -3.2938166   -1.7534753   0.13026462   -3.2938166    1.5403414      1024000 
  410000    1.0269425   -3.2932882   -3.2932882   -1.7528776   0.13641984   -3.2932882    1.5404106      1024000 
  411000    1.0281565   -3.2947428   -3.2947428   -1.7525113   0.13016219   -3.2947428    1.5422316      1024000 
  412000    1.0265404   -3.2919495   -3.2919495   -1.7521419   0.13309172   -3.2919495    1.5398075      1024000 
  413000    1.0277133   -3.2928125   -3.2928125   -1.7512457   0.13062707   -3.2928125    1.5415668      1024000 
  414000    1.0279561   -3.2930466   -3.2930466   -1.7511156   0.13785546   -3.2930466     1.541931      1024000 
  415000    1.0292688   -3.2946395   -3.2946395   -1.7507395   0.13367714   -3.2946395    1.5439001      1024000 
  416000    1.0293522   -3.2942184   -3.2942184   -1.7501932   0.13057426   -3.2942184    1.5440252      1024000 
  417000    1.0279748   -3.2919583   -3.2919583   -1.7499991   0.13259249   -3.2919583    1.5419591      1024000 
  418000    1.0285944   -3.2929655   -3.2929655    -1.750077   0.13072527   -3.2929655    1.5428885      1024000 
  419000    1.0281296   -3.2916937   -3.2916937   -1.7495024   0.12853036   -3.2916937    1.5421913      1024000 
  420000    1.0283878   -3.2922975   -3.2922975   -1.7497189   0.12852673   -3.2922975    1.5425786      1024000 
  421000    1.0275368   -3.2910791   -3.2910791    -1.749777   0.13401941   -3.2910791    1.5413021      1024000 
  422000     1.028095   -3.2911279   -3.2911279   -1.7489886   0.12303769   -3.2911279    1.5421394      1024000 
  423000    1.0272295   -3.2903125   -3.2903125   -1.7494715   0.12426769   -3.2903125    1.5408411      1024000 
  424000    1.0257397    -3.287966    -3.287966   -1.7493596     0.131552    -3.287966    1.5386065      1024000 
  425000    1.0268788   -3.2896396   -3.2896396   -1.7493245   0.13204226   -3.2896396    1.5403151      1024000 
  426000    1.0280896   -3.2903567   -3.2903567   -1.7482255   0.12693895   -3.2903567    1.5421312      1024000 
  427000    1.0277352   -3.2896299   -3.2896299   -1.7480303   0.12544316   -3.2896299    1.5415997      1024000 
  428000    1.0254037    -3.286769    -3.286769   -1.7486666   0.12764353    -3.286769    1.5381024      1024000 
  429000    1.0253895   -3.2865427   -3.2865427   -1.7484616   0.12351822   -3.2865427    1.5380811      1024000 
  430000    1.0248263   -3.2861766   -3.2861766   -1.7489401   0.12588544   -3.2861766    1.5372364      1024000 
  431000    1.0245831   -3.2858248   -3.2858248   -1.7489532    0.1207943   -3.2858248    1.5368716      1024000 
  432000    1.0237021   -3.2842046   -3.2842046   -1.7486546   0.11920752   -3.2842046      1.53555      1024000 
  433000     1.023622   -3.2838621   -3.2838621   -1.7484322   0.12338467   -3.2838621    1.5354298      1024000 
  434000    1.0223744   -3.2825866   -3.2825866    -1.749028   0.11578135   -3.2825866    1.5335586      1024000 
  435000    1.0225411   -3.2831469   -3.2831469   -1.7493384    0.1163289   -3.2831469    1.5338086      1024000 
  436000    1.0215737   -3.2814125   -3.2814125    -1.749055   0.11556363   -3.2814125    1.5323575      1024000 
  437000    1.0215391   -3.2825139   -3.2825139   -1.7502084   0.11139401   -3.2825139    1.5323056      1024000 
  438000    1.0205048   -3.2813447   -3.2813447   -1.7505906   0.11312116   -3.2813447    1.5307541      1024000 
  439000    1.0217249   -3.2835168   -3.2835168   -1.7509326   0.11169467   -3.2835168    1.5325842      1024000 
  440000    1.0204364   -3.2817011   -3.2817011   -1.7510496   0.11318245   -3.2817011    1.5306515      1024000 
  441000    1.0195135   -3.2797983   -3.2797983   -1.7505313    0.1072555   -3.2797983    1.5292671      1024000 
  442000    1.0204479   -3.2812933   -3.2812933   -1.7506246   0.11070457   -3.2812933    1.5306687      1024000 
  443000     1.019451   -3.2802351   -3.2802351   -1.7510618   0.10659081   -3.2802351    1.5291733      1024000 
  444000    1.0201615    -3.281042    -3.281042   -1.7508028   0.11061222    -3.281042    1.5302392      1024000 
  445000    1.0193969   -3.2791778   -3.2791778   -1.7500855   0.11050556   -3.2791778    1.5290923      1024000 
  446000    1.0181613   -3.2776594   -3.2776594   -1.7504205   0.10642147   -3.2776594    1.5272388      1024000 
  447000     1.019105   -3.2789206   -3.2789206   -1.7502662   0.10670241   -3.2789206    1.5286544      1024000 
  448000    1.0171805   -3.2768651   -3.2768651   -1.7510975   0.10520403   -3.2768651    1.5257677      1024000 
  449000    1.0175676   -3.2773835   -3.2773835   -1.7510351   0.10756827   -3.2773835    1.5263484      1024000 
  450000    1.0191842   -3.2794225   -3.2794225   -1.7506493   0.10173106   -3.2794225    1.5287731      1024000 
  451000    1.0173791   -3.2764108   -3.2764108   -1.7503452   0.10948455   -3.2764108    1.5260655      1024000 
  452000    1.0185378   -3.2781902   -3.2781902   -1.7503866   0.11151691   -3.2781902    1.5278036      1024000 
  453000    1.0175437   -3.2770946   -3.2770946   -1.7507822   0.11373452   -3.2770946    1.5263124      1024000 
  454000    1.0196482   -3.2801776   -3.2801776   -1.7507083   0.10810085   -3.2801776    1.5294692      1024000 
  455000    1.0194771   -3.2801235   -3.2801235    -1.750911   0.11141678   -3.2801235    1.5292126      1024000 
  456000    1.0194888   -3.2804746   -3.2804746   -1.7512446   0.10759878   -3.2804746    1.5292301      1024000 
  457000    1.0174529   -3.2770897   -3.2770897   -1.7509134   0.11120488   -3.2770897    1.5261763      1024000 
  458000    1.0184891    -3.278483    -3.278483   -1.7507525    0.1017614    -3.278483    1.5277306      1024000 
  459000    1.0179674   -3.2775017   -3.2775017   -1.7505538   0.11014422   -3.2775017     1.526948      1024000 
  460000    1.0186682    -3.278946    -3.278946   -1.7509467   0.10626699    -3.278946    1.5279992      1024000 
  461000    1.0180255   -3.2779387   -3.2779387   -1.7509036   0.10666023   -3.2779387    1.5270351      1024000 
  462000    1.0179646   -3.2776059   -3.2776059    -1.750662   0.11092907   -3.2776059    1.5269439      1024000 
  463000    1.0191597   -3.2792172   -3.2792172   -1.7504807   0.10706816   -3.2792172    1.5287365      1024000 
  464000    1.0198216   -3.2798148   -3.2798148   -1.7500856   0.10949748   -3.2798148    1.5297292      1024000 
  465000    1.0206816   -3.2801346   -3.2801346   -1.7491152   0.10691292   -3.2801346    1.5310193      1024000 
  466000    1.0194127   -3.2781761   -3.2781761   -1.7490601   0.11255152   -3.2781761    1.5291159      1024000 
  467000     1.020961   -3.2795804   -3.2795804   -1.7481421   0.11277342   -3.2795804    1.5314383      1024000 
  468000    1.0214905   -3.2801696   -3.2801696   -1.7479369   0.10998267   -3.2801696    1.5322327      1024000 
  469000    1.0220701   -3.2807225   -3.2807225   -1.7476204   0.11266816   -3.2807225    1.5331021      1024000 
  470000    1.0220473   -3.2800068   -3.2800068   -1.7469389    0.1199072   -3.2800068    1.5330679      1024000 
  471000    1.0211445   -3.2791385   -3.2791385   -1.7474248   0.11443437   -3.2791385    1.5317137      1024000 
  472000    1.0223055   -3.2802514   -3.2802514   -1.7467963   0.11658012   -3.2802514    1.5334551      1024000 
  473000     1.022713   -3.2814181   -3.2814181   -1.7473518   0.12106486   -3.2814181    1.5340663      1024000 
  474000    1.0228325      -3.2811      -3.2811   -1.7468543   0.11741332      -3.2811    1.5342457      1024000 
  475000    1.0228828     -3.28079     -3.28079   -1.7464689   0.11642081     -3.28079    1.5343211      1024000 
  476000    1.0231694   -3.2810886   -3.2810886   -1.7463375   0.11832607   -3.2810886    1.5347511      1024000 
  477000    1.0237474   -3.2816391   -3.2816391   -1.7460211   0.12072808   -3.2816391     1.535618      1024000 
  478000    1.0242479   -3.2827646   -3.2827646   -1.7463959   0.11989437   -3.2827646    1.5363687      1024000 
  479000    1.0225693   -3.2801802   -3.2801802   -1.7463295   0.11762152   -3.2801802    1.5338508      1024000 
  480000    1.0225557    -3.280561    -3.280561   -1.7467306   0.11780076    -3.280561    1.5338304      1024000 
  481000    1.0229574   -3.2811633   -3.2811633   -1.7467304   0.12227822   -3.2811633    1.5344329      1024000 
  482000      1.02302   -3.2813419   -3.2813419    -1.746815   0.11833594   -3.2813419    1.5345269      1024000 
  483000    1.0239313   -3.2827022   -3.2827022   -1.7468084   0.11843496   -3.2827022    1.5358938      1024000 
  484000    1.0237984   -3.2821219   -3.2821219   -1.7464274   0.12401505   -3.2821219    1.5356946      1024000 
  485000    1.0241881   -3.2818986   -3.2818986   -1.7456196   0.12419871   -3.2818986     1.536279      1024000 
  486000    1.0242407   -3.2813995   -3.2813995   -1.7450416   0.12402242   -3.2813995    1.5363579      1024000 
  487000    1.0254407   -3.2835576   -3.2835576   -1.7453997   0.11999788   -3.2835576     1.538158      1024000 
  488000    1.0249446   -3.2825237   -3.2825237     -1.74511   0.12054136   -3.2825237    1.5374137      1024000 
  489000     1.026466   -3.2842423   -3.2842423   -1.7445464   0.12430031   -3.2842423    1.5396959      1024000 
  490000    1.0252925   -3.2829117   -3.2829117    -1.744976   0.13042372   -3.2829117    1.5379356      1024000 
  491000    1.0255581   -3.2827499   -3.2827499   -1.7444158   0.13190859   -3.2827499    1.5383341      1024000 
  492000    1.0267737   -3.2850552   -3.2850552   -1.7448977   0.12665484   -3.2850552    1.5401575      1024000 
  493000     1.025691   -3.2832285   -3.2832285   -1.7446952   0.12751385   -3.2832285    1.5385333      1024000 
  494000    1.0291774   -3.2882166   -3.2882166   -1.7444537   0.12496902   -3.2882166    1.5437629      1024000 
  495000    1.0272383   -3.2856759   -3.2856759   -1.7448216   0.12377162   -3.2856759    1.5408543      1024000 
  496000    1.0262034   -3.2831813   -3.2831813   -1.7438793   0.12255537   -3.2831813     1.539302      1024000 
  497000    1.0262782    -3.282938    -3.282938   -1.7435239   0.12409256    -3.282938    1.5394141      1024000 
  498000     1.027636   -3.2843092   -3.2843092   -1.7428583   0.12047464   -3.2843092    1.5414509      1024000 
  499000     1.027482   -3.2838501   -3.2838501   -1.7426301   0.12587374   -3.2838501    1.5412199      1024000 
  500000    1.0273866   -3.2826923   -3.2826923   -1.7416156   0.12012337   -3.2826923    1.5410767      1024000 
  501000    1.0266714     -3.28185     -3.28185   -1.7418461    0.1186669     -3.28185    1.5400039      1024000 
  502000    1.0258246   -3.2799105   -3.2799105   -1.7411767   0.12317681   -3.2799105    1.5387338      1024000 
  503000    1.0263425   -3.2805298   -3.2805298   -1.7410192   0.12439499   -3.2805298    1.5395106      1024000 
  504000    1.0246634   -3.2782507   -3.2782507   -1.7412586   0.11916155   -3.2782507     1.536992      1024000 
  505000    1.0251023   -3.2784729   -3.2784729   -1.7408226   0.12330318   -3.2784729    1.5376503      1024000 
  506000    1.0259982   -3.2793112   -3.2793112   -1.7403171   0.12248403   -3.2793112    1.5389941      1024000 
  507000    1.0264947   -3.2798706   -3.2798706   -1.7401316   0.11577375   -3.2798706    1.5397389      1024000 
  508000    1.0244576   -3.2769012   -3.2769012   -1.7402179   0.11521733   -3.2769012    1.5366833      1024000 
  509000    1.0253585   -3.2784272   -3.2784272   -1.7403925   0.11100683   -3.2784272    1.5380347      1024000 
  510000    1.0244344   -3.2764826   -3.2764826   -1.7398341   0.11592055   -3.2764826    1.5366485      1024000 
  511000      1.02481   -3.2771086   -3.2771086   -1.7398967   0.11747716   -3.2771086    1.5372119      1024000 
  512000    1.0234053   -3.2758361   -3.2758361   -1.7407313   0.12067629   -3.2758361    1.5351048      1024000 
  513000    1.0244806    -3.277386    -3.277386   -1.7406683   0.11403553    -3.277386    1.5367178      1024000 
  514000    1.0257008   -3.2794251   -3.2794251    -1.740877   0.10973567   -3.2794251    1.5385481      1024000 
  515000     1.023961   -3.2769095   -3.2769095   -1.7409712    0.1203784   -3.2769095    1.5359383      1024000 
  516000    1.0234152   -3.2758417   -3.2758417    -1.740722   0.11910056   -3.2758417    1.5351197      1024000 
  517000    1.0223704   -3.2747703   -3.2747703   -1.7412178    0.1135862   -3.2747703    1.5335525      1024000 
  518000    1.0229545   -3.2751281   -3.2751281   -1.7406995   0.11600379   -3.2751281    1.5344286      1024000 
  519000    1.0245349   -3.2778632   -3.2778632   -1.7410639   0.10805885   -3.2778632    1.5367993      1024000 
  520000    1.0232967   -3.2757771   -3.2757771   -1.7408351   0.11363021   -3.2757771     1.534942      1024000 
  521000    1.0225057   -3.2747016   -3.2747016   -1.7409461    0.1154482   -3.2747016    1.5337554      1024000 
  522000    1.0242391    -3.276582    -3.276582   -1.7402265   0.11247858    -3.276582    1.5363555      1024000 
  523000    1.0239661   -3.2765683   -3.2765683   -1.7406223    0.1116552   -3.2765683     1.535946      1024000 
  524000    1.0221962    -3.273804    -3.273804   -1.7405129   0.11155714    -3.273804    1.5332912      1024000 
  525000     1.021374   -3.2733544   -3.2733544   -1.7412965   0.11196835   -3.2733544    1.5320579      1024000 
  526000    1.0223315   -3.2743039   -3.2743039   -1.7408097   0.11353966   -3.2743039    1.5334942      1024000 
  527000    1.0218684   -3.2732808   -3.2732808   -1.7404813   0.11423422   -3.2732808    1.5327994      1024000 
  528000    1.0210595   -3.2717361   -3.2717361   -1.7401499   0.11115876   -3.2717361    1.5315862      1024000 
  529000    1.0215524   -3.2728456   -3.2728456   -1.7405201   0.11098422   -3.2728456    1.5323255      1024000 
  530000    1.0217773   -3.2735838   -3.2735838   -1.7409209   0.11453847   -3.2735838    1.5326629      1024000 
  531000    1.0220144   -3.2734598   -3.2734598   -1.7404413   0.10804292   -3.2734598    1.5330185      1024000 
  532000    1.0217082   -3.2739482   -3.2739482    -1.741389   0.10740668   -3.2739482    1.5325592      1024000 
  533000    1.0220997   -3.2744103   -3.2744103   -1.7412639   0.10670171   -3.2744103    1.5331464      1024000 
  534000    1.0207144   -3.2722983   -3.2722983   -1.7412298   0.10799391   -3.2722983    1.5310685      1024000 
  535000    1.0201714   -3.2716811   -3.2716811   -1.7414271   0.11083547   -3.2716811     1.530254      1024000 
  536000    1.0207873   -3.2719126   -3.2719126   -1.7407348   0.10828588   -3.2719126    1.5311778      1024000 
  537000    1.0210817    -3.272428    -3.272428   -1.7408086   0.10826568    -3.272428    1.5316195      1024000 
  538000    1.0223755   -3.2740432   -3.2740432   -1.7404831     0.110951   -3.2740432    1.5335601      1024000 
  539000     1.020718   -3.2714178   -3.2714178   -1.7403438    0.1112632   -3.2714178    1.5310739      1024000 
  540000    1.0211013   -3.2717399   -3.2717399    -1.740091   0.11194828   -3.2717399    1.5316489      1024000 
  541000    1.0218104   -3.2730383   -3.2730383   -1.7403259   0.11795775   -3.2730383    1.5327125      1024000 
  542000    1.0220192   -3.2731601   -3.2731601   -1.7401345   0.11531805   -3.2731601    1.5330256      1024000 
  543000    1.0217865   -3.2734198   -3.2734198   -1.7407432   0.10810235   -3.2734198    1.5326766      1024000 
  544000     1.022324    -3.273333    -3.273333   -1.7398502   0.11187093    -3.273333    1.5334829      1024000 
  545000    1.0243747   -3.2757604   -3.2757604   -1.7392014   0.11342414   -3.2757604     1.536559      1024000 
  546000    1.0243865   -3.2763433   -3.2763433   -1.7397666   0.11512967   -3.2763433    1.5365766      1024000 
  547000    1.0236603   -3.2745608   -3.2745608   -1.7390736   0.11924584   -3.2745608    1.5354873      1024000 
  548000    1.0242896   -3.2759794   -3.2759794   -1.7395482   0.11722083   -3.2759794    1.5364312      1024000 
  549000    1.0237592   -3.2748719   -3.2748719   -1.7392363   0.11011107   -3.2748719    1.5356357      1024000 
  550000    1.0256416   -3.2778313   -3.2778313    -1.739372   0.11151931   -3.2778313    1.5384592      1024000 
  551000     1.024402   -3.2753354   -3.2753354   -1.7387354   0.11558865   -3.2753354    1.5365999      1024000 
  552000    1.0249042   -3.2759484   -3.2759484   -1.7385952   0.12225117   -3.2759484    1.5373531      1024000 
  553000    1.0250406   -3.2756961   -3.2756961   -1.7381384   0.11888172   -3.2756961    1.5375578      1024000 
  554000    1.0258554   -3.2767378   -3.2767378   -1.7379578   0.12209324   -3.2767378      1.53878      1024000 
  555000    1.0258022   -3.2763232   -3.2763232   -1.7376231   0.11654128   -3.2763232    1.5387002      1024000 
  556000    1.0268226   -3.2774555   -3.2774555   -1.7372248   0.11909059   -3.2774555    1.5402307      1024000 
  557000    1.0259886   -3.2760068   -3.2760068    -1.737027   0.11644475   -3.2760068    1.5389798      1024000 
  558000    1.0243575   -3.2730485   -3.2730485   -1.7365155   0.12257749   -3.2730485    1.5365331      1024000 
  559000    1.0257211   -3.2753484   -3.2753484   -1.7367699   0.12014843   -3.2753484    1.5385786      1024000 
  560000    1.0257616   -3.2748667   -3.2748667   -1.7362275    0.1198797   -3.2748667    1.5386392      1024000 
  561000     1.026782   -3.2766991   -3.2766991   -1.7365293   0.11442039   -3.2766991    1.5401699      1024000 
  562000    1.0251787   -3.2739303   -3.2739303   -1.7361654   0.11680566   -3.2739303    1.5377649      1024000 
  563000    1.0258391   -3.2745135   -3.2745135    -1.735758   0.11706945   -3.2745135    1.5387555      1024000 
  564000    1.0248741   -3.2731921   -3.2731921   -1.7358841   0.11912468   -3.2731921     1.537308      1024000 
  565000    1.0251442   -3.2732238   -3.2732238   -1.7355106   0.11650199   -3.2732238    1.5377132      1024000 
  566000    1.0238494   -3.2714972   -3.2714972   -1.7357261   0.11774304   -3.2714972     1.535771      1024000 
  567000    1.0248797   -3.2731961   -3.2731961   -1.7358796   0.11482394   -3.2731961    1.5373164      1024000 
  568000    1.0246756   -3.2726177   -3.2726177   -1.7356074   0.11480239   -3.2726177    1.5370103      1024000 
  569000    1.0256226   -3.2743116   -3.2743116   -1.7358808   0.11821662   -3.2743116    1.5384308      1024000 
  570000    1.0260138   -3.2744267   -3.2744267   -1.7354092   0.11412903   -3.2744267    1.5390176      1024000 
  571000      1.02523   -3.2731182   -3.2731182   -1.7352763   0.11924696   -3.2731182    1.5378419      1024000 
  572000    1.0242493   -3.2713934   -3.2713934   -1.7350225   0.11488301   -3.2713934    1.5363709      1024000 
  573000    1.0241368   -3.2706671   -3.2706671    -1.734465   0.11904516   -3.2706671    1.5362021      1024000 
  574000    1.0253222   -3.2725441   -3.2725441   -1.7345639   0.11895479   -3.2725441    1.5379802      1024000 
  575000    1.0244564   -3.2713083   -3.2713083   -1.7346268   0.11793299   -3.2713083    1.5366815      1024000 
  576000    1.0244338   -3.2707237   -3.2707237   -1.7340761   0.11597385   -3.2707237    1.5366476      1024000 
  577000    1.0267228   -3.2737238   -3.2737238   -1.7336426    0.1131924   -3.2737238    1.5400811      1024000 
  578000    1.0258214   -3.2727642   -3.2727642   -1.7340353   0.11620915   -3.2727642    1.5387289      1024000 
  579000    1.0257438   -3.2727207   -3.2727207   -1.7341081   0.11596331   -3.2727207    1.5386126      1024000 
  580000     1.026772   -3.2743034   -3.2743034   -1.7341485   0.11231205   -3.2743034    1.5401549      1024000 
  581000    1.0259883   -3.2731969   -3.2731969   -1.7342176   0.12326985   -3.2731969    1.5389793      1024000 
  582000    1.0262033   -3.2737728   -3.2737728   -1.7344709   0.11630499   -3.2737728    1.5393019      1024000 
  583000    1.0259025   -3.2732016   -3.2732016   -1.7343509   0.11823041   -3.2732016    1.5388507      1024000 
  584000    1.0251485   -3.2720148   -3.2720148   -1.7342952   0.11789379   -3.2720148    1.5377197      1024000 
  585000    1.0255949   -3.2721649   -3.2721649   -1.7337757   0.12011305   -3.2721649    1.5383892      1024000 
  586000    1.0253677   -3.2710055   -3.2710055   -1.7329571   0.11673524   -3.2710055    1.5380485      1024000 
  587000    1.0267784   -3.2726682   -3.2726682   -1.7325037   0.11640916   -3.2726682    1.5401645      1024000 
  588000    1.0255352   -3.2702956   -3.2702956   -1.7319959   0.11744809   -3.2702956    1.5382996      1024000 
  589000    1.0250071     -3.26984     -3.26984   -1.7323325   0.11680835     -3.26984    1.5375075      1024000 
  590000    1.0263246   -3.2712401   -3.2712401   -1.7317564   0.11503158   -3.2712401    1.5394837      1024000 
  591000     1.023911   -3.2676783   -3.2676783   -1.7318149   0.11784963   -3.2676783    1.5358634      1024000 
  592000    1.0244353   -3.2677405   -3.2677405   -1.7310907   0.11556344   -3.2677405    1.5366498      1024000 
  593000    1.0240876   -3.2669854   -3.2669854   -1.7308571   0.11597614   -3.2669854    1.5361283      1024000 
  594000    1.0253817   -3.2688228   -3.2688228   -1.7307533   0.11465149   -3.2688228    1.5380694      1024000 
  595000     1.024944   -3.2679794   -3.2679794   -1.7305665   0.11743823   -3.2679794    1.5374129      1024000 
  596000    1.0256769   -3.2693411   -3.2693411    -1.730829   0.11592431   -3.2693411    1.5385122      1024000 
  597000    1.0240718   -3.2667718   -3.2667718   -1.7306672   0.11559195   -3.2667718    1.5361046      1024000 
  598000    1.0250337   -3.2678821   -3.2678821   -1.7303346   0.10838081   -3.2678821    1.5375475      1024000 
  599000     1.023806   -3.2665764   -3.2665764   -1.7308705   0.11719453   -3.2665764    1.5357059      1024000 
  600000    1.0243348   -3.2680224   -3.2680224   -1.7315234   0.11912948   -3.2680224     1.536499      1024000 
  601000    1.0258497    -3.269509    -3.269509   -1.7307376   0.11565015    -3.269509    1.5387714      1024000 
  602000    1.0252032   -3.2693461   -3.2693461   -1.7315445   0.11649416   -3.2693461    1.5378016      1024000 
  603000    1.0252638   -3.2684496   -3.2684496   -1.7305571   0.11618065   -3.2684496    1.5378925      1024000 
  604000    1.0246291   -3.2671413   -3.2671413   -1.7302008   0.11663753   -3.2671413    1.5369405      1024000 
  605000    1.0245712    -3.267097    -3.267097   -1.7302433   0.11419527    -3.267097    1.5368537      1024000 
  606000    1.0250663   -3.2681554   -3.2681554   -1.7305591   0.11388968   -3.2681554    1.5375963      1024000 
  607000    1.0255106    -3.268403    -3.268403   -1.7301402   0.11547923    -3.268403    1.5382628      1024000 
  608000    1.0249354   -3.2678788   -3.2678788   -1.7304787   0.11394705   -3.2678788       1.5374      1024000 
  609000    1.0253833   -3.2683388   -3.2683388   -1.7302669   0.10896712   -3.2683388    1.5380719      1024000 
  610000    1.0240821   -3.2665351   -3.2665351   -1.7304151    0.1157067   -3.2665351    1.5361201      1024000 
  611000    1.0258258   -3.2694028   -3.2694028   -1.7306673   0.11647256   -3.2694028    1.5387355      1024000 
  612000    1.0248237   -3.2675595   -3.2675595   -1.7303271   0.11476976   -3.2675595    1.5372324      1024000 
  613000    1.0261084   -3.2689229   -3.2689229   -1.7297634   0.11637538   -3.2689229    1.5391595      1024000 
  614000    1.0253561   -3.2675455   -3.2675455   -1.7295145   0.11164637   -3.2675455     1.538031      1024000 
  615000    1.0259876   -3.2685389   -3.2685389   -1.7295607   0.11148473   -3.2685389    1.5389783      1024000 
  616000    1.0246553   -3.2662519   -3.2662519   -1.7292721   0.11918448   -3.2662519    1.5369798      1024000 
  617000    1.0266664   -3.2691031   -3.2691031   -1.7291067   0.10986628   -3.2691031    1.5399964      1024000 
  618000    1.0247423   -3.2662034   -3.2662034    -1.729093   0.11124224   -3.2662034    1.5371104      1024000 
  619000    1.0247884   -3.2662526   -3.2662526   -1.7290731   0.12058181   -3.2662526    1.5371795      1024000 
  620000    1.0244066   -3.2656332   -3.2656332   -1.7290264   0.12245565   -3.2656332    1.5366067      1024000 
  621000     1.023739   -3.2642891   -3.2642891   -1.7286838    0.1171588   -3.2642891    1.5356053      1024000 
  622000    1.0256445   -3.2661753   -3.2661753   -1.7277117   0.11477921   -3.2661753    1.5384636      1024000 
  623000    1.0255496   -3.2660032   -3.2660032   -1.7276819   0.11591554   -3.2660032    1.5383213      1024000 
  624000    1.0257687    -3.266465    -3.266465   -1.7278151   0.11687509    -3.266465      1.53865      1024000 
  625000    1.0253752   -3.2661945   -3.2661945   -1.7281347    0.1164442   -3.2661945    1.5380597      1024000 
  626000    1.0254529   -3.2661172   -3.2661172   -1.7279409   0.11373589   -3.2661172    1.5381762      1024000 
  627000    1.0258124    -3.265978    -3.265978   -1.7272625   0.12280291    -3.265978    1.5387155      1024000 
  628000    1.0251899   -3.2652613   -3.2652613   -1.7274796   0.11548502   -3.2652613    1.5377817      1024000 
  629000    1.0243657   -3.2646629   -3.2646629   -1.7281176   0.11430627   -3.2646629    1.5365454      1024000 
  630000    1.0251793   -3.2657819   -3.2657819    -1.728016   0.11463077   -3.2657819    1.5377659      1024000 
  631000    1.0250113   -3.2651756   -3.2651756   -1.7276618   0.12193064   -3.2651756    1.5375138      1024000 
  632000    1.0250334    -3.265185    -3.265185    -1.727638   0.11519274    -3.265185     1.537547      1024000 
  633000    1.0251232   -3.2649641   -3.2649641   -1.7272824   0.11784152   -3.2649641    1.5376817      1024000 
  634000    1.0269645   -3.2666894   -3.2666894   -1.7262459    0.1173644   -3.2666894    1.5404436      1024000 
  635000    1.0249103   -3.2642628   -3.2642628   -1.7269004    0.1210766   -3.2642628    1.5373623      1024000 
  636000    1.0259493   -3.2654022   -3.2654022   -1.7264813   0.11671545   -3.2654022    1.5389209      1024000 
  637000    1.0269258    -3.266712    -3.266712   -1.7263264   0.12185861    -3.266712    1.5403856      1024000 
  638000    1.0274563   -3.2668582   -3.2668582   -1.7256768   0.12133656   -3.2668582    1.5411814      1024000 
  639000    1.0265691   -3.2661726   -3.2661726   -1.7263221    0.1180457   -3.2661726    1.5398505      1024000 
  640000    1.0273653    -3.266541    -3.266541   -1.7254962   0.11945472    -3.266541    1.5410448      1024000 
  641000    1.0272736   -3.2661099   -3.2661099   -1.7252027   0.11789859   -3.2661099    1.5409073      1024000 
  642000    1.0279745   -3.2678178   -3.2678178   -1.7258593   0.11748375   -3.2678178    1.5419586      1024000 
  643000    1.0270134   -3.2660504   -3.2660504   -1.7255335   0.11778183   -3.2660504    1.5405169      1024000 
  644000    1.0262632   -3.2647569   -3.2647569   -1.7253652    0.1158468   -3.2647569    1.5393917      1024000 
  645000    1.0260071    -3.264428    -3.264428   -1.7254205   0.11962574    -3.264428    1.5390075      1024000 
  646000    1.0270338   -3.2660302   -3.2660302   -1.7254827   0.11810915   -3.2660302    1.5405475      1024000 
  647000    1.0271244   -3.2655751   -3.2655751   -1.7248915   0.11483497   -3.2655751    1.5406835      1024000 
  648000    1.0259888   -3.2644946   -3.2644946   -1.7255145   0.11604217   -3.2644946    1.5389801      1024000 
  649000    1.0255101   -3.2631266   -3.2631266   -1.7248646   0.11443245   -3.2631266     1.538262      1024000 
  650000    1.0258892   -3.2642702   -3.2642702   -1.7254395   0.10753047   -3.2642702    1.5388307      1024000 
  651000    1.0266752   -3.2649042   -3.2649042   -1.7248944   0.11612305   -3.2649042    1.5400097      1024000 
  652000    1.0263808    -3.264202    -3.264202    -1.724634   0.11410021    -3.264202     1.539568      1024000 
  653000    1.0264113   -3.2638018   -3.2638018   -1.7241879   0.11382086   -3.2638018    1.5396139      1024000 
  654000    1.0262027   -3.2640271   -3.2640271   -1.7247262   0.11249166   -3.2640271    1.5393009      1024000 
  655000     1.025201   -3.2629632   -3.2629632   -1.7251648   0.11978951   -3.2629632    1.5377984      1024000 
  656000    1.0246354   -3.2613153   -3.2613153   -1.7243653   0.11910691   -3.2613153      1.53695      1024000 
  657000    1.0264047    -3.264122    -3.264122   -1.7245182   0.11139563    -3.264122    1.5396039      1024000 
  658000    1.0254432   -3.2623855   -3.2623855   -1.7242238   0.11615607   -3.2623855    1.5381617      1024000 
  659000    1.0253895   -3.2621071   -3.2621071   -1.7240261   0.11714304   -3.2621071    1.5380811      1024000 
  660000      1.02532   -3.2618693   -3.2618693   -1.7238924    0.1188485   -3.2618693    1.5379768      1024000 
  661000    1.0261282   -3.2625165   -3.2625165   -1.7233274   0.11936041   -3.2625165    1.5391891      1024000 
  662000    1.0266586   -3.2628112   -3.2628112   -1.7228264   0.11472545   -3.2628112    1.5399847      1024000 
  663000    1.0259786    -3.262139    -3.262139   -1.7231743   0.11637213    -3.262139    1.5389647      1024000 
  664000    1.0282794   -3.2650837   -3.2650837   -1.7226677   0.12192151   -3.2650837     1.542416      1024000 
  665000    1.0280964   -3.2651016   -3.2651016   -1.7229602   0.11834545   -3.2651016    1.5421414      1024000 
  666000    1.0266412   -3.2625178   -3.2625178   -1.7225592   0.11944968   -3.2625178    1.5399586      1024000 
  667000    1.0269144   -3.2627902   -3.2627902   -1.7224217   0.11231932   -3.2627902    1.5403685      1024000 
  668000    1.0263139   -3.2616091   -3.2616091   -1.7221414   0.11493915   -3.2616091    1.5394677      1024000 
  669000    1.0269204   -3.2616833   -3.2616833   -1.7213058   0.11681612   -3.2616833    1.5403775      1024000 
  670000    1.0269835   -3.2616975   -3.2616975   -1.7212254   0.11135457   -3.2616975    1.5404721      1024000 
  671000    1.0265224   -3.2605847   -3.2605847   -1.7208042   0.11568534   -3.2605847    1.5397805      1024000 
  672000    1.0272663   -3.2619926   -3.2619926   -1.7210964    0.1109165   -3.2619926    1.5408963      1024000 
  673000    1.0273418   -3.2619064   -3.2619064   -1.7208968   0.11544347   -3.2619064    1.5410096      1024000 
  674000    1.0275136   -3.2629456   -3.2629456   -1.7216783   0.11920983   -3.2629456    1.5412673      1024000 
  675000    1.0261945   -3.2606837   -3.2606837   -1.7213951   0.11768444   -3.2606837    1.5392887      1024000 
  676000    1.0270657   -3.2609429   -3.2609429   -1.7203474   0.11583432   -3.2609429    1.5405954      1024000 
  677000    1.0264401   -3.2598891   -3.2598891    -1.720232   0.11199243   -3.2598891    1.5396571      1024000 
  678000     1.027105   -3.2614157   -3.2614157   -1.7207614   0.11279365   -3.2614157    1.5406543      1024000 
  679000    1.0250419   -3.2584495   -3.2584495   -1.7208898   0.11428516   -3.2584495    1.5375597      1024000 
  680000    1.0261561   -3.2605702   -3.2605702   -1.7213392    0.1102131   -3.2605702     1.539231      1024000 
  681000    1.0262469    -3.260761    -3.260761   -1.7213937   0.11892429    -3.260761    1.5393673      1024000 
  682000    1.0258395   -3.2592532   -3.2592532    -1.720497   0.11251326   -3.2592532    1.5387562      1024000 
  683000    1.0267952   -3.2605221   -3.2605221   -1.7203324    0.1108595   -3.2605221    1.5401897      1024000 
  684000    1.0247632   -3.2579285   -3.2579285   -1.7207869   0.11572116   -3.2579285    1.5371416      1024000 
  685000     1.026103   -3.2602057   -3.2602057   -1.7210543   0.11615541   -3.2602057    1.5391514      1024000 
  686000    1.0264405   -3.2603896   -3.2603896   -1.7207319   0.11940219   -3.2603896    1.5396577      1024000 
  687000    1.0266999   -3.2604143   -3.2604143   -1.7203676   0.11091063   -3.2604143    1.5400467      1024000 
  688000    1.0264311   -3.2593426   -3.2593426    -1.719699   0.12102765   -3.2593426    1.5396435      1024000 
  689000    1.0258561   -3.2589458   -3.2589458   -1.7201647   0.11439687   -3.2589458     1.538781      1024000 
  690000     1.027819   -3.2613901   -3.2613901   -1.7196647    0.1196492   -3.2613901    1.5417254      1024000 
  691000    1.0281743   -3.2620038   -3.2620038   -1.7197455   0.11673137   -3.2620038    1.5422583      1024000 
  692000    1.0288136   -3.2629416   -3.2629416   -1.7197244   0.11410448   -3.2629416    1.5432172      1024000 
  693000    1.0282079   -3.2618868   -3.2618868    -1.719578    0.1139235   -3.2618868    1.5423088      1024000 
  694000     1.028116   -3.2616845   -3.2616845   -1.7195135   0.11928894   -3.2616845    1.5421709      1024000 
  695000    1.0289524   -3.2625382   -3.2625382   -1.7191127    0.1156073   -3.2625382    1.5434255      1024000 
  696000     1.026395   -3.2584476   -3.2584476   -1.7188583   0.11969859   -3.2584476    1.5395893      1024000 
  697000    1.0265748    -3.259178    -3.259178   -1.7193189   0.11398764    -3.259178     1.539859      1024000 
  698000    1.0277056   -3.2601063   -3.2601063   -1.7185511   0.11601979   -3.2601063    1.5415552      1024000 
  699000     1.027472   -3.2605733   -3.2605733   -1.7193684   0.11410746   -3.2605733    1.5412048      1024000 
  700000    1.0277064   -3.2607267   -3.2607267   -1.7191702   0.11402441   -3.2607267    1.5415565      1024000 
  701000    1.0276473   -3.2613258   -3.2613258    -1.719858   0.11363724   -3.2613258    1.5414679      1024000 
  702000    1.0274556   -3.2608004   -3.2608004     -1.71962   0.11295916   -3.2608004    1.5411803      1024000 
  703000    1.0282876   -3.2618038   -3.2618038   -1.7193755    0.1154154   -3.2618038    1.5424282      1024000 
  704000    1.0283289   -3.2616149   -3.2616149   -1.7191247   0.11247986   -3.2616149    1.5424902      1024000 
  705000     1.028244   -3.2610569   -3.2610569    -1.718694   0.11468525   -3.2610569    1.5423629      1024000 
  706000    1.0282054   -3.2603363   -3.2603363   -1.7180314   0.11947751   -3.2603363     1.542305      1024000 
  707000    1.0278069   -3.2596603   -3.2596603   -1.7179531   0.11848766   -3.2596603    1.5417072      1024000 
  708000    1.0293815   -3.2612809   -3.2612809   -1.7172118   0.11922068   -3.2612809    1.5440691      1024000 
  709000    1.0299316   -3.2614836   -3.2614836   -1.7165893   0.12208949   -3.2614836    1.5448943      1024000 
  710000    1.0298827   -3.2612127   -3.2612127   -1.7163918   0.12237046   -3.2612127     1.544821      1024000 
  711000    1.0297021   -3.2613511   -3.2613511   -1.7168011   0.12176135   -3.2613511    1.5445499      1024000 
  712000    1.0295271   -3.2616531   -3.2616531   -1.7173656   0.11986279   -3.2616531    1.5442876      1024000 
  713000    1.0281229   -3.2592083   -3.2592083   -1.7170271   0.11648815   -3.2592083    1.5421812      1024000 
  714000    1.0287851   -3.2593052   -3.2593052   -1.7161306    0.1205998   -3.2593052    1.5431746      1024000 
  715000     1.029295   -3.2604724   -3.2604724   -1.7165331   0.11863998   -3.2604724    1.5439393      1024000 
  716000    1.0283855   -3.2586902   -3.2586902   -1.7161151   0.12073662   -3.2586902    1.5425751      1024000 
  717000    1.0278845   -3.2578966   -3.2578966   -1.7160729   0.12317069   -3.2578966    1.5418237      1024000 
  718000    1.0282049     -3.25899     -3.25899   -1.7166858    0.1205203     -3.25899    1.5423043      1024000 
  719000    1.0285625   -3.2592492   -3.2592492   -1.7164086    0.1153045   -3.2592492    1.5428406      1024000 
  720000    1.0296519    -3.260604    -3.260604   -1.7161293   0.11845952    -3.260604    1.5444747      1024000 
  721000    1.0302325   -3.2612115   -3.2612115   -1.7158659   0.11870375   -3.2612115    1.5453456      1024000 
  722000      1.02896   -3.2589508   -3.2589508   -1.7155139   0.12538464   -3.2589508    1.5434369      1024000 
  723000    1.0299544   -3.2597511   -3.2597511   -1.7148227   0.12336523   -3.2597511    1.5449284      1024000 
  724000    1.0297662   -3.2593853   -3.2593853   -1.7147392   0.12057862   -3.2593853    1.5446461      1024000 
  725000    1.0294658   -3.2589497   -3.2589497   -1.7147541   0.11697324   -3.2589497    1.5441956      1024000 
  726000    1.0287054   -3.2573073   -3.2573073   -1.7142523   0.12097394   -3.2573073     1.543055      1024000 
  727000    1.0291431    -3.257767    -3.257767   -1.7140554   0.12031647    -3.257767    1.5437116      1024000 
  728000    1.0283225   -3.2569004   -3.2569004   -1.7144198   0.11792436   -3.2569004    1.5424807      1024000 
  729000    1.0289626   -3.2579162   -3.2579162   -1.7144754   0.11698213   -3.2579162    1.5434408      1024000 
  730000    1.0277676   -3.2558468   -3.2558468   -1.7141984   0.12274902   -3.2558468    1.5416483      1024000 
  731000    1.0297926   -3.2596865   -3.2596865   -1.7150008   0.11270484   -3.2596865    1.5446857      1024000 
  732000    1.0286162    -3.257328    -3.257328   -1.7144067    0.1160212    -3.257328    1.5429212      1024000 
  733000    1.0284112   -3.2568221   -3.2568221   -1.7142085   0.11399221   -3.2568221    1.5426136      1024000 
  734000    1.0274129   -3.2553203   -3.2553203   -1.7142041   0.11576803   -3.2553203    1.5411162      1024000 
  735000    1.0272131   -3.2548529   -3.2548529   -1.7140363   0.11490861   -3.2548529    1.5408165      1024000 
  736000    1.0268681    -3.254248    -3.254248   -1.7139491   0.11838981    -3.254248     1.540299      1024000 
  737000    1.0279787   -3.2563525   -3.2563525   -1.7143876   0.11629586   -3.2563525     1.541965      1024000 
  738000    1.0295432    -3.257677    -3.257677   -1.7133653   0.11784221    -3.257677    1.5443117      1024000 
  739000    1.0290023    -3.256605    -3.256605   -1.7131047    0.1151159    -3.256605    1.5435004      1024000 
  740000    1.0292181   -3.2570832   -3.2570832   -1.7132592   0.11282205   -3.2570832     1.543824      1024000 
  741000    1.0289059   -3.2563329   -3.2563329   -1.7129772   0.11086391   -3.2563329    1.5433557      1024000 
  742000    1.0272797   -3.2548921   -3.2548921   -1.7139756   0.11397743   -3.2548921    1.5409165      1024000 
  743000    1.0273355    -3.254636    -3.254636    -1.713636   0.11361792    -3.254636    1.5410001      1024000 
  744000     1.028324   -3.2559662   -3.2559662   -1.7134833   0.11455615   -3.2559662    1.5424829      1024000 
  745000    1.0293645   -3.2568472   -3.2568472   -1.7128035   0.12040725   -3.2568472    1.5440437      1024000 
  746000    1.0301753    -3.258398    -3.258398   -1.7131381    0.1148943    -3.258398    1.5452599      1024000 
  747000    1.0306829   -3.2592657   -3.2592657   -1.7132445    0.1153536   -3.2592657    1.5460212      1024000 
  748000    1.0292174   -3.2566301   -3.2566301   -1.7128072   0.11712205   -3.2566301    1.5438229      1024000 
  749000    1.0297381   -3.2570364   -3.2570364   -1.7124324   0.11740496   -3.2570364    1.5446041      1024000 
  750000    1.0290961   -3.2561762   -3.2561762   -1.7125352   0.11562082   -3.2561762     1.543641      1024000 
  751000    1.0296901    -3.257232    -3.257232      -1.7127   0.11922196    -3.257232     1.544532      1024000 
  752000    1.0280278   -3.2547247   -3.2547247   -1.7126861   0.11274759   -3.2547247    1.5420386      1024000 
  753000    1.0276054   -3.2542838   -3.2542838   -1.7128789   0.11758104   -3.2542838    1.5414049      1024000 
  754000    1.0287507   -3.2561035   -3.2561035   -1.7129805   0.11061942   -3.2561035    1.5431229      1024000 
  755000    1.0276885   -3.2533585   -3.2533585    -1.711829   0.11552549   -3.2533585    1.5415296      1024000 
  756000    1.0287008    -3.254511    -3.254511    -1.711463   0.11462876    -3.254511     1.543048      1024000 
  757000    1.0274687   -3.2527963   -3.2527963   -1.7115964   0.11562728   -3.2527963    1.5411999      1024000 
  758000    1.0306518    -3.257108    -3.257108   -1.7111335   0.11134613    -3.257108    1.5459745      1024000 
  759000    1.0276084   -3.2530976   -3.2530976   -1.7116882   0.11858576   -3.2530976    1.5414094      1024000 
  760000     1.029069   -3.2545526   -3.2545526   -1.7109522    0.1144589   -3.2545526    1.5436004      1024000 
  761000    1.0264449   -3.2501526   -3.2501526   -1.7104884   0.11511593   -3.2501526    1.5396643      1024000 
  762000    1.0287568   -3.2537219   -3.2537219   -1.7105898    0.1138216   -3.2537219    1.5431321      1024000 
  763000    1.0279416    -3.252739    -3.252739   -1.7108297   0.11215625    -3.252739    1.5419093      1024000 
  764000    1.0279843   -3.2520039   -3.2520039   -1.7100307   0.11709808   -3.2520039    1.5419733      1024000 
  765000    1.0270715   -3.2509591   -3.2509591   -1.7103549   0.11065863   -3.2509591    1.5406042      1024000 
  766000    1.0270244    -3.250607    -3.250607   -1.7100735   0.11206476    -3.250607    1.5405335      1024000 
  767000    1.0265378   -3.2499608   -3.2499608   -1.7101572   0.11126603   -3.2499608    1.5398036      1024000 
  768000    1.0266257   -3.2501844   -3.2501844   -1.7102489   0.11486147   -3.2501844    1.5399354      1024000 
  769000    1.0279168   -3.2519257   -3.2519257   -1.7100537    0.1145448   -3.2519257    1.5418721      1024000 
  770000    1.0274734   -3.2510202   -3.2510202   -1.7098132   0.11328392   -3.2510202     1.541207      1024000 
  771000    1.0274491   -3.2507035   -3.2507035    -1.709533   0.11857258   -3.2507035    1.5411705      1024000 
  772000    1.0278561   -3.2511232   -3.2511232   -1.7093422   0.11759882   -3.2511232     1.541781      1024000 
  773000    1.0286978   -3.2522646   -3.2522646    -1.709221   0.11508018   -3.2522646    1.5430436      1024000 
  774000    1.0279451   -3.2516219   -3.2516219   -1.7097074   0.11395961   -3.2516219    1.5419146      1024000 
  775000    1.0283349   -3.2518705   -3.2518705   -1.7093713   0.11387032   -3.2518705    1.5424992      1024000 
  776000    1.0291129   -3.2526832   -3.2526832    -1.709017   0.11570857   -3.2526832    1.5436662      1024000 
  777000    1.0286839   -3.2516867   -3.2516867    -1.708664   0.11902173   -3.2516867    1.5430227      1024000 
  778000    1.0280337    -3.250219    -3.250219   -1.7081716   0.11922396    -3.250219    1.5420474      1024000 
  779000    1.0299873   -3.2526912   -3.2526912   -1.7077133   0.11671497   -3.2526912    1.5449779      1024000 
  780000    1.0293865   -3.2518733   -3.2518733   -1.7077967   0.12488317   -3.2518733    1.5440766      1024000 
  781000    1.0302003   -3.2527729   -3.2527729   -1.7074756   0.12153162   -3.2527729    1.5452973      1024000 
  782000    1.0298571   -3.2522061   -3.2522061   -1.7074236    0.1182474   -3.2522061    1.5447825      1024000 
  783000    1.0309772   -3.2538754   -3.2538754   -1.7074127   0.11224134   -3.2538754    1.5464627      1024000 
  784000    1.0308389   -3.2532847   -3.2532847   -1.7070295   0.11442426   -3.2532847    1.5462552      1024000 
  785000    1.0305482   -3.2529696   -3.2529696   -1.7071504   0.12039888   -3.2529696    1.5458192      1024000 
  786000    1.0319697   -3.2546215   -3.2546215   -1.7066701   0.11636726   -3.2546215    1.5479514      1024000 
  787000    1.0319859    -3.254577    -3.254577   -1.7066014   0.11926677    -3.254577    1.5479757      1024000 
  788000    1.0314867   -3.2538338   -3.2538338    -1.706607   0.11964059   -3.2538338    1.5472269      1024000 
  789000    1.0308652    -3.252006    -3.252006   -1.7057113   0.12368979    -3.252006    1.5462947      1024000 
  790000    1.0303663   -3.2509603   -3.2509603    -1.705414   0.12391519   -3.2509603    1.5455463      1024000 
  791000    1.0316454   -3.2523946   -3.2523946   -1.7049297   0.11683695   -3.2523946    1.5474649      1024000 
  792000    1.0319469    -3.253212    -3.253212   -1.7052948   0.11802497    -3.253212    1.5479172      1024000 
  793000    1.0303234   -3.2509101   -3.2509101   -1.7054281   0.11788347   -3.2509101    1.5454819      1024000 
  794000    1.0301851    -3.250947    -3.250947   -1.7056725   0.11596579    -3.250947    1.5452745      1024000 
  795000    1.0298364   -3.2502743   -3.2502743   -1.7055229   0.11605363   -3.2502743    1.5447515      1024000 
  796000    1.0304295   -3.2505117   -3.2505117   -1.7048706   0.11730856   -3.2505117    1.5456411      1024000 
  797000    1.0299663   -3.2495745   -3.2495745   -1.7046281   0.11714961   -3.2495745    1.5449463      1024000 
  798000    1.0306398    -3.250483    -3.250483   -1.7045264   0.11464192    -3.250483    1.5459566      1024000 
  799000     1.031258   -3.2516339   -3.2516339   -1.7047501   0.11339053   -3.2516339    1.5468838      1024000 
  800000    1.0297441   -3.2490137   -3.2490137   -1.7044006    0.1131994   -3.2490137    1.5446131      1024000 
  801000    1.0295576   -3.2486265   -3.2486265   -1.7042933   0.11590485   -3.2486265    1.5443332      1024000 
  802000    1.0284769   -3.2472302   -3.2472302   -1.7045179   0.11577608   -3.2472302    1.5427122      1024000 
  803000    1.0287773   -3.2475618   -3.2475618   -1.7043989   0.11876288   -3.2475618    1.5431629      1024000 
  804000    1.0289237   -3.2478804   -3.2478804   -1.7044979   0.11740699   -3.2478804    1.5433825      1024000 
  805000    1.0292327   -3.2486366   -3.2486366   -1.7047908    0.1129028   -3.2486366    1.5438458      1024000 
  806000     1.028626   -3.2475843   -3.2475843   -1.7046484   0.11869572   -3.2475843    1.5429359      1024000 
  807000    1.0285389    -3.247136    -3.247136   -1.7043308   0.11602386    -3.247136    1.5428052      1024000 
  808000    1.0303742   -3.2490161   -3.2490161    -1.703458   0.11417199   -3.2490161    1.5455581      1024000 
  809000    1.0302035   -3.2492755   -3.2492755   -1.7039734   0.11360419   -3.2492755    1.5453022      1024000 
  810000    1.0310911   -3.2505881   -3.2505881   -1.7039546    0.1182176   -3.2505881    1.5466335      1024000 
  811000    1.0297085   -3.2489326   -3.2489326   -1.7043731   0.11822933   -3.2489326    1.5445595      1024000 
  812000    1.0302929   -3.2488209   -3.2488209   -1.7033846   0.11818084   -3.2488209    1.5454362      1024000 
  813000     1.030061   -3.2478504   -3.2478504    -1.702762   0.11765505   -3.2478504    1.5450884      1024000 
  814000    1.0304958   -3.2488888   -3.2488888   -1.7031483   0.11775234   -3.2488888    1.5457406      1024000 
  815000    1.0314331   -3.2495126   -3.2495126   -1.7023662   0.11659112   -3.2495126    1.5471465      1024000 
  816000    1.0308774   -3.2490809   -3.2490809    -1.702768   0.11843362   -3.2490809    1.5463129      1024000 
  817000    1.0324811   -3.2506698   -3.2506698   -1.7019513   0.11837702   -3.2506698    1.5487186      1024000 
  818000    1.0314927   -3.2491642   -3.2491642   -1.7019282   0.11680734   -3.2491642     1.547236      1024000 
  819000    1.0314897   -3.2487411   -3.2487411   -1.7015096   0.12098359   -3.2487411    1.5472315      1024000 
  820000    1.0306195   -3.2482832   -3.2482832   -1.7023572    0.1185221   -3.2482832    1.5459261      1024000 
  821000    1.0319599   -3.2499488   -3.2499488   -1.7020121   0.11341052   -3.2499488    1.5479367      1024000 
  822000    1.0324981   -3.2507488   -3.2507488   -1.7020049    0.1147517   -3.2507488     1.548744      1024000 
  823000    1.0324024   -3.2499704   -3.2499704     -1.70137   0.11583073   -3.2499704    1.5486004      1024000 
  824000    1.0317378   -3.2492569   -3.2492569   -1.7016534   0.11606509   -3.2492569    1.5476036      1024000 
  825000    1.0312596   -3.2475911   -3.2475911   -1.7007049   0.11766981   -3.2475911    1.5468862      1024000 
  826000    1.0317627   -3.2482297   -3.2482297   -1.7005887   0.11858804   -3.2482297     1.547641      1024000 
  827000     1.031427   -3.2477216   -3.2477216   -1.7005843   0.11413348   -3.2477216    1.5471373      1024000 
  828000    1.0301774   -3.2458537   -3.2458537   -1.7005908   0.11094957   -3.2458537    1.5452629      1024000 
  829000    1.0302248   -3.2461236   -3.2461236   -1.7007896    0.1210769   -3.2461236     1.545334      1024000 
  830000    1.0308502   -3.2470016   -3.2470016   -1.7007295   0.11083142   -3.2470016    1.5462721      1024000 
  831000    1.0306754   -3.2461859   -3.2461859    -1.700176   0.11839201   -3.2461859    1.5460099      1024000 
  832000    1.0297886   -3.2447052   -3.2447052   -1.7000254   0.11644828   -3.2447052    1.5446798      1024000 
  833000    1.0302819   -3.2452099   -3.2452099   -1.6997902   0.11197285   -3.2452099    1.5454198      1024000 
  834000    1.0294835   -3.2438694   -3.2438694   -1.6996473   0.11407711   -3.2438694    1.5442221      1024000 
  835000     1.029464   -3.2435435   -3.2435435   -1.6993506    0.1134315   -3.2435435    1.5441929      1024000 
  836000    1.0305715   -3.2451114   -3.2451114   -1.6992573   0.10989823   -3.2451114    1.5458541      1024000 
  837000    1.0289882   -3.2427787   -3.2427787   -1.6992995   0.11802451   -3.2427787    1.5434792      1024000 
  838000    1.0307503   -3.2453537   -3.2453537   -1.6992314   0.11336732   -3.2453537    1.5461222      1024000 
  839000    1.0301585   -3.2436588   -3.2436588   -1.6984243   0.11371519   -3.2436588    1.5452345      1024000 
  840000    1.0316827   -3.2451604   -3.2451604   -1.6976395   0.11465584   -3.2451604     1.547521      1024000 
  841000    1.0314516   -3.2450415   -3.2450415   -1.6978672   0.11713972   -3.2450415    1.5471743      1024000 
  842000    1.0320411   -3.2463114   -3.2463114   -1.6982529   0.11741566   -3.2463114    1.5480585      1024000 
  843000    1.0312523   -3.2451534   -3.2451534   -1.6982782   0.11632881   -3.2451534    1.5468753      1024000 
  844000    1.0324443   -3.2473467   -3.2473467   -1.6986835   0.11417751   -3.2473467    1.5486633      1024000 
  845000    1.0316725   -3.2464215   -3.2464215    -1.698916   0.12112234   -3.2464215    1.5475055      1024000 
  846000    1.0314366   -3.2466843   -3.2466843   -1.6995325   0.11962849   -3.2466843    1.5471518      1024000 
  847000    1.0321633   -3.2474367   -3.2474367   -1.6991948   0.12117789   -3.2474367    1.5482418      1024000 
  848000    1.0311655   -3.2455327   -3.2455327   -1.6987876   0.12483641   -3.2455327    1.5467451      1024000 
  849000    1.0318257   -3.2464686   -3.2464686   -1.6987331   0.12184305   -3.2464686    1.5477355      1024000 
  850000    1.0316988   -3.2455023   -3.2455023   -1.6979572   0.12187425   -3.2455023    1.5475451      1024000 
  851000    1.0320235   -3.2457764   -3.2457764   -1.6977442   0.11938619   -3.2457764    1.5480322      1024000 
  852000    1.0311114    -3.243993    -3.243993    -1.697329   0.12212925    -3.243993    1.5466639      1024000 
  853000    1.0319191   -3.2448136   -3.2448136   -1.6969381   0.12084546   -3.2448136    1.5478755      1024000 
  854000      1.03193   -3.2453571   -3.2453571   -1.6974652   0.11734326   -3.2453571    1.5478919      1024000 
  855000    1.0323823   -3.2455475   -3.2455475   -1.6969773   0.11674368   -3.2455475    1.5485703      1024000 
  856000    1.0324038   -3.2451486   -3.2451486   -1.6965461   0.11748604   -3.2451486    1.5486025      1024000 
  857000    1.0312677   -3.2440126   -3.2440126   -1.6971142   0.12078195   -3.2440126    1.5468984      1024000 
  858000    1.0302037   -3.2429896   -3.2429896   -1.6976873   0.11750267   -3.2429896    1.5453023      1024000 
  859000    1.0308148   -3.2433878   -3.2433878   -1.6971688   0.11578948   -3.2433878     1.546219      1024000 
  860000    1.0304645   -3.2420431   -3.2420431   -1.6963495   0.11987743   -3.2420431    1.5456936      1024000 
  861000    1.0323718   -3.2445928   -3.2445928   -1.6960383   0.11306882   -3.2445928    1.5485545      1024000 
  862000    1.0322616   -3.2444045   -3.2444045   -1.6960152   0.11527897   -3.2444045    1.5483893      1024000 
  863000    1.0312278   -3.2427038   -3.2427038   -1.6958653   0.11832257   -3.2427038    1.5468386      1024000 
  864000    1.0316579   -3.2436553   -3.2436553   -1.6961716   0.11221578   -3.2436553    1.5474836      1024000 
  865000    1.0321809   -3.2441053   -3.2441053   -1.6958371   0.11184503   -3.2441053    1.5482682      1024000 
  866000    1.0324012   -3.2446208   -3.2446208   -1.6960221    0.1119898   -3.2446208    1.5485987      1024000 
  867000    1.0308653   -3.2422355   -3.2422355   -1.6959407   0.11417362   -3.2422355    1.5462948      1024000 
  868000    1.0313717   -3.2424258   -3.2424258   -1.6953714   0.11954963   -3.2424258    1.5470544      1024000 
  869000    1.0311814   -3.2413092   -3.2413092   -1.6945403   0.11433125   -3.2413092    1.5467689      1024000 
  870000     1.031285   -3.2413556   -3.2413556   -1.6944312   0.11951546   -3.2413556    1.5469244      1024000 
  871000    1.0328296   -3.2436427   -3.2436427   -1.6944015    0.1214088   -3.2436427    1.5492412      1024000 
  872000    1.0315708   -3.2413009   -3.2413009   -1.6939478   0.11525501   -3.2413009    1.5473531      1024000 
  873000    1.0314435   -3.2418157   -3.2418157   -1.6946535   0.11633123   -3.2418157    1.5471622      1024000 
  874000    1.0328956   -3.2434152   -3.2434152   -1.6940749   0.11910547   -3.2434152    1.5493403      1024000 
  875000     1.032629   -3.2426595   -3.2426595   -1.6937192   0.11908913   -3.2426595    1.5489403      1024000 
  876000    1.0334758   -3.2436553   -3.2436553   -1.6934448   0.12486739   -3.2436553    1.5502105      1024000 
  877000    1.0314596    -3.240992    -3.240992   -1.6938057   0.12409431    -3.240992    1.5471863      1024000 
  878000    1.0323855   -3.2421053   -3.2421053   -1.6935302   0.11661165   -3.2421053    1.5485751      1024000 
  879000    1.0331255   -3.2428617   -3.2428617   -1.6931766    0.1173852   -3.2428617    1.5496851      1024000 
  880000    1.0333911   -3.2432629   -3.2432629   -1.6931794   0.12147327   -3.2432629    1.5500835      1024000 
  881000    1.0325742   -3.2413888   -3.2413888   -1.6925307   0.11926913   -3.2413888    1.5488581      1024000 
  882000    1.0331642   -3.2413539   -3.2413539   -1.6916107   0.11870222   -3.2413539    1.5497432      1024000 
  883000     1.031156   -3.2392085   -3.2392085   -1.6924776   0.12346588   -3.2392085    1.5467309      1024000 
  884000    1.0330664   -3.2419356   -3.2419356   -1.6923391    0.1184635   -3.2419356    1.5495965      1024000 
  885000    1.0307079   -3.2386523   -3.2386523   -1.6925936   0.11891105   -3.2386523    1.5460587      1024000 
  886000    1.0313684   -3.2398012   -3.2398012   -1.6927518   0.12255213   -3.2398012    1.5470494      1024000 
  887000    1.0322165   -3.2402979   -3.2402979   -1.6919763    0.1170332   -3.2402979    1.5483216      1024000 
  888000     1.031626   -3.2388616   -3.2388616   -1.6914257   0.11636341   -3.2388616    1.5474359      1024000 
  889000    1.0328559   -3.2408387   -3.2408387    -1.691558   0.11186621   -3.2408387    1.5492807      1024000 
  890000    1.0314356   -3.2388205   -3.2388205   -1.6916703   0.12076037   -3.2388205    1.5471502      1024000 
  891000    1.0317868    -3.238939    -3.238939   -1.6912619   0.11703533    -3.238939    1.5476771      1024000 
  892000    1.0325856   -3.2395678   -3.2395678   -1.6906926   0.11662807   -3.2395678    1.5488752      1024000 
  893000    1.0319704   -3.2391714   -3.2391714   -1.6912189   0.11440325   -3.2391714    1.5479525      1024000 
  894000    1.0319087   -3.2389875   -3.2389875   -1.6911276   0.11824501   -3.2389875      1.54786      1024000 
  895000    1.0331925   -3.2408365   -3.2408365   -1.6910508   0.12023392   -3.2408365    1.5497857      1024000 
  896000    1.0332107   -3.2410199   -3.2410199   -1.6912069    0.1191767   -3.2410199     1.549813      1024000 
  897000    1.0330246   -3.2408707   -3.2408707   -1.6913368   0.12147831   -3.2408707    1.5495338      1024000 
  898000    1.0323665   -3.2400934   -3.2400934   -1.6915468    0.1169086   -3.2400934    1.5485466      1024000 
  899000    1.0329469   -3.2411786   -3.2411786   -1.6917614   0.11686352   -3.2411786    1.5494172      1024000 
  900000    1.0342283   -3.2426331   -3.2426331   -1.6912938   0.11733557   -3.2426331    1.5513393      1024000 
  901000     1.034386   -3.2420092   -3.2420092   -1.6904334   0.11743109   -3.2420092    1.5515758      1024000 
  902000     1.032235   -3.2388246   -3.2388246   -1.6904753   0.11371203   -3.2388246    1.5483493      1024000 
  903000     1.032798   -3.2392498   -3.2392498   -1.6900559   0.11557676   -3.2392498    1.5491939      1024000 
  904000    1.0320582   -3.2393815   -3.2393815   -1.6912973   0.11906704   -3.2393815    1.5480842      1024000 
  905000     1.032325   -3.2395884   -3.2395884   -1.6911042   0.11774257   -3.2395884    1.5484843      1024000 
  906000    1.0308819    -3.237442    -3.237442   -1.6911222   0.12040736    -3.237442    1.5463198      1024000 
  907000    1.0310531   -3.2375283   -3.2375283   -1.6909517   0.11876696   -3.2375283    1.5465766      1024000 
  908000    1.0311489    -3.237598    -3.237598   -1.6908777   0.11393721    -3.237598    1.5467203      1024000 
  909000    1.0321806   -3.2395179   -3.2395179     -1.69125   0.11207061   -3.2395179    1.5482678      1024000 
  910000    1.0301509   -3.2357274   -3.2357274   -1.6905042   0.11867794   -3.2357274    1.5452232      1024000 
  911000    1.0313144   -3.2376545   -3.2376545    -1.690686   0.11198476   -3.2376545    1.5469685      1024000 
  912000    1.0310131   -3.2369144   -3.2369144   -1.6903979   0.11484195   -3.2369144    1.5465165      1024000 
  913000    1.0309969   -3.2357961   -3.2357961   -1.6893038   0.11573231   -3.2357961    1.5464923      1024000 
  914000    1.0321638   -3.2372089   -3.2372089   -1.6889664   0.11779861   -3.2372089    1.5482425      1024000 
  915000    1.0315575   -3.2368158   -3.2368158   -1.6894827   0.11078184   -3.2368158     1.547333      1024000 
  916000    1.0302298   -3.2347604   -3.2347604   -1.6894189   0.11389215   -3.2347604    1.5453415      1024000 
  917000    1.0309979   -3.2357377   -3.2357377   -1.6892439    0.1131545   -3.2357377    1.5464937      1024000 
  918000    1.0296716    -3.233827    -3.233827   -1.6893227   0.11432145    -3.233827    1.5445043      1024000 
  919000    1.0296776   -3.2336126   -3.2336126   -1.6890993   0.11422374   -3.2336126    1.5445133      1024000 
  920000    1.0311563   -3.2359784   -3.2359784   -1.6892471   0.11124645   -3.2359784    1.5467313      1024000 
  921000    1.0324022   -3.2374315   -3.2374315   -1.6888314   0.12063141   -3.2374315    1.5486001      1024000 
  922000    1.0320026   -3.2366181   -3.2366181   -1.6886174   0.11393707   -3.2366181    1.5480007      1024000 
  923000    1.0327267   -3.2375431   -3.2375431   -1.6884562   0.11185868   -3.2375431    1.5490868      1024000 
  924000    1.0324706   -3.2367055   -3.2367055   -1.6880027   0.11932696   -3.2367055    1.5487027      1024000 
  925000    1.0321234   -3.2361664   -3.2361664   -1.6879844   0.11935049   -3.2361664     1.548182      1024000 
  926000    1.0322183   -3.2364185   -3.2364185   -1.6880942   0.11998975   -3.2364185    1.5483244      1024000 
  927000    1.0318396   -3.2357791   -3.2357791   -1.6880228   0.11708844   -3.2357791    1.5477563      1024000 
  928000    1.0337093   -3.2384182   -3.2384182   -1.6878573    0.1154393   -3.2384182    1.5505609      1024000 
  929000    1.0335426   -3.2374216   -3.2374216   -1.6871109   0.11818451   -3.2374216    1.5503107      1024000 
  930000    1.0334461   -3.2378116   -3.2378116   -1.6876456     0.112711   -3.2378116     1.550166      1024000 
  931000    1.0320242   -3.2355348   -3.2355348   -1.6875016   0.11767048   -3.2355348    1.5480332      1024000 
  932000    1.0333506   -3.2365158   -3.2365158   -1.6864931   0.11879493   -3.2365158    1.5500227      1024000 
  933000    1.0333467    -3.236674    -3.236674   -1.6866571   0.11206597    -3.236674    1.5500169      1024000 
  934000    1.0338172   -3.2371473   -3.2371473   -1.6864246   0.11926045   -3.2371473    1.5507227      1024000 
  935000    1.0330902     -3.23625     -3.23625   -1.6866179   0.11924504     -3.23625    1.5496321      1024000 
  936000    1.0313971   -3.2336989   -3.2336989   -1.6866064   0.11060752   -3.2336989    1.5470925      1024000 
  937000    1.0332043   -3.2366317   -3.2366317   -1.6868284   0.11330191   -3.2366317    1.5498033      1024000 
  938000    1.0319873   -3.2342464   -3.2342464   -1.6862686   0.11573685   -3.2342464    1.5479778      1024000 
  939000    1.0326292   -3.2345268   -3.2345268   -1.6855861   0.11457817   -3.2345268    1.5489406      1024000 
  940000     1.031808   -3.2337345   -3.2337345   -1.6860256   0.11130391   -3.2337345    1.5477089      1024000 
  941000    1.0331336   -3.2358657   -3.2358657   -1.6861684   0.11434455   -3.2358657    1.5496973      1024000 
  942000    1.0331501   -3.2354382   -3.2354382   -1.6857161   0.11291213   -3.2354382    1.5497221      1024000 
  943000    1.0316016   -3.2328059   -3.2328059   -1.6854067   0.11760394   -3.2328059    1.5473992      1024000 
  944000    1.0327803     -3.23451     -3.23451   -1.6853427   0.11587357     -3.23451    1.5491673      1024000 
  945000    1.0316897   -3.2325594   -3.2325594    -1.685028   0.11269273   -3.2325594    1.5475315      1024000 
  946000    1.0320985     -3.23317     -3.23317   -1.6850253   0.11414858     -3.23317    1.5481447      1024000 
  947000    1.0318079   -3.2329738   -3.2329738   -1.6852651   0.12328041   -3.2329738    1.5477087      1024000 
  948000    1.0319099   -3.2333508   -3.2333508    -1.685489    0.1192588   -3.2333508    1.5478618      1024000 
  949000    1.0330348   -3.2350494   -3.2350494   -1.6855003   0.11267686   -3.2350494    1.5495491      1024000 
  950000    1.0324731   -3.2341797   -3.2341797   -1.6854732   0.11346927   -3.2341797    1.5487064      1024000 
  951000    1.0332244   -3.2345851   -3.2345851   -1.6847517   0.11988904   -3.2345851    1.5498334      1024000 
  952000    1.0337989    -3.234646    -3.234646   -1.6839508   0.11532362    -3.234646    1.5506952      1024000 
  953000    1.0321721   -3.2324809   -3.2324809   -1.6842259   0.11977601   -3.2324809     1.548255      1024000 
  954000    1.0341015   -3.2353357   -3.2353357   -1.6841866   0.12043401   -3.2353357    1.5511491      1024000 
  955000    1.0346309    -3.236011    -3.236011   -1.6840678    0.1177081    -3.236011    1.5519432      1024000 
  956000    1.0331448   -3.2344115   -3.2344115   -1.6846974   0.11980304   -3.2344115     1.549714      1024000 
  957000    1.0334915   -3.2344413   -3.2344413   -1.6842073   0.11528148   -3.2344413     1.550234      1024000 
  958000     1.034544   -3.2352092   -3.2352092   -1.6833964   0.11633029   -3.2352092    1.5518129      1024000 
  959000     1.033934   -3.2338615   -3.2338615   -1.6829636   0.11556068   -3.2338615    1.5508979      1024000 
  960000    1.0338737   -3.2331045   -3.2331045    -1.682297   0.11781396   -3.2331045    1.5508074      1024000 
  961000    1.0327092   -3.2319066   -3.2319066    -1.682846   0.11564907   -3.2319066    1.5490606      1024000 
  962000    1.0343386   -3.2339943   -3.2339943   -1.6824895   0.12212668   -3.2339943    1.5515048      1024000 
  963000    1.0330222   -3.2319863   -3.2319863   -1.6824562   0.11685693   -3.2319863    1.5495301      1024000 
  964000    1.0338351   -3.2329534   -3.2329534   -1.6822039   0.11843332   -3.2329534    1.5507495      1024000 
  965000    1.0346194   -3.2340315   -3.2340315   -1.6821055     0.122143   -3.2340315     1.551926      1024000 
  966000    1.0339464    -3.232891    -3.232891   -1.6819745   0.11866954    -3.232891    1.5509164      1024000 
  967000    1.0356595   -3.2352924   -3.2352924   -1.6818062   0.11580465   -3.2352924    1.5534862      1024000 
  968000    1.0341184    -3.233653    -3.233653   -1.6824786   0.12286489    -3.233653    1.5511744      1024000 
  969000    1.0351016    -3.235599    -3.235599   -1.6829498    0.1233528    -3.235599    1.5526492      1024000 
  970000    1.0343753   -3.2344935   -3.2344935   -1.6829337   0.12206668   -3.2344935    1.5515598      1024000 
  971000    1.0326559   -3.2318022   -3.2318022   -1.6828215   0.11665714   -3.2318022    1.5489807      1024000 
  972000    1.0325738   -3.2315154   -3.2315154   -1.6826578   0.11753787   -3.2315154    1.5488576      1024000 
  973000    1.0340086   -3.2330256   -3.2330256   -1.6820159   0.11916976   -3.2330256    1.5510097      1024000 
  974000    1.0342204   -3.2332474   -3.2332474   -1.6819199   0.12075067   -3.2332474    1.5513275      1024000 
  975000    1.0331963   -3.2323194   -3.2323194   -1.6825281   0.12349835   -3.2323194    1.5497913      1024000 
  976000    1.0335754   -3.2327516   -3.2327516   -1.6823916   0.11716341   -3.2327516      1.55036      1024000 
  977000    1.0329239   -3.2308942   -3.2308942   -1.6815115   0.12522099   -3.2308942    1.5493827      1024000 
  978000    1.0342794    -3.233036    -3.233036   -1.6816201   0.11996515    -3.233036     1.551416      1024000 
  979000    1.0329755   -3.2311912   -3.2311912   -1.6817311    0.1172927   -3.2311912    1.5494601      1024000 
  980000    1.0334823   -3.2317238   -3.2317238   -1.6815035   0.11575559   -3.2317238    1.5502202      1024000 
  981000    1.0331061   -3.2313855   -3.2313855   -1.6817294   0.11304986   -3.2313855    1.5496561      1024000 
  982000    1.0330837   -3.2311923   -3.2311923   -1.6815699   0.11489654   -3.2311923    1.5496224      1024000 
  983000    1.0313532   -3.2287434   -3.2287434   -1.6817167   0.11143774   -3.2287434    1.5470267      1024000 
  984000    1.0322488    -3.229758    -3.229758   -1.6813879   0.11351536    -3.229758      1.54837      1024000 
  985000    1.0322399    -3.230239    -3.230239   -1.6818822   0.11594109    -3.230239    1.5483567      1024000 
  986000    1.0323997   -3.2299376   -3.2299376   -1.6813411   0.11501358   -3.2299376    1.5485965      1024000 
  987000    1.0317862   -3.2286904   -3.2286904   -1.6810143   0.11682508   -3.2286904    1.5476762      1024000 
  988000    1.0330255    -3.230538    -3.230538   -1.6810029   0.10910447    -3.230538    1.5495352      1024000 
  989000    1.0332692   -3.2300141   -3.2300141   -1.6801134   0.11740476   -3.2300141    1.5499007      1024000 
  990000    1.0331806   -3.2295582   -3.2295582   -1.6797904   0.11422634   -3.2295582    1.5497678      1024000 
  991000    1.0328768   -3.2289471   -3.2289471    -1.679635   0.11613567   -3.2289471    1.5493121      1024000 
  992000    1.0332693   -3.2293707   -3.2293707   -1.6794698    0.1113869   -3.2293707    1.5499008      1024000 
  993000    1.0324374   -3.2278354   -3.2278354   -1.6791825   0.11347495   -3.2278354    1.5486529      1024000 
  994000    1.0331183   -3.2287572   -3.2287572   -1.6790829   0.11333438   -3.2287572    1.5496743      1024000 
  995000    1.0339656   -3.2293788   -3.2293788   -1.6784336   0.11525211   -3.2293788    1.5509452      1024000 
  996000    1.0336971   -3.2290466   -3.2290466   -1.6785041   0.11598284   -3.2290466    1.5505425      1024000 
  997000    1.0332557   -3.2284039   -3.2284039   -1.6785236   0.11502707   -3.2284039    1.5498804      1024000 
  998000    1.0344246   -3.2296153   -3.2296153   -1.6779816   0.11435111   -3.2296153    1.5516338      1024000 
  999000    1.0335395   -3.2283296   -3.2283296   -1.6780235   0.11930626   -3.2283296    1.5503061      1024000 
 1000000    1.0324253   -3.2266543   -3.2266543   -1.6780196   0.11963036   -3.2266543    1.5486347      1024000 
Loop time of 12985.1 on 32 procs for 1000000 steps with 492800 atoms

Performance: 16634.492 tau/day, 77.012 timesteps/s
99.0% CPU use with 32 MPI tasks x 1 OpenMP threads

MPI task timing breakdown:
Section |  min time  |  avg time  |  max time  |%varavg|  %CPU | %total
-----------------------------------------------------------------------
Pair    | 3096.8     | 5827.8     | 7906.3     |1372.4 |  99.1 | 44.88
Bond    | 0.39424    | 0.57652    | 0.73395    |  10.1 | 100.0 |  0.00
Neigh   | 1013.1     | 1471.9     | 1853.5     | 454.8 |  99.8 | 11.34
Comm    | 2744.1     | 4875.8     | 7240.1     |1276.3 |  98.6 | 37.55
Output  | 34.057     | 34.311     | 34.322     |   0.8 |  98.2 |  0.26
Modify  | 200.81     | 288.25     | 777.68     | 891.0 |  99.2 |  2.22
Other   |            | 486.4      |            |       |       |  3.75

Nlocal:        15400.0 ave       15867 max       14597 min
Histogram: 1 0 0 1 1 6 17 1 4 1
Nghost:        10752.5 ave       12386 max        7164 min
Histogram: 4 0 4 0 0 0 4 0 5 15
Neighs:       417842.0 ave      484477 max      200978 min
Histogram: 3 1 0 0 0 0 3 4 8 13

Total # of neighbors = 13370943
Ave neighs/atom = 27.132595
Ave special neighs/atom = 0.0000000
Neighbor list builds = 69295
Dangerous builds = 870
Total wall time: 3:36:27
