LAMMPS (24 Dec 2020)
OMP_NUM_THREADS environment is not set. Defaulting to 1 thread. (src/comm.cpp:94)
  using 1 OpenMP thread(s) per MPI task
#Read the equilibrated lj fluid and add nanocubes

units           lj
atom_style      full
#atom_modify     map array first cubes
dimension       3
boundary        p p f
pair_style      lj/smooth/linear 2.0

variable        sigma           equal 1.0
variable        epsilon         equal 1.0
read_restart	restart.dat.30000000
Reading restart file ...
  restart file = 24 Dec 2020, LAMMPS = 24 Dec 2020
  restoring atom style full from restart
  orthogonal box = (0.0000000 0.0000000 0.0000000) to (80.000000 80.000000 160.00000)
  6 by 4 by 14 MPI processor grid
  restoring pair style lj/smooth/linear from restart
  264187 atoms
Finding 1-2 1-3 1-4 neighbors ...
  special bond factors lj:    0        0        0       
  special bond factors coul:  0        0        0       
     0 = max # of 1-2 neighbors
     0 = max # of 1-3 neighbors
     0 = max # of 1-4 neighbors
     1 = max # of special neighbors
  special bonds CPU = 2.515 seconds
  read_restart CPU = 2.899 seconds

group		solvent type 1
191035 atoms in group solvent
group 		hull  type 2
28544 atoms in group hull
group 		dummy type 3
44608 atoms in group dummy

neighbor      0.4 bin
neigh_modify  exclude molecule/intra cubes


pair_modify   shift yes

pair_coeff    1 1 1.0 1.0 #solvent
pair_coeff    2 2 1.0 1.0 1.12 #np
pair_coeff    3 3 0.0 0.0 0.0 #dummy
pair_coeff    2 3 0.0 0.0 0.0 #np dummy
pair_coeff    1 2 ${eps} ${sig} ${nscut} #np solvent
pair_coeff    1 2 2.0 ${sig} ${nscut} 
pair_coeff    1 2 2.0 1.0 ${nscut} 
pair_coeff    1 2 2.0 1.0 4.0 
pair_coeff    1 3 0.0 0.0 0.0 #dummy solvent


comm_modify   mode multi cutoff/multi 1 2.0 cutoff/multi 2 2.0 cutoff/multi 3 6.95

reset_timestep 	0

balance 	1.05 shift z 10 1.05
Balancing ...
Unused restart file global fix info:
  fix style: STORE, fix ID: msd_COMPUTE_STORE
Neighbor list info ...
  update every 1 steps, delay 10 steps, check yes
  max neighbors/atom: 2000, page size: 100000
  master list distance cutoff = 4.4
  ghost atom cutoff = 6.95
  binsize = 2.2, bins = 37 37 73
  1 neighbor lists, perpetual/occasional/extra = 1 0 0
  (1) pair lj/smooth/linear, perpetual
      attributes: half, newton on
      pair build: half/bin/newton
      stencil: half/bin/3d/newton
      bin: standard
 rebalancing time: 0.113 seconds
  iteration count = 5
  initial/final maximal load/proc = 2812.0000 1650.0000
  initial/final imbalance factor  = 3.5763758 2.0985136
  x cuts: 0.0000000 0.16666667 0.33333333 0.50000000 0.66666667 0.83333333 1.0000000
  y cuts: 0.0000000 0.25000000 0.50000000 0.75000000 1.0000000
  z cuts: 0.0000000 0.029017857 0.058035714 0.084821429 0.10491071 0.13392857 0.15178571 0.17633929 0.20982143 0.22767857 0.26116071 0.30133929 0.33928571 0.62723214 1.0000000

####################### WALLS ###########################

variable       epsilonWall equal 2*${epsilon}
variable       epsilonWall equal 2*1
variable       repulsive   equal   0.7147*${sigma}
variable       repulsive   equal   0.7147*1
variable       full	   equal   3*${sigma}
variable       full	   equal   3*1
#region         lowWall block EDGE EDGE EDGE EDGE EDGE 2

fix            topWall all wall/lj93 zhi EDGE 	       ${epsilonWall} ${sigma} ${repulsive} units box
fix            topWall all wall/lj93 zhi EDGE 	       2 ${sigma} ${repulsive} units box
fix            topWall all wall/lj93 zhi EDGE 	       2 1 ${repulsive} units box
fix            topWall all wall/lj93 zhi EDGE 	       2 1 0.7147 units box
fix            lowSol solvent wall/lj93 zlo EDGE                ${epsilonWall} ${sigma} ${full} units box
fix            lowSol solvent wall/lj93 zlo EDGE                2 ${sigma} ${full} units box
fix            lowSol solvent wall/lj93 zlo EDGE                2 1 ${full} units box
fix            lowSol solvent wall/lj93 zlo EDGE                2 1 3 units box
fix 	       lowCub cubes wall/lj93 zlo EDGE                ${epsilonWall} ${sigma} ${repulsive} units box
fix 	       lowCub cubes wall/lj93 zlo EDGE                2 ${sigma} ${repulsive} units box
fix 	       lowCub cubes wall/lj93 zlo EDGE                2 1 ${repulsive} units box
fix 	       lowCub cubes wall/lj93 zlo EDGE                2 1 0.7147 units box


###################### COMPUTES ##########################

compute        bin1 solvent chunk/atom bin/1d z lower 1.0 units box


######################  FIXES ############################


fix             peclet solvent ave/chunk 100 1 10000 bin1 density/number norm                  none ave one file density.profile

fix              temp solvent ave/chunk 100 1 10000 bin1 temp norm                  none ave one file temp.profile

fix             1 cubes rigid/nve/small molecule
  create bodies CPU = 0.074 seconds
  64 rigid bodies with 73152 atoms
  6.9282032 = max distance from body owner to body atom

fix             2 solvent nve


## Thermostat
region          regthermo block EDGE EDGE EDGE EDGE 0 15
group           thermo dynamic solvent region regthermo every 1000
dynamic group thermo defined
fix             3 thermo langevin ${start_temp} ${stop_temp} 10 156453
fix             3 thermo langevin 0.6 ${stop_temp} 10 156453
fix             3 thermo langevin 0.6 .9 10 156453

## Evaporation
#region		regevap block EDGE EDGE EDGE EDGE 140 EDGE
#fix		4 solvent evaporate ${evap} 1 regevap 156415


#### Load balancing

fix             bal all balance 1000 1.05 shift z 10 1.05

############### Diagnostics and computes ###################

compute          cluster all cluster/atom 1.5
compute          cc1 all chunk/atom c_cluster compress yes
compute          size all property/chunk cc1 count
compute          myChunk all temp/chunk cc1 temp
fix              tempe all ave/time 5000 1 5000 c_myChunk file tmp.out mode scalar
compute          comChunk all com/chunk cc1
fix              com all ave/time 10000 1 10000 c_size c_comChunk[*] file com.xyz mode vector


compute        	com cubes          rigid/local   1 mol x y z
compute        	quat cubes         rigid/local   1 mol quatw quati quatj quatk

compute 	cc2 cubes 	   chunk/atom 	 molecule
compute 	msd cubes 	   msd/chunk 	 cc2

fix 		msd all ave/time  1 1 10000 c_msd[*] file dump.msd ave one mode vector

dump            1 all custom 100000 dump.lammpstrj id mol type x y z c_cluster c_cc1
dump		hulltrj hull custom 100000 hull.lammpstrj id mol type x y z
dump		cubestrj cubes custom 100000 cubes.lammpstrj id mol type x y z

dump            com cubes local 100000 dump.*.xyz c_com[*]
dump	        xyz cubes xyz 100000 cubes.*.xyz
dump            quat cubes      local 100000 dump.*.quat c_quat[*]


dump            2 all image 10000 image.*.png type type zoom 1.5 size 1280 720
dump_modify     2 pad 8
dump		image cubes image 10000 image_cubes.*.png type type zoom 1.5 size 1280 720
dump_modify	image pad 8
dump            3 all movie 5000 movie.avi type type zoom 1.5 size 1280 720
dump		4 cubes movie 5000 movie_cubes.avi type type zoom 1.5 size 1280 720


thermo          10000
thermo_style    custom step temp epair evdwl etotal press pe ke atoms

restart         1000000 restart.dat
timestep        0.005
timer           full
New timer settings: style=full  mode=nosync  timeout=off

run 		5000000
Neighbor list info ...
  update every 1 steps, delay 10 steps, check yes
  max neighbors/atom: 2000, page size: 100000
  master list distance cutoff = 4.4
  ghost atom cutoff = 6.95
  binsize = 2.2, bins = 37 37 73
  2 neighbor lists, perpetual/occasional/extra = 1 1 0
  (1) pair lj/smooth/linear, perpetual
      attributes: half, newton on
      pair build: half/bin/newton
      stencil: half/bin/3d/newton
      bin: standard
  (2) compute cluster/atom, occasional
      attributes: full, newton on
      pair build: full/bin
      stencil: full/bin/3d
      bin: standard
Per MPI rank memory allocation (min/avg/max) = 25.94 | 32.19 | 36.95 Mbytes
Step Temp E_pair E_vdwl TotEng Press PotEng KinEng Atoms 
       0    0.6013489   -2.6076745   -2.6076745   -1.9549831 -0.0045052919   -2.6076745   0.65269142   264187 
   10000   0.60271577   -2.6084943   -2.6084943   -1.9543194   0.02890275   -2.6084943   0.65417499   264187 
   20000   0.60409373   -2.6072479   -2.6072479   -1.9515773  0.023829471   -2.6072479    0.6556706   264187 
   30000   0.60353217   -2.6049834   -2.6049834   -1.9499224  0.021239816   -2.6049834   0.65506109   264187 
   40000   0.60430969   -2.6063477   -2.6063477   -1.9504427  0.023185616   -2.6063477   0.65590499   264187 
   50000   0.60513296   -2.6063939   -2.6063939   -1.9495954  0.017781397   -2.6063939   0.65679855   264187 
   60000   0.60274067   -2.6034525   -2.6034525   -1.9492505  0.033705462   -2.6034525   0.65420201   264187 
   70000   0.60469596   -2.6021823   -2.6021823   -1.9458581  0.024432775   -2.6021823   0.65632424   264187 
   80000   0.60465961   -2.6026371   -2.6026371   -1.9463523  0.028555882   -2.6026371    0.6562848   264187 
   90000   0.60587812   -2.5990292   -2.5990292   -1.9414219  0.031467274   -2.5990292   0.65760733   264187 
  100000   0.60415012   -2.5952567   -2.5952567   -1.9395249  0.032039413   -2.5952567    0.6557318   264187 
  110000   0.60636372   -2.5938369   -2.5938369   -1.9357025  0.037948483   -2.5938369    0.6581344   264187 
  120000    0.6084107   -2.5932941   -2.5932941    -1.932938   0.03239649   -2.5932941   0.66035614   264187 
  130000   0.60670189   -2.5900705   -2.5900705    -1.931569  0.024415709   -2.5900705   0.65850144   264187 
  140000   0.60611989   -2.5890473   -2.5890473   -1.9311775  0.022608016   -2.5890473   0.65786975   264187 
  150000   0.60829586   -2.5887107   -2.5887107   -1.9284792  0.019849299   -2.5887107    0.6602315   264187 
  160000   0.60783946   -2.5860886   -2.5860886   -1.9263525  0.044721871   -2.5860886   0.65973614   264187 
  170000   0.60798263   -2.5824847   -2.5824847   -1.9225931  0.035283844   -2.5824847   0.65989152   264187 
  180000   0.60928775    -2.580982    -2.580982   -1.9196739  0.029432973    -2.580982   0.66130808   264187 
  190000   0.60972486   -2.5766794   -2.5766794   -1.9148969  0.032464483   -2.5766794   0.66178251   264187 
  200000   0.61098829   -2.5757983   -2.5757983   -1.9126444  0.028383018   -2.5757983   0.66315381   264187 
  210000   0.61052826   -2.5700526   -2.5700526   -1.9073981  0.022253991   -2.5700526    0.6626545   264187 
  220000    0.6118832   -2.5699576   -2.5699576   -1.9058325  0.028925761   -2.5699576   0.66412513   264187 
  230000   0.61139881   -2.5679144   -2.5679144    -1.904315  0.027247485   -2.5679144   0.66359938   264187 
  240000   0.61024504   -2.5659838   -2.5659838   -1.9036367  0.031768841   -2.5659838   0.66234711   264187 
  250000   0.61217623   -2.5647803   -2.5647803   -1.9003371  0.022099028   -2.5647803   0.66444318   264187 
  260000   0.61126199    -2.560822    -2.560822   -1.8973711  0.029065133    -2.560822   0.66345087   264187 
  270000   0.61334724   -2.5627944   -2.5627944   -1.8970802  0.035264281   -2.5627944   0.66571417   264187 
  280000   0.61422464   -2.5609792   -2.5609792   -1.8943127   0.02207616   -2.5609792   0.66666648   264187 
  290000   0.61178912   -2.5542325   -2.5542325   -1.8902095  0.026873968   -2.5542325   0.66402301   264187 
  300000   0.61365431   -2.5562226   -2.5562226   -1.8901752   0.02934672   -2.5562226   0.66604745   264187 
  310000   0.61425195    -2.553691    -2.553691   -1.8869948  0.025845406    -2.553691   0.66669611   264187 
  320000    0.6142314   -2.5502621   -2.5502621   -1.8835883  0.028746819   -2.5502621   0.66667381   264187 
  330000   0.61263091   -2.5455775   -2.5455775   -1.8806408  0.028682181   -2.5455775   0.66493667   264187 
  340000    0.6139217    -2.543993    -2.543993   -1.8776554  0.034957309    -2.543993   0.66633767   264187 
  350000   0.61793586   -2.5414829   -2.5414829   -1.8707883  0.032161454   -2.5414829   0.67069456   264187 
  360000   0.61678871   -2.5363083   -2.5363083   -1.8668588   0.03943509   -2.5363083   0.66944947   264187 
  370000   0.61890846   -2.5380349   -2.5380349   -1.8662847   0.03751841   -2.5380349    0.6717502   264187 
  380000   0.61716102   -2.5337321   -2.5337321   -1.8638786  0.036817721   -2.5337321   0.66985356   264187 
  390000   0.61743141   -2.5308103   -2.5308103   -1.8606633  0.032983764   -2.5308103   0.67014703   264187 
  400000   0.61873741   -2.5274347   -2.5274347   -1.8558701  0.031588553   -2.5274347   0.67156454   264187 
  410000   0.61901701   -2.5252173   -2.5252173   -1.8533493  0.025962886   -2.5252173   0.67186801   264187 
  420000   0.61902569   -2.5233154   -2.5233154    -1.851438   0.04428208   -2.5233154   0.67187743   264187 
  430000   0.61892503   -2.5159357   -2.5159357   -1.8441675  0.029280518   -2.5159357   0.67176818   264187 
  440000    0.6196665   -2.5178936   -2.5178936   -1.8453206  0.029298531   -2.5178936   0.67257296   264187 
  450000   0.62036912   -2.5179311   -2.5179311   -1.8445955  0.032419587   -2.5179311   0.67333556   264187 
  460000   0.61957348   -2.5110009   -2.5110009   -1.8385289  0.027868545   -2.5110009   0.67247199   264187 
  470000   0.62109635   -2.5086474   -2.5086474   -1.8345225  0.035181103   -2.5086474   0.67412488   264187 
  480000   0.62289283   -2.5057756   -2.5057756   -1.8297009   0.03709711   -2.5057756   0.67607475   264187 
  490000   0.62488168   -2.5035297   -2.5035297   -1.8252963  0.034908762   -2.5035297    0.6782334   264187 
  500000   0.62416803   -2.4994902   -2.4994902   -1.8220313  0.029874092   -2.4994902   0.67745882   264187 
  510000   0.62555145   -2.4968602   -2.4968602   -1.8178998  0.026950784   -2.4968602   0.67896036   264187 
  520000   0.62601652   -2.4895657   -2.4895657   -1.8101006  0.030609577   -2.4895657   0.67946514   264187 
  530000   0.62800958   -2.4903429   -2.4903429   -1.8087146  0.029043453   -2.4903429   0.68162836   264187 
  540000   0.62515866   -2.4839853   -2.4839853   -1.8054512  0.026254141   -2.4839853   0.67853403   264187 
  550000   0.62630956   -2.4798045   -2.4798045   -1.8000213  0.037701354   -2.4798045   0.67978319   264187 
  560000   0.62867034   -2.4793239   -2.4793239   -1.7969783   0.03826985   -2.4793239   0.68234553   264187 
  570000   0.62928313   -2.4765587   -2.4765587    -1.793548  0.032404311   -2.4765587   0.68301065   264187 
  580000     0.628742   -2.4728848   -2.4728848   -1.7904615  0.034512431   -2.4728848   0.68242331   264187 
  590000   0.62872207    -2.471263    -2.471263   -1.7888614  0.034171632    -2.471263   0.68240168   264187 
  600000   0.62955218   -2.4673744   -2.4673744   -1.7840717  0.030042491   -2.4673744   0.68330267   264187 
  610000   0.63171915    -2.467365    -2.467365   -1.7817103  0.033939063    -2.467365   0.68565465   264187 
  620000   0.63140571    -2.460765    -2.460765   -1.7754506  0.032863868    -2.460765   0.68531444   264187 
  630000   0.63023973   -2.4551614   -2.4551614   -1.7711125  0.041242848   -2.4551614   0.68404891   264187 
  640000    0.6315219   -2.4534135   -2.4534135   -1.7679729  0.033175207   -2.4534135   0.68544056   264187 
  650000   0.63284463   -2.4529825   -2.4529825   -1.7661063  0.044686924   -2.4529825   0.68687622   264187 
  660000   0.63411141   -2.4490363   -2.4490363   -1.7607852  0.030344012   -2.4490363   0.68825115   264187 
  670000   0.63417261   -2.4455001   -2.4455001   -1.7571825   0.03360181   -2.4455001   0.68831758   264187 
  680000   0.63289381   -2.4411368   -2.4411368   -1.7542072  0.037461801   -2.4411368   0.68692959   264187 
  690000   0.63433693   -2.4378534   -2.4378534   -1.7493575  0.027080582   -2.4378534   0.68849593   264187 
  700000   0.63618976    -2.432696    -2.432696    -1.742189  0.043590888    -2.432696   0.69050695   264187 
  710000   0.63621991    -2.429837    -2.429837   -1.7392973  0.037208139    -2.429837   0.69053968   264187 
  720000   0.63783094   -2.4298614   -2.4298614   -1.7375732  0.036882579   -2.4298614   0.69228825   264187 
  730000   0.63724352    -2.428629    -2.428629   -1.7369783  0.034256247    -2.428629   0.69165069   264187 
  740000   0.63845382   -2.4238734   -2.4238734   -1.7309091  0.040932685   -2.4238734   0.69296431   264187 
  750000   0.63714594   -2.4183602   -2.4183602   -1.7268154  0.036212402   -2.4183602   0.69154478   264187 
  760000   0.63988243   -2.4157692   -2.4157692   -1.7212543  0.031514128   -2.4157692   0.69451489   264187 
  770000   0.63895111   -2.4140553   -2.4140553   -1.7205512  0.042554993   -2.4140553   0.69350406   264187 
  780000   0.64047836   -2.4130642   -2.4130642   -1.7179025    0.0329636   -2.4130642    0.6951617   264187 
  790000   0.64003807   -2.4095903   -2.4095903   -1.7149065  0.040438952   -2.4095903   0.69468383   264187 
  800000    0.6422507   -2.4074176   -2.4074176   -1.7103322  0.015634785   -2.4074176   0.69708537   264187 
  810000   0.64305849   -2.4013882   -2.4013882   -1.7034261  0.032223711   -2.4013882   0.69796212   264187 
  820000   0.64183168   -2.3962728   -2.3962728   -1.6996422  0.038444095   -2.3962728   0.69663058   264187 
  830000   0.64284953   -2.3929331   -2.3929331   -1.6951978  0.043347906   -2.3929331   0.69773533   264187 
  840000   0.64477498   -2.3890315   -2.3890315   -1.6892064  0.035907894   -2.3890315   0.69982517   264187 
  850000   0.64460169   -2.3878716   -2.3878716   -1.6882346  0.044083486   -2.3878716   0.69963708   264187 
  860000   0.64391736   -2.3831567   -2.3831567   -1.6842624  0.041913262   -2.3831567   0.69889433   264187 
  870000   0.64379613   -2.3794513   -2.3794513   -1.6806885  0.038928963   -2.3794513   0.69876274   264187 
  880000   0.64609813   -2.3756618   -2.3756618   -1.6744005  0.050996139   -2.3756618   0.70126129   264187 
  890000   0.64518116   -2.3727639   -2.3727639   -1.6724979  0.034902268   -2.3727639   0.70026602   264187 
  900000   0.64616017   -2.3693635   -2.3693635   -1.6680348  0.039569856   -2.3693635   0.70132863   264187 
  910000   0.64736159    -2.366074    -2.366074   -1.6634414  0.045507494    -2.366074   0.70263262   264187 
  920000    0.6475546   -2.3616917   -2.3616917   -1.6588496   0.04261863   -2.3616917   0.70284211   264187 
  930000   0.64908914   -2.3582618   -2.3582618   -1.6537541  0.038671361   -2.3582618   0.70450767   264187 
  940000   0.64907191   -2.3550444   -2.3550444   -1.6505554  0.036985308   -2.3550444   0.70448897   264187 
  950000    0.6487817   -2.3498932   -2.3498932   -1.6457192  0.049471689   -2.3498932   0.70417398   264187 
  960000   0.65013662   -2.3462686   -2.3462686    -1.640624  0.033273386   -2.3462686   0.70564458   264187 
  970000   0.65069159   -2.3435127   -2.3435127   -1.6372657  0.037854667   -2.3435127   0.70624694   264187 
  980000    0.6520015   -2.3416085   -2.3416085   -1.6339398  0.046891944   -2.3416085   0.70766868   264187 
  990000   0.65374322   -2.3389396   -2.3389396   -1.6293805  0.042286779   -2.3389396   0.70955911   264187 
 1000000   0.65388877   -2.3362782   -2.3362782   -1.6265611  0.040093056   -2.3362782   0.70971708   264187 
 1010000   0.65319928   -2.3335085   -2.3335085   -1.6245397   0.04631471   -2.3335085   0.70896873   264187 
 1020000   0.65399191   -2.3292969   -2.3292969   -1.6194679   0.04135172   -2.3292969   0.70982903   264187 
 1030000   0.65580705   -2.3298766   -2.3298766   -1.6180775  0.043035494   -2.3298766   0.71179914   264187 
 1040000    0.6557029   -2.3220178   -2.3220178   -1.6103317  0.045859068   -2.3220178    0.7116861   264187 
 1050000   0.65637676   -2.3197302   -2.3197302   -1.6073127  0.048116172   -2.3197302   0.71241749   264187 
 1060000   0.65682282   -2.3144694   -2.3144694   -1.6015678  0.037349002   -2.3144694   0.71290164   264187 
 1070000   0.65542258   -2.3103023   -2.3103023   -1.5989205  0.041379896   -2.3103023   0.71138185   264187 
 1080000   0.65674646   -2.3062063   -2.3062063   -1.5933875  0.049554395   -2.3062063   0.71281876   264187 
 1090000   0.65947133   -2.3033031   -2.3033031   -1.5875268  0.037389974   -2.3033031   0.71577628   264187 
 1100000    0.6585807   -2.2997091   -2.2997091   -1.5848995  0.042706149   -2.2997091    0.7148096   264187 
 1110000    0.6582723   -2.2972772   -2.2972772   -1.5828024  0.031530934   -2.2972772   0.71447488   264187 
 1120000   0.65940295   -2.2936551   -2.2936551   -1.5779531  0.047686758   -2.2936551   0.71570206   264187 
 1130000   0.65959987   -2.2888585   -2.2888585   -1.5729428  0.047590741   -2.2888585   0.71591579   264187 
 1140000   0.65934744    -2.283489    -2.283489   -1.5678472  0.043208609    -2.283489   0.71564181   264187 
 1150000   0.66423116   -2.2834048   -2.2834048   -1.5624623  0.051065301   -2.2834048    0.7209425   264187 
 1160000   0.66318468   -2.2788643   -2.2788643   -1.5590576  0.041975276   -2.2788643   0.71980667   264187 
 1170000   0.66228909   -2.2754913   -2.2754913   -1.5566567  0.047067357   -2.2754913   0.71883462   264187 
 1180000   0.66305623   -2.2720267   -2.2720267   -1.5523594  0.040475805   -2.2720267   0.71966726   264187 
 1190000   0.66445263   -2.2690207   -2.2690207   -1.5478379  0.041767161   -2.2690207   0.72118288   264187 
 1200000   0.66580224   -2.2688623   -2.2688623   -1.5462145   0.03981771   -2.2688623   0.72264772   264187 
 1210000   0.66386663   -2.2623412   -2.2623412   -1.5417944  0.043360273   -2.2623412   0.72054684   264187 
 1220000   0.66473035   -2.2586453   -2.2586453   -1.5371609     0.053294   -2.2586453   0.72148431   264187 
 1230000   0.66553053    -2.255977    -2.255977   -1.5336242  0.041400609    -2.255977   0.72235281   264187 
 1240000   0.66675615    -2.253059    -2.253059    -1.529376   0.05908111    -2.253059   0.72368307   264187 
 1250000   0.66662772   -2.2498439   -2.2498439   -1.5263003  0.041857272   -2.2498439   0.72354367   264187 
 1260000   0.66733784   -2.2469727   -2.2469727   -1.5226583  0.047696878   -2.2469727   0.72431442   264187 
 1270000   0.66650701   -2.2433285   -2.2433285   -1.5199158  0.050267173   -2.2433285   0.72341266   264187 
 1280000   0.66781859   -2.2406503   -2.2406503   -1.5158141  0.047387936   -2.2406503   0.72483622   264187 
 1290000   0.66951449   -2.2367159   -2.2367159    -1.510039  0.050315288   -2.2367159   0.72667692   264187 
 1300000   0.67086075    -2.236153    -2.236153   -1.5080149  0.061479931    -2.236153   0.72813811   264187 
 1310000   0.67036812   -2.2298823   -2.2298823   -1.5022789  0.041652056   -2.2298823   0.72760342   264187 
 1320000   0.67280114    -2.228833    -2.228833   -1.4985888  0.047369865    -2.228833   0.73024417   264187 
 1330000   0.67019203   -2.2234159   -2.2234159   -1.4960036  0.051613047   -2.2234159    0.7274123   264187 
 1340000   0.67099207   -2.2207072   -2.2207072   -1.4924265  0.044070704   -2.2207072   0.72828065   264187 
 1350000   0.67412028   -2.2199318   -2.2199318   -1.4882559  0.053480627   -2.2199318   0.73167594   264187 
 1360000   0.67388555   -2.2156018   -2.2156018   -1.4841806  0.045939145   -2.2156018   0.73142117   264187 
 1370000   0.67504498    -2.214257    -2.214257   -1.4815774  0.040111232    -2.214257   0.73267959   264187 
 1380000   0.67468776   -2.2113287   -2.2113287   -1.4790368  0.056421512   -2.2113287   0.73229187   264187 
 1390000     0.675587   -2.2079641   -2.2079641   -1.4746962  0.044700921   -2.2079641   0.73326789   264187 
 1400000   0.67618585   -2.2055447   -2.2055447   -1.4716268  0.053451627   -2.2055447   0.73391786   264187 
 1410000   0.67728907   -2.2025642   -2.2025642   -1.4674489   0.04417331   -2.2025642   0.73511528   264187 
 1420000   0.67636106   -2.1986089   -2.1986089   -1.4645009    0.0446185   -2.1986089   0.73410803   264187 
 1430000   0.67695696   -2.1967012   -2.1967012   -1.4619464  0.048480055   -2.1967012   0.73475481   264187 
 1440000   0.67910112   -2.1936197   -2.1936197   -1.4565377  0.051655508   -2.1936197   0.73708204   264187 
 1450000   0.67936927   -2.1876116   -2.1876116   -1.4502385  0.057547152   -2.1876116   0.73737308   264187 
 1460000    0.6783194   -2.1847364   -2.1847364   -1.4485028  0.046989949   -2.1847364   0.73623358   264187 
 1470000   0.68165335   -2.1827942   -2.1827942    -1.442942  0.056972898   -2.1827942   0.73985218   264187 
 1480000   0.68098991   -2.1808312   -2.1808312   -1.4416991  0.056700283   -2.1808312    0.7391321   264187 
 1490000   0.68220111   -2.1789318   -2.1789318   -1.4384851  0.054719439   -2.1789318   0.74044671   264187 
 1500000   0.68294266   -2.1761821   -2.1761821   -1.4349306  0.045038358   -2.1761821   0.74125157   264187 
 1510000   0.68352566   -2.1699418   -2.1699418   -1.4280575  0.062139585   -2.1699418   0.74188435   264187 
 1520000   0.68496979   -2.1674835   -2.1674835   -1.4240318  0.058648071   -2.1674835   0.74345177   264187 
 1530000   0.68555227    -2.162917    -2.162917   -1.4188331  0.046158654    -2.162917   0.74408398   264187 
 1540000   0.68485119   -2.1594591   -2.1594591    -1.416136  0.050891168   -2.1594591   0.74332305   264187 
 1550000   0.68575462    -2.156285    -2.156285   -1.4119813  0.042336834    -2.156285   0.74430361   264187 
 1560000   0.68692335   -2.1529723   -2.1529723   -1.4074002  0.056410492   -2.1529723   0.74557212   264187 
 1570000   0.68803507   -2.1508825   -2.1508825   -1.4041038  0.058583702   -2.1508825   0.74677876   264187 
 1580000    0.6874196   -2.1483571   -2.1483571   -1.4022464  0.048227968   -2.1483571   0.74611075   264187 
 1590000   0.69004593   -2.1465627   -2.1465627   -1.3976014  0.048062314   -2.1465627    0.7489613   264187 
 1600000   0.69135119   -2.1437544   -2.1437544   -1.3933764  0.062463766   -2.1437544   0.75037801   264187 
 1610000    0.6907705   -2.1392164   -2.1392164   -1.3894687  0.055483071   -2.1392164   0.74974774   264187 
 1620000    0.6911296   -2.1378338   -2.1378338   -1.3876963  0.048143893   -2.1378338   0.75013749   264187 
 1630000   0.69245704   -2.1344813   -2.1344813    -1.382903  0.052078854   -2.1344813   0.75157827   264187 
 1640000   0.69161574   -2.1294911   -2.1294911    -1.378826  0.054422697   -2.1294911   0.75066514   264187 
 1650000   0.69227255   -2.1302613   -2.1302613   -1.3788833  0.058335383   -2.1302613   0.75137803   264187 
 1660000   0.69428414   -2.1269253   -2.1269253   -1.3733639  0.053358639   -2.1269253   0.75356137   264187 
 1670000   0.69390664   -2.1228965   -2.1228965   -1.3697448  0.061385818   -2.1228965   0.75315164   264187 
 1680000   0.69357372   -2.1200908   -2.1200908   -1.3673005  0.045434249   -2.1200908   0.75279029   264187 
 1690000   0.69451254   -2.1188973   -2.1188973   -1.3650881  0.049862209   -2.1188973   0.75380927   264187 
 1700000   0.69402424   -2.1165858   -2.1165858   -1.3633065    0.0561219   -2.1165858   0.75327928   264187 
 1710000   0.69496677   -2.1145477   -2.1145477   -1.3602454  0.048730428   -2.1145477   0.75430229   264187 
 1720000   0.69693276   -2.1125825   -2.1125825   -1.3561464  0.047490787   -2.1125825   0.75643613   264187 
 1730000   0.69568992   -2.1068603   -2.1068603   -1.3517731  0.056085852   -2.1068603   0.75508718   264187 
 1740000   0.69705414   -2.1042674   -2.1042674   -1.3476996  0.052502782   -2.1042674   0.75656787   264187 
 1750000   0.69794823    -2.100952    -2.100952   -1.3434137  0.054103265    -2.100952   0.75753829   264187 
 1760000   0.69974137   -2.1028523   -2.1028523   -1.3433678  0.052362368   -2.1028523   0.75948453   264187 
 1770000   0.69903928   -2.0968546   -2.0968546   -1.3381321  0.065986174   -2.0968546    0.7587225   264187 
 1780000   0.70072145   -2.0955071   -2.0955071   -1.3349588  0.058398955   -2.0955071   0.76054829   264187 
 1790000    0.7003415   -2.0920362   -2.0920362   -1.3319003  0.054920364   -2.0920362    0.7601359   264187 
 1800000    0.7006545   -2.0907023   -2.0907023   -1.3302267    0.0470873   -2.0907023   0.76047562   264187 
 1810000   0.70229713   -2.0892722   -2.0892722   -1.3270137  0.063208285   -2.0892722    0.7622585   264187 
 1820000    0.7021863   -2.0843048   -2.0843048   -1.3221666    0.0458349   -2.0843048   0.76213821   264187 
 1830000   0.70333426   -2.0834025   -2.0834025   -1.3200183   0.06461541   -2.0834025   0.76338418   264187 
 1840000   0.70204721   -2.0804043   -2.0804043   -1.3184171  0.056843987   -2.0804043   0.76198724   264187 
 1850000   0.70236564   -2.0755831   -2.0755831   -1.3132503  0.049088119   -2.0755831   0.76233286   264187 
 1860000   0.70251127   -2.0753997   -2.0753997   -1.3129088   0.05484978   -2.0753997   0.76249092   264187 
 1870000   0.70494326   -2.0731454   -2.0731454   -1.3080149  0.051016541   -2.0731454   0.76513055   264187 
 1880000   0.70624744   -2.0697814   -2.0697814   -1.3032353  0.052189233   -2.0697814   0.76654609   264187 
 1890000   0.70622124   -2.0654909   -2.0654909   -1.2989733  0.058203761   -2.0654909   0.76651765   264187 
 1900000   0.70680401   -2.0628309   -2.0628309   -1.2956807   0.05953271   -2.0628309   0.76715017   264187 
 1910000    0.7082136    -2.061595    -2.061595   -1.2929149   0.05404046    -2.061595   0.76868011   264187 
 1920000    0.7080349   -2.0597483   -2.0597483   -1.2912621  0.059654971   -2.0597483   0.76848615   264187 
 1930000    0.7100054    -2.059199    -2.059199   -1.2885741  0.058580695    -2.059199   0.77062489   264187 
 1940000   0.71053514   -2.0561852   -2.0561852   -1.2849854  0.049466081   -2.0561852   0.77119986   264187 
 1950000   0.71224974   -2.0556243   -2.0556243   -1.2825634  0.056114393   -2.0556243   0.77306086   264187 
 1960000    0.7097811   -2.0525336   -2.0525336   -1.2821522  0.061220337   -2.0525336   0.77038144   264187 
 1970000   0.71234159   -2.0494896   -2.0494896   -1.2763291  0.047690565   -2.0494896   0.77316054   264187 
 1980000   0.71095639   -2.0468796   -2.0468796   -1.2752226  0.066163281   -2.0468796   0.77165707   264187 
 1990000   0.71431597   -2.0476236   -2.0476236   -1.2723201    0.0650418   -2.0476236    0.7753035   264187 
 2000000    0.7137936   -2.0449907   -2.0449907   -1.2702541  0.064898231   -2.0449907   0.77473652   264187 
 2010000   0.71194053   -2.0411284   -2.0411284   -1.2684032  0.060799719   -2.0411284   0.77272524   264187 
 2020000   0.71459945    -2.042843    -2.042843   -1.2672318  0.056800651    -2.042843   0.77561118   264187 
 2030000   0.71338609    -2.037433    -2.037433   -1.2631388  0.057297553    -2.037433   0.77429423   264187 
 2040000   0.71490537   -2.0352265   -2.0352265   -1.2592833  0.052229069   -2.0352265   0.77594321   264187 
 2050000   0.71467284   -2.0337106   -2.0337106   -1.2580198  0.058130906   -2.0337106   0.77569083   264187 
 2060000   0.71430034   -2.0334921   -2.0334921   -1.2582055  0.063923432   -2.0334921   0.77528652   264187 
 2070000   0.71610227   -2.0288913   -2.0288913    -1.251649  0.053472359   -2.0288913    0.7772423   264187 
 2080000   0.71841338   -2.0267931   -2.0267931   -1.2470423  0.063796783   -2.0267931   0.77975074   264187 
 2090000   0.71772217   -2.0231654   -2.0231654   -1.2441649   0.06816291   -2.0231654   0.77900051   264187 
 2100000   0.71884933     -2.02295     -2.02295   -1.2427261    0.0511173     -2.02295    0.7802239   264187 
 2110000   0.71630125   -2.0164875   -2.0164875   -1.2390292  0.064231714   -2.0164875   0.77745827   264187 
 2120000   0.71717874    -2.015609    -2.015609   -1.2371984  0.060441138    -2.015609   0.77841068   264187 
 2130000   0.71949754   -2.0151259   -2.0151259   -1.2341984   0.05940989   -2.0151259   0.78092746   264187 
 2140000   0.72058144   -2.0156876   -2.0156876   -1.2335837  0.057507784   -2.0156876    0.7821039   264187 
 2150000   0.72010155    -2.013623    -2.013623   -1.2320399  0.063951988    -2.013623   0.78158304   264187 
 2160000   0.72033899    -2.007169    -2.007169   -1.2253283  0.054683847    -2.007169   0.78184075   264187 
 2170000    0.7212903   -2.0067156   -2.0067156   -1.2238423  0.065259548   -2.0067156   0.78287329   264187 
 2180000   0.72134105   -2.0036777   -2.0036777   -1.2207493  0.071360922   -2.0036777   0.78292837   264187 
 2190000   0.72395888   -2.0021023   -2.0021023   -1.2163326   0.06854624   -2.0021023   0.78576971   264187 
 2200000   0.72459122   -2.0007581   -2.0007581   -1.2143021  0.054473792   -2.0007581   0.78645603   264187 
 2210000   0.72314058   -1.9983685   -1.9983685   -1.2134869  0.074449105   -1.9983685   0.78488154   264187 
 2220000   0.72621252   -1.9976905   -1.9976905   -1.2094747  0.061955864   -1.9976905   0.78821576   264187 
 2230000   0.72536302   -1.9956279   -1.9956279   -1.2083341   0.06444394   -1.9956279   0.78729373   264187 
 2240000   0.72511129   -1.9936741   -1.9936741   -1.2066536  0.073653471   -1.9936741    0.7870205   264187 
 2250000    0.7267485   -1.9904681   -1.9904681   -1.2016706  0.061499362   -1.9904681    0.7887975   264187 
 2260000    0.7258659   -1.9890398   -1.9890398   -1.2012003  0.055575328   -1.9890398   0.78783954   264187 
 2270000   0.72959436   -1.9868955   -1.9868955   -1.1950092  0.067209783   -1.9868955   0.79188634   264187 
 2280000   0.73034949    -1.984955    -1.984955   -1.1922491  0.063491069    -1.984955   0.79270594   264187 
 2290000   0.73070663   -1.9835606   -1.9835606   -1.1904671   0.06588787   -1.9835606   0.79309358   264187 
 2300000   0.73162115   -1.9824845   -1.9824845   -1.1883984  0.066194858   -1.9824845   0.79408617   264187 
 2310000   0.73027969     -1.97688     -1.97688   -1.1842499   0.06940058     -1.97688   0.79263018   264187 
 2320000   0.73255004   -1.9753095   -1.9753095   -1.1802152  0.074546766   -1.9753095   0.79509437   264187 
 2330000   0.73228396   -1.9753908   -1.9753908   -1.1805853  0.058657834   -1.9753908   0.79480557   264187 
 2340000   0.73387853   -1.9727913   -1.9727913   -1.1762551  0.068361399   -1.9727913   0.79653629   264187 
 2350000   0.73324726    -1.972296    -1.972296   -1.1764449  0.062551164    -1.972296   0.79585111   264187 
 2360000   0.73389325   -1.9678975   -1.9678975   -1.1713452  0.069909861   -1.9678975   0.79655226   264187 
 2370000   0.73417363   -1.9646339   -1.9646339   -1.1677773  0.067833592   -1.9646339   0.79685658   264187 
 2380000   0.73460128    -1.962631    -1.962631   -1.1653102  0.071813709    -1.962631   0.79732074   264187 
 2390000   0.73786258   -1.9638233   -1.9638233   -1.1629628  0.075080758   -1.9638233   0.80086049   264187 
 2400000    0.7371035   -1.9600288   -1.9600288   -1.1599922  0.071301502   -1.9600288   0.80003659   264187 
 2410000   0.73544238   -1.9562264   -1.9562264   -1.1579928  0.065931207   -1.9562264   0.79823366   264187 
 2420000   0.73830336   -1.9579499   -1.9579499    -1.156611  0.054514111   -1.9579499   0.80133891   264187 
 2430000   0.73798095   -1.9557235   -1.9557235   -1.1547345  0.065131817   -1.9557235   0.80098897   264187 
 2440000   0.73925549   -1.9564044   -1.9564044    -1.154032  0.072007627   -1.9564044   0.80237232   264187 
 2450000   0.73942184   -1.9513096   -1.9513096   -1.1487567  0.069652742   -1.9513096   0.80255288   264187 
 2460000   0.74041744   -1.9492128   -1.9492128   -1.1455794  0.065018744   -1.9492128   0.80363348   264187 
 2470000   0.73899823   -1.9469939   -1.9469939   -1.1449008  0.061496637   -1.9469939    0.8020931   264187 
 2480000   0.74008901   -1.9449307   -1.9449307   -1.1416537  0.059935143   -1.9449307   0.80327701   264187 
 2490000   0.74138757   -1.9438944   -1.9438944    -1.139208  0.065616463   -1.9438944   0.80468644   264187 
 2500000    0.7431887   -1.9424186   -1.9424186   -1.1357772  0.074900922   -1.9424186   0.80664135   264187 
 2510000   0.74447195   -1.9400109   -1.9400109   -1.1319767  0.072028727   -1.9400109   0.80803416   264187 
 2520000   0.74414439   -1.9381735   -1.9381735   -1.1304949  0.072423107   -1.9381735   0.80767864   264187 
 2530000   0.74286479   -1.9348593   -1.9348593   -1.1285696  0.072555294   -1.9348593   0.80628978   264187 
 2540000   0.74335019   -1.9328054   -1.9328054   -1.1259887  0.078906491   -1.9328054   0.80681662   264187 
 2550000   0.74625226   -1.9327942   -1.9327942   -1.1228278   0.06131411   -1.9327942   0.80996647   264187 
 2560000   0.74727762    -1.930358    -1.930358   -1.1192786  0.070484457    -1.930358   0.81107937   264187 
 2570000   0.74556319   -1.9284816   -1.9284816    -1.119263  0.060341769   -1.9284816   0.80921857   264187 
 2580000   0.74732337   -1.9275377   -1.9275377   -1.1164087  0.068926247   -1.9275377   0.81112903   264187 
 2590000   0.74747653   -1.9269213   -1.9269213   -1.1156261  0.071613301   -1.9269213   0.81129527   264187 
 2600000   0.74899461   -1.9256236   -1.9256236   -1.1126806   0.08410196   -1.9256236   0.81294296   264187 
 2610000   0.74820789   -1.9255977   -1.9255977   -1.1135087  0.063508628   -1.9255977   0.81208907   264187 
 2620000    0.7489203   -1.9218742   -1.9218742   -1.1090119  0.079432132   -1.9218742    0.8128623   264187 
 2630000   0.74851209   -1.9185403   -1.9185403    -1.106121  0.074343462   -1.9185403   0.81241925   264187 
 2640000   0.74869487   -1.9174676   -1.9174676     -1.10485  0.074462396   -1.9174676   0.81261762   264187 
 2650000   0.75073277   -1.9170992   -1.9170992   -1.1022697  0.067262173   -1.9170992   0.81482953   264187 
 2660000   0.75239956   -1.9175204   -1.9175204   -1.1008818  0.068059982   -1.9175204   0.81663862   264187 
 2670000   0.75250157   -1.9156752   -1.9156752   -1.0989258  0.075731521   -1.9156752   0.81674934   264187 
 2680000   0.75186897   -1.9124164   -1.9124164   -1.0963537  0.075608121   -1.9124164   0.81606273   264187 
 2690000   0.75476026   -1.9144384   -1.9144384   -1.0952376   0.07924638   -1.9144384   0.81920087   264187 
 2700000   0.75336286   -1.9095529   -1.9095529   -1.0918688   0.06902726   -1.9095529   0.81768417   264187 
 2710000   0.75469727   -1.9090771   -1.9090771   -1.0899446  0.074001097   -1.9090771   0.81913251   264187 
 2720000   0.75417151   -1.9082401   -1.9082401   -1.0896782  0.077705668   -1.9082401   0.81856186   264187 
 2730000   0.75613622    -1.906808    -1.906808   -1.0861137  0.069461044    -1.906808   0.82069431   264187 
 2740000   0.75656698   -1.9065431   -1.9065431   -1.0853812  0.066879776   -1.9065431   0.82116184   264187 
 2750000   0.75702411   -1.9059846   -1.9059846   -1.0843266  0.077689545   -1.9059846   0.82165801   264187 
 2760000   0.75865074    -1.904586    -1.904586   -1.0811625  0.070395086    -1.904586   0.82342351   264187 
 2770000    0.7581443   -1.9000441   -1.9000441   -1.0771703  0.067468595   -1.9000441   0.82287384   264187 
 2780000   0.75875474   -1.8986071   -1.8986071   -1.0750707  0.061756797   -1.8986071    0.8235364   264187 
 2790000   0.75876577   -1.8953516   -1.8953516   -1.0718032  0.065051405   -1.8953516   0.82354837   264187 
 2800000   0.75905764   -1.8917128   -1.8917128   -1.0678477  0.070929096   -1.8917128   0.82386515   264187 
 2810000   0.76196436   -1.8924092   -1.8924092   -1.0653892  0.076014619   -1.8924092   0.82702005   264187 
 2820000   0.76084407   -1.8902881   -1.8902881    -1.064484  0.075662891   -1.8902881   0.82580411   264187 
 2830000    0.7621654   -1.8894743   -1.8894743   -1.0622361  0.077741693   -1.8894743   0.82723826   264187 
 2840000   0.76237472   -1.8880911   -1.8880911   -1.0606256  0.067463989   -1.8880911   0.82746544   264187 
 2850000   0.76380502   -1.8861878   -1.8861878   -1.0571699  0.076821137   -1.8861878   0.82901786   264187 
 2860000   0.76310125   -1.8841239   -1.8841239   -1.0558699   0.08586759   -1.8841239   0.82825401   264187 
 2870000   0.76031685   -1.8817887   -1.8817887   -1.0565568  0.071760677   -1.8817887   0.82523188   264187 
 2880000    0.7653089   -1.8826317   -1.8826317   -1.0519815  0.067433894   -1.8826317   0.83065014   264187 
 2890000   0.76520498   -1.8778794   -1.8778794    -1.047342   0.07043855   -1.8778794   0.83053736   264187 
 2900000   0.76514021   -1.8752365   -1.8752365   -1.0447694  0.076788155   -1.8752365   0.83046705   264187 
 2910000   0.76763931   -1.8764599   -1.8764599   -1.0432804  0.072006442   -1.8764599   0.83317952   264187 
 2920000   0.76727094   -1.8701794   -1.8701794   -1.0373997   0.07597161   -1.8701794   0.83277971   264187 
 2930000   0.76873821   -1.8706092   -1.8706092    -1.036237  0.073354909   -1.8706092   0.83437225   264187 
 2940000   0.77013535   -1.8692313   -1.8692313   -1.0333426  0.074838145   -1.8692313   0.83588867   264187 
 2950000   0.77099485   -1.8678114   -1.8678114   -1.0309899  0.082225542   -1.8678114   0.83682156   264187 
 2960000   0.76940141   -1.8662965   -1.8662965   -1.0312044  0.075416909   -1.8662965   0.83509207   264187 
 2970000   0.77199395   -1.8688411   -1.8688411   -1.0309351  0.074953197   -1.8688411   0.83790596   264187 
 2980000   0.76956018   -1.8626032   -1.8626032   -1.0273388  0.073437552   -1.8626032   0.83526439   264187 
 2990000   0.77154955   -1.8633139   -1.8633139   -1.0258903   0.07621344   -1.8633139   0.83742362   264187 
 3000000   0.77069843   -1.8616026   -1.8616026   -1.0251028  0.083678253   -1.8616026   0.83649982   264187 
 3010000   0.77151929   -1.8585133   -1.8585133   -1.0211226  0.072863748   -1.8585133   0.83739077   264187 
 3020000   0.77321946   -1.8591525   -1.8591525   -1.0199164   0.07426434   -1.8591525   0.83923609   264187 
 3030000   0.77356048   -1.8579136   -1.8579136   -1.0183074  0.083316301   -1.8579136   0.83960623   264187 
 3040000   0.77602203   -1.8583688   -1.8583688   -1.0160909   0.06441004   -1.8583688   0.84227795   264187 
 3050000   0.77688131   -1.8563007   -1.8563007   -1.0130901  0.080249597   -1.8563007   0.84321059   264187 
 3060000   0.77681176   -1.8553457   -1.8553457   -1.0122106  0.087757225   -1.8553457    0.8431351   264187 
 3070000   0.77977213   -1.8555396   -1.8555396   -1.0091913  0.080553344   -1.8555396   0.84634822   264187 
 3080000   0.77913525   -1.8498514   -1.8498514   -1.0041945  0.077648064   -1.8498514   0.84565697   264187 
 3090000   0.78032293   -1.8507716   -1.8507716   -1.0038256  0.082310603   -1.8507716   0.84694606   264187 
 3100000   0.77927256    -1.847392    -1.847392    -1.001586   0.08131767    -1.847392     0.845806   264187 
 3110000   0.78072414   -1.8473935   -1.8473935    -1.000012  0.085530472   -1.8473935   0.84738152   264187 
 3120000   0.78242634   -1.8471245   -1.8471245  -0.99789548  0.071227302   -1.8471245   0.84922906   264187 
 3130000   0.78204012   -1.8455891   -1.8455891  -0.99677929  0.077551781   -1.8455891   0.84880986   264187 
 3140000   0.78319965   -1.8441881   -1.8441881  -0.99411972  0.085927879   -1.8441881   0.85006839   264187 
 3150000   0.78071017    -1.841516    -1.841516  -0.99414963   0.08137917    -1.841516   0.84736636   264187 
 3160000   0.78457733   -1.8431165   -1.8431165  -0.99155284  0.081611073   -1.8431165   0.85156369   264187 
 3170000    0.7828072   -1.8364677   -1.8364677  -0.98682522  0.083519471   -1.8364677   0.84964243   264187 
 3180000   0.78287906   -1.8364277   -1.8364277  -0.98670732  0.086856567   -1.8364277   0.84972042   264187 
 3190000   0.78582601   -1.8388759   -1.8388759  -0.98595689   0.08157806   -1.8388759   0.85291899   264187 
 3200000   0.78758519      -1.8366      -1.8366  -0.98177164  0.069169336      -1.8366   0.85482836   264187 
 3210000   0.78494748    -1.833217    -1.833217  -0.98125159   0.08588701    -1.833217   0.85196545   264187 
 3220000   0.78425629   -1.8310075   -1.8310075  -0.97979228  0.078645862   -1.8310075   0.85121524   264187 
 3230000   0.78719924   -1.8333474   -1.8333474  -0.97893796   0.08352518   -1.8333474   0.85440946   264187 
 3240000   0.78798536   -1.8316569   -1.8316569  -0.97639422  0.083023375   -1.8316569    0.8552627   264187 
 3250000   0.79005448   -1.8307773   -1.8307773  -0.97326882  0.084931716   -1.8307773   0.85750847   264187 
 3260000    0.7895914   -1.8296901   -1.8296901  -0.97268426  0.085536123   -1.8296901   0.85700586   264187 
 3270000   0.79150938   -1.8276215   -1.8276215  -0.96853389  0.087297653   -1.8276215    0.8590876   264187 
 3280000   0.79043526   -1.8268832   -1.8268832   -0.9689614   0.08029349   -1.8268832   0.85792177   264187 
 3290000   0.79076112   -1.8276986   -1.8276986  -0.96942313  0.079927755   -1.8276986   0.85827545   264187 
 3300000   0.79229154   -1.8279455   -1.8279455  -0.96800897  0.081663641   -1.8279455   0.85993653   264187 
 3310000    0.7925728   -1.8254433   -1.8254433  -0.96520154  0.088121761   -1.8254433    0.8602418   264187 
 3320000   0.79462092    -1.827062    -1.827062  -0.96459716  0.074180204    -1.827062   0.86246479   264187 
 3330000   0.79220848   -1.8236008   -1.8236008  -0.96375443  0.094417698   -1.8236008   0.85984638   264187 
 3340000   0.79303821   -1.8193772   -1.8193772   -0.9586303  0.082187057   -1.8193772   0.86074695   264187 
 3350000   0.79525935   -1.8205677   -1.8205677     -0.95741  0.076831724   -1.8205677   0.86315773   264187 
 3360000   0.79425513   -1.8172164   -1.8172164  -0.95514863  0.077435451   -1.8172164   0.86206777   264187 
 3370000   0.79345127   -1.8158207   -1.8158207  -0.95462543  0.084530059   -1.8158207   0.86119528   264187 
 3380000   0.79509769   -1.8147178   -1.8147178  -0.95173555  0.080990509   -1.8147178   0.86298228   264187 
 3390000   0.79566356   -1.8138041   -1.8138041  -0.95020766  0.087372055   -1.8138041   0.86359645   264187 
 3400000   0.79481513   -1.8131018   -1.8131018  -0.95042625  0.095059945   -1.8131018   0.86267559   264187 
 3410000   0.79730792   -1.8115873   -1.8115873  -0.94620614  0.083134852   -1.8115873   0.86538121   264187 
 3420000   0.79812392   -1.8113464   -1.8113464  -0.94507956  0.081964521   -1.8113464   0.86626687   264187 
 3430000    0.7989983   -1.8101211   -1.8101211   -0.9429052  0.080597944   -1.8101211   0.86721591   264187 
 3440000   0.79835477   -1.8081545   -1.8081545  -0.94163702  0.088469926   -1.8081545   0.86651744   264187 
 3450000   0.80137727   -1.8081957   -1.8081957  -0.93839767  0.076868343   -1.8081957   0.86979799   264187 
 3460000   0.80101768   -1.8066647   -1.8066647  -0.93725699  0.080251415   -1.8066647    0.8694077   264187 
 3470000   0.80290382   -1.8058863   -1.8058863   -0.9344314  0.069602795   -1.8058863   0.87145488   264187 
 3480000   0.80338428   -1.8034887   -1.8034887  -0.93151234  0.087908762   -1.8034887   0.87197636   264187 
 3490000   0.80251397   -1.7994894   -1.7994894  -0.92845767  0.081070514   -1.7994894   0.87103175   264187 
 3500000   0.80442163   -1.8003083   -1.8003083  -0.92720607  0.079412184   -1.8003083   0.87310228   264187 
 3510000   0.80668336   -1.8025212   -1.8025212  -0.92696408  0.087619981   -1.8025212   0.87555711   264187 
 3520000   0.80541652   -1.7962597   -1.7962597  -0.92207761   0.09015009   -1.7962597   0.87418211   264187 
 3530000   0.80659708   -1.7963963   -1.7963963  -0.92093286  0.074962145   -1.7963963   0.87546347   264187 
 3540000    0.8072842   -1.7951543   -1.7951543  -0.91894502  0.084697558   -1.7951543   0.87620926   264187 
 3550000   0.80760459   -1.7963121   -1.7963121  -0.91975514  0.079667368   -1.7963121     0.876557   264187 
 3560000   0.80804854   -1.7958199   -1.7958199  -0.91878102  0.083919045   -1.7958199   0.87703884   264187 
 3570000   0.80732412   -1.7953305   -1.7953305  -0.91907791   0.08393683   -1.7953305   0.87625258   264187 
 3580000   0.80748937   -1.7931051   -1.7931051   -0.9166732  0.081903936   -1.7931051   0.87643194   264187 
 3590000     0.809843    -1.793319    -1.793319  -0.91433248  0.096535814    -1.793319   0.87898652   264187 
 3600000   0.80941693   -1.7934415   -1.7934415  -0.91491745  0.090745733   -1.7934415   0.87852407   264187 
 3610000   0.80924523   -1.7893323   -1.7893323  -0.91099458  0.082723423   -1.7893323   0.87833771   264187 
 3620000   0.80985917   -1.7878236   -1.7878236  -0.90881953  0.094767202   -1.7878236   0.87900407   264187 
 3630000   0.81267411   -1.7913271   -1.7913271  -0.90926771  0.087302589   -1.7913271   0.88205934   264187 
 3640000   0.81249531   -1.7871562   -1.7871562  -0.90529092  0.096606118   -1.7871562   0.88186528   264187 
 3650000   0.81294679   -1.7851563   -1.7851563  -0.90280097  0.094101093   -1.7851563    0.8823553   264187 
 3660000   0.81389968   -1.7837351   -1.7837351  -0.90034551  0.099579528   -1.7837351   0.88338956   264187 
 3670000   0.81487051   -1.7846634   -1.7846634  -0.90022013  0.093462579   -1.7846634   0.88444327   264187 
 3680000   0.81792279   -1.7860493   -1.7860493  -0.89829312   0.09112348   -1.7860493   0.88775615   264187 
 3690000   0.81572576   -1.7844055   -1.7844055  -0.89903401  0.089876045   -1.7844055   0.88537154   264187 
 3700000   0.81435279   -1.7813307   -1.7813307  -0.89744937  0.085604444   -1.7813307   0.88388135   264187 
 3710000   0.81514308   -1.7786645   -1.7786645  -0.89392534   0.09868806   -1.7786645   0.88473911   264187 
 3720000   0.81917587   -1.7794794   -1.7794794   -0.8903632  0.080612184   -1.7794794   0.88911622   264187 
 3730000   0.82074145   -1.7800134   -1.7800134   -0.8891979  0.083574254   -1.7800134   0.89081547   264187 
 3740000   0.81949756   -1.7762726   -1.7762726  -0.88680722  0.075242929   -1.7762726   0.88946537   264187 
 3750000   0.81830812   -1.7742909   -1.7742909  -0.88611653  0.089249381   -1.7742909   0.88817438   264187 
 3760000   0.81933351   -1.7732765   -1.7732765  -0.88398917  0.091614797   -1.7732765   0.88928731   264187 
 3770000   0.82159732   -1.7730649   -1.7730649   -0.8813205  0.081914433   -1.7730649   0.89174441   264187 
 3780000   0.82212402   -1.7724908   -1.7724908  -0.88017469  0.083491675   -1.7724908   0.89231608   264187 
 3790000   0.82143787   -1.7704321   -1.7704321  -0.87886077  0.087176524   -1.7704321   0.89157135   264187 
 3800000    0.8230221   -1.7677771   -1.7677771  -0.87448626  0.089068416   -1.7677771   0.89329084   264187 
 3810000   0.82149628   -1.7684562   -1.7684562  -0.87682143  0.095670839   -1.7684562   0.89163474   264187 
 3820000   0.82258058   -1.7679505   -1.7679505  -0.87513889  0.094977222   -1.7679505   0.89281162   264187 
 3830000   0.82191612   -1.7657932   -1.7657932  -0.87370275  0.094112225   -1.7657932   0.89209043   264187 
 3840000   0.82398587   -1.7665022   -1.7665022   -0.8721653  0.085505066   -1.7665022    0.8943369   264187 
 3850000   0.82494647   -1.7679758   -1.7679758  -0.87259632  0.084949982   -1.7679758    0.8953795   264187 
 3860000   0.82496953   -1.7665779   -1.7665779   -0.8711734    0.0969325   -1.7665779   0.89540454   264187 
 3870000   0.82370078   -1.7616926   -1.7616926  -0.86766516  0.089760062   -1.7616926   0.89402746   264187 
 3880000   0.82695029   -1.7641351   -1.7641351  -0.86658066  0.092218066   -1.7641351   0.89755441   264187 
 3890000   0.82922685   -1.7617449   -1.7617449  -0.86171953  0.086410868   -1.7617449   0.90002534   264187 
 3900000   0.82763047   -1.7591534   -1.7591534  -0.86086078  0.087223085   -1.7591534   0.89829266   264187 
 3910000   0.82754184    -1.758672    -1.758672  -0.86047549  0.079128426    -1.758672   0.89819647   264187 
 3920000   0.82982375   -1.7593706   -1.7593706  -0.85869735  0.094309829   -1.7593706   0.90067321   264187 
 3930000   0.83210903    -1.760341    -1.760341  -0.85718744  0.098209034    -1.760341    0.9031536   264187 
 3940000   0.83083331   -1.7589372   -1.7589372  -0.85716822   0.10489171   -1.7589372   0.90176896   264187 
 3950000   0.83206995   -1.7572385   -1.7572385  -0.85412735   0.10083931   -1.7572385   0.90311118   264187 
 3960000   0.83218012   -1.7570718   -1.7570718  -0.85384109  0.091476484   -1.7570718   0.90323075   264187 
 3970000   0.83305502   -1.7552101   -1.7552101  -0.85102974  0.096908321   -1.7552101   0.90418036   264187 
 3980000   0.83348695   -1.7537905   -1.7537905  -0.84914133  0.097005455   -1.7537905   0.90464917   264187 
 3990000   0.83319331   -1.7533025   -1.7533025  -0.84897203  0.083357095   -1.7533025   0.90433045   264187 
 4000000   0.83292593   -1.7507202   -1.7507202  -0.84667998  0.096578752   -1.7507202   0.90404025   264187 
 4010000   0.83316839   -1.7492786   -1.7492786  -0.84497524  0.089814441   -1.7492786    0.9043034   264187 
 4020000   0.83538353   -1.7502443   -1.7502443  -0.84353664   0.10103828   -1.7502443   0.90670767   264187 
 4030000   0.83582081   -1.7494031   -1.7494031  -0.84222081  0.092478902   -1.7494031   0.90718229   264187 
 4040000   0.83639385   -1.7481926   -1.7481926  -0.84038834  0.083133194   -1.7481926   0.90780426   264187 
 4050000     0.836456    -1.745538    -1.745538  -0.83766627  0.090172432    -1.745538   0.90787171   264187 
 4060000   0.83590146   -1.7437219   -1.7437219  -0.83645204  0.096399373   -1.7437219   0.90726982   264187 
 4070000   0.83721721   -1.7430481   -1.7430481  -0.83435023  0.093129778   -1.7430481    0.9086979   264187 
 4080000   0.83707578   -1.7442256   -1.7442256  -0.83568118  0.096860595   -1.7442256    0.9085444   264187 
 4090000   0.84006019   -1.7458004   -1.7458004  -0.83401676  0.088604441   -1.7458004   0.91178362   264187 
 4100000   0.83929789   -1.7419493   -1.7419493  -0.83099302  0.089876083   -1.7419493   0.91095624   264187 
 4110000   0.83908227   -1.7401265   -1.7401265   -0.8294043   0.10052339   -1.7401265   0.91072221   264187 
 4120000   0.83945103   -1.7382221   -1.7382221  -0.82709962   0.10002816   -1.7382221   0.91112245   264187 
 4130000   0.83929426    -1.737817    -1.737817  -0.82686469  0.091720211    -1.737817   0.91095229   264187 
 4140000   0.84036985    -1.736539    -1.736539  -0.82441924  0.089212367    -1.736539   0.91211972   264187 
 4150000   0.84192339   -1.7352559   -1.7352559  -0.82144998  0.093799915   -1.7352559    0.9138059   264187 
 4160000   0.84283085   -1.7322259   -1.7322259  -0.81743504   0.10227802   -1.7322259   0.91479083   264187 
 4170000   0.84460752   -1.7355305   -1.7355305  -0.81881129  0.090238711   -1.7355305    0.9167192   264187 
 4180000   0.84504396    -1.734234    -1.734234  -0.81704106   0.10044397    -1.734234    0.9171929   264187 
 4190000   0.84392357   -1.7329658   -1.7329658  -0.81698898  0.093712277   -1.7329658   0.91597685   264187 
 4200000   0.84449791   -1.7309947   -1.7309947  -0.81439451   0.10810762   -1.7309947   0.91660023   264187 
 4210000   0.84442398   -1.7315997   -1.7315997  -0.81507975  0.093797375   -1.7315997   0.91651999   264187 
 4220000   0.84535984   -1.7298105   -1.7298105  -0.81227478   0.10760266   -1.7298105   0.91753575   264187 
 4230000   0.84967183   -1.7316723   -1.7316723  -0.80945639  0.090166586   -1.7316723   0.92221589   264187 
 4240000   0.84938016   -1.7308503   -1.7308503  -0.80895098  0.089937346   -1.7308503   0.92189932   264187 
 4250000   0.84897393   -1.7274596   -1.7274596  -0.80600124  0.089062859   -1.7274596   0.92145841   264187 
 4260000   0.84873922   -1.7282032   -1.7282032  -0.80699957  0.099846161   -1.7282032   0.92120365   264187 
 4270000   0.84912924   -1.7275664   -1.7275664  -0.80593943  0.099382786   -1.7275664   0.92162698   264187 
 4280000   0.84929734   -1.7270033   -1.7270033  -0.80519391  0.096241516   -1.7270033   0.92180943   264187 
 4290000   0.84839177   -1.7249736   -1.7249736  -0.80414702   0.10189921   -1.7249736   0.92082654   264187 
 4300000   0.84868775   -1.7209957   -1.7209957  -0.79984788  0.095337263   -1.7209957   0.92114779   264187 
 4310000   0.85075165    -1.720487    -1.720487   -0.7970991  0.095674619    -1.720487   0.92338791   264187 
 4320000   0.85001141   -1.7202786   -1.7202786  -0.79769418  0.091557551   -1.7202786   0.92258446   264187 
 4330000   0.85102219   -1.7205583   -1.7205583  -0.79687677  0.097976231   -1.7205583   0.92368155   264187 
 4340000   0.85320572   -1.7197013   -1.7197013  -0.79364984   0.10342635   -1.7197013    0.9260515   264187 
 4350000   0.85267866   -1.7206132   -1.7206132  -0.79513377  0.092583075   -1.7206132   0.92547944   264187 
 4360000   0.85398523   -1.7202529   -1.7202529  -0.79335531  0.093531489   -1.7202529   0.92689756   264187 
 4370000   0.85448565   -1.7183616   -1.7183616  -0.79092085   0.10398413   -1.7183616   0.92744071   264187 
 4380000   0.85569019   -1.7184163   -1.7184163  -0.78966816   0.10888157   -1.7184163   0.92874809   264187 
 4390000    0.8563457   -1.7188056   -1.7188056  -0.78934607   0.10245047   -1.7188056   0.92945957   264187 
 4400000   0.85553157   -1.7144153   -1.7144153  -0.78583936  0.095779646   -1.7144153   0.92857593   264187 
 4410000   0.85713317    -1.714013    -1.714013  -0.78369875  0.097609158    -1.714013   0.93031427   264187 
 4420000   0.85616688   -1.7118719   -1.7118719  -0.78260646  0.095851748   -1.7118719   0.92926548   264187 
 4430000   0.85936139   -1.7129522   -1.7129522  -0.78021948  0.099059072   -1.7129522   0.93273274   264187 
 4440000   0.85858353   -1.7102919   -1.7102919  -0.77840342   0.10485858   -1.7102919   0.93188846   264187 
 4450000   0.85830822    -1.709017    -1.709017  -0.77742737   0.10160727    -1.709017   0.93158964   264187 
 4460000   0.85859271   -1.7069547   -1.7069547  -0.77505632   0.10324328   -1.7069547   0.93189843   264187 
 4470000   0.86157472   -1.7091052   -1.7091052  -0.77397015  0.096501551   -1.7091052   0.93513503   264187 
 4480000   0.86095388    -1.707826    -1.707826  -0.77336476   0.10707333    -1.707826   0.93446119   264187 
 4490000   0.86231464    -1.706264    -1.706264  -0.77032591   0.09727814    -1.706264   0.93593813   264187 
 4500000   0.86166192   -1.7056775   -1.7056775  -0.77044782  0.093842534   -1.7056775   0.93522969   264187 
 4510000   0.86473011   -1.7068981   -1.7068981  -0.76833831    0.1085503   -1.7068981   0.93855983   264187 
 4520000   0.86363068   -1.7049811   -1.7049811  -0.76761459   0.10581141   -1.7049811   0.93736653   264187 
 4530000   0.86509113   -1.7046491   -1.7046491  -0.76569741   0.10184311   -1.7046491   0.93895168   264187 
 4540000   0.86490279   -1.7000284   -1.7000284  -0.76128117  0.085344316   -1.7000284   0.93874726   264187 
 4550000   0.86454337   -1.6991278   -1.6991278  -0.76077067   0.10356061   -1.6991278   0.93835715   264187 
 4560000   0.86543514   -1.6987395   -1.6987395  -0.75941442    0.1025446   -1.6987395   0.93932506   264187 
 4570000   0.86689094   -1.6992681   -1.6992681  -0.75836296  0.099016566   -1.6992681   0.94090515   264187 
 4580000   0.86848566    -1.700311    -1.700311  -0.75767496  0.096260084    -1.700311   0.94263603   264187 
 4590000   0.86769955   -1.6982594   -1.6982594  -0.75647664  0.094556289   -1.6982594    0.9417828   264187 
 4600000   0.86543606   -1.6954989   -1.6954989  -0.75617289   0.10340247   -1.6954989   0.93932606   264187 
 4610000   0.86944395    -1.695886    -1.695886  -0.75220989   0.10893033    -1.695886   0.94367613   264187 
 4620000   0.86910653    -1.695866    -1.695866  -0.75255608   0.10004591    -1.695866    0.9433099   264187 
 4630000   0.87048916   -1.6954037   -1.6954037  -0.75059316   0.11055388   -1.6954037   0.94481059   264187 
 4640000   0.87192427   -1.6946247   -1.6946247  -0.74825646   0.10876636   -1.6946247   0.94636822   264187 
 4650000    0.8721748   -1.6944566   -1.6944566  -0.74781645   0.10361289   -1.6944566   0.94664014   264187 
 4660000   0.87281316   -1.6924376   -1.6924376   -0.7451046   0.10498994   -1.6924376     0.947333   264187 
 4670000   0.87333294   -1.6901362   -1.6901362  -0.74223901   0.10618101   -1.6901362   0.94789716   264187 
 4680000   0.87403877   -1.6873765   -1.6873765  -0.73871329    0.1072667   -1.6873765   0.94866325   264187 
 4690000   0.87530775   -1.6886705   -1.6886705  -0.73862992   0.10830796   -1.6886705   0.95004058   264187 
 4700000    0.8773776   -1.6881678   -1.6881678  -0.73588069   0.10301464   -1.6881678   0.95228715   264187 
 4710000   0.87582696   -1.6837106   -1.6837106  -0.73310645   0.10017564   -1.6837106   0.95060412   264187 
 4720000   0.87750447   -1.6858612   -1.6858612  -0.73343631  0.097066749   -1.6858612   0.95242485   264187 
 4730000   0.87575648   -1.6846315   -1.6846315   -0.7341039  0.096134689   -1.6846315   0.95052762   264187 
 4740000   0.87773358   -1.6829721   -1.6829721  -0.73029854  0.097189323   -1.6829721   0.95267352   264187 
 4750000   0.87885924   -1.6831769   -1.6831769  -0.72928166   0.10765445   -1.6831769   0.95389529   264187 
 4760000   0.87824951   -1.6814849   -1.6814849  -0.72825141   0.10547322   -1.6814849    0.9532335   264187 
 4770000   0.88013285   -1.6796185   -1.6796185  -0.72434084    0.1021371   -1.6796185   0.95527764   264187 
 4780000   0.87901486   -1.6772426   -1.6772426   -0.7231784   0.11224799   -1.6772426   0.95406419   264187 
 4790000   0.88000523   -1.6782359   -1.6782359  -0.72309681  0.096999868   -1.6782359   0.95513912   264187 
 4800000   0.88142803   -1.6791352   -1.6791352  -0.72245184   0.11149408   -1.6791352    0.9566834   264187 
 4810000   0.88105611    -1.675225    -1.675225  -0.71894529   0.11052585    -1.675225   0.95627973   264187 
 4820000   0.88243972   -1.6767283   -1.6767283  -0.71894678   0.10748067   -1.6767283   0.95778147   264187 
 4830000   0.88185144    -1.674323    -1.674323  -0.71718007   0.10962617    -1.674323   0.95714296   264187 
 4840000   0.88445497   -1.6735952   -1.6735952  -0.71362638    0.1089702   -1.6735952   0.95996878   264187 
 4850000   0.88391766   -1.6747302   -1.6747302  -0.71534464  0.093301251   -1.6747302   0.95938559   264187 
 4860000   0.88479417     -1.67469     -1.67469  -0.71435306   0.10765023     -1.67469   0.96033694   264187 
 4870000   0.88545643   -1.6749801   -1.6749801  -0.71392436   0.11103654   -1.6749801   0.96105575   264187 
 4880000    0.8846216   -1.6727335   -1.6727335  -0.71258385   0.10815179   -1.6727335   0.96014964   264187 
 4890000   0.88722038   -1.6727872   -1.6727872  -0.70981686   0.10557154   -1.6727872    0.9629703   264187 
 4900000   0.88766689   -1.6729575   -1.6729575   -0.7095026  0.096835717   -1.6729575   0.96345493   264187 
 4910000   0.88924072   -1.6717864   -1.6717864  -0.70662322    0.1054473   -1.6717864   0.96516313   264187 
 4920000   0.88797309   -1.6671828   -1.6671828  -0.70339548   0.11656903   -1.6671828   0.96378727   264187 
 4930000    0.8887752   -1.6665055   -1.6665055  -0.70184766   0.11468847   -1.6665055   0.96465786   264187 
 4940000   0.89000517    -1.667262    -1.667262  -0.70126912   0.10645334    -1.667262   0.96599285   264187 
 4950000   0.89135596   -1.6648996   -1.6648996   -0.6974406   0.10127896   -1.6648996   0.96745896   264187 
 4960000    0.8921841   -1.6664742   -1.6664742  -0.69811641   0.10876659   -1.6664742   0.96835781   264187 
 4970000   0.89371087   -1.6659571   -1.6659571  -0.69594219   0.11035332   -1.6659571   0.97001493   264187 
 4980000   0.89524259   -1.6659708   -1.6659708  -0.69429335   0.10560628   -1.6659708   0.97167743   264187 
 4990000   0.89098757    -1.660901    -1.660901  -0.69384188   0.10828835    -1.660901   0.96705912   264187 
 5000000   0.89457749   -1.6634102   -1.6634102  -0.69245465    0.1018741   -1.6634102   0.97095555   264187 
Loop time of 12496.6 on 336 procs for 5000000 steps with 264187 atoms

Performance: 172846.839 tau/day, 400.108 timesteps/s
80.9% CPU use with 336 MPI tasks x 1 OpenMP threads

MPI task timing breakdown:
Section |  min time  |  avg time  |  max time  |%varavg|  %CPU | %total
-----------------------------------------------------------------------
Pair    | 135.39     | 1050.7     | 3094.8     |2294.2 |  87.0 |  8.41
Bond    | 3.1065     | 3.3283     | 3.5339     |   4.4 | 100.0 |  0.03
Neigh   | 280.74     | 1512.4     | 4239.7     |2483.7 |  96.9 | 12.10
Comm    | 2015.9     | 5607.8     | 9280.4     |2235.2 |  79.0 | 44.87
Output  | 562.81     | 637.71     | 725        | 146.6 |  74.7 |  5.10
Modify  | 1424.7     | 3573       | 8949.5     |3353.2 |  78.4 | 28.59
Other   |            | 111.6      |            |       |       |  0.89

Nlocal:        786.271 ave        1665 max         237 min
Histogram: 31 27 32 126 49 22 26 11 7 5
Nghost:        3716.21 ave        8821 max        1359 min
Histogram: 142 20 22 33 18 29 27 34 9 2
Neighs:        13249.8 ave       54176 max        1109 min
Histogram: 180 15 21 38 29 22 14 9 3 5
FullNghs:      26499.6 ave      106067 max        2112 min
Histogram: 179 15 20 38 31 22 14 7 5 5

Total # of neighbors = 8903860
Ave neighs/atom = 33.702870
Ave special neighs/atom = 0.0000000
Neighbor list builds = 498572
Dangerous builds = 474223

unfix 		3
fix             3 thermo langevin ${stop_temp} ${start_temp} 10 156453
fix             3 thermo langevin .9 ${start_temp} 10 156453
fix             3 thermo langevin .9 0.6 10 156453
run		5000000
Per MPI rank memory allocation (min/avg/max) = 26.34 | 33.66 | 37.34 Mbytes
Step Temp E_pair E_vdwl TotEng Press PotEng KinEng Atoms 
 5000000   0.89457749   -1.6634102   -1.6634102  -0.69245465   0.08146277   -1.6634102   0.97095555   264187 
 5010000   0.89350863   -1.6625783   -1.6625783   -0.6927829   0.10392414   -1.6625783   0.96979543   264187 
 5020000   0.89705682   -1.6623067   -1.6623067  -0.68866014  0.092067595   -1.6623067   0.97364656   264187 
 5030000   0.89455751    -1.660077    -1.660077  -0.68914317   0.11401333    -1.660077   0.97093386   264187 
 5040000    0.8956905   -1.6631107   -1.6631107  -0.69094707   0.11033052   -1.6631107   0.97216359   264187 
 5050000   0.89388226   -1.6586187   -1.6586187  -0.68841776   0.11571177   -1.6586187   0.97020096   264187 
 5060000   0.89516649   -1.6615154   -1.6615154  -0.68992052   0.11740277   -1.6615154   0.97159483   264187 
 5070000   0.89612264   -1.6600684   -1.6600684  -0.68743582   0.10659687   -1.6600684   0.97263262   264187 
 5080000   0.89814216   -1.6614938   -1.6614938  -0.68666921   0.10504577   -1.6614938   0.97482456   264187 
 5090000   0.89544816    -1.658487    -1.658487  -0.68658643  0.097351123    -1.658487   0.97190056   264187 
 5100000   0.89654271   -1.6586164   -1.6586164  -0.68552783   0.11137695   -1.6586164   0.97308855   264187 
 5110000   0.89789071   -1.6580153   -1.6580153   -0.6834636   0.11177202   -1.6580153   0.97455165   264187 
 5120000   0.89659128   -1.6585662   -1.6585662  -0.68542491   0.10735497   -1.6585662   0.97314127   264187 
 5130000   0.89760059   -1.6600561   -1.6600561  -0.68581931    0.1073976   -1.6600561   0.97423676   264187 
 5140000   0.89827165    -1.658798    -1.658798  -0.68383289    0.1151154    -1.658798   0.97496511   264187 
 5150000   0.89932462   -1.6589425   -1.6589425  -0.68283453   0.10941813   -1.6589425   0.97610799   264187 
 5160000    0.8953391   -1.6570374   -1.6570374  -0.68525517   0.10451927   -1.6570374   0.97178219   264187 
 5170000   0.89904317   -1.6604962   -1.6604962  -0.68469374   0.11028634   -1.6604962    0.9758025   264187 
 5180000   0.89750488   -1.6606499   -1.6606499    -0.686517    0.1062644   -1.6606499   0.97413287   264187 
 5190000   0.89704424   -1.6604914   -1.6604914  -0.68685847   0.10968615   -1.6604914   0.97363291   264187 
 5200000   0.89689236   -1.6623984   -1.6623984  -0.68893031   0.10430501   -1.6623984   0.97346806   264187 
 5210000    0.8961567   -1.6638202   -1.6638202  -0.69115062   0.10874234   -1.6638202   0.97266959   264187 
 5220000   0.89671336   -1.6638177   -1.6638177  -0.69054393   0.10762721   -1.6638177   0.97327377   264187 
 5230000    0.8965257   -1.6622858   -1.6622858  -0.68921575   0.11629101   -1.6622858   0.97307009   264187 
 5240000   0.89700467   -1.6626248   -1.6626248  -0.68903487   0.10777904   -1.6626248   0.97358995   264187 
 5250000   0.89742096   -1.6633943   -1.6633943  -0.68935249   0.11808876   -1.6633943   0.97404179   264187 
 5260000   0.89653152   -1.6633407   -1.6633407  -0.69026432   0.11136631   -1.6633407   0.97307641   264187 
 5270000   0.89705877   -1.6658543   -1.6658543   -0.6922056   0.11767033   -1.6658543   0.97364868   264187 
 5280000   0.89643932   -1.6678979   -1.6678979   -0.6949216   0.10922303   -1.6678979   0.97297634   264187 
 5290000   0.89608016   -1.6675315   -1.6675315    -0.694945   0.11674073   -1.6675315   0.97258651   264187 
 5300000   0.89344808   -1.6670844   -1.6670844  -0.69735469   0.11766787   -1.6670844   0.96972971   264187 
 5310000   0.89376759   -1.6678962   -1.6678962  -0.69781969   0.10349177   -1.6678962    0.9700765   264187 
 5320000   0.89352384   -1.6698109   -1.6698109  -0.69999893   0.11304014   -1.6698109   0.96981194   264187 
 5330000   0.89385253   -1.6675648   -1.6675648   -0.6973961   0.11588634   -1.6675648   0.97016869   264187 
 5340000   0.89445414   -1.6692607   -1.6692607  -0.69843899   0.10530445   -1.6692607   0.97082167   264187 
 5350000    0.8939951   -1.6711451   -1.6711451  -0.70082163   0.11137876   -1.6711451   0.97032344   264187 
 5360000   0.89354799   -1.6705797   -1.6705797  -0.70074155   0.11643649   -1.6705797   0.96983815   264187 
 5370000   0.89181363   -1.6685213   -1.6685213  -0.70056556   0.11334913   -1.6685213   0.96795571   264187 
 5380000   0.89438526   -1.6707415   -1.6707415  -0.69999461   0.10993227   -1.6707415    0.9707469   264187 
 5390000   0.89199669   -1.6687221   -1.6687221  -0.70056767   0.10382795   -1.6687221    0.9681544   264187 
 5400000   0.89339712   -1.6718461   -1.6718461  -0.70217174   0.11125273   -1.6718461    0.9696744   264187 
 5410000   0.89143882    -1.671162    -1.671162  -0.70361308   0.11515834    -1.671162   0.96754891   264187 
 5420000   0.89252695   -1.6748336   -1.6748336  -0.70610369   0.12188201   -1.6748336   0.96872993   264187 
 5430000   0.89078489   -1.6726811   -1.6726811  -0.70584193   0.10887812   -1.6726811   0.96683914   264187 
 5440000    0.8921999   -1.6750034   -1.6750034  -0.70662844    0.1171213   -1.6750034   0.96837496   264187 
 5450000   0.89191173     -1.67328     -1.67328  -0.70521783    0.1144965     -1.67328   0.96806219   264187 
 5460000    0.8917582   -1.6756286   -1.6756286  -0.70773305   0.10230013   -1.6756286   0.96789555   264187 
 5470000   0.89112729   -1.6759085   -1.6759085  -0.70869772   0.11221073   -1.6759085   0.96721078   264187 
 5480000   0.89164495   -1.6805294   -1.6805294  -0.71275676    0.1056015   -1.6805294   0.96777263   264187 
 5490000   0.88993822   -1.6787613   -1.6787613  -0.71284113   0.10994746   -1.6787613   0.96592018   264187 
 5500000   0.89282111   -1.6808251   -1.6808251  -0.71177585   0.10700316   -1.6808251   0.96904921   264187 
 5510000   0.88824543   -1.6782266   -1.6782266  -0.71414375   0.10940348   -1.6782266   0.96408287   264187 
 5520000   0.88972592   -1.6796411   -1.6796411  -0.71395138   0.10704415   -1.6796411   0.96568976   264187 
 5530000   0.88972525   -1.6803427   -1.6803427  -0.71465371   0.10616669   -1.6803427   0.96568903   264187 
 5540000   0.88957309   -1.6824791   -1.6824791  -0.71695524   0.12058377   -1.6824791   0.96552388   264187 
 5550000   0.89285639   -1.6876843   -1.6876843  -0.71859683   0.10649417   -1.6876843    0.9690875   264187 
 5560000   0.88973577   -1.6831882   -1.6831882  -0.71748777  0.098702258   -1.6831882   0.96570044   264187 
 5570000   0.88743382   -1.6817828   -1.6817828  -0.71858079   0.10739022   -1.6817828   0.96320196   264187 
 5580000   0.88851766   -1.6831395   -1.6831395  -0.71876116   0.11402802   -1.6831395   0.96437833   264187 
 5590000    0.8904527   -1.6859577   -1.6859577  -0.71947914  0.099633301   -1.6859577   0.96647858   264187 
 5600000   0.88663088   -1.6825236   -1.6825236   -0.7201931   0.11556734   -1.6825236   0.96233046   264187 
 5610000   0.88926121   -1.6860089   -1.6860089  -0.72082358   0.10677144   -1.6860089   0.96518537   264187 
 5620000   0.88857144   -1.6862352   -1.6862352  -0.72179847   0.11406578   -1.6862352    0.9644367   264187 
 5630000   0.88651992   -1.6843259   -1.6843259  -0.72211584    0.1106694   -1.6843259   0.96221003   264187 
 5640000   0.88650927   -1.6868614   -1.6868614  -0.72466293    0.1085479   -1.6868614   0.96219847   264187 
 5650000   0.88625706   -1.6883305   -1.6883305  -0.72640581   0.11222609   -1.6883305   0.96192472   264187 
 5660000   0.88477107   -1.6886262   -1.6886262  -0.72831434   0.10700226   -1.6886262   0.96031187   264187 
 5670000   0.88770646   -1.6912546   -1.6912546  -0.72775676   0.11126579   -1.6912546   0.96349788   264187 
 5680000   0.88479406   -1.6878183   -1.6878183  -0.72748143   0.11701596   -1.6878183   0.96033682   264187 
 5690000   0.88559508   -1.6915781   -1.6915781  -0.73037187   0.11072489   -1.6915781   0.96120623   264187 
 5700000   0.88728917   -1.6934488   -1.6934488  -0.73040383   0.10439468   -1.6934488   0.96304496   264187 
 5710000   0.88497196   -1.6941954   -1.6941954  -0.73366545   0.10934169   -1.6941954   0.96052991   264187 
 5720000   0.88420132   -1.6923046   -1.6923046  -0.73261112   0.10449553   -1.6923046   0.95969347   264187 
 5730000   0.88292556   -1.6927866   -1.6927866  -0.73447782    0.1101033   -1.6927866   0.95830879   264187 
 5740000   0.88387494   -1.6959684   -1.6959684  -0.73662918   0.11851365   -1.6959684   0.95933923   264187 
 5750000   0.88002239   -1.6930463   -1.6930463  -0.73788852   0.10799323   -1.6930463   0.95515775   264187 
 5760000   0.88230612   -1.6964808   -1.6964808  -0.73884439   0.10506478   -1.6964808   0.95763646   264187 
 5770000   0.88000843   -1.6953002   -1.6953002  -0.74015756   0.11922126   -1.6953002    0.9551426   264187 
 5780000   0.88047271   -1.6959373   -1.6959373  -0.74029075   0.10759445   -1.6959373   0.95564651   264187 
 5790000   0.88161502   -1.6974023   -1.6974023  -0.74051596   0.11034508   -1.6974023   0.95688636   264187 
 5800000   0.87908232   -1.6972293   -1.6972293  -0.74309185   0.10152085   -1.6972293   0.95413741   264187 
 5810000   0.87834637   -1.6978022   -1.6978022  -0.74446362   0.10498716   -1.6978022   0.95333863   264187 
 5820000   0.88142299   -1.6998155   -1.6998155  -0.74313753   0.11293323   -1.6998155   0.95667793   264187 
 5830000   0.88199041   -1.7029911   -1.7029911  -0.74569726   0.10216979   -1.7029911    0.9572938   264187 
 5840000    0.8793822   -1.7020133   -1.7020133   -0.7475504   0.10672096   -1.7020133    0.9544629   264187 
 5850000   0.87965082   -1.7028071   -1.7028071  -0.74805266   0.11111807   -1.7028071   0.95475445   264187 
 5860000   0.87820983    -1.702416    -1.702416  -0.74922559   0.10186315    -1.702416   0.95319044   264187 
 5870000   0.87613739   -1.7026292   -1.7026292  -0.75168815  0.097739001   -1.7026292   0.95094106   264187 
 5880000   0.87748206   -1.7046768   -1.7046768  -0.75227629   0.10624868   -1.7046768   0.95240053   264187 
 5890000   0.87812554   -1.7055869   -1.7055869  -0.75248793   0.10562497   -1.7055869   0.95309895   264187 
 5900000   0.87603239   -1.7049923   -1.7049923  -0.75416522   0.10253534   -1.7049923   0.95082709   264187 
 5910000   0.87577033   -1.7074279   -1.7074279  -0.75688521  0.097378921   -1.7074279   0.95054265   264187 
 5920000   0.87485961   -1.7087468   -1.7087468  -0.75919259   0.10582398   -1.7087468   0.94955418   264187 
 5930000   0.87406046   -1.7094202   -1.7094202  -0.76073343   0.10420191   -1.7094202   0.94868679   264187 
 5940000   0.87531154   -1.7105422   -1.7105422  -0.76049751   0.10198671   -1.7105422    0.9500447   264187 
 5950000   0.87409463   -1.7077197   -1.7077197  -0.75899585   0.10174206   -1.7077197   0.94872388   264187 
 5960000   0.87307642   -1.7102096   -1.7102096  -0.76259087   0.10553173   -1.7102096   0.94761874   264187 
 5970000    0.8732275   -1.7116099   -1.7116099  -0.76382719   0.10878552   -1.7116099   0.94778272   264187 
 5980000   0.87215317   -1.7117015   -1.7117015  -0.76508481    0.1079067   -1.7117015   0.94661666   264187 
 5990000   0.87133168    -1.712861    -1.712861  -0.76713595   0.10267678    -1.712861   0.94572504   264187 
 6000000   0.87212133    -1.714885    -1.714885  -0.76830294   0.10062027    -1.714885    0.9465821   264187 
 6010000   0.87133914   -1.7163712   -1.7163712  -0.77063811   0.10584576   -1.7163712   0.94573313   264187 
 6020000   0.86768578   -1.7161967   -1.7161967   -0.7744288   0.11608237   -1.7161967   0.94176786   264187 
 6030000    0.8706645   -1.7194493   -1.7194493  -0.77444839   0.10002128   -1.7194493   0.94500089   264187 
 6040000   0.86632872    -1.716984    -1.716984  -0.77668904   0.11033163    -1.716984   0.94029493   264187 
 6050000    0.8667005   -1.7193619   -1.7193619  -0.77866348  0.098378412   -1.7193619   0.94069845   264187 
 6060000   0.86624301   -1.7219422   -1.7219422  -0.78174029  0.098616042   -1.7219422    0.9402019   264187 
 6070000   0.86801661   -1.7234484   -1.7234484  -0.78132146    0.0932183   -1.7234484   0.94212692   264187 
 6080000   0.86654057   -1.7219015   -1.7219015  -0.78137668   0.10768717   -1.7219015   0.94052487   264187 
 6090000   0.86536952   -1.7248203   -1.7248203  -0.78556649  0.097591853   -1.7248203   0.93925383   264187 
 6100000     0.865496   -1.7237422   -1.7237422  -0.78435111   0.10466616   -1.7237422   0.93939111   264187 
 6110000    0.8655289   -1.7273471   -1.7273471  -0.78792024   0.10361254   -1.7273471   0.93942681   264187 
 6120000   0.86552722   -1.7293331   -1.7293331  -0.78990809  0.098084374   -1.7293331     0.939425   264187 
 6130000   0.86408037   -1.7284283   -1.7284283  -0.79057369  0.099094535   -1.7284283   0.93785462   264187 
 6140000   0.86156125   -1.7256222   -1.7256222  -0.79050181   0.10176014   -1.7256222   0.93512042   264187 
 6150000   0.86139524   -1.7266453   -1.7266453  -0.79170511   0.10047779   -1.7266453   0.93494024   264187 
 6160000   0.86188729   -1.7290615   -1.7290615  -0.79358718  0.097904947   -1.7290615   0.93547429   264187 
 6170000   0.86158299   -1.7326546   -1.7326546  -0.79751056   0.11352831   -1.7326546   0.93514401   264187 
 6180000   0.86071992   -1.7328269   -1.7328269  -0.79861961   0.10726856   -1.7328269   0.93420725   264187 
 6190000   0.85917911   -1.7325986   -1.7325986  -0.80006374   0.10797239   -1.7325986   0.93253489   264187 
 6200000   0.85807678   -1.7338418   -1.7338418  -0.80250336   0.10751103   -1.7338418   0.93133845   264187 
 6210000   0.85752649   -1.7349304   -1.7349304  -0.80418921   0.10553734   -1.7349304   0.93074118   264187 
 6220000   0.85879993   -1.7365006   -1.7365006  -0.80437725  0.099803181   -1.7365006   0.93212333   264187 
 6230000   0.85785664   -1.7384135   -1.7384135  -0.80731396  0.095502647   -1.7384135   0.93109951   264187 
 6240000   0.85671284   -1.7408109   -1.7408109  -0.81095284   0.10143216   -1.7408109   0.92985806   264187 
 6250000   0.85771314   -1.7407541   -1.7407541  -0.80981029   0.10894663   -1.7407541   0.93094376   264187 
 6260000    0.8548045   -1.7396342   -1.7396342  -0.81184738  0.099455773   -1.7396342   0.92778678   264187 
 6270000   0.85515788   -1.7424925   -1.7424925  -0.81432212   0.10062977   -1.7424925   0.92817034   264187 
 6280000   0.85501223   -1.7435707   -1.7435707  -0.81555845   0.11102694   -1.7435707   0.92801225   264187 
 6290000   0.85551699   -1.7427543   -1.7427543  -0.81419418   0.10078784   -1.7427543    0.9285601   264187 
 6300000   0.85432031    -1.745819    -1.745819  -0.81855778  0.091105163    -1.745819   0.92726125   264187 
 6310000   0.85493375   -1.7432688   -1.7432688  -0.81534175   0.10502692   -1.7432688   0.92792707   264187 
 6320000   0.85460854   -1.7453237   -1.7453237  -0.81774961  0.097814087   -1.7453237   0.92757409   264187 
 6330000   0.85374378   -1.7468421   -1.7468421  -0.82020655   0.11251344   -1.7468421    0.9266355   264187 
 6340000   0.85623698    -1.750856    -1.750856  -0.82151442   0.10092963    -1.750856   0.92934157   264187 
 6350000   0.85183741   -1.7456666   -1.7456666  -0.82110023   0.10691551   -1.7456666   0.92456637   264187 
 6360000   0.85303053   -1.7490875   -1.7490875  -0.82322613  0.095316685   -1.7490875   0.92586135   264187 
 6370000   0.85039847   -1.7482511   -1.7482511  -0.82524656  0.094901472   -1.7482511   0.92300457   264187 
 6380000   0.85214369   -1.7510602   -1.7510602  -0.82616143  0.090755604   -1.7510602    0.9248988   264187 
 6390000   0.85003269   -1.7511791   -1.7511791  -0.82857153  0.092749747   -1.7511791   0.92260756   264187 
 6400000    0.8504243   -1.7546337   -1.7546337  -0.83160109  0.087145273   -1.7546337   0.92303261   264187 
 6410000   0.84999442   -1.7552391   -1.7552391  -0.83267306  0.094765352   -1.7552391   0.92256602   264187 
 6420000   0.84827182   -1.7550272   -1.7550272  -0.83433081   0.10450619   -1.7550272   0.92069635   264187 
 6430000   0.84906255   -1.7551199   -1.7551199  -0.83356528   0.10327302   -1.7551199    0.9215546   264187 
 6440000    0.8464216   -1.7558486   -1.7558486  -0.83716041   0.10109863   -1.7558486   0.91868816   264187 
 6450000   0.84645912    -1.758536    -1.758536  -0.83980717  0.095925672    -1.758536   0.91872888   264187 
 6460000   0.84408239    -1.758267    -1.758267  -0.84211781  0.098820165    -1.758267   0.91614923   264187 
 6470000   0.84528484    -1.760217    -1.760217  -0.84276264   0.10033705    -1.760217   0.91745435   264187 
 6480000   0.84629247   -1.7622234   -1.7622234  -0.84367542  0.092788999   -1.7622234     0.918548   264187 
 6490000   0.84301508   -1.7603288   -1.7603288  -0.84533803  0.096343189   -1.7603288    0.9149908   264187 
 6500000   0.84542021   -1.7603644   -1.7603644  -0.84276314   0.10377828   -1.7603644   0.91760128   264187 
 6510000   0.84325603   -1.7614606   -1.7614606  -0.84620831  0.082833186   -1.7614606   0.91525232   264187 
 6520000   0.84275961   -1.7611239   -1.7611239  -0.84641038  0.095316231   -1.7611239   0.91471352   264187 
 6530000   0.84321644   -1.7652387   -1.7652387  -0.85002934  0.099711137   -1.7652387   0.91520935   264187 
 6540000   0.84316448   -1.7647604   -1.7647604  -0.84960749   0.10097932   -1.7647604   0.91515296   264187 
 6550000   0.83879161   -1.7629341   -1.7629341  -0.85252733  0.096594794   -1.7629341   0.91040673   264187 
 6560000   0.84035901   -1.7682245   -1.7682245  -0.85611652   0.10162875   -1.7682245   0.91210795   264187 
 6570000   0.83961751   -1.7696009   -1.7696009  -0.85829772  0.096625674   -1.7696009   0.91130314   264187 
 6580000   0.84037323   -1.7709561   -1.7709561  -0.85883271  0.089958019   -1.7709561   0.91212339   264187 
 6590000    0.8380642   -1.7686976   -1.7686976  -0.85908041  0.098637655   -1.7686976   0.90961721   264187 
 6600000   0.83744043   -1.7700941   -1.7700941  -0.86115391  0.094880288   -1.7700941   0.90894019   264187 
 6610000   0.83704587   -1.7734916   -1.7734916  -0.86497968  0.090287034   -1.7734916   0.90851194   264187 
 6620000   0.83684751   -1.7728088   -1.7728088  -0.86451219  0.097040953   -1.7728088   0.90829664   264187 
 6630000   0.83522184   -1.7718147   -1.7718147  -0.86528253    0.1005282   -1.7718147   0.90653218   264187 
 6640000   0.83600278   -1.7738401   -1.7738401  -0.86646033   0.10567224   -1.7738401   0.90737979   264187 
 6650000   0.83543598   -1.7739191   -1.7739191   -0.8671545  0.093229389   -1.7739191    0.9067646   264187 
 6660000   0.83495784    -1.775205    -1.775205  -0.86895932   0.10178421    -1.775205   0.90624563   264187 
 6670000    0.8361358   -1.7776901   -1.7776901  -0.87016588  0.095634733   -1.7776901   0.90752417   264187 
 6680000   0.83437173   -1.7802704   -1.7802704  -0.87466094   0.09646563   -1.7802704   0.90560948   264187 
 6690000   0.83335504   -1.7804551   -1.7804551  -0.87594908  0.090036293   -1.7804551   0.90450599   264187 
 6700000   0.83214401   -1.7807708   -1.7807708  -0.87757919  0.097865863   -1.7807708   0.90319157   264187 
 6710000   0.83246565   -1.7817139   -1.7817139  -0.87817323  0.095190583   -1.7817139   0.90354066   264187 
 6720000   0.83429553   -1.7833884   -1.7833884  -0.87786162   0.10392392   -1.7833884   0.90552678   264187 
 6730000   0.83061866    -1.785794    -1.785794  -0.88425802  0.092372901    -1.785794   0.90153598   264187 
 6740000   0.83030385   -1.7857231   -1.7857231  -0.88452884  0.090135544   -1.7857231   0.90119429   264187 
 6750000   0.82954516   -1.7843712   -1.7843712  -0.88400035  0.097187258   -1.7843712   0.90037082   264187 
 6760000   0.82987245   -1.7865887   -1.7865887  -0.88586264  0.091732938   -1.7865887   0.90072606   264187 
 6770000   0.83021008   -1.7903124   -1.7903124  -0.88921987   0.10861242   -1.7903124   0.90109251   264187 
 6780000   0.82954153   -1.7914276   -1.7914276   -0.8910607  0.095268004   -1.7914276   0.90036689   264187 
 6790000   0.82785565   -1.7912974   -1.7912974  -0.89276032   0.10987503   -1.7912974   0.89853707   264187 
 6800000   0.82807389   -1.7929409   -1.7929409  -0.89416691   0.10365105   -1.7929409   0.89877395   264187 
 6810000   0.82820632   -1.7939588   -1.7939588  -0.89504112  0.093624058   -1.7939588   0.89891768   264187 
 6820000   0.82371369   -1.7925658   -1.7925658  -0.89852434  0.093278562   -1.7925658   0.89404147   264187 
 6830000   0.82565428   -1.7929071   -1.7929071  -0.89675938  0.091322368   -1.7929071   0.89614775   264187 
 6840000   0.82596965    -1.793162    -1.793162  -0.89667197  0.088267559    -1.793162   0.89649004   264187 
 6850000   0.82308148   -1.7929544   -1.7929544  -0.89959913   0.08980691   -1.7929544   0.89335529   264187 
 6860000   0.82554042   -1.7978212   -1.7978212    -0.901797   0.10283036   -1.7978212   0.89602417   264187 
 6870000   0.82158187   -1.7986531   -1.7986531   -0.9069255  0.089880772   -1.7986531   0.89172764   264187 
 6880000    0.8224698    -1.798149    -1.798149  -0.90545763  0.092278972    -1.798149   0.89269138   264187 
 6890000   0.82132246   -1.7990943   -1.7990943   -0.9076482  0.086283212   -1.7990943   0.89144608   264187 
 6900000    0.8222534   -1.7994681   -1.7994681  -0.90701157  0.097107003   -1.7994681   0.89245651   264187 
 6910000   0.82141778    -1.801081    -1.801081  -0.90953151  0.092342321    -1.801081   0.89154954   264187 
 6920000   0.82103485   -1.8005706   -1.8005706  -0.90943665    0.1008735   -1.8005706   0.89113391   264187 
 6930000   0.81930069   -1.8015682   -1.8015682  -0.91231653  0.091835502   -1.8015682   0.88925169   264187 
 6940000   0.81813868   -1.8012274   -1.8012274  -0.91323696  0.091922902   -1.8012274   0.88799048   264187 
 6950000   0.81838111   -1.8052324   -1.8052324  -0.91697884  0.078944798   -1.8052324    0.8882536   264187 
 6960000   0.81788723   -1.8038627   -1.8038627  -0.91614514  0.083081693   -1.8038627   0.88771755   264187 
 6970000   0.81765831   -1.8059304   -1.8059304  -0.91846126  0.087288073   -1.8059304   0.88746909   264187 
 6980000    0.8186673   -1.8075839   -1.8075839  -0.91901963  0.099042555   -1.8075839   0.88856423   264187 
 6990000   0.81479106    -1.806548    -1.806548  -0.92219097  0.090958212    -1.806548   0.88435703   264187 
 7000000   0.81512177   -1.8084164   -1.8084164  -0.92370043  0.090927092   -1.8084164   0.88471598   264187 
 7010000   0.81587176   -1.8116141   -1.8116141  -0.92608414  0.085466268   -1.8116141   0.88553001   264187 
 7020000   0.81496681   -1.8123811   -1.8123811  -0.92783334  0.084403816   -1.8123811   0.88454779   264187 
 7030000   0.81319908   -1.8142234   -1.8142234  -0.93159426   0.09987318   -1.8142234   0.88262914   264187 
 7040000    0.8122395   -1.8144997   -1.8144997  -0.93291202  0.092721156   -1.8144997   0.88158763   264187 
 7050000   0.81196072   -1.8192007   -1.8192007  -0.93791562  0.090647769   -1.8192007   0.88128504   264187 
 7060000   0.81099268   -1.8185617   -1.8185617  -0.93832739  0.087240737   -1.8185617   0.88023435   264187 
 7070000   0.81162229    -1.821605    -1.821605  -0.94068728  0.085185336    -1.821605   0.88091772   264187 
 7080000   0.80942144   -1.8220349   -1.8220349  -0.94350596  0.078253429   -1.8220349   0.87852897   264187 
 7090000   0.80914359   -1.8229862   -1.8229862  -0.94475885  0.085146985   -1.8229862    0.8782274   264187 
 7100000   0.80815075   -1.8245305   -1.8245305  -0.94738074  0.094404071   -1.8245305   0.87714979   264187 
 7110000   0.80805311   -1.8270386   -1.8270386  -0.94999475  0.081143425   -1.8270386   0.87704381   264187 
 7120000   0.80817658   -1.8262462   -1.8262462  -0.94906834  0.080401113   -1.8262462   0.87717782   264187 
 7130000   0.80583185   -1.8266545   -1.8266545  -0.95202164  0.088032571   -1.8266545    0.8746329   264187 
 7140000   0.80222757   -1.8281621   -1.8281621  -0.95744116  0.082906357   -1.8281621   0.87072089   264187 
 7150000   0.80439556   -1.8285393   -1.8285393  -0.95546528  0.089410831   -1.8285393   0.87307399   264187 
 7160000   0.80229065   -1.8283735   -1.8283735  -0.95758413   0.08946119   -1.8283735   0.87078936   264187 
 7170000   0.80304703   -1.8316662   -1.8316662  -0.96005584  0.079105186   -1.8316662   0.87161032   264187 
 7180000   0.80183828   -1.8312933   -1.8312933  -0.96099493   0.07827511   -1.8312933   0.87029836   264187 
 7190000   0.80274673   -1.8346046   -1.8346046  -0.96332025  0.090150864   -1.8346046   0.87128438   264187 
 7200000   0.80301244   -1.8368986   -1.8368986  -0.96532579  0.087417037   -1.8368986   0.87157278   264187 
 7210000   0.80010905   -1.8353486   -1.8353486  -0.96692709  0.092837713   -1.8353486   0.86842149   264187 
 7220000   0.80124464   -1.8391496   -1.8391496  -0.96949554  0.073992794   -1.8391496   0.86965404   264187 
 7230000    0.7983374   -1.8350787   -1.8350787  -0.96858015  0.083764271   -1.8350787   0.86649858   264187 
 7240000   0.80037562   -1.8396092   -1.8396092  -0.97089836  0.084613978   -1.8396092   0.86871082   264187 
 7250000   0.79951792   -1.8421558   -1.8421558  -0.97437588  0.090898188   -1.8421558    0.8677799   264187 
 7260000   0.79863376   -1.8442932   -1.8442932  -0.97747295    0.0921691   -1.8442932   0.86682024   264187 
 7270000   0.79644414    -1.847448    -1.847448  -0.98300432  0.083231676    -1.847448   0.86444368   264187 
 7280000   0.79647292   -1.8479956   -1.8479956  -0.98352065  0.080757112   -1.8479956   0.86447492   264187 
 7290000   0.79440313   -1.8445969   -1.8445969  -0.98236846  0.082677783   -1.8445969   0.86222841   264187 
 7300000   0.79586342   -1.8473354   -1.8473354    -0.983522  0.085813064   -1.8473354   0.86381338   264187 
 7310000   0.79509345   -1.8468713   -1.8468713  -0.98389358  0.078706965   -1.8468713   0.86297767   264187 
 7320000    0.7935511   -1.8506118   -1.8506118   -0.9893082  0.085197145   -1.8506118   0.86130363   264187 
 7330000   0.79264085   -1.8496866   -1.8496866  -0.98937091  0.069790872   -1.8496866   0.86031567   264187 
 7340000   0.79190837   -1.8530474   -1.8530474  -0.99352676  0.080532684   -1.8530474   0.85952065   264187 
 7350000   0.78869581   -1.8517199   -1.8517199   -0.9956861  0.087542523   -1.8517199    0.8560338   264187 
 7360000   0.78957169   -1.8558249   -1.8558249  -0.99884039  0.093108274   -1.8558249   0.85698447   264187 
 7370000   0.78827321    -1.857137    -1.857137   -1.0015619  0.083662656    -1.857137   0.85557512   264187 
 7380000   0.78851331   -1.8597749   -1.8597749   -1.0039392   0.08296055   -1.8597749   0.85583572   264187 
 7390000   0.78845628    -1.861945    -1.861945   -1.0061712   0.08315953    -1.861945   0.85577383   264187 
 7400000   0.78744578   -1.8588267   -1.8588267   -1.0041497  0.076444391   -1.8588267   0.85467705   264187 
 7410000   0.78581519   -1.8583547   -1.8583547   -1.0054474  0.077923372   -1.8583547   0.85290724   264187 
 7420000   0.78597643   -1.8605721   -1.8605721   -1.0074899  0.085466286   -1.8605721   0.85308225   264187 
 7430000   0.78518976   -1.8632641   -1.8632641   -1.0110357  0.081611348   -1.8632641   0.85222841   264187 
 7440000    0.7858934    -1.866137    -1.866137   -1.0131448  0.077819872    -1.866137   0.85299213   264187 
 7450000   0.78428307   -1.8665234   -1.8665234   -1.0152791  0.075152192   -1.8665234   0.85124431   264187 
 7460000   0.78499057   -1.8663396   -1.8663396   -1.0143274  0.073085322   -1.8663396   0.85201221   264187 
 7470000   0.78401346   -1.8683905   -1.8683905   -1.0174388  0.076487011   -1.8683905   0.85095168   264187 
 7480000   0.78250601   -1.8690747   -1.8690747   -1.0197591  0.085991869   -1.8690747   0.84931553   264187 
 7490000   0.78114351   -1.8697104   -1.8697104   -1.0218737  0.076498308   -1.8697104    0.8478367   264187 
 7500000   0.78172584   -1.8722499   -1.8722499   -1.0237811  0.074461418   -1.8722499   0.84846874   264187 
 7510000   0.77963612   -1.8709619   -1.8709619   -1.0247613  0.083298988   -1.8709619    0.8462006   264187 
 7520000      0.77886   -1.8694997   -1.8694997   -1.0241415  0.085769076   -1.8694997   0.84535823   264187 
 7530000   0.78086101   -1.8729736   -1.8729736   -1.0254435  0.075928286   -1.8729736   0.84753008   264187 
 7540000   0.77906757    -1.873777    -1.873777   -1.0281934  0.073426252    -1.873777   0.84558351   264187 
 7550000   0.77925329   -1.8762183   -1.8762183   -1.0304332  0.072986582   -1.8762183   0.84578509   264187 
 7560000   0.77921873   -1.8777919   -1.8777919   -1.0320444  0.083552727   -1.8777919   0.84574758   264187 
 7570000   0.77610122   -1.8777874   -1.8777874   -1.0354235  0.075162307   -1.8777874    0.8423639   264187 
 7580000   0.77582265   -1.8803899   -1.8803899   -1.0383284  0.076753073   -1.8803899   0.84206155   264187 
 7590000   0.77462224    -1.883444    -1.883444   -1.0426854  0.079705849    -1.883444   0.84075864   264187 
 7600000   0.77599941   -1.8863285   -1.8863285   -1.0440751  0.086651235   -1.8863285    0.8422534   264187 
 7610000    0.7734558   -1.8838405   -1.8838405   -1.0443479  0.077330725   -1.8838405   0.83949261   264187 
 7620000   0.77259286   -1.8846076   -1.8846076   -1.0460516  0.078832093   -1.8846076     0.838556   264187 
 7630000   0.77226511   -1.8889748   -1.8889748   -1.0507745  0.085796531   -1.8889748   0.83820026   264187 
 7640000   0.77068973   -1.8889712   -1.8889712   -1.0524808  0.079142679   -1.8889712   0.83649039   264187 
 7650000   0.77271252   -1.8935788   -1.8935788   -1.0548929  0.080166564   -1.8935788   0.83868588   264187 
 7660000   0.77143926   -1.8927192   -1.8927192   -1.0554153  0.065267879   -1.8927192   0.83730391   264187 
 7670000   0.77171963   -1.8962529   -1.8962529   -1.0586447  0.073771667   -1.8962529   0.83760822   264187 
 7680000    0.7703898   -1.8949265   -1.8949265   -1.0587616  0.080022504   -1.8949265   0.83616485   264187 
 7690000    0.7693532   -1.8955722   -1.8955722   -1.0605324  0.078159845   -1.8955722   0.83503975   264187 
 7700000    0.7682776   -1.8968253   -1.8968253   -1.0629529  0.069962239   -1.8968253   0.83387231   264187 
 7710000   0.76839709   -1.8973337   -1.8973337   -1.0633317  0.081984499   -1.8973337     0.834002   264187 
 7720000   0.76992272   -1.8991646   -1.8991646   -1.0635067  0.086191675   -1.8991646   0.83565788   264187 
 7730000    0.7686726   -1.9011314   -1.9011314   -1.0668304  0.072441264   -1.9011314   0.83430103   264187 
 7740000   0.76876856    -1.902249    -1.902249   -1.0678438  0.072753704    -1.902249   0.83440519   264187 
 7750000   0.76719943   -1.9024344   -1.9024344   -1.0697323  0.088857056   -1.9024344   0.83270209   264187 
 7760000   0.76583722   -1.9019162   -1.9019162   -1.0706927  0.078108761   -1.9019162   0.83122357   264187 
 7770000   0.76573691    -1.905629    -1.905629   -1.0745143  0.080260796    -1.905629    0.8311147   264187 
 7780000   0.76241808   -1.9044001   -1.9044001   -1.0768876  0.081166648   -1.9044001   0.82751251   264187 
 7790000   0.76540751   -1.9088279   -1.9088279   -1.0780707  0.089817059   -1.9088279   0.83075717   264187 
 7800000   0.76371307   -1.9062459   -1.9062459   -1.0773278   0.07463246   -1.9062459   0.82891806   264187 
 7810000   0.76561787   -1.9072776   -1.9072776   -1.0762921  0.079741067   -1.9072776   0.83098549   264187 
 7820000   0.76378185    -1.910459    -1.910459   -1.0814663  0.079335911    -1.910459   0.82899271   264187 
 7830000   0.76058456   -1.9086694   -1.9086694    -1.083147  0.080277041   -1.9086694   0.82552245   264187 
 7840000   0.76133227   -1.9118877   -1.9118877   -1.0855537  0.071198467   -1.9118877   0.82633399   264187 
 7850000   0.76090672   -1.9160691   -1.9160691    -1.090197  0.073793282   -1.9160691   0.82587211   264187 
 7860000   0.75893224   -1.9160929   -1.9160929   -1.0923639  0.087510721   -1.9160929   0.82372905   264187 
 7870000   0.76165078   -1.9212112   -1.9212112   -1.0945315  0.073416644   -1.9212112    0.8266797   264187 
 7880000   0.75958798   -1.9197799   -1.9197799   -1.0953391  0.084878329   -1.9197799   0.82444078   264187 
 7890000   0.75916172   -1.9182757   -1.9182757   -1.0942976  0.075173775   -1.9182757   0.82397812   264187 
 7900000   0.75897816   -1.9204031   -1.9204031   -1.0966242  0.071068224   -1.9204031   0.82377889   264187 
 7910000   0.75774876    -1.924123    -1.924123   -1.1016785  0.056642909    -1.924123   0.82244452   264187 
 7920000   0.75744587   -1.9235514   -1.9235514   -1.1014356  0.073269522   -1.9235514   0.82211578   264187 
 7930000   0.75505074   -1.9230107   -1.9230107   -1.1034946  0.070891496   -1.9230107   0.81951616   264187 
 7940000   0.75422406   -1.9278843   -1.9278843   -1.1092654  0.078365561   -1.9278843    0.8186189   264187 
 7950000   0.75300173   -1.9284014   -1.9284014   -1.1111092  0.075270883   -1.9284014   0.81729221   264187 
 7960000   0.75374637    -1.929088    -1.929088   -1.1109876  0.081221972    -1.929088   0.81810042   264187 
 7970000   0.75256461   -1.9306798   -1.9306798   -1.1138621  0.062819249   -1.9306798   0.81681777   264187 
 7980000   0.75115619   -1.9304811   -1.9304811    -1.115192  0.072504753   -1.9304811   0.81528909   264187 
 7990000   0.75087296   -1.9354404   -1.9354404   -1.1204588  0.073623134   -1.9354404   0.81498168   264187 
 8000000   0.75302991   -1.9392179   -1.9392179   -1.1218952   0.07645548   -1.9392179   0.81732278   264187 
 8010000   0.74963927   -1.9385008   -1.9385008   -1.1248581   0.07141029   -1.9385008   0.81364266   264187 
 8020000   0.74986493   -1.9412769   -1.9412769   -1.1273893  0.073547774   -1.9412769   0.81388759   264187 
 8030000   0.75002354   -1.9415188   -1.9415188    -1.127459  0.071621456   -1.9415188   0.81405974   264187 
 8040000    0.7496866   -1.9450933   -1.9450933   -1.1313992  0.069201589   -1.9450933   0.81369403   264187 
 8050000   0.74833943   -1.9460818   -1.9460818   -1.1338499  0.066493032   -1.9460818   0.81223184   264187 
 8060000   0.74795767   -1.9453064   -1.9453064   -1.1334889  0.083681884   -1.9453064   0.81181748   264187 
 8070000   0.74838806   -1.9486632   -1.9486632   -1.1363786  0.078423531   -1.9486632   0.81228462   264187 
 8080000   0.74462146   -1.9470749   -1.9470749   -1.1388784  0.072246403   -1.9470749   0.80819643   264187 
 8090000   0.74616742   -1.9528731   -1.9528731   -1.1429987  0.066381132   -1.9528731   0.80987438   264187 
 8100000   0.74316486   -1.9509259   -1.9509259   -1.1443104  0.071563195   -1.9509259   0.80661548   264187 
 8110000   0.74273489   -1.9539015   -1.9539015   -1.1477528  0.069472118   -1.9539015    0.8061488   264187 
 8120000   0.74306551   -1.9561192   -1.9561192   -1.1496116  0.067664989   -1.9561192   0.80650764   264187 
 8130000   0.74153515   -1.9578088   -1.9578088   -1.1529621   0.07287552   -1.9578088   0.80484661   264187 
 8140000   0.74137004   -1.9590776   -1.9590776   -1.1544102   0.06885555   -1.9590776   0.80466741   264187 
 8150000   0.74187204   -1.9620554   -1.9620554   -1.1568431  0.064162141   -1.9620554   0.80521227   264187 
 8160000   0.73733654   -1.9593627   -1.9593627   -1.1590732  0.064646845   -1.9593627   0.80028953   264187 
 8170000   0.73927006   -1.9628201   -1.9628201    -1.160432  0.071253952   -1.9628201   0.80238814   264187 
 8180000   0.73825331   -1.9623038   -1.9623038   -1.1610192  0.069184493   -1.9623038   0.80128458   264187 
 8190000   0.73863667    -1.966313    -1.966313   -1.1646124  0.065927476    -1.966313   0.80170067   264187 
 8200000   0.73713326    -1.966938    -1.966938   -1.1668691  0.070044565    -1.966938    0.8000689   264187 
 8210000   0.73712798   -1.9704437   -1.9704437   -1.1703805  0.066432463   -1.9704437   0.80006317   264187 
 8220000   0.73570041   -1.9701007   -1.9701007    -1.171587  0.065778902   -1.9701007   0.79851371   264187 
 8230000   0.73580611   -1.9740121   -1.9740121   -1.1753836   0.07259718   -1.9740121   0.79862843   264187 
 8240000   0.73251958   -1.9761849   -1.9761849   -1.1811236   0.06596699   -1.9761849   0.79506131   264187 
 8250000    0.7342828   -1.9818003   -1.9818003   -1.1848252  0.072625786   -1.9818003   0.79697507   264187 
 8260000   0.73165536   -1.9806719   -1.9806719   -1.1865486  0.071875442   -1.9806719   0.79412331   264187 
 8270000   0.72992268   -1.9809439   -1.9809439   -1.1887012  0.067387872   -1.9809439   0.79224269   264187 
 8280000   0.72936754   -1.9818728   -1.9818728   -1.1902326  0.066402477   -1.9818728   0.79164015   264187 
 8290000   0.72944196   -1.9829574   -1.9829574   -1.1912365  0.060879311   -1.9829574   0.79172093   264187 
 8300000   0.72791943   -1.9823507   -1.9823507   -1.1922823  0.071705815   -1.9823507    0.7900684   264187 
 8310000   0.72955735   -1.9894649   -1.9894649   -1.1976188  0.073972427   -1.9894649   0.79184617   264187 
 8320000    0.7284314   -1.9892924   -1.9892924   -1.1986683  0.063691126   -1.9892924   0.79062408   264187 
 8330000   0.72690709   -1.9898328   -1.9898328   -1.2008631  0.057186388   -1.9898328   0.78896963   264187 
 8340000   0.72486202   -1.9916523   -1.9916523   -1.2049023  0.072548408   -1.9916523   0.78674996   264187 
 8350000   0.72611639   -1.9962177   -1.9962177   -1.2081063  0.059447655   -1.9962177   0.78811142   264187 
 8360000   0.72577119   -1.9944956   -1.9944956   -1.2067588  0.066420721   -1.9944956   0.78773674   264187 
 8370000   0.72401791   -1.9962335   -1.9962335   -1.2103998  0.059945955   -1.9962335   0.78583378   264187 
 8380000   0.72344954   -2.0006509   -2.0006509    -1.215434  0.062496698   -2.0006509   0.78521688   264187 
 8390000   0.72363833   -2.0012937   -2.0012937   -1.2158719  0.075788545   -2.0012937   0.78542178   264187 
 8400000   0.72323931   -2.0027168   -2.0027168   -1.2177281  0.065513209   -2.0027168   0.78498869   264187 
 8410000   0.72092989   -2.0060229   -2.0060229   -1.2235408   0.06679177   -2.0060229    0.7824821   264187 
 8420000   0.72339859   -2.0113418   -2.0113418   -1.2261803  0.074564607   -2.0113418   0.78516157   264187 
 8430000   0.71965026   -2.0124808   -2.0124808   -1.2313876  0.070323775   -2.0124808   0.78109322   264187 
 8440000   0.71834734   -2.0104271   -2.0104271   -1.2307481  0.065417046   -2.0104271   0.77967906   264187 
 8450000   0.71950294   -2.0170381   -2.0170381   -1.2361047  0.065568836   -2.0170381   0.78093333   264187 
 8460000   0.71962942    -2.019488    -2.019488   -1.2384174  0.061121363    -2.019488    0.7810706   264187 
 8470000   0.71744981   -2.0212826   -2.0212826   -1.2425777  0.063105868   -2.0212826   0.77870489   264187 
 8480000   0.71763463    -2.023444    -2.023444   -1.2445385  0.071750563    -2.023444    0.7789055   264187 
 8490000   0.71575842   -2.0243354   -2.0243354   -1.2474663  0.055776713   -2.0243354    0.7768691   264187 
 8500000   0.71381164   -2.0243191   -2.0243191    -1.249563  0.071161953   -2.0243191   0.77475611   264187 
 8510000   0.71440518   -2.0254045   -2.0254045   -1.2500042  0.059169716   -2.0254045   0.77540032   264187 
 8520000   0.71537967   -2.0288138   -2.0288138   -1.2523558  0.061486882   -2.0288138   0.77645801   264187 
 8530000   0.71494287   -2.0294146   -2.0294146   -1.2534307  0.067780302   -2.0294146   0.77598392   264187 
 8540000   0.71354796   -2.0329944   -2.0329944   -1.2585245  0.060372357   -2.0329944   0.77446991   264187 
 8550000   0.71204547   -2.0333734   -2.0333734   -1.2605343  0.059968915   -2.0333734   0.77283914   264187 
 8560000   0.71206697   -2.0373937   -2.0373937   -1.2645313  0.068278785   -2.0373937   0.77286248   264187 
 8570000   0.71000915   -2.0380107   -2.0380107   -1.2673818  0.064412409   -2.0380107   0.77062897   264187 
 8580000   0.71056421   -2.0411251   -2.0411251   -1.2698936  0.052273387   -2.0411251   0.77123142   264187 
 8590000   0.70825552   -2.0442596   -2.0442596    -1.275534  0.065551961   -2.0442596    0.7687256   264187 
 8600000   0.70841261   -2.0446271   -2.0446271    -1.275731  0.057149697   -2.0446271   0.76889611   264187 
 8610000   0.70505062   -2.0459183   -2.0459183   -1.2806713  0.054664881   -2.0459183   0.76524708   264187 
 8620000   0.70730846   -2.0503475   -2.0503475   -1.2826499  0.055400551   -2.0503475   0.76769769   264187 
 8630000   0.70642705   -2.0508879   -2.0508879   -1.2841469  0.066665992   -2.0508879   0.76674102   264187 
 8640000    0.7075568    -2.051827    -2.051827   -1.2838597  0.061950945    -2.051827   0.76796724   264187 
 8650000   0.70653294   -2.0536609   -2.0536609   -1.2868049   0.06017532   -2.0536609   0.76685596   264187 
 8660000     0.705442   -2.0548001   -2.0548001   -1.2891283  0.068374044   -2.0548001   0.76567188   264187 
 8670000   0.70241755   -2.0559992   -2.0559992     -1.29361  0.064743045   -2.0559992    0.7623892   264187 
 8680000    0.7033776   -2.0580295   -2.0580295   -1.2945983  0.067194586   -2.0580295   0.76343122   264187 
 8690000   0.70263654   -2.0596522   -2.0596522   -1.2970253   0.06073819   -2.0596522   0.76262689   264187 
 8700000   0.70180915   -2.0630296   -2.0630296   -1.3013008  0.063724635   -2.0630296   0.76172886   264187 
 8710000   0.70194506   -2.0641011   -2.0641011   -1.3022248  0.059438377   -2.0641011   0.76187637   264187 
 8720000    0.7020416   -2.0672733   -2.0672733   -1.3052921  0.052180597   -2.0672733   0.76198115   264187 
 8730000   0.69968853   -2.0676306   -2.0676306   -1.3082035  0.060008923   -2.0676306   0.75942717   264187 
 8740000   0.69675441   -2.0685215   -2.0685215   -1.3122789  0.060053492   -2.0685215   0.75624255   264187 
 8750000   0.69833064   -2.0708921   -2.0708921   -1.3129387  0.061245209   -2.0708921   0.75795335   264187 
 8760000   0.69653197   -2.0738549   -2.0738549   -1.3178538  0.054543409   -2.0738549   0.75600111   264187 
 8770000     0.696595   -2.0763276   -2.0763276    -1.320258  0.041324411   -2.0763276   0.75606953   264187 
 8780000   0.69546382    -2.078539    -2.078539   -1.3236973   0.06289519    -2.078539   0.75484177   264187 
 8790000   0.69607447   -2.0809574   -2.0809574   -1.3254529  0.060834825   -2.0809574   0.75550455   264187 
 8800000   0.69698161   -2.0836755   -2.0836755   -1.3271864  0.055959338   -2.0836755   0.75648914   264187 
 8810000   0.69378112   -2.0844731   -2.0844731   -1.3314577  0.061590513   -2.0844731    0.7530154   264187 
 8820000    0.6950337   -2.0862854   -2.0862854   -1.3319105   0.05882574   -2.0862854   0.75437492   264187 
 8830000   0.69373962   -2.0871953   -2.0871953    -1.334225  0.059294066   -2.0871953   0.75297036   264187 
 8840000   0.69084888   -2.0904236   -2.0904236   -1.3405908  0.056581225   -2.0904236   0.74983281   264187 
 8850000   0.69278479   -2.0949586   -2.0949586   -1.3430246  0.047761467   -2.0949586   0.75193401   264187 
 8860000   0.68937586    -2.090905    -2.090905    -1.342671  0.064447677    -2.090905   0.74823402   264187 
 8870000   0.69050637   -2.0959701   -2.0959701    -1.346509  0.053272194   -2.0959701   0.74946106   264187 
 8880000   0.68839552   -2.0969949   -2.0969949   -1.3498249  0.058751518   -2.0969949   0.74716998   264187 
 8890000    0.6895671   -2.1027557   -2.1027557   -1.3543141  0.047755888   -2.1027557   0.74844159   264187 
 8900000   0.68783058    -2.104377    -2.104377   -1.3578202  0.055708021    -2.104377   0.74655681   264187 
 8910000   0.68670129    -2.107174    -2.107174   -1.3618429  0.052950521    -2.107174   0.74533111   264187 
 8920000    0.6865755   -2.1098253   -2.1098253   -1.3646308  0.052833419   -2.1098253   0.74519457   264187 
 8930000   0.68423159   -2.1095646   -2.1095646   -1.3669141   0.05728875   -2.1095646   0.74265054   264187 
 8940000   0.68503556   -2.1127633   -2.1127633   -1.3692401  0.049044286   -2.1127633   0.74352315   264187 
 8950000   0.68549957   -2.1185064   -2.1185064   -1.3744796  0.046731709   -2.1185064   0.74402678   264187 
 8960000   0.68326619   -2.1189012   -2.1189012   -1.3772985  0.057518647   -2.1189012   0.74160272   264187 
 8970000   0.68339533   -2.1184818   -2.1184818   -1.3767389   0.04293364   -2.1184818   0.74174289   264187 
 8980000   0.68349863   -2.1242121   -2.1242121   -1.3823571   0.05507904   -2.1242121     0.741855   264187 
 8990000   0.68235868   -2.1258335   -2.1258335   -1.3852158  0.058997979   -2.1258335   0.74061772   264187 
 9000000   0.68024901   -2.1277149   -2.1277149    -1.389387  0.057484952   -2.1277149   0.73832793   264187 
 9010000   0.67976631   -2.1308997   -2.1308997   -1.3930957  0.060235692   -2.1308997   0.73780402   264187 
 9020000   0.67961956   -2.1357678   -2.1357678    -1.398123  0.056344414   -2.1357678   0.73764474   264187 
 9030000   0.67689114   -2.1355948   -2.1355948   -1.4009114  0.068635763   -2.1355948   0.73468337   264187 
 9040000   0.67576119   -2.1358498   -2.1358498   -1.4023929  0.040780616   -2.1358498   0.73345695   264187 
 9050000   0.67641256   -2.1430547   -2.1430547   -1.4088907  0.044671418   -2.1430547   0.73416394   264187 
 9060000   0.67430609   -2.1432839   -2.1432839   -1.4114063  0.045675611   -2.1432839   0.73187762   264187 
 9070000   0.67412287   -2.1443908   -2.1443908    -1.412712   0.04696881   -2.1443908   0.73167876   264187 
 9080000   0.67580972   -2.1490935   -2.1490935   -1.4155839  0.051115306   -2.1490935   0.73350962   264187 
 9090000   0.67387818   -2.1491237   -2.1491237   -1.4177105  0.054107423   -2.1491237   0.73141317   264187 
 9100000   0.67458548   -2.1555532   -2.1555532   -1.4233724  0.054016861   -2.1555532   0.73218086   264187 
 9110000   0.67270302   -2.1552436   -2.1552436   -1.4251059  0.052776485   -2.1552436   0.73013767   264187 
 9120000   0.67366848   -2.1547862   -2.1547862   -1.4236006  0.041095073   -2.1547862   0.73118557   264187 
 9130000   0.67342457   -2.1563154   -2.1563154   -1.4253946  0.053199755   -2.1563154   0.73092083   264187 
 9140000   0.67263668   -2.1592834   -2.1592834   -1.4292177  0.054242194   -2.1592834   0.73006568   264187 
 9150000   0.67059718   -2.1599802   -2.1599802   -1.4321281   0.05050185   -2.1599802   0.72785205   264187 
 9160000   0.67163157   -2.1628769   -2.1628769   -1.4339022  0.062054597   -2.1628769   0.72897474   264187 
 9170000   0.67223597   -2.1691169   -2.1691169   -1.4394861  0.060591053   -2.1691169   0.72963074   264187 
 9180000   0.66978592   -2.1686361   -2.1686361   -1.4416646  0.043639835   -2.1686361   0.72697152   264187 
 9190000   0.66924662   -2.1744441   -2.1744441    -1.448058  0.049334169   -2.1744441   0.72638618   264187 
 9200000   0.66663178   -2.1740828   -2.1740828   -1.4505347  0.057787214   -2.1740828   0.72354808   264187 
 9210000   0.66554148   -2.1759494   -2.1759494   -1.4535848  0.049502969   -2.1759494   0.72236469   264187 
 9220000    0.6647943   -2.1791434   -2.1791434   -1.4575897  0.057958683   -2.1791434   0.72155371   264187 
 9230000   0.66453461   -2.1844798   -2.1844798    -1.463208  0.058470041   -2.1844798   0.72127185   264187 
 9240000   0.66442209   -2.1848935   -2.1848935   -1.4637437  0.053983515   -2.1848935   0.72114973   264187 
 9250000   0.66418998   -2.1905974   -2.1905974   -1.4696996  0.045734463   -2.1905974    0.7208978   264187 
 9260000   0.66205804   -2.1914054   -2.1914054   -1.4728215  0.043581217   -2.1914054   0.71858384   264187 
 9270000    0.6631347   -2.1949821   -2.1949821   -1.4752297  0.060420247   -2.1949821   0.71975243   264187 
 9280000   0.66047653   -2.1981445   -2.1981445   -1.4812772  0.044730982   -2.1981445    0.7168673   264187 
 9290000     0.663707   -2.2007188   -2.2007188   -1.4803452  0.051389457   -2.2007188   0.72037359   264187 
 9300000   0.65915564   -2.2031077   -2.2031077   -1.4876741  0.043062167   -2.2031077   0.71543364   264187 
 9310000   0.65923198      -2.2049      -2.2049   -1.4893835  0.053936833      -2.2049   0.71551649   264187 
 9320000   0.65932741   -2.2097872   -2.2097872   -1.4941671  0.047985011   -2.2097872   0.71562007   264187 
 9330000   0.65850599   -2.2109874   -2.2109874   -1.4962589  0.057283465   -2.2109874   0.71472851   264187 
 9340000   0.65913558   -2.2139485   -2.2139485   -1.4985366  0.058517753   -2.2139485   0.71541187   264187 
 9350000   0.65582052   -2.2157881   -2.2157881   -1.5039743   0.04582596   -2.2157881   0.71181376   264187 
 9360000   0.65727338    -2.221331    -2.221331   -1.5079403   0.05353886    -2.221331   0.71339067   264187 
 9370000    0.6572906    -2.224196    -2.224196   -1.5107867  0.047749914    -2.224196   0.71340935   264187 
 9380000     0.653995   -2.2250874   -2.2250874    -1.515255  0.042038145   -2.2250874   0.70983239   264187 
 9390000   0.65561473   -2.2314184   -2.2314184    -1.519828  0.047691156   -2.2314184    0.7115904   264187 
 9400000   0.65379242   -2.2329833   -2.2329833   -1.5233708  0.038974396   -2.2329833   0.70961251   264187 
 9410000   0.65269166   -2.2366123   -2.2366123   -1.5281945  0.048592643   -2.2366123   0.70841777   264187 
 9420000   0.65409464   -2.2402492   -2.2402492   -1.5303087  0.049053549   -2.2402492   0.70994054   264187 
 9430000   0.65227082   -2.2427701   -2.2427701   -1.5348091  0.051403912   -2.2427701     0.707961   264187 
 9440000   0.65113799    -2.244113    -2.244113   -1.5373815  0.040124571    -2.244113   0.70673145   264187 
 9450000   0.65035049   -2.2488004   -2.2488004   -1.5429237  0.040185494   -2.2488004   0.70587671   264187 
 9460000   0.65077272   -2.2525142   -2.2525142   -1.5461793  0.044021066   -2.2525142   0.70633499   264187 
 9470000   0.64878599    -2.253215    -2.253215   -1.5490363  0.041228711    -2.253215   0.70417864   264187 
 9480000   0.64922327   -2.2555303   -2.2555303    -1.550877   0.04338154   -2.2555303   0.70465325   264187 
 9490000   0.64871404   -2.2595536   -2.2595536   -1.5554531   0.04977279   -2.2595536   0.70410055   264187 
 9500000   0.64630442   -2.2611699   -2.2611699   -1.5596848   0.04915816   -2.2611699   0.70148519   264187 
 9510000   0.64766215   -2.2654691   -2.2654691   -1.5625103  0.033116953   -2.2654691   0.70295884   264187 
 9520000   0.64543091   -2.2680527   -2.2680527   -1.5675156  0.045852258   -2.2680527    0.7005371   264187 
 9530000   0.64597868   -2.2710761   -2.2710761   -1.5699445  0.042083222   -2.2710761   0.70113164   264187 
 9540000   0.64432738   -2.2763408   -2.2763408   -1.5770014  0.050044526   -2.2763408   0.69933935   264187 
 9550000    0.6432614   -2.2754782   -2.2754782   -1.5772959  0.044090787   -2.2754782   0.69818236   264187 
 9560000   0.64057371   -2.2789001   -2.2789001   -1.5836349  0.052248173   -2.2789001    0.6952652   264187 
 9570000   0.64206488   -2.2829572   -2.2829572   -1.5860735  0.041237469   -2.2829572   0.69688368   264187 
 9580000   0.64473316   -2.2884624   -2.2884624   -1.5886827  0.040221894   -2.2884624   0.69977978   264187 
 9590000   0.64286378    -2.291246    -2.291246   -1.5934952  0.041374766    -2.291246   0.69775079   264187 
 9600000   0.64056262   -2.2927901   -2.2927901    -1.597537  0.052942894   -2.2927901   0.69525316   264187 
 9610000    0.6374273   -2.2936153   -2.2936153   -1.6017652  0.046794789   -2.2936153   0.69185015   264187 
 9620000   0.63935911   -2.2990313   -2.2990313   -1.6050844  0.041588686   -2.2990313   0.69394689   264187 
 9630000   0.63838372   -2.3028609   -2.3028609   -1.6099726  0.043637064   -2.3028609   0.69288823   264187 
 9640000   0.63703428   -2.3046798   -2.3046798   -1.6132562  0.041976622   -2.3046798   0.69142358   264187 
 9650000   0.63679701   -2.3115393   -2.3115393   -1.6203732  0.042308774   -2.3115393   0.69116605   264187 
 9660000   0.63797338   -2.3150933   -2.3150933   -1.6226505  0.047431581   -2.3150933   0.69244285   264187 
 9670000   0.63633427    -2.319519    -2.319519   -1.6288552   0.04421611    -2.319519    0.6906638   264187 
 9680000   0.63300812   -2.3205741   -2.3205741   -1.6335204  0.043898408   -2.3205741   0.68705367   264187 
 9690000   0.63108282   -2.3237353   -2.3237353   -1.6387713  0.044264306   -2.3237353   0.68496399   264187 
 9700000    0.6319489   -2.3292878   -2.3292878   -1.6433838  0.048513732   -2.3292878   0.68590401   264187 
 9710000    0.6321159   -2.3319226   -2.3319226   -1.6458374   0.04148725   -2.3319226   0.68608527   264187 
 9720000    0.6295089   -2.3326221   -2.3326221   -1.6493664  0.042473809   -2.3326221   0.68325569   264187 
 9730000   0.62980625    -2.337577    -2.337577   -1.6539985  0.043301089    -2.337577   0.68357843   264187 
 9740000   0.62972141   -2.3406412   -2.3406412   -1.6571548  0.043755376   -2.3406412   0.68348634   264187 
 9750000   0.63044649   -2.3436435   -2.3436435   -1.6593702  0.042096883   -2.3436435   0.68427333   264187 
 9760000   0.63163317    -2.347076    -2.347076   -1.6615147  0.045026646    -2.347076   0.68556133   264187 
 9770000   0.62840193   -2.3508473   -2.3508473   -1.6687931  0.038159793   -2.3508473    0.6820542   264187 
 9780000   0.62641031    -2.352742    -2.352742   -1.6728495  0.037418388    -2.352742   0.67989254   264187 
 9790000   0.62499231   -2.3537958   -2.3537958   -1.6754423  0.036991619   -2.3537958   0.67835348   264187 
 9800000   0.62705717     -2.36049     -2.36049   -1.6798953  0.037965207     -2.36049   0.68059463   264187 
 9810000   0.62434686   -2.3613785   -2.3613785   -1.6837256  0.040834017   -2.3613785   0.67765292   264187 
 9820000   0.62555757   -2.3640804   -2.3640804   -1.6851134  0.038855049   -2.3640804     0.678967   264187 
 9830000   0.62341484   -2.3680656   -2.3680656   -1.6914243  0.033976884   -2.3680656   0.67664133   264187 
 9840000   0.62430554   -2.3721663   -2.3721663   -1.6945582  0.041174919   -2.3721663   0.67760807   264187 
 9850000   0.62114268   -2.3738545   -2.3738545   -1.6996793  0.033336106   -2.3738545   0.67417517   264187 
 9860000   0.62235134   -2.3791773   -2.3791773   -1.7036902  0.038557271   -2.3791773   0.67548703   264187 
 9870000   0.62209152   -2.3806191   -2.3806191    -1.705414  0.043874496   -2.3806191   0.67520502   264187 
 9880000   0.62105384   -2.3838059   -2.3838059   -1.7097272  0.049647607   -2.3838059   0.67407875   264187 
 9890000   0.61995411   -2.3868753   -2.3868753   -1.7139902  0.040056151   -2.3868753   0.67288512   264187 
 9900000   0.61994981   -2.3929538   -2.3929538   -1.7200734  0.037072723   -2.3929538   0.67288045   264187 
 9910000   0.61930722   -2.3950997   -2.3950997   -1.7229166  0.031351161   -2.3950997     0.672183   264187 
 9920000   0.61785991   -2.3998438   -2.3998438   -1.7292317  0.044798065   -2.3998438   0.67061212   264187 
 9930000   0.61732001   -2.4028294   -2.4028294   -1.7328033  0.028460405   -2.4028294   0.67002613   264187 
 9940000    0.6160761   -2.4068797   -2.4068797   -1.7382037  0.042083491   -2.4068797   0.66867601   264187 
 9950000    0.6184379   -2.4103486   -2.4103486   -1.7391091  0.032793462   -2.4103486   0.67123946   264187 
 9960000    0.6158026   -2.4123603   -2.4123603   -1.7439811  0.037244718   -2.4123603   0.66837916   264187 
 9970000   0.61623752   -2.4145713   -2.4145713   -1.7457201  0.032067022   -2.4145713   0.66885121   264187 
 9980000    0.6152898   -2.4194096   -2.4194096    -1.751587  0.038170902   -2.4194096   0.66782258   264187 
 9990000   0.61455738   -2.4203886   -2.4203886    -1.753361  0.035030846   -2.4203886   0.66702763   264187 
10000000   0.61419235   -2.4249043   -2.4249043   -1.7582729  0.037188375   -2.4249043   0.66663143   264187 
Loop time of 12584.4 on 336 procs for 5000000 steps with 264187 atoms

Performance: 171641.422 tau/day, 397.318 timesteps/s
80.4% CPU use with 336 MPI tasks x 1 OpenMP threads

MPI task timing breakdown:
Section |  min time  |  avg time  |  max time  |%varavg|  %CPU | %total
-----------------------------------------------------------------------
Pair    | 75.926     | 984.12     | 2986.6     |2521.9 |  85.9 |  7.82
Bond    | 3.091      | 3.3201     | 3.5588     |   4.6 | 100.0 |  0.03
Neigh   | 210.53     | 1457.4     | 4199.5     |2727.2 |  96.4 | 11.58
Comm    | 1591.4     | 5498.3     | 9721.7     |2740.0 |  79.0 | 43.69
Output  | 559.37     | 643.16     | 732.72     | 153.8 |  74.6 |  5.11
Modify  | 1193.2     | 3884       | 9352.1     |3921.9 |  78.2 | 30.86
Other   |            | 114.1      |            |       |       |  0.91

Nlocal:        786.271 ave        1898 max         103 min
Histogram: 25 20 19 129 88 39 10 2 2 2
Nghost:        4750.25 ave        9116 max         824 min
Histogram: 58 21 31 28 36 36 35 41 35 15
Neighs:        19306.3 ave       63289 max         411 min
Histogram: 100 31 40 41 46 45 24 4 3 2
FullNghs:      38612.5 ave      132135 max         765 min
Histogram: 97 48 28 44 55 37 20 3 3 1

Total # of neighbors = 12973812
Ave neighs/atom = 49.108442
Ave special neighs/atom = 0.0000000
Neighbor list builds = 499464
Dangerous builds = 485919
Total wall time: 6:58:06
