LAMMPS (29 Oct 2020)
  using 1 OpenMP thread(s) per MPI task
# Simple rigid body system
# needed variables:

#variable	startTemp equal 0.5
#variable 	temp 	  equal 0.8

units		lj
atom_style	full
dimension 	3
boundary	p p f
pair_style	lj/cut/opt 2.5


variable 	sigma		equal 1.0
variable 	epsilon 	equal 1.0

region		box block 0 100 0 100 0 200
create_box 	3 box
Created orthogonal box = (0.0000000 0.0000000 0.0000000) to (100.00000 100.00000 200.00000)
  4 by 5 by 12 MPI processor grid
lattice 	sc 1.0
Lattice spacing in x,y,z = 1.0000000 1.0000000 1.0000000

region		create block EDGE EDGE EDGE EDGE 2 102
create_atoms 	1 region create
Created 1010000 atoms
  create_atoms CPU = 0.097 seconds

mass		1 1.0
mass		2 1.0
mass		3 1.0

group		solvent type 1
1010000 atoms in group solvent

velocity 	solvent create ${startTemp} 563435 loop geom
velocity 	solvent create 0.8 563435 loop geom


neighbor 	0.4 bin

pair_coeff	1 1 1.0 1.0
pair_coeff	2 2 0.0 0.0
pair_coeff	3 3 0.0 0.0
pair_coeff	2 3 0.0 0.0
pair_coeff	1 2*3 0.0 0.0

pair_modify 	shift yes


balance 	1.05 shift z 10 1.05
Balancing ...
Neighbor list info ...
  update every 1 steps, delay 10 steps, check yes
  max neighbors/atom: 2000, page size: 100000
  master list distance cutoff = 2.9
  ghost atom cutoff = 2.9
  binsize = 1.45, bins = 69 69 138
  1 neighbor lists, perpetual/occasional/extra = 1 0 0
  (1) pair lj/cut/opt, perpetual
      attributes: half, newton on
      pair build: half/bin/newton
      stencil: half/bin/3d/newton
      bin: standard
 rebalancing time: 0.673 seconds
  iteration count = 5
  initial/final maximal load/proc = 8925.0000 5775.0000
  initial/final imbalance factor  = 2.1207921 1.3722772
  x cuts: 0.0000000 0.25 0.5 0.75 1.0000000
  y cuts: 0.0000000 0.2 0.4 0.6 0.8 1.0000000
  z cuts: 0.0000000 0.049479167 0.091145833 0.13020833 0.171875 0.22135417 0.2578125 0.30208333 0.34375 0.37239583 0.4296875 0.46354167 1.0000000


####################### WALLS ###########################


variable       epsilonWall equal 2*${epsilon}
variable       epsilonWall equal 2*1

variable       cutoffTop   equal   0.7147*${sigma}
variable       cutoffTop   equal   0.7147*1

variable       cutoffLow   equal   3*${sigma}
variable       cutoffLow   equal   3*1


fix            topWall all wall/lj93 zhi EDGE                ${epsilonWall} ${sigma} ${cutoffTop} units box
fix            topWall all wall/lj93 zhi EDGE                2 ${sigma} ${cutoffTop} units box
fix            topWall all wall/lj93 zhi EDGE                2 1 ${cutoffTop} units box
fix            topWall all wall/lj93 zhi EDGE                2 1 0.7147 units box

fix            lowWall all wall/lj93 zlo EDGE                ${epsilonWall} ${sigma} ${cutoffLow} units box
fix            lowWall all wall/lj93 zlo EDGE                2 ${sigma} ${cutoffLow} units box
fix            lowWall all wall/lj93 zlo EDGE                2 1 ${cutoffLow} units box
fix            lowWall all wall/lj93 zlo EDGE                2 1 3 units box


###################### COMPUTES ##########################

compute        bin1 solvent chunk/atom bin/1d z upper 1.0


######################	FIXES ############################


fix 		peclet solvent ave/chunk 1000 1 1000 bin1 density/number norm 		 none ave one file density.profile

fix 		 temp solvent ave/chunk 1000 1 1000 bin1 temp norm 		 none ave one file temp.profile

fix 		2 solvent nve


## Thermostat


region		regthermo block EDGE EDGE EDGE EDGE 0 20

group 		thermo dynamic solvent region regthermo every 1000
dynamic group thermo defined

fix 		3 thermo langevin ${startTemp} ${temp} 10 156453
fix 		3 thermo langevin 0.8 ${temp} 10 156453
fix 		3 thermo langevin 0.8 .6 10 156453



#### Load balancing


fix 		bal all balance 1000 1.05 shift z 10 1.05


############### Diagnostics and computes ###################
#compute 	com cube	  rigid/local	1 mol x y z
#compute 	quat cube	  rigid/local	1 mol quatw quati quatj quatk

thermo 		1000
thermo_style 	custom step temp epair evdwl etotal press pe ke atoms

dump		1 all custom 100000 dump.lammpstrj id mol type x y z
dump 		2 all image 10000 image.*.png type type
dump 		3 all movie 1000 movie.avi type type

#dump 		com cube local 1000 dump.*.xyz c_com[*]
#dump		quat cube      local 1000 dump.*.quat c_quat[*]


restart 	1000000 restart.dat
timestep 	0.005
timer 		full
New timer settings: style=full  mode=nosync  timeout=off

run		3000000
Per MPI rank memory allocation (min/avg/max) = 9.581 | 9.852 | 10.35 Mbytes
Step Temp E_pair E_vdwl TotEng Press PotEng KinEng Atoms 
       0          0.8   -3.3050748   -3.3050748    -2.105076    8.8982699   -3.3050748    1.1999988  1010000 
    1000    1.5970832   -4.6786143   -4.6786143   -2.2829918      3.95609   -4.6786143    2.3956224  1010000 
    2000    1.5376253    -4.742586    -4.742586   -2.4361504    2.0498425    -4.742586    2.3064356  1010000 
    3000    1.4751903   -4.6977877   -4.6977877   -2.4850044   0.51310847   -4.6977877    2.2127832  1010000 
    4000    1.3542283   -4.4918916   -4.4918916   -2.4605511 -0.075919335   -4.4918916    2.0313405  1010000 
    5000    1.3051015   -4.3814192   -4.3814192   -2.4237689 -0.034617102   -4.3814192    1.9576503  1010000 
    6000    1.3184669   -4.3772954   -4.3772954    -2.399597   0.09652934   -4.3772954    1.9776983  1010000 
    7000    1.3207727    -4.368187    -4.368187     -2.38703   0.15411697    -4.368187    1.9811571  1010000 
    8000    1.3255092   -4.3672118   -4.3672118     -2.37895    0.1981353   -4.3672118    1.9882618  1010000 
    9000    1.3322603   -4.3724743   -4.3724743   -2.3740859    0.2492515   -4.3724743    1.9983885  1010000 
   10000    1.3351885   -4.3743064   -4.3743064   -2.3715257   0.28110093   -4.3743064    2.0027807  1010000 
   11000    1.3316166   -4.3675801   -4.3675801   -2.3701572   0.29270575   -4.3675801    1.9974229  1010000 
   12000     1.321911   -4.3541203   -4.3541203   -2.3712558    1.0802369   -4.3541203    1.9828645  1010000 
   13000    1.3151706   -4.3435082   -4.3435082   -2.3707544    2.3297033   -4.3435082    1.9727539  1010000 
   14000    1.3269062   -4.3607123   -4.3607123   -2.3703549    2.2542391   -4.3607123    1.9903574  1010000 
   15000    1.3108479   -4.3345178   -4.3345178   -2.3682478      1.40538   -4.3345178      1.96627  1010000 
   16000    1.2446553   -4.2345901   -4.2345901    -2.367609   0.71944093   -4.2345901    1.8669811  1010000 
   17000    1.1518689   -4.0961467   -4.0961467    -2.368345   0.31121296   -4.0961467    1.7278017  1010000 
   18000    1.0727951    -3.977708    -3.977708    -2.368517   0.10415498    -3.977708    1.6091911  1010000 
   19000    1.0342607   -3.9204299   -3.9204299   -2.3690405  0.055240797   -3.9204299    1.5513894  1010000 
   20000    1.0183865   -3.8972996   -3.8972996   -2.3697214  0.055084488   -3.8972996    1.5275782  1010000 
   21000    1.0127931   -3.8903983   -3.8903983   -2.3712102  0.069601445   -3.8903983    1.5191881  1010000 
   22000    1.0147566   -3.8957806   -3.8957806   -2.3736472    0.1132871   -3.8957806    1.5221334  1010000 
   23000    1.0203872   -3.9082345   -3.9082345   -2.3776552   0.18436323   -3.9082345    1.5305792  1010000 
   24000    1.0260891   -3.9221231   -3.9221231    -2.382991   0.24359899   -3.9221231    1.5391321  1010000 
   25000    1.0248361   -3.9277034   -3.9277034   -2.3904507    0.2421998   -3.9277034    1.5372527  1010000 
   26000    1.0114248   -3.9163362   -3.9163362   -2.3992006   0.18288877   -3.9163362    1.5171356  1010000 
   27000   0.98951947   -3.8956561   -3.8956561   -2.4113784   0.10444471   -3.8956561    1.4842777  1010000 
   28000   0.97204384   -3.8852358   -3.8852358   -2.4271715  0.050644916   -3.8852358    1.4580643  1010000 
   29000   0.96147245   -3.8906262   -3.8906262   -2.4484189  0.044814296   -3.8906262    1.4422073  1010000 
   30000   0.95869488   -3.9104247   -3.9104247   -2.4723838  0.073866323   -3.9104247    1.4380409  1010000 
   31000   0.96121273   -3.9381023   -3.9381023   -2.4962847   0.10740045   -3.9381023    1.4418177  1010000 
   32000   0.97041511   -3.9713433   -3.9713433   -2.5157221   0.13500554   -3.9713433    1.4556212  1010000 
   33000   0.98159456   -4.0034042   -4.0034042   -2.5310139   0.17846862   -4.0034042    1.4723904  1010000 
   34000   0.99153756   -4.0295718   -4.0295718    -2.542267   0.21489937   -4.0295718    1.4873049  1010000 
   35000    1.0005268   -4.0528819   -4.0528819   -2.5520931   0.25356487   -4.0528819    1.5007887  1010000 
   36000    1.0132527   -4.0788814   -4.0788814   -2.5590038   0.32794166   -4.0788814    1.5198776  1010000 
   37000    1.0293175   -4.1102384   -4.1102384   -2.5662637   0.40731754   -4.1102384    1.5439747  1010000 
   38000    1.0420124   -4.1420619   -4.1420619   -2.5790448   0.48443503   -4.1420619    1.5630171  1010000 
   39000    1.0407495    -4.162885    -4.162885   -2.6017623   0.53547407    -4.162885    1.5611227  1010000 
   40000    1.0290735   -4.1716774   -4.1716774   -2.6280686   0.53651939   -4.1716774    1.5436088  1010000 
   41000    1.0193493   -4.1808317   -4.1808317   -2.6518092    0.5071707   -4.1808317    1.5290225  1010000 
   42000    1.0126274   -4.1879709   -4.1879709   -2.6690313   0.49792156   -4.1879709    1.5189396  1010000 
   43000    1.0089366   -4.1954523   -4.1954523   -2.6820489   0.48737894   -4.1954523    1.5134034  1010000 
   44000    1.0022528   -4.1942261   -4.1942261   -2.6908484   0.46357037   -4.1942261    1.5033777  1010000 
   45000   0.98510795   -4.1733002   -4.1733002   -2.6956397   0.38483143   -4.1733002    1.4776605  1010000 
   46000   0.96312432   -4.1403984   -4.1403984   -2.6957134   0.27663984   -4.1403984     1.444685  1010000 
   47000   0.94062018   -4.1058872   -4.1058872   -2.6949583   0.17468967   -4.1058872    1.4109289  1010000 
   48000   0.92016249   -4.0732632   -4.0732632   -2.6930209   0.10349136   -4.0732632    1.3802424  1010000 
   49000   0.90265756   -4.0446203   -4.0446203   -2.6906353  0.052342746   -4.0446203     1.353985  1010000 
   50000   0.88921277   -4.0223696   -4.0223696   -2.6885518  0.012234199   -4.0223696    1.3338178  1010000 
   51000   0.87695694    -4.000242    -4.000242   -2.6848079 -0.011137366    -4.000242    1.3154341  1010000 
   52000   0.87023987    -3.985576    -3.985576   -2.6802175 -0.031008077    -3.985576    1.3053585  1010000 
   53000   0.86927672   -3.9770323   -3.9770323   -2.6731185 -0.034636894   -3.9770323    1.3039138  1010000 
   54000   0.86961785   -3.9724765   -3.9724765    -2.668051 -0.032460018   -3.9724765    1.3044255  1010000 
   55000   0.87292091   -3.9728885   -3.9728885   -2.6635085 -0.021124296   -3.9728885    1.3093801  1010000 
   56000   0.87776537   -3.9765907   -3.9765907   -2.6599439 -0.0016183181   -3.9765907    1.3166467  1010000 
   57000   0.88149018    -3.981259    -3.981259    -2.659025 0.0099630419    -3.981259     1.322234  1010000 
   58000   0.88451887   -3.9872991   -3.9872991   -2.6605221  0.020076655   -3.9872991     1.326777  1010000 
   59000   0.88609436    -3.991066    -3.991066   -2.6619258  0.027400136    -3.991066    1.3291402  1010000 
   60000   0.88456917   -3.9921703   -3.9921703   -2.6653178  0.026347987   -3.9921703    1.3268524  1010000 
   61000   0.88418144   -3.9945666   -3.9945666   -2.6682958  0.022205834   -3.9945666    1.3262708  1010000 
   62000   0.88295664   -3.9958331   -3.9958331   -2.6713994  0.017334093   -3.9958331    1.3244337  1010000 
   63000   0.88242066   -3.9969221   -3.9969221   -2.6732924  0.021107743   -3.9969221    1.3236297  1010000 
   64000   0.88335529   -4.0002561   -4.0002561   -2.6752245  0.021571928   -4.0002561    1.3250316  1010000 
   65000   0.88257651   -4.0004186   -4.0004186   -2.6765552  0.028782899   -4.0004186    1.3238635  1010000 
   66000   0.88346938   -4.0026223   -4.0026223   -2.6774195  0.034014292   -4.0026223    1.3252028  1010000 
   67000   0.88392941   -4.0046661   -4.0046661   -2.6787733  0.033038224   -4.0046661    1.3258928  1010000 
   68000   0.88263012   -4.0048596   -4.0048596   -2.6809157   0.03223836   -4.0048596    1.3239439  1010000 
   69000   0.88221652   -4.0047683   -4.0047683   -2.6814448  0.027365726   -4.0047683    1.3233235  1010000 
   70000   0.88050306   -4.0043556   -4.0043556   -2.6836023  0.026064058   -4.0043556    1.3207533  1010000 
   71000    0.8792329   -4.0045227   -4.0045227   -2.6856747  0.026597718   -4.0045227     1.318848  1010000 
   72000    0.8794061   -4.0060573   -4.0060573   -2.6869495  0.026617243   -4.0060573    1.3191078  1010000 
   73000   0.88042733     -4.00839     -4.00839   -2.6877503  0.031848142     -4.00839    1.3206397  1010000 
   74000   0.87959631   -4.0077466   -4.0077466   -2.6883534  0.036058428   -4.0077466    1.3193932  1010000 
   75000   0.88066492   -4.0099003   -4.0099003   -2.6889043  0.033802733   -4.0099003    1.3209961  1010000 
   76000   0.87941353   -4.0096242   -4.0096242   -2.6905052  0.034751555   -4.0096242     1.319119  1010000 
   77000   0.87841595   -4.0095819   -4.0095819   -2.6919592  0.028921596   -4.0095819    1.3176226  1010000 
   78000   0.87815718   -4.0111227   -4.0111227   -2.6938883    0.0334423   -4.0111227    1.3172345  1010000 
   79000   0.87790364   -4.0130728   -4.0130728   -2.6962186  0.032427688   -4.0130728    1.3168542  1010000 
   80000   0.88113165   -4.0193053   -4.0193053   -2.6976091  0.043992542   -4.0193053    1.3216962  1010000 
   81000    0.8871526   -4.0291461   -4.0291461   -2.6984185   0.07633138   -4.0291461    1.3307276  1010000 
   82000   0.89865811   -4.0473749   -4.0473749   -2.6993891    0.1321562   -4.0473749    1.3479858  1010000 
   83000   0.91006626   -4.0656369   -4.0656369   -2.7005389   0.19653173   -4.0656369     1.365098  1010000 
   84000   0.91847594     -4.07864     -4.07864   -2.7009274   0.23620403     -4.07864    1.3777125  1010000 
   85000   0.91777374   -4.0790026   -4.0790026   -2.7023434   0.22884938   -4.0790026    1.3766592  1010000 
   86000   0.90984519   -4.0676276   -4.0676276   -2.7028611   0.18422664   -4.0676276    1.3647664  1010000 
   87000   0.89550228   -4.0473009   -4.0473009   -2.7040488   0.12376348   -4.0473009    1.3432521  1010000 
   88000   0.88359287   -4.0300099   -4.0300099   -2.7046219   0.07119122   -4.0300099     1.325388  1010000 
   89000   0.87447698   -4.0175152   -4.0175152    -2.705801  0.033386481   -4.0175152    1.3117142  1010000 
   90000   0.86961368   -4.0115154   -4.0115154   -2.7070961  0.017067977   -4.0115154    1.3044192  1010000 
   91000   0.86620945    -4.007801    -4.007801   -2.7084881  0.014692978    -4.007801    1.2993129  1010000 
   92000   0.86692247    -4.009334    -4.009334   -2.7089516  0.016239029    -4.009334    1.3003824  1010000 
   93000   0.86935849   -4.0138302   -4.0138302   -2.7097938   0.02680878   -4.0138302    1.3040364  1010000 
   94000   0.87315304   -4.0210285   -4.0210285   -2.7113003  0.043036043   -4.0210285    1.3097283  1010000 
   95000   0.87492483   -4.0237628   -4.0237628   -2.7113769  0.054242589   -4.0237628     1.312386  1010000 
   96000   0.87580553   -4.0267012   -4.0267012   -2.7129942  0.046596719   -4.0267012     1.313707  1010000 
   97000   0.87406108   -4.0253523   -4.0253523    -2.714262  0.046179067   -4.0253523    1.3110903  1010000 
   98000   0.87090832   -4.0218826   -4.0218826   -2.7155214  0.035526119   -4.0218826    1.3063612  1010000 
   99000   0.86770827   -4.0186132   -4.0186132   -2.7170521  0.022378051   -4.0186132    1.3015611  1010000 
  100000   0.86552189   -4.0164907   -4.0164907   -2.7182092  0.016776785   -4.0164907    1.2982815  1010000 
  101000   0.86586732   -4.0181472   -4.0181472   -2.7193475  0.018366587   -4.0181472    1.2987997  1010000 
  102000   0.86592353   -4.0207123   -4.0207123   -2.7218283   0.01952974   -4.0207123     1.298884  1010000 
  103000   0.86728245    -4.024068    -4.024068   -2.7231456  0.023337936    -4.024068    1.3009224  1010000 
  104000    0.8695525   -4.0285291   -4.0285291   -2.7242016  0.032185089   -4.0285291    1.3043275  1010000 
  105000   0.87056988    -4.029963    -4.029963   -2.7241095  0.036845877    -4.029963    1.3058535  1010000 
  106000   0.87070802   -4.0312055   -4.0312055   -2.7251447  0.039218342   -4.0312055    1.3060607  1010000 
  107000   0.87084974   -4.0323263   -4.0323263    -2.726053  0.036895778   -4.0323263    1.3062733  1010000 
  108000   0.86834311    -4.029823    -4.029823   -2.7273096  0.034240732    -4.029823    1.3025134  1010000 
  109000   0.86659377    -4.028852    -4.028852   -2.7289626  0.026007147    -4.028852    1.2998894  1010000 
  110000    0.8657318   -4.0288757   -4.0288757   -2.7302792  0.023544066   -4.0288757    1.2985964  1010000 
  111000   0.86491565   -4.0280072   -4.0280072    -2.730635  0.025256725   -4.0280072    1.2973722  1010000 
  112000   0.86396252   -4.0282125   -4.0282125     -2.73227  0.020832349   -4.0282125    1.2959425  1010000 
  113000   0.86465293   -4.0301536   -4.0301536   -2.7331755  0.022544671   -4.0301536    1.2969781  1010000 
  114000    0.8660785   -4.0327684   -4.0327684   -2.7336519  0.027872332   -4.0327684    1.2991165  1010000 
  115000   0.86698656   -4.0352127   -4.0352127   -2.7347341  0.033349713   -4.0352127    1.3004785  1010000 
  116000   0.86879252   -4.0383785   -4.0383785    -2.735191  0.038276104   -4.0383785    1.3031875  1010000 
  117000   0.86865284   -4.0395071   -4.0395071   -2.7365292  0.031435696   -4.0395071     1.302978  1010000 
  118000   0.86781831   -4.0389953   -4.0389953   -2.7372691  0.034892593   -4.0389953    1.3017262  1010000 
  119000   0.86703679   -4.0391199   -4.0391199    -2.738566  0.027358183   -4.0391199    1.3005539  1010000 
  120000   0.86494385   -4.0367251   -4.0367251   -2.7393106  0.029340932   -4.0367251    1.2974145  1010000 
  121000   0.86466541   -4.0375524   -4.0375524   -2.7405556  0.024343891   -4.0375524    1.2969968  1010000 
  122000   0.86324027   -4.0370024   -4.0370024   -2.7421433  0.023032202   -4.0370024    1.2948591  1010000 
  123000   0.86336444   -4.0381252   -4.0381252   -2.7430798  0.023806365   -4.0381252    1.2950454  1010000 
  124000   0.86430542   -4.0408283   -4.0408283   -2.7443714  0.023290216   -4.0408283    1.2964568  1010000 
  125000   0.86455031   -4.0420348   -4.0420348   -2.7452106  0.031226577   -4.0420348    1.2968242  1010000 
  126000   0.86523456    -4.043897    -4.043897   -2.7460465  0.033400893    -4.043897    1.2978506  1010000 
  127000    0.8660915   -4.0461254   -4.0461254   -2.7469895  0.032564064   -4.0461254     1.299136  1010000 
  128000   0.86647693   -4.0476238   -4.0476238   -2.7479097  0.033527237   -4.0476238    1.2997141  1010000 
  129000   0.86598667   -4.0484064   -4.0484064   -2.7494277  0.036853377   -4.0484064    1.2989787  1010000 
  130000   0.86463636   -4.0477959   -4.0477959   -2.7508426  0.028767867   -4.0477959    1.2969533  1010000 
  131000   0.86291891   -4.0456036   -4.0456036   -2.7512265  0.022731406   -4.0456036    1.2943771  1010000 
  132000   0.86255728   -4.0465157   -4.0465157    -2.752681  0.023847868   -4.0465157    1.2938346  1010000 
  133000   0.86212828    -4.046401    -4.046401   -2.7532099  0.025491437    -4.046401    1.2931911  1010000 
  134000   0.86307618   -4.0493396   -4.0493396   -2.7547266  0.021815773   -4.0493396     1.294613  1010000 
  135000   0.86187737   -4.0492808   -4.0492808   -2.7564661  0.024403206   -4.0492808    1.2928148  1010000 
  136000   0.86443004   -4.0532694   -4.0532694   -2.7566256  0.026185786   -4.0532694    1.2966438  1010000 
  137000   0.86452095    -4.054081    -4.054081   -2.7573008   0.03057361    -4.054081    1.2967801  1010000 
  138000   0.86444005   -4.0552925   -4.0552925   -2.7586337  0.032022496   -4.0552925    1.2966588  1010000 
  139000   0.86400728    -4.055533    -4.055533   -2.7595233  0.032642376    -4.055533    1.2960096  1010000 
  140000   0.86357524   -4.0557007   -4.0557007   -2.7603392  0.028059229   -4.0557007    1.2953616  1010000 
  141000   0.86274693   -4.0556473   -4.0556473   -2.7615282  0.027332101   -4.0556473    1.2941191  1010000 
  142000   0.86249639   -4.0564172   -4.0564172   -2.7626739  0.022603286   -4.0564172    1.2937433  1010000 
  143000   0.86149553   -4.0562587   -4.0562587   -2.7640167  0.024755648   -4.0562587     1.292242  1010000 
  144000   0.86173669   -4.0572381   -4.0572381   -2.7646344  0.023802079   -4.0572381    1.2926038  1010000 
  145000   0.86281535   -4.0608338   -4.0608338   -2.7666121   0.02564821   -4.0608338    1.2942217  1010000 
  146000   0.86256515   -4.0610659   -4.0610659   -2.7672195  0.029123217   -4.0610659    1.2938464  1010000 
  147000   0.86268967   -4.0629641   -4.0629641   -2.7689309  0.028852443   -4.0629641    1.2940332  1010000 
  148000    0.8627351   -4.0643998   -4.0643998   -2.7702984  0.029204587   -4.0643998    1.2941014  1010000 
  149000   0.86292872   -4.0656734   -4.0656734   -2.7712816  0.026501675   -4.0656734    1.2943918  1010000 
  150000   0.86193372   -4.0642698   -4.0642698   -2.7713705  0.031015124   -4.0642698    1.2928993  1010000 
  151000   0.86171481   -4.0653742   -4.0653742   -2.7728033   0.03107469   -4.0653742    1.2925709  1010000 
  152000   0.86118016   -4.0657796   -4.0657796   -2.7740106  0.024696823   -4.0657796     1.291769  1010000 
  153000   0.86090532   -4.0658226   -4.0658226   -2.7744659  0.023989372   -4.0658226    1.2913567  1010000 
  154000   0.86129155   -4.0671417   -4.0671417   -2.7752057  0.020310256   -4.0671417     1.291936  1010000 
  155000   0.86051688   -4.0666699   -4.0666699   -2.7758958  0.028192075   -4.0666699     1.290774  1010000 
  156000   0.86112588   -4.0680769   -4.0680769   -2.7763894  0.028651675   -4.0680769    1.2916875  1010000 
  157000   0.86144125   -4.0692339   -4.0692339   -2.7770733  0.027016711   -4.0692339    1.2921606  1010000 
  158000   0.86007885   -4.0681322   -4.0681322   -2.7780152  0.028115408   -4.0681322     1.290117  1010000 
  159000   0.86072664   -4.0690977   -4.0690977    -2.778009  0.027361721   -4.0690977    1.2910887  1010000 
  160000   0.86195238   -4.0719218   -4.0719218   -2.7789945  0.021704272   -4.0719218    1.2929273  1010000 
  161000   0.86107689   -4.0726212   -4.0726212   -2.7810071  0.022891683   -4.0726212    1.2916141  1010000 
  162000   0.85935249   -4.0714426   -4.0714426   -2.7824151  0.028153908   -4.0714426    1.2890275  1010000 
  163000   0.85881241   -4.0719203   -4.0719203   -2.7837029  0.022046333   -4.0719203    1.2882173  1010000 
  164000   0.85950416   -4.0741971   -4.0741971   -2.7849421  0.022808448   -4.0741971     1.289255  1010000 
  165000   0.86008744   -4.0762704   -4.0762704   -2.7861405  0.026666558   -4.0762704    1.2901299  1010000 
  166000    0.8598331   -4.0780811   -4.0780811   -2.7883327   0.02153461   -4.0780811    1.2897484  1010000 
  167000   0.85969714   -4.0787107   -4.0787107   -2.7891663  0.026949061   -4.0787107    1.2895444  1010000 
  168000   0.86003007   -4.0804023   -4.0804023   -2.7903585  0.024168026   -4.0804023    1.2900438  1010000 
  169000   0.86079913   -4.0822992   -4.0822992   -2.7911018    0.0271133   -4.0822992    1.2911974  1010000 
  170000   0.86025328   -4.0832479   -4.0832479   -2.7928692  0.023811667   -4.0832479    1.2903786  1010000 
  171000   0.85875517   -4.0814967   -4.0814967   -2.7933652  0.023248245   -4.0814967    1.2881315  1010000 
  172000   0.85870679   -4.0815256   -4.0815256   -2.7934666  0.021696976   -4.0815256    1.2880589  1010000 
  173000   0.85870161   -4.0831491   -4.0831491    -2.795098  0.020351927   -4.0831491    1.2880511  1010000 
  174000   0.85781533   -4.0819498   -4.0819498    -2.795228  0.022606497   -4.0819498    1.2867217  1010000 
  175000   0.85747271   -4.0813153   -4.0813153   -2.7951075  0.022284394   -4.0813153    1.2862078  1010000 
  176000   0.85762447   -4.0831081   -4.0831081   -2.7966727  0.019219177   -4.0831081    1.2864354  1010000 
  177000   0.85777557   -4.0845737   -4.0845737   -2.7979117  0.021128629   -4.0845737    1.2866621  1010000 
  178000   0.85783945   -4.0861104   -4.0861104   -2.7993525  0.019558684   -4.0861104    1.2867579  1010000 
  179000   0.85688392   -4.0853532   -4.0853532   -2.8000286  0.022919856   -4.0853532    1.2853246  1010000 
  180000   0.85804426   -4.0883203   -4.0883203   -2.8012551  0.022061077   -4.0883203    1.2870651  1010000 
  181000   0.85758265   -4.0883073   -4.0883073   -2.8019346  0.023286097   -4.0883073    1.2863727  1010000 
  182000   0.85713019   -4.0883332   -4.0883332   -2.8026392  0.022716058   -4.0883332     1.285694  1010000 
  183000   0.85685801   -4.0885197   -4.0885197   -2.8032339  0.022379096   -4.0885197    1.2852857  1010000 
  184000   0.85558039   -4.0880773   -4.0880773   -2.8047079  0.025483816   -4.0880773    1.2833693  1010000 
  185000   0.85576675    -4.089732    -4.089732   -2.8060832  0.020033256    -4.089732    1.2836489  1010000 
  186000   0.85592098   -4.0903265   -4.0903265   -2.8064463  0.020756065   -4.0903265    1.2838802  1010000 
  187000   0.85593507   -4.0904086   -4.0904086   -2.8065073  0.025165101   -4.0904086    1.2839013  1010000 
  188000   0.85671518   -4.0929471   -4.0929471   -2.8078756   0.02572087   -4.0929471    1.2850715  1010000 
  189000   0.85648767   -4.0938863   -4.0938863   -2.8091561  0.017344037   -4.0938863    1.2847302  1010000 
  190000   0.85542354   -4.0922691   -4.0922691   -2.8091351   0.02643217   -4.0922691     1.283134  1010000 
  191000   0.85632806   -4.0946137   -4.0946137   -2.8101229  0.020467956   -4.0946137    1.2844908  1010000 
  192000   0.85514041   -4.0939125   -4.0939125   -2.8112032   0.02076638   -4.0939125    1.2827093  1010000 
  193000   0.85491521   -4.0941958   -4.0941958   -2.8118243  0.022599458   -4.0941958    1.2823715  1010000 
  194000   0.85491637   -4.0942484   -4.0942484   -2.8118751  0.019567314   -4.0942484    1.2823733  1010000 
  195000   0.85535065   -4.0960746   -4.0960746   -2.8130499  0.019181071   -4.0960746    1.2830247  1010000 
  196000   0.85483292   -4.0960236   -4.0960236   -2.8137755  0.017794615   -4.0960236    1.2822481  1010000 
  197000   0.85474288   -4.0973702   -4.0973702   -2.8152572  0.016154334   -4.0973702     1.282113  1010000 
  198000   0.85420796   -4.0972968   -4.0972968   -2.8159861  0.018369919   -4.0972968    1.2813107  1010000 
  199000   0.85482066   -4.0990819   -4.0990819   -2.8168522  0.020671538   -4.0990819    1.2822297  1010000 
  200000   0.85545316   -4.1011715   -4.1011715   -2.8179931  0.019143902   -4.1011715    1.2831785  1010000 
  201000   0.85463842    -4.101516    -4.101516   -2.8195596  0.020404276    -4.101516    1.2819564  1010000 
  202000   0.85391725   -4.1017124   -4.1017124   -2.8208378  0.019693983   -4.1017124    1.2808746  1010000 
  203000   0.85397984   -4.1028901   -4.1028901   -2.8219216  0.019219596   -4.1028901    1.2809685  1010000 
  204000   0.85467835   -4.1040783   -4.1040783   -2.8220621  0.018661826   -4.1040783    1.2820163  1010000 
  205000   0.85390851   -4.1035865   -4.1035865    -2.822725  0.018624366   -4.1035865    1.2808615  1010000 
  206000   0.85356844   -4.1044774   -4.1044774    -2.824126  0.017728785   -4.1044774    1.2803514  1010000 
  207000   0.85323736   -4.1045761   -4.1045761   -2.8247214  0.014829632   -4.1045761    1.2798548  1010000 
  208000   0.85272474   -4.1042621   -4.1042621   -2.8251763  0.016676636   -4.1042621    1.2790858  1010000 
  209000   0.85255135    -4.104258    -4.104258   -2.8254323  0.017342872    -4.104258    1.2788258  1010000 
  210000   0.85315708   -4.1056974   -4.1056974    -2.825963  0.017500473   -4.1056974    1.2797344  1010000 
  211000   0.85295416   -4.1060551   -4.1060551   -2.8266252  0.018374317   -4.1060551      1.27943  1010000 
  212000   0.85364198   -4.1074935   -4.1074935   -2.8270318  0.020008136   -4.1074935    1.2804617  1010000 
  213000   0.85281092   -4.1066286   -4.1066286   -2.8274135  0.019220349   -4.1066286    1.2792151  1010000 
  214000   0.85278764   -4.1076967   -4.1076967   -2.8285165  0.023024609   -4.1076967    1.2791802  1010000 
  215000   0.85255724   -4.1083325   -4.1083325   -2.8294979  0.017797353   -4.1083325    1.2788346  1010000 
  216000   0.85279719   -4.1091641   -4.1091641   -2.8299696  0.014900484   -4.1091641    1.2791945  1010000 
  217000   0.85315219   -4.1101754   -4.1101754   -2.8304484  0.019710677   -4.1101754     1.279727  1010000 
  218000   0.85213232   -4.1097767   -4.1097767   -2.8315795  0.015500648   -4.1097767    1.2781972  1010000 
  219000   0.85195651   -4.1106861   -4.1106861   -2.8327526  0.013904145   -4.1106861    1.2779335  1010000 
  220000   0.85248457   -4.1121133   -4.1121133   -2.8333877  0.017186582   -4.1121133    1.2787256  1010000 
  221000   0.85323701   -4.1141941   -4.1141941   -2.8343398  0.018091292   -4.1141941    1.2798542  1010000 
  222000   0.85191568   -4.1132909   -4.1132909   -2.8354186  0.021312827   -4.1132909    1.2778722  1010000 
  223000    0.8517336   -4.1145683   -4.1145683   -2.8369692  0.017374613   -4.1145683    1.2775991  1010000 
  224000    0.8513132   -4.1152138   -4.1152138   -2.8382453  0.016490896   -4.1152138    1.2769685  1010000 
  225000   0.85123427   -4.1158917   -4.1158917   -2.8390416  0.016915576   -4.1158917    1.2768501  1010000 
  226000   0.85043578   -4.1153981   -4.1153981   -2.8397457  0.015124711   -4.1153981    1.2756524  1010000 
  227000   0.85093505   -4.1160822   -4.1160822   -2.8396809  0.017530117   -4.1160822    1.2764013  1010000 
  228000   0.85044843    -4.116744    -4.116744   -2.8410726  0.013169451    -4.116744    1.2756714  1010000 
  229000   0.85095142   -4.1179794   -4.1179794   -2.8415535  0.014207434   -4.1179794    1.2764259  1010000 
  230000   0.85106308   -4.1185031   -4.1185031   -2.8419098  0.016126519   -4.1185031    1.2765934  1010000 
  231000   0.85026978   -4.1188036   -4.1188036   -2.8434002  0.014703202   -4.1188036    1.2754034  1010000 
  232000   0.85013245   -4.1190507   -4.1190507   -2.8438533  0.017620249   -4.1190507    1.2751974  1010000 
  233000   0.85032765   -4.1205373   -4.1205373   -2.8450471  0.018210544   -4.1205373    1.2754902  1010000 
  234000   0.85054065   -4.1214802   -4.1214802   -2.8456705  0.019784029   -4.1214802    1.2758097  1010000 
  235000    0.8493274   -4.1208256   -4.1208256   -2.8468357  0.018599855   -4.1208256    1.2739898  1010000 
  236000   0.85077539   -4.1231066   -4.1231066   -2.8469448  0.019725224   -4.1231066    1.2761618  1010000 
  237000   0.85095803    -4.123589    -4.123589   -2.8471532  0.018414285    -4.123589    1.2764358  1010000 
  238000   0.84985998    -4.122899    -4.122899   -2.8481103  0.016564001    -4.122899    1.2747887  1010000 
  239000   0.84926815   -4.1224164   -4.1224164   -2.8485154  0.015328904   -4.1224164     1.273901  1010000 
  240000   0.84954846   -4.1240626   -4.1240626   -2.8497412   0.01378904   -4.1240626    1.2743214  1010000 
  241000     0.849167   -4.1237844   -4.1237844   -2.8500352  0.017427965   -4.1237844    1.2737492  1010000 
  242000   0.84920224   -4.1243913   -4.1243913   -2.8505892  0.020471095   -4.1243913    1.2738021  1010000 
  243000   0.85033864   -4.1276021   -4.1276021   -2.8520954  0.017687935   -4.1276021    1.2755067  1010000 
  244000   0.84871589   -4.1256727   -4.1256727   -2.8526001  0.019764589   -4.1256727    1.2730726  1010000 
  245000   0.84944336    -4.127174    -4.127174   -2.8530103  0.015575731    -4.127174    1.2741638  1010000 
  246000   0.85006629    -4.128613    -4.128613   -2.8535148  0.019038701    -4.128613    1.2750982  1010000 
  247000   0.84905488   -4.1276488   -4.1276488   -2.8540678  0.021239706   -4.1276488    1.2735811  1010000 
  248000   0.84938752   -4.1289806   -4.1289806   -2.8549005  0.018590395   -4.1289806      1.27408  1010000 
  249000   0.85026802    -4.131233    -4.131233   -2.8558322  0.014382985    -4.131233    1.2754008  1010000 
  250000   0.84770337   -4.1285327   -4.1285327   -2.8569789  0.015720383   -4.1285327    1.2715538  1010000 
  251000    0.8490553   -4.1306634   -4.1306634   -2.8570817   0.01368631   -4.1306634    1.2735817  1010000 
  252000   0.84886603   -4.1314549   -4.1314549   -2.8581571  0.013241416   -4.1314549    1.2732978  1010000 
  253000   0.84792147   -4.1308517   -4.1308517   -2.8589707  0.019284643   -4.1308517    1.2718809  1010000 
  254000    0.8488884   -4.1332827   -4.1332827   -2.8599513  0.014874015   -4.1332827    1.2733313  1010000 
  255000   0.84852263   -4.1336181   -4.1336181   -2.8608354  0.013983396   -4.1336181    1.2727827  1010000 
  256000   0.84796328    -4.134084    -4.134084   -2.8621403  0.017669359    -4.134084    1.2719437  1010000 
  257000   0.84902694    -4.135962    -4.135962   -2.8624228  0.015374459    -4.135962    1.2735391  1010000 
  258000   0.84794078   -4.1348215   -4.1348215   -2.8629116  0.017700523   -4.1348215    1.2719099  1010000 
  259000   0.84790538    -4.135622    -4.135622   -2.8637652  0.015265398    -4.135622    1.2718568  1010000 
  260000   0.84698078   -4.1351368   -4.1351368   -2.8646669   0.01437673   -4.1351368    1.2704699  1010000 
  261000   0.84677811   -4.1359683   -4.1359683   -2.8658024  0.010719386   -4.1359683    1.2701659  1010000 
  262000    0.8468975   -4.1366785   -4.1366785   -2.8663335  0.020072305   -4.1366785     1.270345  1010000 
  263000   0.84719531   -4.1371906   -4.1371906   -2.8663989  0.018793185   -4.1371906    1.2707917  1010000 
  264000   0.84725075   -4.1384203   -4.1384203   -2.8675454   0.01582176   -4.1384203    1.2708749  1010000 
  265000   0.84673282   -4.1383631   -4.1383631   -2.8682651  0.018857781   -4.1383631     1.270098  1010000 
  266000   0.84762235   -4.1402904   -4.1402904   -2.8688581  0.016376535   -4.1402904    1.2714323  1010000 
  267000   0.84613738   -4.1395753   -4.1395753   -2.8703705  0.019479873   -4.1395753    1.2692048  1010000 
  268000   0.84742569   -4.1424395   -4.1424395   -2.8713022  0.011438699   -4.1424395    1.2711373  1010000 
  269000   0.84627425   -4.1409501   -4.1409501     -2.87154  0.014911284   -4.1409501    1.2694101  1010000 
  270000   0.84645671   -4.1415778   -4.1415778    -2.871894  0.018119955   -4.1415778    1.2696838  1010000 
  271000   0.84660961   -4.1425146   -4.1425146   -2.8726014  0.016804812   -4.1425146    1.2699132  1010000 
  272000   0.84725691   -4.1440658   -4.1440658   -2.8731817  0.016065178   -4.1440658    1.2708841  1010000 
  273000   0.84681313   -4.1447859   -4.1447859   -2.8745675  0.019628499   -4.1447859    1.2702184  1010000 
  274000   0.84589463   -4.1443876   -4.1443876   -2.8755469  0.018104177   -4.1443876    1.2688407  1010000 
  275000   0.84729841   -4.1471438   -4.1471438   -2.8761974  0.012953397   -4.1471438    1.2709464  1010000 
  276000   0.84640917   -4.1466206   -4.1466206   -2.8770081  0.020347595   -4.1466206    1.2696125  1010000 
  277000   0.84581114   -4.1463005   -4.1463005    -2.877585   0.01501309   -4.1463005    1.2687155  1010000 
  278000   0.84522892   -4.1461505   -4.1461505   -2.8783084  0.011900622   -4.1461505    1.2678421  1010000 
  279000   0.84467657   -4.1461966   -4.1461966    -2.879183  0.014740712   -4.1461966    1.2670136  1010000 
  280000   0.84590689   -4.1483695   -4.1483695   -2.8795104  0.015885513   -4.1483695    1.2688591  1010000 
  281000    0.8452383   -4.1483225   -4.1483225   -2.8804663  0.010333634   -4.1483225    1.2678562  1010000 
  282000   0.84618481   -4.1500602   -4.1500602   -2.8807843   0.01283008   -4.1500602     1.269276  1010000 
  283000    0.8456208   -4.1491163   -4.1491163   -2.8806863  0.019777968   -4.1491163    1.2684299  1010000 
  284000    0.8455692   -4.1502896   -4.1502896   -2.8819371  0.016926373   -4.1502896    1.2683525  1010000 
  285000   0.84598511   -4.1517283   -4.1517283   -2.8827518  0.013843919   -4.1517283    1.2689764  1010000 
  286000   0.84537608   -4.1519601   -4.1519601   -2.8838972  0.019615743   -4.1519601    1.2680629  1010000 
  287000   0.84499756   -4.1521645   -4.1521645   -2.8846694  0.016877957   -4.1521645    1.2674951  1010000 
  288000   0.84522965   -4.1535814   -4.1535814   -2.8857382  0.016528687   -4.1535814    1.2678432  1010000 
  289000   0.84519522   -4.1545594   -4.1545594   -2.8867679  0.013953775   -4.1545594    1.2677916  1010000 
  290000   0.84579933   -4.1556381   -4.1556381   -2.8869403  0.011178527   -4.1556381    1.2686977  1010000 
  291000   0.84503955   -4.1548604   -4.1548604   -2.8873023  0.016379454   -4.1548604    1.2675581  1010000 
  292000    0.8447392   -4.1563131   -4.1563131   -2.8892056  0.017075423   -4.1563131    1.2671075  1010000 
  293000   0.84561004   -4.1576678   -4.1576678    -2.889254  0.013923704   -4.1576678    1.2684138  1010000 
  294000   0.84432433   -4.1571598   -4.1571598   -2.8906745  0.018592918   -4.1571598    1.2664852  1010000 
  295000   0.84480877   -4.1580705   -4.1580705   -2.8908586  0.012594533   -4.1580705    1.2672119  1010000 
  296000   0.84579549   -4.1593173   -4.1593173   -2.8906253  0.018459743   -4.1593173     1.268692  1010000 
  297000   0.84467994   -4.1582758   -4.1582758   -2.8912572   0.01898415   -4.1582758    1.2670186  1010000 
  298000   0.84563718   -4.1604686   -4.1604686   -2.8920141  0.016534953   -4.1604686    1.2684545  1010000 
  299000   0.84479795   -4.1597438   -4.1597438   -2.8925481  0.016832985   -4.1597438    1.2671957  1010000 
  300000   0.84452241   -4.1600517   -4.1600517   -2.8932693   0.01684315   -4.1600517    1.2667824  1010000 
  301000   0.84406544   -4.1601148   -4.1601148   -2.8940179  0.015136585   -4.1601148    1.2660969  1010000 
  302000   0.84493722   -4.1622153   -4.1622153   -2.8948107  0.012648631   -4.1622153    1.2674046  1010000 
  303000   0.84495613    -4.162708    -4.162708    -2.895275  0.013099346    -4.162708    1.2674329  1010000 
  304000   0.84440512   -4.1628494   -4.1628494    -2.896243  0.018617387   -4.1628494    1.2666064  1010000 
  305000   0.84513085   -4.1648352   -4.1648352   -2.8971402   0.02058403   -4.1648352     1.267695  1010000 
  306000   0.84498816   -4.1656554   -4.1656554   -2.8981745  0.022574337   -4.1656554     1.267481  1010000 
  307000   0.84556739   -4.1671128   -4.1671128   -2.8987629  0.022753312   -4.1671128    1.2683498  1010000 
  308000    0.8444161    -4.166781    -4.166781   -2.9001581  0.022663434    -4.166781    1.2666229  1010000 
  309000   0.84480434   -4.1682692   -4.1682692   -2.9010639  0.019046895   -4.1682692    1.2672052  1010000 
  310000   0.84481367    -4.168612    -4.168612   -2.9013928  0.019393575    -4.168612    1.2672192  1010000 
  311000   0.84546813   -4.1698767   -4.1698767   -2.9016757  0.017703421   -4.1698767    1.2682009  1010000 
  312000   0.84460855   -4.1693173   -4.1693173   -2.9024057  0.017960656   -4.1693173    1.2669116  1010000 
  313000   0.84475871   -4.1696815   -4.1696815   -2.9025447  0.017482175   -4.1696815    1.2671368  1010000 
  314000   0.84488773   -4.1708651   -4.1708651   -2.9035347   0.01940114   -4.1708651    1.2673303  1010000 
  315000    0.8448016   -4.1709209   -4.1709209   -2.9037198  0.020285566   -4.1709209    1.2672011  1010000 
  316000   0.84528904   -4.1722178   -4.1722178   -2.9042855  0.013702833   -4.1722178    1.2679323  1010000 
  317000    0.8444531   -4.1718156   -4.1718156   -2.9051372   0.02247631   -4.1718156    1.2666784  1010000 
  318000    0.8455053   -4.1744661   -4.1744661   -2.9062094   0.01881932   -4.1744661    1.2682567  1010000 
  319000   0.84616887   -4.1762667   -4.1762667   -2.9070147  0.019188136   -4.1762667     1.269252  1010000 
  320000   0.84563985   -4.1769815   -4.1769815    -2.908523  0.021423538   -4.1769815    1.2684585  1010000 
  321000   0.84671015   -4.1792735   -4.1792735   -2.9092095  0.024147979   -4.1792735     1.270064  1010000 
  322000   0.84634982   -4.1799831   -4.1799831   -2.9104596  0.027133315   -4.1799831    1.2695235  1010000 
  323000   0.84638238   -4.1807876   -4.1807876   -2.9112152  0.028522845   -4.1807876    1.2695723  1010000 
  324000   0.84735226   -4.1830753   -4.1830753   -2.9120482  0.029382534   -4.1830753    1.2710271  1010000 
  325000   0.84796644   -4.1854195   -4.1854195   -2.9134711  0.030046677   -4.1854195    1.2719484  1010000 
  326000   0.84676872   -4.1848635   -4.1848635   -2.9147117  0.031854969   -4.1848635    1.2701518  1010000 
  327000   0.84685449   -4.1868852   -4.1868852   -2.9166047  0.029943122   -4.1868852    1.2702805  1010000 
  328000   0.84615524   -4.1863852   -4.1863852   -2.9171536  0.032610468   -4.1863852    1.2692316  1010000 
  329000   0.84752744    -4.189646    -4.189646   -2.9183561  0.024802259    -4.189646    1.2712899  1010000 
  330000   0.84737398   -4.1903696   -4.1903696   -2.9193098  0.034118741   -4.1903696    1.2710597  1010000 
  331000   0.84762492    -4.191579    -4.191579   -2.9201429  0.035525362    -4.191579    1.2714361  1010000 
  332000   0.84791661   -4.1929593   -4.1929593   -2.9210856  0.038026062   -4.1929593    1.2718736  1010000 
  333000   0.84810333   -4.1940529   -4.1940529   -2.9218992  0.037827778   -4.1940529    1.2721537  1010000 
  334000   0.84828456   -4.1951453   -4.1951453   -2.9227197  0.039483802   -4.1951453    1.2724256  1010000 
  335000   0.84754296   -4.1954708   -4.1954708   -2.9241577  0.043209807   -4.1954708    1.2713132  1010000 
  336000   0.84784153   -4.1962419   -4.1962419   -2.9244809  0.037004984   -4.1962419     1.271761  1010000 
  337000   0.84749242   -4.1970218   -4.1970218   -2.9257844  0.035750227   -4.1970218    1.2712374  1010000 
  338000   0.84602763   -4.1960589   -4.1960589   -2.9270187  0.031259929   -4.1960589    1.2690402  1010000 
  339000   0.84487906   -4.1958482   -4.1958482   -2.9285308  0.026737379   -4.1958482    1.2673173  1010000 
  340000   0.84370882    -4.195021    -4.195021    -2.929459  0.025558437    -4.195021     1.265562  1010000 
  341000   0.84310989   -4.1943674   -4.1943674   -2.9297038  0.018931959   -4.1943674    1.2646636  1010000 
  342000   0.84070385   -4.1910499   -4.1910499   -2.9299954  0.019493295   -4.1910499    1.2610545  1010000 
  343000   0.84015879   -4.1909147   -4.1909147   -2.9306778  0.014409306   -4.1909147    1.2602369  1010000 
  344000   0.83883286   -4.1885965   -4.1885965   -2.9303485  0.013391643   -4.1885965     1.258248  1010000 
  345000   0.83866675   -4.1882479   -4.1882479    -2.930249 0.0080668892   -4.1882479    1.2579989  1010000 
  346000   0.83871087   -4.1881917   -4.1881917   -2.9301267 0.0090608916   -4.1881917    1.2580651  1010000 
  347000   0.83862279    -4.187399    -4.187399    -2.929466 0.0048167928    -4.187399    1.2579329  1010000 
  348000   0.83723843   -4.1858913   -4.1858913   -2.9300349 0.0083554739   -4.1858913    1.2558564  1010000 
  349000   0.83947834   -4.1881741   -4.1881741   -2.9289579 0.0036750963   -4.1881741    1.2592163  1010000 
  350000   0.83810786   -4.1874903   -4.1874903   -2.9303298 0.0049186512   -4.1874903    1.2571605  1010000 
  351000   0.83762296   -4.1872478   -4.1872478   -2.9308146 0.0079131511   -4.1872478    1.2564332  1010000 
  352000   0.83907478   -4.1896066   -4.1896066   -2.9309957 0.0045090236   -4.1896066    1.2586109  1010000 
  353000   0.83828617   -4.1895902   -4.1895902   -2.9321621 0.0093139132   -4.1895902     1.257428  1010000 
  354000   0.83905017   -4.1911463   -4.1911463   -2.9325722  0.010480608   -4.1911463     1.258574  1010000 
  355000   0.83925574   -4.1928997   -4.1928997   -2.9340173   0.01007379   -4.1928997    1.2588824  1010000 
  356000   0.83958642   -4.1942632   -4.1942632   -2.9348849  0.012572162   -4.1942632    1.2593784  1010000 
  357000   0.84027475   -4.1970428   -4.1970428   -2.9366319  0.015242094   -4.1970428    1.2604109  1010000 
  358000   0.84082502    -4.197069    -4.197069   -2.9358327  0.019335499    -4.197069    1.2612363  1010000 
  359000   0.84101547   -4.1984366   -4.1984366   -2.9369146  0.021534503   -4.1984366     1.261522  1010000 
  360000   0.84186507   -4.2007843   -4.2007843    -2.937988  0.023379682   -4.2007843    1.2627963  1010000 
  361000   0.84153764   -4.2021312   -4.2021312    -2.939826  0.026269738   -4.2021312    1.2623052  1010000 
  362000   0.84216625    -4.204093    -4.204093   -2.9408449  0.030836249    -4.204093    1.2632481  1010000 
  363000   0.84163629   -4.2042222   -4.2042222    -2.941769  0.030873814   -4.2042222    1.2624532  1010000 
  364000   0.84167418   -4.2058121   -4.2058121   -2.9433021  0.032972901   -4.2058121      1.26251  1010000 
  365000   0.84232291   -4.2072154   -4.2072154   -2.9437323  0.032158372   -4.2072154    1.2634831  1010000 
  366000   0.84181597   -4.2073926   -4.2073926   -2.9446699  0.031228188   -4.2073926    1.2627227  1010000 
  367000    0.8414975   -4.2076832   -4.2076832   -2.9454382  0.030686355   -4.2076832     1.262245  1010000 
  368000   0.84153165   -4.2079516   -4.2079516   -2.9456553  0.030333423   -4.2079516    1.2622962  1010000 
  369000   0.84174898   -4.2091677   -4.2091677   -2.9465455  0.031088013   -4.2091677    1.2626222  1010000 
  370000   0.84134476   -4.2091268   -4.2091268   -2.9471109  0.029607748   -4.2091268    1.2620159  1010000 
  371000   0.84012749    -4.208522    -4.208522    -2.948332   0.02745285    -4.208522      1.26019  1010000 
  372000   0.83964382   -4.2081763   -4.2081763   -2.9487118  0.019909185   -4.2081763    1.2594645  1010000 
  373000   0.83838841   -4.2081195   -4.2081195   -2.9505381  0.022038474   -4.2081195    1.2575814  1010000 
  374000   0.83902794   -4.2085187   -4.2085187    -2.949978  0.017956786   -4.2085187    1.2585407  1010000 
  375000   0.83778164   -4.2071363   -4.2071363   -2.9504651  0.015260415   -4.2071363    1.2566712  1010000 
  376000   0.83698835   -4.2062025   -4.2062025   -2.9507212  0.014682241   -4.2062025    1.2554813  1010000 
  377000   0.83658045   -4.2058191   -4.2058191   -2.9509497  0.011450728   -4.2058191    1.2548694  1010000 
  378000   0.83612968   -4.2045423   -4.2045423   -2.9503491  0.013218654   -4.2045423    1.2541933  1010000 
  379000   0.83681043   -4.2059459   -4.2059459   -2.9507315   0.01009049   -4.2059459    1.2552144  1010000 
  380000   0.83664629   -4.2056711   -4.2056711   -2.9507029  0.010370607   -4.2056711    1.2549682  1010000 
  381000   0.83588757   -4.2054238   -4.2054238   -2.9515937  0.012259048   -4.2054238    1.2538301  1010000 
  382000   0.83606015   -4.2069005   -4.2069005   -2.9528115  0.011056123   -4.2069005     1.254089  1010000 
  383000    0.8358826   -4.2069424   -4.2069424   -2.9531198 0.0077177739   -4.2069424    1.2538227  1010000 
  384000   0.83535478   -4.2069479   -4.2069479   -2.9539169 0.0065623302   -4.2069479    1.2530309  1010000 
  385000   0.83636273   -4.2086659   -4.2086659    -2.954123  0.011720649   -4.2086659    1.2545429  1010000 
  386000   0.83639517   -4.2094492   -4.2094492   -2.9548577 0.0087390831   -4.2094492    1.2545915  1010000 
  387000   0.83536073   -4.2093938   -4.2093938   -2.9563539  0.015136965   -4.2093938    1.2530399  1010000 
  388000     0.836217   -4.2120459   -4.2120459   -2.9577216  0.012412925   -4.2120459    1.2543243  1010000 
  389000   0.83618594   -4.2128677   -4.2128677   -2.9585901  0.016772771   -4.2128677    1.2542777  1010000 
  390000    0.8368975   -4.2145057   -4.2145057   -2.9591607  0.022605922   -4.2145057     1.255345  1010000 
  391000   0.83768654   -4.2165862   -4.2165862   -2.9600576  0.022537263   -4.2165862    1.2565286  1010000 
  392000   0.83791655   -4.2175908   -4.2175908   -2.9607172  0.021659106   -4.2175908    1.2568736  1010000 
  393000   0.83829876   -4.2185973   -4.2185973   -2.9611504   0.02668456   -4.2185973    1.2574469  1010000 
  394000   0.83795242   -4.2195668   -4.2195668   -2.9626394  0.027347948   -4.2195668    1.2569274  1010000 
  395000    0.8384527    -4.221106    -4.221106   -2.9634282  0.025703795    -4.221106    1.2576778  1010000 
  396000   0.83855928   -4.2216473   -4.2216473   -2.9638096  0.027521962   -4.2216473    1.2578377  1010000 
  397000    0.8382743   -4.2222314   -4.2222314   -2.9648212  0.030220104   -4.2222314    1.2574102  1010000 
  398000   0.83776771   -4.2228808   -4.2228808   -2.9662305  0.029512462   -4.2228808    1.2566503  1010000 
  399000   0.83837663   -4.2241057   -4.2241057    -2.966542  0.029604515   -4.2241057    1.2575637  1010000 
  400000   0.83729285   -4.2232143   -4.2232143   -2.9672763  0.031810095   -4.2232143     1.255938  1010000 
  401000   0.83685733   -4.2230409   -4.2230409   -2.9677561   0.02855997   -4.2230409    1.2552848  1010000 
  402000   0.83763085   -4.2243822   -4.2243822   -2.9679371   0.02617564   -4.2243822     1.256445  1010000 
  403000   0.83618589   -4.2233476   -4.2233476     -2.96907   0.02570111   -4.2233476    1.2542776  1010000 
  404000    0.8357798   -4.2225895   -4.2225895   -2.9689211  0.023041609   -4.2225895    1.2536685  1010000 
  405000   0.83528834   -4.2226028   -4.2226028   -2.9696715  0.020123729   -4.2226028    1.2529313  1010000 
  406000   0.83453468   -4.2221274   -4.2221274   -2.9703267  0.018212981   -4.2221274    1.2518008  1010000 
  407000   0.83405164   -4.2219775   -4.2219775   -2.9709013  0.016655243   -4.2219775    1.2510762  1010000 
  408000   0.83396925   -4.2213518   -4.2213518   -2.9703992  0.012470499   -4.2213518    1.2509526  1010000 
  409000   0.83439857   -4.2227079   -4.2227079   -2.9711113  0.011614908   -4.2227079    1.2515966  1010000 
  410000   0.83222421   -4.2194922   -4.2194922   -2.9711571  0.016282817   -4.2194922    1.2483351  1010000 
  411000    0.8332618   -4.2219822   -4.2219822   -2.9720908  0.013837642   -4.2219822    1.2498915  1010000 
  412000   0.83330857    -4.222138    -4.222138   -2.9721764  0.010659779    -4.222138    1.2499616  1010000 
  413000   0.83214956   -4.2214708   -4.2214708   -2.9732477  0.013953433   -4.2214708    1.2482231  1010000 
  414000   0.83272609   -4.2223387   -4.2223387   -2.9732508  0.012271458   -4.2223387    1.2490879  1010000 
  415000   0.83338279   -4.2241234   -4.2241234   -2.9740505  0.011364932   -4.2241234    1.2500729  1010000 
  416000   0.83329122   -4.2243374   -4.2243374   -2.9744019  0.012613842   -4.2243374    1.2499356  1010000 
  417000    0.8329374   -4.2238205   -4.2238205   -2.9744156  0.016643632   -4.2238205    1.2494049  1010000 
  418000   0.83388886   -4.2253329   -4.2253329   -2.9745009  0.018522658   -4.2253329    1.2508321  1010000 
  419000    0.8344861   -4.2270371   -4.2270371   -2.9753092  0.022154538   -4.2270371    1.2517279  1010000 
  420000   0.83402295   -4.2269503   -4.2269503   -2.9759171  0.021173719   -4.2269503    1.2510332  1010000 
  421000    0.8339942   -4.2283323   -4.2283323   -2.9773422  0.023768749   -4.2283323    1.2509901  1010000 
  422000   0.83523165   -4.2297089   -4.2297089   -2.9768627  0.021094562   -4.2297089    1.2528462  1010000 
  423000   0.83480044   -4.2304009   -4.2304009   -2.9782015  0.025685658   -4.2304009    1.2521994  1010000 
  424000   0.83444743   -4.2312179   -4.2312179    -2.979548  0.023670416   -4.2312179    1.2516699  1010000 
  425000   0.83452824   -4.2320316   -4.2320316   -2.9802405  0.024380087   -4.2320316    1.2517911  1010000 
  426000   0.83403068     -4.23298     -4.23298   -2.9819352  0.023165643     -4.23298    1.2510448  1010000 
  427000    0.8337677    -4.233236    -4.233236   -2.9825857  0.023531182    -4.233236    1.2506503  1010000 
  428000   0.83293279   -4.2331998   -4.2331998   -2.9838019  0.024376768   -4.2331998    1.2493979  1010000 
  429000   0.83306652   -4.2339259   -4.2339259   -2.9843274  0.024652106   -4.2339259    1.2495985  1010000 
  430000    0.8328459   -4.2346433   -4.2346433   -2.9853757  0.019632186   -4.2346433    1.2492676  1010000 
  431000   0.83302612   -4.2345873   -4.2345873   -2.9850494  0.024508214   -4.2345873    1.2495379  1010000 
  432000   0.83274835    -4.234992    -4.234992   -2.9858707  0.022781015    -4.234992    1.2491213  1010000 
  433000   0.83266513   -4.2358803   -4.2358803   -2.9868838  0.021030545   -4.2358803    1.2489965  1010000 
  434000   0.83212497   -4.2363469   -4.2363469   -2.9881607  0.021594626   -4.2363469    1.2481862  1010000 
  435000   0.83180897   -4.2364315   -4.2364315   -2.9887192  0.021385706   -4.2364315    1.2477122  1010000 
  436000   0.83120978   -4.2364423   -4.2364423   -2.9896289   0.02183518   -4.2364423    1.2468134  1010000 
  437000   0.82965075   -4.2340021   -4.2340021   -2.9895272  0.022607639   -4.2340021    1.2444749  1010000 
  438000   0.83156919   -4.2371473   -4.2371473   -2.9897947  0.017761889   -4.2371473    1.2473525  1010000 
  439000   0.83146437   -4.2376496   -4.2376496   -2.9904543  0.021234438   -4.2376496    1.2471953  1010000 
  440000   0.83155521   -4.2381046   -4.2381046    -2.990773   0.02074397   -4.2381046    1.2473316  1010000 
  441000   0.83116675   -4.2382283   -4.2382283   -2.9914794  0.018968302   -4.2382283    1.2467489  1010000 
  442000   0.83096743   -4.2390888   -4.2390888   -2.9926389  0.018913498   -4.2390888    1.2464499  1010000 
  443000   0.83102483   -4.2390616   -4.2390616   -2.9925256  0.020520474   -4.2390616     1.246536  1010000 
  444000   0.83128372   -4.2398241   -4.2398241   -2.9928997  0.020926722   -4.2398241    1.2469243  1010000 
  445000   0.83064898   -4.2387645   -4.2387645   -2.9927923  0.020860926   -4.2387645    1.2459722  1010000 
  446000   0.83046773   -4.2390909   -4.2390909   -2.9933905  0.019506577   -4.2390909    1.2457004  1010000 
  447000   0.83032081   -4.2405502   -4.2405502   -2.9950703  0.017292668   -4.2405502      1.24548  1010000 
  448000   0.83044509    -4.241322    -4.241322   -2.9956556  0.022912528    -4.241322    1.2456664  1010000 
  449000   0.83056224   -4.2426786   -4.2426786   -2.9968364  0.017391036   -4.2426786    1.2458421  1010000 
  450000   0.83046666   -4.2424638   -4.2424638    -2.996765  0.020269854   -4.2424638    1.2456988  1010000 
  451000   0.83040585   -4.2436058   -4.2436058   -2.9979982  0.019836745   -4.2436058    1.2456075  1010000 
  452000   0.82929746   -4.2420674   -4.2420674   -2.9981225  0.020435905   -4.2420674     1.243945  1010000 
  453000   0.83041172    -4.243775    -4.243775   -2.9981586  0.021486569    -4.243775    1.2456163  1010000 
  454000   0.83019813   -4.2440593   -4.2440593   -2.9987634  0.022508544   -4.2440593     1.245296  1010000 
  455000   0.83031553   -4.2446427   -4.2446427   -2.9991706  0.024398627   -4.2446427    1.2454721  1010000 
  456000   0.83001462   -4.2441069   -4.2441069   -2.9990862  0.023634889   -4.2441069    1.2450207  1010000 
  457000   0.83073342   -4.2459054   -4.2459054   -2.9998065  0.023718058   -4.2459054    1.2460989  1010000 
  458000   0.83083709   -4.2468458   -4.2468458   -3.0005914  0.021517349   -4.2468458    1.2462544  1010000 
  459000   0.82996894   -4.2462434   -4.2462434   -3.0012913  0.025038121   -4.2462434    1.2449522  1010000 
  460000   0.82988292   -4.2471763   -4.2471763   -3.0023532  0.020449694   -4.2471763    1.2448231  1010000 
  461000   0.82974295   -4.2473866   -4.2473866   -3.0027734   0.01851545   -4.2473866    1.2446132  1010000 
  462000   0.82988756   -4.2483771   -4.2483771    -3.003547  0.018384868   -4.2483771    1.2448301  1010000 
  463000   0.82930168   -4.2476286   -4.2476286   -3.0036773  0.023382492   -4.2476286    1.2439513  1010000 
  464000    0.8289827   -4.2480381   -4.2480381   -3.0045653  0.022688632   -4.2480381    1.2434728  1010000 
  465000   0.82823546   -4.2480898   -4.2480898   -3.0057378   0.02193153   -4.2480898     1.242352  1010000 
  466000   0.82797248   -4.2485533   -4.2485533   -3.0065958  0.020038181   -4.2485533    1.2419575  1010000 
  467000    0.8286772    -4.250249    -4.250249   -3.0072344  0.016584668    -4.250249    1.2430146  1010000 
  468000   0.82865753   -4.2498063   -4.2498063   -3.0068212  0.022097505   -4.2498063    1.2429851  1010000 
  469000   0.82839373   -4.2500061   -4.2500061   -3.0074167  0.020731418   -4.2500061    1.2425894  1010000 
  470000   0.82832656   -4.2503164   -4.2503164   -3.0078278  0.020061903   -4.2503164    1.2424886  1010000 
  471000   0.82861785   -4.2513195   -4.2513195   -3.0083939  0.018483953   -4.2513195    1.2429255  1010000 
  472000   0.82798963   -4.2510948   -4.2510948   -3.0091116  0.019141167   -4.2510948    1.2419832  1010000 
  473000   0.82844253   -4.2522547   -4.2522547   -3.0095921  0.021348194   -4.2522547    1.2426626  1010000 
  474000   0.82796974    -4.251754    -4.251754   -3.0098006  0.021651384    -4.251754    1.2419534  1010000 
  475000   0.82742995     -4.25095     -4.25095   -3.0098064  0.025578289     -4.25095    1.2411437  1010000 
  476000    0.8284287    -4.253168    -4.253168   -3.0105262  0.019177705    -4.253168    1.2426418  1010000 
  477000   0.82845241   -4.2536498   -4.2536498   -3.0109724  0.021017193   -4.2536498    1.2426774  1010000 
  478000   0.82830037   -4.2550845   -4.2550845   -3.0126352  0.018169564   -4.2550845    1.2424493  1010000 
  479000   0.82812423    -4.254774    -4.254774   -3.0125889  0.022108658    -4.254774    1.2421851  1010000 
  480000   0.82682762   -4.2537302   -4.2537302     -3.01349  0.025436289   -4.2537302    1.2402402  1010000 
  481000   0.82778912   -4.2557269   -4.2557269   -3.0140444  0.021536273   -4.2557269    1.2416825  1010000 
  482000   0.82630832   -4.2543451   -4.2543451   -3.0148838  0.021191744   -4.2543451    1.2394612  1010000 
  483000   0.82699131   -4.2554679   -4.2554679   -3.0149822  0.021091934   -4.2554679    1.2404857  1010000 
  484000   0.82702785   -4.2569023   -4.2569023   -3.0163618  0.021097426   -4.2569023    1.2405405  1010000 
  485000   0.82655973   -4.2563128   -4.2563128   -3.0164745  0.020522377   -4.2563128    1.2398384  1010000 
  486000   0.82784336   -4.2581682   -4.2581682   -3.0164044  0.017743428   -4.2581682    1.2417638  1010000 
  487000   0.82660506   -4.2573963   -4.2573963   -3.0174899   0.01921707   -4.2573963    1.2399064  1010000 
  488000   0.82662991   -4.2573634   -4.2573634   -3.0174197  0.024644902   -4.2573634    1.2399436  1010000 
  489000   0.82672079   -4.2576319   -4.2576319   -3.0175519  0.022643253   -4.2576319      1.24008  1010000 
  490000   0.82714016   -4.2587389   -4.2587389   -3.0180299  0.021784838   -4.2587389     1.240709  1010000 
  491000   0.82634341   -4.2584912   -4.2584912   -3.0189773  0.023113326   -4.2584912    1.2395139  1010000 
  492000   0.82639021   -4.2594044   -4.2594044   -3.0198203  0.020982451   -4.2594044    1.2395841  1010000 
  493000   0.82697978   -4.2608906   -4.2608906   -3.0204221   0.01710847   -4.2608906    1.2404684  1010000 
  494000    0.8269167   -4.2605714   -4.2605714   -3.0201976  0.022615033   -4.2605714    1.2403738  1010000 
  495000   0.82620578    -4.260245    -4.260245   -3.0209375  0.023507005    -4.260245    1.2393074  1010000 
  496000   0.82684844   -4.2618664   -4.2618664    -3.021595  0.021605047   -4.2618664    1.2402714  1010000 
  497000   0.82567326   -4.2609633   -4.2609633   -3.0224546   0.02117113   -4.2609633    1.2385087  1010000 
  498000    0.8246499   -4.2600947   -4.2600947   -3.0231211  0.025009889   -4.2600947    1.2369736  1010000 
  499000   0.82593836   -4.2624283   -4.2624283    -3.023522  0.019299363   -4.2624283    1.2389063  1010000 
  500000   0.82561638   -4.2628035   -4.2628035   -3.0243802  0.020902371   -4.2628035    1.2384233  1010000 
  501000    0.8244841   -4.2619291   -4.2619291   -3.0252042  0.021383247   -4.2619291    1.2367249  1010000 
  502000   0.82548491   -4.2634603   -4.2634603   -3.0252341    0.0242402   -4.2634603    1.2382261  1010000 
  503000   0.82575031   -4.2643226   -4.2643226   -3.0256984  0.019654238   -4.2643226    1.2386242  1010000 
  504000   0.82537956   -4.2652544   -4.2652544   -3.0271863  0.017044577   -4.2652544    1.2380681  1010000 
  505000   0.82570357   -4.2654928   -4.2654928   -3.0269387  0.021763905   -4.2654928    1.2385541  1010000 
  506000   0.82564667   -4.2655718   -4.2655718    -3.027103   0.02379194   -4.2655718    1.2384688  1010000 
  507000   0.82498879   -4.2655893   -4.2655893   -3.0281074  0.025440853   -4.2655893     1.237482  1010000 
  508000    0.8258572   -4.2676495   -4.2676495   -3.0288649  0.025246581   -4.2676495    1.2387846  1010000 
  509000   0.82486515    -4.267127    -4.267127   -3.0298305  0.023853406    -4.267127    1.2372965  1010000 
  510000    0.8238116   -4.2656785   -4.2656785   -3.0299623  0.027405399   -4.2656785    1.2357162  1010000 
  511000   0.82549737   -4.2684691   -4.2684691   -3.0302243   0.02169575   -4.2684691    1.2382448  1010000 
  512000   0.82421073   -4.2673268   -4.2673268   -3.0310119  0.024862796   -4.2673268    1.2363149  1010000 
  513000   0.82425477   -4.2683327   -4.2683327   -3.0319517   0.02087964   -4.2683327    1.2363809  1010000 
  514000    0.8242445   -4.2688742   -4.2688742   -3.0325087  0.021210567   -4.2688742    1.2363655  1010000 
  515000   0.82493341   -4.2709359   -4.2709359    -3.033537   0.01974413   -4.2709359    1.2373989  1010000 
  516000   0.82388999   -4.2698285   -4.2698285   -3.0339948  0.024258415   -4.2698285    1.2358338  1010000 
  517000   0.82394708   -4.2693286   -4.2693286   -3.0334092   0.02582891   -4.2693286    1.2359194  1010000 
  518000    0.8237644   -4.2695467   -4.2695467   -3.0339013  0.022655798   -4.2695467    1.2356454  1010000 
  519000   0.82442561   -4.2704582   -4.2704582    -3.033821  0.020244002   -4.2704582    1.2366372  1010000 
  520000   0.82429622    -4.270455    -4.270455   -3.0340119  0.021059318    -4.270455    1.2364431  1010000 
  521000    0.8236252   -4.2700046   -4.2700046    -3.034568  0.026615613   -4.2700046    1.2354366  1010000 
  522000   0.82397929   -4.2710785   -4.2710785   -3.0351108  0.021214668   -4.2710785    1.2359677  1010000 
  523000   0.82305733   -4.2703244   -4.2703244   -3.0357396  0.020465541   -4.2703244    1.2345848  1010000 
  524000   0.82393615   -4.2712441   -4.2712441   -3.0353411  0.021009757   -4.2712441     1.235903  1010000 
  525000   0.82426587   -4.2729041   -4.2729041   -3.0365065  0.020683574   -4.2729041    1.2363976  1010000 
  526000    0.8237873    -4.272172    -4.272172   -3.0364923  0.019064952    -4.272172    1.2356797  1010000 
  527000   0.82452222    -4.273991    -4.273991   -3.0372089  0.021127852    -4.273991    1.2367821  1010000 
  528000   0.82410296   -4.2734041   -4.2734041   -3.0372509  0.017739667   -4.2734041    1.2361532  1010000 
  529000   0.82316588   -4.2727142   -4.2727142   -3.0379666  0.022586788   -4.2727142    1.2347476  1010000 
  530000   0.82396313    -4.273904    -4.273904   -3.0379605  0.019511291    -4.273904    1.2359435  1010000 
  531000   0.82342773   -4.2734866   -4.2734866   -3.0383463  0.019251221   -4.2734866    1.2351404  1010000 
  532000   0.82415842   -4.2754324   -4.2754324    -3.039196  0.020233764   -4.2754324    1.2362364  1010000 
  533000   0.82214231    -4.273455    -4.273455   -3.0402427   0.02551876    -4.273455    1.2332122  1010000 
  534000   0.82299059   -4.2753122   -4.2753122   -3.0408276  0.019003479   -4.2753122    1.2344847  1010000 
  535000   0.82329684   -4.2757263   -4.2757263   -3.0407823  0.022616953   -4.2757263     1.234944  1010000 
  536000   0.82231208   -4.2750165   -4.2750165   -3.0415496  0.020009399   -4.2750165    1.2334669  1010000 
  537000   0.82222184   -4.2750674   -4.2750674   -3.0417358  0.018999074   -4.2750674    1.2333315  1010000 
  538000   0.82252199   -4.2761524   -4.2761524   -3.0423707  0.022306625   -4.2761524    1.2337818  1010000 
  539000   0.82196989   -4.2758686   -4.2758686    -3.042915  0.021755046   -4.2758686    1.2329536  1010000 
  540000   0.82213433   -4.2771731   -4.2771731   -3.0439728  0.021823111   -4.2771731    1.2332003  1010000 
  541000   0.82195163   -4.2775863   -4.2775863   -3.0446601  0.022436478   -4.2775863    1.2329262  1010000 
  542000   0.82161871   -4.2771351   -4.2771351   -3.0447083  0.019908492   -4.2771351    1.2324268  1010000 
  543000   0.82198756   -4.2779785   -4.2779785   -3.0449983  0.020391786   -4.2779785    1.2329801  1010000 
  544000   0.82217581   -4.2791676   -4.2791676   -3.0459051   0.02221394   -4.2791676    1.2332625  1010000 
  545000   0.82223092   -4.2795858   -4.2795858   -3.0462407  0.022484468   -4.2795858    1.2333452  1010000 
  546000    0.8223294   -4.2804808   -4.2804808    -3.046988   0.01969478   -4.2804808    1.2334929  1010000 
  547000   0.82230144   -4.2803972   -4.2803972   -3.0469463  0.021009377   -4.2803972    1.2334509  1010000 
  548000   0.82167133   -4.2804924   -4.2804924   -3.0479867  0.021257932   -4.2804924    1.2325058  1010000 
  549000   0.82263609    -4.281819    -4.281819   -3.0478661  0.019017788    -4.281819    1.2339529  1010000 
  550000   0.82199722    -4.281478    -4.281478   -3.0484833    0.0233874    -4.281478    1.2329946  1010000 
  551000    0.8221768   -4.2819426   -4.2819426   -3.0486786  0.026201067   -4.2819426     1.233264  1010000 
  552000    0.8213937   -4.2822343   -4.2822343    -3.050145  0.021978089   -4.2822343    1.2320893  1010000 
  553000   0.82103948   -4.2821841   -4.2821841   -3.0506261  0.021570431   -4.2821841     1.231558  1010000 
  554000   0.82101152   -4.2831212   -4.2831212   -3.0516052  0.024323021   -4.2831212    1.2315161  1010000 
  555000   0.82062603   -4.2832848   -4.2832848    -3.052347  0.023445924   -4.2832848    1.2309378  1010000 
  556000   0.82091201   -4.2842814   -4.2842814   -3.0529146  0.021372606   -4.2842814    1.2313668  1010000 
  557000   0.82114671   -4.2850092   -4.2850092   -3.0532904  0.019193276   -4.2850092    1.2317188  1010000 
  558000   0.82072033   -4.2844326   -4.2844326   -3.0533533   0.02304028   -4.2844326    1.2310793  1010000 
  559000   0.82087998   -4.2853644   -4.2853644   -3.0540457  0.022677489   -4.2853644    1.2313188  1010000 
  560000   0.82122784    -4.285765    -4.285765   -3.0539245  0.023380932    -4.285765    1.2318405  1010000 
  561000   0.82086304   -4.2861518   -4.2861518   -3.0548585  0.022067629   -4.2861518    1.2312933  1010000 
  562000   0.82125914   -4.2871786   -4.2871786   -3.0552911  0.020295835   -4.2871786    1.2318875  1010000 
  563000   0.82014354   -4.2855384   -4.2855384   -3.0553243  0.024564404   -4.2855384    1.2302141  1010000 
  564000   0.82144416   -4.2881158   -4.2881158   -3.0559508  0.018896451   -4.2881158     1.232165  1010000 
  565000   0.81984561   -4.2858149   -4.2858149   -3.0560477  0.023933685   -4.2858149    1.2297672  1010000 
  566000   0.81989183   -4.2868544   -4.2868544   -3.0570179  0.021168389   -4.2868544    1.2298365  1010000 
  567000   0.82033573   -4.2880383   -4.2880383   -3.0575359  0.021815197   -4.2880383    1.2305024  1010000 
  568000   0.81997529   -4.2874173   -4.2874173   -3.0574556   0.02110765   -4.2874173    1.2299617  1010000 
  569000   0.82024591   -4.2889804   -4.2889804   -3.0586128  0.020143028   -4.2889804    1.2303676  1010000 
  570000   0.81951169   -4.2883112   -4.2883112   -3.0590449   0.02155722   -4.2883112    1.2292663  1010000 
  571000   0.81942511   -4.2884765   -4.2884765   -3.0593401  0.022127918   -4.2884765    1.2291365  1010000 
  572000   0.81924213    -4.288985    -4.288985   -3.0601231  0.020664559    -4.288985     1.228862  1010000 
  573000   0.81926266    -4.289464    -4.289464   -3.0605713  0.023264275    -4.289464    1.2288928  1010000 
  574000   0.81895694   -4.2898135   -4.2898135   -3.0613793  0.016019045   -4.2898135    1.2284342  1010000 
  575000   0.81810819   -4.2892012   -4.2892012   -3.0620402  0.020008997   -4.2892012    1.2271611  1010000 
  576000   0.81828697   -4.2899332   -4.2899332   -3.0625039  0.021606342   -4.2899332    1.2274292  1010000 
  577000   0.81855603    -4.290931    -4.290931   -3.0630981  0.019979886    -4.290931    1.2278328  1010000 
  578000   0.81906624   -4.2915517   -4.2915517   -3.0629535  0.023399076   -4.2915517    1.2285981  1010000 
  579000   0.81935074   -4.2926536   -4.2926536   -3.0636287   0.01977922   -4.2926536    1.2290249  1010000 
  580000   0.81951531    -4.292464    -4.292464   -3.0631923  0.021312097    -4.292464    1.2292718  1010000 
  581000   0.81967123   -4.2927293   -4.2927293   -3.0632237  0.024501287   -4.2927293    1.2295056  1010000 
  582000   0.82011649   -4.2938536   -4.2938536   -3.0636801  0.023510801   -4.2938536    1.2301735  1010000 
  583000   0.81878193   -4.2931605   -4.2931605   -3.0649889  0.021742065   -4.2931605    1.2281717  1010000 
  584000   0.81914653   -4.2943776   -4.2943776   -3.0656591  0.023801492   -4.2943776    1.2287186  1010000 
  585000    0.8185262   -4.2939774   -4.2939774   -3.0661893  0.026693785   -4.2939774    1.2277881  1010000 
  586000   0.81805674   -4.2936447   -4.2936447   -3.0665609  0.022304611   -4.2936447    1.2270839  1010000 
  587000    0.8179007   -4.2947999   -4.2947999     -3.06795  0.026115894   -4.2947999    1.2268498  1010000 
  588000    0.8183259   -4.2959922   -4.2959922   -3.0685046  0.019759949   -4.2959922    1.2274876  1010000 
  589000    0.8182303   -4.2966819   -4.2966819   -3.0693376  0.020541714   -4.2966819    1.2273442  1010000 
  590000   0.81765721   -4.2955269   -4.2955269   -3.0690423  0.019468738   -4.2955269    1.2264846  1010000 
  591000   0.81682822   -4.2945195   -4.2945195   -3.0692783  0.020600078   -4.2945195    1.2252411  1010000 
  592000   0.81765377   -4.2963067   -4.2963067   -3.0698273  0.020948538   -4.2963067    1.2264794  1010000 
  593000   0.81814455   -4.2974703   -4.2974703   -3.0702547  0.019420932   -4.2974703    1.2272156  1010000 
  594000   0.81796721   -4.2975606   -4.2975606    -3.070611  0.020609674   -4.2975606    1.2269496  1010000 
  595000   0.81795852   -4.2972132   -4.2972132   -3.0702766  0.023763862   -4.2972132    1.2269366  1010000 
  596000   0.81811946   -4.2978032   -4.2978032   -3.0706252    0.0216428   -4.2978032     1.227178  1010000 
  597000   0.81852124   -4.2991064   -4.2991064   -3.0713258  0.017858281   -4.2991064    1.2277806  1010000 
  598000   0.81801961   -4.2991611   -4.2991611   -3.0721329  0.020606707   -4.2991611    1.2270282  1010000 
  599000    0.8177698   -4.2989383   -4.2989383   -3.0722849  0.022302607   -4.2989383    1.2266535  1010000 
  600000   0.81708983   -4.2990043   -4.2990043   -3.0733707  0.020143772   -4.2990043    1.2256335  1010000 
  601000   0.81709958   -4.2990003   -4.2990003   -3.0733522  0.020237717   -4.2990003    1.2256482  1010000 
  602000   0.81683434   -4.2995449   -4.2995449   -3.0742946  0.019197266   -4.2995449    1.2252503  1010000 
  603000   0.81583299   -4.2987843   -4.2987843    -3.075036   0.02329203   -4.2987843    1.2237483  1010000 
  604000   0.81731362    -4.301437    -4.301437   -3.0754678  0.019312084    -4.301437    1.2259692  1010000 
  605000   0.81669988   -4.3011502   -4.3011502   -3.0761016  0.021403198   -4.3011502    1.2250486  1010000 
  606000   0.81624012   -4.3002272   -4.3002272   -3.0758682  0.023460571   -4.3002272     1.224359  1010000 
  607000   0.81626725   -4.3013228   -4.3013228   -3.0769232  0.021098793   -4.3013228    1.2243997  1010000 
  608000   0.81704965   -4.3028919   -4.3028919   -3.0773187  0.020316451   -4.3028919    1.2255733  1010000 
  609000    0.8168224    -4.302188    -4.302188   -3.0769556   0.02283572    -4.302188    1.2252324  1010000 
  610000    0.8168032   -4.3026724   -4.3026724   -3.0774688  0.022139853   -4.3026724    1.2252036  1010000 
  611000   0.81698688   -4.3033779   -4.3033779   -3.0778988  0.021335963   -4.3033779    1.2254791  1010000 
  612000   0.81687842   -4.3041121   -4.3041121   -3.0787957  0.020521906   -4.3041121    1.2253164  1010000 
  613000   0.81585074   -4.3034161   -4.3034161   -3.0796412  0.025604224   -4.3034161    1.2237749  1010000 
  614000   0.81714132   -4.3058971   -4.3058971   -3.0801863  0.019142661   -4.3058971    1.2257108  1010000 
  615000   0.81680097   -4.3058854   -4.3058854   -3.0806852  0.019109557   -4.3058854    1.2252002  1010000 
  616000   0.81592704   -4.3049539   -4.3049539   -3.0810646  0.025228882   -4.3049539    1.2238894  1010000 
  617000   0.81580143   -4.3045718   -4.3045718   -3.0808708  0.022934186   -4.3045718    1.2237009  1010000 
  618000   0.81598901   -4.3054316   -4.3054316   -3.0814493  0.024889494   -4.3054316    1.2239823  1010000 
  619000   0.81657286   -4.3071668   -4.3071668   -3.0823087  0.021818685   -4.3071668    1.2248581  1010000 
  620000   0.81618371   -4.3070334   -4.3070334   -3.0827591  0.022347594   -4.3070334    1.2242743  1010000 
  621000   0.81612272    -4.307394    -4.307394   -3.0832112  0.025350965    -4.307394    1.2241829  1010000 
  622000   0.81486661   -4.3059643   -4.3059643   -3.0836656  0.026220103   -4.3059643    1.2222987  1010000 
  623000   0.81572358   -4.3076681   -4.3076681    -3.084084  0.021331341   -4.3076681    1.2235842  1010000 
  624000   0.81578993   -4.3083462   -4.3083462   -3.0846625  0.020916095   -4.3083462    1.2236837  1010000 
  625000   0.81463466   -4.3067466   -4.3067466   -3.0847959  0.020914134   -4.3067466    1.2219508  1010000 
  626000    0.8155929    -4.308708    -4.308708   -3.0853198  0.022141646    -4.308708    1.2233881  1010000 
  627000    0.8153369   -4.3078449   -4.3078449   -3.0848408  0.023134879   -4.3078449    1.2230041  1010000 
  628000   0.81421614   -4.3069087   -4.3069087   -3.0855857   0.02676598   -4.3069087     1.221323  1010000 
  629000    0.8148009   -4.3085316   -4.3085316   -3.0863315   0.02240634   -4.3085316    1.2222001  1010000 
  630000   0.81536293   -4.3093598   -4.3093598   -3.0863167  0.019143997   -4.3093598    1.2230432  1010000 
  631000   0.81479458   -4.3093297   -4.3093297   -3.0871391  0.018532125   -4.3093297    1.2221907  1010000 
  632000   0.81539522   -4.3107414   -4.3107414   -3.0876498  0.018641925   -4.3107414    1.2230916  1010000 
  633000   0.81413092   -4.3092277   -4.3092277   -3.0880325  0.018796165   -4.3092277    1.2211952  1010000 
  634000   0.81409324   -4.3095939   -4.3095939   -3.0884552  0.019194819   -4.3095939    1.2211387  1010000 
  635000   0.81378679   -4.3098858   -4.3098858   -3.0892069  0.021836002   -4.3098858     1.220679  1010000 
  636000   0.81336875   -4.3092959   -4.3092959    -3.089244  0.018087245   -4.3092959    1.2200519  1010000 
  637000   0.81426281   -4.3110199   -4.3110199   -3.0896269  0.019858815   -4.3110199     1.221393  1010000 
  638000   0.81421921   -4.3119051   -4.3119051   -3.0905775  0.019634219   -4.3119051    1.2213276  1010000 
  639000   0.81468016   -4.3121068   -4.3121068   -3.0900878  0.022129638   -4.3121068     1.222019  1010000 
  640000    0.8142302    -4.312048    -4.312048   -3.0907039  0.023558622    -4.312048    1.2213441  1010000 
  641000   0.81502868   -4.3135521   -4.3135521   -3.0910103  0.022489126   -4.3135521    1.2225418  1010000 
  642000   0.81471918   -4.3125487   -4.3125487   -3.0904711  0.025890922   -4.3125487    1.2220776  1010000 
  643000   0.81462018   -4.3132881   -4.3132881    -3.091359  0.027233746   -4.3132881    1.2219291  1010000 
  644000   0.81448014   -4.3135715   -4.3135715   -3.0918525  0.024141648   -4.3135715     1.221719  1010000 
  645000   0.81505539   -4.3158411   -4.3158411   -3.0932592  0.022280595   -4.3158411    1.2225819  1010000 
  646000   0.81370442   -4.3145648   -4.3145648   -3.0940094  0.024223541   -4.3145648    1.2205554  1010000 
  647000    0.8146575   -4.3160468   -4.3160468   -3.0940618  0.020821213   -4.3160468     1.221985  1010000 
  648000   0.81408025   -4.3161016   -4.3161016   -3.0949824  0.022252126   -4.3161016    1.2211192  1010000 
  649000   0.81297674   -4.3147934   -4.3147934   -3.0953295  0.025215855   -4.3147934    1.2194639  1010000 
  650000   0.81265197   -4.3148414   -4.3148414   -3.0958646  0.023794119   -4.3148414    1.2189767  1010000 
  651000   0.81416096   -4.3174931   -4.3174931   -3.0962529  0.018655707   -4.3174931    1.2212402  1010000 
  652000   0.81399397   -4.3176115   -4.3176115   -3.0966218  0.023251176   -4.3176115    1.2209897  1010000 
  653000   0.81402468   -4.3179941   -4.3179941   -3.0969583  0.022405219   -4.3179941    1.2210358  1010000 
  654000   0.81325299   -4.3170333   -4.3170333   -3.0971551  0.024083569   -4.3170333    1.2198783  1010000 
  655000   0.81291346   -4.3169473   -4.3169473   -3.0975783  0.021861136   -4.3169473     1.219369  1010000 
  656000   0.81345976   -4.3181161   -4.3181161   -3.0979277  0.023516412   -4.3181161    1.2201884  1010000 
  657000   0.81279861   -4.3183439   -4.3183439   -3.0991472   0.02527103   -4.3183439    1.2191967  1010000 
  658000   0.81331551   -4.3193816   -4.3193816   -3.0994095   0.02127541   -4.3193816    1.2199721  1010000 
  659000   0.81217633   -4.3184585   -4.3184585   -3.1001953  0.022037673   -4.3184585    1.2182633  1010000 
  660000   0.81300445   -4.3202284   -4.3202284    -3.100723  0.021155006   -4.3202284    1.2195055  1010000 
  661000    0.8125414   -4.3203257   -4.3203257   -3.1015148  0.016119364   -4.3203257    1.2188109  1010000 
  662000   0.81236434   -4.3198463   -4.3198463    -3.101301  0.022801793   -4.3198463    1.2185453  1010000 
  663000   0.81298901   -4.3216577   -4.3216577   -3.1021754  0.021474238   -4.3216577    1.2194823  1010000 
  664000   0.81212793   -4.3212053   -4.3212053   -3.1030146  0.021888655   -4.3212053    1.2181907  1010000 
  665000   0.81270502   -4.3214392   -4.3214392   -3.1023829  0.021539353   -4.3214392    1.2190563  1010000 
  666000   0.81269379   -4.3223263   -4.3223263   -3.1032868  0.019645812   -4.3223263    1.2190395  1010000 
  667000   0.81226856   -4.3221688   -4.3221688   -3.1037672  0.018506827   -4.3221688    1.2184016  1010000 
  668000   0.81231182   -4.3223375   -4.3223375    -3.103871  0.023169506   -4.3223375    1.2184665  1010000 
  669000   0.81155473   -4.3231648   -4.3231648   -3.1058339  0.021473497   -4.3231648    1.2173309  1010000 
  670000   0.81160504   -4.3232116   -4.3232116   -3.1058052  0.023318759   -4.3232116    1.2174064  1010000 
  671000   0.81151032   -4.3234838   -4.3234838   -3.1062196  0.023123615   -4.3234838    1.2172643  1010000 
  672000   0.81154693   -4.3240463   -4.3240463   -3.1067271   0.02210203   -4.3240463    1.2173192  1010000 
  673000   0.81147045   -4.3248057   -4.3248057   -3.1076013  0.019454257   -4.3248057    1.2172045  1010000 
  674000    0.8113222    -4.325359    -4.325359   -3.1083769  0.024264625    -4.325359    1.2169821  1010000 
  675000   0.81182903   -4.3259403   -4.3259403    -3.108198  0.021842402   -4.3259403    1.2177423  1010000 
  676000   0.81146449   -4.3259368   -4.3259368   -3.1087413  0.020963398   -4.3259368    1.2171955  1010000 
  677000   0.81199193   -4.3263546   -4.3263546    -3.108368  0.023114494   -4.3263546    1.2179867  1010000 
  678000   0.81273168   -4.3273177   -4.3273177   -3.1082214  0.025226808   -4.3273177    1.2190963  1010000 
  679000   0.81214958   -4.3271049   -4.3271049   -3.1088817  0.025766866   -4.3271049    1.2182232  1010000 
  680000   0.81190335   -4.3277303   -4.3277303   -3.1098765  0.019514872   -4.3277303    1.2178538  1010000 
  681000   0.81207681   -4.3281995   -4.3281995   -3.1100855  0.022096654   -4.3281995     1.218114  1010000 
  682000   0.81211902   -4.3290924   -4.3290924   -3.1109151   0.02234348   -4.3290924    1.2181773  1010000 
  683000   0.81154776   -4.3284461   -4.3284461   -3.1111257  0.021708138   -4.3284461    1.2173204  1010000 
  684000   0.81102745   -4.3292988   -4.3292988   -3.1127589  0.017108558   -4.3292988      1.21654  1010000 
  685000   0.80990251   -4.3278395   -4.3278395    -3.112987  0.018221052   -4.3278395    1.2148526  1010000 
  686000   0.81045206   -4.3285832   -4.3285832   -3.1129063  0.019950475   -4.3285832    1.2156769  1010000 
  687000     0.810122   -4.3287746   -4.3287746   -3.1135928  0.018664726   -4.3287746    1.2151818  1010000 
  688000   0.81071879   -4.3292501   -4.3292501   -3.1131731  0.020495285   -4.3292501     1.216077  1010000 
  689000   0.81042027   -4.3293986   -4.3293986   -3.1137694  0.020589393   -4.3293986    1.2156292  1010000 
  690000   0.81052524   -4.3296187   -4.3296187    -3.113832    0.0237519   -4.3296187    1.2157867  1010000 
  691000   0.81035116   -4.3295098   -4.3295098   -3.1139843   0.02472941   -4.3295098    1.2155255  1010000 
  692000   0.81096621   -4.3310741   -4.3310741    -3.114626  0.022040568   -4.3310741    1.2164481  1010000 
  693000    0.8108937   -4.3308974   -4.3308974    -3.114558  0.021959219   -4.3308974    1.2163393  1010000 
  694000   0.80937633   -4.3299103   -4.3299103    -3.115847  0.019910445   -4.3299103    1.2140633  1010000 
  695000   0.80945646   -4.3308118   -4.3308118   -3.1166283  0.019578026   -4.3308118    1.2141835  1010000 
  696000   0.80921637   -4.3299701   -4.3299701   -3.1161468  0.022697332   -4.3299701    1.2138234  1010000 
  697000   0.80942332   -4.3314142   -4.3314142   -3.1172804  0.017860308   -4.3314142    1.2141338  1010000 
  698000   0.80910773   -4.3321231   -4.3321231   -3.1184627  0.019343647   -4.3321231    1.2136604  1010000 
  699000    0.8099934   -4.3333408   -4.3333408   -3.1183519  0.020471764   -4.3333408    1.2149889  1010000 
  700000   0.80939784   -4.3331103   -4.3331103   -3.1190148  0.019807928   -4.3331103    1.2140956  1010000 
  701000   0.80914302   -4.3332564   -4.3332564    -3.119543   0.02178368   -4.3332564    1.2137133  1010000 
  702000   0.81003115   -4.3343629   -4.3343629   -3.1193174  0.023663808   -4.3343629    1.2150455  1010000 
  703000   0.80933448   -4.3341961   -4.3341961   -3.1201956  0.022028683   -4.3341961    1.2140005  1010000 
  704000   0.80947749   -4.3354723   -4.3354723   -3.1212572   0.02015888   -4.3354723     1.214215  1010000 
  705000    0.8092688   -4.3350131   -4.3350131   -3.1211111   0.02337343   -4.3350131     1.213902  1010000 
  706000   0.80916044    -4.335447    -4.335447   -3.1217076  0.023469813    -4.335447    1.2137395  1010000 
  707000   0.80930488   -4.3361071   -4.3361071    -3.122151  0.023620856   -4.3361071    1.2139561  1010000 
  708000   0.80895802   -4.3364461   -4.3364461   -3.1230103  0.023641355   -4.3364461    1.2134358  1010000 
  709000   0.81035127   -4.3385339   -4.3385339   -3.1230082  0.022419592   -4.3385339    1.2155257  1010000 
  710000   0.80950352   -4.3379168   -4.3379168   -3.1236627  0.023542445   -4.3379168    1.2142541  1010000 
  711000   0.80920702   -4.3367249   -4.3367249   -3.1229156  0.024126058   -4.3367249    1.2138093  1010000 
  712000   0.80981113   -4.3388396   -4.3388396   -3.1241241   0.01911546   -4.3388396    1.2147155  1010000 
  713000   0.80901635   -4.3386476   -4.3386476   -3.1251243  0.019643201   -4.3386476    1.2135233  1010000 
  714000   0.80843329   -4.3383205   -4.3383205   -3.1256717  0.021326237   -4.3383205    1.2126487  1010000 
  715000   0.80883004   -4.3389578   -4.3389578    -3.125714  0.019384905   -4.3389578    1.2132439  1010000 
  716000   0.80835989   -4.3383682   -4.3383682   -3.1258295  0.021653198   -4.3383682    1.2125386  1010000 
  717000   0.80856819   -4.3387505   -4.3387505   -3.1258994  0.022481717   -4.3387505    1.2128511  1010000 
  718000   0.80803287   -4.3388432   -4.3388432   -3.1267951  0.022596584   -4.3388432    1.2120481  1010000 
  719000   0.80917182   -4.3407637   -4.3407637   -3.1270071  0.021445867   -4.3407637    1.2137565  1010000 
  720000   0.80795335   -4.3393738   -4.3393738    -3.127445  0.025166578   -4.3393738    1.2119288  1010000 
  721000   0.80785785   -4.3392887   -4.3392887   -3.1275031  0.023779351   -4.3392887    1.2117856  1010000 
  722000    0.8076459   -4.3391503   -4.3391503   -3.1276826  0.023812199   -4.3391503    1.2114676  1010000 
  723000   0.80761285   -4.3394885   -4.3394885   -3.1280704  0.018471412   -4.3394885    1.2114181  1010000 
  724000   0.80707113   -4.3394389   -4.3394389   -3.1288334  0.021807085   -4.3394389    1.2106055  1010000 
  725000   0.80746821    -4.340529    -4.340529   -3.1293279  0.017412139    -4.340529    1.2112011  1010000 
  726000   0.80719404     -4.34075     -4.34075   -3.1299601  0.022416965     -4.34075    1.2107899  1010000 
  727000   0.80736367   -4.3407327   -4.3407327   -3.1296884  0.024564251   -4.3407327    1.2110443  1010000 
  728000   0.80700729     -4.34066     -4.34066   -3.1301503  0.026569415     -4.34066    1.2105097  1010000 
  729000    0.8079412   -4.3428179   -4.3428179   -3.1309073  0.016043773   -4.3428179    1.2119106  1010000 
  730000    0.8073821   -4.3426046   -4.3426046   -3.1315327  0.020245799   -4.3426046     1.211072  1010000 
  731000   0.80750791   -4.3434108   -4.3434108   -3.1321501  0.018309078   -4.3434108    1.2112607  1010000 
  732000   0.80696224   -4.3424989   -4.3424989   -3.1320567  0.024038774   -4.3424989    1.2104422  1010000 
  733000   0.80672017   -4.3431093   -4.3431093   -3.1330303  0.021665989   -4.3431093    1.2100791  1010000 
  734000   0.80680975   -4.3435183   -4.3435183   -3.1333049  0.021653696   -4.3435183    1.2102134  1010000 
  735000   0.80720295   -4.3441859   -4.3441859   -3.1333827  0.022015657   -4.3441859    1.2108032  1010000 
  736000   0.80738581    -4.344928    -4.344928   -3.1338505  0.022748624    -4.344928    1.2110775  1010000 
  737000   0.80703028   -4.3451436   -4.3451436   -3.1345993  0.020684889   -4.3451436    1.2105442  1010000 
  738000   0.80678717   -4.3452601   -4.3452601   -3.1350805  0.023307206   -4.3452601    1.2101796  1010000 
  739000   0.80740888   -4.3457151   -4.3457151   -3.1346029  0.023805238   -4.3457151    1.2111121  1010000 
  740000   0.80736714   -4.3461999   -4.3461999   -3.1351504  0.022637082   -4.3461999    1.2110495  1010000 
  741000   0.80620878   -4.3454653   -4.3454653   -3.1361533  0.022418621   -4.3454653     1.209312  1010000 
  742000   0.80624738   -4.3461701   -4.3461701   -3.1368002  0.023934718   -4.3461701    1.2093699  1010000 
  743000   0.80739936   -4.3479623   -4.3479623   -3.1368644  0.020496904   -4.3479623    1.2110978  1010000 
  744000   0.80597423   -4.3466585   -4.3466585   -3.1376984  0.020297863   -4.3466585    1.2089601  1010000 
  745000   0.80634051   -4.3476576   -4.3476576   -3.1381481  0.022640045   -4.3476576    1.2095096  1010000 
  746000   0.80580356   -4.3475518   -4.3475518   -3.1388477  0.020366724   -4.3475518    1.2087041  1010000 
  747000   0.80701693   -4.3498717   -4.3498717   -3.1393475  0.017723185   -4.3498717    1.2105242  1010000 
  748000   0.80599646   -4.3483628   -4.3483628   -3.1393693  0.021530212   -4.3483628    1.2089935  1010000 
  749000   0.80644998   -4.3492993   -4.3492993   -3.1396255  0.016830246   -4.3492993    1.2096738  1010000 
  750000   0.80580564   -4.3484003   -4.3484003   -3.1396931  0.020092916   -4.3484003    1.2087073  1010000 
  751000   0.80606173   -4.3487078   -4.3487078   -3.1396164  0.024063981   -4.3487078    1.2090914  1010000 
  752000   0.80544969    -4.348474    -4.348474   -3.1403007  0.023855329    -4.348474    1.2081733  1010000 
  753000   0.80519021   -4.3493391   -4.3493391    -3.141555  0.022295718   -4.3493391    1.2077841  1010000 
  754000   0.80556479   -4.3504156   -4.3504156   -3.1420696  0.019684732   -4.3504156     1.208346  1010000 
  755000   0.80569026   -4.3512775   -4.3512775   -3.1427433  0.023416429   -4.3512775    1.2085342  1010000 
  756000   0.80557923   -4.3507765   -4.3507765   -3.1424089  0.026978771   -4.3507765    1.2083676  1010000 
  757000   0.80551697   -4.3509663   -4.3509663    -3.142692   0.02405567   -4.3509663    1.2082743  1010000 
  758000    0.8047171   -4.3507019   -4.3507019   -3.1436274  0.025732642   -4.3507019    1.2070745  1010000 
  759000   0.80558744   -4.3526575   -4.3526575   -3.1442776  0.021556542   -4.3526575      1.20838  1010000 
  760000   0.80595937   -4.3537786   -4.3537786   -3.1448408  0.020936217   -4.3537786    1.2089379  1010000 
  761000   0.80542243   -4.3537542   -4.3537542   -3.1456217  0.022266543   -4.3537542    1.2081325  1010000 
  762000   0.80564904   -4.3543087   -4.3543087   -3.1458363  0.021761629   -4.3543087    1.2084724  1010000 
  763000   0.80595506   -4.3556964   -4.3556964    -3.146765  0.019699116   -4.3556964    1.2089314  1010000 
  764000   0.80496824   -4.3548718   -4.3548718   -3.1474206  0.020997904   -4.3548718    1.2074512  1010000 
  765000   0.80628319    -4.356841    -4.356841   -3.1474174  0.019615445    -4.356841    1.2094236  1010000 
  766000   0.80609766   -4.3565424   -4.3565424   -3.1473971  0.023216165   -4.3565424    1.2091453  1010000 
  767000   0.80537406   -4.3560582   -4.3560582   -3.1479983  0.021660498   -4.3560582    1.2080599  1010000 
  768000   0.80489716    -4.355226    -4.355226   -3.1478814  0.023339647    -4.355226    1.2073446  1010000 
  769000   0.80545028   -4.3562364   -4.3562364   -3.1480622  0.021643809   -4.3562364    1.2081742  1010000 
  770000   0.80477452   -4.3559249   -4.3559249   -3.1487643   0.02223077   -4.3559249    1.2071606  1010000 
  771000   0.80437163   -4.3557002   -4.3557002   -3.1491439  0.022301465   -4.3557002    1.2065563  1010000 
  772000    0.8043442   -4.3560576   -4.3560576   -3.1495425  0.024246789   -4.3560576    1.2065151  1010000 
  773000   0.80363827   -4.3554944   -4.3554944   -3.1500382  0.024925323   -4.3554944    1.2054562  1010000 
  774000   0.80438607   -4.3570401   -4.3570401   -3.1504622  0.017339611   -4.3570401    1.2065779  1010000 
  775000   0.80371689   -4.3561384   -4.3561384   -3.1505642  0.020103966   -4.3561384    1.2055741  1010000 
  776000   0.80402855   -4.3570335   -4.3570335   -3.1509919  0.017505584   -4.3570335    1.2060416  1010000 
  777000   0.80421747    -4.357912    -4.357912    -3.151587  0.016848094    -4.357912     1.206325  1010000 
  778000   0.80393978   -4.3574337   -4.3574337   -3.1515252  0.017826369   -4.3574337    1.2059085  1010000 
  779000    0.8032725   -4.3574762   -4.3574762   -3.1525686  0.019391938   -4.3574762    1.2049076  1010000 
  780000   0.80344805   -4.3574255   -4.3574255   -3.1522546  0.021951502   -4.3574255    1.2051709  1010000 
  781000   0.80408031   -4.3585822   -4.3585822   -3.1524629  0.020783435   -4.3585822    1.2061193  1010000 
  782000   0.80383717   -4.3579417   -4.3579417   -3.1521872  0.021564962   -4.3579417    1.2057546  1010000 
  783000   0.80429761   -4.3598569   -4.3598569   -3.1534117  0.018498999   -4.3598569    1.2064452  1010000 
  784000   0.80364363   -4.3591281   -4.3591281   -3.1536639  0.024828558   -4.3591281    1.2054642  1010000 
  785000   0.80326688   -4.3593195   -4.3593195   -3.1544204   0.02200314   -4.3593195    1.2048991  1010000 
  786000   0.80376849   -4.3606009   -4.3606009   -3.1549494  0.021575469   -4.3606009    1.2056515  1010000 
  787000   0.80406778   -4.3614357   -4.3614357   -3.1553352   0.02064579   -4.3614357    1.2061005  1010000 
  788000   0.80337741   -4.3611174   -4.3611174   -3.1560525  0.022996604   -4.3611174    1.2050649  1010000 
  789000   0.80305504     -4.36117     -4.36117   -3.1565886  0.022207014     -4.36117    1.2045814  1010000 
  790000   0.80373217   -4.3626798   -4.3626798   -3.1570827  0.020935016   -4.3626798    1.2055971  1010000 
  791000    0.8023981   -4.3610654   -4.3610654   -3.1574695   0.02435185   -4.3610654     1.203596  1010000 
  792000   0.80388269   -4.3631801   -4.3631801   -3.1573573  0.020294805   -4.3631801    1.2058228  1010000 
  793000   0.80309587   -4.3625765   -4.3625765   -3.1579339  0.021953719   -4.3625765    1.2046426  1010000 
  794000   0.80331386   -4.3632335   -4.3632335   -3.1582639  0.023023787   -4.3632335    1.2049696  1010000 
  795000    0.8027201   -4.3628266   -4.3628266   -3.1587476  0.021353968   -4.3628266     1.204079  1010000 
  796000   0.80254028   -4.3625116   -4.3625116   -3.1587024  0.021483589   -4.3625116    1.2038092  1010000 
  797000   0.80339006   -4.3638013   -4.3638013   -3.1587174  0.020866169   -4.3638013    1.2050839  1010000 
  798000    0.8023211   -4.3628867   -4.3628867   -3.1594062  0.021889552   -4.3628867    1.2034805  1010000 
  799000   0.80290676   -4.3640564   -4.3640564   -3.1596974  0.020895916   -4.3640564    1.2043589  1010000 
  800000   0.80289798   -4.3641782   -4.3641782   -3.1598324  0.023774115   -4.3641782    1.2043458  1010000 
  801000   0.80248023   -4.3642638   -4.3642638   -3.1605447  0.020522172   -4.3642638    1.2037192  1010000 
  802000   0.80227831   -4.3644355   -4.3644355   -3.1610192  0.018564006   -4.3644355    1.2034163  1010000 
  803000   0.80223524   -4.3648597   -4.3648597   -3.1615081  0.019495062   -4.3648597    1.2033517  1010000 
  804000   0.80174324   -4.3645058   -4.3645058   -3.1618921  0.022929924   -4.3645058    1.2026137  1010000 
  805000    0.8016817   -4.3645762   -4.3645762   -3.1620549  0.016117388   -4.3645762    1.2025214  1010000 
  806000   0.80156915   -4.3648797   -4.3648797   -3.1625272  0.022014443   -4.3648797    1.2023525  1010000 
  807000   0.80157102   -4.3648249   -4.3648249   -3.1624695  0.022465181   -4.3648249    1.2023553  1010000 
  808000   0.80234436   -4.3664743   -4.3664743    -3.162959  0.019888299   -4.3664743    1.2035154  1010000 
  809000   0.80131835    -4.365208    -4.365208   -3.1632317  0.025450263    -4.365208    1.2019763  1010000 
  810000   0.80106486   -4.3662339   -4.3662339   -3.1646377  0.021766023   -4.3662339    1.2015961  1010000 
  811000   0.80167951   -4.3674605   -4.3674605   -3.1649424  0.020201378   -4.3674605    1.2025181  1010000 
  812000   0.80171935   -4.3667781   -4.3667781   -3.1642002  0.024407392   -4.3667781    1.2025778  1010000 
  813000    0.8019108   -4.3680286   -4.3680286   -3.1651636  0.017364522   -4.3680286     1.202865  1010000 
  814000   0.80154449   -4.3688102   -4.3688102   -3.1664947   0.01839867   -4.3688102    1.2023155  1010000 
  815000   0.80122641   -4.3691686   -4.3691686   -3.1673302  0.019516862   -4.3691686    1.2018384  1010000 
  816000   0.80216254   -4.3705464   -4.3705464   -3.1673038  0.020417439   -4.3705464    1.2032426  1010000 
  817000   0.80085699   -4.3697939   -4.3697939   -3.1685096  0.023050649   -4.3697939    1.2012843  1010000 
  818000   0.80212687   -4.3712843   -4.3712843   -3.1680952  0.019563431   -4.3712843    1.2031891  1010000 
  819000   0.80107531   -4.3707253   -4.3707253   -3.1691135  0.021114549   -4.3707253    1.2016118  1010000 
  820000   0.80139648   -4.3711577   -4.3711577   -3.1690641  0.023666466   -4.3711577    1.2020935  1010000 
  821000   0.80085257   -4.3713053   -4.3713053   -3.1700277   0.02407984   -4.3713053    1.2012777  1010000 
  822000   0.80078424   -4.3718306   -4.3718306   -3.1706554  0.021576513   -4.3718306    1.2011752  1010000 
  823000   0.80118198   -4.3734872   -4.3734872   -3.1717154  0.021966349   -4.3734872    1.2017718  1010000 
  824000    0.8012753   -4.3741574   -4.3741574   -3.1722457  0.015595409   -4.3741574    1.2019118  1010000 
  825000   0.80176316   -4.3750597   -4.3750597   -3.1724161  0.020616325   -4.3750597    1.2026435  1010000 
  826000     0.800492   -4.3733936   -4.3733936   -3.1726568  0.021270856   -4.3733936    1.2007368  1010000 
  827000    0.8005122   -4.3744027   -4.3744027   -3.1736356  0.021193952   -4.3744027    1.2007671  1010000 
  828000   0.80067912   -4.3752569   -4.3752569   -3.1742394  0.019671022   -4.3752569    1.2010175  1010000 
  829000   0.80061976   -4.3750795   -4.3750795    -3.174151  0.020741426   -4.3750795    1.2009284  1010000 
  830000   0.80064304   -4.3757205   -4.3757205   -3.1747571  0.022386435   -4.3757205    1.2009634  1010000 
  831000   0.80041126   -4.3754449   -4.3754449   -3.1748292  0.021221681   -4.3754449    1.2006157  1010000 
  832000    0.8008019   -4.3765049   -4.3765049   -3.1753032   0.02179075   -4.3765049    1.2012017  1010000 
  833000   0.80085882   -4.3769358   -4.3769358   -3.1756487  0.019371065   -4.3769358     1.201287  1010000 
  834000   0.80064424   -4.3766163   -4.3766163   -3.1756512  0.022370231   -4.3766163    1.2009652  1010000 
  835000   0.80128799   -4.3780307   -4.3780307   -3.1760999   0.01885036   -4.3780307    1.2019308  1010000 
  836000   0.80110323   -4.3777665   -4.3777665   -3.1761128  0.022546578   -4.3777665    1.2016537  1010000 
  837000   0.80024189   -4.3774159   -4.3774159   -3.1770542  0.023403249   -4.3774159    1.2003616  1010000 
  838000   0.79978988   -4.3770855   -4.3770855   -3.1774018  0.022522601   -4.3770855    1.1996836  1010000 
  839000   0.79991604   -4.3776776   -4.3776776   -3.1778048  0.019322042   -4.3776776    1.1998729  1010000 
  840000   0.79914406   -4.3758212   -4.3758212   -3.1771063    0.0231454   -4.3758212    1.1987149  1010000 
  841000   0.79881527   -4.3759895   -4.3759895   -3.1777678  0.021661418   -4.3759895    1.1982217  1010000 
  842000    0.7988552     -4.37655     -4.37655   -3.1782684  0.018428244     -4.37655    1.1982816  1010000 
  843000   0.79953734   -4.3781068   -4.3781068    -3.178802  0.016825591   -4.3781068    1.1993048  1010000 
  844000   0.79866132   -4.3772862   -4.3772862   -3.1792954  0.015938835   -4.3772862    1.1979908  1010000 
  845000   0.79874883   -4.3776148   -4.3776148   -3.1794927    0.0191252   -4.3776148    1.1981221  1010000 
  846000   0.79840895   -4.3769247   -4.3769247   -3.1793124  0.019241231   -4.3769247    1.1976122  1010000 
  847000   0.79875707   -4.3780787   -4.3780787   -3.1799443  0.016684425   -4.3780787    1.1981344  1010000 
  848000   0.79863841   -4.3780093   -4.3780093   -3.1800529  0.019962774   -4.3780093    1.1979564  1010000 
  849000   0.79949429   -4.3805775   -4.3805775   -3.1813373  0.016168498   -4.3805775    1.1992402  1010000 
  850000   0.79795247   -4.3783733   -4.3783733   -3.1814458  0.018215155   -4.3783733    1.1969275  1010000 
  851000   0.79866294   -4.3800609   -4.3800609   -3.1820677  0.015901961   -4.3800609    1.1979932  1010000 
  852000   0.79930254    -4.381098    -4.381098   -3.1821454  0.017290491    -4.381098    1.1989526  1010000 
  853000   0.79824084   -4.3802437   -4.3802437   -3.1828836   0.01964548   -4.3802437    1.1973601  1010000 
  854000   0.79906276   -4.3817727   -4.3817727   -3.1831797  0.020392912   -4.3817727    1.1985929  1010000 
  855000   0.79817159   -4.3816693   -4.3816693   -3.1844131  0.019709294   -4.3816693    1.1972562  1010000 
  856000   0.79921435   -4.3830816   -4.3830816   -3.1842612  0.022655656   -4.3830816    1.1988203  1010000 
  857000   0.79887618   -4.3829826   -4.3829826   -3.1846696  0.025091337   -4.3829826    1.1983131  1010000 
  858000   0.79929554   -4.3835964   -4.3835964   -3.1846542  0.024333491   -4.3835964    1.1989421  1010000 
  859000   0.79920387   -4.3836621   -4.3836621   -3.1848575  0.026195257   -4.3836621    1.1988046  1010000 
  860000     0.799164   -4.3844109   -4.3844109   -3.1856661  0.025323518   -4.3844109    1.1987448  1010000 
  861000    0.7986813   -4.3841271   -4.3841271   -3.1861063  0.023425277   -4.3841271    1.1980208  1010000 
  862000    0.7984239   -4.3843747   -4.3843747     -3.18674  0.023766455   -4.3843747    1.1976347  1010000 
  863000   0.79879767   -4.3850174   -4.3850174   -3.1868221  0.024597821   -4.3850174    1.1981953  1010000 
  864000   0.79882672   -4.3856215   -4.3856215   -3.1873826  0.020405485   -4.3856215    1.1982389  1010000 
  865000   0.79803302   -4.3843888   -4.3843888   -3.1873405   0.02226196   -4.3843888    1.1970483  1010000 
  866000   0.79803388   -4.3852995   -4.3852995   -3.1882498  0.018371665   -4.3852995    1.1970496  1010000 
  867000   0.79662782   -4.3843793   -4.3843793   -3.1894387  0.020518888   -4.3843793    1.1949405  1010000 
  868000   0.79686272    -4.384948    -4.384948   -3.1896551  0.021346195    -4.384948    1.1952929  1010000 
  869000   0.79709584   -4.3849892   -4.3849892   -3.1893466  0.015735404   -4.3849892    1.1956426  1010000 
  870000   0.79715599   -4.3855167   -4.3855167   -3.1897839   0.01344293   -4.3855167    1.1957328  1010000 
  871000   0.79574249   -4.3837672   -4.3837672   -3.1901547   0.01960333   -4.3837672    1.1936126  1010000 
  872000   0.79679177   -4.3855581   -4.3855581   -3.1903716  0.015170152   -4.3855581    1.1951865  1010000 
  873000   0.79712576   -4.3865141   -4.3865141   -3.1908266  0.016527091   -4.3865141    1.1956875  1010000 
  874000    0.7970477   -4.3867065   -4.3867065   -3.1911362  0.017996792   -4.3867065    1.1955704  1010000 
  875000   0.79694123   -4.3870325   -4.3870325   -3.1916218  0.016947123   -4.3870325    1.1954107  1010000 
  876000   0.79673543   -4.3864641   -4.3864641   -3.1913621  0.019430807   -4.3864641     1.195102  1010000 
  877000   0.79713495   -4.3877382   -4.3877382   -3.1920369  0.020078585   -4.3877382    1.1957012  1010000 
  878000    0.7973214   -4.3891869   -4.3891869    -3.193206  0.021118523   -4.3891869    1.1959809  1010000 
  879000   0.79754971   -4.3897433   -4.3897433   -3.1934199  0.021541855   -4.3897433    1.1963234  1010000 
  880000   0.79718109   -4.3898781   -4.3898781   -3.1941077  0.020666246   -4.3898781    1.1957705  1010000 
  881000   0.79719906   -4.3901059   -4.3901059   -3.1943085  0.022159794   -4.3901059    1.1957974  1010000 
  882000   0.79752177   -4.3901564   -4.3901564   -3.1938749  0.023686468   -4.3901564    1.1962815  1010000 
  883000   0.79776753   -4.3915092   -4.3915092    -3.194859  0.024155497   -4.3915092    1.1966501  1010000 
  884000   0.79747409   -4.3917126   -4.3917126   -3.1955026  0.024422069   -4.3917126      1.19621  1010000 
  885000   0.79762369   -4.3921471   -4.3921471   -3.1957127  0.023532789   -4.3921471    1.1964343  1010000 
  886000   0.79687745   -4.3923217   -4.3923217   -3.1970067  0.023772411   -4.3923217     1.195315  1010000 
  887000   0.79641963   -4.3928648   -4.3928648   -3.1982365  0.022259897   -4.3928648    1.1946283  1010000 
  888000   0.79686217   -4.3928434   -4.3928434   -3.1975513  0.021606408   -4.3928434    1.1952921  1010000 
  889000   0.79627199   -4.3926777   -4.3926777   -3.1982709  0.019279167   -4.3926777    1.1944068  1010000 
  890000   0.79675273   -4.3930342   -4.3930342   -3.1979063  0.020275482   -4.3930342    1.1951279  1010000 
  891000   0.79629445   -4.3932609   -4.3932609   -3.1988204  0.018866081   -4.3932609    1.1944405  1010000 
  892000    0.7961019   -4.3933411   -4.3933411   -3.1991894  0.021614108   -4.3933411    1.1941517  1010000 
  893000   0.79659929   -4.3941222   -4.3941222   -3.1992245   0.01884942   -4.3941222    1.1948977  1010000 
  894000   0.79629138   -4.3944935   -4.3944935   -3.2000576  0.021059032   -4.3944935    1.1944359  1010000 
  895000   0.79531048   -4.3935851   -4.3935851   -3.2006205  0.019197319   -4.3935851    1.1929645  1010000 
  896000   0.79550157   -4.3943635   -4.3943635   -3.2011123  0.017431957   -4.3943635    1.1932512  1010000 
  897000   0.79534817   -4.3938912   -4.3938912   -3.2008701  0.019480169   -4.3938912    1.1930211  1010000 
  898000   0.79485305   -4.3934254   -4.3934254    -3.201147  0.021169334   -4.3934254    1.1922784  1010000 
  899000   0.79451961   -4.3930365   -4.3930365   -3.2012583  0.022836508   -4.3930365    1.1917782  1010000 
  900000   0.79606596   -4.3962079   -4.3962079   -3.2021101   0.01450157   -4.3962079    1.1940978  1010000 
  901000   0.79469165   -4.3943324   -4.3943324   -3.2022961  0.020950259   -4.3943324    1.1920363  1010000 
  902000   0.79489538   -4.3956869   -4.3956869   -3.2033451  0.019940197   -4.3956869    1.1923419  1010000 
  903000   0.79565963   -4.3974439   -4.3974439   -3.2039556  0.016932318   -4.3974439    1.1934883  1010000 
  904000   0.79566117   -4.3980318   -4.3980318   -3.2045412  0.016327421   -4.3980318    1.1934906  1010000 
  905000   0.79487846   -4.3972139   -4.3972139   -3.2048974  0.016304448   -4.3972139    1.1923165  1010000 
  906000   0.79497343   -4.3974603   -4.3974603   -3.2050014  0.017592447   -4.3974603     1.192459  1010000 
  907000   0.79451408   -4.3973488   -4.3973488   -3.2055788  0.025091986   -4.3973488    1.1917699  1010000 
  908000    0.7951028   -4.3988026   -4.3988026   -3.2061496  0.023939634   -4.3988026     1.192653  1010000 
  909000   0.79455898   -4.3990464   -4.3990464   -3.2072091  0.021932963   -4.3990464    1.1918373  1010000 
  910000   0.79547537   -4.4001495   -4.4001495   -3.2069377    0.0227679   -4.4001495    1.1932119  1010000 
  911000   0.79465585   -4.3994859   -4.3994859   -3.2075033  0.024425606   -4.3994859    1.1919826  1010000 
  912000   0.79559658   -4.4012062   -4.4012062   -3.2078125  0.023811741   -4.4012062    1.1933937  1010000 
  913000   0.79550887   -4.4011362   -4.4011362   -3.2078741  0.022882126   -4.4011362    1.1932621  1010000 
  914000   0.79498088    -4.401137    -4.401137   -3.2086669  0.023212845    -4.401137    1.1924701  1010000 
  915000   0.79375651   -4.4007186   -4.4007186    -3.210085  0.023033433   -4.4007186    1.1906336  1010000 
  916000    0.7949508   -4.4026524   -4.4026524   -3.2102274  0.017361921   -4.4026524     1.192425  1010000 
  917000   0.79362707   -4.4005133   -4.4005133   -3.2100739  0.021985778   -4.4005133    1.1904394  1010000 
  918000   0.79398365    -4.401341    -4.401341   -3.2103667  0.022263076    -4.401341    1.1909743  1010000 
  919000   0.79465824   -4.4023957   -4.4023957   -3.2104096  0.022491815   -4.4023957    1.1919862  1010000 
  920000   0.79413948   -4.4021929   -4.4021929   -3.2109849   0.02083546   -4.4021929     1.191208  1010000 
  921000   0.79419777   -4.4029883   -4.4029883   -3.2116928  0.019241979   -4.4029883    1.1912955  1010000 
  922000   0.79379182   -4.4027349   -4.4027349   -3.2120483  0.018475059   -4.4027349    1.1906866  1010000 
  923000   0.79472269   -4.4037341   -4.4037341   -3.2116513  0.014760339   -4.4037341    1.1920829  1010000 
  924000   0.79476678    -4.403713    -4.403713    -3.211564   0.01611151    -4.403713     1.192149  1010000 
  925000   0.79423829   -4.4034156   -4.4034156   -3.2120594  0.015663303   -4.4034156    1.1913563  1010000 
  926000    0.7930464    -4.401744    -4.401744   -3.2121756  0.017976421    -4.401744    1.1895684  1010000 
  927000    0.7935265   -4.4034212   -4.4034212   -3.2131326  0.016946602   -4.4034212    1.1902886  1010000 
  928000   0.79276571   -4.4031908   -4.4031908   -3.2140434  0.017888643   -4.4031908    1.1891474  1010000 
  929000   0.79212534   -4.4025496   -4.4025496   -3.2143628   0.02185649   -4.4025496    1.1881868  1010000 
  930000   0.79344228   -4.4047519   -4.4047519   -3.2145897  0.016728588   -4.4047519    1.1901622  1010000 
  931000   0.79280597   -4.4043677   -4.4043677   -3.2151599  0.019934685   -4.4043677    1.1892078  1010000 
  932000   0.79293116   -4.4050418   -4.4050418   -3.2156462  0.019109168   -4.4050418    1.1893956  1010000 
  933000    0.7935522   -4.4068588   -4.4068588   -3.2165316    0.0155518   -4.4068588    1.1903271  1010000 
  934000   0.79241709   -4.4058981   -4.4058981   -3.2172737  0.018264118   -4.4058981    1.1886245  1010000 
  935000    0.7933425   -4.4076121   -4.4076121   -3.2175995  0.019446299   -4.4076121    1.1900126  1010000 
  936000   0.79266394   -4.4073075   -4.4073075   -3.2183128  0.022117715   -4.4073075    1.1889947  1010000 
  937000   0.79262956   -4.4072772   -4.4072772   -3.2183341  0.024337142   -4.4072772    1.1889432  1010000 
  938000   0.79360904   -4.4095849   -4.4095849   -3.2191725  0.021667325   -4.4095849    1.1904124  1010000 
  939000   0.79405128   -4.4107464   -4.4107464   -3.2196707  0.022390322   -4.4107464    1.1910757  1010000 
  940000   0.79338737   -4.4104679   -4.4104679    -3.220388  0.023186738   -4.4104679    1.1900799  1010000 
  941000   0.79280532    -4.409956    -4.409956   -3.2207492  0.022351077    -4.409956    1.1892068  1010000 
  942000   0.79384348   -4.4115017   -4.4115017   -3.2207376  0.022573012   -4.4115017     1.190764  1010000 
  943000   0.79276841   -4.4107587   -4.4107587   -3.2216073  0.023163946   -4.4107587    1.1891514  1010000 
  944000   0.79283029    -4.411405    -4.411405   -3.2221608  0.022438315    -4.411405    1.1892443  1010000 
  945000   0.79348585   -4.4124766   -4.4124766    -3.222249  0.022934577   -4.4124766    1.1902276  1010000 
  946000    0.7929832   -4.4122507   -4.4122507   -3.2227771  0.023853921   -4.4122507    1.1894736  1010000 
  947000   0.79273625   -4.4118571   -4.4118571   -3.2227539  0.022769123   -4.4118571    1.1891032  1010000 
  948000   0.79189715   -4.4113338   -4.4113338   -3.2234892  0.018801225   -4.4113338    1.1878445  1010000 
  949000   0.79244278   -4.4130264   -4.4130264   -3.2243634  0.017647597   -4.4130264     1.188663  1010000 
  950000   0.79146921   -4.4116738   -4.4116738   -3.2244712  0.019517352   -4.4116738    1.1872026  1010000 
  951000   0.79184122    -4.412981    -4.412981   -3.2252203  0.013934942    -4.412981    1.1877606  1010000 
  952000   0.79073469   -4.4121632   -4.4121632   -3.2260624  0.013699158   -4.4121632    1.1861009  1010000 
  953000   0.79059558   -4.4122922   -4.4122922      -3.2264  0.017014886   -4.4122922    1.1858922  1010000 
  954000   0.79160931   -4.4131182   -4.4131182   -3.2257054  0.013390006   -4.4131182    1.1874128  1010000 
  955000   0.79088523   -4.4122395   -4.4122395   -3.2259129  0.016847844   -4.4122395    1.1863267  1010000 
  956000   0.79129615   -4.4131332   -4.4131332   -3.2261902  0.015344695   -4.4131332     1.186943  1010000 
  957000   0.79080926   -4.4132022   -4.4132022   -3.2269895  0.018244274   -4.4132022    1.1862127  1010000 
  958000   0.79114753   -4.4145503   -4.4145503   -3.2278302  0.019343815   -4.4145503    1.1867201  1010000 
  959000   0.79146988    -4.414703    -4.414703   -3.2274993  0.020711399    -4.414703    1.1872036  1010000 
  960000   0.79222881    -4.416003    -4.416003   -3.2276609  0.017529946    -4.416003     1.188342  1010000 
  961000   0.79190959   -4.4160618   -4.4160618   -3.2281985  0.018884093   -4.4160618    1.1878632  1010000 
  962000   0.79157204   -4.4165673   -4.4165673   -3.2292104  0.022962272   -4.4165673    1.1873569  1010000 
  963000   0.79232192   -4.4177629   -4.4177629   -3.2292812   0.02320702   -4.4177629    1.1884817  1010000 
  964000   0.79220172    -4.418137    -4.418137   -3.2298356  0.022687833    -4.418137    1.1883014  1010000 
  965000   0.79262899   -4.4186199   -4.4186199   -3.2296776  0.025229372   -4.4186199    1.1889423  1010000 
  966000   0.79205697    -4.418596    -4.418596   -3.2305117  0.023217538    -4.418596    1.1880843  1010000 
  967000   0.79123873   -4.4184926   -4.4184926   -3.2316357  0.025740527   -4.4184926    1.1868569  1010000 
  968000   0.79108181   -4.4181987   -4.4181987   -3.2315771  0.025656634   -4.4181987    1.1866215  1010000 
  969000   0.79029012   -4.4178015   -4.4178015   -3.2323675  0.024472517   -4.4178015     1.185434  1010000 
  970000    0.7916149   -4.4203084   -4.4203084   -3.2328872  0.017188857   -4.4203084    1.1874212  1010000 
  971000   0.79071011    -4.419152    -4.419152    -3.233088  0.020171928    -4.419152     1.186064  1010000 
  972000   0.79058855   -4.4192443   -4.4192443   -3.2333627  0.020905837   -4.4192443    1.1858817  1010000 
  973000   0.78990013   -4.4190521   -4.4190521   -3.2342031  0.019095576   -4.4190521     1.184849  1010000 
  974000   0.79001611   -4.4201946   -4.4201946   -3.2351716   0.01697919   -4.4201946     1.185023  1010000 
  975000   0.79074562   -4.4212964   -4.4212964   -3.2351791   0.01282544   -4.4212964    1.1861173  1010000 
  976000    0.7893149   -4.4189325   -4.4189325   -3.2349614  0.020104516   -4.4189325    1.1839712  1010000 
  977000   0.78903637   -4.4193987   -4.4193987   -3.2358453  0.013552429   -4.4193987    1.1835534  1010000 
  978000   0.78869694   -4.4193533   -4.4193533   -3.2363091  0.018329898   -4.4193533    1.1830442  1010000 
  979000   0.78885612   -4.4195725   -4.4195725   -3.2362895  0.023178975   -4.4195725     1.183283  1010000 
  980000   0.78944056   -4.4210191   -4.4210191   -3.2368595  0.018910605   -4.4210191    1.1841597  1010000 
  981000   0.79034984   -4.4219781   -4.4219781   -3.2364545  0.019322715   -4.4219781    1.1855236  1010000 
  982000   0.78994403   -4.4215896   -4.4215896   -3.2366747  0.018945355   -4.4215896    1.1849149  1010000 
  983000   0.78982645   -4.4225405   -4.4225405    -3.237802  0.018245242   -4.4225405    1.1847385  1010000 
  984000   0.79070041   -4.4240259   -4.4240259   -3.2379765   0.01646952   -4.4240259    1.1860494  1010000 
  985000    0.7898023   -4.4233206   -4.4233206   -3.2386183  0.022232877   -4.4233206    1.1847023  1010000 
  986000   0.78985781   -4.4246247   -4.4246247   -3.2398391  0.020476385   -4.4246247    1.1847855  1010000 
  987000    0.7897545   -4.4243548   -4.4243548   -3.2397243  0.019402797   -4.4243548    1.1846306  1010000 
  988000   0.79009669   -4.4256129   -4.4256129    -3.240469  0.018999321   -4.4256129    1.1851439  1010000 
  989000   0.78923418   -4.4250559   -4.4250559   -3.2412058  0.017235534   -4.4250559    1.1838501  1010000 
  990000   0.78948675   -4.4253251   -4.4253251   -3.2410961  0.019553781   -4.4253251     1.184229  1010000 
  991000   0.78942541   -4.4257886   -4.4257886   -3.2416517  0.019033754   -4.4257886    1.1841369  1010000 
  992000   0.78955522   -4.4259053   -4.4259053   -3.2415736  0.021320389   -4.4259053    1.1843317  1010000 
  993000   0.78959634   -4.4258648   -4.4258648   -3.2414715  0.022149253   -4.4258648    1.1843933  1010000 
  994000   0.78907611   -4.4263962   -4.4263962   -3.2427832  0.020451959   -4.4263962     1.183613  1010000 
  995000   0.78852884   -4.4257458   -4.4257458   -3.2429537  0.020908247   -4.4257458    1.1827921  1010000 
  996000   0.78824756    -4.426391    -4.426391   -3.2440209  0.020995141    -4.426391    1.1823702  1010000 
  997000   0.78862862   -4.4263447   -4.4263447    -3.243403  0.019461422   -4.4263447    1.1829418  1010000 
  998000   0.78867332   -4.4270767   -4.4270767   -3.2440679  0.016848204   -4.4270767    1.1830088  1010000 
  999000   0.78853056   -4.4273124   -4.4273124   -3.2445178  0.015975569   -4.4273124    1.1827947  1010000 
 1000000   0.78793951   -4.4268865   -4.4268865   -3.2449784   0.01821064   -4.4268865    1.1819081  1010000 
 1001000   0.78843245   -4.4276965   -4.4276965    -3.245049  0.018447615   -4.4276965    1.1826475  1010000 
 1002000   0.78828971   -4.4271327   -4.4271327   -3.2446993  0.017847349   -4.4271327    1.1824334  1010000 
 1003000   0.78814189   -4.4267262   -4.4267262   -3.2445145   0.02020886   -4.4267262    1.1822117  1010000 
 1004000    0.7889942   -4.4285587   -4.4285587   -3.2450686  0.017513796   -4.4285587    1.1834901  1010000 
 1005000   0.78894309   -4.4292151   -4.4292151   -3.2458017  0.016876044   -4.4292151    1.1834135  1010000 
 1006000     0.788515   -4.4292371   -4.4292371   -3.2464658  0.015902843   -4.4292371    1.1827713  1010000 
 1007000   0.78831523   -4.4293224   -4.4293224   -3.2468507  0.016390012   -4.4293224    1.1824717  1010000 
 1008000   0.78784114   -4.4284174   -4.4284174   -3.2466569  0.019672934   -4.4284174    1.1817605  1010000 
 1009000   0.78839945   -4.4292465   -4.4292465   -3.2466485  0.016640555   -4.4292465     1.182598  1010000 
 1010000   0.78835293   -4.4300436   -4.4300436   -3.2475154  0.019109096   -4.4300436    1.1825282  1010000 
 1011000   0.78748262   -4.4298894   -4.4298894   -3.2486666  0.016982944   -4.4298894    1.1812228  1010000 
 1012000   0.78688897   -4.4289608   -4.4289608   -3.2486285   0.02456177   -4.4289608    1.1803323  1010000 
 1013000   0.78897208   -4.4319648   -4.4319648   -3.2485078  0.014765301   -4.4319648     1.183457  1010000 
 1014000   0.78875935   -4.4316241   -4.4316241   -3.2484862  0.019853127   -4.4316241    1.1831378  1010000 
 1015000   0.78876716   -4.4320452   -4.4320452   -3.2488956  0.019860589   -4.4320452    1.1831496  1010000 
 1016000   0.78831712   -4.4314252   -4.4314252   -3.2489507  0.020295835   -4.4314252    1.1824745  1010000 
 1017000   0.78798489   -4.4317238   -4.4317238   -3.2497477  0.021369203   -4.4317238    1.1819762  1010000 
 1018000   0.78759331   -4.4321282   -4.4321282   -3.2507394  0.022967073   -4.4321282    1.1813888  1010000 
 1019000    0.7876033   -4.4332409   -4.4332409   -3.2518371  0.018004642   -4.4332409    1.1814038  1010000 
 1020000   0.78760192    -4.433457    -4.433457   -3.2520552  0.019504332    -4.433457    1.1814017  1010000 
 1021000   0.78724368   -4.4324775   -4.4324775   -3.2516131  0.021637281   -4.4324775    1.1808644  1010000 
 1022000   0.78701549   -4.4333095   -4.4333095   -3.2527874   0.01860153   -4.4333095    1.1805221  1010000 
 1023000   0.78762176   -4.4343852   -4.4343852   -3.2529537  0.016830404   -4.4343852    1.1814315  1010000 
 1024000   0.78753547   -4.4352088   -4.4352088   -3.2539068  0.019003777   -4.4352088     1.181302  1010000 
 1025000   0.78736719   -4.4351144   -4.4351144   -3.2540648  0.014900767   -4.4351144    1.1810496  1010000 
 1026000   0.78672996   -4.4347995   -4.4347995   -3.2547058  0.019579345   -4.4347995    1.1800938  1010000 
 1027000   0.78638429     -4.43465     -4.43465   -3.2550747  0.020557999     -4.43465    1.1795753  1010000 
 1028000   0.78718516   -4.4357939   -4.4357939   -3.2550174  0.016121133   -4.4357939    1.1807766  1010000 
 1029000   0.78665986   -4.4354491   -4.4354491   -3.2554605  0.021687754   -4.4354491    1.1799886  1010000 
 1030000   0.78678732   -4.4360038   -4.4360038    -3.255824  0.018417694   -4.4360038    1.1801798  1010000 
 1031000    0.7856924   -4.4346507   -4.4346507   -3.2561132  0.023370634   -4.4346507    1.1785374  1010000 
 1032000   0.78590574    -4.435391    -4.435391   -3.2565335  0.018126933    -4.435391    1.1788574  1010000 
 1033000   0.78617233    -4.436307    -4.436307   -3.2570497  0.017740523    -4.436307    1.1792573  1010000 
 1034000   0.78640407   -4.4374887   -4.4374887   -3.2578838  0.021440531   -4.4374887    1.1796049  1010000 
 1035000   0.78638176   -4.4376211   -4.4376211   -3.2580497  0.020100064   -4.4376211    1.1795715  1010000 
 1036000   0.78668272   -4.4388149   -4.4388149    -3.258792   0.02117154   -4.4388149    1.1800229  1010000 
 1037000   0.78743954   -4.4390336   -4.4390336   -3.2578754  0.021539203   -4.4390336    1.1811581  1010000 
 1038000   0.78625632   -4.4380379   -4.4380379   -3.2586546  0.022792288   -4.4380379    1.1793833  1010000 
 1039000   0.78680816   -4.4395239   -4.4395239   -3.2593128  0.019271495   -4.4395239    1.1802111  1010000 
 1040000   0.78613356   -4.4393641   -4.4393641   -3.2601649  0.021219399   -4.4393641    1.1791992  1010000 
 1041000   0.78632579   -4.4399016   -4.4399016    -3.260414  0.019590785   -4.4399016    1.1794875  1010000 
 1042000    0.7860825   -4.4406167   -4.4406167   -3.2614941   0.01849218   -4.4406167    1.1791226  1010000 
 1043000   0.78576161   -4.4401012   -4.4401012     -3.26146  0.017795013   -4.4401012    1.1786412  1010000 
 1044000   0.78534416   -4.4400869   -4.4400869   -3.2620719  0.017722786   -4.4400869    1.1780151  1010000 
 1045000     0.786169   -4.4413745   -4.4413745   -3.2621221  0.019986717   -4.4413745    1.1792523  1010000 
 1046000   0.78533665    -4.440357    -4.440357   -3.2623531  0.017967838    -4.440357    1.1780038  1010000 
 1047000    0.7853869   -4.4411994   -4.4411994   -3.2631202  0.016337826   -4.4411994    1.1780792  1010000 
 1048000   0.78532131   -4.4413684   -4.4413684   -3.2633876  0.017762892   -4.4413684    1.1779808  1010000 
 1049000   0.78505828     -4.44158     -4.44158   -3.2639938  0.016175305     -4.44158    1.1775863  1010000 
 1050000   0.78558296   -4.4428928   -4.4428928   -3.2645196  0.014953246   -4.4428928    1.1783733  1010000 
 1051000   0.78519753   -4.4422874   -4.4422874   -3.2644923   0.01663517   -4.4422874    1.1777951  1010000 
 1052000   0.78484737   -4.4419974   -4.4419974   -3.2647275  0.015844349   -4.4419974    1.1772699  1010000 
 1053000   0.78468603   -4.4422312   -4.4422312   -3.2652033  0.016549142   -4.4422312    1.1770279  1010000 
 1054000   0.78547347   -4.4437079   -4.4437079   -3.2654989  0.016926362   -4.4437079     1.178209  1010000 
 1055000   0.78490291   -4.4434639   -4.4434639   -3.2661107  0.018095326   -4.4434639    1.1773532  1010000 
 1056000    0.7845543   -4.4437766   -4.4437766   -3.2669463  0.017612207   -4.4437766    1.1768303  1010000 
 1057000   0.78513097   -4.4442964   -4.4442964   -3.2666011  0.021533489   -4.4442964    1.1776953  1010000 
 1058000   0.78481147   -4.4451961   -4.4451961     -3.26798  0.021787299   -4.4451961     1.177216  1010000 
 1059000   0.78526424   -4.4458171   -4.4458171   -3.2679219  0.018263736   -4.4458171    1.1778952  1010000 
 1060000   0.78476461   -4.4456659   -4.4456659   -3.2685201  0.023953872   -4.4456659    1.1771457  1010000 
 1061000   0.78584804   -4.4471762   -4.4471762   -3.2684053  0.017822173   -4.4471762    1.1787709  1010000 
 1062000   0.78467804   -4.4464002   -4.4464002   -3.2693843  0.022805329   -4.4464002    1.1770159  1010000 
 1063000   0.78475662   -4.4468639   -4.4468639   -3.2697302  0.023510871   -4.4468639    1.1771338  1010000 
 1064000   0.78570725   -4.4482066   -4.4482066   -3.2696469  0.021420088   -4.4482066    1.1785597  1010000 
 1065000   0.78494484    -4.448445    -4.448445   -3.2710289  0.019364531    -4.448445    1.1774161  1010000 
 1066000   0.78487034   -4.4487399   -4.4487399   -3.2714355    0.0200552   -4.4487399    1.1773044  1010000 
 1067000   0.78496688   -4.4490467   -4.4490467   -3.2715976  0.017909552   -4.4490467    1.1774492  1010000 
 1068000   0.78476213   -4.4492741   -4.4492741   -3.2721321  0.021808206   -4.4492741     1.177142  1010000 
 1069000   0.78491414   -4.4496105   -4.4496105   -3.2722405  0.018014988   -4.4496105      1.17737  1010000 
 1070000   0.78499001   -4.4504493   -4.4504493   -3.2729655  0.016381246   -4.4504493    1.1774838  1010000 
 1071000   0.78436303   -4.4499799   -4.4499799   -3.2734365  0.016619435   -4.4499799    1.1765434  1010000 
 1072000   0.78380163   -4.4491383   -4.4491383    -3.273437  0.018464107   -4.4491383    1.1757013  1010000 
 1073000   0.78350309   -4.4499032   -4.4499032   -3.2746497  0.015882613   -4.4499032    1.1752535  1010000 
 1074000   0.78317059   -4.4498092   -4.4498092   -3.2750545  0.017099478   -4.4498092    1.1747547  1010000 
 1075000   0.78418237   -4.4519155   -4.4519155   -3.2756431  0.014302683   -4.4519155    1.1762724  1010000 
 1076000   0.78318791   -4.4508344   -4.4508344   -3.2760537  0.015681234   -4.4508344    1.1747807  1010000 
 1077000   0.78346184   -4.4513381   -4.4513381   -3.2761465  0.016264695   -4.4513381    1.1751916  1010000 
 1078000   0.78270856   -4.4518339   -4.4518339   -3.2777722  0.015926252   -4.4518339    1.1740617  1010000 
 1079000   0.78228068    -4.451015    -4.451015   -3.2775951  0.015780775    -4.451015    1.1734199  1010000 
 1080000   0.78331226   -4.4526897   -4.4526897   -3.2777225  0.017171039   -4.4526897    1.1749672  1010000 
 1081000   0.78379127   -4.4541721   -4.4541721   -3.2784864  0.014173673   -4.4541721    1.1756857  1010000 
 1082000   0.78298734    -4.452849    -4.452849   -3.2783692  0.020364485    -4.452849    1.1744798  1010000 
 1083000   0.78309489   -4.4532585   -4.4532585   -3.2786174  0.021640269   -4.4532585    1.1746412  1010000 
 1084000   0.78369409   -4.4543914   -4.4543914   -3.2788514  0.020094462   -4.4543914      1.17554  1010000 
 1085000   0.78394525   -4.4548997   -4.4548997    -3.278983  0.023051111   -4.4548997    1.1759167  1010000 
 1086000   0.78349069   -4.4549033   -4.4549033   -3.2796684  0.023358444   -4.4549033    1.1752349  1010000 
 1087000   0.78378308   -4.4555154   -4.4555154    -3.279842  0.020285436   -4.4555154    1.1756735  1010000 
 1088000   0.78350692   -4.4564902   -4.4564902    -3.281231  0.021958489   -4.4564902    1.1752592  1010000 
 1089000   0.78336346   -4.4570405   -4.4570405   -3.2819964  0.021932364   -4.4570405     1.175044  1010000 
 1090000   0.78275703     -4.45619     -4.45619   -3.2820557  0.022668282     -4.45619    1.1741344  1010000 
 1091000   0.78282935   -4.4565421   -4.4565421   -3.2822992  0.019921484   -4.4565421    1.1742429  1010000 
 1092000   0.78346856   -4.4576027   -4.4576027    -3.282401  0.023034889   -4.4576027    1.1752017  1010000 
 1093000   0.78279979   -4.4567295   -4.4567295    -3.282531  0.018352234   -4.4567295    1.1741985  1010000 
 1094000   0.78311056    -4.457314    -4.457314   -3.2826493  0.017720579    -4.457314    1.1746647  1010000 
 1095000   0.78286472    -4.457188    -4.457188   -3.2828921  0.019698925    -4.457188    1.1742959  1010000 
 1096000   0.78240529   -4.4567373   -4.4567373   -3.2831306  0.017411935   -4.4567373    1.1736068  1010000 
 1097000   0.78268356   -4.4572695   -4.4572695   -3.2832453  0.018391071   -4.4572695    1.1740242  1010000 
 1098000   0.78212393   -4.4566671   -4.4566671   -3.2834824  0.015705323   -4.4566671    1.1731847  1010000 
 1099000   0.78147286   -4.4567662   -4.4567662   -3.2845581  0.015444904   -4.4567662    1.1722081  1010000 
 1100000   0.78071134    -4.455865    -4.455865   -3.2847991  0.017726587    -4.455865    1.1710658  1010000 
 1101000   0.78119568   -4.4567996   -4.4567996   -3.2850072  0.016979946   -4.4567996    1.1717924  1010000 
 1102000   0.78146933   -4.4577781   -4.4577781   -3.2855753  0.011801526   -4.4577781    1.1722028  1010000 
 1103000   0.78137869    -4.457862    -4.457862   -3.2857952  0.014348373    -4.457862    1.1720669  1010000 
 1104000   0.78257284   -4.4589985   -4.4589985   -3.2851404  0.014212793   -4.4589985    1.1738581  1010000 
 1105000   0.78212607   -4.4588549   -4.4588549    -3.285667  0.015654351   -4.4588549    1.1731879  1010000 
 1106000   0.78239194   -4.4598168   -4.4598168   -3.2862301  0.013383459   -4.4598168    1.1735868  1010000 
 1107000   0.78093762     -4.45885     -4.45885   -3.2874447  0.018296162     -4.45885    1.1714053  1010000 
 1108000   0.78103857   -4.4598774   -4.4598774   -3.2883207   0.01417646   -4.4598774    1.1715567  1010000 
 1109000   0.78161374   -4.4610576   -4.4610576   -3.2886382  0.017802651   -4.4610576    1.1724195  1010000 
 1110000   0.78029019   -4.4597198   -4.4597198   -3.2892856  0.019201405   -4.4597198    1.1704341  1010000 
 1111000   0.78095545   -4.4607093   -4.4607093   -3.2892773  0.019074521   -4.4607093     1.171432  1010000 
 1112000   0.78115458   -4.4615849   -4.4615849   -3.2898542  0.022000229   -4.4615849    1.1717307  1010000 
 1113000   0.78242825   -4.4641683   -4.4641683   -3.2905271  0.019467268   -4.4641683    1.1736412  1010000 
 1114000   0.78161921   -4.4633946   -4.4633946   -3.2909669  0.021052185   -4.4633946    1.1724277  1010000 
 1115000    0.7814837   -4.4632942   -4.4632942   -3.2910698  0.023869542   -4.4632942    1.1722244  1010000 
 1116000    0.7815276   -4.4641906   -4.4641906   -3.2919003   0.01952992   -4.4641906    1.1722902  1010000 
 1117000   0.78091699   -4.4640657   -4.4640657   -3.2926914  0.020555724   -4.4640657    1.1713743  1010000 
 1118000    0.7808972    -4.464259    -4.464259   -3.2929143  0.020997127    -4.464259    1.1713446  1010000 
 1119000   0.78075299   -4.4644536   -4.4644536   -3.2933253   0.02228265   -4.4644536    1.1711283  1010000 
 1120000   0.78138298    -4.465834    -4.465834   -3.2937607   0.01721498    -4.465834    1.1720733  1010000 
 1121000   0.78124677    -4.465707    -4.465707    -3.293838  0.022100978    -4.465707     1.171869  1010000 
 1122000   0.78108215   -4.4657618   -4.4657618   -3.2941397   0.02054233   -4.4657618    1.1716221  1010000 
 1123000   0.78026813   -4.4644907   -4.4644907   -3.2940897   0.02341034   -4.4644907     1.170401  1010000 
 1124000   0.77992114   -4.4640459   -4.4640459   -3.2941654  0.020702176   -4.4640459    1.1698805  1010000 
 1125000   0.78017236   -4.4649615   -4.4649615   -3.2947041  0.015298737   -4.4649615    1.1702574  1010000 
 1126000   0.78094763    -4.466905    -4.466905   -3.2954847  0.011411944    -4.466905    1.1714203  1010000 
 1127000    0.7789785   -4.4645377   -4.4645377   -3.2960711  0.015213328   -4.4645377    1.1684666  1010000 
 1128000   0.77843386   -4.4643791   -4.4643791   -3.2967295  0.017467499   -4.4643791    1.1676496  1010000 
 1129000   0.77958644   -4.4677403   -4.4677403   -3.2983618 0.0095524066   -4.4677403    1.1693785  1010000 
 1130000   0.77862724   -4.4666599   -4.4666599   -3.2987202  0.012870876   -4.4666599    1.1679397  1010000 
 1131000   0.77864131   -4.4666503   -4.4666503   -3.2986895  0.016846257   -4.4666503    1.1679608  1010000 
 1132000   0.77853984   -4.4667043   -4.4667043   -3.2988957  0.015850044   -4.4667043    1.1678086  1010000 
 1133000   0.77889175   -4.4679612   -4.4679612   -3.2996247  0.016974769   -4.4679612    1.1683365  1010000 
 1134000    0.7788744   -4.4680322   -4.4680322   -3.2997217  0.020023748   -4.4680322    1.1683104  1010000 
 1135000   0.77958423   -4.4700905   -4.4700905   -3.3007153  0.015345434   -4.4700905    1.1693752  1010000 
 1136000   0.77920982   -4.4696286   -4.4696286   -3.3008151  0.017535901   -4.4696286    1.1688136  1010000 
 1137000   0.77905982   -4.4701643   -4.4701643   -3.3015758  0.020318907   -4.4701643    1.1685886  1010000 
 1138000   0.77918072   -4.4707879   -4.4707879    -3.302018  0.020694643   -4.4707879    1.1687699  1010000 
 1139000    0.7790465   -4.4716013   -4.4716013   -3.3030327  0.021009806   -4.4716013    1.1685686  1010000 
 1140000   0.77916742   -4.4731371   -4.4731371   -3.3043871  0.019169575   -4.4731371      1.16875  1010000 
 1141000   0.77938345   -4.4730563   -4.4730563   -3.3039823  0.019529223   -4.4730563     1.169074  1010000 
 1142000    0.7795701   -4.4744041   -4.4744041   -3.3050501  0.019793844   -4.4744041     1.169354  1010000 
 1143000   0.77922979   -4.4738522   -4.4738522   -3.3050087  0.023159682   -4.4738522    1.1688435  1010000 
 1144000   0.77954457    -4.475282    -4.475282   -3.3059663  0.018291563    -4.475282    1.1693157  1010000 
 1145000   0.77865675   -4.4736761   -4.4736761   -3.3056921  0.025005378   -4.4736761     1.167984  1010000 
 1146000   0.77949181   -4.4754567   -4.4754567   -3.3062201   0.02016054   -4.4754567    1.1692366  1010000 
 1147000   0.77884087   -4.4752247   -4.4752247   -3.3069645  0.021282477   -4.4752247    1.1682601  1010000 
 1148000   0.77848731    -4.475174    -4.475174   -3.3074442  0.022107733    -4.475174    1.1677298  1010000 
 1149000   0.77871272   -4.4753604   -4.4753604   -3.3072925  0.017994524   -4.4753604    1.1680679  1010000 
 1150000   0.77841445   -4.4752071   -4.4752071   -3.3075866  0.020641638   -4.4752071    1.1676205  1010000 
 1151000   0.77816036   -4.4755797   -4.4755797   -3.3083403  0.017111289   -4.4755797    1.1672394  1010000 
 1152000   0.77810386   -4.4767471   -4.4767471   -3.3095925  0.010827436   -4.4767471    1.1671546  1010000 
 1153000   0.77710177   -4.4759865   -4.4759865    -3.310335  0.015552051   -4.4759865    1.1656515  1010000 
 1154000   0.77754243   -4.4772783   -4.4772783   -3.3109658  0.013268907   -4.4772783    1.1663125  1010000 
 1155000   0.77699587   -4.4762757   -4.4762757    -3.310783  0.016144727   -4.4762757    1.1654927  1010000 
 1156000   0.77685961   -4.4759433   -4.4759433   -3.3106551  0.016621859   -4.4759433    1.1652883  1010000 
 1157000   0.77739259   -4.4761933   -4.4761933   -3.3101056  0.016336211   -4.4761933    1.1660877  1010000 
 1158000   0.77716597   -4.4761954   -4.4761954   -3.3104476  0.016616469   -4.4761954    1.1657478  1010000 
 1159000   0.77767396   -4.4773777   -4.4773777   -3.3108679  0.015566392   -4.4773777    1.1665098  1010000 
 1160000   0.77810412   -4.4787548   -4.4787548   -3.3115998  0.015717438   -4.4787548     1.167155  1010000 
 1161000   0.77737444   -4.4781136   -4.4781136   -3.3120531  0.019554025   -4.4781136    1.1660605  1010000 
 1162000   0.77786772   -4.4792351   -4.4792351   -3.3124347   0.01689146   -4.4792351    1.1668004  1010000 
 1163000   0.77722816   -4.4782025   -4.4782025   -3.3123614  0.019021507   -4.4782025    1.1658411  1010000 
 1164000   0.77762491   -4.4797926   -4.4797926   -3.3133564  0.019604837   -4.4797926    1.1664362  1010000 
 1165000   0.77807752     -4.48039     -4.48039   -3.3132748  0.016624016     -4.48039    1.1671151  1010000 
 1166000   0.77758237   -4.4802272   -4.4802272   -3.3138548   0.02190847   -4.4802272    1.1663724  1010000 
 1167000   0.77786276     -4.48048     -4.48048    -3.313687   0.01829111     -4.48048     1.166793  1010000 
 1168000   0.77720345   -4.4800837   -4.4800837   -3.3142797  0.020921166   -4.4800837     1.165804  1010000 
 1169000   0.77747128   -4.4813701   -4.4813701   -3.3151643  0.016367577   -4.4813701    1.1662058  1010000 
 1170000   0.77693431   -4.4816951   -4.4816951   -3.3162948  0.019246863   -4.4816951    1.1654003  1010000 
 1171000   0.77731108   -4.4823849   -4.4823849   -3.3164195  0.018498957   -4.4823849    1.1659655  1010000 
 1172000   0.77620269   -4.4814045   -4.4814045   -3.3171016  0.019846624   -4.4814045    1.1643029  1010000 
 1173000   0.77633725   -4.4813021   -4.4813021   -3.3167974  0.017199933   -4.4813021    1.1645047  1010000 
 1174000    0.7755531   -4.4805712   -4.4805712   -3.3172427   0.02026919   -4.4805712    1.1633285  1010000 
 1175000   0.77610164   -4.4819529   -4.4819529   -3.3178016  0.014932444   -4.4819529    1.1641513  1010000 
 1176000    0.7768201   -4.4833495   -4.4833495   -3.3181205  0.016469769   -4.4833495     1.165229  1010000 
 1177000   0.77613558    -4.482466    -4.482466   -3.3182638  0.017871322    -4.482466    1.1642022  1010000 
 1178000   0.77631858   -4.4832172   -4.4832172   -3.3187404   0.01581554   -4.4832172    1.1644767  1010000 
 1179000   0.77522921   -4.4824883   -4.4824883   -3.3196456  0.017118168   -4.4824883    1.1628427  1010000 
 1180000   0.77469144   -4.4824022   -4.4824022   -3.3203662  0.017093932   -4.4824022     1.162036  1010000 
 1181000   0.77543621   -4.4837013   -4.4837013   -3.3205481  0.013738688   -4.4837013    1.1631532  1010000 
 1182000   0.77672153   -4.4857877   -4.4857877   -3.3207066  0.014742661   -4.4857877    1.1650811  1010000 
 1183000   0.77579235    -4.485047    -4.485047   -3.3213596   0.01436543    -4.485047    1.1636874  1010000 
 1184000   0.77578634   -4.4858529   -4.4858529   -3.3221746  0.017560358   -4.4858529    1.1636784  1010000 
 1185000   0.77614609   -4.4872154   -4.4872154   -3.3229975  0.016408155   -4.4872154     1.164218  1010000 
 1186000   0.77596785   -4.4867456   -4.4867456    -3.322795  0.018326665   -4.4867456    1.1639506  1010000 
 1187000   0.77588349   -4.4865553   -4.4865553   -3.3227312  0.019488233   -4.4865553    1.1638241  1010000 
 1188000   0.77582188   -4.4868807   -4.4868807   -3.3231491  0.021373652   -4.4868807    1.1637317  1010000 
 1189000   0.77574109   -4.4873185   -4.4873185   -3.3237081  0.022354251   -4.4873185    1.1636105  1010000 
 1190000   0.77576892   -4.4880899   -4.4880899   -3.3244377  0.021156067   -4.4880899    1.1636522  1010000 
 1191000   0.77629751   -4.4883462   -4.4883462   -3.3239011  0.019547037   -4.4883462    1.1644451  1010000 
 1192000   0.77672439   -4.4890884   -4.4890884    -3.324003  0.019867436   -4.4890884    1.1650854  1010000 
 1193000   0.77588642   -4.4885636   -4.4885636   -3.3247352  0.020320181   -4.4885636    1.1638285  1010000 
 1194000   0.77577236   -4.4892483   -4.4892483   -3.3255909  0.015895433   -4.4892483    1.1636574  1010000 
 1195000   0.77477316   -4.4882125   -4.4882125   -3.3260539  0.017303284   -4.4882125    1.1621586  1010000 
 1196000   0.77525862   -4.4889679   -4.4889679   -3.3260811  0.016796187   -4.4889679    1.1628868  1010000 
 1197000   0.77485909    -4.489508    -4.489508   -3.3272205   0.01426971    -4.489508    1.1622875  1010000 
 1198000   0.77448809   -4.4898362   -4.4898362   -3.3281052  0.014959421   -4.4898362     1.161731  1010000 
 1199000   0.77424505    -4.489858    -4.489858   -3.3284916  0.011457103    -4.489858    1.1613664  1010000 
 1200000   0.77432687   -4.4901686   -4.4901686   -3.3286795  0.013399085   -4.4901686    1.1614892  1010000 
 1201000   0.77334394    -4.489156    -4.489156   -3.3291413  0.017965129    -4.489156    1.1600148  1010000 
 1202000   0.77379182   -4.4904171   -4.4904171   -3.3297305  0.012061536   -4.4904171    1.1606866  1010000 
 1203000   0.77385142   -4.4904251   -4.4904251   -3.3296491  0.016905028   -4.4904251     1.160776  1010000 
 1204000   0.77423107   -4.4910926   -4.4910926   -3.3297471  0.017222536   -4.4910926    1.1613454  1010000 
 1205000   0.77385495     -4.49085     -4.49085   -3.3300687  0.019013926     -4.49085    1.1607813  1010000 
 1206000   0.77382051    -4.491808    -4.491808   -3.3310784  0.019288792    -4.491808    1.1607296  1010000 
 1207000    0.7750978   -4.4941711   -4.4941711   -3.3315255  0.012974338   -4.4941711    1.1626455  1010000 
 1208000    0.7750283   -4.4946204   -4.4946204   -3.3320791  0.019389546   -4.4946204    1.1625413  1010000 
 1209000    0.7751504   -4.4952805   -4.4952805   -3.3325561    0.0155316   -4.4952805    1.1627245  1010000 
 1210000   0.77421192   -4.4943817   -4.4943817    -3.333065  0.017498933   -4.4943817    1.1613167  1010000 
 1211000   0.77415026   -4.4947048   -4.4947048   -3.3334805  0.018830198   -4.4947048    1.1612242  1010000 
 1212000   0.77404765   -4.4948186   -4.4948186   -3.3337483  0.018411118   -4.4948186    1.1610703  1010000 
 1213000   0.77401657   -4.4948973   -4.4948973   -3.3338736  0.017668763   -4.4948973    1.1610237  1010000 
 1214000    0.7735496   -4.4948027   -4.4948027   -3.3344794  0.020168897   -4.4948027    1.1603233  1010000 
 1215000   0.77450028   -4.4967689   -4.4967689   -3.3350196  0.017629872   -4.4967689    1.1617493  1010000 
 1216000   0.77381225   -4.4962058   -4.4962058   -3.3354886  0.016799055   -4.4962058    1.1607172  1010000 
 1217000   0.77411957   -4.4969629   -4.4969629   -3.3357847  0.016918148   -4.4969629    1.1611782  1010000 
 1218000    0.7739537   -4.4966906   -4.4966906   -3.3357613  0.019036614   -4.4966906    1.1609294  1010000 
 1219000   0.77400461   -4.4968584   -4.4968584   -3.3358526  0.017294782   -4.4968584    1.1610058  1010000 
 1220000   0.77391821    -4.496476    -4.496476   -3.3355998  0.020340322    -4.496476    1.1608762  1010000 
 1221000   0.77395669   -4.4968971   -4.4968971   -3.3359632  0.015584882   -4.4968971    1.1609339  1010000 
 1222000   0.77358229   -4.4970018   -4.4970018   -3.3366295  0.016751717   -4.4970018    1.1603723  1010000 
 1223000   0.77285387   -4.4969689   -4.4969689   -3.3376893  0.016948433   -4.4969689    1.1592797  1010000 
 1224000   0.77278889     -4.49753     -4.49753   -3.3383478  0.016042175     -4.49753    1.1591822  1010000 
 1225000   0.77262501   -4.4976824   -4.4976824    -3.338746  0.016334965   -4.4976824    1.1589364  1010000 
 1226000   0.77263462   -4.4979748   -4.4979748    -3.339024  0.011783058   -4.4979748    1.1589508  1010000 
 1227000   0.77247549    -4.498172    -4.498172   -3.3394599   0.01423481    -4.498172    1.1587121  1010000 
 1228000   0.77279894   -4.4982263   -4.4982263   -3.3390291  0.015380848   -4.4982263    1.1591973  1010000 
 1229000   0.77293026    -4.498874    -4.498874   -3.3394798  0.012004681    -4.498874    1.1593942  1010000 
 1230000   0.77312445   -4.4994809   -4.4994809   -3.3397954  0.018279802   -4.4994809    1.1596855  1010000 
 1231000   0.77283174   -4.4987691   -4.4987691   -3.3395227  0.016206583   -4.4987691    1.1592465  1010000 
 1232000   0.77234566    -4.498796    -4.498796   -3.3402787  0.018294884    -4.498796    1.1585173  1010000 
 1233000   0.77266608   -4.4993822   -4.4993822   -3.3403842  0.020398526   -4.4993822     1.158998  1010000 
 1234000   0.77297997   -4.5009726   -4.5009726   -3.3415038  0.021703471   -4.5009726    1.1594688  1010000 
 1235000   0.77227942   -4.5005321   -4.5005321   -3.3421141  0.019563828   -4.5005321     1.158418  1010000 
 1236000     0.772278   -4.5007121   -4.5007121   -3.3422962  0.019755707   -4.5007121    1.1584159  1010000 
 1237000   0.77222686   -4.5016523   -4.5016523   -3.3433131  0.015897545   -4.5016523    1.1583391  1010000 
 1238000   0.77215871   -4.5021003   -4.5021003   -3.3438634  0.014697249   -4.5021003    1.1582369  1010000 
 1239000   0.77252586    -4.502614    -4.502614   -3.3438263  0.018167017    -4.502614    1.1587876  1010000 
 1240000   0.77229668   -4.5030885   -4.5030885   -3.3446446  0.016258496   -4.5030885    1.1584439  1010000 
 1241000   0.77198528     -4.50309     -4.50309   -3.3451132  0.018551371     -4.50309    1.1579768  1010000 
 1242000   0.77166926   -4.5033331   -4.5033331   -3.3458303  0.014220324   -4.5033331    1.1575028  1010000 
 1243000   0.77188491   -4.5039688   -4.5039688   -3.3461426  0.013390624   -4.5039688    1.1578262  1010000 
 1244000   0.77150462   -4.5041367   -4.5041367   -3.3468809  0.017367519   -4.5041367    1.1572558  1010000 
 1245000   0.77169178   -4.5050216   -4.5050216   -3.3474851  0.014586974   -4.5050216    1.1575365  1010000 
 1246000   0.77214159   -4.5064615   -4.5064615   -3.3482503  0.012737622   -4.5064615    1.1582112  1010000 
 1247000   0.77152662   -4.5051644   -4.5051644   -3.3478756  0.017682634   -4.5051644    1.1572888  1010000 
 1248000   0.77235629   -4.5071084   -4.5071084   -3.3485751  0.012109825   -4.5071084    1.1585333  1010000 
 1249000    0.7711587   -4.5060088   -4.5060088   -3.3492719  0.020472995   -4.5060088    1.1567369  1010000 
 1250000   0.77152961   -4.5073356   -4.5073356   -3.3500423  0.014793248   -4.5073356    1.1572933  1010000 
 1251000   0.77087053   -4.5069343   -4.5069343   -3.3506297  0.017451104   -4.5069343    1.1563046  1010000 
 1252000   0.77124617   -4.5074279   -4.5074279   -3.3505598  0.015622705   -4.5074279    1.1568681  1010000 
 1253000   0.77023984   -4.5067492   -4.5067492   -3.3513906  0.019586425   -4.5067492    1.1553586  1010000 
 1254000    0.7711114   -4.5082128   -4.5082128   -3.3515469  0.015017929   -4.5082128     1.156666  1010000 
 1255000   0.77070598   -4.5085262   -4.5085262   -3.3524684  0.015189805   -4.5085262    1.1560578  1010000 
 1256000   0.77100101   -4.5091718   -4.5091718   -3.3526714  0.018162299   -4.5091718    1.1565004  1010000 
 1257000   0.77118109    -4.509823    -4.509823   -3.3530526  0.016909967    -4.509823    1.1567705  1010000 
 1258000   0.77120454   -4.5107739   -4.5107739   -3.3539682  0.017090129   -4.5107739    1.1568057  1010000 
 1259000   0.76971438   -4.5091351   -4.5091351   -3.3545647  0.015541313   -4.5091351    1.1545704  1010000 
 1260000     0.770536   -4.5107838   -4.5107838    -3.354981  0.013830226   -4.5107838    1.1558028  1010000 
 1261000   0.77088633   -4.5115396   -4.5115396   -3.3552113  0.016150978   -4.5115396    1.1563284  1010000 
 1262000    0.7705917   -4.5118654   -4.5118654    -3.355979  0.014421963   -4.5118654    1.1558864  1010000 
 1263000    0.7705736   -4.5123732   -4.5123732   -3.3565139  0.013897605   -4.5123732    1.1558592  1010000 
 1264000   0.77042838   -4.5122388   -4.5122388   -3.3565974  0.017054892   -4.5122388    1.1556414  1010000 
 1265000   0.76988838   -4.5119014   -4.5119014   -3.3570699  0.017684736   -4.5119014    1.1548314  1010000 
 1266000   0.77039404   -4.5130553   -4.5130553   -3.3574654  0.017312565   -4.5130553    1.1555899  1010000 
 1267000   0.76945037    -4.512584    -4.512584   -3.3584096  0.019035866    -4.512584    1.1541744  1010000 
 1268000   0.76996042   -4.5144553   -4.5144553   -3.3595159  0.012572373   -4.5144553    1.1549395  1010000 
 1269000   0.76858169     -4.51255     -4.51255   -3.3596786  0.016440487     -4.51255    1.1528714  1010000 
 1270000   0.77004614   -4.5152211   -4.5152211    -3.360153   0.01256991   -4.5152211    1.1550681  1010000 
 1271000   0.76955244    -4.514682    -4.514682   -3.3603545  0.014437145    -4.514682    1.1543275  1010000 
 1272000   0.76986493   -4.5152137   -4.5152137   -3.3604174  0.016997886   -4.5152137    1.1547963  1010000 
 1273000   0.76913494   -4.5146642   -4.5146642    -3.360963  0.017768974   -4.5146642    1.1537013  1010000 
 1274000   0.76990611   -4.5163976   -4.5163976   -3.3615396  0.018385174   -4.5163976     1.154858  1010000 
 1275000     0.769731   -4.5164979   -4.5164979   -3.3619026  0.016814433   -4.5164979    1.1545954  1010000 
 1276000   0.76930591   -4.5159135   -4.5159135   -3.3619558  0.019593511   -4.5159135    1.1539577  1010000 
 1277000   0.76937605   -4.5165517   -4.5165517   -3.3624888  0.016142095   -4.5165517    1.1540629  1010000 
 1278000   0.76984309   -4.5174308   -4.5174308   -3.3626673  0.017025473   -4.5174308    1.1547635  1010000 
 1279000    0.7689138   -4.5162852   -4.5162852   -3.3629157  0.019268715   -4.5162852    1.1533696  1010000 
 1280000   0.76895972   -4.5167691   -4.5167691   -3.3633306  0.019117247   -4.5167691    1.1534384  1010000 
 1281000   0.76940107   -4.5170221   -4.5170221   -3.3629217  0.016940336   -4.5170221    1.1541005  1010000 
 1282000   0.76942642   -4.5176048   -4.5176048   -3.3634663  0.014019863   -4.5176048    1.1541385  1010000 
 1283000   0.76824054   -4.5161749   -4.5161749   -3.3638152   0.01709696   -4.5161749    1.1523597  1010000 
 1284000   0.76948851   -4.5183634   -4.5183634   -3.3641318  0.015687688   -4.5183634    1.1542316  1010000 
 1285000   0.76925744   -4.5177994   -4.5177994   -3.3639144  0.018630763   -4.5177994     1.153885  1010000 
 1286000   0.76855967   -4.5174097   -4.5174097   -3.3645713  0.016198921   -4.5174097    1.1528384  1010000 
 1287000   0.76816889    -4.517397    -4.517397   -3.3651448   0.01550024    -4.517397    1.1522522  1010000 
 1288000   0.76768033   -4.5173844   -4.5173844    -3.365865  0.013081215   -4.5173844    1.1515194  1010000 
 1289000    0.7670086   -4.5172007   -4.5172007   -3.3666889  0.014347641   -4.5172007    1.1505118  1010000 
 1290000   0.76770502   -4.5190077   -4.5190077   -3.3674513  0.010425626   -4.5190077    1.1515564  1010000 
 1291000   0.76721857   -4.5178021   -4.5178021   -3.3669753  0.013369071   -4.5178021    1.1508267  1010000 
 1292000   0.76725567   -4.5183705   -4.5183705   -3.3674882   0.01517909   -4.5183705    1.1508824  1010000 
 1293000   0.76771325   -4.5194332   -4.5194332   -3.3678645  0.013760664   -4.5194332    1.1515687  1010000 
 1294000   0.76828978   -4.5203927   -4.5203927   -3.3679591  0.014322318   -4.5203927    1.1524335  1010000 
 1295000   0.76833093   -4.5205219   -4.5205219   -3.3680266  0.014971625   -4.5205219    1.1524953  1010000 
 1296000   0.76741879   -4.5201142   -4.5201142   -3.3689871  0.017515738   -4.5201142     1.151127  1010000 
 1297000   0.76783755   -4.5217721   -4.5217721   -3.3700169   0.01657694   -4.5217721    1.1517552  1010000 
 1298000   0.76752487   -4.5211428   -4.5211428   -3.3698566  0.016086015   -4.5211428    1.1512862  1010000 
 1299000   0.76746247    -4.521205    -4.521205   -3.3700125  0.023338937    -4.521205    1.1511926  1010000 
 1300000   0.76876271   -4.5241743   -4.5241743   -3.3710314  0.016977049   -4.5241743    1.1531429  1010000 
 1301000   0.76811521   -4.5237797   -4.5237797    -3.371608  0.018155436   -4.5237797    1.1521717  1010000 
 1302000   0.76765922     -4.52396     -4.52396   -3.3724723  0.018803751     -4.52396    1.1514877  1010000 
 1303000   0.76795054   -4.5243357   -4.5243357    -3.372411  0.020812137   -4.5243357    1.1519247  1010000 
 1304000   0.76778912   -4.5247142   -4.5247142   -3.3730316  0.018580134   -4.5247142    1.1516825  1010000 
 1305000   0.76714238   -4.5246208   -4.5246208   -3.3739083  0.016288102   -4.5246208    1.1507124  1010000 
 1306000   0.76733974   -4.5256118   -4.5256118   -3.3746033  0.017411077   -4.5256118    1.1510085  1010000 
 1307000   0.76734361   -4.5252496   -4.5252496   -3.3742353  0.017343283   -4.5252496    1.1510143  1010000 
 1308000   0.76788483   -4.5265485   -4.5265485   -3.3747224  0.017584589   -4.5265485    1.1518261  1010000 
 1309000   0.76743949   -4.5267569   -4.5267569   -3.3755988   0.01391274   -4.5267569    1.1511581  1010000 
 1310000   0.76733317   -4.5273186   -4.5273186     -3.37632  0.016273751   -4.5273186    1.1509986  1010000 
 1311000   0.76698614   -4.5267735   -4.5267735   -3.3762955  0.015054035   -4.5267735    1.1504781  1010000 
 1312000   0.76660837   -4.5271287   -4.5271287   -3.3772173  0.015068091   -4.5271287    1.1499114  1010000 
 1313000   0.76654229    -4.527386    -4.527386   -3.3775737  0.015602629    -4.527386    1.1498123  1010000 
 1314000    0.7659764   -4.5268435   -4.5268435     -3.37788  0.014260066   -4.5268435    1.1489635  1010000 
 1315000   0.76657682   -4.5284106   -4.5284106   -3.3785465   0.01490223   -4.5284106    1.1498641  1010000 
 1316000   0.76606661   -4.5280844   -4.5280844   -3.3789856   0.01107035   -4.5280844    1.1490988  1010000 
 1317000   0.76608332   -4.5279011   -4.5279011   -3.3787772  0.018469032   -4.5279011    1.1491238  1010000 
 1318000   0.76726003   -4.5303149   -4.5303149    -3.379426  0.013183586   -4.5303149    1.1508889  1010000 
 1319000   0.76597852   -4.5284625   -4.5284625   -3.3794958  0.018148175   -4.5284625    1.1489666  1010000 
 1320000    0.7667745   -4.5308242   -4.5308242   -3.3806636  0.013580541   -4.5308242    1.1501606  1010000 
 1321000   0.76569665   -4.5292975   -4.5292975   -3.3807536  0.018315025   -4.5292975    1.1485438  1010000 
 1322000   0.76661573   -4.5310602   -4.5310602   -3.3811378  0.017248918   -4.5310602    1.1499225  1010000 
 1323000   0.76623896   -4.5310662   -4.5310662   -3.3817089  0.016798195   -4.5310662    1.1493573  1010000 
 1324000   0.76561322   -4.5310999   -4.5310999   -3.3826812  0.016274998   -4.5310999    1.1484187  1010000 
 1325000    0.7655926   -4.5309269   -4.5309269   -3.3825391  0.019478472   -4.5309269    1.1483878  1010000 
 1326000   0.76588636   -4.5313667   -4.5313667   -3.3825383  0.017988533   -4.5313667    1.1488284  1010000 
 1327000    0.7658282   -4.5317464   -4.5317464   -3.3830052  0.017441594   -4.5317464    1.1487412  1010000 
 1328000   0.76603903   -4.5329406   -4.5329406   -3.3838832  0.016871179   -4.5329406    1.1490574  1010000 
 1329000   0.76619186   -4.5337232   -4.5337232   -3.3844365  0.015904673   -4.5337232    1.1492867  1010000 
 1330000   0.76491175   -4.5324364   -4.5324364   -3.3850699  0.019843907   -4.5324364    1.1473665  1010000 
 1331000   0.76526141   -4.5330807   -4.5330807   -3.3851897  0.017157703   -4.5330807     1.147891  1010000 
 1332000   0.76512894   -4.5335447   -4.5335447   -3.3858524  0.015483707   -4.5335447    1.1476923  1010000 
 1333000   0.76471101   -4.5334385   -4.5334385   -3.3863731  0.017590399   -4.5334385    1.1470654  1010000 
 1334000   0.76529053   -4.5338514   -4.5338514   -3.3859168   0.01851801   -4.5338514    1.1479347  1010000 
 1335000   0.76480735   -4.5342303   -4.5342303   -3.3870204  0.014702311   -4.5342303    1.1472099  1010000 
 1336000   0.76448961   -4.5342177   -4.5342177   -3.3874844  0.017613767   -4.5342177    1.1467333  1010000 
 1337000   0.76441397   -4.5348348   -4.5348348    -3.388215  0.016820567   -4.5348348    1.1466198  1010000 
 1338000   0.76449537   -4.5351231   -4.5351231   -3.3883812   0.01367289   -4.5351231    1.1467419  1010000 
 1339000    0.7642702   -4.5351363   -4.5351363   -3.3887322  0.015475021   -4.5351363    1.1464042  1010000 
 1340000     0.764129    -4.535482    -4.535482   -3.3892896  0.015881981    -4.535482    1.1461924  1010000 
 1341000   0.76522222   -4.5367681   -4.5367681   -3.3889359   0.01561399   -4.5367681    1.1478322  1010000 
 1342000   0.76438923   -4.5360458   -4.5360458   -3.3894631  0.018951325   -4.5360458    1.1465827  1010000 
 1343000   0.76503062   -4.5373473   -4.5373473   -3.3898025  0.020675378   -4.5373473    1.1475448  1010000 
 1344000   0.76504255   -4.5384087   -4.5384087   -3.3908461  0.014597065   -4.5384087    1.1475627  1010000 
 1345000   0.76452889   -4.5382933   -4.5382933   -3.3915011  0.017693159   -4.5382933    1.1467922  1010000 
 1346000   0.76434316   -4.5383363   -4.5383363   -3.3918227  0.018540544   -4.5383363    1.1465136  1010000 
 1347000   0.76457339   -4.5387734   -4.5387734   -3.3919145  0.015694533   -4.5387734    1.1468589  1010000 
 1348000   0.76382185   -4.5391323   -4.5391323   -3.3934006  0.014188225   -4.5391323    1.1457316  1010000 
 1349000   0.76303808   -4.5379296   -4.5379296   -3.3933736  0.016717758   -4.5379296     1.144556  1010000 
 1350000   0.76397903   -4.5400478   -4.5400478   -3.3940804  0.015043014   -4.5400478    1.1459674  1010000 
 1351000   0.76421248   -4.5411825   -4.5411825   -3.3948649  0.015676314   -4.5411825    1.1463176  1010000 
 1352000   0.76366119   -4.5413013   -4.5413013   -3.3958107  0.014471185   -4.5413013    1.1454906  1010000 
 1353000   0.76360509   -4.5412023   -4.5412023   -3.3957958  0.015138549   -4.5412023    1.1454065  1010000 
 1354000   0.76360436   -4.5414433   -4.5414433   -3.3960379  0.015691052   -4.5414433    1.1454054  1010000 
 1355000   0.76345128   -4.5417934   -4.5417934   -3.3966176  0.012648952   -4.5417934    1.1451758  1010000 
 1356000   0.76312347   -4.5415642   -4.5415642   -3.3968801  0.014824907   -4.5415642    1.1446841  1010000 
 1357000   0.76367405   -4.5423684   -4.5423684   -3.3968584  0.015891373   -4.5423684    1.1455099  1010000 
 1358000   0.76349138   -4.5429702   -4.5429702   -3.3977343  0.016888374   -4.5429702    1.1452359  1010000 
 1359000    0.7635271   -4.5430097   -4.5430097   -3.3977202  0.017619425   -4.5430097    1.1452895  1010000 
 1360000   0.76409866   -4.5446147   -4.5446147   -3.3984679  0.016135108   -4.5446147    1.1461468  1010000 
 1361000   0.76409467   -4.5446056   -4.5446056   -3.3984648  0.017400941   -4.5446056    1.1461409  1010000 
 1362000   0.76372223   -4.5442718   -4.5442718   -3.3986896  0.017047032   -4.5442718    1.1455822  1010000 
 1363000   0.76358909   -4.5444254   -4.5444254   -3.3990429  0.015429453   -4.5444254    1.1453825  1010000 
 1364000   0.76283214   -4.5432845   -4.5432845   -3.3990374   0.01794825   -4.5432845    1.1442471  1010000 
 1365000   0.76186518   -4.5430558   -4.5430558   -3.4002592  0.017924945   -4.5430558    1.1427966  1010000 
 1366000   0.76274079   -4.5443971   -4.5443971   -3.4002871  0.012889198   -4.5443971    1.1441101  1010000 
 1367000   0.76244054   -4.5448171   -4.5448171   -3.4011575  0.015449314   -4.5448171    1.1436597  1010000 
 1368000   0.76276332   -4.5452284   -4.5452284   -3.4010846  0.015012299   -4.5452284    1.1441439  1010000 
 1369000   0.76230167    -4.544933    -4.544933   -3.4014816  0.015296352    -4.544933    1.1434514  1010000 
 1370000   0.76297554   -4.5460424   -4.5460424   -3.4015802  0.013629055   -4.5460424    1.1444622  1010000 
 1371000   0.76160112   -4.5444575   -4.5444575   -3.4020569  0.017189103   -4.5444575    1.1424006  1010000 
 1372000   0.76173131   -4.5448393   -4.5448393   -3.4022435  0.011756128   -4.5448393    1.1425958  1010000 
 1373000   0.76177342   -4.5448963   -4.5448963   -3.4022373  0.014728597   -4.5448963     1.142659  1010000 
 1374000   0.76161636   -4.5449353   -4.5449353   -3.4025119  0.017382471   -4.5449353    1.1424234  1010000 
 1375000   0.76197067   -4.5458397   -4.5458397   -3.4028849  0.014516485   -4.5458397    1.1429549  1010000 
 1376000   0.76217452   -4.5473391   -4.5473391   -3.4040784  0.014330945   -4.5473391    1.1432606  1010000 
 1377000   0.76240483   -4.5475546   -4.5475546   -3.4039485   0.01622617   -4.5475546    1.1436061  1010000 
 1378000   0.76247512   -4.5479558   -4.5479558   -3.4042443  0.015703342   -4.5479558    1.1437115  1010000 
 1379000   0.76178687   -4.5481653   -4.5481653   -3.4054861  0.018034532   -4.5481653    1.1426792  1010000 
 1380000   0.76215837   -4.5497467   -4.5497467   -3.4065103  0.012072763   -4.5497467    1.1432364  1010000 
 1381000   0.76115142   -4.5484671   -4.5484671   -3.4067411  0.014689533   -4.5484671     1.141726  1010000 
 1382000   0.76132329     -4.54863     -4.54863   -3.4066462  0.016393628     -4.54863    1.1419838  1010000 
 1383000   0.76116219   -4.5497569   -4.5497569   -3.4080148  0.015663522   -4.5497569    1.1417422  1010000 
 1384000   0.76189261   -4.5511995   -4.5511995   -3.4083618  0.013916999   -4.5511995    1.1428378  1010000 
 1385000   0.76142292   -4.5503778   -4.5503778   -3.4082446  0.018605284   -4.5503778    1.1421332  1010000 
 1386000   0.76173513   -4.5512985   -4.5512985   -3.4086969  0.018159262   -4.5512985    1.1426016  1010000 
 1387000   0.76222869   -4.5525599   -4.5525599    -3.409218  0.018894544   -4.5525599    1.1433419  1010000 
 1388000   0.76183931   -4.5517884   -4.5517884   -3.4090305  0.018679827   -4.5517884    1.1427578  1010000 
 1389000   0.76175423   -4.5528856   -4.5528856   -3.4102554  0.015578713   -4.5528856    1.1426302  1010000 
 1390000   0.76092583   -4.5522479   -4.5522479   -3.4108603  0.016147307   -4.5522479    1.1413876  1010000 
 1391000   0.76061032   -4.5524369   -4.5524369   -3.4115225  0.014201113   -4.5524369    1.1409144  1010000 
 1392000   0.76142521   -4.5538875   -4.5538875   -3.4117508   0.01644461   -4.5538875    1.1421367  1010000 
 1393000   0.76041974   -4.5538344   -4.5538344   -3.4132059  0.013065206   -4.5538344    1.1406285  1010000 
 1394000   0.76063182   -4.5549586   -4.5549586    -3.414012 0.0093244545   -4.5549586    1.1409466  1010000 
 1395000   0.76025533   -4.5545917   -4.5545917   -3.4142099  0.012589589   -4.5545917    1.1403819  1010000 
 1396000   0.76039906   -4.5547039   -4.5547039   -3.4141064  0.014047107   -4.5547039    1.1405975  1010000 
 1397000   0.76004506   -4.5544796   -4.5544796   -3.4144132  0.014366062   -4.5544796    1.1400665  1010000 
 1398000   0.76042694    -4.555404    -4.555404   -3.4147647  0.015072206    -4.555404    1.1406393  1010000 
 1399000   0.76120785   -4.5562672   -4.5562672   -3.4144565  0.014973498   -4.5562672    1.1418107  1010000 
 1400000   0.76076673   -4.5552052   -4.5552052   -3.4140562  0.018530737   -4.5552052     1.141149  1010000 
 1401000   0.76110466   -4.5565216   -4.5565216   -3.4148658  0.016050289   -4.5565216    1.1416559  1010000 
 1402000   0.76110234   -4.5566391   -4.5566391   -3.4149867  0.021500372   -4.5566391    1.1416524  1010000 
 1403000   0.76097361   -4.5573551   -4.5573551   -3.4158958   0.01509133   -4.5573551    1.1414593  1010000 
 1404000   0.75963983   -4.5558576   -4.5558576    -3.416399  0.018577227   -4.5558576    1.1394586  1010000 
 1405000    0.7604267   -4.5576077   -4.5576077   -3.4169688  0.011896879   -4.5576077    1.1406389  1010000 
 1406000   0.76054251   -4.5578815   -4.5578815   -3.4170688  0.014437947   -4.5578815    1.1408126  1010000 
 1407000    0.7597452   -4.5572051   -4.5572051   -3.4175885  0.012760656   -4.5572051    1.1396167  1010000 
 1408000   0.75949936   -4.5574304   -4.5574304   -3.4181824  0.016564096   -4.5574304    1.1392479  1010000 
 1409000    0.7597189   -4.5582498   -4.5582498   -3.4186726  0.011452318   -4.5582498    1.1395772  1010000 
 1410000   0.75992125   -4.5584974   -4.5584974   -3.4186167   0.01215139   -4.5584974    1.1398807  1010000 
 1411000   0.75961945   -4.5584104   -4.5584104   -3.4189823  0.012196081   -4.5584104    1.1394281  1010000 
 1412000   0.75974128   -4.5588151   -4.5588151   -3.4192043  0.015325132   -4.5588151    1.1396108  1010000 
 1413000   0.75921667   -4.5579444   -4.5579444   -3.4191205  0.017382252   -4.5579444    1.1388239  1010000 
 1414000   0.75924309   -4.5592857   -4.5592857   -3.4204222  0.014633183   -4.5592857    1.1388635  1010000 
 1415000     0.758999   -4.5592683   -4.5592683    -3.420771  0.016882268   -4.5592683    1.1384974  1010000 
 1416000   0.75893222   -4.5591126   -4.5591126   -3.4207154  0.016693431   -4.5591126    1.1383972  1010000 
 1417000   0.76018346   -4.5607883   -4.5607883   -3.4205143  0.011882122   -4.5607883    1.1402741  1010000 
 1418000   0.75915938    -4.559886    -4.559886   -3.4211481  0.014409363    -4.559886    1.1387379  1010000 
 1419000   0.75881063   -4.5605829   -4.5605829    -3.422368  0.017981822   -4.5605829    1.1382148  1010000 
 1420000   0.75924341   -4.5613485   -4.5613485   -3.4224845  0.013338329   -4.5613485     1.138864  1010000 
 1421000   0.75940667   -4.5627687   -4.5627687   -3.4236598  0.011563265   -4.5627687    1.1391089  1010000 
 1422000   0.75962948   -4.5629295   -4.5629295   -3.4234865  0.014190907   -4.5629295    1.1394431  1010000 
 1423000   0.75811419   -4.5616635   -4.5616635   -3.4244934  0.014003681   -4.5616635    1.1371702  1010000 
 1424000    0.7585606   -4.5631022   -4.5631022   -3.4252624   0.01657517   -4.5631022    1.1378398  1010000 
 1425000   0.75887733   -4.5639532   -4.5639532   -3.4256383  0.013847722   -4.5639532    1.1383149  1010000 
 1426000   0.75889884   -4.5641377   -4.5641377   -3.4257905  0.014475775   -4.5641377    1.1383471  1010000 
 1427000   0.75883794    -4.564573    -4.564573   -3.4263172  0.016642965    -4.564573    1.1382558  1010000 
 1428000   0.75879855   -4.5651381   -4.5651381   -3.4269414  0.016541073   -4.5651381    1.1381967  1010000 
 1429000    0.7591268   -4.5656239   -4.5656239   -3.4269349  0.016939125   -4.5656239    1.1386891  1010000 
 1430000    0.7586055   -4.5654185   -4.5654185   -3.4275114  0.021019543   -4.5654185    1.1379071  1010000 
 1431000   0.75863141   -4.5662494   -4.5662494   -3.4283034  0.018492314   -4.5662494     1.137946  1010000 
 1432000   0.75776568   -4.5661932   -4.5661932   -3.4295458   0.01656124   -4.5661932    1.1366474  1010000 
 1433000   0.75743572   -4.5660103   -4.5660103   -3.4298579  0.022561338   -4.5660103    1.1361525  1010000 
 1434000   0.75874004   -4.5677567   -4.5677567   -3.4296477  0.015990218   -4.5677567    1.1381089  1010000 
 1435000   0.75840919   -4.5675008   -4.5675008   -3.4298881  0.016177346   -4.5675008    1.1376127  1010000 
 1436000   0.75806467   -4.5671793   -4.5671793   -3.4300834  0.015554664   -4.5671793    1.1370959  1010000 
 1437000    0.7583865   -4.5679561   -4.5679561   -3.4303775   0.01532564   -4.5679561    1.1375786  1010000 
 1438000   0.75745422    -4.567355    -4.567355   -3.4311748  0.014449966    -4.567355    1.1361802  1010000 
 1439000   0.75708027   -4.5671448   -4.5671448   -3.4315255  0.014962518   -4.5671448    1.1356193  1010000 
 1440000   0.75695763   -4.5672474   -4.5672474   -3.4318121  0.014268919   -4.5672474    1.1354353  1010000 
 1441000   0.75751628    -4.568514    -4.568514   -3.4322407  0.011590262    -4.568514    1.1362733  1010000 
 1442000   0.75727303   -4.5684738   -4.5684738   -3.4325654  0.010629397   -4.5684738    1.1359084  1010000 
 1443000   0.75637817    -4.567839    -4.567839   -3.4332728  0.014156433    -4.567839    1.1345661  1010000 
 1444000   0.75651694   -4.5692587   -4.5692587   -3.4344844  0.013407095   -4.5692587    1.1347743  1010000 
 1445000   0.75762628   -4.5703843   -4.5703843    -3.433946  0.010158479   -4.5703843    1.1364383  1010000 
 1446000   0.75639365   -4.5693356   -4.5693356   -3.4347463  0.013767049   -4.5693356    1.1345893  1010000 
 1447000   0.75657809   -4.5702255   -4.5702255   -3.4353595  0.011280561   -4.5702255     1.134866  1010000 
 1448000   0.75724658   -4.5709786   -4.5709786   -3.4351099  0.016425565   -4.5709786    1.1358688  1010000 
 1449000   0.75701851    -4.571546    -4.571546   -3.4360193  0.018002849    -4.571546    1.1355266  1010000 
 1450000   0.75743201    -4.572245    -4.572245   -3.4360981  0.016854399    -4.572245    1.1361469  1010000 
 1451000   0.75797475   -4.5730886   -4.5730886   -3.4361276  0.016327019   -4.5730886     1.136961  1010000 
 1452000   0.75728687   -4.5728533   -4.5728533   -3.4369241   0.01824963   -4.5728533    1.1359292  1010000 
 1453000    0.7572173   -4.5734796   -4.5734796   -3.4376548  0.018302304   -4.5734796    1.1358248  1010000 
 1454000   0.75753993   -4.5740271   -4.5740271   -3.4377184   0.01815732   -4.5740271    1.1363088  1010000 
 1455000   0.75789592    -4.574522    -4.574522   -3.4376793  0.015341197    -4.574522    1.1368428  1010000 
 1456000   0.75717706   -4.5744126   -4.5744126   -3.4386482  0.016209909   -4.5744126    1.1357645  1010000 
 1457000    0.7566751   -4.5745751   -4.5745751   -3.4395636  0.013736241   -4.5745751    1.1350115  1010000 
 1458000   0.75642859    -4.574624    -4.574624   -3.4399823  0.013082187    -4.574624    1.1346418  1010000 
 1459000   0.75648067   -4.5746373   -4.5746373   -3.4399174  0.014347177   -4.5746373    1.1347199  1010000 
 1460000   0.75586035   -4.5739772   -4.5739772   -3.4401878   0.01460544   -4.5739772    1.1337894  1010000 
 1461000   0.75566672   -4.5737786   -4.5737786   -3.4402797   0.01117681   -4.5737786     1.133499  1010000 
 1462000   0.75595871   -4.5750542   -4.5750542   -3.4411172 0.0093884768   -4.5750542    1.1339369  1010000 
 1463000   0.75583269   -4.5748129   -4.5748129    -3.441065  0.011720809   -4.5748129    1.1337479  1010000 
 1464000   0.75598568   -4.5751268   -4.5751268   -3.4411495  0.014115883   -4.5751268    1.1339774  1010000 
 1465000   0.75538286   -4.5752802   -4.5752802    -3.442207  0.011378542   -4.5752802    1.1330732  1010000 
 1466000   0.75516225   -4.5749209   -4.5749209   -3.4421787  0.013773016   -4.5749209    1.1327423  1010000 
 1467000   0.75527729   -4.5755919   -4.5755919   -3.4426771 0.0096099536   -4.5755919    1.1329148  1010000 
 1468000   0.75496154   -4.5758328   -4.5758328   -3.4433917  0.014520803   -4.5758328    1.1324412  1010000 
 1469000    0.7558305   -4.5771747   -4.5771747   -3.4434301   0.01354741   -4.5771747    1.1337446  1010000 
 1470000     0.755626   -4.5774345   -4.5774345   -3.4439966  0.016287825   -4.5774345    1.1334379  1010000 
 1471000   0.75550983   -4.5780977   -4.5780977    -3.444834  0.015982254   -4.5780977    1.1332636  1010000 
 1472000   0.75678011   -4.5796009   -4.5796009   -3.4444319  0.010701492   -4.5796009     1.135169  1010000 
 1473000   0.75550061   -4.5787845   -4.5787845   -3.4455347  0.015859179   -4.5787845    1.1332498  1010000 
 1474000   0.75579781   -4.5795912   -4.5795912   -3.4458956  0.017715045   -4.5795912    1.1336956  1010000 
 1475000   0.75544538   -4.5797482   -4.5797482   -3.4465813  0.018772935   -4.5797482    1.1331669  1010000 
 1476000    0.7553716   -4.5804499   -4.5804499   -3.4473936  0.017135109   -4.5804499    1.1330563  1010000 
 1477000   0.75508029   -4.5800454   -4.5800454   -3.4474261  0.014966907   -4.5800454    1.1326193  1010000 
 1478000    0.7547407   -4.5799547   -4.5799547   -3.4478447  0.018731076   -4.5799547    1.1321099  1010000 
 1479000   0.75523363   -4.5811947   -4.5811947   -3.4483454  0.017818749   -4.5811947    1.1328493  1010000 
 1480000   0.75536263   -4.5823469   -4.5823469   -3.4493041  0.015214642   -4.5823469    1.1330428  1010000 
 1481000   0.75457048   -4.5804157   -4.5804157   -3.4485611  0.018611458   -4.5804157    1.1318546  1010000 
 1482000   0.75593916   -4.5823369   -4.5823369   -3.4484293  0.013357887   -4.5823369    1.1339076  1010000 
 1483000   0.75522488   -4.5820032   -4.5820032    -3.449167  0.010091137   -4.5820032    1.1328362  1010000 
 1484000   0.75527553    -4.582461    -4.582461   -3.4495488   0.01145505    -4.582461    1.1329122  1010000 
 1485000   0.75384316   -4.5807252   -4.5807252   -3.4499616  0.016019979   -4.5807252    1.1307636  1010000 
 1486000   0.75543627   -4.5836141   -4.5836141   -3.4504608  0.010886387   -4.5836141    1.1331533  1010000 
 1487000   0.75415713   -4.5823639   -4.5823639   -3.4511293  0.013520485   -4.5823639    1.1312346  1010000 
 1488000   0.75313149   -4.5813234   -4.5813234   -3.4516272  0.015035691   -4.5813234    1.1296961  1010000 
 1489000   0.75416145    -4.583125    -4.583125    -3.451884 0.0090585119    -4.583125    1.1312411  1010000 
 1490000   0.75366681   -4.5821802   -4.5821802   -3.4516811  0.010785565   -4.5821802    1.1304991  1010000 
 1491000   0.75293156    -4.582134    -4.582134   -3.4527378  0.011964724    -4.582134    1.1293962  1010000 
 1492000   0.75325935   -4.5829896   -4.5829896   -3.4531017  0.013952357   -4.5829896    1.1298879  1010000 
 1493000   0.75363323   -4.5842817   -4.5842817    -3.453833  0.014540895   -4.5842817    1.1304487  1010000 
 1494000   0.75349505   -4.5847928   -4.5847928   -3.4545514  0.011491904   -4.5847928    1.1302415  1010000 
 1495000   0.75357765   -4.5843923   -4.5843923   -3.4540269  0.014608273   -4.5843923    1.1303654  1010000 
 1496000    0.7539312   -4.5854595   -4.5854595   -3.4545638  0.013184552   -4.5854595    1.1308957  1010000 
 1497000   0.75243272   -4.5844512   -4.5844512   -3.4558032  0.018574746   -4.5844512     1.128648  1010000 
 1498000   0.75392354    -4.587085    -4.587085   -3.4562008  0.013174512    -4.587085    1.1308842  1010000 
 1499000   0.75449922   -4.5887743   -4.5887743   -3.4570266  0.013415786   -4.5887743    1.1317477  1010000 
 1500000    0.7528506   -4.5872697   -4.5872697   -3.4579949  0.018670698   -4.5872697    1.1292748  1010000 
 1501000   0.75309143   -4.5878572   -4.5878572   -3.4582211  0.017227603   -4.5878572     1.129636  1010000 
 1502000   0.75425528   -4.5900833   -4.5900833   -3.4587015  0.014219058   -4.5900833    1.1313818  1010000 
 1503000   0.75405868   -4.5898484   -4.5898484   -3.4587615  0.019189428   -4.5898484    1.1310869  1010000 
 1504000   0.75351309   -4.5890405   -4.5890405    -3.458772  0.021325845   -4.5890405    1.1302685  1010000 
 1505000   0.75401487   -4.5902526   -4.5902526   -3.4592314  0.018390401   -4.5902526    1.1310212  1010000 
 1506000   0.75424884   -4.5910809   -4.5910809   -3.4597087   0.01493226   -4.5910809    1.1313721  1010000 
 1507000   0.75344332   -4.5902916   -4.5902916   -3.4601277   0.01752781   -4.5902916    1.1301639  1010000 
 1508000   0.75336835   -4.5900959   -4.5900959   -3.4600445  0.015072797   -4.5900959    1.1300514  1010000 
 1509000   0.75298257   -4.5906224   -4.5906224   -3.4611497  0.015617569   -4.5906224    1.1294727  1010000 
 1510000   0.75237183   -4.5904113   -4.5904113   -3.4618547  0.012118797   -4.5904113    1.1285566  1010000 
 1511000   0.75246386   -4.5903923   -4.5903923   -3.4616976  0.010079615   -4.5903923    1.1286947  1010000 
 1512000   0.75240963   -4.5907578   -4.5907578   -3.4621445 0.0064281502   -4.5907578    1.1286133  1010000 
 1513000   0.75117367   -4.5890626   -4.5890626   -3.4623032   0.01224782   -4.5890626    1.1267594  1010000 
 1514000   0.75148247   -4.5897439   -4.5897439   -3.4625214 0.0093647119   -4.5897439    1.1272226  1010000 
 1515000   0.75133955    -4.590025    -4.590025   -3.4630168  0.010331885    -4.590025    1.1270082  1010000 
 1516000   0.75136389   -4.5902005   -4.5902005   -3.4631558 0.0092995941   -4.5902005    1.1270447  1010000 
 1517000   0.75180013   -4.5920782   -4.5920782   -3.4643791  0.012601306   -4.5920782    1.1276991  1010000 
 1518000   0.75208476    -4.592557    -4.592557    -3.464431  0.012936487    -4.592557     1.128126  1010000 
 1519000   0.75183048   -4.5929236   -4.5929236    -3.465179  0.014119833   -4.5929236    1.1277446  1010000 
 1520000   0.75224337   -4.5937937   -4.5937937   -3.4654297  0.011590762   -4.5937937    1.1283639  1010000 
 1521000   0.75182532   -4.5935147   -4.5935147   -3.4657778  0.012949325   -4.5935147    1.1277369  1010000 
 1522000   0.75147962   -4.5937031   -4.5937031   -3.4664848  0.017262852   -4.5937031    1.1272183  1010000 
 1523000   0.75210795   -4.5954284   -4.5954284   -3.4672676  0.015152207   -4.5954284    1.1281608  1010000 
 1524000   0.75214327   -4.5961714   -4.5961714   -3.4679576  0.017897779   -4.5961714    1.1282138  1010000 
 1525000   0.75259302   -4.5975321   -4.5975321   -3.4686437  0.012516987   -4.5975321    1.1288884  1010000 
 1526000   0.75266779   -4.5976912   -4.5976912   -3.4686906  0.015109207   -4.5976912    1.1290006  1010000 
 1527000   0.75143517   -4.5966529   -4.5966529   -3.4695012  0.017448255   -4.5966529    1.1271516  1010000 
 1528000   0.75211008    -4.598212    -4.598212    -3.470048  0.014773243    -4.598212     1.128164  1010000 
 1529000   0.75156229   -4.5976509   -4.5976509   -3.4703086  0.015965856   -4.5976509    1.1273423  1010000 
 1530000    0.7514549   -4.5977426   -4.5977426   -3.4705613  0.015085092   -4.5977426    1.1271812  1010000 
 1531000    0.7524836   -4.5995081   -4.5995081   -3.4707838  0.011987884   -4.5995081    1.1287243  1010000 
 1532000   0.75107418   -4.5980081   -4.5980081    -3.471398  0.017345416   -4.5980081    1.1266102  1010000 
 1533000   0.75089086   -4.5980924   -4.5980924   -3.4717573  0.015750844   -4.5980924    1.1263352  1010000 
 1534000   0.75223836   -4.5994673   -4.5994673   -3.4711109  0.014737564   -4.5994673    1.1283564  1010000 
 1535000   0.75125995   -4.5989568   -4.5989568    -3.472068  0.012925858   -4.5989568    1.1268888  1010000 
 1536000   0.75025011   -4.5985131   -4.5985131    -3.473139  0.012368876   -4.5985131    1.1253741  1010000 
 1537000   0.75030306   -4.5984127   -4.5984127   -3.4729592 0.0099424584   -4.5984127    1.1254535  1010000 
 1538000   0.75042702   -4.5994984   -4.5994984    -3.473859 0.0079803094   -4.5994984    1.1256394  1010000 
 1539000   0.75003677   -4.5993591   -4.5993591    -3.474305   0.01033142   -4.5993591     1.125054  1010000 
 1540000   0.74944813   -4.5990672   -4.5990672   -3.4748961 0.0091781227   -4.5990672    1.1241711  1010000 
 1541000   0.75034722   -4.6005355   -4.6005355   -3.4750158 0.0069753835   -4.6005355    1.1255197  1010000 
 1542000   0.74977619   -4.5998936   -4.5998936   -3.4752304  0.010484809   -4.5998936    1.1246632  1010000 
 1543000   0.74991105   -4.6006861   -4.6006861   -3.4758206  0.014418851   -4.6006861    1.1248655  1010000 
 1544000   0.74963686   -4.6013334   -4.6013334   -3.4768792  0.014626009   -4.6013334    1.1244542  1010000 
 1545000   0.75028524   -4.6028388   -4.6028388   -3.4774121  0.012073847   -4.6028388    1.1254267  1010000 
 1546000   0.75001366   -4.6025865   -4.6025865   -3.4775671  0.012038267   -4.6025865    1.1250194  1010000 
 1547000   0.74991496   -4.6021945   -4.6021945   -3.4773232  0.015439707   -4.6021945    1.1248713  1010000 
 1548000   0.74993804   -4.6034899   -4.6034899    -3.478584  0.015684982   -4.6034899    1.1249059  1010000 
 1549000   0.74969718   -4.6036616   -4.6036616   -3.4791169  0.018961985   -4.6036616    1.1245447  1010000 
 1550000   0.75030298    -4.605966    -4.605966   -3.4805126  0.014776857    -4.605966    1.1254534  1010000 
 1551000   0.74936077    -4.605199    -4.605199    -3.481159  0.017035354    -4.605199      1.12404  1010000 
 1552000   0.74963189   -4.6048698   -4.6048698   -3.4804231  0.015877902   -4.6048698    1.1244467  1010000 
 1553000   0.74958464   -4.6050211   -4.6050211   -3.4806452  0.017927874   -4.6050211    1.1243758  1010000 
 1554000   0.75052599   -4.6070477   -4.6070477   -3.4812598  0.016780163   -4.6070477    1.1257879  1010000 
 1555000   0.74905612   -4.6052847   -4.6052847   -3.4817016  0.017740331   -4.6052847    1.1235831  1010000 
 1556000   0.74973701   -4.6061143   -4.6061143   -3.4815099   0.01885736   -4.6061143    1.1246044  1010000 
 1557000    0.7499602   -4.6071504   -4.6071504   -3.4822112  0.018667462   -4.6071504    1.1249392  1010000 
 1558000   0.74908044    -4.606539    -4.606539   -3.4829195  0.017703077    -4.606539    1.1236195  1010000 
 1559000   0.74943059   -4.6063639   -4.6063639   -3.4822191  0.017294552   -4.6063639    1.1241448  1010000 
 1560000   0.74928573   -4.6068629   -4.6068629   -3.4829355  0.012926847   -4.6068629    1.1239275  1010000 
 1561000   0.74894968   -4.6066318   -4.6066318   -3.4832084  0.010309371   -4.6066318    1.1234234  1010000 
 1562000    0.7482845   -4.6057495   -4.6057495   -3.4833238  0.008394803   -4.6057495    1.1224256  1010000 
 1563000    0.7486097   -4.6069648   -4.6069648   -3.4840514  0.011036344   -4.6069648    1.1229134  1010000 
 1564000   0.74906048   -4.6081675   -4.6081675   -3.4845779 0.0075638722   -4.6081675    1.1235896  1010000 
 1565000   0.74813861   -4.6067572   -4.6067572   -3.4845504  0.014873693   -4.6067572    1.1222068  1010000 
 1566000   0.74857672   -4.6074025   -4.6074025   -3.4845385 0.0098871259   -4.6074025     1.122864  1010000 
 1567000   0.74805916   -4.6068627   -4.6068627    -3.484775  0.011733764   -4.6068627    1.1220876  1010000 
 1568000   0.74824192    -4.607745    -4.607745   -3.4853832  0.010806411    -4.607745    1.1223618  1010000 
 1569000   0.74824954   -4.6085723   -4.6085723   -3.4861991 0.0094643073   -4.6085723    1.1223732  1010000 
 1570000   0.74791578   -4.6095041   -4.6095041   -3.4876315 0.0081247197   -4.6095041    1.1218726  1010000 
 1571000   0.74937784   -4.6116807   -4.6116807    -3.487615 0.0087670764   -4.6116807    1.1240656  1010000 
 1572000   0.74879691   -4.6115679   -4.6115679   -3.4883736  0.012383699   -4.6115679    1.1231943  1010000 
 1573000   0.74895034   -4.6113597   -4.6113597   -3.4879353  0.016634219   -4.6113597    1.1234244  1010000 
 1574000   0.74889422    -4.611664    -4.611664   -3.4883238  0.013783885    -4.611664    1.1233402  1010000 
 1575000   0.74901776   -4.6114967   -4.6114967   -3.4879711  0.017539848   -4.6114967    1.1235255  1010000 
 1576000   0.74836616   -4.6120676   -4.6120676   -3.4895195  0.016841329   -4.6120676    1.1225481  1010000 
 1577000   0.74893844   -4.6127908   -4.6127908   -3.4893843  0.019219968   -4.6127908    1.1234066  1010000 
 1578000    0.7487117   -4.6131177   -4.6131177   -3.4900512  0.019367744   -4.6131177    1.1230664  1010000 
 1579000   0.74924247    -4.614609    -4.614609   -3.4907464  0.017560345    -4.614609    1.1238626  1010000 
 1580000   0.74930219   -4.6147392   -4.6147392    -3.490787  0.015731236   -4.6147392    1.1239522  1010000 
 1581000   0.74857196   -4.6136117   -4.6136117   -3.4907549  0.017338356   -4.6136117    1.1228568  1010000 
 1582000   0.74792239   -4.6135184   -4.6135184    -3.491636  0.018665992   -4.6135184    1.1218825  1010000 
 1583000   0.74793291   -4.6135486   -4.6135486   -3.4916504  0.013744259   -4.6135486    1.1218983  1010000 
 1584000   0.74756964   -4.6132185   -4.6132185   -3.4918651  0.013965651   -4.6132185    1.1213533  1010000 
 1585000   0.74827986   -4.6143085   -4.6143085   -3.4918898  0.010429049   -4.6143085    1.1224187  1010000 
 1586000   0.74764299   -4.6140654   -4.6140654    -3.492602  0.011033173   -4.6140654    1.1214634  1010000 
 1587000   0.74690291   -4.6130148   -4.6130148   -3.4926615  0.012838996   -4.6130148    1.1203532  1010000 
 1588000   0.74727335   -4.6141712   -4.6141712   -3.4932623  0.008210548   -4.6141712    1.1209089  1010000 
 1589000   0.74614962   -4.6128812   -4.6128812   -3.4936579   0.01027619   -4.6128812    1.1192233  1010000 
 1590000   0.74660836   -4.6140552   -4.6140552   -3.4941438 0.0085602065   -4.6140552    1.1199114  1010000 
 1591000   0.74609288   -4.6131831   -4.6131831   -3.4940448 0.0082459511   -4.6131831    1.1191382  1010000 
 1592000   0.74631254   -4.6136888   -4.6136888   -3.4942211 0.0076981964   -4.6136888    1.1194677  1010000 
 1593000   0.74637524   -4.6146145   -4.6146145   -3.4950528  0.011662357   -4.6146145    1.1195618  1010000 
 1594000   0.74715668   -4.6157989   -4.6157989   -3.4950649   0.01377523   -4.6157989    1.1207339  1010000 
 1595000   0.74705498   -4.6165667   -4.6165667   -3.4959854  0.012601271   -4.6165667    1.1205814  1010000 
 1596000   0.74647545   -4.6163048   -4.6163048   -3.4965928  0.012540665   -4.6163048    1.1197121  1010000 
 1597000   0.74715697   -4.6179804   -4.6179804   -3.4972461  0.012828184   -4.6179804    1.1207343  1010000 
 1598000   0.74685679   -4.6177149   -4.6177149   -3.4974309  0.013667193   -4.6177149    1.1202841  1010000 
 1599000   0.74607357   -4.6178226   -4.6178226   -3.4987134   0.01324459   -4.6178226    1.1191092  1010000 
 1600000    0.7459962   -4.6185278   -4.6185278   -3.4995346  0.014990589   -4.6185278    1.1189932  1010000 
 1601000   0.74743732   -4.6212534   -4.6212534   -3.5000985  0.012799049   -4.6212534    1.1211549  1010000 
 1602000     0.746914   -4.6206352   -4.6206352   -3.5002653   0.01488059   -4.6206352    1.1203699  1010000 
 1603000   0.74727626   -4.6213288   -4.6213288   -3.5004155  0.020534723   -4.6213288    1.1209133  1010000 
 1604000   0.74720278   -4.6209329   -4.6209329   -3.5001299  0.018478466   -4.6209329    1.1208031  1010000 
 1605000   0.74714791   -4.6211056   -4.6211056   -3.5003849  0.017478049   -4.6211056    1.1207208  1010000 
 1606000   0.74634249   -4.6207881   -4.6207881   -3.5012755  0.019253595   -4.6207881    1.1195126  1010000 
 1607000   0.74629213   -4.6213772   -4.6213772   -3.5019401  0.016581864   -4.6213772    1.1194371  1010000 
 1608000   0.74658528   -4.6222309   -4.6222309   -3.5023541  0.011290373   -4.6222309    1.1198768  1010000 
 1609000   0.74561159   -4.6216853   -4.6216853    -3.503269  0.013321024   -4.6216853    1.1184163  1010000 
 1610000   0.74546984   -4.6217984   -4.6217984   -3.5035948 0.0099759694   -4.6217984    1.1182037  1010000 
 1611000   0.74541737    -4.622449    -4.622449    -3.504324 0.0091386086    -4.622449     1.118125  1010000 
 1612000   0.74551624   -4.6222892   -4.6222892   -3.5040159 0.0085482088   -4.6222892    1.1182733  1010000 
 1613000   0.74522718   -4.6216171   -4.6216171   -3.5037774  0.013360335   -4.6216171    1.1178397  1010000 
 1614000   0.74600807   -4.6230589   -4.6230589   -3.5040479 0.0082921412   -4.6230589     1.119011  1010000 
 1615000   0.74500691   -4.6217403   -4.6217403    -3.504231   0.01080482   -4.6217403    1.1175093  1010000 
 1616000   0.74574046    -4.622825    -4.622825   -3.5042154 0.0097100917    -4.622825    1.1186096  1010000 
 1617000   0.74632608   -4.6234711   -4.6234711   -3.5039831  0.011174229   -4.6234711     1.119488  1010000 
 1618000   0.74499043   -4.6220683   -4.6220683   -3.5045837  0.014333257   -4.6220683    1.1174845  1010000 
 1619000   0.74489567   -4.6228907   -4.6228907   -3.5055483  0.012856638   -4.6228907    1.1173424  1010000 
 1620000   0.74556522    -4.624896    -4.624896   -3.5065493  0.011917084    -4.624896    1.1183467  1010000 
 1621000   0.74462434   -4.6240049   -4.6240049   -3.5070695  0.010383811   -4.6240049    1.1169354  1010000 
 1622000   0.74455452   -4.6247265   -4.6247265   -3.5078958  0.011271555   -4.6247265    1.1168307  1010000 
 1623000    0.7450929   -4.6253575   -4.6253575   -3.5077192  0.010391862   -4.6253575    1.1176382  1010000 
 1624000   0.74488038   -4.6252649   -4.6252649   -3.5079455  0.015176227   -4.6252649    1.1173195  1010000 
 1625000   0.74469838   -4.6259317   -4.6259317   -3.5088853  0.011510654   -4.6259317    1.1170465  1010000 
 1626000   0.74450779   -4.6269272   -4.6269272   -3.5101667  0.011093077   -4.6269272    1.1167606  1010000 
 1627000   0.74529833   -4.6277108   -4.6277108   -3.5097644  0.010193955   -4.6277108    1.1179464  1010000 
 1628000   0.74505367   -4.6280614   -4.6280614    -3.510482  0.015635808   -4.6280614    1.1175794  1010000 
 1629000   0.74416664   -4.6262655   -4.6262655   -3.5100166  0.020102488   -4.6262655    1.1162489  1010000 
 1630000   0.74467612   -4.6273164   -4.6273164   -3.5103033  0.016538332   -4.6273164    1.1170131  1010000 
 1631000   0.74470568   -4.6285286   -4.6285286   -3.5114712  0.015140362   -4.6285286    1.1170574  1010000 
 1632000   0.74488346   -4.6287751   -4.6287751    -3.511451  0.013812782   -4.6287751    1.1173241  1010000 
 1633000   0.74424071   -4.6283642   -4.6283642   -3.5120043  0.014698906   -4.6283642      1.11636  1010000 
 1634000   0.74480386   -4.6299267   -4.6299267    -3.512722  0.014635764   -4.6299267    1.1172047  1010000 
 1635000   0.74347769   -4.6280453   -4.6280453   -3.5128299  0.015087427   -4.6280453    1.1152154  1010000 
 1636000    0.7442141   -4.6301748   -4.6301748   -3.5138547  0.013068848   -4.6301748      1.11632  1010000 
 1637000   0.74412102   -4.6304732   -4.6304732   -3.5142928  0.012412415   -4.6304732    1.1161804  1010000 
 1638000   0.74354314   -4.6302765   -4.6302765   -3.5149629  0.011163992   -4.6302765    1.1153136  1010000 
 1639000   0.74351472   -4.6305388   -4.6305388   -3.5152678  0.014413955   -4.6305388     1.115271  1010000 
 1640000   0.74304641   -4.6296239   -4.6296239   -3.5150554  0.013178341   -4.6296239    1.1145685  1010000 
 1641000   0.74377771   -4.6314656   -4.6314656   -3.5158002 0.0096840821   -4.6314656    1.1156655  1010000 
 1642000   0.74377794   -4.6314289   -4.6314289   -3.5157631  0.007280563   -4.6314289    1.1156658  1010000 
 1643000   0.74432262   -4.6320392   -4.6320392   -3.5155563  0.010599392   -4.6320392    1.1164828  1010000 
 1644000    0.7432512   -4.6307459   -4.6307459   -3.5158702  0.013972833   -4.6307459    1.1148757  1010000 
 1645000   0.74329422   -4.6313109   -4.6313109   -3.5163706  0.014911772   -4.6313109    1.1149402  1010000 
 1646000   0.74386234   -4.6324461   -4.6324461   -3.5166537  0.015669351   -4.6324461    1.1157924  1010000 
 1647000   0.74328437   -4.6324212   -4.6324212   -3.5174958  0.012975931   -4.6324212    1.1149254  1010000 
 1648000   0.74332745   -4.6325731   -4.6325731    -3.517583  0.011150086   -4.6325731    1.1149901  1010000 
 1649000   0.74319584   -4.6320134   -4.6320134   -3.5172208  0.014294288   -4.6320134    1.1147927  1010000 
 1650000   0.74386185   -4.6334599   -4.6334599   -3.5176682  0.011714454   -4.6334599    1.1157917  1010000 
 1651000   0.74419194   -4.6344988   -4.6344988    -3.518212 0.0091370174   -4.6344988    1.1162868  1010000 
 1652000   0.74357287   -4.6344379   -4.6344379   -3.5190797  0.014432016   -4.6344379    1.1153582  1010000 
 1653000   0.74384876     -4.63509     -4.63509    -3.519318  0.012914088     -4.63509     1.115772  1010000 
 1654000   0.74311218   -4.6342098   -4.6342098   -3.5195427  0.010485743   -4.6342098    1.1146672  1010000 
 1655000   0.74292513   -4.6357235   -4.6357235   -3.5213369 0.0079789993   -4.6357235    1.1143866  1010000 
 1656000    0.7414173   -4.6345188   -4.6345188    -3.522394 0.0091610839   -4.6345188    1.1121249  1010000 
 1657000   0.74131628   -4.6348002   -4.6348002   -3.5228269   0.01180913   -4.6348002    1.1119733  1010000 
 1658000   0.74130293   -4.6353452   -4.6353452   -3.5233919  0.010832375   -4.6353452    1.1119533  1010000 
 1659000   0.74159702   -4.6365256   -4.6365256   -3.5241312 0.0077672939   -4.6365256    1.1123944  1010000 
 1660000    0.7417281   -4.6365969   -4.6365969   -3.5240059  0.010637751   -4.6365969     1.112591  1010000 
 1661000   0.74271201   -4.6387258   -4.6387258   -3.5246589  0.010240038   -4.6387258    1.1140669  1010000 
 1662000   0.74235264   -4.6384264   -4.6384264   -3.5248985  0.015248886   -4.6384264    1.1135279  1010000 
 1663000    0.7423733   -4.6389616   -4.6389616   -3.5254028  0.012416087   -4.6389616    1.1135588  1010000 
 1664000   0.74233028    -4.639222    -4.639222   -3.5257277  0.012488813    -4.639222    1.1134943  1010000 
 1665000   0.74223511    -4.639978    -4.639978   -3.5266264  0.014478715    -4.639978    1.1133516  1010000 
 1666000   0.74147291   -4.6392305   -4.6392305   -3.5270222  0.017625824   -4.6392305    1.1122083  1010000 
 1667000   0.74247953   -4.6415058   -4.6415058   -3.5277876  0.011631177   -4.6415058    1.1137182  1010000 
 1668000    0.7416953   -4.6401192   -4.6401192   -3.5275774  0.017358232   -4.6401192    1.1125418  1010000 
 1669000   0.74210285   -4.6416875   -4.6416875   -3.5285344  0.013488655   -4.6416875    1.1131532  1010000 
 1670000   0.74104447   -4.6411519   -4.6411519   -3.5295862  0.014207014   -4.6411519    1.1115656  1010000 
 1671000   0.74131215   -4.6420507   -4.6420507   -3.5300836  0.014581519   -4.6420507    1.1119671  1010000 
 1672000   0.74210795   -4.6434186   -4.6434186   -3.5302578   0.01063524   -4.6434186    1.1131608  1010000 
 1673000   0.74115467   -4.6417321   -4.6417321   -3.5300012  0.011047556   -4.6417321    1.1117309  1010000 
 1674000   0.74127743   -4.6424444   -4.6424444   -3.5305293  0.012171788   -4.6424444     1.111915  1010000 
 1675000   0.74060562    -4.642858    -4.642858   -3.5319507  0.012071665    -4.642858    1.1109073  1010000 
 1676000   0.74060698   -4.6433847   -4.6433847   -3.5324754  0.012382688   -4.6433847    1.1109094  1010000 
 1677000   0.74054841   -4.6436852   -4.6436852   -3.5328637  0.012635043   -4.6436852    1.1108215  1010000 
 1678000   0.74063025   -4.6438381   -4.6438381   -3.5328938 0.0091838235   -4.6438381    1.1109443  1010000 
 1679000   0.74103998   -4.6449719   -4.6449719    -3.533413 0.0081778114   -4.6449719    1.1115589  1010000 
 1680000   0.74077844    -4.643363    -4.643363   -3.5321964  0.011783151    -4.643363    1.1111666  1010000 
 1681000   0.74057188   -4.6440609   -4.6440609   -3.5332042   0.01305309   -4.6440609    1.1108567  1010000 
 1682000   0.74049207   -4.6443669   -4.6443669   -3.5336299  0.016218312   -4.6443669     1.110737  1010000 
 1683000   0.74081038   -4.6451575   -4.6451575    -3.533943  0.016969272   -4.6451575    1.1112145  1010000 
 1684000   0.74128672   -4.6458203   -4.6458203   -3.5338913  0.011776626   -4.6458203     1.111929  1010000 
 1685000   0.74108629   -4.6462281   -4.6462281   -3.5345997  0.015420758   -4.6462281    1.1116283  1010000 
 1686000   0.74033693   -4.6457564   -4.6457564   -3.5352521  0.013534935   -4.6457564    1.1105043  1010000 
 1687000   0.74004466   -4.6460482   -4.6460482   -3.5359823 0.0098934809   -4.6460482    1.1100659  1010000 
 1688000   0.73957943   -4.6456336   -4.6456336   -3.5362655   0.01041085   -4.6456336     1.109368  1010000 
 1689000   0.73979392   -4.6463142   -4.6463142   -3.5366244  0.010919711   -4.6463142    1.1096898  1010000 
 1690000   0.73943599   -4.6455816   -4.6455816   -3.5364287  0.012631196   -4.6455816    1.1091529  1010000 
 1691000   0.74022109   -4.6477034   -4.6477034   -3.5373729 0.0099468435   -4.6477034    1.1103305  1010000 
 1692000   0.73977916   -4.6471514   -4.6471514   -3.5374837   0.01219755   -4.6471514    1.1096676  1010000 
 1693000   0.74072374   -4.6490546   -4.6490546   -3.5379701 0.0074353722   -4.6490546    1.1110845  1010000 
 1694000   0.73975875   -4.6478876   -4.6478876   -3.5382506 0.0087147642   -4.6478876     1.109637  1010000 
 1695000   0.73951021   -4.6476539   -4.6476539   -3.5383896  0.012495648   -4.6476539    1.1092642  1010000 
 1696000   0.73966476   -4.6481171   -4.6481171    -3.538621   0.01168133   -4.6481171     1.109496  1010000 
 1697000   0.73961435   -4.6485846   -4.6485846   -3.5391642  0.016707812   -4.6485846    1.1094204  1010000 
 1698000   0.73989758   -4.6493687   -4.6493687   -3.5395235   0.01247438   -4.6493687    1.1098453  1010000 
 1699000   0.74005122   -4.6512095   -4.6512095   -3.5411338  0.011273695   -4.6512095    1.1100757  1010000 
 1700000   0.73928003   -4.6505798   -4.6505798   -3.5416609  0.013521369   -4.6505798    1.1089189  1010000 
 1701000   0.73967617   -4.6513908   -4.6513908   -3.5418776  0.010810655   -4.6513908    1.1095132  1010000 
 1702000    0.7388413   -4.6509116   -4.6509116   -3.5426508  0.012853503   -4.6509116    1.1082608  1010000 
 1703000   0.73906291   -4.6524102   -4.6524102    -3.543817 0.0091565937   -4.6524102    1.1085933  1010000 
 1704000   0.73835906    -4.650988    -4.650988   -3.5434505  0.014631261    -4.650988    1.1075375  1010000 
 1705000   0.73963186   -4.6532946   -4.6532946   -3.5438479  0.011602853   -4.6532946    1.1094467  1010000 
 1706000    0.7387903   -4.6528191   -4.6528191   -3.5446347  0.017362812   -4.6528191    1.1081844  1010000 
 1707000   0.73960687    -4.654357    -4.654357   -3.5449478  0.013231469    -4.654357    1.1094092  1010000 
 1708000   0.73876354   -4.6536014   -4.6536014   -3.5454572  0.013377589   -4.6536014    1.1081442  1010000 
 1709000   0.73891802   -4.6535593   -4.6535593   -3.5451834  0.017217993   -4.6535593    1.1083759  1010000 
 1710000    0.7385964   -4.6533088   -4.6533088   -3.5454153    0.0121968   -4.6533088    1.1078935  1010000 
 1711000    0.7379204   -4.6541529   -4.6541529   -3.5472734  0.011955315   -4.6541529    1.1068795  1010000 
 1712000   0.73857686   -4.6553308   -4.6553308   -3.5474666  0.013553488   -4.6553308    1.1078642  1010000 
 1713000    0.7388411   -4.6558344   -4.6558344   -3.5475738 0.0093483139   -4.6558344    1.1082606  1010000 
 1714000    0.7388801   -4.6565386   -4.6565386   -3.5482196 0.0092385393   -4.6565386     1.108319  1010000 
 1715000   0.73730982   -4.6547504   -4.6547504   -3.5487867  0.011418075   -4.6547504    1.1059636  1010000 
 1716000   0.73736672   -4.6547896   -4.6547896   -3.5487406  0.015158092   -4.6547896     1.106049  1010000 
 1717000   0.73836196   -4.6567426   -4.6567426   -3.5492008 0.0093182628   -4.6567426    1.1075418  1010000 
 1718000   0.73780837   -4.6562713   -4.6562713   -3.5495599  0.012279966   -4.6562713    1.1067115  1010000 
 1719000   0.73825638   -4.6576533   -4.6576533   -3.5502698 0.0085098316   -4.6576533    1.1073835  1010000 
 1720000   0.73819917   -4.6584611   -4.6584611   -3.5511634  0.011147873   -4.6584611    1.1072977  1010000 
 1721000   0.73834836   -4.6580299   -4.6580299   -3.5505084  0.012504001   -4.6580299    1.1075214  1010000 
 1722000   0.73767262   -4.6578114   -4.6578114   -3.5513036  0.012505375   -4.6578114    1.1065078  1010000 
 1723000   0.73781239   -4.6582122   -4.6582122   -3.5514947  0.014868263   -4.6582122    1.1067175  1010000 
 1724000   0.73761563   -4.6589133   -4.6589133    -3.552491  0.013037072   -4.6589133    1.1064223  1010000 
 1725000   0.73755597   -4.6591122   -4.6591122   -3.5527793  0.014306956   -4.6591122    1.1063329  1010000 
 1726000   0.73747465   -4.6595009   -4.6595009     -3.55329  0.015685435   -4.6595009    1.1062109  1010000 
 1727000   0.73795144   -4.6604253   -4.6604253   -3.5534992  0.014085854   -4.6604253    1.1069261  1010000 
 1728000   0.73793787   -4.6608418   -4.6608418   -3.5539361  0.010526765   -4.6608418    1.1069057  1010000 
 1729000   0.73749103   -4.6598847   -4.6598847   -3.5536493  0.017139326   -4.6598847    1.1062355  1010000 
 1730000   0.73747788   -4.6606422   -4.6606422   -3.5544265  0.014248219   -4.6606422    1.1062157  1010000 
 1731000   0.73861503   -4.6631631   -4.6631631   -3.5552417 0.0081542936   -4.6631631    1.1079214  1010000 
 1732000   0.73784905   -4.6621824   -4.6621824   -3.5554099  0.011257448   -4.6621824    1.1067725  1010000 
 1733000   0.73712226   -4.6611547   -4.6611547   -3.5554724  0.013988083   -4.6611547    1.1056823  1010000 
 1734000   0.73687089   -4.6613354   -4.6613354   -3.5560302   0.01229258   -4.6613354    1.1053052  1010000 
 1735000   0.73630353   -4.6611742   -4.6611742     -3.55672 0.0098999887   -4.6611742    1.1044542  1010000 
 1736000   0.73651012   -4.6621124   -4.6621124   -3.5573483 0.0087481942   -4.6621124    1.1047641  1010000 
 1737000   0.73709317   -4.6633962   -4.6633962   -3.5577576 0.0072921216   -4.6633962    1.1056387  1010000 
 1738000   0.73678948   -4.6629461   -4.6629461   -3.5577629 0.0081523207   -4.6629461    1.1051831  1010000 
 1739000    0.7360073   -4.6623082   -4.6623082   -3.5582983  0.013725913   -4.6623082    1.1040099  1010000 
 1740000   0.73641165   -4.6628705   -4.6628705   -3.5582542 0.0097481795   -4.6628705    1.1046164  1010000 
 1741000   0.73600208   -4.6629397   -4.6629397   -3.5589377  0.009383118   -4.6629397     1.104002  1010000 
 1742000   0.73684675   -4.6654607   -4.6654607   -3.5601916 0.0076066296   -4.6654607     1.105269  1010000 
 1743000   0.73638639   -4.6655124   -4.6655124   -3.5609339 0.0096500867   -4.6655124    1.1045785  1010000 
 1744000   0.73549403    -4.664083    -4.664083   -3.5608431  0.011900673    -4.664083      1.10324  1010000 
 1745000   0.73634663   -4.6655236   -4.6655236   -3.5610047  0.013062119   -4.6655236    1.1045188  1010000 
 1746000   0.73608086   -4.6664924   -4.6664924   -3.5623722  0.010840031   -4.6664924    1.1041202  1010000 
 1747000   0.73511553   -4.6655313   -4.6655313   -3.5628591  0.014351454   -4.6655313    1.1026722  1010000 
 1748000   0.73655171   -4.6676416   -4.6676416   -3.5628152  0.012267881   -4.6676416    1.1048265  1010000 
 1749000   0.73621956   -4.6670725   -4.6670725   -3.5627443  0.015509412   -4.6670725    1.1043282  1010000 
 1750000   0.73594408   -4.6680465   -4.6680465   -3.5641314  0.014618691   -4.6680465     1.103915  1010000 
 1751000    0.7354501   -4.6677388   -4.6677388   -3.5645648  0.016139644   -4.6677388    1.1031741  1010000 
 1752000   0.73626846   -4.6693374   -4.6693374   -3.5649358  0.015463848   -4.6693374    1.1044016  1010000 
 1753000   0.73613492   -4.6692627   -4.6692627   -3.5650614  0.016125609   -4.6692627    1.1042013  1010000 
 1754000   0.73519072   -4.6678788   -4.6678788   -3.5650938  0.016807195   -4.6678788     1.102785  1010000 
 1755000   0.73584731   -4.6693439   -4.6693439    -3.565574  0.014943022   -4.6693439    1.1037699  1010000 
 1756000    0.7356786   -4.6692815   -4.6692815   -3.5657647   0.01390339   -4.6692815    1.1035168  1010000 
 1757000   0.73515117   -4.6693821   -4.6693821   -3.5666564  0.014706375   -4.6693821    1.1027257  1010000 
 1758000   0.73589329   -4.6705793   -4.6705793   -3.5667404  0.012114561   -4.6705793    1.1038388  1010000 
 1759000   0.73400254   -4.6689536   -4.6689536   -3.5679508   0.01260299   -4.6689536    1.1010027  1010000 
 1760000   0.73446863   -4.6692395   -4.6692395   -3.5675376  0.009540772   -4.6692395    1.1017019  1010000 
 1761000   0.73482719   -4.6702458   -4.6702458   -3.5680062 0.0061928547   -4.6702458    1.1022397  1010000 
 1762000   0.73474142    -4.670691    -4.670691     -3.56858 0.0075226173    -4.670691     1.102111  1010000 
 1763000   0.73460573   -4.6704313   -4.6704313   -3.5685238 0.0097798758   -4.6704313    1.1019075  1010000 
 1764000   0.73318455    -4.668828    -4.668828   -3.5690523  0.011966716    -4.668828    1.0997757  1010000 
 1765000   0.73457294   -4.6713703   -4.6713703    -3.569512  0.004230438   -4.6713703    1.1018583  1010000 
 1766000   0.73423626      -4.6711      -4.6711   -3.5697468  0.011949733      -4.6711    1.1013533  1010000 
 1767000   0.73476924   -4.6725736   -4.6725736   -3.5704208  0.010869146   -4.6725736    1.1021528  1010000 
 1768000   0.73366916   -4.6709098   -4.6709098   -3.5704072  0.015725624   -4.6709098    1.1005027  1010000 
 1769000   0.73401532   -4.6718103   -4.6718103   -3.5707884   0.01064522   -4.6718103    1.1010219  1010000 
 1770000   0.73489403   -4.6729646   -4.6729646   -3.5706247   0.01124723   -4.6729646      1.10234  1010000 
 1771000   0.73521896   -4.6748249   -4.6748249   -3.5719976  0.014495141   -4.6748249    1.1028273  1010000 
 1772000   0.73420865   -4.6741345   -4.6741345   -3.5728226  0.014941627   -4.6741345    1.1013119  1010000 
 1773000   0.73542859   -4.6756581   -4.6756581   -3.5725163  0.016183418   -4.6756581    1.1031418  1010000 
 1774000    0.7340506   -4.6743679   -4.6743679   -3.5732931  0.018020716   -4.6743679    1.1010748  1010000 
 1775000   0.73404371    -4.674472    -4.674472   -3.5734075  0.016036527    -4.674472    1.1010645  1010000 
 1776000   0.73468743   -4.6759592   -4.6759592   -3.5739291  0.013086755   -4.6759592    1.1020301  1010000 
 1777000   0.73358876   -4.6755021   -4.6755021   -3.5751201  0.013365992   -4.6755021     1.100382  1010000 
 1778000   0.73394321   -4.6757949   -4.6757949   -3.5748812  0.013346519   -4.6757949    1.1009137  1010000 
 1779000   0.73368105   -4.6767067   -4.6767067   -3.5761862  0.013131275   -4.6767067    1.1005205  1010000 
 1780000   0.73348517   -4.6760475   -4.6760475   -3.5758209  0.012695366   -4.6760475    1.1002267  1010000 
 1781000   0.73343527   -4.6759661   -4.6759661   -3.5758143  0.011777427   -4.6759661    1.1001518  1010000 
 1782000   0.73364538   -4.6768489   -4.6768489   -3.5763819  0.011279864   -4.6768489     1.100467  1010000 
 1783000   0.73338367   -4.6773324   -4.6773324    -3.577258  0.011071872   -4.6773324    1.1000744  1010000 
 1784000   0.73285208   -4.6768038   -4.6768038   -3.5775267 0.0091137015   -4.6768038     1.099277  1010000 
 1785000   0.73306398    -4.677949    -4.677949   -3.5783541 0.0084471241    -4.677949    1.0995949  1010000 
 1786000   0.73279741    -4.677689    -4.677689   -3.5784939  0.010508515    -4.677689     1.099195  1010000 
 1787000   0.73254719   -4.6777767   -4.6777767    -3.578957 0.0089912494   -4.6777767    1.0988197  1010000 
 1788000   0.73385665   -4.6801597   -4.6801597   -3.5793759  0.008353131   -4.6801597    1.1007839  1010000 
 1789000   0.73326382    -4.679214    -4.679214   -3.5793194  0.011837175    -4.679214    1.0998946  1010000 
 1790000   0.73294695   -4.6790767   -4.6790767   -3.5796573  0.014447593   -4.6790767    1.0994193  1010000 
 1791000    0.7323499   -4.6786492   -4.6786492   -3.5801254  0.016721602   -4.6786492    1.0985238  1010000 
 1792000   0.73246729   -4.6804064   -4.6804064   -3.5817066  0.011615892   -4.6804064    1.0986998  1010000 
 1793000   0.73277827   -4.6804293   -4.6804293    -3.581263  0.012729311   -4.6804293    1.0991663  1010000 
 1794000   0.73254287   -4.6809317   -4.6809317   -3.5821185  0.011455899   -4.6809317    1.0988132  1010000 
 1795000   0.73258728   -4.6810235   -4.6810235   -3.5821437  0.011802887   -4.6810235    1.0988798  1010000 
 1796000   0.73225963   -4.6810004   -4.6810004   -3.5826121  0.017016874   -4.6810004    1.0983884  1010000 
 1797000   0.73306728    -4.682466    -4.682466   -3.5828662  0.014585953    -4.682466    1.0995998  1010000 
 1798000   0.73291581     -4.68223     -4.68223   -3.5828574   0.01575094     -4.68223    1.0993726  1010000 
 1799000   0.73295229   -4.6827616   -4.6827616   -3.5833343  0.013078445   -4.6827616    1.0994273  1010000 
 1800000   0.73173838   -4.6822021   -4.6822021   -3.5845956 0.0090641439   -4.6822021    1.0976065  1010000 
 1801000   0.73164621   -4.6823759   -4.6823759   -3.5849077  0.010724512   -4.6823759    1.0974682  1010000 
 1802000   0.73146141   -4.6822387   -4.6822387   -3.5850477  0.011888676   -4.6822387     1.097191  1010000 
 1803000   0.73166063   -4.6835191   -4.6835191   -3.5860293 0.0097628767   -4.6835191    1.0974899  1010000 
 1804000    0.7312794   -4.6834331   -4.6834331   -3.5865151  0.009910636   -4.6834331     1.096918  1010000 
 1805000   0.73207021   -4.6847308   -4.6847308   -3.5866265 0.0083005029   -4.6847308    1.0981042  1010000 
 1806000   0.73152219   -4.6837259   -4.6837259   -3.5864437  0.012746172   -4.6837259    1.0972822  1010000 
 1807000   0.73112333   -4.6841723   -4.6841723   -3.5874884  0.010670618   -4.6841723    1.0966839  1010000 
 1808000   0.73117138   -4.6854418   -4.6854418   -3.5886858  0.007015133   -4.6854418     1.096756  1010000 
 1809000   0.73024386   -4.6843406   -4.6843406   -3.5889759   0.01137956   -4.6843406    1.0953647  1010000 
 1810000   0.73133459   -4.6862163   -4.6862163   -3.5892155  0.011362979   -4.6862163    1.0970008  1010000 
 1811000   0.73107585   -4.6867894   -4.6867894   -3.5901767  0.012953292   -4.6867894    1.0966127  1010000 
 1812000   0.73121575   -4.6873894   -4.6873894   -3.5905668  0.010339064   -4.6873894    1.0968225  1010000 
 1813000   0.73108004   -4.6876475   -4.6876475   -3.5910285  0.013927631   -4.6876475     1.096619  1010000 
 1814000   0.73187861   -4.6892655   -4.6892655   -3.5914486  0.014237756   -4.6892655    1.0978168  1010000 
 1815000   0.73212499   -4.6900107   -4.6900107   -3.5918243  0.010262058   -4.6900107    1.0981864  1010000 
 1816000   0.73043269   -4.6881711   -4.6881711   -3.5925231  0.017022122   -4.6881711    1.0956479  1010000 
 1817000    0.7310013   -4.6893719   -4.6893719   -3.5928711  0.015133452   -4.6893719    1.0965009  1010000 
 1818000   0.73093671   -4.6893241   -4.6893241   -3.5929201  0.017989235   -4.6893241     1.096404  1010000 
 1819000   0.73089644   -4.6901138   -4.6901138   -3.5937702   0.01374563   -4.6901138    1.0963436  1010000 
 1820000   0.73051414   -4.6901887   -4.6901887   -3.5944186  0.012233386   -4.6901887    1.0957701  1010000 
 1821000   0.73112595   -4.6912692   -4.6912692   -3.5945814 0.0067939606   -4.6912692    1.0966878  1010000 
 1822000   0.73021616   -4.6900775   -4.6900775   -3.5947543  0.012210791   -4.6900775    1.0953232  1010000 
 1823000   0.72987215   -4.6904241   -4.6904241    -3.595617  0.010399006   -4.6904241    1.0948071  1010000 
 1824000   0.72913355   -4.6897129   -4.6897129   -3.5960137  0.012744903   -4.6897129    1.0936992  1010000 
 1825000   0.72962737   -4.6905435   -4.6905435   -3.5961035  0.011095863   -4.6905435      1.09444  1010000 
 1826000   0.72999403   -4.6915266   -4.6915266   -3.5965366 0.0074837198   -4.6915266      1.09499  1010000 
 1827000   0.73004411   -4.6922633   -4.6922633   -3.5971982 0.0074075303   -4.6922633    1.0950651  1010000 
 1828000   0.72975438   -4.6921656   -4.6921656   -3.5975351 0.0086857931   -4.6921656    1.0946305  1010000 
 1829000    0.7295518    -4.692609    -4.692609   -3.5982823 0.0082416088    -4.692609    1.0943266  1010000 
 1830000   0.72907138    -4.692507    -4.692507    -3.598901 0.0075580943    -4.692507     1.093606  1010000 
 1831000   0.72951945   -4.6930575   -4.6930575   -3.5987794   0.01098952   -4.6930575    1.0942781  1010000 
 1832000   0.73009004   -4.6945293   -4.6945293   -3.5993953 0.0092244352   -4.6945293     1.095134  1010000 
 1833000   0.73015165   -4.6946891   -4.6946891   -3.5994627  0.013865947   -4.6946891    1.0952264  1010000 
 1834000   0.73020955   -4.6952767   -4.6952767   -3.5999634  0.015215106   -4.6952767    1.0953132  1010000 
 1835000   0.73119008    -4.697194    -4.697194     -3.60041  0.011387436    -4.697194     1.096784  1010000 
 1836000   0.73023116   -4.6963966   -4.6963966   -3.6010509  0.014561412   -4.6963966    1.0953457  1010000 
 1837000   0.72992827   -4.6965624   -4.6965624   -3.6016711  0.011663114   -4.6965624    1.0948913  1010000 
 1838000    0.7291698   -4.6963666   -4.6963666    -3.602613  0.012274644   -4.6963666    1.0937536  1010000 
 1839000   0.72922734   -4.6972302   -4.6972302   -3.6033903  0.011107249   -4.6972302    1.0938399  1010000 
 1840000   0.72897047   -4.6970068   -4.6970068   -3.6035522  0.011688503   -4.6970068    1.0934546  1010000 
 1841000   0.72906242   -4.6982339   -4.6982339   -3.6046413 0.0075628542   -4.6982339    1.0935925  1010000 
 1842000   0.72923658   -4.6980554   -4.6980554   -3.6042016  0.012270848   -4.6980554    1.0938538  1010000 
 1843000   0.72917574   -4.6981436   -4.6981436   -3.6043811  0.010727547   -4.6981436    1.0937625  1010000 
 1844000   0.72884117   -4.6975997   -4.6975997    -3.604339  0.013533488   -4.6975997    1.0932607  1010000 
 1845000   0.72958309   -4.6996093   -4.6996093   -3.6052357 0.0084087174   -4.6996093    1.0943736  1010000 
 1846000   0.72787329   -4.6980831   -4.6980831   -3.6062742 0.0098521309   -4.6980831    1.0918089  1010000 
 1847000   0.72873129   -4.6991105   -4.6991105   -3.6060146  0.009701573   -4.6991105    1.0930959  1010000 
 1848000   0.72891627   -4.6995618   -4.6995618   -3.6061884   0.01156358   -4.6995618    1.0933733  1010000 
 1849000   0.72847083   -4.6991823   -4.6991823   -3.6064771  0.012142203   -4.6991823    1.0927052  1010000 
 1850000   0.72874236   -4.6993942   -4.6993942   -3.6062818 0.0095562559   -4.6993942    1.0931125  1010000 
 1851000   0.72840785   -4.6986406   -4.6986406   -3.6060299  0.016172991   -4.6986406    1.0926107  1010000 
 1852000   0.72859084   -4.6992413   -4.6992413   -3.6063561  0.011363011   -4.6992413    1.0928852  1010000 
 1853000   0.72845391   -4.6999123   -4.6999123   -3.6072325  0.010726672   -4.6999123    1.0926798  1010000 
 1854000   0.72803586   -4.6996936   -4.6996936   -3.6076409 0.0085356972   -4.6996936    1.0920527  1010000 
 1855000   0.72809379   -4.7008472   -4.7008472   -3.6087075  0.010079227   -4.7008472    1.0921396  1010000 
 1856000   0.72780974   -4.7010003   -4.7010003   -3.6092867 0.0071529283   -4.7010003    1.0917135  1010000 
 1857000   0.72766677   -4.7012331   -4.7012331    -3.609734 0.0062547565   -4.7012331    1.0914991  1010000 
 1858000    0.7267596   -4.7008297   -4.7008297   -3.6106914  0.011169328   -4.7008297    1.0901383  1010000 
 1859000   0.72755594   -4.7016503   -4.7016503   -3.6103175  0.010707763   -4.7016503    1.0913328  1010000 
 1860000   0.72764453   -4.7016116   -4.7016116   -3.6101459 0.0084447298   -4.7016116    1.0914657  1010000 
 1861000   0.72852984   -4.7036174   -4.7036174   -3.6108237  0.010203137   -4.7036174    1.0927937  1010000 
 1862000   0.72841931   -4.7037301   -4.7037301   -3.6111022 0.0085880978   -4.7037301    1.0926279  1010000 
 1863000   0.72809391   -4.7041128   -4.7041128    -3.611973  0.011085547   -4.7041128    1.0921398  1010000 
 1864000   0.72721007   -4.7031238   -4.7031238   -3.6123098  0.011181388   -4.7031238     1.090814  1010000 
 1865000    0.7270374   -4.7034186   -4.7034186   -3.6128636  0.013940277   -4.7034186     1.090555  1010000 
 1866000   0.72832881   -4.7054865   -4.7054865   -3.6129944 0.0098738061   -4.7054865    1.0924921  1010000 
 1867000   0.72752182   -4.7047643   -4.7047643   -3.6134827  0.012633616   -4.7047643    1.0912817  1010000 
 1868000   0.72817359   -4.7061164   -4.7061164   -3.6138571  0.012624292   -4.7061164    1.0922593  1010000 
 1869000   0.72750439   -4.7062677   -4.7062677   -3.6150122  0.014194228   -4.7062677    1.0912555  1010000 
 1870000     0.726634   -4.7053746   -4.7053746   -3.6154247   0.01191136   -4.7053746    1.0899499  1010000 
 1871000   0.72712468    -4.706421    -4.706421   -3.6157351  0.011039713    -4.706421    1.0906859  1010000 
 1872000   0.72671596   -4.7066267   -4.7066267   -3.6165539  0.010996656   -4.7066267    1.0900729  1010000 
 1873000   0.72698836   -4.7072837   -4.7072837   -3.6168022   0.01128092   -4.7072837    1.0904815  1010000 
 1874000   0.72633563   -4.7072796   -4.7072796   -3.6177773    0.0112925   -4.7072796    1.0895024  1010000 
 1875000   0.72636637   -4.7074129   -4.7074129   -3.6178644  0.010520327   -4.7074129    1.0895485  1010000 
 1876000   0.72628885    -4.707595    -4.707595   -3.6181628  0.010629942    -4.707595    1.0894322  1010000 
 1877000   0.72569534   -4.7074642   -4.7074642   -3.6189222   0.01206189   -4.7074642    1.0885419  1010000 
 1878000   0.72697263   -4.7099575   -4.7099575   -3.6194997 0.0076662433   -4.7099575    1.0904579  1010000 
 1879000   0.72629117   -4.7097039   -4.7097039   -3.6202682  0.009151884   -4.7097039    1.0894357  1010000 
 1880000   0.72576455   -4.7095575   -4.7095575   -3.6209118  0.010683075   -4.7095575    1.0886457  1010000 
 1881000   0.72568188   -4.7097042   -4.7097042   -3.6211824  0.012928854   -4.7097042    1.0885217  1010000 
 1882000   0.72619607   -4.7103009   -4.7103009   -3.6210079  0.013045585   -4.7103009     1.089293  1010000 
 1883000   0.72666785   -4.7114575   -4.7114575   -3.6214568  0.010634994   -4.7114575    1.0900007  1010000 
 1884000   0.72595989     -4.71116     -4.71116   -3.6222213 0.0093721409     -4.71116    1.0889387  1010000 
 1885000   0.72604395    -4.710794    -4.710794   -3.6217291  0.012194463    -4.710794    1.0890648  1010000 
 1886000   0.72565144   -4.7111779   -4.7111779   -3.6227018  0.014019018   -4.7111779    1.0884761  1010000 
 1887000   0.72557024   -4.7114509   -4.7114509   -3.6230966  0.011756266   -4.7114509    1.0883543  1010000 
 1888000   0.72634762   -4.7128531   -4.7128531   -3.6233327   0.01140206   -4.7128531    1.0895203  1010000 
 1889000   0.72624671   -4.7128921   -4.7128921   -3.6235231  0.014212934   -4.7128921     1.089369  1010000 
 1890000   0.72583805   -4.7130448   -4.7130448   -3.6242888  0.010030113   -4.7130448     1.088756  1010000 
 1891000   0.72573409   -4.7129429   -4.7129429   -3.6243428 0.0090883383   -4.7129429    1.0886001  1010000 
 1892000   0.72525829   -4.7123628   -4.7123628   -3.6244764  0.010240629   -4.7123628    1.0878864  1010000 
 1893000   0.72555571   -4.7135926   -4.7135926   -3.6252601  0.012108259   -4.7135926    1.0883325  1010000 
 1894000   0.72530934   -4.7134496   -4.7134496   -3.6254867 0.0086898709   -4.7134496    1.0879629  1010000 
 1895000   0.72434642   -4.7128294   -4.7128294   -3.6263109  0.013110691   -4.7128294    1.0865185  1010000 
 1896000   0.72462312   -4.7134248   -4.7134248   -3.6264912  0.010512505   -4.7134248    1.0869336  1010000 
 1897000   0.72501881   -4.7144465   -4.7144465   -3.6269193 0.0049037062   -4.7144465    1.0875271  1010000 
 1898000   0.72469281   -4.7141017   -4.7141017   -3.6270635  0.006799378   -4.7141017    1.0870381  1010000 
 1899000   0.72402415   -4.7140526   -4.7140526   -3.6280174 0.0073274058   -4.7140526    1.0860352  1010000 
 1900000   0.72483605   -4.7154031   -4.7154031   -3.6281501 0.0073941336   -4.7154031     1.087253  1010000 
 1901000   0.72415312    -4.714851    -4.714851   -3.6286224  0.010267922    -4.714851    1.0862286  1010000 
 1902000   0.72492647   -4.7153307   -4.7153307   -3.6279421  0.010368973   -4.7153307    1.0873886  1010000 
 1903000   0.72426143   -4.7157274   -4.7157274   -3.6293363  0.010549186   -4.7157274    1.0863911  1010000 
 1904000   0.72513719   -4.7168333   -4.7168333   -3.6291286  0.012518271   -4.7168333    1.0877047  1010000 
 1905000   0.72485995   -4.7167056   -4.7167056   -3.6294168  0.014196762   -4.7167056    1.0872888  1010000 
 1906000   0.72537081   -4.7179209   -4.7179209   -3.6298658  0.011893663   -4.7179209    1.0880551  1010000 
 1907000   0.72464995   -4.7175894   -4.7175894   -3.6306155  0.014498436   -4.7175894    1.0869738  1010000 
 1908000    0.7242812   -4.7177614   -4.7177614   -3.6313407  0.012776744   -4.7177614    1.0864207  1010000 
 1909000   0.72439594    -4.719396    -4.719396   -3.6328032   0.01239583    -4.719396    1.0865928  1010000 
 1910000   0.72380674    -4.718321    -4.718321    -3.632612  0.010329364    -4.718321     1.085709  1010000 
 1911000   0.72369724   -4.7188356   -4.7188356   -3.6332909 0.0093782586   -4.7188356    1.0855448  1010000 
 1912000   0.72389983   -4.7195336   -4.7195336   -3.6336849 0.0080342306   -4.7195336    1.0858487  1010000 
 1913000   0.72361525   -4.7195069   -4.7195069   -3.6340851 0.0091637513   -4.7195069    1.0854218  1010000 
 1914000   0.72373163   -4.7206571   -4.7206571   -3.6350608  0.009821811   -4.7206571    1.0855964  1010000 
 1915000   0.72290089   -4.7195775   -4.7195775   -3.6352272  0.011764499   -4.7195775    1.0843503  1010000 
 1916000   0.72316673   -4.7205713   -4.7205713   -3.6358223  0.010992905   -4.7205713     1.084749  1010000 
 1917000   0.72373248   -4.7213553   -4.7213553   -3.6357576  0.010151119   -4.7213553    1.0855976  1010000 
 1918000    0.7236455   -4.7216471   -4.7216471   -3.6361799 0.0083971273   -4.7216471    1.0854672  1010000 
 1919000    0.7235152   -4.7230298   -4.7230298    -3.637758 0.0071691099   -4.7230298    1.0852717  1010000 
 1920000   0.72245122   -4.7216469   -4.7216469   -3.6379712  0.011280395   -4.7216469    1.0836758  1010000 
 1921000   0.72294006     -4.72189     -4.72189    -3.637481 0.0083332958     -4.72189     1.084409  1010000 
 1922000   0.72332094   -4.7228093   -4.7228093   -3.6378289  0.012777365   -4.7228093    1.0849803  1010000 
 1923000   0.72407073   -4.7240535   -4.7240535   -3.6379485  0.010179078   -4.7240535     1.086105  1010000 
 1924000   0.72402792   -4.7240055   -4.7240055   -3.6379647  0.013558256   -4.7240055    1.0860408  1010000 
 1925000   0.72443195   -4.7246089   -4.7246089   -3.6379621  0.012599771   -4.7246089    1.0866468  1010000 
 1926000   0.72341643   -4.7236715   -4.7236715   -3.6385479  0.015313808   -4.7236715    1.0851236  1010000 
 1927000   0.72326664   -4.7243646   -4.7243646   -3.6394657   0.01392545   -4.7243646    1.0848989  1010000 
 1928000   0.72315176   -4.7245113   -4.7245113   -3.6397848  0.013590715   -4.7245113    1.0847266  1010000 
 1929000   0.72297955   -4.7248515   -4.7248515   -3.6403833 0.0077572023   -4.7248515    1.0844683  1010000 
 1930000   0.72252859   -4.7246636   -4.7246636   -3.6408717 0.0090249973   -4.7246636    1.0837918  1010000 
 1931000   0.72220108   -4.7249607   -4.7249607   -3.6416602 0.0088366671   -4.7249607    1.0833005  1010000 
 1932000   0.72192259   -4.7245833   -4.7245833   -3.6417005  0.010267832   -4.7245833    1.0828828  1010000 
 1933000   0.72255849   -4.7261171   -4.7261171   -3.6422805  0.010514417   -4.7261171    1.0838367  1010000 
 1934000   0.72205644   -4.7256836   -4.7256836      -3.6426  0.011479958   -4.7256836    1.0830836  1010000 
 1935000   0.72225515   -4.7265285   -4.7265285   -3.6431468  0.006948645   -4.7265285    1.0833816  1010000 
 1936000   0.72191825   -4.7264612   -4.7264612   -3.6435849 0.0085640043   -4.7264612    1.0828763  1010000 
 1937000   0.72192093   -4.7272306   -4.7272306   -3.6443503  0.007182065   -4.7272306    1.0828803  1010000 
 1938000   0.72217613   -4.7278751   -4.7278751    -3.644612 0.0059733106   -4.7278751    1.0832631  1010000 
 1939000   0.72214426   -4.7285809   -4.7285809   -3.6453656  0.011102192   -4.7285809    1.0832153  1010000 
 1940000   0.72148434   -4.7277365   -4.7277365    -3.645511  0.013033487   -4.7277365    1.0822254  1010000 
 1941000   0.72203417   -4.7288251   -4.7288251   -3.6457749  0.014693083   -4.7288251    1.0830502  1010000 
 1942000   0.72202525   -4.7294383   -4.7294383   -3.6464015  0.013914177   -4.7294383    1.0830368  1010000 
 1943000   0.72198977   -4.7297277   -4.7297277   -3.6467441  0.013080782   -4.7297277    1.0829836  1010000 
 1944000   0.72134554    -4.729675    -4.729675   -3.6476578  0.012309423    -4.729675    1.0820172  1010000 
 1945000   0.72161408   -4.7307766   -4.7307766   -3.6483566  0.010761739   -4.7307766      1.08242  1010000 
 1946000   0.72125166   -4.7306157   -4.7306157   -3.6487393  0.011838992   -4.7306157    1.0818764  1010000 
 1947000   0.72195553   -4.7322316   -4.7322316   -3.6492993 0.0098002512   -4.7322316    1.0829322  1010000 
 1948000    0.7209325   -4.7309303   -4.7309303   -3.6495326  0.012040079   -4.7309303    1.0813977  1010000 
 1949000   0.72016992   -4.7307425   -4.7307425   -3.6504887  0.012839157   -4.7307425    1.0802538  1010000 
 1950000   0.72089214   -4.7320293   -4.7320293   -3.6506921 0.0085693008   -4.7320293    1.0813371  1010000 
 1951000   0.72092637   -4.7328137   -4.7328137   -3.6514252 0.0095005193   -4.7328137    1.0813885  1010000 
 1952000   0.72132996   -4.7339966   -4.7339966   -3.6520028 0.0058751053   -4.7339966    1.0819939  1010000 
 1953000   0.72041158   -4.7329432   -4.7329432   -3.6523269   0.01091011   -4.7329432    1.0806163  1010000 
 1954000   0.72000238   -4.7325844   -4.7325844   -3.6525819 0.0077162166   -4.7325844    1.0800025  1010000 
 1955000   0.72047311   -4.7334481   -4.7334481   -3.6527395  0.010774992   -4.7334481    1.0807086  1010000 
 1956000   0.72037943   -4.7338236   -4.7338236   -3.6532555  0.010568937   -4.7338236    1.0805681  1010000 
 1957000   0.72055323   -4.7342449   -4.7342449   -3.6534161   0.01059977   -4.7342449    1.0808288  1010000 
 1958000   0.72024222   -4.7338064   -4.7338064   -3.6534441 0.0095411717   -4.7338064    1.0803623  1010000 
 1959000   0.71991669   -4.7342058   -4.7342058   -3.6543319  0.012751423   -4.7342058     1.079874  1010000 
 1960000   0.72008827   -4.7356585   -4.7356585   -3.6555272  0.010844777   -4.7356585    1.0801313  1010000 
 1961000   0.71968326   -4.7352656   -4.7352656   -3.6557418  0.011507874   -4.7352656    1.0795238  1010000 
 1962000   0.71993252   -4.7357529   -4.7357529   -3.6558552  0.013598065   -4.7357529    1.0798977  1010000 
 1963000   0.72073127   -4.7371352   -4.7371352   -3.6560394 0.0095969112   -4.7371352    1.0810958  1010000 
 1964000    0.7196695   -4.7363947   -4.7363947   -3.6568915  0.013294437   -4.7363947    1.0795032  1010000 
 1965000   0.72025663   -4.7381491   -4.7381491   -3.6577653 0.0091684177   -4.7381491    1.0803839  1010000 
 1966000   0.71991625   -4.7381979   -4.7381979   -3.6583246  0.012365635   -4.7381979    1.0798733  1010000 
 1967000   0.71918334    -4.737161    -4.737161    -3.658387   0.01114303    -4.737161    1.0787739  1010000 
 1968000   0.71955151   -4.7378373   -4.7378373   -3.6585111 0.0084866297   -4.7378373    1.0793262  1010000 
 1969000   0.71968763   -4.7387814   -4.7387814    -3.659251 0.0079908461   -4.7387814    1.0795304  1010000 
 1970000   0.71886706   -4.7382987   -4.7382987   -3.6599992  0.012172351   -4.7382987    1.0782995  1010000 
 1971000    0.7193449   -4.7388148   -4.7388148   -3.6597985  0.011422856   -4.7388148    1.0790163  1010000 
 1972000   0.71912325   -4.7395847   -4.7395847   -3.6609009 0.0097819896   -4.7395847    1.0786838  1010000 
 1973000   0.71897881    -4.739698    -4.739698   -3.6612309 0.0096370024    -4.739698    1.0784672  1010000 
 1974000    0.7184345   -4.7394074   -4.7394074   -3.6617568  0.010994307   -4.7394074    1.0776507  1010000 
 1975000   0.71886562   -4.7407122   -4.7407122   -3.6624148  0.010091662   -4.7407122    1.0782974  1010000 
 1976000   0.71940776   -4.7417719   -4.7417719   -3.6626614 0.0091670318   -4.7417719    1.0791106  1010000 
 1977000   0.71916393   -4.7415246   -4.7415246   -3.6627798 0.0087616358   -4.7415246    1.0787448  1010000 
 1978000   0.71873934   -4.7409941   -4.7409941   -3.6628862  0.012171342   -4.7409941    1.0781079  1010000 
 1979000   0.71903883   -4.7424455   -4.7424455   -3.6638883  0.010880647   -4.7424455    1.0785572  1010000 
 1980000    0.7185852    -4.742715    -4.742715   -3.6648382  0.014743791    -4.742715    1.0778767  1010000 
 1981000   0.71861949   -4.7431338   -4.7431338   -3.6652057  0.012253024   -4.7431338    1.0779282  1010000 
 1982000   0.71869597   -4.7439569   -4.7439569    -3.665914 0.0094853099   -4.7439569    1.0780429  1010000 
 1983000   0.71817076    -4.743686    -4.743686   -3.6664309  0.011431991    -4.743686    1.0772551  1010000 
 1984000   0.71824981   -4.7443444   -4.7443444   -3.6669708    0.0115374   -4.7443444    1.0773737  1010000 
 1985000   0.71878956   -4.7451407   -4.7451407   -3.6669574  0.007845923   -4.7451407    1.0781833  1010000 
 1986000   0.71856709   -4.7454232   -4.7454232   -3.6675736  0.011246053   -4.7454232    1.0778496  1010000 
 1987000    0.7178968   -4.7453317   -4.7453317   -3.6684876  0.012410815   -4.7453317    1.0768441  1010000 
 1988000   0.71890794   -4.7463489   -4.7463489   -3.6679881   0.01198074   -4.7463489    1.0783608  1010000 
 1989000   0.71895901    -4.747329    -4.747329   -3.6688915 0.0097253207    -4.747329    1.0784375  1010000 
 1990000   0.71829541   -4.7471179   -4.7471179   -3.6696759 0.0092782917   -4.7471179    1.0774421  1010000 
 1991000   0.71773508   -4.7463033   -4.7463033   -3.6697018 0.0081070365   -4.7463033    1.0766016  1010000 
 1992000     0.717624   -4.7472748   -4.7472748   -3.6708399 0.0074260684   -4.7472748    1.0764349  1010000 
 1993000   0.71748967   -4.7470245   -4.7470245   -3.6707911 0.0093303251   -4.7470245    1.0762334  1010000 
 1994000   0.71703678   -4.7471938   -4.7471938   -3.6716397  0.011796365   -4.7471938    1.0755541  1010000 
 1995000   0.71771115   -4.7480841   -4.7480841   -3.6715185 0.0085394239   -4.7480841    1.0765657  1010000 
 1996000   0.71769779   -4.7480074   -4.7480074   -3.6714618  0.011031333   -4.7480074    1.0765456  1010000 
 1997000   0.71750602   -4.7473981   -4.7473981   -3.6711401  0.012719391   -4.7473981     1.076258  1010000 
 1998000   0.71726187    -4.747906    -4.747906   -3.6720143  0.013432364    -4.747906    1.0758917  1010000 
 1999000   0.71745589   -4.7485587   -4.7485587   -3.6723759 0.0080522963   -4.7485587    1.0761828  1010000 
 2000000    0.7174838   -4.7489817   -4.7489817   -3.6727571 0.0092845743   -4.7489817    1.0762246  1010000 
 2001000   0.71688266   -4.7491956   -4.7491956   -3.6738727 0.0098336308   -4.7491956    1.0753229  1010000 
 2002000   0.71713493   -4.7505014   -4.7505014   -3.6748001 0.0075078789   -4.7505014    1.0757013  1010000 
 2003000   0.71740873    -4.750823    -4.750823    -3.674711 0.0026245569    -4.750823     1.076112  1010000 
 2004000   0.71549988   -4.7491889   -4.7491889   -3.6759402 0.0088715348   -4.7491889    1.0732488  1010000 
 2005000    0.7170378   -4.7516205   -4.7516205   -3.6760649 0.0034299651   -4.7516205    1.0755556  1010000 
 2006000   0.71605443    -4.750352    -4.750352   -3.6762714 0.0095951751    -4.750352    1.0740806  1010000 
 2007000   0.71698089   -4.7517275   -4.7517275   -3.6762572 0.0069163745   -4.7517275    1.0754703  1010000 
 2008000   0.71715738   -4.7526493   -4.7526493   -3.6769143 0.0068668045   -4.7526493     1.075735  1010000 
 2009000   0.71669627   -4.7524515   -4.7524515   -3.6774081 0.0099229888   -4.7524515    1.0750433  1010000 
 2010000   0.71717777   -4.7533884   -4.7533884   -3.6776228  0.011482874   -4.7533884    1.0757656  1010000 
 2011000    0.7165888   -4.7527886   -4.7527886   -3.6779065  0.013204528   -4.7527886    1.0748821  1010000 
 2012000   0.71715718    -4.754058    -4.754058   -3.6783233  0.012622967    -4.754058    1.0757347  1010000 
 2013000   0.71668317   -4.7540252   -4.7540252   -3.6790015  0.012811345   -4.7540252    1.0750237  1010000 
 2014000   0.71674161   -4.7547668   -4.7547668   -3.6796554  0.012296794   -4.7547668    1.0751114  1010000 
 2015000   0.71567219   -4.7533149   -4.7533149   -3.6798077  0.015545586   -4.7533149    1.0735072  1010000 
 2016000   0.71637823   -4.7555064   -4.7555064   -3.6809401  0.011393569   -4.7555064    1.0745663  1010000 
 2017000   0.71649658   -4.7556427   -4.7556427   -3.6808989 0.0084384234   -4.7556427    1.0747438  1010000 
 2018000   0.71622287   -4.7557269   -4.7557269   -3.6813937 0.0096376243   -4.7557269    1.0743332  1010000 
 2019000   0.71577683   -4.7555483   -4.7555483   -3.6818842 0.0081315317   -4.7555483    1.0736642  1010000 
 2020000   0.71559285   -4.7564666   -4.7564666   -3.6830784 0.0062459288   -4.7564666    1.0733882  1010000 
 2021000   0.71514197   -4.7554326   -4.7554326   -3.6827207 0.0078872269   -4.7554326    1.0727119  1010000 
 2022000    0.7152864   -4.7560525   -4.7560525    -3.683124 0.0087406552   -4.7560525    1.0729285  1010000 
 2023000   0.71532555   -4.7564685   -4.7564685   -3.6834813 0.0075091815   -4.7564685    1.0729873  1010000 
 2024000    0.7155089     -4.75721     -4.75721   -3.6839478 0.0056173815     -4.75721    1.0732623  1010000 
 2025000   0.71516754   -4.7571931   -4.7571931   -3.6844428 0.0081904383   -4.7571931    1.0727502  1010000 
 2026000   0.71577382   -4.7580534   -4.7580534   -3.6843938 0.0092586345   -4.7580534    1.0736597  1010000 
 2027000   0.71500637   -4.7571976   -4.7571976   -3.6846891 0.0081995328   -4.7571976    1.0725085  1010000 
 2028000   0.71555692   -4.7590611   -4.7590611   -3.6857268 0.0084498334   -4.7590611    1.0733343  1010000 
 2029000    0.7151362   -4.7588658   -4.7588658   -3.6861626  0.010357779   -4.7588658    1.0727032  1010000 
 2030000   0.71548248   -4.7593595   -4.7593595   -3.6861369  0.011493404   -4.7593595    1.0732227  1010000 
 2031000   0.71460833   -4.7593295   -4.7593295   -3.6874181 0.0072125883   -4.7593295    1.0719114  1010000 
 2032000   0.71466557   -4.7600136   -4.7600136   -3.6880163 0.0093187782   -4.7600136    1.0719973  1010000 
 2033000   0.71480187   -4.7604914   -4.7604914   -3.6882896 0.0099263053   -4.7604914    1.0722017  1010000 
 2034000   0.71526922   -4.7614431   -4.7614431   -3.6885403  0.010431854   -4.7614431    1.0729028  1010000 
 2035000   0.71465477   -4.7609428   -4.7609428   -3.6889618  0.012943701   -4.7609428    1.0719811  1010000 
 2036000   0.71513721   -4.7620294   -4.7620294   -3.6893246 0.0095186377   -4.7620294    1.0727048  1010000 
 2037000   0.71470564    -4.761845    -4.761845   -3.6897876  0.010374815    -4.761845    1.0720574  1010000 
 2038000   0.71468575   -4.7624163   -4.7624163   -3.6903888    0.0129538   -4.7624163    1.0720276  1010000 
 2039000   0.71398742   -4.7616716   -4.7616716   -3.6906916  0.010673338   -4.7616716    1.0709801  1010000 
 2040000   0.71457106   -4.7628035   -4.7628035    -3.690948  0.008775016   -4.7628035    1.0718555  1010000 
 2041000   0.71427389   -4.7628899   -4.7628899   -3.6914802 0.0083694312   -4.7628899    1.0714098  1010000 
 2042000   0.71468074   -4.7637147   -4.7637147   -3.6916946  0.010842566   -4.7637147      1.07202  1010000 
 2043000   0.71412058   -4.7637842   -4.7637842   -3.6926043 0.0083640679   -4.7637842    1.0711798  1010000 
 2044000   0.71344477    -4.762647    -4.762647   -3.6924809  0.013487547    -4.762647    1.0701661  1010000 
 2045000   0.71369941   -4.7635785   -4.7635785   -3.6930305 0.0090045287   -4.7635785    1.0705481  1010000 
 2046000   0.71353749   -4.7636738   -4.7636738   -3.6933686 0.0076355788   -4.7636738    1.0703052  1010000 
 2047000   0.71336419   -4.7644575   -4.7644575   -3.6944122 0.0077819556   -4.7644575    1.0700452  1010000 
 2048000   0.71317728   -4.7640872   -4.7640872   -3.6943223 0.0097812306   -4.7640872    1.0697649  1010000 
 2049000   0.71341737   -4.7650575   -4.7650575   -3.6949325  0.010039378   -4.7650575     1.070125  1010000 
 2050000   0.71337171   -4.7651945   -4.7651945   -3.6951379 0.0086178519   -4.7651945    1.0700565  1010000 
 2051000   0.71333758   -4.7649441   -4.7649441   -3.6949388  0.010271343   -4.7649441    1.0700053  1010000 
 2052000   0.71339311   -4.7655443   -4.7655443   -3.6954557  0.011674073   -4.7655443    1.0700886  1010000 
 2053000   0.71354028   -4.7665341   -4.7665341   -3.6962247  0.011901005   -4.7665341    1.0703094  1010000 
 2054000    0.7129643   -4.7671518   -4.7671518   -3.6977064   0.00963809   -4.7671518    1.0694454  1010000 
 2055000   0.71329857   -4.7682301   -4.7682301   -3.6982833 0.0080321587   -4.7682301    1.0699468  1010000 
 2056000   0.71324673   -4.7684161   -4.7684161   -3.6985471 0.0083619855   -4.7684161     1.069869  1010000 
 2057000   0.71237078   -4.7679507   -4.7679507   -3.6993956 0.0086776509   -4.7679507    1.0685551  1010000 
 2058000   0.71260752   -4.7692167   -4.7692167   -3.7003065 0.0087541857   -4.7692167    1.0689102  1010000 
 2059000   0.71269788   -4.7696463   -4.7696463   -3.7006006  0.011085259   -4.7696463    1.0690458  1010000 
 2060000   0.71287792    -4.770575    -4.770575   -3.7012592  0.011246995    -4.770575    1.0693158  1010000 
 2061000   0.71256488   -4.7704229   -4.7704229   -3.7015767 0.0098654874   -4.7704229    1.0688463  1010000 
 2062000   0.71248549   -4.7703964   -4.7703964   -3.7016692  0.014028509   -4.7703964    1.0687272  1010000 
 2063000   0.71300344    -4.771539    -4.771539   -3.7020348  0.011285505    -4.771539    1.0695041  1010000 
 2064000   0.71208488    -4.770904    -4.770904   -3.7027777  0.012470776    -4.770904    1.0681263  1010000 
 2065000   0.71248013   -4.7718902   -4.7718902    -3.703171  0.010605409   -4.7718902    1.0687191  1010000 
 2066000   0.71234471   -4.7720806   -4.7720806   -3.7035646  0.010593999   -4.7720806     1.068516  1010000 
 2067000   0.71289143   -4.7727098   -4.7727098   -3.7033737  0.010553114   -4.7727098    1.0693361  1010000 
 2068000   0.71251728   -4.7723047   -4.7723047   -3.7035298  0.011583761   -4.7723047    1.0687749  1010000 
 2069000    0.7121319   -4.7722721   -4.7722721   -3.7040753  0.011660033   -4.7722721    1.0681968  1010000 
 2070000   0.71203984   -4.7734165   -4.7734165   -3.7053578 0.0086593951   -4.7734165    1.0680587  1010000 
 2071000   0.71235118   -4.7737407   -4.7737407    -3.705215  0.005980666   -4.7737407    1.0685257  1010000 
 2072000   0.71195545    -4.773249    -4.773249   -3.7053169 0.0053804878    -4.773249    1.0679321  1010000 
 2073000   0.71140878   -4.7726486   -4.7726486   -3.7055365   0.00863299   -4.7726486    1.0671121  1010000 
 2074000   0.71229624   -4.7739902   -4.7739902   -3.7055469 0.0090329003   -4.7739902    1.0684433  1010000 
 2075000   0.71229647   -4.7741064   -4.7741064   -3.7056627 0.0082414123   -4.7741064    1.0684436  1010000 
 2076000   0.71178189   -4.7737673   -4.7737673   -3.7060955 0.0092506681   -4.7737673    1.0676718  1010000 
 2077000   0.71178566   -4.7740084   -4.7740084    -3.706331 0.0075208862   -4.7740084    1.0676774  1010000 
 2078000   0.71176281   -4.7746531   -4.7746531   -3.7070099 0.0065788033   -4.7746531    1.0676432  1010000 
 2079000   0.71111006   -4.7740364   -4.7740364   -3.7073724 0.0069703221   -4.7740364     1.066664  1010000 
 2080000   0.71144826   -4.7761055   -4.7761055   -3.7089342 0.0036631491   -4.7761055    1.0671713  1010000 
 2081000   0.71107777   -4.7765323   -4.7765323   -3.7099167 0.0060431954   -4.7765323    1.0666156  1010000 
 2082000   0.71020644   -4.7750171   -4.7750171   -3.7097085 0.0097613851   -4.7750171    1.0653086  1010000 
 2083000   0.71112044   -4.7765147   -4.7765147   -3.7098351 0.0059115484   -4.7765147    1.0666796  1010000 
 2084000     0.710262   -4.7765395   -4.7765395   -3.7111475 0.0097947546   -4.7765395    1.0653919  1010000 
 2085000   0.71090596    -4.777203    -4.777203   -3.7108451 0.0095262846    -4.777203    1.0663579  1010000 
 2086000   0.71126855   -4.7780607   -4.7780607   -3.7111589 0.0082892882   -4.7780607    1.0669018  1010000 
 2087000   0.71130595   -4.7784088   -4.7784088   -3.7114509  0.010875113   -4.7784088    1.0669579  1010000 
 2088000   0.71125963   -4.7788441   -4.7788441   -3.7119557  0.012454303   -4.7788441    1.0668884  1010000 
 2089000   0.71147504   -4.7793836   -4.7793836   -3.7121721  0.013755888   -4.7793836    1.0672115  1010000 
 2090000   0.71134614   -4.7800116   -4.7800116   -3.7129934  0.012094486   -4.7800116    1.0670181  1010000 
 2091000   0.71133155   -4.7813626   -4.7813626   -3.7143664 0.0089091634   -4.7813626    1.0669963  1010000 
 2092000   0.71039318     -4.78022     -4.78022   -3.7146313  0.011043933     -4.78022    1.0655887  1010000 
 2093000   0.71109398   -4.7808258   -4.7808258   -3.7141859 0.0095769496   -4.7808258    1.0666399  1010000 
 2094000   0.71013728    -4.780182    -4.780182   -3.7149771  0.010889012    -4.780182    1.0652049  1010000 
 2095000   0.71002326   -4.7811582   -4.7811582   -3.7161244 0.0069461144   -4.7811582    1.0650338  1010000 
 2096000   0.71042392   -4.7821867   -4.7821867   -3.7165518 0.0086807222   -4.7821867    1.0656348  1010000 
 2097000   0.71045933   -4.7819803   -4.7819803   -3.7162924 0.0082748659   -4.7819803    1.0656879  1010000 
 2098000   0.70902643   -4.7800121   -4.7800121   -3.7164735  0.010568807   -4.7800121    1.0635386  1010000 
 2099000   0.70958611   -4.7820157   -4.7820157   -3.7176376 0.0048854596   -4.7820157    1.0643781  1010000 
 2100000   0.70942733   -4.7814182   -4.7814182   -3.7172783 0.0066951492   -4.7814182    1.0641399  1010000 
 2101000   0.71036235   -4.7822185   -4.7822185    -3.716676 0.0062436777   -4.7822185    1.0655425  1010000 
 2102000   0.70961482   -4.7817787   -4.7817787   -3.7173575 0.0098887781   -4.7817787    1.0644212  1010000 
 2103000     0.710071   -4.7832065   -4.7832065    -3.718101 0.0088527349   -4.7832065    1.0651054  1010000 
 2104000    0.7100286   -4.7836214   -4.7836214   -3.7185795 0.0091315966   -4.7836214    1.0650418  1010000 
 2105000   0.71032249   -4.7844793   -4.7844793   -3.7189966 0.0052334627   -4.7844793    1.0654827  1010000 
 2106000   0.70953871   -4.7840959   -4.7840959   -3.7197889  0.010140112   -4.7840959     1.064307  1010000 
 2107000   0.70883349   -4.7840207   -4.7840207   -3.7207715 0.0059222854   -4.7840207    1.0632492  1010000 
 2108000    0.7088788   -4.7841651   -4.7841651    -3.720848 0.0068005465   -4.7841651    1.0633171  1010000 
 2109000   0.70876796   -4.7846794   -4.7846794   -3.7215285 0.0089510819   -4.7846794    1.0631509  1010000 
 2110000   0.70921997   -4.7853625   -4.7853625   -3.7215336  0.010152609   -4.7853625    1.0638289  1010000 
 2111000   0.70938696   -4.7862465   -4.7862465   -3.7221671 0.0092699164   -4.7862465    1.0640794  1010000 
 2112000   0.70884604   -4.7860794   -4.7860794   -3.7228114 0.0086646036   -4.7860794     1.063268  1010000 
 2113000   0.70961193    -4.787668    -4.787668   -3.7232511 0.0053043738    -4.787668    1.0644168  1010000 
 2114000   0.70908608   -4.7866435   -4.7866435   -3.7230154  0.010172225   -4.7866435    1.0636281  1010000 
 2115000   0.70873191   -4.7865885   -4.7865885   -3.7234917  0.014073235   -4.7865885    1.0630968  1010000 
 2116000   0.70836915    -4.786587    -4.786587   -3.7240344  0.012761062    -4.786587    1.0625527  1010000 
 2117000   0.70918507   -4.7887074   -4.7887074   -3.7249308 0.0070123188   -4.7887074    1.0637765  1010000 
 2118000   0.70901743   -4.7884746   -4.7884746   -3.7249495   0.01232927   -4.7884746    1.0635251  1010000 
 2119000   0.70824229   -4.7876741   -4.7876741   -3.7253117   0.01012685   -4.7876741    1.0623624  1010000 
 2120000   0.70882536   -4.7893679   -4.7893679   -3.7261309 0.0075383161   -4.7893679     1.063237  1010000 
 2121000   0.70795578   -4.7882976   -4.7882976    -3.726365 0.0081687747   -4.7882976    1.0619326  1010000 
 2122000   0.70757033   -4.7883749   -4.7883749   -3.7270204   0.01025594   -4.7883749    1.0613544  1010000 
 2123000   0.70763397    -4.789603    -4.789603   -3.7281531 0.0053550063    -4.789603    1.0614499  1010000 
 2124000   0.70718855   -4.7893668   -4.7893668   -3.7285851 0.0086580412   -4.7893668    1.0607818  1010000 
 2125000   0.70772257   -4.7905196   -4.7905196   -3.7289368  0.006218272   -4.7905196    1.0615828  1010000 
 2126000   0.70752132   -4.7908643   -4.7908643   -3.7295834 0.0058975961   -4.7908643    1.0612809  1010000 
 2127000   0.70796177   -4.7912658   -4.7912658   -3.7293242 0.0091541024   -4.7912658    1.0619416  1010000 
 2128000   0.70856641    -4.792693    -4.792693   -3.7298444 0.0081349431    -4.792693    1.0628486  1010000 
 2129000   0.70759874   -4.7913759   -4.7913759   -3.7299788 0.0096942389   -4.7913759    1.0613971  1010000 
 2130000   0.70786791   -4.7928278   -4.7928278    -3.731027 0.0075523952   -4.7928278    1.0618008  1010000 
 2131000   0.70730749   -4.7920959   -4.7920959   -3.7311357  0.012030493   -4.7920959    1.0609602  1010000 
 2132000    0.7075595    -4.793557    -4.793557   -3.7322188 0.0086609074    -4.793557    1.0613382  1010000 
 2133000   0.70725416   -4.7942438   -4.7942438   -3.7333636 0.0062438339   -4.7942438    1.0608802  1010000 
 2134000   0.70685733   -4.7941193   -4.7941193   -3.7338343 0.0081690738   -4.7941193     1.060285  1010000 
 2135000   0.70734836   -4.7953613   -4.7953613   -3.7343398 0.0067194967   -4.7953613    1.0610215  1010000 
 2136000     0.707714   -4.7955719   -4.7955719    -3.734002 0.0090628941   -4.7955719      1.06157  1010000 
 2137000   0.70710595   -4.7956744   -4.7956744   -3.7350165 0.0072607465   -4.7956744    1.0606579  1010000 
 2138000   0.70718217   -4.7958249   -4.7958249   -3.7350526 0.0095874956   -4.7958249    1.0607722  1010000 
 2139000   0.70699898   -4.7958792   -4.7958792   -3.7353818   0.01042213   -4.7958792    1.0604974  1010000 
 2140000    0.7069656   -4.7962531   -4.7962531   -3.7358058 0.0099581477   -4.7962531    1.0604474  1010000 
 2141000   0.70729751   -4.7968952   -4.7968952     -3.73595 0.0091972442   -4.7968952    1.0609452  1010000 
 2142000   0.70715881   -4.7968609   -4.7968609   -3.7361237  0.009904298   -4.7968609    1.0607372  1010000 
 2143000   0.70664929   -4.7969756   -4.7969756   -3.7370027 0.0083644348   -4.7969756    1.0599729  1010000 
 2144000   0.70647934   -4.7971494   -4.7971494   -3.7374314 0.0056968373   -4.7971494     1.059718  1010000 
 2145000   0.70631539   -4.7969968   -4.7969968   -3.7375248 0.0053219456   -4.7969968     1.059472  1010000 
 2146000   0.70592321   -4.7965598   -4.7965598    -3.737676 0.0083060228   -4.7965598    1.0588838  1010000 
 2147000   0.70689618   -4.7985995   -4.7985995   -3.7382563 0.0088168253   -4.7985995    1.0603432  1010000 
 2148000   0.70627367   -4.7986295   -4.7986295     -3.73922 0.0085378787   -4.7986295    1.0594095  1010000 
 2149000   0.70600557    -4.798436    -4.798436   -3.7394287 0.0088656041    -4.798436    1.0590073  1010000 
 2150000   0.70661062   -4.7989704   -4.7989704   -3.7390555 0.0078246287   -4.7989704    1.0599149  1010000 
 2151000   0.70537553   -4.7972701   -4.7972701   -3.7392078  0.011109895   -4.7972701    1.0580622  1010000 
 2152000   0.70578443    -4.799255    -4.799255   -3.7405794 0.0084026068    -4.799255    1.0586756  1010000 
 2153000   0.70574078   -4.7994786   -4.7994786   -3.7408684 0.0064881733   -4.7994786    1.0586101  1010000 
 2154000   0.70574971   -4.7998725   -4.7998725   -3.7412489 0.0084313244   -4.7998725    1.0586235  1010000 
 2155000   0.70661091   -4.8011765   -4.8011765   -3.7412612 0.0055713517   -4.8011765    1.0599153  1010000 
 2156000   0.70593226   -4.8009333   -4.8009333    -3.742036 0.0070539646   -4.8009333    1.0588973  1010000 
 2157000   0.70574655   -4.8008444   -4.8008444   -3.7422256 0.0097609835   -4.8008444    1.0586188  1010000 
 2158000   0.70575775     -4.80145     -4.80145   -3.7428144 0.0071845873     -4.80145    1.0586356  1010000 
 2159000   0.70581422   -4.8018886   -4.8018886   -3.7431683 0.0075790643   -4.8018886    1.0587203  1010000 
 2160000   0.70482356   -4.8011886   -4.8011886   -3.7439543  0.010207007   -4.8011886    1.0572343  1010000 
 2161000   0.70496848   -4.8019423   -4.8019423   -3.7444906  0.010539507   -4.8019423    1.0574517  1010000 
 2162000   0.70576511   -4.8039315   -4.8039315   -3.7452848 0.0067575893   -4.8039315    1.0586466  1010000 
 2163000   0.70507864   -4.8034343   -4.8034343   -3.7458174 0.0084421659   -4.8034343    1.0576169  1010000 
 2164000   0.70528168   -4.8037229   -4.8037229   -3.7458015  0.010728535   -4.8037229    1.0579215  1010000 
 2165000   0.70491621   -4.8034039   -4.8034039   -3.7460307 0.0088239277   -4.8034039    1.0573733  1010000 
 2166000   0.70450712   -4.8033902   -4.8033902   -3.7466305 0.0098111234   -4.8033902    1.0567596  1010000 
 2167000   0.70510541   -4.8041571   -4.8041571      -3.7465  0.014551393   -4.8041571    1.0576571  1010000 
 2168000   0.70511814   -4.8051811   -4.8051811   -3.7475049  0.012607251   -4.8051811    1.0576762  1010000 
 2169000   0.70513479   -4.8057408   -4.8057408   -3.7480397 0.0084431096   -4.8057408    1.0577011  1010000 
 2170000   0.70504904   -4.8062439   -4.8062439   -3.7486714 0.0038094659   -4.8062439    1.0575725  1010000 
 2171000   0.70412175    -4.805347    -4.805347   -3.7491654 0.0091806667    -4.805347    1.0561816  1010000 
 2172000   0.70344691   -4.8045884   -4.8045884   -3.7494191 0.0097254946   -4.8045884    1.0551693  1010000 
 2173000   0.70400813    -4.806176    -4.806176   -3.7501648 0.0050775011    -4.806176    1.0560112  1010000 
 2174000   0.70362241   -4.8062869   -4.8062869   -3.7508543 0.0063414499   -4.8062869    1.0554326  1010000 
 2175000   0.70401497   -4.8071515   -4.8071515   -3.7511301 0.0074065171   -4.8071515    1.0560214  1010000 
 2176000   0.70436496   -4.8076622   -4.8076622   -3.7511158  0.010331596   -4.8076622    1.0565464  1010000 
 2177000   0.70443687   -4.8085046   -4.8085046   -3.7518503 0.0082489898   -4.8085046    1.0566543  1010000 
 2178000   0.70483987   -4.8091027   -4.8091027    -3.751844 0.0047952824   -4.8091027    1.0572588  1010000 
 2179000   0.70401406   -4.8076963   -4.8076963   -3.7516762 0.0079242534   -4.8076963      1.05602  1010000 
 2180000   0.70396687   -4.8086979   -4.8086979   -3.7527487 0.0076514729   -4.8086979    1.0559493  1010000 
 2181000   0.70352589   -4.8080342   -4.8080342   -3.7527464  0.009410846   -4.8080342    1.0552878  1010000 
 2182000   0.70333697   -4.8088438   -4.8088438   -3.7538394  0.010059025   -4.8088438    1.0550044  1010000 
 2183000   0.70408687   -4.8100674   -4.8100674   -3.7539381   0.00547933   -4.8100674    1.0561293  1010000 
 2184000   0.70421342   -4.8105997   -4.8105997   -3.7542806 0.0090050722   -4.8105997    1.0563191  1010000 
 2185000   0.70478174   -4.8114706   -4.8114706    -3.754299 0.0069996838   -4.8114706    1.0571716  1010000 
 2186000   0.70422201   -4.8109923   -4.8109923   -3.7546603 0.0074526432   -4.8109923     1.056332  1010000 
 2187000   0.70386763    -4.810768    -4.810768   -3.7549676 0.0081937071    -4.810768    1.0558004  1010000 
 2188000   0.70378558    -4.810823    -4.810823   -3.7551457  0.010987364    -4.810823    1.0556773  1010000 
 2189000   0.70346392   -4.8110887   -4.8110887   -3.7558938  0.011611913   -4.8110887    1.0551948  1010000 
 2190000    0.7038984    -4.812154    -4.812154   -3.7563075 0.0075420297    -4.812154    1.0558466  1010000 
 2191000   0.70339585   -4.8118047   -4.8118047   -3.7567119  0.005398647   -4.8118047    1.0550927  1010000 
 2192000   0.70321235   -4.8123481   -4.8123481   -3.7575306 0.0073219489   -4.8123481    1.0548175  1010000 
 2193000   0.70370967   -4.8130627   -4.8130627   -3.7574993 0.0049857781   -4.8130627    1.0555635  1010000 
 2194000   0.70318017   -4.8132855   -4.8132855   -3.7585163 0.0053923917   -4.8132855    1.0547692  1010000 
 2195000   0.70299264   -4.8128873   -4.8128873   -3.7583994 0.0037657926   -4.8128873    1.0544879  1010000 
 2196000   0.70272948   -4.8124499   -4.8124499   -3.7583567 0.0068866824   -4.8124499    1.0540932  1010000 
 2197000   0.70202279   -4.8123541   -4.8123541    -3.759321 0.0073558596   -4.8123541    1.0530331  1010000 
 2198000   0.70287667   -4.8138647   -4.8138647   -3.7595507 0.0098602711   -4.8138647     1.054314  1010000 
 2199000   0.70306111   -4.8149338   -4.8149338   -3.7603432 0.0052265457   -4.8149338    1.0545906  1010000 
 2200000   0.70249267   -4.8145027   -4.8145027   -3.7607647 0.0074382618   -4.8145027     1.053738  1010000 
 2201000   0.70295915   -4.8155005   -4.8155005   -3.7610628 0.0071781671   -4.8155005    1.0544377  1010000 
 2202000   0.70271073   -4.8152509   -4.8152509   -3.7611859  0.009020754   -4.8152509     1.054065  1010000 
 2203000   0.70275733   -4.8160069   -4.8160069    -3.761872 0.0070338159   -4.8160069     1.054135  1010000 
 2204000   0.70205422   -4.8159502   -4.8159502     -3.76287  0.011664533   -4.8159502    1.0530803  1010000 
 2205000    0.7025965   -4.8169975   -4.8169975   -3.7631038   0.01084206   -4.8169975    1.0538937  1010000 
 2206000   0.70214121   -4.8167997   -4.8167997    -3.763589  0.010448932   -4.8167997    1.0532108  1010000 
 2207000   0.70194038   -4.8166903   -4.8166903   -3.7637808  0.010531472   -4.8166903    1.0529095  1010000 
 2208000   0.70242221   -4.8176078   -4.8176078   -3.7639755  0.011336618   -4.8176078    1.0536323  1010000 
 2209000   0.70161194   -4.8167055   -4.8167055   -3.7642886 0.0096636707   -4.8167055    1.0524169  1010000 
 2210000   0.70275348    -4.819268    -4.819268   -3.7651388 0.0039406282    -4.819268    1.0541292  1010000 
 2211000   0.70147996    -4.817954    -4.817954   -3.7657351 0.0068716713    -4.817954    1.0522189  1010000 
 2212000   0.70036158   -4.8170508   -4.8170508   -3.7665095 0.0095721995   -4.8170508    1.0505413  1010000 
 2213000   0.70130251   -4.8186334   -4.8186334   -3.7666807 0.0074723842   -4.8186334    1.0519527  1010000 
 2214000   0.70163254   -4.8198851   -4.8198851   -3.7674373 0.00081814211   -4.8198851    1.0524478  1010000 
 2215000   0.70056112   -4.8195444   -4.8195444   -3.7687038 0.0024137029   -4.8195444    1.0508406  1010000 
 2216000   0.70046375   -4.8194305   -4.8194305   -3.7687359 0.0069137252   -4.8194305    1.0506946  1010000 
 2217000    0.7007536   -4.8201276   -4.8201276   -3.7689983 0.0036233348   -4.8201276    1.0511294  1010000 
 2218000   0.70098839   -4.8208567   -4.8208567   -3.7693751 0.0055028022   -4.8208567    1.0514815  1010000 
 2219000   0.70023336   -4.8205407   -4.8205407   -3.7701917  0.010672944   -4.8205407     1.050349  1010000 
 2220000   0.70157749   -4.8235189   -4.8235189   -3.7711537 0.0076437896   -4.8235189    1.0523652  1010000 
 2221000   0.70123164   -4.8233325   -4.8233325   -3.7714861 0.0094302099   -4.8233325    1.0518464  1010000 
 2222000   0.70092393   -4.8235254   -4.8235254   -3.7721405   0.01052331   -4.8235254    1.0513848  1010000 
 2223000   0.70037234   -4.8228109   -4.8228109   -3.7722534  0.015016284   -4.8228109    1.0505575  1010000 
 2224000   0.70148321    -4.824991    -4.824991   -3.7727673  0.012944888    -4.824991    1.0522238  1010000 
 2225000   0.70158663   -4.8256424   -4.8256424   -3.7732635  0.011339085   -4.8256424    1.0523789  1010000 
 2226000   0.70149769   -4.8258971   -4.8258971   -3.7736516 0.0098709922   -4.8258971    1.0522455  1010000 
 2227000   0.69998765   -4.8248377   -4.8248377   -3.7748572  0.010994453   -4.8248377    1.0499804  1010000 
 2228000   0.70061884   -4.8258748   -4.8258748   -3.7749475  0.010395494   -4.8258748    1.0509272  1010000 
 2229000     0.699672   -4.8253755   -4.8253755   -3.7758685  0.010617267   -4.8253755     1.049507  1010000 
 2230000   0.69975144   -4.8251864   -4.8251864   -3.7755602 0.0083393171   -4.8251864    1.0496261  1010000 
 2231000   0.69976013   -4.8254405   -4.8254405   -3.7758013 0.0081523256   -4.8254405    1.0496392  1010000 
 2232000   0.70009496   -4.8255266   -4.8255266   -3.7753852 0.0096188018   -4.8255266    1.0501414  1010000 
 2233000   0.69923603   -4.8246641   -4.8246641   -3.7758111 0.0087954702   -4.8246641     1.048853  1010000 
 2234000   0.69956002   -4.8259714   -4.8259714   -3.7766324 0.0064565239   -4.8259714     1.049339  1010000 
 2235000   0.69967802   -4.8265377   -4.8265377   -3.7770217  0.005048638   -4.8265377     1.049516  1010000 
 2236000   0.69893135    -4.825952    -4.825952    -3.777556 0.0019240425    -4.825952     1.048396  1010000 
 2237000     0.699118   -4.8262469   -4.8262469    -3.777571 0.0029239911   -4.8262469     1.048676  1010000 
 2238000   0.69945672   -4.8272929   -4.8272929   -3.7781088 0.0051426416   -4.8272929     1.049184  1010000 
 2239000   0.69923481   -4.8272765   -4.8272765   -3.7784253 0.0074375278   -4.8272765    1.0488512  1010000 
 2240000   0.69856746   -4.8274187   -4.8274187   -3.7795685 0.0068180348   -4.8274187    1.0478501  1010000 
 2241000   0.69936423   -4.8289848   -4.8289848   -3.7799395 0.0066334106   -4.8289848    1.0490453  1010000 
 2242000   0.69876111   -4.8280246   -4.8280246    -3.779884 0.0063724327   -4.8280246    1.0481406  1010000 
 2243000   0.69900675   -4.8285242   -4.8285242   -3.7800151  0.006647918   -4.8285242    1.0485091  1010000 
 2244000   0.69918592   -4.8293447   -4.8293447   -3.7805668 0.0057377768   -4.8293447    1.0487778  1010000 
 2245000    0.7000996   -4.8308371   -4.8308371   -3.7806888 0.0083504851   -4.8308371    1.0501484  1010000 
 2246000   0.69977567   -4.8300201   -4.8300201   -3.7803576  0.010097453   -4.8300201    1.0496625  1010000 
 2247000   0.70046028   -4.8313129   -4.8313129   -3.7806235  0.010488787   -4.8313129    1.0506894  1010000 
 2248000   0.69912584   -4.8302587   -4.8302587    -3.781571   0.01106783   -4.8302587    1.0486877  1010000 
 2249000   0.69911457   -4.8309929   -4.8309929   -3.7823221  0.011001112   -4.8309929    1.0486708  1010000 
 2250000   0.69904228   -4.8311195   -4.8311195   -3.7825572  0.010408737   -4.8311195    1.0485624  1010000 
 2251000   0.69863714   -4.8312701   -4.8312701   -3.7833155 0.0068788782   -4.8312701    1.0479547  1010000 
 2252000   0.69809447    -4.831103    -4.831103   -3.7839623 0.0064883457    -4.831103    1.0471407  1010000 
 2253000   0.69866091   -4.8325507   -4.8325507   -3.7845604 0.0046374305   -4.8325507    1.0479903  1010000 
 2254000   0.69730804   -4.8311365   -4.8311365   -3.7851755 0.0060518675   -4.8311365     1.045961  1010000 
 2255000   0.69747009   -4.8315919   -4.8315919   -3.7853878 0.0066367939   -4.8315919    1.0462041  1010000 
 2256000   0.69820467   -4.8327113   -4.8327113   -3.7854053 0.0039050411   -4.8327113     1.047306  1010000 
 2257000   0.69668313   -4.8310777   -4.8310777   -3.7860541  0.007132632   -4.8310777    1.0450237  1010000 
 2258000   0.69783169   -4.8331643   -4.8331643   -3.7864178 0.0064725099   -4.8331643    1.0467465  1010000 
 2259000    0.6978196   -4.8338332   -4.8338332   -3.7871048 0.0073999926   -4.8338332    1.0467284  1010000 
 2260000   0.69794308   -4.8345191   -4.8345191   -3.7876055 0.0079186364   -4.8345191    1.0469136  1010000 
 2261000    0.6980279   -4.8350344   -4.8350344   -3.7879936 0.0073862453   -4.8350344    1.0470408  1010000 
 2262000   0.69759474   -4.8349241   -4.8349241    -3.788533 0.0077300786   -4.8349241    1.0463911  1010000 
 2263000   0.69866644   -4.8367016   -4.8367016   -3.7887029 0.0066904592   -4.8367016    1.0479986  1010000 
 2264000   0.69726313   -4.8347239   -4.8347239   -3.7888302    0.0122899   -4.8347239    1.0458937  1010000 
 2265000   0.69856256   -4.8373699   -4.8373699   -3.7895271 0.0083437237   -4.8373699    1.0478428  1010000 
 2266000   0.69894494   -4.8378411   -4.8378411   -3.7894247   0.01074989   -4.8378411    1.0484164  1010000 
 2267000   0.69758144   -4.8366383   -4.8366383   -3.7902671  0.015555955   -4.8366383    1.0463711  1010000 
 2268000   0.69822746   -4.8376998   -4.8376998   -3.7903596 0.0090429614   -4.8376998    1.0473402  1010000 
 2269000   0.69849795   -4.8388803   -4.8388803   -3.7911344 0.0063927789   -4.8388803    1.0477459  1010000 
 2270000   0.69757637   -4.8374156   -4.8374156   -3.7910521  0.008629789   -4.8374156    1.0463635  1010000 
 2271000   0.69650291   -4.8366228   -4.8366228   -3.7918695 0.0062112585   -4.8366228    1.0447533  1010000 
 2272000   0.69714252   -4.8382426   -4.8382426   -3.7925298  0.002946298   -4.8382426    1.0457128  1010000 
 2273000   0.69645145   -4.8374186   -4.8374186   -3.7927425 0.0055390481   -4.8374186    1.0446761  1010000 
 2274000   0.69656431   -4.8376417   -4.8376417   -3.7927963 0.0048826391   -4.8376417    1.0448454  1010000 
 2275000   0.69659407   -4.8379944   -4.8379944   -3.7931044 0.0050823886   -4.8379944    1.0448901  1010000 
 2276000   0.69577124   -4.8378043   -4.8378043   -3.7941484 0.0061417419   -4.8378043    1.0436558  1010000 
 2277000    0.6962197   -4.8384308   -4.8384308   -3.7941023 0.0054936683   -4.8384308    1.0443285  1010000 
 2278000   0.69592891   -4.8385626   -4.8385626   -3.7946703 0.0064518306   -4.8385626    1.0438923  1010000 
 2279000   0.69691074   -4.8403671   -4.8403671    -3.795002 0.0049846117   -4.8403671    1.0453651  1010000 
 2280000   0.69627066   -4.8406318   -4.8406318   -3.7962268 0.0035279896   -4.8406318     1.044405  1010000 
 2281000   0.69600118   -4.8399187   -4.8399187    -3.795918  0.009544703   -4.8399187    1.0440007  1010000 
 2282000   0.69665305   -4.8410345   -4.8410345    -3.796056 0.0095356453   -4.8410345    1.0449785  1010000 
 2283000   0.69685223   -4.8409974   -4.8409974   -3.7957201  0.014554354   -4.8409974    1.0452773  1010000 
 2284000    0.6976675   -4.8418787   -4.8418787   -3.7953785  0.011829729   -4.8418787    1.0465002  1010000 
 2285000   0.69768815   -4.8432035   -4.8432035   -3.7966723  0.013635964   -4.8432035    1.0465312  1010000 
 2286000   0.69760402   -4.8438502   -4.8438502   -3.7974452  0.011079574   -4.8438502     1.046405  1010000 
 2287000   0.69678805   -4.8435829   -4.8435829   -3.7984018  0.010992714   -4.8435829     1.045181  1010000 
 2288000   0.69633271   -4.8437913   -4.8437913   -3.7992932 0.0084061182   -4.8437913     1.044498  1010000 
 2289000   0.69535128   -4.8431461   -4.8431461   -3.8001202 0.0055655561   -4.8431461    1.0430259  1010000 
 2290000   0.69553711    -4.843705    -4.843705   -3.8004003 0.0043070063    -4.843705    1.0433046  1010000 
 2291000   0.69519103   -4.8436763   -4.8436763   -3.8008908 0.0063757434   -4.8436763    1.0427855  1010000 
 2292000   0.69478383   -4.8439124   -4.8439124   -3.8017376 0.0046294864   -4.8439124    1.0421747  1010000 
 2293000   0.69457225   -4.8442027   -4.8442027   -3.8023454  0.005934844   -4.8442027    1.0418573  1010000 
 2294000   0.69512022   -4.8451155   -4.8451155   -3.8024362  0.002034108   -4.8451155    1.0426793  1010000 
 2295000   0.69509418    -4.845378    -4.845378   -3.8027377 0.0039145713    -4.845378    1.0426402  1010000 
 2296000   0.69551891    -4.845948    -4.845948   -3.8026707  0.005683007    -4.845948    1.0432773  1010000 
 2297000   0.69509353   -4.8455439   -4.8455439   -3.8029047 0.0087819206   -4.8455439    1.0426393  1010000 
 2298000   0.69576785   -4.8467032   -4.8467032   -3.8030525 0.0059471185   -4.8467032    1.0436507  1010000 
 2299000   0.69510862   -4.8464979   -4.8464979    -3.803836  0.010488393   -4.8464979    1.0426619  1010000 
 2300000   0.69515257   -4.8472645   -4.8472645   -3.8045367  0.010427838   -4.8472645    1.0427278  1010000 
 2301000   0.69515342   -4.8475424   -4.8475424   -3.8048133  0.010522354   -4.8475424    1.0427291  1010000 
 2302000   0.69436388   -4.8469739   -4.8469739   -3.8054291  0.013341651   -4.8469739    1.0415448  1010000 
 2303000   0.69528692    -4.848456    -4.848456   -3.8055267  0.010041641    -4.848456    1.0429294  1010000 
 2304000   0.69463227   -4.8480362   -4.8480362   -3.8060888  0.011268998   -4.8480362    1.0419474  1010000 
 2305000   0.69535346   -4.8499313   -4.8499313   -3.8069022 0.0093977852   -4.8499313    1.0430292  1010000 
 2306000      0.69484   -4.8496451   -4.8496451   -3.8073862 0.0077520715   -4.8496451     1.042259  1010000 
 2307000   0.69459147   -4.8495214   -4.8495214   -3.8076352  0.011322873   -4.8495214    1.0418862  1010000 
 2308000   0.69449393   -4.8498523   -4.8498523   -3.8081124 0.0075059404   -4.8498523    1.0417399  1010000 
 2309000   0.69461338   -4.8496997   -4.8496997   -3.8077807  0.011702889   -4.8496997     1.041919  1010000 
 2310000   0.69526331   -4.8511981   -4.8511981   -3.8083042  0.005892127   -4.8511981    1.0428939  1010000 
 2311000   0.69407891   -4.8501824   -4.8501824    -3.809065 0.0066362184   -4.8501824    1.0411173  1010000 
 2312000   0.69427869   -4.8510907   -4.8510907   -3.8096737 0.0068077535   -4.8510907     1.041417  1010000 
 2313000   0.69328503   -4.8499268   -4.8499268   -3.8100003 0.0096321264   -4.8499268    1.0399265  1010000 
 2314000   0.69444946    -4.852449    -4.852449   -3.8107759 0.0033680241    -4.852449    1.0416732  1010000 
 2315000    0.6937522   -4.8517797   -4.8517797   -3.8111524 0.0045889277   -4.8517797    1.0406273  1010000 
 2316000   0.69344843   -4.8519132   -4.8519132   -3.8117416 0.0043085877   -4.8519132    1.0401716  1010000 
 2317000   0.69377758   -4.8525814   -4.8525814    -3.811916 0.0062677315   -4.8525814    1.0406653  1010000 
 2318000   0.69383002   -4.8532768   -4.8532768   -3.8125328 0.0054068178   -4.8532768     1.040744  1010000 
 2319000   0.69376836    -4.853701    -4.853701   -3.8130495 0.0073343944    -4.853701    1.0406515  1010000 
 2320000   0.69410309   -4.8547791   -4.8547791   -3.8136255  0.005047155   -4.8547791    1.0411536  1010000 
 2321000   0.69385466   -4.8546052   -4.8546052   -3.8138243 0.0090949323   -4.8546052     1.040781  1010000 
 2322000   0.69326413   -4.8543636   -4.8543636   -3.8144684  0.011230487   -4.8543636    1.0398952  1010000 
 2323000   0.69454402   -4.8567955   -4.8567955   -3.8149805 0.0075118749   -4.8567955     1.041815  1010000 
 2324000   0.69320589   -4.8555402   -4.8555402   -3.8157324  0.011792246   -4.8555402    1.0398078  1010000 
 2325000   0.69408901   -4.8575096   -4.8575096   -3.8163771  0.007501133   -4.8575096    1.0411325  1010000 
 2326000   0.69271859   -4.8555166   -4.8555166   -3.8164398 0.0083899432   -4.8555166    1.0390769  1010000 
 2327000   0.69340463   -4.8562481   -4.8562481   -3.8161422  0.010082703   -4.8562481    1.0401059  1010000 
 2328000   0.69369961   -4.8570563   -4.8570563   -3.8165079  0.010690676   -4.8570563    1.0405484  1010000 
 2329000   0.69310684   -4.8569114   -4.8569114   -3.8172522 0.0081840604   -4.8569114    1.0396592  1010000 
 2330000   0.69354903   -4.8581509   -4.8581509   -3.8178284 0.0090601009   -4.8581509    1.0403225  1010000 
 2331000   0.69316615   -4.8576142   -4.8576142    -3.817866 0.0078507194   -4.8576142    1.0397482  1010000 
 2332000   0.69225946   -4.8571959   -4.8571959   -3.8188077 0.0055104306   -4.8571959    1.0383882  1010000 
 2333000   0.69220931   -4.8577006   -4.8577006   -3.8193877 0.00020107662   -4.8577006    1.0383129  1010000 
 2334000   0.69157614    -4.857529    -4.857529   -3.8201658   0.00270861    -4.857529    1.0373632  1010000 
 2335000   0.69182974   -4.8579208   -4.8579208   -3.8201773 0.0040582136   -4.8579208    1.0377436  1010000 
 2336000   0.69175757   -4.8584419   -4.8584419   -3.8208066 0.0041020432   -4.8584419    1.0376353  1010000 
 2337000   0.69227396   -4.8581992   -4.8581992   -3.8197893 0.0068936069   -4.8581992    1.0384099  1010000 
 2338000   0.69309869   -4.8598691   -4.8598691   -3.8202221 0.0067713184   -4.8598691     1.039647  1010000 
 2339000   0.69210656   -4.8593198   -4.8593198    -3.821161 0.0083206493   -4.8593198    1.0381588  1010000 
 2340000   0.69174831   -4.8599016   -4.8599016   -3.8222801 0.0067417674   -4.8599016    1.0376214  1010000 
 2341000   0.69252801   -4.8616454   -4.8616454   -3.8228544 0.0040747193   -4.8616454     1.038791  1010000 
 2342000   0.69200758   -4.8616675   -4.8616675   -3.8236571 0.0074625717   -4.8616675    1.0380103  1010000 
 2343000   0.69186531   -4.8614611   -4.8614611   -3.8236641 0.0057797915   -4.8614611    1.0377969  1010000 
 2344000   0.69243481   -4.8623813   -4.8623813   -3.8237301  0.009213635   -4.8623813    1.0386512  1010000 
 2345000   0.69324572   -4.8645141   -4.8645141   -3.8246465 0.0047995219   -4.8645141    1.0398675  1010000 
 2346000   0.69225519   -4.8634737   -4.8634737    -3.825092 0.0094086478   -4.8634737    1.0383818  1010000 
 2347000   0.69212567   -4.8631837   -4.8631837   -3.8249962   0.01278004   -4.8631837    1.0381875  1010000 
 2348000    0.6919815    -4.863356    -4.863356   -3.8253848  0.014580136    -4.863356    1.0379712  1010000 
 2349000   0.69174076    -4.863663    -4.863663   -3.8260529  0.011485805    -4.863663    1.0376101  1010000 
 2350000    0.6923892   -4.8646628   -4.8646628     -3.82608 0.0075331847   -4.8646628    1.0385828  1010000 
 2351000   0.69155444   -4.8645206   -4.8645206     -3.82719 0.0079129732   -4.8645206    1.0373306  1010000 
 2352000   0.69081165   -4.8637245   -4.8637245    -3.827508 0.0072244411   -4.8637245    1.0362164  1010000 
 2353000   0.69116595   -4.8646924   -4.8646924   -3.8279445 0.0032449761   -4.8646924    1.0367479  1010000 
 2354000   0.69101623    -4.864691    -4.864691   -3.8281677 0.0052399993    -4.864691    1.0365233  1010000 
 2355000   0.69031641   -4.8637893   -4.8637893   -3.8283157 0.0080876646   -4.8637893    1.0354736  1010000 
 2356000   0.69026593   -4.8642071   -4.8642071   -3.8288092 0.0039763934   -4.8642071    1.0353979  1010000 
 2357000   0.69048983   -4.8645996   -4.8645996   -3.8288659 0.0061367493   -4.8645996    1.0357337  1010000 
 2358000   0.68980482   -4.8642427   -4.8642427   -3.8295365 0.0038544662   -4.8642427    1.0347062  1010000 
 2359000   0.69045198   -4.8653813   -4.8653813   -3.8297044 0.0043089486   -4.8653813     1.035677  1010000 
 2360000    0.6912904   -4.8667392   -4.8667392   -3.8298047 0.0049206028   -4.8667392    1.0369346  1010000 
 2361000   0.69071956   -4.8668189   -4.8668189   -3.8307406 0.0031077004   -4.8668189    1.0360783  1010000 
 2362000   0.69010133   -4.8667004   -4.8667004   -3.8315494 0.0065864001   -4.8667004     1.035151  1010000 
 2363000   0.69027684   -4.8677085   -4.8677085   -3.8322942 0.0050587024   -4.8677085    1.0354142  1010000 
 2364000   0.68978034   -4.8678775   -4.8678775    -3.833208  0.006243399   -4.8678775    1.0346695  1010000 
 2365000   0.69001897   -4.8691411   -4.8691411   -3.8341137 0.0033599162   -4.8691411    1.0350274  1010000 
 2366000   0.68926638   -4.8686435   -4.8686435    -3.834745  0.007692679   -4.8686435    1.0338986  1010000 
 2367000   0.68951265   -4.8687599   -4.8687599   -3.8344919  0.010798484   -4.8687599     1.034268  1010000 
 2368000    0.6897983    -4.869558    -4.869558   -3.8348616  0.010352478    -4.869558    1.0346964  1010000 
 2369000   0.69086728   -4.8714934   -4.8714934   -3.8351935  0.008981105   -4.8714934    1.0362999  1010000 
 2370000   0.69075057   -4.8720144   -4.8720144   -3.8358896   0.01119584   -4.8720144    1.0361248  1010000 
 2371000   0.69098005   -4.8729234   -4.8729234   -3.8364543 0.0083927812   -4.8729234    1.0364691  1010000 
 2372000   0.69043565   -4.8720009   -4.8720009   -3.8363484  0.007801199   -4.8720009    1.0356525  1010000 
 2373000   0.68925618   -4.8715072   -4.8715072    -3.837624   0.01126936   -4.8715072    1.0338833  1010000 
 2374000   0.68987386   -4.8724158   -4.8724158   -3.8376061 0.0068558428   -4.8724158    1.0348098  1010000 
 2375000   0.68945469   -4.8726873   -4.8726873   -3.8385063 0.0098280852   -4.8726873     1.034181  1010000 
 2376000   0.68929401    -4.872926    -4.872926    -3.838986 0.0074919778    -4.872926      1.03394  1010000 
 2377000   0.68929503   -4.8734306   -4.8734306   -3.8394891 0.0048113612   -4.8734306    1.0339415  1010000 
 2378000   0.68898963   -4.8731896   -4.8731896   -3.8397061 0.0023741579   -4.8731896    1.0334834  1010000 
 2379000   0.68921279   -4.8743145   -4.8743145   -3.8404963 0.0015413967   -4.8743145    1.0338182  1010000 
 2380000   0.68862728   -4.8742667   -4.8742667   -3.8413268 0.0021276637   -4.8742667    1.0329399  1010000 
 2381000   0.68831138   -4.8733929   -4.8733929   -3.8409269 0.0061056857   -4.8733929     1.032466  1010000 
 2382000   0.68852676   -4.8740332   -4.8740332   -3.8412441 0.0047333695   -4.8740332    1.0327891  1010000 
 2383000   0.68870047   -4.8746834   -4.8746834   -3.8416337 0.0067125722   -4.8746834    1.0330497  1010000 
 2384000   0.68890495   -4.8752625   -4.8752625   -3.8419061 0.0086231672   -4.8752625    1.0333564  1010000 
 2385000   0.68948207   -4.8769509   -4.8769509   -3.8427288 0.0049604413   -4.8769509    1.0342221  1010000 
 2386000   0.68854513   -4.8758338   -4.8758338   -3.8430171 0.0078670501   -4.8758338    1.0328167  1010000 
 2387000   0.68850634   -4.8763229   -4.8763229   -3.8435644 0.0082240572   -4.8763229    1.0327585  1010000 
 2388000   0.68793923   -4.8759693   -4.8759693   -3.8440615 0.0092499182   -4.8759693    1.0319078  1010000 
 2389000    0.6884026   -4.8770647   -4.8770647   -3.8444618 0.0059671351   -4.8770647    1.0326029  1010000 
 2390000   0.68793786    -4.877462    -4.877462   -3.8455563 0.0088378955    -4.877462    1.0319058  1010000 
 2391000   0.68765178   -4.8780137   -4.8780137    -3.846537  0.010124876   -4.8780137    1.0314766  1010000 
 2392000   0.68871498   -4.8795007   -4.8795007   -3.8464292 0.0042735398   -4.8795007    1.0330714  1010000 
 2393000   0.68782915   -4.8782134   -4.8782134   -3.8464707  0.005138781   -4.8782134    1.0317427  1010000 
 2394000   0.68780782   -4.8784727   -4.8784727    -3.846762 0.0074913368   -4.8784727    1.0317107  1010000 
 2395000   0.68740879   -4.8785722   -4.8785722   -3.8474601 0.0049790009   -4.8785722    1.0311122  1010000 
 2396000   0.68720642   -4.8787719   -4.8787719   -3.8479633 0.0078342681   -4.8787719    1.0308086  1010000 
 2397000   0.68696257   -4.8784096   -4.8784096   -3.8479667 0.0083041626   -4.8784096    1.0304428  1010000 
 2398000   0.68753825    -4.879573    -4.879573   -3.8482667 0.0060881496    -4.879573    1.0313063  1010000 
 2399000   0.68717115    -4.880083    -4.880083   -3.8493273 0.0067736813    -4.880083    1.0307557  1010000 
 2400000   0.68774825    -4.881019    -4.881019   -3.8493976 0.0085209361    -4.881019    1.0316213  1010000 
 2401000   0.68687305   -4.8799436   -4.8799436    -3.849635 0.0096320194   -4.8799436    1.0303085  1010000 
 2402000   0.68730692   -4.8806729   -4.8806729   -3.8497136  0.007534367   -4.8806729    1.0309594  1010000 
 2403000   0.68750126   -4.8815708   -4.8815708     -3.85032 0.0068113906   -4.8815708    1.0312509  1010000 
 2404000   0.68696622   -4.8814872   -4.8814872   -3.8510389 0.0088964513   -4.8814872    1.0304483  1010000 
 2405000   0.68708412   -4.8820656   -4.8820656   -3.8514404 0.0076297125   -4.8820656    1.0306252  1010000 
 2406000   0.68703074    -4.882626    -4.882626   -3.8520809 0.0044438539    -4.882626    1.0305451  1010000 
 2407000   0.68690518   -4.8826216   -4.8826216   -3.8522649 0.0081735264   -4.8826216    1.0303567  1010000 
 2408000   0.68759968   -4.8832915   -4.8832915    -3.851893 0.0077138405   -4.8832915    1.0313985  1010000 
 2409000   0.68706744   -4.8829138   -4.8829138   -3.8523137 0.0083794365   -4.8829138    1.0306001  1010000 
 2410000    0.6869168   -4.8835509   -4.8835509   -3.8531767 0.0051283764   -4.8835509    1.0303742  1010000 
 2411000   0.68644664   -4.8835062   -4.8835062   -3.8538373 0.0070922025   -4.8835062    1.0296689  1010000 
 2412000   0.68701017   -4.8841146   -4.8841146   -3.8536004 0.0080070379   -4.8841146    1.0305142  1010000 
 2413000   0.68646903   -4.8836699   -4.8836699   -3.8539674 0.0055086948   -4.8836699    1.0297025  1010000 
 2414000   0.68563426   -4.8828076   -4.8828076   -3.8543572 0.0098498701   -4.8828076    1.0284504  1010000 
 2415000   0.68644135   -4.8841632   -4.8841632   -3.8545022 0.0051719292   -4.8841632     1.029661  1010000 
 2416000   0.68601491   -4.8844648   -4.8844648   -3.8554435 0.0066313839   -4.8844648    1.0290213  1010000 
 2417000   0.68605955   -4.8853119   -4.8853119   -3.8562236 0.0041496231   -4.8853119    1.0290883  1010000 
 2418000   0.68593067   -4.8850189   -4.8850189   -3.8561239  0.003243444   -4.8850189     1.028895  1010000 
 2419000   0.68609141   -4.8857574   -4.8857574   -3.8566213 0.0054942363   -4.8857574    1.0291361  1010000 
 2420000   0.68565971   -4.8849817   -4.8849817   -3.8564932  0.010178296   -4.8849817    1.0284885  1010000 
 2421000   0.68651097   -4.8863314   -4.8863314    -3.856566   0.00809261   -4.8863314    1.0297654  1010000 
 2422000   0.68524751   -4.8852723   -4.8852723   -3.8574021 0.0092374644   -4.8852723    1.0278702  1010000 
 2423000    0.6863218   -4.8868297   -4.8868297    -3.857348 0.0070914231   -4.8868297    1.0294817  1010000 
 2424000   0.68555527    -4.886809    -4.886809   -3.8584771 0.0089241419    -4.886809    1.0283319  1010000 
 2425000   0.68633872   -4.8889376   -4.8889376   -3.8594305 0.0056627268   -4.8889376    1.0295071  1010000 
 2426000   0.68592039   -4.8884144   -4.8884144   -3.8595348 0.0066481361   -4.8884144    1.0288796  1010000 
 2427000   0.68572379   -4.8883268   -4.8883268   -3.8597421 0.0064259633   -4.8883268    1.0285847  1010000 
 2428000   0.68573276   -4.8891414   -4.8891414   -3.8605433 0.0037717226   -4.8891414    1.0285981  1010000 
 2429000    0.6848547   -4.8885581   -4.8885581    -3.861277 0.0068932354   -4.8885581     1.027281  1010000 
 2430000   0.68519479   -4.8898575   -4.8898575   -3.8620664 0.0046630123   -4.8898575    1.0277912  1010000 
 2431000   0.68579844   -4.8905015   -4.8905015   -3.8618049 0.0053820742   -4.8905015    1.0286966  1010000 
 2432000   0.68460277   -4.8892247   -4.8892247   -3.8623216 0.0066843451   -4.8892247    1.0269031  1010000 
 2433000   0.68527929    -4.891206    -4.891206   -3.8632881 0.0074386532    -4.891206    1.0279179  1010000 
 2434000   0.68520367   -4.8915733   -4.8915733   -3.8637688  0.006014895   -4.8915733    1.0278045  1010000 
 2435000   0.68441888   -4.8909729   -4.8909729   -3.8643456 0.0048802225   -4.8909729    1.0266273  1010000 
 2436000    0.6838049   -4.8910183   -4.8910183   -3.8653119  0.007184455   -4.8910183    1.0257063  1010000 
 2437000   0.68440256   -4.8921732   -4.8921732   -3.8655703 0.0053996046   -4.8921732    1.0266028  1010000 
 2438000   0.68473214   -4.8928389   -4.8928389   -3.8657417 0.0049650692   -4.8928389    1.0270972  1010000 
 2439000   0.68452993   -4.8926268   -4.8926268   -3.8658329 0.0091570061   -4.8926268    1.0267939  1010000 
 2440000   0.68489731   -4.8932665   -4.8932665   -3.8659216  0.006905163   -4.8932665     1.027345  1010000 
 2441000   0.68560808   -4.8948256   -4.8948256   -3.8664145 0.0080960495   -4.8948256    1.0284111  1010000 
 2442000   0.68503371   -4.8942882   -4.8942882   -3.8667386 0.0074311713   -4.8942882    1.0275495  1010000 
 2443000   0.68452191   -4.8939485   -4.8939485   -3.8671667 0.0098668748   -4.8939485    1.0267819  1010000 
 2444000   0.68430597   -4.8936636   -4.8936636   -3.8672057 0.0085816514   -4.8936636    1.0264579  1010000 
 2445000   0.68485047   -4.8951223   -4.8951223   -3.8678476 0.0064105081   -4.8951223    1.0272747  1010000 
 2446000     0.684159    -4.894261    -4.894261   -3.8680235  0.009071459    -4.894261    1.0262375  1010000 
 2447000   0.68429853   -4.8954853   -4.8954853   -3.8690385 0.0054946682   -4.8954853    1.0264468  1010000 
 2448000   0.68439787   -4.8961285   -4.8961285   -3.8695328 0.0040972162   -4.8961285    1.0265958  1010000 
 2449000   0.68357323   -4.8951501   -4.8951501   -3.8697913  0.003065597   -4.8951501    1.0253588  1010000 
 2450000    0.6827883   -4.8945224   -4.8945224   -3.8703409 0.0038311046   -4.8945224    1.0241814  1010000 
 2451000    0.6835128   -4.8960224   -4.8960224   -3.8707542 0.0025960785   -4.8960224    1.0252682  1010000 
 2452000   0.68300132   -4.8953848   -4.8953848   -3.8708838 0.0042732229   -4.8953848     1.024501  1010000 
 2453000   0.68352659   -4.8967014   -4.8967014   -3.8714126  0.002585973   -4.8967014    1.0252889  1010000 
 2454000   0.68308493   -4.8967777   -4.8967777   -3.8721513 0.0049372238   -4.8967777    1.0246264  1010000 
 2455000   0.68329681   -4.8972277   -4.8972277   -3.8722835 0.0053474342   -4.8972277    1.0249442  1010000 
 2456000   0.68341437   -4.8982274   -4.8982274   -3.8731068 0.0038908691   -4.8982274    1.0251205  1010000 
 2457000   0.68318694   -4.8981159   -4.8981159   -3.8733365 0.0054832364   -4.8981159    1.0247794  1010000 
 2458000   0.68271941   -4.8978101   -4.8978101    -3.873732   0.01061653   -4.8978101    1.0240781  1010000 
 2459000   0.68367766   -4.9002519   -4.9002519   -3.8747364 0.0063293534   -4.9002519    1.0255155  1010000 
 2460000   0.68322947   -4.8993529   -4.8993529   -3.8745097  0.012356076   -4.8993529    1.0248432  1010000 
 2461000   0.68341626   -4.8999019   -4.8999019   -3.8747785 0.0099738606   -4.8999019    1.0251234  1010000 
 2462000   0.68317153   -4.9003674   -4.9003674   -3.8756112  0.010848948   -4.9003674    1.0247563  1010000 
 2463000   0.68333448   -4.9013598   -4.9013598   -3.8763591 0.0068984693   -4.9013598    1.0250007  1010000 
 2464000   0.68328086   -4.9018337   -4.9018337   -3.8769134 0.0055589985   -4.9018337    1.0249203  1010000 
 2465000   0.68177864   -4.9000607   -4.9000607   -3.8773937 0.0096540505   -4.9000607    1.0226669  1010000 
 2466000   0.68163609   -4.9000354   -4.9000354   -3.8775823  0.010760667   -4.9000354    1.0224531  1010000 
 2467000   0.68225824    -4.900888    -4.900888   -3.8775017 0.0079494872    -4.900888    1.0233863  1010000 
 2468000   0.68191371   -4.9012594   -4.9012594   -3.8783899 0.0059831057   -4.9012594    1.0228696  1010000 
 2469000   0.68246968   -4.9018519   -4.9018519   -3.8781484  0.005354447   -4.9018519    1.0237035  1010000 
 2470000   0.68187973   -4.9013395   -4.9013395   -3.8785209 0.0071642474   -4.9013395    1.0228186  1010000 
 2471000   0.68166843   -4.9019521   -4.9019521   -3.8794504 0.0051258106   -4.9019521    1.0225016  1010000 
 2472000   0.68144836   -4.9021475   -4.9021475   -3.8799759 0.0023556308   -4.9021475    1.0221715  1010000 
 2473000   0.68188244   -4.9029322   -4.9029322   -3.8801095 0.0025017864   -4.9029322    1.0228226  1010000 
 2474000   0.68131115   -4.9026838   -4.9026838   -3.8807181 0.0074753905   -4.9026838    1.0219657  1010000 
 2475000   0.68108153   -4.9032838   -4.9032838   -3.8816625 0.0039989856   -4.9032838    1.0216213  1010000 
 2476000   0.68134201   -4.9036896   -4.9036896   -3.8816776 0.0048629747   -4.9036896     1.022012  1010000 
 2477000   0.68148092   -4.9046485   -4.9046485   -3.8824281 0.0040554336   -4.9046485    1.0222204  1010000 
 2478000   0.68219974   -4.9058027   -4.9058027   -3.8825041 0.0083494874   -4.9058027    1.0232986  1010000 
 2479000   0.68197606   -4.9060398   -4.9060398   -3.8830767 0.0063913993   -4.9060398    1.0229631  1010000 
 2480000   0.68187109   -4.9064395   -4.9064395   -3.8836339 0.0080612522   -4.9064395    1.0228056  1010000 
 2481000    0.6818865    -4.906953    -4.906953   -3.8841243 0.0070835972    -4.906953    1.0228287  1010000 
 2482000   0.68160298   -4.9070105   -4.9070105    -3.884607 0.0073124443   -4.9070105    1.0224035  1010000 
 2483000    0.6819707   -4.9084955   -4.9084955   -3.8855405 0.0078365679   -4.9084955     1.022955  1010000 
 2484000   0.68165211   -4.9078472   -4.9078472   -3.8853701  0.010134506   -4.9078472    1.0224772  1010000 
 2485000   0.68096619   -4.9078246   -4.9078246   -3.8863763 0.0094854525   -4.9078246    1.0214483  1010000 
 2486000   0.68191494   -4.9094641   -4.9094641   -3.8865927 0.0044352252   -4.9094641    1.0228714  1010000 
 2487000   0.68102571   -4.9080347   -4.9080347   -3.8864971 0.0097475118   -4.9080347    1.0215375  1010000 
 2488000   0.68144308    -4.908962    -4.908962   -3.8867984 0.0060342182    -4.908962    1.0221636  1010000 
 2489000    0.6812344   -4.9092966   -4.9092966    -3.887446 0.0039454775   -4.9092966    1.0218506  1010000 
 2490000   0.68062722    -4.908733    -4.908733   -3.8877932 0.0064278773    -4.908733    1.0209398  1010000 
 2491000    0.6802464   -4.9084445   -4.9084445    -3.888076  0.003903209   -4.9084445    1.0203686  1010000 
 2492000   0.68010608   -4.9079285   -4.9079285   -3.8877704 0.0071351359   -4.9079285    1.0201581  1010000 
 2493000   0.68040031   -4.9091512   -4.9091512   -3.8885517 0.0058128693   -4.9091512    1.0205995  1010000 
 2494000   0.68066385   -4.9099937   -4.9099937    -3.888999 0.0019087834   -4.9099937    1.0209948  1010000 
 2495000   0.68016667   -4.9096497   -4.9096497   -3.8894007  0.004263852   -4.9096497     1.020249  1010000 
 2496000   0.67982412   -4.9090667   -4.9090667   -3.8893316 0.0053631235   -4.9090667    1.0197352  1010000 
 2497000   0.67991174   -4.9094599   -4.9094599   -3.8895933 0.0042928339   -4.9094599    1.0198666  1010000 
 2498000     0.680414   -4.9109564   -4.9109564   -3.8903364  0.004521501   -4.9109564      1.02062  1010000 
 2499000   0.68037684   -4.9110526   -4.9110526   -3.8904884 0.0070338141   -4.9110526    1.0205642  1010000 
 2500000   0.68029685   -4.9117103   -4.9117103   -3.8912661 0.0068778802   -4.9117103    1.0204443  1010000 
 2501000   0.68069311   -4.9128112   -4.9128112   -3.8917725 0.0067692728   -4.9128112    1.0210387  1010000 
 2502000   0.67994641   -4.9117854   -4.9117854   -3.8918668 0.0073168704   -4.9117854    1.0199186  1010000 
 2503000   0.68025588   -4.9130497   -4.9130497   -3.8926668 0.0069543702   -4.9130497    1.0203828  1010000 
 2504000   0.68041444   -4.9140399   -4.9140399   -3.8934192 0.0033039753   -4.9140399    1.0206206  1010000 
 2505000   0.67976083    -4.913058    -4.913058   -3.8934177   0.00780658    -4.913058    1.0196402  1010000 
 2506000   0.67944643      -4.9138      -4.9138   -3.8946313 0.0066697603      -4.9138    1.0191686  1010000 
 2507000   0.67992333   -4.9147167   -4.9147167   -3.8948327 0.0069261531   -4.9147167     1.019884  1010000 
 2508000   0.67964844   -4.9147967   -4.9147967    -3.895325  0.008367789   -4.9147967    1.0194716  1010000 
 2509000   0.67990976   -4.9158343   -4.9158343   -3.8959706 0.0075921686   -4.9158343    1.0198636  1010000 
 2510000   0.67893886   -4.9145359   -4.9145359   -3.8961286  0.009825307   -4.9145359    1.0184073  1010000 
 2511000   0.67969297   -4.9159845   -4.9159845    -3.896446 0.0093585216   -4.9159845    1.0195384  1010000 
 2512000   0.67896793   -4.9157291   -4.9157291   -3.8972782 0.0045314275   -4.9157291    1.0184509  1010000 
 2513000   0.67886971   -4.9153746   -4.9153746    -3.897071 0.0065284013   -4.9153746    1.0183036  1010000 
 2514000    0.6788716   -4.9162231   -4.9162231   -3.8979167 0.0047661651   -4.9162231    1.0183064  1010000 
 2515000   0.67955878   -4.9171419   -4.9171419   -3.8978047 0.0062475105   -4.9171419    1.0193372  1010000 
 2516000   0.67888117   -4.9163494   -4.9163494   -3.8980287 0.0073256174   -4.9163494    1.0183207  1010000 
 2517000   0.67834276   -4.9160501   -4.9160501    -3.898537  0.009968307   -4.9160501    1.0175131  1010000 
 2518000   0.67852066   -4.9168161   -4.9168161   -3.8990361 0.0038558894   -4.9168161      1.01778  1010000 
 2519000   0.67821715   -4.9169785   -4.9169785   -3.8996538 0.0031897286   -4.9169785    1.0173247  1010000 
 2520000   0.67851846   -4.9174544   -4.9174544   -3.8996777  0.003431902   -4.9174544    1.0177767  1010000 
 2521000   0.67802624   -4.9173317   -4.9173317   -3.9002934 0.0047746393   -4.9173317    1.0170383  1010000 
 2522000   0.67764357   -4.9173832   -4.9173832   -3.9009189 0.0062248419   -4.9173832    1.0164644  1010000 
 2523000    0.6780394   -4.9186628   -4.9186628   -3.9016047 0.0038974613   -4.9186628    1.0170581  1010000 
 2524000   0.67746844   -4.9180316   -4.9180316     -3.90183  0.010233688   -4.9180316    1.0162016  1010000 
 2525000   0.67812279   -4.9195856   -4.9195856   -3.9024024  0.004213814   -4.9195856    1.0171832  1010000 
 2526000   0.67785688   -4.9192812   -4.9192812   -3.9024969 0.0061456869   -4.9192812    1.0167843  1010000 
 2527000   0.67776455   -4.9192908   -4.9192908    -3.902645 0.0064119247   -4.9192908    1.0166458  1010000 
 2528000   0.67911397   -4.9218738   -4.9218738   -3.9032038 0.0085497679   -4.9218738    1.0186699  1010000 
 2529000   0.67787929    -4.920776    -4.920776    -3.903958  0.010589494    -4.920776    1.0168179  1010000 
 2530000   0.67803199   -4.9209397   -4.9209397   -3.9038927 0.0090806222   -4.9209397     1.017047  1010000 
 2531000   0.67864895   -4.9222236   -4.9222236   -3.9042512 0.0089312417   -4.9222236    1.0179724  1010000 
 2532000   0.67835271   -4.9232203   -4.9232203   -3.9056922 0.0046409504   -4.9232203    1.0175281  1010000 
 2533000   0.67784993   -4.9233226   -4.9233226   -3.9065487  0.007133134   -4.9233226    1.0167739  1010000 
 2534000   0.67753506   -4.9226206   -4.9226206    -3.906319 0.0063368842   -4.9226206    1.0163016  1010000 
 2535000   0.67776673   -4.9236106   -4.9236106   -3.9069615   0.00520596   -4.9236106    1.0166491  1010000 
 2536000   0.67756482    -4.924225    -4.924225   -3.9078788  0.002359691    -4.924225    1.0163462  1010000 
 2537000   0.67723043   -4.9244706   -4.9244706    -3.908626 0.0035707117   -4.9244706    1.0158446  1010000 
 2538000   0.67678795   -4.9237603   -4.9237603   -3.9085794 0.0061234852   -4.9237603    1.0151809  1010000 
 2539000   0.67636701   -4.9237149   -4.9237149   -3.9091654 0.0063673218   -4.9237149    1.0145495  1010000 
 2540000   0.67635266   -4.9243386   -4.9243386   -3.9098106  0.004698276   -4.9243386     1.014528  1010000 
 2541000   0.67624694   -4.9248459   -4.9248459   -3.9104765 0.0073851196   -4.9248459    1.0143694  1010000 
 2542000   0.67718836   -4.9268976   -4.9268976   -3.9111161 0.0032271077   -4.9268976    1.0157815  1010000 
 2543000   0.67641884   -4.9255284   -4.9255284   -3.9109011  0.012072634   -4.9255284    1.0146272  1010000 
 2544000   0.67643867   -4.9260808   -4.9260808   -3.9114238 0.0088064839   -4.9260808     1.014657  1010000 
 2545000   0.67645667   -4.9269089   -4.9269089   -3.9122249 0.0066979509   -4.9269089     1.014684  1010000 
 2546000   0.67623944   -4.9275503   -4.9275503   -3.9131922 0.0071277873   -4.9275503    1.0143582  1010000 
 2547000   0.67634297   -4.9283152   -4.9283152   -3.9138018 0.0050995209   -4.9283152    1.0145134  1010000 
 2548000    0.6761828   -4.9286897   -4.9286897   -3.9144165 0.0029028182   -4.9286897    1.0142732  1010000 
 2549000   0.67650908   -4.9292184   -4.9292184   -3.9144558 0.0038367185   -4.9292184    1.0147626  1010000 
 2550000   0.67577468   -4.9287096   -4.9287096   -3.9150486 0.0091336293   -4.9287096     1.013661  1010000 
 2551000   0.67671354   -4.9308409   -4.9308409   -3.9157716 0.0051427568   -4.9308409    1.0150693  1010000 
 2552000   0.67585072    -4.928906    -4.928906   -3.9151309  0.011181305    -4.928906    1.0137751  1010000 
 2553000   0.67608461   -4.9297917   -4.9297917   -3.9156658 0.0086338369   -4.9297917    1.0141259  1010000 
 2554000    0.6760855   -4.9296582   -4.9296582   -3.9155309 0.0078464912   -4.9296582    1.0141272  1010000 
 2555000   0.67566728   -4.9301157   -4.9301157   -3.9166158  0.009800646   -4.9301157    1.0134999  1010000 
 2556000    0.6754947   -4.9301316   -4.9301316   -3.9168906 0.0079126143   -4.9301316     1.013241  1010000 
 2557000   0.67538683   -4.9309201   -4.9309201   -3.9178409 0.0038887487   -4.9309201    1.0130792  1010000 
 2558000   0.67515479   -4.9311119   -4.9311119   -3.9183807 0.0053809989   -4.9311119    1.0127312  1010000 
 2559000   0.67538683   -4.9316325   -4.9316325   -3.9185532 0.0022571955   -4.9316325    1.0130792  1010000 
 2560000   0.67432446   -4.9306841   -4.9306841   -3.9191984 0.0032860847   -4.9306841    1.0114857  1010000 
 2561000   0.67518571   -4.9322151   -4.9322151   -3.9194376 0.0027743363   -4.9322151    1.0127776  1010000 
 2562000   0.67538016   -4.9323051   -4.9323051   -3.9192359 0.0088273893   -4.9323051    1.0130692  1010000 
 2563000   0.67469776   -4.9327272   -4.9327272   -3.9206816 0.0062364979   -4.9327272    1.0120456  1010000 
 2564000   0.67481459   -4.9331866   -4.9331866   -3.9209657 0.0071376746   -4.9331866    1.0122209  1010000 
 2565000   0.67537505   -4.9338983   -4.9338983   -3.9208367 0.0049247524   -4.9338983    1.0130616  1010000 
 2566000   0.67503494   -4.9341275   -4.9341275   -3.9215761 0.0064332007   -4.9341275    1.0125514  1010000 
 2567000   0.67449553   -4.9337463   -4.9337463    -3.922004 0.0076099179   -4.9337463    1.0117423  1010000 
 2568000   0.67508045   -4.9357714   -4.9357714   -3.9231517 0.0037566017   -4.9357714    1.0126197  1010000 
 2569000   0.67471687   -4.9354037   -4.9354037   -3.9233294 0.0079399338   -4.9354037    1.0120743  1010000 
 2570000   0.67435405   -4.9353026   -4.9353026   -3.9237725 0.0069890624   -4.9353026    1.0115301  1010000 
 2571000   0.67509901   -4.9366127   -4.9366127   -3.9239651 0.0061782418   -4.9366127    1.0126475  1010000 
 2572000   0.67454098   -4.9364709   -4.9364709   -3.9246604 0.0052259996   -4.9364709    1.0118105  1010000 
 2573000   0.67465464    -4.936588    -4.936588    -3.924607 0.0050563536    -4.936588     1.011981  1010000 
 2574000   0.67414021   -4.9357867   -4.9357867   -3.9245774 0.0089208318   -4.9357867    1.0112093  1010000 
 2575000   0.67480449      -4.9383      -4.9383   -3.9260943 0.0019864514      -4.9383    1.0122057  1010000 
 2576000   0.67475459   -4.9378435   -4.9378435   -3.9257126 0.0067835794   -4.9378435    1.0121309  1010000 
 2577000   0.67473307   -4.9378972   -4.9378972   -3.9257986 0.0073304761   -4.9378972    1.0120986  1010000 
 2578000   0.67384404   -4.9373874   -4.9373874   -3.9266224 0.0055240773   -4.9373874    1.0107651  1010000 
 2579000   0.67351165   -4.9374723   -4.9374723   -3.9272058 0.0032284125   -4.9374723    1.0102665  1010000 
 2580000   0.67322403   -4.9379742   -4.9379742   -3.9281392 0.0040184301   -4.9379742     1.009835  1010000 
 2581000   0.67306222   -4.9371966   -4.9371966   -3.9276043 0.0042608652   -4.9371966    1.0095923  1010000 
 2582000    0.6734349   -4.9385488   -4.9385488   -3.9283975 0.0039291635   -4.9385488    1.0101513  1010000 
 2583000   0.67323487   -4.9390274   -4.9390274   -3.9291761 0.0047034528   -4.9390274    1.0098513  1010000 
 2584000   0.67348605   -4.9398202   -4.9398202   -3.9295921 0.0054309598   -4.9398202    1.0102281  1010000 
 2585000    0.6739548   -4.9410918   -4.9410918   -3.9301606 0.0028251605   -4.9410918    1.0109312  1010000 
 2586000    0.6732829   -4.9399708   -4.9399708   -3.9300475 0.0073341365   -4.9399708    1.0099233  1010000 
 2587000   0.67290738    -4.940037    -4.940037    -3.930677 0.0045129869    -4.940037    1.0093601  1010000 
 2588000   0.67345983   -4.9411215   -4.9411215   -3.9309327 0.0084959795   -4.9411215    1.0101887  1010000 
 2589000   0.67309091   -4.9410977   -4.9410977   -3.9314624 0.0076084193   -4.9410977    1.0096354  1010000 
 2590000   0.67431475   -4.9432671   -4.9432671    -3.931796 0.0071263909   -4.9432671    1.0114711  1010000 
 2591000   0.67418714   -4.9436603   -4.9436603   -3.9323806 0.0054823674   -4.9436603    1.0112797  1010000 
 2592000   0.67410586   -4.9432987   -4.9432987   -3.9321409 0.0089223779   -4.9432987    1.0111578  1010000 
 2593000   0.67348294   -4.9431799   -4.9431799   -3.9329565 0.0088278187   -4.9431799    1.0102234  1010000 
 2594000   0.67307697   -4.9434104   -4.9434104    -3.933796 0.0073202165   -4.9434104    1.0096145  1010000 
 2595000   0.67213896   -4.9429567   -4.9429567   -3.9347493  0.008509447   -4.9429567    1.0082074  1010000 
 2596000   0.67199584   -4.9429564   -4.9429564   -3.9349637 0.0062113376   -4.9429564    1.0079928  1010000 
 2597000   0.67217487   -4.9430708   -4.9430708   -3.9348095 0.0041328816   -4.9430708    1.0082613  1010000 
 2598000   0.67233775   -4.9430742   -4.9430742   -3.9345686 0.0081978099   -4.9430742    1.0085056  1010000 
 2599000   0.67361009   -4.9450959   -4.9450959   -3.9346817 0.0066356008   -4.9450959    1.0104141  1010000 
 2600000   0.67343428   -4.9450344   -4.9450344    -3.934884 0.0054307953   -4.9450344    1.0101504  1010000 
 2601000   0.67282025   -4.9444893   -4.9444893   -3.9352599 0.0028840767   -4.9444893    1.0092294  1010000 
 2602000   0.67150757   -4.9439636   -4.9439636   -3.9367033 0.0060980002   -4.9439636    1.0072604  1010000 
 2603000   0.67150127   -4.9444736   -4.9444736   -3.9372227 0.0053076258   -4.9444736    1.0072509  1010000 
 2604000   0.67189937   -4.9459465   -4.9459465   -3.9380985 0.00046246256   -4.9459465    1.0078481  1010000 
 2605000   0.67148536   -4.9457713   -4.9457713   -3.9385443 -0.00028430894   -4.9457713     1.007227  1010000 
 2606000   0.67141177   -4.9453575   -4.9453575   -3.9382409 0.0061844752   -4.9453575    1.0071167  1010000 
 2607000   0.67159152   -4.9462851   -4.9462851   -3.9388988  0.006470958   -4.9462851    1.0073863  1010000 
 2608000   0.67268561   -4.9484519   -4.9484519   -3.9394245 0.0043929055   -4.9484519    1.0090274  1010000 
 2609000   0.67226695   -4.9484726   -4.9484726   -3.9400732 0.0074098357   -4.9484726    1.0083994  1010000 
 2610000   0.67221559   -4.9486892   -4.9486892   -3.9403668 0.0050565336   -4.9486892    1.0083224  1010000 
 2611000   0.67221111   -4.9490559   -4.9490559   -3.9407402 0.0050789851   -4.9490559    1.0083157  1010000 
 2612000   0.67240937   -4.9502361   -4.9502361    -3.941623 0.0028595122   -4.9502361    1.0086131  1010000 
 2613000   0.67227842   -4.9504068   -4.9504068   -3.9419901 0.0047249855   -4.9504068    1.0084166  1010000 
 2614000   0.67214913   -4.9502529   -4.9502529   -3.9420302 0.0088723265   -4.9502529    1.0082227  1010000 
 2615000   0.67258696   -4.9518744   -4.9518744    -3.942995 0.0074236886   -4.9518744    1.0088794  1010000 
 2616000     0.671352   -4.9501146   -4.9501146   -3.9430875  0.010802588   -4.9501146     1.007027  1010000 
 2617000   0.67119945   -4.9503287   -4.9503287   -3.9435306 0.0053429021   -4.9503287    1.0067982  1010000 
 2618000   0.67083857   -4.9503209   -4.9503209    -3.944064 0.0048164548   -4.9503209    1.0062569  1010000 
 2619000   0.67061741   -4.9503196   -4.9503196   -3.9443945 0.0039259353   -4.9503196    1.0059251  1010000 
 2620000   0.67068709   -4.9505412   -4.9505412   -3.9445116 0.0062891866   -4.9505412    1.0060296  1010000 
 2621000   0.67037786   -4.9513619   -4.9513619   -3.9457961  0.003061759   -4.9513619    1.0055658  1010000 
 2622000   0.67019352   -4.9510447   -4.9510447   -3.9457554 0.0057697036   -4.9510447    1.0052893  1010000 
 2623000   0.66974218   -4.9509626   -4.9509626   -3.9463503 0.0048966606   -4.9509626    1.0046123  1010000 
 2624000   0.67028864   -4.9519095   -4.9519095   -3.9464775 0.0025436703   -4.9519095     1.005432  1010000 
 2625000   0.67009687   -4.9527606   -4.9527606   -3.9476163  0.002391214   -4.9527606    1.0051443  1010000 
 2626000   0.66998437   -4.9529593   -4.9529593   -3.9479837  0.005737486   -4.9529593    1.0049756  1010000 
 2627000   0.67074867   -4.9542886   -4.9542886   -3.9481665  0.006555649   -4.9542886     1.006122  1010000 
 2628000   0.67027904   -4.9544003   -4.9544003   -3.9489827 0.0092480933   -4.9544003    1.0054176  1010000 
 2629000   0.67036985   -4.9552852   -4.9552852   -3.9497314 0.0069442164   -4.9552852    1.0055538  1010000 
 2630000   0.67080679   -4.9558384   -4.9558384   -3.9496292 0.0048246482   -4.9558384    1.0062092  1010000 
 2631000   0.67103109   -4.9565592   -4.9565592   -3.9500136 0.0055686904   -4.9565592    1.0065456  1010000 
 2632000    0.6701937   -4.9559158   -4.9559158   -3.9506263 0.0097616342   -4.9559158    1.0052896  1010000 
 2633000   0.67025306   -4.9567871   -4.9567871   -3.9514085 0.0090861433   -4.9567871    1.0053786  1010000 
 2634000   0.66958521   -4.9561684   -4.9561684   -3.9517916  0.011793269   -4.9561684    1.0043768  1010000 
 2635000   0.67055179    -4.958016    -4.958016   -3.9521893 0.0090263457    -4.958016    1.0058267  1010000 
 2636000   0.66973498   -4.9567216   -4.9567216   -3.9521201  0.009777392   -4.9567216    1.0046015  1010000 
 2637000   0.66935959   -4.9567691   -4.9567691   -3.9527307 0.0067319973   -4.9567691    1.0040384  1010000 
 2638000   0.66860761   -4.9560212   -4.9560212   -3.9531108 0.0068138231   -4.9560212    1.0029104  1010000 
 2639000   0.66912867   -4.9573963   -4.9573963   -3.9537043 0.0033802174   -4.9573963     1.003692  1010000 
 2640000    0.6689269   -4.9574543   -4.9574543    -3.954065 0.0023449316   -4.9574543    1.0033894  1010000 
 2641000   0.66867078    -4.957174    -4.957174   -3.9541688 0.0051236991    -4.957174    1.0030052  1010000 
 2642000   0.66874762   -4.9584058   -4.9584058   -3.9552854 0.00045317178   -4.9584058    1.0031204  1010000 
 2643000   0.66813956    -4.957739    -4.957739   -3.9555307 0.0028405517    -4.957739    1.0022083  1010000 
 2644000   0.66899926   -4.9587716   -4.9587716   -3.9552737 0.0010526125   -4.9587716    1.0034979  1010000 
 2645000    0.6685408   -4.9587292   -4.9587292   -3.9559189 0.0047294473   -4.9587292    1.0028102  1010000 
 2646000   0.66850532   -4.9588182   -4.9588182   -3.9560612 0.0055144245   -4.9588182     1.002757  1010000 
 2647000    0.6686779   -4.9593645   -4.9593645   -3.9563486 0.0071983932   -4.9593645    1.0030159  1010000 
 2648000    0.6690396   -4.9604074   -4.9604074    -3.956849 0.0048146055   -4.9604074    1.0035584  1010000 
 2649000    0.6684682   -4.9607771   -4.9607771   -3.9580758  0.010261987   -4.9607771    1.0027013  1010000 
 2650000   0.66834561    -4.961308    -4.961308   -3.9587906 0.0062747752    -4.961308    1.0025174  1010000 
 2651000   0.66845485   -4.9622077   -4.9622077   -3.9595265 0.0046523988   -4.9622077    1.0026813  1010000 
 2652000   0.66807589   -4.9614068   -4.9614068    -3.959294 0.0053167257   -4.9614068    1.0021128  1010000 
 2653000   0.66815199   -4.9626336   -4.9626336   -3.9604066 0.0069355168   -4.9626336     1.002227  1010000 
 2654000   0.66865977   -4.9635662   -4.9635662   -3.9605776 0.0075980155   -4.9635662    1.0029887  1010000 
 2655000   0.66891927   -4.9640636   -4.9640636   -3.9606857 0.0081932097   -4.9640636    1.0033779  1010000 
 2656000   0.66860752    -4.964027    -4.964027   -3.9611167 0.0086836752    -4.964027    1.0029103  1010000 
 2657000   0.66861474   -4.9644727   -4.9644727   -3.9615516 0.0097056778   -4.9644727    1.0029211  1010000 
 2658000   0.66800534   -4.9639398   -4.9639398   -3.9619328 0.0086628816   -4.9639398     1.002007  1010000 
 2659000   0.66739691   -4.9633611   -4.9633611   -3.9622667 0.0075425499   -4.9633611    1.0010944  1010000 
 2660000   0.66850167   -4.9652437   -4.9652437   -3.9624922 0.0017951252   -4.9652437    1.0027515  1010000 
 2661000   0.66811256   -4.9654461   -4.9654461   -3.9632783 0.0045047933   -4.9654461    1.0021678  1010000 
 2662000   0.66780659   -4.9651579   -4.9651579    -3.963449 0.0063328068   -4.9651579    1.0017089  1010000 
 2663000   0.66781388   -4.9656177   -4.9656177   -3.9638978 0.0056609364   -4.9656177    1.0017198  1010000 
 2664000   0.66768465   -4.9659697   -4.9659697   -3.9644438 0.0034383729   -4.9659697     1.001526  1010000 
 2665000   0.66689227   -4.9656705   -4.9656705   -3.9653331 0.0030276292   -4.9656705    1.0003374  1010000 
 2666000   0.66640474   -4.9651573   -4.9651573   -3.9655512  0.003774625   -4.9651573   0.99960613  1010000 
 2667000   0.66681437    -4.966458    -4.966458   -3.9662375 -0.00081077217    -4.966458    1.0002206  1010000 
 2668000   0.66755209    -4.967352    -4.967352   -3.9660248 0.0024131968    -4.967352    1.0013271  1010000 
 2669000   0.66738042   -4.9673045   -4.9673045   -3.9662348 0.0058242038   -4.9673045    1.0010696  1010000 
 2670000   0.66763757   -4.9678274   -4.9678274    -3.966372 0.0066535726   -4.9678274    1.0014554  1010000 
 2671000   0.66729745   -4.9678953   -4.9678953   -3.9669501 0.0068201401   -4.9678953    1.0009452  1010000 
 2672000   0.66696445    -4.968028    -4.968028   -3.9675823  0.006655241    -4.968028    1.0004457  1010000 
 2673000   0.66726594   -4.9687617   -4.9687617   -3.9678638 0.0034562618   -4.9687617    1.0008979  1010000 
 2674000   0.66641666   -4.9681026   -4.9681026   -3.9684786   0.00680094   -4.9681026     0.999624  1010000 
 2675000   0.66749128   -4.9699455   -4.9699455   -3.9687096 0.0061498689   -4.9699455    1.0012359  1010000 
 2676000    0.6674517    -4.970089    -4.970089   -3.9689124 0.0070546751    -4.970089    1.0011766  1010000 
 2677000   0.66664602   -4.9699603   -4.9699603   -3.9699923 0.0089371718   -4.9699603   0.99996805  1010000 
 2678000   0.66765533   -4.9717723   -4.9717723   -3.9702903  0.004418168   -4.9717723     1.001482  1010000 
 2679000   0.66604505   -4.9696935   -4.9696935   -3.9706269 0.0075931882   -4.9696935   0.99906658  1010000 
 2680000   0.66605902   -4.9703719   -4.9703719   -3.9712844 0.0036996149   -4.9703719   0.99908754  1010000 
 2681000   0.66528386   -4.9696591   -4.9696591   -3.9717343 0.0090800733   -4.9696591    0.9979248  1010000 
 2682000   0.66560244   -4.9708848   -4.9708848   -3.9724821 0.0046169648   -4.9708848   0.99840267  1010000 
 2683000   0.66663759   -4.9725267   -4.9725267   -3.9725713 0.0041997928   -4.9725267    0.9999554  1010000 
 2684000   0.66640738   -4.9723569   -4.9723569   -3.9727468 0.0058590518   -4.9723569   0.99961008  1010000 
 2685000   0.66568827   -4.9720744   -4.9720744    -3.973543 0.0037863752   -4.9720744   0.99853141  1010000 
 2686000   0.66493814   -4.9718092   -4.9718092    -3.974403 0.0040504967   -4.9718092   0.99740622  1010000 
 2687000   0.66511527   -4.9723899   -4.9723899    -3.974718 0.0046092749   -4.9723899   0.99767191  1010000 
 2688000   0.66563659   -4.9730597   -4.9730597   -3.9746058 0.0020328087   -4.9730597    0.9984539  1010000 
 2689000   0.66663413   -4.9750247   -4.9750247   -3.9750745 0.0033953459   -4.9750247    0.9999502  1010000 
 2690000   0.66582086    -4.974822    -4.974822   -3.9760917 0.0059863781    -4.974822    0.9987303  1010000 
 2691000   0.66489034   -4.9737547   -4.9737547   -3.9764201  0.009950494   -4.9737547   0.99733452  1010000 
 2692000    0.6655739   -4.9753056   -4.9753056   -3.9769458 0.0057923965   -4.9753056   0.99835985  1010000 
 2693000      0.66551   -4.9756573   -4.9756573   -3.9773933 0.0055323688   -4.9756573   0.99826401  1010000 
 2694000   0.66518148   -4.9756766   -4.9756766   -3.9779054 0.0066535911   -4.9756766   0.99777123  1010000 
 2695000   0.66559297   -4.9772084   -4.9772084   -3.9788199 0.0053251835   -4.9772084   0.99838847  1010000 
 2696000   0.66553075   -4.9774385   -4.9774385   -3.9791434 0.0055625425   -4.9774385   0.99829514  1010000 
 2697000   0.66514872   -4.9780806   -4.9780806   -3.9803585  0.006630497   -4.9780806   0.99772209  1010000 
 2698000   0.66455308     -4.97782     -4.97782   -3.9809913 0.0057554791     -4.97782   0.99682863  1010000 
 2699000   0.66488853   -4.9778227   -4.9778227   -3.9804909 0.0027002111   -4.9778227   0.99733181  1010000 
 2700000    0.6639692   -4.9772796   -4.9772796   -3.9813267  0.003612843   -4.9772796   0.99595282  1010000 
 2701000   0.66429894   -4.9784311   -4.9784311   -3.9819836 0.0034802734   -4.9784311   0.99644743  1010000 
 2702000   0.66476539   -4.9794095   -4.9794095   -3.9822624 0.0037388177   -4.9794095    0.9971471  1010000 
 2703000    0.6645383    -4.979263    -4.979263   -3.9824565 0.0059781102    -4.979263   0.99680646  1010000 
 2704000   0.66524564   -4.9805219   -4.9805219   -3.9826544 0.0051979213   -4.9805219   0.99786747  1010000 
 2705000     0.664115    -4.979607    -4.979607   -3.9834355 0.0073118114    -4.979607   0.99617151  1010000 
 2706000   0.66337294   -4.9793209   -4.9793209   -3.9842625 0.0089947532   -4.9793209   0.99505842  1010000 
 2707000   0.66417693   -4.9806195   -4.9806195   -3.9843551 0.0050667295   -4.9806195    0.9962644  1010000 
 2708000    0.6643878   -4.9813063   -4.9813063   -3.9847256 0.0055135826   -4.9813063   0.99658072  1010000 
 2709000   0.66415097   -4.9809254   -4.9809254      -3.9847 0.0062563091   -4.9809254   0.99622547  1010000 
 2710000   0.66467902   -4.9824969   -4.9824969   -3.9854793 0.0027201102   -4.9824969   0.99701755  1010000 
 2711000   0.66473089   -4.9822624   -4.9822624   -3.9851671 0.0073731826   -4.9822624   0.99709535  1010000 
 2712000   0.66482182    -4.983406    -4.983406   -3.9861742 0.0039443412    -4.983406   0.99723174  1010000 
 2713000   0.66460786   -4.9829221   -4.9829221   -3.9860113  0.004809065   -4.9829221    0.9969108  1010000 
 2714000    0.6645595   -4.9828407   -4.9828407   -3.9860024 0.0061821388   -4.9828407   0.99683826  1010000 
 2715000   0.66437763   -4.9831824   -4.9831824   -3.9866169 0.0021409686   -4.9831824   0.99656546  1010000 
 2716000   0.66267161   -4.9814173   -4.9814173   -3.9874109 0.0047201981   -4.9814173   0.99400643  1010000 
 2717000   0.66392341   -4.9832965   -4.9832965   -3.9874124 -0.0012245214   -4.9832965   0.99588413  1010000 
 2718000   0.66362522   -4.9828157   -4.9828157   -3.9873788 0.0029065062   -4.9828157   0.99543685  1010000 
 2719000   0.66291786   -4.9821318   -4.9821318    -3.987756 0.0031045075   -4.9821318   0.99437581  1010000 
 2720000     0.662898   -4.9822567   -4.9822567   -3.9879107 0.0011313356   -4.9822567   0.99434602  1010000 
 2721000   0.66352198   -4.9840668   -4.9840668   -3.9887848 0.00039577233   -4.9840668   0.99528199  1010000 
 2722000   0.66319423    -4.983952    -4.983952   -3.9891616 0.0010539154    -4.983952   0.99479037  1010000 
 2723000   0.66311597   -4.9841233   -4.9841233   -3.9894504 0.0021260144   -4.9841233   0.99467297  1010000 
 2724000   0.66298968   -4.9844202   -4.9844202   -3.9899367 0.0023043012   -4.9844202   0.99448353  1010000 
 2725000   0.66250513   -4.9846135   -4.9846135   -3.9908568 0.0063738132   -4.9846135   0.99375671  1010000 
 2726000   0.66244859   -4.9848098   -4.9848098   -3.9911379 0.0054779951   -4.9848098   0.99367189  1010000 
 2727000   0.66207917   -4.9851113   -4.9851113   -3.9919936 0.0059372461   -4.9851113   0.99311777  1010000 
 2728000   0.66219539   -4.9858759   -4.9858759   -3.9925838 0.0080332419   -4.9858759    0.9932921  1010000 
 2729000   0.66262322    -4.987048    -4.987048   -3.9931141 0.0076404027    -4.987048   0.99393385  1010000 
 2730000   0.66343921    -4.988593    -4.988593   -3.9934352 0.0052393885    -4.988593   0.99515783  1010000 
 2731000   0.66285376   -4.9887366   -4.9887366   -3.9944569 0.0086016066   -4.9887366   0.99427965  1010000 
 2732000   0.66246202   -4.9883523   -4.9883523   -3.9946603  0.010365862   -4.9883523   0.99369204  1010000 
 2733000    0.6622525    -4.988584    -4.988584   -3.9952063 0.0086053393    -4.988584   0.99337777  1010000 
 2734000     0.662426   -4.9896822   -4.9896822   -3.9960442 0.0054094665   -4.9896822   0.99363801  1010000 
 2735000   0.66199832   -4.9897507   -4.9897507   -3.9967542 0.0072403779   -4.9897507   0.99299649  1010000 
 2736000   0.66239607   -4.9909943   -4.9909943   -3.9974012  0.003374548   -4.9909943   0.99359312  1010000 
 2737000   0.66216292    -4.990605    -4.990605   -3.9973616 0.0067929227    -4.990605   0.99324339  1010000 
 2738000   0.66233343   -4.9913416   -4.9913416   -3.9978425 0.0027405582   -4.9913416   0.99349917  1010000 
 2739000   0.66175337   -4.9908415   -4.9908415   -3.9982124 0.0037108442   -4.9908415   0.99262907  1010000 
 2740000   0.66194434   -4.9916257   -4.9916257   -3.9987102 0.0040015647   -4.9916257   0.99291553  1010000 
 2741000   0.66135929   -4.9908781   -4.9908781   -3.9988402 0.0035884218   -4.9908781   0.99203795  1010000 
 2742000   0.66117976   -4.9911542   -4.9911542   -3.9993856 0.0021622371   -4.9911542   0.99176865  1010000 
 2743000   0.66120297   -4.9919404   -4.9919404   -4.0001369  0.001342699   -4.9919404   0.99180348  1010000 
 2744000   0.66152167   -4.9924613   -4.9924613   -4.0001798 0.0039995846   -4.9924613   0.99228153  1010000 
 2745000   0.66177437   -4.9930298   -4.9930298   -4.0003692 0.0019371825   -4.9930298   0.99266057  1010000 
 2746000   0.66110304   -4.9924303   -4.9924303   -4.0007767 0.0029999527   -4.9924303   0.99165358  1010000 
 2747000   0.66110449   -4.9928738   -4.9928738   -4.0012181 0.0059127546   -4.9928738   0.99165575  1010000 
 2748000   0.66104534   -4.9928974   -4.9928974   -4.0013303 0.0092427428   -4.9928974   0.99156703  1010000 
 2749000   0.66195073   -4.9946531   -4.9946531    -4.001728 0.0045024896   -4.9946531   0.99292512  1010000 
 2750000   0.66132529   -4.9944856   -4.9944856   -4.0024987 0.0061612114   -4.9944856   0.99198696  1010000 
 2751000    0.6613881   -4.9946958   -4.9946958   -4.0026146  0.007321197   -4.9946958   0.99208116  1010000 
 2752000   0.66120675   -4.9949163   -4.9949163   -4.0031072 0.0079142242   -4.9949163   0.99180914  1010000 
 2753000   0.66043563    -4.994811    -4.994811   -4.0041585 0.0051968814    -4.994811   0.99065247  1010000 
 2754000   0.66043621   -4.9951254   -4.9951254   -4.0044721 0.0017794632   -4.9951254   0.99065333  1010000 
 2755000   0.66100868   -4.9963901   -4.9963901   -4.0048781 0.0039701764   -4.9963901   0.99151203  1010000 
 2756000   0.66104686    -4.996486    -4.996486   -4.0049167  0.003236624    -4.996486   0.99156931  1010000 
 2757000   0.66022851   -4.9956985   -4.9956985   -4.0053567 0.0056565179   -4.9956985   0.99034178  1010000 
 2758000    0.6603963   -4.9966179   -4.9966179   -4.0060244 0.0017425459   -4.9966179   0.99059346  1010000 
 2759000   0.66006007    -4.996142    -4.996142   -4.0060529 0.0018157847    -4.996142   0.99008913  1010000 
 2760000   0.65993879   -4.9973154   -4.9973154   -4.0074082 0.0011538454   -4.9973154   0.98990721  1010000 
 2761000   0.65945296   -4.9971255   -4.9971255    -4.007947 0.0016795183   -4.9971255   0.98917847  1010000 
 2762000   0.65997713   -4.9985447   -4.9985447     -4.00858 0.0024459816   -4.9985447   0.98996472  1010000 
 2763000    0.6595192   -4.9985304   -4.9985304   -4.0092526 0.0041224312   -4.9985304   0.98927782  1010000 
 2764000   0.66010191   -4.9991472   -4.9991472   -4.0089953 0.0011184388   -4.9991472   0.99015189  1010000 
 2765000   0.65978096   -4.9993432   -4.9993432   -4.0096727 0.0028521746   -4.9993432   0.98967046  1010000 
 2766000    0.6595465   -4.9994088   -4.9994088     -4.01009  0.006666508   -4.9994088   0.98931876  1010000 
 2767000   0.65983353   -5.0007194   -5.0007194     -4.01097 0.0072836453   -5.0007194   0.98974932  1010000 
 2768000   0.66037821   -5.0019308   -5.0019308   -4.0113645 0.0053911807   -5.0019308   0.99056633  1010000 
 2769000   0.65968835   -5.0012325   -5.0012325   -4.0117009 0.0049788867   -5.0012325   0.98953154  1010000 
 2770000   0.65976847   -5.0017801   -5.0017801   -4.0121284 0.0060892488   -5.0017801   0.98965173  1010000 
 2771000    0.6588398   -5.0012351   -5.0012351   -4.0129763  0.006354465   -5.0012351   0.98825873  1010000 
 2772000   0.65941644   -5.0025266   -5.0025266   -4.0134029 0.0027261057   -5.0025266   0.98912368  1010000 
 2773000   0.65884575   -5.0018553   -5.0018553   -4.0135876 0.0056773786   -5.0018553   0.98826765  1010000 
 2774000   0.65879937   -5.0022389   -5.0022389   -4.0140408 0.0047708569   -5.0022389   0.98819808  1010000 
 2775000   0.65912557   -5.0031443   -5.0031443    -4.014457 0.0040527128   -5.0031443   0.98868737  1010000 
 2776000   0.65816871   -5.0024011   -5.0024011    -4.015149 0.0056372099   -5.0024011   0.98725209  1010000 
 2777000   0.65848995   -5.0034031   -5.0034031   -4.0156692 0.00038766524   -5.0034031   0.98773395  1010000 
 2778000   0.65816033   -5.0030377   -5.0030377   -4.0157982 0.0037562524   -5.0030377   0.98723951  1010000 
 2779000     0.658334   -5.0037015   -5.0037015   -4.0162015 0.0011080472   -5.0037015   0.98750002  1010000 
 2780000   0.65821266   -5.0042439   -5.0042439   -4.0169259   0.00295699   -5.0042439   0.98731801  1010000 
 2781000   0.65905985   -5.0051427   -5.0051427   -4.0165539 0.0033282179   -5.0051427    0.9885888  1010000 
 2782000   0.65825573   -5.0046479   -5.0046479   -4.0172653 0.0062614233   -5.0046479   0.98738262  1010000 
 2783000   0.65836829   -5.0054589   -5.0054589   -4.0179075 0.0054530611   -5.0054589   0.98755146  1010000 
 2784000   0.65824699    -5.005699    -5.005699   -4.0183295 0.0050678001    -5.005699   0.98736951  1010000 
 2785000   0.65831736   -5.0065523   -5.0065523   -4.0190772 0.0017897103   -5.0065523   0.98747507  1010000 
 2786000   0.65772986   -5.0069854   -5.0069854   -4.0203916 -4.964659e-06   -5.0069854   0.98659381  1010000 
 2787000   0.65729458   -5.0075405   -5.0075405   -4.0215996 0.0044322016   -5.0075405   0.98594089  1010000 
 2788000   0.65725274   -5.0071134   -5.0071134   -4.0212352 0.0021613644   -5.0071134   0.98587813  1010000 
 2789000   0.65714954   -5.0076076   -5.0076076   -4.0218843 0.0035493188   -5.0076076   0.98572334  1010000 
 2790000   0.65779169   -5.0090189   -5.0090189   -4.0223323 0.0033669608   -5.0090189   0.98668655  1010000 
 2791000   0.65808829   -5.0095676   -5.0095676   -4.0224362 0.0095435433   -5.0095676   0.98713145  1010000 
 2792000   0.65844538   -5.0103565   -5.0103565   -4.0226894 0.0088407251   -5.0103565   0.98766709  1010000 
 2793000    0.6584015   -5.0104243   -5.0104243    -4.022823 0.0068460178   -5.0104243   0.98760128  1010000 
 2794000   0.65791948   -5.0102666   -5.0102666   -4.0233883  0.010555857   -5.0102666   0.98687824  1010000 
 2795000    0.6578494   -5.0111385   -5.0111385   -4.0243654  0.007801894   -5.0111385   0.98677313  1010000 
 2796000   0.65807004   -5.0118406   -5.0118406   -4.0247365 0.0063072167   -5.0118406   0.98710408  1010000 
 2797000   0.65673077   -5.0101123   -5.0101123   -4.0250171 0.0069965031   -5.0101123   0.98509518  1010000 
 2798000   0.65743276   -5.0115019   -5.0115019   -4.0253538 0.0058119548   -5.0115019   0.98614816  1010000 
 2799000   0.65770561   -5.0116231   -5.0116231   -4.0250657 0.0054885156   -5.0116231   0.98655745  1010000 
 2800000   0.65729302   -5.0109653   -5.0109653   -4.0250268 0.0064064711   -5.0109653   0.98593856  1010000 
 2801000   0.65691453   -5.0106574   -5.0106574   -4.0252866 0.0053630297   -5.0106574   0.98537082  1010000 
 2802000   0.65725119    -5.011084    -5.011084   -4.0252082 0.0017503681    -5.011084   0.98587581  1010000 
 2803000   0.65725303   -5.0111394   -5.0111394   -4.0252609 0.00046987271   -5.0111394   0.98587857  1010000 
 2804000   0.65687641   -5.0103767   -5.0103767   -4.0250631 0.0042621605   -5.0103767   0.98531364  1010000 
 2805000    0.6567356   -5.0107742   -5.0107742   -4.0256718 0.0023966778   -5.0107742   0.98510243  1010000 
 2806000    0.6565958   -5.0114294   -5.0114294   -4.0265367 0.0017682744   -5.0114294   0.98489273  1010000 
 2807000   0.65645139    -5.011425    -5.011425   -4.0267489  0.002914842    -5.011425   0.98467612  1010000 
 2808000   0.65607026   -5.0114626   -5.0114626   -4.0273581 -0.0009343038   -5.0114626   0.98410442  1010000 
 2809000   0.65629253    -5.011928    -5.011928   -4.0274902 -0.00074753162    -5.011928   0.98443782  1010000 
 2810000   0.65643138    -5.013183    -5.013183   -4.0285369 -0.0010357025    -5.013183    0.9846461  1010000 
 2811000   0.65679195   -5.0139487   -5.0139487   -4.0287617  0.001915518   -5.0139487   0.98518695  1010000 
 2812000   0.65657239   -5.0145214   -5.0145214   -4.0296638 0.0054390615   -5.0145214   0.98485761  1010000 
 2813000   0.65687283   -5.0153317   -5.0153317   -4.0300234 0.0069821423   -5.0153317   0.98530828  1010000 
 2814000   0.65681595   -5.0159166   -5.0159166   -4.0306936 0.0064573259   -5.0159166   0.98522296  1010000 
 2815000   0.65695411   -5.0159322   -5.0159322    -4.030502 0.0047664101   -5.0159322    0.9854302  1010000 
 2816000   0.65674983    -5.016774    -5.016774   -4.0316503 0.0067237496    -5.016774   0.98512377  1010000 
 2817000   0.65655087   -5.0170932   -5.0170932   -4.0322678 0.0095040015   -5.0170932   0.98482533  1010000 
 2818000   0.65665628    -5.017645    -5.017645   -4.0326615 0.0080577109    -5.017645   0.98498345  1010000 
 2819000   0.65664093   -5.0179586   -5.0179586   -4.0329982 0.0079605882   -5.0179586   0.98496043  1010000 
 2820000   0.65603336   -5.0175071   -5.0175071    -4.033458 0.0044658997   -5.0175071   0.98404907  1010000 
 2821000   0.65561168   -5.0178591   -5.0178591   -4.0344426 0.0028015284   -5.0178591   0.98341654  1010000 
 2822000   0.65542867   -5.0177506   -5.0177506   -4.0346085 0.0042364914   -5.0177506   0.98314203  1010000 
 2823000   0.65541005   -5.0181686   -5.0181686   -4.0350545 0.0040307657   -5.0181686    0.9831141  1010000 
 2824000   0.65546318   -5.0184044   -5.0184044   -4.0352106 0.0010583287   -5.0184044    0.9831938  1010000 
 2825000   0.65508456    -5.018153    -5.018153   -4.0355271 0.0012448836    -5.018153   0.98262587  1010000 
 2826000   0.65524497   -5.0188031   -5.0188031   -4.0359366 0.00019350702   -5.0188031   0.98286648  1010000 
 2827000   0.65514807   -5.0193907   -5.0193907   -4.0366696 0.00036645342   -5.0193907   0.98272113  1010000 
 2828000   0.65488255   -5.0195135   -5.0195135   -4.0371907  0.002420873   -5.0195135   0.98232285  1010000 
 2829000   0.65461485   -5.0191542   -5.0191542   -4.0372329 0.0029685536   -5.0191542   0.98192131  1010000 
 2830000   0.65576271   -5.0206174   -5.0206174   -4.0369743 0.0010870779   -5.0206174    0.9836431  1010000 
 2831000   0.65571632   -5.0212226   -5.0212226   -4.0376491 0.0022632877   -5.0212226   0.98357351  1010000 
 2832000   0.65583748   -5.0215428   -5.0215428   -4.0377876 0.0025308075   -5.0215428   0.98375525  1010000 
 2833000   0.65558753   -5.0220194   -5.0220194   -4.0386391 0.0040438402   -5.0220194   0.98338032  1010000 
 2834000    0.6548789   -5.0211195   -5.0211195   -4.0388021 0.0081588353   -5.0211195   0.98231738  1010000 
 2835000   0.65534884   -5.0225667   -5.0225667   -4.0395444 0.0030776577   -5.0225667   0.98302229  1010000 
 2836000   0.65475801   -5.0219634   -5.0219634   -4.0398273  0.007651284   -5.0219634   0.98213605  1010000 
 2837000   0.65493272   -5.0228584   -5.0228584   -4.0404602 0.0046281161   -5.0228584    0.9823981  1010000 
 2838000    0.6552625   -5.0238005   -5.0238005   -4.0409077 0.0057611111   -5.0238005   0.98289277  1010000 
 2839000   0.65393764   -5.0224507   -5.0224507   -4.0415452 0.0088635491   -5.0224507   0.98090548  1010000 
 2840000   0.65446848   -5.0239787   -5.0239787    -4.042277 0.0022601332   -5.0239787   0.98170175  1010000 
 2841000   0.65448998    -5.024197    -5.024197    -4.042463 0.0011347773    -5.024197   0.98173399  1010000 
 2842000   0.65320616   -5.0233346   -5.0233346   -4.0435263 0.0042959223   -5.0233346   0.97980827  1010000 
 2843000   0.65275143   -5.0229433   -5.0229433   -4.0438171 0.0046418956   -5.0229433   0.97912618  1010000 
 2844000   0.65386674   -5.0248411   -5.0248411   -4.0440419 0.0018596291   -5.0248411   0.98079914  1010000 
 2845000   0.65393284   -5.0251602   -5.0251602   -4.0442619 0.0027156884   -5.0251602    0.9808983  1010000 
 2846000   0.65411967    -5.025693    -5.025693   -4.0445144 0.0022318158    -5.025693   0.98117854  1010000 
 2847000   0.65342922   -5.0252291   -5.0252291   -4.0450862 0.0061930615   -5.0252291   0.98014286  1010000 
 2848000   0.65386148   -5.0255435   -5.0255435   -4.0447522 0.0060594237   -5.0255435   0.98079126  1010000 
 2849000   0.65356297   -5.0261491   -5.0261491   -4.0458056 0.0051425171   -5.0261491   0.98034348  1010000 
 2850000   0.65357297    -5.026331    -5.026331   -4.0459725 0.0060278913    -5.026331   0.98035848  1010000 
 2851000   0.65338765   -5.0277682   -5.0277682   -4.0476877 0.0019461606   -5.0277682   0.98008051  1010000 
 2852000   0.65338776   -5.0277769   -5.0277769   -4.0476962 0.0031674016   -5.0277769   0.98008068  1010000 
 2853000   0.65218755   -5.0264618   -5.0264618   -4.0481815 0.0062543076   -5.0264618   0.97828036  1010000 
 2854000   0.65328487   -5.0281504   -5.0281504   -4.0482241 0.0045493311   -5.0281504   0.97992633  1010000 
 2855000   0.65274827   -5.0281469   -5.0281469   -4.0490255 0.0062185964   -5.0281469   0.97912143  1010000 
 2856000   0.65316706   -5.0297354   -5.0297354   -4.0499857 0.0016980085   -5.0297354   0.97974962  1010000 
 2857000   0.65243699   -5.0289771   -5.0289771   -4.0503226 0.0056252355   -5.0289771   0.97865451  1010000 
 2858000   0.65326013    -5.030515    -5.030515   -4.0506258 0.00056609964    -5.030515   0.97988922  1010000 
 2859000    0.6517953   -5.0295755   -5.0295755   -4.0518835 0.0067227643   -5.0295755   0.97769199  1010000 
 2860000   0.65195845   -5.0298099   -5.0298099   -4.0518732 0.0062648704   -5.0298099    0.9779367  1010000 
 2861000   0.65215239   -5.0301761   -5.0301761   -4.0519485 0.0060779485   -5.0301761   0.97822761  1010000 
 2862000   0.65254209   -5.0315659   -5.0315659   -4.0527538 0.0033614023   -5.0315659   0.97881216  1010000 
 2863000   0.65244134   -5.0317117   -5.0317117   -4.0530506  0.003608465   -5.0317117   0.97866104  1010000 
 2864000   0.65238205   -5.0315676   -5.0315676   -4.0529955 0.0079740713   -5.0315676   0.97857211  1010000 
 2865000   0.65276937   -5.0328722   -5.0328722   -4.0537191 0.0042257225   -5.0328722   0.97915309  1010000 
 2866000   0.65269681   -5.0329128   -5.0329128   -4.0538686 0.0054304575   -5.0329128   0.97904424  1010000 
 2867000   0.65161829   -5.0319227   -5.0319227   -4.0544962  0.006885495   -5.0319227   0.97742646  1010000 
 2868000   0.65258094   -5.0333969   -5.0333969   -4.0545265 0.0028693335   -5.0333969   0.97887044  1010000 
 2869000   0.65235238   -5.0339243   -5.0339243   -4.0553967 0.0037494636   -5.0339243    0.9785276  1010000 
 2870000   0.65143304   -5.0325848   -5.0325848   -4.0554362  0.005816065   -5.0325848   0.97714859  1010000 
 2871000   0.65201556   -5.0344413   -5.0344413   -4.0564189 0.0033521633   -5.0344413   0.97802237  1010000 
 2872000   0.65098844   -5.0333666   -5.0333666   -4.0568849 0.0048467942   -5.0333666   0.97648169  1010000 
 2873000   0.65077276   -5.0333829   -5.0333829   -4.0572247  0.003200896   -5.0333829   0.97615817  1010000 
 2874000   0.65120515   -5.0341743   -5.0341743   -4.0573675 0.0022288842   -5.0341743   0.97680676  1010000 
 2875000   0.65167083   -5.0345467   -5.0345467   -4.0570414 0.0049125761   -5.0345467   0.97750527  1010000 
 2876000    0.6509211   -5.0343374   -5.0343374   -4.0579567 0.0053740614   -5.0343374   0.97638069  1010000 
 2877000   0.65130691   -5.0354884   -5.0354884    -4.058529 0.0012685354   -5.0354884    0.9769594  1010000 
 2878000   0.65053179   -5.0341894   -5.0341894   -4.0583926 0.0067780252   -5.0341894   0.97579671  1010000 
 2879000   0.65133465   -5.0358427   -5.0358427   -4.0588417 0.0038371167   -5.0358427     0.977001  1010000 
 2880000   0.65072364   -5.0357578   -5.0357578   -4.0596734 0.0082944404   -5.0357578   0.97608449  1010000 
 2881000   0.65106599   -5.0363529   -5.0363529   -4.0597549 0.0052249923   -5.0363529   0.97659801  1010000 
 2882000   0.65092864    -5.036955    -5.036955    -4.060563 0.0087413483    -5.036955     0.976392  1010000 
 2883000   0.65159139   -5.0382453   -5.0382453   -4.0608592 0.0031878305   -5.0382453   0.97738611  1010000 
 2884000   0.65124617    -5.038714    -5.038714   -4.0618457 0.0016226006    -5.038714   0.97686828  1010000 
 2885000   0.65091022   -5.0386934   -5.0386934    -4.062329 0.0033236116   -5.0386934   0.97636436  1010000 
 2886000   0.65076911   -5.0385001   -5.0385001   -4.0623474  0.002534626   -5.0385001   0.97615271  1010000 
 2887000    0.6510371   -5.0391104   -5.0391104   -4.0625558 0.0034474605   -5.0391104   0.97655468  1010000 
 2888000   0.65083001   -5.0387549   -5.0387549   -4.0625109 0.0056538635   -5.0387549   0.97624405  1010000 
 2889000   0.65087878   -5.0395396   -5.0395396   -4.0632224 0.0063285389   -5.0395396    0.9763172  1010000 
 2890000     0.650391   -5.0402908   -5.0402908   -4.0647053 0.0043746058   -5.0402908   0.97558554  1010000 
 2891000   0.65026804   -5.0401058   -5.0401058   -4.0647047  0.002116427   -5.0401058    0.9754011  1010000 
 2892000   0.64976209   -5.0393808   -5.0393808   -4.0647386 0.0045233182   -5.0393808   0.97464216  1010000 
 2893000   0.64958486   -5.0400174   -5.0400174    -4.065641 0.0018538452   -5.0400174   0.97437633  1010000 
 2894000   0.64985912   -5.0405888   -5.0405888    -4.065801 0.0019754841   -5.0405888   0.97478771  1010000 
 2895000   0.65059281   -5.0420747   -5.0420747   -4.0661865 0.0004321235   -5.0420747   0.97588824  1010000 
 2896000    0.6498823   -5.0419839   -5.0419839   -4.0671614 0.0033889024   -5.0419839   0.97482248  1010000 
 2897000   0.64985344    -5.042347    -5.042347   -4.0675678 0.0010470655    -5.042347   0.97477919  1010000 
 2898000    0.6498212   -5.0423223   -5.0423223   -4.0675914  0.005911322   -5.0423223   0.97473084  1010000 
 2899000   0.64981352   -5.0429035   -5.0429035   -4.0681842 0.0021331881   -5.0429035   0.97471931  1010000 
 2900000   0.64941956    -5.042817    -5.042817   -4.0686886 0.0037585975    -5.042817   0.97412838  1010000 
 2901000   0.64906105   -5.0427218   -5.0427218   -4.0691312 0.0069033458   -5.0427218   0.97359061  1010000 
 2902000   0.64984409   -5.0443322   -5.0443322    -4.069567  0.004921965   -5.0443322   0.97476516  1010000 
 2903000   0.64924818   -5.0436527   -5.0436527   -4.0697814   0.00662888   -5.0436527   0.97387131  1010000 
 2904000   0.64955513   -5.0446642   -5.0446642   -4.0703324 0.0063416443   -5.0446642   0.97433173  1010000 
 2905000    0.6499252   -5.0446627   -5.0446627   -4.0697759 0.0055301553   -5.0446627   0.97488684  1010000 
 2906000   0.64922349   -5.0443444   -5.0443444   -4.0705101  0.006773746   -5.0443444   0.97383426  1010000 
 2907000   0.64957124   -5.0448955   -5.0448955   -4.0705396 0.0053692148   -5.0448955    0.9743559  1010000 
 2908000   0.64823982    -5.044196    -5.044196   -4.0718372  0.007931501    -5.044196   0.97235877  1010000 
 2909000   0.64859155   -5.0449934   -5.0449934   -4.0721071 0.0067640641   -5.0449934   0.97288637  1010000 
 2910000   0.64850136   -5.0448491   -5.0448491    -4.072098 0.0039443814   -5.0448491   0.97275108  1010000 
 2911000   0.64851277   -5.0451069   -5.0451069   -4.0723387 0.0030530213   -5.0451069    0.9727682  1010000 
 2912000   0.64850731   -5.0454104   -5.0454104   -4.0726504 0.0030889298   -5.0454104      0.97276  1010000 
 2913000   0.64873246   -5.0467288   -5.0467288    -4.073631 -0.00063859688   -5.0467288   0.97309773  1010000 
 2914000   0.64853933   -5.0469491   -5.0469491   -4.0741411 -0.0015193422   -5.0469491   0.97280803  1010000 
 2915000   0.64800946   -5.0468018   -5.0468018   -4.0747885 -0.00069952583   -5.0468018   0.97201323  1010000 
 2916000   0.64808861   -5.0469818   -5.0469818   -4.0748498 0.0021400937   -5.0469818   0.97213195  1010000 
 2917000   0.64870127   -5.0481085   -5.0481085   -4.0750575 -6.7246897e-05   -5.0481085   0.97305095  1010000 
 2918000   0.64786298    -5.047799    -5.047799   -4.0760055 0.0058609529    -5.047799    0.9717935  1010000 
 2919000   0.64901552   -5.0494496   -5.0494496   -4.0759273 0.0023512029   -5.0494496   0.97352232  1010000 
 2920000   0.64860367   -5.0495685   -5.0495685   -4.0766639 0.0057388804   -5.0495685   0.97290455  1010000 
 2921000   0.64865087   -5.0501613   -5.0501613   -4.0771859 0.0078878679   -5.0501613   0.97297534  1010000 
 2922000   0.64847603    -5.050831    -5.050831   -4.0781179 0.0062539359    -5.050831   0.97271309  1010000 
 2923000   0.64841835   -5.0510269   -5.0510269   -4.0784003 0.0055347964   -5.0510269   0.97262656  1010000 
 2924000   0.64807331   -5.0513407   -5.0513407   -4.0792317 0.0073792366   -5.0513407     0.972109  1010000 
 2925000   0.64849522   -5.0521326   -5.0521326   -4.0793907 0.0035311708   -5.0521326   0.97274186  1010000 
 2926000   0.64774789   -5.0510141   -5.0510141   -4.0793933  0.008385962   -5.0510141   0.97162088  1010000 
 2927000   0.64774182   -5.0513298   -5.0513298    -4.079718 0.0067276675   -5.0513298   0.97161176  1010000 
 2928000   0.64730023   -5.0512408   -5.0512408   -4.0802914 0.0070521094   -5.0512408   0.97094939  1010000 
 2929000   0.64761283   -5.0519512   -5.0519512   -4.0805329 0.0030816672   -5.0519512   0.97141828  1010000 
 2930000   0.64733145   -5.0517492   -5.0517492    -4.080753 0.0022462395   -5.0517492   0.97099621  1010000 
 2931000   0.64762043    -5.052603    -5.052603   -4.0811733 -0.0012641372    -5.052603   0.97142969  1010000 
 2932000   0.64713619   -5.0517716   -5.0517716   -4.0810683 0.00052933933   -5.0517716   0.97070332  1010000 
 2933000   0.64685014   -5.0518472   -5.0518472    -4.081573 0.0026672266   -5.0518472   0.97027425  1010000 
 2934000   0.64657311   -5.0522224   -5.0522224   -4.0823636 0.0034254431   -5.0522224   0.96985871  1010000 
 2935000   0.64700382   -5.0536327   -5.0536327    -4.083128 -0.00011450283   -5.0536327   0.97050477  1010000 
 2936000   0.64712179   -5.0543053   -5.0543053   -4.0836235 -0.00018761492   -5.0543053   0.97068173  1010000 
 2937000   0.64604667   -5.0535585   -5.0535585   -4.0844895 0.0036279684   -5.0535585   0.96906904  1010000 
 2938000   0.64606352   -5.0543856   -5.0543856   -4.0852913 0.00057893908   -5.0543856   0.96909431  1010000 
 2939000   0.64659728   -5.0552942   -5.0552942   -4.0853993 0.0029555865   -5.0552942   0.96989496  1010000 
 2940000    0.6471272   -5.0565345   -5.0565345   -4.0858446 0.0042421146   -5.0565345   0.97068984  1010000 
 2941000   0.64717544   -5.0568159   -5.0568159   -4.0860537 0.0063189035   -5.0568159    0.9707622  1010000 
 2942000     0.647236   -5.0576853   -5.0576853   -4.0868322 0.0061489266   -5.0576853   0.97085304  1010000 
 2943000   0.64634248   -5.0568903   -5.0568903   -4.0873775 0.0093620869   -5.0568903   0.96951276  1010000 
 2944000   0.64690889   -5.0583073   -5.0583073   -4.0879449 0.0064091484   -5.0583073   0.97036238  1010000 
 2945000   0.64676353   -5.0582315   -5.0582315   -4.0880872 0.0064968434   -5.0582315   0.97014433  1010000 
 2946000   0.64662921   -5.0586086   -5.0586086   -4.0886657 0.0066448173   -5.0586086   0.96994285  1010000 
 2947000   0.64532371   -5.0574196   -5.0574196   -4.0894349    0.0101637   -5.0574196   0.96798461  1010000 
 2948000   0.64645812   -5.0591064   -5.0591064   -4.0894202 0.0042927168   -5.0591064   0.96968622  1010000 
 2949000   0.64615593   -5.0592011   -5.0592011   -4.0899682 0.0027604706   -5.0592011   0.96923293  1010000 
 2950000   0.64570001   -5.0588259   -5.0588259   -4.0902768 0.0025698522   -5.0588259   0.96854906  1010000 
 2951000   0.64620015   -5.0598272   -5.0598272   -4.0905279 0.0029480757   -5.0598272   0.96929927  1010000 
 2952000   0.64530087   -5.0583925   -5.0583925   -4.0904422 0.0028643546   -5.0583925   0.96795034  1010000 
 2953000   0.64527133   -5.0586925   -5.0586925   -4.0907865 0.0013022863   -5.0586925   0.96790604  1010000 
 2954000   0.64484101   -5.0588493   -5.0588493   -4.0915887 0.0028101033   -5.0588493   0.96726055  1010000 
 2955000   0.64464653   -5.0593879   -5.0593879   -4.0924191 0.00027026722   -5.0593879   0.96696883  1010000 
 2956000   0.64496697   -5.0592981   -5.0592981   -4.0918487 0.0016944184   -5.0592981   0.96744949  1010000 
 2957000   0.64467754   -5.0600052   -5.0600052   -4.0929899 0.0042007948   -5.0600052   0.96701535  1010000 
 2958000   0.64538718   -5.0609635   -5.0609635   -4.0928836 0.0015660756   -5.0609635   0.96807981  1010000 
 2959000   0.64504254   -5.0599704   -5.0599704   -4.0924075 0.0040162453   -5.0599704   0.96756286  1010000 
 2960000   0.64483812    -5.060929    -5.060929   -4.0936728 0.0031653885    -5.060929   0.96725622  1010000 
 2961000   0.64515213   -5.0621137   -5.0621137   -4.0943865 0.0035734156   -5.0621137   0.96772724  1010000 
 2962000   0.64511049   -5.0629437   -5.0629437   -4.0952789 0.0001004405   -5.0629437   0.96766478  1010000 
 2963000   0.64447796   -5.0626155   -5.0626155   -4.0958995 0.0026477037   -5.0626155   0.96671598  1010000 
 2964000   0.64488496    -5.063825    -5.063825   -4.0964985 0.0041012426    -5.063825   0.96732649  1010000 
 2965000   0.64490964   -5.0641029   -5.0641029   -4.0967394 0.0036224657   -5.0641029   0.96736351  1010000 
 2966000   0.64450675   -5.0638315   -5.0638315   -4.0970723 0.0078411486   -5.0638315   0.96675917  1010000 
 2967000   0.64432188   -5.0640645   -5.0640645   -4.0975826 0.0067417621   -5.0640645   0.96648187  1010000 
 2968000   0.64552828   -5.0661066   -5.0661066   -4.0978152 0.0044384159   -5.0661066   0.96829146  1010000 
 2969000   0.64433392    -5.065199    -5.065199   -4.0986991 0.0048227545    -5.065199   0.96649993  1010000 
 2970000   0.64476374   -5.0662602   -5.0662602   -4.0991155 0.0031552141   -5.0662602   0.96714466  1010000 
 2971000   0.64355818   -5.0644992   -5.0644992   -4.0991629 0.0072951032   -5.0644992   0.96533631  1010000 
 2972000   0.64390722   -5.0661343   -5.0661343   -4.1002744 0.0025484592   -5.0661343   0.96585987  1010000 
 2973000   0.64455605   -5.0675637   -5.0675637   -4.1007306 0.00072396007   -5.0675637   0.96683311  1010000 
 2974000   0.64415992   -5.0672435   -5.0672435   -4.1010046 -9.1603296e-05   -5.0672435   0.96623892  1010000 
 2975000   0.64381098   -5.0673444   -5.0673444   -4.1016288 0.00058610078   -5.0673444   0.96571551  1010000 
 2976000   0.64348634   -5.0674659   -5.0674659   -4.1022373 0.0021055564   -5.0674659   0.96522856  1010000 
 2977000   0.64286653   -5.0671596   -5.0671596   -4.1028608 0.0053472227   -5.0671596   0.96429884  1010000 
 2978000   0.64326725   -5.0679053   -5.0679053   -4.1030053 0.0014013017   -5.0679053   0.96489992  1010000 
 2979000   0.64319869   -5.0685901   -5.0685901    -4.103793 0.0013937538   -5.0685901   0.96479708  1010000 
 2980000   0.64326834    -5.068717    -5.068717   -4.1038154  0.002712257    -5.068717   0.96490156  1010000 
 2981000   0.64304449    -5.068766    -5.068766   -4.1042002 0.0011117644    -5.068766   0.96456577  1010000 
 2982000   0.64302625   -5.0689396   -5.0689396   -4.1044012 0.0019448165   -5.0689396   0.96453842  1010000 
 2983000   0.64341298   -5.0707979   -5.0707979   -4.1056794 0.0024925924   -5.0707979   0.96511851  1010000 
 2984000   0.64268076   -5.0703394   -5.0703394   -4.1063192 0.0054987428   -5.0703394   0.96402019  1010000 
 2985000   0.64246504   -5.0698499   -5.0698499   -4.1061533 0.0043886967   -5.0698499   0.96369661  1010000 
 2986000   0.64269775   -5.0702206   -5.0702206    -4.106175 0.0048094047   -5.0702206   0.96404566  1010000 
 2987000   0.64296137   -5.0713553   -5.0713553   -4.1069142 0.0048944126   -5.0713553   0.96444111  1010000 
 2988000   0.64361449   -5.0734335   -5.0734335   -4.1080128 0.00051820623   -5.0734335   0.96542077  1010000 
 2989000   0.64246217   -5.0727489   -5.0727489   -4.1090566 0.0061305879   -5.0727489    0.9636923  1010000 
 2990000   0.64309244   -5.0733336   -5.0733336   -4.1086959 0.0031796663   -5.0733336    0.9646377  1010000 
 2991000   0.64257935   -5.0722956   -5.0722956   -4.1084275 0.0087733012   -5.0722956   0.96386808  1010000 
 2992000   0.64240907   -5.0727801   -5.0727801   -4.1091675 0.0066525369   -5.0727801   0.96361265  1010000 
 2993000   0.64323502   -5.0741348   -5.0741348   -4.1092832 0.0056200134   -5.0741348   0.96485158  1010000 
 2994000   0.64328922   -5.0746999   -5.0746999   -4.1097671 0.0040894862   -5.0746999   0.96493288  1010000 
 2995000   0.64240868   -5.0738533   -5.0738533   -4.1102412 0.0087470607   -5.0738533   0.96361206  1010000 
 2996000   0.64211994   -5.0734467   -5.0734467   -4.1102677 0.0033992266   -5.0734467   0.96317896  1010000 
 2997000   0.64287744   -5.0754778   -5.0754778   -4.1111626 -0.0028918992   -5.0754778   0.96431521  1010000 
 2998000   0.64243227   -5.0750538   -5.0750538   -4.1114064 0.00010415681   -5.0750538   0.96364745  1010000 
 2999000   0.64262531   -5.0759953   -5.0759953   -4.1120583 -0.003546443   -5.0759953   0.96393701  1010000 
 3000000    0.6417664   -5.0749767   -5.0749767   -4.1123281 0.0012053615   -5.0749767   0.96264865  1010000 
Loop time of 15925.4 on 240 procs for 3000000 steps with 1010000 atoms

Performance: 81379.538 tau/day, 188.379 timesteps/s
99.1% CPU use with 240 MPI tasks x 1 OpenMP threads

MPI task timing breakdown:
Section |  min time  |  avg time  |  max time  |%varavg|  %CPU | %total
-----------------------------------------------------------------------
Pair    | 3558.5     | 5772.5     | 9693.3     |1325.8 |  99.1 | 36.25
Bond    | 0.93612    | 1.3591     | 3.4517     |  28.9 | 100.0 |  0.01
Neigh   | 1336.7     | 2079.3     | 3423.1     | 731.0 |  99.4 | 13.06
Comm    | 1826.8     | 7265.3     | 10147      |1628.7 |  99.0 | 45.62
Output  | 185.89     | 186.58     | 186.75     |   0.4 |  99.7 |  1.17
Modify  | 150.46     | 295.69     | 1132.9     |1333.2 |  99.5 |  1.86
Other   |            | 324.7      |            |       |       |  2.04

Nlocal:        4208.33 ave        4378 max        3194 min
Histogram: 2 3 5 5 4 1 0 0 88 132
Nghost:        5926.50 ave        6391 max        3752 min
Histogram: 17 3 20 0 0 0 0 0 0 200
Neighs:       168705.0 ave      179319 max       98943 min
Histogram: 4 8 6 2 0 0 0 0 34 186

Total # of neighbors = 40489149
Ave neighs/atom = 40.088266
Ave special neighs/atom = 0.0000000
Neighbor list builds = 300000
Dangerous builds = 296998

write_data	data.lj
System init for write_data ...
WARNING: Not all mixed pair coeffs generated from mixing. Use write_data with 'pair ij' option to store all pair coeffs. (src/write_data.cpp:312)
Total wall time: 4:25:37
