LAMMPS (24 Dec 2020)
OMP_NUM_THREADS environment is not set. Defaulting to 1 thread. (src/comm.cpp:94)
  using 1 OpenMP thread(s) per MPI task
#Read the equilibrated lj fluid and add nanocubes

units           lj
atom_style      full
atom_modify     map array first cubes
dimension       3
boundary        p p f
pair_style      lj/cut/opt 2.0

variable        sigma           equal 1.0
variable        epsilon         equal 1.0
read_restart	restart.dat.5000000
Reading restart file ...
  restart file = 24 Dec 2020, LAMMPS = 24 Dec 2020
WARNING: Restart file used different # of processors: 192 vs. 288 (src/read_restart.cpp:697)
  restoring atom style full from restart
  orthogonal box = (0.0000000 0.0000000 0.0000000) to (80.000000 80.000000 160.00000)
  6 by 4 by 12 MPI processor grid
  restoring pair style lj/smooth/linear from restart
  439061 atoms
Finding 1-2 1-3 1-4 neighbors ...
  special bond factors lj:    0        0        0       
  special bond factors coul:  0        0        0       
     0 = max # of 1-2 neighbors
     0 = max # of 1-3 neighbors
     0 = max # of 1-4 neighbors
     1 = max # of special neighbors
  special bonds CPU = 2.293 seconds
  read_restart CPU = 2.651 seconds

group		solvent type 1
439061 atoms in group solvent

read_data	data_64.cubes group cubes add append
Reading data file ...
  orthogonal box = (0.0000000 0.0000000 0.0000000) to (80.000000 80.000000 160.00000)
  6 by 4 by 12 MPI processor grid
WARNING: Pair style in data file differs from currently defined pair style (src/read_data.cpp:588)
  reading atoms ...
  73152 atoms
  reading velocities ...
  73152 velocities
Finding 1-2 1-3 1-4 neighbors ...
  special bond factors lj:    0        0        0       
  special bond factors coul:  0        0        0       
     0 = max # of 1-2 neighbors
     0 = max # of 1-3 neighbors
     0 = max # of 1-4 neighbors
     1 = max # of special neighbors
  special bonds CPU = 0.048 seconds
  read_data CPU = 0.218 seconds

group 		hull  type 2
28544 atoms in group hull
group 		dummy type 3
44608 atoms in group dummy

neighbor      0.4 bin
neigh_modify  exclude molecule/intra cubes


pair_modify   shift yes

pair_coeff    1 1 1.0 1.0 #solvent
pair_coeff    2 2 1.0 1.0 1.12 #np
pair_coeff    3 3 0.0 0.0 0.0 #dummy
pair_coeff    2 3 0.0 0.0 0.0 #np dummy
pair_coeff    1 2 ${eps} ${sig} ${nscut} #np solvent
pair_coeff    1 2 1.0 ${sig} ${nscut} 
pair_coeff    1 2 1.0 1.0 ${nscut} 
pair_coeff    1 2 1.0 1.0 4.0 
pair_coeff    1 3 0.0 0.0 2.5 #dummy solvent

# delete solvent where the cubes are
delete_atoms  overlap 2.0 solvent cubes
System init for delete_atoms ...
Neighbor list info ...
  update every 1 steps, delay 10 steps, check yes
  max neighbors/atom: 2000, page size: 100000
  master list distance cutoff = 4.4
  ghost atom cutoff = 4.4
  binsize = 2.2, bins = 37 37 73
  2 neighbor lists, perpetual/occasional/extra = 1 1 0
  (1) command delete_atoms, occasional
      attributes: full, newton on
      pair build: full/bin
      stencil: full/bin/3d
      bin: standard
  (2) pair lj/smooth/linear, perpetual
      attributes: half, newton on
      pair build: half/bin/newton
      stencil: half/bin/3d/newton
      bin: standard
WARNING: Delete_atoms cutoff > minimum neighbor cutoff (src/delete_atoms.cpp:307)
WARNING: Ignoring 'compress yes' for molecular system (src/delete_atoms.cpp:125)
Deleted 85864 atoms, new total = 426349



pair_coeff    1 1 1.0 1.0 #solvent
pair_coeff    2 2 1.0 1.0 1.12 #np
pair_coeff    3 3 0.0 0.0 0.0 #dummy
pair_coeff    2 3 0.0 0.0 0.0 #np dummy
pair_coeff    1 2 ${eps} ${sig} ${nscut} #np solvent
pair_coeff    1 2 1.0 ${sig} ${nscut} 
pair_coeff    1 2 1.0 1.0 ${nscut} 
pair_coeff    1 2 1.0 1.0 4.0 
pair_coeff    1 3 0.0 0.0 0.0 #dummy solvent


comm_modify   mode multi cutoff/multi 1 2.0 cutoff/multi 2 2.0 cutoff/multi 3 6.95

reset_timestep 	0

balance 	1.05 shift z 10 1.05
Balancing ...
Neighbor list info ...
  update every 1 steps, delay 10 steps, check yes
  max neighbors/atom: 2000, page size: 100000
  master list distance cutoff = 4.4
  ghost atom cutoff = 6.95
  binsize = 2.2, bins = 37 37 73
  1 neighbor lists, perpetual/occasional/extra = 1 0 0
  (1) pair lj/smooth/linear, perpetual
      attributes: half, newton on
      pair build: half/bin/newton
      stencil: half/bin/3d/newton
      bin: standard
 rebalancing time: 0.006 seconds
  iteration count = 4
  initial/final maximal load/proc = 2230.0000 2237.0000
  initial/final imbalance factor  = 1.5063715 1.5111001
  x cuts: 0.0000000 0.16666667 0.33333333 0.50000000 0.66666667 0.83333333 1.0000000
  y cuts: 0.0000000 0.25000000 0.50000000 0.75000000 1.0000000
  z cuts: 0.0000000 0.057291667 0.11979167 0.17187500 0.23958333 0.28125000 0.34375000 0.41145833 0.46354167 0.51562500 0.59895833 0.64583333 1.0000000

####################### WALLS ###########################

variable       epsilonWall equal 2*${epsilon}
variable       epsilonWall equal 2*1
variable       repulsive   equal   0.7147*${sigma}
variable       repulsive   equal   0.7147*1
variable       full	   equal   3*${sigma}
variable       full	   equal   3*1
region         lowWall block EDGE EDGE EDGE EDGE EDGE 2

fix            topWall all wall/lj93 zhi EDGE 	       ${epsilonWall} ${sigma} ${repulsive} units box
fix            topWall all wall/lj93 zhi EDGE 	       2 ${sigma} ${repulsive} units box
fix            topWall all wall/lj93 zhi EDGE 	       2 1 ${repulsive} units box
fix            topWall all wall/lj93 zhi EDGE 	       2 1 0.7147 units box
fix            lowSol solvent wall/lj93 zlo EDGE                ${epsilonWall} ${sigma} ${full} units box
fix            lowSol solvent wall/lj93 zlo EDGE                2 ${sigma} ${full} units box
fix            lowSol solvent wall/lj93 zlo EDGE                2 1 ${full} units box
fix            lowSol solvent wall/lj93 zlo EDGE                2 1 3 units box
fix 	       lowCub cubes wall/lj93 zlo EDGE                ${epsilonWall} ${sigma} ${repulsive} units box
fix 	       lowCub cubes wall/lj93 zlo EDGE                2 ${sigma} ${repulsive} units box
fix 	       lowCub cubes wall/lj93 zlo EDGE                2 1 ${repulsive} units box
fix 	       lowCub cubes wall/lj93 zlo EDGE                2 1 0.7147 units box


###################### COMPUTES ##########################

compute        bin1 solvent chunk/atom bin/1d z lower 1.0 units box


######################  FIXES ############################


fix             peclet solvent ave/chunk 10 10 10000 bin1 density/number norm                  none ave one file density.profile

fix              temp solvent ave/chunk 10 10 10000 bin1 temp norm                  none ave one file temp.profile

fix             1 cubes rigid/nve/small molecule
  create bodies CPU = 0.018 seconds
  64 rigid bodies with 73152 atoms
  6.9282032 = max distance from body owner to body atom

fix             2 solvent nve# temp ${temp} ${temp} 10


## Thermostat
region          regthermo block EDGE EDGE EDGE EDGE 0 15
group           thermo dynamic solvent region regthermo every 1000
dynamic group thermo defined
fix             3 thermo langevin ${temp} ${temp} 10 156453
fix             3 thermo langevin 0.6 ${temp} 10 156453
fix             3 thermo langevin 0.6 0.6 10 156453


#### Load balancing

fix             bal all balance 1000 1.05 shift z 10 1.05

############### Diagnostics and computes ###################

compute        	com cubes          rigid/local   1 mol x y z
compute        	quat cubes         rigid/local   1 mol quatw quati quatj quatk

compute 	cc2 cubes 	   chunk/atom 	 molecule
compute 	msd cubes 	   msd/chunk 	 cc2

fix 		msd all ave/time  1 1 10000 c_msd[*] file dump.msd ave one mode vector

dump            1 all custom 500000 dump.lammpstrj id mol type x y z
dump		cubetrj hull custom 500000 cubes.lammpstrj id mol type x y z
dump            com cubes local 10000 dump.*.xyz c_com[*]
dump	        xyz hull xyz 100000 cubes.xyz
dump            quat cubes      local 10000 dump.*.quat c_quat[*]
#dump		mol cubes molfile 10000 mol.xyz xyz


dump            2 all image 10000 image.*.png type type zoom 1.5 size 1280 720
dump_modify     2 pad 8
dump		image cubes image 10000 image_cubes.*.png type type zoom 1.5 size 1280 720
dump_modify	image pad 8
dump            3 all movie 5000 movie.avi type type zoom 1.5 size 1280 720
dump		4 cubes movie 5000 movie_cubes.avi type type size 1280 720


thermo          1000
thermo_style    custom step temp epair evdwl etotal press pe ke atoms

restart         1000000 restart.dat
timestep        0.005
timer           full
New timer settings: style=full  mode=nosync  timeout=off

run 		5000000
Per MPI rank memory allocation (min/avg/max) = 13.91 | 19.38 | 22.63 Mbytes
Step Temp E_pair E_vdwl TotEng Press PotEng KinEng Atoms 
       0   0.61139669   -1.8532344   -1.8532344   -1.0932192  0.027426401   -1.8532344   0.76001512   426349 
    1000   0.62597837   -1.8718113   -1.8718113     -1.09367 0.0031760679   -1.8718113   0.77814132   426349 
    2000   0.63980319   -1.8911341   -1.8911341   -1.0958074   0.02673039   -1.8911341   0.79532668   426349 
    3000   0.64690857   -1.9021365   -1.9021365   -1.0979773  0.041357844   -1.9021365   0.80415924   426349 
    4000   0.65028118   -1.9095018   -1.9095018   -1.1011501  0.042039398   -1.9095018   0.80835166   426349 
    5000   0.65108739   -1.9137544   -1.9137544   -1.1044006  0.053531589   -1.9137544   0.80935384   426349 
    6000   0.65166862   -1.9180803   -1.9180803    -1.108004  0.046243063   -1.9180803   0.81007635   426349 
    7000    0.6503032   -1.9196311   -1.9196311    -1.111252  0.049535698   -1.9196311   0.80837903   426349 
    8000   0.64920852   -1.9221758   -1.9221758   -1.1151576  0.050239419   -1.9221758   0.80701825   426349 
    9000   0.64877863   -1.9245779   -1.9245779    -1.118094  0.042606956   -1.9245779   0.80648387   426349 
   10000   0.64874083    -1.927581    -1.927581   -1.1211441  0.047154533    -1.927581   0.80643688   426349 
   11000   0.64696861   -1.9288402   -1.9288402   -1.1246063  0.052807975   -1.9288402   0.80423387   426349 
   12000   0.64573793   -1.9303703   -1.9303703   -1.1276663  0.053159511   -1.9303703   0.80270404   426349 
   13000   0.64527676   -1.9322168   -1.9322168    -1.130086  0.049457581   -1.9322168   0.80213077   426349 
   14000   0.64428474   -1.9353475   -1.9353475   -1.1344499   0.04796222   -1.9353475    0.8008976   426349 
   15000   0.64301909   -1.9363642   -1.9363642   -1.1370399  0.047040063   -1.9363642    0.7993243   426349 
   16000   0.64287936   -1.9378603   -1.9378603   -1.1387097  0.041528728   -1.9378603    0.7991506   426349 
   17000    0.6418679   -1.9381961   -1.9381961   -1.1403029  0.041872333   -1.9381961   0.79789328   426349 
   18000   0.63960155   -1.9384276   -1.9384276   -1.1433516  0.042533284   -1.9384276   0.79507602   426349 
   19000   0.63964239   -1.9392175   -1.9392175   -1.1440907  0.046634622   -1.9392175   0.79512679   426349 
   20000   0.64004296   -1.9404435   -1.9404435   -1.1448188  0.042007873   -1.9404435   0.79562473   426349 
   21000   0.63859025   -1.9398399   -1.9398399    -1.146021  0.044744512   -1.9398399    0.7938189   426349 
   22000   0.63871978   -1.9408883   -1.9408883   -1.1469084   0.04605672   -1.9408883   0.79397991   426349 
   23000   0.63698387   -1.9398565   -1.9398565   -1.1480344  0.040202333   -1.9398565   0.79182204   426349 
   24000   0.63800501   -1.9407796   -1.9407796   -1.1476882  0.044413344   -1.9407796    0.7930914   426349 
   25000   0.63817643   -1.9420581   -1.9420581   -1.1487537  0.039241196   -1.9420581   0.79330448   426349 
   26000   0.63805824   -1.9423379   -1.9423379   -1.1491803  0.040252859   -1.9423379   0.79315756   426349 
   27000   0.63844806   -1.9423974   -1.9423974   -1.1487553  0.046029093   -1.9423974   0.79364214   426349 
   28000   0.63704054   -1.9420521   -1.9420521   -1.1501596  0.046592521   -1.9420521   0.79189248   426349 
   29000   0.63651397   -1.9420855   -1.9420855   -1.1508476  0.043418453   -1.9420855   0.79123791   426349 
   30000   0.63643004    -1.942208    -1.942208   -1.1510744  0.043793993    -1.942208   0.79113358   426349 
   31000   0.63673251   -1.9425079   -1.9425079   -1.1509983  0.040892835   -1.9425079   0.79150958   426349 
   32000   0.63616649   -1.9416833   -1.9416833   -1.1508773  0.041084441   -1.9416833   0.79080597   426349 
   33000   0.63679384   -1.9434923   -1.9434923   -1.1519065  0.041555786   -1.9434923   0.79158582   426349 
   34000   0.63585938   -1.9430429   -1.9430429   -1.1526187  0.043094256   -1.9430429    0.7904242   426349 
   35000   0.63526555   -1.9424632   -1.9424632   -1.1527772  0.042569189   -1.9424632   0.78968602   426349 
   36000   0.63544406    -1.943032    -1.943032    -1.153124  0.044841978    -1.943032   0.78990793   426349 
   37000   0.63574174   -1.9448412   -1.9448412   -1.1545632  0.041526374   -1.9448412   0.79027797   426349 
   38000   0.63600043   -1.9454234   -1.9454234   -1.1548238  0.039780799   -1.9454234   0.79059954   426349 
   39000   0.63488118   -1.9446014   -1.9446014   -1.1553931  0.038904716   -1.9446014   0.78920823   426349 
   40000   0.63520665    -1.945633    -1.945633   -1.1560202  0.045811165    -1.945633   0.78961281   426349 
   41000   0.63453526   -1.9449665   -1.9449665   -1.1561883  0.036314538   -1.9449665   0.78877822   426349 
   42000   0.63422572   -1.9455226   -1.9455226   -1.1571291  0.039966639   -1.9455226   0.78839344   426349 
   43000   0.63389987   -1.9456608   -1.9456608   -1.1576724   0.03694457   -1.9456608   0.78798837   426349 
   44000   0.63377738   -1.9464041   -1.9464041    -1.158568   0.04012094   -1.9464041   0.78783611   426349 
   45000   0.63332465   -1.9463309   -1.9463309   -1.1590576  0.044362036   -1.9463309   0.78727333   426349 
   46000    0.6338377   -1.9470379   -1.9470379   -1.1591268  0.045526569   -1.9470379    0.7879111   426349 
   47000    0.6337012   -1.9474172   -1.9474172   -1.1596758  0.047939044   -1.9474172   0.78774141   426349 
   48000   0.63514353   -1.9504102   -1.9504102   -1.1608758  0.040680694   -1.9504102   0.78953435   426349 
   49000   0.63496754   -1.9510103   -1.9510103   -1.1616947   0.04134981   -1.9510103   0.78931558   426349 
   50000   0.63339993    -1.949323    -1.949323   -1.1619561  0.040708002    -1.949323   0.78736691   426349 
   51000   0.63461864    -1.951379    -1.951379   -1.1624972  0.048778456    -1.951379   0.78888187   426349 
   52000   0.63360517   -1.9511145   -1.9511145   -1.1634924  0.037765198   -1.9511145   0.78762204   426349 
   53000   0.63221019   -1.9501335   -1.9501335   -1.1642455   0.03927049   -1.9501335   0.78588797   426349 
   54000     0.634589   -1.9539186   -1.9539186   -1.1650736  0.042246661   -1.9539186   0.78884503   426349 
   55000   0.63383716   -1.9531313   -1.9531313   -1.1652209  0.043023733   -1.9531313   0.78791042   426349 
   56000   0.63340722    -1.954069    -1.954069    -1.166693  0.039282262    -1.954069   0.78737598   426349 
   57000   0.63442834   -1.9548494   -1.9548494   -1.1662041  0.043231808   -1.9548494   0.78864531   426349 
   58000   0.63479947    -1.955438    -1.955438   -1.1663314  0.049922988    -1.955438   0.78910665   426349 
   59000    0.6337197   -1.9543478   -1.9543478   -1.1665834  0.050333658   -1.9543478   0.78776442   426349 
   60000   0.63370151   -1.9547335   -1.9547335   -1.1669917  0.044831367   -1.9547335    0.7877418   426349 
   61000   0.63399526    -1.956885    -1.956885    -1.168778  0.042265204    -1.956885   0.78810695   426349 
   62000     0.633475   -1.9577348   -1.9577348   -1.1702746  0.039165691   -1.9577348   0.78746023   426349 
   63000   0.63367499   -1.9573656   -1.9573656   -1.1696568  0.044181062   -1.9573656   0.78770884   426349 
   64000   0.63469074   -1.9591636   -1.9591636   -1.1701921  0.044482824   -1.9591636   0.78897149   426349 
   65000   0.63353757   -1.9581255   -1.9581255   -1.1705875  0.049366397   -1.9581255     0.787538   426349 
   66000   0.63362326   -1.9588646   -1.9588646   -1.1712201  0.045702652   -1.9588646   0.78764453   426349 
   67000   0.63252291   -1.9588599   -1.9588599   -1.1725832  0.044254723   -1.9588599   0.78627671   426349 
   68000   0.63227401   -1.9598518   -1.9598518   -1.1738844  0.037057169   -1.9598518    0.7859673   426349 
   69000   0.63281277   -1.9613027   -1.9613027   -1.1746657  0.045841779   -1.9613027   0.78663703   426349 
   70000   0.63357484   -1.9620225   -1.9620225   -1.1744382  0.041103369   -1.9620225   0.78758433   426349 
   71000   0.63425494   -1.9631035   -1.9631035   -1.1746737  0.049752289   -1.9631035   0.78842975   426349 
   72000   0.63509096    -1.964493    -1.964493    -1.175024  0.041775509    -1.964493     0.789469   426349 
   73000   0.63384663   -1.9629881   -1.9629881   -1.1750659  0.047788472   -1.9629881   0.78792219   426349 
   74000   0.63452976   -1.9641647   -1.9641647   -1.1753933   0.05122605   -1.9641647   0.78877138   426349 
   75000   0.63370611   -1.9637279   -1.9637279   -1.1759804   0.04346002   -1.9637279   0.78774752   426349 
   76000   0.63452076   -1.9652504   -1.9652504   -1.1764902  0.044143429   -1.9652504    0.7887602   426349 
   77000   0.63539484    -1.966272    -1.966272   -1.1764252  0.045208194    -1.966272   0.78984675   426349 
   78000   0.63384285   -1.9647493   -1.9647493   -1.1768318   0.04434999   -1.9647493    0.7879175   426349 
   79000   0.63365217   -1.9656992   -1.9656992   -1.1780187  0.050680736   -1.9656992   0.78768047   426349 
   80000   0.63370821   -1.9666369   -1.9666369   -1.1788868  0.044324969   -1.9666369   0.78775013   426349 
   81000   0.63455866   -1.9678488   -1.9678488   -1.1790415   0.05000305   -1.9678488   0.78880731   426349 
   82000   0.63531429   -1.9686018   -1.9686018   -1.1788551  0.041539844   -1.9686018   0.78974662   426349 
   83000   0.63541965   -1.9693803   -1.9693803   -1.1795027  0.059306189   -1.9693803   0.78987759   426349 
   84000   0.63354767   -1.9684559   -1.9684559   -1.1809053  0.046818163   -1.9684559   0.78755057   426349 
   85000   0.63371819    -1.968488    -1.968488   -1.1807255  0.050386793    -1.968488   0.78776254   426349 
   86000   0.63416817    -1.969998    -1.969998   -1.1816761  0.044401462    -1.969998    0.7883219   426349 
   87000   0.63344435   -1.9695585   -1.9695585   -1.1821364  0.048767445   -1.9695585   0.78742212   426349 
   88000     0.633259   -1.9695415   -1.9695415   -1.1823498  0.046065588   -1.9695415   0.78719173   426349 
   89000   0.63312279   -1.9697493   -1.9697493   -1.1827269  0.043106828   -1.9697493   0.78702241   426349 
   90000   0.63358541   -1.9704873   -1.9704873   -1.1828898  0.039688552   -1.9704873   0.78759748   426349 
   91000   0.63309663   -1.9711488   -1.9711488    -1.184159  0.053587279   -1.9711488   0.78698989   426349 
   92000   0.63358829   -1.9718603   -1.9718603   -1.1842592  0.046167621   -1.9718603   0.78760105   426349 
   93000   0.63272173   -1.9720131   -1.9720131   -1.1854892  0.040835555   -1.9720131   0.78652385   426349 
   94000   0.63259125   -1.9722463   -1.9722463   -1.1858846  0.043205848   -1.9722463   0.78636165   426349 
   95000   0.63282725    -1.973301    -1.973301    -1.186646   0.04581021    -1.973301   0.78665503   426349 
   96000   0.63226427   -1.9723676   -1.9723676   -1.1864124   0.04379856   -1.9723676    0.7859552   426349 
   97000   0.63190746   -1.9721404   -1.9721404   -1.1866287  0.047302444   -1.9721404   0.78551165   426349 
   98000   0.63146762   -1.9724863   -1.9724863   -1.1875214  0.046241034   -1.9724863    0.7849649   426349 
   99000   0.63143876   -1.9723114   -1.9723114   -1.1873824  0.051763765   -1.9723114   0.78492902   426349 
  100000   0.63250276   -1.9744443   -1.9744443   -1.1881927   0.03997612   -1.9744443   0.78625166   426349 
  101000   0.63208747    -1.974136    -1.974136   -1.1884006  0.047146964    -1.974136   0.78573542   426349 
  102000   0.63275569   -1.9749495   -1.9749495   -1.1883834   0.05089176   -1.9749495   0.78656607   426349 
  103000   0.63210173   -1.9744669   -1.9744669   -1.1887137  0.045423396   -1.9744669   0.78575315   426349 
  104000   0.63250759   -1.9748946   -1.9748946    -1.188637  0.049871475   -1.9748946   0.78625767   426349 
  105000   0.63137372   -1.9743599   -1.9743599   -1.1895118  0.042578344   -1.9743599   0.78484817   426349 
  106000   0.63190074   -1.9755225   -1.9755225   -1.1900192  0.042839108   -1.9755225    0.7855033   426349 
  107000   0.63236764   -1.9761527   -1.9761527    -1.190069  0.047296854   -1.9761527   0.78608369   426349 
  108000   0.63217558   -1.9754268   -1.9754268   -1.1895819  0.038462267   -1.9754268   0.78584494   426349 
  109000   0.63213725   -1.9753512   -1.9753512   -1.1895539  0.040585346   -1.9753512   0.78579729   426349 
  110000   0.63258366   -1.9765435   -1.9765435   -1.1901913  0.046964482   -1.9765435   0.78635223   426349 
  111000   0.63183247   -1.9764471   -1.9764471   -1.1910287  0.045260043   -1.9764471   0.78541844   426349 
  112000   0.63324827   -1.9781273   -1.9781273    -1.190949  0.047222339   -1.9781273   0.78717839   426349 
  113000   0.63324916   -1.9779306   -1.9779306   -1.1907511   0.05277217   -1.9779306   0.78717949   426349 
  114000   0.63271882   -1.9778901   -1.9778901   -1.1913699  0.047810998   -1.9778901   0.78652024   426349 
  115000   0.63185727   -1.9777044   -1.9777044   -1.1922551  0.045453734   -1.9777044   0.78544926   426349 
  116000   0.63180423   -1.9782772   -1.9782772   -1.1928938  0.041118426   -1.9782772   0.78538333   426349 
  117000   0.63327152   -1.9805609   -1.9805609   -1.1933536  0.043064392   -1.9805609   0.78720728   426349 
  118000   0.63106771   -1.9781763   -1.9781763   -1.1937085  0.047421768   -1.9781763   0.78446778   426349 
  119000   0.63163045    -1.979717    -1.979717   -1.1945497  0.047273637    -1.979717   0.78516731   426349 
  120000   0.63192029    -1.980335    -1.980335   -1.1948074  0.044975238    -1.980335   0.78552759   426349 
  121000   0.63147125   -1.9803849   -1.9803849   -1.1954155  0.041270217   -1.9803849    0.7849694   426349 
  122000    0.6318331   -1.9809257   -1.9809257   -1.1955065  0.050631471   -1.9809257   0.78541922   426349 
  123000   0.63130224   -1.9796447   -1.9796447   -1.1948854  0.043907494   -1.9796447   0.78475931   426349 
  124000   0.63142799   -1.9807508   -1.9807508   -1.1958351  0.046763091   -1.9807508   0.78491563   426349 
  125000   0.63137488   -1.9814761   -1.9814761   -1.1966265  0.040253644   -1.9814761   0.78484961   426349 
  126000   0.63176172   -1.9818023   -1.9818023   -1.1964718  0.039078703   -1.9818023   0.78533048   426349 
  127000   0.63113146   -1.9813286   -1.9813286   -1.1967816  0.046526242   -1.9813286   0.78454702   426349 
  128000   0.63106784   -1.9810456   -1.9810456   -1.1965776  0.041903977   -1.9810456   0.78446794   426349 
  129000   0.63041002   -1.9810294   -1.9810294   -1.1973792  0.041321667   -1.9810294   0.78365022   426349 
  130000   0.63289982   -1.9845392   -1.9845392    -1.197794  0.044602272   -1.9845392   0.78674523   426349 
  131000   0.62990934    -1.981181    -1.981181   -1.1981532  0.041731814    -1.981181   0.78302783   426349 
  132000   0.63114621   -1.9820666   -1.9820666   -1.1975012  0.050004738   -1.9820666   0.78456536   426349 
  133000   0.63324977   -1.9844588   -1.9844588   -1.1972786  0.049956345   -1.9844588   0.78718025   426349 
  134000   0.62998929   -1.9813273   -1.9813273   -1.1982001  0.043771981   -1.9813273   0.78312721   426349 
  135000   0.63039254   -1.9825675   -1.9825675    -1.198939  0.041365162   -1.9825675   0.78362849   426349 
  136000   0.63128762   -1.9834451   -1.9834451    -1.198704  0.049172397   -1.9834451   0.78474113   426349 
  137000   0.63095883   -1.9834964   -1.9834964    -1.199164  0.048724699   -1.9834964   0.78433242   426349 
  138000   0.63108248   -1.9833193   -1.9833193   -1.1988332  0.043981108   -1.9833193   0.78448613   426349 
  139000   0.63039831   -1.9830978   -1.9830978   -1.1994621  0.038376847   -1.9830978   0.78363566   426349 
  140000   0.63075215   -1.9829594   -1.9829594   -1.1988838  0.052832049   -1.9829594    0.7840755   426349 
  141000   0.63163632   -1.9849431   -1.9849431   -1.1997685  0.046516891   -1.9849431    0.7851746   426349 
  142000   0.63082348     -1.98482     -1.98482   -1.2006558  0.054624899     -1.98482   0.78416418   426349 
  143000   0.63036265   -1.9847133   -1.9847133   -1.2011219  0.046453526   -1.9847133   0.78359133   426349 
  144000   0.63019183   -1.9857904   -1.9857904   -1.2024114  0.039592286   -1.9857904   0.78337899   426349 
  145000   0.63069321   -1.9860952   -1.9860952    -1.202093   0.03712644   -1.9860952   0.78400225   426349 
  146000   0.62807583   -1.9838882   -1.9838882   -1.2031396  0.043151789   -1.9838882   0.78074863   426349 
  147000   0.62999462   -1.9867905   -1.9867905   -1.2036567  0.043841188   -1.9867905   0.78313384   426349 
  148000   0.62916379   -1.9853535   -1.9853535   -1.2032525  0.039035933   -1.9853535   0.78210104   426349 
  149000   0.62853332   -1.9853206   -1.9853206   -1.2040032  0.043898222   -1.9853206   0.78131732   426349 
  150000   0.62987157   -1.9866638   -1.9866638   -1.2036829  0.035077664   -1.9866638   0.78298088   426349 
  151000   0.63110009   -1.9887855   -1.9887855   -1.2042774  0.045560549   -1.9887855   0.78450803   426349 
  152000   0.62978529   -1.9873568   -1.9873568   -1.2044832  0.044896858   -1.9873568   0.78287362   426349 
  153000   0.63222825   -1.9906081   -1.9906081   -1.2046977  0.046898648   -1.9906081   0.78591042   426349 
  154000   0.63160921   -1.9904743   -1.9904743   -1.2053334  0.042715212   -1.9904743   0.78514091   426349 
  155000   0.63139153   -1.9904828   -1.9904828   -1.2056125   0.03790046   -1.9904828   0.78487031   426349 
  156000   0.63186865   -1.9919411   -1.9919411   -1.2064777  0.047746447   -1.9919411   0.78546341   426349 
  157000    0.6297722   -1.9902622   -1.9902622   -1.2074048  0.051032752   -1.9902622   0.78285736   426349 
  158000   0.62996273   -1.9908729   -1.9908729   -1.2077787  0.046296916   -1.9908729    0.7830942   426349 
  159000   0.63036885   -1.9924499   -1.9924499   -1.2088508  0.046742158   -1.9924499   0.78359904   426349 
  160000   0.62974123   -1.9921344   -1.9921344   -1.2093155  0.041735187   -1.9921344   0.78281885   426349 
  161000   0.62936753   -1.9917882   -1.9917882   -1.2094338  0.049020228   -1.9917882   0.78235432   426349 
  162000    0.6295261   -1.9920382   -1.9920382   -1.2094867  0.045595656   -1.9920382   0.78255143   426349 
  163000   0.62897078   -1.9913328   -1.9913328   -1.2094717  0.043951213   -1.9913328   0.78186112   426349 
  164000    0.6300708   -1.9922388   -1.9922388   -1.2090102  0.046042344   -1.9922388   0.78322854   426349 
  165000   0.62897157   -1.9908879   -1.9908879   -1.2090258  0.041441078   -1.9908879    0.7818621   426349 
  166000   0.63077839   -1.9922907   -1.9922907   -1.2081826  0.050553329   -1.9922907   0.78410812   426349 
  167000   0.62982234   -1.9916356   -1.9916356   -1.2087159   0.04560903   -1.9916356   0.78291968   426349 
  168000    0.6306135    -1.991868    -1.991868   -1.2079648  0.038791679    -1.991868   0.78390316   426349 
  169000   0.63078444   -1.9924514   -1.9924514   -1.2083358  0.044117132   -1.9924514   0.78411565   426349 
  170000   0.63049994    -1.992326    -1.992326    -1.208564  0.044145341    -1.992326   0.78376199   426349 
  171000   0.62956527   -1.9914107   -1.9914107   -1.2088106  0.036507892   -1.9914107   0.78260012   426349 
  172000   0.62989023   -1.9928604   -1.9928604   -1.2098563  0.042633108   -1.9928604   0.78300407   426349 
  173000   0.62977438   -1.9925599   -1.9925599   -1.2096998  0.045604817   -1.9925599   0.78286007   426349 
  174000   0.62984169    -1.993647    -1.993647   -1.2107032  0.047414672    -1.993647   0.78294374   426349 
  175000   0.62919182   -1.9934713   -1.9934713   -1.2113354  0.044595679   -1.9934713    0.7821359   426349 
  176000   0.62967254    -1.994741    -1.994741   -1.2120075  0.045294041    -1.994741   0.78273346   426349 
  177000   0.63062865   -1.9960419   -1.9960419   -1.2121199  0.044898487   -1.9960419   0.78392199   426349 
  178000   0.62987516   -1.9960166   -1.9960166   -1.2130313  0.037502938   -1.9960166   0.78298534   426349 
  179000   0.62940798   -1.9956461   -1.9956461   -1.2132415   0.04412521   -1.9956461    0.7824046   426349 
  180000   0.63021387   -1.9975822   -1.9975822   -1.2141758  0.042174264   -1.9975822   0.78340638   426349 
  181000   0.63038876   -1.9967329   -1.9967329   -1.2131091  0.042487952   -1.9967329   0.78362378   426349 
  182000   0.62881961   -1.9958088   -1.9958088   -1.2141356  0.048098085   -1.9958088    0.7816732   426349 
  183000    0.6291858   -1.9961422   -1.9961422   -1.2140138  0.046115348   -1.9961422   0.78212841   426349 
  184000   0.63003485   -1.9978073   -1.9978073   -1.2146234  0.046658816   -1.9978073   0.78318384   426349 
  185000   0.63019904   -1.9984566   -1.9984566   -1.2150687  0.047312517   -1.9984566   0.78338795   426349 
  186000   0.62916178   -1.9970935   -1.9970935    -1.214995  0.042918599   -1.9970935   0.78209855   426349 
  187000   0.62974116   -1.9976084   -1.9976084   -1.2147896  0.047494131   -1.9976084   0.78281877   426349 
  188000   0.63091854   -1.9987732   -1.9987732   -1.2144909  0.048637571   -1.9987732   0.78428234   426349 
  189000   0.63066353   -1.9998307   -1.9998307   -1.2158654  0.043823921   -1.9998307   0.78396535   426349 
  190000   0.63094188   -2.0011334   -2.0011334    -1.216822  0.043199401   -2.0011334   0.78431136   426349 
  191000   0.63030519   -2.0003412   -2.0003412   -1.2168213  0.048858862   -2.0003412   0.78351991   426349 
  192000   0.63029419   -2.0002793   -2.0002793   -1.2167731  0.047115478   -2.0002793   0.78350623   426349 
  193000   0.63022656   -2.0007044   -2.0007044   -1.2172822  0.045016577   -2.0007044   0.78342216   426349 
  194000    0.6305673   -2.0015868   -2.0015868   -1.2177411  0.040648209   -2.0015868   0.78384573   426349 
  195000   0.62896842   -1.9994892   -1.9994892    -1.217631  0.038995166   -1.9994892   0.78185819   426349 
  196000   0.62954891   -1.9994371   -1.9994371   -1.2168573   0.04787486   -1.9994371   0.78257979   426349 
  197000   0.62990233   -2.0002793   -2.0002793   -1.2172602  0.039425545   -2.0002793   0.78301911   426349 
  198000    0.6302162   -2.0006097   -2.0006097   -1.2172004  0.043960521   -2.0006097   0.78340928   426349 
  199000   0.63099545   -2.0013669   -2.0013669    -1.216989  0.045984216   -2.0013669   0.78437795   426349 
  200000   0.62948045   -2.0003918   -2.0003918   -1.2178971   0.04500758   -2.0003918   0.78249468   426349 
  201000   0.62996158   -2.0013438   -2.0013438    -1.218251  0.049062396   -2.0013438   0.78309276   426349 
  202000    0.6295586   -2.0007089   -2.0007089    -1.218117  0.049152967   -2.0007089   0.78259183   426349 
  203000   0.62888351   -1.9994088   -1.9994088   -1.2176562  0.050649215   -1.9994088   0.78175264   426349 
  204000   0.62971602   -2.0001271   -2.0001271   -1.2173396  0.048431533   -2.0001271   0.78278751   426349 
  205000   0.62954194   -2.0007134   -2.0007134   -1.2181423  0.047649259   -2.0007134   0.78257112   426349 
  206000    0.6291502   -2.0001923   -2.0001923   -1.2181081  0.045141676   -2.0001923   0.78208416   426349 
  207000   0.62929008   -2.0008937   -2.0008937   -1.2186357  0.046184348   -2.0008937   0.78225804   426349 
  208000   0.62941386   -2.0018785   -2.0018785   -1.2194666  0.043894397   -2.0018785   0.78241191   426349 
  209000   0.62936872   -2.0020575   -2.0020575   -1.2197017  0.042254526   -2.0020575   0.78235579   426349 
  210000   0.62707915   -1.9992201   -1.9992201   -1.2197104  0.042443991   -1.9992201   0.77950967   426349 
  211000   0.62894042   -2.0015356   -2.0015356   -1.2197122  0.045751164   -2.0015356   0.78182338   426349 
  212000   0.62823411   -2.0009569   -2.0009569   -1.2200115   0.03935483   -2.0009569   0.78094538   426349 
  213000   0.62842552   -2.0009023   -2.0009023   -1.2197189  0.051228231   -2.0009023   0.78118332   426349 
  214000    0.6302176   -2.0031554   -2.0031554   -1.2197443  0.045549766   -2.0031554   0.78341102   426349 
  215000   0.62911445   -2.0024258   -2.0024258    -1.220386  0.043708886   -2.0024258   0.78203972   426349 
  216000   0.62928582   -2.0031249   -2.0031249   -1.2208721  0.036852459   -2.0031249   0.78225274   426349 
  217000   0.62842335   -2.0018124   -2.0018124   -1.2206317  0.045636047   -2.0018124   0.78118063   426349 
  218000   0.62922294   -2.0015453   -2.0015453   -1.2193707  0.041103874   -2.0015453   0.78217457   426349 
  219000   0.62865675   -2.0014965   -2.0014965   -1.2200257  0.039058299   -2.0014965   0.78147076   426349 
  220000   0.62928847   -2.0023993   -2.0023993   -1.2201432  0.044710229   -2.0023993   0.78225604   426349 
  221000   0.62968302   -2.0029788   -2.0029788   -1.2202323  0.038587593   -2.0029788    0.7827465   426349 
  222000   0.62892639   -2.0038984   -2.0038984   -1.2220924  0.036357366   -2.0038984   0.78180594   426349 
  223000   0.62868229   -2.0037993   -2.0037993   -1.2222968  0.046612585   -2.0037993   0.78150251   426349 
  224000   0.62824628   -2.0039102   -2.0039102   -1.2229497  0.054307004   -2.0039102   0.78096051   426349 
  225000   0.62850701   -2.0049786   -2.0049786    -1.223694  0.046505764   -2.0049786   0.78128462   426349 
  226000   0.62941061   -2.0056679   -2.0056679     -1.22326  0.052371144   -2.0056679   0.78240787   426349 
  227000   0.62823222   -2.0048004   -2.0048004   -1.2238573  0.042938523   -2.0048004   0.78094304   426349 
  228000   0.62833656    -2.005425    -2.005425   -1.2243522  0.046785793    -2.005425   0.78107274   426349 
  229000   0.62978953   -2.0070993   -2.0070993   -1.2242204  0.052370381   -2.0070993    0.7828789   426349 
  230000   0.62961712   -2.0067515   -2.0067515   -1.2240869  0.046410749   -2.0067515   0.78266457   426349 
  231000   0.63012228   -2.0073016   -2.0073016    -1.224009  0.041040831   -2.0073016   0.78329253   426349 
  232000   0.62864435   -2.0063516   -2.0063516   -1.2248963  0.046015543   -2.0063516   0.78145535   426349 
  233000   0.62860391    -2.005936    -2.005936   -1.2245309  0.046083861    -2.005936   0.78140508   426349 
  234000   0.62974531   -2.0082974   -2.0082974   -1.2254735  0.045869929   -2.0082974   0.78282392   426349 
  235000   0.62928133   -2.0082646   -2.0082646   -1.2260174  0.046365554   -2.0082646   0.78224717   426349 
  236000   0.62925624   -2.0078819   -2.0078819   -1.2256659  0.048214391   -2.0078819   0.78221597   426349 
  237000   0.62946799    -2.008536    -2.008536   -1.2260568  0.047721161    -2.008536   0.78247919   426349 
  238000   0.62987046   -2.0094019   -2.0094019   -1.2264224   0.04560276   -2.0094019    0.7829795   426349 
  239000    0.6294625   -2.0087539   -2.0087539   -1.2262816  0.043191047   -2.0087539   0.78247237   426349 
  240000    0.6295535   -2.0089294   -2.0089294   -1.2263439  0.040140898   -2.0089294   0.78258549   426349 
  241000   0.62883637   -2.0079716   -2.0079716   -1.2262775  0.044469462   -2.0079716   0.78169405   426349 
  242000   0.62961655   -2.0095178   -2.0095178   -1.2268539   0.04962151   -2.0095178   0.78266386   426349 
  243000   0.62836408   -2.0083422   -2.0083422   -1.2272352  0.051697162   -2.0083422   0.78110695   426349 
  244000    0.6283739   -2.0086817   -2.0086817   -1.2275626  0.048654289   -2.0086817   0.78111915   426349 
  245000    0.6279309   -2.0090039   -2.0090039   -1.2284354  0.040737685   -2.0090039   0.78056847   426349 
  246000   0.62795098   -2.0088638   -2.0088638   -1.2282704   0.04757872   -2.0088638   0.78059342   426349 
  247000   0.62755872   -2.0081697   -2.0081697   -1.2280639    0.0507976   -2.0081697   0.78010581   426349 
  248000   0.62821359   -2.0090333   -2.0090333   -1.2281134  0.032818692   -2.0090333   0.78091987   426349 
  249000   0.62946703   -2.0112387   -2.0112387   -1.2287607  0.038339122   -2.0112387     0.782478   426349 
  250000   0.62778211   -2.0097104   -2.0097104   -1.2293269  0.044365716   -2.0097104   0.78038351   426349 
  251000   0.62784458   -2.0094459   -2.0094459   -1.2289848  0.045585802   -2.0094459   0.78046116   426349 
  252000   0.62861248   -2.0110175   -2.0110175   -1.2296017  0.043630456   -2.0110175   0.78141573   426349 
  253000   0.62838758   -2.0104231   -2.0104231   -1.2292869  0.041772777   -2.0104231   0.78113616   426349 
  254000   0.62924589    -2.012656    -2.012656   -1.2304529  0.041315441    -2.012656    0.7822031   426349 
  255000   0.62776046   -2.0109151   -2.0109151   -1.2305585  0.046813556   -2.0109151    0.7803566   426349 
  256000    0.6274973   -2.0109816   -2.0109816   -1.2309521  0.045729714   -2.0109816   0.78002947   426349 
  257000   0.62822168   -2.0120509   -2.0120509    -1.231121  0.052737956   -2.0120509   0.78092993   426349 
  258000   0.62874817   -2.0129243   -2.0129243     -1.23134  0.043718298   -2.0129243    0.7815844   426349 
  259000   0.62859987   -2.0128085   -2.0128085   -1.2314084  0.045155505   -2.0128085   0.78140005   426349 
  260000   0.62740489   -2.0110134   -2.0110134   -1.2310988   0.05166322   -2.0110134    0.7799146   426349 
  261000   0.62838609   -2.0135291   -2.0135291   -1.2323948  0.043954377   -2.0135291   0.78113431   426349 
  262000   0.62800525   -2.0126194   -2.0126194   -1.2319585  0.048265431   -2.0126194   0.78066089   426349 
  263000   0.62851193   -2.0136762   -2.0136762   -1.2323855  0.042844728   -2.0136762   0.78129073   426349 
  264000   0.62963173   -2.0149041   -2.0149041   -1.2322213   0.04752698   -2.0149041   0.78268273   426349 
  265000   0.62967931    -2.015621    -2.015621   -1.2328791  0.040710085    -2.015621   0.78274189   426349 
  266000   0.62825348   -2.0134248   -2.0134248   -1.2324553  0.047725659   -2.0134248   0.78096946   426349 
  267000   0.62921076      -2.0147      -2.0147   -1.2325406  0.044266184      -2.0147   0.78215944   426349 
  268000   0.62850499    -2.013495    -2.013495   -1.2322129  0.045190664    -2.013495   0.78128211   426349 
  269000   0.62678489   -2.0124173   -2.0124173   -1.2332734   0.04486315   -2.0124173   0.77914388   426349 
  270000   0.62808742   -2.0141522   -2.0141522   -1.2333892  0.043437721   -2.0141522   0.78076304   426349 
  271000   0.62708044   -2.0138628   -2.0138628   -1.2343515  0.044022978   -2.0138628   0.77951128   426349 
  272000   0.62828752   -2.0163322   -2.0163322   -1.2353204   0.04884638   -2.0163322   0.78101178   426349 
  273000   0.62716053   -2.0154654   -2.0154654   -1.2358545  0.044303367   -2.0154654   0.77961083   426349 
  274000   0.62768191   -2.0160719   -2.0160719   -1.2358129  0.045826762   -2.0160719   0.78025895   426349 
  275000   0.62777833   -2.0168592   -2.0168592   -1.2364804  0.042470412   -2.0168592   0.78037881   426349 
  276000   0.62718433   -2.0166563   -2.0166563   -1.2370159   0.04413601   -2.0166563   0.77964042   426349 
  277000   0.62739281    -2.017269    -2.017269   -1.2373695  0.043252527    -2.017269   0.77989957   426349 
  278000   0.62864172   -2.0183752   -2.0183752   -1.2369232  0.044398713   -2.0183752   0.78145208   426349 
  279000   0.62756362   -2.0166337   -2.0166337   -1.2365218   0.03910269   -2.0166337   0.78011192   426349 
  280000   0.62809729   -2.0182177   -2.0182177   -1.2374424  0.040992045   -2.0182177   0.78077531   426349 
  281000   0.62758081   -2.0174963   -2.0174963    -1.237363  0.045627309   -2.0174963   0.78013327   426349 
  282000   0.62757027   -2.0185088   -2.0185088   -1.2383886  0.047849697   -2.0185088   0.78012017   426349 
  283000    0.6277735   -2.0185511   -2.0185511   -1.2381783  0.042949486   -2.0185511   0.78037281   426349 
  284000   0.62789932   -2.0184373   -2.0184373   -1.2379081  0.051994098   -2.0184373   0.78052921   426349 
  285000   0.62655139   -2.0170028   -2.0170028   -1.2381492  0.043260066   -2.0170028   0.77885362   426349 
  286000   0.62831967   -2.0189988   -2.0189988    -1.237947  0.047786053   -2.0189988   0.78105174   426349 
  287000   0.62705167   -2.0181384   -2.0181384   -1.2386629  0.045766626   -2.0181384   0.77947552   426349 
  288000   0.62907933   -2.0197518   -2.0197518   -1.2377558  0.054790628   -2.0197518   0.78199606   426349 
  289000    0.6281944   -2.0194315   -2.0194315   -1.2385355  0.043961763   -2.0194315   0.78089602   426349 
  290000    0.6282857   -2.0196791   -2.0196791   -1.2386696  0.039831345   -2.0196791   0.78100951   426349 
  291000   0.62814204   -2.0195693   -2.0195693   -1.2387384  0.046790669   -2.0195693   0.78083094   426349 
  292000   0.62702932   -2.0191822   -2.0191822   -1.2397345  0.043873174   -2.0191822   0.77944774   426349 
  293000   0.62623228   -2.0181708   -2.0181708   -1.2397138  0.051569906   -2.0181708   0.77845695   426349 
  294000   0.62669497   -2.0189655   -2.0189655   -1.2399334  0.053033039   -2.0189655   0.77903211   426349 
  295000   0.62648286   -2.0189433   -2.0189433   -1.2401748  0.045280069   -2.0189433   0.77876844   426349 
  296000   0.62581628   -2.0183595   -2.0183595   -1.2404197  0.034299908   -2.0183595   0.77793982   426349 
  297000   0.62620471   -2.0190049   -2.0190049   -1.2405822  0.042727003   -2.0190049   0.77842268   426349 
  298000   0.62706606    -2.020784    -2.020784   -1.2412906  0.043920626    -2.020784    0.7794934   426349 
  299000   0.62817413   -2.0220044   -2.0220044   -1.2411335  0.046661168   -2.0220044   0.78087082   426349 
  300000   0.62730891   -2.0220195   -2.0220195   -1.2422242  0.046971673   -2.0220195   0.77979528   426349 
  301000   0.62677259   -2.0221075   -2.0221075    -1.242979  0.040146466   -2.0221075   0.77912859   426349 
  302000   0.62825575   -2.0238377   -2.0238377   -1.2428654  0.044193607   -2.0238377   0.78097229   426349 
  303000   0.62825281   -2.0238211   -2.0238211   -1.2428525  0.043333982   -2.0238211   0.78096862   426349 
  304000   0.62831447   -2.0241162   -2.0241162   -1.2430709  0.044506095   -2.0241162   0.78104527   426349 
  305000   0.62708683   -2.0224425   -2.0224425   -1.2429232  0.049082551   -2.0224425   0.77951922   426349 
  306000   0.62820957   -2.0240602   -2.0240602   -1.2431453     0.046518   -2.0240602   0.78091488   426349 
  307000   0.62743678   -2.0237247   -2.0237247   -1.2437704  0.053781538   -2.0237247   0.77995424   426349 
  308000   0.62715096   -2.0227266   -2.0227266   -1.2431276  0.053096043   -2.0227266   0.77959894   426349 
  309000   0.62747418   -2.0234513   -2.0234513   -1.2434506  0.039539662   -2.0234513   0.78000073   426349 
  310000   0.62768311   -2.0237071   -2.0237071   -1.2434467  0.044928103   -2.0237071   0.78026045   426349 
  311000   0.62618975   -2.0222793   -2.0222793   -1.2438752  0.041438258   -2.0222793   0.77840408   426349 
  312000   0.62637949   -2.0233196   -2.0233196   -1.2446796  0.042672658   -2.0233196   0.77863994   426349 
  313000   0.62523152   -2.0221306   -2.0221306   -1.2449177  0.048076385   -2.0221306   0.77721292   426349 
  314000   0.62571786   -2.0221881   -2.0221881   -1.2443706  0.039097772   -2.0221881   0.77781748   426349 
  315000   0.62509189    -2.021675    -2.021675   -1.2446357  0.046717845    -2.021675   0.77703936   426349 
  316000   0.62730889    -2.024202    -2.024202   -1.2444067  0.039966763    -2.024202   0.77979526   426349 
  317000   0.62690534   -2.0234972   -2.0234972   -1.2442036  0.035427741   -2.0234972   0.77929362   426349 
  318000   0.62751662   -2.0243692   -2.0243692   -1.2443157  0.040911706   -2.0243692   0.78005349   426349 
  319000   0.62695595   -2.0238611   -2.0238611   -1.2445046  0.043997672   -2.0238611   0.77935653   426349 
  320000   0.62640679   -2.0234481   -2.0234481   -1.2447742  0.041061386   -2.0234481   0.77867387   426349 
  321000   0.62697616   -2.0243553   -2.0243553   -1.2449737  0.043713377   -2.0243553   0.77938165   426349 
  322000   0.62576969   -2.0242068   -2.0242068   -1.2463249  0.046328649   -2.0242068   0.77788191   426349 
  323000   0.62700624   -2.0252403   -2.0252403   -1.2458212  0.043547014   -2.0252403   0.77941905   426349 
  324000   0.62749476   -2.0261885   -2.0261885   -1.2461622  0.048412863   -2.0261885   0.78002631   426349 
  325000   0.62666098   -2.0249455   -2.0249455   -1.2459556  0.040602727   -2.0249455   0.77898986   426349 
  326000   0.62630958   -2.0249954   -2.0249954   -1.2464424  0.047311381   -2.0249954   0.77855304   426349 
  327000   0.62542503   -2.0242186   -2.0242186   -1.2467651  0.043583765   -2.0242186   0.77745347   426349 
  328000    0.6274596   -2.0268894   -2.0268894   -1.2469068  0.046355814   -2.0268894   0.77998261   426349 
  329000   0.62586472   -2.0250932   -2.0250932   -1.2470932  0.043364183   -2.0250932   0.77800004   426349 
  330000   0.62701564   -2.0266809   -2.0266809   -1.2472502  0.045238417   -2.0266809   0.77943073   426349 
  331000   0.62630079   -2.0264601   -2.0264601    -1.247918  0.049979129   -2.0264601   0.77854211   426349 
  332000   0.62644897   -2.0261556   -2.0261556   -1.2474293  0.044302579   -2.0261556   0.77872632   426349 
  333000   0.62549244   -2.0253144   -2.0253144   -1.2477771  0.053716313   -2.0253144   0.77753727   426349 
  334000   0.62653441   -2.0265447   -2.0265447   -1.2477121  0.041736833   -2.0265447   0.77883252   426349 
  335000   0.62741247   -2.0275887   -2.0275887   -1.2476647  0.048074245   -2.0275887   0.77992402   426349 
  336000    0.6271634   -2.0277742   -2.0277742   -1.2481598   0.04664286   -2.0277742   0.77961441   426349 
  337000    0.6268464   -2.0273474   -2.0273474    -1.248127  0.045335856   -2.0273474   0.77922035   426349 
  338000   0.62611778   -2.0266118   -2.0266118   -1.2482972   0.04422457   -2.0266118   0.77831462   426349 
  339000   0.62588384    -2.026681    -2.026681   -1.2486572  0.041562289    -2.026681    0.7780238   426349 
  340000    0.6267298   -2.0278104   -2.0278104    -1.248735  0.041510859   -2.0278104    0.7790754   426349 
  341000   0.62604867   -2.0279083   -2.0279083   -1.2496796  0.041393935   -2.0279083    0.7782287   426349 
  342000   0.62451302   -2.0258887   -2.0258887   -1.2495689   0.04460725   -2.0258887   0.77631977   426349 
  343000   0.62536468   -2.0275819   -2.0275819   -1.2502035  0.046523186   -2.0275819   0.77737845   426349 
  344000   0.62538377   -2.0271579   -2.0271579   -1.2497557  0.049728978   -2.0271579   0.77740218   426349 
  345000   0.62676514   -2.0280529   -2.0280529   -1.2489336  0.042942541   -2.0280529   0.77911933   426349 
  346000   0.62578421   -2.0272179   -2.0272179    -1.249318  0.041252502   -2.0272179   0.77789996   426349 
  347000   0.62724887   -2.0290297   -2.0290297    -1.249309  0.046429228   -2.0290297   0.77972065   426349 
  348000   0.62589143   -2.0280128   -2.0280128   -1.2499795  0.039498674   -2.0280128   0.77803325   426349 
  349000   0.62644496   -2.0291011   -2.0291011   -1.2503798  0.040404624   -2.0291011   0.77872132   426349 
  350000   0.62556059   -2.0282277   -2.0282277   -1.2506057  0.046054015   -2.0282277   0.77762198   426349 
  351000    0.6255814    -2.028206    -2.028206   -1.2505581  0.040419372    -2.028206   0.77764785   426349 
  352000   0.62667986     -2.02912     -2.02912   -1.2501067  0.045910128     -2.02912   0.77901332   426349 
  353000   0.62549001   -2.0276756   -2.0276756   -1.2501413  0.048118457   -2.0276756   0.77753424   426349 
  354000   0.62683411   -2.0298371   -2.0298371   -1.2506321  0.040800301   -2.0298371   0.77920506   426349 
  355000   0.62703451    -2.030826    -2.030826   -1.2513718  0.048542168    -2.030826   0.77945418   426349 
  356000   0.62663417   -2.0310564   -2.0310564   -1.2520999  0.044703224   -2.0310564   0.77895653   426349 
  357000   0.62665424   -2.0301706   -2.0301706   -1.2511891  0.049291406   -2.0301706   0.77898147   426349 
  358000   0.62730573   -2.0319526   -2.0319526   -1.2521613  0.046933287   -2.0319526   0.77979133   426349 
  359000   0.62653438   -2.0318243   -2.0318243   -1.2529918  0.047752599   -2.0318243   0.77883248   426349 
  360000   0.62556445   -2.0308836   -2.0308836   -1.2532568   0.04547051   -2.0308836   0.77762678   426349 
  361000   0.62602253   -2.0318783   -2.0318783   -1.2536821  0.043075589   -2.0318783   0.77819621   426349 
  362000   0.62593085   -2.0319249   -2.0319249   -1.2538426  0.048765906   -2.0319249   0.77808225   426349 
  363000    0.6256181     -2.03237     -2.03237   -1.2546765  0.046545065     -2.03237   0.77769347   426349 
  364000   0.62540303   -2.0321621   -2.0321621    -1.254736  0.041455599   -2.0321621   0.77742612   426349 
  365000   0.62633202   -2.0326908   -2.0326908   -1.2541098  0.040877515   -2.0326908   0.77858093   426349 
  366000   0.62479799   -2.0314869   -2.0314869   -1.2548129  0.046976645   -2.0314869   0.77667401   426349 
  367000   0.62578106   -2.0338359   -2.0338359   -1.2559399  0.042473608   -2.0338359   0.77789604   426349 
  368000   0.62537246    -2.032563    -2.032563   -1.2551749  0.043154854    -2.032563   0.77738812   426349 
  369000   0.62466318   -2.0319042   -2.0319042   -1.2553978  0.050053733   -2.0319042   0.77650643   426349 
  370000   0.62537632   -2.0326859   -2.0326859   -1.2552929  0.044734659   -2.0326859   0.77739293   426349 
  371000   0.62582469   -2.0329173   -2.0329173    -1.254967  0.050462998   -2.0329173   0.77795028   426349 
  372000   0.62527812   -2.0322366   -2.0322366   -1.2549658  0.051108168   -2.0322366   0.77727085   426349 
  373000   0.62600552   -2.0330596   -2.0330596   -1.2548845  0.050976925   -2.0330596   0.77817506   426349 
  374000   0.62579444   -2.0334831   -2.0334831   -1.2555704  0.037542121   -2.0334831   0.77791267   426349 
  375000   0.62531755   -2.0329131   -2.0329131   -1.2555933  0.042391093   -2.0329131   0.77731986   426349 
  376000   0.62597226   -2.0332004   -2.0332004   -1.2550667  0.039463171   -2.0332004   0.77813373   426349 
  377000   0.62482359   -2.0324473   -2.0324473   -1.2557415  0.041946587   -2.0324473   0.77670583   426349 
  378000   0.62514984   -2.0332321   -2.0332321   -1.2561207  0.049279558   -2.0332321   0.77711139   426349 
  379000   0.62591481   -2.0342258   -2.0342258   -1.2561635  0.045479495   -2.0342258   0.77806231   426349 
  380000   0.62477171   -2.0331067   -2.0331067   -1.2564654  0.043386839   -2.0331067   0.77664134   426349 
  381000   0.62435042   -2.0339778   -2.0339778   -1.2578602  0.045302687   -2.0339778   0.77611764   426349 
  382000   0.62457418   -2.0337414   -2.0337414   -1.2573456  0.036806745   -2.0337414   0.77639579   426349 
  383000   0.62255186   -2.0319804   -2.0319804   -1.2580986  0.042281353   -2.0319804   0.77388189   426349 
  384000   0.62418386   -2.0342391   -2.0342391   -1.2583285  0.041142454   -2.0342391    0.7759106   426349 
  385000   0.62558272    -2.035563    -2.035563   -1.2579135  0.044640293    -2.035563   0.77764949   426349 
  386000    0.6248674   -2.0349787   -2.0349787   -1.2582184  0.048532794   -2.0349787   0.77676029   426349 
  387000   0.62497799    -2.035047    -2.035047   -1.2581493   0.04906595    -2.035047   0.77689776   426349 
  388000   0.62541319   -2.0364104   -2.0364104   -1.2589716  0.046399792   -2.0364104   0.77743876   426349 
  389000   0.62571706   -2.0373233   -2.0373233   -1.2595068   0.04379313   -2.0373233   0.77781649   426349 
  390000   0.62634272    -2.038344    -2.038344   -1.2597498  0.039644752    -2.038344   0.77859423   426349 
  391000   0.62414721   -2.0360633   -2.0360633   -1.2601982    0.0519242   -2.0360633   0.77586504   426349 
  392000    0.6248545   -2.0368731   -2.0368731   -1.2601288  0.045546839   -2.0368731   0.77674426   426349 
  393000   0.62616006   -2.0381188   -2.0381188   -1.2597516  0.037690648   -2.0381188   0.77836717   426349 
  394000   0.62598532   -2.0382082   -2.0382082   -1.2600582  0.045765976   -2.0382082   0.77814996   426349 
  395000   0.62447082   -2.0364447   -2.0364447   -1.2601774  0.041528372   -2.0364447   0.77626731   426349 
  396000   0.62550834   -2.0378114   -2.0378114   -1.2602543  0.047608008   -2.0378114   0.77755704   426349 
  397000   0.62586356   -2.0381644   -2.0381644   -1.2601658  0.046404188   -2.0381644    0.7779986   426349 
  398000   0.62573368   -2.0381704   -2.0381704   -1.2603333  0.045358918   -2.0381704   0.77783714   426349 
  399000     0.625629   -2.0392261   -2.0392261   -1.2615191  0.042837556   -2.0392261   0.77770702   426349 
  400000    0.6257003   -2.0393018   -2.0393018   -1.2615061  0.040505778   -2.0393018   0.77779565   426349 
  401000    0.6247171   -2.0389889   -2.0389889   -1.2624154  0.041599727   -2.0389889   0.77657346   426349 
  402000   0.62351863   -2.0376773   -2.0376773   -1.2625937  0.044231206   -2.0376773   0.77508366   426349 
  403000   0.62490573   -2.0396297   -2.0396297   -1.2628218  0.046086928   -2.0396297   0.77680793   426349 
  404000   0.62651466   -2.0402688   -2.0402688   -1.2614608   0.03657583   -2.0402688   0.77880796   426349 
  405000   0.62458534    -2.038694    -2.038694   -1.2622843  0.045186224    -2.038694   0.77640967   426349 
  406000   0.62525477   -2.0396021   -2.0396021   -1.2623602  0.046237368   -2.0396021   0.77724183   426349 
  407000   0.62518644   -2.0394289   -2.0394289   -1.2622721  0.039365927   -2.0394289   0.77715689   426349 
  408000   0.62414971   -2.0383549   -2.0383549   -1.2624868  0.047911639   -2.0383549   0.77586815   426349 
  409000   0.62608787   -2.0404357   -2.0404357   -1.2621583  0.045119041   -2.0404357   0.77827743   426349 
  410000   0.62588466   -2.0393165   -2.0393165   -1.2612917  0.043777633   -2.0393165   0.77802482   426349 
  411000   0.62630125   -2.0407516   -2.0407516   -1.2622089   0.04598902   -2.0407516   0.77854269   426349 
  412000   0.62543057   -2.0403679   -2.0403679   -1.2629075  0.047543419   -2.0403679   0.77746035   426349 
  413000   0.62502959   -2.0404464   -2.0404464   -1.2634845  0.041657511   -2.0404464   0.77696191   426349 
  414000   0.62551933   -2.0404857   -2.0404857    -1.262915  0.043350572   -2.0404857    0.7775707   426349 
  415000   0.62583729   -2.0410301   -2.0410301   -1.2630642  0.042999983   -2.0410301   0.77796594   426349 
  416000   0.62496829   -2.0397635   -2.0397635   -1.2628778  0.047002375   -2.0397635   0.77688571   426349 
  417000   0.62446926   -2.0405092   -2.0405092   -1.2642438  0.037284948   -2.0405092   0.77626537   426349 
  418000   0.62487561   -2.0413052   -2.0413052   -1.2645347  0.039796066   -2.0413052    0.7767705   426349 
  419000   0.62384031   -2.0403121   -2.0403121   -1.2648285  0.041845486   -2.0403121   0.77548353   426349 
  420000    0.6246871   -2.0420108   -2.0420108   -1.2654747  0.040086673   -2.0420108   0.77653616   426349 
  421000   0.62416294   -2.0419048   -2.0419048   -1.2660203  0.045621563   -2.0419048   0.77588459   426349 
  422000    0.6245056    -2.042354    -2.042354   -1.2660434   0.03746489    -2.042354   0.77631055   426349 
  423000   0.62470201   -2.0420032   -2.0420032   -1.2654485   0.04470628   -2.0420032    0.7765547   426349 
  424000   0.62578746   -2.0426951   -2.0426951   -1.2647911  0.041143672   -2.0426951     0.777904   426349 
  425000   0.62398912   -2.0408887   -2.0408887   -1.2652202  0.042743541   -2.0408887   0.77566852   426349 
  426000   0.62308216   -2.0409482   -2.0409482   -1.2664071  0.039824452   -2.0409482   0.77454109   426349 
  427000   0.62462555   -2.0426349   -2.0426349   -1.2661753  0.041372588   -2.0426349   0.77645965   426349 
  428000   0.62467616   -2.0422849   -2.0422849   -1.2657624  0.041853762   -2.0422849   0.77652256   426349 
  429000   0.62416068   -2.0417541   -2.0417541   -1.2658724  0.047596654   -2.0417541   0.77588179   426349 
  430000   0.62460955   -2.0423926   -2.0423926   -1.2659529  0.049669956   -2.0423926   0.77643977   426349 
  431000   0.62430656   -2.0426952   -2.0426952   -1.2666321  0.041662288   -2.0426952   0.77606313   426349 
  432000   0.62387415   -2.0409769   -2.0409769   -1.2654512  0.050397237   -2.0409769   0.77552561   426349 
  433000   0.62540607   -2.0424778   -2.0424778   -1.2650479  0.045745634   -2.0424778   0.77742991   426349 
  434000   0.62468583   -2.0421118   -2.0421118   -1.2655772  0.044873356   -2.0421118   0.77653459   426349 
  435000   0.62446592   -2.0428721   -2.0428721   -1.2666109  0.044680673   -2.0428721   0.77626122   426349 
  436000   0.62440819   -2.0424724   -2.0424724   -1.2662829  0.042312254   -2.0424724   0.77618946   426349 
  437000   0.62501454   -2.0432869   -2.0432869   -1.2663437  0.045813476   -2.0432869    0.7769432   426349 
  438000   0.62336708   -2.0419692   -2.0419692   -1.2670739  0.039263994   -2.0419692   0.77489527   426349 
  439000   0.62367798    -2.042174    -2.042174   -1.2668923  0.045144933    -2.042174   0.77528175   426349 
  440000   0.62509824   -2.0444931   -2.0444931   -1.2674459   0.04107511   -2.0444931   0.77704725   426349 
  441000   0.62388833   -2.0429796   -2.0429796   -1.2674363  0.044021855   -2.0429796   0.77554323   426349 
  442000   0.62359042    -2.042492    -2.042492   -1.2673191  0.044549694    -2.042492    0.7751729   426349 
  443000   0.62358554   -2.0426804   -2.0426804   -1.2675136  0.041461944   -2.0426804   0.77516684   426349 
  444000   0.62482031   -2.0446411   -2.0446411   -1.2679393  0.041799788   -2.0446411   0.77670175   426349 
  445000   0.62485913   -2.0445278   -2.0445278   -1.2677778  0.045447321   -2.0445278   0.77675001   426349 
  446000    0.6241385   -2.0436375   -2.0436375   -1.2677833  0.044692362   -2.0436375   0.77585421   426349 
  447000   0.62442258   -2.0442443   -2.0442443   -1.2680369  0.046078956   -2.0442443   0.77620735   426349 
  448000   0.62306482    -2.043374    -2.043374   -1.2688545  0.047154536    -2.043374   0.77451954   426349 
  449000   0.62282091   -2.0437614   -2.0437614   -1.2695451  0.041345399   -2.0437614   0.77421634   426349 
  450000    0.6236167   -2.0439018   -2.0439018   -1.2686962  0.043391087   -2.0439018   0.77520558   426349 
  451000   0.62471378   -2.0458272   -2.0458272   -1.2692578  0.042272854   -2.0458272   0.77656933   426349 
  452000   0.62370229   -2.0443367   -2.0443367   -1.2690247  0.041237174   -2.0443367   0.77531196   426349 
  453000   0.62408172   -2.0456177   -2.0456177   -1.2698341  0.042085349   -2.0456177   0.77578363   426349 
  454000   0.62351399   -2.0452297   -2.0452297   -1.2701518  0.046014595   -2.0452297    0.7750779   426349 
  455000   0.62356154   -2.0448122   -2.0448122   -1.2696752  0.043976325   -2.0448122   0.77513701   426349 
  456000    0.6238332       -2.045       -2.045   -1.2695253  0.040204403       -2.045    0.7754747   426349 
  457000   0.62507239   -2.0463315   -2.0463315   -1.2693164   0.04301224   -2.0463315   0.77701512   426349 
  458000   0.62390871   -2.0456969   -2.0456969   -1.2701283  0.039792772   -2.0456969   0.77556856   426349 
  459000   0.62478236   -2.0463776   -2.0463776    -1.269723  0.047058217   -2.0463776   0.77665458   426349 
  460000   0.62585333   -2.0476061   -2.0476061   -1.2696202  0.051063691   -2.0476061   0.77798588   426349 
  461000   0.62527199   -2.0471777   -2.0471777   -1.2699144  0.045685606   -2.0471777   0.77726323   426349 
  462000   0.62479003    -2.047877    -2.047877   -1.2712128  0.042808587    -2.047877   0.77666412   426349 
  463000   0.62394798   -2.0469744   -2.0469744    -1.271357  0.047819387   -2.0469744   0.77561737   426349 
  464000   0.62264469    -2.046174    -2.046174   -1.2721767  0.044487915    -2.046174   0.77399728   426349 
  465000   0.62334335   -2.0473577   -2.0473577   -1.2724919   0.04537209   -2.0473577   0.77486578   426349 
  466000    0.6229054   -2.0469906   -2.0469906   -1.2726692  0.034901952   -2.0469906   0.77432136   426349 
  467000   0.62432736     -2.04907     -2.04907    -1.272981  0.047655249     -2.04907   0.77608898   426349 
  468000   0.62440838   -2.0492085   -2.0492085   -1.2730188  0.045868674   -2.0492085   0.77618969   426349 
  469000   0.62337901   -2.0475588   -2.0475588   -1.2726487  0.050367918   -2.0475588    0.7749101   426349 
  470000   0.62367249   -2.0487472   -2.0487472   -1.2734723  0.043610584   -2.0487472   0.77527492   426349 
  471000   0.62394136   -2.0487305   -2.0487305   -1.2731214  0.033882842   -2.0487305   0.77560915   426349 
  472000   0.62388817   -2.0487425   -2.0487425   -1.2731994  0.052053464   -2.0487425   0.77554303   426349 
  473000   0.62407659   -2.0493007   -2.0493007   -1.2735234   0.04112373   -2.0493007   0.77577725   426349 
  474000   0.62407968   -2.0499184   -2.0499184   -1.2741373  0.044222357   -2.0499184    0.7757811   426349 
  475000   0.62438943   -2.0506211   -2.0506211    -1.274455  0.042843108   -2.0506211   0.77616613   426349 
  476000   0.62332942   -2.0494648   -2.0494648   -1.2746163   0.04456353   -2.0494648   0.77484847   426349 
  477000   0.62271179   -2.0490183   -2.0490183   -1.2749376  0.043758515   -2.0490183    0.7740807   426349 
  478000   0.62307951   -2.0503238   -2.0503238    -1.275786  0.038121022   -2.0503238    0.7745378   426349 
  479000   0.62282615   -2.0499927   -2.0499927   -1.2757698  0.039062106   -2.0499927   0.77422285   426349 
  480000   0.62139633   -2.0484693   -2.0484693   -1.2760238  0.044136122   -2.0484693   0.77244547   426349 
  481000   0.62381386   -2.0511993   -2.0511993   -1.2757487   0.04540122   -2.0511993   0.77545065   426349 
  482000   0.62303425   -2.0502546   -2.0502546    -1.275773  0.052708219   -2.0502546   0.77448154   426349 
  483000   0.62301337   -2.0499335   -2.0499335   -1.2754779  0.048090376   -2.0499335   0.77445558   426349 
  484000   0.62286937   -2.0504653   -2.0504653   -1.2761887  0.046144781   -2.0504653   0.77427658   426349 
  485000   0.62352389   -2.0514542   -2.0514542   -1.2763639  0.051975652   -2.0514542    0.7750902   426349 
  486000   0.62332854   -2.0511081   -2.0511081   -1.2762607  0.052841089   -2.0511081   0.77484737   426349 
  487000   0.62392047    -2.052713    -2.052713   -1.2771298  0.043976808    -2.052713   0.77558318   426349 
  488000   0.62369398   -2.0526338   -2.0526338   -1.2773321  0.044856715   -2.0526338   0.77530164   426349 
  489000   0.62357514   -2.0526631   -2.0526631   -1.2775092  0.039855381   -2.0526631   0.77515391   426349 
  490000   0.62365113   -2.0531169   -2.0531169   -1.2778685  0.038802633   -2.0531169   0.77524837   426349 
  491000   0.62337743   -2.0529434   -2.0529434   -1.2780353  0.041361402   -2.0529434   0.77490814   426349 
  492000   0.62351133   -2.0529185   -2.0529185   -1.2778439  0.046043463   -2.0529185   0.77507459   426349 
  493000   0.62389083   -2.0536189   -2.0536189   -1.2780726  0.043038665   -2.0536189   0.77554634   426349 
  494000   0.62359916   -2.0542448   -2.0542448   -1.2790611  0.042793132   -2.0542448   0.77518376   426349 
  495000    0.6225531   -2.0530424   -2.0530424   -1.2791589  0.049545924   -2.0530424   0.77388344   426349 
  496000   0.62450783   -2.0547198   -2.0547198   -1.2784065   0.04678215   -2.0547198   0.77631331   426349 
  497000   0.62341819   -2.0544406   -2.0544406   -1.2794818  0.041104505   -2.0544406   0.77495881   426349 
  498000   0.62351411   -2.0546834   -2.0546834   -1.2796053  0.045756537   -2.0546834   0.77507804   426349 
  499000    0.6239679   -2.0538552   -2.0538552   -1.2782131  0.036714567   -2.0538552   0.77564215   426349 
  500000   0.62263052    -2.052714    -2.052714   -1.2787343  0.048937265    -2.052714   0.77397967   426349 
  501000   0.62394988   -2.0547503   -2.0547503   -1.2791306  0.042852889   -2.0547503   0.77561974   426349 
  502000   0.62356981   -2.0544058   -2.0544058   -1.2792585    0.0475721   -2.0544058   0.77514729   426349 
  503000   0.62491347   -2.0556133   -2.0556133   -1.2787957  0.037497899   -2.0556133   0.77681756   426349 
  504000   0.62291012   -2.0531814   -2.0531814   -1.2788542   0.04891689   -2.0531814   0.77432724   426349 
  505000   0.62281911   -2.0531561   -2.0531561    -1.278942  0.044529757   -2.0531561   0.77421411   426349 
  506000   0.62499339   -2.0560458   -2.0560458   -1.2791289  0.042473154   -2.0560458   0.77691691   426349 
  507000    0.6235434   -2.0544322   -2.0544322   -1.2793178  0.041317614   -2.0544322   0.77511445   426349 
  508000   0.62414304   -2.0551347   -2.0551347   -1.2792748  0.042114129   -2.0551347   0.77585985   426349 
  509000   0.62424353   -2.0554198   -2.0554198    -1.279435  0.043969464   -2.0554198   0.77598477   426349 
  510000   0.62355503   -2.0553396   -2.0553396   -1.2802107  0.045902629   -2.0553396   0.77512891   426349 
  511000   0.62261377   -2.0539036   -2.0539036   -1.2799447  0.040762362   -2.0539036   0.77395884   426349 
  512000   0.62190631   -2.0539077   -2.0539077   -1.2808283  0.044200306   -2.0539077   0.77307942   426349 
  513000   0.62324386   -2.0549365   -2.0549365   -1.2801944  0.047504504   -2.0549365    0.7747421   426349 
  514000   0.62281767   -2.0528969   -2.0528969   -1.2786846  0.043906552   -2.0528969   0.77421232   426349 
  515000   0.62302024   -2.0540008   -2.0540008   -1.2795366     0.039717   -2.0540008   0.77446413   426349 
  516000   0.62237036   -2.0539019   -2.0539019   -1.2802456  0.042633008   -2.0539019   0.77365628   426349 
  517000   0.62272075   -2.0535789   -2.0535789    -1.279487  0.052184641   -2.0535789   0.77409183   426349 
  518000   0.62233345   -2.0536046   -2.0536046   -1.2799942  0.043997808   -2.0536046   0.77361039   426349 
  519000   0.62461665   -2.0561124   -2.0561124   -1.2796638  0.039873833   -2.0561124   0.77644858   426349 
  520000   0.62491959   -2.0557688   -2.0557688   -1.2789436  0.043602398   -2.0557688   0.77682517   426349 
  521000   0.62391795   -2.0551352   -2.0551352   -1.2795551  0.038044885   -2.0551352   0.77558005   426349 
  522000    0.6246943   -2.0560994   -2.0560994   -1.2795542  0.047650608   -2.0560994   0.77654512   426349 
  523000   0.62349444   -2.0552597   -2.0552597   -1.2802061  0.045586543   -2.0552597   0.77505359   426349 
  524000   0.62318958   -2.0546645   -2.0546645   -1.2799899  0.043062438   -2.0546645   0.77467463   426349 
  525000   0.62416663   -2.0559674   -2.0559674   -1.2800782  0.043061049   -2.0559674   0.77588917   426349 
  526000   0.62388617    -2.055417    -2.055417   -1.2798765  0.050825937    -2.055417   0.77554055   426349 
  527000   0.62377099   -2.0554775   -2.0554775   -1.2800802  0.046412456   -2.0554775   0.77539737   426349 
  528000   0.62308003   -2.0557938   -2.0557938   -1.2812553  0.044995043   -2.0557938   0.77453845   426349 
  529000   0.62447807   -2.0577525   -2.0577525   -1.2814762  0.042553538   -2.0577525   0.77627632   426349 
  530000   0.62507271   -2.0584024   -2.0584024   -1.2813869  0.046120596   -2.0584024   0.77701551   426349 
  531000   0.62261751   -2.0566681   -2.0566681   -1.2827046  0.041291665   -2.0566681    0.7739635   426349 
  532000   0.62340044   -2.0580931   -2.0580931   -1.2831563  0.051200892   -2.0580931   0.77493675   426349 
  533000   0.62346549   -2.0579948   -2.0579948   -1.2829772  0.043617984   -2.0579948    0.7750176   426349 
  534000   0.62213835   -2.0572937   -2.0572937   -1.2839258  0.043534263   -2.0572937   0.77336786   426349 
  535000   0.62324418   -2.0584813   -2.0584813   -1.2837388  0.042801527   -2.0584813    0.7747425   426349 
  536000   0.62262965   -2.0579285   -2.0579285   -1.2839499  0.043109655   -2.0579285   0.77397859   426349 
  537000   0.62303024   -2.0584809   -2.0584809   -1.2840043  0.051390386   -2.0584809   0.77447656   426349 
  538000   0.62409687    -2.059721    -2.059721   -1.2839185  0.040796811    -2.059721   0.77580246   426349 
  539000   0.62394694   -2.0593595   -2.0593595   -1.2837435  0.040277731   -2.0593595   0.77561608   426349 
  540000    0.6225419   -2.0573786   -2.0573786   -1.2835091  0.043047642   -2.0573786   0.77386951   426349 
  541000   0.62419828   -2.0595814   -2.0595814   -1.2836529  0.035518863   -2.0595814   0.77592852   426349 
  542000   0.62323767   -2.0582105   -2.0582105   -1.2834761  0.045733027   -2.0582105   0.77473441   426349 
  543000   0.62356927    -2.058847    -2.058847   -1.2837004  0.043952394    -2.058847   0.77514661   426349 
  544000   0.62343511   -2.0584809   -2.0584809   -1.2835011  0.044896053   -2.0584809   0.77497984   426349 
  545000   0.62366696   -2.0593024   -2.0593024   -1.2840344  0.049157492   -2.0593024   0.77526805   426349 
  546000   0.62381357   -2.0609051   -2.0609051   -1.2854548  0.040358212   -2.0609051    0.7754503   426349 
  547000   0.62292913   -2.0591623   -2.0591623   -1.2848115  0.049822261   -2.0591623   0.77435086   426349 
  548000   0.62182542   -2.0583888   -2.0583888   -1.2854099  0.046257216   -2.0583888   0.77297887   426349 
  549000   0.62318552   -2.0595699   -2.0595699   -1.2849003  0.049415934   -2.0595699   0.77466958   426349 
  550000   0.62298195   -2.0593279   -2.0593279   -1.2849113  0.044715837   -2.0593279   0.77441652   426349 
  551000   0.62358651   -2.0603545   -2.0603545   -1.2851865  0.043927493   -2.0603545   0.77516804   426349 
  552000   0.62287888   -2.0600187   -2.0600187   -1.2857303   0.04446899   -2.0600187    0.7742884   426349 
  553000    0.6232894   -2.0602423   -2.0602423   -1.2854435  0.045124496   -2.0602423   0.77479871   426349 
  554000   0.62336102   -2.0612109   -2.0612109   -1.2863231  0.044809755   -2.0612109   0.77488774   426349 
  555000   0.62341797   -2.0608841   -2.0608841   -1.2859256  0.045337486   -2.0608841   0.77495854   426349 
  556000    0.6223331   -2.0597091   -2.0597091   -1.2860992  0.047057244   -2.0597091   0.77360996   426349 
  557000   0.62221777   -2.0605506   -2.0605506    -1.287084  0.039576142   -2.0605506   0.77346658   426349 
  558000   0.62238511   -2.0604361   -2.0604361   -1.2867615  0.039689836   -2.0604361   0.77367461   426349 
  559000     0.621675   -2.0603804   -2.0603804   -1.2875885  0.043131391   -2.0603804   0.77279188   426349 
  560000   0.62140427   -2.0604605   -2.0604605   -1.2880052  0.044946389   -2.0604605   0.77245535   426349 
  561000    0.6227901   -2.0625517   -2.0625517   -1.2883737  0.036144128   -2.0625517   0.77417804   426349 
  562000   0.62296372   -2.0626953   -2.0626953   -1.2883015  0.044518318   -2.0626953   0.77439387   426349 
  563000   0.62165746   -2.0611465   -2.0611465   -1.2883764  0.047184949   -2.0611465   0.77277008   426349 
  564000   0.62098833   -2.0613294   -2.0613294   -1.2893911  0.045212662   -2.0613294    0.7719383   426349 
  565000   0.62270628   -2.0631446   -2.0631446   -1.2890708    0.0405411   -2.0631446   0.77407385   426349 
  566000   0.62299956   -2.0631518   -2.0631518   -1.2887134  0.047306959   -2.0631518   0.77443841   426349 
  567000    0.6224781   -2.0623614   -2.0623614   -1.2885712  0.046692122   -2.0623614    0.7737902   426349 
  568000   0.62250111   -2.0631165   -2.0631165   -1.2892977  0.048724213   -2.0631165   0.77381881   426349 
  569000   0.62293101   -2.0638078   -2.0638078   -1.2894546  0.037620357   -2.0638078    0.7743532   426349 
  570000   0.62306634    -2.063525    -2.063525   -1.2890036  0.047428323    -2.063525   0.77452142   426349 
  571000   0.62445009   -2.0655471   -2.0655471   -1.2893055  0.044910025   -2.0655471   0.77624154   426349 
  572000   0.62185795   -2.0628414   -2.0628414   -1.2898221  0.045636137   -2.0628414   0.77301931   426349 
  573000   0.62253064   -2.0637403   -2.0637403   -1.2898848  0.045835567   -2.0637403   0.77385552   426349 
  574000    0.6216713   -2.0632706   -2.0632706   -1.2904833  0.043370743   -2.0632706   0.77278728   426349 
  575000   0.62312454   -2.0649153   -2.0649153   -1.2903215   0.04218346   -2.0649153   0.77459378   426349 
  576000   0.62195179   -2.0642185   -2.0642185   -1.2910826  0.039198528   -2.0642185   0.77313596   426349 
  577000   0.62371768   -2.0661674   -2.0661674   -1.2908363  0.047155963   -2.0661674    0.7753311   426349 
  578000   0.62114371    -2.063912    -2.063912   -1.2917806  0.044232524    -2.063912   0.77213144   426349 
  579000   0.62285016   -2.0657069   -2.0657069   -1.2914542  0.043170675   -2.0657069    0.7742527   426349 
  580000   0.62199494   -2.0654036   -2.0654036    -1.292214  0.041286679   -2.0654036   0.77318959   426349 
  581000    0.6215675    -2.064756    -2.064756   -1.2920978  0.040641796    -2.064756   0.77265825   426349 
  582000   0.62231322   -2.0655037   -2.0655037   -1.2919185  0.043687893   -2.0655037   0.77358524   426349 
  583000   0.62062821   -2.0643872   -2.0643872   -1.2928966  0.043791374   -2.0643872   0.77149063   426349 
  584000   0.62155793   -2.0652364   -2.0652364     -1.29259  0.049717489   -2.0652364   0.77264636   426349 
  585000   0.62154551   -2.0656129   -2.0656129    -1.292982  0.043479667   -2.0656129   0.77263092   426349 
  586000    0.6205707    -2.064838    -2.064838   -1.2934188  0.044677354    -2.064838   0.77141915   426349 
  587000   0.62260019   -2.0672496   -2.0672496   -1.2933076  0.053641355   -2.0672496   0.77394197   426349 
  588000   0.62122825    -2.065733    -2.065733   -1.2934965   0.03806176    -2.065733   0.77223654   426349 
  589000   0.62195826   -2.0657639   -2.0657639   -1.2926199  0.044696136   -2.0657639   0.77314399   426349 
  590000    0.6213298    -2.065676    -2.065676   -1.2933132  0.038873442    -2.065676   0.77236277   426349 
  591000   0.62201068   -2.0656472   -2.0656472   -1.2924381  0.039723468   -2.0656472   0.77320916   426349 
  592000   0.62184827    -2.064483    -2.064483   -1.2914757  0.043945573    -2.064483   0.77300727   426349 
  593000   0.62215166    -2.065187    -2.065187   -1.2918026   0.04897998    -2.065187   0.77338441   426349 
  594000    0.6226519   -2.0658803   -2.0658803   -1.2918741  0.046927985   -2.0658803   0.77400625   426349 
  595000   0.62206693   -2.0645521   -2.0645521    -1.291273  0.043116928   -2.0645521   0.77327909   426349 
  596000   0.62346638   -2.0660264   -2.0660264   -1.2910077  0.046924654   -2.0660264   0.77501871   426349 
  597000   0.62418606   -2.0672516   -2.0672516   -1.2913382  0.041495291   -2.0672516   0.77591333   426349 
  598000   0.62238475   -2.0660712   -2.0660712   -1.2923971  0.045744586   -2.0660712   0.77367416   426349 
  599000   0.62282219   -2.0665602   -2.0665602   -1.2923422  0.043969363   -2.0665602   0.77421793   426349 
  600000   0.62126945   -2.0651191   -2.0651191   -1.2928313  0.047473432   -2.0651191   0.77228776   426349 
  601000   0.62182112   -2.0660322   -2.0660322   -1.2930587  0.047730796   -2.0660322   0.77297352   426349 
  602000   0.62039577   -2.0643842   -2.0643842   -1.2931825  0.050159573   -2.0643842    0.7712017   426349 
  603000   0.62140645   -2.0655831   -2.0655831   -1.2931251   0.05493199   -2.0655831   0.77245806   426349 
  604000   0.62297947    -2.067956    -2.067956   -1.2935425  0.044761025    -2.067956   0.77441344   426349 
  605000   0.62101631   -2.0653437   -2.0653437   -1.2933706  0.039532734   -2.0653437   0.77197308   426349 
  606000   0.62242688   -2.0665592   -2.0665592   -1.2928327  0.044471708   -2.0665592   0.77372653   426349 
  607000   0.62105221   -2.0647437   -2.0647437    -1.292726  0.046522638   -2.0647437    0.7720177   426349 
  608000   0.62136009   -2.0650842   -2.0650842   -1.2926838  0.040517774   -2.0650842   0.77240042   426349 
  609000   0.62131776    -2.065376    -2.065376   -1.2930281  0.049578111    -2.065376   0.77234781   426349 
  610000   0.62242502   -2.0665308   -2.0665308   -1.2928065  0.042072408   -2.0665308   0.77372422   426349 
  611000   0.62186224   -2.0659829   -2.0659829   -1.2929583  0.041418298   -2.0659829   0.77302464   426349 
  612000   0.62196015   -2.0663195   -2.0663195   -1.2931731  0.045273612   -2.0663195   0.77314635   426349 
  613000   0.62161681   -2.0671775   -2.0671775    -1.294458   0.04575828   -2.0671775   0.77271955   426349 
  614000     0.621783   -2.0667882   -2.0667882   -1.2938621  0.046490664   -2.0667882   0.77292613   426349 
  615000   0.62002019   -2.0649803   -2.0649803   -1.2942455  0.048508879   -2.0649803   0.77073482   426349 
  616000   0.62200661   -2.0672409   -2.0672409   -1.2940368  0.049540148   -2.0672409   0.77320411   426349 
  617000   0.62167426    -2.067204    -2.067204   -1.2944131  0.042819896    -2.067204   0.77279096   426349 
  618000    0.6213019   -2.0675454   -2.0675454   -1.2952173  0.038501046   -2.0675454   0.77232809   426349 
  619000   0.61984162    -2.065556    -2.065556   -1.2950431   0.04088154    -2.065556   0.77051284   426349 
  620000    0.6211171   -2.0673465   -2.0673465   -1.2952481  0.048732275   -2.0673465   0.77209837   426349 
  621000   0.62112301   -2.0675543   -2.0675543   -1.2954486  0.047065835   -2.0675543   0.77210572   426349 
  622000   0.62109835   -2.0679743   -2.0679743   -1.2958992  0.048011571   -2.0679743   0.77207506   426349 
  623000   0.62079399   -2.0681214   -2.0681214   -1.2964247  0.044784769   -2.0681214   0.77169672   426349 
  624000   0.62039082   -2.0681832   -2.0681832   -1.2969876  0.043300811   -2.0681832   0.77119555   426349 
  625000   0.62144914   -2.0696892   -2.0696892   -1.2971781  0.051217315   -2.0696892   0.77251112   426349 
  626000   0.62041524   -2.0684477   -2.0684477   -1.2972218  0.041945431   -2.0684477    0.7712259   426349 
  627000   0.62160591   -2.0701252   -2.0701252   -1.2974192  0.049220251   -2.0701252   0.77270599   426349 
  628000   0.61994482   -2.0682234   -2.0682234   -1.2975822   0.05204564   -2.0682234   0.77064113   426349 
  629000   0.62049464   -2.0690846   -2.0690846     -1.29776  0.042430191   -2.0690846    0.7713246   426349 
  630000   0.62123152    -2.069755    -2.069755   -1.2975144  0.046231581    -2.069755    0.7722406   426349 
  631000   0.62056712   -2.0695006   -2.0695006   -1.2980859  0.045552984   -2.0695006    0.7714147   426349 
  632000    0.6210898   -2.0695299   -2.0695299   -1.2974654  0.042558679   -2.0695299   0.77206443   426349 
  633000   0.62203858   -2.0705139   -2.0705139   -1.2972701  0.036657143   -2.0705139   0.77324384   426349 
  634000   0.62128637    -2.069439    -2.069439   -1.2971302  0.038556712    -2.069439   0.77230879   426349 
  635000   0.62015664    -2.068157    -2.068157   -1.2972526  0.043692554    -2.068157   0.77090444   426349 
  636000   0.62191112    -2.069581    -2.069581   -1.2964956  0.041608012    -2.069581    0.7730854   426349 
  637000   0.62148593   -2.0691332   -2.0691332   -1.2965763  0.042065747   -2.0691332   0.77255685   426349 
  638000   0.62059443   -2.0687913   -2.0687913   -1.2973426  0.048185161   -2.0687913   0.77144865   426349 
  639000   0.62036281   -2.0688278   -2.0688278   -1.2976671  0.051310753   -2.0688278   0.77116073   426349 
  640000   0.62002605   -2.0689277   -2.0689277   -1.2981856  0.049929136   -2.0689277    0.7707421   426349 
  641000   0.62120421   -2.0706823   -2.0706823   -1.2984757  0.038952948   -2.0706823   0.77220665   426349 
  642000   0.62110124   -2.0701299   -2.0701299   -1.2980512  0.052176195   -2.0701299   0.77207865   426349 
  643000   0.62034645   -2.0692507   -2.0692507   -1.2981103  0.048072259   -2.0692507   0.77114039   426349 
  644000   0.62104189   -2.0704106   -2.0704106   -1.2984057   0.04065853   -2.0704106   0.77200487   426349 
  645000   0.62038762   -2.0702289   -2.0702289   -1.2990373  0.044777015   -2.0702289   0.77119157   426349 
  646000   0.61979556   -2.0696286   -2.0696286    -1.299173  0.047609284   -2.0696286   0.77045558   426349 
  647000   0.62099164   -2.0702765   -2.0702765   -1.2983341  0.045012339   -2.0702765   0.77194241   426349 
  648000   0.61986555   -2.0689821   -2.0689821   -1.2984395  0.043464626   -2.0689821   0.77054259   426349 
  649000   0.62149631   -2.0711839   -2.0711839   -1.2986141  0.051038637   -2.0711839   0.77256976   426349 
  650000   0.62022289    -2.070788    -2.070788   -1.2998012  0.045091677    -2.070788    0.7709868   426349 
  651000   0.62084462   -2.0712879   -2.0712879   -1.2995283  0.046176354   -2.0712879   0.77175965   426349 
  652000   0.62084327   -2.0710957   -2.0710957   -1.2993377  0.041335626   -2.0710957   0.77175798   426349 
  653000   0.62165362    -2.071616    -2.071616   -1.2988507  0.040122214    -2.071616   0.77276531   426349 
  654000   0.62188556   -2.0717998   -2.0717998   -1.2987461  0.046318058   -2.0717998   0.77305362   426349 
  655000   0.62143285   -2.0714989   -2.0714989    -1.299008  0.039854103   -2.0714989   0.77249087   426349 
  656000    0.6200253    -2.069808    -2.069808   -1.2990668   0.04577574    -2.069808   0.77074118   426349 
  657000   0.62086002   -2.0715345   -2.0715345   -1.2997557  0.045548019   -2.0715345    0.7717788   426349 
  658000   0.62073025   -2.0716597   -2.0716597   -1.3000422   0.04860612   -2.0716597   0.77161749   426349 
  659000   0.61923881   -2.0704984   -2.0704984   -1.3007349  0.042456637   -2.0704984    0.7697635   426349 
  660000   0.62115874   -2.0726496   -2.0726496   -1.3004994  0.043999264   -2.0726496   0.77215013   426349 
  661000   0.62117814   -2.0729934   -2.0729934   -1.3008191  0.045425899   -2.0729934   0.77217424   426349 
  662000   0.61991556    -2.072803    -2.072803   -1.3021982  0.042045919    -2.072803   0.77060476   426349 
  663000   0.61986258   -2.0730437   -2.0730437   -1.3025048  0.040236102   -2.0730437    0.7705389   426349 
  664000   0.61991934   -2.0719067   -2.0719067   -1.3012972  0.048745918   -2.0719067   0.77060945   426349 
  665000   0.62016224    -2.073546    -2.073546   -1.3026346  0.045409316    -2.073546    0.7709114   426349 
  666000   0.62061866   -2.0739101   -2.0739101   -1.3024313  0.047328253   -2.0739101   0.77147877   426349 
  667000    0.6206319   -2.0743871   -2.0743871   -1.3028918  0.045365316   -2.0743871   0.77149523   426349 
  668000   0.62085788   -2.0753467   -2.0753467   -1.3035705  0.040211421   -2.0753467   0.77177614   426349 
  669000   0.62023127   -2.0747903   -2.0747903   -1.3037931  0.042027806   -2.0747903   0.77099721   426349 
  670000   0.61991286   -2.0740781   -2.0740781   -1.3034767  0.049787051   -2.0740781    0.7706014   426349 
  671000   0.61967446   -2.0743211   -2.0743211   -1.3040161   0.05010602   -2.0743211   0.77030505   426349 
  672000     0.619863   -2.0739423   -2.0739423   -1.3034029  0.046412106   -2.0739423   0.77053943   426349 
  673000   0.62028489   -2.0745604   -2.0745604   -1.3034966  0.043491001   -2.0745604   0.77106387   426349 
  674000   0.61927239    -2.073565    -2.073565   -1.3037598  0.040121412    -2.073565   0.76980524   426349 
  675000   0.62026245   -2.0749723   -2.0749723   -1.3039364  0.044126037   -2.0749723   0.77103597   426349 
  676000   0.61891798   -2.0740304   -2.0740304   -1.3046657  0.050555164   -2.0740304   0.76936469   426349 
  677000   0.62061073   -2.0757643   -2.0757643   -1.3042954  0.047948322   -2.0757643   0.77146892   426349 
  678000    0.6211212   -2.0766768   -2.0766768   -1.3045733  0.050227018   -2.0766768   0.77210346   426349 
  679000    0.6202562   -2.0755951   -2.0755951   -1.3045669  0.045626985   -2.0755951   0.77102819   426349 
  680000   0.61975479   -2.0754037   -2.0754037   -1.3049988  0.041536165   -2.0754037   0.77040491   426349 
  681000   0.62074295   -2.0757915   -2.0757915   -1.3041583  0.050882921   -2.0757915   0.77163328   426349 
  682000    0.6212201   -2.0767281   -2.0767281   -1.3045017  0.049901295   -2.0767281   0.77222641   426349 
  683000   0.62074594   -2.0757596   -2.0757596   -1.3041226  0.048315621   -2.0757596   0.77163698   426349 
  684000   0.62155964   -2.0766547   -2.0766547   -1.3040063  0.048387384   -2.0766547   0.77264848   426349 
  685000   0.62066282   -2.0765466   -2.0765466    -1.305013  0.045090229   -2.0765466   0.77153366   426349 
  686000   0.62136635   -2.0776442   -2.0776442    -1.305236  0.048945429   -2.0776442    0.7724082   426349 
  687000   0.62128714   -2.0783576   -2.0783576   -1.3060479  0.036031114   -2.0783576   0.77230974   426349 
  688000   0.62035049   -2.0773139   -2.0773139   -1.3061685     0.038188   -2.0773139   0.77114541   426349 
  689000   0.62063095   -2.0776092   -2.0776092   -1.3061152    0.0444521   -2.0776092   0.77149405   426349 
  690000   0.62125291   -2.0780702   -2.0780702    -1.305803  0.041798562   -2.0780702   0.77226719   426349 
  691000    0.6210869   -2.0776423   -2.0776423   -1.3055814  0.044952093   -2.0776423   0.77206083   426349 
  692000   0.62094915     -2.07671     -2.07671   -1.3048204  0.037229603     -2.07671   0.77188959   426349 
  693000   0.62167288   -2.0779855   -2.0779855   -1.3051963   0.04056948   -2.0779855   0.77278925   426349 
  694000   0.62071613   -2.0764451   -2.0764451   -1.3048452  0.046672149   -2.0764451   0.77159993   426349 
  695000   0.62065049    -2.076158    -2.076158   -1.3046397  0.045594334    -2.076158   0.77151834   426349 
  696000   0.62099762   -2.0768835   -2.0768835   -1.3049337  0.043208665   -2.0768835   0.77194984   426349 
  697000   0.61974643   -2.0760142   -2.0760142   -1.3056197  0.047935148   -2.0760142   0.77039452   426349 
  698000   0.61974044   -2.0764144   -2.0764144   -1.3060273  0.039602298   -2.0764144   0.77038708   426349 
  699000   0.62000072   -2.0773435   -2.0773435   -1.3066329  0.048443387   -2.0773435   0.77071062   426349 
  700000   0.61999199   -2.0777285   -2.0777285   -1.3070288  0.053321353   -2.0777285   0.77069977   426349 
  701000   0.62041937    -2.077221    -2.077221     -1.30599  0.037216949    -2.077221   0.77123103   426349 
  702000   0.62044106   -2.0771712   -2.0771712   -1.3059132  0.046291704   -2.0771712   0.77125799   426349 
  703000   0.62028672    -2.076687    -2.076687   -1.3056209  0.049890659    -2.076687   0.77106614   426349 
  704000   0.62034362   -2.0771169   -2.0771169     -1.30598   0.03894956   -2.0771169   0.77113687   426349 
  705000   0.61886874   -2.0758408   -2.0758408   -1.3065373  0.044319102   -2.0758408   0.76930348   426349 
  706000   0.61990584   -2.0763433   -2.0763433   -1.3057506  0.048472836   -2.0763433   0.77059267   426349 
  707000   0.61960155   -2.0770418   -2.0770418   -1.3068274  0.046767603   -2.0770418   0.77021442   426349 
  708000   0.61979211   -2.0772338   -2.0772338   -1.3067825  0.041788743   -2.0772338    0.7704513   426349 
  709000   0.61855648   -2.0753452   -2.0753452   -1.3064299  0.045204472   -2.0753452   0.76891531   426349 
  710000   0.61997288   -2.0779633   -2.0779633   -1.3072873  0.036267996   -2.0779633   0.77067601   426349 
  711000   0.61917621   -2.0771388   -2.0771388   -1.3074531  0.039791714   -2.0771388   0.76968569   426349 
  712000   0.61913406   -2.0772519   -2.0772519   -1.3076186   0.04020405   -2.0772519   0.76963329   426349 
  713000    0.6207458   -2.0792459   -2.0792459   -1.3076091  0.039614713   -2.0792459   0.77163681   426349 
  714000   0.61932915   -2.0783772   -2.0783772   -1.3085014  0.039629514   -2.0783772    0.7698758   426349 
  715000   0.61971114   -2.0796794   -2.0796794   -1.3093287  0.042066286   -2.0796794   0.77035064   426349 
  716000   0.61825653   -2.0775461   -2.0775461   -1.3090036  0.041203386   -2.0775461   0.76854246   426349 
  717000   0.61890139   -2.0784342   -2.0784342   -1.3090902  0.036154816   -2.0784342   0.76934406   426349 
  718000   0.61993693   -2.0794799   -2.0794799   -1.3088486  0.046625676   -2.0794799   0.77063132   426349 
  719000   0.61904894   -2.0780597   -2.0780597   -1.3085322  0.047356579   -2.0780597   0.76952748   426349 
  720000   0.61930923   -2.0780725   -2.0780725   -1.3082215  0.043188078   -2.0780725   0.76985104   426349 
  721000   0.61909091   -2.0779317   -2.0779317    -1.308352  0.047405273   -2.0779317   0.76957966   426349 
  722000   0.61927238   -2.0780531   -2.0780531   -1.3082479  0.050587698   -2.0780531   0.76980523   426349 
  723000   0.62080499   -2.0791392   -2.0791392   -1.3074288  0.045143586   -2.0791392   0.77171039   426349 
  724000   0.62023372   -2.0784913   -2.0784913    -1.307491  0.053725623   -2.0784913   0.77100026   426349 
  725000   0.62006179   -2.0786264   -2.0786264   -1.3078399   0.04616566   -2.0786264   0.77078653   426349 
  726000   0.62038587   -2.0797013   -2.0797013   -1.3085119  0.046785446   -2.0797013   0.77118939   426349 
  727000   0.62139815   -2.0802675   -2.0802675   -1.3078198  0.041560837   -2.0802675   0.77244774   426349 
  728000   0.62033669   -2.0795871   -2.0795871   -1.3084588  0.047901418   -2.0795871   0.77112826   426349 
  729000   0.62017934   -2.0794941   -2.0794941   -1.3085614  0.047062007   -2.0794941   0.77093266   426349 
  730000   0.62030101   -2.0790134   -2.0790134   -1.3079295  0.037119522   -2.0790134   0.77108391   426349 
  731000   0.61969473   -2.0781786   -2.0781786   -1.3078483  0.046119953   -2.0781786   0.77033025   426349 
  732000   0.62072545   -2.0793773   -2.0793773   -1.3077657  0.036328022   -2.0793773   0.77161151   426349 
  733000   0.61990939   -2.0785467   -2.0785467   -1.3079496   0.04408872   -2.0785467   0.77059709   426349 
  734000    0.6193749    -2.078405    -2.078405   -1.3084723  0.045527052    -2.078405   0.76993267   426349 
  735000   0.62039696   -2.0803309   -2.0803309   -1.3091277  0.047888357   -2.0803309   0.77120318   426349 
  736000   0.61915134    -2.079852    -2.079852   -1.3101972  0.047809613    -2.079852   0.76965477   426349 
  737000    0.6191222   -2.0789274   -2.0789274   -1.3093089  0.049635973   -2.0789274   0.76961855   426349 
  738000   0.61819829   -2.0788514   -2.0788514   -1.3103814  0.045386332   -2.0788514   0.76847005   426349 
  739000   0.61992693   -2.0812806   -2.0812806   -1.3106617  0.047613866   -2.0812806   0.77061889   426349 
  740000   0.61927302    -2.080985    -2.080985    -1.311179  0.038625455    -2.080985   0.76980603   426349 
  741000    0.6199152   -2.0816498   -2.0816498   -1.3110454  0.049967194   -2.0816498   0.77060431   426349 
  742000   0.61828118   -2.0798282   -2.0798282   -1.3112551  0.041873445   -2.0798282    0.7685731   426349 
  743000   0.61906632   -2.0808661   -2.0808661    -1.311317  0.044193647   -2.0808661   0.76954908   426349 
  744000   0.61813738   -2.0805283   -2.0805283    -1.312134  0.052787673   -2.0805283   0.76839434   426349 
  745000    0.6197246   -2.0816688   -2.0816688   -1.3113014  0.047268357   -2.0816688   0.77036738   426349 
  746000   0.61986513   -2.0816439   -2.0816439   -1.3111018  0.044854477   -2.0816439   0.77054207   426349 
  747000   0.61890426   -2.0814631   -2.0814631   -1.3121155  0.049925993   -2.0814631   0.76934763   426349 
  748000   0.61878696   -2.0812804   -2.0812804   -1.3120786  0.047818039   -2.0812804   0.76920182   426349 
  749000   0.61957433   -2.0829093   -2.0829093   -1.3127287  0.051767783   -2.0829093   0.77018058   426349 
  750000   0.61816425   -2.0816013   -2.0816013   -1.3131736  0.046591873   -2.0816013   0.76842774   426349 
  751000   0.61893487   -2.0827137   -2.0827137    -1.313328  0.043735323   -2.0827137   0.76938568   426349 
  752000   0.61955607   -2.0839827   -2.0839827   -1.3138248  0.052407401   -2.0839827   0.77015788   426349 
  753000   0.61898798   -2.0827895   -2.0827895   -1.3133378  0.049286986   -2.0827895    0.7694517   426349 
  754000   0.61998778   -2.0830768   -2.0830768   -1.3123822  0.044555548   -2.0830768   0.77069454   426349 
  755000   0.61980863   -2.0841139   -2.0841139   -1.3136421  0.043072564   -2.0841139   0.77047183   426349 
  756000   0.61929744   -2.0832152   -2.0832152   -1.3133788  0.043763415   -2.0832152   0.76983638   426349 
  757000   0.61874773   -2.0826741   -2.0826741    -1.313521  0.041072881   -2.0826741   0.76915305   426349 
  758000   0.61902494   -2.0830717   -2.0830717    -1.313574  0.047452082   -2.0830717   0.76949765   426349 
  759000   0.61764354   -2.0810123   -2.0810123   -1.3132319  0.041244944   -2.0810123   0.76778046   426349 
  760000   0.61920537   -2.0836237   -2.0836237   -1.3139017  0.040795423   -2.0836237   0.76972193   426349 
  761000   0.61841452   -2.0826351   -2.0826351   -1.3138963  0.045147634   -2.0826351   0.76873885   426349 
  762000   0.61875877   -2.0830094   -2.0830094   -1.3138426  0.048961008   -2.0830094   0.76916677   426349 
  763000   0.61790184   -2.0826474   -2.0826474   -1.3145459  0.045041333   -2.0826474   0.76810154   426349 
  764000   0.61733303   -2.0823172   -2.0823172   -1.3149227  0.043217745   -2.0823172   0.76739446   426349 
  765000   0.61774103   -2.0826454   -2.0826454   -1.3147437  0.048268095   -2.0826454   0.76790164   426349 
  766000    0.6182109   -2.0834394   -2.0834394   -1.3149537  0.042487697   -2.0834394   0.76848573   426349 
  767000   0.61810159    -2.083141    -2.083141   -1.3147911  0.043920052    -2.083141   0.76834985   426349 
  768000   0.61963972     -2.08494     -2.08494   -1.3146782  0.043867525     -2.08494   0.77026187   426349 
  769000   0.61968779   -2.0845043   -2.0845043   -1.3141827  0.042721496   -2.0845043   0.77032163   426349 
  770000   0.61846333   -2.0829038   -2.0829038   -1.3141043   0.04136456   -2.0829038   0.76879952   426349 
  771000   0.61998716   -2.0849441   -2.0849441   -1.3142503   0.04835099   -2.0849441   0.77069376   426349 
  772000   0.61917129   -2.0848741   -2.0848741   -1.3151946  0.042889533   -2.0848741   0.76967957   426349 
  773000   0.61845348    -2.083626    -2.083626   -1.3148387  0.044076458    -2.083626   0.76878728   426349 
  774000    0.6193534   -2.0841303   -2.0841303   -1.3142243  0.048256922   -2.0841303   0.76990594   426349 
  775000   0.61805699   -2.0836505   -2.0836505   -1.3153561  0.045995128   -2.0836505   0.76829441   426349 
  776000   0.61791266   -2.0844014   -2.0844014   -1.3162864  0.043654921   -2.0844014     0.768115   426349 
  777000   0.61798421   -2.0848957   -2.0848957   -1.3166918  0.043557085   -2.0848957   0.76820394   426349 
  778000   0.61948283   -2.0866576   -2.0866576   -1.3165908  0.043076577   -2.0866576   0.77006684   426349 
  779000   0.61850629   -2.0851923   -2.0851923   -1.3163394  0.051522541   -2.0851923   0.76885292   426349 
  780000   0.61894793   -2.0863163   -2.0863163   -1.3169143  0.041537622   -2.0863163   0.76940192   426349 
  781000   0.61871083   -2.0860236   -2.0860236   -1.3169165  0.040605327   -2.0860236   0.76910718   426349 
  782000    0.6180003   -2.0847688   -2.0847688   -1.3165449  0.044367282   -2.0847688   0.76822393   426349 
  783000   0.61854486    -2.085527    -2.085527   -1.3166262  0.045464371    -2.085527   0.76890086   426349 
  784000   0.61917275   -2.0856178   -2.0856178   -1.3159364  0.046424907   -2.0856178   0.76968139   426349 
  785000   0.61905492   -2.0852643   -2.0852643   -1.3157294  0.049903785   -2.0852643   0.76953492   426349 
  786000   0.61846691   -2.0839346   -2.0839346   -1.3151307  0.049497917   -2.0839346   0.76880397   426349 
  787000   0.61919244   -2.0850701   -2.0850701   -1.3153642  0.046389809   -2.0850701   0.76970586   426349 
  788000   0.61886371   -2.0847124   -2.0847124   -1.3154152  0.044487386   -2.0847124   0.76929722   426349 
  789000   0.61973599   -2.0854838   -2.0854838   -1.3151023  0.049915169   -2.0854838   0.77038154   426349 
  790000   0.61889536   -2.0849412   -2.0849412   -1.3156046  0.045983805   -2.0849412   0.76933657   426349 
  791000   0.61926626   -2.0858852   -2.0858852   -1.3160875  0.047683503   -2.0858852   0.76979762   426349 
  792000   0.61810359   -2.0847918   -2.0847918   -1.3164394  0.042600664   -2.0847918   0.76835234   426349 
  793000   0.61861459   -2.0854452   -2.0854452   -1.3164577  0.042999226   -2.0854452   0.76898755   426349 
  794000    0.6181842   -2.0845535   -2.0845535   -1.3161009  0.049529925   -2.0845535   0.76845254   426349 
  795000   0.61817081   -2.0847274   -2.0847274   -1.3162915  0.032016023   -2.0847274   0.76843589   426349 
  796000   0.61813748   -2.0845387   -2.0845387   -1.3161442  0.047536606   -2.0845387   0.76839446   426349 
  797000   0.61818484    -2.084618    -2.084618   -1.3161647  0.045809396    -2.084618   0.76845333   426349 
  798000   0.61757435   -2.0841992   -2.0841992   -1.3165047  0.046127452   -2.0841992   0.76769444   426349 
  799000    0.6174136    -2.084372    -2.084372   -1.3168773  0.036872197    -2.084372   0.76749462   426349 
  800000    0.6168609   -2.0836452   -2.0836452   -1.3168376  0.039648738   -2.0836452   0.76680758   426349 
  801000   0.61804623   -2.0846832   -2.0846832   -1.3164022  0.041248278   -2.0846832   0.76828103   426349 
  802000    0.6177469   -2.0844734   -2.0844734   -1.3165644  0.043580735   -2.0844734   0.76790893   426349 
  803000   0.61657763   -2.0829928   -2.0829928   -1.3165373  0.043130179   -2.0829928   0.76645544   426349 
  804000   0.61813688   -2.0853415   -2.0853415   -1.3169478  0.041281066   -2.0853415   0.76839372   426349 
  805000   0.61896756   -2.0858303   -2.0858303    -1.316404   0.04564065   -2.0858303   0.76942632   426349 
  806000   0.61844844   -2.0856729   -2.0856729   -1.3168918  0.039746389   -2.0856729   0.76878101   426349 
  807000   0.61778511   -2.0851181   -2.0851181   -1.3171617  0.049883441   -2.0851181   0.76795644   426349 
  808000   0.61950453   -2.0872425   -2.0872425   -1.3171487  0.047057415   -2.0872425   0.77009381   426349 
  809000   0.61802216   -2.0856567   -2.0856567   -1.3174056  0.042219309   -2.0856567   0.76825111   426349 
  810000   0.61846287   -2.0867566   -2.0867566   -1.3179576  0.043658538   -2.0867566   0.76879894   426349 
  811000   0.61746748    -2.086186    -2.086186   -1.3186244  0.043979999    -2.086186    0.7675616   426349 
  812000   0.61938697   -2.0878441   -2.0878441   -1.3178964  0.045943474   -2.0878441   0.76994768   426349 
  813000   0.61781196   -2.0869619   -2.0869619   -1.3189721  0.043705131   -2.0869619   0.76798981   426349 
  814000   0.61822287   -2.0873393   -2.0873393   -1.3188387   0.04107562   -2.0873393   0.76850061   426349 
  815000   0.61919373   -2.0886056   -2.0886056   -1.3188982  0.043021112   -2.0886056   0.76970747   426349 
  816000   0.61856056   -2.0882418   -2.0882418   -1.3193214    0.0517397   -2.0882418   0.76892039   426349 
  817000   0.61985712   -2.0899863   -2.0899863   -1.3194542   0.04516861   -2.0899863   0.77053211   426349 
  818000   0.61801898   -2.0880559   -2.0880559   -1.3198088  0.044306295   -2.0880559   0.76824716   426349 
  819000   0.61879523   -2.0889639   -2.0889639   -1.3197518  0.047950946   -2.0889639    0.7692121   426349 
  820000   0.61839511   -2.0880558   -2.0880558    -1.319341  0.050724628   -2.0880558   0.76871471   426349 
  821000   0.61887909   -2.0895919   -2.0895919   -1.3202755  0.040144648   -2.0895919   0.76931634   426349 
  822000   0.61794081   -2.0887296   -2.0887296   -1.3205796  0.045657853   -2.0887296   0.76814998   426349 
  823000   0.61779319    -2.088341    -2.088341   -1.3203745  0.043519497    -2.088341   0.76796649   426349 
  824000   0.61716683   -2.0874599   -2.0874599   -1.3202721  0.045571659   -2.0874599   0.76718786   426349 
  825000   0.61750889   -2.0886284   -2.0886284   -1.3210153  0.045899526   -2.0886284   0.76761307   426349 
  826000   0.61871521   -2.0897288   -2.0897288   -1.3206162  0.040945864   -2.0897288   0.76911263   426349 
  827000   0.61739785   -2.0889156   -2.0889156   -1.3214405  0.037355533   -2.0889156   0.76747504   426349 
  828000   0.61783733     -2.08923     -2.08923   -1.3212087  0.044974588     -2.08923   0.76802135   426349 
  829000   0.61676707   -2.0881419   -2.0881419    -1.321451  0.041441604   -2.0881419   0.76669093   426349 
  830000   0.61738752   -2.0893128   -2.0893128   -1.3218506  0.038072287   -2.0893128    0.7674622   426349 
  831000   0.61748945   -2.0884981   -2.0884981   -1.3209091   0.04171907   -2.0884981   0.76758891   426349 
  832000   0.61710758   -2.0885148   -2.0885148   -1.3214006  0.038656072   -2.0885148   0.76711421   426349 
  833000   0.61708382   -2.0882645   -2.0882645   -1.3211798  0.041897179   -2.0882645   0.76708468   426349 
  834000     0.617808   -2.0887638   -2.0887638   -1.3207789   0.04497638   -2.0887638    0.7679849   426349 
  835000   0.61917986   -2.0899315   -2.0899315   -1.3202413  0.042167104   -2.0899315   0.76969023   426349 
  836000   0.61801829   -2.0883725   -2.0883725   -1.3201262  0.047484669   -2.0883725    0.7682463   426349 
  837000    0.6190344   -2.0903599   -2.0903599   -1.3208505  0.043180346   -2.0903599    0.7695094   426349 
  838000   0.61840405   -2.0884585   -2.0884585   -1.3197326  0.043606758   -2.0884585   0.76872583   426349 
  839000   0.61772349   -2.0888561   -2.0888561   -1.3209762   0.04479362   -2.0888561   0.76787984   426349 
  840000   0.61812876    -2.088638    -2.088638   -1.3202544  0.045113161    -2.088638   0.76838363   426349 
  841000   0.61753208   -2.0885597   -2.0885597   -1.3209178   0.04287965   -2.0885597    0.7676419   426349 
  842000   0.61708343   -2.0878928   -2.0878928   -1.3208086  0.047078535   -2.0878928    0.7670842   426349 
  843000   0.61708871   -2.0888531   -2.0888531   -1.3217624  0.045934644   -2.0888531   0.76709076   426349 
  844000   0.61750972   -2.0892621   -2.0892621    -1.321648  0.037775378   -2.0892621   0.76761411   426349 
  845000    0.6163104   -2.0881047   -2.0881047   -1.3219815  0.047040054   -2.0881047   0.76612326   426349 
  846000   0.61725366   -2.0886385   -2.0886385   -1.3213427   0.03592681   -2.0886385   0.76729581   426349 
  847000   0.61760092   -2.0890293   -2.0890293   -1.3213018  0.041348013   -2.0890293   0.76772748   426349 
  848000   0.61730136    -2.088113    -2.088113   -1.3207579  0.042362233    -2.088113    0.7673551   426349 
  849000   0.61511301   -2.0859061   -2.0859061   -1.3212713  0.040987235   -2.0859061   0.76463481   426349 
  850000   0.61675161   -2.0875126   -2.0875126   -1.3208409  0.047538232   -2.0875126   0.76667171   426349 
  851000    0.6171394   -2.0881518   -2.0881518    -1.320998  0.048389733   -2.0881518   0.76715377   426349 
  852000   0.61668773   -2.0883184   -2.0883184   -1.3217261   0.03940104   -2.0883184   0.76659231   426349 
  853000   0.61779094   -2.0891759   -2.0891759   -1.3212122  0.044429182   -2.0891759   0.76796368   426349 
  854000   0.61888342    -2.091282    -2.091282   -1.3219603  0.050752844    -2.091282   0.76932172   426349 
  855000   0.61710193   -2.0889423   -2.0889423   -1.3218351  0.045140508   -2.0889423   0.76710719   426349 
  856000   0.61735182   -2.0888237   -2.0888237   -1.3214059  0.045069195   -2.0888237   0.76741783   426349 
  857000   0.61667156   -2.0887409   -2.0887409   -1.3221687  0.043036967   -2.0887409   0.76657221   426349 
  858000   0.61804932   -2.0894232   -2.0894232   -1.3211384  0.041812629   -2.0894232   0.76828487   426349 
  859000   0.61701388   -2.0882492   -2.0882492   -1.3212515  0.040908287   -2.0882492   0.76699774   426349 
  860000   0.61856436   -2.0903302   -2.0903302   -1.3214051  0.037585157   -2.0903302   0.76892511   426349 
  861000   0.61615408   -2.0877579   -2.0877579    -1.321829  0.048845714   -2.0877579   0.76592893   426349 
  862000   0.61716518   -2.0893926   -2.0893926   -1.3222068   0.04224934   -2.0893926   0.76718581   426349 
  863000   0.61759192   -2.0902997   -2.0902997   -1.3225834  0.043285328   -2.0902997   0.76771629   426349 
  864000   0.61729121   -2.0898726   -2.0898726   -1.3225302  0.041915068   -2.0898726   0.76734248   426349 
  865000   0.61842282   -2.0910807   -2.0910807   -1.3223316  0.047867448   -2.0910807   0.76874916   426349 
  866000   0.61855051   -2.0913813   -2.0913813   -1.3224734  0.049500359   -2.0913813   0.76890789   426349 
  867000   0.61813386   -2.0912768   -2.0912768   -1.3228869   0.04007992   -2.0912768   0.76838996   426349 
  868000   0.61839823   -2.0910807   -2.0910807   -1.3223621  0.041559026   -2.0910807   0.76871859   426349 
  869000   0.61832938   -2.0915411   -2.0915411   -1.3229081  0.047062629   -2.0915411   0.76863301   426349 
  870000   0.61883985   -2.0925966   -2.0925966   -1.3233291  0.038228371   -2.0925966   0.76926756   426349 
  871000   0.61806628   -2.0912663   -2.0912663   -1.3229604  0.047527596   -2.0912663   0.76830596   426349 
  872000   0.61748139   -2.0902393   -2.0902393   -1.3226604  0.049824354   -2.0902393   0.76757889   426349 
  873000   0.61826673   -2.0907875   -2.0907875   -1.3222323  0.041866134   -2.0907875   0.76855513   426349 
  874000   0.61767469   -2.0912207   -2.0912207   -1.3234016   0.04314568   -2.0912207   0.76781918   426349 
  875000   0.61640844   -2.0896732   -2.0896732    -1.323428  0.035139435   -2.0896732   0.76624512   426349 
  876000   0.61755598   -2.0909754   -2.0909754   -1.3233038  0.041119285   -2.0909754   0.76767161   426349 
  877000    0.6171548   -2.0909019   -2.0909019    -1.323729  0.046636246   -2.0909019   0.76717292   426349 
  878000   0.61697222    -2.091129    -2.091129   -1.3241831  0.046112484    -2.091129   0.76694595   426349 
  879000   0.61629932   -2.0904294   -2.0904294   -1.3243199  0.050508173   -2.0904294   0.76610948   426349 
  880000   0.61659894   -2.0908107   -2.0908107   -1.3243287  0.041135412   -2.0908107   0.76648193   426349 
  881000   0.61695004    -2.090732    -2.090732   -1.3238137  0.037844033    -2.090732   0.76691838   426349 
  882000   0.61799266   -2.0907711   -2.0907711   -1.3225567  0.048139246   -2.0907711   0.76821444   426349 
  883000   0.61609311   -2.0891846   -2.0891846   -1.3233315  0.040552115   -2.0891846   0.76585314   426349 
  884000   0.61667153   -2.0888735   -2.0888735   -1.3223014  0.046203055   -2.0888735   0.76657216   426349 
  885000   0.61594544   -2.0888117   -2.0888117   -1.3231421  0.047055211   -2.0888117   0.76566958   426349 
  886000   0.61743987   -2.0903881   -2.0903881   -1.3228608     0.039961   -2.0903881   0.76752728   426349 
  887000   0.61766808   -2.0903819   -2.0903819    -1.322571  0.043207557   -2.0903819   0.76781096   426349 
  888000   0.61800641   -2.0905991   -2.0905991   -1.3223676  0.045760085   -2.0905991   0.76823153   426349 
  889000   0.61788014   -2.0908526   -2.0908526   -1.3227781  0.044038604   -2.0908526   0.76807457   426349 
  890000   0.61752215   -2.0906732   -2.0906732   -1.3230436   0.04745122   -2.0906732   0.76762956   426349 
  891000   0.61743936   -2.0913077   -2.0913077   -1.3237811   0.04542736   -2.0913077   0.76752664   426349 
  892000   0.61752514   -2.0910244   -2.0910244   -1.3233911  0.049848548   -2.0910244   0.76763328   426349 
  893000   0.61710097   -2.0906912   -2.0906912   -1.3235852  0.042133857   -2.0906912     0.767106   426349 
  894000   0.61639603   -2.0905821   -2.0905821   -1.3243524  0.042718056   -2.0905821    0.7662297   426349 
  895000   0.61800215    -2.092497    -2.092497   -1.3242707  0.042138825    -2.092497   0.76822624   426349 
  896000   0.61822543   -2.0920568   -2.0920568    -1.323553    0.0435715   -2.0920568   0.76850379   426349 
  897000   0.61789378   -2.0912271   -2.0912271   -1.3231355  0.041300692   -2.0912271   0.76809153   426349 
  898000   0.61729766   -2.0906126   -2.0906126   -1.3232621  0.050383471   -2.0906126   0.76735049   426349 
  899000   0.61783819   -2.0920147   -2.0920147   -1.3239923  0.044812397   -2.0920147   0.76802242   426349 
  900000   0.61704941    -2.091432    -2.091432   -1.3243901  0.044047525    -2.091432   0.76704191   426349 
  901000   0.61745816   -2.0920885   -2.0920885   -1.3245385  0.044666085   -2.0920885   0.76755002   426349 
  902000   0.61695115   -2.0916757   -2.0916757    -1.324756  0.045370609   -2.0916757   0.76691975   426349 
  903000   0.61610563   -2.0918491   -2.0918491   -1.3259804  0.045085587   -2.0918491   0.76586871   426349 
  904000   0.61659058   -2.0921872   -2.0921872   -1.3257156  0.039789248   -2.0921872   0.76647154   426349 
  905000   0.61529315   -2.0911648   -2.0911648   -1.3263061  0.043225912   -2.0911648   0.76485874   426349 
  906000   0.61687726    -2.093314    -2.093314   -1.3264861  0.046708578    -2.093314   0.76682791   426349 
  907000    0.6160029   -2.0921825   -2.0921825   -1.3264414  0.042752011   -2.0921825   0.76574101   426349 
  908000    0.6162459   -2.0929496   -2.0929496   -1.3269065   0.03960205   -2.0929496   0.76604308   426349 
  909000   0.61508249   -2.0919661   -2.0919661   -1.3273692   0.04429177   -2.0919661   0.76459686   426349 
  910000    0.6167616   -2.0939748   -2.0939748   -1.3272907  0.046930882   -2.0939748   0.76668413   426349 
  911000   0.61565839   -2.0935656   -2.0935656   -1.3282529  0.041968469   -2.0935656   0.76531275   426349 
  912000   0.61656816    -2.093942    -2.093942   -1.3274983  0.042168978    -2.093942   0.76644368   426349 
  913000   0.61762034   -2.0951122   -2.0951122   -1.3273606   0.03935714   -2.0951122   0.76775161   426349 
  914000   0.61592397   -2.0932394   -2.0932394   -1.3275965  0.051511208   -2.0932394   0.76564289   426349 
  915000    0.6167357   -2.0941025   -2.0941025   -1.3274506  0.048672036   -2.0941025   0.76665194   426349 
  916000   0.61651873   -2.0941525   -2.0941525   -1.3277703  0.047661508   -2.0941525   0.76638223   426349 
  917000   0.61602325   -2.0940839   -2.0940839   -1.3283176  0.044250455   -2.0940839    0.7657663   426349 
  918000   0.61625991   -2.0944739   -2.0944739   -1.3284135  0.045747888   -2.0944739   0.76606049   426349 
  919000   0.61558489   -2.0935529   -2.0935529   -1.3283316  0.041173082   -2.0935529   0.76522139   426349 
  920000   0.61608342   -2.0942651   -2.0942651    -1.328424   0.03602254   -2.0942651   0.76584111   426349 
  921000     0.616152   -2.0940591   -2.0940591   -1.3281327  0.045564046   -2.0940591   0.76592635   426349 
  922000    0.6160616    -2.093281    -2.093281    -1.327467  0.041377799    -2.093281   0.76581398   426349 
  923000    0.6166108   -2.0936641   -2.0936641   -1.3271675  0.038953146   -2.0936641   0.76649668   426349 
  924000   0.61629586   -2.0937096   -2.0937096   -1.3276045  0.045282723   -2.0937096   0.76610518   426349 
  925000   0.61568678   -2.0937004   -2.0937004   -1.3283524  0.034926091   -2.0937004   0.76534805   426349 
  926000   0.61588357   -2.0944993   -2.0944993   -1.3289066   0.03489862   -2.0944993   0.76559267   426349 
  927000   0.61517754   -2.0934749   -2.0934749   -1.3287599  0.045523602   -2.0934749   0.76471501   426349 
  928000   0.61497208   -2.0935393   -2.0935393   -1.3290796   0.05164292   -2.0935393   0.76445962   426349 
  929000    0.6157175   -2.0935564   -2.0935564   -1.3281701  0.042022739   -2.0935564   0.76538624   426349 
  930000   0.61475931   -2.0932952   -2.0932952      -1.3291  0.046099201   -2.0932952   0.76419513   426349 
  931000   0.61646361   -2.0949228   -2.0949228   -1.3286091  0.039069843   -2.0949228   0.76631371   426349 
  932000    0.6166265   -2.0947852   -2.0947852    -1.328269  0.040957904   -2.0947852   0.76651619   426349 
  933000   0.61505084   -2.0941218   -2.0941218   -1.3295643  0.043793843   -2.0941218   0.76455753   426349 
  934000   0.61619511   -2.0951901   -2.0951901   -1.3292101  0.043547401   -2.0951901   0.76597994   426349 
  935000    0.6173597   -2.0959772   -2.0959772   -1.3285496  0.047523489   -2.0959772   0.76742762   426349 
  936000   0.61645084     -2.09473     -2.09473   -1.3284322  0.041755509     -2.09473   0.76629783   426349 
  937000   0.61673759   -2.0950205   -2.0950205   -1.3283662  0.045250374   -2.0950205   0.76665429   426349 
  938000   0.61633003   -2.0952117   -2.0952117    -1.329064  0.043885161   -2.0952117   0.76614766   426349 
  939000   0.61648431   -2.0953871   -2.0953871   -1.3290476  0.050817154   -2.0953871   0.76633944   426349 
  940000   0.61607571   -2.0952996   -2.0952996   -1.3294681  0.044324607   -2.0952996   0.76583151   426349 
  941000   0.61525661    -2.094217    -2.094217   -1.3294037  0.044136985    -2.094217   0.76481332   426349 
  942000   0.61664716   -2.0955261   -2.0955261   -1.3289843  0.045888427   -2.0955261   0.76654188   426349 
  943000   0.61648476   -2.0958842   -2.0958842   -1.3295442  0.045010544   -2.0958842   0.76633999   426349 
  944000   0.61761372   -2.0978351   -2.0978351   -1.3300917  0.041953787   -2.0978351   0.76774338   426349 
  945000   0.61689537   -2.0971672   -2.0971672   -1.3303168  0.042128797   -2.0971672   0.76685042   426349 
  946000   0.61768765   -2.0973154   -2.0973154   -1.3294801  0.043642282   -2.0973154   0.76783529   426349 
  947000   0.61621571   -2.0954901   -2.0954901   -1.3294846  0.052361668   -2.0954901   0.76600555   426349 
  948000   0.61651503   -2.0958034   -2.0958034   -1.3294258  0.049738972   -2.0958034   0.76637763   426349 
  949000   0.61653642   -2.0968117   -2.0968117   -1.3304075  0.042587511   -2.0968117   0.76640421   426349 
  950000   0.61728972   -2.0982073   -2.0982073   -1.3308667  0.046245757   -2.0982073   0.76734062   426349 
  951000   0.61618345    -2.097235    -2.097235   -1.3312696  0.047024647    -2.097235   0.76596545   426349 
  952000   0.61672616   -2.0984655   -2.0984655   -1.3318254  0.040168788   -2.0984655   0.76664007   426349 
  953000   0.61679835    -2.098338    -2.098338   -1.3316081  0.045327803    -2.098338   0.76672982   426349 
  954000   0.61614083   -2.0972124   -2.0972124   -1.3312999  0.039281148   -2.0972124   0.76591247   426349 
  955000   0.61509188   -2.0966033   -2.0966033   -1.3319947  0.041781322   -2.0966033   0.76460854   426349 
  956000   0.61641131   -2.0984336   -2.0984336   -1.3321849  0.040578208   -2.0984336    0.7662487   426349 
  957000   0.61489353   -2.0964543   -2.0964543   -1.3320924  0.038995896   -2.0964543   0.76436197   426349 
  958000   0.61520855   -2.0977748   -2.0977748   -1.3330212  0.037288778   -2.0977748   0.76475356   426349 
  959000    0.6145422   -2.0971348   -2.0971348   -1.3332096  0.039335108   -2.0971348   0.76392524   426349 
  960000   0.61434288    -2.096644    -2.096644   -1.3329665  0.044123832    -2.096644   0.76367747   426349 
  961000   0.61389625   -2.0959789   -2.0959789   -1.3328566  0.045033616   -2.0959789   0.76312228   426349 
  962000   0.61654157   -2.0980439   -2.0980439   -1.3316333  0.044317906   -2.0980439   0.76641062   426349 
  963000   0.61661881   -2.0984769   -2.0984769   -1.3319703  0.049319603   -2.0984769   0.76650663   426349 
  964000   0.61663413   -2.0989985   -2.0989985   -1.3324728    0.0392064   -2.0989985   0.76652567   426349 
  965000   0.61605907   -2.0983758   -2.0983758    -1.332565  0.043078213   -2.0983758   0.76581083   426349 
  966000   0.61611785   -2.0980845   -2.0980845   -1.3322006   0.04439488   -2.0980845    0.7658839   426349 
  967000   0.61583573   -2.0975511   -2.0975511   -1.3320179  0.046638243   -2.0975511    0.7655332   426349 
  968000   0.61604926   -2.0979584   -2.0979584   -1.3321598  0.044763241   -2.0979584   0.76579864   426349 
  969000   0.61655724   -2.0990983   -2.0990983   -1.3326682  0.048026729   -2.0990983   0.76643009   426349 
  970000   0.61542682   -2.0974038   -2.0974038   -1.3323789  0.043604748   -2.0974038   0.76502489   426349 
  971000   0.61676915   -2.0983278   -2.0983278   -1.3316343  0.047537546   -2.0983278   0.76669352   426349 
  972000   0.61691158   -2.0985159   -2.0985159   -1.3316454  0.046304837   -2.0985159   0.76687057   426349 
  973000   0.61652594   -2.0978991   -2.0978991   -1.3315079  0.047786233   -2.0978991   0.76639119   426349 
  974000   0.61673676   -2.0978814   -2.0978814   -1.3312281  0.047093527   -2.0978814   0.76665325   426349 
  975000   0.61713577   -2.0982289   -2.0982289   -1.3310797  0.049044286   -2.0982289   0.76714925   426349 
  976000    0.6156595   -2.0967192   -2.0967192    -1.331405  0.045406709   -2.0967192   0.76531413   426349 
  977000   0.61596475   -2.0979366   -2.0979366    -1.332243  0.043776626   -2.0979366   0.76569359   426349 
  978000    0.6160882   -2.0987329   -2.0987329   -1.3328858   0.04703094   -2.0987329   0.76584704   426349 
  979000   0.61580083   -2.0977281   -2.0977281   -1.3322383  0.047369505   -2.0977281   0.76548982   426349 
  980000    0.6160534   -2.0985925   -2.0985925   -1.3327887  0.036872477   -2.0985925   0.76580378   426349 
  981000   0.61500901   -2.0977127   -2.0977127   -1.3332071  0.035471633   -2.0977127   0.76450552   426349 
  982000   0.61557968   -2.0989664   -2.0989664   -1.3337515  0.045198472   -2.0989664   0.76521491   426349 
  983000   0.61401834   -2.0966767   -2.0966767   -1.3334026  0.046194709   -2.0966767   0.76327404   426349 
  984000   0.61387996   -2.0968569   -2.0968569   -1.3337549  0.036752371   -2.0968569   0.76310202   426349 
  985000   0.61599235    -2.098336    -2.098336   -1.3326081  0.044729194    -2.098336   0.76572789   426349 
  986000   0.61427193   -2.0968779   -2.0968779   -1.3332886  0.040790607   -2.0968779   0.76358927   426349 
  987000   0.61641005   -2.0994985   -2.0994985   -1.3332514   0.04126938   -2.0994985   0.76624713   426349 
  988000    0.6162467   -2.0986691   -2.0986691   -1.3326251  0.043727371   -2.0986691   0.76604407   426349 
  989000   0.61590443    -2.098444    -2.098444   -1.3328254  0.047975878    -2.098444    0.7656186   426349 
  990000   0.61551515   -2.0986289   -2.0986289   -1.3334942  0.042011932   -2.0986289   0.76513469   426349 
  991000   0.61608146   -2.0997858   -2.0997858   -1.3339471  0.044913873   -2.0997858   0.76583866   426349 
  992000   0.61608094   -2.0996528   -2.0996528   -1.3338148  0.041482938   -2.0996528   0.76583801   426349 
  993000   0.61556152   -2.0982031   -2.0982031   -1.3330107  0.043444915   -2.0982031   0.76519233   426349 
  994000   0.61602625    -2.099517    -2.099517   -1.3337469  0.044907241    -2.099517   0.76577004   426349 
  995000   0.61462473   -2.0979924   -2.0979924   -1.3339646  0.041045497   -2.0979924   0.76402783   426349 
  996000   0.61513789   -2.0996778   -2.0996778   -1.3350121  0.044251705   -2.0996778   0.76466574   426349 
  997000   0.61578339   -2.1008685   -2.1008685   -1.3354004  0.043307445   -2.1008685   0.76546814   426349 
  998000   0.61411659   -2.0992064   -2.0992064   -1.3358102  0.042333159   -2.0992064   0.76339618   426349 
  999000   0.61547545   -2.1008297   -2.1008297   -1.3357444  0.045869794   -2.1008297   0.76508534   426349 
 1000000   0.61467415      -2.1003      -2.1003   -1.3362107  0.051213101      -2.1003   0.76408926   426349 
 1001000    0.6157114   -2.1009148   -2.1009148   -1.3355362  0.044473461   -2.1009148   0.76537865   426349 
 1002000   0.61533349   -2.1002893   -2.1002893   -1.3353805  0.044608204   -2.1002893   0.76490887   426349 
 1003000   0.61549793   -2.1007273   -2.1007273    -1.335614  0.045987058   -2.1007273   0.76511329   426349 
 1004000   0.61660271   -2.1020028   -2.1020028   -1.3355161   0.04402114   -2.1020028   0.76648662   426349 
 1005000   0.61569412   -2.1012815   -2.1012815   -1.3359244  0.048398578   -2.1012815   0.76535717   426349 
 1006000    0.6167851   -2.1024239   -2.1024239   -1.3357106  0.047890425   -2.1024239   0.76671334   426349 
 1007000   0.61652947   -2.1021464   -2.1021464   -1.3357508  0.048389877   -2.1021464   0.76639558   426349 
 1008000   0.61706149   -2.1032202   -2.1032202   -1.3361633  0.044536649   -2.1032202   0.76705691   426349 
 1009000   0.61653256    -2.102097    -2.102097   -1.3356976  0.037344981    -2.102097   0.76639942   426349 
 1010000   0.61651872   -2.1028394   -2.1028394   -1.3364572  0.040442484   -2.1028394   0.76638221   426349 
 1011000   0.61558737   -2.1014942   -2.1014942   -1.3362697  0.037251742   -2.1014942   0.76522447   426349 
 1012000   0.61612909    -2.102342    -2.102342   -1.3364442  0.047219569    -2.102342   0.76589788   426349 
 1013000   0.61489405   -2.1005834   -2.1005834   -1.3362208  0.035569846   -2.1005834   0.76436261   426349 
 1014000   0.61561143   -2.1010555   -2.1010555   -1.3358011  0.040062148   -2.1010555   0.76525438   426349 
 1015000   0.61535309   -2.1008654   -2.1008654   -1.3359322   0.04219763   -2.1008654   0.76493324   426349 
 1016000   0.61538366   -2.1004406   -2.1004406   -1.3354693  0.048101159   -2.1004406   0.76497124   426349 
 1017000   0.61442224   -2.1003307   -2.1003307   -1.3365546  0.039588898   -2.1003307   0.76377612   426349 
 1018000   0.61413385   -2.1006353   -2.1006353   -1.3372177  0.036894299   -2.1006353   0.76341763   426349 
 1019000   0.61390641   -2.1008724   -2.1008724   -1.3377375  0.041167743   -2.1008724   0.76313491   426349 
 1020000   0.61447509    -2.100422    -2.100422   -1.3365802   0.04755277    -2.100422   0.76384182   426349 
 1021000   0.61521433   -2.1005547   -2.1005547    -1.335794  0.037932103   -2.1005547   0.76476075   426349 
 1022000   0.61573409   -2.1008778   -2.1008778    -1.335471  0.038949339   -2.1008778   0.76540685   426349 
 1023000    0.6146543   -2.1006019   -2.1006019   -1.3365373  0.035904623   -2.1006019   0.76406459   426349 
 1024000   0.61454748    -2.100907    -2.100907   -1.3369752  0.040289774    -2.100907   0.76393181   426349 
 1025000    0.6143109   -2.1005061   -2.1005061   -1.3368684  0.037957417   -2.1005061   0.76363772   426349 
 1026000   0.61557648   -2.1014308   -2.1014308   -1.3362199  0.039558479   -2.1014308   0.76521093   426349 
 1027000   0.61501831    -2.099881    -2.099881   -1.3353639  0.043502153    -2.099881   0.76451708   426349 
 1028000   0.61523668   -2.1003615   -2.1003615    -1.335573  0.043971283   -2.1003615   0.76478854   426349 
 1029000   0.61562187   -2.1007578   -2.1007578   -1.3354904  0.037615943   -2.1007578   0.76526735   426349 
 1030000   0.61394162   -2.0985833   -2.0985833   -1.3354046  0.046075773   -2.0985833   0.76317867   426349 
 1031000   0.61469127   -2.1000318   -2.1000318   -1.3359212  0.045284406   -2.1000318   0.76411055   426349 
 1032000   0.61458501   -2.1007079   -2.1007079   -1.3367294  0.041710677   -2.1007079   0.76397845   426349 
 1033000   0.61481085   -2.1014277   -2.1014277   -1.3371685  0.044351184   -2.1014277   0.76425919   426349 
 1034000   0.61477984   -2.1019655   -2.1019655   -1.3377449   0.04346517   -2.1019655   0.76422065   426349 
 1035000   0.61486584   -2.1014411   -2.1014411   -1.3371135  0.046485968   -2.1014411   0.76432755   426349 
 1036000     0.614794   -2.1012354   -2.1012354   -1.3369971  0.043441867   -2.1012354   0.76423824   426349 
 1037000   0.61397544   -2.1007302   -2.1007302   -1.3375095  0.045629395   -2.1007302   0.76322072   426349 
 1038000   0.61479026   -2.1019489   -2.1019489   -1.3377153  0.043269775   -2.1019489    0.7642336   426349 
 1039000   0.61512265   -2.1024608   -2.1024608    -1.337814  0.041291725   -2.1024608   0.76464679   426349 
 1040000   0.61531481   -2.1035013   -2.1035013   -1.3386157  0.048939417   -2.1035013   0.76488566   426349 
 1041000   0.61543643   -2.1032894   -2.1032894   -1.3382525  0.041833239   -2.1032894   0.76503685   426349 
 1042000   0.61585092   -2.1035678   -2.1035678   -1.3380158  0.040037886   -2.1035678   0.76555208   426349 
 1043000    0.6166121   -2.1045534   -2.1045534   -1.3380551  0.045002548   -2.1045534   0.76649829   426349 
 1044000   0.61618719   -2.1045644   -2.1045644   -1.3385943  0.049077606   -2.1045644   0.76597009   426349 
 1045000   0.61514518     -2.10371     -2.10371   -1.3390352  0.043028219     -2.10371   0.76467479   426349 
 1046000   0.61478964   -2.1040482   -2.1040482   -1.3398154  0.039780627   -2.1040482   0.76423283   426349 
 1047000    0.6147632   -2.1039972   -2.1039972   -1.3397972  0.038287216   -2.1039972   0.76419996   426349 
 1048000   0.61440229   -2.1035438   -2.1035438   -1.3397924  0.038240781   -2.1035438   0.76375132   426349 
 1049000   0.61438199   -2.1038605   -2.1038605   -1.3401344  0.040232921   -2.1038605   0.76372608   426349 
 1050000   0.61435242   -2.1033997   -2.1033997   -1.3397104  0.042248886   -2.1033997   0.76368933   426349 
 1051000   0.61451468   -2.1048815   -2.1048815   -1.3409905  0.042421722   -2.1048815   0.76389103   426349 
 1052000   0.61517219   -2.1050945   -2.1050945   -1.3403862  0.043874283   -2.1050945   0.76470837   426349 
 1053000   0.61472241   -2.1049515   -2.1049515   -1.3408023  0.040742575   -2.1049515   0.76414926   426349 
 1054000   0.61390452   -2.1038322   -2.1038322   -1.3406996   0.03970177   -2.1038322   0.76313255   426349 
 1055000   0.61391358   -2.1034062   -2.1034062   -1.3402624  0.043497264   -2.1034062   0.76314381   426349 
 1056000   0.61425765   -2.1038877   -2.1038877   -1.3403161  0.044835359   -2.1038877   0.76357152   426349 
 1057000   0.61535213   -2.1056319   -2.1056319   -1.3406999   0.04305604   -2.1056319   0.76493204   426349 
 1058000   0.61673211   -2.1073552   -2.1073552   -1.3407077  0.042179455   -2.1073552   0.76664747   426349 
 1059000   0.61471523   -2.1048661   -2.1048661   -1.3407257  0.046197527   -2.1048661   0.76414033   426349 
 1060000   0.61482662   -2.1053361   -2.1053361   -1.3410574  0.043337288   -2.1053361   0.76427879   426349 
 1061000   0.61487424   -2.1051469   -2.1051469   -1.3408089  0.046293581   -2.1051469   0.76433799   426349 
 1062000   0.61598058   -2.1067263   -2.1067263    -1.341013   0.04871952   -2.1067263   0.76571326   426349 
 1063000   0.61491109   -2.1060416   -2.1060416   -1.3416578   0.04016224   -2.1060416    0.7643838   426349 
 1064000    0.6143769    -2.104895    -2.104895   -1.3411752  0.048494319    -2.104895   0.76371976   426349 
 1065000   0.61490034   -2.1048789   -2.1048789   -1.3405085  0.044635231   -2.1048789   0.76437044   426349 
 1066000   0.61396845   -2.1049237   -2.1049237   -1.3417117  0.038288337   -2.1049237   0.76321202   426349 
 1067000    0.6149638   -2.1055994   -2.1055994     -1.34115  0.042215157   -2.1055994   0.76444932   426349 
 1068000   0.61426251   -2.1054534   -2.1054534   -1.3418758  0.038908061   -2.1054534   0.76357756   426349 
 1069000    0.6142016   -2.1052115   -2.1052115   -1.3417097  0.048982773   -2.1052115   0.76350184   426349 
 1070000   0.61507975   -2.1049615   -2.1049615   -1.3403681  0.041363511   -2.1049615   0.76459345   426349 
 1071000   0.61495287   -2.1047123   -2.1047123   -1.3402766  0.047017497   -2.1047123   0.76443574   426349 
 1072000   0.61464231   -2.1037371   -2.1037371   -1.3396874  0.047206593   -2.1037371   0.76404968   426349 
 1073000   0.61512439   -2.1047661   -2.1047661   -1.3401171   0.04653326   -2.1047661   0.76464896   426349 
 1074000   0.61564101   -2.1049597   -2.1049597   -1.3396685  0.046792874   -2.1049597   0.76529115   426349 
 1075000   0.61581061   -2.1056135   -2.1056135   -1.3401115  0.051363314   -2.1056135   0.76550198   426349 
 1076000   0.61454714   -2.1042465   -2.1042465   -1.3403151  0.039964503   -2.1042465   0.76393138   426349 
 1077000   0.61424114   -2.1032037   -2.1032037   -1.3396527  0.038822256   -2.1032037     0.763551   426349 
 1078000    0.6145131   -2.1041674   -2.1041674   -1.3402784  0.041830021   -2.1041674   0.76388907   426349 
 1079000   0.61376325   -2.1035283   -2.1035283   -1.3405713  0.039630449   -2.1035283   0.76295695   426349 
 1080000   0.61364679    -2.103583    -2.103583   -1.3407708  0.040476674    -2.103583   0.76281217   426349 
 1081000   0.61391309   -2.1037712   -2.1037712    -1.340628  0.042194929   -2.1037712    0.7631432   426349 
 1082000   0.61389479   -2.1034654   -2.1034654   -1.3403449  0.030401793   -2.1034654   0.76312046   426349 
 1083000     0.614851   -2.1046044   -2.1046044   -1.3402953  0.044792245   -2.1046044    0.7643091   426349 
 1084000   0.61467754   -2.1049515   -2.1049515    -1.340858  0.042977796   -2.1049515   0.76409348   426349 
 1085000   0.61515121   -2.1054382   -2.1054382   -1.3407559  0.042325616   -2.1054382   0.76468229   426349 
 1086000   0.61495567   -2.1043802   -2.1043802    -1.339941  0.049483107   -2.1043802   0.76443922   426349 
 1087000   0.61414685   -2.1040199   -2.1040199   -1.3405861  0.043896657   -2.1040199    0.7634338   426349 
 1088000   0.61531455   -2.1058374   -2.1058374   -1.3409521  0.042633016   -2.1058374   0.76488533   426349 
 1089000   0.61501153   -2.1051716   -2.1051716   -1.3406629  0.050403024   -2.1051716   0.76450865   426349 
 1090000   0.61494434   -2.1046387   -2.1046387   -1.3402136  0.040791623   -2.1046387   0.76442514   426349 
 1091000   0.61542041   -2.1054557   -2.1054557   -1.3404388  0.043242898   -2.1054557   0.76501693   426349 
 1092000   0.61547145   -2.1055542   -2.1055542   -1.3404738  0.046528163   -2.1055542   0.76508037   426349 
 1093000   0.61460714   -2.1047398   -2.1047398   -1.3407338  0.045641322   -2.1047398   0.76400597   426349 
 1094000   0.61582628   -2.1060386   -2.1060386   -1.3405171  0.046954638   -2.1060386   0.76552145   426349 
 1095000   0.61496928   -2.1050377   -2.1050377   -1.3405816  0.044149085   -2.1050377   0.76445613   426349 
 1096000   0.61508382   -2.1050187   -2.1050187   -1.3404202  0.045546136   -2.1050187   0.76459852   426349 
 1097000    0.6154234   -2.1058386   -2.1058386    -1.340818  0.047367867   -2.1058386   0.76502064   426349 
 1098000   0.61439989   -2.1045448   -2.1045448   -1.3407965  0.039363305   -2.1045448   0.76374833   426349 
 1099000   0.61435545    -2.105242    -2.105242   -1.3415489   0.04181586    -2.105242    0.7636931   426349 
 1100000   0.61448071   -2.1055024   -2.1055024   -1.3416536  0.033136368   -2.1055024    0.7638488   426349 
 1101000   0.61404296   -2.1059432   -2.1059432   -1.3426385  0.040462892   -2.1059432   0.76330465   426349 
 1102000   0.61467805   -2.1069418   -2.1069418   -1.3428477  0.043265497   -2.1069418   0.76409412   426349 
 1103000   0.61573663   -2.1076381   -2.1076381   -1.3422281  0.043939591   -2.1076381   0.76541001   426349 
 1104000    0.6152389    -2.107436    -2.107436   -1.3426447  0.046803613    -2.107436   0.76479129   426349 
 1105000   0.61463355   -2.1063305   -2.1063305   -1.3422917  0.041340401   -2.1063305    0.7640388   426349 
 1106000   0.61594546   -2.1066622   -2.1066622   -1.3409926  0.045137323   -2.1066622    0.7656696   426349 
 1107000   0.61681962   -2.1077393   -2.1077393   -1.3409831  0.042351848   -2.1077393   0.76675625   426349 
 1108000   0.61521567   -2.1067038   -2.1067038   -1.3419413  0.045639972   -2.1067038   0.76476242   426349 
 1109000   0.61585146   -2.1072759   -2.1072759   -1.3417231  0.043094098   -2.1072759   0.76555276   426349 
 1110000   0.61405543   -2.1054721   -2.1054721   -1.3421519  0.047350834   -2.1054721   0.76332015   426349 
 1111000   0.61601772    -2.107569    -2.107569   -1.3418095  0.045177675    -2.107569   0.76575943   426349 
 1112000   0.61518281   -2.1067825   -2.1067825   -1.3420609  0.044258007   -2.1067825   0.76472157   426349 
 1113000    0.6137975   -2.1052296   -2.1052296   -1.3422301  0.038020442   -2.1052296   0.76299952   426349 
 1114000    0.6136911   -2.1052209   -2.1052209   -1.3423537  0.042159912   -2.1052209   0.76286725   426349 
 1115000   0.61360838    -2.105594    -2.105594   -1.3428295  0.039538819    -2.105594   0.76276443   426349 
 1116000   0.61401239   -2.1062712   -2.1062712   -1.3430046  0.047034354   -2.1062712   0.76326664   426349 
 1117000   0.61269159   -2.1043212   -2.1043212   -1.3426964  0.044782394   -2.1043212   0.76162478   426349 
 1118000   0.61515315   -2.1075866   -2.1075866   -1.3429019  0.043639057   -2.1075866    0.7646847   426349 
 1119000   0.61411808   -2.1060947   -2.1060947   -1.3426967  0.042963201   -2.1060947   0.76339802   426349 
 1120000   0.61366842   -2.1054182   -2.1054182   -1.3425792  0.038265307   -2.1054182   0.76283906   426349 
 1121000   0.61385447   -2.1060284   -2.1060284   -1.3429581  0.043931782   -2.1060284   0.76307034   426349 
 1122000   0.61464613   -2.1075507   -2.1075507   -1.3434963  0.043538937   -2.1075507   0.76405443   426349 
 1123000   0.61430927   -2.1073722   -2.1073722   -1.3437366  0.039780484   -2.1073722   0.76363568   426349 
 1124000   0.61360459   -2.1062383   -2.1062383   -1.3434786  0.046715548   -2.1062383   0.76275972   426349 
 1125000   0.61536777   -2.1081658   -2.1081658   -1.3432143  0.037206133   -2.1081658    0.7649515   426349 
 1126000   0.61431349   -2.1066064   -2.1066064   -1.3429655   0.04133666   -2.1066064   0.76364093   426349 
 1127000   0.61495304    -2.106932    -2.106932   -1.3424961  0.045482962    -2.106932   0.76443595   426349 
 1128000   0.61476049   -2.1067775   -2.1067775   -1.3425809  0.042184551   -2.1067775   0.76419659   426349 
 1129000   0.61312885   -2.1059037   -2.1059037   -1.3437354  0.046751331   -2.1059037   0.76216833   426349 
 1130000   0.61416658   -2.1075162   -2.1075162   -1.3440579  0.037637341   -2.1075162   0.76345832   426349 
 1131000   0.61556969   -2.1075689   -2.1075689   -1.3423664  0.050732163   -2.1075689   0.76520249   426349 
 1132000   0.61488807   -2.1068416   -2.1068416   -1.3424864  0.043831957   -2.1068416   0.76435519   426349 
 1133000   0.61399343   -2.1059734   -2.1059734   -1.3427303  0.050662934   -2.1059734   0.76324308   426349 
 1134000   0.61574758   -2.1086848   -2.1086848   -1.3432612  0.045289139   -2.1086848   0.76542363   426349 
 1135000   0.61502779   -2.1080054   -2.1080054   -1.3434766  0.040081534   -2.1080054   0.76452886   426349 
 1136000   0.61462015   -2.1081136   -2.1081136   -1.3440915  0.040959227   -2.1081136   0.76402214   426349 
 1137000   0.61467755   -2.1082505   -2.1082505    -1.344157  0.049737439   -2.1082505   0.76409349   426349 
 1138000   0.61417077   -2.1075975   -2.1075975    -1.344134  0.041442895   -2.1075975   0.76346352   426349 
 1139000   0.61393313   -2.1077047   -2.1077047   -1.3445366  0.043487935   -2.1077047   0.76316812   426349 
 1140000   0.61430754    -2.108243    -2.108243   -1.3446095   0.04461198    -2.108243   0.76363354   426349 
 1141000   0.61406442   -2.1085725   -2.1085725   -1.3452411  0.046549235   -2.1085725   0.76333132   426349 
 1142000    0.6141931   -2.1079473   -2.1079473    -1.344456  0.042563583   -2.1079473   0.76349128   426349 
 1143000   0.61424321   -2.1072302   -2.1072302   -1.3436766  0.040604547   -2.1072302   0.76355357   426349 
 1144000   0.61481679    -2.107806    -2.107806   -1.3435394  0.044358216    -2.107806   0.76426658   426349 
 1145000   0.61428691   -2.1075688   -2.1075688   -1.3439609  0.042164389   -2.1075688    0.7636079   426349 
 1146000   0.61431801   -2.1075505   -2.1075505    -1.343904  0.039526632   -2.1075505   0.76364655   426349 
 1147000   0.61409246   -2.1079891   -2.1079891   -1.3446229  0.045173496   -2.1079891   0.76336617   426349 
 1148000   0.61370785   -2.1078615   -2.1078615   -1.3449734  0.047313805   -2.1078615   0.76288808   426349 
 1149000   0.61412963   -2.1088256   -2.1088256   -1.3454132  0.035060907   -2.1088256   0.76341239   426349 
 1150000   0.61354791   -2.1078605   -2.1078605   -1.3451712  0.042875831   -2.1078605   0.76268926   426349 
 1151000    0.6141833   -2.1086923   -2.1086923   -1.3452132  0.045239252   -2.1086923    0.7634791   426349 
 1152000   0.61351066   -2.1088699   -2.1088699   -1.3462269  0.039975055   -2.1088699   0.76264295   426349 
 1153000   0.61364194   -2.1084682   -2.1084682   -1.3456621  0.045083394   -2.1084682   0.76280615   426349 
 1154000   0.61435567   -2.1100016   -2.1100016   -1.3463082   0.04151638   -2.1100016   0.76369337   426349 
 1155000   0.61524335   -2.1106176   -2.1106176   -1.3458207  0.042945345   -2.1106176   0.76479683   426349 
 1156000   0.61485366   -2.1099313   -2.1099313   -1.3456189  0.047064309   -2.1099313   0.76431241   426349 
 1157000   0.61448387   -2.1096834   -2.1096834   -1.3458306  0.036182262   -2.1096834   0.76385273   426349 
 1158000   0.61463571    -2.109672    -2.109672   -1.3456305  0.039956969    -2.109672   0.76404148   426349 
 1159000   0.61368299   -2.1084243   -2.1084243   -1.3455672  0.042052932   -2.1084243   0.76285717   426349 
 1160000   0.61377217   -2.1090603   -2.1090603   -1.3460923  0.047067566   -2.1090603   0.76296803   426349 
 1161000   0.61351678    -2.108548    -2.108548   -1.3458975   0.04550364    -2.108548   0.76265056   426349 
 1162000   0.61412852   -2.1093499   -2.1093499   -1.3459389  0.042307997   -2.1093499     0.763411   426349 
 1163000   0.61350127     -2.10845     -2.10845   -1.3458187  0.039704244     -2.10845   0.76263128   426349 
 1164000   0.61342632   -2.1076714   -2.1076714   -1.3451333  0.042736133   -2.1076714   0.76253811   426349 
 1165000   0.61374109   -2.1081689   -2.1081689   -1.3452395  0.041124807   -2.1081689    0.7629294   426349 
 1166000   0.61470442    -2.108402    -2.108402   -1.3442751  0.043518114    -2.108402    0.7641269   426349 
 1167000   0.61482529   -2.1091434   -2.1091434   -1.3448662  0.046572346   -2.1091434   0.76427714   426349 
 1168000   0.61499046   -2.1095068   -2.1095068   -1.3450244  0.043916788   -2.1095068   0.76448246   426349 
 1169000   0.61416742   -2.1082406   -2.1082406   -1.3447813    0.0414742   -2.1082406   0.76345936   426349 
 1170000   0.61278774   -2.1073049   -2.1073049   -1.3455606  0.044804866   -2.1073049    0.7617443   426349 
 1171000   0.61404007   -2.1088654   -2.1088654   -1.3455643  0.040547635   -2.1088654   0.76330105   426349 
 1172000   0.61376495   -2.1081404   -2.1081404   -1.3451813  0.034470398   -2.1081404   0.76295905   426349 
 1173000   0.61367987   -2.1083752   -2.1083752   -1.3455219  0.041280043   -2.1083752    0.7628533   426349 
 1174000   0.61305863   -2.1076737   -2.1076737   -1.3455927  0.038290485   -2.1076737   0.76208104   426349 
 1175000   0.61327375   -2.1083828   -2.1083828   -1.3460344  0.042986329   -2.1083828   0.76234845   426349 
 1176000   0.61361818   -2.1087999   -2.1087999   -1.3460233  0.039035591   -2.1087999    0.7627766   426349 
 1177000   0.61298593    -2.108281    -2.108281   -1.3462904  0.046904733    -2.108281   0.76199067   426349 
 1178000    0.6138346   -2.1096645   -2.1096645   -1.3466189  0.042918932   -2.1096645   0.76304564   426349 
 1179000   0.61422404   -2.1099221   -2.1099221   -1.3463923  0.049581411   -2.1099221   0.76352974   426349 
 1180000   0.61449253    -2.111102    -2.111102   -1.3472385  0.045966466    -2.111102   0.76386349   426349 
 1181000    0.6147444   -2.1112174   -2.1112174   -1.3470408  0.041305036   -2.1112174   0.76417659   426349 
 1182000   0.61450309   -2.1104136   -2.1104136   -1.3465369  0.037521565   -2.1104136   0.76387663   426349 
 1183000   0.61489261   -2.1115621   -2.1115621   -1.3472012  0.038654676   -2.1115621   0.76436083   426349 
 1184000   0.61400529   -2.1111812   -2.1111812   -1.3479234    0.0409081   -2.1111812   0.76325782   426349 
 1185000   0.61488737   -2.1121894   -2.1121894   -1.3478351  0.044098151   -2.1121894   0.76435431   426349 
 1186000   0.61472519   -2.1123894   -2.1123894   -1.3482367  0.042474622   -2.1123894   0.76415272   426349 
 1187000   0.61431361   -2.1121679   -2.1121679   -1.3485268  0.039487393   -2.1121679   0.76364109   426349 
 1188000   0.61446346   -2.1117265   -2.1117265   -1.3478992  0.045614975   -2.1117265   0.76382736   426349 
 1189000   0.61407878   -2.1116773   -2.1116773   -1.3483281  0.047049377   -2.1116773   0.76334917   426349 
 1190000   0.61370703   -2.1119355   -2.1119355   -1.3490484  0.046198143   -2.1119355   0.76288706   426349 
 1191000   0.61248254   -2.1110675   -2.1110675   -1.3497025  0.041014293   -2.1110675   0.76136492   426349 
 1192000   0.61377843   -2.1119806   -2.1119806   -1.3490048  0.043991383   -2.1119806   0.76297581   426349 
 1193000     0.613334   -2.1113401   -2.1113401   -1.3489167   0.04950735   -2.1113401   0.76242335   426349 
 1194000   0.61290419   -2.1115785   -2.1115785   -1.3496894  0.042967405   -2.1115785   0.76188907   426349 
 1195000   0.61346729   -2.1119604   -2.1119604   -1.3493714  0.040633837   -2.1119604   0.76258904   426349 
 1196000   0.61382448   -2.1121262   -2.1121262   -1.3490931    0.0440658   -2.1121262   0.76303305   426349 
 1197000   0.61334709   -2.1119445   -2.1119445   -1.3495049  0.039682591   -2.1119445   0.76243963   426349 
 1198000   0.61285515   -2.1116233   -2.1116233   -1.3497952  0.036779092   -2.1116233    0.7618281   426349 
 1199000   0.61314125   -2.1117435   -2.1117435   -1.3495597  0.041169759   -2.1117435   0.76218375   426349 
 1200000   0.61255382   -2.1112499   -2.1112499   -1.3497963   0.04265134   -2.1112499   0.76145352   426349 
 1201000   0.61226146   -2.1115621   -2.1115621    -1.350472  0.039774885   -2.1115621   0.76109009   426349 
 1202000   0.61254305   -2.1119395   -2.1119395   -1.3504994  0.042989367   -2.1119395   0.76144013   426349 
 1203000    0.6135693   -2.1126047   -2.1126047   -1.3498889  0.035414138   -2.1126047   0.76271585   426349 
 1204000   0.61264016   -2.1115845   -2.1115845   -1.3500236  0.036457821   -2.1115845   0.76156085   426349 
 1205000   0.61297777   -2.1128999   -2.1128999   -1.3509194  0.046485255   -2.1128999   0.76198053   426349 
 1206000   0.61295293   -2.1129953   -2.1129953   -1.3510456  0.043893589   -2.1129953   0.76194965   426349 
 1207000   0.61261799   -2.1124591   -2.1124591   -1.3509259  0.044146749   -2.1124591   0.76153329   426349 
 1208000   0.61249031   -2.1130794   -2.1130794   -1.3517048  0.048599696   -2.1130794   0.76137457   426349 
 1209000   0.61371467   -2.1136688   -2.1136688   -1.3507723  0.039637739   -2.1136688   0.76289656   426349 
 1210000   0.61377944   -2.1137552   -2.1137552   -1.3507782  0.038662262   -2.1137552   0.76297707   426349 
 1211000    0.6142208   -2.1142018   -2.1142018   -1.3506761   0.04368088   -2.1142018   0.76352571   426349 
 1212000   0.61399968   -2.1134835   -2.1134835   -1.3502326  0.048367337   -2.1134835   0.76325084   426349 
 1213000   0.61516356   -2.1149115   -2.1149115   -1.3502139   0.04677141   -2.1149115   0.76469765   426349 
 1214000   0.61490853    -2.114928    -2.114928   -1.3505474  0.044227676    -2.114928   0.76438061   426349 
 1215000   0.61464826   -2.1146013   -2.1146013   -1.3505442  0.040523397   -2.1146013   0.76405708   426349 
 1216000    0.6154957    -2.115325    -2.115325   -1.3502145  0.043691394    -2.115325   0.76511052   426349 
 1217000   0.61406207   -2.1145731   -2.1145731   -1.3512447  0.047936745   -2.1145731    0.7633284   426349 
 1218000   0.61484329   -2.1154365   -2.1154365    -1.351137   0.04007718   -2.1154365   0.76429952   426349 
 1219000    0.6142222   -2.1149619   -2.1149619   -1.3514344  0.044138962   -2.1149619   0.76352746   426349 
 1220000   0.61442371    -2.114847    -2.114847   -1.3510691  0.040740678    -2.114847   0.76377795   426349 
 1221000   0.61384065   -2.1148198   -2.1148198   -1.3517666  0.040610986   -2.1148198   0.76305316   426349 
 1222000   0.61235347   -2.1131914   -2.1131914   -1.3519869  0.042079358   -2.1131914   0.76120447   426349 
 1223000   0.61339195    -2.114388    -2.114388   -1.3518926  0.036343825    -2.114388   0.76249539   426349 
 1224000   0.61369772   -2.1149352   -2.1149352   -1.3520597  0.036629857   -2.1149352   0.76287549   426349 
 1225000   0.61319174   -2.1143989   -2.1143989   -1.3521524  0.037804941   -2.1143989   0.76224651   426349 
 1226000   0.61217994   -2.1133203   -2.1133203   -1.3523316  0.043587299   -2.1133203   0.76098877   426349 
 1227000    0.6125707   -2.1130436   -2.1130436   -1.3515691  0.043688981   -2.1130436   0.76147451   426349 
 1228000   0.61218507    -2.112525    -2.112525   -1.3515299  0.048127364    -2.112525   0.76099514   426349 
 1229000   0.61247128   -2.1140902   -2.1140902   -1.3527393  0.047985942   -2.1140902   0.76135092   426349 
 1230000    0.6119742   -2.1134937   -2.1134937   -1.3527607  0.040781138   -2.1134937   0.76073301   426349 
 1231000   0.61312409   -2.1140873   -2.1140873   -1.3519249  0.040361693   -2.1140873   0.76216242   426349 
 1232000   0.61352101   -2.1150688   -2.1150688   -1.3524129  0.046810373   -2.1150688   0.76265582   426349 
 1233000   0.61350649   -2.1150737   -2.1150737   -1.3524359  0.041627742   -2.1150737   0.76263777   426349 
 1234000   0.61321761   -2.1143049   -2.1143049   -1.3520262  0.045585423   -2.1143049   0.76227867   426349 
 1235000   0.61407852   -2.1146001   -2.1146001   -1.3512513  0.036395081   -2.1146001   0.76334885   426349 
 1236000     0.614283   -2.1142812   -2.1142812   -1.3506782  0.046017662   -2.1142812   0.76360304   426349 
 1237000    0.6134247   -2.1140193   -2.1140193   -1.3514832   0.04552376   -2.1140193    0.7625361   426349 
 1238000   0.61437097   -2.1164766   -2.1164766   -1.3527642  0.043014547   -2.1164766   0.76371238   426349 
 1239000   0.61363999   -2.1154214   -2.1154214   -1.3526177  0.039558032   -2.1154214   0.76280372   426349 
 1240000   0.61399126    -2.115359    -2.115359   -1.3521187  0.041823605    -2.115359   0.76324038   426349 
 1241000   0.61426392   -2.1146936   -2.1146936   -1.3511143  0.039171364   -2.1146936   0.76357932   426349 
 1242000   0.61483377   -2.1153316   -2.1153316   -1.3510439  0.037910099   -2.1153316   0.76428769   426349 
 1243000   0.61330988   -2.1141466   -2.1141466   -1.3517533   0.04318627   -2.1141466   0.76239336   426349 
 1244000     0.612927   -2.1139181   -2.1139181   -1.3520007  0.042581053   -2.1139181   0.76191741   426349 
 1245000   0.61440735   -2.1154411   -2.1154411   -1.3516835  0.045490472   -2.1154411   0.76375761   426349 
 1246000   0.61307307   -2.1138712   -2.1138712   -1.3517722  0.046674723   -2.1138712   0.76209899   426349 
 1247000   0.61352535   -2.1138413   -2.1138413     -1.35118  0.042188919   -2.1138413   0.76266121   426349 
 1248000   0.61414618   -2.1148537   -2.1148537   -1.3514207  0.043687033   -2.1148537   0.76343295   426349 
 1249000   0.61378746   -2.1140498   -2.1140498   -1.3510627  0.043640381   -2.1140498   0.76298703   426349 
 1250000   0.61391686   -2.1143304   -2.1143304   -1.3511825  0.043884375   -2.1143304   0.76314789   426349 
 1251000   0.61408046   -2.1138283   -2.1138283   -1.3504771  0.043161239   -2.1138283   0.76335126   426349 
 1252000   0.61415013   -2.1135481   -2.1135481   -1.3501102  0.051095774   -2.1135481   0.76343787   426349 
 1253000   0.61255374   -2.1124369   -2.1124369   -1.3509835  0.045475451   -2.1124369   0.76145343   426349 
 1254000   0.61304093   -2.1128259   -2.1128259   -1.3507669  0.043951091   -2.1128259   0.76205905   426349 
 1255000   0.61401619    -2.114801    -2.114801   -1.3515296  0.040502689    -2.114801   0.76327137   426349 
 1256000   0.61380545   -2.1137492   -2.1137492   -1.3507398  0.049943857   -2.1137492    0.7630094   426349 
 1257000   0.61355645   -2.1143653   -2.1143653   -1.3516654  0.047237962   -2.1143653   0.76269987   426349 
 1258000   0.61344674   -2.1139538   -2.1139538   -1.3513903  0.037592005   -2.1139538   0.76256349   426349 
 1259000   0.61362464   -2.1136625   -2.1136625   -1.3508778  0.042460784   -2.1136625   0.76278464   426349 
 1260000   0.61295688   -2.1138933   -2.1138933   -1.3519388  0.043863663   -2.1138933   0.76195456   426349 
 1261000   0.61479594   -2.1159459   -2.1159459   -1.3517052   0.04098885   -2.1159459   0.76424066   426349 
 1262000   0.61307721   -2.1143409   -2.1143409   -1.3522367  0.040359067   -2.1143409   0.76210414   426349 
 1263000   0.61299459   -2.1145722   -2.1145722   -1.3525708  0.041088017   -2.1145722   0.76200144   426349 
 1264000   0.61386002   -2.1151672   -2.1151672     -1.35209  0.044433839   -2.1151672   0.76307724   426349 
 1265000   0.61284892   -2.1147785   -2.1147785   -1.3529581  0.042285543   -2.1147785   0.76182035   426349 
 1266000   0.61345703   -2.1148731   -2.1148731   -1.3522968  0.039722967   -2.1148731   0.76257629   426349 
 1267000   0.61365698   -2.1149415   -2.1149415   -1.3521166  0.049121555   -2.1149415   0.76282484   426349 
 1268000   0.61398255   -2.1156179   -2.1156179   -1.3523884   0.03783037   -2.1156179   0.76322955   426349 
 1269000   0.61170772   -2.1136075   -2.1136075   -1.3532057  0.045472189   -2.1136075   0.76040175   426349 
 1270000   0.61371109   -2.1158337   -2.1158337   -1.3529415  0.043770336   -2.1158337   0.76289211   426349 
 1271000   0.61285575   -2.1147232   -2.1147232   -1.3528944  0.045121698   -2.1147232   0.76182885   426349 
 1272000   0.61371224   -2.1154295   -2.1154295   -1.3525359  0.043953348   -2.1154295   0.76289353   426349 
 1273000   0.61374856   -2.1153549   -2.1153549   -1.3524163   0.04525747   -2.1153549   0.76293869   426349 
 1274000   0.61356492   -2.1146462   -2.1146462   -1.3519358  0.046122425   -2.1146462   0.76271041   426349 
 1275000   0.61240407   -2.1138274   -2.1138274     -1.35256  0.042216956   -2.1138274   0.76126738   426349 
 1276000   0.61218872   -2.1139588   -2.1139588   -1.3529592  0.038886211   -2.1139588   0.76099968   426349 
 1277000   0.61270566   -2.1151289   -2.1151289   -1.3534866  0.043664104   -2.1151289   0.76164228   426349 
 1278000   0.61315696   -2.1152428   -2.1152428   -1.3530395  0.041365714   -2.1152428   0.76220327   426349 
 1279000   0.61275409   -2.1149025   -2.1149025      -1.3532  0.035100656   -2.1149025   0.76170247   426349 
 1280000   0.61243158   -2.1144718   -2.1144718   -1.3531702  0.038203521   -2.1144718   0.76130157   426349 
 1281000   0.61318522   -2.1155473   -2.1155473   -1.3533089  0.045557337   -2.1155473   0.76223841   426349 
 1282000   0.61255562   -2.1144693   -2.1144693   -1.3530135  0.038899181   -2.1144693   0.76145576   426349 
 1283000   0.61192683   -2.1144138   -2.1144138   -1.3537397   0.03481002   -2.1144138   0.76067413   426349 
 1284000   0.61194013   -2.1145981   -2.1145981   -1.3539075  0.038419506   -2.1145981   0.76069066   426349 
 1285000   0.61260069   -2.1152291   -2.1152291   -1.3537174  0.038778783   -2.1152291   0.76151178   426349 
 1286000   0.61272628     -2.11563     -2.11563   -1.3539621  0.043913542     -2.11563    0.7616679   426349 
 1287000   0.61392452   -2.1164934   -2.1164934   -1.3533359   0.04850208   -2.1164934   0.76315742   426349 
 1288000   0.61261157   -2.1144074   -2.1144074   -1.3528821  0.045314999   -2.1144074   0.76152531   426349 
 1289000   0.61291133   -2.1148598   -2.1148598   -1.3529618  0.041941063   -2.1148598   0.76189794   426349 
 1290000   0.61270952    -2.115021    -2.115021    -1.353374  0.043753981    -2.115021   0.76164707   426349 
 1291000   0.61358152   -2.1161786   -2.1161786   -1.3534476  0.045423505   -2.1161786   0.76273104   426349 
 1292000   0.61386628   -2.1170775   -2.1170775   -1.3539925  0.041707482   -2.1170775   0.76308502   426349 
 1293000   0.61464607   -2.1179269   -2.1179269   -1.3538725  0.035602629   -2.1179269   0.76405436   426349 
 1294000   0.61351427   -2.1163181   -2.1163181   -1.3536706  0.038399702   -2.1163181   0.76264744   426349 
 1295000   0.61434047   -2.1172815   -2.1172815   -1.3536071  0.035729127   -2.1172815   0.76367447   426349 
 1296000    0.6140458   -2.1168367   -2.1168367   -1.3535285  0.036950513   -2.1168367   0.76330818   426349 
 1297000   0.61374403   -2.1174453   -2.1174453   -1.3545123   0.04364876   -2.1174453   0.76293305   426349 
 1298000   0.61398422   -2.1178062   -2.1178062   -1.3545746  0.043649895   -2.1178062   0.76323163   426349 
 1299000   0.61378449   -2.1171673   -2.1171673    -1.354184  0.037820569   -2.1171673   0.76298335   426349 
 1300000    0.6138194   -2.1170915   -2.1170915   -1.3540648  0.041155394   -2.1170915   0.76302674   426349 
 1301000   0.61464761   -2.1179044   -2.1179044   -1.3538481  0.036883221   -2.1179044   0.76405628   426349 
 1302000   0.61303543   -2.1170748   -2.1170748   -1.3550226  0.039232615   -2.1170748   0.76205221   426349 
 1303000   0.61335414   -2.1176791   -2.1176791   -1.3552308   0.04203149   -2.1176791   0.76244839   426349 
 1304000   0.61300489   -2.1169335   -2.1169335   -1.3549192  0.036213275   -2.1169335   0.76201425   426349 
 1305000   0.61298278   -2.1171003   -2.1171003   -1.3551135  0.039101182   -2.1171003   0.76198676   426349 
 1306000   0.61278887   -2.1164068   -2.1164068    -1.354661  0.039392592   -2.1164068   0.76174571   426349 
 1307000   0.61339927   -2.1171641   -2.1171641   -1.3546596  0.035234948   -2.1171641   0.76250449   426349 
 1308000   0.61267336   -2.1163866   -2.1163866   -1.3547845  0.038765292   -2.1163866   0.76160212   426349 
 1309000   0.61406322    -2.118224    -2.118224   -1.3548941   0.04254835    -2.118224   0.76332983   426349 
 1310000   0.61255754   -2.1161116   -2.1161116   -1.3546534  0.042304212   -2.1161116   0.76145815   426349 
 1311000    0.6127082   -2.1159756   -2.1159756   -1.3543302  0.039617875   -2.1159756   0.76164543   426349 
 1312000   0.61307975   -2.1162413   -2.1162413    -1.354134  0.046601478   -2.1162413    0.7621073   426349 
 1313000   0.61432085   -2.1182103   -2.1182103   -1.3545603  0.040384359   -2.1182103   0.76365008   426349 
 1314000   0.61289143   -2.1165932   -2.1165932     -1.35472   0.03687249   -2.1165932    0.7618732   426349 
 1315000   0.61242871   -2.1168483   -2.1168483   -1.3555503  0.031790814   -2.1168483     0.761298   426349 
 1316000   0.61321276   -2.1173921   -2.1173921   -1.3551195  0.044640092   -2.1173921   0.76227264   426349 
 1317000   0.61191764   -2.1160221   -2.1160221   -1.3553594  0.038157463   -2.1160221    0.7606627   426349 
 1318000   0.61173763   -2.1157409   -2.1157409    -1.355302  0.041494127   -2.1157409   0.76043894   426349 
 1319000   0.61320858   -2.1173046   -2.1173046   -1.3550371  0.040410046   -2.1173046   0.76226744   426349 
 1320000   0.61176058   -2.1152771   -2.1152771   -1.3548096  0.049366041   -2.1152771   0.76046747   426349 
 1321000    0.6112821   -2.1148685   -2.1148685   -1.3549958  0.036880684   -2.1148685   0.75987267   426349 
 1322000    0.6116942   -2.1159952   -2.1159952   -1.3556102  0.042585435   -2.1159952   0.76038495   426349 
 1323000   0.61265892   -2.1170139   -2.1170139   -1.3554297  0.045303655   -2.1170139   0.76158417   426349 
 1324000   0.61280302    -2.117692    -2.117692   -1.3559287  0.038157043    -2.117692    0.7617633   426349 
 1325000   0.61198742   -2.1165982   -2.1165982   -1.3558488  0.040005423   -2.1165982   0.76074944   426349 
 1326000   0.61309291   -2.1179351   -2.1179351   -1.3558114  0.038489453   -2.1179351   0.76212366   426349 
 1327000   0.61144549   -2.1164869   -2.1164869   -1.3564112  0.041135722   -2.1164869   0.76007579   426349 
 1328000   0.61255203   -2.1182772   -2.1182772   -1.3568258  0.044374059   -2.1182772    0.7614513   426349 
 1329000   0.61328184   -2.1191639   -2.1191639   -1.3568054  0.045003052   -2.1191639   0.76235851   426349 
 1330000   0.61364904   -2.1186685   -2.1186685   -1.3558536   0.04026726   -2.1186685   0.76281497   426349 
 1331000   0.61487767   -2.1200573   -2.1200573   -1.3557151  0.040739597   -2.1200573   0.76434225   426349 
 1332000   0.61417668   -2.1202322   -2.1202322   -1.3567613  0.040987923   -2.1202322   0.76347087   426349 
 1333000   0.61392757   -2.1194681   -2.1194681   -1.3563069  0.045063312   -2.1194681   0.76316121   426349 
 1334000    0.6144494   -2.1200655   -2.1200655   -1.3562556  0.045736839   -2.1200655   0.76380988   426349 
 1335000   0.61359487   -2.1194774   -2.1194774   -1.3567298  0.044018157   -2.1194774   0.76274763   426349 
 1336000   0.61371435   -2.1196844   -2.1196844   -1.3567883  0.035873631   -2.1196844   0.76289615   426349 
 1337000   0.61296861   -2.1180072   -2.1180072    -1.356038  0.039600218   -2.1180072   0.76196914   426349 
 1338000   0.61332741   -2.1188757   -2.1188757   -1.3564605  0.044824712   -2.1188757   0.76241515   426349 
 1339000   0.61201463   -2.1177368   -2.1177368   -1.3569535  0.044648989   -2.1177368   0.76078327   426349 
 1340000   0.61420863    -2.120775    -2.120775   -1.3572644  0.042442048    -2.120775   0.76351058   426349 
 1341000   0.61276407    -2.118992    -2.118992   -1.3572772  0.040802544    -2.118992   0.76171488   426349 
 1342000   0.61313465    -2.119186    -2.119186   -1.3570104  0.037418337    -2.119186   0.76217555   426349 
 1343000   0.61244213   -2.1180164   -2.1180164   -1.3567017  0.043901354   -2.1180164   0.76131468   426349 
 1344000   0.61156921   -2.1176046   -2.1176046    -1.357375  0.042425488   -2.1176046   0.76022957   426349 
 1345000   0.61309461   -2.1192486   -2.1192486   -1.3571229  0.038889854   -2.1192486   0.76212577   426349 
 1346000   0.61178574   -2.1181685   -2.1181685   -1.3576698  0.042441644   -2.1181685   0.76049874   426349 
 1347000   0.61149801   -2.1186951   -2.1186951   -1.3585541  0.037336378   -2.1186951   0.76014106   426349 
 1348000   0.61185653    -2.118637    -2.118637   -1.3580503  0.041157117    -2.118637   0.76058674   426349 
 1349000   0.61130159   -2.1175533   -2.1175533   -1.3576564  0.039886751   -2.1175533    0.7598969   426349 
 1350000   0.61251125   -2.1190017   -2.1190017   -1.3576011  0.036452977   -2.1190017   0.76140061   426349 
 1351000   0.61197595   -2.1181805   -2.1181805   -1.3574453  0.036289897   -2.1181805   0.76073518   426349 
 1352000   0.61139426   -2.1175531   -2.1175531    -1.357541  0.043197518   -2.1175531    0.7600121   426349 
 1353000   0.61173273   -2.1171755   -2.1171755   -1.3567427  0.039702223   -2.1171755   0.76043285   426349 
 1354000   0.61358025   -2.1188053   -2.1188053   -1.3560758  0.041015333   -2.1188053   0.76272946   426349 
 1355000   0.61385931   -2.1194621   -2.1194621   -1.3563857  0.040876344   -2.1194621   0.76307635   426349 
 1356000   0.61275035    -2.117855    -2.117855   -1.3561571  0.042770281    -2.117855   0.76169782   426349 
 1357000   0.61290199   -2.1178558   -2.1178558   -1.3559695  0.049550789   -2.1178558   0.76188633   426349 
 1358000   0.61325816    -2.118972    -2.118972   -1.3566429  0.041730655    -2.118972   0.76232908   426349 
 1359000   0.61239557   -2.1183161   -2.1183161   -1.3570593  0.037568907   -2.1183161    0.7612568   426349 
 1360000   0.61374301   -2.1202668   -2.1202668    -1.357335  0.040756137   -2.1202668   0.76293179   426349 
 1361000   0.61245449   -2.1189696   -2.1189696   -1.3576395  0.045074238   -2.1189696   0.76133004   426349 
 1362000     0.612687   -2.1196708   -2.1196708   -1.3580517     0.044593   -2.1196708   0.76161907   426349 
 1363000   0.61396863   -2.1207861   -2.1207861   -1.3575738  0.046132693   -2.1207861   0.76321225   426349 
 1364000   0.61263315   -2.1200276   -2.1200276   -1.3584755  0.038742453   -2.1200276   0.76155214   426349 
 1365000   0.61349366   -2.1207302   -2.1207302   -1.3581084  0.044031575   -2.1207302   0.76262183   426349 
 1366000   0.61354102   -2.1208792   -2.1208792   -1.3581985  0.044205793   -2.1208792    0.7626807   426349 
 1367000   0.61383839    -2.121292    -2.121292   -1.3582417   0.04115571    -2.121292   0.76305035   426349 
 1368000   0.61269178   -2.1203526   -2.1203526   -1.3587276   0.04576203   -2.1203526   0.76162502   426349 
 1369000   0.61243212   -2.1209812   -2.1209812    -1.359679   0.03833186   -2.1209812   0.76130225   426349 
 1370000   0.61280534   -2.1214889   -2.1214889   -1.3597227  0.034160302   -2.1214889   0.76176618   426349 
 1371000   0.61106028   -2.1197434   -2.1197434   -1.3601465  0.040603402   -2.1197434   0.75959694   426349 
 1372000   0.61327578    -2.122415    -2.122415    -1.360064   0.04214851    -2.122415   0.76235098   426349 
 1373000   0.61216739    -2.120645    -2.120645   -1.3596718  0.047944296    -2.120645   0.76097317   426349 
 1374000   0.61276072   -2.1215469   -2.1215469   -1.3598361  0.039455949   -2.1215469   0.76171072   426349 
 1375000    0.6116655   -2.1201565   -2.1201565   -1.3598072  0.048008653   -2.1201565   0.76034928   426349 
 1376000   0.61211631   -2.1206909   -2.1206909   -1.3597813  0.040220459   -2.1206909   0.76090966   426349 
 1377000   0.61197492   -2.1211379   -2.1211379    -1.360404  0.035752747   -2.1211379   0.76073391   426349 
 1378000    0.6110152   -2.1191868   -2.1191868   -1.3596459  0.044083359   -2.1191868   0.75954089   426349 
 1379000   0.61360361   -2.1216657   -2.1216657   -1.3589072  0.042183265   -2.1216657    0.7627585   426349 
 1380000   0.61296397   -2.1223693   -2.1223693   -1.3604059   0.04449462   -2.1223693   0.76196338   426349 
 1381000   0.61269408   -2.1216466   -2.1216466   -1.3600187  0.039850543   -2.1216466   0.76162788   426349 
 1382000   0.61237852   -2.1206492   -2.1206492   -1.3594136    0.0457611   -2.1206492   0.76123561   426349 
 1383000   0.61218734   -2.1207796   -2.1207796   -1.3597816   0.04151216   -2.1207796   0.76099796   426349 
 1384000   0.61163562   -2.1207531   -2.1207531   -1.3604409  0.037251146   -2.1207531   0.76031213   426349 
 1385000   0.61306891   -2.1220203   -2.1220203   -1.3599265  0.037340742   -2.1220203   0.76209383   426349 
 1386000   0.61261825   -2.1215396   -2.1215396    -1.360006  0.037134311   -2.1215396   0.76153361   426349 
 1387000   0.61350793   -2.1215978   -2.1215978   -1.3589582  0.041227536   -2.1215978   0.76263956   426349 
 1388000   0.61382368   -2.1224938   -2.1224938   -1.3594617  0.039797714   -2.1224938   0.76303206   426349 
 1389000    0.6124665   -2.1214699   -2.1214699   -1.3601249  0.039917758   -2.1214699   0.76134498   426349 
 1390000   0.61296976   -2.1222714   -2.1222714   -1.3603009   0.04205992   -2.1222714   0.76197057   426349 
 1391000   0.61282317   -2.1211503   -2.1211503   -1.3593619   0.04035814   -2.1211503   0.76178834   426349 
 1392000   0.61331473   -2.1216872   -2.1216872   -1.3592878  0.044805558   -2.1216872    0.7623994   426349 
 1393000   0.61350136   -2.1221493   -2.1221493    -1.359518   0.04192531   -2.1221493   0.76263139   426349 
 1394000   0.61206179   -2.1207883   -2.1207883   -1.3599464  0.036553428   -2.1207883    0.7608419   426349 
 1395000   0.61250507   -2.1213728   -2.1213728   -1.3599799     0.044064   -2.1213728   0.76139293   426349 
 1396000   0.61238973   -2.1208789   -2.1208789   -1.3596294  0.038960666   -2.1208789   0.76124954   426349 
 1397000   0.61272804   -2.1214358   -2.1214358   -1.3597657   0.04943725   -2.1214358    0.7616701   426349 
 1398000   0.61281658   -2.1215581   -2.1215581   -1.3597779   0.04438677   -2.1215581   0.76178016   426349 
 1399000   0.61251207   -2.1203534   -2.1203534   -1.3589518  0.041903892   -2.1203534   0.76140162   426349 
 1400000   0.61259369   -2.1210001   -2.1210001    -1.359497  0.044490803   -2.1210001   0.76150308   426349 
 1401000   0.61363034   -2.1216624   -2.1216624   -1.3588707  0.037403473   -2.1216624   0.76279173   426349 
 1402000   0.61211444   -2.1206681   -2.1206681   -1.3597608  0.041720068   -2.1206681   0.76090734   426349 
 1403000   0.61217691   -2.1206736   -2.1206736   -1.3596886  0.034871279   -2.1206736     0.760985   426349 
 1404000   0.61321443    -2.121854    -2.121854   -1.3595793  0.041042942    -2.121854   0.76227471   426349 
 1405000   0.61195214   -2.1203316   -2.1203316    -1.359626  0.040698367   -2.1203316   0.76070559   426349 
 1406000   0.61138187   -2.1208576   -2.1208576   -1.3608609  0.046507868   -2.1208576   0.75999669   426349 
 1407000   0.61156832   -2.1203432   -2.1203432   -1.3601147  0.045469977   -2.1203432   0.76022847   426349 
 1408000   0.61175184   -2.1213396   -2.1213396    -1.360883  0.041211113   -2.1213396   0.76045661   426349 
 1409000   0.61206643   -2.1218642   -2.1218642   -1.3610166  0.043883569   -2.1218642   0.76084766   426349 
 1410000   0.61233667   -2.1222295   -2.1222295    -1.361046  0.042012971   -2.1222295   0.76118358   426349 
 1411000   0.61184378   -2.1211881   -2.1211881   -1.3606172  0.048228416   -2.1211881   0.76057089   426349 
 1412000   0.61172592   -2.1211653   -2.1211653   -1.3607409  0.040975504   -2.1211653   0.76042438   426349 
 1413000   0.61207822   -2.1220544   -2.1220544   -1.3611921  0.041216017   -2.1220544   0.76086232   426349 
 1414000   0.61343141   -2.1240163   -2.1240163   -1.3614719  0.036897824   -2.1240163   0.76254443   426349 
 1415000   0.61247675   -2.1223763   -2.1223763   -1.3610186  0.044274468   -2.1223763   0.76135772   426349 
 1416000   0.61350938   -2.1225261   -2.1225261   -1.3598848  0.046502961   -2.1225261   0.76264136   426349 
 1417000   0.61252615   -2.1210521   -2.1210521    -1.359633  0.041838784   -2.1210521   0.76141913   426349 
 1418000   0.61304571   -2.1228253   -2.1228253   -1.3607604  0.040607662   -2.1228253   0.76206498   426349 
 1419000   0.61222414   -2.1213532   -2.1213532   -1.3603095  0.041227314   -2.1213532    0.7610437   426349 
 1420000   0.61169168   -2.1217786   -2.1217786   -1.3613968  0.046155816   -2.1217786   0.76038182   426349 
 1421000   0.61259247   -2.1230307   -2.1230307   -1.3615291   0.03661665   -2.1230307   0.76150157   426349 
 1422000   0.61238067   -2.1231396   -2.1231396   -1.3619013  0.040701988   -2.1231396   0.76123829   426349 
 1423000   0.61252368   -2.1230151   -2.1230151    -1.361599  0.040497625   -2.1230151   0.76141606   426349 
 1424000   0.61125102   -2.1221367   -2.1221367   -1.3623026  0.037613397   -2.1221367   0.75983404   426349 
 1425000   0.61204281   -2.1230393   -2.1230393    -1.362221   0.04234788   -2.1230393    0.7608183   426349 
 1426000   0.61206682   -2.1232351   -2.1232351   -1.3623869  0.043239944   -2.1232351   0.76084815   426349 
 1427000   0.61182526   -2.1224106   -2.1224106   -1.3618627  0.042049787   -2.1224106   0.76054787   426349 
 1428000   0.61231089   -2.1233608   -2.1233608   -1.3622092  0.035245033   -2.1233608   0.76115154   426349 
 1429000   0.61142513   -2.1222591   -2.1222591   -1.3622087  0.036445109   -2.1222591   0.76005048   426349 
 1430000    0.6124354   -2.1232953   -2.1232953    -1.361989  0.037121929   -2.1232953   0.76130632   426349 
 1431000   0.61283184   -2.1239724   -2.1239724   -1.3621732  0.041918639   -2.1239724   0.76179913   426349 
 1432000   0.61375874   -2.1253579   -2.1253579   -1.3624065  0.052635493   -2.1253579   0.76295134   426349 
 1433000   0.61262798    -2.124568    -2.124568   -1.3630223  0.035530526    -2.124568   0.76154571   426349 
 1434000   0.61303905   -2.1244272   -2.1244272   -1.3623704  0.041540822   -2.1244272    0.7620567   426349 
 1435000   0.61440259   -2.1264698   -2.1264698   -1.3627181  0.032121469   -2.1264698    0.7637517   426349 
 1436000    0.6135864   -2.1261032   -2.1261032   -1.3633661  0.044426073   -2.1261032   0.76273711   426349 
 1437000   0.61163403   -2.1228763   -2.1228763   -1.3625661  0.050754259   -2.1228763   0.76031015   426349 
 1438000   0.61252464   -2.1248801   -2.1248801   -1.3634628  0.047915928   -2.1248801   0.76141726   426349 
 1439000   0.61267284   -2.1246581   -2.1246581   -1.3630567  0.036950657   -2.1246581   0.76160147   426349 
 1440000   0.61131149    -2.123905    -2.123905   -1.3639958  0.042601529    -2.123905   0.75990921   426349 
 1441000   0.61253988   -2.1248532   -2.1248532    -1.363417  0.045970201   -2.1248532    0.7614362   426349 
 1442000   0.61236031   -2.1240957   -2.1240957   -1.3628827  0.043952946   -2.1240957   0.76121298   426349 
 1443000   0.61203347   -2.1236224   -2.1236224   -1.3628157  0.046146806   -2.1236224   0.76080669   426349 
 1444000   0.61204541    -2.123769    -2.123769   -1.3629475  0.036905479    -2.123769   0.76082153   426349 
 1445000   0.61292684   -2.1237926   -2.1237926   -1.3618754  0.043155228   -2.1237926   0.76191722   426349 
 1446000   0.61294449   -2.1241937   -2.1241937   -1.3622546   0.03991847   -2.1241937   0.76193916   426349 
 1447000   0.61228927   -2.1233389   -2.1233389   -1.3622142  0.039630375   -2.1233389   0.76112466   426349 
 1448000   0.61082447   -2.1225588   -2.1225588    -1.363255  0.035486791   -2.1225588    0.7593038   426349 
 1449000   0.61214849   -2.1239748   -2.1239748   -1.3630252  0.034575738   -2.1239748   0.76094967   426349 
 1450000   0.61288908   -2.1242812   -2.1242812    -1.362411   0.03897786   -2.1242812   0.76187028   426349 
 1451000   0.61272817    -2.124229    -2.124229   -1.3625588  0.040886247    -2.124229   0.76167025   426349 
 1452000   0.61218703   -2.1233096   -2.1233096    -1.362312   0.04243781   -2.1233096   0.76099757   426349 
 1453000   0.61209482   -2.1228201   -2.1228201   -1.3619371  0.043876258   -2.1228201   0.76088296   426349 
 1454000   0.61174922   -2.1232597   -2.1232597   -1.3628064  0.041983409   -2.1232597   0.76045334   426349 
 1455000   0.61193024   -2.1233637   -2.1233637   -1.3626854   0.04571904   -2.1233637   0.76067837   426349 
 1456000   0.61247676    -2.123888    -2.123888   -1.3625302  0.045603543    -2.123888   0.76135774   426349 
 1457000   0.61229487   -2.1233227   -2.1233227   -1.3621911  0.045069078   -2.1233227   0.76113163   426349 
 1458000   0.61238155   -2.1238142   -2.1238142   -1.3625748  0.039791064   -2.1238142   0.76123937   426349 
 1459000   0.61217081   -2.1233865   -2.1233865   -1.3624091  0.043256369   -2.1233865   0.76097742   426349 
 1460000   0.61296435   -2.1248665   -2.1248665   -1.3629027  0.039928231   -2.1248665   0.76196385   426349 
 1461000   0.61124442   -2.1230839   -2.1230839   -1.3632581   0.04301957   -2.1230839   0.75982583   426349 
 1462000    0.6106726   -2.1218039   -2.1218039   -1.3626889    0.0429601   -2.1218039   0.75911502   426349 
 1463000   0.61108579    -2.122856    -2.122856   -1.3632274  0.037682851    -2.122856   0.75962865   426349 
 1464000   0.61062962    -2.123017    -2.123017   -1.3639554  0.031232959    -2.123017   0.75906159   426349 
 1465000   0.61198571   -2.1246254   -2.1246254   -1.3638781  0.044058707   -2.1246254   0.76074732   426349 
 1466000   0.61216007   -2.1247226   -2.1247226   -1.3637585  0.040456652   -2.1247226   0.76096406   426349 
 1467000   0.61133617   -2.1241643   -2.1241643   -1.3642244  0.040809759   -2.1241643   0.75993988   426349 
 1468000   0.61143799   -2.1240193   -2.1240193   -1.3639528  0.038780212   -2.1240193   0.76006646   426349 
 1469000   0.61255897   -2.1253528   -2.1253528   -1.3638928  0.042142779   -2.1253528   0.76145992   426349 
 1470000     0.612797   -2.1250398   -2.1250398    -1.363284  0.040828348   -2.1250398   0.76175581   426349 
 1471000   0.61315345   -2.1258865   -2.1258865   -1.3636876  0.043510353   -2.1258865   0.76219891   426349 
 1472000   0.61242335   -2.1250112   -2.1250112   -1.3637198  0.043619421   -2.1250112   0.76129134   426349 
 1473000   0.61233528   -2.1246481   -2.1246481   -1.3634663  0.038052277   -2.1246481   0.76118186   426349 
 1474000   0.61198497   -2.1244093   -2.1244093   -1.3636629  0.039476861   -2.1244093    0.7607464   426349 
 1475000    0.6128725   -2.1253485   -2.1253485   -1.3634988  0.045816925   -2.1253485   0.76184967   426349 
 1476000   0.61193431   -2.1242394   -2.1242394    -1.363556  0.042344689   -2.1242394   0.76068342   426349 
 1477000   0.61206249    -2.124735    -2.124735   -1.3638922  0.040143656    -2.124735   0.76084276   426349 
 1478000    0.6121729   -2.1253394   -2.1253394   -1.3643594  0.042777339   -2.1253394      0.76098   426349 
 1479000   0.61085597   -2.1240294   -2.1240294   -1.3646864  0.042096008   -2.1240294   0.75934296   426349 
 1480000   0.61192486   -2.1252251   -2.1252251   -1.3645534   0.03026188   -2.1252251   0.76067167   426349 
 1481000   0.61088871   -2.1239855   -2.1239855   -1.3646018  0.036315353   -2.1239855   0.75938366   426349 
 1482000   0.61145905   -2.1243215   -2.1243215   -1.3642288  0.047852648   -2.1243215   0.76009264   426349 
 1483000   0.61149781   -2.1249819   -2.1249819   -1.3648411   0.03269689   -2.1249819   0.76014083   426349 
 1484000   0.61100919    -2.124291    -2.124291   -1.3647576  0.038520918    -2.124291   0.75953343   426349 
 1485000   0.61261549   -2.1269563   -2.1269563   -1.3654261  0.039688755   -2.1269563   0.76153019   426349 
 1486000   0.61244947   -2.1254641   -2.1254641   -1.3641403  0.044019227   -2.1254641   0.76132381   426349 
 1487000   0.61168045   -2.1242631   -2.1242631   -1.3638952  0.044539151   -2.1242631   0.76036786   426349 
 1488000   0.61274176   -2.1250005   -2.1250005   -1.3633134  0.036978208   -2.1250005   0.76168714   426349 
 1489000   0.61299841   -2.1250928   -2.1250928   -1.3630866  0.042577149   -2.1250928   0.76200618   426349 
 1490000   0.61211511   -2.1242998   -2.1242998   -1.3633916  0.043584208   -2.1242998   0.76090818   426349 
 1491000   0.61202281   -2.1249356   -2.1249356   -1.3641422  0.037195032   -2.1249356   0.76079343   426349 
 1492000   0.61042745   -2.1235201   -2.1235201   -1.3647098  0.036500089   -2.1235201   0.75881028   426349 
 1493000     0.611515   -2.1249904   -2.1249904   -1.3648282  0.038914457   -2.1249904   0.76016219   426349 
 1494000   0.61118687   -2.1254744   -2.1254744   -1.3657201  0.042770215   -2.1254744    0.7597543   426349 
 1495000   0.61014409   -2.1237637   -2.1237637   -1.3653057  0.042670376   -2.1237637   0.75845804   426349 
 1496000   0.61067137   -2.1244095   -2.1244095    -1.365296  0.037624648   -2.1244095   0.75911349   426349 
 1497000   0.61107378   -2.1252023   -2.1252023   -1.3655886  0.039364825   -2.1252023   0.75961371   426349 
 1498000   0.61168982   -2.1260892   -2.1260892   -1.3657097  0.047693053   -2.1260892   0.76037951   426349 
 1499000   0.61052215   -2.1251226   -2.1251226   -1.3661946  0.033688194   -2.1251226     0.758928   426349 
 1500000   0.61027339   -2.1252865   -2.1252865   -1.3666677  0.037657104   -2.1252865   0.75861877   426349 
 1501000   0.61119088   -2.1260934   -2.1260934   -1.3663341  0.034121513   -2.1260934   0.75975928   426349 
 1502000   0.61209183   -2.1272089   -2.1272089   -1.3663296  0.040523239   -2.1272089   0.76087924   426349 
 1503000   0.61173333   -2.1270105   -2.1270105   -1.3665769  0.041324712   -2.1270105   0.76043358   426349 
 1504000   0.61034403   -2.1255603   -2.1255603   -1.3668538  0.036640419   -2.1255603   0.75870657   426349 
 1505000   0.61164832   -2.1272118   -2.1272118   -1.3668839  0.044319139   -2.1272118   0.76032792   426349 
 1506000   0.61159673   -2.1272828   -2.1272828    -1.367019  0.038735018   -2.1272828   0.76026379   426349 
 1507000   0.61193988     -2.12805     -2.12805   -1.3673597  0.038845274     -2.12805   0.76069034   426349 
 1508000   0.61270655   -2.1289531   -2.1289531   -1.3673097  0.045127523   -2.1289531   0.76164337   426349 
 1509000   0.61244901   -2.1285185   -2.1285185   -1.3671952  0.046295407   -2.1285185   0.76132324   426349 
 1510000   0.61326649   -2.1298071   -2.1298071   -1.3674677  0.038111151   -2.1298071   0.76233943   426349 
 1511000   0.61327606   -2.1286707   -2.1286707   -1.3663194   0.04302224   -2.1286707   0.76235132   426349 
 1512000   0.61208036   -2.1286796   -2.1286796   -1.3678146  0.043457448   -2.1286796   0.76086498   426349 
 1513000    0.6131014   -2.1297875   -2.1297875   -1.3676533  0.034549981   -2.1297875   0.76213421   426349 
 1514000   0.61180065   -2.1289567   -2.1289567   -1.3684394  0.047452804   -2.1289567   0.76051727   426349 
 1515000   0.61121628   -2.1282893   -2.1282893   -1.3684984  0.043980358   -2.1282893   0.75979086   426349 
 1516000   0.61245951   -2.1299417   -2.1299417   -1.3686054  0.039076353   -2.1299417   0.76133629   426349 
 1517000   0.61147186   -2.1289593   -2.1289593   -1.3688507  0.049113327   -2.1289593   0.76010856   426349 
 1518000   0.61207874   -2.1295103   -2.1295103   -1.3686473  0.037422397   -2.1295103   0.76086296   426349 
 1519000   0.61139549   -2.1290425   -2.1290425   -1.3690289  0.036214717   -2.1290425   0.76001362   426349 
 1520000   0.61143843   -2.1283985   -2.1283985   -1.3683315  0.044890839   -2.1283985     0.760067   426349 
 1521000   0.61090368   -2.1287634   -2.1287634   -1.3693612  0.034518999   -2.1287634   0.75940227   426349 
 1522000   0.61073312    -2.128115    -2.128115   -1.3689247  0.038436507    -2.128115   0.75919025   426349 
 1523000   0.61122167   -2.1280892   -2.1280892   -1.3682916  0.045607113   -2.1280892   0.75979756   426349 
 1524000   0.61176102   -2.1279054   -2.1279054   -1.3674374  0.037995148   -2.1279054   0.76046801   426349 
 1525000   0.61044865   -2.1252964   -2.1252964   -1.3664598  0.041289224   -2.1252964   0.75883663   426349 
 1526000   0.61196076   -2.1274426   -2.1274426   -1.3667263    0.0417306   -2.1274426   0.76071631   426349 
 1527000   0.61148037   -2.1268038   -2.1268038   -1.3666847  0.037242011   -2.1268038   0.76011915   426349 
 1528000   0.61202871   -2.1280179   -2.1280179   -1.3672171  0.036460885   -2.1280179   0.76080077   426349 
 1529000     0.610892   -2.1260579   -2.1260579   -1.3666702  0.047822993   -2.1260579   0.75938776   426349 
 1530000   0.61227142   -2.1271549   -2.1271549   -1.3660525   0.03894106   -2.1271549   0.76110248   426349 
 1531000   0.61177984   -2.1269003   -2.1269003   -1.3664089  0.045108395   -2.1269003   0.76049141   426349 
 1532000   0.61206639   -2.1269669   -2.1269669   -1.3661193  0.040622103   -2.1269669   0.76084761   426349 
 1533000   0.61246023   -2.1273674   -2.1273674   -1.3660302  0.044959198   -2.1273674   0.76133719   426349 
 1534000   0.61168374   -2.1265315   -2.1265315   -1.3661596   0.03939455   -2.1265315   0.76037194   426349 
 1535000   0.61166434   -2.1270281   -2.1270281   -1.3666803  0.041441241   -2.1270281   0.76034782   426349 
 1536000   0.61193408   -2.1261579   -2.1261579   -1.3654747  0.043237321   -2.1261579   0.76068313   426349 
 1537000   0.61180483   -2.1269033   -2.1269033   -1.3663808  0.044796714   -2.1269033   0.76052247   426349 
 1538000   0.61024042   -2.1249266   -2.1249266   -1.3663488  0.035884007   -2.1249266   0.75857778   426349 
 1539000   0.61260888   -2.1271888   -2.1271888   -1.3656668  0.046137066   -2.1271888   0.76152197   426349 
 1540000   0.61133848   -2.1262872   -2.1262872   -1.3663445  0.041719036   -2.1262872   0.75994276   426349 
 1541000   0.61119853   -2.1257017   -2.1257017   -1.3659329  0.043432769   -2.1257017   0.75976879   426349 
 1542000   0.61117671   -2.1268709   -2.1268709   -1.3671293  0.046181949   -2.1268709   0.75974167   426349 
 1543000   0.61146917   -2.1271451   -2.1271451   -1.3670399  0.034330267   -2.1271451   0.76010522   426349 
 1544000   0.61227793   -2.1284514   -2.1284514   -1.3673409  0.041277966   -2.1284514   0.76111057   426349 
 1545000   0.61233952   -2.1289018   -2.1289018   -1.3677146  0.036570439   -2.1289018   0.76118713   426349 
 1546000   0.61197441   -2.1280094   -2.1280094   -1.3672761  0.043975096   -2.1280094   0.76073327   426349 
 1547000   0.61258616   -2.1290375   -2.1290375   -1.3675438  0.044739414   -2.1290375   0.76149372   426349 
 1548000   0.61194385   -2.1290288   -2.1290288   -1.3683336   0.03334095   -2.1290288   0.76069528   426349 
 1549000   0.61091309    -2.127703    -2.127703    -1.368289  0.043847597    -2.127703   0.75941397   426349 
 1550000   0.61136479    -2.127615    -2.127615   -1.3676396  0.042043654    -2.127615   0.75997547   426349 
 1551000    0.6117889   -2.1290494   -2.1290494   -1.3685468  0.042973844   -2.1290494   0.76050267   426349 
 1552000    0.6119541   -2.1293549   -2.1293549   -1.3686469  0.046108854   -2.1293549   0.76070802   426349 
 1553000   0.61194931   -2.1289413   -2.1289413   -1.3682392  0.034901203   -2.1289413   0.76070207   426349 
 1554000   0.61154291   -2.1287525   -2.1287525   -1.3685556  0.038274293   -2.1287525   0.76019688   426349 
 1555000   0.61121301   -2.1277369   -2.1277369   -1.3679501   0.05177691   -2.1277369   0.75978679   426349 
 1556000   0.61150725   -2.1281743   -2.1281743   -1.3680218  0.036099186   -2.1281743   0.76015255   426349 
 1557000   0.61157804   -2.1292064   -2.1292064   -1.3689658  0.043958723   -2.1292064   0.76024055   426349 
 1558000    0.6118819     -2.12926     -2.12926   -1.3686418  0.039721039     -2.12926   0.76061828   426349 
 1559000   0.61169754   -2.1292902   -2.1292902   -1.3689011  0.041506928   -2.1292902    0.7603891   426349 
 1560000   0.61081215   -2.1282877   -2.1282877   -1.3689992  0.046664156   -2.1282877   0.75928849   426349 
 1561000   0.61033915   -2.1276677   -2.1276677   -1.3689671  0.040347291   -2.1276677   0.75870051   426349 
 1562000   0.61216211   -2.1295504   -2.1295504   -1.3685838  0.043257702   -2.1295504    0.7609666   426349 
 1563000   0.61046617   -2.1279033   -2.1279033   -1.3690449  0.052754891   -2.1279033    0.7588584   426349 
 1564000   0.61118764   -2.1289092   -2.1289092    -1.369154  0.043132982   -2.1289092   0.75975525   426349 
 1565000   0.61090785   -2.1285299   -2.1285299   -1.3691224   0.04158401   -2.1285299   0.75940746   426349 
 1566000    0.6116809   -2.1299794   -2.1299794    -1.369611  0.036229323   -2.1299794   0.76036842   426349 
 1567000   0.61168061   -2.1290523   -2.1290523   -1.3686843  0.040333611   -2.1290523   0.76036805   426349 
 1568000   0.61259125   -2.1293945   -2.1293945   -1.3678945  0.036579058   -2.1293945   0.76150006   426349 
 1569000    0.6119076   -2.1285888   -2.1285888   -1.3679386  0.039332094   -2.1285888   0.76065023   426349 
 1570000   0.61148948   -2.1281692   -2.1281692   -1.3680387  0.039338881   -2.1281692   0.76013046   426349 
 1571000   0.61179677   -2.1294612   -2.1294612   -1.3689487  0.039029329   -2.1294612   0.76051245   426349 
 1572000   0.61201289   -2.1290268   -2.1290268   -1.3682457   0.03774542   -2.1290268   0.76078111   426349 
 1573000   0.61143106   -2.1285398   -2.1285398   -1.3684819  0.038994591   -2.1285398   0.76005785   426349 
 1574000   0.61149136   -2.1284206   -2.1284206   -1.3682878  0.042509079   -2.1284206   0.76013281   426349 
 1575000   0.61052957   -2.1277189   -2.1277189   -1.3687817  0.053375805   -2.1277189   0.75893722   426349 
 1576000   0.61193461   -2.1299834   -2.1299834   -1.3692997  0.037182473   -2.1299834    0.7606838   426349 
 1577000   0.61118501   -2.1297538   -2.1297538   -1.3700018  0.044809204   -2.1297538   0.75975198   426349 
 1578000   0.61133416   -2.1292992   -2.1292992   -1.3693618  0.038019056   -2.1292992   0.75993739   426349 
 1579000   0.61064262   -2.1285743   -2.1285743   -1.3694965  0.037682199   -2.1285743   0.75907775   426349 
 1580000    0.6108402   -2.1288748   -2.1288748   -1.3695515  0.039029199   -2.1288748   0.75932336   426349 
 1581000   0.61131331   -2.1291361   -2.1291361   -1.3692247  0.042450638   -2.1291361   0.75991147   426349 
 1582000   0.61135669   -2.1299811   -2.1299811   -1.3700157  0.044406989   -2.1299811    0.7599654   426349 
 1583000   0.61319615   -2.1315218   -2.1315218   -1.3692698  0.041017221   -2.1315218   0.76225199   426349 
 1584000   0.61362293    -2.131921    -2.131921   -1.3691385  0.044972476    -2.131921   0.76278252   426349 
 1585000   0.61135462   -2.1292781   -2.1292781   -1.3693153  0.047192738   -2.1292781   0.75996282   426349 
 1586000   0.61281546    -2.131023    -2.131023   -1.3692443  0.043012665    -2.131023   0.76177877   426349 
 1587000   0.61241221   -2.1305133   -2.1305133   -1.3692358  0.032270843   -2.1305133   0.76127749   426349 
 1588000   0.61238456   -2.1311773   -2.1311773   -1.3699342  0.038933896   -2.1311773   0.76124312   426349 
 1589000   0.61247762    -2.131362    -2.131362   -1.3700032  0.044912063    -2.131362   0.76135881   426349 
 1590000   0.61249306   -2.1319549   -2.1319549   -1.3705769  0.042226636   -2.1319549   0.76137799   426349 
 1591000   0.61118481   -2.1302221   -2.1302221   -1.3704704  0.043983912   -2.1302221   0.75975173   426349 
 1592000   0.61144092   -2.1308071   -2.1308071    -1.370737  0.043554928   -2.1308071    0.7600701   426349 
 1593000   0.61126094   -2.1307764   -2.1307764     -1.37093  0.043232294   -2.1307764   0.75984637   426349 
 1594000   0.61107591   -2.1309918   -2.1309918   -1.3713755  0.035327879   -2.1309918   0.75961636   426349 
 1595000   0.61102819   -2.1300226   -2.1300226   -1.3704655  0.044344262   -2.1300226   0.75955705   426349 
 1596000    0.6113526   -2.1301725   -2.1301725   -1.3702122  0.038881263   -2.1301725   0.75996032   426349 
 1597000   0.61246064   -2.1319202   -2.1319202   -1.3705825  0.040731266   -2.1319202   0.76133769   426349 
 1598000    0.6108335   -2.1304247   -2.1304247   -1.3711096  0.036810799   -2.1304247   0.75931503   426349 
 1599000   0.61297242    -2.132313    -2.132313   -1.3703391  0.035940525    -2.132313   0.76197388   426349 
 1600000   0.61136969   -2.1308394   -2.1308394   -1.3708578  0.041389234   -2.1308394   0.75998155   426349 
 1601000   0.61067152   -2.1301578   -2.1301578   -1.3710441  0.045752977   -2.1301578   0.75911367   426349 
 1602000    0.6100139   -2.1284045   -2.1284045   -1.3701083  0.037170854   -2.1284045    0.7582962   426349 
 1603000   0.61096748   -2.1301817   -2.1301817   -1.3707001  0.038169888   -2.1301817   0.75948157   426349 
 1604000   0.61076265    -2.129468    -2.129468    -1.370241   0.03770557    -2.129468   0.75922695   426349 
 1605000   0.61120006   -2.1307526   -2.1307526   -1.3709819  0.037509571   -2.1307526   0.75977069   426349 
 1606000    0.6101619   -2.1299378   -2.1299378   -1.3714576  0.038298625   -2.1299378   0.75848017   426349 
 1607000   0.60999482   -2.1288186   -2.1288186   -1.3705461  0.042718521   -2.1288186   0.75827248   426349 
 1608000    0.6112943   -2.1305208   -2.1305208    -1.370633  0.041020334   -2.1305208   0.75988784   426349 
 1609000   0.61062851   -2.1306566   -2.1306566   -1.3715964  0.042192374   -2.1306566   0.75906021   426349 
 1610000   0.61110984    -2.130477    -2.130477   -1.3708185  0.041510538    -2.130477   0.75965854   426349 
 1611000   0.61122375   -2.1307009   -2.1307009   -1.3709008  0.038796457   -2.1307009   0.75980014   426349 
 1612000   0.61154791   -2.1303258   -2.1303258   -1.3701227  0.039958529   -2.1303258    0.7602031   426349 
 1613000   0.61156643   -2.1309058   -2.1309058   -1.3706796  0.045392434   -2.1309058   0.76022612   426349 
 1614000    0.6115974   -2.1308899   -2.1308899   -1.3706252  0.039651581   -2.1308899   0.76026462   426349 
 1615000   0.61133272   -2.1306904   -2.1306904   -1.3707548  0.038940541   -2.1306904    0.7599356   426349 
 1616000     0.610525   -2.1296253   -2.1296253   -1.3706937  0.042174966   -2.1296253   0.75893154   426349 
 1617000   0.61088465   -2.1302647   -2.1302647   -1.3708861  0.046085786   -2.1302647   0.75937861   426349 
 1618000   0.61068509   -2.1302334   -2.1302334   -1.3711028  0.035519847   -2.1302334   0.75913055   426349 
 1619000   0.61101249   -2.1313089   -2.1313089   -1.3717714  0.040254762   -2.1313089   0.75953752   426349 
 1620000   0.61187669   -2.1317914   -2.1317914   -1.3711796   0.04047494   -2.1317914    0.7606118   426349 
 1621000   0.61130521   -2.1312639   -2.1312639   -1.3713625  0.038514216   -2.1312639    0.7599014   426349 
 1622000   0.61169047   -2.1315046   -2.1315046   -1.3711243  0.037248594   -2.1315046   0.76038031   426349 
 1623000   0.61114863   -2.1301356   -2.1301356   -1.3704288  0.042048062   -2.1301356   0.75970676   426349 
 1624000   0.61187208   -2.1310393   -2.1310393   -1.3704332  0.037555483   -2.1310393   0.76060606   426349 
 1625000   0.61175218   -2.1316282   -2.1316282   -1.3711712    0.0396335   -2.1316282   0.76045702   426349 
 1626000   0.61166588   -2.1308688   -2.1308688   -1.3705191  0.036917179   -2.1308688   0.76034974   426349 
 1627000   0.61088773   -2.1303591   -2.1303591   -1.3709766  0.045938835   -2.1303591   0.75938244   426349 
 1628000    0.6115888   -2.1315984   -2.1315984   -1.3713445  0.037917165   -2.1315984   0.76025393   426349 
 1629000   0.61166664   -2.1315009   -2.1315009   -1.3711502  0.040755719   -2.1315009   0.76035069   426349 
 1630000   0.61093946   -2.1315437   -2.1315437   -1.3720969  0.042203804   -2.1315437   0.75944674   426349 
 1631000    0.6106174   -2.1313273   -2.1313273   -1.3722809  0.040522027   -2.1313273    0.7590464   426349 
 1632000   0.61269634   -2.1327588   -2.1327588   -1.3711281  0.040540509   -2.1327588   0.76163068   426349 
 1633000   0.61129096   -2.1314279   -2.1314279   -1.3715443  0.043359542   -2.1314279   0.75988369   426349 
 1634000   0.61141559    -2.131227    -2.131227   -1.3711883  0.042644534    -2.131227   0.76003862   426349 
 1635000   0.61187697   -2.1311688   -2.1311688   -1.3705566  0.035931178   -2.1311688   0.76061214   426349 
 1636000   0.61120662   -2.1313131   -2.1313131   -1.3715343  0.047821475   -2.1313131   0.75977885   426349 
 1637000   0.61034449    -2.131563    -2.131563   -1.3728558  0.044122823    -2.131563   0.75870715   426349 
 1638000   0.61222597   -2.1335553   -2.1335553   -1.3725093  0.045994932   -2.1335553   0.76104598   426349 
 1639000   0.61155732   -2.1321967   -2.1321967   -1.3719819  0.035575699   -2.1321967   0.76021479   426349 
 1640000   0.61091475   -2.1309005   -2.1309005   -1.3714845  0.037447061   -2.1309005   0.75941603   426349 
 1641000   0.61142588   -2.1321561   -2.1321561   -1.3721047  0.039614578   -2.1321561    0.7600514   426349 
 1642000   0.61018874   -2.1308255   -2.1308255    -1.372312  0.041631114   -2.1308255   0.75851354   426349 
 1643000   0.61043588   -2.1305506   -2.1305506   -1.3717299  0.037579085   -2.1305506   0.75882076   426349 
 1644000    0.6114434   -2.1313356   -2.1313356   -1.3712624  0.039210944   -2.1313356   0.76007318   426349 
 1645000    0.6100557   -2.1306135   -2.1306135   -1.3722654  0.039163173   -2.1306135   0.75834817   426349 
 1646000   0.61059188   -2.1310997   -2.1310997    -1.372085  0.037717763   -2.1310997   0.75901467   426349 
 1647000    0.6110729   -2.1319973   -2.1319973   -1.3723846  0.042715094   -2.1319973   0.75961262   426349 
 1648000   0.61162341   -2.1330865   -2.1330865   -1.3727896  0.039039947   -2.1330865   0.76029695   426349 
 1649000   0.61014694   -2.1308019   -2.1308019   -1.3723403  0.040306467   -2.1308019   0.75846157   426349 
 1650000   0.61087004   -2.1318191   -2.1318191   -1.3724587  0.036622862   -2.1318191   0.75936045   426349 
 1651000   0.61062272   -2.1316594   -2.1316594   -1.3726064  0.042126498   -2.1316594   0.75905301   426349 
 1652000   0.61052533    -2.131744    -2.131744    -1.372812  0.040125756    -2.131744   0.75893194   426349 
 1653000   0.61132919   -2.1325147   -2.1325147   -1.3725835  0.037473381   -2.1325147   0.75993122   426349 
 1654000   0.61063112   -2.1326024   -2.1326024   -1.3735389  0.034447124   -2.1326024   0.75906346   426349 
 1655000   0.61134759   -2.1335965   -2.1335965   -1.3736424  0.039440102   -2.1335965   0.75995408   426349 
 1656000   0.61130384    -2.133186    -2.133186   -1.3732863  0.031654068    -2.133186    0.7598997   426349 
 1657000   0.61148668   -2.1329362   -2.1329362   -1.3728092  0.048570389   -2.1329362   0.76012699   426349 
 1658000   0.61198874   -2.1336536   -2.1336536   -1.3729025  0.047380615   -2.1336536   0.76075108   426349 
 1659000   0.61151014   -2.1328687   -2.1328687   -1.3727125  0.042582323   -2.1328687   0.76015615   426349 
 1660000   0.61091847   -2.1319545   -2.1319545   -1.3725338  0.044810511   -2.1319545   0.75942066   426349 
 1661000   0.61059862   -2.1320926   -2.1320926   -1.3730696  0.044124687   -2.1320926   0.75902306   426349 
 1662000   0.61162962   -2.1326013   -2.1326013   -1.3722966  0.046232518   -2.1326013   0.76030468   426349 
 1663000   0.61241497   -2.1337129   -2.1337129    -1.372432  0.046569767   -2.1337129   0.76128092   426349 
 1664000   0.61190837   -2.1333939   -2.1333939   -1.3727427  0.039940424   -2.1333939   0.76065117   426349 
 1665000   0.61207277   -2.1330326   -2.1330326    -1.372177  0.051926052   -2.1330326   0.76085554   426349 
 1666000   0.61186922   -2.1328078   -2.1328078   -1.3722053  0.034225789   -2.1328078   0.76060251   426349 
 1667000    0.6114718   -2.1326093   -2.1326093   -1.3725008  0.039312814   -2.1326093   0.76010848   426349 
 1668000   0.61091933   -2.1326022   -2.1326022   -1.3731804  0.042456278   -2.1326022   0.75942172   426349 
 1669000   0.61135562   -2.1327753   -2.1327753   -1.3728113  0.038719447   -2.1327753   0.75996407   426349 
 1670000   0.61100926   -2.1322135   -2.1322135   -1.3726799  0.034340507   -2.1322135   0.75953352   426349 
 1671000   0.61019502   -2.1318636   -2.1318636   -1.3733422  0.036033254   -2.1318636   0.75852135   426349 
 1672000   0.60841203    -2.130576    -2.130576   -1.3742711  0.032758086    -2.130576   0.75630494   426349 
 1673000   0.61034962   -2.1325142   -2.1325142   -1.3738007  0.035990777   -2.1325142   0.75871353   426349 
 1674000   0.61128886   -2.1325955   -2.1325955   -1.3727144  0.034926893   -2.1325955   0.75988108   426349 
 1675000   0.61127661   -2.1328685   -2.1328685   -1.3730026  0.040987735   -2.1328685   0.75986585   426349 
 1676000   0.61020977   -2.1317983   -2.1317983   -1.3732586  0.042985331   -2.1317983   0.75853968   426349 
 1677000     0.610821   -2.1326108   -2.1326108   -1.3733113  0.035011539   -2.1326108   0.75929949   426349 
 1678000   0.61184391   -2.1333888   -2.1333888   -1.3728178   0.03656588   -2.1333888   0.76057105   426349 
 1679000   0.60952785   -2.1305665   -2.1305665   -1.3728745  0.033700301   -2.1305665   0.75769201   426349 
 1680000   0.61071265   -2.1328132   -2.1328132   -1.3736484  0.043261265   -2.1328132   0.75916481   426349 
 1681000   0.61073101   -2.1327533   -2.1327533   -1.3735657  0.037240922   -2.1327533   0.75918762   426349 
 1682000   0.61037425   -2.1320724   -2.1320724   -1.3733282  0.046443662   -2.1320724   0.75874415   426349 
 1683000   0.61084607   -2.1325552   -2.1325552   -1.3732245  0.042643135   -2.1325552   0.75933065   426349 
 1684000   0.61120989   -2.1330379   -2.1330379    -1.373255  0.042564909   -2.1330379   0.75978292   426349 
 1685000   0.61094914   -2.1330644   -2.1330644   -1.3736056  0.034697575   -2.1330644   0.75945878   426349 
 1686000   0.61044774   -2.1325885   -2.1325885    -1.373753  0.042208309   -2.1325885    0.7588355   426349 
 1687000   0.61122485   -2.1344594   -2.1344594   -1.3746579   0.03379577   -2.1344594   0.75980151   426349 
 1688000    0.6110196    -2.132695    -2.132695   -1.3731486  0.038236335    -2.132695   0.75954636   426349 
 1689000    0.6120721   -2.1340859   -2.1340859   -1.3732312  0.041722304   -2.1340859    0.7608547   426349 
 1690000   0.61227718   -2.1341967   -2.1341967    -1.373087  0.046486165   -2.1341967   0.76110964   426349 
 1691000   0.61124032    -2.132955    -2.132955   -1.3731343  0.046900899    -2.132955   0.75982074   426349 
 1692000   0.61210705   -2.1343546   -2.1343546   -1.3734564  0.042387751   -2.1343546   0.76089815   426349 
 1693000   0.61026023   -2.1325128   -2.1325128   -1.3739104  0.039456057   -2.1325128    0.7586024   426349 
 1694000   0.61049293   -2.1327792   -2.1327792   -1.3738875  0.038388836   -2.1327792   0.75889167   426349 
 1695000   0.61102981   -2.1337327   -2.1337327   -1.3741737   0.03923506   -2.1337327   0.75955906   426349 
 1696000   0.61101795   -2.1340381   -2.1340381   -1.3744938  0.044145609   -2.1340381   0.75954431   426349 
 1697000   0.61051126   -2.1335078   -2.1335078   -1.3745933  0.033961909   -2.1335078   0.75891446   426349 
 1698000   0.61155241   -2.1342182   -2.1342182   -1.3740095  0.044388044   -2.1342182   0.76020869   426349 
 1699000   0.61063185   -2.1326973   -2.1326973    -1.373633  0.044592925   -2.1326973   0.75906436   426349 
 1700000   0.61026392   -2.1316823   -2.1316823   -1.3730753  0.044634998   -2.1316823     0.758607   426349 
 1701000   0.61076867   -2.1323965   -2.1323965   -1.3731621  0.036564988   -2.1323965   0.75923444   426349 
 1702000   0.61033348     -2.13157     -2.13157   -1.3728765  0.041207377     -2.13157   0.75869346   426349 
 1703000   0.61123596   -2.1324336   -2.1324336   -1.3726183   0.04309632   -2.1324336   0.75981532   426349 
 1704000   0.61137024   -2.1329231   -2.1329231   -1.3729408   0.04255174   -2.1329231   0.75998224   426349 
 1705000   0.61083163   -2.1326856   -2.1326856   -1.3733729  0.035092885   -2.1326856    0.7593127   426349 
 1706000   0.61151162    -2.133857    -2.133857    -1.373699  0.038796753    -2.133857   0.76015799   426349 
 1707000   0.61057245   -2.1327425   -2.1327425    -1.373752  0.035880808   -2.1327425   0.75899053   426349 
 1708000   0.61034907   -2.1323716   -2.1323716   -1.3736588  0.042320138   -2.1323716   0.75871285   426349 
 1709000   0.61003804   -2.1324817   -2.1324817   -1.3741555   0.03543165   -2.1324817   0.75832621   426349 
 1710000   0.61013901   -2.1331493   -2.1331493   -1.3746976  0.036109981   -2.1331493   0.75845172   426349 
 1711000   0.60958376   -2.1333745   -2.1333745    -1.375613  0.042968173   -2.1333745    0.7577615   426349 
 1712000   0.61026393   -2.1341986   -2.1341986   -1.3755916  0.039248164   -2.1341986     0.758607   426349 
 1713000   0.61026289   -2.1335939   -2.1335939   -1.3749882  0.041981041   -2.1335939   0.75860571   426349 
 1714000   0.61145074   -2.1355954   -2.1355954   -1.3755131  0.035695871   -2.1355954   0.76008231   426349 
 1715000   0.61115819   -2.1359178   -2.1359178   -1.3761992    0.0386923   -2.1359178   0.75971865   426349 
 1716000   0.60910186   -2.1329705   -2.1329705    -1.375808  0.039927336   -2.1329705   0.75716246   426349 
 1717000   0.60938032   -2.1333801   -2.1333801   -1.3758715  0.038783475   -2.1333801   0.75750861   426349 
 1718000   0.60960117   -2.1329757   -2.1329757   -1.3751926  0.037585892   -2.1329757   0.75778314   426349 
 1719000   0.61031718   -2.1338625   -2.1338625   -1.3751893  0.042439354   -2.1338625   0.75867321   426349 
 1720000   0.61100681   -2.1346624   -2.1346624   -1.3751319  0.043170248   -2.1346624   0.75953047   426349 
 1721000   0.61166796   -2.1356891   -2.1356891   -1.3753368  0.037464188   -2.1356891   0.76035233   426349 
 1722000   0.61142922   -2.1348677   -2.1348677   -1.3748121  0.047661484   -2.1348677   0.76005555   426349 
 1723000   0.61097548   -2.1345551   -2.1345551   -1.3750635  0.037668074   -2.1345551   0.75949153   426349 
 1724000   0.61086763   -2.1355538   -2.1355538   -1.3761963  0.041365435   -2.1355538   0.75935745   426349 
 1725000    0.6110285   -2.1359136   -2.1359136   -1.3763562  0.041222229   -2.1359136   0.75955742   426349 
 1726000    0.6107375   -2.1360834   -2.1360834   -1.3768877   0.03243523   -2.1360834    0.7591957   426349 
 1727000   0.61102359   -2.1366451   -2.1366451   -1.3770937  0.042885526   -2.1366451   0.75955132   426349 
 1728000   0.61176852   -2.1369518   -2.1369518   -1.3764745  0.038963294   -2.1369518   0.76047733   426349 
 1729000   0.61135641   -2.1363222   -2.1363222   -1.3763572  0.040304886   -2.1363222   0.75996505   426349 
 1730000   0.61162162   -2.1370726   -2.1370726   -1.3767779  0.040612197   -2.1370726   0.76029473   426349 
 1731000   0.61133978   -2.1368053   -2.1368053   -1.3768609  0.041832973   -2.1368053   0.75994438   426349 
 1732000   0.61106202   -2.1358224   -2.1358224   -1.3762233  0.039714291   -2.1358224    0.7595991   426349 
 1733000   0.61084222   -2.1355487   -2.1355487   -1.3762228  0.043064002   -2.1355487   0.75932587   426349 
 1734000   0.60921543    -2.134136    -2.134136   -1.3768324  0.037805312    -2.134136   0.75730364   426349 
 1735000   0.60962603    -2.135478    -2.135478    -1.377664  0.041583533    -2.135478   0.75781405   426349 
 1736000   0.61080099   -2.1364738   -2.1364738   -1.3771991   0.03814139   -2.1364738   0.75927462   426349 
 1737000   0.61069792   -2.1346877   -2.1346877   -1.3755412  0.043607957   -2.1346877   0.75914649   426349 
 1738000   0.61026275   -2.1353914   -2.1353914   -1.3767859  0.037618655   -2.1353914   0.75860554   426349 
 1739000   0.61055628   -2.1345599   -2.1345599   -1.3755894   0.03699812   -2.1345599   0.75897042   426349 
 1740000    0.6110102   -2.1347984   -2.1347984   -1.3752637  0.037123146   -2.1347984   0.75953468   426349 
 1741000   0.61257458   -2.1367139   -2.1367139   -1.3752345  0.036999239   -2.1367139   0.76147933   426349 
 1742000   0.61153515   -2.1350811   -2.1350811   -1.3748939  0.041805681   -2.1350811   0.76018724   426349 
 1743000   0.61103718   -2.1344502   -2.1344502    -1.374882  0.040242085   -2.1344502   0.75956822   426349 
 1744000    0.6105307    -2.134071    -2.134071   -1.3751323  0.044194374    -2.134071   0.75893863   426349 
 1745000   0.60966705   -2.1327524   -2.1327524   -1.3748873   0.04178236   -2.1327524   0.75786504   426349 
 1746000   0.61008951   -2.1338034   -2.1338034   -1.3754133  0.042737735   -2.1338034   0.75839019   426349 
 1747000   0.61163562   -2.1354475   -2.1354475   -1.3751354  0.037410014   -2.1354475   0.76031213   426349 
 1748000   0.61026953   -2.1342064   -2.1342064   -1.3755925  0.033675135   -2.1342064   0.75861397   426349 
 1749000   0.61077168   -2.1339397   -2.1339397   -1.3747015  0.040987144   -2.1339397   0.75923819   426349 
 1750000   0.61144507   -2.1349814   -2.1349814   -1.3749061    0.0488311   -2.1349814   0.76007525   426349 
 1751000   0.61051743   -2.1338853   -2.1338853   -1.3749632  0.038085915   -2.1338853   0.75892213   426349 
 1752000   0.61122818   -2.1351297   -2.1351297    -1.375324  0.045448986   -2.1351297   0.75980565   426349 
 1753000   0.61012569    -2.133509    -2.133509   -1.3750739  0.040422401    -2.133509   0.75843516   426349 
 1754000   0.61067712   -2.1345198   -2.1345198   -1.3753992  0.038284632   -2.1345198   0.75912063   426349 
 1755000   0.61022614   -2.1351529   -2.1351529   -1.3765928  0.044672158   -2.1351529   0.75856003   426349 
 1756000   0.61095289    -2.135671    -2.135671   -1.3762076  0.040871801    -2.135671   0.75946345   426349 
 1757000   0.61127247   -2.1353749   -2.1353749   -1.3755142  0.045328005   -2.1353749   0.75986071   426349 
 1758000   0.60995446   -2.1348328   -2.1348328   -1.3766105  0.038192592   -2.1348328   0.75822232   426349 
 1759000   0.61150946   -2.1363086   -2.1363086   -1.3761533  0.035987924   -2.1363086    0.7601553   426349 
 1760000   0.61167543   -2.1353271   -2.1353271   -1.3749655  0.044877466   -2.1353271   0.76036162   426349 
 1761000   0.61035473   -2.1345447   -2.1345447   -1.3758248  0.041102603   -2.1345447   0.75871988   426349 
 1762000   0.61093561   -2.1351266   -2.1351266   -1.3756846  0.035948468   -2.1351266   0.75944196   426349 
 1763000   0.61192947   -2.1358792   -2.1358792   -1.3752018  0.037749633   -2.1358792   0.76067741   426349 
 1764000   0.61062965   -2.1353025   -2.1353025   -1.3762409  0.040483061   -2.1353025   0.75906163   426349 
 1765000   0.61127153   -2.1363701   -2.1363701   -1.3765106   0.04009304   -2.1363701   0.75985953   426349 
 1766000   0.61092568   -2.1360538   -2.1360538   -1.3766242  0.046704826   -2.1360538   0.75942962   426349 
 1767000   0.60979824   -2.1357096   -2.1357096   -1.3776814  0.041680872   -2.1357096   0.75802812   426349 
 1768000    0.6102459   -2.1368865   -2.1368865   -1.3783019  0.038331956   -2.1368865    0.7585846   426349 
 1769000   0.61041295   -2.1375156   -2.1375156   -1.3787233  0.043182626   -2.1375156   0.75879225   426349 
 1770000   0.60901165   -2.1364527   -2.1364527   -1.3794023  0.039095795   -2.1364527   0.75705032   426349 
 1771000   0.60993746    -2.137273    -2.137273   -1.3790718  0.043027984    -2.137273   0.75820118   426349 
 1772000   0.61002511   -2.1365621   -2.1365621    -1.378252   0.03426524   -2.1365621   0.75831014   426349 
 1773000    0.6095101   -2.1360638   -2.1360638   -1.3783939  0.043265775   -2.1360638   0.75766993   426349 
 1774000   0.60975184   -2.1360034   -2.1360034   -1.3780329  0.031755837   -2.1360034   0.75797044   426349 
 1775000   0.61016082   -2.1359751   -2.1359751   -1.3774963  0.042533252   -2.1359751   0.75847883   426349 
 1776000   0.61069167   -2.1364062   -2.1364062   -1.3772675   0.04329235   -2.1364062   0.75913872   426349 
 1777000   0.61073215   -2.1373227   -2.1373227   -1.3781337  0.049172709   -2.1373227   0.75918904   426349 
 1778000   0.61114019   -2.1382609   -2.1382609   -1.3785647  0.044111164   -2.1382609   0.75969627   426349 
 1779000   0.61115632   -2.1381413   -2.1381413    -1.378425  0.038485927   -2.1381413   0.75971633   426349 
 1780000   0.61026753   -2.1372688   -2.1372688   -1.3786573  0.046259511   -2.1372688   0.75861149   426349 
 1781000   0.61141707   -2.1384457   -2.1384457   -1.3784052  0.036838085   -2.1384457   0.76004046   426349 
 1782000   0.61037202   -2.1371987   -2.1371987   -1.3784573  0.045840692   -2.1371987   0.75874137   426349 
 1783000   0.61174065   -2.1394226   -2.1394226   -1.3789799  0.037821003   -2.1394226   0.76044269   426349 
 1784000   0.61050522   -2.1379706   -2.1379706   -1.3790637   0.04343171   -2.1379706   0.75890695   426349 
 1785000   0.61018418   -2.1374797   -2.1374797   -1.3789719  0.041520437   -2.1374797   0.75850788   426349 
 1786000   0.61137806   -2.1382019   -2.1382019     -1.37821  0.045138536   -2.1382019   0.75999196   426349 
 1787000   0.61086501   -2.1378376   -2.1378376   -1.3784834  0.038419086   -2.1378376   0.75935419   426349 
 1788000   0.61050281   -2.1374236   -2.1374236   -1.3785196  0.042200502   -2.1374236   0.75890395   426349 
 1789000     0.610974   -2.1381128   -2.1381128   -1.3786231  0.041777872   -2.1381128   0.75948968   426349 
 1790000   0.60975632   -2.1371553   -2.1371553   -1.3791793  0.034973101   -2.1371553     0.757976   426349 
 1791000   0.61051002   -2.1378693   -2.1378693   -1.3789564  0.039616609   -2.1378693   0.75891292   426349 
 1792000   0.60958142    -2.136771    -2.136771   -1.3790124  0.041738416    -2.136771    0.7577586   426349 
 1793000   0.60945832   -2.1364385   -2.1364385   -1.3788329  0.036631762   -2.1364385   0.75760557   426349 
 1794000   0.60902943   -2.1362539   -2.1362539   -1.3791815  0.036651591   -2.1362539   0.75707243   426349 
 1795000   0.60997413   -2.1375427   -2.1375427    -1.379296  0.034259781   -2.1375427   0.75824676   426349 
 1796000   0.60871442   -2.1360308   -2.1360308     -1.37935  0.039641496   -2.1360308   0.75668084   426349 
 1797000   0.60916668   -2.1359753   -2.1359753   -1.3787323  0.033622247   -2.1359753   0.75724304   426349 
 1798000   0.60955408   -2.1367363   -2.1367363   -1.3790117  0.032485989   -2.1367363    0.7577246   426349 
 1799000   0.60968337   -2.1370977   -2.1370977   -1.3792123  0.045630324   -2.1370977   0.75788533   426349 
 1800000   0.61024197   -2.1371213   -2.1371213   -1.3785416  0.041942484   -2.1371213   0.75857972   426349 
 1801000   0.61146613   -2.1385084   -2.1385084   -1.3784069  0.036674321   -2.1385084   0.76010144   426349 
 1802000   0.61030513   -2.1381262   -2.1381262    -1.379468  0.037967022   -2.1381262   0.75865822   426349 
 1803000   0.61156103   -2.1393766   -2.1393766   -1.3791572  0.038033324   -2.1393766   0.76021941   426349 
 1804000    0.6123615   -2.1401001   -2.1401001   -1.3788856  0.038490761   -2.1401001   0.76121445   426349 
 1805000   0.61008968   -2.1379212   -2.1379212   -1.3795308   0.04546273   -2.1379212    0.7583904   426349 
 1806000   0.60955301   -2.1370321   -2.1370321   -1.3793088  0.043783175   -2.1370321   0.75772328   426349 
 1807000   0.61044279   -2.1388664   -2.1388664    -1.380037  0.040342068   -2.1388664   0.75882935   426349 
 1808000   0.61116937   -2.1391997   -2.1391997   -1.3794672  0.048487414   -2.1391997   0.75973255   426349 
 1809000   0.61211237   -2.1400057   -2.1400057   -1.3791009  0.043832948   -2.1400057   0.76090477   426349 
 1810000   0.61069083   -2.1387376   -2.1387376      -1.3796  0.043627166   -2.1387376   0.75913768   426349 
 1811000   0.61111875   -2.1391831   -2.1391831   -1.3795134  0.039281129   -2.1391831   0.75966962   426349 
 1812000   0.61064692   -2.1384491   -2.1384491    -1.379366  0.040349731   -2.1384491    0.7590831   426349 
 1813000   0.61066776    -2.139307    -2.139307    -1.380198  0.035504206    -2.139307     0.759109   426349 
 1814000   0.61047143   -2.1390453   -2.1390453   -1.3801803  0.043369229   -2.1390453   0.75886494   426349 
 1815000   0.60994266   -2.1380846   -2.1380846    -1.379877   0.04334322   -2.1380846   0.75820764   426349 
 1816000    0.6112156   -2.1396893   -2.1396893   -1.3798993  0.041353624   -2.1396893   0.75979002   426349 
 1817000   0.61099241   -2.1400786   -2.1400786   -1.3805661  0.042744721   -2.1400786   0.75951257   426349 
 1818000   0.61016298   -2.1385722   -2.1385722   -1.3800907  0.038461124   -2.1385722   0.75848152   426349 
 1819000   0.61071767   -2.1391552   -2.1391552   -1.3799841  0.045009345   -2.1391552   0.75917104   426349 
 1820000   0.61049614   -2.1399233   -2.1399233   -1.3810276  0.040698185   -2.1399233   0.75889566   426349 
 1821000   0.60954522   -2.1388499   -2.1388499   -1.3811363  0.042676913   -2.1388499   0.75771359   426349 
 1822000   0.61006343   -2.1390764   -2.1390764   -1.3807187  0.033953336   -2.1390764   0.75835777   426349 
 1823000   0.60996201   -2.1386664   -2.1386664   -1.3804347  0.042645895   -2.1386664   0.75823169   426349 
 1824000   0.61053574    -2.139397    -2.139397   -1.3804521  0.039450055    -2.139397   0.75894488   426349 
 1825000   0.61147802   -2.1402351   -2.1402351   -1.3801189   0.03922452   -2.1402351   0.76011622   426349 
 1826000   0.61131951   -2.1392456   -2.1392456   -1.3793264  0.040299312   -2.1392456   0.75991918   426349 
 1827000    0.6099176   -2.1383758   -2.1383758   -1.3801993  0.038445777   -2.1383758   0.75817649   426349 
 1828000    0.6098278   -2.1378568   -2.1378568    -1.379792  0.041572249   -2.1378568   0.75806487   426349 
 1829000   0.61081864   -2.1397179   -2.1397179   -1.3804213  0.031233412   -2.1397179   0.75929656   426349 
 1830000   0.60931183   -2.1377675   -2.1377675    -1.380344  0.036204022   -2.1377675   0.75742347   426349 
 1831000    0.6099043   -2.1390029   -2.1390029    -1.380843   0.03589851   -2.1390029   0.75815995   426349 
 1832000   0.60942874   -2.1383565   -2.1383565   -1.3807877  0.040135767   -2.1383565    0.7575688   426349 
 1833000     0.610661   -2.1396231   -2.1396231   -1.3805225  0.038566718   -2.1396231   0.75910059   426349 
 1834000   0.60951257   -2.1383086   -2.1383086   -1.3806356  0.038244425   -2.1383086     0.757673   426349 
 1835000   0.60978193   -2.1386342   -2.1386342   -1.3806264  0.040770525   -2.1386342   0.75800785   426349 
 1836000   0.60938769   -2.1378872   -2.1378872   -1.3803694  0.043216534   -2.1378872   0.75751777   426349 
 1837000   0.61070902   -2.1395214   -2.1395214   -1.3803611  0.034879031   -2.1395214    0.7591603   426349 
 1838000   0.61054052   -2.1391431   -2.1391431   -1.3801922  0.042725425   -2.1391431   0.75895083   426349 
 1839000   0.61077481   -2.1391514   -2.1391514   -1.3799094  0.038701248   -2.1391514   0.75924207   426349 
 1840000   0.61001119   -2.1384663   -2.1384663   -1.3801735  0.040934677   -2.1384663   0.75829283   426349 
 1841000   0.60917499    -2.138415    -2.138415   -1.3811617  0.047060145    -2.138415   0.75725337   426349 
 1842000   0.61030295   -2.1396685   -2.1396685    -1.381013  0.039871487   -2.1396685   0.75865551   426349 
 1843000   0.60960304    -2.139194    -2.139194   -1.3814085  0.044170313    -2.139194   0.75778547   426349 
 1844000   0.61042344   -2.1396959   -2.1396959   -1.3808906  0.035687922   -2.1396959   0.75880529   426349 
 1845000     0.610433   -2.1401408   -2.1401408   -1.3813236  0.032624788   -2.1401408   0.75881718   426349 
 1846000   0.61065473   -2.1406227   -2.1406227   -1.3815298  0.033773654   -2.1406227   0.75909281   426349 
 1847000   0.61053945   -2.1403623   -2.1403623   -1.3814128  0.040488272   -2.1403623    0.7589495   426349 
 1848000   0.60980406   -2.1397138   -2.1397138   -1.3816784  0.041088293   -2.1397138   0.75803535   426349 
 1849000   0.61011301   -2.1399668   -2.1399668   -1.3815474  0.046493805   -2.1399668    0.7584194   426349 
 1850000   0.61022931   -2.1400797   -2.1400797   -1.3815157  0.033910382   -2.1400797   0.75856398   426349 
 1851000    0.6112249   -2.1407002   -2.1407002   -1.3808986  0.032055897   -2.1407002   0.75980157   426349 
 1852000   0.61043811   -2.1402519   -2.1402519   -1.3814284  0.043752161   -2.1402519   0.75882353   426349 
 1853000   0.61073233    -2.139949    -2.139949   -1.3807597  0.039904397    -2.139949   0.75918927   426349 
 1854000   0.61038347   -2.1394301   -2.1394301   -1.3806745   0.03406731   -2.1394301    0.7587556   426349 
 1855000   0.60962132   -2.1389667   -2.1389667   -1.3811585  0.043618771   -2.1389667    0.7578082   426349 
 1856000   0.60993067   -2.1395062   -2.1395062   -1.3813135  0.044191355   -2.1395062   0.75819274   426349 
 1857000   0.60978066    -2.139205    -2.139205   -1.3811987  0.038859123    -2.139205   0.75800626   426349 
 1858000   0.61008873   -2.1390215   -2.1390215   -1.3806322   0.03711676   -2.1390215   0.75838922   426349 
 1859000   0.61031729   -2.1391254   -2.1391254   -1.3804521  0.037509618   -2.1391254   0.75867333   426349 
 1860000   0.61023662   -2.1388711   -2.1388711   -1.3802981  0.040573737   -2.1388711   0.75857306   426349 
 1861000   0.60981382   -2.1384379   -2.1384379   -1.3803904  0.042709927   -2.1384379   0.75804748   426349 
 1862000   0.60936245   -2.1376194   -2.1376194    -1.380133  0.036721032   -2.1376194    0.7574864   426349 
 1863000   0.61146421   -2.1398359   -2.1398359   -1.3797369  0.042360197   -2.1398359   0.76009905   426349 
 1864000   0.61085129   -2.1387231   -2.1387231    -1.379386  0.044776689   -2.1387231   0.75933714   426349 
 1865000   0.61121822   -2.1396424   -2.1396424   -1.3798491  0.030635803   -2.1396424   0.75979326   426349 
 1866000   0.61074938   -2.1386118   -2.1386118   -1.3794013  0.041834389   -2.1386118   0.75921046   426349 
 1867000   0.61007862   -2.1382881   -2.1382881   -1.3799114  0.040510938   -2.1382881   0.75837665   426349 
 1868000   0.61009447   -2.1380231   -2.1380231   -1.3796267  0.044296603   -2.1380231   0.75839636   426349 
 1869000   0.60975254   -2.1378574   -2.1378574   -1.3798861   0.03611769   -2.1378574    0.7579713   426349 
 1870000   0.60854596   -2.1364373   -2.1364373   -1.3799658  0.038556147   -2.1364373   0.75647144   426349 
 1871000   0.61001319   -2.1380853   -2.1380853     -1.37979  0.034151989   -2.1380853   0.75829532   426349 
 1872000   0.60998118   -2.1385259   -2.1385259   -1.3802704  0.033260934   -2.1385259   0.75825553   426349 
 1873000   0.61084405   -2.1382204   -2.1382204   -1.3788923  0.040727491   -2.1382204   0.75932815   426349 
 1874000   0.60988545   -2.1374806   -2.1374806   -1.3793441  0.030438737   -2.1374806   0.75813653   426349 
 1875000   0.61025842   -2.1386322   -2.1386322    -1.380032  0.035295041   -2.1386322   0.75860016   426349 
 1876000   0.60977955   -2.1380684   -2.1380684   -1.3800635  0.040806715   -2.1380684   0.75800489   426349 
 1877000   0.61099451   -2.1387337   -2.1387337   -1.3792185  0.041197492   -2.1387337   0.75951518   426349 
 1878000   0.60989724   -2.1380054   -2.1380054   -1.3798543  0.035852151   -2.1380054   0.75815119   426349 
 1879000   0.60974353   -2.1382057   -2.1382057   -1.3802456  0.043447812   -2.1382057   0.75796011   426349 
 1880000   0.61015189   -2.1390814   -2.1390814   -1.3806137  0.041047628   -2.1390814   0.75846773   426349 
 1881000   0.60967321   -2.1384794   -2.1384794   -1.3806067  0.038278945   -2.1384794    0.7578727   426349 
 1882000   0.60927168   -2.1387759   -2.1387759   -1.3814024  0.043300005   -2.1387759   0.75737356   426349 
 1883000   0.60987423   -2.1400341   -2.1400341   -1.3819115  0.032113851   -2.1400341   0.75812258   426349 
 1884000    0.6094419   -2.1391051   -2.1391051     -1.38152  0.039169625   -2.1391051   0.75758516   426349 
 1885000   0.60980292   -2.1401849   -2.1401849   -1.3821509  0.035736435   -2.1401849   0.75803394   426349 
 1886000   0.60770508   -2.1384376   -2.1384376   -1.3830114  0.040453003   -2.1384376   0.75542615   426349 
 1887000    0.6096103    -2.139831    -2.139831   -1.3820365  0.035519823    -2.139831   0.75779449   426349 
 1888000   0.60999844   -2.1409278   -2.1409278   -1.3826509  0.037365207   -2.1409278   0.75827698   426349 
 1889000     0.610068   -2.1404058   -2.1404058   -1.3820423  0.042893132   -2.1404058   0.75836346   426349 
 1890000   0.60996216   -2.1412704   -2.1412704   -1.3830386  0.037709545   -2.1412704   0.75823189   426349 
 1891000    0.6101715   -2.1413104   -2.1413104   -1.3828183  0.042668468   -2.1413104   0.75849211   426349 
 1892000    0.6107215   -2.1419654   -2.1419654   -1.3827896  0.040820058   -2.1419654    0.7591758   426349 
 1893000   0.61010766   -2.1418062   -2.1418062   -1.3833934  0.042651805   -2.1418062   0.75841276   426349 
 1894000   0.60942736   -2.1408487   -2.1408487   -1.3832816  0.036126991   -2.1408487   0.75756708   426349 
 1895000    0.6100861   -2.1414916   -2.1414916   -1.3831056  0.043225292   -2.1414916   0.75838595   426349 
 1896000   0.61052706   -2.1421677   -2.1421677   -1.3832336  0.042411825   -2.1421677    0.7589341   426349 
 1897000   0.60972589   -2.1413986   -2.1413986   -1.3834604  0.037496511   -2.1413986   0.75793818   426349 
 1898000   0.60928969   -2.1406886   -2.1406886   -1.3832926  0.035677377   -2.1406886   0.75739594   426349 
 1899000   0.61085584    -2.142635    -2.142635   -1.3832922  0.040035302    -2.142635    0.7593428   426349 
 1900000   0.60961916   -2.1418986   -2.1418986   -1.3840931  0.038923249   -2.1418986   0.75780551   426349 
 1901000   0.60863874   -2.1403133   -2.1403133   -1.3837265  0.046690707   -2.1403133   0.75658677   426349 
 1902000   0.61033225   -2.1428418   -2.1428418   -1.3841499  0.034579061   -2.1428418   0.75869193   426349 
 1903000   0.60980438   -2.1417438   -2.1417438    -1.383708  0.038222571   -2.1417438   0.75803574   426349 
 1904000   0.60932896   -2.1410472   -2.1410472   -1.3836024  0.037743435   -2.1410472   0.75744476   426349 
 1905000   0.60906222   -2.1410164   -2.1410164   -1.3839032  0.046384564   -2.1410164   0.75711319   426349 
 1906000   0.60827799   -2.1396627   -2.1396627   -1.3835244  0.038259932   -2.1396627   0.75613833   426349 
 1907000   0.60980275   -2.1418803   -2.1418803   -1.3838466  0.038193749   -2.1418803   0.75803373   426349 
 1908000   0.60958598   -2.1412143   -2.1412143     -1.38345  0.042402164   -2.1412143   0.75776427   426349 
 1909000   0.61026363   -2.1415125   -2.1415125   -1.3829059  0.042415007   -2.1415125   0.75860664   426349 
 1910000   0.60877812    -2.139549    -2.139549   -1.3827889  0.040009959    -2.139549   0.75676002   426349 
 1911000    0.6095849    -2.140958    -2.140958   -1.3831951  0.039278185    -2.140958   0.75776292   426349 
 1912000    0.6087625   -2.1389433   -2.1389433   -1.3822027  0.042576932   -2.1389433    0.7567406   426349 
 1913000   0.60978876   -2.1403357   -2.1403357   -1.3823194  0.042146877   -2.1403357   0.75801634   426349 
 1914000   0.60969995   -2.1401348   -2.1401348   -1.3822289  0.042974394   -2.1401348   0.75790593   426349 
 1915000   0.60984448   -2.1400906   -2.1400906    -1.382005  0.043776213   -2.1400906    0.7580856   426349 
 1916000    0.6098506   -2.1410843   -2.1410843    -1.382991   0.03713547   -2.1410843   0.75809321   426349 
 1917000   0.60976539   -2.1401417   -2.1401417   -1.3821544  0.044802859   -2.1401417   0.75798728   426349 
 1918000   0.61107548   -2.1418433   -2.1418433   -1.3822275  0.040246343   -2.1418433   0.75961582   426349 
 1919000   0.60895114   -2.1392254   -2.1392254   -1.3822503  0.042772117   -2.1392254   0.75697511   426349 
 1920000   0.60914273   -2.1400631   -2.1400631   -1.3828498  0.039269539   -2.1400631   0.75721327   426349 
 1921000   0.60878164   -2.1401545   -2.1401545   -1.3833901  0.040409388   -2.1401545    0.7567644   426349 
 1922000   0.60968093   -2.1410453   -2.1410453    -1.383163   0.03594299   -2.1410453    0.7578823   426349 
 1923000   0.60892071    -2.141087    -2.141087   -1.3841498   0.03767973    -2.141087   0.75693728   426349 
 1924000   0.60791496   -2.1404464   -2.1404464   -1.3847594  0.034237062   -2.1404464   0.75568705   426349 
 1925000    0.6086227   -2.1408892   -2.1408892   -1.3843224  0.038999993   -2.1408892   0.75656683   426349 
 1926000   0.60888057   -2.1423234   -2.1423234    -1.385436  0.028887248   -2.1423234   0.75688738   426349 
 1927000   0.60793112   -2.1398797   -2.1398797   -1.3841726  0.035697238   -2.1398797   0.75570714   426349 
 1928000   0.61004414   -2.1421013   -2.1421013   -1.3837675  0.038600453   -2.1421013   0.75833379   426349 
 1929000   0.60893264   -2.1413035   -2.1413035   -1.3843514  0.038248594   -2.1413035   0.75695211   426349 
 1930000   0.60959569   -2.1415144   -2.1415144   -1.3837381  0.041558829   -2.1415144   0.75777633   426349 
 1931000   0.60920844   -2.1405026   -2.1405026   -1.3832077  0.041261623   -2.1405026   0.75729495   426349 
 1932000   0.60999286   -2.1421263   -2.1421263   -1.3838562  0.043034872   -2.1421263   0.75827004   426349 
 1933000   0.61061531   -2.1429801   -2.1429801   -1.3839363  0.043268267   -2.1429801    0.7590438   426349 
 1934000   0.60991883   -2.1414185   -2.1414185   -1.3832405  0.038547339   -2.1414185   0.75817801   426349 
 1935000   0.61015625   -2.1420427   -2.1420427   -1.3835695  0.044459974   -2.1420427   0.75847316   426349 
 1936000   0.60945838   -2.1421837   -2.1421837    -1.384578    0.0409222   -2.1421837   0.75760565   426349 
 1937000   0.60980548   -2.1431078   -2.1431078   -1.3850707  0.035895352   -2.1431078   0.75803712   426349 
 1938000   0.60989134   -2.1427429   -2.1427429    -1.384599  0.043638372   -2.1427429   0.75814385   426349 
 1939000   0.60943119   -2.1433378   -2.1433378   -1.3857659  0.032714475   -2.1433378   0.75757184   426349 
 1940000   0.60921446   -2.1434259   -2.1434259   -1.3861235  0.036310853   -2.1434259   0.75730244   426349 
 1941000   0.60949278   -2.1433457   -2.1433457   -1.3856973  0.031369353   -2.1433457   0.75764841   426349 
 1942000   0.61019025   -2.1435845   -2.1435845   -1.3850691  0.041025822   -2.1435845   0.75851542   426349 
 1943000   0.61055102   -2.1442314   -2.1442314   -1.3852675  0.032944119   -2.1442314   0.75896388   426349 
 1944000   0.60925029   -2.1433388   -2.1433388   -1.3859918  0.037599723   -2.1433388   0.75734697   426349 
 1945000   0.61009265   -2.1450975   -2.1450975   -1.3867034   0.03843348   -2.1450975    0.7583941   426349 
 1946000   0.60934356   -2.1433654   -2.1433654   -1.3859025  0.034784936   -2.1433654   0.75746291   426349 
 1947000   0.61023718   -2.1440678   -2.1440678   -1.3854941  0.036882513   -2.1440678   0.75857375   426349 
 1948000   0.60935694   -2.1432825   -2.1432825    -1.385803  0.035668892   -2.1432825   0.75747954   426349 
 1949000   0.60908571   -2.1429446   -2.1429446   -1.3858022  0.032155868   -2.1429446   0.75714239   426349 
 1950000   0.60891071   -2.1423702   -2.1423702   -1.3854454  0.041137296   -2.1423702   0.75692485   426349 
 1951000   0.61014985   -2.1441714   -2.1441714   -1.3857062  0.038000029   -2.1441714    0.7584652   426349 
 1952000   0.60950295    -2.142992    -2.142992    -1.385331  0.037925359    -2.142992   0.75766104   426349 
 1953000   0.60897709   -2.1422452   -2.1422452   -1.3852379  0.038807813   -2.1422452   0.75700736   426349 
 1954000   0.60905088   -2.1426914   -2.1426914   -1.3855923   0.03521481   -2.1426914   0.75709908   426349 
 1955000   0.60829157   -2.1424964   -2.1424964   -1.3863412  0.043233083   -2.1424964    0.7561552   426349 
 1956000   0.60847927    -2.141682    -2.141682   -1.3852935  0.038735952    -2.141682   0.75638853   426349 
 1957000    0.6090794   -2.1423925   -2.1423925    -1.385258  0.035762831   -2.1423925   0.75713455   426349 
 1958000   0.60862309   -2.1423989   -2.1423989   -1.3858315  0.036124453   -2.1423989   0.75656731   426349 
 1959000   0.60900242   -2.1434479   -2.1434479   -1.3864091  0.036639634   -2.1434479   0.75703885   426349 
 1960000   0.60811024   -2.1423605   -2.1423605   -1.3864307  0.037407567   -2.1423605   0.75592979   426349 
 1961000   0.60905443   -2.1433951   -2.1433951   -1.3862916  0.038632988   -2.1433951   0.75710351   426349 
 1962000    0.6093646   -2.1436818   -2.1436818   -1.3861927   0.03591184   -2.1436818   0.75748907   426349 
 1963000   0.60884504   -2.1433753   -2.1433753   -1.3865321  0.040344075   -2.1433753   0.75684322   426349 
 1964000   0.60952047   -2.1443404   -2.1443404   -1.3866576  0.037116962   -2.1443404   0.75768283   426349 
 1965000   0.60894982    -2.144274    -2.144274   -1.3873005  0.032147708    -2.144274   0.75697347   426349 
 1966000   0.60909051    -2.144515    -2.144515   -1.3873667  0.040235041    -2.144515   0.75714835   426349 
 1967000   0.60940207   -2.1449582   -2.1449582   -1.3874226  0.042207751   -2.1449582   0.75753564   426349 
 1968000   0.61084151   -2.1456246   -2.1456246   -1.3862996  0.034331238   -2.1456246   0.75932499   426349 
 1969000   0.60959722   -2.1447754   -2.1447754   -1.3869971  0.044197194   -2.1447754   0.75777823   426349 
 1970000     0.608924   -2.1444181   -2.1444181   -1.3874768  0.041706147   -2.1444181   0.75694136   426349 
 1971000   0.61017902   -2.1457556   -2.1457556   -1.3872541   0.04014084   -2.1457556   0.75850145   426349 
 1972000   0.61124588   -2.1467835   -2.1467835   -1.3869558  0.042984289   -2.1467835   0.75982765   426349 
 1973000   0.60969249   -2.1455624   -2.1455624   -1.3876658  0.041537618   -2.1455624   0.75789667   426349 
 1974000   0.60954204   -2.1452342   -2.1452342   -1.3875246  0.042240698   -2.1452342   0.75770964   426349 
 1975000   0.60960945    -2.145462    -2.145462   -1.3876685  0.043033861    -2.145462   0.75779344   426349 
 1976000   0.60961866   -2.1445466   -2.1445466   -1.3867417  0.034352073   -2.1445466   0.75780488   426349 
 1977000   0.60966299   -2.1450192   -2.1450192   -1.3871592  0.039857341   -2.1450192      0.75786   426349 
 1978000   0.60964886   -2.1448532   -2.1448532   -1.3870108  0.047128359   -2.1448532   0.75784243   426349 
 1979000    0.6094911   -2.1446735   -2.1446735   -1.3870272   0.03714945   -2.1446735   0.75764632   426349 
 1980000   0.60961223   -2.1446654   -2.1446654   -1.3868685  0.034786133   -2.1446654    0.7577969   426349 
 1981000   0.60861852   -2.1438985   -2.1438985   -1.3873369  0.036881198   -2.1438985   0.75656163   426349 
 1982000   0.60921973   -2.1437419   -2.1437419   -1.3864329  0.035782029   -2.1437419   0.75730899   426349 
 1983000   0.60932833   -2.1437824   -2.1437824   -1.3863384  0.034870714   -2.1437824   0.75744399   426349 
 1984000   0.60706528   -2.1421723   -2.1421723   -1.3875415  0.040815104   -2.1421723   0.75463082   426349 
 1985000   0.60735435   -2.1426865   -2.1426865   -1.3876963   0.03661091   -2.1426865   0.75499016   426349 
 1986000   0.60758739   -2.1422419   -2.1422419   -1.3869621  0.040391335   -2.1422419   0.75527986   426349 
 1987000    0.6082655   -2.1437385   -2.1437385   -1.3876157  0.037877339   -2.1437385    0.7561228   426349 
 1988000    0.6094926   -2.1446466   -2.1446466   -1.3869984  0.040249662   -2.1446466   0.75764818   426349 
 1989000   0.60850328   -2.1437362   -2.1437362   -1.3873178  0.040058738   -2.1437362   0.75641838   426349 
 1990000   0.60800952   -2.1435573   -2.1435573   -1.3877527   0.04141656   -2.1435573    0.7558046   426349 
 1991000   0.60920336   -2.1445258   -2.1445258   -1.3872372  0.039173188   -2.1445258   0.75728864   426349 
 1992000   0.60859582   -2.1444857   -2.1444857   -1.3879523  0.034389253   -2.1444857   0.75653341   426349 
 1993000    0.6086339   -2.1448489   -2.1448489   -1.3882681  0.037805323   -2.1448489   0.75658075   426349 
 1994000   0.60941594   -2.1451928   -2.1451928   -1.3876399  0.042811849   -2.1451928   0.75755289   426349 
 1995000   0.60931914   -2.1449025   -2.1449025   -1.3874699   0.03485464   -2.1449025   0.75743256   426349 
 1996000   0.60881042   -2.1435913   -2.1435913   -1.3867912  0.042023333   -2.1435913   0.75680018   426349 
 1997000   0.60987585    -2.144326    -2.144326   -1.3862014   0.04400799    -2.144326    0.7581246   426349 
 1998000   0.61041154   -2.1455866   -2.1455866   -1.3867961  0.035351264   -2.1455866    0.7587905   426349 
 1999000   0.60962803   -2.1445083   -2.1445083   -1.3866917  0.039122915   -2.1445083   0.75781653   426349 
 2000000   0.61019679     -2.14539     -2.14539   -1.3868664  0.036751623     -2.14539   0.75852354   426349 
 2001000   0.60941003   -2.1446639   -2.1446639   -1.3871184  0.040421604   -2.1446639   0.75754555   426349 
 2002000   0.61027825    -2.145394    -2.145394   -1.3867692  0.040130536    -2.145394   0.75862481   426349 
 2003000   0.60990218   -2.1455509   -2.1455509   -1.3873936  0.036574351   -2.1455509   0.75815733   426349 
 2004000   0.60895548   -2.1445953   -2.1445953   -1.3876148    0.0406601   -2.1445953    0.7569805   426349 
 2005000   0.60927469   -2.1448156   -2.1448156   -1.3874383  0.033951662   -2.1448156   0.75737731   426349 
 2006000   0.60914195   -2.1436586   -2.1436586   -1.3864463  0.034023746   -2.1436586    0.7572123   426349 
 2007000   0.60800741   -2.1417937   -2.1417937   -1.3859917  0.042499216   -2.1417937   0.75580197   426349 
 2008000   0.60994157   -2.1446431   -2.1446431   -1.3864368  0.037519521   -2.1446431   0.75820629   426349 
 2009000   0.60934282   -2.1439137   -2.1439137   -1.3864517   0.04039481   -2.1439137   0.75746199   426349 
 2010000   0.60862433   -2.1433699   -2.1433699   -1.3868011  0.042831634   -2.1433699   0.75656886   426349 
 2011000   0.60796857   -2.1429786   -2.1429786   -1.3872249  0.039686818   -2.1429786   0.75575369   426349 
 2012000   0.60900054   -2.1439792   -2.1439792   -1.3869427  0.039803862   -2.1439792   0.75703652   426349 
 2013000   0.61031499   -2.1449692   -2.1449692   -1.3862987  0.029550802   -2.1449692   0.75867048   426349 
 2014000    0.6093543   -2.1435316   -2.1435316   -1.3860553  0.037415264   -2.1435316   0.75747626   426349 
 2015000   0.60909703   -2.1435486   -2.1435486   -1.3863921  0.041668529   -2.1435486   0.75715646   426349 
 2016000   0.60838293   -2.1436643   -2.1436643   -1.3873955  0.036021849   -2.1436643   0.75626878   426349 
 2017000   0.60879569   -2.1438501   -2.1438501   -1.3870682  0.033650123   -2.1438501   0.75678187   426349 
 2018000   0.60823143   -2.1432255   -2.1432255   -1.3871451  0.035556535   -2.1432255   0.75608045   426349 
 2019000   0.60846115   -2.1432278   -2.1432278   -1.3868618  0.044964869   -2.1432278   0.75636601   426349 
 2020000   0.60751456   -2.1431058   -2.1431058   -1.3879165  0.038627023   -2.1431058   0.75518932   426349 
 2021000   0.60897074   -2.1451524   -2.1451524   -1.3881529  0.028867625   -2.1451524   0.75699947   426349 
 2022000    0.6094773   -2.1461431   -2.1461431   -1.3885139  0.032572719   -2.1461431   0.75762916   426349 
 2023000    0.6091557   -2.1454166   -2.1454166   -1.3881872  0.039387536   -2.1454166   0.75722939   426349 
 2024000    0.6081585   -2.1450557   -2.1450557   -1.3890659  0.042228351   -2.1450557   0.75598979   426349 
 2025000     0.609031   -2.1453859   -2.1453859   -1.3883115  0.036796061   -2.1453859   0.75707437   426349 
 2026000   0.60943295   -2.1461097   -2.1461097   -1.3885356  0.038413786   -2.1461097   0.75757403   426349 
 2027000   0.60918414   -2.1468815   -2.1468815   -1.3896167  0.040288908   -2.1468815   0.75726474   426349 
 2028000   0.60856984   -2.1472517   -2.1472517   -1.3907506  0.027474778   -2.1472517   0.75650112   426349 
 2029000   0.60825306    -2.145414    -2.145414   -1.3893066  0.041463729    -2.145414   0.75610734   426349 
 2030000   0.60849993   -2.1461038   -2.1461038   -1.3896896  0.036983635   -2.1461038   0.75641422   426349 
 2031000    0.6086708    -2.146198    -2.146198   -1.3895713  0.039465165    -2.146198   0.75662663   426349 
 2032000   0.60867552   -2.1466593   -2.1466593   -1.3900268  0.040138927   -2.1466593   0.75663248   426349 
 2033000   0.60927452   -2.1472232   -2.1472232   -1.3898461  0.043547866   -2.1472232   0.75737709   426349 
 2034000   0.60885899   -2.1471951   -2.1471951   -1.3903346  0.041373406   -2.1471951   0.75686055   426349 
 2035000   0.61013669   -2.1485894   -2.1485894   -1.3901406  0.037750869   -2.1485894   0.75844884   426349 
 2036000   0.61005146   -2.1489436   -2.1489436   -1.3906007  0.038320296   -2.1489436   0.75834289   426349 
 2037000   0.60925725   -2.1480617   -2.1480617   -1.3907061  0.037799591   -2.1480617   0.75735562   426349 
 2038000   0.60855599   -2.1472419   -2.1472419    -1.390758  0.035895995   -2.1472419   0.75648391   426349 
 2039000   0.60878163    -2.148378    -2.148378   -1.3916136  0.037425988    -2.148378   0.75676439   426349 
 2040000   0.60782545   -2.1472931   -2.1472931   -1.3917173  0.036344685   -2.1472931   0.75557578   426349 
 2041000   0.60940274   -2.1490984   -2.1490984   -1.3915619  0.041648396   -2.1490984   0.75753648   426349 
 2042000   0.60826392   -2.1476978   -2.1476978   -1.3915769  0.039223617   -2.1476978   0.75612084   426349 
 2043000   0.60844493   -2.1474722   -2.1474722   -1.3911264  0.032388932   -2.1474722   0.75634584   426349 
 2044000   0.60809315   -2.1466744   -2.1466744   -1.3907659  0.038481084   -2.1466744   0.75590855   426349 
 2045000   0.60873194   -2.1468452   -2.1468452   -1.3901426  0.043057907   -2.1468452   0.75670262   426349 
 2046000   0.60794193   -2.1461516   -2.1461516   -1.3904311  0.036530179   -2.1461516   0.75572057   426349 
 2047000   0.60764278   -2.1464644   -2.1464644   -1.3911157  0.042434779   -2.1464644   0.75534871   426349 
 2048000    0.6078256     -2.14655     -2.14655   -1.3909741  0.036256438     -2.14655   0.75557597   426349 
 2049000   0.60956304   -2.1486627   -2.1486627   -1.3909269  0.038918399   -2.1486627   0.75773574   426349 
 2050000   0.60869739   -2.1475119   -2.1475119   -1.3908522  0.035550709   -2.1475119   0.75665967   426349 
 2051000   0.60759209   -2.1459055   -2.1459055   -1.3906198  0.034573834   -2.1459055   0.75528569   426349 
 2052000   0.60811595   -2.1457723   -2.1457723   -1.3898354  0.040740832   -2.1457723    0.7559369   426349 
 2053000   0.60841534   -2.1461988   -2.1461988   -1.3898897  0.033017356   -2.1461988   0.75630906   426349 
 2054000   0.60862827   -2.1459407   -2.1459407   -1.3893669  0.038915627   -2.1459407   0.75657375   426349 
 2055000   0.60894679   -2.1463047   -2.1463047    -1.389335  0.039075057   -2.1463047    0.7569697   426349 
 2056000    0.6091138   -2.1464558   -2.1464558   -1.3892785  0.044478825   -2.1464558   0.75717731   426349 
 2057000   0.60725351   -2.1447614   -2.1447614   -1.3898966  0.035778261   -2.1447614   0.75486482   426349 
 2058000   0.60722569   -2.1448115   -2.1448115   -1.3899813  0.034395148   -2.1448115   0.75483023   426349 
 2059000   0.60795727   -2.1459494   -2.1459494   -1.3902097  0.038910901   -2.1459494   0.75573964   426349 
 2060000   0.60773192   -2.1452092   -2.1452092   -1.3897497  0.035175108   -2.1452092   0.75545951   426349 
 2061000   0.60732059   -2.1448818   -2.1448818   -1.3899337  0.038638179   -2.1448818    0.7549482   426349 
 2062000   0.60811265   -2.1450733   -2.1450733   -1.3891406  0.032253296   -2.1450733   0.75593279   426349 
 2063000   0.60890275   -2.1459122   -2.1459122   -1.3889972  0.036821437   -2.1459122   0.75691495   426349 
 2064000   0.60870184   -2.1449845   -2.1449845   -1.3883193  0.033446033   -2.1449845   0.75666521   426349 
 2065000   0.60844524   -2.1450271   -2.1450271   -1.3886809  0.039635641   -2.1450271   0.75634623   426349 
 2066000   0.60953113   -2.1462943   -2.1462943   -1.3885983  0.042800798   -2.1462943   0.75769608   426349 
 2067000    0.6090543   -2.1452787   -2.1452787   -1.3881753  0.039804864   -2.1452787   0.75710334   426349 
 2068000   0.60899191   -2.1448086   -2.1448086   -1.3877828  0.035799948   -2.1448086   0.75702579   426349 
 2069000   0.60922643   -2.1454677   -2.1454677   -1.3881504  0.039404984   -2.1454677   0.75731731   426349 
 2070000   0.60824248   -2.1451061   -2.1451061   -1.3890119  0.046001188   -2.1451061   0.75609418   426349 
 2071000   0.60781672   -2.1451257   -2.1451257   -1.3895608  0.038340426   -2.1451257   0.75556493   426349 
 2072000   0.60798535   -2.1458343   -2.1458343   -1.3900597  0.034565219   -2.1458343   0.75577456   426349 
 2073000   0.60791237   -2.1453172   -2.1453172   -1.3896334    0.0407542   -2.1453172   0.75568384   426349 
 2074000   0.60892928   -2.1461985   -2.1461985   -1.3892506  0.037565688   -2.1461985   0.75694793   426349 
 2075000   0.60889015   -2.1459188   -2.1459188   -1.3890195  0.035043568   -2.1459188   0.75689929   426349 
 2076000    0.6084904   -2.1452779   -2.1452779   -1.3888755  0.037151618   -2.1452779   0.75640236   426349 
 2077000   0.60853671   -2.1454583   -2.1454583   -1.3889984  0.042124038   -2.1454583   0.75645993   426349 
 2078000    0.6091623   -2.1462832   -2.1462832   -1.3890456  0.040105381   -2.1462832    0.7572376   426349 
 2079000   0.60906599     -2.14556     -2.14556   -1.3884421  0.042988359     -2.14556   0.75711787   426349 
 2080000   0.61026505     -2.14754     -2.14754   -1.3889316   0.03767412     -2.14754    0.7586084   426349 
 2081000   0.60781873   -2.1446704   -2.1446704    -1.389103  0.035681383   -2.1446704   0.75556743   426349 
 2082000   0.60874857   -2.1462539   -2.1462539   -1.3895306  0.038981816   -2.1462539   0.75672329   426349 
 2083000   0.60834324   -2.1462041   -2.1462041   -1.3899847  0.041092447   -2.1462041   0.75621943   426349 
 2084000   0.60910218   -2.1461003   -2.1461003   -1.3889375  0.036991612   -2.1461003   0.75716286   426349 
 2085000   0.60969348   -2.1475414   -2.1475414   -1.3896435  0.040761743   -2.1475414    0.7578979   426349 
 2086000   0.60942102   -2.1467278   -2.1467278   -1.3891686  0.034922103   -2.1467278    0.7575592   426349 
 2087000   0.60856417   -2.1465476   -2.1465476   -1.3900535  0.038935815   -2.1465476   0.75649406   426349 
 2088000    0.6083084   -2.1465308   -2.1465308   -1.3903547  0.032934407   -2.1465308   0.75617613   426349 
 2089000   0.60880264   -2.1474558   -2.1474558   -1.3906653  0.038987259   -2.1474558   0.75679051   426349 
 2090000    0.6079362   -2.1462152   -2.1462152   -1.3905018  0.039295015   -2.1462152   0.75571346   426349 
 2091000   0.60855396   -2.1466242   -2.1466242   -1.3901428  0.039362703   -2.1466242   0.75648138   426349 
 2092000   0.60759312   -2.1462869   -2.1462869   -1.3909999  0.034367606   -2.1462869   0.75528698   426349 
 2093000   0.60872688   -2.1479431   -2.1479431   -1.3912467  0.038355837   -2.1479431   0.75669633   426349 
 2094000   0.60914878   -2.1487516   -2.1487516   -1.3915308  0.036130115   -2.1487516   0.75722079   426349 
 2095000   0.60756043   -2.1466945   -2.1466945   -1.3914482  0.042165054   -2.1466945   0.75524634   426349 
 2096000   0.60832458   -2.1469762   -2.1469762     -1.39078  0.030795753   -2.1469762   0.75619624   426349 
 2097000   0.60750923   -2.1453127   -2.1453127     -1.39013  0.035490737   -2.1453127    0.7551827   426349 
 2098000   0.60904321   -2.1471124   -2.1471124   -1.3900228   0.03420752   -2.1471124   0.75708955   426349 
 2099000   0.60867474   -2.1465914   -2.1465914   -1.3899599  0.039694852   -2.1465914   0.75663152   426349 
 2100000   0.60980964   -2.1478567   -2.1478567   -1.3898144   0.03910325   -2.1478567   0.75804229   426349 
 2101000   0.60920213   -2.1475752   -2.1475752   -1.3902881  0.041670053   -2.1475752    0.7572871   426349 
 2102000    0.6091748   -2.1471057   -2.1471057   -1.3898525  0.038947714   -2.1471057   0.75725314   426349 
 2103000    0.6089975   -2.1466163   -2.1466163   -1.3895835  0.036804352   -2.1466163   0.75703274   426349 
 2104000   0.60916142   -2.1457998   -2.1457998   -1.3885633  0.042694481   -2.1457998    0.7572365   426349 
 2105000   0.60829142   -2.1460477   -2.1460477   -1.3898926  0.037183234   -2.1460477   0.75615503   426349 
 2106000   0.60900891   -2.1479804   -2.1479804   -1.3909334  0.041201328   -2.1479804   0.75704692   426349 
 2107000   0.60864694   -2.1477159   -2.1477159    -1.391119  0.039969209   -2.1477159   0.75659695   426349 
 2108000   0.60857102   -2.1481501   -2.1481501   -1.3916475  0.037858436   -2.1481501   0.75650259   426349 
 2109000   0.60859683   -2.1479551   -2.1479551   -1.3914204    0.0387781   -2.1479551   0.75653467   426349 
 2110000   0.60912206   -2.1488054   -2.1488054   -1.3916178  0.044542319   -2.1488054   0.75718757   426349 
 2111000   0.60747209   -2.1470408   -2.1470408   -1.3919042  0.044035827   -2.1470408   0.75513653   426349 
 2112000   0.60837142    -2.147954    -2.147954   -1.3916995  0.039149068    -2.147954   0.75625446   426349 
 2113000   0.60761461   -2.1468668   -2.1468668   -1.3915531  0.040819725   -2.1468668   0.75531369   426349 
 2114000   0.60991916   -2.1492895   -2.1492895   -1.3911111  0.038386095   -2.1492895   0.75817844   426349 
 2115000   0.61061395   -2.1494592   -2.1494592   -1.3904171  0.037919989   -2.1494592   0.75904211   426349 
 2116000   0.61008693   -2.1494969   -2.1494969   -1.3911099   0.03566801   -2.1494969   0.75838698   426349 
 2117000   0.60885668   -2.1478395   -2.1478395   -1.3909818  0.039916151   -2.1478395   0.75685768   426349 
 2118000   0.60954623   -2.1494003   -2.1494003   -1.3916854  0.037903629   -2.1494003   0.75771485   426349 
 2119000   0.60894975    -2.149205    -2.149205   -1.3922316   0.03885504    -2.149205   0.75697338   426349 
 2120000   0.60853964   -2.1483841   -2.1483841   -1.3919205  0.039625648   -2.1483841   0.75646358   426349 
 2121000   0.60867239    -2.149163    -2.149163   -1.3925344   0.03896038    -2.149163    0.7566286   426349 
 2122000   0.60810665   -2.1494756   -2.1494756   -1.3935503  0.040206802   -2.1494756   0.75592534   426349 
 2123000   0.60842262   -2.1491442   -2.1491442    -1.392826  0.030104602   -2.1491442   0.75631812   426349 
 2124000   0.60920998   -2.1497049   -2.1497049   -1.3924081  0.038476443   -2.1497049   0.75729686   426349 
 2125000   0.60794349   -2.1485629   -2.1485629   -1.3928404  0.042847894   -2.1485629   0.75572251   426349 
 2126000   0.60752528   -2.1471401   -2.1471401   -1.3919374  0.041019965   -2.1471401   0.75520265   426349 
 2127000   0.60745138    -2.147508    -2.147508   -1.3923972  0.035050451    -2.147508   0.75511078   426349 
 2128000   0.60740096   -2.1479918   -2.1479918   -1.3929437  0.035201069   -2.1479918    0.7550481   426349 
 2129000   0.60860665   -2.1487029   -2.1487029    -1.392156  0.044804989   -2.1487029   0.75654687   426349 
 2130000   0.60854568   -2.1484933   -2.1484933   -1.3920222  0.044962402   -2.1484933   0.75647108   426349 
 2131000   0.60778939   -2.1468399   -2.1468399   -1.3913089  0.045066598   -2.1468399   0.75553095   426349 
 2132000   0.60832798   -2.1475277   -2.1475277   -1.3913272  0.037434422   -2.1475277   0.75620046   426349 
 2133000    0.6077004    -2.146704    -2.146704   -1.3912837  0.037970918    -2.146704   0.75542033   426349 
 2134000   0.60879354   -2.1482934   -2.1482934   -1.3915142  0.036802889   -2.1482934    0.7567792   426349 
 2135000   0.60839638   -2.1476208   -2.1476208   -1.3913353  0.042460707   -2.1476208    0.7562855   426349 
 2136000   0.60807183    -2.147798    -2.147798   -1.3919159  0.039221445    -2.147798   0.75588205   426349 
 2137000   0.60813599   -2.1475323   -2.1475323   -1.3915705  0.038964187   -2.1475323    0.7559618   426349 
 2138000   0.60760373   -2.1466487   -2.1466487   -1.3913485  0.033775566   -2.1466487   0.75530017   426349 
 2139000   0.60810074   -2.1483501   -2.1483501   -1.3924321  0.036625385   -2.1483501   0.75591798   426349 
 2140000   0.60835526   -2.1480265   -2.1480265   -1.3917921  0.041342137   -2.1480265   0.75623438   426349 
 2141000   0.60907854   -2.1482855   -2.1482855   -1.3911521  0.046321227   -2.1482855   0.75713347   426349 
 2142000   0.60979575   -2.1487371   -2.1487371   -1.3907121  0.039888838   -2.1487371   0.75802502   426349 
 2143000   0.60839435   -2.1470842   -2.1470842   -1.3908013  0.032117033   -2.1470842   0.75628297   426349 
 2144000   0.60899744   -2.1480053   -2.1480053   -1.3909726  0.044102249   -2.1480053   0.75703266   426349 
 2145000    0.6077995   -2.1477853   -2.1477853   -1.3922418   0.03613396   -2.1477853   0.75554352   426349 
 2146000   0.60873614   -2.1486134   -2.1486134   -1.3919056  0.034858925   -2.1486134   0.75670784   426349 
 2147000   0.60894001    -2.149312    -2.149312   -1.3923507  0.040085394    -2.149312   0.75696127   426349 
 2148000   0.60969507   -2.1499913   -2.1499913   -1.3920915  0.040989832   -2.1499913   0.75789987   426349 
 2149000   0.60856786   -2.1482566   -2.1482566    -1.391758  0.041581494   -2.1482566   0.75649866   426349 
 2150000   0.60805551   -2.1480008   -2.1480008   -1.3921391  0.035159806   -2.1480008   0.75586177   426349 
 2151000   0.60883552    -2.148624    -2.148624   -1.3917927  0.039234274    -2.148624   0.75683138   426349 
 2152000   0.60934707   -2.1494448   -2.1494448   -1.3919775  0.047365521   -2.1494448   0.75746728   426349 
 2153000   0.60952682   -2.1497743   -2.1497743   -1.3920836  0.041263329   -2.1497743   0.75769072   426349 
 2154000   0.60855474   -2.1495592   -2.1495592   -1.3930769  0.039013769   -2.1495592   0.75648234   426349 
 2155000   0.60827765    -2.149434    -2.149434   -1.3932961  0.030349046    -2.149434    0.7561379   426349 
 2156000   0.60775742   -2.1491999   -2.1491999   -1.3937087  0.040192432   -2.1491999   0.75549122   426349 
 2157000   0.60924795   -2.1495455   -2.1495455   -1.3922015  0.041883102   -2.1495455   0.75734407   426349 
 2158000   0.60834713   -2.1493739   -2.1493739   -1.3931497  0.031669962   -2.1493739   0.75622427   426349 
 2159000    0.6082536   -2.1492281   -2.1492281   -1.3931201  0.041666477   -2.1492281     0.756108   426349 
 2160000   0.60895039    -2.150325    -2.150325   -1.3933508  0.031724984    -2.150325   0.75697417   426349 
 2161000   0.60829116   -2.1496147   -2.1496147     -1.39346  0.040591276   -2.1496147   0.75615469   426349 
 2162000   0.60868438   -2.1504209   -2.1504209   -1.3937774  0.035099594   -2.1504209   0.75664351   426349 
 2163000    0.6082911   -2.1498247   -2.1498247   -1.3936701  0.034952935   -2.1498247   0.75615462   426349 
 2164000   0.60884327   -2.1498863   -2.1498863   -1.3930453  0.037102543   -2.1498863   0.75684101   426349 
 2165000   0.60917111   -2.1508706   -2.1508706   -1.3936221  0.029732164   -2.1508706   0.75724854   426349 
 2166000   0.60867727   -2.1506962   -2.1506962   -1.3940615  0.046648524   -2.1506962   0.75663466   426349 
 2167000   0.60909866   -2.1513544   -2.1513544   -1.3941959  0.038448106   -2.1513544   0.75715848   426349 
 2168000   0.60871094   -2.1503776   -2.1503776   -1.3937011  0.044060875   -2.1503776   0.75667652   426349 
 2169000   0.60981117   -2.1515913   -2.1515913   -1.3935471  0.037649977   -2.1515913   0.75804419   426349 
 2170000   0.60927701   -2.1515542   -2.1515542    -1.394174  0.042639067   -2.1515542   0.75738019   426349 
 2171000   0.60929064   -2.1507224   -2.1507224   -1.3933253  0.039238814   -2.1507224   0.75739713   426349 
 2172000    0.6076242   -2.1496529   -2.1496529   -1.3943272  0.039815301   -2.1496529   0.75532562   426349 
 2173000   0.60860967   -2.1505403   -2.1505403   -1.3939897  0.038681023   -2.1505403   0.75655063   426349 
 2174000    0.6085396   -2.1504762   -2.1504762   -1.3940126   0.03496758   -2.1504762   0.75646353   426349 
 2175000   0.60986243   -2.1520546   -2.1520546   -1.3939467  0.036439605   -2.1520546   0.75810791   426349 
 2176000   0.60890909    -2.150217    -2.150217   -1.3932942  0.039911028    -2.150217   0.75692283   426349 
 2177000   0.60889181   -2.1503147   -2.1503147   -1.3934133  0.041496592   -2.1503147   0.75690135   426349 
 2178000   0.60941365   -2.1511601   -2.1511601   -1.3936101  0.047595394   -2.1511601   0.75755004   426349 
 2179000   0.60943697    -2.151098    -2.151098   -1.3935189   0.04191539    -2.151098   0.75757903   426349 
 2180000   0.60880535    -2.149908    -2.149908   -1.3931141  0.037115742    -2.149908   0.75679388   426349 
 2181000   0.60879945   -2.1503269   -2.1503269   -1.3935403  0.036550839   -2.1503269   0.75678655   426349 
 2182000   0.60805205   -2.1503342   -2.1503342   -1.3944768  0.039774954   -2.1503342   0.75585747   426349 
 2183000   0.60755039   -2.1495672   -2.1495672   -1.3943333  0.031358208   -2.1495672   0.75523386   426349 
 2184000   0.60915618   -2.1513931   -2.1513931   -1.3941631  0.035006721   -2.1513931   0.75722999   426349 
 2185000   0.60760739   -2.1500266   -2.1500266   -1.3947218  0.039689374   -2.1500266   0.75530472   426349 
 2186000   0.60770857   -2.1496216   -2.1496216   -1.3941912  0.035314381   -2.1496216   0.75543049   426349 
 2187000   0.60877604   -2.1509947   -2.1509947   -1.3942373  0.036059686   -2.1509947   0.75675744   426349 
 2188000   0.60859876   -2.1509196   -2.1509196   -1.3943825  0.040491817   -2.1509196   0.75653707   426349 
 2189000   0.60799457   -2.1501768   -2.1501768   -1.3943908  0.036510641   -2.1501768   0.75578601   426349 
 2190000   0.60800048   -2.1500087   -2.1500087   -1.3942153  0.044741051   -2.1500087   0.75579336   426349 
 2191000   0.60802905   -2.1497547   -2.1497547   -1.3939259  0.039862955   -2.1497547   0.75582888   426349 
 2192000   0.60836328   -2.1497325   -2.1497325   -1.3934882  0.040222729   -2.1497325   0.75624435   426349 
 2193000   0.60850587   -2.1503691   -2.1503691   -1.3939475  0.041542345   -2.1503691    0.7564216   426349 
 2194000   0.60903338   -2.1503748   -2.1503748   -1.3932975  0.045298091   -2.1503748   0.75707733   426349 
 2195000   0.60752731   -2.1492398   -2.1492398   -1.3940347  0.034024097   -2.1492398   0.75520517   426349 
 2196000   0.60848476   -2.1504975   -2.1504975   -1.3941021  0.034306316   -2.1504975   0.75639536   426349 
 2197000   0.60744539   -2.1494826   -2.1494826   -1.3943792  0.035965496   -2.1494826   0.75510334   426349 
 2198000   0.60806945   -2.1505936   -2.1505936   -1.3947145  0.032964129   -2.1505936   0.75587909   426349 
 2199000   0.60736591   -2.1496553   -2.1496553   -1.3946508  0.044676538   -2.1496553   0.75500454   426349 
 2200000   0.60701893   -2.1488193   -2.1488193   -1.3942461  0.042798913   -2.1488193   0.75457322   426349 
 2201000   0.60830475   -2.1505979   -2.1505979   -1.3944263  0.036680313   -2.1505979   0.75617159   426349 
 2202000   0.60861311   -2.1508001   -2.1508001   -1.3942451  0.042664829   -2.1508001   0.75655491   426349 
 2203000   0.60795846   -2.1504573   -2.1504573   -1.3947161  0.037834953   -2.1504573   0.75574112   426349 
 2204000   0.60895299   -2.1508426   -2.1508426   -1.3938652   0.03617155   -2.1508426   0.75697741   426349 
 2205000   0.60854131   -2.1505264   -2.1505264   -1.3940607  0.037402851   -2.1505264   0.75646566   426349 
 2206000   0.60919359   -2.1515824   -2.1515824   -1.3943059  0.035808684   -2.1515824   0.75727648   426349 
 2207000   0.60875297   -2.1509671   -2.1509671   -1.3942384  0.035182301   -2.1509671   0.75672877   426349 
 2208000   0.60854288   -2.1513163   -2.1513163   -1.3948487  0.038022084   -2.1513163   0.75646761   426349 
 2209000    0.6091366   -2.1516506   -2.1516506    -1.394445   0.03361532   -2.1516506   0.75720565   426349 
 2210000   0.60722195   -2.1502206   -2.1502206   -1.3953951  0.042223893   -2.1502206   0.75482558   426349 
 2211000   0.60786722   -2.1503633   -2.1503633   -1.3947356  0.037408081   -2.1503633   0.75562771   426349 
 2212000   0.60763205   -2.1500567   -2.1500567   -1.3947213  0.036134626   -2.1500567   0.75533537   426349 
 2213000    0.6080764   -2.1498685   -2.1498685   -1.3939808  0.039466768   -2.1498685   0.75588773   426349 
 2214000   0.60747485   -2.1498275   -2.1498275   -1.3946876  0.032691929   -2.1498275   0.75513995   426349 
 2215000   0.60816796    -2.150446    -2.150446   -1.3944445  0.037136712    -2.150446   0.75600155   426349 
 2216000   0.60856703   -2.1510126   -2.1510126   -1.3945149  0.043959992   -2.1510126   0.75649762   426349 
 2217000   0.60821587   -2.1507529   -2.1507529   -1.3946917  0.039565799   -2.1507529   0.75606111   426349 
 2218000   0.60744956   -2.1496791   -2.1496791   -1.3945706  0.039706409   -2.1496791   0.75510852   426349 
 2219000   0.60812524   -2.1502799   -2.1502799   -1.3943314  0.037184365   -2.1502799   0.75594844   426349 
 2220000   0.60744918   -2.1507068   -2.1507068   -1.3955988  0.032389924   -2.1507068   0.75510804   426349 
 2221000   0.60799587   -2.1505413   -2.1505413   -1.3947537  0.036285137   -2.1505413   0.75578763   426349 
 2222000   0.60828155   -2.1516454   -2.1516454   -1.3955026  0.039339642   -2.1516454   0.75614275   426349 
 2223000   0.60840452    -2.152007    -2.152007   -1.3957114  0.035223761    -2.152007   0.75629561   426349 
 2224000    0.6087228    -2.152675    -2.152675   -1.3959838  0.030919832    -2.152675   0.75669126   426349 
 2225000   0.60699315   -2.1503237   -2.1503237   -1.3957826  0.034602964   -2.1503237   0.75454116   426349 
 2226000   0.60718003   -2.1502654   -2.1502654   -1.3954919  0.041474484   -2.1502654   0.75477347   426349 
 2227000   0.60782427   -2.1513549   -2.1513549   -1.3957805  0.036452615   -2.1513549   0.75557432   426349 
 2228000   0.60815168   -2.1510904   -2.1510904   -1.3951091  0.037510776   -2.1510904   0.75598132   426349 
 2229000   0.60853378   -2.1512093   -2.1512093    -1.394753     0.038873   -2.1512093   0.75645629   426349 
 2230000    0.6089162   -2.1513302   -2.1513302   -1.3943985  0.031881526   -2.1513302   0.75693167   426349 
 2231000   0.60841292   -2.1510106   -2.1510106   -1.3947046  0.036496429   -2.1510106   0.75630606   426349 
 2232000   0.60913134   -2.1516524   -2.1516524   -1.3944532  0.043193092   -2.1516524   0.75719911   426349 
 2233000   0.60916503   -2.1518583   -2.1518583   -1.3946173  0.044164372   -2.1518583   0.75724098   426349 
 2234000   0.60984427   -2.1531116   -2.1531116   -1.3950262  0.042634294   -2.1531116   0.75808533   426349 
 2235000   0.60804148   -2.1506315   -2.1506315   -1.3947872  0.039694956   -2.1506315   0.75584432   426349 
 2236000   0.60904143   -2.1520916   -2.1520916   -1.3950042   0.03860879   -2.1520916   0.75708735   426349 
 2237000   0.60988185   -2.1527505   -2.1527505   -1.3946185   0.04137405   -2.1527505   0.75813205   426349 
 2238000   0.60783614   -2.1508258   -2.1508258   -1.3952368  0.040595731   -2.1508258   0.75558907   426349 
 2239000   0.60779311   -2.1509598   -2.1509598   -1.3954242  0.039592944   -2.1509598   0.75553558   426349 
 2240000   0.60741597   -2.1508099   -2.1508099   -1.3957432  0.038062423   -2.1508099   0.75506676   426349 
 2241000   0.60709603   -2.1510555   -2.1510555   -1.3963864  0.037306874   -2.1510555   0.75466905   426349 
 2242000   0.60610524   -2.1494458   -2.1494458   -1.3960084  0.030969147   -2.1494458   0.75343743   426349 
 2243000   0.60718048    -2.150452    -2.150452    -1.395678  0.034035796    -2.150452   0.75477403   426349 
 2244000   0.60723839   -2.1504866   -2.1504866   -1.3956405  0.037887974   -2.1504866   0.75484602   426349 
 2245000   0.60768751   -2.1507502   -2.1507502   -1.3953459   0.04601035   -2.1507502   0.75540431   426349 
 2246000   0.60712662   -2.1498242   -2.1498242   -1.3951172  0.043333011   -2.1498242   0.75470708   426349 
 2247000    0.6078752   -2.1502175   -2.1502175   -1.3945799  0.043506035   -2.1502175   0.75563762   426349 
 2248000   0.60738829   -2.1491165   -2.1491165   -1.3940841  0.034695928   -2.1491165   0.75503236   426349 
 2249000   0.60706452   -2.1495177   -2.1495177   -1.3948878  0.034007496   -2.1495177   0.75462988   426349 
 2250000   0.60830672   -2.1500888   -2.1500888   -1.3939147  0.028112724   -2.1500888   0.75617404   426349 
 2251000   0.60882492   -2.1512545   -2.1512545   -1.3944362  0.034303425   -2.1512545   0.75681821   426349 
 2252000   0.60882487   -2.1499702   -2.1499702    -1.393152  0.041066328   -2.1499702   0.75681814   426349 
 2253000    0.6096634   -2.1512119   -2.1512119   -1.3933514  0.041998477   -2.1512119   0.75786051   426349 
 2254000   0.60899544   -2.1508429   -2.1508429   -1.3938127  0.042451802   -2.1508429   0.75703018   426349 
 2255000   0.60859699   -2.1514908   -2.1514908   -1.3949559  0.037587113   -2.1514908   0.75653486   426349 
 2256000    0.6095441    -2.151841    -2.151841   -1.3941288  0.037858852    -2.151841    0.7577122   426349 
 2257000   0.60902888   -2.1512537   -2.1512537    -1.394182  0.036899264   -2.1512537   0.75707174   426349 
 2258000   0.60783925   -2.1503602   -2.1503602   -1.3947672  0.037779707   -2.1503602   0.75559293   426349 
 2259000   0.60884241   -2.1508787   -2.1508787   -1.3940387   0.03762978   -2.1508787   0.75683995   426349 
 2260000   0.60890671   -2.1506575   -2.1506575   -1.3937376  0.032390316   -2.1506575   0.75691987   426349 
 2261000   0.60914613   -2.1505972   -2.1505972   -1.3933797  0.042729182   -2.1505972   0.75721749   426349 
 2262000   0.60864043   -2.1506469   -2.1506469    -1.394058  0.032259407   -2.1506469   0.75658887   426349 
 2263000   0.60857958   -2.1506026   -2.1506026   -1.3940893   0.04007916   -2.1506026   0.75651323   426349 
 2264000    0.6079543      -2.1504      -2.1504   -1.3946641  0.027418866      -2.1504   0.75573595   426349 
 2265000   0.60822894   -2.1499651   -2.1499651   -1.3938878  0.032443391   -2.1499651   0.75607735   426349 
 2266000   0.60765322   -2.1499388   -2.1499388   -1.3945771  0.041264246   -2.1499388   0.75536168   426349 
 2267000   0.60719016   -2.1493746   -2.1493746   -1.3945886  0.038952756   -2.1493746   0.75478607   426349 
 2268000   0.60762755   -2.1509633   -2.1509633   -1.3956336  0.034087418   -2.1509633   0.75532977   426349 
 2269000   0.60866299   -2.1510565   -2.1510565   -1.3944396  0.033643478   -2.1510565   0.75661691   426349 
 2270000   0.60824969    -2.150855    -2.150855   -1.3947519  0.045503064    -2.150855   0.75610315   426349 
 2271000   0.60901234   -2.1515721   -2.1515721    -1.394521  0.045170592   -2.1515721   0.75705118   426349 
 2272000    0.6086931   -2.1516755   -2.1516755   -1.3950212  0.037659816   -2.1516755   0.75665434   426349 
 2273000   0.60739514   -2.1503365   -2.1503365   -1.3952956  0.040575603   -2.1503365   0.75504087   426349 
 2274000   0.60866208   -2.1529503   -2.1529503   -1.3963345  0.033908657   -2.1529503   0.75661578   426349 
 2275000   0.60788966   -2.1521825   -2.1521825   -1.3965269  0.035089706   -2.1521825    0.7556556   426349 
 2276000   0.60726198   -2.1516088   -2.1516088   -1.3967334  0.035997485   -2.1516088   0.75487534   426349 
 2277000   0.60832585   -2.1530524   -2.1530524   -1.3968546  0.039841109   -2.1530524   0.75619782   426349 
 2278000   0.60762182   -2.1523161   -2.1523161   -1.3969935  0.043423083   -2.1523161   0.75532266   426349 
 2279000   0.60853417   -2.1527497   -2.1527497   -1.3962929  0.040372158   -2.1527497   0.75645678   426349 
 2280000   0.60829408   -2.1524564   -2.1524564   -1.3962981  0.039643476   -2.1524564   0.75615833   426349 
 2281000   0.60894077   -2.1536811   -2.1536811   -1.3967189  0.047612927   -2.1536811   0.75696222   426349 
 2282000   0.60766828   -2.1518312   -2.1518312   -1.3964508  0.042919989   -2.1518312   0.75538041   426349 
 2283000   0.60787131   -2.1520075   -2.1520075   -1.3963747  0.034475901   -2.1520075   0.75563279   426349 
 2284000   0.60871169   -2.1521347   -2.1521347   -1.3954573  0.045214521   -2.1521347   0.75667745   426349 
 2285000   0.60924211   -2.1532305   -2.1532305   -1.3958937  0.039463795   -2.1532305    0.7573368   426349 
 2286000   0.60764084   -2.1512622   -2.1512622   -1.3959159  0.034263072   -2.1512622    0.7553463   426349 
 2287000   0.60844099   -2.1521338   -2.1521338   -1.3957929  0.043394457   -2.1521338   0.75634095   426349 
 2288000   0.60878885   -2.1533567   -2.1533567   -1.3965834  0.035471148   -2.1533567   0.75677336   426349 
 2289000   0.60884761   -2.1528208   -2.1528208   -1.3959744  0.035170543   -2.1528208    0.7568464   426349 
 2290000   0.60709207   -2.1512736   -2.1512736   -1.3966095  0.035427936   -2.1512736   0.75466414   426349 
 2291000   0.60725258   -2.1510846   -2.1510846   -1.3962209  0.041262834   -2.1510846   0.75486366   426349 
 2292000   0.60643324    -2.150057    -2.150057   -1.3962118  0.035753322    -2.150057   0.75384515   426349 
 2293000   0.60698032   -2.1512056   -2.1512056   -1.3966804  0.031985257   -2.1512056   0.75452522   426349 
 2294000    0.6083102   -2.1526188   -2.1526188   -1.3964404  0.039536572   -2.1526188   0.75617837   426349 
 2295000    0.6082044   -2.1532115   -2.1532115   -1.3971646  0.034839228   -2.1532115   0.75604685   426349 
 2296000   0.60693354    -2.151705    -2.151705   -1.3972379  0.039498127    -2.151705   0.75446707   426349 
 2297000   0.60707769    -2.151495    -2.151495   -1.3968487  0.033847442    -2.151495   0.75464626   426349 
 2298000   0.60792483   -2.1520317   -2.1520317   -1.3963324  0.044010739   -2.1520317   0.75569932   426349 
 2299000   0.60817727   -2.1522666   -2.1522666   -1.3962535  0.037271083   -2.1522666   0.75601312   426349 
 2300000   0.60836512   -2.1532227   -2.1532227   -1.3969761  0.034858404   -2.1532227   0.75624664   426349 
 2301000   0.60829806   -2.1525513   -2.1525513   -1.3963881  0.032004309   -2.1525513   0.75616327   426349 
 2302000   0.60872474   -2.1530631   -2.1530631   -1.3963694  0.040271634   -2.1530631   0.75669367   426349 
 2303000   0.60848266   -2.1525195   -2.1525195   -1.3961268  0.043286697   -2.1525195   0.75639274   426349 
 2304000   0.60841489   -2.1528256   -2.1528256   -1.3965171  0.035905166   -2.1528256   0.75630851   426349 
 2305000   0.60737857   -2.1517043   -2.1517043    -1.396684  0.038461187   -2.1517043   0.75502028   426349 
 2306000   0.60797056   -2.1531721   -2.1531721   -1.3974159  0.040641914   -2.1531721   0.75575616   426349 
 2307000    0.6073144   -2.1528782   -2.1528782   -1.3979377  0.035686869   -2.1528782   0.75494051   426349 
 2308000   0.60728734   -2.1518827   -2.1518827   -1.3969758  0.040593417   -2.1518827   0.75490686   426349 
 2309000   0.60706222   -2.1509451   -2.1509451    -1.396318  0.031948912   -2.1509451   0.75462702   426349 
 2310000   0.60765107    -2.152506    -2.152506    -1.397147    0.0350478    -2.152506   0.75535901   426349 
 2311000   0.60807343   -2.1531705   -2.1531705   -1.3972865  0.039615631   -2.1531705   0.75588404   426349 
 2312000   0.60769005   -2.1523046   -2.1523046   -1.3968971  0.042027447   -2.1523046   0.75540747   426349 
 2313000   0.60801376   -2.1525734   -2.1525734   -1.3967635  0.034880596   -2.1525734   0.75580987   426349 
 2314000   0.60950118   -2.1549003   -2.1549003   -1.3972415  0.036398496   -2.1549003   0.75765885   426349 
 2315000    0.6076078   -2.1523753   -2.1523753   -1.3970701  0.046992366   -2.1523753   0.75530522   426349 
 2316000   0.60871937   -2.1537918   -2.1537918   -1.3971048  0.035851443   -2.1537918   0.75668699   426349 
 2317000   0.61024488   -2.1541759   -2.1541759   -1.3955926  0.037222632   -2.1541759   0.75858333   426349 
 2318000    0.6088882   -2.1532753   -2.1532753   -1.3963784  0.039057513   -2.1532753   0.75689686   426349 
 2319000   0.60823967   -2.1525109   -2.1525109   -1.3964202  0.039423724   -2.1525109   0.75609069   426349 
 2320000   0.60869117   -2.1523644   -2.1523644   -1.3957125  0.046210616   -2.1523644   0.75665194   426349 
 2321000   0.60904325   -2.1527845   -2.1527845   -1.3956949  0.043796546   -2.1527845    0.7570896   426349 
 2322000   0.60882621    -2.153364    -2.153364   -1.3965442  0.040953634    -2.153364    0.7568198   426349 
 2323000   0.60838611   -2.1525854   -2.1525854   -1.3963127  0.038591813   -2.1525854   0.75627272   426349 
 2324000   0.60873459   -2.1525146   -2.1525146   -1.3958087  0.036185169   -2.1525146   0.75670592   426349 
 2325000   0.60764795   -2.1521139   -2.1521139   -1.3967588  0.028961523   -2.1521139   0.75535514   426349 
 2326000   0.60850568   -2.1525442   -2.1525442   -1.3961228  0.034206697   -2.1525442   0.75642136   426349 
 2327000    0.6078565   -2.1531323   -2.1531323   -1.3975179  0.043545244   -2.1531323   0.75561438   426349 
 2328000   0.60659895   -2.1507856   -2.1507856   -1.3967345   0.03647575   -2.1507856   0.75405114   426349 
 2329000   0.60681518   -2.1511539   -2.1511539    -1.396834  0.031578754   -2.1511539   0.75431994   426349 
 2330000    0.6074636   -2.1515834   -2.1515834   -1.3964574  0.035800933   -2.1515834   0.75512597   426349 
 2331000   0.60733917   -2.1518449   -2.1518449   -1.3968736  0.033852995   -2.1518449   0.75497129   426349 
 2332000   0.60753971   -2.1519934   -2.1519934   -1.3967728  0.035941091   -2.1519934   0.75522059   426349 
 2333000   0.60747664   -2.1518405   -2.1518405   -1.3966983  0.032187285   -2.1518405   0.75514219   426349 
 2334000    0.6079602   -2.1523386   -2.1523386   -1.3965953  0.041479968   -2.1523386   0.75574329   426349 
 2335000   0.60869738   -2.1530367   -2.1530367   -1.3963771  0.040399253   -2.1530367   0.75665966   426349 
 2336000    0.6084103   -2.1529495   -2.1529495   -1.3966467  0.042294324   -2.1529495    0.7563028   426349 
 2337000   0.60981799   -2.1532247   -2.1532247    -1.395172  0.039575472   -2.1532247   0.75805267   426349 
 2338000   0.60854558   -2.1525351   -2.1525351   -1.3960641  0.032307667   -2.1525351   0.75647096   426349 
 2339000    0.6088911   -2.1533408   -2.1533408   -1.3964403  0.035853312   -2.1533408   0.75690046   426349 
 2340000   0.60905147   -2.1536015   -2.1536015   -1.3965016  0.034713359   -2.1536015   0.75709982   426349 
 2341000   0.60919398   -2.1538691   -2.1538691   -1.3965921   0.03292194   -2.1538691   0.75727698   426349 
 2342000   0.61000776   -2.1547271   -2.1547271   -1.3964385  0.040458918   -2.1547271   0.75828857   426349 
 2343000   0.60856132   -2.1530602   -2.1530602   -1.3965696  0.041696918   -2.1530602   0.75649053   426349 
 2344000   0.60764893   -2.1519986   -2.1519986   -1.3966422   0.04080264   -2.1519986   0.75535635   426349 
 2345000   0.60888205   -2.1542548   -2.1542548   -1.3973656  0.040844731   -2.1542548   0.75688921   426349 
 2346000   0.60883227   -2.1548701   -2.1548701   -1.3980428  0.037917012   -2.1548701   0.75682733   426349 
 2347000    0.6083556   -2.1546095   -2.1546095   -1.3983747  0.038571004   -2.1546095   0.75623479   426349 
 2348000   0.60804939   -2.1544718   -2.1544718   -1.3986176  0.041409676   -2.1544718   0.75585416   426349 
 2349000   0.60806607    -2.155419    -2.155419   -1.3995441  0.035444785    -2.155419   0.75587489   426349 
 2350000   0.60778601   -2.1554044   -2.1554044   -1.3998776  0.037043338   -2.1554044   0.75552675   426349 
 2351000   0.60688204   -2.1542254   -2.1542254   -1.3998224  0.038361498   -2.1542254   0.75440305   426349 
 2352000   0.60753456    -2.155007    -2.155007   -1.3997929  0.035319583    -2.155007   0.75521418   426349 
 2353000   0.60751627   -2.1554733   -2.1554733   -1.4002819  0.040195057   -2.1554733   0.75519145   426349 
 2354000    0.6072855   -2.1544043   -2.1544043   -1.3994997  0.039258338   -2.1544043   0.75490458   426349 
 2355000   0.60628396   -2.1543743   -2.1543743   -1.4007147  0.040474624   -2.1543743   0.75365959   426349 
 2356000   0.60787943    -2.155824    -2.155824   -1.4001811  0.037109538    -2.155824   0.75564288   426349 
 2357000   0.60677852   -2.1536619   -2.1536619   -1.3993876  0.044431249   -2.1536619   0.75427436   426349 
 2358000   0.60812977    -2.155742    -2.155742   -1.3997879  0.034235388    -2.155742   0.75595407   426349 
 2359000   0.60849033   -2.1559184   -2.1559184   -1.3995161  0.041544185   -2.1559184   0.75640228   426349 
 2360000   0.60737103   -2.1537696   -2.1537696   -1.3987587  0.043066823   -2.1537696   0.75501091   426349 
 2361000   0.60725387   -2.1540973   -2.1540973   -1.3992321  0.043056877   -2.1540973   0.75486526   426349 
 2362000   0.60853441   -2.1558728   -2.1558728   -1.3994157  0.041400295   -2.1558728   0.75645707   426349 
 2363000   0.60864822   -2.1551231   -2.1551231   -1.3985245  0.040704347   -2.1551231   0.75659855   426349 
 2364000   0.60916343   -2.1559351   -2.1559351   -1.3986961  0.035938404   -2.1559351     0.757239   426349 
 2365000   0.60844926   -2.1551697   -2.1551697   -1.3988185  0.041606101   -2.1551697   0.75635122   426349 
 2366000   0.60787083   -2.1539055   -2.1539055   -1.3982733  0.038748883   -2.1539055    0.7556322   426349 
 2367000   0.60870897   -2.1551443   -2.1551443   -1.3984702  0.042439454   -2.1551443   0.75667407   426349 
 2368000   0.60819887   -2.1543892   -2.1543892   -1.3983492  0.043735674   -2.1543892   0.75603997   426349 
 2369000   0.60964119   -2.1554534   -2.1554534   -1.3976205  0.046252265   -2.1554534   0.75783289   426349 
 2370000   0.60790677   -2.1546669   -2.1546669     -1.39899  0.038384685   -2.1546669   0.75567687   426349 
 2371000   0.60811912    -2.155126    -2.155126   -1.3991852  0.039009227    -2.155126   0.75594084   426349 
 2372000   0.60743524   -2.1541675   -2.1541675   -1.3990768  0.036230425   -2.1541675   0.75509072   426349 
 2373000   0.60747965   -2.1545008   -2.1545008   -1.3993548  0.034282258   -2.1545008   0.75514593   426349 
 2374000   0.60714192   -2.1548596   -2.1548596   -1.4001335  0.035380574   -2.1548596    0.7547261   426349 
 2375000   0.60702865   -2.1540477   -2.1540477   -1.3994625  0.038534658   -2.1540477   0.75458529   426349 
 2376000   0.60878695   -2.1552234   -2.1552234   -1.3984524  0.036135604   -2.1552234     0.756771   426349 
 2377000   0.60804227   -2.1546571   -2.1546571   -1.3988118  0.034834565   -2.1546571    0.7558453   426349 
 2378000   0.60726932   -2.1538695   -2.1538695    -1.398985  0.035773219   -2.1538695   0.75488447   426349 
 2379000   0.60678447   -2.1541519   -2.1541519   -1.3998702   0.03578862   -2.1541519   0.75428176   426349 
 2380000    0.6082332   -2.1541377   -2.1541377   -1.3980551  0.040808568   -2.1541377   0.75608264   426349 
 2381000   0.60808405   -2.1548281   -2.1548281   -1.3989309  0.036183154   -2.1548281   0.75589724   426349 
 2382000    0.6089749   -2.1562918   -2.1562918   -1.3992871  0.036471387   -2.1562918   0.75700464   426349 
 2383000   0.60816654   -2.1559006   -2.1559006   -1.3999009  0.048907725   -2.1559006   0.75599978   426349 
 2384000   0.60837682    -2.156017    -2.156017   -1.3997558  0.046556066    -2.156017   0.75626118   426349 
 2385000   0.60755609   -2.1554254   -2.1554254   -1.4001845  0.042090029   -2.1554254   0.75524095   426349 
 2386000    0.6076577   -2.1553144   -2.1553144   -1.3999472  0.038531884   -2.1553144   0.75536725   426349 
 2387000   0.60765337   -2.1549185   -2.1549185   -1.3995566  0.035062342   -2.1549185   0.75536187   426349 
 2388000   0.60719149   -2.1545633   -2.1545633   -1.3997755  0.047754497   -2.1545633   0.75478772   426349 
 2389000   0.60755124   -2.1548677   -2.1548677   -1.3996328  0.035751819   -2.1548677   0.75523492   426349 
 2390000   0.60833904   -2.1559501   -2.1559501   -1.3997359  0.038156614   -2.1559501   0.75621421   426349 
 2391000   0.60895642   -2.1567458   -2.1567458   -1.3997641  0.041710538   -2.1567458   0.75698166   426349 
 2392000   0.60750253   -2.1549185   -2.1549185   -1.3997442  0.039558877   -2.1549185   0.75517436   426349 
 2393000   0.60836675   -2.1556311   -2.1556311   -1.3993825  0.038988904   -2.1556311   0.75624866   426349 
 2394000   0.60772399   -2.1556463   -2.1556463   -1.4001966  0.040590472   -2.1556463   0.75544966   426349 
 2395000   0.60784231   -2.1551771   -2.1551771   -1.3995804  0.039850534   -2.1551771   0.75559674   426349 
 2396000   0.60916949   -2.1555745   -2.1555745    -1.398328  0.031588084   -2.1555745   0.75724653   426349 
 2397000   0.60936328   -2.1563463   -2.1563463   -1.3988589   0.03715443   -2.1563463   0.75748743   426349 
 2398000   0.60790084   -2.1554679   -2.1554679   -1.3997984  0.038725888   -2.1554679    0.7556695   426349 
 2399000   0.60812377   -2.1557265   -2.1557265   -1.3997799  0.035848688   -2.1557265   0.75594662   426349 
 2400000   0.60794082   -2.1558791   -2.1558791     -1.40016  0.037512243   -2.1558791   0.75571919   426349 
 2401000   0.60791202   -2.1557665   -2.1557665   -1.4000831  0.037313077   -2.1557665    0.7556834   426349 
 2402000    0.6068082   -2.1545551   -2.1545551   -1.4002439  0.035180346   -2.1545551   0.75431125   426349 
 2403000   0.60739613   -2.1559035   -2.1559035   -1.4008614   0.03473559   -2.1559035    0.7550421   426349 
 2404000   0.60718029   -2.1561263   -2.1561263   -1.4013525  0.039391566   -2.1561263    0.7547738   426349 
 2405000   0.60638182   -2.1552068   -2.1552068   -1.4014255  0.035961147   -2.1552068   0.75378123   426349 
 2406000   0.60728571   -2.1565087   -2.1565087   -1.4016039  0.039496922   -2.1565087   0.75490484   426349 
 2407000   0.60773933   -2.1564174   -2.1564174   -1.4009487  0.038243638   -2.1564174   0.75546872   426349 
 2408000   0.60819243   -2.1571733   -2.1571733   -1.4011414  0.038703582   -2.1571733   0.75603196   426349 
 2409000   0.60838307   -2.1576816   -2.1576816   -1.4014126  0.035906889   -2.1576816   0.75626895   426349 
 2410000   0.60829058   -2.1576484   -2.1576484   -1.4014944  0.040456783   -2.1576484   0.75615398   426349 
 2411000   0.60749271   -2.1565511   -2.1565511    -1.401389  0.042956404   -2.1565511   0.75516216   426349 
 2412000   0.60756559   -2.1566865   -2.1566865   -1.4014338  0.035773362   -2.1566865   0.75525275   426349 
 2413000   0.60746434   -2.1564324   -2.1564324   -1.4013055  0.038586836   -2.1564324    0.7551269   426349 
 2414000   0.60866125   -2.1579427   -2.1579427   -1.4013279  0.040048207   -2.1579427   0.75661475   426349 
 2415000   0.60738589   -2.1570567   -2.1570567   -1.4020273   0.04054646   -2.1570567   0.75502937   426349 
 2416000   0.60859161   -2.1577461   -2.1577461   -1.4012179  0.044357455   -2.1577461   0.75652817   426349 
 2417000   0.60803515   -2.1577774   -2.1577774    -1.401941   0.03615059   -2.1577774   0.75583646   426349 
 2418000   0.60796386    -2.157732    -2.157732   -1.4019841  0.037871892    -2.157732   0.75574784   426349 
 2419000   0.60748335   -2.1570548   -2.1570548   -1.4019043  0.041679526   -2.1570548   0.75515052   426349 
 2420000   0.60848786   -2.1581829   -2.1581829   -1.4017837  0.040879348   -2.1581829   0.75639921   426349 
 2421000   0.60656981   -2.1562326   -2.1562326   -1.4022177  0.037625411   -2.1562326   0.75401492   426349 
 2422000    0.6083759   -2.1575613   -2.1575613   -1.4013013  0.029978357   -2.1575613   0.75626003   426349 
 2423000   0.60819094   -2.1579259   -2.1579259   -1.4018958  0.039385133   -2.1579259   0.75603012   426349 
 2424000   0.60720867   -2.1564077   -2.1564077   -1.4015987  0.044502995   -2.1564077   0.75480908   426349 
 2425000   0.60752964   -2.1571327   -2.1571327   -1.4019246  0.035010185   -2.1571327   0.75520806   426349 
 2426000   0.60751713   -2.1569279   -2.1569279   -1.4017353  0.042548551   -2.1569279   0.75519252   426349 
 2427000   0.60742401   -2.1570701   -2.1570701   -1.4019933  0.046620666   -2.1570701   0.75507676   426349 
 2428000   0.60770977   -2.1570686   -2.1570686   -1.4016367  0.036400462   -2.1570686   0.75543199   426349 
 2429000    0.6081486   -2.1579497   -2.1579497   -1.4019723  0.036220934   -2.1579497   0.75597748   426349 
 2430000   0.60786415   -2.1582282   -2.1582282   -1.4026043  0.037531637   -2.1582282   0.75562389   426349 
 2431000   0.60664367   -2.1564729   -2.1564729   -1.4023661  0.034130866   -2.1564729   0.75410673   426349 
 2432000   0.60840446   -2.1577821   -2.1577821   -1.4014866  0.046610867   -2.1577821   0.75629554   426349 
 2433000   0.60787211   -2.1572614   -2.1572614   -1.4016277  0.036802307   -2.1572614   0.75563378   426349 
 2434000   0.60723732   -2.1568341   -2.1568341   -1.4019894  0.044311303   -2.1568341   0.75484469   426349 
 2435000   0.60834972   -2.1583073   -2.1583073   -1.4020798  0.036334506   -2.1583073   0.75622749   426349 
 2436000   0.60734751   -2.1572347   -2.1572347   -1.4022531  0.039203351   -2.1572347   0.75498166   426349 
 2437000   0.60599461   -2.1561221   -2.1561221   -1.4028222  0.036977782   -2.1561221    0.7532999   426349 
 2438000   0.60727509   -2.1573418   -2.1573418   -1.4024502  0.042303183   -2.1573418   0.75489165   426349 
 2439000   0.60758458   -2.1582099   -2.1582099   -1.4029335  0.036255246   -2.1582099   0.75527636   426349 
 2440000   0.60791834   -2.1574658   -2.1574658   -1.4017745  0.033474824   -2.1574658   0.75569126   426349 
 2441000   0.60746338   -2.1565848   -2.1565848   -1.4014591  0.034482734   -2.1565848    0.7551257   426349 
 2442000   0.60877731   -2.1579212   -2.1579212   -1.4011622   0.03342276   -2.1579212   0.75675902   426349 
 2443000   0.60866575   -2.1581237   -2.1581237   -1.4015034  0.037346766   -2.1581237   0.75662034   426349 
 2444000   0.60744504   -2.1558264   -2.1558264   -1.4007235  0.044740611   -2.1558264    0.7551029   426349 
 2445000   0.60801306   -2.1561654   -2.1561654   -1.4003564  0.042426372   -2.1561654     0.755809   426349 
 2446000   0.60887861   -2.1575603   -2.1575603   -1.4006754  0.037441009   -2.1575603   0.75688494   426349 
 2447000   0.60717486   -2.1558753   -2.1558753   -1.4011082  0.040753499   -2.1558753   0.75476705   426349 
 2448000    0.6073749   -2.1569223   -2.1569223   -1.4019066  0.039384991   -2.1569223   0.75501571   426349 
 2449000   0.60741679   -2.1568808   -2.1568808    -1.401813  0.035434732   -2.1568808   0.75506779   426349 
 2450000   0.60651623   -2.1564801   -2.1564801   -1.4025318  0.035451816   -2.1564801   0.75394832   426349 
 2451000   0.60712063   -2.1565427   -2.1565427   -1.4018431  0.037930557   -2.1565427   0.75469963   426349 
 2452000   0.60681037   -2.1562309   -2.1562309   -1.4019169  0.040204658   -2.1562309   0.75431396   426349 
 2453000   0.60881294   -2.1582814   -2.1582814   -1.4014781   0.04360129   -2.1582814   0.75680332   426349 
 2454000   0.60903346   -2.1578205   -2.1578205    -1.400743  0.039899377   -2.1578205   0.75707743   426349 
 2455000   0.60820334   -2.1573516   -2.1573516    -1.401306  0.040968885   -2.1573516   0.75604553   426349 
 2456000   0.60854303   -2.1575818   -2.1575818    -1.401114  0.041119254   -2.1575818    0.7564678   426349 
 2457000   0.60884162   -2.1576427   -2.1576427   -1.4008038  0.035293598   -2.1576427   0.75683897   426349 
 2458000   0.60859147   -2.1576966   -2.1576966   -1.4011686  0.046891728   -2.1576966     0.756528   426349 
 2459000   0.60893503   -2.1583645   -2.1583645   -1.4014094    0.0409172   -2.1583645   0.75695508   426349 
 2460000   0.60917682   -2.1593156   -2.1593156     -1.40206   0.04112266   -2.1593156   0.75725565   426349 
 2461000   0.60915839   -2.1584768   -2.1584768   -1.4012441  0.030371173   -2.1584768   0.75723273   426349 
 2462000   0.60778166    -2.157984    -2.157984   -1.4024626  0.041631471    -2.157984   0.75552135   426349 
 2463000    0.6087908   -2.1594427   -2.1594427   -1.4026669  0.036464623   -2.1594427   0.75677579   426349 
 2464000    0.6078185   -2.1584493   -2.1584493   -1.4028822    0.0360152   -2.1584493   0.75556715   426349 
 2465000   0.60681609    -2.157209    -2.157209    -1.402888  0.033708874    -2.157209   0.75432106   426349 
 2466000   0.60825247   -2.1586527   -2.1586527   -1.4025461  0.032829914   -2.1586527    0.7561066   426349 
 2467000   0.60763351   -2.1578326   -2.1578326   -1.4024955  0.038352064   -2.1578326   0.75533718   426349 
 2468000   0.60735796   -2.1577628   -2.1577628   -1.4027681  0.036248816   -2.1577628   0.75499466   426349 
 2469000   0.60750819   -2.1576439   -2.1576439   -1.4024625  0.041155019   -2.1576439    0.7551814   426349 
 2470000   0.60834726   -2.1589219   -2.1589219   -1.4026975  0.040568921   -2.1589219   0.75622443   426349 
 2471000   0.60730837   -2.1578253   -2.1578253   -1.4028923  0.035346118   -2.1578253   0.75493301   426349 
 2472000   0.60833421    -2.158156    -2.158156   -1.4019478  0.041718245    -2.158156   0.75620821   426349 
 2473000   0.60865488   -2.1579787   -2.1579787   -1.4013719   0.03983462   -2.1579787   0.75660682   426349 
 2474000   0.60825699   -2.1575272   -2.1575272   -1.4014149  0.037866722   -2.1575272   0.75611223   426349 
 2475000   0.60914096    -2.158068    -2.158068    -1.400857  0.042117423    -2.158068   0.75721106   426349 
 2476000    0.6082264   -2.1572913   -2.1572913   -1.4012171  0.044500279   -2.1572913   0.75607419   426349 
 2477000   0.60754573   -2.1574343   -2.1574343   -1.4022062  0.035928358   -2.1574343   0.75522806   426349 
 2478000   0.60762115   -2.1566271   -2.1566271   -1.4013053  0.040695403   -2.1566271   0.75532182   426349 
 2479000   0.60697443   -2.1562093   -2.1562093   -1.4016914  0.034826888   -2.1562093   0.75451789   426349 
 2480000   0.60796716   -2.1583107   -2.1583107   -1.4025588  0.034156575   -2.1583107   0.75575194   426349 
 2481000   0.60802696   -2.1581984   -2.1581984   -1.4023722  0.037346715   -2.1581984   0.75582627   426349 
 2482000   0.60848799   -2.1586366   -2.1586366   -1.4022373  0.039287433   -2.1586366   0.75639938   426349 
 2483000   0.60734116   -2.1562592   -2.1562592   -1.4012854  0.039826523   -2.1562592   0.75497377   426349 
 2484000   0.60792627   -2.1578954   -2.1578954   -1.4021942  0.041272016   -2.1578954   0.75570111   426349 
 2485000   0.60883246   -2.1584838   -2.1584838   -1.4016562  0.036650546   -2.1584838   0.75682758   426349 
 2486000   0.60751437   -2.1568092   -2.1568092   -1.4016201  0.041452428   -2.1568092   0.75518909   426349 
 2487000   0.60767461   -2.1581131   -2.1581131   -1.4027249  0.037652037   -2.1581131   0.75538828   426349 
 2488000    0.6085971   -2.1585869   -2.1585869   -1.4020519  0.041226779   -2.1585869   0.75653501   426349 
 2489000   0.60752596   -2.1576805   -2.1576805    -1.402477  0.033291713   -2.1576805   0.75520349   426349 
 2490000   0.60884225   -2.1589563   -2.1589563   -1.4021165   0.04147899   -2.1589563   0.75683975   426349 
 2491000   0.60690012   -2.1560658   -2.1560658   -1.4016403  0.036257097   -2.1560658   0.75442553   426349 
 2492000   0.60752738   -2.1571346   -2.1571346   -1.4019294  0.040155043   -2.1571346   0.75520525   426349 
 2493000     0.607504   -2.1575396   -2.1575396   -1.4023634  0.037532501   -2.1575396   0.75517619   426349 
 2494000    0.6085895    -2.158161    -2.158161   -1.4016354  0.043820285    -2.158161   0.75652555   426349 
 2495000   0.60829779   -2.1585412   -2.1585412   -1.4023782  0.041048923   -2.1585412   0.75616294   426349 
 2496000   0.60803339   -2.1581855   -2.1581855   -1.4023513  0.039136322   -2.1581855   0.75583427   426349 
 2497000   0.60816577   -2.1575447   -2.1575447   -1.4015459  0.048850979   -2.1575447   0.75599883   426349 
 2498000   0.60798111   -2.1573963   -2.1573963    -1.401627  0.031982817   -2.1573963   0.75576927   426349 
 2499000   0.60833624   -2.1576483   -2.1576483   -1.4014376  0.044265511   -2.1576483   0.75621074   426349 
 2500000   0.60714942   -2.1570347   -2.1570347   -1.4022992  0.041419368   -2.1570347   0.75473542   426349 
 2501000   0.60800145    -2.157128    -2.157128   -1.4013334  0.034888638    -2.157128   0.75579456   426349 
 2502000   0.60762333    -2.156969    -2.156969   -1.4016444  0.040275371    -2.156969   0.75532453   426349 
 2503000   0.60752006   -2.1568927   -2.1568927   -1.4016966  0.030097746   -2.1568927   0.75519615   426349 
 2504000   0.60689468   -2.1558903   -2.1558903   -1.4014716  0.032142879   -2.1558903   0.75441876   426349 
 2505000   0.60879303   -2.1572073   -2.1572073   -1.4004288  0.039563933   -2.1572073   0.75677856   426349 
 2506000   0.60864965   -2.1569177   -2.1569177   -1.4003174  0.039998585   -2.1569177   0.75660033   426349 
 2507000   0.60916923   -2.1577859   -2.1577859   -1.4005397  0.039896872   -2.1577859   0.75724621   426349 
 2508000   0.60947394   -2.1581612   -2.1581612   -1.4005362  0.039178127   -2.1581612   0.75762498   426349 
 2509000   0.60781811   -2.1572398   -2.1572398   -1.4016731  0.032863866   -2.1572398   0.75556666   426349 
 2510000   0.60735306   -2.1559201   -2.1559201   -1.4009315   0.03777051   -2.1559201   0.75498856   426349 
 2511000    0.6077562   -2.1561807   -2.1561807    -1.400691  0.043444021   -2.1561807   0.75548969   426349 
 2512000   0.60799467   -2.1571924   -2.1571924   -1.4014063  0.038258809   -2.1571924   0.75578613   426349 
 2513000   0.60817219   -2.1572355   -2.1572355   -1.4012287  0.036868223   -2.1572355   0.75600681   426349 
 2514000   0.60769103   -2.1567503   -2.1567503   -1.4013416  0.033233494   -2.1567503   0.75540869   426349 
 2515000   0.60860204    -2.157177    -2.157177   -1.4006359  0.034785788    -2.157177   0.75654114   426349 
 2516000   0.60881463   -2.1574551   -2.1574551   -1.4006497  0.042925821   -2.1574551   0.75680541   426349 
 2517000   0.60795636   -2.1562776   -2.1562776   -1.4005391  0.040771997   -2.1562776   0.75573851   426349 
 2518000   0.60879695   -2.1572541   -2.1572541   -1.4004707  0.035351773   -2.1572541   0.75678344   426349 
 2519000    0.6078261   -2.1567656   -2.1567656    -1.401189  0.038100677   -2.1567656   0.75557658   426349 
 2520000   0.60906865   -2.1578601   -2.1578601    -1.400739  0.038997621   -2.1578601   0.75712119   426349 
 2521000   0.60705391   -2.1560471   -2.1560471   -1.4014304   0.04374814   -2.1560471    0.7546167   426349 
 2522000   0.60789733   -2.1567393   -2.1567393   -1.4010741  0.037720672   -2.1567393   0.75566513   426349 
 2523000   0.60657388    -2.155129    -2.155129    -1.401109  0.046974259    -2.155129   0.75401999   426349 
 2524000   0.60896818   -2.1579288   -2.1579288   -1.4009325  0.037830237   -2.1579288   0.75699629   426349 
 2525000   0.60785096   -2.1566318   -2.1566318   -1.4010243  0.031960054   -2.1566318   0.75560749   426349 
 2526000   0.60681628   -2.1562043   -2.1562043    -1.401883  0.035937434   -2.1562043   0.75432131   426349 
 2527000   0.60701298    -2.156287    -2.156287   -1.4017211  0.040600467    -2.156287   0.75456582   426349 
 2528000    0.6074137   -2.1562977   -2.1562977   -1.4012338  0.037257809   -2.1562977   0.75506394   426349 
 2529000   0.60841232   -2.1569746   -2.1569746   -1.4006693  0.034871976   -2.1569746   0.75630531   426349 
 2530000   0.60916727   -2.1582575   -2.1582575   -1.4010137  0.032247417   -2.1582575   0.75724378   426349 
 2531000   0.60829718   -2.1563777   -2.1563777   -1.4002155  0.036544253   -2.1563777   0.75616218   426349 
 2532000   0.60792277   -2.1563627   -2.1563627   -1.4006659  0.038322478   -2.1563627   0.75569675   426349 
 2533000   0.60818317   -2.1570298   -2.1570298   -1.4010094  0.040495904   -2.1570298   0.75602046   426349 
 2534000   0.60827321   -2.1580989   -2.1580989   -1.4019665  0.036466513   -2.1580989   0.75613239   426349 
 2535000   0.60836235    -2.157577    -2.157577   -1.4013338  0.037281173    -2.157577   0.75624319   426349 
 2536000    0.6085238   -2.1579288   -2.1579288   -1.4014849  0.044224522   -2.1579288   0.75644388   426349 
 2537000   0.60791402   -2.1571705   -2.1571705   -1.4014847  0.037875052   -2.1571705   0.75568588   426349 
 2538000   0.60817597   -2.1578311   -2.1578311   -1.4018196  0.037255905   -2.1578311   0.75601151   426349 
 2539000   0.60875124   -2.1586976   -2.1586976    -1.401971  0.040760557   -2.1586976   0.75672662   426349 
 2540000   0.60763564   -2.1575937   -2.1575937   -1.4022539  0.037990205   -2.1575937   0.75533983   426349 
 2541000   0.60837563   -2.1582523   -2.1582523   -1.4019926  0.037105484   -2.1582523    0.7562597   426349 
 2542000   0.60927375    -2.159578    -2.159578   -1.4022018  0.037857079    -2.159578   0.75737613   426349 
 2543000   0.60886416   -2.1590429   -2.1590429   -1.4021759  0.037484913   -2.1590429   0.75686698   426349 
 2544000    0.6078902   -2.1584198   -2.1584198   -1.4027635  0.038872362   -2.1584198   0.75565628   426349 
 2545000   0.60858015   -2.1594888   -2.1594888   -1.4029748   0.03438842   -2.1594888   0.75651393   426349 
 2546000   0.60822953    -2.159315    -2.159315   -1.4032369  0.038553966    -2.159315   0.75607809   426349 
 2547000   0.60677775   -2.1589566   -2.1589566   -1.4046832  0.038871331   -2.1589566    0.7542734   426349 
 2548000   0.60769064   -2.1593322   -2.1593322    -1.403924  0.039248695   -2.1593322   0.75540821   426349 
 2549000   0.60793045   -2.1595377   -2.1595377   -1.4038314  0.043256481   -2.1595377    0.7557063   426349 
 2550000   0.60739919   -2.1585261   -2.1585261   -1.4034802  0.036871459   -2.1585261   0.75504591   426349 
 2551000   0.60710691   -2.1577929   -2.1577929   -1.4031104  0.038580973   -2.1577929   0.75468258   426349 
 2552000   0.60794059   -2.1590151   -2.1590151   -1.4032962  0.034935142   -2.1590151   0.75571891   426349 
 2553000   0.60796514   -2.1595774   -2.1595774   -1.4038279  0.036360184   -2.1595774   0.75574943   426349 
 2554000   0.60716659   -2.1593178   -2.1593178    -1.404561  0.044580323   -2.1593178   0.75475677   426349 
 2555000   0.60803697   -2.1602311   -2.1602311   -1.4043924  0.037722897   -2.1602311   0.75583872   426349 
 2556000   0.60758361   -2.1594274   -2.1594274   -1.4041522  0.033980593   -2.1594274   0.75527516   426349 
 2557000   0.60766312   -2.1601109   -2.1601109   -1.4047369  0.035598927   -2.1601109     0.755374   426349 
 2558000   0.60658466   -2.1588162   -2.1588162   -1.4047828  0.039696709   -2.1588162   0.75403338   426349 
 2559000   0.60721016   -2.1595928   -2.1595928   -1.4047819  0.035487191   -2.1595928   0.75481093   426349 
 2560000   0.60849762    -2.160604    -2.160604   -1.4041926  0.035250142    -2.160604   0.75641134   426349 
 2561000   0.60714494   -2.1592086   -2.1592086   -1.4044787  0.030911608   -2.1592086   0.75472986   426349 
 2562000   0.60733503   -2.1604629   -2.1604629   -1.4054968  0.035085817   -2.1604629   0.75496615   426349 
 2563000   0.60696786   -2.1595075   -2.1595075   -1.4049977  0.041043224   -2.1595075   0.75450973   426349 
 2564000    0.6063946   -2.1593129   -2.1593129   -1.4055158  0.039093501   -2.1593129   0.75379712   426349 
 2565000   0.60773859   -2.1605167   -2.1605167   -1.4050489  0.040452308   -2.1605167    0.7554678   426349 
 2566000   0.60795721   -2.1608668   -2.1608668   -1.4051272  0.034128955   -2.1608668   0.75573957   426349 
 2567000   0.60792315   -2.1607855   -2.1607855   -1.4050883  0.040823436   -2.1607855   0.75569723   426349 
 2568000   0.60890387   -2.1614911   -2.1614911   -1.4045748  0.039383942   -2.1614911   0.75691634   426349 
 2569000   0.60855347   -2.1603476   -2.1603476   -1.4038668  0.041948894   -2.1603476   0.75648077   426349 
 2570000   0.60949136   -2.1619438   -2.1619438   -1.4042972  0.039632814   -2.1619438   0.75764664   426349 
 2571000    0.6082389    -2.160353    -2.160353   -1.4042632  0.045151346    -2.160353   0.75608974   426349 
 2572000   0.60885355   -2.1606722   -2.1606722   -1.4038184   0.03818246   -2.1606722    0.7568538   426349 
 2573000   0.60878378   -2.1608482   -2.1608482   -1.4040811  0.043164249   -2.1608482   0.75676706   426349 
 2574000   0.60850853   -2.1608173   -2.1608173   -1.4043924  0.041644878   -2.1608173    0.7564249   426349 
 2575000   0.60914097   -2.1614148   -2.1614148   -1.4042037  0.039048667   -2.1614148   0.75721108   426349 
 2576000   0.60860359   -2.1601129   -2.1601129   -1.4035698  0.036319891   -2.1601129   0.75654308   426349 
 2577000   0.60942567   -2.1610541   -2.1610541   -1.4034891  0.037807079   -2.1610541   0.75756498   426349 
 2578000    0.6066688   -2.1582499   -2.1582499   -1.4041119  0.036974373   -2.1582499   0.75413797   426349 
 2579000   0.60708846   -2.1594326   -2.1594326   -1.4047729  0.035335942   -2.1594326   0.75465965   426349 
 2580000   0.60708571   -2.1584206   -2.1584206   -1.4037644  0.036639194   -2.1584206   0.75465623   426349 
 2581000   0.60798148   -2.1593506   -2.1593506   -1.4035808  0.037296385   -2.1593506   0.75576975   426349 
 2582000   0.60787632   -2.1587978   -2.1587978   -1.4031588  0.031956466   -2.1587978   0.75563901   426349 
 2583000   0.60747528   -2.1585233   -2.1585233   -1.4033828  0.045338901   -2.1585233    0.7551405   426349 
 2584000   0.60776746   -2.1583266   -2.1583266   -1.4028229  0.036162771   -2.1583266    0.7555037   426349 
 2585000   0.60726102   -2.1583573   -2.1583573   -1.4034831  0.035563405   -2.1583573   0.75487415   426349 
 2586000   0.60657671   -2.1579613   -2.1579613   -1.4039378  0.036440587   -2.1579613    0.7540235   426349 
 2587000   0.60747835   -2.1586567   -2.1586567   -1.4035123  0.034629149   -2.1586567    0.7551443   426349 
 2588000   0.60599206   -2.1575582   -2.1575582   -1.4042614  0.043124582   -2.1575582   0.75329674   426349 
 2589000   0.60780099   -2.1592563   -2.1592563   -1.4037109  0.035158173   -2.1592563   0.75554537   426349 
 2590000    0.6071448   -2.1593778   -2.1593778   -1.4046481  0.033324541   -2.1593778   0.75472968   426349 
 2591000   0.60747097   -2.1593825   -2.1593825   -1.4042474  0.037668074   -2.1593825   0.75513513   426349 
 2592000   0.60717765   -2.1591241   -2.1591241   -1.4043536  0.036139917   -2.1591241   0.75477051   426349 
 2593000   0.60866462   -2.1609865   -2.1609865   -1.4043675  0.039675742   -2.1609865   0.75661894   426349 
 2594000   0.60793115   -2.1604057   -2.1604057   -1.4046985  0.044945824   -2.1604057   0.75570718   426349 
 2595000   0.60804176     -2.16025     -2.16025   -1.4044054  0.043019645     -2.16025   0.75584467   426349 
 2596000   0.60721014   -2.1599926   -2.1599926   -1.4051817  0.039036526   -2.1599926    0.7548109   426349 
 2597000   0.60771946   -2.1618238   -2.1618238   -1.4063797  0.034464158   -2.1618238   0.75544403   426349 
 2598000   0.60756284    -2.160287    -2.160287   -1.4050377  0.040780476    -2.160287   0.75524934   426349 
 2599000   0.60804341   -2.1608104   -2.1608104   -1.4049637  0.047583551   -2.1608104   0.75584673   426349 
 2600000   0.60678254   -2.1603012   -2.1603012   -1.4060219  0.039736168   -2.1603012   0.75427936   426349 
 2601000   0.60701231   -2.1602972   -2.1602972   -1.4057322  0.036573495   -2.1602972   0.75456499   426349 
 2602000   0.60723859   -2.1619844   -2.1619844   -1.4071382  0.039596569   -2.1619844   0.75484627   426349 
 2603000   0.60793346   -2.1622784   -2.1622784   -1.4065684  0.033976608   -2.1622784   0.75571004   426349 
 2604000    0.6068809   -2.1610599   -2.1610599   -1.4066583  0.040628057   -2.1610599   0.75440163   426349 
 2605000   0.60789406    -2.161478    -2.161478   -1.4058169  0.039896973    -2.161478   0.75566107   426349 
 2606000   0.60774126   -2.1610423   -2.1610423   -1.4055712  0.031089154   -2.1610423   0.75547113   426349 
 2607000    0.6083911   -2.1621424   -2.1621424   -1.4058635  0.030450062   -2.1621424   0.75627892   426349 
 2608000   0.60814087   -2.1621371   -2.1621371   -1.4061692  0.034690533   -2.1621371   0.75596788   426349 
 2609000    0.6083136   -2.1621261   -2.1621261   -1.4059435  0.036963956   -2.1621261   0.75618259   426349 
 2610000   0.60826991   -2.1619128   -2.1619128   -1.4057846  0.042902645   -2.1619128   0.75612828   426349 
 2611000   0.60849605   -2.1622113   -2.1622113   -1.4058019  0.039643135   -2.1622113   0.75640939   426349 
 2612000   0.60869553   -2.1622853   -2.1622853   -1.4056279  0.040826005   -2.1622853   0.75665737   426349 
 2613000   0.60798787   -2.1615134   -2.1615134   -1.4057357  0.044566138   -2.1615134   0.75577768   426349 
 2614000    0.6075853   -2.1609499   -2.1609499   -1.4056727  0.035308088   -2.1609499   0.75527726   426349 
 2615000   0.60713912   -2.1599876   -2.1599876    -1.405265  0.041528163   -2.1599876   0.75472261   426349 
 2616000   0.60766903   -2.1605145   -2.1605145   -1.4051331  0.029945971   -2.1605145   0.75538134   426349 
 2617000   0.60858249   -2.1613215   -2.1613215   -1.4048047  0.035776715   -2.1613215   0.75651684   426349 
 2618000   0.60816797   -2.1618316   -2.1618316   -1.4058301  0.038395955   -2.1618316   0.75600156   426349 
 2619000   0.60769485   -2.1612049   -2.1612049   -1.4057914  0.032870409   -2.1612049   0.75541343   426349 
 2620000   0.60522995   -2.1591781   -2.1591781   -1.4068288  0.038185498   -2.1591781   0.75234936   426349 
 2621000   0.60647362   -2.1597384   -2.1597384   -1.4058431   0.03133901   -2.1597384   0.75389535   426349 
 2622000   0.60696777   -2.1608465   -2.1608465   -1.4063368  0.034637113   -2.1608465   0.75450962   426349 
 2623000   0.60552734   -2.1594388   -2.1594388   -1.4067197   0.03337959   -2.1594388   0.75271905   426349 
 2624000   0.60614796   -2.1599497   -2.1599497   -1.4064592   0.03413522   -2.1599497   0.75349053   426349 
 2625000   0.60701581    -2.160627    -2.160627   -1.4060576  0.037319319    -2.160627   0.75456934   426349 
 2626000   0.60755903   -2.1615474   -2.1615474   -1.4063028  0.032904563   -2.1615474    0.7552446   426349 
 2627000   0.60762578   -2.1617271   -2.1617271   -1.4063995  0.034289602   -2.1617271   0.75532757   426349 
 2628000    0.6066547   -2.1608165   -2.1608165   -1.4066961  0.040367376   -2.1608165   0.75412045   426349 
 2629000   0.60769665    -2.161267    -2.161267   -1.4058513  0.035507214    -2.161267   0.75541567   426349 
 2630000   0.60757831    -2.161495    -2.161495   -1.4062265   0.03631785    -2.161495   0.75526857   426349 
 2631000   0.60780259   -2.1617702   -2.1617702   -1.4062228   0.03981231   -2.1617702   0.75554737   426349 
 2632000   0.60754194   -2.1613501   -2.1613501   -1.4061267  0.041774885   -2.1613501   0.75522336   426349 
 2633000   0.60809182   -2.1616372   -2.1616372   -1.4057303  0.036779145   -2.1616372   0.75590691   426349 
 2634000   0.60755736   -2.1615926   -2.1615926   -1.4063501  0.039909896   -2.1615926   0.75524252   426349 
 2635000   0.60925678   -2.1624084   -2.1624084   -1.4050534  0.036342874   -2.1624084   0.75735505   426349 
 2636000   0.60748563   -2.1609755   -2.1609755   -1.4058222  0.036961233   -2.1609755   0.75515335   426349 
 2637000   0.60779867   -2.1617065   -2.1617065    -1.406164  0.044294408   -2.1617065   0.75554249   426349 
 2638000   0.60901684   -2.1622509   -2.1622509   -1.4051942  0.037076164   -2.1622509   0.75705678   426349 
 2639000   0.60893422   -2.1630617   -2.1630617   -1.4061076   0.03176701   -2.1630617   0.75695407   426349 
 2640000   0.60727663   -2.1607723   -2.1607723   -1.4058787  0.044726405   -2.1607723   0.75489356   426349 
 2641000   0.60863237   -2.1625539   -2.1625539    -1.405975  0.041577995   -2.1625539   0.75657885   426349 
 2642000   0.60809016   -2.1620997   -2.1620997   -1.4061949  0.035966737   -2.1620997   0.75590483   426349 
 2643000   0.60778318   -2.1627314   -2.1627314   -1.4072081  0.038609697   -2.1627314   0.75552324   426349 
 2644000   0.60753583    -2.162458    -2.162458   -1.4072422  0.041350662    -2.162458   0.75521577   426349 
 2645000   0.60795805   -2.1630299   -2.1630299   -1.4072893  0.038275787   -2.1630299   0.75574061   426349 
 2646000   0.60781414   -2.1628171   -2.1628171   -1.4072554  0.038796558   -2.1628171   0.75556172   426349 
 2647000   0.60786749   -2.1625125   -2.1625125   -1.4068845  0.037907694   -2.1625125   0.75562804   426349 
 2648000   0.60756923   -2.1622518   -2.1622518   -1.4069945   0.03732187   -2.1622518   0.75525728   426349 
 2649000   0.60625835   -2.1608935   -2.1608935   -1.4072658   0.03701353   -2.1608935   0.75362775   426349 
 2650000   0.60712635   -2.1612224   -2.1612224   -1.4065156  0.046489631   -2.1612224   0.75470675   426349 
 2651000   0.60735284   -2.1611746   -2.1611746   -1.4061863  0.043223181   -2.1611746   0.75498829   426349 
 2652000   0.60735181   -2.1613206   -2.1613206   -1.4063336   0.03006135   -2.1613206   0.75498701   426349 
 2653000   0.60752552   -2.1612968   -2.1612968   -1.4060939  0.044286532   -2.1612968   0.75520295   426349 
 2654000   0.60811961    -2.162143    -2.162143   -1.4062016  0.034133546    -2.162143   0.75594145   426349 
 2655000    0.6085153   -2.1621776   -2.1621776   -1.4057443   0.03497108   -2.1621776   0.75643332   426349 
 2656000   0.60713519   -2.1602747   -2.1602747   -1.4055569  0.038245376   -2.1602747   0.75471773   426349 
 2657000   0.60763639   -2.1608769   -2.1608769   -1.4055362  0.036497609   -2.1608769   0.75534076   426349 
 2658000   0.60842779   -2.1624017   -2.1624017   -1.4060772  0.042755368   -2.1624017   0.75632454   426349 
 2659000   0.60795092   -2.1619617   -2.1619617     -1.40623  0.039739122   -2.1619617   0.75573175   426349 
 2660000   0.60714868   -2.1616697   -2.1616697   -1.4069352   0.04151337   -2.1616697    0.7547345   426349 
 2661000   0.60837191   -2.1620956   -2.1620956   -1.4058405  0.035556132   -2.1620956   0.75625508   426349 
 2662000   0.60688866   -2.1602872   -2.1602872   -1.4058759  0.036783525   -2.1602872   0.75441128   426349 
 2663000   0.60649181   -2.1609711   -2.1609711   -1.4070531  0.037381641   -2.1609711   0.75391796   426349 
 2664000   0.60663813    -2.160948    -2.160948   -1.4068482  0.037099241    -2.160948   0.75409985   426349 
 2665000   0.60687362   -2.1612044   -2.1612044   -1.4068118  0.028355404   -2.1612044   0.75439258   426349 
 2666000   0.60774381    -2.162299    -2.162299   -1.4068247  0.035299957    -2.162299    0.7554743   426349 
 2667000   0.60662737   -2.1615467   -2.1615467   -1.4074602  0.036772429   -2.1615467   0.75408647   426349 
 2668000    0.6070756   -2.1628321   -2.1628321   -1.4081884  0.036441893   -2.1628321   0.75464366   426349 
 2669000   0.60621402   -2.1613261   -2.1613261   -1.4077535  0.037304079   -2.1613261   0.75357265   426349 
 2670000   0.60666627   -2.1615874   -2.1615874   -1.4074526  0.044630759   -2.1615874   0.75413483   426349 
 2671000   0.60774093   -2.1629959   -2.1629959   -1.4075251  0.038023323   -2.1629959   0.75547071   426349 
 2672000   0.60791751   -2.1625368   -2.1625368   -1.4068465   0.04281151   -2.1625368   0.75569022   426349 
 2673000   0.60825931   -2.1630102   -2.1630102   -1.4068951  0.035204965   -2.1630102   0.75611511   426349 
 2674000   0.60778584   -2.1631199   -2.1631199   -1.4075934  0.039300666   -2.1631199   0.75552654   426349 
 2675000   0.60797805   -2.1634347   -2.1634347   -1.4076693  0.041084351   -2.1634347   0.75576548   426349 
 2676000   0.60882778   -2.1645739   -2.1645739   -1.4077522  0.035295771   -2.1645739   0.75682175   426349 
 2677000   0.60793304   -2.1644145   -2.1644145   -1.4087049  0.033555384   -2.1644145   0.75570953   426349 
 2678000   0.60791131   -2.1641623   -2.1641623   -1.4084798  0.038292657   -2.1641623   0.75568251   426349 
 2679000   0.60802787   -2.1650624   -2.1650624    -1.409235  0.038808716   -2.1650624   0.75582741   426349 
 2680000   0.60662437   -2.1638723   -2.1638723   -1.4097896  0.035517895   -2.1638723   0.75408275   426349 
 2681000   0.60657537   -2.1641627   -2.1641627   -1.4101409  0.041420535   -2.1641627   0.75402183   426349 
 2682000    0.6061535   -2.1633404   -2.1633404    -1.409843  0.033825063   -2.1633404   0.75349742   426349 
 2683000   0.60675149   -2.1643158   -2.1643158   -1.4100751  0.042151966   -2.1643158   0.75424076   426349 
 2684000   0.60597163   -2.1634956   -2.1634956   -1.4102243  0.046237614   -2.1634956   0.75327134   426349 
 2685000    0.6058725   -2.1633789   -2.1633789   -1.4102308  0.035037968   -2.1633789   0.75314811   426349 
 2686000   0.60694031   -2.1643302   -2.1643302   -1.4098548  0.033405575   -2.1643302   0.75447548   426349 
 2687000   0.60772684   -2.1660865   -2.1660865   -1.4106333  0.037495862   -2.1660865    0.7554532   426349 
 2688000   0.60769691   -2.1661776   -2.1661776   -1.4107616   0.04281577   -2.1661776     0.755416   426349 
 2689000   0.60710735   -2.1659662   -2.1659662    -1.411283  0.036675211   -2.1659662   0.75468312   426349 
 2690000   0.60691859   -2.1653092   -2.1653092   -1.4108607  0.042917144   -2.1653092   0.75444848   426349 
 2691000   0.60647275   -2.1644693   -2.1644693    -1.410575  0.039882164   -2.1644693   0.75389427   426349 
 2692000   0.60706787   -2.1655366   -2.1655366   -1.4109025  0.031430532   -2.1655366   0.75463405   426349 
 2693000   0.60630907   -2.1644909   -2.1644909   -1.4108001  0.040896617   -2.1644909    0.7536908   426349 
 2694000   0.60783777   -2.1658117   -2.1658117   -1.4102207  0.042343903   -2.1658117    0.7555911   426349 
 2695000   0.60707489   -2.1646274   -2.1646274   -1.4099847  0.034277191   -2.1646274   0.75464278   426349 
 2696000   0.60707668    -2.164783    -2.164783    -1.410138  0.044399318    -2.164783   0.75464499   426349 
 2697000   0.60670247   -2.1645469   -2.1645469   -1.4103671   0.03432818   -2.1645469   0.75417983   426349 
 2698000   0.60702206   -2.1648004   -2.1648004   -1.4102233   0.03874813   -2.1648004    0.7545771   426349 
 2699000   0.60788258   -2.1652055   -2.1652055   -1.4095588    0.0333391   -2.1652055   0.75564679   426349 
 2700000   0.60641427   -2.1634912   -2.1634912   -1.4096697   0.03265771   -2.1634912   0.75382157   426349 
 2701000   0.60701025   -2.1638706   -2.1638706   -1.4093082  0.028705074   -2.1638706   0.75456243   426349 
 2702000   0.60798784   -2.1637868   -2.1637868   -1.4080092  0.030262444   -2.1637868   0.75577764   426349 
 2703000    0.6069619   -2.1629537   -2.1629537   -1.4084514  0.040230281   -2.1629537   0.75450232   426349 
 2704000    0.6064918   -2.1626975   -2.1626975   -1.4087796  0.038807166   -2.1626975   0.75391794   426349 
 2705000    0.6073407    -2.163529    -2.163529   -1.4085558  0.036736971    -2.163529   0.75497319   426349 
 2706000   0.60792241   -2.1646752   -2.1646752   -1.4089789  0.032814758   -2.1646752   0.75569632   426349 
 2707000   0.60703862   -2.1635219   -2.1635219   -1.4089242  0.038345882   -2.1635219   0.75459769   426349 
 2708000   0.60780546   -2.1642556   -2.1642556   -1.4087047  0.038338637   -2.1642556   0.75555093   426349 
 2709000   0.60706189   -2.1631351   -2.1631351   -1.4085085  0.040950759   -2.1631351   0.75462661   426349 
 2710000   0.60639285   -2.1624602   -2.1624602   -1.4086653   0.03733548   -2.1624602   0.75379495   426349 
 2711000   0.60715141   -2.1626873   -2.1626873   -1.4079494  0.041201945   -2.1626873    0.7547379   426349 
 2712000   0.60747865    -2.163927    -2.163927   -1.4087823  0.043366581    -2.163927   0.75514469   426349 
 2713000    0.6076603   -2.1630943   -2.1630943   -1.4077238  0.040937878   -2.1630943   0.75537049   426349 
 2714000   0.60608793   -2.1614969   -2.1614969    -1.408081  0.042319432   -2.1614969    0.7534159   426349 
 2715000   0.60724885    -2.163719    -2.163719     -1.40886  0.035094058    -2.163719   0.75485902   426349 
 2716000   0.60699246   -2.1624504   -2.1624504   -1.4079101  0.036099147   -2.1624504    0.7545403   426349 
 2717000   0.60690971   -2.1624101   -2.1624101   -1.4079726  0.040100183   -2.1624101   0.75443745   426349 
 2718000   0.60734894    -2.163109    -2.163109   -1.4081255  0.034994242    -2.163109   0.75498345   426349 
 2719000   0.60635703   -2.1621121   -2.1621121   -1.4083617   0.04085097   -2.1621121   0.75375042   426349 
 2720000   0.60899226   -2.1647022   -2.1647022    -1.407676  0.038150252   -2.1647022   0.75702621   426349 
 2721000   0.60773111   -2.1632337   -2.1632337   -1.4077752  0.045611797   -2.1632337   0.75545851   426349 
 2722000   0.60889182   -2.1634012   -2.1634012   -1.4064998  0.034289976   -2.1634012   0.75690137   426349 
 2723000    0.6071094   -2.1621309   -2.1621309   -1.4074452  0.040047613   -2.1621309   0.75468568   426349 
 2724000   0.60719443   -2.1627506   -2.1627506   -1.4079592  0.037020637   -2.1627506   0.75479137   426349 
 2725000   0.60854986    -2.164225    -2.164225   -1.4077487  0.039348346    -2.164225   0.75647628   426349 
 2726000    0.6070508   -2.1622772   -2.1622772   -1.4076644  0.038949193   -2.1622772   0.75461283   426349 
 2727000   0.60789443   -2.1638637   -2.1638637   -1.4082022  0.043543406   -2.1638637   0.75566153   426349 
 2728000   0.60661348    -2.162004    -2.162004   -1.4079348  0.030503081    -2.162004    0.7540692   426349 
 2729000   0.60785099   -2.1630547   -2.1630547   -1.4074471  0.032586796   -2.1630547   0.75560753   426349 
 2730000   0.60585176   -2.1611334   -2.1611334    -1.408011  0.035178488   -2.1611334   0.75312233   426349 
 2731000   0.60662204   -2.1620606   -2.1620606   -1.4079807   0.02904601   -2.1620606   0.75407985   426349 
 2732000   0.60629009    -2.161615    -2.161615   -1.4079478   0.03494113    -2.161615    0.7536672   426349 
 2733000   0.60655433   -2.1614414   -2.1614414   -1.4074457  0.036543511   -2.1614414   0.75399568   426349 
 2734000   0.60645284   -2.1614664   -2.1614664   -1.4075969  0.037604832   -2.1614664   0.75386952   426349 
 2735000   0.60843762   -2.1638488   -2.1638488    -1.407512  0.039095914   -2.1638488   0.75633675   426349 
 2736000   0.60841606   -2.1636149   -2.1636149   -1.4073049  0.039319721   -2.1636149   0.75630996   426349 
 2737000   0.60859764    -2.163466    -2.163466   -1.4069303  0.038125906    -2.163466   0.75653568   426349 
 2738000   0.60772198   -2.1619989   -2.1619989   -1.4065517  0.042209882   -2.1619989   0.75544716   426349 
 2739000   0.60818551   -2.1618337   -2.1618337   -1.4058103  0.037480907   -2.1618337   0.75602337   426349 
 2740000   0.60791419   -2.1618003   -2.1618003   -1.4061142  0.035978205   -2.1618003   0.75568609   426349 
 2741000   0.60779415   -2.1617861   -2.1617861   -1.4062492  0.036813282   -2.1617861   0.75553687   426349 
 2742000   0.60802348   -2.1618167   -2.1618167   -1.4059948  0.036889785   -2.1618167   0.75582195   426349 
 2743000   0.60751416   -2.1614134   -2.1614134   -1.4062245  0.041094183   -2.1614134   0.75518882   426349 
 2744000   0.60721123   -2.1609884   -2.1609884   -1.4061762  0.036569223   -2.1609884   0.75481226   426349 
 2745000   0.60762496   -2.1617554   -2.1617554   -1.4064289   0.03412477   -2.1617554   0.75532656   426349 
 2746000   0.60741974   -2.1610699   -2.1610699   -1.4059985  0.038639446   -2.1610699   0.75507145   426349 
 2747000   0.60697496   -2.1606175   -2.1606175   -1.4060989  0.034665212   -2.1606175   0.75451856   426349 
 2748000   0.60654771   -2.1607178   -2.1607178   -1.4067304  0.041293494   -2.1607178   0.75398745   426349 
 2749000   0.60534942   -2.1591636   -2.1591636   -1.4066658  0.040642858   -2.1591636   0.75249788   426349 
 2750000   0.60741885   -2.1612723   -2.1612723    -1.406202  0.034982008   -2.1612723   0.75507035   426349 
 2751000   0.60729521   -2.1601084   -2.1601084   -1.4051918  0.033936499   -2.1601084   0.75491665   426349 
 2752000   0.60694981   -2.1612773   -2.1612773   -1.4067901  0.031176119   -2.1612773   0.75448729   426349 
 2753000   0.60912567   -2.1634191   -2.1634191    -1.406227  0.039897866   -2.1634191   0.75719206   426349 
 2754000    0.6083891    -2.163619    -2.163619   -1.4073426    0.0367147    -2.163619   0.75627645   426349 
 2755000   0.60639631   -2.1618965   -2.1618965   -1.4080973  0.042409406   -2.1618965   0.75379924   426349 
 2756000   0.60729416   -2.1632411   -2.1632411   -1.4083257  0.035465884   -2.1632411   0.75491534   426349 
 2757000   0.60726804   -2.1632363   -2.1632363   -1.4083534  0.035106106   -2.1632363   0.75488288   426349 
 2758000    0.6084827   -2.1642912   -2.1642912   -1.4078984  0.032594603   -2.1642912    0.7563928   426349 
 2759000   0.60909093   -2.1649301   -2.1649301   -1.4077812  0.034936527   -2.1649301   0.75714888   426349 
 2760000   0.60996018   -2.1658697   -2.1658697   -1.4076403  0.040633891   -2.1658697   0.75822942   426349 
 2761000   0.60897683   -2.1642622   -2.1642622   -1.4072552  0.035501935   -2.1642622   0.75700705   426349 
 2762000   0.60885793   -2.1639923   -2.1639923   -1.4071331  0.033851849   -2.1639923   0.75685923   426349 
 2763000   0.60829009   -2.1635826   -2.1635826   -1.4074292  0.034728333   -2.1635826   0.75615337   426349 
 2764000   0.60732175   -2.1629113   -2.1629113   -1.4079616  0.040721241   -2.1629113   0.75494964   426349 
 2765000   0.60851935   -2.1637743   -2.1637743    -1.407336  0.040285965   -2.1637743   0.75643835   426349 
 2766000   0.60913226   -2.1641259   -2.1641259   -1.4069257  0.039881059   -2.1641259   0.75720025   426349 
 2767000    0.6096111   -2.1641645   -2.1641645    -1.406369   0.04370835   -2.1641645   0.75779549   426349 
 2768000   0.60885237   -2.1631471   -2.1631471   -1.4062948  0.036694801   -2.1631471   0.75685232   426349 
 2769000   0.60801115   -2.1622908   -2.1622908   -1.4064842  0.033629902   -2.1622908   0.75580662   426349 
 2770000   0.60749714   -2.1621028   -2.1621028   -1.4069352  0.034472213   -2.1621028   0.75516767   426349 
 2771000   0.60762315   -2.1628567   -2.1628567   -1.4075324   0.03740149   -2.1628567   0.75532431   426349 
 2772000   0.60665823   -2.1616942   -2.1616942   -1.4075694  0.044268505   -2.1616942   0.75412483   426349 
 2773000   0.60772516   -2.1626922   -2.1626922   -1.4072411  0.038856584   -2.1626922   0.75545111   426349 
 2774000   0.60701561   -2.1619095   -2.1619095   -1.4073404  0.035844902   -2.1619095   0.75456908   426349 
 2775000   0.60607656   -2.1610798   -2.1610798   -1.4076781  0.026344886   -2.1610798   0.75340177   426349 
 2776000   0.60687557   -2.1628742   -2.1628742   -1.4084792  0.035065199   -2.1628742   0.75439501   426349 
 2777000   0.60648148   -2.1616472   -2.1616472   -1.4077421  0.036213097   -2.1616472   0.75390511   426349 
 2778000   0.60637656   -2.1618464   -2.1618464   -1.4080717  0.041026407   -2.1618464   0.75377469   426349 
 2779000   0.60727632   -2.1627026   -2.1627026   -1.4078094  0.039266832   -2.1627026   0.75489317   426349 
 2780000   0.60744867   -2.1627896   -2.1627896   -1.4076822  0.036588981   -2.1627896   0.75510741   426349 
 2781000   0.60747647   -2.1630591   -2.1630591   -1.4079172  0.033322092   -2.1630591   0.75514197   426349 
 2782000   0.60713478   -2.1622124   -2.1622124   -1.4074951  0.035287859   -2.1622124   0.75471722   426349 
 2783000   0.60663358   -2.1621891   -2.1621891   -1.4080949  0.037088679   -2.1621891   0.75409419   426349 
 2784000   0.60755108   -2.1620411   -2.1620411   -1.4068064  0.040046065   -2.1620411   0.75523471   426349 
 2785000   0.60893606   -2.1639017   -2.1639017   -1.4069454  0.034031612   -2.1639017   0.75695636   426349 
 2786000    0.6082648   -2.1629096   -2.1629096   -1.4067877   0.04364731   -2.1629096   0.75612193   426349 
 2787000   0.60978736   -2.1646072   -2.1646072   -1.4065926  0.037842639   -2.1646072    0.7580146   426349 
 2788000   0.60740125   -2.1619466   -2.1619466   -1.4068982   0.03583934   -2.1619466   0.75504847   426349 
 2789000   0.60848191    -2.162741    -2.162741   -1.4063492  0.046320214    -2.162741   0.75639181   426349 
 2790000    0.6076133   -2.1616848   -2.1616848   -1.4063727  0.036250904   -2.1616848   0.75531206   426349 
 2791000   0.60803094   -2.1620522   -2.1620522    -1.406221  0.036539621   -2.1620522   0.75583123   426349 
 2792000   0.60777518   -2.1614019   -2.1614019   -1.4058886   0.02988188   -2.1614019   0.75551329   426349 
 2793000   0.60818701   -2.1610985   -2.1610985   -1.4050732  0.035669309   -2.1610985   0.75602523   426349 
 2794000   0.60784387   -2.1614022   -2.1614022   -1.4058035  0.037398614   -2.1614022   0.75559868   426349 
 2795000   0.60652653   -2.1603698   -2.1603698   -1.4064087  0.038144009   -2.1603698   0.75396112   426349 
 2796000   0.60710331   -2.1608134   -2.1608134   -1.4061353  0.036278283   -2.1608134    0.7546781   426349 
 2797000   0.60701371    -2.160807    -2.160807   -1.4062402  0.037569907    -2.160807   0.75456672   426349 
 2798000   0.60754608   -2.1605622   -2.1605622   -1.4053337  0.035267323   -2.1605622   0.75522851   426349 
 2799000   0.60767475   -2.1609433   -2.1609433   -1.4055549  0.032629045   -2.1609433   0.75538845   426349 
 2800000    0.6072605   -2.1600346   -2.1600346   -1.4051611  0.037742483   -2.1600346   0.75487351   426349 
 2801000    0.6083425   -2.1624079   -2.1624079   -1.4061894  0.038948287   -2.1624079   0.75621851   426349 
 2802000   0.60825873   -2.1617109   -2.1617109   -1.4055965  0.031234634   -2.1617109   0.75611438   426349 
 2803000   0.60729613   -2.1605831   -2.1605831   -1.4056653  0.038848075   -2.1605831   0.75491779   426349 
 2804000   0.60686077   -2.1604114   -2.1604114   -1.4060348  0.038357645   -2.1604114   0.75437661   426349 
 2805000   0.60656012   -2.1605081   -2.1605081   -1.4065052  0.038674953   -2.1605081   0.75400288   426349 
 2806000   0.60737103   -2.1614946   -2.1614946   -1.4064837  0.041493924   -2.1614946    0.7550109   426349 
 2807000   0.60785737   -2.1625714   -2.1625714    -1.406956  0.035702051   -2.1625714   0.75561546   426349 
 2808000   0.60747676   -2.1616023   -2.1616023   -1.4064599  0.040563784   -2.1616023   0.75514233   426349 
 2809000   0.60805806    -2.162495    -2.162495   -1.4066301   0.04147276    -2.162495   0.75586493   426349 
 2810000   0.60847895    -2.162736    -2.162736   -1.4063479  0.041063575    -2.162736   0.75638814   426349 
 2811000   0.60782321   -2.1626189   -2.1626189   -1.4070459  0.034997989   -2.1626189     0.755573   426349 
 2812000   0.60757092    -2.162834    -2.162834   -1.4075746   0.03909003    -2.162834   0.75525939   426349 
 2813000    0.6069907   -2.1620236   -2.1620236   -1.4074855  0.039223398   -2.1620236   0.75453813   426349 
 2814000   0.60760301   -2.1633569   -2.1633569   -1.4080577  0.038930515   -2.1633569   0.75529927   426349 
 2815000   0.60715571   -2.1623437   -2.1623437   -1.4076005  0.041883502   -2.1623437   0.75474325   426349 
 2816000   0.60694667   -2.1615588   -2.1615588   -1.4070754  0.039567645   -2.1615588   0.75448339   426349 
 2817000   0.60801533    -2.163777    -2.163777   -1.4079652  0.031185037    -2.163777   0.75581181   426349 
 2818000   0.60649264   -2.1624397   -2.1624397   -1.4085207  0.032560705   -2.1624397     0.753919   426349 
 2819000   0.60736594   -2.1625945   -2.1625945   -1.4075899  0.037058796   -2.1625945   0.75500457   426349 
 2820000   0.60762767   -2.1626784   -2.1626784   -1.4073485  0.039433162   -2.1626784   0.75532992   426349 
 2821000   0.60740073   -2.1621085   -2.1621085   -1.4070607  0.036299956   -2.1621085   0.75504782   426349 
 2822000   0.60609002   -2.1607056   -2.1607056   -1.4072871  0.042583516   -2.1607056    0.7534185   426349 
 2823000   0.60791464   -2.1623096   -2.1623096    -1.406623  0.044797615   -2.1623096   0.75568666   426349 
 2824000   0.60698479   -2.1623608   -2.1623608     -1.40783  0.034787186   -2.1623608   0.75453077   426349 
 2825000   0.60646228   -2.1615229   -2.1615229   -1.4076417    0.0313011   -2.1615229   0.75388125   426349 
 2826000   0.60753932   -2.1624536   -2.1624536   -1.4072335  0.033785582   -2.1624536    0.7552201   426349 
 2827000   0.60744405   -2.1624373   -2.1624373   -1.4073356  0.037876368   -2.1624373   0.75510167   426349 
 2828000   0.60756088   -2.1620782   -2.1620782   -1.4068313  0.034851108   -2.1620782   0.75524691   426349 
 2829000   0.60767951   -2.1627961   -2.1627961   -1.4074018  0.040636732   -2.1627961   0.75539437   426349 
 2830000    0.6065635   -2.1613244   -2.1613244   -1.4073173  0.045018693   -2.1613244   0.75400708   426349 
 2831000   0.60713255   -2.1622473   -2.1622473   -1.4075328  0.039585332   -2.1622473   0.75471445   426349 
 2832000   0.60944218    -2.164697    -2.164697   -1.4071115  0.036072985    -2.164697   0.75758551   426349 
 2833000   0.60734425    -2.163246    -2.163246   -1.4082684  0.030737097    -2.163246   0.75497761   426349 
 2834000   0.60633987   -2.1622186   -2.1622186   -1.4084895  0.036741775   -2.1622186   0.75372909   426349 
 2835000   0.60661617   -2.1623515   -2.1623515    -1.408279  0.042038408   -2.1623515   0.75407254   426349 
 2836000   0.60680933   -2.1615586   -2.1615586    -1.407246  0.031560947   -2.1615586   0.75431266   426349 
 2837000   0.60732451   -2.1625734   -2.1625734   -1.4076203  0.037904083   -2.1625734   0.75495307   426349 
 2838000   0.60678543   -2.1619282   -2.1619282   -1.4076452  0.040637578   -2.1619282   0.75428296   426349 
 2839000   0.60631578    -2.161488    -2.161488   -1.4077889  0.029361116    -2.161488   0.75369915   426349 
 2840000   0.60775255   -2.1620094   -2.1620094   -1.4065242   0.03527575   -2.1620094   0.75548516   426349 
 2841000   0.60738639   -2.1614793   -2.1614793   -1.4064493   0.04107403   -2.1614793   0.75502999   426349 
 2842000   0.60635752   -2.1607897   -2.1607897   -1.4070387  0.035454957   -2.1607897   0.75375103   426349 
 2843000   0.60772379   -2.1631205   -2.1631205   -1.4076711  0.033713265   -2.1631205   0.75544941   426349 
 2844000   0.60763818   -2.1624942   -2.1624942   -1.4071513  0.042360206   -2.1624942   0.75534299   426349 
 2845000   0.60809118   -2.1631052   -2.1631052   -1.4071991  0.036922127   -2.1631052   0.75590611   426349 
 2846000   0.60761015   -2.1631157   -2.1631157   -1.4078075  0.036972398   -2.1631157   0.75530815   426349 
 2847000   0.60908359   -2.1645652   -2.1645652   -1.4074255  0.034144102   -2.1645652   0.75713975   426349 
 2848000   0.60773442    -2.163767    -2.163767   -1.4083043    0.0390021    -2.163767   0.75546262   426349 
 2849000   0.60710349   -2.1643124   -2.1643124   -1.4096341  0.040872277   -2.1643124   0.75467833   426349 
 2850000   0.60742358   -2.1633939   -2.1633939   -1.4083177  0.042885353   -2.1633939   0.75507623   426349 
 2851000   0.60688087   -2.1625017   -2.1625017   -1.4081001  0.033165012   -2.1625017   0.75440159   426349 
 2852000   0.60820837   -2.1641649   -2.1641649   -1.4081131  0.034711357   -2.1641649   0.75605179   426349 
 2853000   0.60788403    -2.163659    -2.163659   -1.4080104  0.044943665    -2.163659    0.7556486   426349 
 2854000   0.60813817   -2.1640052   -2.1640052   -1.4080407    0.0334968   -2.1640052   0.75596452   426349 
 2855000   0.60769209   -2.1631426   -2.1631426   -1.4077326  0.036201036   -2.1631426      0.75541   426349 
 2856000   0.60723374   -2.1634964   -2.1634964   -1.4086562  0.032869168   -2.1634964   0.75484024   426349 
 2857000   0.60794906   -2.1635535   -2.1635535    -1.407824  0.040761955   -2.1635535   0.75572944   426349 
 2858000   0.60688988   -2.1631079   -2.1631079   -1.4086951  0.035784639   -2.1631079   0.75441279   426349 
 2859000   0.60845068   -2.1646183   -2.1646183   -1.4082653  0.039257257   -2.1646183   0.75635299   426349 
 2860000   0.60733459   -2.1634415   -2.1634415   -1.4084759  0.041407211   -2.1634415   0.75496561   426349 
 2861000   0.60668522   -2.1621608   -2.1621608   -1.4080024  0.044312896   -2.1621608   0.75415839   426349 
 2862000   0.60713282   -2.1622052   -2.1622052   -1.4074904  0.038706207   -2.1622052   0.75471479   426349 
 2863000   0.60666131   -2.1625386   -2.1625386   -1.4084099  0.033979953   -2.1625386   0.75412867   426349 
 2864000   0.60696555   -2.1624767   -2.1624767   -1.4079698  0.037140405   -2.1624767   0.75450686   426349 
 2865000   0.60772756   -2.1631129   -2.1631129   -1.4076588  0.038178236   -2.1631129   0.75545409   426349 
 2866000   0.60728667    -2.163018    -2.163018    -1.408112  0.036425079    -2.163018   0.75490604   426349 
 2867000   0.60812215   -2.1631691   -2.1631691   -1.4072245  0.033106801   -2.1631691    0.7559446   426349 
 2868000   0.60668531    -2.161445    -2.161445   -1.4072866  0.032484047    -2.161445   0.75415849   426349 
 2869000   0.60661481    -2.161315    -2.161315   -1.4072441  0.038827025    -2.161315   0.75407086   426349 
 2870000   0.60678861   -2.1612728   -2.1612728   -1.4069859  0.037345599   -2.1612728   0.75428691   426349 
 2871000   0.60702849   -2.1615215   -2.1615215   -1.4069364  0.031894314   -2.1615215    0.7545851   426349 
 2872000   0.60640599   -2.1605735   -2.1605735   -1.4067622   0.03452372   -2.1605735   0.75381128   426349 
 2873000    0.6066759   -2.1627663   -2.1627663   -1.4086195  0.035416723   -2.1627663   0.75414679   426349 
 2874000   0.60604681   -2.1613958   -2.1613958    -1.408031  0.041265356   -2.1613958    0.7533648   426349 
 2875000    0.6068665   -2.1625354   -2.1625354   -1.4081517  0.036382003   -2.1625354   0.75438373   426349 
 2876000   0.60699115    -2.162747    -2.162747   -1.4082084  0.041978982    -2.162747   0.75453868   426349 
 2877000   0.60545169   -2.1610313   -2.1610313   -1.4084062  0.028243935   -2.1610313   0.75262501   426349 
 2878000   0.60602212   -2.1608988   -2.1608988   -1.4075647  0.038539426   -2.1608988   0.75333409   426349 
 2879000   0.60689861   -2.1619434   -2.1619434   -1.4075197  0.040323691   -2.1619434   0.75442364   426349 
 2880000    0.6062443   -2.1609154   -2.1609154   -1.4073051  0.037043033   -2.1609154   0.75361028   426349 
 2881000   0.60724983   -2.1617808   -2.1617808   -1.4069205  0.044280441   -2.1617808   0.75486024   426349 
 2882000    0.6071146   -2.1623472   -2.1623472    -1.407655  0.030355946   -2.1623472   0.75469214   426349 
 2883000   0.60685222    -2.162942    -2.162942   -1.4085761  0.035920082    -2.162942   0.75436597   426349 
 2884000    0.6057589   -2.1621799   -2.1621799    -1.409173  0.037770257   -2.1621799    0.7530069   426349 
 2885000   0.60789131   -2.1648434   -2.1648434   -1.4091858  0.032961497   -2.1648434   0.75565765   426349 
 2886000   0.60746735    -2.164455    -2.164455   -1.4093244  0.040731021    -2.164455   0.75513063   426349 
 2887000   0.60699101   -2.1639707   -2.1639707   -1.4094322  0.034418712   -2.1639707    0.7545385   426349 
 2888000   0.60665115   -2.1639753   -2.1639753   -1.4098592  0.042105617   -2.1639753   0.75411604   426349 
 2889000   0.60658382   -2.1644696   -2.1644696   -1.4104373  0.032621835   -2.1644696   0.75403234   426349 
 2890000   0.60695144   -2.1651447   -2.1651447   -1.4106554  0.040778104   -2.1651447   0.75448932   426349 
 2891000   0.60633676   -2.1644801   -2.1644801   -1.4107548  0.038096789   -2.1644801   0.75372522   426349 
 2892000   0.60726316   -2.1657191   -2.1657191   -1.4108423  0.040408691   -2.1657191   0.75487681   426349 
 2893000   0.60708105   -2.1653282   -2.1653282   -1.4106778  0.038164827   -2.1653282   0.75465044   426349 
 2894000   0.60855628   -2.1673463   -2.1673463    -1.410862  0.030460716   -2.1673463   0.75648426   426349 
 2895000   0.60821644   -2.1665882   -2.1665882   -1.4105264  0.042004665   -2.1665882   0.75606181   426349 
 2896000   0.60823854   -2.1666941   -2.1666941   -1.4106048  0.038542834   -2.1666941   0.75608929   426349 
 2897000    0.6075753   -2.1659255   -2.1659255   -1.4106607  0.037010944   -2.1659255   0.75526482   426349 
 2898000   0.60713628   -2.1650292   -2.1650292   -1.4103101  0.035987142   -2.1650292   0.75471909   426349 
 2899000   0.60806857   -2.1671517   -2.1671517   -1.4112737  0.038010177   -2.1671517     0.755878   426349 
 2900000   0.60702971   -2.1651571   -2.1651571   -1.4105704  0.039354947   -2.1651571   0.75458661   426349 
 2901000   0.60684824   -2.1645879   -2.1645879   -1.4102269  0.036336784   -2.1645879   0.75436103   426349 
 2902000   0.60651791   -2.1643255   -2.1643255   -1.4103751  0.034947908   -2.1643255   0.75395041   426349 
 2903000   0.60668335   -2.1647475   -2.1647475   -1.4105915  0.037517152   -2.1647475   0.75415606   426349 
 2904000   0.60637394   -2.1645208   -2.1645208   -1.4107493   0.03333308   -2.1645208   0.75377144   426349 
 2905000   0.60734942   -2.1651439   -2.1651439   -1.4101598   0.03575278   -2.1651439   0.75498403   426349 
 2906000   0.60783885   -2.1646421   -2.1646421   -1.4090497  0.035067729   -2.1646421   0.75559244   426349 
 2907000   0.60660105   -2.1634605   -2.1634605   -1.4094067  0.031229209   -2.1634605   0.75405375   426349 
 2908000   0.60671346   -2.1637591   -2.1637591   -1.4095656  0.032924292   -2.1637591   0.75419349   426349 
 2909000   0.60628492   -2.1624851   -2.1624851   -1.4088243  0.035651969   -2.1624851   0.75366078   426349 
 2910000   0.60781882    -2.163844    -2.163844   -1.4082764  0.027483868    -2.163844   0.75556754   426349 
 2911000   0.60715594   -2.1638832   -2.1638832   -1.4091397  0.034071897   -2.1638832   0.75474353   426349 
 2912000   0.60664091   -2.1624609   -2.1624609   -1.4083576  0.033585505   -2.1624609   0.75410331   426349 
 2913000    0.6065916   -2.1629548   -2.1629548   -1.4089128  0.033360762   -2.1629548   0.75404201   426349 
 2914000   0.60636323   -2.1634747   -2.1634747   -1.4097166  0.039274607   -2.1634747   0.75375812   426349 
 2915000   0.60683335   -2.1632745   -2.1632745   -1.4089319   0.04323924   -2.1632745   0.75434252   426349 
 2916000   0.60707674   -2.1628836   -2.1628836   -1.4082385  0.037985915   -2.1628836   0.75464508   426349 
 2917000   0.60697254   -2.1626466   -2.1626466    -1.408131  0.042738395   -2.1626466   0.75451554   426349 
 2918000   0.60687787   -2.1626293   -2.1626293   -1.4082314   0.04682155   -2.1626293   0.75439786   426349 
 2919000   0.60815674    -2.163527    -2.163527   -1.4075394  0.036465464    -2.163527   0.75598761   426349 
 2920000   0.60773423   -2.1633972   -2.1633972   -1.4079348   0.03691282   -2.1633972   0.75546239   426349 
 2921000   0.60694001   -2.1625866   -2.1625866   -1.4081115  0.037825926   -2.1625866   0.75447511   426349 
 2922000   0.60730519   -2.1628185   -2.1628185   -1.4078894  0.033804917   -2.1628185   0.75492906   426349 
 2923000   0.60739102   -2.1634645   -2.1634645   -1.4084287   0.03294453   -2.1634645   0.75503575   426349 
 2924000   0.60738801   -2.1628431   -2.1628431   -1.4078111  0.043130615   -2.1628431     0.755032   426349 
 2925000   0.60680803    -2.162337    -2.162337    -1.408026  0.030910838    -2.162337   0.75431105   426349 
 2926000   0.60781803   -2.1639937   -2.1639937   -1.4084271  0.039949584   -2.1639937   0.75556656   426349 
 2927000   0.60875938   -2.1649007   -2.1649007   -1.4081639  0.036508468   -2.1649007   0.75673673   426349 
 2928000   0.60800442   -2.1632902   -2.1632902    -1.407492  0.037421998   -2.1632902   0.75579825   426349 
 2929000    0.6071995   -2.1623525   -2.1623525   -1.4075548  0.040837359   -2.1623525   0.75479767   426349 
 2930000   0.60829091   -2.1628304   -2.1628304    -1.406676  0.043446835   -2.1628304   0.75615438   426349 
 2931000   0.60829905   -2.1631869   -2.1631869   -1.4070224  0.032918247   -2.1631869   0.75616451   426349 
 2932000   0.60831333   -2.1631286   -2.1631286   -1.4069463  0.040548758   -2.1631286   0.75618226   426349 
 2933000    0.6082503    -2.163524    -2.163524   -1.4074201  0.040561921    -2.163524    0.7561039   426349 
 2934000   0.60720525   -2.1617869   -2.1617869   -1.4069821  0.036004242   -2.1617869   0.75480482   426349 
 2935000   0.60700048   -2.1616259   -2.1616259   -1.4070756  0.036539602   -2.1616259   0.75455028   426349 
 2936000    0.6064264   -2.1610349   -2.1610349   -1.4071983   0.03991794   -2.1610349   0.75383665   426349 
 2937000    0.6067828   -2.1616891   -2.1616891   -1.4074094  0.036526467   -2.1616891   0.75427969   426349 
 2938000   0.60769202   -2.1632022   -2.1632022   -1.4077923  0.031718828   -2.1632022   0.75540992   426349 
 2939000   0.60755545   -2.1630539   -2.1630539   -1.4078138  0.036434108   -2.1630539   0.75524015   426349 
 2940000   0.60646617    -2.162199    -2.162199   -1.4083129  0.036140578    -2.162199   0.75388608   426349 
 2941000   0.60680695    -2.162694    -2.162694   -1.4083842  0.035058608    -2.162694   0.75430971   426349 
 2942000   0.60633482   -2.1627722   -2.1627722   -1.4090494  0.034768093   -2.1627722    0.7537228   426349 
 2943000   0.60680708   -2.1627534   -2.1627534   -1.4084436  0.032172492   -2.1627534   0.75430986   426349 
 2944000   0.60673414   -2.1622288   -2.1622288   -1.4080097  0.039201338   -2.1622288   0.75421919   426349 
 2945000   0.60654235   -2.1620961   -2.1620961   -1.4081153  0.035392079   -2.1620961   0.75398079   426349 
 2946000    0.6065782   -2.1624528   -2.1624528   -1.4084274  0.039214058   -2.1624528   0.75402535   426349 
 2947000    0.6064663   -2.1627281   -2.1627281   -1.4088418  0.039189712   -2.1627281   0.75388625   426349 
 2948000   0.60844487   -2.1652627   -2.1652627   -1.4089169  0.027343884   -2.1652627   0.75634578   426349 
 2949000   0.60620393   -2.1620906   -2.1620906   -1.4085305  0.036164906   -2.1620906    0.7535601   426349 
 2950000   0.60731741   -2.1631054   -2.1631054   -1.4081612  0.034990223   -2.1631054   0.75494425   426349 
 2951000   0.60800531   -2.1634196   -2.1634196   -1.4076202  0.039653495   -2.1634196   0.75579936   426349 
 2952000   0.60635535   -2.1621412   -2.1621412   -1.4083928  0.046752651   -2.1621412   0.75374833   426349 
 2953000    0.6071193   -2.1633171   -2.1633171   -1.4086191  0.039120743   -2.1633171   0.75469798   426349 
 2954000   0.60611122   -2.1627994   -2.1627994   -1.4093545   0.04045437   -2.1627994   0.75344485   426349 
 2955000   0.60571072    -2.162965    -2.162965    -1.410018   0.03878194    -2.162965     0.752947   426349 
 2956000   0.60715157    -2.164092    -2.164092   -1.4093539  0.040643597    -2.164092   0.75473809   426349 
 2957000   0.60716337   -2.1639381   -2.1639381   -1.4091853  0.035517121   -2.1639381   0.75475277   426349 
 2958000   0.60638087    -2.163425    -2.163425    -1.409645  0.031410359    -2.163425   0.75378005   426349 
 2959000   0.60651582   -2.1637314   -2.1637314   -1.4097836  0.034384065   -2.1637314    0.7539478   426349 
 2960000   0.60651809   -2.1637484   -2.1637484   -1.4097977  0.033721013   -2.1637484   0.75395063   426349 
 2961000   0.60624194    -2.163761    -2.163761   -1.4101537  0.029964088    -2.163761   0.75360735   426349 
 2962000   0.60757887   -2.1648694   -2.1648694   -1.4096001  0.040247579   -2.1648694   0.75526927   426349 
 2963000   0.60722968   -2.1649897   -2.1649897   -1.4101545  0.036807411   -2.1649897   0.75483519   426349 
 2964000   0.60719665    -2.164703    -2.164703   -1.4099088  0.033757559    -2.164703   0.75479413   426349 
 2965000     0.606643   -2.1648385   -2.1648385   -1.4107326  0.036144689   -2.1648385    0.7541059   426349 
 2966000   0.60731261   -2.1652997   -2.1652997   -1.4103614  0.036258561   -2.1652997   0.75493828   426349 
 2967000   0.60727126   -2.1655107   -2.1655107   -1.4106239  0.033470388   -2.1655107   0.75488688   426349 
 2968000   0.60640396   -2.1649364   -2.1649364   -1.4111276  0.034856102   -2.1649364   0.75380875   426349 
 2969000   0.60649536   -2.1649316   -2.1649316   -1.4110092  0.038413474   -2.1649316   0.75392238   426349 
 2970000   0.60663276   -2.1657115   -2.1657115   -1.4116184  0.042833373   -2.1657115   0.75409317   426349 
 2971000   0.60634857    -2.164871    -2.164871   -1.4111311  0.039648355    -2.164871    0.7537399   426349 
 2972000    0.6070719   -2.1661493   -2.1661493   -1.4115102  0.038214205   -2.1661493   0.75463905   426349 
 2973000   0.60718483   -2.1660442   -2.1660442   -1.4112648  0.033615766   -2.1660442   0.75477944   426349 
 2974000   0.60737118   -2.1665812   -2.1665812   -1.4115701  0.035985169   -2.1665812   0.75501109   426349 
 2975000   0.60643636   -2.1645469   -2.1645469   -1.4106979   0.04636128   -2.1645469   0.75384903   426349 
 2976000   0.60647717   -2.1651692   -2.1651692   -1.4112694  0.042326257   -2.1651692   0.75389976   426349 
 2977000   0.60772986   -2.1675206   -2.1675206   -1.4120637  0.036072137   -2.1675206   0.75545695   426349 
 2978000   0.60625322   -2.1657385   -2.1657385   -1.4121171  0.037820885   -2.1657385   0.75362138   426349 
 2979000   0.60643164   -2.1653259   -2.1653259   -1.4114827  0.033676813   -2.1653259   0.75384316   426349 
 2980000   0.60632589   -2.1650402   -2.1650402   -1.4113285  0.045010824   -2.1650402   0.75371171   426349 
 2981000   0.60703761   -2.1655353   -2.1655353   -1.4109389  0.037203565   -2.1655353   0.75459643   426349 
 2982000   0.60697617   -2.1658928   -2.1658928   -1.4113727  0.042018878   -2.1658928   0.75452006   426349 
 2983000   0.60643418   -2.1649566   -2.1649566   -1.4111102  0.042434075   -2.1649566   0.75384633   426349 
 2984000   0.60761427   -2.1668643   -2.1668643    -1.411551  0.042329807   -2.1668643   0.75531327   426349 
 2985000   0.60721343   -2.1666139   -2.1666139    -1.411799  0.039241755   -2.1666139   0.75481499   426349 
 2986000   0.60763542   -2.1670296   -2.1670296   -1.4116901  0.037818261   -2.1670296   0.75533955   426349 
 2987000   0.60652732   -2.1660977   -2.1660977   -1.4121356  0.036017875   -2.1660977    0.7539621   426349 
 2988000   0.60619693   -2.1657929   -2.1657929   -1.4122415  0.039251067   -2.1657929    0.7535514   426349 
 2989000    0.6054639   -2.1643794   -2.1643794   -1.4117392  0.039868164   -2.1643794   0.75264019   426349 
 2990000    0.6059803    -2.165544    -2.165544   -1.4122619  0.039461215    -2.165544   0.75328211   426349 
 2991000   0.60696025   -2.1654707   -2.1654707   -1.4109704  0.043734245   -2.1654707   0.75450027   426349 
 2992000   0.60590755   -2.1644435   -2.1644435   -1.4112519  0.033243337   -2.1644435   0.75319168   426349 
 2993000   0.60716114   -2.1663929   -2.1663929   -1.4116429  0.037676683   -2.1663929   0.75474999   426349 
 2994000     0.606572   -2.1648185   -2.1648185   -1.4108009  0.037803339   -2.1648185   0.75401764   426349 
 2995000   0.60739911   -2.1658384   -2.1658384   -1.4107926   0.03669118   -2.1658384    0.7550458   426349 
 2996000   0.60626174   -2.1640887   -2.1640887   -1.4104568  0.029777251   -2.1640887   0.75363196   426349 
 2997000   0.60683345   -2.1649501   -2.1649501   -1.4106075  0.032364989   -2.1649501   0.75434264   426349 
 2998000   0.60594109   -2.1644953   -2.1644953   -1.4112619  0.032692109   -2.1644953   0.75323337   426349 
 2999000   0.60595742   -2.1646275   -2.1646275   -1.4113738     0.031384   -2.1646275   0.75325366   426349 
 3000000   0.60660252   -2.1644714   -2.1644714   -1.4104159  0.040438539   -2.1644714   0.75405559   426349 
 3001000   0.60752386   -2.1660436   -2.1660436   -1.4108427  0.038610902   -2.1660436   0.75520088   426349 
 3002000   0.60561402   -2.1641259   -2.1641259   -1.4112991  0.038192229   -2.1641259    0.7528268   426349 
 3003000   0.60642773   -2.1648411   -2.1648411   -1.4110028  0.040105949   -2.1648411   0.75383831   426349 
 3004000   0.60634394   -2.1654052   -2.1654052   -1.4116711  0.035677058   -2.1654052   0.75373414   426349 
 3005000   0.60581651   -2.1641764   -2.1641764   -1.4110979  0.038782441   -2.1641764   0.75307851   426349 
 3006000   0.60642426   -2.1647279   -2.1647279   -1.4108939  0.038631009   -2.1647279   0.75383399   426349 
 3007000   0.60674183   -2.1650314   -2.1650314   -1.4108026   0.03756365   -2.1650314   0.75422875   426349 
 3008000    0.6061422    -2.164882    -2.164882   -1.4113987  0.039979374    -2.164882   0.75348337   426349 
 3009000   0.60581917   -2.1651796   -2.1651796   -1.4120977  0.037531592   -2.1651796   0.75308182   426349 
 3010000   0.60844903   -2.1677923   -2.1677923   -1.4114413  0.038794581   -2.1677923   0.75635094   426349 
 3011000   0.60563192   -2.1644663   -2.1644663   -1.4116173  0.037059586   -2.1644663   0.75284905   426349 
 3012000   0.60671684   -2.1656753   -2.1656753   -1.4114776  0.032647205   -2.1656753    0.7541977   426349 
 3013000   0.60616671    -2.165168    -2.165168   -1.4116542  0.039702327    -2.165168   0.75351384   426349 
 3014000   0.60642928   -2.1660474   -2.1660474   -1.4122072  0.037663384   -2.1660474   0.75384023   426349 
 3015000   0.60701831   -2.1676243   -2.1676243   -1.4130519  0.039129891   -2.1676243   0.75457244   426349 
 3016000   0.60578385   -2.1654184   -2.1654184   -1.4123805  0.043070823   -2.1654184   0.75303791   426349 
 3017000   0.60697101   -2.1665757   -2.1665757   -1.4120621  0.040290007   -2.1665757   0.75451365   426349 
 3018000    0.6071562   -2.1667782   -2.1667782   -1.4120343  0.037514676   -2.1667782   0.75474385   426349 
 3019000   0.60837376   -2.1682988   -2.1682988   -1.4120415  0.037834649   -2.1682988   0.75625738   426349 
 3020000   0.60834494   -2.1685845   -2.1685845   -1.4123629  0.039474825   -2.1685845   0.75622155   426349 
 3021000   0.60636488   -2.1661408   -2.1661408   -1.4123806  0.036370436   -2.1661408   0.75376018   426349 
 3022000   0.60701327   -2.1669833   -2.1669833   -1.4124171  0.043186757   -2.1669833   0.75456618   426349 
 3023000   0.60676208   -2.1664372   -2.1664372   -1.4121833  0.039281694   -2.1664372   0.75425392   426349 
 3024000   0.60647191   -2.1668139   -2.1668139   -1.4129207    0.0357227   -2.1668139   0.75389322   426349 
 3025000   0.60530332   -2.1649401   -2.1649401   -1.4124996  0.036243572   -2.1649401   0.75244057   426349 
 3026000   0.60740637   -2.1667732   -2.1667732   -1.4117183  0.040010303   -2.1667732   0.75505483   426349 
 3027000   0.60632112   -2.1661087   -2.1661087   -1.4124029  0.035049767   -2.1661087   0.75370578   426349 
 3028000   0.60659868   -2.1664821   -2.1664821   -1.4124312  0.039352057   -2.1664821   0.75405081   426349 
 3029000   0.60614942   -2.1656866   -2.1656866   -1.4121942  0.038348099   -2.1656866   0.75349234   426349 
 3030000   0.60652965   -2.1651606   -2.1651606   -1.4111956  0.037891546   -2.1651606     0.753965   426349 
 3031000   0.60580222    -2.165033    -2.165033   -1.4119723  0.036491517    -2.165033   0.75306074   426349 
 3032000   0.60679693   -2.1665914   -2.1665914   -1.4122941  0.033747469   -2.1665914   0.75429725   426349 
 3033000   0.60617775    -2.166157    -2.166157   -1.4126294   0.03494584    -2.166157   0.75352756   426349 
 3034000   0.60574132   -2.1654228   -2.1654228   -1.4124378  0.035469489   -2.1654228   0.75298504   426349 
 3035000   0.60568772   -2.1656336   -2.1656336   -1.4127152  0.028903054   -2.1656336   0.75291842   426349 
 3036000    0.6048512   -2.1647816   -2.1647816   -1.4129031  0.034235219   -2.1647816   0.75187855   426349 
 3037000   0.60596554   -2.1660748   -2.1660748    -1.412811  0.036947755   -2.1660748   0.75326377   426349 
 3038000   0.60662784   -2.1671913   -2.1671913   -1.4131043  0.039922513   -2.1671913   0.75408705   426349 
 3039000   0.60565094   -2.1667819   -2.1667819   -1.4139093   0.03721742   -2.1667819   0.75287269   426349 
 3040000   0.60545187   -2.1666076   -2.1666076   -1.4139823  0.033255955   -2.1666076   0.75262523   426349 
 3041000   0.60531276   -2.1662841   -2.1662841   -1.4138318  0.035204121   -2.1662841   0.75245231   426349 
 3042000   0.60657575   -2.1669773   -2.1669773    -1.412955  0.036684086   -2.1669773    0.7540223   426349 
 3043000   0.60718895   -2.1675595   -2.1675595    -1.412775  0.039170339   -2.1675595   0.75478456   426349 
 3044000   0.60736291   -2.1671998   -2.1671998    -1.412199  0.036810642   -2.1671998   0.75500081   426349 
 3045000   0.60638139   -2.1664223   -2.1664223   -1.4126416  0.037698791   -2.1664223    0.7537807   426349 
 3046000   0.60623968    -2.166449    -2.166449   -1.4128445  0.039553002    -2.166449   0.75360454   426349 
 3047000   0.60647716   -2.1663781   -2.1663781   -1.4124783  0.036846052   -2.1663781   0.75389974   426349 
 3048000   0.60616782    -2.165825    -2.165825   -1.4123098  0.043968808    -2.165825   0.75351522   426349 
 3049000   0.60626635   -2.1661076   -2.1661076   -1.4124699  0.037557599   -2.1661076    0.7536377   426349 
 3050000   0.60756351   -2.1671414   -2.1671414   -1.4118912  0.037651381   -2.1671414   0.75525016   426349 
 3051000   0.60650323     -2.16641     -2.16641   -1.4124778  0.043090076     -2.16641   0.75393216   426349 
 3052000   0.60714183   -2.1673519   -2.1673519   -1.4126259  0.036858609   -2.1673519   0.75472598   426349 
 3053000    0.6055403   -2.1658908   -2.1658908   -1.4131556  0.035698533   -2.1658908   0.75273515   426349 
 3054000   0.60611414   -2.1660125   -2.1660125    -1.412564  0.038147354   -2.1660125   0.75344849   426349 
 3055000   0.60677352   -2.1665803   -2.1665803   -1.4123122  0.038632587   -2.1665803   0.75426815   426349 
 3056000   0.60637811   -2.1657433   -2.1657433   -1.4119666  0.038537978   -2.1657433   0.75377662   426349 
 3057000   0.60598303   -2.1654124   -2.1654124   -1.4121269  0.040318313   -2.1654124   0.75328551   426349 
 3058000   0.60798766   -2.1675498   -2.1675498   -1.4117724  0.040159777   -2.1675498   0.75577742   426349 
 3059000   0.60664329   -2.1659919   -2.1659919   -1.4118857  0.039468663   -2.1659919   0.75410626   426349 
 3060000   0.60567636   -2.1645676   -2.1645676   -1.4116633  0.039813564   -2.1645676   0.75290429   426349 
 3061000   0.60753096   -2.1664691   -2.1664691   -1.4112594  0.038350304   -2.1664691   0.75520971   426349 
 3062000   0.60685918   -2.1666234   -2.1666234   -1.4122487  0.037807041   -2.1666234   0.75437464   426349 
 3063000   0.60633478   -2.1659918   -2.1659918    -1.412269  0.030862352   -2.1659918   0.75372276   426349 
 3064000   0.60735679   -2.1676242   -2.1676242    -1.412631  0.034148846   -2.1676242    0.7549932   426349 
 3065000   0.60712729   -2.1672596   -2.1672596   -1.4125517  0.038523337   -2.1672596   0.75470791   426349 
 3066000   0.60572057    -2.166647    -2.166647   -1.4136878  0.036845749    -2.166647   0.75295924   426349 
 3067000   0.60755619   -2.1689132   -2.1689132   -1.4136722  0.028533033   -2.1689132   0.75524107   426349 
 3068000    0.6064314   -2.1674454   -2.1674454   -1.4136025  0.031647888   -2.1674454   0.75384287   426349 
 3069000   0.60649961   -2.1665878   -2.1665878   -1.4126601  0.033175694   -2.1665878   0.75392766   426349 
 3070000   0.60739752   -2.1674926   -2.1674926   -1.4124488  0.035127864   -2.1674926   0.75504383   426349 
 3071000   0.60648921   -2.1665683   -2.1665683   -1.4126536  0.038982277   -2.1665683   0.75391472   426349 
 3072000   0.60528897   -2.1659232   -2.1659232   -1.4135004  0.040163115   -2.1659232   0.75242274   426349 
 3073000   0.60634953   -2.1670361   -2.1670361    -1.413295  0.036511888   -2.1670361   0.75374109   426349 
 3074000   0.60669433   -2.1673867   -2.1673867    -1.413217  0.031301494   -2.1673867   0.75416971   426349 
 3075000   0.60631684   -2.1673713   -2.1673713   -1.4136708    0.0364345   -2.1673713   0.75370046   426349 
 3076000   0.60641884   -2.1664727   -2.1664727   -1.4126454  0.038023469   -2.1664727   0.75382725   426349 
 3077000   0.60589291   -2.1661519   -2.1661519   -1.4129784  0.034269402   -2.1661519   0.75317348   426349 
 3078000   0.60659136   -2.1671727   -2.1671727    -1.413131  0.037554027   -2.1671727   0.75404171   426349 
 3079000   0.60714624   -2.1681936   -2.1681936   -1.4134621  0.041953409   -2.1681936   0.75473147   426349 
 3080000   0.60662606   -2.1671108   -2.1671108    -1.413026  0.038621092   -2.1671108   0.75408484   426349 
 3081000   0.60565538   -2.1661848   -2.1661848   -1.4133066  0.037201923   -2.1661848   0.75287821   426349 
 3082000   0.60704061   -2.1680205   -2.1680205   -1.4134203   0.03862453   -2.1680205   0.75460016   426349 
 3083000   0.60760858   -2.1679062   -2.1679062      -1.4126  0.037451263   -2.1679062    0.7553062   426349 
 3084000   0.60579632   -2.1664942   -2.1664942   -1.4134408  0.045478076   -2.1664942   0.75305341   426349 
 3085000   0.60690553   -2.1670343   -2.1670343    -1.412602  0.044937068   -2.1670343   0.75443225   426349 
 3086000   0.60619813     -2.16643     -2.16643   -1.4128771  0.040857524     -2.16643   0.75355289   426349 
 3087000   0.60666552    -2.167177    -2.167177   -1.4130431  0.034759394    -2.167177   0.75413389   426349 
 3088000   0.60658295   -2.1671405   -2.1671405   -1.4131092  0.041863431   -2.1671405   0.75403126   426349 
 3089000   0.60538572   -2.1661695   -2.1661695   -1.4136265  0.035827425   -2.1661695     0.752543   426349 
 3090000   0.60558218   -2.1657799   -2.1657799   -1.4129927  0.038483079   -2.1657799   0.75278722   426349 
 3091000   0.60560394   -2.1660034   -2.1660034   -1.4131892  0.033944414   -2.1660034   0.75281427   426349 
 3092000   0.60527954   -2.1651661   -2.1651661   -1.4127551  0.037166807   -2.1651661   0.75241101   426349 
 3093000   0.60624404   -2.1662639   -2.1662639   -1.4126539  0.033894022   -2.1662639   0.75360997   426349 
 3094000   0.60594611   -2.1654815   -2.1654815   -1.4122419  0.038140431   -2.1654815   0.75323961   426349 
 3095000   0.60628653   -2.1655397   -2.1655397   -1.4118769    0.0400513   -2.1655397   0.75366278   426349 
 3096000   0.60563082   -2.1660375   -2.1660375   -1.4131898  0.042980118   -2.1660375   0.75284768   426349 
 3097000   0.60557127    -2.165943    -2.165943   -1.4131694  0.037112381    -2.165943   0.75277366   426349 
 3098000   0.60678294   -2.1667175   -2.1667175   -1.4124376  0.041312949   -2.1667175   0.75427985   426349 
 3099000   0.60619901   -2.1650379   -2.1650379   -1.4114839    0.0359579   -2.1650379   0.75355398   426349 
 3100000   0.60684426   -2.1665664   -2.1665664   -1.4122103  0.033801818   -2.1665664   0.75435608   426349 
 3101000   0.60629618   -2.1656236   -2.1656236   -1.4119488  0.042079513   -2.1656236   0.75367478   426349 
 3102000    0.6055832   -2.1651227   -2.1651227   -1.4123342  0.039476718   -2.1651227   0.75278849   426349 
 3103000   0.60667266   -2.1665514   -2.1665514   -1.4124086  0.037766777   -2.1665514   0.75414277   426349 
 3104000   0.60676379   -2.1665322   -2.1665322   -1.4122761  0.036094164   -2.1665322   0.75425605   426349 
 3105000   0.60665942   -2.1667662   -2.1667662   -1.4126399  0.031781369   -2.1667662   0.75412631   426349 
 3106000   0.60572117   -2.1654947   -2.1654947   -1.4125347   0.03480602   -2.1654947   0.75295999   426349 
 3107000   0.60649882   -2.1663193   -2.1663193   -1.4123927  0.035788391   -2.1663193   0.75392667   426349 
 3108000   0.60511474   -2.1653431   -2.1653431    -1.413137  0.036116488   -2.1653431   0.75220615   426349 
 3109000   0.60674822   -2.1666173   -2.1666173   -1.4123806  0.043559886   -2.1666173    0.7542367   426349 
 3110000   0.60596577    -2.166073    -2.166073    -1.412809  0.040141542    -2.166073   0.75326405   426349 
 3111000   0.60699431   -2.1675241   -2.1675241   -1.4129815  0.031236065   -2.1675241   0.75454261   426349 
 3112000   0.60629245   -2.1664977   -2.1664977   -1.4128276  0.038785832   -2.1664977   0.75367013   426349 
 3113000   0.60728201    -2.167395    -2.167395   -1.4124948  0.037841569    -2.167395   0.75490024   426349 
 3114000   0.60680745    -2.166888    -2.166888   -1.4125777  0.037005914    -2.166888   0.75431032   426349 
 3115000   0.60691908   -2.1665044   -2.1665044   -1.4120553   0.03801772   -2.1665044   0.75444909   426349 
 3116000   0.60633635   -2.1652764   -2.1652764   -1.4115517  0.037764936   -2.1652764   0.75372471   426349 
 3117000    0.6065501   -2.1661843   -2.1661843   -1.4121939  0.033540784   -2.1661843   0.75399042   426349 
 3118000   0.60740136   -2.1673514   -2.1673514   -1.4123028  0.037289524   -2.1673514   0.75504861   426349 
 3119000   0.60844469   -2.1678497   -2.1678497   -1.4115041  0.042156871   -2.1678497   0.75634555   426349 
 3120000   0.60879641   -2.1681541   -2.1681541   -1.4113714   0.03587055   -2.1681541   0.75678277   426349 
 3121000   0.60677443   -2.1654774   -2.1654774   -1.4112081  0.042336061   -2.1654774   0.75426928   426349 
 3122000   0.60661888   -2.1655562   -2.1655562   -1.4114803  0.037822105   -2.1655562   0.75407592   426349 
 3123000   0.60611156   -2.1647333   -2.1647333    -1.411288  0.034568577   -2.1647333   0.75344528   426349 
 3124000    0.6071024   -2.1666213   -2.1666213   -1.4119443  0.033070573   -2.1666213   0.75467697   426349 
 3125000   0.60632393   -2.1656413   -2.1656413    -1.411932  0.036538103   -2.1656413   0.75370928   426349 
 3126000    0.6065893   -2.1660574   -2.1660574   -1.4120183  0.034816226   -2.1660574   0.75403915   426349 
 3127000   0.60708946   -2.1661896   -2.1661896   -1.4115287   0.03629849   -2.1661896   0.75466088   426349 
 3128000   0.60621979    -2.165623    -2.165623   -1.4120432  0.040118041    -2.165623   0.75357982   426349 
 3129000   0.60635664   -2.1652313   -2.1652313   -1.4114814  0.042745519   -2.1652313   0.75374994   426349 
 3130000   0.60648171   -2.1656286   -2.1656286   -1.4117232  0.035589261   -2.1656286    0.7539054   426349 
 3131000    0.6056824   -2.1638752   -2.1638752   -1.4109634  0.038325514   -2.1638752    0.7529118   426349 
 3132000   0.60601299   -2.1646099   -2.1646099   -1.4112872  0.032059474   -2.1646099   0.75332275   426349 
 3133000   0.60638576   -2.1652656   -2.1652656   -1.4114794  0.035827558   -2.1652656   0.75378613   426349 
 3134000   0.60625585   -2.1646191   -2.1646191   -1.4109944  0.035691477   -2.1646191   0.75362464   426349 
 3135000   0.60684699   -2.1652588   -2.1652588   -1.4108994  0.042616599   -2.1652588   0.75435948   426349 
 3136000   0.60752394   -2.1664723   -2.1664723   -1.4112713  0.038561573   -2.1664723   0.75520098   426349 
 3137000    0.6069078   -2.1661998   -2.1661998   -1.4117648  0.040185928   -2.1661998   0.75443507   426349 
 3138000   0.60761318   -2.1668823   -2.1668823   -1.4115704    0.0344864   -2.1668823   0.75531191   426349 
 3139000   0.60602915   -2.1647491   -2.1647491   -1.4114063  0.044228374   -2.1647491   0.75334283   426349 
 3140000   0.60683767   -2.1657321   -2.1657321   -1.4113842  0.037819156   -2.1657321   0.75434789   426349 
 3141000   0.60717329   -2.1664251   -2.1664251     -1.41166  0.032722912   -2.1664251   0.75476509   426349 
 3142000   0.60725798   -2.1666155   -2.1666155   -1.4117452  0.042092894   -2.1666155   0.75487037   426349 
 3143000   0.60701357    -2.166983    -2.166983   -1.4124165  0.034041627    -2.166983   0.75456654   426349 
 3144000   0.60729011   -2.1667848   -2.1667848   -1.4118745  0.036858077   -2.1667848   0.75491031   426349 
 3145000   0.60766233   -2.1678711   -2.1678711   -1.4124981  0.035107815   -2.1678711   0.75537301   426349 
 3146000   0.60692298   -2.1665217   -2.1665217   -1.4120677    0.0427381   -2.1665217   0.75445394   426349 
 3147000   0.60628198   -2.1653593   -2.1653593   -1.4117022  0.029433176   -2.1653593   0.75365713   426349 
 3148000   0.60737687   -2.1665146   -2.1665146   -1.4114964  0.038184586   -2.1665146   0.75501816   426349 
 3149000   0.60628712   -2.1663204   -2.1663204   -1.4126569  0.031343978   -2.1663204   0.75366352   426349 
 3150000   0.60627194   -2.1662302   -2.1662302   -1.4125856  0.038253293   -2.1662302   0.75364464   426349 
 3151000   0.60578849   -2.1667304   -2.1667304   -1.4136867  0.030610963   -2.1667304   0.75304368   426349 
 3152000   0.60661369   -2.1682263   -2.1682263   -1.4141569   0.03653516   -2.1682263   0.75406947   426349 
 3153000   0.60562171    -2.166206    -2.166206   -1.4133697  0.032808145    -2.166206   0.75283636   426349 
 3154000   0.60686509   -2.1680447   -2.1680447   -1.4136627  0.034693483   -2.1680447   0.75438198   426349 
 3155000    0.6057335     -2.16668     -2.16668   -1.4137046  0.035007906     -2.16668   0.75297532   426349 
 3156000   0.60717276   -2.1675914   -2.1675914   -1.4128269  0.031714926   -2.1675914   0.75476444   426349 
 3157000   0.60686778   -2.1669457   -2.1669457   -1.4125604  0.036059307   -2.1669457   0.75438532   426349 
 3158000   0.60719515   -2.1674854   -2.1674854   -1.4126932  0.033826576   -2.1674854   0.75479226   426349 
 3159000   0.60784958   -2.1675363   -2.1675363   -1.4119305   0.03816176   -2.1675363   0.75560578   426349 
 3160000   0.60802664   -2.1679362   -2.1679362   -1.4121104  0.038214134   -2.1679362   0.75582588   426349 
 3161000   0.60687106   -2.1662757   -2.1662757   -1.4118863  0.039474663   -2.1662757    0.7543894   426349 
 3162000   0.60791148   -2.1679396   -2.1679396   -1.4122569  0.045463968   -2.1679396   0.75568272   426349 
 3163000   0.60782662   -2.1678859   -2.1678859   -1.4123086  0.037528858   -2.1678859   0.75557723   426349 
 3164000   0.60817096   -2.1677036   -2.1677036   -1.4116983  0.032493234   -2.1677036   0.75600528   426349 
 3165000   0.60728263   -2.1675853   -2.1675853   -1.4126843  0.034980311   -2.1675853   0.75490101   426349 
 3166000   0.60754528   -2.1677869   -2.1677869   -1.4125594  0.041334691   -2.1677869    0.7552275   426349 
 3167000   0.60664533    -2.166657    -2.166657   -1.4125482  0.044186634    -2.166657   0.75410879   426349 
 3168000   0.60694225   -2.1664002   -2.1664002   -1.4119223  0.036384204   -2.1664002   0.75447789   426349 
 3169000    0.6072263   -2.1674733   -2.1674733   -1.4126423  0.036114278   -2.1674733   0.75483099   426349 
 3170000   0.60677715   -2.1673015   -2.1673015   -1.4130288  0.038481049   -2.1673015   0.75427266   426349 
 3171000   0.60662924   -2.1671507   -2.1671507   -1.4130619  0.040271465   -2.1671507    0.7540888   426349 
 3172000   0.60650079   -2.1664448   -2.1664448   -1.4125157  0.037002537   -2.1664448   0.75392913   426349 
 3173000   0.60689905   -2.1677946   -2.1677946   -1.4133704  0.037111976   -2.1677946    0.7544242   426349 
 3174000   0.60686554   -2.1670154   -2.1670154   -1.4126329  0.040140652   -2.1670154   0.75438254   426349 
 3175000   0.60680892   -2.1667046   -2.1667046   -1.4123924  0.032693333   -2.1667046   0.75431216   426349 
 3176000   0.60620408   -2.1666199   -2.1666199   -1.4130596   0.03895207   -2.1666199   0.75356029   426349 
 3177000   0.60638492   -2.1668185   -2.1668185   -1.4130335  0.038725917   -2.1668185   0.75378508   426349 
 3178000   0.60640679   -2.1668289   -2.1668289   -1.4130166   0.03809714   -2.1668289   0.75381227   426349 
 3179000   0.60755345   -2.1679949   -2.1679949   -1.4127573   0.04398753   -2.1679949   0.75523766   426349 
 3180000   0.60704008   -2.1671555   -2.1671555    -1.412556  0.034704313   -2.1671555    0.7545995   426349 
 3181000   0.60664552   -2.1668613   -2.1668613   -1.4127523  0.043081026   -2.1668613   0.75410903   426349 
 3182000    0.6066331    -2.167203    -2.167203   -1.4131094  0.032888205    -2.167203    0.7540936   426349 
 3183000   0.60578468   -2.1659658   -2.1659658   -1.4129269  0.040743862   -2.1659658   0.75303894   426349 
 3184000   0.60531286   -2.1664753   -2.1664753   -1.4140228  0.034489903   -2.1664753   0.75245243   426349 
 3185000   0.60586411   -2.1670023   -2.1670023   -1.4138646  0.034136006   -2.1670023   0.75313768   426349 
 3186000   0.60634393   -2.1678697   -2.1678697   -1.4141356  0.032777993   -2.1678697   0.75373413   426349 
 3187000   0.60539939   -2.1658142   -2.1658142   -1.4132542   0.03020565   -2.1658142   0.75255999   426349 
 3188000   0.60718165   -2.1681456   -2.1681456   -1.4133701  0.040874975   -2.1681456   0.75477549   426349 
 3189000   0.60734118   -2.1685738   -2.1685738      -1.4136  0.040662931   -2.1685738    0.7549738   426349 
 3190000   0.60652311    -2.167087    -2.167087   -1.4131301  0.040342463    -2.167087   0.75395687   426349 
 3191000   0.60786153    -2.168698    -2.168698   -1.4130773  0.042514818    -2.168698   0.75562064   426349 
 3192000   0.60744406   -2.1674292   -2.1674292   -1.4123275   0.03550522   -2.1674292   0.75510168   426349 
 3193000    0.6075461   -2.1685223   -2.1685223   -1.4132938  0.037791538   -2.1685223   0.75522853   426349 
 3194000   0.60751542   -2.1684288   -2.1684288   -1.4132384  0.036623045   -2.1684288   0.75519039   426349 
 3195000    0.6055371   -2.1666747   -2.1666747   -1.4139435  0.042336247   -2.1666747   0.75273118   426349 
 3196000   0.60588947   -2.1674189   -2.1674189   -1.4142497  0.042401941   -2.1674189   0.75316921   426349 
 3197000   0.60471408   -2.1665206   -2.1665206   -1.4148125  0.032984514   -2.1665206    0.7517081   426349 
 3198000   0.60616595   -2.1678336   -2.1678336   -1.4143207  0.030362579   -2.1678336   0.75351289   426349 
 3199000   0.60655039   -2.1688177   -2.1688177   -1.4148269  0.036955183   -2.1688177   0.75399078   426349 
 3200000   0.60651441   -2.1677989   -2.1677989   -1.4138529  0.040217015   -2.1677989   0.75394606   426349 
 3201000   0.60612771   -2.1672752   -2.1672752   -1.4138099   0.03995663   -2.1672752   0.75346535   426349 
 3202000   0.60682699   -2.1687002   -2.1687002   -1.4143655  0.035143659   -2.1687002   0.75433461   426349 
 3203000   0.60670118   -2.1677816   -2.1677816   -1.4136034  0.040272408   -2.1677816   0.75417823   426349 
 3204000   0.60645864   -2.1683082   -2.1683082   -1.4144315   0.04825261   -2.1683082   0.75387673   426349 
 3205000   0.60765239    -2.169614    -2.169614   -1.4142533  0.039969268    -2.169614   0.75536065   426349 
 3206000   0.60708974   -2.1693254   -2.1693254   -1.4146642  0.028473044   -2.1693254   0.75466123   426349 
 3207000   0.60577111    -2.168056    -2.168056   -1.4150339  0.037901392    -2.168056   0.75302208   426349 
 3208000     0.606023   -2.1686196   -2.1686196   -1.4152844  0.037734095   -2.1686196   0.75333519   426349 
 3209000   0.60561658   -2.1684257   -2.1684257   -1.4155957  0.042394396   -2.1684257   0.75282997   426349 
 3210000   0.60613406   -2.1682935   -2.1682935   -1.4148203  0.034894037   -2.1682935   0.75347325   426349 
 3211000   0.60566409    -2.168319    -2.168319   -1.4154299  0.040797029    -2.168319   0.75288904   426349 
 3212000   0.60612622   -2.1690971   -2.1690971   -1.4156336  0.036176845   -2.1690971   0.75346351   426349 
 3213000   0.60556368   -2.1685386   -2.1685386   -1.4157744  0.039190973   -2.1685386   0.75276422   426349 
 3214000   0.60616459   -2.1692629   -2.1692629   -1.4157517   0.03451988   -2.1692629    0.7535112   426349 
 3215000   0.60642986   -2.1690164   -2.1690164   -1.4151755  0.037632216   -2.1690164   0.75384096   426349 
 3216000   0.60664168   -2.1690722   -2.1690722   -1.4149679  0.032217442   -2.1690722   0.75410426   426349 
 3217000   0.60547647   -2.1670097   -2.1670097   -1.4143539  0.034756435   -2.1670097   0.75265581   426349 
 3218000    0.6058458   -2.1682344   -2.1682344   -1.4151195  0.033075485   -2.1682344   0.75311492   426349 
 3219000   0.60623674   -2.1695117   -2.1695117   -1.4159108  0.034138168   -2.1695117   0.75360089   426349 
 3220000   0.60630158   -2.1686886   -2.1686886   -1.4150071  0.037102502   -2.1686886   0.75368149   426349 
 3221000   0.60567432   -2.1681206   -2.1681206   -1.4152188  0.045501682   -2.1681206   0.75290175   426349 
 3222000   0.60675095   -2.1698867   -2.1698867   -1.4156466   0.03336065   -2.1698867    0.7542401   426349 
 3223000   0.60628965   -2.1696066   -2.1696066     -1.41594  0.035457721   -2.1696066   0.75366666   426349 
 3224000   0.60669229   -2.1694789   -2.1694789   -1.4153117  0.035374808   -2.1694789   0.75416718   426349 
 3225000   0.60571395   -2.1682337   -2.1682337   -1.4152827   0.03333723   -2.1682337   0.75295102   426349 
 3226000   0.60645651   -2.1696026   -2.1696026   -1.4157285  0.044449273   -2.1696026   0.75387409   426349 
 3227000   0.60535743   -2.1682879   -2.1682879     -1.41578  0.040092967   -2.1682879   0.75250783   426349 
 3228000   0.60603912   -2.1698638   -2.1698638   -1.4165086  0.029789009   -2.1698638   0.75335523   426349 
 3229000   0.60612161   -2.1702673   -2.1702673   -1.4168096  0.032688467   -2.1702673   0.75345778   426349 
 3230000   0.60716495   -2.1713811   -2.1713811   -1.4166264  0.038203932   -2.1713811   0.75475473   426349 
 3231000   0.60679859   -2.1711478   -2.1711478   -1.4168485   0.03692074   -2.1711478   0.75429931   426349 
 3232000   0.60584424   -2.1705561   -2.1705561   -1.4174431  0.032407829   -2.1705561   0.75311298   426349 
 3233000   0.60533234   -2.1694347   -2.1694347   -1.4169581  0.043444725   -2.1694347   0.75247665   426349 
 3234000   0.60647611   -2.1709636   -2.1709636   -1.4170652  0.042310304   -2.1709636   0.75389844   426349 
 3235000   0.60631864   -2.1697218   -2.1697218   -1.4160191  0.043988641   -2.1697218   0.75370269   426349 
 3236000   0.60618874   -2.1695584   -2.1695584   -1.4160172  0.033156214   -2.1695584   0.75354122   426349 
 3237000    0.6060693   -2.1692424   -2.1692424   -1.4158497  0.037955608   -2.1692424   0.75339275   426349 
 3238000   0.60601499   -2.1695748   -2.1695748   -1.4162496  0.036804648   -2.1695748   0.75332524   426349 
 3239000   0.60732858   -2.1707651   -2.1707651    -1.415807  0.032745222   -2.1707651   0.75495813   426349 
 3240000   0.60726236   -2.1707976   -2.1707976   -1.4159218   0.03574916   -2.1707976   0.75487581   426349 
 3241000   0.60600775   -2.1683745   -2.1683745   -1.4150582  0.042597569   -2.1683745   0.75331624   426349 
 3242000   0.60692005   -2.1700988   -2.1700988   -1.4156485  0.043485454   -2.1700988   0.75445029   426349 
 3243000   0.60625908   -2.1695169   -2.1695169   -1.4158883  0.037968645   -2.1695169   0.75362866   426349 
 3244000   0.60606274   -2.1689547   -2.1689547   -1.4155701  0.038892224   -2.1689547   0.75338459   426349 
 3245000   0.60598569   -2.1690828   -2.1690828    -1.415794  0.036995643   -2.1690828   0.75328881   426349 
 3246000   0.60621089   -2.1694439   -2.1694439   -1.4158752  0.038594658   -2.1694439   0.75356875   426349 
 3247000   0.60574526   -2.1685594   -2.1685594   -1.4155695  0.042375668   -2.1685594   0.75298994   426349 
 3248000   0.60815565   -2.1715866   -2.1715866   -1.4156004  0.030080428   -2.1715866   0.75598624   426349 
 3249000   0.60684578   -2.1690763   -2.1690763   -1.4147183  0.042165931   -2.1690763   0.75435798   426349 
 3250000   0.60701545   -2.1693982   -2.1693982   -1.4148293  0.038180763   -2.1693982   0.75456889   426349 
 3251000   0.60734778   -2.1698444   -2.1698444   -1.4148624  0.036594129   -2.1698444     0.754982   426349 
 3252000   0.60737589   -2.1700794   -2.1700794   -1.4150625   0.04155133   -2.1700794   0.75501694   426349 
 3253000     0.606201   -2.1689882   -2.1689882   -1.4154317   0.03858016   -2.1689882   0.75355646   426349 
 3254000   0.60630156    -2.169732    -2.169732   -1.4160505  0.038365918    -2.169732   0.75368146   426349 
 3255000   0.60643454    -2.169806    -2.169806   -1.4159592  0.028986385    -2.169806   0.75384676   426349 
 3256000   0.60563407   -2.1687073   -2.1687073   -1.4158556  0.040415353   -2.1687073   0.75285172   426349 
 3257000   0.60664182   -2.1696236   -2.1696236   -1.4155191  0.035192173   -2.1696236   0.75410443   426349 
 3258000   0.60551462   -2.1697526   -2.1697526   -1.4170493  0.041916177   -2.1697526   0.75270324   426349 
 3259000    0.6065853   -2.1703289   -2.1703289   -1.4162947  0.035193698   -2.1703289   0.75403417   426349 
 3260000   0.60602893   -2.1701543   -2.1701543   -1.4168117  0.032396651   -2.1701543   0.75334256   426349 
 3261000    0.6064186   -2.1698998   -2.1698998   -1.4160729  0.043307107   -2.1698998   0.75382695   426349 
 3262000   0.60586472   -2.1695198   -2.1695198   -1.4163814  0.042017818   -2.1695198   0.75313844   426349 
 3263000   0.60734061    -2.171551    -2.171551   -1.4165779  0.042609803    -2.171551   0.75497309   426349 
 3264000   0.60683902    -2.170484    -2.170484   -1.4161345  0.038906989    -2.170484   0.75434957   426349 
 3265000   0.60562795   -2.1700373   -2.1700373   -1.4171932  0.039610661   -2.1700373   0.75284411   426349 
 3266000   0.60592819   -2.1700951   -2.1700951   -1.4168777  0.040225371   -2.1700951   0.75321733   426349 
 3267000   0.60612214   -2.1701011   -2.1701011   -1.4166426  0.040360879   -2.1701011   0.75345843   426349 
 3268000   0.60662523   -2.1709547   -2.1709547   -1.4168709  0.037765037   -2.1709547   0.75408381   426349 
 3269000   0.60701663    -2.171446    -2.171446   -1.4168757  0.040943809    -2.171446   0.75457035   426349 
 3270000   0.60641413   -2.1712649   -2.1712649   -1.4174435  0.038995411   -2.1712649   0.75382139   426349 
 3271000   0.60705888   -2.1713272   -2.1713272   -1.4167043  0.038286986   -2.1713272   0.75462288   426349 
 3272000   0.60736458   -2.1721356   -2.1721356   -1.4171328  0.033453667   -2.1721356   0.75500289   426349 
 3273000   0.60818956    -2.172844    -2.172844   -1.4168156  0.033695472    -2.172844    0.7560284   426349 
 3274000   0.60606493    -2.170947    -2.170947   -1.4175597  0.043034112    -2.170947   0.75338731   426349 
 3275000   0.60620976   -2.1708028   -2.1708028   -1.4172354  0.038846743   -2.1708028   0.75356735   426349 
 3276000   0.60547379   -2.1706129   -2.1706129   -1.4179604  0.041984416   -2.1706129   0.75265248   426349 
 3277000   0.60628707   -2.1724707   -2.1724707   -1.4188073  0.036678914   -2.1724707   0.75366345   426349 
 3278000   0.60547994   -2.1714653   -2.1714653   -1.4188052  0.040612025   -2.1714653   0.75266013   426349 
 3279000   0.60675146   -2.1720869   -2.1720869   -1.4178462  0.031850374   -2.1720869   0.75424072   426349 
 3280000   0.60588335     -2.17082     -2.17082   -1.4176584   0.03684494     -2.17082    0.7531616   426349 
 3281000   0.60690562   -2.1713178   -2.1713178   -1.4168854  0.038645887   -2.1713178   0.75443236   426349 
 3282000   0.60674521   -2.1707092   -2.1707092   -1.4164762  0.044662897   -2.1707092   0.75423296   426349 
 3283000   0.60752358   -2.1717658   -2.1717658   -1.4165653  0.033912974   -2.1717658   0.75520053   426349 
 3284000   0.60695142   -2.1713864   -2.1713864   -1.4168971  0.036081026   -2.1713864   0.75448929   426349 
 3285000    0.6062666   -2.1711799   -2.1711799   -1.4175419   0.03629949   -2.1711799   0.75363801   426349 
 3286000   0.60654087   -2.1706664   -2.1706664   -1.4166875  0.035418485   -2.1706664   0.75397895   426349 
 3287000   0.60549787   -2.1698792   -2.1698792   -1.4171968  0.038670548   -2.1698792   0.75268242   426349 
 3288000   0.60616643   -2.1702155   -2.1702155    -1.416702  0.042338294   -2.1702155   0.75351348   426349 
 3289000   0.60677489   -2.1710981   -2.1710981   -1.4168283  0.043878911   -2.1710981   0.75426986   426349 
 3290000   0.60691372   -2.1715703   -2.1715703   -1.4171278  0.028947466   -2.1715703   0.75444243   426349 
 3291000   0.60766717   -2.1721375   -2.1721375   -1.4167585  0.032874516   -2.1721375   0.75537903   426349 
 3292000   0.60657963   -2.1712743   -2.1712743   -1.4172472  0.037811968   -2.1712743   0.75402713   426349 
 3293000   0.60673051    -2.170998    -2.170998   -1.4167833  0.033293222    -2.170998   0.75421469   426349 
 3294000   0.60559034   -2.1696242   -2.1696242   -1.4168269  0.033531195   -2.1696242   0.75279736   426349 
 3295000   0.60586872   -2.1696627   -2.1696627   -1.4165193  0.035762697   -2.1696627    0.7531434   426349 
 3296000   0.60725638   -2.1714256   -2.1714256   -1.4165572  0.038022954   -2.1714256   0.75486838   426349 
 3297000   0.60664235    -2.170313    -2.170313   -1.4162079  0.040426273    -2.170313   0.75410509   426349 
 3298000   0.60547808   -2.1700032   -2.1700032   -1.4173454  0.039157255   -2.1700032   0.75265782   426349 
 3299000   0.60547761   -2.1694386   -2.1694386   -1.4167814   0.03811424   -2.1694386   0.75265722   426349 
 3300000   0.60587229   -2.1694481   -2.1694481   -1.4163002  0.035000248   -2.1694481   0.75314785   426349 
 3301000   0.60635855   -2.1703411   -2.1703411   -1.4165888  0.034795736   -2.1703411   0.75375231   426349 
 3302000   0.60543491   -2.1686742   -2.1686742     -1.41607  0.042043553   -2.1686742   0.75260414   426349 
 3303000   0.60552263    -2.169232    -2.169232   -1.4165188  0.032101122    -2.169232   0.75271319   426349 
 3304000   0.60642679   -2.1700534   -2.1700534   -1.4162163  0.033330521   -2.1700534   0.75383713   426349 
 3305000   0.60599257   -2.1689863   -2.1689863    -1.415689  0.035983638   -2.1689863   0.75329736   426349 
 3306000   0.60610983   -2.1690163   -2.1690163   -1.4155732  0.036974029   -2.1690163   0.75344313   426349 
 3307000   0.60635358   -2.1698609   -2.1698609   -1.4161148  0.035323165   -2.1698609   0.75374613   426349 
 3308000   0.60619594   -2.1695014   -2.1695014   -1.4159513   0.03868982   -2.1695014   0.75355017   426349 
 3309000   0.60671375   -2.1697903   -2.1697903   -1.4155964  0.036892372   -2.1697903   0.75419385   426349 
 3310000   0.60623155   -2.1679215   -2.1679215   -1.4143271  0.038040124   -2.1679215   0.75359444   426349 
 3311000   0.60677674   -2.1691724   -2.1691724   -1.4149003  0.039656151   -2.1691724   0.75427215   426349 
 3312000     0.606229   -2.1681272   -2.1681272   -1.4145359  0.031058235   -2.1681272   0.75359127   426349 
 3313000     0.606009   -2.1679034   -2.1679034   -1.4145856  0.036509681   -2.1679034   0.75331779   426349 
 3314000   0.60658472   -2.1692301   -2.1692301   -1.4151967  0.035527511   -2.1692301   0.75403346   426349 
 3315000   0.60693724   -2.1697164   -2.1697164   -1.4152448  0.035440848   -2.1697164   0.75447166   426349 
 3316000   0.60659541   -2.1689469   -2.1689469   -1.4149001  0.039149763   -2.1689469   0.75404674   426349 
 3317000   0.60632544    -2.168381    -2.168381   -1.4146699  0.037862664    -2.168381   0.75371115   426349 
 3318000   0.60750185   -2.1694547   -2.1694547   -1.4142812  0.038115769   -2.1694547   0.75517352   426349 
 3319000   0.60715328   -2.1688105   -2.1688105   -1.4140702   0.04181703   -2.1688105   0.75474022   426349 
 3320000   0.60636355   -2.1679099   -2.1679099   -1.4141514  0.030915126   -2.1679099   0.75375852   426349 
 3321000   0.60565311   -2.1679048   -2.1679048   -1.4150294  0.034408997   -2.1679048   0.75287539   426349 
 3322000   0.60581862   -2.1684258   -2.1684258   -1.4153447  0.036380384   -2.1684258   0.75308113   426349 
 3323000   0.60661902   -2.1694756   -2.1694756   -1.4153995  0.031379651   -2.1694756    0.7540761   426349 
 3324000   0.60695952   -2.1701988   -2.1701988   -1.4156994  0.038195632   -2.1701988   0.75449936   426349 
 3325000    0.6066504   -2.1695453   -2.1695453   -1.4154302  0.032117248   -2.1695453    0.7541151   426349 
 3326000   0.60624658   -2.1685776   -2.1685776   -1.4149645  0.033567258   -2.1685776   0.75361312   426349 
 3327000   0.60613757   -2.1682163   -2.1682163   -1.4147387  0.036619757   -2.1682163   0.75347761   426349 
 3328000   0.60681449   -2.1683849   -2.1683849   -1.4140658  0.036853061   -2.1683849   0.75431908   426349 
 3329000   0.60735638   -2.1692194   -2.1692194   -1.4142267  0.043908312   -2.1692194   0.75499269   426349 
 3330000   0.60711604   -2.1699473   -2.1699473   -1.4152534  0.034834349   -2.1699473   0.75469392   426349 
 3331000     0.605989    -2.169005    -2.169005   -1.4157121  0.043836714    -2.169005   0.75329293   426349 
 3332000    0.6066364   -2.1690073   -2.1690073   -1.4149096    0.0390905   -2.1690073    0.7540977   426349 
 3333000   0.60640295   -2.1698485   -2.1698485    -1.416041  0.035826054   -2.1698485    0.7538075   426349 
 3334000   0.60575305   -2.1688653   -2.1688653   -1.4158657  0.033231591   -2.1688653   0.75299962   426349 
 3335000   0.60685562    -2.170401    -2.170401   -1.4160308  0.033632722    -2.170401   0.75437021   426349 
 3336000    0.6063519    -2.169832    -2.169832   -1.4160879  0.038990709    -2.169832   0.75374403   426349 
 3337000   0.60725634   -2.1710317   -2.1710317   -1.4161634  0.042642218   -2.1710317   0.75486833   426349 
 3338000   0.60729778   -2.1706198   -2.1706198   -1.4156999  0.034465059   -2.1706198   0.75491985   426349 
 3339000   0.60739789   -2.1703325   -2.1703325   -1.4152882  0.039053826   -2.1703325   0.75504429   426349 
 3340000   0.60775774   -2.1712216   -2.1712216   -1.4157299  0.043150176   -2.1712216   0.75549161   426349 
 3341000   0.60711045   -2.1704229   -2.1704229   -1.4157359  0.036552045   -2.1704229   0.75468699   426349 
 3342000   0.60718405   -2.1709311   -2.1709311   -1.4161526  0.041134923   -2.1709311   0.75477847   426349 
 3343000   0.60632087   -2.1706418   -2.1706418   -1.4169363  0.035725513   -2.1706418   0.75370547   426349 
 3344000   0.60596128   -2.1701165   -2.1701165    -1.416858  0.041814462   -2.1701165   0.75325847   426349 
 3345000   0.60571349    -2.170284    -2.170284   -1.4173336  0.035177947    -2.170284   0.75295044   426349 
 3346000   0.60526774   -2.1691598   -2.1691598   -1.4167634  0.032825977   -2.1691598   0.75239634   426349 
 3347000    0.6055982   -2.1701581   -2.1701581    -1.417351  0.030458948   -2.1701581   0.75280713   426349 
 3348000   0.60565759   -2.1691978   -2.1691978   -1.4163169  0.041362838   -2.1691978   0.75288096   426349 
 3349000   0.60522669   -2.1692225   -2.1692225   -1.4168772  0.036530772   -2.1692225   0.75234531   426349 
 3350000   0.60441508   -2.1683081   -2.1683081   -1.4169717  0.037477339   -2.1683081   0.75133642   426349 
 3351000   0.60473708   -2.1689087   -2.1689087    -1.417172  0.037336281   -2.1689087   0.75173669   426349 
 3352000    0.6062424    -2.170276    -2.170276    -1.416668  0.034324008    -2.170276   0.75360792   426349 
 3353000   0.60564667   -2.1701871   -2.1701871   -1.4173197  0.034775108   -2.1701871   0.75286738   426349 
 3354000   0.60708092   -2.1718206   -2.1718206   -1.4171704  0.036121184   -2.1718206   0.75465027   426349 
 3355000    0.6063495   -2.1711176   -2.1711176   -1.4173766  0.039020543   -2.1711176   0.75374105   426349 
 3356000   0.60699165   -2.1711416   -2.1711416   -1.4166024  0.041513986   -2.1711416    0.7545393   426349 
 3357000   0.60596716   -2.1709148   -2.1709148    -1.417649  0.042208833   -2.1709148   0.75326578   426349 
 3358000   0.60582093   -2.1716649   -2.1716649   -1.4185809  0.034855767   -2.1716649     0.753084   426349 
 3359000   0.60623112   -2.1726435   -2.1726435   -1.4190496  0.039232807   -2.1726435    0.7535939   426349 
 3360000   0.60705811   -2.1730993   -2.1730993   -1.4184774  0.036027168   -2.1730993   0.75462192   426349 
 3361000   0.60650269   -2.1730016   -2.1730016   -1.4190701   0.03966946   -2.1730016   0.75393149   426349 
 3362000   0.60615665   -2.1722751   -2.1722751   -1.4187738  0.044944444   -2.1722751   0.75350133   426349 
 3363000   0.60583391   -2.1718977   -2.1718977   -1.4187975  0.038290223   -2.1718977   0.75310014   426349 
 3364000   0.60669899   -2.1733483   -2.1733483   -1.4191728   0.04312152   -2.1733483    0.7541755   426349 
 3365000   0.60643646   -2.1732423   -2.1732423   -1.4193931  0.038042699   -2.1732423   0.75384916   426349 
 3366000   0.60610512    -2.172732    -2.172732   -1.4192948  0.038424937    -2.172732   0.75343728   426349 
 3367000   0.60616305   -2.1725243   -2.1725243    -1.419015  0.039852446   -2.1725243   0.75350929   426349 
 3368000   0.60584943   -2.1720543   -2.1720543   -1.4189349   0.04018224   -2.1720543   0.75311943   426349 
 3369000   0.60588547   -2.1712628   -2.1712628   -1.4180986  0.041800182   -2.1712628   0.75316423   426349 
 3370000   0.60593641   -2.1722654   -2.1722654   -1.4190378  0.035241399   -2.1722654   0.75322755   426349 
 3371000   0.60674374   -2.1716297   -2.1716297   -1.4173985  0.038025096   -2.1716297   0.75423114   426349 
 3372000   0.60537422   -2.1709775   -2.1709775   -1.4184488  0.037774001   -2.1709775    0.7525287   426349 
 3373000   0.60603317   -2.1718868   -2.1718868   -1.4185389  0.037747343   -2.1718868   0.75334784   426349 
 3374000   0.60549103   -2.1718837   -2.1718837   -1.4192098  0.031520969   -2.1718837   0.75267391   426349 
 3375000   0.60533816   -2.1723084   -2.1723084   -1.4198245  0.034524369   -2.1723084   0.75248388   426349 
 3376000   0.60475897   -2.1723527   -2.1723527   -1.4205888  0.030075551   -2.1723527    0.7517639   426349 
 3377000   0.60461621   -2.1719256   -2.1719256   -1.4203391  0.032199901   -2.1719256   0.75158644   426349 
 3378000   0.60555401   -2.1727356   -2.1727356   -1.4199834  0.033672133   -2.1727356    0.7527522   426349 
 3379000   0.60522794   -2.1722499   -2.1722499    -1.419903  0.036387689   -2.1722499   0.75234687   426349 
 3380000   0.60556908   -2.1723945   -2.1723945   -1.4196236   0.03493406   -2.1723945   0.75277093   426349 
 3381000   0.60544182   -2.1727421   -2.1727421   -1.4201294  0.037200058   -2.1727421   0.75261274   426349 
 3382000   0.60566727   -2.1726996   -2.1726996   -1.4198066  0.040091233   -2.1726996     0.752893   426349 
 3383000   0.60557738   -2.1724198   -2.1724198   -1.4196386  0.034712607   -2.1724198   0.75278125   426349 
 3384000   0.60509648   -2.1720369   -2.1720369   -1.4198534   0.04017124   -2.1720369   0.75218346   426349 
 3385000   0.60521798   -2.1715376   -2.1715376   -1.4192031  0.042193359   -2.1715376   0.75233449   426349 
 3386000   0.60577061   -2.1718278   -2.1718278   -1.4188063   0.03281933   -2.1718278   0.75302145   426349 
 3387000    0.6065418   -2.1727367   -2.1727367   -1.4187566  0.043756503   -2.1727367    0.7539801   426349 
 3388000   0.60545173   -2.1715741   -2.1715741    -1.418949  0.037286712   -2.1715741   0.75262505   426349 
 3389000   0.60712899   -2.1732541   -2.1732541   -1.4185441  0.042607161   -2.1732541   0.75471003   426349 
 3390000    0.6061819   -2.1722998   -2.1722998   -1.4187671  0.040880311   -2.1722998   0.75353272   426349 
 3391000   0.60634963   -2.1728458   -2.1728458   -1.4191045   0.03551325   -2.1728458   0.75374121   426349 
 3392000    0.6069056    -2.172795    -2.172795   -1.4183626  0.038605468    -2.172795   0.75443234   426349 
 3393000   0.60530203   -2.1720635   -2.1720635   -1.4196246  0.037884308   -2.1720635   0.75243897   426349 
 3394000   0.60699039    -2.173924    -2.173924   -1.4193862  0.036855164    -2.173924   0.75453774   426349 
 3395000   0.60566368   -2.1725784   -2.1725784   -1.4196899  0.038539041   -2.1725784   0.75288853   426349 
 3396000   0.60622176   -2.1733063   -2.1733063    -1.419724  0.035429552   -2.1733063   0.75358226   426349 
 3397000   0.60672331   -2.1736912   -2.1736912   -1.4194855  0.034951365   -2.1736912   0.75420573   426349 
 3398000   0.60554207   -2.1726726   -2.1726726   -1.4199352  0.041030981   -2.1726726   0.75273735   426349 
 3399000   0.60607723    -2.173355    -2.173355   -1.4199524  0.041588489    -2.173355    0.7534026   426349 
 3400000   0.60437221    -2.171237    -2.171237   -1.4199538  0.038520609    -2.171237   0.75128313   426349 
 3401000   0.60391482   -2.1704536   -2.1704536    -1.419739  0.034604092   -2.1704536   0.75071455   426349 
 3402000   0.60485344    -2.172064    -2.172064   -1.4201827  0.040340501    -2.172064   0.75188133   426349 
 3403000    0.6053549   -2.1728995   -2.1728995   -1.4203948  0.036285832   -2.1728995   0.75250468   426349 
 3404000   0.60623023   -2.1738099   -2.1738099   -1.4202171  0.035179602   -2.1738099    0.7535928   426349 
 3405000   0.60651263   -2.1744529   -2.1744529    -1.420509  0.034285866   -2.1744529   0.75394385   426349 
 3406000   0.60490972   -2.1723855   -2.1723855   -1.4204342   0.03746661   -2.1723855    0.7519513   426349 
 3407000   0.60610958   -2.1740879   -2.1740879   -1.4206451  0.034277736   -2.1740879   0.75344282   426349 
 3408000   0.60607936    -2.173647    -2.173647   -1.4202418  0.034412411    -2.173647   0.75340525   426349 
 3409000   0.60560869   -2.1731868   -2.1731868   -1.4203666  0.039768328   -2.1731868   0.75282017   426349 
 3410000   0.60533354   -2.1720131   -2.1720131   -1.4195349  0.030996919   -2.1720131   0.75247813   426349 
 3411000   0.60413319   -2.1713979   -2.1713979   -1.4204119  0.036472168   -2.1713979     0.750986   426349 
 3412000   0.60407585   -2.1713077   -2.1713077   -1.4203929  0.040902439   -2.1713077   0.75091473   426349 
 3413000   0.60451402    -2.171973    -2.171973   -1.4205136  0.035446611    -2.171973   0.75145941   426349 
 3414000    0.6055352   -2.1726014   -2.1726014   -1.4198726  0.040216201   -2.1726014   0.75272882   426349 
 3415000   0.60632891   -2.1736336   -2.1736336   -1.4199182  0.037119888   -2.1736336   0.75371546   426349 
 3416000   0.60600304   -2.1734989   -2.1734989   -1.4201885  0.042808629   -2.1734989   0.75331038   426349 
 3417000   0.60539841    -2.173669    -2.173669   -1.4211103  0.036705809    -2.173669   0.75255878   426349 
 3418000   0.60726183   -2.1751103   -2.1751103   -1.4202351  0.046960181   -2.1751103   0.75487516   426349 
 3419000   0.60671592   -2.1742799   -2.1742799   -1.4200834  0.032567042   -2.1742799   0.75419655   426349 
 3420000   0.60587279   -2.1738143   -2.1738143   -1.4206659  0.040345634   -2.1738143   0.75314847   426349 
 3421000   0.60679802   -2.1746238   -2.1746238   -1.4203252  0.040386214   -2.1746238   0.75429861   426349 
 3422000   0.60669576   -2.1739226   -2.1739226   -1.4197511   0.03854182   -2.1739226   0.75417148   426349 
 3423000   0.60580321   -2.1733952   -2.1733952   -1.4203332  0.039010139   -2.1733952   0.75306198   426349 
 3424000   0.60559747   -2.1738139   -2.1738139   -1.4210077  0.038256787   -2.1738139   0.75280622   426349 
 3425000   0.60616084    -2.174931    -2.174931   -1.4214245  0.035790382    -2.174931   0.75350654   426349 
 3426000   0.60648442    -2.174768    -2.174768   -1.4208592  0.035723696    -2.174768   0.75390878   426349 
 3427000   0.60603268   -2.1732141   -2.1732141   -1.4198669  0.035858234   -2.1732141   0.75334723   426349 
 3428000   0.60606582    -2.172818    -2.172818   -1.4194296  0.036452839    -2.172818   0.75338842   426349 
 3429000   0.60542504   -2.1724268   -2.1724268   -1.4198349  0.037020242   -2.1724268   0.75259187   426349 
 3430000   0.60592743   -2.1731285   -2.1731285   -1.4199122  0.035027034   -2.1731285   0.75321639   426349 
 3431000   0.60600824   -2.1727131   -2.1727131   -1.4193962  0.044359113   -2.1727131   0.75331685   426349 
 3432000   0.60623752   -2.1739043   -2.1739043   -1.4203025  0.033326932   -2.1739043   0.75360185   426349 
 3433000   0.60588033   -2.1738355   -2.1738355   -1.4206777  0.039567054   -2.1738355   0.75315784   426349 
 3434000   0.60540826   -2.1731456   -2.1731456   -1.4205746  0.036611406   -2.1731456   0.75257102   426349 
 3435000   0.60529348   -2.1725419   -2.1725419   -1.4201135  0.039323783   -2.1725419   0.75242834   426349 
 3436000   0.60586334   -2.1728551   -2.1728551   -1.4197184  0.037535056   -2.1728551   0.75313672   426349 
 3437000   0.60568943   -2.1726946   -2.1726946    -1.419774  0.040182355   -2.1726946   0.75292054   426349 
 3438000   0.60677524   -2.1741369   -2.1741369   -1.4198666  0.037106295   -2.1741369   0.75427028   426349 
 3439000   0.60668501   -2.1731367   -2.1731367   -1.4189785  0.037618959   -2.1731367   0.75415813   426349 
 3440000   0.60503355   -2.1715478   -2.1715478   -1.4194425  0.032897298   -2.1715478   0.75210523   426349 
 3441000   0.60663189   -2.1738018   -2.1738018   -1.4197097  0.038907156   -2.1738018    0.7540921   426349 
 3442000   0.60688664   -2.1741334   -2.1741334   -1.4197246  0.040203481   -2.1741334   0.75440876   426349 
 3443000   0.60581028   -2.1729445   -2.1729445   -1.4198737  0.038497367   -2.1729445   0.75307076   426349 
 3444000    0.6054094   -2.1730602   -2.1730602   -1.4204878   0.03981398   -2.1730602   0.75257244   426349 
 3445000   0.60500782   -2.1725301   -2.1725301   -1.4204569  0.029048633   -2.1725301   0.75207324   426349 
 3446000   0.60400358   -2.1719368   -2.1719368   -1.4211119  0.031889953   -2.1719368   0.75082489   426349 
 3447000   0.60463147   -2.1721477   -2.1721477   -1.4205422  0.036199529   -2.1721477   0.75160541   426349 
 3448000    0.6058541   -2.1737862   -2.1737862   -1.4206609  0.035713017   -2.1737862   0.75312523   426349 
 3449000   0.60504394   -2.1721982   -2.1721982   -1.4200801   0.03434637   -2.1721982   0.75211814   426349 
 3450000   0.60657807   -2.1736442   -2.1736442    -1.419619  0.036251435   -2.1736442   0.75402519   426349 
 3451000   0.60545228   -2.1722064   -2.1722064   -1.4195806  0.030449207   -2.1722064   0.75262574   426349 
 3452000   0.60585685   -2.1732362   -2.1732362   -1.4201075  0.038075347   -2.1732362   0.75312865   426349 
 3453000   0.60556859   -2.1729694   -2.1729694    -1.420199  0.039187171   -2.1729694   0.75277032   426349 
 3454000    0.6064112   -2.1734265   -2.1734265   -1.4196088  0.032693193   -2.1734265   0.75381776   426349 
 3455000   0.60489215   -2.1721595   -2.1721595   -1.4202301  0.036321688   -2.1721595   0.75192946   426349 
 3456000   0.60558928   -2.1737619   -2.1737619   -1.4209659  0.037361318   -2.1737619   0.75279604   426349 
 3457000    0.6050782   -2.1720771   -2.1720771   -1.4199164  0.035636712   -2.1720771   0.75216074   426349 
 3458000   0.60566594   -2.1730801   -2.1730801   -1.4201888  0.038479836   -2.1730801   0.75289133   426349 
 3459000   0.60650892   -2.1740774   -2.1740774   -1.4201381  0.037091315   -2.1740774   0.75393923   426349 
 3460000   0.60597768   -2.1730231   -2.1730231   -1.4197442   0.04676416   -2.1730231   0.75327886   426349 
 3461000   0.60673585    -2.173998    -2.173998   -1.4197767  0.044635956    -2.173998   0.75422132   426349 
 3462000   0.60636051   -2.1736985   -2.1736985   -1.4199437  0.037595304   -2.1736985   0.75375474   426349 
 3463000   0.60613177   -2.1737675   -2.1737675   -1.4202971  0.033325788   -2.1737675    0.7534704   426349 
 3464000   0.60585804   -2.1728942   -2.1728942    -1.419764  0.035950764   -2.1728942   0.75313014   426349 
 3465000   0.60546165   -2.1737263   -2.1737263   -1.4210889  0.041514579   -2.1737263   0.75263739   426349 
 3466000   0.60484399   -2.1727249   -2.1727249   -1.4208553  0.042611086   -2.1727249   0.75186959   426349 
 3467000   0.60615384   -2.1742635   -2.1742635   -1.4207656  0.037486705   -2.1742635   0.75349783   426349 
 3468000   0.60705496   -2.1750376   -2.1750376   -1.4204196  0.037358066   -2.1750376     0.754618   426349 
 3469000   0.60688898    -2.174407    -2.174407   -1.4199953  0.034299552    -2.174407   0.75441167   426349 
 3470000   0.60613297   -2.1733521   -2.1733521   -1.4198803  0.037788187   -2.1733521   0.75347189   426349 
 3471000   0.60666017   -2.1745606   -2.1745606   -1.4204333  0.040075809   -2.1745606   0.75412724   426349 
 3472000   0.60520722   -2.1732854   -2.1732854   -1.4209643     0.032724   -2.1732854   0.75232112   426349 
 3473000   0.60609027   -2.1749976   -2.1749976   -1.4215788  0.036858011   -2.1749976   0.75341881   426349 
 3474000   0.60638492    -2.175432    -2.175432   -1.4216469  0.031286795    -2.175432   0.75378509   426349 
 3475000   0.60552795   -2.1754054   -2.1754054   -1.4226856  0.037946263   -2.1754054   0.75271981   426349 
 3476000    0.6051381   -2.1746339   -2.1746339   -1.4223987  0.031236103   -2.1746339   0.75223519   426349 
 3477000   0.60558002   -2.1749015   -2.1749015    -1.422117  0.033339323   -2.1749015   0.75278453   426349 
 3478000   0.60547752    -2.174926    -2.174926   -1.4222689  0.029621976    -2.174926   0.75265711   426349 
 3479000    0.6061704   -2.1755674   -2.1755674    -1.422049  0.036628334   -2.1755674   0.75351842   426349 
 3480000   0.60486012   -2.1742357   -2.1742357   -1.4223461  0.038714912   -2.1742357   0.75188964   426349 
 3481000    0.6051484   -2.1747967   -2.1747967   -1.4225487  0.037047278   -2.1747967   0.75224799   426349 
 3482000    0.6058708   -2.1765756   -2.1765756   -1.4234296  0.028987632   -2.1765756   0.75314599   426349 
 3483000   0.60577784    -2.177097    -2.177097   -1.4240666  0.038540515    -2.177097   0.75303044   426349 
 3484000   0.60558994   -2.1765673   -2.1765673   -1.4237704  0.035336489   -2.1765673   0.75279686   426349 
 3485000   0.60486209   -2.1752945   -2.1752945   -1.4234024   0.03590004   -2.1752945   0.75189209   426349 
 3486000   0.60577251   -2.1764845   -2.1764845   -1.4234607   0.03495974   -2.1764845   0.75302381   426349 
 3487000   0.60535035   -2.1759226   -2.1759226   -1.4234235  0.032280727   -2.1759226   0.75249903   426349 
 3488000   0.60589265   -2.1765411   -2.1765411   -1.4233679  0.041008505   -2.1765411   0.75317315   426349 
 3489000   0.60629023   -2.1770583   -2.1770583   -1.4233909  0.041305552   -2.1770583   0.75366738   426349 
 3490000   0.60659068   -2.1774489   -2.1774489   -1.4234081  0.041273844   -2.1774489   0.75404086   426349 
 3491000   0.60614282   -2.1763471   -2.1763471    -1.422863  0.035990148   -2.1763471   0.75348413   426349 
 3492000   0.60603629   -2.1766762   -2.1766762   -1.4233245  0.032794967   -2.1766762   0.75335171   426349 
 3493000    0.6072219   -2.1778649   -2.1778649   -1.4230394  0.035748545   -2.1778649   0.75482552   426349 
 3494000   0.60623789   -2.1765759   -2.1765759   -1.4229736  0.042022097   -2.1765759   0.75360231   426349 
 3495000   0.60667138   -2.1776992   -2.1776992    -1.423558  0.042779397   -2.1776992   0.75414119   426349 
 3496000    0.6055224   -2.1766103   -2.1766103   -1.4238973  0.040226242   -2.1766103   0.75271291   426349 
 3497000   0.60581955   -2.1766799   -2.1766799   -1.4235976   0.03946124   -2.1766799   0.75308229   426349 
 3498000   0.60574501   -2.1763061   -2.1763061   -1.4233165  0.036594843   -2.1763061   0.75298962   426349 
 3499000    0.6061575   -2.1766176   -2.1766176   -1.4231152  0.045840319   -2.1766176   0.75350239   426349 
 3500000   0.60531773   -2.1752881   -2.1752881   -1.4228296  0.034478011   -2.1752881   0.75245849   426349 
 3501000   0.60584377    -2.176124    -2.176124   -1.4230116  0.038465243    -2.176124   0.75311239   426349 
 3502000   0.60751466   -2.1774086   -2.1774086   -1.4222191   0.03330159   -2.1774086   0.75518945   426349 
 3503000   0.60638328   -2.1757132   -2.1757132   -1.4219302  0.041755078   -2.1757132   0.75378304   426349 
 3504000   0.60648395   -2.1762285   -2.1762285   -1.4223203   0.04003777   -2.1762285   0.75390818   426349 
 3505000   0.60683106   -2.1761256   -2.1761256   -1.4217859  0.044877837   -2.1761256   0.75433968   426349 
 3506000   0.60436851   -2.1739059   -2.1739059   -1.4226274  0.036293426   -2.1739059   0.75127852   426349 
 3507000   0.60477186   -2.1744322   -2.1744322   -1.4226523  0.040842771   -2.1744322   0.75177992   426349 
 3508000   0.60468423   -2.1744321   -2.1744321   -1.4227611  0.033069383   -2.1744321     0.751671   426349 
 3509000   0.60472291   -2.1749369   -2.1749369   -1.4232178  0.035035864   -2.1749369   0.75171907   426349 
 3510000   0.60475151    -2.174613    -2.174613   -1.4228584  0.037819689    -2.174613   0.75175463   426349 
 3511000   0.60526081   -2.1744085   -2.1744085   -1.4220208  0.035682911   -2.1744085   0.75238773   426349 
 3512000   0.60472652   -2.1734065   -2.1734065    -1.421683  0.034525853   -2.1734065   0.75172356   426349 
 3513000   0.60624492   -2.1749361   -2.1749361   -1.4213251  0.042141468   -2.1749361   0.75361105   426349 
 3514000   0.60534406   -2.1733749   -2.1733749   -1.4208837  0.035074764   -2.1733749   0.75249122   426349 
 3515000   0.60656501    -2.174701    -2.174701    -1.420692  0.039534263    -2.174701   0.75400895   426349 
 3516000   0.60551167   -2.1738425   -2.1738425   -1.4211429  0.033806474   -2.1738425   0.75269956   426349 
 3517000   0.60612476   -2.1740556   -2.1740556   -1.4205939  0.032052239   -2.1740556   0.75346169   426349 
 3518000   0.60625247   -2.1742364   -2.1742364   -1.4206159  0.045167115   -2.1742364   0.75362044   426349 
 3519000   0.60624925   -2.1740961   -2.1740961   -1.4204797  0.038556469   -2.1740961   0.75361643   426349 
 3520000   0.60590516   -2.1731732   -2.1731732   -1.4199845  0.035551062   -2.1731732    0.7531887   426349 
 3521000   0.60686146   -2.1746526   -2.1746526   -1.4202751  0.037021837   -2.1746526   0.75437747   426349 
 3522000   0.60670446   -2.1739789   -2.1739789   -1.4197966  0.037486529   -2.1739789    0.7541823   426349 
 3523000   0.60625119    -2.174188    -2.174188   -1.4205691  0.030196919    -2.174188   0.75361886   426349 
 3524000   0.60554322   -2.1736757   -2.1736757   -1.4209369  0.044302706   -2.1736757   0.75273878   426349 
 3525000   0.60604613   -2.1742024   -2.1742024   -1.4208385  0.040051737   -2.1742024   0.75336394   426349 
 3526000   0.60515699   -2.1736117   -2.1736117    -1.421353  0.031742045   -2.1736117   0.75225868   426349 
 3527000   0.60444531   -2.1735756   -2.1735756   -1.4222016  0.036413894   -2.1735756     0.751374   426349 
 3528000   0.60469371   -2.1733224   -2.1733224   -1.4216396  0.035407492   -2.1733224   0.75168277   426349 
 3529000    0.6044251    -2.172465    -2.172465   -1.4211161  0.034410718    -2.172465   0.75134887   426349 
 3530000   0.60454859   -2.1719137   -2.1719137   -1.4204114  0.032858274   -2.1719137   0.75150238   426349 
 3531000   0.60552001   -2.1735174   -2.1735174   -1.4208075  0.041177477   -2.1735174   0.75270994   426349 
 3532000   0.60564126   -2.1737508   -2.1737508   -1.4208902  0.039730687   -2.1737508   0.75286066   426349 
 3533000   0.60569248   -2.1733498   -2.1733498   -1.4204255  0.034874111   -2.1733498   0.75292432   426349 
 3534000   0.60609944   -2.1734704   -2.1734704   -1.4200402  0.032157589   -2.1734704   0.75343022   426349 
 3535000   0.60689241   -2.1745821   -2.1745821   -1.4201661  0.030550806   -2.1745821   0.75441594   426349 
 3536000   0.60567296   -2.1726758   -2.1726758   -1.4197758  0.047134677   -2.1726758   0.75290006   426349 
 3537000   0.60578491   -2.1729248   -2.1729248   -1.4198855  0.033345025   -2.1729248   0.75303923   426349 
 3538000   0.60559441   -2.1726276   -2.1726276   -1.4198252  0.041144755   -2.1726276   0.75280242   426349 
 3539000   0.60592223   -2.1728174   -2.1728174   -1.4196075  0.039191795   -2.1728174   0.75320993   426349 
 3540000   0.60718178   -2.1744935   -2.1744935   -1.4197178  0.038365931   -2.1744935   0.75477565   426349 
 3541000   0.60662706   -2.1745411   -2.1745411    -1.420455  0.035243232   -2.1745411   0.75408609   426349 
 3542000   0.60691065   -2.1745761   -2.1745761   -1.4201375  0.031726863   -2.1745761   0.75443861   426349 
 3543000    0.6072858    -2.174375    -2.174375     -1.41947  0.033135552    -2.174375   0.75490496   426349 
 3544000   0.60623507   -2.1725118   -2.1725118    -1.418913  0.036235164   -2.1725118   0.75359881   426349 
 3545000   0.60581147   -2.1719798   -2.1719798   -1.4189075  0.041090996   -2.1719798   0.75307224   426349 
 3546000   0.60686006   -2.1735635   -2.1735635   -1.4191878  0.037512907   -2.1735635   0.75437572   426349 
 3547000   0.60626578   -2.1722283   -2.1722283   -1.4185913  0.037106322   -2.1722283   0.75363699   426349 
 3548000   0.60588342   -2.1726208   -2.1726208   -1.4194591    0.0426286   -2.1726208   0.75316169   426349 
 3549000   0.60543652   -2.1724485   -2.1724485   -1.4198424  0.033280735   -2.1724485   0.75260615   426349 
 3550000   0.60540453   -2.1728357   -2.1728357   -1.4202693  0.028690441   -2.1728357   0.75256638   426349 
 3551000   0.60691472   -2.1740271   -2.1740271   -1.4195834  0.031104526   -2.1740271   0.75444367   426349 
 3552000   0.60536501   -2.1719015   -2.1719015   -1.4193842  0.038632904   -2.1719015   0.75251726   426349 
 3553000   0.60571111   -2.1724111   -2.1724111   -1.4194636  0.036679563   -2.1724111   0.75294749   426349 
 3554000   0.60676919    -2.172599    -2.172599   -1.4183362  0.035499443    -2.172599   0.75426277   426349 
 3555000   0.60633587   -2.1724131   -2.1724131    -1.418689  0.041537907   -2.1724131   0.75372411   426349 
 3556000   0.60529514   -2.1715589   -2.1715589   -1.4191285  0.038682829   -2.1715589   0.75243041   426349 
 3557000   0.60645194   -2.1732599   -2.1732599   -1.4193915  0.036395719   -2.1732599    0.7538684   426349 
 3558000   0.60538596   -2.1718165   -2.1718165   -1.4192732  0.033939404   -2.1718165    0.7525433   426349 
 3559000   0.60474011   -2.1705466   -2.1705466   -1.4188062    0.0370168   -2.1705466   0.75174045   426349 
 3560000   0.60654083   -2.1732901   -2.1732901   -1.4193112  0.028000862   -2.1732901   0.75397889   426349 
 3561000   0.60715163   -2.1737531   -2.1737531   -1.4190149  0.041608513   -2.1737531   0.75473817   426349 
 3562000   0.60635378   -2.1735206   -2.1735206   -1.4197742  0.038872531   -2.1735206   0.75374638   426349 
 3563000   0.60667301   -2.1740277   -2.1740277   -1.4198845  0.039748507   -2.1740277   0.75414321   426349 
 3564000   0.60722994   -2.1748497   -2.1748497   -1.4200141  0.038515496   -2.1748497   0.75483552   426349 
 3565000   0.60718001   -2.1745745   -2.1745745    -1.419801  0.043193345   -2.1745745   0.75477345   426349 
 3566000   0.60554029   -2.1723516   -2.1723516   -1.4196165  0.038276985   -2.1723516   0.75273514   426349 
 3567000   0.60640978   -2.1744768   -2.1744768   -1.4206609  0.030676464   -2.1744768   0.75381599   426349 
 3568000    0.6055995   -2.1735648   -2.1735648    -1.420756  0.036086791   -2.1735648   0.75280875   426349 
 3569000   0.60664144   -2.1749702   -2.1749702   -1.4208663   0.03049573   -2.1749702   0.75410396   426349 
 3570000   0.60524966   -2.1738353   -2.1738353   -1.4214614  0.035861174   -2.1738353   0.75237386   426349 
 3571000   0.60657504   -2.1760007   -2.1760007   -1.4219793  0.039065132   -2.1760007   0.75402143   426349 
 3572000   0.60636589   -2.1753022   -2.1753022   -1.4215408   0.03430559   -2.1753022   0.75376143   426349 
 3573000   0.60564903   -2.1748715   -2.1748715   -1.4220011  0.037390964   -2.1748715   0.75287032   426349 
 3574000     0.604916   -2.1740679   -2.1740679   -1.4221088  0.037643125   -2.1740679    0.7519591   426349 
 3575000   0.60560915   -2.1747745   -2.1747745   -1.4219538    0.0375784   -2.1747745   0.75282075   426349 
 3576000   0.60546458   -2.1743387   -2.1743387   -1.4216976  0.043230496   -2.1743387   0.75264103   426349 
 3577000     0.605056   -2.1739056   -2.1739056   -1.4217724  0.041079828   -2.1739056   0.75213314   426349 
 3578000   0.60580996   -2.1749186   -2.1749186   -1.4218482  0.037960274   -2.1749186   0.75307037   426349 
 3579000   0.60530167   -2.1746732   -2.1746732   -1.4222347   0.03358048   -2.1746732   0.75243852   426349 
 3580000   0.60634168   -2.1755425   -2.1755425   -1.4218112  0.033552119   -2.1755425   0.75373134   426349 
 3581000   0.60672275   -2.1750758   -2.1750758   -1.4208708   0.04250401   -2.1750758   0.75420504   426349 
 3582000   0.60593913   -2.1743167   -2.1743167   -1.4210857  0.031777063   -2.1743167   0.75323094   426349 
 3583000   0.60664343    -2.175738    -2.175738   -1.4216316  0.037564635    -2.175738   0.75410644   426349 
 3584000    0.6065103   -2.1752128   -2.1752128   -1.4212718  0.033204188   -2.1752128   0.75394094   426349 
 3585000    0.6059213   -2.1739605   -2.1739605   -1.4207518  0.035515215   -2.1739605   0.75320877   426349 
 3586000    0.6061107   -2.1746598   -2.1746598   -1.4212156  0.038334204   -2.1746598   0.75344421   426349 
 3587000   0.60466301   -2.1728828   -2.1728828   -1.4212381  0.029018509   -2.1728828   0.75164462   426349 
 3588000   0.60607488   -2.1749221   -2.1749221   -1.4215224  0.037035717   -2.1749221   0.75339969   426349 
 3589000   0.60660007   -2.1751908   -2.1751908   -1.4211382  0.033477444   -2.1751908   0.75405254   426349 
 3590000   0.60568081   -2.1732297   -2.1732297   -1.4203198  0.034731389   -2.1732297   0.75290982   426349 
 3591000   0.60489351   -2.1728845   -2.1728845   -1.4209534  0.040796314   -2.1728845   0.75193115   426349 
 3592000     0.606513   -2.1740732   -2.1740732   -1.4201289  0.034493884   -2.1740732    0.7539443   426349 
 3593000   0.60527691   -2.1733527   -2.1733527    -1.420945  0.042038587   -2.1733527   0.75240774   426349 
 3594000   0.60665629    -2.174967    -2.174967   -1.4208446  0.037294491    -2.174967   0.75412243   426349 
 3595000   0.60676871   -2.1744534   -2.1744534   -1.4201912  0.045281046   -2.1744534   0.75426217   426349 
 3596000   0.60670987   -2.1746034   -2.1746034   -1.4204144     0.039182   -2.1746034   0.75418902   426349 
 3597000   0.60601615   -2.1733659   -2.1733659   -1.4200392  0.037475978   -2.1733659   0.75332668   426349 
 3598000   0.60480472   -2.1725564   -2.1725564   -1.4207356   0.04150717   -2.1725564   0.75182077   426349 
 3599000   0.60512851   -2.1729177   -2.1729177   -1.4206944  0.032610995   -2.1729177   0.75222327   426349 
 3600000   0.60512374   -2.1735469   -2.1735469   -1.4213295  0.036546715   -2.1735469   0.75221734   426349 
 3601000   0.60517725   -2.1741039   -2.1741039     -1.42182  0.039439189   -2.1741039   0.75228386   426349 
 3602000   0.60662356   -2.1741094   -2.1741094   -1.4200277  0.038346403   -2.1741094   0.75408173   426349 
 3603000   0.60630242   -2.1738624   -2.1738624   -1.4201799  0.042785246   -2.1738624   0.75368253   426349 
 3604000   0.60552283   -2.1731882   -2.1731882   -1.4204747  0.035184969   -2.1731882   0.75271345   426349 
 3605000    0.6057605   -2.1727048   -2.1727048   -1.4196959  0.034561648   -2.1727048   0.75300888   426349 
 3606000   0.60558571   -2.1725338   -2.1725338   -1.4197422  0.038436342   -2.1725338   0.75279161   426349 
 3607000   0.60571885   -2.1724353   -2.1724353   -1.4194782  0.038651487   -2.1724353   0.75295711   426349 
 3608000    0.6054556   -2.1711092   -2.1711092   -1.4184794   0.04462794   -2.1711092   0.75262987   426349 
 3609000   0.60674969   -2.1720883   -2.1720883   -1.4178498   0.03124999   -2.1720883   0.75423853   426349 
 3610000   0.60707004    -2.173494    -2.173494   -1.4188573  0.035967311    -2.173494   0.75463675   426349 
 3611000   0.60614521   -2.1726886   -2.1726886   -1.4192014  0.029352829   -2.1726886   0.75348711   426349 
 3612000    0.6054453   -2.1720481   -2.1720481    -1.419431  0.035017427   -2.1720481   0.75261707   426349 
 3613000   0.60576033   -2.1726858   -2.1726858   -1.4196771  0.026124539   -2.1726858   0.75300868   426349 
 3614000   0.60514622   -2.1718197   -2.1718197   -1.4195744  0.040265871   -2.1718197   0.75224529   426349 
 3615000   0.60569321   -2.1718982   -2.1718982    -1.418973  0.034653559   -2.1718982   0.75292524   426349 
 3616000   0.60663395   -2.1732767   -2.1732767   -1.4191821   0.03720663   -2.1732767   0.75409466   426349 
 3617000   0.60721578   -2.1738112   -2.1738112   -1.4189933  0.032938222   -2.1738112   0.75481792   426349 
 3618000   0.60501126   -2.1722797   -2.1722797   -1.4202022  0.031762486   -2.1722797   0.75207752   426349 
 3619000   0.60574221   -2.1737554   -2.1737554   -1.4207692  0.031309285   -2.1737554   0.75298615   426349 
 3620000   0.60563245     -2.17504     -2.17504   -1.4221903  0.037443617     -2.17504   0.75284971   426349 
 3621000   0.60522685   -2.1742543   -2.1742543   -1.4219088  0.043395274   -2.1742543   0.75234551   426349 
 3622000    0.6052455   -2.1744339   -2.1744339   -1.4220651  0.027730944   -2.1744339    0.7523687   426349 
 3623000   0.60540633   -2.1745316   -2.1745316   -1.4219629  0.036220962   -2.1745316   0.75256862   426349 
 3624000   0.60523696   -2.1744974   -2.1744974   -1.4221393  0.043661391   -2.1744974   0.75235808   426349 
 3625000   0.60612197   -2.1759687   -2.1759687   -1.4225105  0.031122023   -2.1759687   0.75345822   426349 
 3626000   0.60677475   -2.1768401   -2.1768401   -1.4225705   0.04180361   -2.1768401   0.75426967   426349 
 3627000   0.60828066   -2.1779668   -2.1779668   -1.4218252  0.035863506   -2.1779668   0.75614164   426349 
 3628000   0.60546308    -2.175135    -2.175135   -1.4224959  0.039567207    -2.175135   0.75263917   426349 
 3629000   0.60635238   -2.1762399   -2.1762399   -1.4224952  0.035193009   -2.1762399   0.75374464   426349 
 3630000   0.60631527    -2.175725    -2.175725   -1.4220265  0.039477914    -2.175725   0.75369851   426349 
 3631000   0.60681417   -2.1764869   -2.1764869   -1.4221682  0.048048585   -2.1764869   0.75431868   426349 
 3632000   0.60715509   -2.1768056   -2.1768056   -1.4220632   0.04245264   -2.1768056   0.75474247   426349 
 3633000   0.60542659   -2.1748043   -2.1748043   -1.4222105  0.036580554   -2.1748043   0.75259381   426349 
 3634000   0.60539057   -2.1753657   -2.1753657   -1.4228166  0.035971125   -2.1753657   0.75254903   426349 
 3635000   0.60597658   -2.1766215   -2.1766215    -1.423344  0.036495607   -2.1766215   0.75327749   426349 
 3636000   0.60535602   -2.1759655   -2.1759655   -1.4234594  0.035641098   -2.1759655   0.75250608   426349 
 3637000   0.60617786   -2.1774803   -2.1774803   -1.4239526  0.038620921   -2.1774803    0.7535277   426349 
 3638000    0.6062223   -2.1769265   -2.1769265   -1.4233436  0.041343074   -2.1769265   0.75358294   426349 
 3639000   0.60648161   -2.1769421   -2.1769421   -1.4230368  0.031573959   -2.1769421   0.75390528   426349 
 3640000   0.60499262   -2.1756425   -2.1756425   -1.4235882  0.044982553   -2.1756425   0.75205435   426349 
 3641000   0.60636842   -2.1767576   -2.1767576    -1.422993  0.036930105   -2.1767576   0.75376458   426349 
 3642000   0.60704327   -2.1774105   -2.1774105    -1.422807  0.039114503   -2.1774105   0.75460347   426349 
 3643000   0.60619262   -2.1758112   -2.1758112   -1.4222651  0.043299587   -2.1758112   0.75354604   426349 
 3644000   0.60522394   -2.1744176   -2.1744176   -1.4220757  0.034870588   -2.1744176   0.75234189   426349 
 3645000   0.60748932   -2.1769723   -2.1769723   -1.4218144  0.028275383   -2.1769723   0.75515794   426349 
 3646000   0.60556414   -2.1749966   -2.1749966   -1.4222318  0.046798892   -2.1749966    0.7527648   426349 
 3647000   0.60465903   -2.1745678   -2.1745678   -1.4229281  0.038426622   -2.1745678   0.75163966   426349 
 3648000   0.60547977   -2.1753954   -2.1753954   -1.4227355  0.033801104   -2.1753954   0.75265991   426349 
 3649000   0.60507382   -2.1743158   -2.1743158   -1.4221605  0.036782307   -2.1743158   0.75215529   426349 
 3650000   0.60404987   -2.1742304   -2.1742304    -1.423348  0.035204396   -2.1742304   0.75088244   426349 
 3651000   0.60607949   -2.1761564   -2.1761564    -1.422751  0.033888791   -2.1761564   0.75340542   426349 
 3652000    0.6060322   -2.1751677   -2.1751677   -1.4218211  0.033663069   -2.1751677   0.75334663   426349 
 3653000   0.60574737   -2.1752673   -2.1752673   -1.4222747  0.036261018   -2.1752673   0.75299256   426349 
 3654000   0.60541171   -2.1750442   -2.1750442   -1.4224689  0.033315778   -2.1750442   0.75257531   426349 
 3655000   0.60606784   -2.1758424   -2.1758424   -1.4224514  0.039046579   -2.1758424   0.75339093   426349 
 3656000    0.6067904   -2.1763264   -2.1763264   -1.4220372  0.037098074   -2.1763264   0.75428914   426349 
 3657000   0.60654373   -2.1754146   -2.1754146   -1.4214321  0.035100629   -2.1754146    0.7539825   426349 
 3658000   0.60636359   -2.1754603   -2.1754603   -1.4217017  0.043096669   -2.1754603   0.75375858   426349 
 3659000   0.60658091   -2.1760288   -2.1760288       -1.422  0.035532136   -2.1760288   0.75402872   426349 
 3660000    0.6053458   -2.1746298   -2.1746298   -1.4221364  0.039074809   -2.1746298   0.75249338   426349 
 3661000   0.60508895   -2.1738036   -2.1738036   -1.4216295  0.033689512   -2.1738036   0.75217409   426349 
 3662000   0.60712703   -2.1762307   -2.1762307   -1.4215231  0.030077009   -2.1762307   0.75470759   426349 
 3663000   0.60654597   -2.1763351   -2.1763351   -1.4223498  0.034754558   -2.1763351   0.75398528   426349 
 3664000   0.60532634   -2.1745574   -2.1745574   -1.4220882  0.040487758   -2.1745574   0.75246919   426349 
 3665000   0.60654354   -2.1755994   -2.1755994   -1.4216171  0.036177825   -2.1755994   0.75398226   426349 
 3666000    0.6065693   -2.1757373   -2.1757373    -1.421723  0.039155408   -2.1757373   0.75401429   426349 
 3667000   0.60589173   -2.1749905   -2.1749905   -1.4218185  0.038636494   -2.1749905   0.75317201   426349 
 3668000   0.60547525    -2.174845    -2.174845   -1.4221907  0.040938697    -2.174845    0.7526543   426349 
 3669000   0.60573982   -2.1748444   -2.1748444   -1.4218612  0.040786209   -2.1748444   0.75298317   426349 
 3670000   0.60552923    -2.174354    -2.174354   -1.4216326  0.036429077    -2.174354    0.7527214   426349 
 3671000    0.6050282   -2.1741379   -2.1741379   -1.4220393  0.035487123   -2.1741379   0.75209858   426349 
 3672000   0.60544418   -2.1743215   -2.1743215   -1.4217058  0.032611441   -2.1743215   0.75261567   426349 
 3673000   0.60622281   -2.1750258   -2.1750258   -1.4214422  0.033958886   -2.1750258   0.75358358   426349 
 3674000   0.60575097   -2.1747802   -2.1747802   -1.4217832  0.029557645   -2.1747802   0.75299703   426349 
 3675000   0.60605214   -2.1748015   -2.1748015   -1.4214301  0.034409431   -2.1748015   0.75337142   426349 
 3676000   0.60632717   -2.1754797   -2.1754797   -1.4217664  0.035271295   -2.1754797   0.75371329   426349 
 3677000    0.6046181   -2.1728643   -2.1728643   -1.4212755  0.034961952   -2.1728643   0.75158878   426349 
 3678000   0.60504892   -2.1732231   -2.1732231   -1.4210988  0.035295622   -2.1732231   0.75212433   426349 
 3679000   0.60675716   -2.1747161   -2.1747161   -1.4204683  0.039825328   -2.1747161   0.75424781   426349 
 3680000   0.60528953   -2.1728064   -2.1728064   -1.4203829  0.034287737   -2.1728064   0.75242343   426349 
 3681000   0.60611187   -2.1736193   -2.1736193   -1.4201737   0.03557879   -2.1736193   0.75344566   426349 
 3682000    0.6060029   -2.1743494   -2.1743494   -1.4210392  0.035146276   -2.1743494   0.75331021   426349 
 3683000   0.60536829   -2.1731727   -2.1731727   -1.4206514  0.030130898   -2.1731727   0.75252133   426349 
 3684000    0.6062995   -2.1735645   -2.1735645   -1.4198856  0.036560726   -2.1735645   0.75367891   426349 
 3685000   0.60727796   -2.1748415   -2.1748415   -1.4199463  0.034595719   -2.1748415   0.75489521   426349 
 3686000   0.60615729   -2.1738955   -2.1738955   -1.4203934  0.033497165   -2.1738955   0.75350213   426349 
 3687000    0.6050547   -2.1722978   -2.1722978   -1.4201663    0.0454588   -2.1722978   0.75213152   426349 
 3688000   0.60618832    -2.173114    -2.173114   -1.4195733  0.032546867    -2.173114    0.7535407   426349 
 3689000    0.6067247   -2.1742615   -2.1742615   -1.4200541  0.034087434   -2.1742615   0.75420746   426349 
 3690000   0.60470676   -2.1727342   -2.1727342   -1.4210352  0.032866074   -2.1727342     0.751699   426349 
 3691000   0.60613961   -2.1749029   -2.1749029   -1.4214227  0.032702593   -2.1749029   0.75348015   426349 
 3692000   0.60522463   -2.1735579   -2.1735579   -1.4212152  0.036924499   -2.1735579   0.75234275   426349 
 3693000   0.60483475    -2.174034    -2.174034   -1.4221759  0.029739007    -2.174034    0.7518581   426349 
 3694000   0.60543118   -2.1746969   -2.1746969   -1.4220974  0.036231403   -2.1746969   0.75259951   426349 
 3695000   0.60473398   -2.1740861   -2.1740861   -1.4223532  0.037608354   -2.1740861   0.75173284   426349 
 3696000   0.60563741   -2.1750296   -2.1750296   -1.4221738  0.037590034   -2.1750296   0.75285587   426349 
 3697000   0.60532376   -2.1758053   -2.1758053   -1.4233393  0.032264243   -2.1758053   0.75246599   426349 
 3698000   0.60637575   -2.1761588   -2.1761588   -1.4223851   0.03936487   -2.1761588   0.75377369   426349 
 3699000   0.60687994   -2.1764563   -2.1764563   -1.4220559  0.040685911   -2.1764563   0.75440044   426349 
 3700000   0.60517136   -2.1737982   -2.1737982   -1.4215217  0.040826005   -2.1737982   0.75227653   426349 
 3701000   0.60564459   -2.1749345   -2.1749345   -1.4220697  0.038063418   -2.1749345    0.7528648   426349 
 3702000   0.60646638   -2.1764495   -2.1764495   -1.4225631  0.039238497   -2.1764495   0.75388635   426349 
 3703000   0.60609764   -2.1754893   -2.1754893   -1.4220613  0.040780313   -2.1754893   0.75342798   426349 
 3704000   0.60687014   -2.1775068   -2.1775068   -1.4231185  0.046918361   -2.1775068   0.75438826   426349 
 3705000   0.60624133   -2.1770166   -2.1770166     -1.42341  0.035174104   -2.1770166    0.7536066   426349 
 3706000   0.60527369   -2.1762783   -2.1762783   -1.4238746  0.026336465   -2.1762783   0.75240374   426349 
 3707000   0.60587168   -2.1767398   -2.1767398   -1.4235927  0.041262812   -2.1767398   0.75314709   426349 
 3708000   0.60778769   -2.1789205   -2.1789205   -1.4233917  0.040800139   -2.1789205   0.75552885   426349 
 3709000   0.60626247   -2.1768967   -2.1768967   -1.4232638  0.045432305   -2.1768967   0.75363288   426349 
 3710000   0.60653731   -2.1774623   -2.1774623   -1.4234878  0.042048613   -2.1774623   0.75397452   426349 
 3711000   0.60743572   -2.1778338   -2.1778338   -1.4227425  0.040887209   -2.1778338   0.75509131   426349 
 3712000   0.60671968    -2.176921    -2.176921   -1.4227198  0.033541842    -2.176921   0.75420122   426349 
 3713000   0.60550341   -2.1755406   -2.1755406   -1.4228513  0.039386952   -2.1755406    0.7526893   426349 
 3714000   0.60639335   -2.1773302   -2.1773302   -1.4235346  0.038192611   -2.1773302   0.75379556   426349 
 3715000   0.60656593   -2.1776113   -2.1776113   -1.4236012  0.040709711   -2.1776113    0.7540101   426349 
 3716000   0.60637831   -2.1769429   -2.1769429   -1.4231661  0.041023678   -2.1769429   0.75377686   426349 
 3717000   0.60559058   -2.1753324   -2.1753324   -1.4225348  0.037224817   -2.1753324   0.75279766   426349 
 3718000   0.60567018    -2.175737    -2.175737   -1.4228404   0.04423791    -2.175737    0.7528966   426349 
 3719000   0.60565172   -2.1759087   -2.1759087    -1.423035  0.040469229   -2.1759087   0.75287366   426349 
 3720000    0.6057529   -2.1761812   -2.1761812   -1.4231818   0.03020192   -2.1761812   0.75299943   426349 
 3721000    0.6045491   -2.1745848   -2.1745848   -1.4230818   0.03460529   -2.1745848   0.75150302   426349 
 3722000    0.6055894   -2.1751842   -2.1751842    -1.422388  0.036810019   -2.1751842   0.75279619   426349 
 3723000   0.60486299   -2.1744974   -2.1744974   -1.4226042  0.031304545   -2.1744974   0.75189321   426349 
 3724000   0.60506599   -2.1748131   -2.1748131   -1.4226675  0.029904892   -2.1748131   0.75214556   426349 
 3725000   0.60542632   -2.1744932   -2.1744932   -1.4218997  0.036740256   -2.1744932   0.75259347   426349 
 3726000   0.60600378    -2.175595    -2.175595   -1.4222837   0.03376861    -2.175595    0.7533113   426349 
 3727000   0.60548179   -2.1747554   -2.1747554    -1.422093  0.036924549   -2.1747554   0.75266243   426349 
 3728000   0.60483771   -2.1742962   -2.1742962   -1.4224345  0.040468873   -2.1742962   0.75186178   426349 
 3729000   0.60553577   -2.1748498   -2.1748498   -1.4221202  0.033876906   -2.1748498   0.75272952   426349 
 3730000   0.60478978    -2.174375    -2.174375   -1.4225728  0.038619376    -2.174375    0.7518022   426349 
 3731000    0.6049887   -2.1747599   -2.1747599   -1.4227105  0.035050551   -2.1747599   0.75204947   426349 
 3732000   0.60548688   -2.1756354   -2.1756354   -1.4229667  0.041795137   -2.1756354   0.75266875   426349 
 3733000   0.60585986   -2.1753888   -2.1753888   -1.4222564  0.032433811   -2.1753888    0.7531324   426349 
 3734000   0.60586131   -2.1752694   -2.1752694   -1.4221352  0.037095271   -2.1752694   0.75313419   426349 
 3735000   0.60544544    -2.175086    -2.175086   -1.4224688   0.03688363    -2.175086   0.75261724   426349 
 3736000   0.60609749   -2.1761733   -2.1761733   -1.4227455  0.037211276   -2.1761733   0.75342779   426349 
 3737000   0.60524141    -2.174959    -2.174959   -1.4225954  0.034484544    -2.174959   0.75236362   426349 
 3738000   0.60540704   -2.1754745   -2.1754745   -1.4229049  0.030526678   -2.1754745    0.7525695   426349 
 3739000   0.60513104    -2.175494    -2.175494   -1.4232676  0.030458334    -2.175494   0.75222641   426349 
 3740000   0.60543682   -2.1770329   -2.1770329   -1.4244263  0.030598053   -2.1770329   0.75260653   426349 
 3741000   0.60538726    -2.176887    -2.176887   -1.4243421  0.035823344    -2.176887   0.75254491   426349 
 3742000   0.60400417   -2.1755172   -2.1755172   -1.4246916  0.036468615   -2.1755172   0.75082563   426349 
 3743000   0.60462377   -2.1765199   -2.1765199   -1.4249241  0.032175025   -2.1765199   0.75159584   426349 
 3744000   0.60612819   -2.1776065   -2.1776065   -1.4241405  0.039994544   -2.1776065   0.75346595   426349 
 3745000    0.6051427   -2.1758981   -2.1758981   -1.4236572  0.037150562   -2.1758981   0.75224091   426349 
 3746000    0.6061701   -2.1778548   -2.1778548   -1.4243367  0.033243795   -2.1778548   0.75351805   426349 
 3747000    0.6049425   -2.1767088   -2.1767088   -1.4247168  0.036056958   -2.1767088   0.75199204   426349 
 3748000   0.60549295    -2.177251    -2.177251   -1.4245747  0.040090318    -2.177251    0.7526763   426349 
 3749000   0.60523678   -2.1773104   -2.1773104   -1.4249525  0.036127319   -2.1773104   0.75235786   426349 
 3750000   0.60548819   -2.1784136   -2.1784136   -1.4257433  0.029749018   -2.1784136   0.75267037   426349 
 3751000   0.60393824    -2.176082    -2.176082   -1.4253383  0.038487152    -2.176082   0.75074367   426349 
 3752000   0.60587183   -2.1777793   -2.1777793    -1.424632  0.037357746   -2.1777793   0.75314728   426349 
 3753000   0.60543836   -2.1763796   -2.1763796   -1.4237711  0.029128837   -2.1763796   0.75260844   426349 
 3754000   0.60574244   -2.1770065   -2.1770065   -1.4240201  0.037279909   -2.1770065   0.75298643   426349 
 3755000   0.60596292   -2.1777698   -2.1777698   -1.4245093  0.036460199   -2.1777698   0.75326051   426349 
 3756000   0.60693097   -2.1787715   -2.1787715   -1.4243076   0.03849247   -2.1787715   0.75446387   426349 
 3757000   0.60666043   -2.1788279   -2.1788279   -1.4247003  0.033702011   -2.1788279   0.75412756   426349 
 3758000   0.60661407   -2.1784501   -2.1784501   -1.4243802  0.049022336   -2.1784501   0.75406993   426349 
 3759000   0.60581281   -2.1775206   -2.1775206   -1.4244467  0.039037769   -2.1775206    0.7530739   426349 
 3760000   0.60556071   -2.1780356   -2.1780356    -1.425275  0.038902179   -2.1780356   0.75276052   426349 
 3761000   0.60426681   -2.1761164   -2.1761164   -1.4249643  0.033014222   -2.1761164   0.75115211   426349 
 3762000   0.60572744    -2.177217    -2.177217   -1.4242492  0.039921342    -2.177217   0.75296779   426349 
 3763000   0.60549436   -2.1766135   -2.1766135   -1.4239354  0.040230427   -2.1766135   0.75267806   426349 
 3764000   0.60569743   -2.1768486   -2.1768486   -1.4239181  0.035750436   -2.1768486   0.75293048   426349 
 3765000   0.60605039   -2.1767117   -2.1767117   -1.4233424  0.033719776   -2.1767117   0.75336924   426349 
 3766000   0.60525971   -2.1754744   -2.1754744    -1.423088  0.028574268   -2.1754744   0.75238636   426349 
 3767000   0.60528619   -2.1754755   -2.1754755   -1.4230562  0.034871202   -2.1754755   0.75241927   426349 
 3768000   0.60454074    -2.174485    -2.174485   -1.4229924  0.037668442    -2.174485   0.75149262   426349 
 3769000   0.60554947   -2.1760422   -2.1760422   -1.4232957  0.033923572   -2.1760422   0.75274656   426349 
 3770000   0.60510024     -2.17578     -2.17578   -1.4235919  0.035948438     -2.17578   0.75218812   426349 
 3771000   0.60384167   -2.1748949   -2.1748949   -1.4242713  0.035570717   -2.1748949   0.75062363   426349 
 3772000   0.60422953   -2.1756318   -2.1756318    -1.424526  0.035791202   -2.1756318   0.75110576   426349 
 3773000   0.60446625   -2.1766295   -2.1766295   -1.4252295  0.035328866   -2.1766295   0.75140002   426349 
 3774000   0.60395756   -2.1758028   -2.1758028   -1.4250351  0.033368947   -2.1758028   0.75076769   426349 
 3775000   0.60424803   -2.1754466   -2.1754466   -1.4243178  0.034337839   -2.1754466   0.75112876   426349 
 3776000   0.60560791   -2.1765055   -2.1765055   -1.4236863  0.039812959   -2.1765055    0.7528192   426349 
 3777000     0.606468   -2.1774535   -2.1774535   -1.4235651  0.028820165   -2.1774535   0.75388836   426349 
 3778000   0.60651382   -2.1773002   -2.1773002   -1.4233549   0.03408475   -2.1773002   0.75394532   426349 
 3779000    0.6061189   -2.1768762   -2.1768762   -1.4234218  0.037038504   -2.1768762    0.7534544   426349 
 3780000     0.606754   -2.1788612   -2.1788612   -1.4246173  0.032916813   -2.1788612   0.75424389   426349 
 3781000    0.6053075   -2.1776415   -2.1776415   -1.4251958  0.036394705   -2.1776415   0.75244577   426349 
 3782000   0.60413535    -2.176943    -2.176943   -1.4259543   0.03742919    -2.176943   0.75098869   426349 
 3783000   0.60399911   -2.1771329   -2.1771329   -1.4263136  0.035838886   -2.1771329   0.75081933   426349 
 3784000   0.60379274   -2.1767539   -2.1767539   -1.4261911  0.041105278   -2.1767539   0.75056279   426349 
 3785000   0.60616429    -2.179074    -2.179074   -1.4255631  0.036357571    -2.179074   0.75351083   426349 
 3786000   0.60574278   -2.1788684   -2.1788684   -1.4258816  0.042691847   -2.1788684   0.75298685   426349 
 3787000   0.60620826   -2.1794108   -2.1794108   -1.4258454  0.038123583   -2.1794108   0.75356549   426349 
 3788000   0.60643861   -2.1794735   -2.1794735   -1.4256217  0.036483339   -2.1794735   0.75385183   426349 
 3789000   0.60683606   -2.1794542   -2.1794542   -1.4251083  0.034913462   -2.1794542   0.75434589   426349 
 3790000   0.60611132   -2.1784395   -2.1784395   -1.4249945  0.031764378   -2.1784395   0.75344498   426349 
 3791000   0.60496434   -2.1775493   -2.1775493   -1.4255301  0.036300979   -2.1775493    0.7520192   426349 
 3792000   0.60598622    -2.178007    -2.178007   -1.4247175  0.038020439    -2.178007   0.75328947   426349 
 3793000   0.60635723   -2.1780434   -2.1780434   -1.4242927  0.043546139   -2.1780434   0.75375067   426349 
 3794000    0.6065572   -2.1792919   -2.1792919   -1.4252927   0.02952544   -2.1792919   0.75399925   426349 
 3795000    0.6053489     -2.17814     -2.17814   -1.4256427  0.038273872     -2.17814   0.75249723   426349 
 3796000   0.60533239   -2.1786383   -2.1786383   -1.4261616  0.038984207   -2.1786383   0.75247671   426349 
 3797000   0.60413778   -2.1771893   -2.1771893   -1.4261975  0.032592489   -2.1771893   0.75099171   426349 
 3798000   0.60419253   -2.1775988   -2.1775988   -1.4265391  0.034630335   -2.1775988   0.75105977   426349 
 3799000   0.60406795   -2.1776401   -2.1776401   -1.4267352  0.032370439   -2.1776401   0.75090491   426349 
 3800000   0.60445646   -2.1778548   -2.1778548   -1.4264669  0.034123611   -2.1778548   0.75138786   426349 
 3801000   0.60444812   -2.1769734   -2.1769734    -1.425596  0.034842341   -2.1769734   0.75137749   426349 
 3802000   0.60502029   -2.1772639   -2.1772639   -1.4251751  0.035086768   -2.1772639   0.75208874   426349 
 3803000    0.6052713   -2.1769758   -2.1769758   -1.4245751  0.042859001   -2.1769758   0.75240077   426349 
 3804000   0.60529399   -2.1774435   -2.1774435   -1.4250145  0.034876824   -2.1774435   0.75242898   426349 
 3805000    0.6053374   -2.1775696   -2.1775696   -1.4250867  0.034664721   -2.1775696   0.75248294   426349 
 3806000   0.60645205   -2.1786885   -2.1786885     -1.42482  0.037559269   -2.1786885   0.75386853   426349 
 3807000   0.60559012   -2.1782319   -2.1782319   -1.4254348  0.033882712   -2.1782319   0.75279708   426349 
 3808000   0.60509377   -2.1778101   -2.1778101     -1.42563  0.037778243   -2.1778101   0.75218009   426349 
 3809000   0.60464601   -2.1778374   -2.1778374    -1.426214  0.035044676   -2.1778374   0.75162349   426349 
 3810000   0.60469836   -2.1780753   -2.1780753   -1.4263868  0.033755445   -2.1780753   0.75168856   426349 
 3811000   0.60477524   -2.1778015   -2.1778015   -1.4260173  0.040723372   -2.1778015   0.75178412   426349 
 3812000   0.60457404   -2.1781745   -2.1781745   -1.4266404  0.039220468   -2.1781745   0.75153402   426349 
 3813000   0.60547097   -2.1792104   -2.1792104   -1.4265614  0.036808282   -2.1792104   0.75264897   426349 
 3814000   0.60536288   -2.1787201   -2.1787201   -1.4262054  0.044564163   -2.1787201   0.75251461   426349 
 3815000   0.60616293   -2.1800778   -2.1800778   -1.4265687  0.035040333   -2.1800778   0.75350914   426349 
 3816000   0.60598558   -2.1792908   -2.1792908   -1.4260022  0.042371378   -2.1792908   0.75328867   426349 
 3817000   0.60550186   -2.1785222   -2.1785222   -1.4258348  0.038450678   -2.1785222   0.75268737   426349 
 3818000   0.60582035   -2.1785856   -2.1785856   -1.4255023   0.04206143   -2.1785856   0.75308328   426349 
 3819000   0.60597022   -2.1783004   -2.1783004   -1.4250308  0.036948019   -2.1783004   0.75326959   426349 
 3820000   0.60556738   -2.1782868   -2.1782868    -1.425518  0.036383615   -2.1782868   0.75276882   426349 
 3821000   0.60565896   -2.1786926   -2.1786926     -1.42581  0.042152689   -2.1786926   0.75288266   426349 
 3822000   0.60654819   -2.1793799   -2.1793799   -1.4253918  0.036157599   -2.1793799   0.75398804   426349 
 3823000   0.60612642   -2.1796862   -2.1796862   -1.4262225  0.037483062   -2.1796862   0.75346375   426349 
 3824000   0.60549628   -2.1787728   -2.1787728   -1.4260923  0.041470051   -2.1787728   0.75268044   426349 
 3825000    0.6060547   -2.1798808   -2.1798808   -1.4265062  0.035397234   -2.1798808   0.75337459   426349 
 3826000    0.6072522   -2.1799426   -2.1799426   -1.4250794  0.039493547   -2.1799426   0.75486319   426349 
 3827000   0.60533453   -2.1787347   -2.1787347   -1.4262553   0.03716384   -2.1787347   0.75247937   426349 
 3828000   0.60452709   -2.1775491   -2.1775491   -1.4260734  0.039875837   -2.1775491   0.75147566   426349 
 3829000   0.60457648     -2.17765     -2.17765   -1.4261129  0.030708369     -2.17765   0.75153706   426349 
 3830000   0.60445844    -2.177385    -2.177385   -1.4259947  0.032308858    -2.177385   0.75139032   426349 
 3831000   0.60642472   -2.1785717   -2.1785717   -1.4247372  0.028963443   -2.1785717   0.75383457   426349 
 3832000   0.60454328   -2.1771131   -2.1771131   -1.4256173  0.030580293   -2.1771131   0.75149578   426349 
 3833000   0.60584586   -2.1788074   -2.1788074   -1.4256924  0.034117959   -2.1788074   0.75311499   426349 
 3834000   0.60509896    -2.177147    -2.177147   -1.4249604  0.039828642    -2.177147   0.75218654   426349 
 3835000     0.605158   -2.1766076   -2.1766076   -1.4243477  0.030831607   -2.1766076   0.75225992   426349 
 3836000   0.60542397   -2.1764598   -2.1764598   -1.4238692  0.035054922   -2.1764598   0.75259054   426349 
 3837000   0.60608087    -2.176693    -2.176693   -1.4232858   0.03999232    -2.176693   0.75340713   426349 
 3838000   0.60582038   -2.1768177   -2.1768177   -1.4237344  0.039024696   -2.1768177   0.75308332   426349 
 3839000   0.60541664   -2.1768026   -2.1768026   -1.4242212   0.04216932   -2.1768026   0.75258144   426349 
 3840000   0.60546894   -2.1762714   -2.1762714    -1.423625   0.03830562   -2.1762714   0.75264645   426349 
 3841000   0.60731266   -2.1788904   -2.1788904   -1.4239521  0.038965036   -2.1788904   0.75493834   426349 
 3842000   0.60537873   -2.1756625   -2.1756625   -1.4231282   0.03900221   -2.1756625   0.75253431   426349 
 3843000   0.60634753   -2.1767703   -2.1767703   -1.4230316  0.043090225   -2.1767703   0.75373861   426349 
 3844000   0.60573914   -2.1768294   -2.1768294    -1.423847  0.033121006   -2.1768294   0.75298233   426349 
 3845000   0.60570383   -2.1756619   -2.1756619   -1.4227234  0.033146362   -2.1756619   0.75293844   426349 
 3846000   0.60469133   -2.1753764   -2.1753764   -1.4236965  0.038716178   -2.1753764   0.75167982   426349 
 3847000   0.60416313    -2.174573    -2.174573   -1.4235498  0.035045807    -2.174573   0.75102323   426349 
 3848000    0.6054366   -2.1761473   -2.1761473   -1.4235411  0.036059294   -2.1761473   0.75260625   426349 
 3849000   0.60629657   -2.1763189   -2.1763189   -1.4226436  0.042827889   -2.1763189   0.75367526   426349 
 3850000   0.60713399    -2.177643    -2.177643   -1.4229268  0.031267786    -2.177643   0.75471624   426349 
 3851000   0.60588623    -2.175695    -2.175695   -1.4225298  0.039340046    -2.175695   0.75316518   426349 
 3852000   0.60708751   -2.1771851   -2.1771851   -1.4225266   0.04705916   -2.1771851   0.75465847   426349 
 3853000   0.60668273   -2.1769783   -2.1769783   -1.4228231   0.03994661   -2.1769783   0.75415528   426349 
 3854000   0.60633754    -2.176771    -2.176771   -1.4230448  0.041757111    -2.176771   0.75372618   426349 
 3855000   0.60569617   -2.1768161   -2.1768161   -1.4238872  0.038687608   -2.1768161   0.75292891   426349 
 3856000   0.60543211    -2.176365    -2.176365   -1.4237643  0.036575895    -2.176365   0.75260067   426349 
 3857000   0.60522981   -2.1760263   -2.1760263   -1.4236771  0.039127265   -2.1760263    0.7523492   426349 
 3858000   0.60580909   -2.1765772   -2.1765772   -1.4235079   0.03419219   -2.1765772   0.75306928   426349 
 3859000   0.60485836   -2.1756984   -2.1756984    -1.423811  0.040512329   -2.1756984   0.75188745   426349 
 3860000   0.60498173   -2.1769595   -2.1769595   -1.4249187  0.031628915   -2.1769595   0.75204081   426349 
 3861000   0.60575972   -2.1777587   -2.1777587   -1.4247508  0.036246553   -2.1777587   0.75300792   426349 
 3862000   0.60499966   -2.1763469   -2.1763469   -1.4242838  0.039247372   -2.1763469   0.75206309   426349 
 3863000   0.60426186   -2.1761566   -2.1761566   -1.4250106  0.034865261   -2.1761566   0.75114595   426349 
 3864000      0.60528   -2.1772901   -2.1772901   -1.4248785  0.036156125   -2.1772901   0.75241158   426349 
 3865000   0.60515291   -2.1774671   -2.1774671   -1.4252135  0.034691396   -2.1774671    0.7522536   426349 
 3866000   0.60480883   -2.1766689   -2.1766689    -1.424843  0.030606174   -2.1766689   0.75182588   426349 
 3867000   0.60467381   -2.1770868   -2.1770868   -1.4254288  0.034055008   -2.1770868   0.75165804   426349 
 3868000   0.60419101   -2.1759298   -2.1759298   -1.4248719  0.039949933   -2.1759298   0.75105788   426349 
 3869000   0.60523737   -2.1776315   -2.1776315   -1.4252729  0.037612581   -2.1776315   0.75235859   426349 
 3870000   0.60609155   -2.1771252   -2.1771252   -1.4237048  0.044855365   -2.1771252    0.7534204   426349 
 3871000   0.60689611   -2.1775698   -2.1775698   -1.4231492  0.037233931   -2.1775698   0.75442054   426349 
 3872000   0.60622733   -2.1775541   -2.1775541    -1.423965  0.033340317   -2.1775541   0.75358919   426349 
 3873000   0.60581946   -2.1773672   -2.1773672    -1.424285  0.042152374   -2.1773672   0.75308217   426349 
 3874000   0.60569995   -2.1776067   -2.1776067   -1.4246731   0.04400423   -2.1776067   0.75293361   426349 
 3875000   0.60545254   -2.1771215   -2.1771215   -1.4244955  0.041542262   -2.1771215   0.75262606   426349 
 3876000   0.60532628   -2.1772688   -2.1772688   -1.4247997  0.037684938   -2.1772688   0.75246911   426349 
 3877000   0.60466143   -2.1762665   -2.1762665   -1.4246238  0.042389512   -2.1762665   0.75164266   426349 
 3878000   0.60539977   -2.1772096   -2.1772096   -1.4246491  0.035111088   -2.1772096   0.75256047   426349 
 3879000   0.60606026   -2.1784826   -2.1784826   -1.4251011  0.035920883   -2.1784826   0.75338151   426349 
 3880000   0.60383478   -2.1765874   -2.1765874   -1.4259723     0.038465   -2.1765874   0.75061506   426349 
 3881000   0.60512395   -2.1778875   -2.1778875   -1.4256699  0.038812942   -2.1778875    0.7522176   426349 
 3882000   0.60509229   -2.1776429   -2.1776429   -1.4254647  0.040888792   -2.1776429   0.75217824   426349 
 3883000    0.6055824   -2.1786052   -2.1786052   -1.4258177  0.035312627   -2.1786052   0.75278749   426349 
 3884000   0.60487738    -2.178448    -2.178448   -1.4265369   0.03132219    -2.178448   0.75191109   426349 
 3885000   0.60452515   -2.1775691   -2.1775691   -1.4260959  0.037109693   -2.1775691   0.75147324   426349 
 3886000   0.60493766   -2.1780345   -2.1780345   -1.4260484   0.03659676   -2.1780345   0.75198603   426349 
 3887000   0.60498335   -2.1773826   -2.1773826   -1.4253398   0.03708104   -2.1773826   0.75204282   426349 
 3888000   0.60566829   -2.1784011   -2.1784011   -1.4255069  0.030464348   -2.1784011   0.75289426   426349 
 3889000   0.60506603   -2.1774293   -2.1774293   -1.4252837  0.032410283   -2.1774293    0.7521456   426349 
 3890000   0.60581764   -2.1784927   -2.1784927   -1.4254127  0.040960784   -2.1784927   0.75307992   426349 
 3891000   0.60509574   -2.1775434   -2.1775434   -1.4253609  0.039201972   -2.1775434   0.75218253   426349 
 3892000   0.60728608   -2.1804188   -2.1804188   -1.4255135  0.035644548   -2.1804188    0.7549053   426349 
 3893000   0.60559752    -2.177909    -2.177909   -1.4251027  0.040594061    -2.177909   0.75280628   426349 
 3894000   0.60588683   -2.1776164   -2.1776164   -1.4244505  0.034345083   -2.1776164   0.75316592   426349 
 3895000   0.60609739   -2.1779325   -2.1779325   -1.4245049  0.032838611   -2.1779325   0.75342767   426349 
 3896000   0.60490269   -2.1765134   -2.1765134   -1.4245708  0.030831812   -2.1765134   0.75194256   426349 
 3897000   0.60561222    -2.178281    -2.178281   -1.4254565   0.03888712    -2.178281   0.75282455   426349 
 3898000   0.60523126   -2.1781152   -2.1781152   -1.4257642  0.040732192   -2.1781152     0.752351   426349 
 3899000   0.60548472   -2.1783025   -2.1783025   -1.4256364  0.048561185   -2.1783025   0.75266606   426349 
 3900000   0.60558078   -2.1786221   -2.1786221   -1.4258367  0.034177512   -2.1786221   0.75278548   426349 
 3901000   0.60587257   -2.1784771   -2.1784771   -1.4253289  0.033336699   -2.1784771    0.7531482   426349 
 3902000   0.60498254   -2.1772581   -2.1772581   -1.4252163  0.044509467   -2.1772581   0.75204181   426349 
 3903000   0.60622577   -2.1784451   -2.1784451   -1.4248579  0.029491332   -2.1784451   0.75358726   426349 
 3904000   0.60562395   -2.1775663   -2.1775663   -1.4247271  0.037088695   -2.1775663   0.75283914   426349 
 3905000   0.60592643   -2.1774581   -2.1774581   -1.4242429  0.040351217   -2.1774581   0.75321515   426349 
 3906000   0.60638062   -2.1780311   -2.1780311   -1.4242514  0.039338651   -2.1780311   0.75377974   426349 
 3907000   0.60552477    -2.177851    -2.177851   -1.4251352  0.033486961    -2.177851   0.75271585   426349 
 3908000   0.60535551   -2.1777091   -2.1777091   -1.4252036  0.031838881   -2.1777091   0.75250545   426349 
 3909000   0.60421154   -2.1772006   -2.1772006   -1.4261172  0.031933779   -2.1772006    0.7510834   426349 
 3910000   0.60480407   -2.1775974   -2.1775974   -1.4257775  0.035715149   -2.1775974   0.75181996   426349 
 3911000   0.60524676   -2.1777534   -2.1777534   -1.4253831  0.042782588   -2.1777534   0.75237026   426349 
 3912000   0.60452567   -2.1761749   -2.1761749    -1.424701  0.046149743   -2.1761749   0.75147389   426349 
 3913000   0.60547035    -2.177536    -2.177536   -1.4248878  0.041895897    -2.177536    0.7526482   426349 
 3914000   0.60524844    -2.177652    -2.177652   -1.4252797  0.034742658    -2.177652   0.75237235   426349 
 3915000   0.60468371    -2.177463    -2.177463   -1.4257926  0.040808121    -2.177463   0.75167035   426349 
 3916000   0.60562042   -2.1779976   -2.1779976   -1.4251629  0.031040537   -2.1779976   0.75283476   426349 
 3917000   0.60509931   -2.1769682   -2.1769682   -1.4247812   0.04174186   -2.1769682   0.75218697   426349 
 3918000   0.60595484   -2.1787015   -2.1787015   -1.4254511  0.036099921   -2.1787015   0.75325046   426349 
 3919000   0.60488322   -2.1769456   -2.1769456   -1.4250273  0.035994929   -2.1769456   0.75191836   426349 
 3920000   0.60552493   -2.1782378   -2.1782378   -1.4255218  0.036592287   -2.1782378   0.75271605   426349 
 3921000   0.60500837   -2.1773248   -2.1773248   -1.4252509  0.033060007   -2.1773248   0.75207393   426349 
 3922000    0.6041927   -2.1766724   -2.1766724   -1.4256124  0.035163684   -2.1766724   0.75105998   426349 
 3923000   0.60600695   -2.1786976   -2.1786976   -1.4253824  0.033546162   -2.1786976   0.75331524   426349 
 3924000   0.60467913   -2.1776271   -2.1776271   -1.4259624  0.036186453   -2.1776271   0.75166465   426349 
 3925000   0.60500235   -2.1780719   -2.1780719   -1.4260054  0.034032787   -2.1780719   0.75206644   426349 
 3926000    0.6053192   -2.1785351   -2.1785351   -1.4260748  0.035814306   -2.1785351   0.75246031   426349 
 3927000   0.60589515   -2.1785759   -2.1785759   -1.4253996  0.041177854   -2.1785759   0.75317627   426349 
 3928000   0.60560316   -2.1788884   -2.1788884   -1.4260751  0.037710283   -2.1788884    0.7528133   426349 
 3929000   0.60600846     -2.17912     -2.17912   -1.4258029  0.049212271     -2.17912   0.75331712   426349 
 3930000   0.60724917   -2.1799855   -2.1799855   -1.4251261   0.03365868   -2.1799855   0.75485942   426349 
 3931000   0.60612067   -2.1788475   -2.1788475   -1.4253909  0.032672548   -2.1788475    0.7534566   426349 
 3932000   0.60631206   -2.1790677   -2.1790677   -1.4253732  0.035745666   -2.1790677   0.75369452   426349 
 3933000   0.60543544   -2.1775909   -2.1775909   -1.4249861  0.032439502   -2.1775909   0.75260481   426349 
 3934000   0.60485649   -2.1780297   -2.1780297   -1.4261445  0.039664377   -2.1780297   0.75188513   426349 
 3935000    0.6042045   -2.1776925   -2.1776925   -1.4266179  0.033796895   -2.1776925   0.75107465   426349 
 3936000   0.60520574   -2.1793979   -2.1793979   -1.4270786  0.029601129   -2.1793979   0.75231927   426349 
 3937000   0.60547138   -2.1789421   -2.1789421   -1.4262926  0.034826572   -2.1789421   0.75264948   426349 
 3938000   0.60526765    -2.180039    -2.180039   -1.4276427   0.04063194    -2.180039   0.75239623   426349 
 3939000   0.60476237    -2.178858    -2.178858   -1.4270899  0.037002913    -2.178858   0.75176813   426349 
 3940000   0.60519835   -2.1795978   -2.1795978   -1.4272878  0.035546137   -2.1795978   0.75231008   426349 
 3941000   0.60482964   -2.1791115   -2.1791115   -1.4272598  0.029560685   -2.1791115   0.75185174   426349 
 3942000   0.60412702   -2.1779115   -2.1779115   -1.4269332  0.031042926   -2.1779115   0.75097834   426349 
 3943000   0.60548015    -2.179716    -2.179716   -1.4270557  0.027493387    -2.179716   0.75266039   426349 
 3944000   0.60586345    -2.179991    -2.179991   -1.4268542  0.043622087    -2.179991   0.75313686   426349 
 3945000   0.60375676   -2.1782283   -2.1782283   -1.4277103  0.034604797   -2.1782283   0.75051807   426349 
 3946000   0.60592104   -2.1807108   -2.1807108   -1.4275023  0.036904687   -2.1807108   0.75320845   426349 
 3947000    0.6062353   -2.1805837   -2.1805837   -1.4269846  0.031576756   -2.1805837    0.7535991   426349 
 3948000   0.60580932   -2.1798782   -2.1798782   -1.4268086  0.035151817   -2.1798782   0.75306958   426349 
 3949000   0.60495216   -2.1793305   -2.1793305   -1.4273265  0.038086145   -2.1793305   0.75200405   426349 
 3950000   0.60666531   -2.1816384   -2.1816384   -1.4275048  0.042199588   -2.1816384   0.75413364   426349 
 3951000   0.60504193    -2.179512    -2.179512   -1.4273964  0.042261537    -2.179512   0.75211564   426349 
 3952000   0.60499377   -2.1802931   -2.1802931   -1.4282374  0.039775434   -2.1802931   0.75205577   426349 
 3953000   0.60559178   -2.1808192   -2.1808192   -1.4280201    0.0383702   -2.1808192   0.75279915   426349 
 3954000   0.60584957   -2.1810847   -2.1810847    -1.427965   0.03191916   -2.1810847   0.75311961   426349 
 3955000   0.60569734   -2.1807063   -2.1807063   -1.4277759  0.039506791   -2.1807063   0.75293037   426349 
 3956000   0.60651345   -2.1813156   -2.1813156   -1.4273708  0.036501604   -2.1813156   0.75394486   426349 
 3957000   0.60508934   -2.1794429   -2.1794429   -1.4272683  0.041559717   -2.1794429   0.75217457   426349 
 3958000   0.60566597   -2.1807264   -2.1807264   -1.4278351  0.032776234   -2.1807264   0.75289138   426349 
 3959000   0.60672209   -2.1819565   -2.1819565   -1.4277523  0.037995199   -2.1819565   0.75420421   426349 
 3960000   0.60582649   -2.1810831   -2.1810831   -1.4279922   0.03516312   -2.1810831   0.75309092   426349 
 3961000   0.60588383    -2.179988    -2.179988   -1.4268258  0.043977137    -2.179988   0.75316219   426349 
 3962000     0.606329   -2.1810067   -2.1810067   -1.4272911  0.036259922   -2.1810067   0.75371558   426349 
 3963000   0.60546048   -2.1804436   -2.1804436   -1.4278077   0.04209219   -2.1804436   0.75263594   426349 
 3964000   0.60673349     -2.18142     -2.18142   -1.4272016  0.036155739     -2.18142   0.75421838   426349 
 3965000   0.60479315   -2.1789532   -2.1789532   -1.4271468  0.036758073   -2.1789532   0.75180639   426349 
 3966000   0.60572504   -2.1806652   -2.1806652   -1.4277004  0.034737559   -2.1806652   0.75296481   426349 
 3967000    0.6060709   -2.1801631   -2.1801631   -1.4267683  0.037147009   -2.1801631   0.75339474   426349 
 3968000   0.60561192   -2.1802567   -2.1802567   -1.4274325  0.034123526   -2.1802567   0.75282418   426349 
 3969000   0.60567729   -2.1802975   -2.1802975    -1.427392  0.036631809   -2.1802975   0.75290544   426349 
 3970000   0.60530454   -2.1796643   -2.1796643   -1.4272222  0.036253163   -2.1796643   0.75244209   426349 
 3971000    0.6061416   -2.1801893   -2.1801893   -1.4267067  0.040492304   -2.1801893   0.75348262   426349 
 3972000   0.60601471   -2.1801321   -2.1801321   -1.4268072  0.036422156   -2.1801321   0.75332488   426349 
 3973000   0.60550898   -2.1797868   -2.1797868   -1.4270906  0.029736179   -2.1797868   0.75269622   426349 
 3974000   0.60647591   -2.1803619   -2.1803619   -1.4264637  0.036132485   -2.1803619    0.7538982   426349 
 3975000   0.60423109   -2.1774832   -2.1774832   -1.4263755  0.036388372   -2.1774832   0.75110771   426349 
 3976000   0.60459008   -2.1783589   -2.1783589    -1.426805  0.029661418   -2.1783589   0.75155395   426349 
 3977000    0.6052382    -2.179435    -2.179435   -1.4270754  0.033156919    -2.179435   0.75235962   426349 
 3978000   0.60357261   -2.1772891   -2.1772891   -1.4269999  0.037842929   -2.1772891   0.75028916   426349 
 3979000   0.60435016   -2.1783371   -2.1783371   -1.4270813  0.034151932   -2.1783371   0.75125572   426349 
 3980000    0.6045841   -2.1786431   -2.1786431   -1.4270966  0.040611258   -2.1786431   0.75154652   426349 
 3981000   0.60511976   -2.1798473   -2.1798473   -1.4276349  0.032973958   -2.1798473    0.7522124   426349 
 3982000   0.60478581   -2.1785198   -2.1785198   -1.4267225  0.038354712   -2.1785198   0.75179727   426349 
 3983000   0.60481589   -2.1789041   -2.1789041   -1.4270694  0.033383237   -2.1789041   0.75183465   426349 
 3984000   0.60520165   -2.1786372   -2.1786372    -1.426323  0.036435011   -2.1786372   0.75231419   426349 
 3985000   0.60578037   -2.1788457   -2.1788457   -1.4258122  0.038559494   -2.1788457   0.75303359   426349 
 3986000   0.60565864   -2.1786234   -2.1786234   -1.4257412  0.040098832   -2.1786234   0.75288227   426349 
 3987000   0.60520206   -2.1788525   -2.1788525   -1.4265378   0.04230086   -2.1788525    0.7523147   426349 
 3988000   0.60759328   -2.1821259   -2.1821259   -1.4268387  0.039381812   -2.1821259   0.75528717   426349 
 3989000   0.60653973   -2.1812311   -2.1812311   -1.4272536   0.03182878   -2.1812311   0.75397752   426349 
 3990000   0.60654714   -2.1811376   -2.1811376   -1.4271508  0.033414018   -2.1811376   0.75398674   426349 
 3991000   0.60555824   -2.1804863   -2.1804863   -1.4277288  0.038436049   -2.1804863   0.75275746   426349 
 3992000   0.60568978   -2.1799571   -2.1799571   -1.4270361  0.040969659   -2.1799571   0.75292097   426349 
 3993000   0.60668091   -2.1818879   -2.1818879   -1.4277349  0.033429344   -2.1818879   0.75415303   426349 
 3994000   0.60715028    -2.183348    -2.183348   -1.4286115  0.038365328    -2.183348    0.7547365   426349 
 3995000   0.60603947   -2.1814913   -2.1814913   -1.4281356   0.03790491   -2.1814913   0.75335567   426349 
 3996000   0.60583236   -2.1813967   -2.1813967   -1.4282985  0.035831863   -2.1813967   0.75309821   426349 
 3997000   0.60555488   -2.1813128   -2.1813128   -1.4285595  0.039980573   -2.1813128   0.75275328   426349 
 3998000    0.6063929    -2.181853    -2.181853    -1.428058  0.038684472    -2.181853   0.75379501   426349 
 3999000    0.6061327   -2.1822749   -2.1822749   -1.4288034  0.031714991   -2.1822749   0.75347156   426349 
 4000000   0.60466359   -2.1814531   -2.1814531   -1.4298078  0.034197051   -2.1814531   0.75164533   426349 
 4001000   0.60465514   -2.1806766   -2.1806766   -1.4290417   0.03776682   -2.1806766   0.75163484   426349 
 4002000   0.60326739   -2.1793287   -2.1793287   -1.4294189  0.037968096   -2.1793287   0.74990974   426349 
 4003000   0.60433753   -2.1803375   -2.1803375   -1.4290975  0.035095299   -2.1803375   0.75124002   426349 
 4004000   0.60562806   -2.1811572   -2.1811572   -1.4283129  0.031267154   -2.1811572   0.75284424   426349 
 4005000   0.60464819   -2.1794962   -2.1794962     -1.42787  0.038800378   -2.1794962    0.7516262   426349 
 4006000   0.60575921   -2.1809608   -2.1809608   -1.4279535   0.03368262   -2.1809608   0.75300728   426349 
 4007000   0.60483556   -2.1799427   -2.1799427   -1.4280836  0.037639329   -2.1799427   0.75185911   426349 
 4008000   0.60537777   -2.1810614   -2.1810614   -1.4285283   0.04412793   -2.1810614   0.75253312   426349 
 4009000   0.60522075   -2.1805864   -2.1805864   -1.4282484  0.038052721   -2.1805864   0.75233793   426349 
 4010000   0.60514572   -2.1807324   -2.1807324   -1.4284878  0.031647701   -2.1807324   0.75224467   426349 
 4011000   0.60582705   -2.1809629   -2.1809629   -1.4278713  0.037903041   -2.1809629   0.75309162   426349 
 4012000   0.60596559   -2.1800583   -2.1800583   -1.4267945  0.034978836   -2.1800583   0.75326382   426349 
 4013000   0.60672033   -2.1812134   -2.1812134   -1.4270114  0.026285989   -2.1812134   0.75420203   426349 
 4014000   0.60518994   -2.1799542   -2.1799542   -1.4276545  0.042425224   -2.1799542   0.75229963   426349 
 4015000   0.60542915   -2.1804422   -2.1804422   -1.4278452  0.037145807   -2.1804422   0.75259699   426349 
 4016000   0.60540859   -2.1803126   -2.1803126   -1.4277412  0.034920595   -2.1803126   0.75257143   426349 
 4017000   0.60551843   -2.1812872   -2.1812872   -1.4285792  0.033467642   -2.1812872   0.75270797   426349 
 4018000   0.60427615    -2.179347    -2.179347   -1.4281833  0.045820968    -2.179347   0.75116372   426349 
 4019000   0.60527612   -2.1802416   -2.1802416   -1.4278349  0.040322358   -2.1802416   0.75240675   426349 
 4020000   0.60491264   -2.1804447   -2.1804447   -1.4284898  0.034296769   -2.1804447   0.75195492   426349 
 4021000   0.60460146   -2.1796494   -2.1796494   -1.4280812  0.034526466   -2.1796494    0.7515681   426349 
 4022000   0.60509638   -2.1800443   -2.1800443   -1.4278609  0.034624606   -2.1800443   0.75218333   426349 
 4023000   0.60541773   -2.1806889   -2.1806889   -1.4281061  0.036410938   -2.1806889   0.75258279   426349 
 4024000   0.60458949   -2.1795744   -2.1795744   -1.4280212  0.037834131   -2.1795744   0.75155322   426349 
 4025000   0.60479313    -2.179394    -2.179394   -1.4275876  0.041821275    -2.179394   0.75180636   426349 
 4026000    0.6054113   -2.1798858   -2.1798858    -1.427311  0.033361525   -2.1798858    0.7525748   426349 
 4027000   0.60570332   -2.1799636   -2.1799636   -1.4270258  0.031464336   -2.1799636    0.7529378   426349 
 4028000   0.60464951   -2.1784559   -2.1784559   -1.4268281   0.03351662   -2.1784559   0.75162784   426349 
 4029000   0.60455728   -2.1787508   -2.1787508   -1.4272376  0.036125003   -2.1787508   0.75151319   426349 
 4030000   0.60424656   -2.1783064   -2.1783064   -1.4271795  0.029119172   -2.1783064   0.75112693   426349 
 4031000   0.60560243   -2.1799841   -2.1799841   -1.4271717  0.044352941   -2.1799841   0.75281239   426349 
 4032000   0.60610423   -2.1804849   -2.1804849   -1.4270487  0.039064219   -2.1804849   0.75343617   426349 
 4033000   0.60596474   -2.1806453   -2.1806453   -1.4273826  0.029107625   -2.1806453   0.75326277   426349 
 4034000   0.60595038   -2.1804912   -2.1804912   -1.4272463  0.040108668   -2.1804912   0.75324492   426349 
 4035000   0.60523558     -2.17895     -2.17895   -1.4265936  0.039645129     -2.17895   0.75235637   426349 
 4036000   0.60550028   -2.1795746   -2.1795746   -1.4268892   0.03610107   -2.1795746   0.75268541   426349 
 4037000   0.60582862   -2.1799979   -2.1799979   -1.4269043  0.041436379   -2.1799979   0.75309356   426349 
 4038000   0.60525187   -2.1794719   -2.1794719   -1.4270953  0.034101461   -2.1794719   0.75237661   426349 
 4039000   0.60567543   -2.1802286   -2.1802286   -1.4273255  0.040124719   -2.1802286   0.75290313   426349 
 4040000   0.60441192   -2.1783526   -2.1783526   -1.4270202  0.041460902   -2.1783526   0.75133249   426349 
 4041000    0.6050675   -2.1787382   -2.1787382   -1.4265908  0.034839796   -2.1787382   0.75214743   426349 
 4042000   0.60598499     -2.18003     -2.18003    -1.426742  0.033441428     -2.18003   0.75328794   426349 
 4043000   0.60648603    -2.181601    -2.181601   -1.4276902  0.037037538    -2.181601   0.75391078   426349 
 4044000    0.6054953   -2.1804663   -2.1804663   -1.4277871  0.043789436   -2.1804663   0.75267922   426349 
 4045000   0.60473323   -2.1790027   -2.1790027   -1.4272708  0.044070638   -2.1790027    0.7517319   426349 
 4046000    0.6052316   -2.1801425   -2.1801425    -1.427791   0.03408748   -2.1801425   0.75235142   426349 
 4047000   0.60566954   -2.1804852   -2.1804852   -1.4275894   0.03626783   -2.1804852   0.75289581   426349 
 4048000   0.60630965   -2.1816375   -2.1816375    -1.427946  0.041136601   -2.1816375   0.75369152   426349 
 4049000   0.60433614   -2.1804762   -2.1804762   -1.4292379  0.033198943   -2.1804762   0.75123829   426349 
 4050000   0.60518247   -2.1816782   -2.1816782   -1.4293878   0.03852692   -2.1816782   0.75229034   426349 
 4051000   0.60545641   -2.1821602   -2.1821602   -1.4295294  0.044087841   -2.1821602   0.75263087   426349 
 4052000   0.60433181   -2.1808308   -2.1808308   -1.4295979  0.038115703   -2.1808308   0.75123291   426349 
 4053000   0.60602979   -2.1820944   -2.1820944   -1.4287508  0.027395172   -2.1820944   0.75334363   426349 
 4054000   0.60541069   -2.1820555   -2.1820555   -1.4294814  0.038303181   -2.1820555   0.75257404   426349 
 4055000   0.60561514   -2.1815687   -2.1815687   -1.4287405  0.038126925   -2.1815687   0.75282819   426349 
 4056000   0.60564474   -2.1816496   -2.1816496   -1.4287847  0.044832396   -2.1816496   0.75286498   426349 
 4057000   0.60490451   -2.1814704   -2.1814704   -1.4295256  0.039089328   -2.1814704   0.75194482   426349 
 4058000   0.60674896   -2.1836232   -2.1836232   -1.4293855  0.036002053   -2.1836232   0.75423762   426349 
 4059000   0.60548256   -2.1818081   -2.1818081   -1.4291447  0.035380703   -2.1818081   0.75266338   426349 
 4060000   0.60577269   -2.1823265   -2.1823265   -1.4293025   0.04503795   -2.1823265   0.75302404   426349 
 4061000    0.6041533   -2.1808724   -2.1808724   -1.4298614  0.032173292   -2.1808724   0.75101101   426349 
 4062000   0.60343005   -2.1797026   -2.1797026   -1.4295907  0.032026687   -2.1797026   0.75011195   426349 
 4063000   0.60607953   -2.1820514   -2.1820514   -1.4286459  0.037769192   -2.1820514   0.75340546   426349 
 4064000   0.60610584   -2.1819561   -2.1819561   -1.4285179  0.036047179   -2.1819561   0.75343816   426349 
 4065000   0.60475075   -2.1812298   -2.1812298   -1.4294762  0.039690926   -2.1812298   0.75175368   426349 
 4066000   0.60523914   -2.1819456   -2.1819456   -1.4295848  0.031968869   -2.1819456   0.75236079   426349 
 4067000   0.60526665   -2.1807265   -2.1807265   -1.4283315  0.036193162   -2.1807265   0.75239499   426349 
 4068000   0.60465223   -2.1801434   -2.1801434   -1.4285122  0.039760604   -2.1801434   0.75163122   426349 
 4069000   0.60493624    -2.180558    -2.180558   -1.4285737  0.041539088    -2.180558   0.75198426   426349 
 4070000   0.60525012   -2.1805763   -2.1805763   -1.4282019   0.03537109   -2.1805763   0.75237444   426349 
 4071000   0.60435346   -2.1803347   -2.1803347   -1.4290749  0.033290649   -2.1803347   0.75125982   426349 
 4072000   0.60525802   -2.1810647   -2.1810647   -1.4286805  0.036753173   -2.1810647   0.75238426   426349 
 4073000   0.60605702   -2.1815378   -2.1815378   -1.4281603  0.034030139   -2.1815378   0.75337749   426349 
 4074000   0.60402091   -2.1793387   -2.1793387   -1.4284923  0.045772106   -2.1793387   0.75084643   426349 
 4075000   0.60391224   -2.1800337   -2.1800337   -1.4293224  0.034210466   -2.1800337   0.75071135   426349 
 4076000   0.60325713   -2.1784414   -2.1784414   -1.4285444   0.03980118   -2.1784414   0.74989699   426349 
 4077000    0.6044874   -2.1795935   -2.1795935   -1.4281672  0.036673174   -2.1795935   0.75142632   426349 
 4078000   0.60493951   -2.1801254   -2.1801254   -1.4281371  0.042631811   -2.1801254   0.75198833   426349 
 4079000   0.60437539   -2.1799965   -2.1799965   -1.4287094  0.036887564   -2.1799965   0.75128709   426349 
 4080000   0.60408095    -2.179427    -2.179427   -1.4285059  0.033143041    -2.179427   0.75092106   426349 
 4081000   0.60467456   -2.1798803   -2.1798803   -1.4282214  0.036832468   -2.1798803   0.75165897   426349 
 4082000   0.60443382   -2.1798922   -2.1798922   -1.4285324  0.032891029   -2.1798922   0.75135971   426349 
 4083000   0.60357771   -2.1789908   -2.1789908   -1.4286953  0.032117386   -2.1789908   0.75029551   426349 
 4084000   0.60448618   -2.1796429   -2.1796429   -1.4282181   0.03270821   -2.1796429    0.7514248   426349 
 4085000   0.60455479   -2.1790949   -2.1790949   -1.4275848   0.03568656   -2.1790949   0.75151009   426349 
 4086000   0.60471055   -2.1792447   -2.1792447    -1.427541  0.035137932   -2.1792447   0.75170371   426349 
 4087000    0.6048267   -2.1788077   -2.1788077   -1.4269596  0.034913435   -2.1788077   0.75184809   426349 
 4088000   0.60498081   -2.1793686   -2.1793686   -1.4273289  0.035864985   -2.1793686   0.75203967   426349 
 4089000   0.60476491   -2.1790462   -2.1790462   -1.4272749  0.042899743   -2.1790462   0.75177129   426349 
 4090000   0.60501627   -2.1796216   -2.1796216   -1.4275378  0.034506658   -2.1796216   0.75208374   426349 
 4091000   0.60554777   -2.1796181   -2.1796181   -1.4268736  0.034300754   -2.1796181   0.75274445   426349 
 4092000    0.6061683   -2.1799469   -2.1799469   -1.4264311  0.040972628   -2.1799469   0.75351581   426349 
 4093000    0.6053034   -2.1798446   -2.1798446   -1.4274039    0.0338798   -2.1798446   0.75244067   426349 
 4094000   0.60548038   -2.1802531   -2.1802531   -1.4275924  0.028118501   -2.1802531   0.75266067   426349 
 4095000   0.60468095   -2.1801767   -2.1801767   -1.4285098  0.034170467   -2.1801767   0.75166692   426349 
 4096000   0.60552403    -2.180803    -2.180803    -1.428088  0.033031234    -2.180803   0.75271493   426349 
 4097000   0.60559892    -2.180147    -2.180147    -1.427339  0.033232897    -2.180147   0.75280802   426349 
 4098000   0.60498092   -2.1797262   -2.1797262   -1.4276864  0.037851416   -2.1797262    0.7520398   426349 
 4099000   0.60507618   -2.1805403   -2.1805403   -1.4283821  0.030939245   -2.1805403   0.75215822   426349 
 4100000   0.60469686   -2.1800684   -2.1800684   -1.4283817  0.038176717   -2.1800684   0.75168669   426349 
 4101000   0.60518484   -2.1806319   -2.1806319   -1.4283386  0.036602108   -2.1806319    0.7522933   426349 
 4102000   0.60486964   -2.1799588   -2.1799588   -1.4280573  0.036400555   -2.1799588   0.75190148   426349 
 4103000   0.60495605   -2.1804075   -2.1804075   -1.4283987  0.042077625   -2.1804075   0.75200889   426349 
 4104000   0.60441319   -2.1796689   -2.1796689   -1.4283348  0.033961702   -2.1796689   0.75133407   426349 
 4105000    0.6049875   -2.1798989   -2.1798989   -1.4278509  0.041214515   -2.1798989   0.75204798   426349 
 4106000   0.60529239   -2.1810022   -2.1810022   -1.4285752  0.034164334   -2.1810022   0.75242699   426349 
 4107000   0.60617918   -2.1821022   -2.1821022   -1.4285729  0.029810072   -2.1821022   0.75352933   426349 
 4108000   0.60490194   -2.1806376   -2.1806376    -1.428696   0.04148968   -2.1806376   0.75194163   426349 
 4109000   0.60491525   -2.1813548   -2.1813548   -1.4293967  0.036370562   -2.1813548   0.75195817   426349 
 4110000    0.6040077   -2.1805769   -2.1805769   -1.4297469  0.033405012   -2.1805769   0.75083001   426349 
 4111000   0.60424672   -2.1812968   -2.1812968   -1.4301697  0.035470823   -2.1812968   0.75112713   426349 
 4112000   0.60372395   -2.1801773   -2.1801773      -1.4297  0.035306686   -2.1801773   0.75047729   426349 
 4113000   0.60371892   -2.1804855   -2.1804855   -1.4300144   0.03799418   -2.1804855   0.75047104   426349 
 4114000    0.6041028   -2.1808675   -2.1808675   -1.4299193  0.033845212   -2.1808675   0.75094823   426349 
 4115000   0.60512792   -2.1826565   -2.1826565   -1.4304339  0.033537451   -2.1826565   0.75222254   426349 
 4116000   0.60481131   -2.1819928   -2.1819928   -1.4301638  0.032817561   -2.1819928   0.75182897   426349 
 4117000   0.60550826   -2.1820964   -2.1820964   -1.4294011  0.041936484   -2.1820964   0.75269533   426349 
 4118000   0.60525912    -2.182792    -2.182792   -1.4304064  0.037394172    -2.182792   0.75238562   426349 
 4119000   0.60531409   -2.1824289   -2.1824289    -1.429975  0.035304379   -2.1824289   0.75245396   426349 
 4120000   0.60616746   -2.1832388   -2.1832388    -1.429724  0.040673409   -2.1832388   0.75351477   426349 
 4121000   0.60517091    -2.182182    -2.182182    -1.429906   0.04295201    -2.182182   0.75227598   426349 
 4122000    0.6056071   -2.1825182   -2.1825182      -1.4297  0.040216948   -2.1825182   0.75281819   426349 
 4123000   0.60519908   -2.1825973   -2.1825973   -1.4302863  0.039221152   -2.1825973   0.75231099   426349 
 4124000   0.60597595   -2.1836175   -2.1836175   -1.4303408   0.03628924   -2.1836175    0.7532767   426349 
 4125000   0.60521443   -2.1825318   -2.1825318   -1.4302017  0.033055031   -2.1825318   0.75233008   426349 
 4126000   0.60560861   -2.1828555   -2.1828555   -1.4300354   0.03845581   -2.1828555   0.75282007   426349 
 4127000   0.60519049   -2.1832496   -2.1832496   -1.4309492  0.032683668   -2.1832496   0.75230032   426349 
 4128000    0.6047834   -2.1824063   -2.1824063   -1.4306121   0.03772955   -2.1824063   0.75179427   426349 
 4129000   0.60507064   -2.1828655   -2.1828655   -1.4307142  0.036875197   -2.1828655   0.75215133   426349 
 4130000   0.60440419   -2.1815488   -2.1815488   -1.4302259   0.04151277   -2.1815488   0.75132288   426349 
 4131000   0.60451925   -2.1821753   -2.1821753   -1.4307094   0.03167948   -2.1821753   0.75146591   426349 
 4132000    0.6038688   -2.1803346   -2.1803346   -1.4296772  0.037494836   -2.1803346   0.75065735   426349 
 4133000   0.60503119   -2.1822682   -2.1822682   -1.4301659  0.032365029   -2.1822682    0.7521023   426349 
 4134000    0.6038607    -2.181337    -2.181337   -1.4306897   0.03693046    -2.181337   0.75064728   426349 
 4135000   0.60376718    -2.181908    -2.181908   -1.4313769  0.037344144    -2.181908   0.75053103   426349 
 4136000   0.60345919   -2.1804677   -2.1804677   -1.4303195  0.033862739   -2.1804677   0.75014817   426349 
 4137000   0.60380497   -2.1807861   -2.1807861   -1.4302081  0.033536221   -2.1807861     0.750578   426349 
 4138000   0.60496793   -2.1825373   -2.1825373   -1.4305136  0.035858652   -2.1825373   0.75202365   426349 
 4139000   0.60416118   -2.1818785   -2.1818785   -1.4308577  0.030786982   -2.1818785   0.75102081   426349 
 4140000   0.60454375   -2.1829962   -2.1829962   -1.4314999  0.039430869   -2.1829962   0.75149637   426349 
 4141000   0.60537077    -2.183242    -2.183242   -1.4307176   0.03167328    -2.183242   0.75252442   426349 
 4142000   0.60440653   -2.1825095   -2.1825095   -1.4311837  0.030180217   -2.1825095   0.75132579   426349 
 4143000   0.60577901   -2.1834491   -2.1834491   -1.4304172  0.039298291   -2.1834491    0.7530319   426349 
 4144000     0.605024   -2.1827454   -2.1827454   -1.4306521  0.028388812   -2.1827454   0.75209336   426349 
 4145000   0.60351947   -2.1810015   -2.1810015   -1.4307784   0.03403719   -2.1810015   0.75022311   426349 
 4146000   0.60532295   -2.1824495   -2.1824495   -1.4299845  0.032356108   -2.1824495   0.75246497   426349 
 4147000   0.60466703   -2.1822236   -2.1822236    -1.430574  0.036437297   -2.1822236   0.75164961   426349 
 4148000   0.60579871   -2.1830708   -2.1830708   -1.4300145  0.032856041   -2.1830708   0.75305638   426349 
 4149000   0.60634085   -2.1841247   -2.1841247   -1.4303943  0.039894422   -2.1841247   0.75373031   426349 
 4150000   0.60533216   -2.1819555   -2.1819555   -1.4294791  0.038109217   -2.1819555   0.75247642   426349 
 4151000   0.60487683   -2.1806904   -2.1806904   -1.4287799  0.038349414   -2.1806904   0.75191041   426349 
 4152000   0.60562933   -2.1817225   -2.1817225   -1.4288767  0.039677818   -2.1817225   0.75284583   426349 
 4153000   0.60548071   -2.1819793   -2.1819793   -1.4293182  0.041857621   -2.1819793   0.75266108   426349 
 4154000   0.60429518   -2.1805891   -2.1805891   -1.4294018  0.035775481   -2.1805891   0.75118738   426349 
 4155000   0.60483096   -2.1814863   -2.1814863   -1.4296329  0.028967341   -2.1814863   0.75185339   426349 
 4156000   0.60341282   -2.1790148   -2.1790148   -1.4289243  0.039344191   -2.1790148   0.75009053   426349 
 4157000   0.60559573   -2.1811527   -2.1811527   -1.4283487  0.031971536   -2.1811527   0.75280406   426349 
 4158000   0.60574693    -2.181025    -2.181025   -1.4280329  0.038828371    -2.181025   0.75299202   426349 
 4159000   0.60413693   -2.1797488   -2.1797488   -1.4287581  0.039639379   -2.1797488   0.75099066   426349 
 4160000   0.60484398   -2.1800064   -2.1800064   -1.4281368  0.032372224   -2.1800064   0.75186957   426349 
 4161000   0.60560091   -2.1809152   -2.1809152   -1.4281047  0.036463192   -2.1809152    0.7528105   426349 
 4162000   0.60476757   -2.1799665   -2.1799665   -1.4281919  0.040866464   -2.1799665    0.7517746   426349 
 4163000   0.60449619   -2.1799681   -2.1799681   -1.4285309  0.034853127   -2.1799681   0.75143724   426349 
 4164000   0.60561598   -2.1809881   -2.1809881   -1.4281589  0.036657903   -2.1809881   0.75282924   426349 
 4165000   0.60448788   -2.1797024   -2.1797024   -1.4282755   0.03159431   -2.1797024   0.75142691   426349 
 4166000   0.60361701   -2.1783981   -2.1783981   -1.4280538   0.03148921   -2.1783981   0.75034435   426349 
 4167000   0.60420278   -2.1787201   -2.1787201   -1.4276476    0.0310987   -2.1787201   0.75107252   426349 
 4168000   0.60396747   -2.1788774   -2.1788774   -1.4280974  0.031499349   -2.1788774   0.75078001   426349 
 4169000   0.60548786   -2.1815652   -2.1815652   -1.4288952  0.034119653   -2.1815652   0.75266996   426349 
 4170000   0.60405206   -2.1796512   -2.1796512   -1.4287661   0.03680541   -2.1796512   0.75088515   426349 
 4171000   0.60500904   -2.1809112   -2.1809112   -1.4288364  0.038030934   -2.1809112   0.75207476   426349 
 4172000   0.60498243   -2.1808948   -2.1808948   -1.4288531  0.036299836   -2.1808948   0.75204168   426349 
 4173000   0.60562414   -2.1813807   -2.1813807   -1.4285413  0.034773217   -2.1813807   0.75283938   426349 
 4174000    0.6057532   -2.1819478   -2.1819478    -1.428948  0.032158224   -2.1819478   0.75299981   426349 
 4175000   0.60531735   -2.1818324   -2.1818324   -1.4293744  0.034619941   -2.1818324   0.75245801   426349 
 4176000   0.60455161   -2.1810305   -2.1810305   -1.4295244  0.037559106   -2.1810305   0.75150613   426349 
 4177000   0.60477203   -2.1810487   -2.1810487   -1.4292685  0.037362453   -2.1810487   0.75178014   426349 
 4178000   0.60422139   -2.1813911   -2.1813911   -1.4302955  0.036358224   -2.1813911   0.75109565   426349 
 4179000   0.60513131   -2.1822613   -2.1822613   -1.4300345  0.036877612   -2.1822613   0.75222675   426349 
 4180000   0.60428652   -2.1813618   -2.1813618   -1.4301852  0.032698169   -2.1813618   0.75117661   426349 
 4181000   0.60410805   -2.1806458   -2.1806458    -1.429691  0.039761368   -2.1806458   0.75095476   426349 
 4182000   0.60530363   -2.1831305   -2.1831305   -1.4306896  0.033712583   -2.1831305   0.75244096   426349 
 4183000   0.60486634   -2.1820277   -2.1820277   -1.4301303  0.041820098   -2.1820277   0.75189737   426349 
 4184000   0.60535536   -2.1823957   -2.1823957   -1.4298905  0.036557585   -2.1823957   0.75250527   426349 
 4185000   0.60623122   -2.1829567   -2.1829567   -1.4293626  0.036849003   -2.1829567   0.75359403   426349 
 4186000   0.60605753   -2.1831931   -2.1831931    -1.429815  0.029884408   -2.1831931   0.75337811   426349 
 4187000   0.60625343   -2.1833461   -2.1833461   -1.4297245  0.032203261   -2.1833461   0.75362163   426349 
 4188000   0.60407227   -2.1808098   -2.1808098   -1.4298996  0.031133858   -2.1808098   0.75091028   426349 
 4189000   0.60503201   -2.1821796   -2.1821796   -1.4300763  0.033617687   -2.1821796   0.75210331   426349 
 4190000   0.60420464    -2.181851    -2.181851   -1.4307762  0.028499279    -2.181851   0.75107482   426349 
 4191000   0.60424025   -2.1814099   -2.1814099   -1.4302908  0.031576648   -2.1814099   0.75111909   426349 
 4192000   0.60451718   -2.1817315   -2.1817315   -1.4302681  0.034296264   -2.1817315   0.75146334   426349 
 4193000    0.6054776   -2.1834632   -2.1834632    -1.430806  0.034369074   -2.1834632   0.75265722   426349 
 4194000   0.60473007   -2.1818706   -2.1818706   -1.4301426  0.035636753   -2.1818706   0.75172798   426349 
 4195000   0.60482663   -2.1826884   -2.1826884   -1.4308404  0.035054273   -2.1826884     0.751848   426349 
 4196000   0.60384667   -2.1809651   -2.1809651   -1.4303353  0.033407853   -2.1809651   0.75062984   426349 
 4197000   0.60412502   -2.1814886   -2.1814886   -1.4305128  0.034155689   -2.1814886   0.75097585   426349 
 4198000   0.60439217   -2.1813481   -2.1813481   -1.4300402  0.037104731   -2.1813481   0.75130794   426349 
 4199000    0.6051195    -2.182153    -2.182153   -1.4299409  0.030471501    -2.182153   0.75221208   426349 
 4200000   0.60536459   -2.1818607   -2.1818607   -1.4293439   0.03434992   -2.1818607   0.75251674   426349 
 4201000    0.6057538   -2.1823589   -2.1823589   -1.4293584  0.033699369   -2.1823589   0.75300055   426349 
 4202000   0.60604302   -2.1822543   -2.1822543   -1.4288942  0.037622787   -2.1822543   0.75336008   426349 
 4203000   0.60513171   -2.1811581   -2.1811581   -1.4289309  0.044568614   -2.1811581   0.75222725   426349 
 4204000   0.60470454   -2.1810043   -2.1810043   -1.4293081  0.033839375   -2.1810043   0.75169624   426349 
 4205000   0.60459457   -2.1818458   -2.1818458   -1.4302863  0.035477118   -2.1818458   0.75155954   426349 
 4206000   0.60435505   -2.1818646   -2.1818646   -1.4306028  0.037783479   -2.1818646   0.75126179   426349 
 4207000   0.60465603    -2.181461    -2.181461    -1.429825  0.037315406    -2.181461   0.75163594   426349 
 4208000   0.60605184   -2.1832573   -2.1832573   -1.4298862  0.028161527   -2.1832573   0.75337104   426349 
 4209000   0.60434711    -2.181692    -2.181692   -1.4304401  0.031419415    -2.181692   0.75125192   426349 
 4210000   0.60453526   -2.1814626   -2.1814626   -1.4299768  0.037199032   -2.1814626   0.75148581   426349 
 4211000    0.6043928   -2.1808942   -2.1808942   -1.4295855  0.033464987   -2.1808942   0.75130872   426349 
 4212000   0.60478621   -2.1819441   -2.1819441   -1.4301463  0.035431721   -2.1819441   0.75179777   426349 
 4213000    0.6046191     -2.18185     -2.18185   -1.4302599  0.038132906     -2.18185   0.75159003   426349 
 4214000   0.60345077   -2.1809841   -2.1809841   -1.4308464  0.039905252   -2.1809841   0.75013771   426349 
 4215000   0.60386096   -2.1810892   -2.1810892   -1.4304416  0.038763125   -2.1810892    0.7506476   426349 
 4216000    0.6044972   -2.1826651   -2.1826651   -1.4312266  0.037074698   -2.1826651    0.7514385   426349 
 4217000   0.60447444   -2.1838308   -2.1838308   -1.4324206  0.031001169   -2.1838308   0.75141021   426349 
 4218000   0.60291613   -2.1819121   -2.1819121    -1.432439  0.038735078   -2.1819121    0.7494731   426349 
 4219000   0.60542668   -2.1847564   -2.1847564   -1.4321625  0.037019222   -2.1847564   0.75259392   426349 
 4220000   0.60483512   -2.1849298   -2.1849298   -1.4330713  0.037689942   -2.1849298   0.75185856   426349 
 4221000   0.60510658   -2.1849208   -2.1849208   -1.4327248  0.035732931   -2.1849208     0.752196   426349 
 4222000   0.60426746   -2.1831334   -2.1831334   -1.4319805  0.037178328   -2.1831334   0.75115292   426349 
 4223000   0.60504381   -2.1842822   -2.1842822   -1.4321642  0.036788763   -2.1842822   0.75211798   426349 
 4224000   0.60424115   -2.1830329   -2.1830329   -1.4319127  0.037834718   -2.1830329   0.75112021   426349 
 4225000   0.60490265   -2.1837026   -2.1837026   -1.4317601  0.036578549   -2.1837026    0.7519425   426349 
 4226000   0.60501388     -2.18431     -2.18431   -1.4322292  0.039800969     -2.18431   0.75208077   426349 
 4227000   0.60604705   -2.1849219   -2.1849219   -1.4315569  0.037097288   -2.1849219   0.75336509   426349 
 4228000   0.60573704   -2.1839433   -2.1839433   -1.4309636  0.040405344   -2.1839433   0.75297973   426349 
 4229000   0.60648706   -2.1843133   -2.1843133   -1.4304012  0.044274159   -2.1843133   0.75391206   426349 
 4230000   0.60572773   -2.1838348   -2.1838348   -1.4308666  0.038722729   -2.1838348   0.75296815   426349 
 4231000   0.60619951   -2.1843442   -2.1843442   -1.4307896  0.041952287   -2.1843442   0.75355461   426349 
 4232000   0.60652756   -2.1851746   -2.1851746   -1.4312122  0.038825596   -2.1851746    0.7539624   426349 
 4233000   0.60461499   -2.1826719   -2.1826719    -1.431087  0.034100684   -2.1826719   0.75158492   426349 
 4234000   0.60519016   -2.1829155   -2.1829155   -1.4306156  0.039976203   -2.1829155   0.75229991   426349 
 4235000   0.60515652   -2.1828811   -2.1828811    -1.430623  0.036176316   -2.1828811   0.75225809   426349 
 4236000   0.60518058   -2.1825178   -2.1825178   -1.4302298  0.041069856   -2.1825178     0.752288   426349 
 4237000   0.60484971   -2.1819936   -2.1819936   -1.4301169  0.042910152   -2.1819936    0.7518767   426349 
 4238000   0.60453818   -2.1816616   -2.1816616   -1.4301721  0.032713162   -2.1816616   0.75148944   426349 
 4239000   0.60408353   -2.1817868   -2.1817868   -1.4308626  0.036662938   -2.1817868   0.75092428   426349 
 4240000   0.60420482   -2.1819468   -2.1819468   -1.4308718  0.037168023   -2.1819468   0.75107505   426349 
 4241000   0.60308714   -2.1808172   -2.1808172   -1.4311315  0.041802252   -2.1808172   0.74968568   426349 
 4242000   0.60389962   -2.1814893   -2.1814893   -1.4307936  0.038582377   -2.1814893   0.75069567   426349 
 4243000   0.60492459   -2.1827815   -2.1827815   -1.4308117  0.039916488   -2.1827815   0.75196978   426349 
 4244000   0.60418363    -2.180951    -2.180951   -1.4299023  0.040493839    -2.180951   0.75104871   426349 
 4245000   0.60496047   -2.1815205   -2.1815205   -1.4295061  0.035713459   -2.1815205   0.75201438   426349 
 4246000    0.6047214   -2.1811174   -2.1811174   -1.4294002  0.031214862   -2.1811174    0.7517172   426349 
 4247000   0.60531813   -2.1818099   -2.1818099   -1.4293509  0.039952249   -2.1818099   0.75245898   426349 
 4248000    0.6044959    -2.181365    -2.181365   -1.4299281  0.032967692    -2.181365   0.75143688   426349 
 4249000   0.60661115   -2.1822913   -2.1822913    -1.428225  0.041514684   -2.1822913   0.75406631   426349 
 4250000   0.60565385   -2.1812716   -2.1812716   -1.4283953  0.036103768   -2.1812716   0.75287631   426349 
 4251000   0.60481234   -2.1807284   -2.1807284   -1.4288982  0.030797064   -2.1807284   0.75183024   426349 
 4252000   0.60434263   -2.1804114   -2.1804114    -1.429165  0.033032058   -2.1804114   0.75124636   426349 
 4253000   0.60462699    -2.180225    -2.180225   -1.4286252   0.03299339    -2.180225   0.75159984   426349 
 4254000   0.60526356   -2.1814907   -2.1814907   -1.4290995  0.032219052   -2.1814907   0.75239115   426349 
 4255000   0.60501969   -2.1812352   -2.1812352   -1.4291472  0.035984562   -2.1812352   0.75208799   426349 
 4256000   0.60585508   -2.1819156   -2.1819156   -1.4287891  0.037971484   -2.1819156   0.75312645   426349 
 4257000   0.60536701   -2.1817167   -2.1817167   -1.4291969  0.024679632   -2.1817167   0.75251974   426349 
 4258000   0.60383027   -2.1799268   -2.1799268   -1.4293173  0.041919154   -2.1799268   0.75060945   426349 
 4259000   0.60447321   -2.1811089   -2.1811089   -1.4297003  0.038473131   -2.1811089   0.75140868   426349 
 4260000    0.6050985   -2.1816585   -2.1816585   -1.4294725  0.039449394   -2.1816585   0.75218597   426349 
 4261000   0.60615815   -2.1824075   -2.1824075   -1.4289044  0.041298444   -2.1824075   0.75350319   426349 
 4262000   0.60583111   -2.1825484   -2.1825484   -1.4294518  0.037219978   -2.1825484   0.75309666   426349 
 4263000   0.60440031    -2.180793    -2.180793   -1.4294749  0.033594604    -2.180793   0.75131806   426349 
 4264000   0.60466985   -2.1820417   -2.1820417   -1.4303886  0.038024436   -2.1820417   0.75165312   426349 
 4265000   0.60357252   -2.1818671   -2.1818671   -1.4315781  0.041351864   -2.1818671   0.75028905   426349 
 4266000   0.60538517   -2.1837637   -2.1837637   -1.4312214   0.03462395   -2.1837637   0.75254232   426349 
 4267000   0.60423111   -2.1821585   -2.1821585   -1.4310507  0.033189675   -2.1821585   0.75110773   426349 
 4268000   0.60493558   -2.1827789   -2.1827789   -1.4307955  0.038532871   -2.1827789   0.75198345   426349 
 4269000   0.60503203   -2.1834085   -2.1834085   -1.4313051   0.04332605   -2.1834085   0.75210333   426349 
 4270000   0.60606744   -2.1846713   -2.1846713   -1.4312809  0.037834046   -2.1846713   0.75339044   426349 
 4271000   0.60565715   -2.1843992   -2.1843992   -1.4315188  0.041044978   -2.1843992   0.75288041   426349 
 4272000   0.60510803   -2.1840209   -2.1840209   -1.4318231  0.043299202   -2.1840209   0.75219781   426349 
 4273000   0.60539911   -2.1842846   -2.1842846   -1.4317249  0.033892567   -2.1842846   0.75255965   426349 
 4274000   0.60663076   -2.1856258   -2.1856258   -1.4315351  0.039954787   -2.1856258   0.75409068   426349 
 4275000   0.60613554   -2.1845072   -2.1845072   -1.4310321  0.036736053   -2.1845072   0.75347509   426349 
 4276000   0.60537799   -2.1830336   -2.1830336   -1.4305002  0.039232917   -2.1830336    0.7525334   426349 
 4277000    0.6070521   -2.1850143   -2.1850143   -1.4303998  0.044456834   -2.1850143   0.75461445   426349 
 4278000   0.60561856   -2.1843542   -2.1843542   -1.4315217  0.036045938   -2.1843542   0.75283243   426349 
 4279000   0.60529945   -2.1835129   -2.1835129   -1.4310771  0.032922244   -2.1835129   0.75243576   426349 
 4280000   0.60523111   -2.1832754   -2.1832754   -1.4309246  0.038240157   -2.1832754   0.75235081   426349 
 4281000   0.60564712     -2.18344     -2.18344   -1.4305721  0.036645599     -2.18344   0.75286794   426349 
 4282000   0.60527187   -2.1824148   -2.1824148   -1.4300133  0.039231228   -2.1824148   0.75240148   426349 
 4283000   0.60531714   -2.1832543   -2.1832543   -1.4307966  0.032777274   -2.1832543   0.75245775   426349 
 4284000   0.60352753   -2.1811144   -2.1811144   -1.4308813  0.036374242   -2.1811144   0.75023313   426349 
 4285000   0.60483552   -2.1830055   -2.1830055   -1.4311464  0.036368852   -2.1830055   0.75185906   426349 
 4286000   0.60467027     -2.18168     -2.18168   -1.4300264  0.036428274     -2.18168   0.75165364   426349 
 4287000   0.60375624   -2.1801832   -2.1801832   -1.4296657  0.033174061   -2.1801832   0.75051743   426349 
 4288000   0.60485805   -2.1813888   -2.1813888   -1.4295017  0.039826623   -2.1813888   0.75188706   426349 
 4289000   0.60399206   -2.1808563   -2.1808563   -1.4300457  0.031963088   -2.1808563   0.75081057   426349 
 4290000   0.60491797   -2.1812548   -2.1812548   -1.4292933  0.036570634   -2.1812548   0.75196156   426349 
 4291000   0.60352724   -2.1801183   -2.1801183   -1.4298856  0.033466312   -2.1801183   0.75023277   426349 
 4292000   0.60538834   -2.1823899   -2.1823899   -1.4298436  0.029089948   -2.1823899   0.75254626   426349 
 4293000   0.60384906   -2.1794598   -2.1794598    -1.428827  0.031038952   -2.1794598   0.75063281   426349 
 4294000   0.60459677   -2.1803557   -2.1803557   -1.4287934  0.034688698   -2.1803557   0.75156228   426349 
 4295000   0.60585268   -2.1819067   -2.1819067   -1.4287833  0.049092124   -2.1819067   0.75312347   426349 
 4296000   0.60549889   -2.1814614   -2.1814614   -1.4287777  0.032080578   -2.1814614   0.75268368   426349 
 4297000   0.60480705   -2.1808765   -2.1808765   -1.4290528  0.037793841   -2.1808765   0.75182367   426349 
 4298000   0.60531555   -2.1819523   -2.1819523   -1.4294965    0.0351042   -2.1819523   0.75245578   426349 
 4299000   0.60537835   -2.1825795   -2.1825795   -1.4300456  0.032647878   -2.1825795   0.75253384   426349 
 4300000   0.60576951   -2.1823852   -2.1823852   -1.4293651   0.03537281   -2.1823852   0.75302009   426349 
 4301000   0.60418404   -2.1804842   -2.1804842    -1.429435  0.037965757   -2.1804842   0.75104922   426349 
 4302000   0.60540604   -2.1815051   -2.1815051   -1.4289369   0.03743802   -2.1815051   0.75256826   426349 
 4303000   0.60497567   -2.1818511   -2.1818511   -1.4298179  0.041898524   -2.1818511   0.75203328   426349 
 4304000   0.60514272   -2.1820449   -2.1820449   -1.4298039   0.03493895   -2.1820449   0.75224093   426349 
 4305000   0.60635724    -2.182426    -2.182426   -1.4286753  0.032315766    -2.182426   0.75375067   426349 
 4306000   0.60466735   -2.1808904   -2.1808904   -1.4292404  0.033331345   -2.1808904      0.75165   426349 
 4307000   0.60492565   -2.1812076   -2.1812076   -1.4292365  0.035689499   -2.1812076    0.7519711   426349 
 4308000   0.60382936   -2.1801149   -2.1801149   -1.4295066  0.040155978   -2.1801149   0.75060832   426349 
 4309000   0.60621919   -2.1828166   -2.1828166   -1.4292375  0.038790352   -2.1828166   0.75357907   426349 
 4310000   0.60409358    -2.180539    -2.180539   -1.4296022   0.04247711    -2.180539   0.75093677   426349 
 4311000   0.60585106    -2.181704    -2.181704   -1.4285826  0.032420564    -2.181704   0.75312146   426349 
 4312000   0.60504956   -2.1815488   -2.1815488   -1.4294237  0.035439918   -2.1815488   0.75212513   426349 
 4313000   0.60481608   -2.1809019   -2.1809019    -1.429067  0.037116092   -2.1809019   0.75183489   426349 
 4314000   0.60571242   -2.1817423   -2.1817423   -1.4287932   0.02931514   -2.1817423   0.75294912   426349 
 4315000   0.60457995    -2.181293    -2.181293   -1.4297516  0.035463903    -2.181293   0.75154136   426349 
 4316000   0.60374612   -2.1800958   -2.1800958    -1.429591  0.038069274   -2.1800958   0.75050485   426349 
 4317000     0.604147   -2.1811748   -2.1811748   -1.4301716  0.039421989   -2.1811748   0.75100318   426349 
 4318000   0.60468954   -2.1813128   -2.1813128   -1.4296352  0.043150207   -2.1813128   0.75167759   426349 
 4319000   0.60483291   -2.1813296   -2.1813296   -1.4294738   0.04314265   -2.1813296   0.75185581   426349 
 4320000   0.60479837    -2.181965    -2.181965   -1.4301521  0.032225457    -2.181965   0.75181287   426349 
 4321000   0.60394823   -2.1800762   -2.1800762   -1.4293201  0.031793841   -2.1800762   0.75075608   426349 
 4322000   0.60460786   -2.1810654   -2.1810654   -1.4294893   0.03310743   -2.1810654   0.75157606   426349 
 4323000   0.60431386    -2.180364    -2.180364   -1.4291534  0.039680191    -2.180364   0.75121059   426349 
 4324000   0.60497657   -2.1805951   -2.1805951   -1.4285608  0.030108697   -2.1805951   0.75203439   426349 
 4325000   0.60457437   -2.1800884   -2.1800884    -1.428554  0.034288683   -2.1800884   0.75153443   426349 
 4326000   0.60444458   -2.1813461   -2.1813461    -1.429973  0.030567137   -2.1813461   0.75137309   426349 
 4327000   0.60465448   -2.1819598   -2.1819598   -1.4303258  0.038152868   -2.1819598   0.75163402   426349 
 4328000    0.6046244   -2.1822588   -2.1822588   -1.4306622  0.032855607   -2.1822588   0.75159662   426349 
 4329000   0.60454468   -2.1813833   -2.1813833   -1.4298858  0.031823121   -2.1813833   0.75149752   426349 
 4330000   0.60468661   -2.1822505   -2.1822505   -1.4305765  0.037401771   -2.1822505   0.75167395   426349 
 4331000   0.60536217      -2.1826      -2.1826   -1.4300862  0.035906277      -2.1826   0.75251373   426349 
 4332000   0.60474288   -2.1821384   -2.1821384   -1.4303945  0.035621399   -2.1821384    0.7517439   426349 
 4333000   0.60496628    -2.182539    -2.182539   -1.4305174  0.040713118    -2.182539   0.75202161   426349 
 4334000   0.60425885   -2.1819121   -2.1819121   -1.4307699  0.036482278   -2.1819121   0.75114221   426349 
 4335000   0.60564729   -2.1844619   -2.1844619   -1.4315938   0.03983052   -2.1844619   0.75286815   426349 
 4336000   0.60463347   -2.1828587   -2.1828587   -1.4312508  0.036635419   -2.1828587   0.75160789   426349 
 4337000   0.60643973   -2.1851946   -2.1851946   -1.4313414  0.038781838   -2.1851946   0.75385322   426349 
 4338000   0.60540852   -2.1836096   -2.1836096   -1.4310383    0.0362231   -2.1836096   0.75257135   426349 
 4339000   0.60544498   -2.1824966   -2.1824966   -1.4298799  0.039684321   -2.1824966   0.75261666   426349 
 4340000   0.60552159   -2.1826751   -2.1826751   -1.4299632  0.038455447   -2.1826751   0.75271189   426349 
 4341000   0.60450508   -2.1828118   -2.1828118   -1.4313635  0.035885459   -2.1828118    0.7514483   426349 
 4342000   0.60392739   -2.1818957   -2.1818957   -1.4311656  0.035046289   -2.1818957   0.75073017   426349 
 4343000   0.60418617   -2.1826833   -2.1826833   -1.4316314  0.037670209   -2.1826833   0.75105186   426349 
 4344000   0.60373941   -2.1820664   -2.1820664   -1.4315699  0.039388562   -2.1820664   0.75049651   426349 
 4345000   0.60489618   -2.1833912   -2.1833912   -1.4314567   0.03535567   -2.1833912   0.75193446   426349 
 4346000   0.60429336   -2.1836303   -2.1836303   -1.4324452  0.032102579   -2.1836303   0.75118511   426349 
 4347000   0.60431466   -2.1834004   -2.1834004   -1.4321888  0.037526029   -2.1834004   0.75121158   426349 
 4348000   0.60511551   -2.1841055   -2.1841055   -1.4318984  0.033562373   -2.1841055   0.75220711   426349 
 4349000    0.6060042   -2.1855999   -2.1855999   -1.4322881  0.041698268   -2.1855999   0.75331182   426349 
 4350000   0.60656838   -2.1853102   -2.1853102   -1.4312971  0.034197753   -2.1853102   0.75401314   426349 
 4351000      0.60556   -2.1842314   -2.1842314   -1.4314717  0.033895684   -2.1842314   0.75275965   426349 
 4352000   0.60544003   -2.1843899   -2.1843899   -1.4317794  0.040776209   -2.1843899   0.75261052   426349 
 4353000   0.60365487   -2.1817219   -2.1817219   -1.4313305  0.039173003   -2.1817219   0.75039142   426349 
 4354000   0.60502629   -2.1838815   -2.1838815   -1.4317853  0.032512754   -2.1838815   0.75209621   426349 
 4355000   0.60429632    -2.182371    -2.182371   -1.4311822  0.033561015    -2.182371   0.75118879   426349 
 4356000   0.60471866   -2.1834764   -2.1834764   -1.4317626  0.034517298   -2.1834764   0.75171379   426349 
 4357000   0.60493236    -2.183735    -2.183735   -1.4317556  0.038501722    -2.183735   0.75197944   426349 
 4358000   0.60514458   -2.1841638   -2.1841638   -1.4319206  0.036828582   -2.1841638   0.75224325   426349 
 4359000   0.60454252   -2.1835066   -2.1835066   -1.4320118  0.037875361   -2.1835066   0.75149484   426349 
 4360000   0.60422355   -2.1829806   -2.1829806   -1.4318823  0.036921335   -2.1829806   0.75109833   426349 
 4361000   0.60383789   -2.1828815   -2.1828815   -1.4322625  0.033438434   -2.1828815   0.75061893   426349 
 4362000   0.60377369   -2.1833743   -2.1833743   -1.4328352  0.031751398   -2.1833743   0.75053912   426349 
 4363000   0.60384432   -2.1823365   -2.1823365   -1.4317096  0.042361802   -2.1823365   0.75062692   426349 
 4364000   0.60414169    -2.183324    -2.183324   -1.4323275  0.030719535    -2.183324   0.75099657   426349 
 4365000   0.60321049   -2.1813977   -2.1813977   -1.4315587   0.03560679   -2.1813977   0.74983902   426349 
 4366000   0.60356099   -2.1818567   -2.1818567    -1.431582  0.039129857   -2.1818567   0.75027471   426349 
 4367000   0.60389355   -2.1824137   -2.1824137   -1.4317256  0.036354093   -2.1824137   0.75068811   426349 
 4368000   0.60503889   -2.1837321   -2.1837321   -1.4316202  0.037624065   -2.1837321   0.75211187   426349 
 4369000   0.60451975   -2.1829151   -2.1829151   -1.4314485  0.037002166   -2.1829151   0.75146653   426349 
 4370000   0.60421157   -2.1821317   -2.1821317   -1.4310482  0.041762674   -2.1821317   0.75108344   426349 
 4371000   0.60448449   -2.1836063   -2.1836063   -1.4321836  0.037743267   -2.1836063    0.7514227   426349 
 4372000    0.6055797   -2.1854167   -2.1854167   -1.4326326  0.035106211   -2.1854167   0.75278413   426349 
 4373000   0.60509765   -2.1845481   -2.1845481   -1.4323632  0.031028588   -2.1845481    0.7521849   426349 
 4374000   0.60539671   -2.1841004   -2.1841004   -1.4315437   0.04103361   -2.1841004   0.75255666   426349 
 4375000   0.60485067   -2.1836427   -2.1836427   -1.4317648  0.037032418   -2.1836427   0.75187789   426349 
 4376000   0.60493507    -2.183424    -2.183424   -1.4314412   0.03598929    -2.183424   0.75198281   426349 
 4377000   0.60465683   -2.1832758   -2.1832758   -1.4316388  0.039654005   -2.1832758   0.75163694   426349 
 4378000   0.60485912   -2.1824671   -2.1824671   -1.4305787  0.041984795   -2.1824671    0.7518884   426349 
 4379000   0.60520907   -2.1831381   -2.1831381   -1.4308147  0.029360461   -2.1831381   0.75232342   426349 
 4380000   0.60477243   -2.1828573   -2.1828573   -1.4310767  0.032817968   -2.1828573   0.75178063   426349 
 4381000   0.60425687   -2.1823963   -2.1823963   -1.4312565  0.035677537   -2.1823963   0.75113975   426349 
 4382000   0.60429858    -2.181877    -2.181877   -1.4306854  0.038410902    -2.181877    0.7511916   426349 
 4383000   0.60480541   -2.1829919   -2.1829919   -1.4311702  0.035322438   -2.1829919   0.75182163   426349 
 4384000   0.60399638   -2.1812459   -2.1812459     -1.43043  0.037195765   -2.1812459   0.75081595   426349 
 4385000   0.60461696   -2.1821062   -2.1821062   -1.4305188    0.0364593   -2.1821062   0.75158738   426349 
 4386000   0.60430075   -2.1811747   -2.1811747   -1.4299804  0.041880469   -2.1811747    0.7511943   426349 
 4387000    0.6052947   -2.1821442   -2.1821442   -1.4297144   0.03524608   -2.1821442   0.75242986   426349 
 4388000   0.60441551   -2.1816759   -2.1816759   -1.4303389  0.040204837   -2.1816759   0.75133695   426349 
 4389000   0.60424929   -2.1814665   -2.1814665   -1.4303362   0.03870305   -2.1814665   0.75113033   426349 
 4390000   0.60391318     -2.18137     -2.18137   -1.4306575   0.03922797     -2.18137   0.75071251   426349 
 4391000   0.60409988   -2.1818125   -2.1818125   -1.4308679  0.031724183   -2.1818125    0.7509446   426349 
 4392000   0.60449748   -2.1825901   -2.1825901   -1.4311512  0.039930491   -2.1825901   0.75143885   426349 
 4393000   0.60484574   -2.1829736   -2.1829736   -1.4311018  0.034667564   -2.1829736   0.75187176   426349 
 4394000   0.60450003    -2.182399    -2.182399   -1.4309569  0.034990263    -2.182399   0.75144201   426349 
 4395000   0.60445727   -2.1814872   -2.1814872   -1.4300983   0.03639356   -2.1814872   0.75138886   426349 
 4396000   0.60479565    -2.181261    -2.181261   -1.4294515  0.042775655    -2.181261    0.7518095   426349 
 4397000   0.60614042   -2.1835373   -2.1835373   -1.4300561  0.033696468   -2.1835373   0.75348115   426349 
 4398000   0.60450291   -2.1817827   -2.1817827   -1.4303371  0.037653563   -2.1817827    0.7514456   426349 
 4399000   0.60472133    -2.182143    -2.182143   -1.4304258  0.036183809    -2.182143   0.75171711   426349 
 4400000   0.60402648   -2.1818851   -2.1818851   -1.4310317  0.033605805   -2.1818851   0.75085336   426349 
 4401000   0.60546366   -2.1825407   -2.1825407   -1.4299008  0.036230124   -2.1825407   0.75263989   426349 
 4402000   0.60577747   -2.1823626   -2.1823626   -1.4293326  0.038161788   -2.1823626   0.75302998   426349 
 4403000   0.60547513   -2.1824132   -2.1824132   -1.4297591  0.037246437   -2.1824132   0.75265414   426349 
 4404000   0.60430479   -2.1816132   -2.1816132   -1.4304139    0.0316845   -2.1816132   0.75119932   426349 
 4405000   0.60491804   -2.1837642   -2.1837642   -1.4318026  0.037106955   -2.1837642   0.75196164   426349 
 4406000   0.60359962   -2.1816028   -2.1816028   -1.4312801  0.042315531   -2.1816028   0.75032273   426349 
 4407000   0.60404305   -2.1818183   -2.1818183   -1.4309444  0.039397301   -2.1818183   0.75087396   426349 
 4408000   0.60426556   -2.1820396   -2.1820396    -1.430889  0.032528283   -2.1820396   0.75115056   426349 
 4409000   0.60395582   -2.1815912   -2.1815912   -1.4308257  0.034903448   -2.1815912   0.75076552   426349 
 4410000   0.60386165   -2.1817503   -2.1817503   -1.4311019  0.030791498   -2.1817503   0.75064846   426349 
 4411000   0.60452726   -2.1818973   -2.1818973   -1.4304214  0.039900239   -2.1818973   0.75147586   426349 
 4412000   0.60558867   -2.1831707   -2.1831707   -1.4303754  0.030890429   -2.1831707   0.75279528   426349 
 4413000   0.60485775   -2.1824323   -2.1824323   -1.4305456  0.045346611   -2.1824323   0.75188669   426349 
 4414000   0.60531746   -2.1832826   -2.1832826   -1.4308244  0.037440701   -2.1832826   0.75245815   426349 
 4415000   0.60447796    -2.182131    -2.182131   -1.4307164  0.037629215    -2.182131   0.75141459   426349 
 4416000   0.60582169   -2.1835913   -2.1835913   -1.4305064  0.038645637   -2.1835913   0.75308495   426349 
 4417000    0.6050774   -2.1824632   -2.1824632   -1.4303034  0.033738992   -2.1824632   0.75215974   426349 
 4418000   0.60586391   -2.1837336   -2.1837336   -1.4305962  0.036470108   -2.1837336   0.75313742   426349 
 4419000   0.60539698   -2.1832343   -2.1832343   -1.4306773  0.037476056   -2.1832343     0.752557   426349 
 4420000   0.60575904   -2.1838425   -2.1838425   -1.4308354  0.040951011   -2.1838425   0.75300706   426349 
 4421000   0.60519512   -2.1830526   -2.1830526   -1.4307466  0.026266663   -2.1830526   0.75230607   426349 
 4422000   0.60360074   -2.1813655   -2.1813655   -1.4310413  0.030145205   -2.1813655   0.75032413   426349 
 4423000   0.60484649   -2.1826057   -2.1826057    -1.430733  0.035297739   -2.1826057    0.7518727   426349 
 4424000   0.60460319   -2.1830403   -2.1830403     -1.43147  0.031481039   -2.1830403   0.75157026   426349 
 4425000   0.60394572   -2.1819849   -2.1819849   -1.4312319   0.03099498   -2.1819849   0.75075297   426349 
 4426000   0.60440831   -2.1834219   -2.1834219   -1.4320939  0.036748797   -2.1834219     0.751328   426349 
 4427000    0.6036351   -2.1825766   -2.1825766   -1.4322098  0.034824968   -2.1825766   0.75036684   426349 
 4428000   0.60423657   -2.1825472   -2.1825472   -1.4314327  0.038832509   -2.1825472   0.75111451   426349 
 4429000   0.60455718   -2.1829333   -2.1829333   -1.4314202  0.034083688   -2.1829333   0.75151307   426349 
 4430000   0.60452195   -2.1826843   -2.1826843    -1.431215  0.028215638   -2.1826843   0.75146926   426349 
 4431000   0.60552253   -2.1836231   -2.1836231     -1.43091  0.031697121   -2.1836231   0.75271307   426349 
 4432000   0.60402854   -2.1821584   -2.1821584   -1.4313025  0.036454003   -2.1821584   0.75085592   426349 
 4433000   0.60422916   -2.1822815   -2.1822815   -1.4311762  0.040248095   -2.1822815   0.75110531   426349 
 4434000   0.60403937     -2.18218     -2.18218   -1.4313107  0.036523276     -2.18218   0.75086938   426349 
 4435000   0.60545208   -2.1848927   -2.1848927   -1.4322672  0.032403428   -2.1848927    0.7526255   426349 
 4436000   0.60488142   -2.1834499   -2.1834499   -1.4315338   0.03765782   -2.1834499   0.75191612   426349 
 4437000   0.60534879   -2.1844709   -2.1844709   -1.4319738   0.03397656   -2.1844709    0.7524971   426349 
 4438000   0.60538313   -2.1843289   -2.1843289   -1.4317891  0.035798044   -2.1843289   0.75253978   426349 
 4439000   0.60517722   -2.1843081   -2.1843081   -1.4320243  0.028538814   -2.1843081   0.75228381   426349 
 4440000   0.60537977   -2.1841844   -2.1841844   -1.4316488  0.037136698   -2.1841844   0.75253561   426349 
 4441000   0.60446094   -2.1827016   -2.1827016   -1.4313082  0.036603407   -2.1827016   0.75139343   426349 
 4442000    0.6049298   -2.1830677   -2.1830677   -1.4310914  0.034133646   -2.1830677   0.75197625   426349 
 4443000   0.60591102   -2.1841245   -2.1841245   -1.4309285   0.03035659   -2.1841245   0.75319599   426349 
 4444000   0.60453194   -2.1827326   -2.1827326   -1.4312509  0.036508186   -2.1827326   0.75148169   426349 
 4445000   0.60507285   -2.1827979   -2.1827979   -1.4306438  0.040052931   -2.1827979   0.75215408   426349 
 4446000   0.60597059   -2.1834002   -2.1834002   -1.4301301  0.030629673   -2.1834002   0.75327004   426349 
 4447000   0.60405723    -2.182011    -2.182011   -1.4311194  0.037767726    -2.182011   0.75089159   426349 
 4448000   0.60609675   -2.1841707   -2.1841707   -1.4307438  0.035572366   -2.1841707   0.75342687   426349 
 4449000   0.60619049   -2.1843428   -2.1843428   -1.4307994  0.040299944   -2.1843428    0.7535434   426349 
 4450000   0.60372726   -2.1821721   -2.1821721   -1.4316907  0.039706379   -2.1821721   0.75048141   426349 
 4451000   0.60413417   -2.1824687   -2.1824687   -1.4314815   0.03601829   -2.1824687   0.75098723   426349 
 4452000   0.60456419    -2.182859    -2.182859   -1.4313372  0.044680568    -2.182859   0.75152177   426349 
 4453000   0.60406998   -2.1832812   -2.1832812   -1.4323738  0.033918194   -2.1832812   0.75090743   426349 
 4454000   0.60397701   -2.1825187   -2.1825187   -1.4317268  0.030234425   -2.1825187   0.75079186   426349 
 4455000   0.60572419   -2.1840685   -2.1840685   -1.4311047   0.03440502   -2.1840685   0.75296375   426349 
 4456000   0.60401595   -2.1832392   -2.1832392    -1.432399  0.032960574   -2.1832392   0.75084027   426349 
 4457000   0.60397415   -2.1834706   -2.1834706   -1.4326823  0.027632163   -2.1834706    0.7507883   426349 
 4458000   0.60335373   -2.1817461   -2.1817461   -1.4317291  0.035131607   -2.1817461   0.75001708   426349 
 4459000   0.60320964   -2.1815742   -2.1815742   -1.4317363  0.034876384   -2.1815742   0.74983796   426349 
 4460000   0.60390139   -2.1825932   -2.1825932   -1.4318954  0.034679723   -2.1825932   0.75069787   426349 
 4461000   0.60459346   -2.1823521   -2.1823521    -1.430794   0.03740621   -2.1823521   0.75155815   426349 
 4462000   0.60418502   -2.1821555   -2.1821555    -1.431105  0.040975671   -2.1821555   0.75105044   426349 
 4463000   0.60517776   -2.1831605   -2.1831605    -1.430876   0.03815334   -2.1831605   0.75228448   426349 
 4464000   0.60489398   -2.1829754   -2.1829754   -1.4310437  0.039891036   -2.1829754   0.75193173   426349 
 4465000   0.60427236   -2.1818559   -2.1818559   -1.4306969  0.038595783   -2.1818559     0.751159   426349 
 4466000   0.60435213     -2.18316     -2.18316   -1.4319018  0.038301602     -2.18316   0.75125816   426349 
 4467000   0.60429289   -2.1832698   -2.1832698   -1.4320852  0.031963808   -2.1832698   0.75118453   426349 
 4468000    0.6041384   -2.1832986   -2.1832986   -1.4323061  0.037786656   -2.1832986   0.75099248   426349 
 4469000    0.6046089    -2.183991    -2.183991   -1.4324137  0.027807444    -2.183991   0.75157735   426349 
 4470000   0.60410263   -2.1835211   -2.1835211    -1.432573  0.033143207   -2.1835211   0.75094802   426349 
 4471000   0.60365223   -2.1828912   -2.1828912    -1.432503  0.036747482   -2.1828912   0.75038813   426349 
 4472000   0.60578909   -2.1847558   -2.1847558   -1.4317114  0.035998143   -2.1847558   0.75304443   426349 
 4473000   0.60502581    -2.183354    -2.183354   -1.4312584  0.031780784    -2.183354   0.75209561   426349 
 4474000    0.6051743   -2.1838434   -2.1838434   -1.4315632  0.042569431   -2.1838434   0.75228019   426349 
 4475000    0.6046972   -2.1830987   -2.1830987   -1.4314116  0.038670097   -2.1830987   0.75168712   426349 
 4476000   0.60507259   -2.1834529   -2.1834529   -1.4312992  0.035200402   -2.1834529   0.75215376   426349 
 4477000   0.60513347   -2.1832398   -2.1832398   -1.4310103  0.030697718   -2.1832398   0.75222944   426349 
 4478000   0.60614905   -2.1842633   -2.1842633   -1.4307715  0.029308175   -2.1842633   0.75349189   426349 
 4479000   0.60441386   -2.1825251   -2.1825251   -1.4311902  0.039747921   -2.1825251    0.7513349   426349 
 4480000    0.6044271   -2.1832657   -2.1832657   -1.4319143  0.038264392   -2.1832657   0.75135136   426349 
 4481000   0.60525592    -2.184414    -2.184414   -1.4320324  0.032609553    -2.184414   0.75238165   426349 
 4482000   0.60423771   -2.1837768   -2.1837768   -1.4326609  0.035956472   -2.1837768   0.75111593   426349 
 4483000   0.60409692   -2.1833944   -2.1833944   -1.4324535  0.035387161   -2.1833944   0.75094092   426349 
 4484000   0.60369961   -2.1831619   -2.1831619   -1.4327149  0.036894892   -2.1831619   0.75044703   426349 
 4485000   0.60463091   -2.1842489   -2.1842489   -1.4326441  0.034166734   -2.1842489   0.75160472   426349 
 4486000    0.6041727   -2.1829246   -2.1829246   -1.4318895  0.039195252   -2.1829246   0.75103512   426349 
 4487000   0.60447928   -2.1831175   -2.1831175   -1.4317013  0.035466195   -2.1831175   0.75141622   426349 
 4488000   0.60387842    -2.182033    -2.182033   -1.4313637  0.029581814    -2.182033    0.7506693   426349 
 4489000   0.60456606   -2.1823794   -2.1823794   -1.4308553  0.048249184   -2.1823794    0.7515241   426349 
 4490000    0.6059559   -2.1845787   -2.1845787   -1.4313269  0.036797374   -2.1845787   0.75325178   426349 
 4491000   0.60437546   -2.1830723   -2.1830723   -1.4317851  0.036637123   -2.1830723   0.75128717   426349 
 4492000   0.60465686   -2.1836047   -2.1836047   -1.4319677  0.035072323   -2.1836047   0.75163698   426349 
 4493000   0.60420773   -2.1824568   -2.1824568   -1.4313782   0.03553385   -2.1824568   0.75107867   426349 
 4494000   0.60399475   -2.1820493   -2.1820493   -1.4312354  0.033880221   -2.1820493   0.75081391   426349 
 4495000   0.60365864    -2.182291    -2.182291   -1.4318949  0.036825019    -2.182291   0.75039611   426349 
 4496000   0.60392033   -2.1828922   -2.1828922   -1.4321708  0.031553741   -2.1828922   0.75072141   426349 
 4497000   0.60279766   -2.1826005   -2.1826005   -1.4332746  0.031989666   -2.1826005   0.74932584   426349 
 4498000   0.60414263    -2.183645    -2.183645   -1.4326473  0.026594806    -2.183645   0.75099774   426349 
 4499000   0.60336217   -2.1826282   -2.1826282   -1.4326006  0.031663576   -2.1826282   0.75002757   426349 
 4500000   0.60527711   -2.1841869   -2.1841869   -1.4317789  0.041678327   -2.1841869   0.75240799   426349 
 4501000   0.60539002    -2.184699    -2.184699   -1.4321506  0.035830326    -2.184699   0.75254835   426349 
 4502000   0.60515373   -2.1845176   -2.1845176    -1.432263  0.036264312   -2.1845176   0.75225462   426349 
 4503000   0.60409479    -2.182982    -2.182982   -1.4320437   0.03597153    -2.182982   0.75093828   426349 
 4504000   0.60458208   -2.1841913   -2.1841913   -1.4326473  0.032411665   -2.1841913   0.75154401   426349 
 4505000   0.60522459   -2.1850865   -2.1850865   -1.4327438  0.032624668   -2.1850865    0.7523427   426349 
 4506000   0.60384995   -2.1831949   -2.1831949   -1.4325609  0.040827826   -2.1831949   0.75063391   426349 
 4507000   0.60392535   -2.1830422   -2.1830422   -1.4323146  0.038519437   -2.1830422   0.75072765   426349 
 4508000   0.60472666   -2.1846746   -2.1846746   -1.4329509  0.035296792   -2.1846746   0.75172373   426349 
 4509000   0.60380097    -2.183489    -2.183489   -1.4329159  0.033682153    -2.183489   0.75057303   426349 
 4510000   0.60244432   -2.1819417   -2.1819417   -1.4330551  0.041109773   -2.1819417    0.7488866   426349 
 4511000   0.60352008   -2.1832457   -2.1832457   -1.4330219  0.032772761   -2.1832457   0.75022387   426349 
 4512000    0.6041418   -2.1847191   -2.1847191   -1.4337224  0.032493531   -2.1847191   0.75099671   426349 
 4513000   0.60470666   -2.1847634   -2.1847634   -1.4330645  0.034229649   -2.1847634   0.75169888   426349 
 4514000   0.60412628   -2.1839621   -2.1839621   -1.4329847  0.032305362   -2.1839621   0.75097742   426349 
 4515000   0.60404098    -2.183283    -2.183283   -1.4324116  0.032853398    -2.183283   0.75087138   426349 
 4516000   0.60436191   -2.1839325   -2.1839325   -1.4326622  0.035199069   -2.1839325   0.75127032   426349 
 4517000   0.60419594    -2.183903    -2.183903    -1.432839  0.035352467    -2.183903   0.75106401   426349 
 4518000   0.60509819   -2.1848852   -2.1848852   -1.4326996  0.042357767   -2.1848852   0.75218558   426349 
 4519000   0.60489553   -2.1847828   -2.1847828   -1.4328491  0.033450285   -2.1847828   0.75193366   426349 
 4520000   0.60409392   -2.1835645   -2.1835645   -1.4326273  0.036477741   -2.1835645   0.75093719   426349 
 4521000   0.60474881   -2.1842228   -2.1842228   -1.4324715  0.037733198   -2.1842228   0.75175127   426349 
 4522000   0.60501377   -2.1848688   -2.1848688   -1.4327882  0.033065639   -2.1848688   0.75208064   426349 
 4523000   0.60437319    -2.183896    -2.183896   -1.4326117  0.034092839    -2.183896   0.75128434   426349 
 4524000   0.60425015   -2.1841105   -2.1841105   -1.4329792  0.036303276   -2.1841105   0.75113139   426349 
 4525000   0.60454869   -2.1834059   -2.1834059   -1.4319034  0.042909868   -2.1834059   0.75150251   426349 
 4526000   0.60415476   -2.1834855   -2.1834855   -1.4324727  0.035118405   -2.1834855   0.75101283   426349 
 4527000   0.60557105   -2.1849014   -2.1849014   -1.4321281  0.036901785   -2.1849014   0.75277338   426349 
 4528000   0.60505534   -2.1837396   -2.1837396   -1.4316073  0.040115905   -2.1837396   0.75213232   426349 
 4529000   0.60460475   -2.1833376   -2.1833376   -1.4317654  0.045259629   -2.1833376   0.75157219   426349 
 4530000    0.6046223   -2.1835113   -2.1835113   -1.4319173  0.038882854   -2.1835113   0.75159401   426349 
 4531000   0.60369411   -2.1818648   -2.1818648   -1.4314246  0.036976162   -2.1818648    0.7504402   426349 
 4532000   0.60544057   -2.1849366   -2.1849366   -1.4323254  0.035487422   -2.1849366   0.75261118   426349 
 4533000   0.60439468    -2.183587    -2.183587   -1.4322759  0.035955365    -2.183587   0.75131105   426349 
 4534000   0.60465839   -2.1842161   -2.1842161   -1.4325772  0.036936974   -2.1842161   0.75163887   426349 
 4535000   0.60403307   -2.1834576   -2.1834576    -1.432596  0.040590606   -2.1834576   0.75086155   426349 
 4536000   0.60450972   -2.1842418   -2.1842418   -1.4327877  0.038630551   -2.1842418   0.75145406   426349 
 4537000   0.60478954   -2.1841557   -2.1841557   -1.4323538  0.030749306   -2.1841557    0.7518019   426349 
 4538000    0.6045178   -2.1840545   -2.1840545   -1.4325904  0.034088028   -2.1840545   0.75146411   426349 
 4539000   0.60432641   -2.1834493   -2.1834493   -1.4322231  0.034390741   -2.1834493    0.7512262   426349 
 4540000   0.60298472   -2.1816739   -2.1816739   -1.4321156  0.040045292   -2.1816739   0.74955837   426349 
 4541000   0.60365959   -2.1816532   -2.1816532   -1.4312559  0.035201101   -2.1816532   0.75039728   426349 
 4542000   0.60437836   -2.1826349   -2.1826349   -1.4313442  0.034779875   -2.1826349   0.75129077   426349 
 4543000    0.6045712   -2.1819203   -2.1819203   -1.4303898  0.034814371   -2.1819203   0.75153049   426349 
 4544000   0.60456366   -2.1820326   -2.1820326   -1.4305115  0.032497787   -2.1820326   0.75152111   426349 
 4545000   0.60433514   -2.1816566   -2.1816566   -1.4304195  0.042308101   -2.1816566   0.75123705   426349 
 4546000   0.60492364   -2.1825899   -2.1825899   -1.4306213  0.034088336   -2.1825899    0.7519686   426349 
 4547000     0.604708   -2.1824238   -2.1824238   -1.4307233  0.036781418   -2.1824238   0.75170054   426349 
 4548000   0.60464121   -2.1825924   -2.1825924   -1.4309749  0.033796075   -2.1825924   0.75161752   426349 
 4549000   0.60519768    -2.182838    -2.182838   -1.4305287  0.029490234    -2.182838   0.75230926   426349 
 4550000   0.60430888   -2.1822975   -2.1822975   -1.4310931  0.035497196   -2.1822975    0.7512044   426349 
 4551000    0.6045173   -2.1824145   -2.1824145    -1.430951  0.030955681   -2.1824145   0.75146348   426349 
 4552000   0.60452602   -2.1830407   -2.1830407   -1.4315663  0.038661987   -2.1830407   0.75147433   426349 
 4553000   0.60367291   -2.1829443   -2.1829443   -1.4325305  0.032517215   -2.1829443   0.75041384   426349 
 4554000   0.60321344   -2.1826567   -2.1826567    -1.432814  0.038513522   -2.1826567   0.74984268   426349 
 4555000   0.60287109   -2.1821559   -2.1821559   -1.4327388  0.029850961   -2.1821559   0.74941711   426349 
 4556000   0.60467175   -2.1842714   -2.1842714   -1.4326159  0.038700306   -2.1842714   0.75165548   426349 
 4557000   0.60481415   -2.1839168   -2.1839168   -1.4320843  0.035529306   -2.1839168   0.75183249   426349 
 4558000    0.6044488   -2.1832153   -2.1832153    -1.431837  0.035023473   -2.1832153   0.75137833   426349 
 4559000   0.60601069   -2.1858773   -2.1858773   -1.4325574  0.039330525   -2.1858773   0.75331989   426349 
 4560000   0.60437765   -2.1838265   -2.1838265   -1.4325366  0.037186816   -2.1838265   0.75128989   426349 
 4561000   0.60528591   -2.1844124   -2.1844124   -1.4319935  0.042306129   -2.1844124   0.75241893   426349 
 4562000    0.6044293   -2.1836115   -2.1836115   -1.4322574   0.03610596   -2.1836115    0.7513541   426349 
 4563000   0.60520929   -2.1845309   -2.1845309   -1.4322072  0.041740985   -2.1845309   0.75232369   426349 
 4564000   0.60494458   -2.1838054   -2.1838054   -1.4318107  0.036468251   -2.1838054   0.75199463   426349 
 4565000   0.60482097   -2.1839951   -2.1839951   -1.4321541  0.038164926   -2.1839951   0.75184097   426349 
 4566000   0.60454789   -2.1840716   -2.1840716   -1.4325701  0.039701643   -2.1840716   0.75150151   426349 
 4567000   0.60446672   -2.1833962   -2.1833962   -1.4319956  0.036395531   -2.1833962   0.75140061   426349 
 4568000   0.60573997   -2.1848777   -2.1848777   -1.4318943  0.036724843   -2.1848777   0.75298337   426349 
 4569000   0.60384677   -2.1826316   -2.1826316   -1.4320017  0.036405617   -2.1826316   0.75062996   426349 
 4570000     0.605588   -2.1842956   -2.1842956   -1.4315012  0.037068894   -2.1842956   0.75279445   426349 
 4571000   0.60549621   -2.1840712   -2.1840712   -1.4313909  0.036618909   -2.1840712   0.75268036   426349 
 4572000   0.60486842   -2.1827135   -2.1827135   -1.4308135  0.038512725   -2.1827135   0.75189995   426349 
 4573000   0.60487707   -2.1823681   -2.1823681   -1.4304574   0.04232626   -2.1823681   0.75191071   426349 
 4574000   0.60399511    -2.181137    -2.181137   -1.4303227  0.036256399    -2.181137   0.75081436   426349 
 4575000   0.60482533   -2.1830278   -2.1830278   -1.4311814  0.034421246   -2.1830278    0.7518464   426349 
 4576000   0.60341541   -2.1819839   -2.1819839   -1.4318901  0.040074148   -2.1819839   0.75009375   426349 
 4577000    0.6029131   -2.1820133   -2.1820133   -1.4325439   0.02982654   -2.1820133   0.74946934   426349 
 4578000   0.60319272   -2.1816897   -2.1816897   -1.4318728  0.034412561   -2.1816897   0.74981693   426349 
 4579000   0.60408989   -2.1825887   -2.1825887   -1.4316566  0.031808364   -2.1825887   0.75093218   426349 
 4580000    0.6039951   -2.1824414   -2.1824414   -1.4316271  0.032387972   -2.1824414   0.75081435   426349 
 4581000   0.60403882   -2.1827089   -2.1827089   -1.4318402  0.034861417   -2.1827089    0.7508687   426349 
 4582000   0.60343942     -2.18113     -2.18113   -1.4310064  0.042629529     -2.18113    0.7501236   426349 
 4583000   0.60444344   -2.1817508   -2.1817508   -1.4303791  0.032628267   -2.1817508   0.75137167   426349 
 4584000   0.60432963   -2.1815725   -2.1815725   -1.4303423  0.035465817   -2.1815725    0.7512302   426349 
 4585000   0.60536925   -2.1830507   -2.1830507   -1.4305282  0.031839014   -2.1830507   0.75252252   426349 
 4586000   0.60485811   -2.1822786   -2.1822786   -1.4303914  0.039102334   -2.1822786   0.75188715   426349 
 4587000   0.60532415    -2.182371    -2.182371   -1.4299046  0.038357643    -2.182371   0.75246647   426349 
 4588000   0.60586463   -2.1836613   -2.1836613   -1.4305229  0.035312256   -2.1836613   0.75313833   426349 
 4589000   0.60462777   -2.1823183   -2.1823183   -1.4307175  0.036141445   -2.1823183   0.75160081   426349 
 4590000   0.60428613   -2.1820648   -2.1820648   -1.4308886  0.038121823   -2.1820648   0.75117613   426349 
 4591000   0.60445722   -2.1823629   -2.1823629   -1.4309741   0.04205002   -2.1823629    0.7513888   426349 
 4592000   0.60464109    -2.183602    -2.183602   -1.4319847  0.033227632    -2.183602   0.75161737   426349 
 4593000   0.60419198   -2.1832716   -2.1832716   -1.4322125  0.032718121   -2.1832716   0.75105909   426349 
 4594000    0.6032075   -2.1821006   -2.1821006   -1.4322653  0.046079589   -2.1821006    0.7498353   426349 
 4595000   0.60392389    -2.182839    -2.182839   -1.4321132  0.029543769    -2.182839   0.75072583   426349 
 4596000   0.60471883   -2.1835792   -2.1835792   -1.4318652   0.04076998   -2.1835792   0.75171401   426349 
 4597000   0.60346727   -2.1826807   -2.1826807   -1.4325224  0.027712007   -2.1826807   0.75015822   426349 
 4598000   0.60364702   -2.1824016   -2.1824016     -1.43202  0.036563248   -2.1824016   0.75038166   426349 
 4599000   0.60460289    -2.183195    -2.183195   -1.4316251  0.034181423    -2.183195   0.75156988   426349 
 4600000   0.60407785   -2.1832396   -2.1832396   -1.4323224  0.031330458   -2.1832396   0.75091722   426349 
 4601000   0.60442775   -2.1839854   -2.1839854   -1.4326332  0.039699959   -2.1839854   0.75135217   426349 
 4602000   0.60345515   -2.1823719   -2.1823719   -1.4322287   0.03618627   -2.1823719   0.75014314   426349 
 4603000   0.60494474   -2.1844239   -2.1844239    -1.432429  0.033210377   -2.1844239   0.75199483   426349 
 4604000   0.60391033   -2.1833537   -2.1833537   -1.4326447  0.034310215   -2.1833537   0.75070897   426349 
 4605000   0.60403513    -2.183744    -2.183744   -1.4328799  0.033038482    -2.183744   0.75086411   426349 
 4606000   0.60541851    -2.185256    -2.185256   -1.4326722  0.035991168    -2.185256   0.75258376   426349 
 4607000   0.60526101   -2.1860985   -2.1860985   -1.4337105   0.03621841   -2.1860985   0.75238798   426349 
 4608000   0.60450027   -2.1848098   -2.1848098   -1.4333675  0.036852537   -2.1848098   0.75144232   426349 
 4609000   0.60399219   -2.1847943   -2.1847943   -1.4339835  0.033384505   -2.1847943   0.75081073   426349 
 4610000   0.60407269    -2.184328    -2.184328   -1.4334172  0.028046955    -2.184328    0.7509108   426349 
 4611000   0.60381651   -2.1843058   -2.1843058   -1.4337134  0.038398331   -2.1843058   0.75059235   426349 
 4612000   0.60320743   -2.1838386   -2.1838386   -1.4340033  0.033616231   -2.1838386   0.74983522   426349 
 4613000   0.60484869   -2.1856129   -2.1856129   -1.4337375  0.040026061   -2.1856129   0.75187543   426349 
 4614000   0.60467499   -2.1851541   -2.1851541   -1.4334946   0.04036293   -2.1851541   0.75165951   426349 
 4615000    0.6042148   -2.1850256   -2.1850256   -1.4339381  0.034428936   -2.1850256   0.75108746   426349 
 4616000   0.60521215    -2.185569    -2.185569   -1.4332417  0.042510484    -2.185569   0.75232724   426349 
 4617000   0.60502602   -2.1847823   -2.1847823   -1.4326865  0.037494109   -2.1847823   0.75209587   426349 
 4618000   0.60496728   -2.1842389   -2.1842389    -1.432216  0.041366033   -2.1842389   0.75202285   426349 
 4619000    0.6045814   -2.1839933   -2.1839933   -1.4324502  0.038874872   -2.1839933   0.75154317   426349 
 4620000   0.60362701    -2.183958    -2.183958   -1.4336012  0.035813361    -2.183958   0.75035679   426349 
 4621000    0.6041033    -2.184032    -2.184032   -1.4330832  0.034987969    -2.184032   0.75094885   426349 
 4622000   0.60381599   -2.1840781   -2.1840781   -1.4334864   0.03561877   -2.1840781    0.7505917   426349 
 4623000   0.60361223   -2.1835528   -2.1835528   -1.4332144  0.032462632   -2.1835528   0.75033842   426349 
 4624000   0.60499171   -2.1847896   -2.1847896   -1.4327363  0.035769576   -2.1847896   0.75205321   426349 
 4625000   0.60463464   -2.1841019   -2.1841019   -1.4324925  0.029955123   -2.1841019   0.75160934   426349 
 4626000   0.60404549   -2.1833513   -2.1833513   -1.4324743  0.035234225   -2.1833513   0.75087698   426349 
 4627000   0.60422162   -2.1833003   -2.1833003   -1.4322044  0.029347054   -2.1833003   0.75109593   426349 
 4628000   0.60325079   -2.1831582   -2.1831582   -1.4332691   0.02802207   -2.1831582   0.74988911   426349 
 4629000   0.60223931   -2.1818919   -2.1818919   -1.4332601  0.034335882   -2.1818919   0.74863176   426349 
 4630000   0.60456431   -2.1851786   -2.1851786   -1.4336567  0.030173274   -2.1851786   0.75152193   426349 
 4631000   0.60319963   -2.1839346   -2.1839346   -1.4341091   0.03001468   -2.1839346   0.74982551   426349 
 4632000   0.60276574   -2.1829357   -2.1829357   -1.4336496  0.027822703   -2.1829357   0.74928616   426349 
 4633000   0.60330675   -2.1837895   -2.1837895   -1.4338309  0.038328649   -2.1837895   0.74995868   426349 
 4634000   0.60362587   -2.1830466   -2.1830466   -1.4326912  0.034500363   -2.1830466   0.75035536   426349 
 4635000   0.60474144   -2.1854344   -2.1854344   -1.4336923  0.039575425   -2.1854344   0.75174211   426349 
 4636000   0.60452595   -2.1849389   -2.1849389   -1.4334646  0.037855298   -2.1849389   0.75147423   426349 
 4637000   0.60443476   -2.1847887   -2.1847887   -1.4334278  0.037569866   -2.1847887   0.75136088   426349 
 4638000   0.60493943   -2.1859341   -2.1859341   -1.4339459  0.034115648   -2.1859341   0.75198823   426349 
 4639000   0.60551214   -2.1868141   -2.1868141   -1.4341139  0.030493026   -2.1868141   0.75270015   426349 
 4640000   0.60423975   -2.1854354   -2.1854354    -1.434317  0.035986309   -2.1854354   0.75111847   426349 
 4641000   0.60436067   -2.1860664   -2.1860664   -1.4347976  0.037350298   -2.1860664   0.75126878   426349 
 4642000   0.60431122   -2.1857498   -2.1857498   -1.4345425  0.033187079   -2.1857498   0.75120731   426349 
 4643000   0.60625042   -2.1894414   -2.1894414   -1.4358235  0.035196929   -2.1894414   0.75361789   426349 
 4644000   0.60508715   -2.1871711   -2.1871711   -1.4349992  0.039002132   -2.1871711   0.75217186   426349 
 4645000   0.60442342    -2.186373    -2.186373   -1.4350262   0.04388765    -2.186373   0.75134679   426349 
 4646000   0.60390089   -2.1865445   -2.1865445   -1.4358473  0.036262135   -2.1865445   0.75069724   426349 
 4647000   0.60470502   -2.1880579   -2.1880579    -1.436361  0.031863891   -2.1880579   0.75169684   426349 
 4648000   0.60413286   -2.1871584   -2.1871584   -1.4361728  0.043480387   -2.1871584   0.75098559   426349 
 4649000    0.6048989   -2.1885049   -2.1885049    -1.436567  0.039691649   -2.1885049   0.75193784   426349 
 4650000   0.60421277    -2.187258    -2.187258   -1.4361731  0.033732804    -2.187258   0.75108493   426349 
 4651000   0.60356523   -2.1862442   -2.1862442   -1.4359642  0.034037295   -2.1862442   0.75027998   426349 
 4652000   0.60573374   -2.1890363   -2.1890363   -1.4360607   0.03484698   -2.1890363   0.75297562   426349 
 4653000   0.60571395   -2.1879247   -2.1879247   -1.4349737  0.037461409   -2.1879247   0.75295102   426349 
 4654000   0.60408412   -2.1861889   -2.1861889   -1.4352639  0.035049111   -2.1861889     0.750925   426349 
 4655000    0.6047786    -2.186652    -2.186652   -1.4348637  0.037529717    -2.186652   0.75178831   426349 
 4656000   0.60461806    -2.186128    -2.186128   -1.4345393  0.032552648    -2.186128   0.75158874   426349 
 4657000   0.60469192   -2.1856579   -2.1856579   -1.4339774  0.037841613   -2.1856579   0.75168055   426349 
 4658000   0.60430897   -2.1863723   -2.1863723   -1.4351677  0.041307744   -2.1863723   0.75120452   426349 
 4659000   0.60417448   -2.1859952   -2.1859952   -1.4349579  0.033208583   -2.1859952   0.75103733   426349 
 4660000   0.60415606   -2.1859369   -2.1859369   -1.4349225  0.030594578   -2.1859369   0.75101444   426349 
 4661000   0.60382883   -2.1842023   -2.1842023   -1.4335946  0.036208607   -2.1842023   0.75060766   426349 
 4662000   0.60237202   -2.1828938   -2.1828938   -1.4340971  0.038986316   -2.1828938   0.74879673   426349 
 4663000   0.60366595   -2.1843327   -2.1843327   -1.4339275  0.026371671   -2.1843327   0.75040519   426349 
 4664000   0.60329197   -2.1841454   -2.1841454   -1.4342051  0.033414005   -2.1841454   0.74994031   426349 
 4665000   0.60353385   -2.1846922   -2.1846922   -1.4344513  0.033738136   -2.1846922   0.75024098   426349 
 4666000   0.60346412   -2.1840865   -2.1840865   -1.4339322   0.04169915   -2.1840865    0.7501543   426349 
 4667000   0.60395597   -2.1845104   -2.1845104   -1.4337447  0.033567987   -2.1845104   0.75076571   426349 
 4668000   0.60269253   -2.1830238   -2.1830238   -1.4338287  0.025159487   -2.1830238   0.74919515   426349 
 4669000   0.60351671    -2.184285    -2.184285   -1.4340653   0.03641181    -2.184285   0.75021967   426349 
 4670000   0.60368327   -2.1833347   -2.1833347    -1.432908  0.036694523   -2.1833347   0.75042672   426349 
 4671000   0.60308136   -2.1831882   -2.1831882   -1.4335097  0.031717564   -2.1831882    0.7496785   426349 
 4672000   0.60340277   -2.1837898   -2.1837898   -1.4337117  0.036383486   -2.1837898   0.75007803   426349 
 4673000    0.6042437   -2.1843193   -2.1843193   -1.4331959  0.038080788   -2.1843193   0.75112338   426349 
 4674000   0.60408802   -2.1850639   -2.1850639   -1.4341341  0.030548678   -2.1850639   0.75092985   426349 
 4675000   0.60391457   -2.1844727   -2.1844727   -1.4337585  0.035875155   -2.1844727   0.75071425   426349 
 4676000   0.60428672   -2.1852758   -2.1852758    -1.434099  0.036372483   -2.1852758   0.75117686   426349 
 4677000   0.60464749   -2.1854847   -2.1854847   -1.4338594  0.036269508   -2.1854847   0.75162532   426349 
 4678000    0.6041045   -2.1851799   -2.1851799   -1.4342296  0.037046964   -2.1851799   0.75095034   426349 
 4679000   0.60441632   -2.1850566   -2.1850566   -1.4337187  0.032863396   -2.1850566   0.75133796   426349 
 4680000   0.60469391   -2.1858417   -2.1858417   -1.4341587  0.036429375   -2.1858417   0.75168302   426349 
 4681000   0.60458668   -2.1851577   -2.1851577    -1.433608  0.036655146   -2.1851577   0.75154973   426349 
 4682000   0.60454466   -2.1850768   -2.1850768   -1.4335793  0.036200909   -2.1850768    0.7514975   426349 
 4683000   0.60588465   -2.1861345   -2.1861345   -1.4329713  0.044305403   -2.1861345   0.75316321   426349 
 4684000   0.60467897   -2.1849659   -2.1849659   -1.4333015  0.037856161   -2.1849659   0.75166445   426349 
 4685000   0.60496984   -2.1855608   -2.1855608   -1.4335348   0.03904608   -2.1855608   0.75202603   426349 
 4686000   0.60460216   -2.1856071   -2.1856071   -1.4340382  0.039446918   -2.1856071   0.75156897   426349 
 4687000   0.60447152   -2.1857974   -2.1857974   -1.4343908  0.034259776   -2.1857974   0.75140657   426349 
 4688000   0.60334997   -2.1844514   -2.1844514    -1.434439  0.035732394   -2.1844514   0.75001241   426349 
 4689000   0.60437462   -2.1865845   -2.1865845   -1.4352984  0.037015628   -2.1865845   0.75128612   426349 
 4690000    0.6040205   -2.1856095   -2.1856095   -1.4347636  0.036409999   -2.1856095   0.75084592   426349 
 4691000   0.60325092     -2.18423     -2.18423   -1.4343407   0.03868454     -2.18423   0.74988927   426349 
 4692000     0.603966   -2.1847002   -2.1847002    -1.433922  0.033368044   -2.1847002   0.75077818   426349 
 4693000   0.60365882   -2.1839343   -2.1839343    -1.433538  0.037285617   -2.1839343   0.75039633   426349 
 4694000   0.60470603   -2.1856065   -2.1856065   -1.4339084  0.037847619   -2.1856065   0.75169809   426349 
 4695000   0.60374699   -2.1844972   -2.1844972   -1.4339912  0.032730313   -2.1844972   0.75050593   426349 
 4696000   0.60277784   -2.1841858   -2.1841858   -1.4348846  0.037954857   -2.1841858    0.7493012   426349 
 4697000   0.60236116   -2.1833921   -2.1833921   -1.4346089  0.028129947   -2.1833921   0.74878323   426349 
 4698000   0.60307043    -2.184893    -2.184893   -1.4352281  0.032625881    -2.184893   0.74966491   426349 
 4699000   0.60312084   -2.1845757   -2.1845757   -1.4348482  0.034656165   -2.1845757   0.74972758   426349 
 4700000   0.60380389   -2.1857512   -2.1857512   -1.4351745  0.034889088   -2.1857512   0.75057666   426349 
 4701000   0.60322675    -2.185295    -2.185295   -1.4354358  0.034235452    -2.185295   0.74985923   426349 
 4702000   0.60382363   -2.1852953   -2.1852953   -1.4346941  0.035413306   -2.1852953   0.75060119   426349 
 4703000   0.60475657    -2.186484    -2.186484   -1.4347231  0.032174309    -2.186484   0.75176091   426349 
 4704000   0.60419036   -2.1851865   -2.1851865   -1.4341294  0.034039831   -2.1851865   0.75105708   426349 
 4705000   0.60565936    -2.187762    -2.187762   -1.4348789  0.030337862    -2.187762   0.75288316   426349 
 4706000   0.60512195   -2.1875241   -2.1875241   -1.4353089   0.03822651   -2.1875241   0.75221512   426349 
 4707000   0.60463549   -2.1867386   -2.1867386   -1.4351282  0.037282192   -2.1867386   0.75161041   426349 
 4708000   0.60578422   -2.1877197   -2.1877197   -1.4346814  0.036366936   -2.1877197   0.75303837   426349 
 4709000   0.60523115   -2.1877684   -2.1877684   -1.4354175   0.03603184   -2.1877684   0.75235086   426349 
 4710000   0.60435065   -2.1869543   -2.1869543    -1.435698  0.036758194   -2.1869543   0.75125632   426349 
 4711000   0.60437991   -2.1866174   -2.1866174   -1.4353247  0.036290141   -2.1866174    0.7512927   426349 
 4712000   0.60398137   -2.1871394   -2.1871394   -1.4363421  0.038172019   -2.1871394   0.75079728   426349 
 4713000   0.60413932    -2.187075    -2.187075   -1.4360814  0.036865198    -2.187075   0.75099363   426349 
 4714000   0.60415169   -2.1868362   -2.1868362   -1.4358272  0.038325525   -2.1868362   0.75100901   426349 
 4715000   0.60583214   -2.1894545   -2.1894545   -1.4363566  0.031451777   -2.1894545   0.75309794   426349 
 4716000   0.60452598   -2.1873573   -2.1873573    -1.435883  0.035074902   -2.1873573   0.75147428   426349 
 4717000   0.60500686    -2.187842    -2.187842     -1.43577  0.045520055    -2.187842   0.75207205   426349 
 4718000     0.604959   -2.1878751   -2.1878751   -1.4358626  0.039190321   -2.1878751   0.75201256   426349 
 4719000   0.60496612   -2.1882903   -2.1882903   -1.4362689  0.032174661   -2.1882903   0.75202141   426349 
 4720000   0.60474376   -2.1875559   -2.1875559   -1.4358109  0.039946874   -2.1875559   0.75174499   426349 
 4721000   0.60479809   -2.1878218   -2.1878218   -1.4360093  0.026883389   -2.1878218   0.75181253   426349 
 4722000   0.60377284   -2.1864903   -2.1864903   -1.4359523  0.035826867   -2.1864903   0.75053806   426349 
 4723000   0.60379642    -2.186231    -2.186231   -1.4356636  0.043043527    -2.186231   0.75056737   426349 
 4724000   0.60422224   -2.1860213   -2.1860213   -1.4349245  0.038155403   -2.1860213    0.7510967   426349 
 4725000   0.60442982   -2.1858151   -2.1858151   -1.4344604  0.034148079   -2.1858151   0.75135474   426349 
 4726000   0.60405551   -2.1854645   -2.1854645   -1.4345751  0.039117472   -2.1854645   0.75088944   426349 
 4727000   0.60315145   -2.1845529   -2.1845529   -1.4347872   0.03544223   -2.1845529   0.74976563   426349 
 4728000   0.60366684   -2.1843558   -2.1843558   -1.4339495  0.037393488   -2.1843558   0.75040629   426349 
 4729000   0.60387855   -2.1841066   -2.1841066   -1.4334371  0.031964166   -2.1841066   0.75066946   426349 
 4730000   0.60340438   -2.1839724   -2.1839724   -1.4338924  0.029942916   -2.1839724   0.75008004   426349 
 4731000   0.60482931   -2.1850746   -2.1850746   -1.4332233  0.038304976   -2.1850746   0.75185134   426349 
 4732000   0.60426637   -2.1840332   -2.1840332   -1.4328817  0.037103406   -2.1840332   0.75115156   426349 
 4733000   0.60433296   -2.1844566   -2.1844566   -1.4332223  0.030873005   -2.1844566   0.75123434   426349 
 4734000   0.60529893   -2.1854196   -2.1854196   -1.4329845  0.034349088   -2.1854196   0.75243512   426349 
 4735000   0.60476902   -2.1846973   -2.1846973   -1.4329209  0.026090152   -2.1846973   0.75177639   426349 
 4736000   0.60397205   -2.1842898   -2.1842898   -1.4335041   0.02918214   -2.1842898    0.7507857   426349 
 4737000   0.60414313   -2.1842359   -2.1842359   -1.4332376  0.034016901   -2.1842359   0.75099837   426349 
 4738000    0.6042143   -2.1843387   -2.1843387   -1.4332518  0.034276234   -2.1843387   0.75108683   426349 
 4739000   0.60418553   -2.1845163   -2.1845163   -1.4334652  0.034312191   -2.1845163   0.75105107   426349 
 4740000   0.60360177   -2.1848783   -2.1848783   -1.4345529  0.037054884   -2.1848783   0.75032541   426349 
 4741000   0.60357496   -2.1841202   -2.1841202   -1.4338281  0.036481955   -2.1841202   0.75029208   426349 
 4742000   0.60502923   -2.1863755   -2.1863755   -1.4342756  0.038671285   -2.1863755   0.75209986   426349 
 4743000   0.60433622   -2.1860152   -2.1860152   -1.4347768  0.034791946   -2.1860152   0.75123839   426349 
 4744000    0.6044261   -2.1859069   -2.1859069   -1.4345568  0.038444786   -2.1859069   0.75135011   426349 
 4745000   0.60390009   -2.1848576   -2.1848576   -1.4341614  0.036692992   -2.1848576   0.75069624   426349 
 4746000   0.60570725   -2.1874018   -2.1874018   -1.4344592  0.038874491   -2.1874018   0.75294269   426349 
 4747000    0.6052086   -2.1875393   -2.1875393   -1.4352165  0.043946848   -2.1875393   0.75232283   426349 
 4748000   0.60511896   -2.1870167   -2.1870167   -1.4348053  0.034787796   -2.1870167    0.7522114   426349 
 4749000   0.60451563   -2.1862487   -2.1862487   -1.4347873  0.040774978   -2.1862487   0.75146141   426349 
 4750000   0.60557788   -2.1872175   -2.1872175   -1.4344357  0.028323842   -2.1872175   0.75278187   426349 
 4751000    0.6049149   -2.1871217   -2.1871217   -1.4351639  0.038883338   -2.1871217   0.75195774   426349 
 4752000   0.60395701    -2.186525    -2.186525    -1.435758  0.038678171    -2.186525   0.75076701   426349 
 4753000   0.60418426   -2.1861971   -2.1861971   -1.4351476  0.038531492   -2.1861971    0.7510495   426349 
 4754000   0.60330791   -2.1857039   -2.1857039   -1.4357438  0.038219068   -2.1857039   0.74996011   426349 
 4755000   0.60444651    -2.187078    -2.187078   -1.4357025  0.036913758    -2.187078   0.75137549   426349 
 4756000   0.60283747    -2.185274    -2.185274   -1.4358987  0.044989417    -2.185274   0.74937532   426349 
 4757000   0.60431975   -2.1861123   -2.1861123   -1.4348944   0.03424579   -2.1861123   0.75121791   426349 
 4758000   0.60408927   -2.1859551   -2.1859551   -1.4350237  0.033964865   -2.1859551   0.75093141   426349 
 4759000   0.60380799   -2.1858111   -2.1858111   -1.4352294   0.03905967   -2.1858111   0.75058176   426349 
 4760000   0.60593023   -2.1881731   -2.1881731   -1.4349533  0.031102437   -2.1881731   0.75321988   426349 
 4761000     0.604191   -2.1860471   -2.1860471   -1.4349892  0.033027001   -2.1860471   0.75105787   426349 
 4762000   0.60391159   -2.1848556   -2.1848556   -1.4341451  0.040498094   -2.1848556   0.75071054   426349 
 4763000    0.6039349   -2.1853531   -2.1853531   -1.4346136  0.028640415   -2.1853531   0.75073951   426349 
 4764000   0.60431569    -2.186313    -2.186313   -1.4351002  0.033700127    -2.186313   0.75121286   426349 
 4765000   0.60337526   -2.1854516   -2.1854516   -1.4354077  0.041295422   -2.1854516   0.75004384   426349 
 4766000   0.60358603   -2.1852583   -2.1852583   -1.4349525  0.039709931   -2.1852583   0.75030584   426349 
 4767000   0.60462312   -2.1868816   -2.1868816   -1.4352865  0.036241788   -2.1868816   0.75159503   426349 
 4768000   0.60531539   -2.1864721   -2.1864721   -1.4340165  0.029251495   -2.1864721   0.75245558   426349 
 4769000   0.60403578   -2.1855938   -2.1855938   -1.4347289  0.031390448   -2.1855938   0.75086492   426349 
 4770000   0.60506464   -2.1868041   -2.1868041   -1.4346602  0.028784809   -2.1868041   0.75214388   426349 
 4771000   0.60365149   -2.1856493   -2.1856493   -1.4352621  0.035362762   -2.1856493   0.75038721   426349 
 4772000    0.6026226   -2.1847093   -2.1847093   -1.4356011   0.03486996   -2.1847093   0.74910822   426349 
 4773000   0.60444758    -2.187392    -2.187392   -1.4360151  0.041007274    -2.187392   0.75137682   426349 
 4774000   0.60408058   -2.1871119   -2.1871119   -1.4361913  0.033515058   -2.1871119   0.75092061   426349 
 4775000   0.60297487   -2.1859308   -2.1859308   -1.4363847  0.030629111   -2.1859308   0.74954612   426349 
 4776000   0.60509225   -2.1884211   -2.1884211   -1.4362429  0.035982912   -2.1884211    0.7521782   426349 
 4777000   0.60393112   -2.1869442   -2.1869442   -1.4362093  0.038002796   -2.1869442   0.75073481   426349 
 4778000   0.60370424   -2.1861781   -2.1861781   -1.4357253  0.036454614   -2.1861781   0.75045279   426349 
 4779000   0.60453689   -2.1869211   -2.1869211   -1.4354332  0.038180868   -2.1869211   0.75148784   426349 
 4780000   0.60500361   -2.1876931   -2.1876931   -1.4356251  0.032449938   -2.1876931     0.752068   426349 
 4781000   0.60368997   -2.1858251   -2.1858251   -1.4353901  0.032386094   -2.1858251   0.75043505   426349 
 4782000   0.60424547   -2.1875434   -2.1875434   -1.4364178  0.030351894   -2.1875434   0.75112558   426349 
 4783000   0.60506902   -2.1875881   -2.1875881   -1.4354388  0.041892322   -2.1875881   0.75214931   426349 
 4784000   0.60444244   -2.1872592   -2.1872592   -1.4358888  0.043220365   -2.1872592   0.75137043   426349 
 4785000   0.60402446   -2.1864745   -2.1864745   -1.4356236   0.04093607   -2.1864745   0.75085085   426349 
 4786000   0.60534251    -2.187155    -2.187155   -1.4346657   0.04306116    -2.187155   0.75248929   426349 
 4787000    0.6050386   -2.1871193   -2.1871193   -1.4350078  0.037211251   -2.1871193    0.7521115   426349 
 4788000   0.60458628   -2.1863229   -2.1863229   -1.4347737  0.034970573   -2.1863229   0.75154924   426349 
 4789000   0.60547679   -2.1880715   -2.1880715   -1.4354153  0.037117033   -2.1880715   0.75265621   426349 
 4790000   0.60501194   -2.1877645   -2.1877645   -1.4356861   0.03773984   -2.1877645   0.75207836   426349 
 4791000   0.60407379   -2.1864678   -2.1864678   -1.4355557  0.040112657   -2.1864678   0.75091216   426349 
 4792000   0.60568905   -2.1876856   -2.1876856   -1.4347656  0.040960173   -2.1876856   0.75292007   426349 
 4793000   0.60558691    -2.187076    -2.187076   -1.4342829  0.034931813    -2.187076    0.7527931   426349 
 4794000   0.60446396    -2.185571    -2.185571   -1.4341738  0.042022694    -2.185571   0.75139718   426349 
 4795000    0.6044733   -2.1859989   -2.1859989   -1.4345901  0.030808047   -2.1859989   0.75140879   426349 
 4796000   0.60397098   -2.1853774   -2.1853774   -1.4345931  0.035045575   -2.1853774   0.75078437   426349 
 4797000   0.60352254   -2.1854462   -2.1854462   -1.4352193  0.033861788   -2.1854462   0.75022692   426349 
 4798000   0.60360693   -2.1851547   -2.1851547   -1.4348229   0.02696977   -2.1851547   0.75033182   426349 
 4799000   0.60214837   -2.1842277   -2.1842277    -1.435709  0.036792437   -2.1842277   0.74851872   426349 
 4800000   0.60262337   -2.1853821   -2.1853821    -1.436273  0.037115565   -2.1853821   0.74910918   426349 
 4801000   0.60326184   -2.1855613   -2.1855613   -1.4356584  0.037612716   -2.1855613   0.74990284   426349 
 4802000   0.60331663   -2.1851922   -2.1851922   -1.4352212  0.042012056   -2.1851922   0.74997096   426349 
 4803000   0.60377729    -2.184937    -2.184937   -1.4343934  0.038829713    -2.184937    0.7505436   426349 
 4804000   0.60346921   -2.1843817   -2.1843817   -1.4342211  0.039918985   -2.1843817   0.75016063   426349 
 4805000   0.60535821   -2.1862166   -2.1862166   -1.4337077  0.031165843   -2.1862166    0.7525088   426349 
 4806000   0.60506612   -2.1852004   -2.1852004   -1.4330547  0.033712362   -2.1852004   0.75214571   426349 
 4807000    0.6040995   -2.1839472   -2.1839472   -1.4330031  0.035196105   -2.1839472   0.75094412   426349 
 4808000   0.60572842   -2.1855042   -2.1855042   -1.4325352  0.038248997   -2.1855042     0.752969   426349 
 4809000   0.60576885   -2.1865036   -2.1865036   -1.4334843   0.03999665   -2.1865036   0.75301926   426349 
 4810000        0.605   -2.1856858   -2.1856858   -1.4336223  0.030639551   -2.1856858   0.75206352   426349 
 4811000   0.60393816   -2.1847164   -2.1847164   -1.4339728  0.034255486   -2.1847164   0.75074357   426349 
 4812000   0.60300959   -2.1843096   -2.1843096   -1.4347203  0.035306255   -2.1843096   0.74958929   426349 
 4813000   0.60276865   -2.1845081   -2.1845081   -1.4352183  0.033109595   -2.1845081   0.74928978   426349 
 4814000   0.60367973   -2.1859426   -2.1859426   -1.4355203  0.030319695   -2.1859426   0.75042232   426349 
 4815000   0.60361036   -2.1856894   -2.1856894   -1.4353533  0.032385036   -2.1856894   0.75033609   426349 
 4816000   0.60284117   -2.1850991   -2.1850991   -1.4357192  0.036305957   -2.1850991   0.74937992   426349 
 4817000   0.60446339   -2.1862689   -2.1862689   -1.4348725  0.039050067   -2.1862689   0.75139647   426349 
 4818000   0.60322834    -2.184797    -2.184797   -1.4349358  0.041733692    -2.184797   0.74986121   426349 
 4819000   0.60415755   -2.1861194   -2.1861194   -1.4351031  0.040037817   -2.1861194   0.75101628   426349 
 4820000   0.60439495   -2.1860975   -2.1860975   -1.4347861  0.044200913   -2.1860975   0.75131139   426349 
 4821000   0.60462214   -2.1855081   -2.1855081   -1.4339143  0.035827102   -2.1855081   0.75159381   426349 
 4822000   0.60349854   -2.1837312   -2.1837312   -1.4335341  0.041196282   -2.1837312   0.75019709   426349 
 4823000   0.60405343   -2.1859193   -2.1859193   -1.4350324  0.037222717   -2.1859193   0.75088685   426349 
 4824000   0.60442371   -2.1868351   -2.1868351    -1.435488  0.038825793   -2.1868351   0.75134714   426349 
 4825000   0.60416174   -2.1866689   -2.1866689   -1.4356474  0.040927505   -2.1866689    0.7510215   426349 
 4826000   0.60405658     -2.18584     -2.18584   -1.4349492  0.042376155     -2.18584   0.75089077   426349 
 4827000   0.60543679   -2.1873352   -2.1873352   -1.4347287  0.027631686   -2.1873352   0.75260649   426349 
 4828000   0.60514152   -2.1868839   -2.1868839   -1.4346444  0.034234881   -2.1868839   0.75223944   426349 
 4829000   0.60418161   -2.1854916   -2.1854916   -1.4344454  0.034882739   -2.1854916    0.7510462   426349 
 4830000   0.60369773   -2.1852271   -2.1852271   -1.4347824  0.038055438   -2.1852271    0.7504447   426349 
 4831000     0.604433   -2.1855471   -2.1855471   -1.4341884  0.047065382   -2.1855471    0.7513587   426349 
 4832000   0.60507329   -2.1870511   -2.1870511   -1.4348965  0.035907879   -2.1870511   0.75215463   426349 
 4833000   0.60376553   -2.1859829   -2.1859829   -1.4354539  0.040317913   -2.1859829   0.75052897   426349 
 4834000    0.6055007   -2.1864923   -2.1864923   -1.4338064  0.039367549   -2.1864923   0.75268593   426349 
 4835000   0.60547654   -2.1867276   -2.1867276   -1.4340717  0.031167678   -2.1867276    0.7526559   426349 
 4836000   0.60432283   -2.1854968   -2.1854968   -1.4342751  0.039267237   -2.1854968   0.75122174   426349 
 4837000   0.60296826   -2.1840695   -2.1840695   -1.4345316   0.03706318   -2.1840695   0.74953791   426349 
 4838000   0.60486583   -2.1861342   -2.1861342   -1.4342375  0.033108108   -2.1861342   0.75189673   426349 
 4839000   0.60475898    -2.185813    -2.185813   -1.4340491  0.032571904    -2.185813   0.75176392   426349 
 4840000   0.60403324    -2.185009    -2.185009   -1.4341473  0.031229194    -2.185009   0.75086176   426349 
 4841000   0.60426261   -2.1845139   -2.1845139    -1.433367  0.037756662   -2.1845139   0.75114689   426349 
 4842000   0.60411703   -2.1838629   -2.1838629    -1.432897  0.031806597   -2.1838629   0.75096591   426349 
 4843000   0.60400944   -2.1838647   -2.1838647   -1.4330325  0.035181524   -2.1838647   0.75083217   426349 
 4844000   0.60354239   -2.1839181   -2.1839181   -1.4336665  0.037794413   -2.1839181    0.7502516   426349 
 4845000   0.60332655    -2.183076    -2.183076   -1.4330927  0.034896208    -2.183076   0.74998329   426349 
 4846000    0.6037627   -2.1833123   -2.1833123   -1.4327868  0.033704998   -2.1833123   0.75052546   426349 
 4847000   0.60323273     -2.18263     -2.18263   -1.4327633  0.040368835     -2.18263   0.74986666   426349 
 4848000   0.60428029   -2.1841262   -2.1841262   -1.4329574  0.031520279   -2.1841262   0.75116887   426349 
 4849000   0.60379014   -2.1841814   -2.1841814   -1.4336219  0.036132123   -2.1841814   0.75055956   426349 
 4850000   0.60311261    -2.183339    -2.183339   -1.4336217  0.033836323    -2.183339   0.74971734   426349 
 4851000   0.60371658   -2.1838196   -2.1838196   -1.4333515  0.035808985   -2.1838196   0.75046813   426349 
 4852000   0.60371239   -2.1836354   -2.1836354   -1.4331725  0.032426277   -2.1836354   0.75046292   426349 
 4853000   0.60352328   -2.1843705   -2.1843705   -1.4341427  0.033959317   -2.1843705   0.75022784   426349 
 4854000   0.60458926   -2.1854696   -2.1854696   -1.4339166  0.034362676   -2.1854696   0.75155294   426349 
 4855000    0.6043594   -2.1853224   -2.1853224   -1.4340552  0.032381224   -2.1853224   0.75126721   426349 
 4856000   0.60304937   -2.1837692   -2.1837692   -1.4341304  0.037399388   -2.1837692   0.74963873   426349 
 4857000   0.60490744   -2.1864222   -2.1864222   -1.4344738  0.042543511   -2.1864222   0.75194846   426349 
 4858000   0.60397749    -2.185186    -2.185186   -1.4343935  0.036191923    -2.185186   0.75079246   426349 
 4859000   0.60560058    -2.186624    -2.186624   -1.4338139   0.03649679    -2.186624   0.75281009   426349 
 4860000   0.60454844   -2.1862253   -2.1862253   -1.4347231  0.035131432   -2.1862253   0.75150219   426349 
 4861000   0.60387505   -2.1866514   -2.1866514   -1.4359862  0.032532246   -2.1866514   0.75066512   426349 
 4862000   0.60518916   -2.1871941   -2.1871941   -1.4348954  0.040243725   -2.1871941   0.75229866   426349 
 4863000   0.60552301   -2.1881975   -2.1881975   -1.4354838  0.031964528   -2.1881975   0.75271366   426349 
 4864000   0.60475254    -2.187366    -2.187366   -1.4356101  0.036249423    -2.187366   0.75175591   426349 
 4865000   0.60508003   -2.1874425   -2.1874425   -1.4352795  0.040016696   -2.1874425     0.752163   426349 
 4866000    0.6054859   -2.1876554   -2.1876554   -1.4349879  0.036829538   -2.1876554   0.75266754   426349 
 4867000   0.60581636   -2.1875575   -2.1875575   -1.4344792  0.038947118   -2.1875575   0.75307833   426349 
 4868000   0.60563889   -2.1878007   -2.1878007    -1.434943  0.035175717   -2.1878007   0.75285771   426349 
 4869000   0.60469272   -2.1866184   -2.1866184   -1.4349368  0.042474627   -2.1866184   0.75168155   426349 
 4870000   0.60488435   -2.1874171   -2.1874171   -1.4354974   0.03403766   -2.1874171   0.75191976   426349 
 4871000   0.60270778   -2.1851962   -2.1851962   -1.4359821  0.034791673   -2.1851962   0.74921411   426349 
 4872000   0.60414355   -2.1872727   -2.1872727   -1.4362739  0.032403391   -2.1872727   0.75099888   426349 
 4873000   0.60426367   -2.1872941   -2.1872941   -1.4361459  0.033744647   -2.1872941    0.7511482   426349 
 4874000   0.60397748   -2.1866843   -2.1866843   -1.4358919  0.032889974   -2.1866843   0.75079244   426349 
 4875000   0.60410319   -2.1874099   -2.1874099   -1.4364612  0.036539345   -2.1874099   0.75094871   426349 
 4876000    0.6046113   -2.1873027   -2.1873027   -1.4357224   0.02817101   -2.1873027   0.75158034   426349 
 4877000   0.60437151   -2.1862457   -2.1862457   -1.4349635  0.035901521   -2.1862457   0.75128225   426349 
 4878000   0.60554235   -2.1871846   -2.1871846   -1.4344469  0.035257441   -2.1871846    0.7527377   426349 
 4879000   0.60501386   -2.1868867   -2.1868867   -1.4348059  0.039628744   -2.1868867   0.75208075   426349 
 4880000   0.60450667   -2.1869195   -2.1869195   -1.4354693  0.033031432   -2.1869195   0.75145027   426349 
 4881000   0.60516731   -2.1873521   -2.1873521   -1.4350806  0.031334441   -2.1873521    0.7522715   426349 
 4882000   0.60526803   -2.1868585   -2.1868585   -1.4344618  0.042841702   -2.1868585   0.75239671   426349 
 4883000   0.60429672   -2.1860569   -2.1860569   -1.4348676    0.0369195   -2.1860569   0.75118929   426349 
 4884000   0.60357514   -2.1852179   -2.1852179   -1.4349256  0.037937389   -2.1852179    0.7502923   426349 
 4885000   0.60407858    -2.185474    -2.185474   -1.4345559  0.034132326    -2.185474   0.75091812   426349 
 4886000   0.60292373   -2.1847515   -2.1847515   -1.4352689  0.037067643   -2.1847515   0.74948254   426349 
 4887000   0.60321537   -2.1860463   -2.1860463   -1.4362012  0.035898295   -2.1860463   0.74984508   426349 
 4888000   0.60272349   -2.1847768   -2.1847768   -1.4355432  0.036852298   -2.1847768   0.74923363   426349 
 4889000    0.6038393   -2.1864464   -2.1864464   -1.4358257  0.039071437   -2.1864464   0.75062068   426349 
 4890000   0.60401713   -2.1860297   -2.1860297   -1.4351879  0.032280733   -2.1860297   0.75084174   426349 
 4891000   0.60459895   -2.1864964   -2.1864964   -1.4349314  0.034692481   -2.1864964   0.75156498   426349 
 4892000   0.60357941   -2.1853423   -2.1853423   -1.4350447  0.034641194   -2.1853423   0.75029762   426349 
 4893000   0.60420211   -2.1854372   -2.1854372   -1.4343656  0.036390061   -2.1854372   0.75107168   426349 
 4894000   0.60361771   -2.1844159   -2.1844159   -1.4340706  0.041944341   -2.1844159   0.75034523   426349 
 4895000   0.60480922   -2.1855497   -2.1855497   -1.4337233  0.032361714   -2.1855497   0.75182637   426349 
 4896000   0.60356515    -2.185303    -2.185303   -1.4350231  0.033334572    -2.185303   0.75027989   426349 
 4897000   0.60331576   -2.1850329   -2.1850329   -1.4350631  0.032149537   -2.1850329   0.74996987   426349 
 4898000   0.60425157    -2.186135    -2.186135   -1.4350018   0.03668169    -2.186135   0.75113316   426349 
 4899000   0.60453084   -2.1860334   -2.1860334    -1.434553  0.037805175   -2.1860334   0.75148031   426349 
 4900000   0.60303705   -2.1855196   -2.1855196   -1.4358962  0.038990063   -2.1855196   0.74962341   426349 
 4901000   0.60416103   -2.1862714   -2.1862714   -1.4352508  0.037735436   -2.1862714   0.75102061   426349 
 4902000   0.60424479   -2.1864214   -2.1864214   -1.4352967  0.032360289   -2.1864214   0.75112474   426349 
 4903000   0.60362589   -2.1852876   -2.1852876   -1.4349323  0.027228542   -2.1852876   0.75035539   426349 
 4904000   0.60480466    -2.186819    -2.186819   -1.4349983   0.03064893    -2.186819   0.75182069   426349 
 4905000   0.60430299   -2.1866222   -2.1866222   -1.4354251  0.035892088   -2.1866222   0.75119708   426349 
 4906000   0.60487967   -2.1872112   -2.1872112   -1.4352972  0.034819894   -2.1872112   0.75191394   426349 
 4907000   0.60497673    -2.186798    -2.186798   -1.4347634  0.040644989    -2.186798    0.7520346   426349 
 4908000     0.604394   -2.1863983   -2.1863983   -1.4350881  0.042206848   -2.1863983   0.75131021   426349 
 4909000   0.60403126   -2.1861915   -2.1861915   -1.4353322  0.035739623   -2.1861915    0.7508593   426349 
 4910000   0.60471627   -2.1873205   -2.1873205   -1.4356097  0.036185117   -2.1873205   0.75171083   426349 
 4911000   0.60452735   -2.1869914   -2.1869914   -1.4355154  0.032871601   -2.1869914   0.75147597   426349 
 4912000   0.60415957   -2.1865911   -2.1865911   -1.4355723  0.038832593   -2.1865911    0.7510188   426349 
 4913000   0.60369806   -2.1862043   -2.1862043   -1.4357592  0.038503541   -2.1862043    0.7504451   426349 
 4914000   0.60412972   -2.1861762   -2.1861762   -1.4351945  0.036833708   -2.1861762   0.75098169   426349 
 4915000   0.60441652     -2.18728     -2.18728   -1.4359418  0.039046502     -2.18728    0.7513382   426349 
 4916000   0.60397371   -2.1862521   -2.1862521   -1.4354644   0.04198875   -2.1862521   0.75078777   426349 
 4917000   0.60450056   -2.1868079   -2.1868079   -1.4353652  0.032839495   -2.1868079   0.75144267   426349 
 4918000   0.60400864   -2.1860616   -2.1860616   -1.4352304  0.038576555   -2.1860616   0.75083118   426349 
 4919000   0.60363094   -2.1855469   -2.1855469   -1.4351852  0.036750483   -2.1855469   0.75036167   426349 
 4920000   0.60357128   -2.1852308   -2.1852308   -1.4349432  0.035533262   -2.1852308   0.75028751   426349 
 4921000   0.60346107   -2.1852683   -2.1852683   -1.4351177  0.041564743   -2.1852683   0.75015051   426349 
 4922000   0.60247058   -2.1844479   -2.1844479   -1.4355286  0.035635403   -2.1844479   0.74891925   426349 
 4923000   0.60319191   -2.1855138   -2.1855138   -1.4356979  0.040318812   -2.1855138   0.74981592   426349 
 4924000   0.60341681   -2.1864475   -2.1864475    -1.436352  0.032070365   -2.1864475   0.75009549   426349 
 4925000   0.60268233   -2.1860001   -2.1860001   -1.4368177  0.029007421   -2.1860001   0.74918247   426349 
 4926000   0.60165347   -2.1845701   -2.1845701   -1.4366666  0.031060395   -2.1845701   0.74790351   426349 
 4927000   0.60295822   -2.1867254   -2.1867254      -1.4372  0.030771728   -2.1867254   0.74952543   426349 
 4928000   0.60374052    -2.187423    -2.187423   -1.4369251  0.023521419    -2.187423   0.75049789   426349 
 4929000    0.6034806   -2.1871913   -2.1871913   -1.4370165  0.042513589   -2.1871913   0.75017479   426349 
 4930000   0.60427485   -2.1881908   -2.1881908   -1.4370287  0.035667962   -2.1881908    0.7511621   426349 
 4931000   0.60423524   -2.1873643   -2.1873643   -1.4362514  0.037000767   -2.1873643   0.75111287   426349 
 4932000   0.60399293   -2.1871352   -2.1871352   -1.4363236  0.037210406   -2.1871352   0.75081166   426349 
 4933000   0.60506129   -2.1867036   -2.1867036   -1.4345639   0.03980956   -2.1867036   0.75213971   426349 
 4934000   0.60624444   -2.1882161   -2.1882161   -1.4346056  0.034267288   -2.1882161   0.75361046   426349 
 4935000    0.6061252   -2.1884353   -2.1884353   -1.4349731  0.041446856   -2.1884353   0.75346224   426349 
 4936000   0.60612286   -2.1884385   -2.1884385   -1.4349792  0.043891677   -2.1884385   0.75345933   426349 
 4937000   0.60538698    -2.188377    -2.188377   -1.4358325  0.035696697    -2.188377   0.75254457   426349 
 4938000    0.6056096   -2.1888071   -2.1888071   -1.4359857  0.036886076   -2.1888071   0.75282131   426349 
 4939000   0.60337244   -2.1862727   -2.1862727   -1.4362324  0.037021314   -2.1862727   0.75004034   426349 
 4940000   0.60450518   -2.1876821   -2.1876821   -1.4362336  0.043146717   -2.1876821   0.75144842   426349 
 4941000   0.60370729    -2.187558    -2.187558   -1.4371014  0.031187295    -2.187558   0.75045658   426349 
 4942000   0.60419162   -2.1879392   -2.1879392   -1.4368806  0.041994756   -2.1879392   0.75105865   426349 
 4943000   0.60416737   -2.1878992   -2.1878992   -1.4368707   0.03441623   -2.1878992   0.75102849   426349 
 4944000   0.60345448   -2.1870089   -2.1870089   -1.4368666  0.028437617   -2.1870089   0.75014232   426349 
 4945000   0.60415105   -2.1883778   -2.1883778   -1.4373696  0.040800994   -2.1883778    0.7510082   426349 
 4946000   0.60342537   -2.1859326   -2.1859326   -1.4358265  0.038304172   -2.1859326   0.75010612   426349 
 4947000   0.60309877   -2.1856327   -2.1856327   -1.4359325  0.037163724   -2.1856327   0.74970014   426349 
 4948000   0.60366242   -2.1864244   -2.1864244   -1.4360236  0.031702885   -2.1864244   0.75040081   426349 
 4949000   0.60119356   -2.1842903   -2.1842903   -1.4369585  0.031612088   -2.1842903   0.74733181   426349 
 4950000   0.60336338   -2.1862988   -2.1862988   -1.4362698  0.036788896   -2.1862988   0.75002907   426349 
 4951000   0.60279674    -2.185462    -2.185462   -1.4361373  0.032704005    -2.185462    0.7493247   426349 
 4952000   0.60238851     -2.18434     -2.18434   -1.4355227  0.033919881     -2.18434   0.74881724   426349 
 4953000   0.60344515   -2.1859618   -2.1859618   -1.4358311  0.029659932   -2.1859618   0.75013072   426349 
 4954000   0.60322842    -2.186119    -2.186119   -1.4362577  0.034150043    -2.186119    0.7498613   426349 
 4955000   0.60429112   -2.1873625   -2.1873625   -1.4361801    0.0288569   -2.1873625   0.75118233   426349 
 4956000   0.60307241   -2.1857693   -2.1857693   -1.4361019  0.042052761   -2.1857693   0.74966738   426349 
 4957000   0.60329315   -2.1855156   -2.1855156   -1.4355738  0.034508667   -2.1855156   0.74994177   426349 
 4958000   0.60406991   -2.1864785   -2.1864785   -1.4355712  0.036687542   -2.1864785   0.75090734   426349 
 4959000   0.60532205   -2.1877148   -2.1877148    -1.435251  0.033590796   -2.1877148   0.75246386   426349 
 4960000   0.60515569   -2.1879075   -2.1879075   -1.4356504  0.034584163   -2.1879075   0.75225706   426349 
 4961000   0.60264296   -2.1852251   -2.1852251   -1.4360916  0.036642185   -2.1852251   0.74913353   426349 
 4962000   0.60298101   -2.1859914   -2.1859914   -1.4364376  0.035834884   -2.1859914   0.74955375   426349 
 4963000   0.60413405   -2.1874563   -2.1874563   -1.4364693  0.032563111   -2.1874563   0.75098707   426349 
 4964000   0.60480797   -2.1875881   -2.1875881   -1.4357633   0.03628831   -2.1875881   0.75182481   426349 
 4965000   0.60295519   -2.1853674   -2.1853674   -1.4358458   0.03822664   -2.1853674   0.74952166   426349 
 4966000   0.60416348   -2.1878908   -2.1878908   -1.4368671   0.03601512   -2.1878908   0.75102366   426349 
 4967000   0.60296617    -2.187049    -2.187049   -1.4375137  0.038741888    -2.187049   0.74953531   426349 
 4968000   0.60314339   -2.1871072   -2.1871072   -1.4373516  0.035120224   -2.1871072   0.74975561   426349 
 4969000   0.60353903   -2.1874985   -2.1874985   -1.4372511  0.038415808   -2.1874985   0.75024742   426349 
 4970000   0.60516551   -2.1887928   -2.1887928   -1.4365235  0.032253163   -2.1887928   0.75226927   426349 
 4971000   0.60412292   -2.1875554   -2.1875554   -1.4365822  0.037260977   -2.1875554   0.75097324   426349 
 4972000   0.60463584    -2.188749    -2.188749   -1.4371382   0.03429524    -2.188749   0.75161085   426349 
 4973000   0.60346741   -2.1876605   -2.1876605   -1.4375021  0.032918952   -2.1876605   0.75015839   426349 
 4974000   0.60257012   -2.1872554   -2.1872554   -1.4382125  0.040509838   -2.1872554   0.74904298   426349 
 4975000   0.60368336   -2.1884073   -2.1884073   -1.4379804  0.035716094   -2.1884073   0.75042683   426349 
 4976000    0.6033586   -2.1884384   -2.1884384   -1.4384153  0.031100544   -2.1884384   0.75002313   426349 
 4977000     0.603218   -2.1884204   -2.1884204   -1.4385721  0.039618599   -2.1884204   0.74984835   426349 
 4978000   0.60375303   -2.1885825   -2.1885825    -1.438069  0.041562094   -2.1885825   0.75051343   426349 
 4979000   0.60420332   -2.1883874   -2.1883874   -1.4373142  0.040660831   -2.1883874   0.75107318   426349 
 4980000    0.6030112   -2.1881923   -2.1881923    -1.438601  0.035097907   -2.1881923   0.74959129   426349 
 4981000   0.60270917   -2.1876433   -2.1876433   -1.4384275  0.037278783   -2.1876433   0.74921584   426349 
 4982000   0.60367785   -2.1886082   -2.1886082   -1.4381882  0.037729559   -2.1886082   0.75041998   426349 
 4983000   0.60361942   -2.1886695   -2.1886695   -1.4383222   0.03750855   -2.1886695   0.75034735   426349 
 4984000   0.60395499   -2.1886543   -2.1886543   -1.4378898  0.039084894   -2.1886543   0.75076448   426349 
 4985000   0.60478366    -2.189675    -2.189675   -1.4378804   0.03395937    -2.189675    0.7517946   426349 
 4986000   0.60375068   -2.1877669   -2.1877669   -1.4372564  0.034295035   -2.1877669   0.75051052   426349 
 4987000   0.60488824   -2.1881949   -2.1881949   -1.4362703  0.036902769   -2.1881949   0.75192459   426349 
 4988000   0.60505027   -2.1879905   -2.1879905   -1.4358645  0.034069313   -2.1879905   0.75212601   426349 
 4989000   0.60331665   -2.1856637   -2.1856637   -1.4356927  0.045525847   -2.1856637   0.74997098   426349 
 4990000   0.60369825   -2.1866756   -2.1866756   -1.4362303  0.032283411   -2.1866756   0.75044534   426349 
 4991000   0.60367864   -2.1862762   -2.1862762   -1.4358552  0.037783692   -2.1862762   0.75042097   426349 
 4992000   0.60369602   -2.1866109   -2.1866109   -1.4361683  0.038078704   -2.1866109   0.75044257   426349 
 4993000   0.60298871   -2.1859954   -2.1859954   -1.4364321  0.038722856   -2.1859954   0.74956332   426349 
 4994000   0.60242726   -2.1847642   -2.1847642   -1.4358988  0.031459063   -2.1847642    0.7488654   426349 
 4995000    0.6029982   -2.1851862   -2.1851862   -1.4356111  0.033670995   -2.1851862   0.74957512   426349 
 4996000   0.60436588   -2.1869492   -2.1869492   -1.4356739  0.029264635   -2.1869492   0.75127526   426349 
 4997000   0.60284411   -2.1849324   -2.1849324   -1.4355488  0.026997771   -2.1849324   0.74938357   426349 
 4998000   0.60339431   -2.1853276   -2.1853276   -1.4352601  0.036877805   -2.1853276   0.75006752   426349 
 4999000   0.60254483    -2.184932    -2.184932   -1.4359205  0.025572725    -2.184932   0.74901154   426349 
 5000000    0.6022542   -2.1842339   -2.1842339   -1.4355836  0.032582283   -2.1842339   0.74865027   426349 
Loop time of 14162.4 on 288 procs for 5000000 steps with 426349 atoms

Performance: 152516.286 tau/day, 353.047 timesteps/s
92.8% CPU use with 288 MPI tasks x 1 OpenMP threads

MPI task timing breakdown:
Section |  min time  |  avg time  |  max time  |%varavg|  %CPU | %total
-----------------------------------------------------------------------
Pair    | 375.68     | 2184.4     | 3885.6     |1615.4 |  95.0 | 15.42
Bond    | 3.2042     | 3.4185     | 3.881      |   5.2 | 100.0 |  0.02
Neigh   | 845.7      | 3401.5     | 5519.5     |1712.0 |  99.2 | 24.02
Comm    | 2644.5     | 5605.9     | 9469       |1779.4 |  90.9 | 39.58
Output  | 783.6      | 784.83     | 787.71     |   4.6 |  88.1 |  5.54
Modify  | 882.69     | 2081       | 6732.1     |2375.8 |  91.0 | 14.69
Other   |            | 101.4      |            |       |       |  0.72

Nlocal:        1480.38 ave        1952 max        1190 min
Histogram: 14 37 52 71 43 29 19 14 8 1
Nghost:        6154.06 ave        8848 max        2708 min
Histogram: 14 28 18 12 4 51 71 58 25 7
Neighs:        32917.7 ave       65730 max        3554 min
Histogram: 24 0 10 92 44 36 33 31 14 4

Total # of neighbors = 9480301
Ave neighs/atom = 22.236011
Ave special neighs/atom = 0.0000000
Neighbor list builds = 497367
Dangerous builds = 444658

Total wall time: 3:56:07
