LAMMPS (24 Dec 2020)
OMP_NUM_THREADS environment is not set. Defaulting to 1 thread. (src/comm.cpp:94)
  using 1 OpenMP thread(s) per MPI task
# Simple rigid body system
# needed variables: startTemp, temp

units		lj
atom_style	full
dimension 	3
boundary	p p f
pair_style	lj/cut/opt 2.5

variable 	gcmcdisplace	equal 0
variable 	sigma		equal 1.0
variable 	epsilon 	equal 1.0


read_restart	restart.dat.3000000
Reading restart file ...
  restart file = 24 Dec 2020, LAMMPS = 24 Dec 2020
WARNING: Restart file used different # of processors: 144 vs. 192 (src/read_restart.cpp:697)
  restoring atom style full from restart
  orthogonal box = (0.0000000 0.0000000 0.0000000) to (100.00000 100.00000 200.00000)
  4 by 4 by 12 MPI processor grid
  restoring pair style lj/cut/opt from restart
  878832 atoms
Finding 1-2 1-3 1-4 neighbors ...
  special bond factors lj:    0        0        0       
  special bond factors coul:  0        0        0       
     0 = max # of 1-2 neighbors
     0 = max # of 1-3 neighbors
     0 = max # of 1-4 neighbors
     1 = max # of special neighbors
  special bonds CPU = 1.392 seconds
  read_restart CPU = 1.854 seconds

mass		1 1.0
mass		2 1.0
mass		3 1.0


group		solvent type 1
878832 atoms in group solvent


neighbor 	0.4 bin

pair_coeff	1 1 1.0 1.0
pair_coeff	2 2 0.0 0.0
pair_coeff	3 3 0.0 0.0
pair_coeff	2 3 0.0 0.0
pair_coeff	1 2*3 0.0 0.0

pair_modify 	shift yes


balance 	1.05 shift z 10 1.05
Balancing ...
Neighbor list info ...
  update every 1 steps, delay 10 steps, check yes
  max neighbors/atom: 2000, page size: 100000
  master list distance cutoff = 2.9
  ghost atom cutoff = 2.9
  binsize = 1.45, bins = 69 69 138
  1 neighbor lists, perpetual/occasional/extra = 1 0 0
  (1) pair lj/cut/opt, perpetual
      attributes: half, newton on
      pair build: half/bin/newton
      stencil: half/bin/3d/newton
      bin: standard
 rebalancing time: 0.008 seconds
  iteration count = 4
  initial/final maximal load/proc = 6332.0000 5548.0000
  initial/final imbalance factor  = 1.3833634 1.2120815
  x cuts: 0.0000000 0.25000000 0.50000000 0.75000000 1.0000000
  y cuts: 0.0000000 0.25000000 0.50000000 0.75000000 1.0000000
  z cuts: 0.0000000 0.067708333 0.13020833 0.19270833 0.25520833 0.32291667 0.38541667 0.44791667 0.51041667 0.57812500 0.63020833 0.68229167 1.0000000


####################### WALLS ###########################


variable       epsilonWall equal 2*${epsilon}
variable       epsilonWall equal 2*1

variable       cutoffTop   equal   0.7147*${sigma}
variable       cutoffTop   equal   0.7147*1

variable       cutoffLow   equal   3*${sigma}
variable       cutoffLow   equal   3*1


fix            topWall all wall/lj93 zhi EDGE                ${epsilonWall} ${sigma} ${cutoffTop} units box
fix            topWall all wall/lj93 zhi EDGE                2 ${sigma} ${cutoffTop} units box
fix            topWall all wall/lj93 zhi EDGE                2 1 ${cutoffTop} units box
fix            topWall all wall/lj93 zhi EDGE                2 1 0.7147 units box

fix            lowWall all wall/lj93 zlo EDGE                ${epsilonWall} ${sigma} ${cutoffLow} units box
fix            lowWall all wall/lj93 zlo EDGE                2 ${sigma} ${cutoffLow} units box
fix            lowWall all wall/lj93 zlo EDGE                2 1 ${cutoffLow} units box
fix            lowWall all wall/lj93 zlo EDGE                2 1 3 units box


###################### COMPUTES ##########################

compute        bin1 solvent chunk/atom bin/1d z upper 1.0



######################	FIXES ############################


fix 		peclet solvent ave/chunk 1000 1 1000 bin1 density/number norm 		 none ave one file density.profile

fix 		 temp solvent ave/chunk 1000 1 1000 bin1 temp norm none ave one file temp.profile

fix 		2 solvent nve

## Thermostat


region		regthermo block EDGE EDGE EDGE EDGE 0 20

group 		thermo dynamic solvent region regthermo every 1000
dynamic group thermo defined

fix 		3 thermo langevin ${startTemp} ${temp} 10 156453
fix 		3 thermo langevin 1.0 ${temp} 10 156453
fix 		3 thermo langevin 1.0 1.0 10 156453


## Evaporation

region		regevap block EDGE EDGE EDGE EDGE 180 198
fix 		gcmc solvent gcmc 100 100 0 1 780493 ${temp} ${mu} ${gcmcdisplace} region regevap
fix 		gcmc solvent gcmc 100 100 0 1 780493 1.0 ${mu} ${gcmcdisplace} region regevap
fix 		gcmc solvent gcmc 100 100 0 1 780493 1.0 -1.00 ${gcmcdisplace} region regevap
fix 		gcmc solvent gcmc 100 100 0 1 780493 1.0 -1.00 0 region regevap


#### Load balancing

fix 		bal all balance 1000 1.05 shift z 10 1.05

############### Diagnostics and computes ###################
#compute 	com cube	  rigid/local	1 mol x y z
#compute 	quat cube	  rigid/local	1 mol quatw quati quatj quatk

thermo 		1000
thermo_style 	custom step temp epair etotal press pe ke atoms

dump		1 all custom 100000 dump.lammpstrj id mol type x y z
dump 		2 all image 10000 image.*.png type type
dump 		3 all movie 1000 movie.avi type type
#dump 		com cube local 1000 dump.*.xyz c_com[*]
#dump		quat cube      local 1000 dump.*.quat c_quat[*]


restart 	1000000 restart.dat
timestep 	0.005
timer 		full
New timer settings: style=full  mode=nosync  timeout=off


run		5000000
Per MPI rank memory allocation (min/avg/max) = 12.26 | 12.63 | 13.06 Mbytes
Step Temp E_pair TotEng Press PotEng KinEng Atoms 
 3000000   0.98378862   -3.3591705   -1.8834892  0.056035388   -3.3591705    1.4756812   878832 
 3001000   0.98572151   -3.3597022   -1.8816867  0.056541318   -3.3597022    1.4780155   879168 
 3002000   0.98573563      -3.3591   -1.8816129  0.054604977      -3.3591    1.4774871   879495 
 3003000   0.98536231    -3.356979   -1.8805919  0.057455287    -3.356979     1.476387   879817 
 3004000   0.98640843   -3.3564283   -1.8789978  0.055084659   -3.3564283    1.4774305   880129 
 3005000    0.9865067   -3.3555737   -1.8785699  0.056958717   -3.3555737    1.4770038   880471 
 3006000   0.98719206   -3.3547953   -1.8772772  0.056301067   -3.3547953    1.4775181   880776 
 3007000   0.98728813   -3.3537747   -1.8766159  0.056339268   -3.3537747    1.4771587   881076 
 3008000   0.98808822   -3.3535117   -1.8756893  0.056090665   -3.3535117    1.4778225   881394 
 3009000   0.98893352   -3.3526146   -1.8740882  0.056530413   -3.3526146    1.4785264   881728 
 3010000   0.99048111   -3.3519998   -1.8717371  0.057617349   -3.3519998    1.4802627   882072 
 3011000   0.99093131   -3.3508281    -1.870443  0.057137736   -3.3508281     1.480385   882400 
 3012000   0.99152627   -3.3497772   -1.8690169  0.060138137   -3.3497772    1.4807603   882706 
 3013000   0.99155287   -3.3489692   -1.8687393  0.057980458   -3.3489692    1.4802299   883046 
 3014000   0.99255631   -3.3487982   -1.8676423  0.058924789   -3.3487982    1.4811559   883387 
 3015000   0.99228752   -3.3472571   -1.8670586  0.057894371   -3.3472571    1.4801985   883719 
 3016000   0.99427156   -3.3480777   -1.8654581  0.051906642   -3.3480777    1.4826196   884040 
 3017000   0.99477018   -3.3468973   -1.8640945  0.059847712   -3.3468973    1.4828029   884374 
 3018000    0.9953399   -3.3465219   -1.8634215  0.060331978   -3.3465219    1.4831004   884703 
 3019000   0.99575152   -3.3463472   -1.8632018  0.055524725   -3.3463472    1.4831454   885042 
 3020000    0.9976129   -3.3474676   -1.8621053  0.060966674   -3.3474676    1.4853623   885373 
 3021000   0.99613701   -3.3430879    -1.860474  0.064717475   -3.3430879    1.4826139   885702 
 3022000   0.99648365     -3.34196   -1.8593674  0.060362696     -3.34196    1.4825925   886023 
 3023000   0.99730961   -3.3419569   -1.8586478  0.059173982   -3.3419569    1.4833091   886329 
 3024000   0.99769348   -3.3414196   -1.8580617  0.062777036   -3.3414196    1.4833579   886641 
 3025000   0.99832487   -3.3409145   -1.8572135  0.058334411   -3.3409145    1.4837009   886997 
 3026000   0.99901099   -3.3407518   -1.8565499  0.060939114   -3.3407518    1.4842019   887307 
 3027000    1.0006554   -3.3414362   -1.8553055  0.063305346   -3.3414362    1.4861307   887614 
 3028000    1.0013761   -3.3408755   -1.8542053  0.064048095   -3.3408755    1.4866703   887931 
 3029000    1.0021597   -3.3401943   -1.8528917  0.065955496   -3.3401943    1.4873025   888248 
 3030000    1.0021632   -3.3397211   -1.8529791  0.065225949   -3.3397211     1.486742   888586 
 3031000    1.0025133    -3.339123   -1.8523837  0.064261757    -3.339123    1.4867394   888898 
 3032000     1.002456   -3.3377054    -1.851611  0.065684941   -3.3377054    1.4860943   889233 
 3033000    1.0028749   -3.3365545   -1.8503856  0.063319632   -3.3365545    1.4861689   889560 
 3034000    1.0037373   -3.3365015   -1.8496163  0.064817121   -3.3365015    1.4868852   889896 
 3035000    1.0047303   -3.3367819   -1.8489473  0.065210446   -3.3367819    1.4878346   890208 
 3036000    1.0059351   -3.3379049   -1.8488199  0.062195867   -3.3379049     1.489085   890527 
 3037000    1.0059258   -3.3373502   -1.8487671  0.068297803   -3.3373502    1.4885831   890819 
 3038000    1.0068408   -3.3378945   -1.8484672  0.064492838   -3.3378945    1.4894273   891124 
 3039000    1.0053631   -3.3351596   -1.8484055  0.066974375   -3.3351596    1.4867541   891416 
 3040000    1.0062643   -3.3350465   -1.8474987   0.06448127   -3.3350465    1.4875478   891739 
 3041000    1.0078832   -3.3363975   -1.8469859   0.06609191   -3.3363975    1.4894116   892056 
 3042000    1.0079715   -3.3359906    -1.847006  0.068072749   -3.3359906    1.4889846   892390 
 3043000    1.0097717   -3.3364888   -1.8453947  0.064413416   -3.3364888     1.491094   892719 
 3044000    1.0090864   -3.3340391   -1.8444725  0.070955928   -3.3340391    1.4895666   893028 
 3045000    1.0101403   -3.3346006   -1.8440007  0.065888968   -3.3346006    1.4905999   893341 
 3046000    1.0112233   -3.3338326   -1.8421272  0.067895646   -3.3338326    1.4917054   893636 
 3047000    1.0108663   -3.3325986   -1.8419036  0.067201256   -3.3325986    1.4906949   893926 
 3048000    1.0123535   -3.3334814   -1.8410925  0.070260513   -3.3334814    1.4923889   894225 
 3049000    1.0135916   -3.3338877   -1.8402048  0.069268173   -3.3338877    1.4936829   894543 
 3050000    1.0126596   -3.3316376   -1.8398334  0.071641477   -3.3316376    1.4918042   894846 
 3051000    1.0138371   -3.3317912   -1.8387579  0.069535387   -3.3317912    1.4930332   895149 
 3052000    1.0156084   -3.3320421   -1.8368798  0.069348326   -3.3320421    1.4951623   895436 
 3053000    1.0139252   -3.3294439   -1.8372377  0.071550898   -3.3294439    1.4922061   895723 
 3054000    1.0141492   -3.3292971    -1.837271  0.070679081   -3.3292971    1.4920261   896029 
 3055000     1.014373   -3.3271538   -1.8353179  0.070668895   -3.3271538    1.4918359   896341 
 3056000    1.0152765   -3.3264702   -1.8338367   0.07753609   -3.3264702    1.4926335   896660 
 3057000    1.0170268   -3.3275282    -1.832825  0.067635397   -3.3275282    1.4947032   896962 
 3058000    1.0162506   -3.3264488   -1.8333806  0.070922097   -3.3264488    1.4930681   897259 
 3059000    1.0162302   -3.3259448   -1.8333908  0.067434043   -3.3259448    1.4925541   897550 
 3060000    1.0174166   -3.3262195   -1.8324655  0.072611422   -3.3262195     1.493754   897876 
 3061000    1.0173041   -3.3252769   -1.8321936  0.065968609   -3.3252769    1.4930833   898180 
 3062000    1.0167952     -3.32307   -1.8312301  0.072519957     -3.32307    1.4918398   898479 
 3063000      1.01686   -3.3220011   -1.8305592  0.075896483   -3.3220011    1.4914418   898776 
 3064000    1.0171067   -3.3214805   -1.8301614  0.070710018   -3.3214805    1.4913191   899068 
 3065000    1.0169248   -3.3200398   -1.8294681  0.070561825   -3.3200398    1.4905717   899358 
 3066000    1.0177554   -3.3206695   -1.8293513     0.067884   -3.3206695    1.4913182   899642 
 3067000    1.0175059    -3.318049   -1.8276149  0.071127144    -3.318049    1.4904341   899955 
 3068000    1.0178687   -3.3184176   -1.8279589  0.068747023   -3.3184176    1.4904587   900261 
 3069000    1.0194409   -3.3179968   -1.8257233  0.070833184   -3.3179968    1.4922735   900555 
 3070000    1.0215368   -3.3187332     -1.82382  0.073047878   -3.3187332    1.4949133   900813 
 3071000    1.0217329   -3.3188233   -1.8240994  0.069733878   -3.3188233     1.494724   901100 
 3072000    1.0215132   -3.3169008   -1.8229839  0.069661814   -3.3169008    1.4939169   901393 
 3073000    1.0218414   -3.3159843   -1.8220184  0.071157483   -3.3159843    1.4939659   901653 
 3074000    1.0231896   -3.3164261   -1.8209734   0.07002003   -3.3164261    1.4954527   901945 
 3075000    1.0226473   -3.3147153   -1.8205455  0.071426952   -3.3147153    1.4941698   902241 
 3076000    1.0249448   -3.3161184    -1.819078  0.072219462   -3.3161184    1.4970404   902534 
 3077000    1.0247398   -3.3147332   -1.8184813  0.073646256   -3.3147332    1.4962519   902829 
 3078000    1.0244551   -3.3123863   -1.8170535  0.074263322   -3.3123863    1.4953328   903133 
 3079000    1.0252608   -3.3131752   -1.8171302  0.073024122   -3.3131752     1.496045   903413 
 3080000    1.0266917   -3.3148749   -1.8172559  0.070746452   -3.3148749     1.497619   903723 
 3081000    1.0265307   -3.3129729   -1.8160624  0.071569808   -3.3129729    1.4969104   904009 
 3082000    1.0264771    -3.312536   -1.8161623  0.073617544    -3.312536    1.4963737   904286 
 3083000    1.0263931    -3.311727   -1.8159173  0.075874195    -3.311727    1.4958097   904553 
 3084000    1.0270314   -3.3113107   -1.8150008   0.07543949   -3.3113107    1.4963098   904813 
 3085000    1.0280712   -3.3116284     -1.81433   0.07586564   -3.3116284    1.4972985   905131 
 3086000    1.0278815   -3.3097668   -1.8132158  0.074091591   -3.3097668    1.4965509   905416 
 3087000     1.028778   -3.3102908   -1.8128778  0.074021502   -3.3102908     1.497413   905684 
 3088000    1.0297172   -3.3100672    -1.811747    0.0713257   -3.3100672    1.4983202   905962 
 3089000    1.0304731   -3.3099513   -1.8110243  0.073161503   -3.3099513    1.4989269   906260 
 3090000    1.0304708   -3.3090749   -1.8106142  0.070415924   -3.3090749    1.4984607   906540 
 3091000    1.0304305    -3.308093   -1.8101817  0.078498938    -3.308093    1.4979114   906837 
 3092000     1.030306   -3.3071717   -1.8099218  0.074760892   -3.3071717    1.4972499   907128 
 3093000    1.0318638    -3.307827   -1.8087678  0.075347241    -3.307827    1.4990592   907403 
 3094000    1.0312155   -3.3065083   -1.8088513  0.075819218   -3.3065083     1.497657   907682 
 3095000    1.0320995   -3.3066088   -1.8081039  0.077042014   -3.3066088    1.4985049   907946 
 3096000    1.0327152   -3.3059851   -1.8070633  0.073534062   -3.3059851    1.4989217   908235 
 3097000    1.0339759   -3.3060313   -1.8057207   0.07613325   -3.3060313    1.5003106   908502 
 3098000    1.0340351   -3.3054352   -1.8055077  0.079963652   -3.3054352    1.4999275   908786 
 3099000    1.0339555   -3.3043732   -1.8050742  0.075947658   -3.3043732     1.499299   909097 
 3100000    1.0357323   -3.3047003   -1.8033219  0.076991619   -3.3047003    1.5013784   909398 
 3101000    1.0358553   -3.3032661   -1.8021485  0.078611221   -3.3032661    1.5011176   909664 
 3102000    1.0363323    -3.303827   -1.8024901  0.075515738    -3.303827    1.5013368   909950 
 3103000    1.0366698    -3.301947   -1.8005816  0.078908567    -3.301947    1.5013654   910229 
 3104000    1.0377488   -3.3032914   -1.8007777  0.079222075   -3.3032914    1.5025138   910480 
 3105000    1.0381212   -3.3022886   -1.7996598  0.077166332   -3.3022886    1.5026287   910737 
 3106000    1.0381252    -3.301181   -1.7989818   0.07997406    -3.301181    1.5021992   911001 
 3107000     1.039342   -3.3014318   -1.7979522    0.0822226   -3.3014318    1.5034796   911292 
 3108000     1.039392    -3.301022   -1.7979038   0.07894501    -3.301022    1.5031182   911555 
 3109000    1.0397708   -3.2998352   -1.7966146  0.081746162   -3.2998352    1.5032206   911825 
 3110000    1.0409582   -3.3001889   -1.7957119  0.078113367   -3.3001889    1.5044771   912104 
 3111000    1.0404735   -3.2986802   -1.7953421  0.079433797   -3.2986802     1.503338   912370 
 3112000    1.0416247   -3.2989425   -1.7944259  0.079124378   -3.2989425    1.5045166   912664 
 3113000    1.0415039   -3.2983942   -1.7945134  0.078833321   -3.2983942    1.5038808   912944 
 3114000    1.0406573   -3.2966485   -1.7944707  0.081069488   -3.2966485    1.5021778   913236 
 3115000    1.0418848   -3.2970498   -1.7935379  0.078897008   -3.2970498    1.5035118   913502 
 3116000    1.0429372   -3.2973078    -1.792722  0.077372429   -3.2973078    1.5045857   913772 
 3117000    1.0425333   -3.2965841   -1.7930089  0.076739947   -3.2965841    1.5035753   914032 
 3118000    1.0433933   -3.2966952    -1.792301  0.076160613   -3.2966952    1.5043942   914288 
 3119000    1.0427039   -3.2942658    -1.791298  0.078940724   -3.2942658    1.5029678   914551 
 3120000    1.0424646   -3.2930535   -1.7908904  0.078741018   -3.2930535    1.5021631   914831 
 3121000    1.0437498   -3.2940535   -1.7904445  0.077264809   -3.2940535    1.5036089   915078 
 3122000    1.0439463   -3.2928981   -1.7894168  0.079380193   -3.2928981    1.5034813   915328 
 3123000    1.0455936   -3.2937653   -1.7883293  0.078741843   -3.2937653    1.5054359   915582 
 3124000    1.0463175   -3.2938984   -1.7877869  0.083470295   -3.2938984    1.5061115   915805 
 3125000    1.0463265   -3.2926738   -1.7869621  0.081695921   -3.2926738    1.5057117   916056 
 3126000    1.0459651   -3.2910096   -1.7862172  0.081041832   -3.2910096    1.5047924   916299 
 3127000    1.0463408   -3.2902187   -1.7853045  0.080694311   -3.2902187    1.5049142   916554 
 3128000    1.0476379   -3.2917782   -1.7853764  0.082060581   -3.2917782    1.5064018   916784 
 3129000    1.0478804   -3.2904045   -1.7841289  0.081222414   -3.2904045    1.5062756   917073 
 3130000    1.0484719   -3.2908578   -1.7842149   0.08090228   -3.2908578    1.5066429   917367 
 3131000    1.0480105   -3.2888144   -1.7832514  0.081638943   -3.2888144     1.505563   917621 
 3132000    1.0475097   -3.2881952   -1.7837813  0.076295138   -3.2881952    1.5044139   917883 
 3133000    1.0488877   -3.2897372   -1.7837626  0.083413632   -3.2897372    1.5059746   918138 
 3134000    1.0486648   -3.2874319   -1.7821954  0.078806644   -3.2874319    1.5052366   918393 
 3135000    1.0499689   -3.2881398   -1.7814695  0.081068379   -3.2881398    1.5066703   918660 
 3136000    1.0500676   -3.2875431   -1.7811754  0.081517207   -3.2875431    1.5063677   918931 
 3137000    1.0507803   -3.2870212   -1.7800853  0.082290736   -3.2870212    1.5069359   919208 
 3138000    1.0506268   -3.2858246   -1.7795432  0.082456534   -3.2858246    1.5062814   919473 
 3139000    1.0515497   -3.2871617    -1.779967  0.082704221   -3.2871617    1.5071947   919723 
 3140000    1.0521834   -3.2869952   -1.7792593  0.083126247   -3.2869952    1.5077359   919947 
 3141000    1.0524791   -3.2869918   -1.7792436  0.084343078   -3.2869918    1.5077482   920198 
 3142000    1.0538867   -3.2872943   -1.7779577  0.079430749   -3.2872943    1.5093366   920459 
 3143000    1.0529595   -3.2854973   -1.7779193  0.082009402   -3.2854973    1.5075779   920722 
 3144000    1.0549828   -3.2867593   -1.7767273  0.083469962   -3.2867593     1.510032   920992 
 3145000    1.0549822   -3.2865227   -1.7769128  0.083592008   -3.2865227    1.5096098   921249 
 3146000    1.0554309   -3.2861085   -1.7762548  0.086747124   -3.2861085    1.5098537   921492 
 3147000    1.0561027   -3.2851508   -1.7747983  0.082750365   -3.2851508    1.5103525   921774 
 3148000     1.055076   -3.2839909   -1.7755306  0.088704644   -3.2839909    1.5084603   922033 
 3149000    1.0557995   -3.2843704   -1.7752799  0.084364806   -3.2843704    1.5090905   922280 
 3150000    1.0565324   -3.2839882   -1.7742529  0.086341592   -3.2839882    1.5097354   922526 
 3151000    1.0569373   -3.2835043   -1.7736159  0.083765718   -3.2835043    1.5098884   922786 
 3152000    1.0585376   -3.2851434   -1.7733801  0.085239748   -3.2851434    1.5117633   923037 
 3153000     1.058163   -3.2836696    -1.772834  0.087703429   -3.2836696    1.5108356   923277 
 3154000    1.0595701   -3.2841135   -1.7717177  0.086933472   -3.2841135    1.5123958   923551 
 3155000    1.0597922   -3.2839217     -1.77162  0.087923226   -3.2839217    1.5123017   923802 
 3156000    1.0602427   -3.2834431   -1.7709276  0.083551828   -3.2834431    1.5125155   924064 
 3157000    1.0608455   -3.2840722   -1.7711518  0.082668045   -3.2840722    1.5129204   924342 
 3158000    1.0600355   -3.2822996   -1.7709546  0.089812307   -3.2822996     1.511345   924599 
 3159000    1.0616429   -3.2828265   -1.7695891  0.086475384   -3.2828265    1.5132374   924843 
 3160000    1.0610321   -3.2809301   -1.7690046  0.088824527   -3.2809301    1.5119255   925113 
 3161000    1.0616107   -3.2816008   -1.7692989   0.08663728   -3.2816008    1.5123019   925387 
 3162000    1.0606328   -3.2783946   -1.7679166  0.089274989   -3.2783946     1.510478   925651 
 3163000    1.0623341   -3.2802205   -1.7677542  0.089706678   -3.2802205    1.5124662   925917 
 3164000    1.0617415   -3.2789772   -1.7676991  0.086344055   -3.2789772    1.5112781   926128 
 3165000    1.0627913   -3.2792139   -1.7667729  0.088563934   -3.2792139    1.5124409   926331 
 3166000    1.0635699   -3.2793138   -1.7661879  0.088688998   -3.2793138    1.5131258   926590 
 3167000    1.0635351   -3.2789387   -1.7662802  0.085611427   -3.2789387    1.5126584   926846 
 3168000    1.0629935   -3.2776581   -1.7661842  0.088833641   -3.2776581    1.5114739   927100 
 3169000    1.0645973   -3.2775981   -1.7642584  0.085893086   -3.2775981    1.5133398   927354 
 3170000    1.0649651   -3.2777234   -1.7642445  0.084219559   -3.2777234     1.513479   927589 
 3171000    1.0653691    -3.277839   -1.7641905  0.085203818    -3.277839    1.5136485   927837 
 3172000    1.0662724   -3.2775324   -1.7630592   0.08779925   -3.2775324    1.5144732   928118 
 3173000    1.0669223   -3.2760196   -1.7610559  0.088509314   -3.2760196    1.5149637   928383 
 3174000    1.0668533   -3.2752925   -1.7608476   0.09088183   -3.2752925    1.5144449   928641 
 3175000    1.0666683   -3.2736768   -1.7598711  0.088001126   -3.2736768    1.5138057   928872 
 3176000    1.0673285   -3.2737703   -1.7594531  0.086845415   -3.2737703    1.5143172   929133 
 3177000    1.0676131   -3.2732391   -1.7589304  0.088956753   -3.2732391    1.5143087   929386 
 3178000    1.0676797   -3.2735023   -1.7594999  0.087956784   -3.2735023    1.5140024   929632 
 3179000    1.0682867   -3.2730555   -1.7586291    0.0893775   -3.2730555    1.5144264   929900 
 3180000    1.0690258   -3.2732878   -1.7582111  0.088524732   -3.2732878    1.5150767   930144 
 3181000    1.0696957   -3.2731873    -1.757557  0.089107978   -3.2731873    1.5156302   930387 
 3182000    1.0692879   -3.2719866   -1.7573835  0.087586405   -3.2719866    1.5146031   930663 
 3183000    1.0698642   -3.2722567   -1.7572248  0.089380721   -3.2722567    1.5150319   930901 
 3184000    1.0710922    -3.272246   -1.7559214  0.089290803    -3.272246    1.5163246   931175 
 3185000    1.0711768   -3.2716852   -1.7556398  0.086602249   -3.2716852    1.5160454   931420 
 3186000    1.0712447   -3.2709162   -1.7551896  0.092521396   -3.2709162    1.5157266   931675 
 3187000    1.0725964   -3.2705962   -1.7533853  0.089404702   -3.2705962    1.5172109   931938 
 3188000    1.0713737    -3.268879   -1.7537748  0.090079277    -3.268879    1.5151042   932170 
 3189000    1.0729476    -3.270188   -1.7532177  0.092471202    -3.270188    1.5169703   932391 
 3190000    1.0734547   -3.2696298   -1.7523543  0.094027485   -3.2696298    1.5172755   932644 
 3191000    1.0731887   -3.2684411    -1.751914  0.092405298   -3.2684411    1.5165271   932873 
 3192000    1.0742014   -3.2694045   -1.7518465  0.092235559   -3.2694045     1.517558   933119 
 3193000    1.0746671   -3.2693679   -1.7515424  0.088907952   -3.2693679    1.5178256   933359 
 3194000     1.074769   -3.2683965   -1.7507978  0.096222845   -3.2683965    1.5175987   933587 
 3195000    1.0760943   -3.2695367   -1.7504571  0.092033668   -3.2695367    1.5190796   933827 
 3196000    1.0770358   -3.2692519   -1.7492355  0.088493038   -3.2692519    1.5200164   934068 
 3197000    1.0770084   -3.2688059   -1.7492446  0.092714632   -3.2688059    1.5195613   934324 
 3198000    1.0767923   -3.2679959   -1.7490988  0.090376907   -3.2679959    1.5188971   934545 
 3199000    1.0759897   -3.2657329   -1.7483543  0.087353889   -3.2657329    1.5173786   934783 
 3200000    1.0774259   -3.2674576   -1.7484551  0.091748728   -3.2674576    1.5190025   935030 
 3201000    1.0762549   -3.2651697   -1.7481864  0.091146484   -3.2651697    1.5169833   935257 
 3202000    1.0767397   -3.2654464   -1.7481334  0.093789032   -3.2654464     1.517313   935475 
 3203000    1.0774036   -3.2662469   -1.7483683  0.090870525   -3.2662469    1.5178786   935703 
 3204000    1.0780945   -3.2668101   -1.7483574  0.091754746   -3.2668101    1.5184527   935949 
 3205000    1.0775173   -3.2649638   -1.7476985  0.092821473   -3.2649638    1.5172653   936180 
 3206000    1.0778903   -3.2648612   -1.7474387  0.091438113   -3.2648612    1.5174225   936407 
 3207000    1.0783297   -3.2651335    -1.747436   0.09188176   -3.2651335    1.5176975   936619 
 3208000    1.0788851   -3.2646848   -1.7465978  0.089383009   -3.2646848     1.518087   936861 
 3209000    1.0798176   -3.2646442   -1.7456001  0.092206113   -3.2646442    1.5190441   937080 
 3210000    1.0802504   -3.2645604   -1.7452708  0.089396968   -3.2645604    1.5192897   937304 
 3211000    1.0801966   -3.2632019     -1.74438  0.092788484   -3.2632019    1.5188218   937546 
 3212000    1.0814068   -3.2637877    -1.743642   0.09082151   -3.2637877    1.5201457   937779 
 3213000     1.081793   -3.2632039    -1.742893  0.092581537   -3.2632039    1.5203109   938012 
 3214000    1.0821514   -3.2629124   -1.7424787  0.095820646   -3.2629124    1.5204337   938247 
 3215000    1.0829616   -3.2630847   -1.7418808  0.093203373   -3.2630847    1.5212039   938474 
 3216000    1.0833613   -3.2626293   -1.7412498  0.094070176   -3.2626293    1.5213795   938712 
 3217000    1.0846506   -3.2636565   -1.7408556  0.089292097   -3.2636565    1.5228009   938952 
 3218000    1.0843231   -3.2630433   -1.7410815  0.096077034   -3.2630433    1.5219618   939186 
 3219000    1.0843069   -3.2630639   -1.7415073  0.092970683   -3.2630639    1.5215566   939422 
 3220000    1.0853333   -3.2643423   -1.7417068  0.091553931   -3.2643423    1.5226355   939645 
 3221000     1.086093   -3.2641441   -1.7408465  0.096718242   -3.2641441    1.5232976   939894 
 3222000    1.0872992   -3.2646985   -1.7400676  0.097179502   -3.2646985    1.5246309   940115 
 3223000    1.0878109   -3.2646236   -1.7396759  0.094658007   -3.2646236    1.5249477   940362 
 3224000    1.0858572    -3.261725   -1.7398397  0.097633718    -3.261725    1.5218852   940562 
 3225000    1.0871368   -3.2624925   -1.7391555  0.097458113   -3.2624925     1.523337   940773 
 3226000     1.085166   -3.2588213    -1.738632  0.095276017   -3.2588213    1.5201892   941012 
 3227000     1.086924   -3.2609586   -1.7386803  0.094000747   -3.2609586    1.5222783   941243 
 3228000    1.0877324   -3.2608821   -1.7378682  0.093472093   -3.2608821     1.523014   941488 
 3229000    1.0879065   -3.2604576   -1.7375475  0.095693242   -3.2604576    1.5229101   941703 
 3230000    1.0892428   -3.2615898   -1.7371572  0.094420468   -3.2615898    1.5244326   941918 
 3231000    1.0888263   -3.2606984   -1.7372046  0.093972986   -3.2606984    1.5234938   942138 
 3232000    1.0886165   -3.2599162    -1.737094  0.094267455   -3.2599162    1.5228221   942372 
 3233000    1.0892237   -3.2608375   -1.7375346  0.096377687   -3.2608375    1.5233029   942600 
 3234000    1.0902397   -3.2604668   -1.7361521  0.096896861   -3.2604668    1.5243147   942853 
 3235000    1.0891379   -3.2582017   -1.7357731  0.096989993   -3.2582017    1.5224287   943067 
 3236000    1.0898862   -3.2589547   -1.7358724  0.098657314   -3.2589547    1.5230823   943310 
 3237000    1.0901458   -3.2581341   -1.7351008  0.095196811   -3.2581341    1.5230333   943565 
 3238000    1.0917012   -3.2591677   -1.7343219   0.09325112   -3.2591677    1.5248459   943788 
 3239000    1.0914868   -3.2580602   -1.7339174  0.095002712   -3.2580602    1.5241428   944038 
 3240000    1.0912515   -3.2563212   -1.7328814  0.095569947   -3.2563212    1.5234398   944270 
 3241000    1.0929094   -3.2579776   -1.7325901  0.091657684   -3.2579776    1.5253875   944497 
 3242000    1.0933504   -3.2575072    -1.731916  0.095953625   -3.2575072    1.5255912   944752 
 3243000     1.093388   -3.2568098   -1.7315261  0.095448254   -3.2568098    1.5252837   944975 
 3244000    1.0926455   -3.2553808   -1.7315425  0.099911275   -3.2553808    1.5238383   945229 
 3245000    1.0938413   -3.2554985   -1.7304057  0.099674958   -3.2554985    1.5250929   945485 
 3246000    1.0940959   -3.2546137   -1.7294948  0.097432219   -3.2546137    1.5251189   945689 
 3247000    1.0953751   -3.2557519    -1.729255  0.096903654   -3.2557519    1.5264968   945940 
 3248000    1.0954708    -3.254525   -1.7282627  0.098104897    -3.254525    1.5262623   946168 
 3249000     1.095802   -3.2545326   -1.7281766  0.093839502   -3.2545326     1.526356   946396 
 3250000    1.0955188   -3.2540242   -1.7284238  0.095793496   -3.2540242    1.5256004   946620 
 3251000    1.0951778   -3.2530784   -1.7283314  0.094513456   -3.2530784     1.524747   946855 
 3252000    1.0952685   -3.2529218   -1.7284302  0.094673411   -3.2529218    1.5244916   947092 
 3253000    1.0960168   -3.2534083   -1.7282583  0.095485839   -3.2534083    1.5251499   947330 
 3254000    1.0967117   -3.2532634   -1.7274975  0.097030029   -3.2532634    1.5257659   947548 
 3255000    1.0966072   -3.2525722   -1.7272946  0.094966541   -3.2525722    1.5252776   947761 
 3256000    1.0968987   -3.2521846   -1.7268636  0.096044432   -3.2521846    1.5253209   947986 
 3257000    1.0981408   -3.2520685   -1.7253762  0.098414912   -3.2520685    1.5266923   948207 
 3258000     1.099247   -3.2539796   -1.7261136  0.093484264   -3.2539796    1.5278659   948433 
 3259000    1.0989816   -3.2519238    -1.724797  0.095908464   -3.2519238    1.5271268   948663 
 3260000    1.0993738   -3.2516764   -1.7243234    0.1000825   -3.2516764     1.527353   948861 
 3261000    1.0996567   -3.2513996   -1.7239948  0.097770397   -3.2513996    1.5274047   949073 
 3262000    1.1003598   -3.2516624   -1.7236031  0.095988185   -3.2516624    1.5280593   949273 
 3263000    1.1015779   -3.2516218   -1.7222415  0.097169145   -3.2516218    1.5293803   949503 
 3264000    1.1016295   -3.2510028   -1.7218794   0.10152102   -3.2510028    1.5291234   949707 
 3265000    1.1024786    -3.251224   -1.7212779  0.099861405    -3.251224     1.529946   949928 
 3266000     1.102192   -3.2499054   -1.7207064   0.10241697   -3.2499054     1.529199   950145 
 3267000     1.103612   -3.2508719   -1.7200283  0.098227724   -3.2508719    1.5308437   950347 
 3268000    1.1020413    -3.248786   -1.7204509     0.102686    -3.248786    1.5283352   950552 
 3269000    1.1033506   -3.2498765   -1.7200538   0.10052469   -3.2498765    1.5298227   950756 
 3270000    1.1035853   -3.2491645   -1.7193721   0.10137701   -3.2491645    1.5297924   950977 
 3271000    1.1032528   -3.2490768   -1.7201262  0.097885994   -3.2490768    1.5289506   951214 
 3272000    1.1040003   -3.2503756   -1.7207268  0.099008511   -3.2503756    1.5296488   951424 
 3273000    1.1035289   -3.2489541   -1.7202607  0.099229532   -3.2489541    1.5286935   951612 
 3274000    1.1034451   -3.2484657   -1.7202656  0.099777633   -3.2484657       1.5282   951847 
 3275000    1.1029264   -3.2474815   -1.7203335  0.097699868   -3.2474815     1.527148   952055 
 3276000    1.1050035   -3.2495179   -1.7198731  0.095882494   -3.2495179    1.5296448   952291 
 3277000    1.1058494   -3.2489985   -1.7185603  0.096999127   -3.2489985    1.5304382   952526 
 3278000    1.1051129   -3.2479957   -1.7189221   0.10003822   -3.2479957    1.5290737   952741 
 3279000    1.1050735   -3.2474755   -1.7188013   0.10190592   -3.2474755    1.5286742   952956 
 3280000    1.1055883   -3.2468159   -1.7177842   0.10069809   -3.2468159    1.5290317   953177 
 3281000    1.1070842   -3.2484178   -1.7176817   0.10025845   -3.2484178    1.5307361   953404 
 3282000    1.1072843   -3.2478181    -1.717173   0.09691995   -3.2478181    1.5306451   953633 
 3283000    1.1072386   -3.2468436   -1.7166308   0.10359155   -3.2468436    1.5302129   953863 
 3284000    1.1092583   -3.2480401   -1.7153494   0.10015875   -3.2480401    1.5326907   954058 
 3285000    1.1089497   -3.2467824   -1.7148698   0.10397198   -3.2467824    1.5319127   954277 
 3286000    1.1093467   -3.2461328   -1.7140104   0.10466001   -3.2461328    1.5321224   954488 
 3287000    1.1108885   -3.2478983   -1.7139968   0.10349092   -3.2478983    1.5339015   954706 
 3288000    1.1092982   -3.2457943   -1.7144288   0.10431337   -3.2457943    1.5313655   954918 
 3289000     1.109986   -3.2461465   -1.7141476   0.10180447   -3.2461465    1.5319989   955115 
 3290000    1.1098392   -3.2455201    -1.714091   0.10144252   -3.2455201    1.5314291   955344 
 3291000    1.1110664   -3.2457377   -1.7129505   0.10350219   -3.2457377    1.5327872   955553 
 3292000    1.1107049   -3.2451607   -1.7131513   0.10248339   -3.2451607    1.5320094   955727 
 3293000    1.1118489   -3.2453534    -1.712151   0.10073518   -3.2453534    1.5332024   955967 
 3294000    1.1126595   -3.2453128    -1.711328   0.10521205   -3.2453128    1.5339848   956176 
 3295000    1.1127398   -3.2457041   -1.7119486  0.099338276   -3.2457041    1.5337555   956388 
 3296000    1.1116713   -3.2434899     -1.71151   0.10200712   -3.2434899    1.5319799   956577 
 3297000    1.1128044   -3.2446891   -1.7114714  0.099845176   -3.2446891    1.5332177   956779 
 3298000      1.11397   -3.2453244   -1.7108407   0.10093573   -3.2453244    1.5344837   956991 
 3299000    1.1137359   -3.2439342   -1.7101336   0.10377594   -3.2439342    1.5338006   957216 
 3300000     1.114012   -3.2430349   -1.7091921   0.10691545   -3.2430349    1.5338428   957427 
 3301000    1.1143739   -3.2431267   -1.7091206   0.10665618   -3.2431267    1.5340061   957636 
 3302000    1.1154796   -3.2445241   -1.7093487   0.10143084   -3.2445241    1.5351755   957856 
 3303000    1.1148868   -3.2428296   -1.7087567   0.10405085   -3.2428296    1.5340729   958035 
 3304000    1.1151184   -3.2417628    -1.707733   0.10146814   -3.2417628    1.5340298   958261 
 3305000    1.1154865   -3.2411667   -1.7069748   0.10044455   -3.2411667     1.534192   958476 
 3306000    1.1170061   -3.2431212   -1.7071965   0.10000534   -3.2431212    1.5359246   958699 
 3307000    1.1163516   -3.2406814   -1.7059498   0.10307996   -3.2406814    1.5347317   958882 
 3308000    1.1163371   -3.2399212   -1.7055183   0.10342506   -3.2399212    1.5344029   959075 
 3309000    1.1171341   -3.2413278   -1.7061351    0.1020471   -3.2413278    1.5351926   959266 
 3310000    1.1176842   -3.2409242   -1.7052942   0.10298159   -3.2409242      1.53563   959465 
 3311000    1.1172024   -3.2399341   -1.7053307   0.10474803   -3.2399341    1.5346034   959693 
 3312000    1.1180606   -3.2399488   -1.7045202  0.096809083   -3.2399488    1.5354286   959914 
 3313000    1.1175346   -3.2391959   -1.7048125   0.10367883   -3.2391959    1.5343834   960116 
 3314000    1.1188418   -3.2404265   -1.7045714   0.10208865   -3.2404265    1.5358551   960318 
 3315000    1.1176657   -3.2385809   -1.7046437   0.10256198   -3.2385809    1.5339372   960508 
 3316000    1.1195916   -3.2397027   -1.7034854  0.097835082   -3.2397027    1.5362173   960735 
 3317000    1.1189112   -3.2384395   -1.7034179   0.10320287   -3.2384395    1.5350216   960899 
 3318000    1.1194684   -3.2380009   -1.7025297   0.10407226   -3.2380009    1.5354712   961096 
 3319000    1.1199957    -3.238422   -1.7025918   0.10242731    -3.238422    1.5358302   961324 
 3320000    1.1213126   -3.2392679   -1.7019469   0.10729496   -3.2392679     1.537321   961521 
 3321000    1.1223737   -3.2397513   -1.7012636   0.10273318   -3.2397513    1.5384877   961701 
 3322000    1.1223668   -3.2392938   -1.7011481   0.10561334   -3.2392938    1.5381457   961909 
 3323000    1.1227825   -3.2396667   -1.7012025   0.10353425   -3.2396667    1.5384642   962066 
 3324000    1.1222206   -3.2382898   -1.7009536   0.10854187   -3.2382898    1.5373363   962290 
 3325000    1.1228654   -3.2383128   -1.7004256   0.10454296   -3.2383128    1.5378872   962498 
 3326000     1.123305   -3.2383986   -1.7002418   0.10791233   -3.2383986    1.5381568   962706 
 3327000    1.1228673   -3.2372585   -1.7000459    0.1061055   -3.2372585    1.5372126   962922 
 3328000    1.1258101   -3.2401749   -1.6992792   0.10264925   -3.2401749    1.5408957   963138 
 3329000    1.1242667   -3.2381838   -1.6996928   0.10599028   -3.2381838     1.538491   963321 
 3330000    1.1249597   -3.2379939   -1.6988742   0.10417015   -3.2379939    1.5391197   963521 
 3331000    1.1248528   -3.2372209   -1.6985747   0.10857923   -3.2372209    1.5386462   963726 
 3332000    1.1244531   -3.2371681    -1.699383   0.10694568   -3.2371681    1.5377851   963923 
 3333000    1.1257799   -3.2380508   -1.6987372   0.10368123   -3.2380508    1.5393137   964102 
 3334000    1.1254991   -3.2369031   -1.6983069   0.10610471   -3.2369031    1.5385962   964311 
 3335000    1.1264243   -3.2383509   -1.6988364   0.10623609   -3.2383509    1.5395146   964528 
 3336000    1.1252787   -3.2365174   -1.6988794   0.10821064   -3.2365174     1.537638   964723 
 3337000    1.1257127   -3.2376921   -1.6997703   0.10574987   -3.2376921    1.5379218   964917 
 3338000    1.1263184   -3.2373886   -1.6989423   0.10488549   -3.2373886    1.5384463   965107 
 3339000    1.1265551   -3.2369057   -1.6984485   0.10838858   -3.2369057    1.5384572   965303 
 3340000     1.127537   -3.2377792   -1.6982873   0.10813256   -3.2377792    1.5394919   965495 
 3341000    1.1281694   -3.2378916   -1.6978855   0.10697087   -3.2378916    1.5400061   965714 
 3342000    1.1290809   -3.2379186   -1.6969764   0.10760681   -3.2379186    1.5409423   965907 
 3343000    1.1286287   -3.2365685   -1.6965176   0.11097242   -3.2365685    1.5400509   966079 
 3344000    1.1300304   -3.2373946   -1.6957184   0.11108596   -3.2373946    1.5416763   966259 
 3345000    1.1293162   -3.2365565    -1.696175    0.1079223   -3.2365565    1.5403815   966460 
 3346000     1.128946   -3.2356586   -1.6961166   0.11089099   -3.2356586     1.539542   966670 
 3347000    1.1297825   -3.2366542    -1.696295   0.10679066   -3.2366542    1.5403593   966873 
 3348000    1.1291711   -3.2359838    -1.696821   0.10550599   -3.2359838    1.5391628   967101 
 3349000    1.1292802   -3.2355999   -1.6966275   0.11092686   -3.2355999    1.5389725   967314 
 3350000    1.1295059   -3.2354104   -1.6964326   0.10867874   -3.2354104    1.5389778   967504 
 3351000    1.1302864   -3.2351287   -1.6954232   0.10864856   -3.2351287    1.5397055   967715 
 3352000    1.1309882   -3.2359184   -1.6955402    0.1052218   -3.2359184    1.5403782   967893 
 3353000    1.1321507   -3.2365229   -1.6948672   0.10938302   -3.2365229    1.5416557   968085 
 3354000    1.1314072   -3.2344872   -1.6941193   0.10515171   -3.2344872    1.5403679   968258 
 3355000    1.1316427   -3.2338071   -1.6934446   0.11109779   -3.2338071    1.5403625   968463 
 3356000    1.1337094   -3.2354472   -1.6925535   0.10782336   -3.2354472    1.5428936   968640 
 3357000    1.1337974   -3.2349537   -1.6922605   0.10629849   -3.2349537    1.5426932   968841 
 3358000    1.1339018   -3.2342647   -1.6917527   0.10859968   -3.2342647     1.542512   969044 
 3359000    1.1335281   -3.2331416    -1.691437   0.11397099   -3.2331416    1.5417046   969232 
 3360000    1.1339597   -3.2336845   -1.6917173    0.1088683   -3.2336845    1.5419672   969436 
 3361000    1.1341292   -3.2328388    -1.690945   0.10961833   -3.2328388    1.5418938   969627 
 3362000    1.1348193   -3.2326863   -1.6901565   0.10758687   -3.2326863    1.5425298   969817 
 3363000    1.1356303   -3.2328874   -1.6895752   0.10591338   -3.2328874    1.5433122   970018 
 3364000    1.1347111   -3.2310451   -1.6893094    0.1092714   -3.2310451    1.5417357   970224 
 3365000    1.1354935   -3.2309638   -1.6884687   0.10720054   -3.2309638     1.542495   970415 
 3366000    1.1355024   -3.2305229   -1.6883606   0.10986563   -3.2305229    1.5421623   970632 
 3367000    1.1352035   -3.2294682   -1.6880501   0.11125955   -3.2294682    1.5414181   970845 
 3368000    1.1364237   -3.2304421   -1.6876993   0.11000813   -3.2304421    1.5427428   971054 
 3369000    1.1379931   -3.2316572   -1.6870924    0.1045251   -3.2316572    1.5445648   971248 
 3370000    1.1379349   -3.2306796   -1.6864992   0.10789641   -3.2306796    1.5441804   971440 
 3371000    1.1389688   -3.2310699   -1.6857966   0.10935629   -3.2310699    1.5452733   971635 
 3372000    1.1387804   -3.2298562   -1.6851231   0.10677408   -3.2298562    1.5447331   971814 
 3373000    1.1402422   -3.2313612   -1.6850063   0.10655842   -3.2313612    1.5463549   972041 
 3374000    1.1384175   -3.2287186   -1.6851702   0.10960217   -3.2287186    1.5435484   972250 
 3375000    1.1399164   -3.2297361   -1.6844988   0.10715309   -3.2297361    1.5452373   972466 
 3376000    1.1403353   -3.2306466   -1.6851307   0.11010678   -3.2306466     1.545516   972648 
 3377000    1.1398186   -3.2294493   -1.6849307   0.10641273   -3.2294493    1.5445187   972835 
 3378000    1.1411388    -3.231185   -1.6851587   0.10757976    -3.231185    1.5460264   973012 
 3379000    1.1407806   -3.2299205    -1.684705   0.10686283   -3.2299205    1.5452155   973217 
 3380000    1.1391972   -3.2277362   -1.6850364    0.1124696   -3.2277362    1.5426998   973451 
 3381000    1.1408616   -3.2292272   -1.6845559   0.10603894   -3.2292272    1.5446713   973629 
 3382000    1.1399348   -3.2277812   -1.6846167   0.11094104   -3.2277812    1.5431645   973788 
 3383000    1.1407351   -3.2287131   -1.6847792   0.10671542   -3.2287131     1.543934   973986 
 3384000    1.1405683   -3.2284235   -1.6850354   0.11203342   -3.2284235    1.5433881   974188 
 3385000     1.142971   -3.2304401   -1.6840976    0.1031919   -3.2304401    1.5463425   974375 
 3386000    1.1432709   -3.2305129   -1.6840646   0.10764913   -3.2305129    1.5464483   974564 
 3387000     1.143531   -3.2302642    -1.683794   0.11173843   -3.2302642    1.5464701   974772 
 3388000    1.1440332   -3.2302676   -1.6834183   0.10777037   -3.2302676    1.5468493   974961 
 3389000    1.1436873   -3.2296383   -1.6835833   0.11499258   -3.2296383    1.5460549   975167 
 3390000    1.1441024   -3.2295783   -1.6832889   0.11219381   -3.2295783    1.5462894   975373 
 3391000    1.1448958    -3.230407    -1.683345    0.1096806    -3.230407     1.547062   975562 
 3392000    1.1448301   -3.2301848   -1.6835271   0.11597476   -3.2301848    1.5466577   975761 
 3393000    1.1467881   -3.2312628   -1.6823218   0.11304352   -3.2312628     1.548941   975989 
 3394000    1.1466764   -3.2302217   -1.6817441   0.11492356   -3.2302217    1.5484775   976186 
 3395000      1.14691    -3.230191   -1.6816929   0.11054068    -3.230191     1.548498   976372 
 3396000    1.1471272   -3.2298366   -1.6813625   0.11407642   -3.2298366    1.5484741   976572 
 3397000    1.1472306   -3.2293009    -1.681055   0.11301388   -3.2293009    1.5482459   976804 
 3398000    1.1480976   -3.2300122   -1.6808913   0.11400188   -3.2300122    1.5491209   976990 
 3399000    1.1469179   -3.2285396   -1.6812766   0.11261351   -3.2285396     1.547263   977158 
 3400000    1.1476034    -3.229668   -1.6817574   0.11328674    -3.229668    1.5479106   977333 
 3401000     1.147658   -3.2291282   -1.6814543   0.11707657   -3.2291282    1.5476739   977529 
 3402000     1.149026   -3.2300666   -1.6808174   0.11213573   -3.2300666    1.5492493   977699 
 3403000    1.1484996   -3.2290274   -1.6808125   0.11404113   -3.2290274    1.5482149   977904 
 3404000    1.1483236   -3.2282086   -1.6804983   0.11330484   -3.2282086    1.5477102   978073 
 3405000    1.1488685   -3.2280202   -1.6798653   0.11379705   -3.2280202    1.5481549   978256 
 3406000     1.148989   -3.2273206    -1.679258   0.11516584   -3.2273206    1.5480626   978417 
 3407000    1.1491177   -3.2268221   -1.6788835   0.11334434   -3.2268221    1.5479386   978605 
 3408000    1.1492159   -3.2262913   -1.6785178   0.11538407   -3.2262913    1.5477735   978793 
 3409000    1.1492072   -3.2268117   -1.6793392   0.11334472   -3.2268117    1.5474725   978976 
 3410000    1.1508941   -3.2282854   -1.6788058   0.11349639   -3.2282854    1.5494796   979143 
 3411000    1.1508481   -3.2280538   -1.6789509   0.11318364   -3.2280538    1.5491029   979342 
 3412000    1.1505355   -3.2268347   -1.6784199   0.11118199   -3.2268347    1.5484148   979511 
 3413000    1.1506766   -3.2260861   -1.6777722   0.11313636   -3.2260861    1.5483139   979695 
 3414000    1.1512294   -3.2260623    -1.677324   0.11315188   -3.2260623    1.5487384   979897 
 3415000    1.1517923   -3.2259158   -1.6767236   0.11600336   -3.2259158    1.5491921   980089 
 3416000    1.1536314    -3.227505   -1.6761352    0.1149479    -3.227505    1.5513698   980276 
 3417000    1.1517237   -3.2239584   -1.6754399    0.1141116   -3.2239584    1.5485185   980457 
 3418000    1.1537225   -3.2251929   -1.6742765   0.11571062   -3.2251929    1.5509164   980640 
 3419000    1.1532778   -3.2247202   -1.6746546   0.11290718   -3.2247202    1.5500656   980800 
 3420000    1.1538954   -3.2246382   -1.6740539   0.11337027   -3.2246382    1.5505843   980997 
 3421000    1.1540321   -3.2247339   -1.6742645   0.11303353   -3.2247339    1.5504693   981186 
 3422000    1.1537511   -3.2236253   -1.6738478   0.11487009   -3.2236253    1.5497775   981385 
 3423000    1.1547681   -3.2240671   -1.6731843   0.11642709   -3.2240671    1.5508828   981550 
 3424000     1.155464   -3.2251082   -1.6735943   0.11505954   -3.2251082    1.5515139   981742 
 3425000    1.1550129    -3.224133   -1.6734506   0.11130506    -3.224133    1.5506824   981885 
 3426000    1.1549677    -3.223625   -1.6732623   0.11605139    -3.223625    1.5503627   982049 
 3427000    1.1546743   -3.2234305   -1.6737394   0.10849203   -3.2234305    1.5496911   982225 
 3428000    1.1557288   -3.2234241   -1.6726287     0.111791   -3.2234241    1.5507953   982422 
 3429000    1.1560019   -3.2237927    -1.672934   0.11109907   -3.2237927    1.5508587   982614 
 3430000    1.1560346   -3.2236802   -1.6730444   0.11498448   -3.2236802    1.5506358   982783 
 3431000    1.1568462   -3.2232218    -1.671783   0.11503485   -3.2232218    1.5514387   982964 
 3432000     1.157288   -3.2233765   -1.6716216   0.11529175   -3.2233765    1.5517549   983139 
 3433000    1.1591923   -3.2250455    -1.671028   0.11867153   -3.2250455    1.5540175   983323 
 3434000    1.1588847    -3.224372   -1.6710495   0.11683187    -3.224372    1.5533224   983502 
 3435000    1.1597534   -3.2247371   -1.6705159   0.11582655   -3.2247371    1.5542212   983670 
 3436000    1.1582723   -3.2238017   -1.6718334   0.11653028   -3.2238017    1.5519683   983840 
 3437000    1.1599637   -3.2252531   -1.6713439   0.11290436   -3.2252531    1.5539091   984046 
 3438000    1.1587423   -3.2238226   -1.6718304   0.11775441   -3.2238226    1.5519922   984224 
 3439000    1.1584407    -3.223651   -1.6723417    0.1166202    -3.223651    1.5513092   984401 
 3440000    1.1594514   -3.2249263   -1.6725127   0.11524489   -3.2249263    1.5524135   984559 
 3441000    1.1596147    -3.224867   -1.6725155   0.11363753    -3.224867    1.5523516   984737 
 3442000     1.160238    -3.225629   -1.6727348   0.11276721    -3.225629    1.5528942   984922 
 3443000    1.1610195   -3.2257605   -1.6721278   0.11584124   -3.2257605    1.5536326   985117 
 3444000    1.1594002   -3.2245145    -1.673296   0.11765139   -3.2245145    1.5512185   985274 
 3445000    1.1599491   -3.2252803   -1.6735683   0.11643278   -3.2252803    1.5517119   985427 
 3446000     1.160883   -3.2259489   -1.6732461   0.11501888   -3.2259489    1.5527028   985591 
 3447000    1.1618935   -3.2258559   -1.6720505   0.11866949   -3.2258559    1.5538054   985749 
 3448000    1.1620884   -3.2262026   -1.6724361   0.11775015   -3.2262026    1.5537665   985939 
 3449000    1.1619249   -3.2258779   -1.6725947   0.11772534   -3.2258779    1.5532832   986107 
 3450000    1.1632515   -3.2265515   -1.6717929   0.11794685   -3.2265515    1.5547586   986296 
 3451000    1.1624106   -3.2256389   -1.6722262   0.11899984   -3.2256389    1.5534127   986437 
 3452000     1.164105   -3.2267801   -1.6714091   0.12089962   -3.2267801     1.555371   986631 
 3453000    1.1647593   -3.2275575   -1.6715946   0.11891463   -3.2275575     1.555963   986810 
 3454000    1.1647944   -3.2266588   -1.6708869   0.12082578   -3.2266588    1.5557719   986961 
 3455000    1.1641904   -3.2248072   -1.6701145   0.11726402   -3.2248072    1.5546926   987134 
 3456000    1.1646078   -3.2254466    -1.670488   0.12055334   -3.2254466    1.5549585   987319 
 3457000    1.1640665   -3.2248794   -1.6709253    0.1186192   -3.2248794    1.5539541   987498 
 3458000    1.1627927   -3.2233725   -1.6713828   0.11764156   -3.2233725    1.5519896   987666 
 3459000    1.1637672   -3.2240103   -1.6710219   0.12088429   -3.2240103    1.5529885   987858 
 3460000    1.1647151   -3.2238042   -1.6698466   0.11777988   -3.2238042    1.5539577   988046 
 3461000    1.1649348   -3.2238433   -1.6698237   0.11917309   -3.2238433    1.5540196   988193 
 3462000    1.1666084    -3.224774   -1.6687659   0.11746049    -3.224774    1.5560081   988348 
 3463000    1.1666795   -3.2248025   -1.6689894   0.11345906   -3.2248025    1.5558132   988532 
 3464000    1.1664008    -3.223653   -1.6685292   0.11556464    -3.223653    1.5551238   988734 
 3465000    1.1671458   -3.2233988    -1.667565    0.1156746   -3.2233988    1.5558338   988914 
 3466000    1.1673583   -3.2226652   -1.6667967   0.11903329   -3.2226652    1.5558685   989072 
 3467000    1.1672217   -3.2218019   -1.6663608   0.12048786   -3.2218019    1.5554411   989228 
 3468000    1.1682126   -3.2226742   -1.6662099   0.11669919   -3.2226742    1.5564642   989417 
 3469000    1.1686707   -3.2232696   -1.6664421   0.11448205   -3.2232696    1.5568276   989574 
 3470000    1.1677457    -3.222378   -1.6670499   0.11694309    -3.222378    1.5553282   989744 
 3471000    1.1676433   -3.2213026   -1.6664125   0.11744249   -3.2213026    1.5548901   989936 
 3472000    1.1675491   -3.2208104   -1.6662985   0.11592091   -3.2208104    1.5545119   990097 
 3473000    1.1686943   -3.2216001   -1.6658353   0.11702734   -3.2216001    1.5557648   990270 
 3474000    1.1677483   -3.2206986   -1.6664458     0.114094   -3.2206986    1.5542528   990431 
 3475000    1.1670047   -3.2192889   -1.6662893   0.11488613   -3.2192889    1.5529996   990599 
 3476000    1.1688444   -3.2208658   -1.6657006   0.11757139   -3.2208658    1.5551652   990779 
 3477000    1.1682765   -3.2187995   -1.6646706   0.11907212   -3.2187995    1.5541289   990958 
 3478000    1.1695546    -3.219933   -1.6643959   0.11486495    -3.219933     1.555537   991144 
 3479000    1.1702956   -3.2203965    -1.664125   0.11713214   -3.2203965    1.5562714   991304 
 3480000    1.1704609   -3.2198718   -1.6636177   0.12088404   -3.2198718    1.5562542   991455 
 3481000    1.1711103   -3.2201005   -1.6632703   0.12417359   -3.2201005    1.5568303   991638 
 3482000    1.1720348   -3.2203018   -1.6625191   0.12027492   -3.2203018    1.5577828   991814 
 3483000    1.1731423   -3.2213317   -1.6623378   0.12120737   -3.2213317    1.5589939   991980 
 3484000    1.1727669   -3.2214765   -1.6632894   0.12241529   -3.2214765    1.5581871   992176 
 3485000    1.1717751   -3.2197141   -1.6631317   0.11953614   -3.2197141    1.5565823   992359 
 3486000    1.1722085   -3.2198398    -1.662903   0.12036754   -3.2198398    1.5569368   992500 
 3487000    1.1724612    -3.219719   -1.6626725   0.12204296    -3.219719    1.5570465   992644 
 3488000    1.1741417    -3.220753   -1.6617245   0.11855573    -3.220753    1.5590286   992803 
 3489000    1.1729395   -3.2193026   -1.6621495    0.1205009   -3.2193026    1.5571531   992981 
 3490000    1.1742262   -3.2202988   -1.6617264   0.12151071   -3.2202988    1.5585724   993165 
 3491000    1.1747666   -3.2207541   -1.6617282   0.12073587   -3.2207541    1.5590259   993333 
 3492000    1.1758337   -3.2216301   -1.6614676   0.11933726   -3.2216301    1.5601625   993511 
 3493000    1.1759741   -3.2210634   -1.6609659    0.1209067   -3.2210634    1.5600976   993671 
 3494000    1.1764957   -3.2216427   -1.6610919   0.12038451   -3.2216427    1.5605508   993823 
 3495000     1.176211   -3.2210585   -1.6611489   0.11951995   -3.2210585    1.5599095   993991 
 3496000    1.1762318   -3.2216605   -1.6619525   0.12035406   -3.2216605     1.559708   994137 
 3497000    1.1767684   -3.2217023   -1.6615354   0.12701121   -3.2217023    1.5601669   994298 
 3498000     1.176681   -3.2209832   -1.6611817   0.12332855   -3.2209832    1.5598015   994457 
 3499000    1.1775211   -3.2216942   -1.6610128   0.12005422   -3.2216942    1.5606814   994606 
 3500000    1.1773978    -3.220488   -1.6602179   0.12025216    -3.220488    1.5602701   994764 
 3501000    1.1771521   -3.2204999   -1.6608361   0.12334021   -3.2204999    1.5596638   994943 
 3502000    1.1790897   -3.2215562   -1.6595779   0.11798509   -3.2215562    1.5619783   995104 
 3503000     1.178452   -3.2205753     -1.65971   0.12088053   -3.2205753    1.5608653   995275 
 3504000    1.1790774   -3.2213424   -1.6598871   0.12106409   -3.2213424    1.5614552   995427 
 3505000    1.1773839   -3.2187928   -1.6598857    0.1275591   -3.2187928    1.5589071   995622 
 3506000    1.1779934    -3.219824   -1.6603888   0.12316705    -3.219824    1.5594353   995800 
 3507000    1.1795427   -3.2206477   -1.6594247   0.12236908   -3.2206477     1.561223   995968 
 3508000    1.1788157   -3.2188937   -1.6588726   0.12268841   -3.2188937     1.560021   996121 
 3509000    1.1795481   -3.2197105   -1.6589678   0.12446302   -3.2197105    1.5607427   996279 
 3510000    1.1804702   -3.2203164   -1.6585981   0.12487288   -3.2203164    1.5617183   996435 
 3511000     1.179692   -3.2193176   -1.6588842   0.12347882   -3.2193176    1.5604334   996598 
 3512000    1.1796668   -3.2189143   -1.6587318   0.12219684   -3.2189143    1.5601825   996737 
 3513000    1.1802399   -3.2191756   -1.6584325   0.12602142   -3.2191756    1.5607432   996863 
 3514000     1.180511   -3.2192626   -1.6584521   0.12204238   -3.2192626    1.5608105   997049 
 3515000    1.1802201   -3.2179291   -1.6577489    0.1244909   -3.2179291    1.5601802   997206 
 3516000    1.1813004   -3.2188347   -1.6574754   0.12219395   -3.2188347    1.5613593   997365 
 3517000    1.1815972   -3.2190312    -1.657527   0.12435993   -3.2190312    1.5615042   997523 
 3518000    1.1816078    -3.218925   -1.6576823   0.11986849    -3.218925    1.5612427   997699 
 3519000    1.1824627    -3.219451   -1.6573167   0.12490249    -3.219451    1.5621343   997851 
 3520000    1.1827024   -3.2198154   -1.6576478   0.11798209   -3.2198154    1.5621677   998032 
 3521000    1.1819694   -3.2178727   -1.6569469   0.12509139   -3.2178727    1.5609258   998207 
 3522000    1.1821138   -3.2165526   -1.6556754   0.13091217   -3.2165526    1.5608772   998360 
 3523000    1.1839499   -3.2186022    -1.655573   0.12512581   -3.2186022    1.5630292   998534 
 3524000    1.1843016   -3.2189147   -1.6556638   0.12207141   -3.2189147    1.5632509   998689 
 3525000    1.1832573    -3.217504   -1.6558646   0.12632408    -3.217504    1.5616394   998838 
 3526000    1.1845824   -3.2188035   -1.6557001   0.12528166   -3.2188035    1.5631034   999020 
 3527000    1.1847531    -3.219023   -1.6559258   0.12189149    -3.219023    1.5630972   999168 
 3528000    1.1854898   -3.2197268   -1.6559598   0.12358792   -3.2197268     1.563767   999361 
 3529000    1.1848549   -3.2186049   -1.6559537   0.12304681   -3.2186049    1.5626512   999539 
 3530000    1.1849048   -3.2187111   -1.6562801    0.1203048   -3.2187111     1.562431   999722 
 3531000    1.1852806   -3.2185131   -1.6557867   0.12538112   -3.2185131    1.5627264   999850 
 3532000    1.1858219    -3.218306   -1.6551128   0.12889493    -3.218306    1.5631931  1000008 
 3533000    1.1878468   -3.2200908   -1.6544962   0.12319711   -3.2200908    1.5655947  1000179 
 3534000    1.1865436   -3.2185278   -1.6548557   0.12391354   -3.2185278    1.5636721  1000310 
 3535000    1.1880382   -3.2197621   -1.6543815   0.12240654   -3.2197621    1.5653806  1000477 
 3536000    1.1876491   -3.2196012   -1.6549585   0.12554664   -3.2196012    1.5646427  1000621 
 3537000     1.187235   -3.2181566    -1.654319   0.12085072   -3.2181566    1.5638376  1000787 
 3538000    1.1878245   -3.2190578    -1.654675    0.1245602   -3.2190578    1.5643827  1000935 
 3539000    1.1883187   -3.2192469   -1.6544603   0.12390423   -3.2192469    1.5647866  1001093 
 3540000    1.1891716   -3.2200537   -1.6544239   0.12549312   -3.2200537    1.5656298  1001272 
 3541000     1.187892   -3.2188236   -1.6551533   0.12133219   -3.2188236    1.5636703  1001448 
 3542000    1.1887337   -3.2191794   -1.6546543    0.1262027   -3.2191794    1.5645251  1001610 
 3543000    1.1894442   -3.2200848   -1.6548385   0.12715663   -3.2200848    1.5652462  1001747 
 3544000    1.1901296   -3.2203658   -1.6544833    0.1252747   -3.2203658    1.5658824  1001917 
 3545000    1.1901784   -3.2201784   -1.6544427   0.12944577   -3.2201784    1.5657356  1002052 
 3546000    1.1913485   -3.2218497   -1.6548375   0.12752537   -3.2218497    1.5670122  1002220 
 3547000    1.1889489   -3.2181737   -1.6545425   0.12938499   -3.2181737    1.5636312  1002364 
 3548000    1.1906633   -3.2194285   -1.6538081   0.12948459   -3.2194285    1.5656204  1002534 
 3549000    1.1910582    -3.220138   -1.6542701   0.12907687    -3.220138    1.5658679  1002708 
 3550000    1.1915706   -3.2201115   -1.6538151   0.12881925   -3.2201115    1.5662963  1002865 
 3551000    1.1918822   -3.2204565    -1.654013   0.12871991   -3.2204565    1.5664435  1003033 
 3552000     1.192412   -3.2200984   -1.6532335   0.12426419   -3.2200984    1.5668649  1003209 
 3553000    1.1929028   -3.2202864   -1.6530312   0.12493771   -3.2202864    1.5672552  1003372 
 3554000    1.1928631   -3.2192634   -1.6523258   0.13223098   -3.2192634    1.5669375  1003542 
 3555000    1.1938293   -3.2199379   -1.6519828    0.1287576   -3.2199379    1.5679552  1003703 
 3556000    1.1936905   -3.2199295   -1.6523956   0.12919133   -3.2199295     1.567534  1003856 
 3557000    1.1939881   -3.2201971   -1.6525035   0.12761421   -3.2201971    1.5676935  1004004 
 3558000    1.1932308    -3.219145    -1.652686   0.12911716    -3.219145     1.566459  1004158 
 3559000    1.1941527   -3.2194021   -1.6519436   0.12590372   -3.2194021    1.5674585  1004293 
 3560000    1.1940727   -3.2192056   -1.6520956   0.12939247   -3.2192056      1.56711  1004449 
 3561000    1.1932121   -3.2175589   -1.6518246   0.12937637   -3.2175589    1.5657344  1004607 
 3562000     1.194033   -3.2186535   -1.6520743   0.13018054   -3.2186535    1.5665792  1004756 
 3563000    1.1940097   -3.2186779   -1.6523522   0.12612445   -3.2186779    1.5663257  1004899 
 3564000     1.194851   -3.2181767   -1.6509891   0.12759213   -3.2181767    1.5671876  1005054 
 3565000    1.1944295   -3.2167376   -1.6503429   0.12525582   -3.2167376    1.5663947  1005208 
 3566000      1.19499   -3.2173623     -1.65046   0.12463628   -3.2173623    1.5669022  1005354 
 3567000    1.1952839   -3.2179761   -1.6509457   0.12405979   -3.2179761    1.5670304  1005519 
 3568000    1.1953366   -3.2178081   -1.6509439   0.12879814   -3.2178081    1.5668642  1005670 
 3569000    1.1961088   -3.2179778   -1.6503476   0.12492389   -3.2179778    1.5676301  1005828 
 3570000    1.1963987   -3.2177931   -1.6500464   0.12707504   -3.2177931    1.5677466  1005997 
 3571000    1.1964921   -3.2173678   -1.6497107   0.12483674   -3.2173678    1.5676571  1006133 
 3572000    1.1963896   -3.2171028   -1.6498231   0.12745536   -3.2171028    1.5672797  1006289 
 3573000     1.195551   -3.2155758   -1.6496171   0.12846262   -3.2155758    1.5659587  1006432 
 3574000    1.1961829   -3.2158443   -1.6492961   0.12848126   -3.2158443    1.5665482  1006585 
 3575000    1.1977717   -3.2164996   -1.6480795   0.12851116   -3.2164996    1.5684201  1006719 
 3576000    1.1988656   -3.2174839   -1.6478731    0.1230223   -3.2174839    1.5696109  1006874 
 3577000    1.1986098   -3.2169776   -1.6479477   0.13043665   -3.2169776    1.5690298  1007032 
 3578000    1.1987621   -3.2171506   -1.6481505   0.13004097   -3.2171506    1.5690001  1007179 
 3579000    1.1990155   -3.2172137   -1.6481157   0.12824175   -3.2172137     1.569098  1007329 
 3580000    1.1986882   -3.2179324   -1.6494869   0.12952623   -3.2179324    1.5684455  1007473 
 3581000    1.1986339   -3.2182012   -1.6500525   0.12536504   -3.2182012    1.5681488  1007618 
 3582000    1.1989073   -3.2177714   -1.6494875   0.12838167   -3.2177714    1.5682839  1007761 
 3583000    1.1983698   -3.2166186   -1.6492431   0.13215237   -3.2166186    1.5673755  1007893 
 3584000    1.1996635   -3.2174669    -1.648622   0.13001887   -3.2174669     1.568845  1008036 
 3585000    1.2004253   -3.2168298   -1.6472236   0.13354919   -3.2168298    1.5696061  1008187 
 3586000    1.2007269   -3.2175612   -1.6477927   0.13524723   -3.2175612    1.5697684  1008336 
 3587000    1.2023075   -3.2182069   -1.6465918   0.13644362   -3.2182069    1.5716151  1008477 
 3588000    1.2035246   -3.2190832   -1.6461034    0.1300523   -3.2190832    1.5729798  1008622 
 3589000    1.2025796   -3.2183347   -1.6467988   0.13073713   -3.2183347    1.5715359  1008756 
 3590000    1.2025422   -3.2172005   -1.6459532    0.1321457   -3.2172005    1.5712473  1008910 
 3591000    1.2020001   -3.2176807   -1.6473691   0.13273083   -3.2176807    1.5703117  1009056 
 3592000    1.2033224   -3.2183533   -1.6465619   0.13348335   -3.2183533    1.5717915  1009215 
 3593000    1.2030452   -3.2178837   -1.6466816   0.13335173   -3.2178837    1.5712021  1009361 
 3594000    1.2040937    -3.219137   -1.6467696   0.13688265    -3.219137    1.5723674  1009492 
 3595000    1.2033176   -3.2189285   -1.6478142    0.1325221   -3.2189285    1.5711143  1009646 
 3596000    1.2043258   -3.2197364   -1.6475628   0.13114565   -3.2197364    1.5721737  1009811 
 3597000     1.204094   -3.2186069   -1.6469911   0.13282901   -3.2186069    1.5716159  1009975 
 3598000    1.2037809   -3.2183442   -1.6473875   0.13259849   -3.2183442    1.5709567  1010136 
 3599000    1.2043237   -3.2180941   -1.6466732    0.1271209   -3.2180941    1.5714209  1010293 
 3600000    1.2045343   -3.2186481   -1.6471468    0.1295196   -3.2186481    1.5715012  1010418 
 3601000    1.2042511   -3.2175364   -1.6466581   0.12970153   -3.2175364    1.5708783  1010581 
 3602000    1.2049751   -3.2172559   -1.6456819   0.13394655   -3.2172559     1.571574  1010741 
 3603000    1.2054094   -3.2179792   -1.6460644   0.13078557   -3.2179792    1.5719148  1010886 
 3604000    1.2051467    -3.217706   -1.6463265   0.12851943    -3.217706    1.5713796  1011010 
 3605000    1.2066806   -3.2195501   -1.6463899   0.13083171   -3.2195501    1.5731602  1011151 
 3606000    1.2060657   -3.2191499   -1.6470557   0.12847095   -3.2191499    1.5720942  1011321 
 3607000    1.2060286   -3.2186546   -1.6468418   0.12924807   -3.2186546    1.5718127  1011471 
 3608000    1.2065697   -3.2183707   -1.6460751    0.1339581   -3.2183707    1.5722957  1011614 
 3609000    1.2066521   -3.2179854   -1.6457938   0.13179364   -3.2179854    1.5721916  1011750 
 3610000    1.2062257   -3.2168016   -1.6453891   0.13338051   -3.2168016    1.5714125  1011894 
 3611000    1.2072949    -3.218373   -1.6457961   0.12862085    -3.218373    1.5725769  1012041 
 3612000    1.2075926   -3.2173109    -1.644584   0.13152217   -3.2173109    1.5727269  1012194 
 3613000    1.2072624   -3.2167059   -1.6446529   0.13685001   -3.2167059     1.572053  1012351 
 3614000    1.2080315   -3.2183535   -1.6455102   0.13161092   -3.2183535    1.5728433  1012487 
 3615000    1.2089294   -3.2185389   -1.6447924    0.1296277   -3.2185389    1.5737465  1012658 
 3616000    1.2074454   -3.2169632   -1.6453596   0.13129229   -3.2169632    1.5716036  1012794 
 3617000    1.2084727   -3.2178136   -1.6450841   0.12892123   -3.2178136    1.5727295  1012930 
 3618000    1.2092188   -3.2182905   -1.6448106   0.12974016   -3.2182905    1.5734799  1013072 
 3619000    1.2088302   -3.2176682   -1.6449408    0.1312656   -3.2176682    1.5727274  1013231 
 3620000    1.2095996   -3.2176144   -1.6441034   0.13188329   -3.2176144     1.573511  1013371 
 3621000    1.2086568   -3.2161257    -1.644032   0.13228563   -3.2161257    1.5720937  1013494 
 3622000    1.2106676   -3.2182676   -1.6437929   0.13152205   -3.2182676    1.5744747  1013645 
 3623000    1.2107486   -3.2183484    -1.643975   0.12865019   -3.2183484    1.5743733  1013778 
 3624000    1.2112322   -3.2180361   -1.6432622   0.13444524   -3.2180361    1.5747739  1013925 
 3625000    1.2098416   -3.2167209    -1.644014   0.13508587   -3.2167209    1.5727069  1014092 
 3626000    1.2110391   -3.2173162   -1.6432575   0.13457283   -3.2173162    1.5740587  1014224 
 3627000    1.2118734   -3.2187703   -1.6438244   0.13550362   -3.2187703    1.5749458  1014351 
 3628000    1.2115135   -3.2187526   -1.6445042   0.13427456   -3.2187526    1.5742484  1014499 
 3629000    1.2107408   -3.2171791   -1.6441843   0.13251463   -3.2171791    1.5729947  1014660 
 3630000    1.2129513   -3.2195783     -1.64394   0.13183371   -3.2195783    1.5756383  1014807 
 3631000    1.2124968   -3.2190608   -1.6442472   0.13181037   -3.2190608    1.5748136  1014958 
 3632000    1.2118441   -3.2182941   -1.6445794   0.13330957   -3.2182941    1.5737147  1015120 
 3633000    1.2135614   -3.2203253   -1.6446227   0.13037524   -3.2203253    1.5757026  1015276 
 3634000    1.2122624   -3.2183382   -1.6445407   0.13632255   -3.2183382    1.5737974  1015417 
 3635000    1.2122809   -3.2187231   -1.6451574   0.13595997   -3.2187231    1.5735657  1015582 
 3636000    1.2140181   -3.2200057   -1.6444302   0.13448157   -3.2200057    1.5755755  1015740 
 3637000    1.2151096   -3.2205839   -1.6437998    0.1304498   -3.2205839    1.5767841  1015874 
 3638000     1.213763   -3.2199255   -1.6451011   0.13424013   -3.2199255    1.5748243  1016011 
 3639000    1.2142597   -3.2198392   -1.6446076     0.134538   -3.2198392    1.5752315  1016164 
 3640000    1.2148552   -3.2204758    -1.644692   0.13372726   -3.2204758    1.5757839  1016306 
 3641000    1.2147037   -3.2198221   -1.6444688   0.13615029   -3.2198221    1.5753533  1016457 
 3642000    1.2142083   -3.2196101   -1.6450837   0.13548336   -3.2196101    1.5745265  1016576 
 3643000    1.2143256   -3.2193022   -1.6448017   0.13142343   -3.2193022    1.5745005  1016691 
 3644000    1.2156459   -3.2207515    -1.644753   0.13434544   -3.2207515    1.5759985  1016829 
 3645000    1.2155038    -3.220865   -1.6452785   0.13593921    -3.220865    1.5755864  1016976 
 3646000    1.2157123   -3.2199859   -1.6443631   0.13347557   -3.2199859    1.5756228  1017127 
 3647000    1.2161266   -3.2192764   -1.6433273   0.13451007   -3.2192764     1.575949  1017263 
 3648000    1.2164324   -3.2196229   -1.6434899   0.13748565   -3.2196229     1.576133  1017400 
 3649000    1.2163071   -3.2193155    -1.643554   0.13478406   -3.2193155    1.5757615  1017535 
 3650000    1.2169538   -3.2202335   -1.6438293   0.13865168   -3.2202335    1.5764042  1017661 
 3651000     1.216819   -3.2197552   -1.6437207   0.13818874   -3.2197552    1.5760345  1017787 
 3652000    1.2175602   -3.2204504   -1.6436822   0.13392383   -3.2204504    1.5767683  1017933 
 3653000    1.2178062   -3.2203367   -1.6434389   0.13476377   -3.2203367    1.5768978  1018055 
 3654000    1.2185616   -3.2206905   -1.6430346   0.13380461   -3.2206905    1.5776559  1018197 
 3655000    1.2173124   -3.2189913   -1.6432126   0.13712296   -3.2189913    1.5757787  1018365 
 3656000    1.2183078   -3.2198344   -1.6429561   0.13747817   -3.2198344    1.5768783  1018487 
 3657000    1.2184314    -3.218891   -1.6420571   0.13873062    -3.218891    1.5768339  1018619 
 3658000    1.2190746   -3.2196726   -1.6422294   0.13698425   -3.2196726    1.5774432  1018763 
 3659000    1.2187612    -3.219951   -1.6431098   0.13976678    -3.219951    1.5768412  1018890 
 3660000    1.2199951   -3.2206981   -1.6425022    0.1383321   -3.2206981    1.5781959  1019046 
 3661000       1.2196   -3.2196702   -1.6422252   0.13627105   -3.2196702    1.5774449  1019201 
 3662000    1.2191596   -3.2187266   -1.6420663   0.13627691   -3.2187266    1.5766603  1019340 
 3663000    1.2200875   -3.2194766   -1.6418361   0.13735322   -3.2194766    1.5776405  1019482 
 3664000    1.2205304   -3.2196892   -1.6416834   0.13829196   -3.2196892    1.5780058  1019616 
 3665000    1.2202133   -3.2199919   -1.6426049   0.13293608   -3.2199919     1.577387  1019751 
 3666000    1.2200744   -3.2194877   -1.6425292   0.13686042   -3.2194877    1.5769584  1019912 
 3667000    1.2206866   -3.2191363   -1.6416109   0.13972503   -3.2191363    1.5775254  1020057 
 3668000     1.221271   -3.2196316   -1.6415381    0.1348883   -3.2196316    1.5780935  1020178 
 3669000    1.2209448   -3.2187785   -1.6413199   0.13443386   -3.2187785    1.5774586  1020316 
 3670000    1.2214467     -3.21911   -1.6411869   0.13817921     -3.21911     1.577923  1020435 
 3671000    1.2216966    -3.218959   -1.6408925    0.1370939    -3.218959    1.5780664  1020551 
 3672000     1.221422   -3.2190897   -1.6416021   0.13820546   -3.2190897    1.5774876  1020696 
 3673000    1.2212316   -3.2179975   -1.6409984   0.13576935   -3.2179975    1.5769991  1020853 
 3674000    1.2221474   -3.2193031    -1.641293   0.13609801   -3.2193031    1.5780102  1020964 
 3675000      1.22263   -3.2198155     -1.64136     0.137341   -3.2198155    1.5784555  1021079 
 3676000    1.2226933   -3.2201602   -1.6418564   0.13833423   -3.2201602    1.5783038  1021230 
 3677000    1.2218608   -3.2194376   -1.6424231   0.13799493   -3.2194376    1.5770145  1021369 
 3678000    1.2218497    -3.219018   -1.6421861   0.13785375    -3.219018    1.5768319  1021478 
 3679000    1.2225088   -3.2194499   -1.6419882    0.1372118   -3.2194499    1.5774617  1021621 
 3680000    1.2243418   -3.2210921   -1.6414832    0.1386765   -3.2210921    1.5796088  1021762 
 3681000    1.2235108   -3.2198258   -1.6415053   0.13911384   -3.2198258    1.5783205  1021902 
 3682000    1.2232414   -3.2190072   -1.6412318    0.1395143   -3.2190072    1.5777753  1022030 
 3683000    1.2259652    -3.222005   -1.6409329   0.13539064    -3.222005     1.581072  1022170 
 3684000    1.2249939   -3.2208268   -1.6412347     0.137231   -3.2208268    1.5795922  1022317 
 3685000     1.225183   -3.2206195   -1.6410245   0.13990691   -3.2206195     1.579595  1022473 
 3686000    1.2249028   -3.2207558   -1.6417183   0.13846943   -3.2207558    1.5790376  1022600 
 3687000    1.2250342   -3.2208359   -1.6418189   0.13933679   -3.2208359    1.5790171  1022723 
 3688000    1.2260551   -3.2214786   -1.6413465   0.13895839   -3.2214786     1.580132  1022853 
 3689000    1.2256366   -3.2206137   -1.6412171   0.14099232   -3.2206137    1.5793966  1022980 
 3690000    1.2259486   -3.2211187   -1.6415501    0.1365472   -3.2211187    1.5795686  1023129 
 3691000    1.2268998   -3.2219804   -1.6414195    0.1399833   -3.2219804    1.5805609  1023280 
 3692000    1.2265417   -3.2221016    -1.642178   0.13724813   -3.2221016    1.5799236  1023394 
 3693000    1.2276033   -3.2230357   -1.6419115   0.14050431   -3.2230357    1.5811242  1023502 
 3694000    1.2265547   -3.2207917   -1.6412156   0.14241872   -3.2207917    1.5795761  1023630 
 3695000    1.2279778   -3.2223566   -1.6411533   0.14013224   -3.2223566    1.5812034  1023763 
 3696000     1.227202   -3.2214077   -1.6413716   0.13889744   -3.2214077    1.5800361  1023872 
 3697000    1.2273671   -3.2212174   -1.6411262   0.13858126   -3.2212174    1.5800913  1023974 
 3698000    1.2270767   -3.2203722   -1.6408645   0.14776874   -3.2203722    1.5795077  1024110 
 3699000    1.2293869   -3.2232839   -1.6410405   0.13734281   -3.2232839    1.5822434  1024264 
 3700000    1.2274674   -3.2210299   -1.6414821   0.13764728   -3.2210299    1.5795479  1024410 
 3701000     1.226453   -3.2199671    -1.641945   0.14001899   -3.2199671    1.5780222  1024553 
 3702000     1.228282   -3.2218392   -1.6416566   0.13704506   -3.2218392    1.5801827  1024678 
 3703000    1.2276198   -3.2203296   -1.6411714   0.13896831   -3.2203296    1.5791582  1024790 
 3704000    1.2287393   -3.2208667   -1.6404659   0.14141241   -3.2208667    1.5804008  1024918 
 3705000    1.2278813   -3.2196129   -1.6405004   0.14391942   -3.2196129    1.5791124  1025038 
 3706000    1.2294141   -3.2211337   -1.6402582   0.13866843   -3.2211337    1.5808755  1025173 
 3707000    1.2301449   -3.2212722   -1.6396824   0.13765362   -3.2212722    1.5815899  1025319 
 3708000    1.2304039   -3.2215213   -1.6398112   0.13847607   -3.2215213    1.5817101  1025457 
 3709000     1.231394   -3.2222065   -1.6394305   0.13646163   -3.2222065     1.582776  1025591 
 3710000    1.2308009   -3.2213772   -1.6395378   0.14097366   -3.2213772    1.5818394  1025704 
 3711000    1.2306348   -3.2206348     -1.63918   0.14213947   -3.2206348    1.5814548  1025815 
 3712000    1.2304165   -3.2197594   -1.6387762   0.14244819   -3.2197594    1.5809831  1025939 
 3713000    1.2325585   -3.2224798   -1.6389959   0.13864815   -3.2224798    1.5834839  1026102 
 3714000    1.2320278   -3.2222394   -1.6396146   0.14126435   -3.2222394    1.5826247  1026217 
 3715000    1.2315161   -3.2206333   -1.6388571   0.14161567   -3.2206333    1.5817762  1026341 
 3716000    1.2319038    -3.221373   -1.6393085   0.14151332    -3.221373    1.5820645  1026477 
 3717000    1.2326099   -3.2220749   -1.6392855   0.13779854   -3.2220749    1.5827894  1026595 
 3718000    1.2314283    -3.220759   -1.6397025   0.14135696    -3.220759    1.5810565  1026735 
 3719000    1.2323015   -3.2217467     -1.63976   0.13895461   -3.2217467    1.5819866  1026859 
 3720000    1.2320104   -3.2213594   -1.6399313   0.14041322   -3.2213594     1.581428  1026979 
 3721000    1.2324134   -3.2219566   -1.6402161   0.14313376   -3.2219566    1.5817405  1027112 
 3722000    1.2329778   -3.2220705   -1.6397952   0.13907582   -3.2220705    1.5822753  1027235 
 3723000    1.2327702   -3.2220419   -1.6402039   0.14311701   -3.2220419    1.5818381  1027346 
 3724000    1.2340283   -3.2231379   -1.6399043   0.14219742   -3.2231379    1.5832336  1027488 
 3725000    1.2327064   -3.2215798   -1.6402346   0.14499965   -3.2215798    1.5813452  1027613 
 3726000    1.2333325   -3.2220211   -1.6400605   0.14341651   -3.2220211    1.5819606  1027735 
 3727000    1.2348192   -3.2235595   -1.6398846   0.14177327   -3.2235595    1.5836749  1027860 
 3728000    1.2351748   -3.2235848   -1.6396619   0.13965684   -3.2235848    1.5839229  1027995 
 3729000    1.2341272   -3.2224099   -1.6400305   0.14059614   -3.2224099    1.5823794  1028125 
 3730000    1.2369355   -3.2245221   -1.6387423   0.14361326   -3.2245221    1.5857797  1028255 
 3731000    1.2358015    -3.223018   -1.6388831   0.14299703    -3.223018    1.5841349  1028379 
 3732000    1.2363817   -3.2232904   -1.6386044   0.14086212   -3.2232904     1.584686  1028504 
 3733000    1.2371724   -3.2236746   -1.6381447   0.14348201   -3.2236746    1.5855298  1028614 
 3734000    1.2361244   -3.2228758   -1.6388308   0.14296464   -3.2228758    1.5840451  1028706 
 3735000    1.2362228   -3.2221552   -1.6381812   0.14150022   -3.2221552     1.583974  1028834 
 3736000     1.236877   -3.2229903   -1.6383829   0.14476874   -3.2229903    1.5846074  1028967 
 3737000    1.2374336   -3.2236904   -1.6385316   0.14179882   -3.2236904    1.5851588  1029072 
 3738000    1.2379603   -3.2250762   -1.6394199   0.14146683   -3.2250762    1.5856562  1029187 
 3739000    1.2364528   -3.2225304   -1.6389619   0.13909646   -3.2225304    1.5835685  1029289 
 3740000    1.2370662   -3.2228857   -1.6387287   0.14116003   -3.2228857     1.584157  1029417 
 3741000    1.2362076   -3.2218936   -1.6389867   0.14542685   -3.2218936    1.5829069  1029515 
 3742000    1.2367055   -3.2234877   -1.6401694   0.14147521   -3.2234877    1.5833183  1029662 
 3743000    1.2373317   -3.2231235   -1.6392127   0.14244278   -3.2231235    1.5839109  1029798 
 3744000    1.2381189   -3.2230662   -1.6383477   0.14431406   -3.2230662    1.5847184  1029928 
 3745000    1.2370841   -3.2214966   -1.6382825   0.14259196   -3.2214966    1.5832141  1030045 
 3746000    1.2370343   -3.2209802   -1.6380205   0.14862301   -3.2209802    1.5829598  1030169 
 3747000    1.2375212   -3.2208278    -1.637434   0.14451388   -3.2208278    1.5833938  1030292 
 3748000    1.2386041   -3.2222315   -1.6376552   0.14135612   -3.2222315    1.5845763  1030424 
 3749000    1.2380033   -3.2221191    -1.638505   0.14078308   -3.2221191    1.5836141  1030550 
 3750000    1.2379434   -3.2214296   -1.6381072   0.14245965   -3.2214296    1.5833224  1030690 
 3751000    1.2388526   -3.2219566   -1.6376897    0.1451005   -3.2219566     1.584267  1030832 
 3752000    1.2385272   -3.2217516   -1.6381158   0.14405965   -3.2217516    1.5836358  1030972 
 3753000      1.23945   -3.2222929    -1.637654   0.14430024   -3.2222929    1.5846389  1031087 
 3754000    1.2390408   -3.2220261   -1.6380609   0.14252478   -3.2220261    1.5839652  1031185 
 3755000    1.2396965   -3.2225149   -1.6378958   0.14172348   -3.2225149    1.5846191  1031305 
 3756000    1.2411669   -3.2236875   -1.6373581   0.14263801   -3.2236875    1.5863293  1031415 
 3757000    1.2403038   -3.2228744   -1.6378663   0.14145587   -3.2228744     1.585008  1031557 
 3758000    1.2402764   -3.2226352   -1.6378743   0.14240811   -3.2226352     1.584761  1031695 
 3759000    1.2406367   -3.2231923   -1.6381507    0.1412286   -3.2231923    1.5850417  1031812 
 3760000     1.240999   -3.2235875   -1.6382581    0.1396994   -3.2235875    1.5853294  1031926 
 3761000    1.2411352   -3.2229694   -1.6376551   0.14394614   -3.2229694    1.5853144  1032049 
 3762000    1.2419382   -3.2237562   -1.6375974   0.14318744   -3.2237562    1.5861588  1032167 
 3763000    1.2424256   -3.2245494   -1.6379265   0.14468426   -3.2245494    1.5866229  1032270 
 3764000    1.2422742    -3.223554    -1.637272   0.14950083    -3.223554     1.586282  1032366 
 3765000    1.2434093   -3.2250898   -1.6375474   0.14553887   -3.2250898    1.5875423  1032489 
 3766000    1.2437138   -3.2257786   -1.6380136    0.1433486   -3.2257786    1.5877649  1032597 
 3767000    1.2423391   -3.2237251   -1.6378932   0.14877555   -3.2237251    1.5858319  1032713 
 3768000    1.2442029   -3.2253289   -1.6373024   0.14872643   -3.2253289    1.5880264  1032833 
 3769000    1.2434076   -3.2251743   -1.6383411   0.14664748   -3.2251743    1.5868331  1032949 
 3770000    1.2448092   -3.2266736   -1.6382424    0.1439614   -3.2266736    1.5884312  1033073 
 3771000    1.2446888   -3.2260317   -1.6379295   0.14760741   -3.2260317    1.5881023  1033187 
 3772000     1.245077   -3.2259803   -1.6375503   0.14397553   -3.2259803      1.58843  1033296 
 3773000    1.2442416   -3.2250166   -1.6378443    0.1460874   -3.2250166    1.5871723  1033421 
 3774000    1.2458091   -3.2270732   -1.6380598   0.14659771   -3.2270732    1.5890134  1033524 
 3775000    1.2452217   -3.2259777   -1.6378948   0.14915624   -3.2259777    1.5880829  1033642 
 3776000     1.245491   -3.2258941   -1.6376721   0.14609643   -3.2258941    1.5882219  1033775 
 3777000    1.2456939   -3.2260027   -1.6377233   0.14408279   -3.2260027    1.5882794  1033906 
 3778000    1.2452813   -3.2256318   -1.6380628   0.15022224   -3.2256318    1.5875691  1034026 
 3779000    1.2449006   -3.2256006   -1.6387149   0.14655329   -3.2256006    1.5868857  1034155 
 3780000    1.2465558   -3.2272227   -1.6384144   0.14404414   -3.2272227    1.5888083  1034277 
 3781000    1.2462134   -3.2263942    -1.638156   0.14272944   -3.2263942    1.5882383  1034364 
 3782000    1.2446667   -3.2237646   -1.6376356    0.1495313   -3.2237646    1.5861291  1034454 
 3783000    1.2458206    -3.224724   -1.6373117   0.14729795    -3.224724    1.5874123  1034576 
 3784000    1.2456466   -3.2233913   -1.6363802   0.14750422   -3.2233913    1.5870111  1034693 
 3785000    1.2461113    -3.224865   -1.6374307   0.14442937    -3.224865    1.5874343  1034803 
 3786000    1.2469284   -3.2254584   -1.6371627   0.14647551   -3.2254584    1.5882957  1034920 
 3787000    1.2456439   -3.2239245   -1.6374304   0.14558277   -3.2239245     1.586494  1035028 
 3788000    1.2461752    -3.224521   -1.6375343   0.14375823    -3.224521    1.5869867  1035148 
 3789000    1.2460654   -3.2237599   -1.6371169   0.14634586   -3.2237599     1.586643  1035281 
 3790000    1.2470081   -3.2246921   -1.6370144   0.14445943   -3.2246921    1.5876778  1035389 
 3791000    1.2470144   -3.2248122   -1.6373058   0.14644256   -3.2248122    1.5875064  1035506 
 3792000     1.247879   -3.2257604   -1.6373282   0.14174873   -3.2257604    1.5884321  1035620 
 3793000    1.2470239     -3.22471   -1.6375593   0.14546431     -3.22471    1.5871507  1035746 
 3794000    1.2473504   -3.2248145   -1.6374062    0.1458287   -3.2248145    1.5874083  1035849 
 3795000    1.2479505   -3.2252999   -1.6372873   0.14556243   -3.2252999    1.5880126  1035953 
 3796000    1.2472849   -3.2254599   -1.6385041   0.14711582   -3.2254599    1.5869558  1036090 
 3797000    1.2473557   -3.2252187   -1.6383704   0.14784445   -3.2252187    1.5868483  1036219 
 3798000    1.2468776   -3.2242882   -1.6381921   0.14547464   -3.2242882    1.5860961  1036313 
 3799000    1.2471894   -3.2246094   -1.6382483   0.14822224   -3.2246094    1.5863611  1036399 
 3800000    1.2490987   -3.2264267   -1.6378318   0.14685992   -3.2264267    1.5885949  1036526 
 3801000    1.2479375   -3.2246997   -1.6377821   0.14984061   -3.2246997    1.5869175  1036657 
 3802000    1.2490087   -3.2267867    -1.638677   0.14448007   -3.2267867    1.5881097  1036768 
 3803000    1.2495753   -3.2263438   -1.6376791    0.1483339   -3.2263438    1.5886647  1036876 
 3804000      1.25001   -3.2275645   -1.6385265   0.14764845   -3.2275645     1.589038  1036993 
 3805000    1.2501365   -3.2269946   -1.6379582   0.15155173   -3.2269946    1.5890364  1037099 
 3806000    1.2501191   -3.2274906   -1.6386632   0.14600976   -3.2274906    1.5888274  1037221 
 3807000    1.2499826   -3.2268244   -1.6383389   0.15133724   -3.2268244    1.5884855  1037331 
 3808000    1.2507567    -3.227065   -1.6377659   0.15092134    -3.227065    1.5892991  1037442 
 3809000    1.2517003   -3.2277764     -1.63745   0.15106038   -3.2277764    1.5903265  1037554 
 3810000    1.2525834   -3.2297287   -1.6384551    0.1483839   -3.2297287    1.5912736  1037668 
 3811000    1.2517554   -3.2281027   -1.6380587   0.14944158   -3.2281027     1.590044  1037784 
 3812000    1.2516759   -3.2279129   -1.6381277   0.15120622   -3.2279129    1.5897852  1037887 
 3813000    1.2523256   -3.2285775   -1.6381434   0.15063807   -3.2285775    1.5904341  1038002 
 3814000    1.2520695   -3.2276419   -1.6377061   0.14911952   -3.2276419    1.5899358  1038115 
 3815000    1.2518559   -3.2282007   -1.6387291   0.14907821   -3.2282007    1.5894716  1038241 
 3816000    1.2532907   -3.2292802   -1.6381446   0.14507054   -3.2292802    1.5911356  1038344 
 3817000    1.2525425   -3.2284287    -1.638413   0.14723636   -3.2284287    1.5900157  1038455 
 3818000     1.253599   -3.2293671   -1.6382002    0.1479986   -3.2293671    1.5911669  1038579 
 3819000    1.2522879   -3.2278851   -1.6385675   0.14784504   -3.2278851    1.5893176  1038700 
 3820000    1.2538231   -3.2297106   -1.6385902   0.14423018   -3.2297106    1.5911204  1038795 
 3821000    1.2533849   -3.2286816   -1.6383086   0.14751978   -3.2286816    1.5903729  1038920 
 3822000     1.253485   -3.2286085   -1.6382877   0.14793976   -3.2286085    1.5903208  1039037 
 3823000      1.25286   -3.2277572   -1.6383915   0.14668046   -3.2277572    1.5893658  1039143 
 3824000    1.2522117   -3.2267918   -1.6384105   0.14926132   -3.2267918    1.5883813  1039249 
 3825000    1.2526608   -3.2270837   -1.6382779   0.15311279   -3.2270837    1.5888058  1039344 
 3826000    1.2529107   -3.2273816   -1.6384332   0.14479064   -3.2273816    1.5889484  1039458 
 3827000    1.2535927   -3.2286861   -1.6390363   0.14737365   -3.2286861    1.5896497  1039565 
 3828000    1.2542739   -3.2300694   -1.6397349   0.14710227   -3.2300694    1.5903345  1039682 
 3829000    1.2538928   -3.2292208   -1.6395453   0.14571133   -3.2292208    1.5896755  1039797 
 3830000    1.2541122   -3.2287926   -1.6390056   0.15197945   -3.2287926     1.589787  1039906 
 3831000    1.2545598   -3.2288394   -1.6386654   0.14792887   -3.2288394     1.590174  1040024 
 3832000    1.2542794   -3.2286055    -1.638975   0.14879213   -3.2286055    1.5896305  1040147 
 3833000    1.2557641   -3.2294051   -1.6380857    0.1479665   -3.2294051    1.5913194  1040273 
 3834000    1.2558828   -3.2296399   -1.6383689   0.15187379   -3.2296399    1.5912709  1040403 
 3835000    1.2549223   -3.2283145   -1.6384287   0.15266552   -3.2283145    1.5898859  1040513 
 3836000    1.2559541   -3.2291847   -1.6381445   0.14967717   -3.2291847    1.5910402  1040613 
 3837000    1.2573671   -3.2299636   -1.6372712   0.15312477   -3.2299636    1.5926924  1040703 
 3838000    1.2571732   -3.2298008   -1.6375468    0.1514141   -3.2298008     1.592254  1040829 
 3839000    1.2555926   -3.2275575   -1.6374321   0.15462332   -3.2275575    1.5901254  1040912 
 3840000     1.257114   -3.2290805   -1.6371707   0.15207878   -3.2290805    1.5919098  1041005 
 3841000    1.2570428   -3.2292195   -1.6375604   0.15349554   -3.2292195    1.5916592  1041110 
 3842000    1.2584638   -3.2320401   -1.6387317   0.14649625   -3.2320401    1.5933084  1041208 
 3843000    1.2574732   -3.2305332   -1.6386441   0.15251807   -3.2305332    1.5918891  1041316 
 3844000    1.2574766   -3.2306873   -1.6389482    0.1513703   -3.2306873     1.591739  1041417 
 3845000    1.2577376   -3.2306704   -1.6387951   0.15237983   -3.2306704    1.5918753  1041544 
 3846000    1.2581588   -3.2315057   -1.6392731   0.14993689   -3.2315057    1.5922326  1041659 
 3847000    1.2571698   -3.2302152   -1.6394051     0.153207   -3.2302152      1.59081  1041771 
 3848000    1.2575336   -3.2299232   -1.6388285   0.15211319   -3.2299232    1.5910947  1041886 
 3849000    1.2577963   -3.2306489   -1.6393776   0.15007661   -3.2306489    1.5912713  1041988 
 3850000    1.2584227    -3.231082   -1.6391696   0.15081268    -3.231082    1.5919125  1042087 
 3851000    1.2565953    -3.228878   -1.6394343   0.15189675    -3.228878    1.5894437  1042190 
 3852000    1.2588069   -3.2308695    -1.638772   0.14909824   -3.2308695    1.5920975  1042284 
 3853000    1.2578248   -3.2289631   -1.6382756   0.15048066   -3.2289631    1.5906875  1042394 
 3854000    1.2578704   -3.2292019   -1.6386109   0.15310726   -3.2292019     1.590591  1042495 
 3855000    1.2578782   -3.2297226   -1.6392803   0.15685492   -3.2297226    1.5904423  1042599 
 3856000    1.2585584   -3.2299166   -1.6388035   0.15047057   -3.2299166    1.5911131  1042723 
 3857000     1.257982   -3.2298195   -1.6396089   0.14822515   -3.2298195    1.5902106  1042837 
 3858000    1.2579885   -3.2299214   -1.6398796   0.14826948   -3.2299214    1.5900418  1042953 
 3859000     1.257686   -3.2296866   -1.6402099   0.14824574   -3.2296866    1.5894767  1043073 
 3860000    1.2586265   -3.2304519   -1.6399559   0.14929568   -3.2304519     1.590496  1043184 
 3861000    1.2590754   -3.2307724   -1.6398845   0.14982023   -3.2307724    1.5908879  1043299 
 3862000    1.2602076    -3.231325   -1.6391607   0.15022991    -3.231325    1.5921643  1043400 
 3863000    1.2591604   -3.2302099   -1.6395515   0.15541276   -3.2302099    1.5906584  1043520 
 3864000    1.2613086   -3.2322439   -1.6390215     0.149334   -3.2322439    1.5932225  1043618 
 3865000    1.2604954    -3.230867   -1.6388426   0.15141432    -3.230867    1.5920244  1043730 
 3866000    1.2606843   -3.2317497   -1.6396484   0.15407333   -3.2317497    1.5921013  1043836 
 3867000    1.2609376   -3.2317387   -1.6395082   0.15036392   -3.2317387    1.5922305  1043961 
 3868000    1.2620108   -3.2326753   -1.6392499   0.15219127   -3.2326753    1.5934254  1044066 
 3869000    1.2631293   -3.2340792   -1.6393867   0.15082094   -3.2340792    1.5946925  1044161 
 3870000    1.2618458   -3.2319298   -1.6389995   0.15259844   -3.2319298    1.5929303  1044254 
 3871000    1.2614314   -3.2319843   -1.6396915   0.15458921   -3.2319843    1.5922928  1044329 
 3872000    1.2612249    -3.231764   -1.6398889   0.15169446    -3.231764    1.5918751  1044432 
 3873000    1.2615564   -3.2317517   -1.6396228   0.15339051   -3.2317517    1.5921289  1044540 
 3874000    1.2622143   -3.2333086   -1.6405019   0.15174846   -3.2333086    1.5928067  1044640 
 3875000    1.2630497   -3.2334507   -1.6397744   0.15104986   -3.2334507    1.5936764  1044761 
 3876000    1.2619483   -3.2322286   -1.6400837   0.15448158   -3.2322286    1.5921449  1044854 
 3877000    1.2638398   -3.2348967   -1.6405424    0.1514514   -3.2348967    1.5943543  1044970 
 3878000    1.2626138   -3.2333113   -1.6406758   0.15757367   -3.2333113    1.5926354  1045083 
 3879000    1.2627802   -3.2333366   -1.6406467   0.15656833   -3.2333366    1.5926899  1045185 
 3880000    1.2636583   -3.2330294   -1.6393891   0.15799571   -3.2330294    1.5936404  1045288 
 3881000    1.2639456   -3.2339521   -1.6401065   0.15172135   -3.2339521    1.5938457  1045391 
 3882000    1.2641222   -3.2336832   -1.6397582   0.15118069   -3.2336832     1.593925  1045485 
 3883000    1.2642191   -3.2337467   -1.6398732   0.15610446   -3.2337467    1.5938734  1045599 
 3884000    1.2647507   -3.2344513   -1.6400861   0.15151903   -3.2344513    1.5943652  1045716 
 3885000    1.2653032   -3.2344113   -1.6395052   0.15133003   -3.2344113    1.5949061  1045818 
 3886000    1.2657881   -3.2348049   -1.6394309   0.15205067   -3.2348049     1.595374  1045912 
 3887000    1.2652221   -3.2339951   -1.6394901   0.15179063   -3.2339951     1.594505  1046014 
 3888000    1.2651704   -3.2345084   -1.6402408   0.15393827   -3.2345084    1.5942676  1046127 
 3889000    1.2640972   -3.2324427   -1.6396751   0.15475299   -3.2324427    1.5927676  1046224 
 3890000    1.2643568   -3.2314718   -1.6385522    0.1557447   -3.2314718    1.5929196  1046339 
 3891000    1.2657106   -3.2327321   -1.6382441   0.15334782   -3.2327321     1.594488  1046429 
 3892000    1.2657183   -3.2329582   -1.6386295   0.15585409   -3.2329582    1.5943286  1046540 
 3893000    1.2640709   -3.2315534    -1.639449   0.15454307   -3.2315534    1.5921044  1046638 
 3894000     1.266431   -3.2333449    -1.638405    0.1502245   -3.2333449    1.5949399  1046728 
 3895000    1.2665328    -3.234014   -1.6391333   0.15088464    -3.234014    1.5948807  1046851 
 3896000    1.2663372   -3.2325496   -1.6380782   0.15341124   -3.2325496    1.5944714  1046958 
 3897000    1.2661595   -3.2318762   -1.6377869   0.15515768   -3.2318762    1.5940893  1047062 
 3898000    1.2665541   -3.2320137   -1.6376133   0.15655683   -3.2320137    1.5944003  1047184 
 3899000    1.2667976    -3.233266   -1.6387054   0.15201411    -3.233266    1.5945606  1047280 
 3900000    1.2663017   -3.2329806   -1.6391964    0.1529718   -3.2329806    1.5937842  1047380 
 3901000     1.266943   -3.2334537   -1.6390206   0.15411141   -3.2334537    1.5944331  1047484 
 3902000    1.2663069   -3.2329196   -1.6394299   0.15263406   -3.2329196    1.5934896  1047578 
 3903000    1.2671999   -3.2344724   -1.6399991   0.15234364   -3.2344724    1.5944734  1047670 
 3904000    1.2672506   -3.2338794   -1.6395021   0.14959846   -3.2338794    1.5943773  1047775 
 3905000    1.2664206   -3.2337555   -1.6405684   0.15620857   -3.2337555    1.5931871  1047871 
 3906000    1.2671214   -3.2343016   -1.6403774   0.15335171   -3.2343016    1.5939241  1047966 
 3907000    1.2689276   -3.2355139   -1.6394548    0.1517054   -3.2355139    1.5960591  1048056 
 3908000    1.2689844   -3.2349863   -1.6390248   0.15298053   -3.2349863    1.5959615  1048167 
 3909000    1.2683123   -3.2352045   -1.6402298   0.15226178   -3.2352045    1.5949747  1048260 
 3910000    1.2676978   -3.2346001   -1.6405592   0.15487804   -3.2346001    1.5940409  1048366 
 3911000    1.2684084   -3.2352797   -1.6404777   0.15980325   -3.2352797     1.594802  1048453 
 3912000      1.26779   -3.2350026   -1.6411074   0.15672177   -3.2350026    1.5938952  1048538 
 3913000    1.2683384   -3.2359212   -1.6414948   0.15867435   -3.2359212    1.5944265  1048642 
 3914000     1.269275   -3.2358818   -1.6404451   0.15662629   -3.2358818    1.5954367  1048752 
 3915000    1.2692894   -3.2359922   -1.6406774   0.15890586   -3.2359922    1.5953148  1048844 
 3916000    1.2693907   -3.2369424   -1.6416676    0.1560556   -3.2369424    1.5952748  1048954 
 3917000    1.2707429   -3.2380204   -1.6411772   0.15736337   -3.2380204    1.5968432  1049040 
 3918000    1.2706461   -3.2387638   -1.6421974   0.15380414   -3.2387638    1.5965663  1049142 
 3919000    1.2704954   -3.2391159   -1.6429048   0.15628064   -3.2391159    1.5962111  1049251 
 3920000    1.2699956   -3.2376787   -1.6422445    0.1561681   -3.2376787    1.5954342  1049349 
 3921000    1.2706961   -3.2388314   -1.6426997   0.15557507   -3.2388314    1.5961316  1049469 
 3922000    1.2705514   -3.2386978   -1.6429121   0.15627106   -3.2386978    1.5957857  1049577 
 3923000    1.2693567   -3.2376467   -1.6435347   0.15644948   -3.2376467     1.594112  1049691 
 3924000    1.2698335   -3.2372976   -1.6427462   0.15849932   -3.2372976    1.5945513  1049796 
 3925000    1.2708636   -3.2375294   -1.6418245   0.16010816   -3.2375294    1.5957049  1049888 
 3926000    1.2714333   -3.2388975    -1.642608   0.15671381   -3.2388975    1.5962896  1049974 
 3927000    1.2709671    -3.237142   -1.6415973   0.15741391    -3.237142    1.5955446  1050079 
 3928000    1.2708622    -3.237623   -1.6423726   0.15649744    -3.237623    1.5952504  1050186 
 3929000    1.2717046   -3.2383426   -1.6421912   0.15461611   -3.2383426    1.5961513  1050289 
 3930000    1.2721635   -3.2383949   -1.6418272   0.15659904   -3.2383949    1.5965677  1050394 
 3931000    1.2711685    -3.236927   -1.6417494   0.15842757    -3.236927    1.5951776  1050487 
 3932000    1.2722884   -3.2388647   -1.6424594   0.15357307   -3.2388647    1.5964053  1050604 
 3933000    1.2721954   -3.2380275   -1.6418742    0.1566866   -3.2380275    1.5961533  1050693 
 3934000    1.2726214   -3.2384892   -1.6419563   0.15489869   -3.2384892    1.5965329  1050795 
 3935000    1.2733637   -3.2389732   -1.6416688   0.15176917   -3.2389732    1.5973044  1050900 
 3936000    1.2742926   -3.2391596   -1.6408587    0.1532761   -3.2391596    1.5983008  1051011 
 3937000    1.2741036   -3.2390334   -1.6411172   0.15471346   -3.2390334    1.5979163  1051108 
 3938000    1.2741366   -3.2391328   -1.6413484   0.15457737   -3.2391328    1.5977844  1051222 
 3939000    1.2739977   -3.2378679   -1.6403898   0.16081876   -3.2378679    1.5974781  1051309 
 3940000    1.2741572    -3.237578   -1.6400216   0.16046495    -3.237578    1.5975565  1051389 
 3941000    1.2737087   -3.2371002   -1.6402292    0.1529547   -3.2371002     1.596871  1051470 
 3942000    1.2740317     -3.23795   -1.6408031   0.15871802     -3.23795    1.5971469  1051555 
 3943000    1.2737812   -3.2381672   -1.6415013   0.15779144   -3.2381672    1.5966658  1051665 
 3944000    1.2736886   -3.2379699   -1.6415538   0.15882367   -3.2379699    1.5964162  1051753 
 3945000    1.2739166   -3.2382844   -1.6417206    0.1562634   -3.2382844    1.5965638  1051844 
 3946000    1.2740396   -3.2387619   -1.6421624   0.15484145   -3.2387619    1.5965995  1051922 
 3947000    1.2736308   -3.2374169   -1.6414555   0.15541265   -3.2374169    1.5959614  1052005 
 3948000    1.2748834   -3.2380565   -1.6406925   0.15638292   -3.2380565     1.597364  1052115 
 3949000    1.2747466   -3.2379905   -1.6409391   0.15567005   -3.2379905    1.5970514  1052208 
 3950000    1.2759399   -3.2393435   -1.6409218   0.15547074   -3.2393435    1.5984218  1052290 
 3951000    1.2753551   -3.2384249   -1.6408662    0.1562079   -3.2384249    1.5975587  1052376 
 3952000    1.2769598    -3.240571   -1.6411602   0.15265488    -3.240571    1.5994107  1052480 
 3953000    1.2749719   -3.2378377    -1.641064   0.16078851   -3.2378377    1.5967737  1052577 
 3954000    1.2759597   -3.2389979   -1.6411541   0.15848635   -3.2389979    1.5978439  1052687 
 3955000    1.2765462   -3.2394924   -1.6410584   0.15687687   -3.2394924     1.598434  1052782 
 3956000    1.2768099   -3.2399661    -1.641337     0.158335   -3.2399661    1.5986291  1052871 
 3957000    1.2758388   -3.2393725   -1.6421246    0.1576188   -3.2393725    1.5972479  1052980 
 3958000    1.2760824   -3.2403762   -1.6429493   0.15556814   -3.2403762    1.5974269  1053063 
 3959000    1.2777737   -3.2417088   -1.6422892   0.15599071   -3.2417088    1.5994196  1053145 
 3960000     1.276218   -3.2396457   -1.6423236   0.16049963   -3.2396457    1.5973221  1053244 
 3961000    1.2770441   -3.2403563   -1.6421429   0.15622904   -3.2403563    1.5982134  1053338 
 3962000       1.2767   -3.2400508   -1.6423849   0.16061083   -3.2400508    1.5976659  1053415 
 3963000    1.2775706    -3.241031   -1.6424289   0.16035642    -3.241031    1.5986022  1053516 
 3964000    1.2768117   -3.2404813   -1.6429577   0.16061896   -3.2404813    1.5975237  1053601 
 3965000    1.2775981   -3.2417653     -1.64342   0.15723519   -3.2417653    1.5983453  1053708 
 3966000    1.2771895   -3.2405147    -1.642811    0.1608559   -3.2405147    1.5977037  1053794 
 3967000    1.2770533   -3.2410638   -1.6436729   0.16237945   -3.2410638    1.5973909  1053888 
 3968000     1.277916   -3.2419628    -1.643643   0.16036744   -3.2419628    1.5983198  1053987 
 3969000     1.277185   -3.2411849   -1.6439098   0.15983984   -3.2411849    1.5972752  1054073 
 3970000    1.2781544   -3.2423618   -1.6440396   0.15775193   -3.2423618    1.5983223  1054182 
 3971000    1.2789049   -3.2437219   -1.6446021   0.15730483   -3.2437219    1.5991197  1054275 
 3972000    1.2772572   -3.2411142   -1.6442032   0.16449699   -3.2411142     1.596911  1054373 
 3973000    1.2790285   -3.2423583   -1.6433601   0.15703393   -3.2423583    1.5989982  1054457 
 3974000    1.2787676   -3.2413499   -1.6428083   0.16406237   -3.2413499    1.5985416  1054543 
 3975000    1.2791142   -3.2420016   -1.6431374   0.16019101   -3.2420016    1.5988642  1054616 
 3976000     1.278391   -3.2409028   -1.6430925   0.16412166   -3.2409028    1.5978103  1054715 
 3977000    1.2799621   -3.2428948   -1.6432786   0.16623491   -3.2428948    1.5996162  1054819 
 3978000    1.2792862   -3.2419745   -1.6433333   0.16080647   -3.2419745    1.5986412  1054905 
 3979000    1.2794025   -3.2415476   -1.6428899   0.16371522   -3.2415476    1.5986577  1054990 
 3980000    1.2800643    -3.242239   -1.6428757   0.15644421    -3.242239    1.5993633  1055070 
 3981000    1.2800933   -3.2429147   -1.6436652   0.15768883   -3.2429147    1.5992495  1055169 
 3982000    1.2806725   -3.2429635   -1.6431207   0.15857146   -3.2429635    1.5998428  1055255 
 3983000    1.2801574    -3.241939   -1.6428882   0.15664543    -3.241939    1.5990507  1055353 
 3984000    1.2800569   -3.2425847   -1.6437959   0.15663751   -3.2425847    1.5987888  1055443 
 3985000    1.2795898    -3.242085   -1.6439915    0.1619518    -3.242085    1.5980934  1055517 
 3986000    1.2800622   -3.2427692   -1.6442464   0.15814807   -3.2427692    1.5985229  1055623 
 3987000    1.2808575   -3.2431171   -1.6437495   0.15522528   -3.2431171    1.5993676  1055721 
 3988000     1.280828   -3.2424192     -1.64324   0.16191857   -3.2424192    1.5991793  1055821 
 3989000    1.2807868   -3.2426638   -1.6436466   0.15791333   -3.2426638    1.5990172  1055894 
 3990000    1.2811719   -3.2420048   -1.6426461   0.16202328   -3.2420048    1.5993587  1055986 
 3991000    1.2804523   -3.2411971   -1.6429063    0.1600948   -3.2411971    1.5982908  1056098 
 3992000     1.281987   -3.2430995   -1.6430429   0.15780943   -3.2430995    1.6000565  1056197 
 3993000    1.2821297   -3.2430798   -1.6429891    0.1560251   -3.2430798    1.6000907  1056292 
 3994000    1.2808865    -3.241725   -1.6433145   0.16348386    -3.241725    1.5984106  1056377 
 3995000    1.2812342   -3.2420879   -1.6433752   0.16342117   -3.2420879    1.5987127  1056464 
 3996000    1.2820802   -3.2430025   -1.6434143   0.15584606   -3.2430025    1.5995882  1056583 
 3997000    1.2822256    -3.242979   -1.6433381    0.1586996    -3.242979    1.5996409  1056668 
 3998000    1.2824905   -3.2431415   -1.6433108   0.16309331   -3.2431415    1.5998307  1056761 
 3999000    1.2828185   -3.2439589   -1.6438735   0.16235569   -3.2439589    1.6000854  1056863 
 4000000    1.2825811   -3.2438348   -1.6441606   0.16131031   -3.2438348    1.5996742  1056939 
 4001000    1.2830494    -3.243906   -1.6438173    0.1616345    -3.243906    1.6000887  1057051 
 4002000    1.2838617   -3.2443444   -1.6433835   0.16107611   -3.2443444    1.6009609  1057144 
 4003000    1.2848761   -3.2449919   -1.6429025   0.16272563   -3.2449919    1.6020895  1057234 
 4004000    1.2846648    -3.245306    -1.643618   0.16507905    -3.245306    1.6016881  1057325 
 4005000    1.2851239   -3.2452955    -1.643182   0.16721871   -3.2452955    1.6021136  1057422 
 4006000    1.2848339   -3.2446382   -1.6430256   0.16194154   -3.2446382    1.6016126  1057514 
 4007000    1.2847331   -3.2450418    -1.643676   0.16206944   -3.2450418    1.6013658  1057594 
 4008000    1.2842484   -3.2451862   -1.6445471   0.16615474   -3.2451862    1.6006391  1057675 
 4009000     1.283553   -3.2451888   -1.6455752    0.1667694   -3.2451888    1.5996136  1057780 
 4010000    1.2846329    -3.246456   -1.6456344   0.16357039    -3.246456    1.6008216  1057871 
 4011000    1.2836411   -3.2455079   -1.6460779   0.16290748   -3.2455079      1.59943  1057974 
 4012000    1.2844153   -3.2457496   -1.6454865   0.16089891   -3.2457496    1.6002631  1058061 
 4013000    1.2841942   -3.2456245   -1.6458002   0.16198998   -3.2456245    1.5998243  1058169 
 4014000    1.2859901    -3.247241    -1.645311   0.16414649    -3.247241      1.60193  1058256 
 4015000    1.2839608   -3.2445891    -1.645326   0.16217384   -3.2445891    1.5992631  1058348 
 4016000    1.2844845   -3.2454926   -1.6457239   0.16390187   -3.2454926    1.5997687  1058445 
 4017000    1.2843023   -3.2450457   -1.6456656   0.16138993   -3.2450457    1.5993801  1058552 
 4018000    1.2841503   -3.2451774   -1.6461392   0.16509638   -3.2451774    1.5990382  1058653 
 4019000    1.2857558   -3.2466107   -1.6456851   0.16381805   -3.2466107    1.6009255  1058727 
 4020000     1.285106   -3.2460458   -1.6460624   0.16501015   -3.2460458    1.5999834  1058815 
 4021000    1.2856984   -3.2471471   -1.6465666   0.16417301   -3.2471471    1.6005804  1058908 
 4022000    1.2859762     -3.24659   -1.6458135   0.16250951     -3.24659    1.6007766  1059007 
 4023000    1.2859012   -3.2464763   -1.6459049   0.16286933   -3.2464763    1.6005714  1059081 
 4024000    1.2854793   -3.2459669   -1.6460521   0.16492365   -3.2459669    1.5999148  1059168 
 4025000    1.2863207   -3.2468451   -1.6460145   0.16499146   -3.2468451    1.6008306  1059255 
 4026000    1.2872601   -3.2483961   -1.6465145   0.16082397   -3.2483961    1.6018816  1059333 
 4027000    1.2871523    -3.247903    -1.646278   0.15877417    -3.247903    1.6016251  1059414 
 4028000    1.2870444   -3.2471167    -1.645768   0.16402836   -3.2471167    1.6013487  1059508 
 4029000    1.2864656   -3.2467663   -1.6462888   0.15980154   -3.2467663    1.6004775  1059608 
 4030000    1.2875652   -3.2475091   -1.6457921   0.16079968   -3.2475091     1.601717  1059693 
 4031000    1.2873153   -3.2476129   -1.6463397   0.16200427   -3.2476129    1.6012732  1059781 
 4032000    1.2869617   -3.2475435    -1.646837   0.16521747   -3.2475435    1.6007065  1059865 
 4033000    1.2869169   -3.2470477   -1.6465118    0.1613709   -3.2470477    1.6005359  1059941 
 4034000    1.2876818   -3.2483707   -1.6469832    0.1603033   -3.2483707    1.6013875  1060007 
 4035000    1.2870882   -3.2473232   -1.6467992   0.16294347   -3.2473232     1.600524  1060090 
 4036000    1.2865882   -3.2470309   -1.6472327   0.16432221   -3.2470309    1.5997982  1060159 
 4037000    1.2884001   -3.2489531   -1.6470288   0.15817534   -3.2489531    1.6019243  1060243 
 4038000    1.2873363   -3.2478325   -1.6473352   0.16044705   -3.2478325    1.6004973  1060312 
 4039000    1.2871034   -3.2478535   -1.6477588   0.16054441   -3.2478535    1.6000946  1060387 
 4040000    1.2875204   -3.2481175   -1.6476599   0.16246175   -3.2481175    1.6004576  1060490 
 4041000    1.2873457    -3.247861   -1.6477578   0.16220263    -3.247861    1.6001032  1060581 
 4042000    1.2890096    -3.249339    -1.647281   0.16097978    -3.249339     1.602058  1060656 
 4043000    1.2886756   -3.2486503   -1.6471554   0.16037357   -3.2486503    1.6014949  1060754 
 4044000    1.2891435   -3.2495012   -1.6475517   0.16184793   -3.2495012    1.6019495  1060838 
 4045000    1.2886605   -3.2480071   -1.6468118   0.16282759   -3.2480071    1.6011953  1060940 
 4046000    1.2890407   -3.2482377   -1.6466742     0.162593   -3.2482377    1.6015636  1061009 
 4047000    1.2894209   -3.2489714   -1.6470848   0.16266738   -3.2489714    1.6018866  1061108 
 4048000    1.2892791   -3.2490008   -1.6474022   0.16259638   -3.2490008    1.6015986  1061182 
 4049000    1.2894626   -3.2486629   -1.6469706   0.16635356   -3.2486629    1.6016923  1061271 
 4050000    1.2898916   -3.2504307    -1.648343   0.15811658   -3.2504307    1.6020877  1061362 
 4051000    1.2908159   -3.2506206   -1.6475177   0.16240812   -3.2506206    1.6031029  1061450 
 4052000    1.2905351   -3.2503295   -1.6477142   0.16419676   -3.2503295    1.6026153  1061542 
 4053000    1.2905488   -3.2502429   -1.6477345   0.16368831   -3.2502429    1.6025084  1061624 
 4054000    1.2900062   -3.2498851   -1.6482058   0.16265226   -3.2498851    1.6016793  1061727 
 4055000    1.2918282   -3.2514003   -1.6475887   0.16467301   -3.2514003    1.6038115  1061813 
 4056000    1.2902532   -3.2493193   -1.6475746   0.16453601   -3.2493193    1.6017447  1061887 
 4057000     1.290991   -3.2505467   -1.6480266    0.1657763   -3.2505467    1.6025202  1061980 
 4058000    1.2902493   -3.2504714   -1.6490348   0.16463513   -3.2504714    1.6014366  1062088 
 4059000    1.2901221    -3.250957   -1.6498124   0.16178242    -3.250957    1.6011445  1062177 
 4060000    1.2904096   -3.2504049   -1.6490543   0.16427197   -3.2504049    1.6013506  1062277 
 4061000    1.2917145   -3.2514905     -1.64862   0.16296215   -3.2514905    1.6028704  1062343 
 4062000    1.2918707   -3.2513936   -1.6484818   0.16877357   -3.2513936    1.6029119  1062444 
 4063000    1.2922654   -3.2514244   -1.6481497   0.16213538   -3.2514244    1.6032747  1062528 
 4064000    1.2932817   -3.2528861   -1.6484562    0.1608446   -3.2528861    1.6044299  1062598 
 4065000    1.2927027   -3.2515403   -1.6479449   0.16835641   -3.2515403    1.6035954  1062675 
 4066000     1.291363   -3.2505514   -1.6487444   0.16596462   -3.2505514     1.601807  1062759 
 4067000    1.2920174   -3.2514075   -1.6489215   0.16420641   -3.2514075     1.602486  1062847 
 4068000    1.2920309   -3.2515319   -1.6491693    0.1659238   -3.2515319    1.6023626  1062940 
 4069000    1.2914471   -3.2508075   -1.6492669    0.1658566   -3.2508075    1.6015406  1063005 
 4070000     1.292822   -3.2525245   -1.6494055   0.16260282   -3.2525245    1.6031189  1063089 
 4071000    1.2916064   -3.2510169   -1.6495138   0.16596246   -3.2510169    1.6015031  1063161 
 4072000    1.2933059   -3.2523919   -1.6488962   0.16367082   -3.2523919    1.6034957  1063237 
 4073000    1.2927255   -3.2515965   -1.6489395   0.16664123   -3.2515965     1.602657  1063316 
 4074000    1.2929211   -3.2518857   -1.6491219   0.16616664   -3.2518857    1.6027638  1063406 
 4075000    1.2922578   -3.2512895   -1.6495151   0.16447311   -3.2512895    1.6017744  1063517 
 4076000    1.2919164   -3.2507861   -1.6495794   0.16629995   -3.2507861    1.6012067  1063613 
 4077000    1.2928702   -3.2512589   -1.6490102   0.16571133   -3.2512589    1.6022487  1063706 
 4078000    1.2935161   -3.2504603   -1.6475422   0.16834915   -3.2504603    1.6029181  1063793 
 4079000    1.2948481   -3.2523831   -1.6479244   0.16761285   -3.2523831    1.6044587  1063866 
 4080000    1.2949608   -3.2521809   -1.6477093    0.1637136   -3.2521809    1.6044716  1063950 
 4081000    1.2939314   -3.2510155   -1.6479384   0.16601407   -3.2510155    1.6030772  1064029 
 4082000    1.2950896   -3.2524328   -1.6480429   0.16799086   -3.2524328    1.6043898  1064110 
 4083000    1.2943823   -3.2514797   -1.6480926   0.16380455   -3.2514797    1.6033871  1064194 
 4084000    1.2948793   -3.2526566   -1.6487819   0.16207688   -3.2526566    1.6038747  1064279 
 4085000    1.2943919   -3.2526055   -1.6494611   0.16497449   -3.2526055    1.6031444  1064363 
 4086000     1.293654   -3.2511881   -1.6490736   0.16623587   -3.2511881    1.6021145  1064440 
 4087000    1.2943533   -3.2528024   -1.6499317   0.16504181   -3.2528024    1.6028707  1064513 
 4088000    1.2944639   -3.2526803   -1.6497871   0.16371591   -3.2526803    1.6028932  1064589 
 4089000     1.294179   -3.2526144   -1.6502169   0.16172362   -3.2526144    1.6023974  1064684 
 4090000    1.2950599   -3.2540335   -1.6506583    0.1606697   -3.2540335    1.6033752  1064759 
 4091000    1.2938801   -3.2523977   -1.6505809   0.16895284   -3.2523977    1.6018168  1064824 
 4092000    1.2941768   -3.2528668   -1.6508257   0.16692844   -3.2528668    1.6020411  1064919 
 4093000    1.2954142   -3.2542412   -1.6507993   0.16682131   -3.2542412    1.6034419  1065006 
 4094000    1.2953943   -3.2539655   -1.6506535   0.16808288   -3.2539655    1.6033119  1065076 
 4095000     1.294661   -3.2527531   -1.6504873   0.16691205   -3.2527531    1.6022658  1065168 
 4096000    1.2955175   -3.2538133   -1.6506274    0.1676215   -3.2538133    1.6031859  1065261 
 4097000    1.2967068   -3.2546295   -1.6501149    0.1710258   -3.2546295    1.6045145  1065356 
 4098000    1.2971504    -3.254984   -1.6500637   0.16924473    -3.254984    1.6049203  1065451 
 4099000    1.2966732   -3.2543155   -1.6501001   0.16713483   -3.2543155    1.6042155  1065527 
 4100000    1.2963347   -3.2538397   -1.6501619   0.16802473   -3.2538397    1.6036778  1065606 
 4101000    1.2976792   -3.2541948   -1.6489954   0.17054748   -3.2541948    1.6051994  1065700 
 4102000    1.2980823   -3.2548716   -1.6492866   0.16908685   -3.2548716     1.605585  1065775 
 4103000    1.2985977   -3.2547965     -1.64869   0.16831964   -3.2547965    1.6061065  1065852 
 4104000    1.2978166   -3.2546822   -1.6496561   0.16815685   -3.2546822    1.6050261  1065928 
 4105000    1.2989416   -3.2563016   -1.6499959   0.16695274   -3.2563016    1.6063058  1066002 
 4106000    1.2982825   -3.2556074   -1.6502537   0.16590112   -3.2556074    1.6053537  1066093 
 4107000    1.2983213   -3.2553757    -1.650099   0.16713687   -3.2553757    1.6052767  1066176 
 4108000    1.2974765   -3.2548759   -1.6507356   0.16658566   -3.2548759    1.6041404  1066237 
 4109000     1.297759    -3.254995   -1.6506558   0.16372119    -3.254995    1.6043392  1066337 
 4110000     1.297441   -3.2547664   -1.6509271   0.16373867   -3.2547664    1.6038393  1066408 
 4111000    1.2965004    -3.254364   -1.6517911   0.16588564    -3.254364    1.6025729  1066477 
 4112000    1.2967941   -3.2541532   -1.6513179   0.16559519   -3.2541532    1.6028353  1066544 
 4113000     1.298325     -3.25639    -1.651789   0.16854256     -3.25639    1.6046011  1066628 
 4114000    1.2975816   -3.2558075   -1.6522321   0.16543551   -3.2558075    1.6035755  1066699 
 4115000    1.2973981   -3.2547955   -1.6515594   0.16923834   -3.2547955    1.6032361  1066774 
 4116000    1.2985454   -3.2554416   -1.6509127   0.16941203   -3.2554416    1.6045289  1066857 
 4117000    1.2981145    -3.254816   -1.6509187   0.16879832    -3.254816    1.6038972  1066923 
 4118000    1.2986898   -3.2562183   -1.6517245   0.16506404   -3.2562183    1.6044938  1066999 
 4119000    1.2971788   -3.2543232   -1.6518073   0.16652465   -3.2543232    1.6025159  1067073 
 4120000    1.2984735   -3.2557036   -1.6516935   0.16474161   -3.2557036    1.6040101  1067143 
 4121000    1.2987324   -3.2558989   -1.6516742    0.1624313   -3.2558989    1.6042247  1067213 
 4122000    1.2991683   -3.2565689    -1.651932   0.16576592   -3.2565689    1.6046369  1067297 
 4123000    1.2995306   -3.2573314   -1.6523508   0.16811819   -3.2573314    1.6049806  1067366 
 4124000    1.2984885   -3.2564534   -1.6528906   0.16807202   -3.2564534    1.6035628  1067453 
 4125000    1.2996954   -3.2578357   -1.6529042   0.16518079   -3.2578357    1.6049315  1067534 
 4126000    1.2988299    -3.256262   -1.6525419   0.17012495    -3.256262      1.60372  1067629 
 4127000    1.2993428   -3.2570582   -1.6528477   0.16846477   -3.2570582    1.6042106  1067724 
 4128000    1.2997342   -3.2572933   -1.6527273   0.16369284   -3.2572933     1.604566  1067809 
 4129000    1.2994417   -3.2572294   -1.6531476   0.16996154   -3.2572294    1.6040818  1067891 
 4130000    1.3009566   -3.2582717   -1.6524341   0.16907775   -3.2582717    1.6058375  1067967 
 4131000     1.300674   -3.2585077   -1.6531468   0.16616882   -3.2585077    1.6053609  1068052 
 4132000    1.2988574   -3.2575482   -1.6545525   0.16548597   -3.2575482    1.6029957  1068134 
 4133000    1.3002124   -3.2592443    -1.654698   0.16641451   -3.2592443    1.6045463  1068215 
 4134000    1.2995857   -3.2580102   -1.6543469   0.16833928   -3.2580102    1.6036634  1068288 
 4135000    1.2997914   -3.2585203   -1.6547322   0.16830469   -3.2585203     1.603788  1068374 
 4136000    1.3012121   -3.2601261   -1.6546963   0.16831254   -3.2601261    1.6054298  1068448 
 4137000    1.2996355   -3.2583557   -1.6549777   0.16888716   -3.2583557    1.6033781  1068519 
 4138000    1.3006403    -3.258875   -1.6543774   0.17029719    -3.258875    1.6044976  1068599 
 4139000    1.3004341   -3.2596683   -1.6555108   0.17048461   -3.2596683    1.6041576  1068656 
 4140000     1.300635    -3.259687   -1.6553927   0.17172187    -3.259687    1.6042944  1068730 
 4141000    1.3009178   -3.2586679   -1.6541748   0.16911089   -3.2586679    1.6044931  1068830 
 4142000    1.3016427   -3.2596057   -1.6543252    0.1686669   -3.2596057    1.6052805  1068901 
 4143000    1.3008953   -3.2590358   -1.6547896   0.16843866   -3.2590358    1.6042462  1068976 
 4144000    1.3007932   -3.2587024   -1.6546797   0.16655957   -3.2587024    1.6040227  1069041 
 4145000    1.3016389   -3.2595681   -1.6546541   0.17388093   -3.2595681     1.604914  1069142 
 4146000     1.300154   -3.2584788   -1.6554961   0.16794445   -3.2584788    1.6029827  1069209 
 4147000    1.3009045    -3.259216   -1.6554295   0.16821418    -3.259216    1.6037865  1069290 
 4148000    1.3013708   -3.2593803   -1.6551405   0.17064849   -3.2593803    1.6042398  1069371 
 4149000    1.3021152   -3.2601666   -1.6551067   0.16574588   -3.2601666    1.6050599  1069436 
 4150000    1.3016327    -3.260009   -1.6556745   0.17051352    -3.260009    1.6043345  1069523 
 4151000    1.3008953   -3.2589152   -1.6556004   0.17133299   -3.2589152    1.6033148  1069597 
 4152000    1.3020163   -3.2605679   -1.6559705   0.16464478   -3.2605679    1.6045974  1069663 
 4153000    1.3011663    -3.259038   -1.6556021   0.16728473    -3.259038    1.6034358  1069739 
 4154000    1.3025835   -3.2604444   -1.6553671   0.16058812   -3.2604444    1.6050773  1069809 
 4155000    1.3029265   -3.2597243   -1.6543594   0.16860803   -3.2597243    1.6053649  1069899 
 4156000    1.3014814   -3.2590853   -1.6556253    0.1720435   -3.2590853      1.60346  1069982 
 4157000    1.3025223   -3.2607786   -1.6561608   0.16693174   -3.2607786    1.6046179  1070065 
 4158000    1.3017837   -3.2602579   -1.6566803   0.16927528   -3.2602579    1.6035777  1070152 
 4159000    1.3023462   -3.2602869   -1.6561408     0.166503   -3.2602869    1.6041461  1070235 
 4160000    1.3029189   -3.2603924   -1.6556383   0.17205188   -3.2603924    1.6047541  1070300 
 4161000    1.3033599   -3.2614543    -1.656265   0.17327747   -3.2614543    1.6051892  1070372 
 4162000    1.3037788   -3.2619524   -1.6563312    0.1668422   -3.2619524    1.6056211  1070428 
 4163000     1.303498     -3.26056    -1.655403   0.16997113     -3.26056    1.6051569  1070507 
 4164000    1.3041581    -3.261888   -1.6560158   0.17167777    -3.261888    1.6058722  1070572 
 4165000    1.3036468   -3.2607585   -1.6556238    0.1678609   -3.2607585    1.6051347  1070644 
 4166000      1.30442   -3.2618629   -1.6558722    0.1684529   -3.2618629    1.6059907  1070708 
 4167000    1.3038278   -3.2608198   -1.6556646   0.17359678   -3.2608198    1.6051552  1070779 
 4168000    1.3040433   -3.2613448   -1.6560307   0.17041559   -3.2613448    1.6053141  1070850 
 4169000    1.3042483   -3.2613627   -1.6559087   0.17204599   -3.2613627     1.605454  1070925 
 4170000    1.3033304   -3.2608838    -1.656663   0.16929624   -3.2608838    1.6042208  1070994 
 4171000    1.3045725   -3.2628792   -1.6572361   0.17088752   -3.2628792    1.6056432  1071065 
 4172000    1.3029548   -3.2611651   -1.6576359   0.16661492   -3.2611651    1.6035293  1071147 
 4173000    1.3031851   -3.2614357   -1.6577142    0.1654905   -3.2614357    1.6037214  1071208 
 4174000    1.3033422   -3.2619255    -1.658117   0.17305564   -3.2619255    1.6038085  1071279 
 4175000     1.304341   -3.2629383   -1.6580191   0.16741623   -3.2629383    1.6049192  1071358 
 4176000    1.3040166   -3.2626247   -1.6581975    0.1692239   -3.2626247    1.6044272  1071420 
 4177000    1.3058091   -3.2643311   -1.6577945   0.16915041   -3.2643311    1.6065366  1071484 
 4178000     1.304153   -3.2630341   -1.6586533    0.1721909   -3.2630341    1.6043808  1071563 
 4179000    1.3041942   -3.2636612    -1.659342   0.16662253   -3.2636612    1.6043192  1071638 
 4180000    1.3040835   -3.2635484   -1.6594745   0.16812902   -3.2635484    1.6040738  1071711 
 4181000    1.3038207    -3.262601   -1.6589612   0.17176663    -3.262601    1.6036398  1071785 
 4182000    1.3047171   -3.2629193   -1.6582743   0.17317868   -3.2629193     1.604645  1071850 
 4183000    1.3045495    -3.262819   -1.6584864   0.16942441    -3.262819    1.6043327  1071921 
 4184000    1.3058352   -3.2639859     -1.65818   0.16530965   -3.2639859    1.6058059  1071993 
 4185000     1.305347   -3.2630529   -1.6579492   0.17027655   -3.2630529    1.6051037  1072061 
 4186000    1.3059291   -3.2637189   -1.6580192   0.17330819   -3.2637189    1.6056997  1072141 
 4187000    1.3042584   -3.2627951   -1.6592647   0.16973412   -3.2627951    1.6035303  1072218 
 4188000    1.3062354   -3.2645215   -1.6586758   0.16935607   -3.2645215    1.6058457  1072295 
 4189000    1.3055882   -3.2632925   -1.6583593   0.17398022   -3.2632925    1.6049332  1072373 
 4190000    1.3068082   -3.2646854   -1.6583483   0.16935378   -3.2646854    1.6063371  1072437 
 4191000    1.3063924   -3.2646146   -1.6589054   0.17060786   -3.2646146    1.6057092  1072515 
 4192000    1.3050264   -3.2627367   -1.6587888   0.17097593   -3.2627367    1.6039479  1072570 
 4193000    1.3065886   -3.2648125   -1.6590432    0.1669402   -3.2648125    1.6057692  1072636 
 4194000    1.3065905   -3.2641559   -1.6585145   0.16885598   -3.2641559    1.6056414  1072723 
 4195000    1.3064131   -3.2637584   -1.6584294   0.17185985   -3.2637584     1.605329  1072786 
 4196000    1.3074898   -3.2656413   -1.6590956   0.17049902   -3.2656413    1.6065457  1072857 
 4197000    1.3073863   -3.2656894   -1.6593681   0.17065475   -3.2656894    1.6063213  1072922 
 4198000    1.3060238   -3.2642494   -1.6597143   0.16753875   -3.2642494    1.6045351  1072997 
 4199000    1.3070571   -3.2647845   -1.6590832   0.16884766   -3.2647845    1.6057013  1073066 
 4200000    1.3067289   -3.2649068   -1.6596984   0.16897904   -3.2649068    1.6052084  1073126 
 4201000     1.306645   -3.2651573   -1.6601491   0.16810291   -3.2651573    1.6050081  1073191 
 4202000     1.307169   -3.2655455   -1.6599955   0.17426413   -3.2655455      1.60555  1073259 
 4203000    1.3083689   -3.2662428   -1.6593344   0.16957806   -3.2662428    1.6069085  1073336 
 4204000    1.3081995   -3.2658498   -1.6592466   0.17258963   -3.2658498    1.6066032  1073401 
 4205000     1.307762   -3.2662237   -1.6602611   0.16776676   -3.2662237    1.6059626  1073470 
 4206000    1.3079811   -3.2666647   -1.6605199   0.16890063   -3.2666647    1.6061448  1073528 
 4207000    1.3065374   -3.2650824   -1.6607895   0.16652834   -3.2650824    1.6042929  1073581 
 4208000    1.3078083   -3.2665444   -1.6607987   0.17059405   -3.2665444    1.6057457  1073653 
 4209000    1.3077796   -3.2667305   -1.6611396   0.16936463   -3.2667305    1.6055909  1073733 
 4210000    1.3070211   -3.2649328   -1.6603523   0.17063189   -3.2649328    1.6045805  1073786 
 4211000    1.3086737   -3.2672056   -1.6607071   0.17042893   -3.2672056    1.6064985  1073860 
 4212000    1.3071511   -3.2664685   -1.6619049   0.17035015   -3.2664685    1.6045636  1073904 
 4213000    1.3089375   -3.2680343   -1.6613526   0.16759659   -3.2680343    1.6066817  1073954 
 4214000    1.3085312   -3.2676439    -1.661579   0.16881995   -3.2676439    1.6060649  1074033 
 4215000    1.3074756   -3.2669984   -1.6623098   0.17371105   -3.2669984    1.6046885  1074087 
 4216000    1.3074704    -3.266631   -1.6620654   0.17186625    -3.266631    1.6045657  1074165 
 4217000    1.3081162   -3.2677791   -1.6625016   0.16898196   -3.2677791    1.6052775  1074219 
 4218000    1.3083568   -3.2677242   -1.6622844   0.17173958   -3.2677242    1.6054397  1074308 
 4219000    1.3091045    -3.268063   -1.6618149   0.17320076    -3.268063    1.6062481  1074381 
 4220000    1.3099438   -3.2691136   -1.6619284   0.16558937   -3.2691136    1.6071852  1074443 
 4221000    1.3087686   -3.2673149   -1.6617046   0.16907955   -3.2673149    1.6056103  1074532 
 4222000    1.3091625    -3.267804   -1.6618151   0.17068249    -3.267804    1.6059889  1074602 
 4223000    1.3086594   -3.2675384   -1.6622698   0.17224036   -3.2675384    1.6052686  1074671 
 4224000    1.3090017   -3.2680313    -1.662428   0.17033124   -3.2680313    1.6056033  1074728 
 4225000     1.310168   -3.2686883   -1.6617814    0.1726355   -3.2686883    1.6069069  1074813 
 4226000    1.3098488   -3.2680616   -1.6616494   0.17078417   -3.2680616    1.6064122  1074882 
 4227000    1.3086705   -3.2664542   -1.6615945   0.17289516   -3.2664542    1.6048596  1074954 
 4228000    1.3094288   -3.2678968   -1.6622163   0.16803396   -3.2678968    1.6056806  1075027 
 4229000    1.3101492   -3.2679787   -1.6615269   0.17138209   -3.2679787    1.6064519  1075102 
 4230000    1.3091039   -3.2679372   -1.6628641   0.17208336   -3.2679372    1.6050731  1075167 
 4231000    1.3097741   -3.2682374   -1.6624651   0.17143583   -3.2682374    1.6057723  1075249 
 4232000    1.3102426   -3.2684349   -1.6622017   0.16824235   -3.2684349    1.6062332  1075325 
 4233000    1.3087904   -3.2674863   -1.6631541   0.17107075   -3.2674863    1.6043322  1075406 
 4234000    1.3089588   -3.2683548   -1.6639207   0.16757013   -3.2683548    1.6044341  1075476 
 4235000    1.3086654   -3.2684588   -1.6644872   0.17496022   -3.2684588    1.6039716  1075545 
 4236000    1.3087475   -3.2677773   -1.6638005   0.16814946   -3.2677773    1.6039767  1075609 
 4237000     1.309989   -3.2700036   -1.6646023   0.16801132   -3.2700036    1.6054013  1075674 
 4238000    1.3098537    -3.268488   -1.6633734   0.16950675    -3.268488    1.6051146  1075755 
 4239000    1.3103776   -3.2690315   -1.6633928   0.17159043   -3.2690315    1.6056387  1075834 
 4240000    1.3102137   -3.2691409   -1.6637821   0.16917728   -3.2691409    1.6053588  1075887 
 4241000    1.3104701   -3.2699902   -1.6644143   0.16858355   -3.2699902     1.605576  1075952 
 4242000    1.3111222   -3.2710512   -1.6647719   0.17048909   -3.2710512    1.6062793  1076016 
 4243000    1.3115177   -3.2709925   -1.6643287   0.17077376   -3.2709925    1.6066638  1076083 
 4244000    1.3103602   -3.2696271    -1.664505   0.16937356   -3.2696271    1.6051221  1076166 
 4245000    1.3105946   -3.2705035   -1.6652003   0.17468659   -3.2705035    1.6053033  1076237 
 4246000    1.3113922   -3.2701633   -1.6639562   0.17679565   -3.2701633    1.6062071  1076286 
 4247000    1.3123651   -3.2716842   -1.6643931   0.17292514   -3.2716842    1.6072911  1076358 
 4248000    1.3112262    -3.270728   -1.6649167    0.1734082    -3.270728    1.6058113  1076415 
 4249000    1.3118629   -3.2711856   -1.6647155   0.17305169   -3.2711856    1.6064701  1076496 
 4250000    1.3117854   -3.2720867     -1.66581   0.17285409   -3.2720867    1.6062768  1076562 
 4251000    1.3118226   -3.2725621   -1.6663382   0.17123801   -3.2725621    1.6062238  1076628 
 4252000    1.3120663   -3.2725429   -1.6661207   0.17455201   -3.2725429    1.6064223  1076695 
 4253000    1.3112767   -3.2717949   -1.6664154   0.17339924   -3.2717949    1.6053795  1076746 
 4254000    1.3128383   -3.2744557    -1.667251   0.16837404   -3.2744557    1.6072047  1076804 
 4255000    1.3110386   -3.2721629   -1.6672464   0.17469899   -3.2721629    1.6049166  1076861 
 4256000    1.3123839   -3.2733141   -1.6668581   0.16687634   -3.2733141     1.606456  1076933 
 4257000    1.3123367   -3.2731895   -1.6668762   0.17067029   -3.2731895    1.6063132  1076990 
 4258000    1.3111676   -3.2723155   -1.6675078   0.17177674   -3.2723155    1.6048077  1077040 
 4259000    1.3115944   -3.2731992   -1.6679586   0.16987766   -3.2731992    1.6052407  1077100 
 4260000    1.3128084   -3.2734998   -1.6668687   0.17130229   -3.2734998     1.606631  1077164 
 4261000    1.3120231   -3.2722547   -1.6666891   0.17423255   -3.2722547    1.6055656  1077234 
 4262000     1.312251   -3.2724937   -1.6667445   0.17178027   -3.2724937    1.6057491  1077298 
 4263000    1.3133456   -3.2735209   -1.6665338   0.16736662   -3.2735209     1.606987  1077366 
 4264000    1.3116206    -3.271526   -1.6667658   0.17206942    -3.271526    1.6047602  1077444 
 4265000    1.3138205   -3.2743078    -1.666959   0.16964123   -3.2743078    1.6073488  1077513 
 4266000    1.3125765   -3.2727659   -1.6670566   0.16807008   -3.2727659    1.6057092  1077592 
 4267000    1.3125871   -3.2728322   -1.6671801   0.17032705   -3.2728322    1.6056521  1077639 
 4268000    1.3123847   -3.2723942    -1.667082   0.16879352   -3.2723942    1.6053122  1077701 
 4269000    1.3133408   -3.2735875   -1.6672147    0.1696707   -3.2735875    1.6063728  1077774 
 4270000     1.312867   -3.2728335   -1.6671384   0.17081179   -3.2728335    1.6056951  1077840 
 4271000    1.3130778    -3.272983   -1.6671553   0.17182808    -3.272983    1.6058277  1077924 
 4272000    1.3120871   -3.2719157   -1.6674098   0.17057058   -3.2719157     1.604506  1077998 
 4273000    1.3113616   -3.2715064   -1.6680021   0.17086189   -3.2715064    1.6035043  1078075 
 4274000    1.3130769   -3.2727982   -1.6672874    0.1691264   -3.2727982    1.6055108  1078136 
 4275000    1.3134303   -3.2739282   -1.6680687   0.16724491   -3.2739282    1.6058596  1078192 
 4276000    1.3130451   -3.2725092   -1.6672382   0.16753892   -3.2725092    1.6052709  1078271 
 4277000     1.312226   -3.2716529   -1.6674682   0.17505777   -3.2716529    1.6041848  1078328 
 4278000    1.3128146   -3.2721874   -1.6673784   0.16917745   -3.2721874     1.604809  1078392 
 4279000    1.3128161    -3.272691   -1.6679649   0.17508224    -3.272691    1.6047261  1078449 
 4280000    1.3129464   -3.2733429   -1.6685542   0.17220933   -3.2733429    1.6047887  1078514 
 4281000    1.3133703   -3.2730927   -1.6678738   0.17085723   -3.2730927    1.6052189  1078573 
 4282000    1.3141704   -3.2736844   -1.6676082   0.17592725   -3.2736844    1.6060763  1078654 
 4283000    1.3143215   -3.2745728   -1.6684057   0.17115039   -3.2745728    1.6061671  1078717 
 4284000    1.3135544   -3.2734133    -1.668264   0.17513735   -3.2734133    1.6051493  1078771 
 4285000    1.3135603   -3.2739233   -1.6688501    0.1759573   -3.2739233    1.6050732  1078827 
 4286000    1.3147308   -3.2752549   -1.6688422    0.1739994   -3.2752549    1.6064126  1078888 
 4287000    1.3151703   -3.2752249   -1.6683781   0.17235329   -3.2752249    1.6068468  1078957 
 4288000    1.3136221   -3.2742523   -1.6693922   0.17280437   -3.2742523    1.6048601  1079021 
 4289000    1.3152188   -3.2765887   -1.6698776   0.17021169   -3.2765887    1.6067111  1079088 
 4290000    1.3151975   -3.2765842   -1.6699796    0.1757556   -3.2765842    1.6066046  1079142 
 4291000    1.3156443   -3.2768112   -1.6697606   0.17231921   -3.2768112    1.6070506  1079209 
 4292000    1.3139034   -3.2748233   -1.6699988   0.17654045   -3.2748233    1.6048245  1079276 
 4293000    1.3141137   -3.2760343   -1.6710586   0.17274583   -3.2760343    1.6049757  1079347 
 4294000    1.3153147    -3.276704   -1.6703656   0.17543171    -3.276704    1.6063384  1079417 
 4295000    1.3146783   -3.2765595    -1.671092     0.171233   -3.2765595    1.6054675  1079480 
 4296000    1.3151915   -3.2760321   -1.6700405   0.17090279   -3.2760321    1.6059916  1079549 
 4297000    1.3161628   -3.2773202   -1.6702394   0.16928952   -3.2773202    1.6070808  1079614 
 4298000    1.3153577   -3.2767848   -1.6708029   0.16934732   -3.2767848    1.6059818  1079692 
 4299000    1.3147794   -3.2759502   -1.6707489   0.17551262   -3.2759502    1.6052013  1079742 
 4300000    1.3149691   -3.2761625   -1.6708366   0.17579713   -3.2761625    1.6053259  1079814 
 4301000    1.3153232   -3.2776489   -1.6720081   0.17196328   -3.2776489    1.6056407  1079893 
 4302000    1.3150688   -3.2770064   -1.6717833   0.17231651   -3.2770064    1.6052231  1079965 
 4303000    1.3146007   -3.2761606   -1.6716246   0.17393542   -3.2761606     1.604536  1080043 
 4304000    1.3152391   -3.2775479   -1.6723413   0.17285447   -3.2775479    1.6052066  1080116 
 4305000     1.315185   -3.2780445   -1.6729931   0.17222912   -3.2780445    1.6050514  1080176 
 4306000     1.312778   -3.2750286   -1.6730067    0.1711893   -3.2750286    1.6020219  1080238 
 4307000    1.3153349   -3.2771527   -1.6721012   0.16718149   -3.2771527    1.6050516  1080299 
 4308000     1.315902   -3.2778104   -1.6721708   0.17105326   -3.2778104    1.6056396  1080369 
 4309000    1.3152692   -3.2775558    -1.672782   0.17449813   -3.2775558    1.6047739  1080432 
 4310000    1.3157149   -3.2781692    -1.672954   0.16883589   -3.2781692    1.6052152  1080501 
 4311000    1.3166359   -3.2784732   -1.6722549   0.16714882   -3.2784732    1.6062183  1080582 
 4312000    1.3147233   -3.2765076   -1.6727249   0.17883527   -3.2765076    1.6037827  1080651 
 4313000    1.3171707   -3.2794063   -1.6727348    0.1712735   -3.2794063    1.6066715  1080716 
 4314000    1.3161713   -3.2778182   -1.6724503   0.17012904   -3.2778182    1.6053679  1080773 
 4315000    1.3164885   -3.2782127    -1.672559   0.17440114   -3.2782127    1.6056537  1080841 
 4316000    1.3161454   -3.2777408   -1.6726066   0.17273748   -3.2777408    1.6051342  1080909 
 4317000    1.3170693   -3.2785268   -1.6723475   0.17575227   -3.2785268    1.6061793  1080964 
 4318000    1.3179222   -3.2796938   -1.6725681   0.17436865   -3.2796938    1.6071257  1081027 
 4319000    1.3176942   -3.2799567    -1.673204    0.1732619   -3.2799567    1.6067526  1081091 
 4320000    1.3174212   -3.2800031    -1.673671   0.17367763   -3.2800031    1.6063321  1081150 
 4321000    1.3176026   -3.2800105   -1.6735449   0.16958159   -3.2800105    1.6064655  1081209 
 4322000    1.3176205   -3.2794043    -1.673012   0.17564183   -3.2794043    1.6063923  1081273 
 4323000    1.3181044   -3.2804335   -1.6735255   0.17565203   -3.2804335     1.606908  1081323 
 4324000    1.3179673   -3.2806452   -1.6739787   0.17172396   -3.2806452    1.6066665  1081373 
 4325000       1.3171   -3.2800521   -1.6745156   0.17248395   -3.2800521    1.6055365  1081422 
 4326000    1.3171801   -3.2797263   -1.6741886   0.17752027   -3.2797263    1.6055376  1081487 
 4327000    1.3181578   -3.2806377   -1.6740168   0.17360458   -3.2806377    1.6066209  1081560 
 4328000    1.3178006   -3.2801681   -1.6740731   0.17521769   -3.2801681     1.606095  1081621 
 4329000    1.3188446   -3.2816615   -1.6743923   0.17113791   -3.2816615    1.6072693  1081687 
 4330000    1.3185778   -3.2805503   -1.6737146    0.1742626   -3.2805503    1.6068357  1081760 
 4331000    1.3181829   -3.2799035   -1.6736396   0.17484407   -3.2799035    1.6062639  1081821 
 4332000    1.3177733   -3.2800843   -1.6744115    0.1731019   -3.2800843    1.6056727  1081883 
 4333000    1.3183657   -3.2808821    -1.674587   0.17147928   -3.2808821    1.6062951  1081950 
 4334000    1.3182982   -3.2801833   -1.6740536   0.17887594   -3.2801833    1.6061297  1082006 
 4335000    1.3171238   -3.2797568   -1.6751439   0.17489698   -3.2797568    1.6046129  1082064 
 4336000    1.3182452   -3.2806735   -1.6747746   0.17747594   -3.2806735    1.6058989  1082118 
 4337000    1.3186609   -3.2813459   -1.6750296   0.17270434   -3.2813459    1.6063163  1082178 
 4338000    1.3181315   -3.2806151   -1.6750268   0.17243948   -3.2806151    1.6055883  1082234 
 4339000    1.3184902   -3.2815446   -1.6756203   0.16995427   -3.2815446    1.6059243  1082302 
 4340000    1.3176431   -3.2808624   -1.6760485   0.17470216   -3.2808624    1.6048139  1082355 
 4341000    1.3178761   -3.2814757   -1.6764551   0.17584069   -3.2814757    1.6050206  1082407 
 4342000    1.3183977   -3.2819458   -1.6763804   0.17330761   -3.2819458    1.6055653  1082468 
 4343000     1.318269   -3.2823694     -1.67706    0.1714021   -3.2823694    1.6053093  1082535 
 4344000    1.3184866   -3.2819485   -1.6764765   0.17470531   -3.2819485     1.605472  1082604 
 4345000    1.3186201   -3.2825207   -1.6770033   0.17762445   -3.2825207    1.6055173  1082683 
 4346000    1.3178461   -3.2816807   -1.6771962   0.17438609   -3.2816807    1.6044845  1082744 
 4347000     1.318026    -3.281464   -1.6768449   0.17546466    -3.281464    1.6046191  1082801 
 4348000    1.3180586    -3.281651   -1.6770678   0.17585966    -3.281651    1.6045832  1082852 
 4349000    1.3187107   -3.2821508   -1.6768611    0.1748739   -3.2821508    1.6052896  1082911 
 4350000    1.3185137   -3.2821142     -1.67714   0.17522479   -3.2821142    1.6049742  1082962 
 4351000    1.3191695   -3.2821029   -1.6764312     0.176905   -3.2821029    1.6056717  1083030 
 4352000    1.3183513   -3.2817784   -1.6771783    0.1751301   -3.2817784    1.6046001  1083081 
 4353000    1.3185018   -3.2826144   -1.6779081   0.17164878   -3.2826144    1.6047064  1083133 
 4354000    1.3193645   -3.2843443   -1.6786799    0.1752242   -3.2843443    1.6056644  1083195 
 4355000     1.318864   -3.2834805   -1.6785215   0.17277047   -3.2834805    1.6049589  1083260 
 4356000    1.3194327   -3.2836995   -1.6781152   0.17272627   -3.2836995    1.6055843  1083305 
 4357000     1.319551   -3.2834962   -1.6778494   0.17392937   -3.2834962    1.6056468  1083360 
 4358000    1.3197275   -3.2835024    -1.677715   0.18018424   -3.2835024    1.6057874  1083410 
 4359000    1.3211766   -3.2845216   -1.6770689   0.17962775   -3.2845216    1.6074527  1083476 
 4360000    1.3198417    -3.283369   -1.6776131   0.17589826    -3.283369    1.6057559  1083525 
 4361000     1.320929   -3.2845857   -1.6775944   0.17487998   -3.2845857    1.6069913  1083584 
 4362000    1.3196103   -3.2837061   -1.6783976   0.17218338   -3.2837061    1.6053085  1083637 
 4363000    1.3197346   -3.2838378   -1.6784878   0.17578975   -3.2838378    1.6053501  1083711 
 4364000    1.3197768   -3.2841362   -1.6788266   0.17591664   -3.2841362    1.6053096  1083773 
 4365000    1.3199645   -3.2840036   -1.6785324   0.17525543   -3.2840036    1.6054712  1083818 
 4366000     1.321092   -3.2851435   -1.6783795   0.17267567   -3.2851435     1.606764  1083871 
 4367000    1.3202903   -3.2842191   -1.6785117   0.17414564   -3.2842191    1.6057074  1083926 
 4368000     1.321476   -3.2854229   -1.6783699   0.17334246   -3.2854229    1.6070531  1083991 
 4369000    1.3204771   -3.2839183   -1.6781882   0.17473683   -3.2839183    1.6057302  1084064 
 4370000    1.3206643   -3.2844312   -1.6785579   0.17306407   -3.2844312    1.6058734  1084121 
 4371000    1.3215647    -3.285511    -1.678642     0.174968    -3.285511     1.606869  1084188 
 4372000     1.321249   -3.2847277   -1.6783389    0.1743236   -3.2847277    1.6063888  1084253 
 4373000    1.3203908   -3.2834165   -1.6781392   0.17094761   -3.2834165    1.6052773  1084299 
 4374000    1.3212853    -3.284693   -1.6784082   0.17093829    -3.284693    1.6062848  1084353 
 4375000    1.3210254   -3.2850882   -1.6792215   0.17391798   -3.2850882    1.6058667  1084422 
 4376000     1.321021   -3.2848255    -1.679059   0.17557673   -3.2848255    1.6057666  1084486 
 4377000    1.3216371   -3.2850566   -1.6786123   0.17678555   -3.2850566    1.6064444  1084534 
 4378000     1.320236   -3.2840729   -1.6794233   0.17522964   -3.2840729    1.6046496  1084596 
 4379000    1.3225493   -3.2867554   -1.6793979   0.17226177   -3.2867554    1.6073575  1084666 
 4380000    1.3219583   -3.2855849   -1.6790465   0.17398219   -3.2855849    1.6065385  1084734 
 4381000    1.3214077   -3.2851131   -1.6793178   0.17379149   -3.2851131    1.6057953  1084784 
 4382000    1.3209319   -3.2856474   -1.6805013   0.17488677   -3.2856474    1.6051461  1084832 
 4383000    1.3207276   -3.2856025   -1.6807979   0.17659145   -3.2856025    1.6048046  1084895 
 4384000    1.3214305   -3.2863575   -1.6807906   0.17439857   -3.2863575    1.6055669  1084957 
 4385000    1.3214218   -3.2865309   -1.6810455   0.17187086   -3.2865309    1.6054854  1085005 
 4386000    1.3212655   -3.2870042    -1.681793   0.17853715   -3.2870042    1.6052112  1085062 
 4387000     1.321355   -3.2872621    -1.682031   0.17097633   -3.2872621    1.6052311  1085122 
 4388000    1.3217891   -3.2879043   -1.6822243   0.17644866   -3.2879043      1.60568  1085175 
 4389000    1.3229293   -3.2890528    -1.682075   0.17317604   -3.2890528    1.6069778  1085234 
 4390000    1.3217606   -3.2876299   -1.6821753   0.17439047   -3.2876299    1.6054546  1085304 
 4391000    1.3227858   -3.2888244   -1.6822281   0.17402321   -3.2888244    1.6065962  1085374 
 4392000     1.322546   -3.2878336   -1.6816249   0.17493688   -3.2878336    1.6062087  1085439 
 4393000    1.3223829   -3.2876623   -1.6817227   0.17719838   -3.2876623    1.6059397  1085487 
 4394000    1.3214387   -3.2871478   -1.6824243   0.17569363   -3.2871478    1.6047235  1085534 
 4395000     1.323614   -3.2895021   -1.6822391   0.17357764   -3.2895021     1.607263  1085603 
 4396000    1.3219971   -3.2873733   -1.6821698   0.17580464   -3.2873733    1.6052035  1085668 
 4397000    1.3231312   -3.2891591   -1.6826747   0.18075017   -3.2891591    1.6064844  1085733 
 4398000     1.323625   -3.2894255   -1.6824437   0.17930411   -3.2894255    1.6069817  1085802 
 4399000    1.3234582   -3.2897809   -1.6831053   0.17628204   -3.2897809    1.6066757  1085872 
 4400000    1.3227523   -3.2887543   -1.6830317   0.18019704   -3.2887543    1.6057227  1085937 
 4401000    1.3229275     -3.28875    -1.682893   0.17356702     -3.28875    1.6058569  1085990 
 4402000    1.3237307     -3.28978   -1.6830561   0.17405131     -3.28978    1.6067239  1086063 
 4403000    1.3241454   -3.2899796   -1.6828352   0.17131642   -3.2899796    1.6071444  1086119 
 4404000    1.3226317   -3.2878279   -1.6826213   0.17865595   -3.2878279    1.6052066  1086187 
 4405000    1.3237292   -3.2896122     -1.68318   0.17317521   -3.2896122    1.6064321  1086259 
 4406000    1.3235038   -3.2891552   -1.6831295   0.17739082   -3.2891552    1.6060256  1086349 
 4407000    1.3231732   -3.2889913   -1.6834496   0.17353711   -3.2889913    1.6055417  1086405 
 4408000    1.3236809   -3.2893797   -1.6833241   0.17650369   -3.2893797    1.6060556  1086474 
 4409000    1.3237926   -3.2894525     -1.68335   0.17412083   -3.2894525    1.6061025  1086534 
 4410000    1.3238625   -3.2889667   -1.6828519   0.17538028   -3.2889667    1.6061149  1086583 
 4411000    1.3241198   -3.2898827   -1.6835326   0.17713592   -3.2898827    1.6063501  1086635 
 4412000    1.3239054   -3.2899985   -1.6839972   0.17188364   -3.2899985    1.6060013  1086695 
 4413000     1.323393   -3.2894688   -1.6841717   0.17615748   -3.2894688    1.6052971  1086751 
 4414000    1.3234046    -3.289569   -1.6843494   0.17734774    -3.289569    1.6052196  1086813 
 4415000    1.3237368   -3.2896231   -1.6840819   0.17543045   -3.2896231    1.6055412  1086868 
 4416000    1.3249584    -3.290901   -1.6839505   0.17080452    -3.290901    1.6069505  1086917 
 4417000    1.3252975    -3.291704   -1.6844414   0.17138058    -3.291704    1.6072626  1086984 
 4418000    1.3248224   -3.2910212   -1.6844382    0.1755229   -3.2910212     1.606583  1087054 
 4419000    1.3254926   -3.2915894   -1.6842676   0.17196826   -3.2915894    1.6073218  1087104 
 4420000     1.324596   -3.2908017   -1.6846454   0.17498997   -3.2908017    1.6061563  1087157 
 4421000    1.3239337   -3.2901794    -1.684906   0.17668167   -3.2901794    1.6052735  1087211 
 4422000    1.3249091   -3.2912964   -1.6849363   0.17280752   -3.2912964    1.6063601  1087276 
 4423000    1.3244054   -3.2906372    -1.684969   0.17589463   -3.2906372    1.6056681  1087331 
 4424000    1.3250226   -3.2906545   -1.6843164   0.17676673   -3.2906545    1.6063381  1087384 
 4425000    1.3254159   -3.2916388   -1.6849109   0.17521136   -3.2916388    1.6067278  1087443 
 4426000    1.3268733   -3.2934178   -1.6850195   0.17554331   -3.2934178    1.6083983  1087508 
 4427000     1.326738   -3.2932735   -1.6851248   0.17320133   -3.2932735    1.6081486  1087566 
 4428000    1.3257442   -3.2919948    -1.685141   0.17803165   -3.2919948    1.6068539  1087627 
 4429000    1.3259418   -3.2922487   -1.6852529   0.17712976   -3.2922487    1.6069958  1087693 
 4430000    1.3253144   -3.2918953   -1.6857322   0.17739295   -3.2918953    1.6061631  1087742 
 4431000    1.3259801   -3.2926868    -1.685782   0.17784464   -3.2926868    1.6069048  1087786 
 4432000    1.3263582   -3.2936779    -1.686399   0.17704937   -3.2936779    1.6072789  1087843 
 4433000    1.3260981   -3.2935785   -1.6866769   0.17257136   -3.2935785    1.6069016  1087885 
 4434000    1.3251813   -3.2925866   -1.6869051    0.1798147   -3.2925866    1.6056815  1087959 
 4435000    1.3242346   -3.2917477   -1.6872885   0.18308396   -3.2917477    1.6044592  1088010 
 4436000    1.3255872   -3.2936777   -1.6876609   0.17405096   -3.2936777    1.6060168  1088065 
 4437000    1.3258315   -3.2937421   -1.6875031   0.17760196   -3.2937421     1.606239  1088115 
 4438000    1.3256301   -3.2935141   -1.6876048   0.17581935   -3.2935141    1.6059094  1088173 
 4439000     1.326057   -3.2943634   -1.6880151   0.17604698   -3.2943634    1.6063484  1088226 
 4440000    1.3249136   -3.2920929   -1.6872226   0.17822317   -3.2920929    1.6048703  1088289 
 4441000    1.3251542   -3.2925105   -1.6874328    0.1767498   -3.2925105    1.6050777  1088346 
 4442000    1.3257582   -3.2932433   -1.6875284   0.17908747   -3.2932433    1.6057149  1088410 
 4443000    1.3267129   -3.2947602   -1.6879924   0.17517222   -3.2947602    1.6067679  1088480 
 4444000    1.3252268   -3.2924684   -1.6875873   0.18116608   -3.2924684    1.6048811  1088539 
 4445000    1.3260696   -3.2940428   -1.6882163   0.17584443   -3.2940428    1.6058265  1088590 
 4446000    1.3259213   -3.2933161   -1.6877534    0.1751633   -3.2933161    1.6055628  1088647 
 4447000    1.3266814   -3.2943553   -1.6879606   0.17682503   -3.2943553    1.6063947  1088707 
 4448000    1.3267704   -3.2942736   -1.6878509   0.17557978   -3.2942736    1.6064227  1088761 
 4449000    1.3274416   -3.2954395   -1.6882955   0.17600033   -3.2954395    1.6071439  1088823 
 4450000    1.3265572   -3.2949351   -1.6889519     0.177858   -3.2949351    1.6059832  1088884 
 4451000    1.3262996   -3.2943308   -1.6887435   0.17601019   -3.2943308    1.6055873  1088941 
 4452000    1.3277583   -3.2956332   -1.6883761   0.17707413   -3.2956332    1.6072572  1089006 
 4453000    1.3271809   -3.2945941    -1.688117   0.17840144   -3.2945941    1.6064771  1089061 
 4454000    1.3271244   -3.2940421   -1.6877218   0.17858386   -3.2940421    1.6063202  1089121 
 4455000       1.3276   -3.2950878   -1.6882819   0.17541295   -3.2950878    1.6068059  1089182 
 4456000    1.3263312    -3.293321    -1.688154   0.17923004    -3.293321     1.605167  1089252 
 4457000    1.3266458   -3.2937082   -1.6882503    0.1804177   -3.2937082    1.6054579  1089313 
 4458000    1.3287857   -3.2959905   -1.6880315   0.17305555   -3.2959905     1.607959  1089373 
 4459000    1.3276746   -3.2947202   -1.6881913   0.17615042   -3.2947202    1.6065289  1089431 
 4460000    1.3280081   -3.2963016   -1.6894724   0.17440568   -3.2963016    1.6068292  1089501 
 4461000    1.3277386   -3.2948937   -1.6884923   0.18046441   -3.2948937    1.6064014  1089570 
 4462000    1.3281658   -3.2956361   -1.6887842   0.17689826   -3.2956361    1.6068519  1089615 
 4463000    1.3271288   -3.2948487    -1.689331   0.17470614   -3.2948487    1.6055177  1089669 
 4464000    1.3284841   -3.2956342   -1.6885713   0.17579017   -3.2956342    1.6070629  1089733 
 4465000     1.327643   -3.2943151   -1.6883581   0.17774412   -3.2943151    1.6059571  1089793 
 4466000    1.3280154   -3.2953634    -1.689065   0.17855998   -3.2953634    1.6062984  1089867 
 4467000    1.3283761   -3.2957223    -1.689076   0.17675821   -3.2957223    1.6066463  1089927 
 4468000    1.3281068   -3.2953487   -1.6891004   0.17569575   -3.2953487    1.6062483  1089976 
 4469000    1.3279924   -3.2955341   -1.6895052   0.18007731   -3.2955341    1.6060289  1090031 
 4470000    1.3277016   -3.2959047   -1.6903142   0.17649005   -3.2959047    1.6055904  1090090 
 4471000    1.3281965   -3.2963342   -1.6902279   0.17660737   -3.2963342    1.6061063  1090146 
 4472000     1.327614   -3.2961711   -1.6908487   0.17831045   -3.2961711    1.6053224  1090200 
 4473000    1.3276264   -3.2965709   -1.6913306   0.17619906   -3.2965709    1.6052403  1090266 
 4474000    1.3283538   -3.2970106   -1.6909793   0.17357503   -3.2970106    1.6060313  1090326 
 4475000    1.3288013    -3.297721   -1.6912341   0.17608043    -3.297721    1.6064869  1090384 
 4476000    1.3274767   -3.2960376   -1.6912537   0.18068264   -3.2960376    1.6047839  1090453 
 4477000    1.3287381   -3.2973105   -1.6910901   0.17573719   -3.2973105    1.6062205  1090513 
 4478000    1.3289148   -3.2983773   -1.6920287   0.17806541   -3.2983773    1.6063487  1090571 
 4479000    1.3274678   -3.2966284   -1.6921244   0.17836897   -3.2966284    1.6045039  1090636 
 4480000    1.3288376   -3.2976239   -1.6915512   0.17798406   -3.2976239    1.6060727  1090695 
 4481000    1.3288714   -3.2981167   -1.6920959   0.17946471   -3.2981167    1.6060208  1090758 
 4482000    1.3287331   -3.2979189   -1.6921594   0.17631297   -3.2979189    1.6057595  1090822 
 4483000     1.329506   -3.2981792   -1.6915696   0.17481937   -3.2981792    1.6066096  1090879 
 4484000     1.330176   -3.2988637   -1.6915285   0.17696777   -3.2988637    1.6073352  1090936 
 4485000     1.330185   -3.2988535   -1.6915708   0.17516634   -3.2988535    1.6072827  1090979 
 4486000    1.3286998   -3.2973551   -1.6919581   0.17704449   -3.2973551    1.6053969  1091041 
 4487000    1.3287474   -3.2974101   -1.6920337    0.1797724   -3.2974101    1.6053764  1091094 
 4488000    1.3295185   -3.2981048    -1.691863   0.18063609   -3.2981048    1.6062418  1091139 
 4489000    1.3298512   -3.2981143   -1.6915632   0.17560912   -3.2981143    1.6065511  1091202 
 4490000    1.3301771   -3.2987237   -1.6918615   0.17735502   -3.2987237    1.6068622  1091258 
 4491000    1.3287728   -3.2974106    -1.692308   0.17717388   -3.2974106    1.6051026  1091301 
 4492000    1.3290998   -3.2978985   -1.6924568   0.17959971   -3.2978985    1.6054417  1091339 
 4493000    1.3288665   -3.2982318    -1.693144   0.17890101   -3.2982318    1.6050878  1091388 
 4494000    1.3289026   -3.2983804   -1.6933371   0.17460685   -3.2983804    1.6050432  1091448 
 4495000    1.3301797   -3.2997542   -1.6932495   0.17745159   -3.2997542    1.6065047  1091503 
 4496000    1.3288654   -3.2994583   -1.6946349   0.17558441   -3.2994583    1.6048233  1091567 
 4497000     1.329434   -3.2993583    -1.693935   0.17604985   -3.2993583    1.6054232  1091626 
 4498000    1.3298727   -3.2995329   -1.6936594   0.17178125   -3.2995329    1.6058735  1091680 
 4499000    1.3296712   -3.2991083   -1.6935635   0.17572803   -3.2991083    1.6055449  1091738 
 4500000    1.3294796   -3.2988078   -1.6935634   0.17739589   -3.2988078    1.6052445  1091785 
 4501000    1.3299479   -3.3001599   -1.6944177   0.18039764   -3.3001599    1.6057422  1091831 
 4502000    1.3302692   -3.3002019   -1.6941496   0.17438029   -3.3002019    1.6060522  1091884 
 4503000    1.3303096   -3.2993469   -1.6933283   0.18041694   -3.2993469    1.6060186  1091940 
 4504000    1.3314031    -3.300563    -1.693317   0.18198385    -3.300563     1.607246  1092003 
 4505000    1.3313821   -3.3005887   -1.6934343   0.18259739   -3.3005887    1.6071544  1092048 
 4506000    1.3304846   -3.3001224   -1.6941352   0.17743415   -3.3001224    1.6059872  1092105 
 4507000    1.3317801   -3.3014712   -1.6939968   0.18009025   -3.3014712    1.6074744  1092157 
 4508000    1.3306062   -3.2999173   -1.6939436   0.18104911   -3.2999173    1.6059737  1092214 
 4509000    1.3320546   -3.3016666   -1.6940331   0.17774559   -3.3016666    1.6076335  1092274 
 4510000    1.3318608   -3.3011399   -1.6938448   0.17886561   -3.3011399    1.6072951  1092345 
 4511000     1.331863   -3.3015722   -1.6943582   0.17710493   -3.3015722     1.607214  1092402 
 4512000    1.3306134   -3.2999953   -1.6943643   0.18466734   -3.2999953     1.605631  1092453 
 4513000    1.3319513   -3.3026273   -1.6954569   0.17892003   -3.3026273    1.6071704  1092504 
 4514000    1.3296923   -3.3001004   -1.6957261   0.18060247   -3.3001004    1.6043742  1092552 
 4515000    1.3312461   -3.3022147   -1.6960319   0.17620151   -3.3022147    1.6061828  1092597 
 4516000    1.3309918   -3.3017583   -1.6959881   0.17388153   -3.3017583    1.6057702  1092669 
 4517000    1.3314703   -3.3019547   -1.6956792   0.18163754   -3.3019547    1.6062755  1092718 
 4518000    1.3314554   -3.3023125   -1.6961491   0.17899429   -3.3023125    1.6061634  1092782 
 4519000    1.3322316   -3.3037358     -1.69672   0.17717852   -3.3037358    1.6070158  1092839 
 4520000    1.3309452   -3.3019884   -1.6966095   0.17803165   -3.3019884    1.6053789  1092897 
 4521000    1.3306982   -3.3018056   -1.6968083   0.17501167   -3.3018056    1.6049973  1092954 
 4522000    1.3310358   -3.3020944   -1.6967721   0.18127963   -3.3020944    1.6053223  1093010 
 4523000    1.3310882   -3.3023871   -1.6970898   0.17848077   -3.3023871    1.6052974  1093070 
 4524000    1.3312324   -3.3020944   -1.6966952   0.18193583   -3.3020944    1.6053993  1093119 
 4525000    1.3308202    -3.301357   -1.6965223   0.18223049    -3.301357    1.6048347  1093165 
 4526000    1.3333361   -3.3041575    -1.696383   0.17625009   -3.3041575    1.6077745  1093229 
 4527000    1.3333537   -3.3034363   -1.6957318   0.18011777   -3.3034363    1.6077045  1093291 
 4528000    1.3328505   -3.3028435   -1.6958368    0.1776077   -3.3028435    1.6070067  1093353 
 4529000    1.3333379   -3.3038005   -1.6963032   0.17876304   -3.3038005    1.6074973  1093419 
 4530000    1.3333564   -3.3042411   -1.6968039   0.17812378   -3.3042411    1.6074372  1093475 
 4531000    1.3340685   -3.3046644   -1.6964393    0.1812302   -3.3046644    1.6082251  1093523 
 4532000    1.3318506   -3.3028862   -1.6974096   0.18326271   -3.3028862    1.6054766  1093574 
 4533000    1.3318881   -3.3031506   -1.6977126   0.18200226   -3.3031506    1.6054381  1093631 
 4534000    1.3330797   -3.3040902   -1.6973011   0.17690523   -3.3040902    1.6067891  1093689 
 4535000    1.3322563   -3.3032532   -1.6975504   0.17980045   -3.3032532    1.6057028  1093753 
 4536000    1.3322665   -3.3028986    -1.697276    0.1790721   -3.3028986    1.6056226  1093816 
 4537000    1.3326379    -3.303555     -1.69757   0.18172077    -3.303555     1.605985  1093874 
 4538000     1.331846   -3.3035301   -1.6985815   0.18317821   -3.3035301    1.6049486  1093930 
 4539000    1.3334946   -3.3050619   -1.6982075   0.17513999   -3.3050619    1.6068543  1093985 
 4540000    1.3322752   -3.3036478   -1.6983391   0.18199207   -3.3036478    1.6053087  1094037 
 4541000     1.333474   -3.3041138   -1.6974267   0.18178792   -3.3041138    1.6066871  1094082 
 4542000    1.3337261   -3.3046497   -1.6977514   0.17892383   -3.3046497    1.6068983  1094145 
 4543000    1.3332088   -3.3043659    -1.698176   0.18111995   -3.3043659    1.6061899  1094203 
 4544000    1.3332275   -3.3046218   -1.6984799   0.18174784   -3.3046218     1.606142  1094251 
 4545000    1.3329355   -3.3038924   -1.6982079   0.17841386   -3.3038924    1.6056846  1094323 
 4546000    1.3328371   -3.3037118   -1.6982602   0.17808933   -3.3037118    1.6054516  1094401 
 4547000    1.3328852   -3.3031976    -1.697782   0.18214312   -3.3031976    1.6054156  1094465 
 4548000    1.3346407   -3.3052878   -1.6978385   0.17727238   -3.3052878    1.6074493  1094520 
 4549000    1.3347113    -3.304973   -1.6975311   0.17495831    -3.304973    1.6074419  1094583 
 4550000    1.3352806   -3.3055109   -1.6974496   0.17879467   -3.3055109    1.6080613  1094628 
 4551000    1.3352053   -3.3057492    -1.697877   0.17740347   -3.3057492    1.6078722  1094695 
 4552000    1.3354519   -3.3060317    -1.697958   0.18036863   -3.3060317    1.6080737  1094760 
 4553000    1.3353455   -3.3054315   -1.6975622   0.17595339   -3.3054315    1.6078692  1094812 
 4554000     1.334803   -3.3048969   -1.6977558   0.18113135   -3.3048969    1.6071411  1094863 
 4555000    1.3346153   -3.3052481   -1.6984195   0.18346784   -3.3052481    1.6068286  1094922 
 4556000    1.3349541   -3.3060102   -1.6988281   0.17916063   -3.3060102    1.6071822  1094959 
 4557000    1.3343125   -3.3061814   -1.6998699   0.18316682   -3.3061814    1.6063115  1095026 
 4558000    1.3339068   -3.3058432   -1.7000979   0.18428837   -3.3058432    1.6057453  1095079 
 4559000    1.3342264   -3.3070849   -1.7010326   0.18156888   -3.3070849    1.6060523  1095132 
 4560000    1.3337718   -3.3063995   -1.7009765    0.1823227   -3.3063995    1.6054231  1095188 
 4561000    1.3345974   -3.3079303   -1.7016001   0.17476033   -3.3079303    1.6063302  1095247 
 4562000    1.3332438   -3.3062999   -1.7017014   0.18141968   -3.3062999    1.6045984  1095317 
 4563000    1.3339519   -3.3063528   -1.7009665   0.18393101   -3.3063528    1.6053862  1095361 
 4564000    1.3348433   -3.3079737   -1.7016072   0.17853231   -3.3079737    1.6063665  1095424 
 4565000    1.3346184   -3.3078265   -1.7018171   0.18078208   -3.3078265    1.6060094  1095483 
 4566000    1.3344638   -3.3073836   -1.7016262   0.18080207   -3.3073836    1.6057575  1095528 
 4567000     1.335126   -3.3076663   -1.7011942   0.17989816   -3.3076663    1.6064721  1095584 
 4568000    1.3352154   -3.3074535   -1.7009573   0.17845817   -3.3074535    1.6064962  1095641 
 4569000    1.3351717   -3.3080254   -1.7016522   0.17883987   -3.3080254    1.6063731  1095689 
 4570000    1.3351501   -3.3083693   -1.7021144   0.18265612   -3.3083693    1.6062549  1095752 
 4571000     1.335574   -3.3081473   -1.7014632   0.18158419   -3.3081473    1.6066842  1095807 
 4572000    1.3360723   -3.3092093   -1.7020195   0.17681482   -3.3092093    1.6071897  1095871 
 4573000    1.3360564   -3.3093185   -1.7022447    0.1835417   -3.3093185    1.6070739  1095937 
 4574000    1.3364589   -3.3099274   -1.7024369   0.17929074   -3.3099274    1.6074905  1095983 
 4575000    1.3354864   -3.3081648   -1.7019158   0.18227523   -3.3081648     1.606249  1096032 
 4576000    1.3363182   -3.3092186   -1.7020498   0.18046262   -3.3092186    1.6071687  1096087 
 4577000    1.3357295   -3.3093846   -1.7030088   0.18066202   -3.3093846    1.6063758  1096145 
 4578000    1.3357954   -3.3092718    -1.702893   0.17947553   -3.3092718    1.6063788  1096197 
 4579000    1.3357621   -3.3094461   -1.7031923   0.18161318   -3.3094461    1.6062537  1096255 
 4580000    1.3348824   -3.3085549   -1.7034189   0.18405219   -3.3085549    1.6051359  1096296 
 4581000    1.3354001      -3.3096   -1.7039163   0.17857542      -3.3096    1.6056838  1096347 
 4582000    1.3353565   -3.3097408   -1.7041886   0.17588639   -3.3097408    1.6055522  1096401 
 4583000    1.3357274   -3.3097937   -1.7038966   0.17784528   -3.3097937    1.6058971  1096470 
 4584000    1.3360804   -3.3108267   -1.7046078   0.17762217   -3.3108267    1.6062189  1096540 
 4585000    1.3350903   -3.3098282   -1.7048714   0.17748221   -3.3098282    1.6049569  1096589 
 4586000    1.3359352   -3.3102871   -1.7044009   0.18224072   -3.3102871    1.6058862  1096648 
 4587000      1.33665   -3.3106267   -1.7039618   0.17585755   -3.3106267    1.6066649  1096703 
 4588000    1.3357636   -3.3097121   -1.7041933   0.18142182   -3.3097121    1.6055189  1096758 
 4589000    1.3349603   -3.3092291   -1.7047576   0.18071698   -3.3092291    1.6044714  1096814 
 4590000    1.3367468   -3.3111182    -1.704583   0.17640446   -3.3111182    1.6065352  1096871 
 4591000     1.336669    -3.311302   -1.7049292   0.17732977    -3.311302    1.6063728  1096918 
 4592000     1.336359   -3.3107778   -1.7048507   0.18001537   -3.3107778    1.6059271  1096968 
 4593000    1.3357389   -3.3095766   -1.7044767   0.17967208   -3.3095766    1.6050999  1097024 
 4594000     1.336321   -3.3110738   -1.7053476   0.17964674   -3.3110738    1.6057262  1097074 
 4595000    1.3377909   -3.3122223   -1.7048046   0.18152231   -3.3122223    1.6074177  1097125 
 4596000    1.3366078   -3.3115917   -1.7056878   0.18078781   -3.3115917     1.605904  1097188 
 4597000    1.3355446    -3.310795   -1.7062489   0.18353879    -3.310795    1.6045461  1097243 
 4598000    1.3362272   -3.3118089   -1.7065465   0.17876754   -3.3118089    1.6052624  1097314 
 4599000    1.3359109   -3.3118957   -1.7071041   0.18010372   -3.3118957    1.6047916  1097376 
 4600000    1.3362004   -3.3122266   -1.7071837   0.17701043   -3.3122266    1.6050429  1097442 
 4601000    1.3369462   -3.3130458   -1.7072153    0.1831108   -3.3130458    1.6058305  1097516 
 4602000    1.3357154   -3.3119795   -1.7076975   0.17589443   -3.3119795     1.604282  1097564 
 4603000    1.3371796   -3.3128448   -1.7068715   0.17742953   -3.3128448    1.6059733  1097610 
 4604000     1.336323   -3.3116055   -1.7067547   0.18344017   -3.3116055    1.6048509  1097674 
 4605000    1.3371722   -3.3136362   -1.7078386   0.17777562   -3.3136362    1.6057976  1097724 
 4606000    1.3362899   -3.3125787   -1.7079284   0.17788792   -3.3125787    1.6046503  1097784 
 4607000    1.3376161   -3.3139368   -1.7077685     0.183462   -3.3139368    1.6061683  1097835 
 4608000    1.3367055   -3.3134435   -1.7084345    0.1818339   -3.3134435    1.6050091  1097880 
 4609000    1.3375311   -3.3145064   -1.7085879   0.18136508   -3.3145064    1.6059184  1097936 
 4610000    1.3369313   -3.3141114    -1.708992   0.18087941   -3.3141114    1.6051194  1097990 
 4611000    1.3379105   -3.3147323    -1.708528   0.17992359   -3.3147323    1.6062043  1098052 
 4612000    1.3370435   -3.3141616   -1.7090595   0.18210012   -3.3141616     1.605102  1098094 
 4613000    1.3367941   -3.3137443   -1.7090089   0.17982874   -3.3137443    1.6047354  1098140 
 4614000    1.3377575   -3.3151736   -1.7093563   0.18145845   -3.3151736    1.6058173  1098191 
 4615000      1.33768   -3.3150397   -1.7093871   0.18088249   -3.3150397    1.6056526  1098240 
 4616000     1.335922   -3.3131336   -1.7096509   0.18607642   -3.3131336    1.6034826  1098281 
 4617000    1.3368842   -3.3142487   -1.7096886   0.17925895   -3.3142487    1.6045601  1098334 
 4618000    1.3373174   -3.3148721   -1.7098681    0.1785913   -3.3148721     1.605004  1098386 
 4619000    1.3375688   -3.3155682   -1.7103385   0.17955897   -3.3155682    1.6052298  1098438 
 4620000    1.3380409    -3.316224   -1.7104964   0.17868915    -3.316224    1.6057276  1098485 
 4621000    1.3367073   -3.3151519   -1.7110889     0.182382   -3.3151519     1.604063  1098529 
 4622000    1.3376477    -3.315559   -1.7104362   0.17864555    -3.315559    1.6051228  1098576 
 4623000    1.3374082   -3.3154489   -1.7106937   0.17944073   -3.3154489    1.6047551  1098631 
 4624000    1.3370527   -3.3148309   -1.7105666   0.17902911   -3.3148309    1.6042643  1098675 
 4625000    1.3372378    -3.314804   -1.7103834   0.18270991    -3.314804    1.6044206  1098720 
 4626000     1.338175   -3.3159442   -1.7104912   0.18344613   -3.3159442     1.605453  1098783 
 4627000    1.3385545   -3.3156049   -1.7097813   0.18324348   -3.3156049    1.6058236  1098841 
 4628000    1.3378766   -3.3148378   -1.7098903   0.17639793   -3.3148378    1.6049475  1098884 
 4629000    1.3391423   -3.3160903   -1.7096946   0.17796598   -3.3160903    1.6063957  1098932 
 4630000      1.33809   -3.3145371   -1.7094914   0.18234529   -3.3145371    1.6050458  1098992 
 4631000    1.3382616   -3.3155677   -1.7103862   0.18204835   -3.3155677    1.6051815  1099040 
 4632000    1.3380928   -3.3152564   -1.7103503   0.18397178   -3.3152564    1.6049061  1099090 
 4633000    1.3389479   -3.3166703    -1.710822   0.17847676   -3.3166703    1.6058483  1099147 
 4634000    1.3386897     -3.31548   -1.7100172    0.1834523     -3.31548    1.6054627  1099199 
 4635000    1.3377524   -3.3147372    -1.710492   0.18065079   -3.3147372    1.6042453  1099263 
 4636000    1.3395034   -3.3170702   -1.7107851   0.18055796   -3.3170702    1.6062851  1099304 
 4637000    1.3395265   -3.3164626   -1.7102346   0.18337909   -3.3164626     1.606228  1099362 
 4638000    1.3388211   -3.3158984   -1.7106053    0.1816604   -3.3158984    1.6052931  1099423 
 4639000     1.337848    -3.315766   -1.7117315   0.17742716    -3.315766    1.6040345  1099486 
 4640000    1.3387306   -3.3166862   -1.7116578   0.18171424   -3.3166862    1.6050284  1099530 
 4641000    1.3379183   -3.3164806     -1.71248   0.17787046   -3.3164806    1.6040006  1099567 
 4642000    1.3377521   -3.3165685   -1.7128431   0.17609903   -3.3165685    1.6037254  1099619 
 4643000     1.337751   -3.3170448   -1.7133935   0.17948984   -3.3170448    1.6036513  1099669 
 4644000    1.3386645   -3.3181542   -1.7134822    0.1810074   -3.3181542     1.604672  1099720 
 4645000    1.3381938   -3.3174913   -1.7134463   0.18171784   -3.3174913     1.604045  1099763 
 4646000    1.3381346    -3.317308   -1.7134201   0.17772304    -3.317308    1.6038879  1099822 
 4647000     1.337814   -3.3164278   -1.7130043   0.18550815   -3.3164278    1.6034235  1099877 
 4648000    1.3386149   -3.3173593   -1.7130459   0.18118233   -3.3173593    1.6043134  1099925 
 4649000    1.3399048   -3.3187989    -1.713033   0.17964888   -3.3187989    1.6057659  1099989 
 4650000    1.3385817   -3.3176504   -1.7135605   0.17887699   -3.3176504    1.6040899  1100051 
 4651000    1.3391198   -3.3182421   -1.7135848   0.17829309   -3.3182421    1.6046573  1100104 
 4652000    1.3392626   -3.3179596   -1.7131967   0.18712238   -3.3179596    1.6047629  1100149 
 4653000    1.3410093   -3.3197954   -1.7130068   0.18112423   -3.3197954    1.6067886  1100195 
 4654000     1.339534   -3.3179688    -1.713012   0.17917625   -3.3179688    1.6049568  1100239 
 4655000    1.3402379   -3.3185703   -1.7128315   0.17864876   -3.3185703    1.6057388  1100281 
 4656000    1.3388002   -3.3172636   -1.7133172   0.18269478   -3.3172636    1.6039464  1100329 
 4657000    1.3413087   -3.3198648   -1.7129934   0.18230942   -3.3198648    1.6068714  1100384 
 4658000    1.3399396   -3.3193811   -1.7142141    0.1730045   -3.3193811     1.605167  1100428 
 4659000    1.3402805   -3.3195894   -1.7140899   0.18143764   -3.3195894    1.6054995  1100480 
 4660000    1.3392478   -3.3190706   -1.7148766   0.17885392   -3.3190706    1.6041939  1100527 
 4661000    1.3391863   -3.3185883   -1.7145307   0.18115011   -3.3185883    1.6040576  1100570 
 4662000    1.3394214   -3.3195256   -1.7152578   0.18335727   -3.3195256    1.6042678  1100619 
 4663000    1.3395474   -3.3201046   -1.7157705   0.18116535   -3.3201046    1.6043341  1100677 
 4664000    1.3399716   -3.3207196   -1.7159429   0.18020188   -3.3207196    1.6047766  1100722 
 4665000    1.3387604   -3.3188611   -1.7156181   0.18286634   -3.3188611     1.603243  1100779 
 4666000    1.3400767   -3.3198609   -1.7151203   0.18372735   -3.3198609    1.6047406  1100833 
 4667000    1.3400956   -3.3203013   -1.7156109   0.17895136   -3.3203013    1.6046904  1100883 
 4668000    1.3400347   -3.3197208   -1.7151792   0.17855651   -3.3197208    1.6045417  1100935 
 4669000    1.3418984    -3.321961   -1.7152621   0.17608226    -3.321961    1.6066988  1100986 
 4670000    1.3405695   -3.3197254   -1.7146994   0.18297866   -3.3197254     1.605026  1101042 
 4671000    1.3400168   -3.3196419   -1.7153418   0.18230071   -3.3196419    1.6043001  1101086 
 4672000    1.3389611   -3.3188887   -1.7159194   0.18307816   -3.3188887    1.6029693  1101132 
 4673000    1.3390964   -3.3190139   -1.7159613   0.18303413   -3.3190139    1.6030526  1101186 
 4674000    1.3399084   -3.3198485   -1.7158995   0.18318052   -3.3198485     1.603949  1101238 
 4675000      1.34065   -3.3212208   -1.7164584   0.17882908   -3.3212208    1.6047624  1101289 
 4676000     1.340636   -3.3207146   -1.7160273   0.17754327   -3.3207146    1.6046873  1101329 
 4677000    1.3390875   -3.3199814   -1.7172174   0.18400017   -3.3199814    1.6027641  1101377 
 4678000    1.3401983   -3.3211752   -1.7171531   0.18267353   -3.3211752    1.6040221  1101426 
 4679000    1.3390316    -3.320503   -1.7179397   0.18173277    -3.320503    1.6025633  1101469 
 4680000    1.3409203   -3.3226319   -1.7178768   0.17706083   -3.3226319    1.6047551  1101516 
 4681000    1.3399857   -3.3214198    -1.717853   0.17927766   -3.3214198    1.6035668  1101564 
 4682000    1.3398747   -3.3213905   -1.7180454   0.18098185   -3.3213905    1.6033451  1101625 
 4683000    1.3408618   -3.3223051   -1.7178559   0.17518412   -3.3223051    1.6044492  1101678 
 4684000    1.3394536   -3.3207246   -1.7180259    0.1818247   -3.3207246    1.6026987  1101723 
 4685000    1.3410784   -3.3224604   -1.7178948   0.17932108   -3.3224604    1.6045656  1101776 
 4686000    1.3405132   -3.3220736    -1.718257   0.18151502   -3.3220736    1.6038166  1101826 
 4687000     1.340212   -3.3216086    -1.718212   0.18499238   -3.3216086    1.6033966  1101867 
 4688000    1.3413609   -3.3231484   -1.7184661   0.18048116   -3.3231484    1.6046823  1101928 
 4689000    1.3418655   -3.3239355   -1.7187282   0.18009928   -3.3239355    1.6052072  1101982 
 4690000    1.3410288   -3.3237537    -1.719607   0.18307273   -3.3237537    1.6041466  1102023 
 4691000    1.3409315   -3.3233657   -1.7193995   0.17939412   -3.3233657    1.6039663  1102067 
 4692000    1.3399151   -3.3228297   -1.7201475   0.18074852   -3.3228297    1.6026822  1102114 
 4693000    1.3406908   -3.3234282    -1.719907   0.18390065   -3.3234282    1.6035212  1102175 
 4694000    1.3414419    -3.324444   -1.7201206   0.17777505    -3.324444    1.6043234  1102241 
 4695000    1.3393597    -3.322255   -1.7204814   0.18168727    -3.322255    1.6017736  1102282 
 4696000    1.3405146   -3.3238678   -1.7207872   0.18028039   -3.3238678    1.6030807  1102333 
 4697000    1.3411839   -3.3240165    -1.720201   0.18373025   -3.3240165    1.6038156  1102378 
 4698000    1.3418786   -3.3240145   -1.7194497   0.17690456   -3.3240145    1.6045648  1102434 
 4699000    1.3415884   -3.3237504   -1.7195807   0.18250453   -3.3237504    1.6041697  1102467 
 4700000    1.3401701   -3.3227044   -1.7203032   0.18330072   -3.3227044    1.6024012  1102517 
 4701000    1.3410291    -3.324158    -1.720798   0.18081849    -3.324158      1.60336  1102564 
 4702000    1.3408425   -3.3231013   -1.7200313   0.17965498   -3.3231013      1.60307  1102610 
 4703000    1.3411078   -3.3239019   -1.7205934   0.18059286   -3.3239019    1.6033085  1102664 
 4704000    1.3410437   -3.3237717   -1.7206008    0.1812334   -3.3237717    1.6031709  1102706 
 4705000     1.341326   -3.3239533    -1.720519    0.1783179   -3.3239533    1.6034343  1102757 
 4706000    1.3412815   -3.3236079   -1.7202865   0.18169233   -3.3236079    1.6033214  1102798 
 4707000    1.3419622   -3.3247972   -1.7207246   0.17918854   -3.3247972    1.6040726  1102841 
 4708000    1.3416535   -3.3243092   -1.7206696   0.18072981   -3.3243092    1.6036395  1102885 
 4709000    1.3421557   -3.3246967   -1.7205354   0.17828419   -3.3246967    1.6041613  1102939 
 4710000    1.3407151   -3.3233479   -1.7209782   0.17720726   -3.3233479    1.6023697  1102987 
 4711000    1.3406253   -3.3232258   -1.7210317   0.18428384   -3.3232258    1.6021941  1103034 
 4712000    1.3413055   -3.3242062   -1.7212675   0.18005866   -3.3242062    1.6029388  1103081 
 4713000    1.3422219   -3.3246888   -1.7207362   0.18472795   -3.3246888    1.6039525  1103137 
 4714000    1.3421813   -3.3244853   -1.7206468   0.18359245   -3.3244853    1.6038385  1103182 
 4715000    1.3416463   -3.3242305   -1.7211127   0.18340069   -3.3242305    1.6031178  1103238 
 4716000    1.3419619   -3.3243786   -1.7209694   0.17936469   -3.3243786    1.6034092  1103297 
 4717000    1.3421302   -3.3248195   -1.7212774   0.18461464   -3.3248195     1.603542  1103344 
 4718000      1.34274   -3.3255705   -1.7213611   0.18236435   -3.3255705    1.6042095  1103386 
 4719000    1.3429382   -3.3263608   -1.7219698   0.17912945   -3.3263608     1.604391  1103424 
 4720000    1.3413007   -3.3248281   -1.7224544   0.18444213   -3.3248281    1.6023737  1103466 
 4721000     1.342042    -3.326054   -1.7228732   0.18095778    -3.326054    1.6031809  1103520 
 4722000    1.3430565   -3.3272891   -1.7229661     0.179514   -3.3272891     1.604323  1103568 
 4723000    1.3421697   -3.3263501   -1.7231605   0.17822303   -3.3263501    1.6031896  1103619 
 4724000    1.3416545   -3.3248067   -1.7223166    0.1850189   -3.3248067      1.60249  1103677 
 4725000    1.3430372    -3.326375   -1.7222974   0.18296448    -3.326375    1.6040776  1103721 
 4726000    1.3438865   -3.3274385   -1.7224077   0.18085859   -3.3274385    1.6050308  1103763 
 4727000    1.3433699   -3.3271381   -1.7227896   0.18504033   -3.3271381    1.6043485  1103808 
 4728000    1.3434506   -3.3273072    -1.722938    0.1795017   -3.3273072    1.6043692  1103860 
 4729000    1.3434948   -3.3277592   -1.7234215   0.18218017   -3.3277592    1.6043377  1103918 
 4730000    1.3424692    -3.326395   -1.7233619   0.18430803    -3.326395    1.6030332  1103973 
 4731000    1.3421585   -3.3262541   -1.7236341   0.18368034   -3.3262541    1.6026201  1104002 
 4732000    1.3424923   -3.3264999    -1.723561   0.18023377   -3.3264999    1.6029388  1104057 
 4733000     1.343788   -3.3277057   -1.7232723   0.18291415   -3.3277057    1.6044335  1104093 
 4734000    1.3423303   -3.3262764   -1.7236632   0.18658262   -3.3262764    1.6026132  1104148 
 4735000    1.3433597   -3.3283461   -1.7245663    0.1791448   -3.3283461    1.6037798  1104191 
 4736000    1.3436925   -3.3288669   -1.7247727   0.18159348   -3.3288669    1.6040943  1104248 
 4737000     1.342497   -3.3277405   -1.7251285   0.18242414   -3.3277405     1.602612  1104286 
 4738000    1.3431818   -3.3288876   -1.7255293   0.18427903   -3.3288876    1.6033584  1104335 
 4739000    1.3427811   -3.3280256   -1.7251979   0.17582854   -3.3280256    1.6028277  1104371 
 4740000     1.341987   -3.3271356   -1.7253414   0.18132435   -3.3271356    1.6017943  1104430 
 4741000    1.3434273   -3.3287869   -1.7253518   0.17953192   -3.3287869    1.6034351  1104484 
 4742000    1.3431658   -3.3283139   -1.7252447   0.18203443   -3.3283139    1.6030692  1104521 
 4743000    1.3442172   -3.3290712   -1.7248169    0.1814404   -3.3290712    1.6042543  1104569 
 4744000    1.3433556   -3.3283237   -1.7251803   0.18178586   -3.3283237    1.6031434  1104626 
 4745000    1.3436497   -3.3283742   -1.7249293   0.18667593   -3.3283742    1.6034449  1104660 
 4746000    1.3440469   -3.3283011   -1.7244402   0.18589444   -3.3283011    1.6038609  1104700 
 4747000    1.3447292   -3.3291539   -1.7245486   0.17961985   -3.3291539    1.6046053  1104748 
 4748000    1.3436663   -3.3283053   -1.7250438   0.18218251   -3.3283053    1.6032615  1104800 
 4749000    1.3438279   -3.3283834   -1.7250204   0.18565349   -3.3283834     1.603363  1104863 
 4750000     1.344311   -3.3291852   -1.7253242   0.17897576   -3.3291852     1.603861  1104917 
 4751000    1.3458125   -3.3300017   -1.7244219   0.18309218   -3.3300017    1.6055797  1104967 
 4752000    1.3447464   -3.3292837   -1.7250382   0.18272156   -3.3292837    1.6042455  1105010 
 4753000    1.3454486   -3.3298109   -1.7247931   0.18293915   -3.3298109    1.6050177  1105055 
 4754000    1.3444766   -3.3287044   -1.7249042   0.18830001   -3.3287044    1.6038002  1105095 
 4755000    1.3453039   -3.3302215   -1.7255071   0.18314026   -3.3302215    1.6047144  1105145 
 4756000    1.3451431   -3.3297352   -1.7252648   0.18325536   -3.3297352    1.6044704  1105181 
 4757000    1.3452695   -3.3307757   -1.7262155   0.18111864   -3.3307757    1.6045602  1105223 
 4758000       1.3442   -3.3297121   -1.7264943   0.17650499   -3.3297121    1.6032178  1105269 
 4759000    1.3450069   -3.3305976   -1.7264958   0.18663954   -3.3305976    1.6041018  1105323 
 4760000    1.3443352   -3.3302704   -1.7270393   0.17956204   -3.3302704    1.6032311  1105371 
 4761000    1.3436975   -3.3292737   -1.7268916   0.17894128   -3.3292737    1.6023821  1105432 
 4762000    1.3446897   -3.3305197   -1.7270458   0.18191743   -3.3305197     1.603474  1105495 
 4763000    1.3451802    -3.330372   -1.7263683   0.18108893    -3.330372    1.6040037  1105533 
 4764000    1.3439176   -3.3296303   -1.7272162   0.18433892   -3.3296303    1.6024141  1105591 
 4765000    1.3446367   -3.3305987   -1.7274069   0.18011234   -3.3305987    1.6031918  1105646 
 4766000    1.3456969   -3.3308116   -1.7264167   0.18114346   -3.3308116    1.6043949  1105688 
 4767000    1.3448609   -3.3302293   -1.7268906   0.18084459   -3.3302293    1.6033388  1105729 
 4768000    1.3452692   -3.3305438   -1.7267981   0.18444771   -3.3305438    1.6037458  1105784 
 4769000    1.3449151   -3.3294295   -1.7261755    0.1831589   -3.3294295     1.603254  1105832 
 4770000    1.3445596   -3.3296996   -1.7269432    0.1836836   -3.3296996    1.6027564  1105883 
 4771000    1.3446613   -3.3295516   -1.7267509   0.18215086   -3.3295516    1.6028008  1105936 
 4772000    1.3458807   -3.3307704   -1.7265945   0.17999562   -3.3307704    1.6041759  1105990 
 4773000    1.3456619   -3.3305649   -1.7267223   0.18218755   -3.3305649    1.6038427  1106040 
 4774000    1.3459346    -3.330801   -1.7266956   0.17990045    -3.330801    1.6041053  1106083 
 4775000     1.346205   -3.3314713   -1.7271061   0.18390377   -3.3314713    1.6043652  1106126 
 4776000    1.3466739   -3.3317327   -1.7268755    0.1831566   -3.3317327    1.6048572  1106172 
 4777000    1.3470701   -3.3328624   -1.7275969   0.18449245   -3.3328624    1.6052655  1106216 
 4778000    1.3458055   -3.3313004   -1.7276274    0.1825335   -3.3313004     1.603673  1106275 
 4779000    1.3458878   -3.3312755   -1.7275798   0.18235477   -3.3312755    1.6036957  1106327 
 4780000    1.3455354   -3.3314885   -1.7282778   0.17875105   -3.3314885    1.6032107  1106372 
 4781000    1.3450814   -3.3302865   -1.7276921   0.18679269   -3.3302865    1.6025944  1106424 
 4782000    1.3457256   -3.3317215   -1.7284292   0.18150381   -3.3317215    1.6032923  1106472 
 4783000    1.3451984    -3.330961   -1.7283503    0.1808015    -3.330961    1.6026107  1106509 
 4784000     1.346131   -3.3313782   -1.7277304   0.18336077   -3.3313782    1.6036478  1106560 
 4785000    1.3458647   -3.3312792   -1.7280023   0.18568043   -3.3312792    1.6032769  1106597 
 4786000    1.3446693    -3.330634   -1.7288419   0.18739262    -3.330634    1.6017921  1106639 
 4787000    1.3470946   -3.3325793   -1.7279692   0.18293923   -3.3325793    1.6046101  1106688 
 4788000    1.3467378   -3.3327703   -1.7286432    0.1803642   -3.3327703    1.6041271  1106728 
 4789000    1.3469001   -3.3339586   -1.7297034   0.18104299   -3.3339586    1.6042552  1106773 
 4790000    1.3457101   -3.3325567   -1.7297825   0.18386181   -3.3325567    1.6027742  1106817 
 4791000     1.346646   -3.3330827   -1.7292577   0.17927334   -3.3330827     1.603825  1106861 
 4792000    1.3458741   -3.3320464   -1.7292058   0.18025447   -3.3320464    1.6028406  1106906 
 4793000    1.3461577   -3.3325629   -1.7294309   0.17877234   -3.3325629     1.603132  1106938 
 4794000    1.3463133   -3.3318032   -1.7285598     0.184071   -3.3318032    1.6032434  1106989 
 4795000    1.3473955   -3.3327047   -1.7282436   0.17985936   -3.3327047    1.6044611  1107038 
 4796000    1.3471294   -3.3333828   -1.7292878   0.17777762   -3.3333828    1.6040949  1107072 
 4797000    1.3464754   -3.3325923   -1.7293311   0.18088592   -3.3325923    1.6032612  1107110 
 4798000    1.3456175   -3.3322135   -1.7300302   0.18198242   -3.3322135    1.6021833  1107149 
 4799000    1.3463441   -3.3328362   -1.7298587   0.18290262   -3.3328362    1.6029774  1107198 
 4800000    1.3465076   -3.3329528   -1.7298791    0.1796843   -3.3329528    1.6030737  1107266 
 4801000    1.3468414   -3.3329025   -1.7294952   0.18436391   -3.3329025    1.6034073  1107310 
 4802000    1.3484845    -3.334544   -1.7292589   0.18084303    -3.334544    1.6052851  1107364 
 4803000    1.3473458   -3.3338215   -1.7299658   0.18350489   -3.3338215    1.6038557  1107415 
 4804000    1.3470123   -3.3332005   -1.7298156   0.18155423   -3.3332005    1.6033849  1107466 
 4805000    1.3473938   -3.3336725    -1.729903   0.18474067   -3.3336725    1.6037695  1107514 
 4806000    1.3476382   -3.3344956   -1.7305076   0.18265384   -3.3344956     1.603988  1107564 
 4807000    1.3478843   -3.3349991   -1.7308008   0.18241303   -3.3349991    1.6041983  1107621 
 4808000    1.3473791   -3.3343185   -1.7307707   0.18909479   -3.3343185    1.6035478  1107655 
 4809000    1.3478743   -3.3351668    -1.731102   0.18568132   -3.3351668    1.6040648  1107705 
 4810000    1.3481397   -3.3357226   -1.7313984   0.18630922   -3.3357226    1.6043242  1107744 
 4811000    1.3476024   -3.3354369   -1.7318014   0.18000511   -3.3354369    1.6036355  1107778 
 4812000    1.3479693   -3.3365084   -1.7325043   0.18188113   -3.3365084    1.6040041  1107825 
 4813000    1.3468076   -3.3352706   -1.7327256   0.18426267   -3.3352706     1.602545  1107878 
 4814000    1.3469429   -3.3362611   -1.7336159   0.18651503   -3.3362611    1.6026452  1107920 
 4815000    1.3471247   -3.3361649   -1.7333496   0.18522467   -3.3361649    1.6028153  1107952 
 4816000    1.3467385   -3.3368696   -1.7345934   0.17954973   -3.3368696    1.6022762  1108007 
 4817000    1.3465172   -3.3373083   -1.7353706   0.18086569   -3.3373083    1.6019378  1108059 
 4818000    1.3474647   -3.3372779   -1.7342737   0.18380554   -3.3372779    1.6030042  1108101 
 4819000    1.3473749   -3.3368847   -1.7340568   0.18382286   -3.3368847     1.602828  1108149 
 4820000    1.3470873   -3.3368426   -1.7344333   0.18342111   -3.3368426    1.6024093  1108202 
 4821000    1.3474922    -3.336589   -1.7337517   0.18356824    -3.336589    1.6028374  1108239 
 4822000    1.3478937   -3.3369699   -1.7337302   0.18036392   -3.3369699    1.6032397  1108291 
 4823000    1.3468688   -3.3356992   -1.7337335   0.18015478   -3.3356992    1.6019657  1108329 
 4824000    1.3469754   -3.3356161   -1.7335857   0.18318699   -3.3356161    1.6020304  1108372 
 4825000    1.3487365   -3.3376603   -1.7336193   0.17883829   -3.3376603     1.604041  1108430 
 4826000    1.3479314   -3.3368294   -1.7338197   0.18199406   -3.3368294    1.6030097  1108481 
 4827000    1.3493189    -3.338156   -1.7335527    0.1854769    -3.338156    1.6046033  1108520 
 4828000    1.3485563   -3.3370763   -1.7334566   0.17769061   -3.3370763    1.6036198  1108573 
 4829000    1.3481789   -3.3360858    -1.732974   0.18522757   -3.3360858    1.6031117  1108614 
 4830000    1.3493828   -3.3376379   -1.7331727   0.18269121   -3.3376379    1.6044651  1108668 
 4831000    1.3484121   -3.3365215   -1.7333045   0.18154961   -3.3365215     1.603217  1108733 
 4832000    1.3491564     -3.33841   -1.7343776   0.18245263     -3.33841    1.6040324  1108781 
 4833000     1.348368   -3.3367722    -1.733735   0.18399642   -3.3367722    1.6030373  1108821 
 4834000    1.3484036   -3.3373211   -1.7343225   0.18393084   -3.3373211    1.6029986  1108877 
 4835000    1.3487639   -3.3374333   -1.7340671    0.1840936   -3.3374333    1.6033662  1108919 
 4836000    1.3489323   -3.3381155   -1.7346097   0.18191259   -3.3381155    1.6035058  1108961 
 4837000    1.3495719   -3.3382905   -1.7341156   0.18891472   -3.3382905    1.6041748  1109024 
 4838000    1.3499519   -3.3385601   -1.7340044   0.17907953   -3.3385601    1.6045557  1109073 
 4839000    1.3493555   -3.3387244   -1.7349456   0.18342554   -3.3387244    1.6037789  1109120 
 4840000    1.3487178   -3.3386585   -1.7357099    0.1822684   -3.3386585    1.6029486  1109170 
 4841000    1.3496925   -3.3396095   -1.7355834   0.18255411   -3.3396095    1.6040261  1109226 
 4842000    1.3483079   -3.3377638   -1.7354424   0.18552969   -3.3377638    1.6023213  1109267 
 4843000    1.3495278   -3.3387895   -1.7350994   0.18782085   -3.3387895    1.6036901  1109323 
 4844000    1.3490801   -3.3379996   -1.7349384   0.19103607   -3.3379996    1.6030612  1109390 
 4845000    1.3505349   -3.3392738   -1.7345447   0.18583699   -3.3392738    1.6047292  1109432 
 4846000    1.3498886    -3.338729   -1.7348371   0.18932326    -3.338729    1.6038919  1109480 
 4847000    1.3504618   -3.3395203   -1.7349951   0.18040787   -3.3395203    1.6045252  1109513 
 4848000    1.3500329   -3.3392437   -1.7352946   0.18310126   -3.3392437    1.6039491  1109559 
 4849000    1.3485283   -3.3377288   -1.7356466   0.18839498   -3.3377288    1.6020821  1109614 
 4850000    1.3499372   -3.3388172   -1.7351234   0.18389169   -3.3388172    1.6036938  1109657 
 4851000    1.3498982   -3.3390804   -1.7354936   0.18771041   -3.3390804    1.6035868  1109699 
 4852000    1.3502901   -3.3391569   -1.7351999   0.18216334   -3.3391569    1.6039569  1109765 
 4853000    1.3510975   -3.3400944   -1.7352392   0.18835807   -3.3400944    1.6048552  1109807 
 4854000    1.3508495   -3.3402081   -1.7357168   0.18286496   -3.3402081    1.6044913  1109855 
 4855000    1.3496015   -3.3390293   -1.7360767   0.18916361   -3.3390293    1.6029526  1109894 
 4856000    1.3505081   -3.3400881   -1.7361382   0.18248418   -3.3400881    1.6039499  1109949 
 4857000    1.3494004   -3.3394305   -1.7368814   0.18458529   -3.3394305    1.6025491  1110008 
 4858000    1.3509205   -3.3413759   -1.7370908   0.18112583   -3.3413759     1.604285  1110056 
 4859000    1.3500229   -3.3398074   -1.7366476   0.18603465   -3.3398074    1.6031598  1110097 
 4860000    1.3502516   -3.3399359   -1.7365608   0.18562326   -3.3399359    1.6033751  1110136 
 4861000    1.3497694   -3.3394406   -1.7367059   0.18727286   -3.3394406    1.6027346  1110183 
 4862000    1.3491036   -3.3397727   -1.7378864   0.18614256   -3.3397727    1.6018863  1110223 
 4863000    1.3500865    -3.340691   -1.7376968    0.1910518    -3.340691    1.6029942  1110264 
 4864000    1.3498354   -3.3405114   -1.7378644   0.18789814   -3.3405114     1.602647  1110298 
 4865000    1.3505653    -3.341331   -1.7378664   0.18604146    -3.341331    1.6034645  1110332 
 4866000    1.3512852   -3.3419097    -1.737657   0.18190077   -3.3419097    1.6042527  1110378 
 4867000    1.3510615   -3.3415204   -1.7376039   0.18471863   -3.3415204    1.6039165  1110427 
 4868000     1.350458   -3.3410061   -1.7379028   0.18717234   -3.3410061    1.6031033  1110494 
 4869000    1.3509079   -3.3414289   -1.7378796    0.1818074   -3.3414289    1.6035492  1110555 
 4870000    1.3506948   -3.3407445   -1.7375118   0.18516259   -3.3407445    1.6032328  1110599 
 4871000    1.3504871   -3.3409174   -1.7379948   0.18657315   -3.3409174    1.6029227  1110643 
 4872000    1.3514346   -3.3423993   -1.7384198   0.18427944   -3.3423993    1.6039795  1110690 
 4873000    1.3503967   -3.3414348   -1.7387449   0.18988954   -3.3414348    1.6026899  1110730 
 4874000    1.3491328   -3.3401245   -1.7389953   0.18632129   -3.3401245    1.6011292  1110772 
 4875000    1.3500354   -3.3422014   -1.7400672   0.18416677   -3.3422014    1.6021342  1110818 
 4876000    1.3495634    -3.341166    -1.739667   0.18504862    -3.341166     1.601499  1110870 
 4877000     1.349653   -3.3418522   -1.7403117    0.1837414   -3.3418522    1.6015405  1110915 
 4878000    1.3504195   -3.3424836   -1.7401274   0.18188437   -3.3424836    1.6023562  1110980 
 4879000    1.3513658   -3.3438884   -1.7404901   0.17928816   -3.3438884    1.6033983  1111036 
 4880000     1.350779   -3.3434285   -1.7407769    0.1873786   -3.3434285    1.6026516  1111071 
 4881000    1.3499695   -3.3428541   -1.7412177   0.18232778   -3.3428541    1.6016364  1111109 
 4882000    1.3500559   -3.3431123   -1.7414556   0.18237594   -3.3431123    1.6016567  1111166 
 4883000    1.3508115   -3.3438055   -1.7413244   0.18732981   -3.3438055     1.602481  1111216 
 4884000    1.3500217   -3.3438125    -1.742339   0.18373762   -3.3438125    1.6014735  1111265 
 4885000    1.3495983   -3.3426205   -1.7416983     0.185763   -3.3426205    1.6009222  1111299 
 4886000    1.3503395   -3.3433897   -1.7416589   0.18189285   -3.3433897    1.6017308  1111348 
 4887000    1.3502564   -3.3430198   -1.7414639   0.18139885   -3.3430198    1.6015559  1111401 
 4888000     1.351227   -3.3441814   -1.7415262   0.18370494   -3.3441814    1.6026552  1111437 
 4889000    1.3508365   -3.3447204   -1.7425918   0.18380458   -3.3447204    1.6021286  1111481 
 4890000    1.3511171   -3.3454832   -1.7430809   0.18519668   -3.3454832    1.6024023  1111522 
 4891000     1.350668   -3.3450028    -1.743188   0.18723717   -3.3450028    1.6018148  1111560 
 4892000    1.3507157   -3.3454359   -1.7436365   0.18317455   -3.3454359    1.6017994  1111610 
 4893000    1.3505051   -3.3460476     -1.74457   0.18253949   -3.3460476    1.6014776  1111660 
 4894000    1.3520358    -3.346615   -1.7433799   0.18366439    -3.346615    1.6032351  1111700 
 4895000    1.3505506   -3.3446846   -1.7432611   0.18888127   -3.3446846    1.6014235  1111735 
 4896000    1.3506187   -3.3454961   -1.7440538     0.182749   -3.3454961    1.6014423  1111778 
 4897000    1.3505372   -3.3449857   -1.7437321   0.18159692   -3.3449857    1.6012536  1111842 
 4898000    1.3516622   -3.3459587    -1.743429   0.18848193   -3.3459587    1.6025298  1111882 
 4899000    1.3510363   -3.3460184   -1.7443028   0.18158549   -3.3460184    1.6017156  1111932 
 4900000    1.3520027   -3.3475384   -1.7447722   0.18139011   -3.3475384    1.6027662  1111998 
 4901000    1.3510145   -3.3469309   -1.7454082   0.18233648   -3.3469309    1.6015227  1112048 
 4902000    1.3518448   -3.3474059   -1.7449638   0.18499975   -3.3474059    1.6024421  1112093 
 4903000    1.3511642   -3.3474085   -1.7458451   0.18161332   -3.3474085    1.6015634  1112143 
 4904000    1.3497603   -3.3459916   -1.7461441   0.18313867   -3.3459916    1.5998475  1112179 
 4905000    1.3511277   -3.3479118    -1.746527   0.18044169   -3.3479118    1.6013847  1112237 
 4906000    1.3509958   -3.3474878   -1.7463127   0.17976552   -3.3474878    1.6011751  1112274 
 4907000    1.3492866   -3.3459944   -1.7468996   0.18308811   -3.3459944    1.5990948  1112312 
 4908000    1.3506431   -3.3469766   -1.7463389   0.18713298   -3.3469766    1.6006376  1112357 
 4909000    1.3515377   -3.3467908   -1.7451692   0.18430103   -3.3467908    1.6016215  1112410 
 4910000      1.35206   -3.3475019   -1.7453219   0.18398704   -3.3475019      1.60218  1112452 
 4911000    1.3511054   -3.3467743   -1.7457815   0.18339516   -3.3467743    1.6009927  1112491 
 4912000    1.3515267   -3.3472868   -1.7458467   0.18529784   -3.3472868    1.6014401  1112527 
 4913000    1.3509671   -3.3465033   -1.7457881   0.18372084   -3.3465033    1.6007152  1112570 
 4914000     1.351047   -3.3467178   -1.7459569   0.18641062   -3.3467178    1.6007609  1112604 
 4915000    1.3523893   -3.3484195   -1.7461402   0.18477477   -3.3484195    1.6022793  1112654 
 4916000    1.3516066   -3.3478176   -1.7465304   0.18394985   -3.3478176    1.6012872  1112699 
 4917000    1.3506285   -3.3467272   -1.7466606   0.18642451   -3.3467272    1.6000666  1112742 
 4918000    1.3517739   -3.3479369    -1.746581   0.18215352   -3.3479369    1.6013559  1112789 
 4919000    1.3511875   -3.3475748   -1.7469942   0.18400737   -3.3475748    1.6005806  1112845 
 4920000    1.3518249   -3.3483813    -1.747129   0.18646088   -3.3483813    1.6012523  1112903 
 4921000    1.3516397   -3.3477055   -1.7467345   0.18223285   -3.3477055     1.600971  1112946 
 4922000    1.3527605   -3.3491071   -1.7468776   0.18164499   -3.3491071    1.6022295  1112994 
 4923000    1.3516589   -3.3482033   -1.7473635   0.18403012   -3.3482033    1.6008398  1113053 
 4924000     1.351213   -3.3480314   -1.7477756   0.18149278   -3.3480314    1.6002557  1113092 
 4925000    1.3520436   -3.3489838   -1.7478034   0.17983425   -3.3489838    1.6011804  1113133 
 4926000    1.3509243   -3.3474684   -1.7476753   0.18531995   -3.3474684    1.5997931  1113176 
 4927000    1.3523478   -3.3488262   -1.7474222   0.18843802   -3.3488262     1.601404  1113228 
 4928000    1.3520547    -3.348275   -1.7472813   0.18571079    -3.348275    1.6009936  1113272 
 4929000    1.3528602   -3.3497883   -1.7479186     0.182718   -3.3497883    1.6018697  1113326 
 4930000    1.3526542    -3.348645   -1.7470925    0.1868565    -3.348645    1.6015525  1113377 
 4931000    1.3531236   -3.3490211   -1.7469661   0.19345363   -3.3490211     1.602055  1113414 
 4932000    1.3521356   -3.3488009   -1.7479876   0.18284168   -3.3488009    1.6008133  1113464 
 4933000    1.3532506   -3.3499535    -1.747892   0.18167948   -3.3499535    1.6020615  1113514 
 4934000     1.352603    -3.349467   -1.7482269   0.18820399    -3.349467    1.6012401  1113552 
 4935000    1.3527912   -3.3496487   -1.7482419   0.18066922   -3.3496487    1.6014068  1113591 
 4936000    1.3520264   -3.3485855   -1.7481472   0.18521725   -3.3485855    1.6004383  1113635 
 4937000    1.3528417   -3.3501908   -1.7488752   0.18652243   -3.3501908    1.6013156  1113696 
 4938000    1.3528995   -3.3493725   -1.7480459   0.18660425   -3.3493725    1.6013266  1113736 
 4939000    1.3532699   -3.3499499   -1.7482526   0.18743709   -3.3499499    1.6016973  1113783 
 4940000    1.3527647   -3.3495609   -1.7485219   0.19086238   -3.3495609     1.601039  1113825 
 4941000     1.352595   -3.3494574    -1.748691   0.18574127   -3.3494574    1.6007664  1113875 
 4942000    1.3518065   -3.3486478   -1.7488792   0.18876286   -3.3486478    1.5997686  1113920 
 4943000    1.3536448   -3.3504793   -1.7486114   0.18423985   -3.3504793    1.6018679  1113973 
 4944000     1.353191   -3.3505818   -1.7493257   0.18497207   -3.3505818    1.6012561  1114025 
 4945000    1.3535364    -3.350737   -1.7491197   0.18862962    -3.350737    1.6016173  1114058 
 4946000    1.3527604   -3.3501637   -1.7495234   0.18242829   -3.3501637    1.6006403  1114099 
 4947000    1.3522343   -3.3497295   -1.7497893   0.18589423   -3.3497295    1.5999402  1114153 
 4948000    1.3533268   -3.3510717   -1.7498906   0.18383861   -3.3510717    1.6011811  1114189 
 4949000    1.3532346   -3.3512639   -1.7502709    0.1817798   -3.3512639     1.600993  1114244 
 4950000    1.3527646   -3.3506396   -1.7502587   0.18448674   -3.3506396    1.6003809  1114283 
 4951000    1.3536424   -3.3510951   -1.7497477   0.18506579   -3.3510951    1.6013475  1114333 
 4952000    1.3538714   -3.3504535   -1.7488969   0.18886118   -3.3504535    1.6015566  1114376 
 4953000    1.3554024   -3.3531013   -1.7498026   0.18375175   -3.3531013    1.6032987  1114424 
 4954000    1.3542529   -3.3513298   -1.7494513   0.19024387   -3.3513298    1.6018785  1114466 
 4955000    1.3543674   -3.3517319   -1.7497869   0.18629938   -3.3517319     1.601945  1114514 
 4956000    1.3543884   -3.3520379   -1.7501213   0.18646603   -3.3520379    1.6019166  1114551 
 4957000    1.3545485   -3.3513298   -1.7492985   0.18464942   -3.3513298    1.6020313  1114603 
 4958000    1.3545855   -3.3522888   -1.7502843   0.18747093   -3.3522888    1.6020045  1114652 
 4959000    1.3531315   -3.3509721   -1.7507518   0.18375234   -3.3509721    1.6002203  1114697 
 4960000    1.3531634    -3.351348   -1.7511487   0.18216224    -3.351348    1.6001993  1114738 
 4961000    1.3529424   -3.3517921   -1.7518973   0.18392027   -3.3517921    1.5998949  1114768 
 4962000    1.3530225   -3.3504262    -1.750517   0.18644001   -3.3504262    1.5999092  1114824 
 4963000    1.3541299   -3.3515635   -1.7503808   0.18520677   -3.3515635    1.6011827  1114849 
 4964000    1.3539861   -3.3521841   -1.7512416    0.1824265   -3.3521841    1.6009424  1114898 
 4965000    1.3546016   -3.3526449   -1.7510538    0.1872114   -3.3526449    1.6015911  1114953 
 4966000    1.3537318   -3.3522064   -1.7517011   0.18342572   -3.3522064    1.6005053  1114993 
 4967000    1.3551343   -3.3538166   -1.7517063   0.18297537   -3.3538166    1.6021103  1115030 
 4968000    1.3539872   -3.3524444   -1.7517563   0.18140623   -3.3524444    1.6006881  1115076 
 4969000    1.3538532   -3.3511473   -1.7506865   0.18627131   -3.3511473    1.6004608  1115124 
 4970000    1.3553665   -3.3529005   -1.7507197   0.18374845   -3.3529005    1.6021808  1115172 
 4971000    1.3544637   -3.3521764   -1.7511317   0.18729344   -3.3521764    1.6010447  1115220 
 4972000    1.3548557   -3.3518651   -1.7504059    0.1907108   -3.3518651    1.6014593  1115254 
 4973000    1.3561071   -3.3538864    -1.751004    0.1807748   -3.3538864    1.6028824  1115293 
 4974000    1.3544827   -3.3525474   -1.7516439   0.18595549   -3.3525474    1.6009035  1115334 
 4975000    1.3548756   -3.3529276   -1.7516072   0.18504607   -3.3529276    1.6013204  1115367 
 4976000    1.3548255   -3.3540509   -1.7528456   0.18699211   -3.3540509    1.6012053  1115406 
 4977000    1.3550711   -3.3543703    -1.752938   0.18153161   -3.3543703    1.6014324  1115450 
 4978000    1.3535319   -3.3542706   -1.7547405   0.18150764   -3.3542706    1.5995301  1115508 
 4979000    1.3546077   -3.3548573   -1.7540917   0.17985312   -3.3548573    1.6007656  1115533 
 4980000    1.3537686   -3.3536152   -1.7539071   0.18786518   -3.3536152    1.5997081  1115579 
 4981000     1.354368   -3.3543561   -1.7540029   0.18691381   -3.3543561    1.6003532  1115623 
 4982000    1.3549499   -3.3549703   -1.7540256   0.18395897   -3.3549703    1.6009447  1115690 
 4983000    1.3540544   -3.3536455   -1.7538047   0.18742063   -3.3536455    1.5998408  1115722 
 4984000    1.3548481   -3.3555294   -1.7548125   0.18799777   -3.3555294    1.6007168  1115765 
 4985000    1.3549986    -3.355339   -1.7545219   0.18413969    -3.355339    1.6008171  1115819 
 4986000    1.3544681   -3.3543791   -1.7542518   0.18752227   -3.3543791    1.6001273  1115863 
 4987000    1.3541203   -3.3535882   -1.7539349    0.1851936   -3.3535882    1.5996533  1115907 
 4988000    1.3542778   -3.3540497    -1.754282   0.18972342   -3.3540497    1.5997677  1115957 
 4989000    1.3556541   -3.3556071   -1.7542869   0.18700297   -3.3556071    1.6013203  1116008 
 4990000    1.3552619   -3.3550561   -1.7542636   0.19205261   -3.3550561    1.6007925  1116053 
 4991000    1.3553533   -3.3553923   -1.7545607   0.18972157   -3.3553923    1.6008316  1116101 
 4992000    1.3566094   -3.3577388   -1.7555054   0.18327546   -3.3577388    1.6022334  1116158 
 4993000    1.3560564   -3.3573656   -1.7558642   0.18342869   -3.3573656    1.6015013  1116213 
 4994000    1.3554862   -3.3567044   -1.7559511   0.18845779   -3.3567044    1.6007534  1116265 
 4995000     1.355025   -3.3565715   -1.7564359   0.18167637   -3.3565715    1.6001356  1116316 
 4996000    1.3549235   -3.3554986   -1.7555803    0.1873407   -3.3554986    1.5999182  1116384 
 4997000    1.3553035   -3.3557522   -1.7554468   0.19111333   -3.3557522    1.6003054  1116427 
 4998000    1.3555401   -3.3559738   -1.7554335   0.18768766   -3.3559738    1.6005403  1116458 
 4999000    1.3556959    -3.356552   -1.7558837   0.18397923    -3.356552    1.6006684  1116497 
 5000000    1.3554944   -3.3564319   -1.7560818   0.18458902   -3.3564319    1.6003501  1116553 
 5001000    1.3549303   -3.3559579   -1.7563253   0.18490483   -3.3559579    1.5996326  1116589 
 5002000    1.3565974   -3.3580342   -1.7564979   0.18378241   -3.3580342    1.6015362  1116634 
 5003000    1.3551492   -3.3567571   -1.7570065   0.18607547   -3.3567571    1.5997505  1116687 
 5004000    1.3546473   -3.3556004   -1.7564895   0.18504577   -3.3556004    1.5991109  1116720 
 5005000    1.3556149   -3.3560224   -1.7558281    0.1837732   -3.3560224    1.6001943  1116761 
 5006000    1.3567947   -3.3572196   -1.7557259   0.18416267   -3.3572196    1.6014937  1116826 
 5007000    1.3560329    -3.356302   -1.7557647   0.18631385    -3.356302    1.6005372  1116866 
 5008000    1.3572255   -3.3574536   -1.7555561    0.1867417   -3.3574536    1.6018975  1116899 
 5009000    1.3581817   -3.3577942   -1.7548183   0.18518879   -3.3577942    1.6029759  1116934 
 5010000      1.35638   -3.3567177   -1.7559198   0.18856338   -3.3567177    1.6007979  1116970 
 5011000    1.3565024   -3.3567736   -1.7558671   0.18483521   -3.3567736    1.6009065  1116995 
 5012000    1.3574915   -3.3574336   -1.7554301   0.18446959   -3.3574336    1.6020036  1117044 
 5013000    1.3556447   -3.3561604   -1.7564022   0.18643887   -3.3561604    1.5997582  1117090 
 5014000    1.3567218   -3.3575579   -1.7565845   0.18423755   -3.3575579    1.6009734  1117129 
 5015000    1.3562295    -3.357375   -1.7570514   0.18690204    -3.357375    1.6003236  1117177 
 5016000    1.3571893   -3.3583655   -1.7569566   0.18477778   -3.3583655    1.6014089  1117210 
 5017000    1.3569005   -3.3576963   -1.7566898   0.18752961   -3.3576963    1.6010065  1117253 
 5018000    1.3558337   -3.3572882   -1.7575948   0.18525332   -3.3572882    1.5996934  1117291 
 5019000    1.3553129   -3.3571909   -1.7581707   0.18798213   -3.3571909    1.5990203  1117332 
 5020000    1.3568648   -3.3589744    -1.758192   0.18563441   -3.3589744    1.6007824  1117380 
 5021000    1.3558594   -3.3574935   -1.7579659   0.18734701   -3.3574935    1.5995276  1117428 
 5022000    1.3558645   -3.3576667   -1.7581861   0.18590031   -3.3576667    1.5994806  1117465 
 5023000    1.3556638   -3.3580409   -1.7588515   0.18275191   -3.3580409    1.5991894  1117503 
 5024000    1.3555845   -3.3582492   -1.7592147   0.18734879   -3.3582492    1.5990345  1117546 
 5025000    1.3567942   -3.3591072   -1.7587261   0.18326951   -3.3591072    1.6003811  1117602 
 5026000    1.3562665    -3.358496   -1.7587945   0.18591273    -3.358496    1.5997015  1117642 
 5027000     1.356287   -3.3584972   -1.7588302   0.18562402   -3.3584972     1.599667  1117683 
 5028000    1.3566739   -3.3588864   -1.7588446   0.19099098   -3.3588864    1.6000417  1117740 
 5029000    1.3566929   -3.3589764   -1.7589767   0.18720129   -3.3589764    1.5999997  1117785 
 5030000    1.3576109   -3.3601555   -1.7591376    0.1886477   -3.3601555    1.6010179  1117830 
 5031000    1.3575289   -3.3593331   -1.7584836   0.19154206   -3.3593331    1.6008495  1117880 
 5032000    1.3573262   -3.3592269    -1.758675   0.19110703   -3.3592269    1.6005518  1117921 
 5033000    1.3579207    -3.359517   -1.7583271   0.18740875    -3.359517    1.6011899  1117965 
 5034000    1.3574314   -3.3597354   -1.7591741   0.18491903   -3.3597354    1.6005613  1118001 
 5035000    1.3582038   -3.3598996   -1.7584877   0.18401007   -3.3598996    1.6014119  1118043 
 5036000     1.357385   -3.3593991   -1.7590112   0.18912511   -3.3593991    1.6003879  1118084 
 5037000    1.3568244   -3.3586993    -1.759054   0.18829466   -3.3586993    1.5996453  1118141 
 5038000    1.3581099   -3.3596598    -1.758549   0.18836757   -3.3596598    1.6011108  1118176 
 5039000    1.3581378   -3.3597965   -1.7587202   0.18556228   -3.3597965    1.6010763  1118223 
 5040000    1.3589257    -3.360957   -1.7590178   0.18430689    -3.360957    1.6019393  1118269 
 5041000     1.358667   -3.3605024   -1.7589526   0.18546023   -3.3605024    1.6015498  1118328 
 5042000    1.3582076   -3.3606583   -1.7597116   0.18585451   -3.3606583    1.6009467  1118371 
 5043000    1.3582887   -3.3609394   -1.7599558   0.18700194   -3.3609394    1.6009836  1118412 
 5044000    1.3577454    -3.361732   -1.7614503    0.1838015    -3.361732    1.6002817  1118455 
 5045000    1.3572203   -3.3601863   -1.7605864    0.1829747   -3.3601863    1.5995999  1118499 
 5046000    1.3574679   -3.3604813   -1.7606424   0.18360714   -3.3604813    1.5998389  1118536 
 5047000    1.3563672   -3.3599489   -1.7614544   0.18482266   -3.3599489    1.5984944  1118569 
 5048000    1.3567527   -3.3603428   -1.7614398   0.18284119   -3.3603428     1.598903  1118601 
 5049000    1.3576677   -3.3617217   -1.7617976   0.18389651   -3.3617217    1.5999241  1118641 
 5050000    1.3583121   -3.3619798   -1.7613621   0.18546509   -3.3619798    1.6006177  1118687 
 5051000     1.356999   -3.3609077   -1.7618945   0.18558261   -3.3609077    1.5990132  1118727 
 5052000    1.3568244   -3.3605061   -1.7617673   0.18528351   -3.3605061    1.5987388  1118775 
 5053000    1.3580092   -3.3618982   -1.7618163   0.18339766   -3.3618982    1.6000819  1118812 
 5054000    1.3578522   -3.3621323    -1.762294   0.18467323   -3.3621323    1.5998383  1118853 
 5055000    1.3572407   -3.3618003   -1.7627268   0.18895886   -3.3618003    1.5990736  1118884 
 5056000      1.35852   -3.3630525   -1.7625175   0.18721634   -3.3630525     1.600535  1118916 
 5057000    1.3586163   -3.3628279   -1.7622395   0.18480723   -3.3628279    1.6005884  1118958 
 5058000     1.359182   -3.3629742   -1.7617652    0.1882311   -3.3629742     1.601209  1118990 
 5059000    1.3599349   -3.3632896   -1.7612595   0.18639127   -3.3632896    1.6020302  1119036 
 5060000    1.3587708    -3.361815   -1.7612163   0.18795409    -3.361815    1.6005988  1119078 
 5061000    1.3596168   -3.3630937   -1.7615542   0.18660631   -3.3630937    1.6015395  1119117 
 5062000    1.3579688   -3.3617313   -1.7621988   0.18690123   -3.3617313    1.5995325  1119163 
 5063000     1.359212   -3.3629816   -1.7620491   0.18382977   -3.3629816    1.6009325  1119208 
 5064000    1.3594166   -3.3633883    -1.762272   0.18595244   -3.3633883    1.6011163  1119248 
 5065000    1.3580481   -3.3624346   -1.7629773    0.1873719   -3.3624346    1.5994573  1119281 
 5066000    1.3583475   -3.3632617   -1.7635347   0.18557192   -3.3632617     1.599727  1119339 
 5067000    1.3576775   -3.3635936   -1.7647127   0.18715463   -3.3635936    1.5988809  1119379 
 5068000    1.3578083   -3.3638899   -1.7649066   0.18739936   -3.3638899    1.5989834  1119415 
 5069000    1.3584113   -3.3643969   -1.7647462   0.18283647   -3.3643969    1.5996506  1119445 
 5070000    1.3571955   -3.3631376   -1.7649758   0.18597135   -3.3631376    1.5981618  1119485 
 5071000    1.3586325   -3.3636586   -1.7638503   0.18841054   -3.3636586    1.5998083  1119517 
 5072000    1.3577242   -3.3629062   -1.7642075   0.19154423   -3.3629062    1.5986987  1119545 
 5073000    1.3584743   -3.3633183   -1.7637906   0.18461091   -3.3633183    1.5995277  1119583 
 5074000    1.3574689   -3.3622417   -1.7639507   0.18602789   -3.3622417     1.598291  1119620 
 5075000    1.3590881   -3.3636421   -1.7635017   0.18636504   -3.3636421    1.6001404  1119660 
 5076000    1.3586737   -3.3629829    -1.763389   0.18894591   -3.3629829    1.5995939  1119701 
 5077000    1.3588833   -3.3638295   -1.7640461   0.18616338   -3.3638295    1.5997834  1119741 
 5078000    1.3592368   -3.3637936   -1.7636454   0.18670441   -3.3637936    1.6001482  1119777 
 5079000    1.3586337   -3.3634997   -1.7641201   0.18539135   -3.3634997    1.5993796  1119818 
 5080000    1.3590587   -3.3646137   -1.7647938   0.18320057   -3.3646137      1.59982  1119860 
 5081000    1.3584633   -3.3641094   -1.7650703   0.18711258   -3.3641094    1.5990391  1119916 
 5082000    1.3581905    -3.364017   -1.7653547   0.18441539    -3.364017    1.5986623  1119955 
 5083000    1.3592126   -3.3652176   -1.7654193   0.18790649   -3.3652176    1.5997983  1120002 
 5084000    1.3584764   -3.3648638    -1.765982   0.18428338   -3.3648638    1.5988818  1120037 
 5085000    1.3587165   -3.3641251   -1.7650221   0.18764541   -3.3641251    1.5991029  1120080 
 5086000    1.3587816   -3.3645634   -1.7654395   0.18506568   -3.3645634    1.5991239  1120119 
 5087000     1.358811   -3.3643765   -1.7652694   0.18707902   -3.3643765    1.5991071  1120155 
 5088000    1.3591757   -3.3651444    -1.765658   0.18616901   -3.3651444    1.5994864  1120190 
 5089000    1.3587919   -3.3644331   -1.7654641   0.18916467   -3.3644331     1.598969  1120236 
 5090000    1.3589509   -3.3654492   -1.7663473   0.18306174   -3.3654492    1.5991019  1120274 
 5091000     1.358843   -3.3658485   -1.7669507   0.18323015   -3.3658485    1.5988978  1120328 
 5092000    1.3582096   -3.3648486   -1.7667617    0.1870595   -3.3648486    1.5980869  1120374 
 5093000    1.3583239   -3.3649504   -1.7667875   0.19102332   -3.3649504    1.5981629  1120415 
 5094000    1.3590268   -3.3658607   -1.7669264   0.18709186   -3.3658607    1.5989343  1120454 
 5095000     1.360187   -3.3656157   -1.7653822   0.18507481   -3.3656157    1.6002336  1120500 
 5096000    1.3601883   -3.3657613   -1.7655818   0.18332098   -3.3657613    1.6001795  1120539 
 5097000    1.3596457   -3.3659693   -1.7664938   0.18667563   -3.3659693    1.5994755  1120585 
 5098000    1.3589236   -3.3649059   -1.7663442   0.18721391   -3.3649059    1.5985617  1120630 
 5099000    1.3583326   -3.3647388   -1.7669136   0.18585251   -3.3647388    1.5978252  1120659 
 5100000    1.3594303   -3.3663159   -1.7672579   0.18507067   -3.3663159    1.5990579  1120700 
 5101000    1.3599244   -3.3660946    -1.766504   0.18526675   -3.3660946    1.5995907  1120734 
 5102000    1.3596183   -3.3658108    -1.766643   0.18814971   -3.3658108    1.5991678  1120778 
 5103000    1.3599337   -3.3667362   -1.7672731   0.18776495   -3.3667362    1.5994631  1120831 
 5104000    1.3602171    -3.367338   -1.7676015     0.185893    -3.367338    1.5997365  1120873 
 5105000    1.3607826   -3.3676373   -1.7672986   0.18635169   -3.3676373    1.6003387  1120917 
 5106000    1.3601468   -3.3667845    -1.767242   0.18907509   -3.3667845    1.5995425  1120951 
 5107000     1.359223   -3.3660482   -1.7676364     0.189492   -3.3660482    1.5984118  1120982 
 5108000    1.3595982    -3.366637   -1.7678553   0.18238781    -3.366637    1.5987818  1121032 
 5109000    1.3600511   -3.3664546   -1.7671944   0.18947768   -3.3664546    1.5992601  1121070 
 5110000     1.361116   -3.3683766   -1.7679385   0.18571485   -3.3683766    1.6004381  1121122 
 5111000    1.3595634   -3.3663989   -1.7678434   0.19159204   -3.3663989    1.5985555  1121162 
 5112000    1.3603248   -3.3675511   -1.7681731   0.18987432   -3.3675511     1.599378  1121213 
 5113000    1.3603128   -3.3674907   -1.7681852    0.1881108   -3.3674907    1.5993054  1121254 
 5114000    1.3612264   -3.3689455   -1.7686245   0.18586617   -3.3689455     1.600321  1121295 
 5115000    1.3613611   -3.3685631   -1.7681251   0.18550709   -3.3685631     1.600438  1121324 
 5116000    1.3602231   -3.3668028    -1.767774   0.18925783   -3.3668028    1.5990288  1121374 
 5117000    1.3611754   -3.3686547   -1.7685607   0.18565616   -3.3686547     1.600094  1121412 
 5118000    1.3599184   -3.3681679   -1.7696199   0.18605594   -3.3681679     1.598548  1121460 
 5119000    1.3597409   -3.3685864   -1.7702998   0.18613974   -3.3685864    1.5982866  1121497 
 5120000    1.3599952   -3.3686966   -1.7701623    0.1835806   -3.3686966    1.5985343  1121533 
 5121000    1.3592008    -3.368026   -1.7704838   0.18616723    -3.368026    1.5975421  1121574 
 5122000    1.3599394   -3.3679577   -1.7696045   0.18804954   -3.3679577    1.5983532  1121614 
 5123000    1.3599858   -3.3680771   -1.7697306   0.18704673   -3.3680771    1.5983464  1121657 
 5124000     1.360085    -3.368701   -1.7703035   0.18748301    -3.368701    1.5983975  1121703 
 5125000    1.3596492   -3.3688543   -1.7710401    0.1866744   -3.3688543    1.5978142  1121753 
 5126000    1.3597762   -3.3693757    -1.771475   0.18924403   -3.3693757    1.5979007  1121797 
 5127000    1.3606548   -3.3700206    -1.771133   0.18576166   -3.3700206    1.5988876  1121829 
 5128000    1.3596743   -3.3689653   -1.7712869   0.18942709   -3.3689653    1.5976784  1121869 
 5129000    1.3598622   -3.3689082   -1.7710702   0.18798358   -3.3689082     1.597838  1121912 
 5130000    1.3605567   -3.3696626   -1.7710599   0.18709208   -3.3696626    1.5986027  1121948 
 5131000    1.3597852   -3.3690937   -1.7714586   0.18699747   -3.3690937     1.597635  1121991 
 5132000    1.3600911   -3.3693662   -1.7714187   0.18842489   -3.3693662    1.5979475  1122024 
 5133000    1.3599879   -3.3695168   -1.7717562   0.18706572   -3.3695168    1.5977606  1122070 
 5134000    1.3607798   -3.3709701   -1.7723418   0.18803384   -3.3709701    1.5986284  1122114 
 5135000    1.3601892   -3.3701595   -1.7722792   0.18932771   -3.3701595    1.5978803  1122152 
 5136000    1.3608309   -3.3711858   -1.7726313    0.1826462   -3.3711858    1.5985545  1122208 
 5137000    1.3612968    -3.372238   -1.7732075   0.18426377    -3.372238    1.5990305  1122258 
 5138000    1.3605805   -3.3707318   -1.7725954   0.18794496   -3.3707318    1.5981363  1122295 
 5139000    1.3617836   -3.3717131   -1.7722406   0.18822266   -3.3717131    1.5994726  1122349 
 5140000    1.3603545   -3.3700409   -1.7722952   0.18799407   -3.3700409    1.5977457  1122383 
 5141000    1.3605081   -3.3703049     -1.77245   0.18844209   -3.3703049    1.5978548  1122433 
 5142000    1.3615731   -3.3709798   -1.7719297   0.18864335   -3.3709798    1.5990501  1122472 
 5143000    1.3616412   -3.3709955   -1.7719195   0.18937082   -3.3709955    1.5990759  1122510 
 5144000    1.3610374   -3.3704096   -1.7721025   0.18969965   -3.3704096    1.5983071  1122552 
 5145000    1.3614754   -3.3709512   -1.7721897   0.18749076   -3.3709512    1.5987616  1122594 
 5146000    1.3609003   -3.3706482   -1.7726331   0.18513188   -3.3706482    1.5980151  1122644 
 5147000    1.3619246   -3.3710316   -1.7718692   0.19000382   -3.3710316    1.5991623  1122683 
 5148000    1.3621808   -3.3714368   -1.7720363    0.1875754   -3.3714368    1.5994005  1122727 
 5149000    1.3615971   -3.3710897   -1.7724344   0.18768187   -3.3710897    1.5986553  1122769 
 5150000    1.3624502   -3.3715273   -1.7719231   0.18768409   -3.3715273    1.5996043  1122806 
 5151000     1.361166   -3.3702788   -1.7722492   0.18842031   -3.3702788    1.5980296  1122853 
 5152000    1.3625089   -3.3721597   -1.7726134   0.18552176   -3.3721597    1.5995463  1122895 
 5153000    1.3602032   -3.3701932   -1.7734006    0.1918017   -3.3701932    1.5967926  1122928 
 5154000     1.361529   -3.3709769   -1.7726991   0.18370097   -3.3709769    1.5982778  1122978 
 5155000    1.3610647   -3.3709998   -1.7733154   0.18808595   -3.3709998    1.5976844  1123012 
 5156000    1.3621281   -3.3719579   -1.7730778   0.18703357   -3.3719579      1.59888  1123049 
 5157000     1.363035   -3.3729279   -1.7730488   0.18477757   -3.3729279    1.5998791  1123095 
 5158000    1.3623036   -3.3719325   -1.7729603   0.18786708   -3.3719325    1.5989721  1123129 
 5159000    1.3613333   -3.3713475   -1.7735783   0.18513644   -3.3713475    1.5977692  1123174 
 5160000    1.3617738   -3.3720929   -1.7738693   0.18368073   -3.3720929    1.5982236  1123218 
 5161000    1.3625193   -3.3723344   -1.7732899   0.18820706   -3.3723344    1.5990445  1123256 
 5162000    1.3625945   -3.3734895   -1.7744194   0.18598847   -3.3734895    1.5990701  1123300 
 5163000    1.3615019   -3.3723545   -1.7746206   0.19033159   -3.3723545    1.5977339  1123338 
 5164000     1.363314   -3.3734124   -1.7736161   0.18794263   -3.3734124    1.5997963  1123383 
 5165000    1.3633641   -3.3732048    -1.773404   0.18778263   -3.3732048    1.5998009  1123421 
 5166000    1.3627246   -3.3734385   -1.7744606   0.18793376   -3.3734385    1.5989779  1123472 
 5167000    1.3634242   -3.3734947   -1.7737542   0.18757209   -3.3734947    1.5997405  1123513 
 5168000    1.3636764    -3.373731   -1.7737559    0.1870188    -3.373731    1.5999751  1123556 
 5169000    1.3645753   -3.3744448   -1.7734906   0.18888344   -3.3744448    1.6009542  1123609 
 5170000    1.3638598    -3.374299   -1.7742583   0.18930846    -3.374299    1.6000407  1123661 
 5171000    1.3634758   -3.3734653   -1.7739249   0.19101066   -3.3734653    1.5995404  1123696 
 5172000     1.362862   -3.3731997   -1.7744278   0.18997432   -3.3731997    1.5987719  1123730 
 5173000     1.363554   -3.3742001    -1.774679    0.1872102   -3.3742001    1.5995211  1123774 
 5174000    1.3628326   -3.3736209       -1.775   0.18816241   -3.3736209    1.5986208  1123812 
 5175000    1.3627731    -3.373924   -1.7754369   0.18933058    -3.373924    1.5984871  1123857 
 5176000     1.363536   -3.3748609   -1.7755359   0.18631672   -3.3748609     1.599325  1123897 
 5177000     1.363849   -3.3753022   -1.7756798   0.18897918   -3.3753022    1.5996224  1123946 
 5178000    1.3622002   -3.3730412   -1.7754124   0.19048762   -3.3730412    1.5976288  1123988 
 5179000    1.3631461   -3.3750067   -1.7763111     0.188045   -3.3750067    1.5986956  1124018 
 5180000    1.3623798    -3.374157   -1.7764056   0.18843426    -3.374157    1.5977513  1124050 
 5181000    1.3613791   -3.3732164   -1.7766911   0.19450589   -3.3732164    1.5965253  1124087 
 5182000    1.3620854   -3.3747223   -1.7774242   0.18446183   -3.3747223    1.5972981  1124126 
 5183000    1.3623415   -3.3751154   -1.7775738   0.18681072   -3.3751154    1.5975415  1124166 
 5184000    1.3619205   -3.3744162   -1.7774294   0.18741056   -3.3744162    1.5969868  1124209 
 5185000    1.3612001   -3.3734344   -1.7773492   0.18604147   -3.3734344    1.5960853  1124249 
 5186000    1.3620533    -3.374086   -1.7770614   0.18831915    -3.374086    1.5970246  1124292 
 5187000    1.3618551   -3.3742436   -1.7775181   0.19002098   -3.3742436    1.5967255  1124339 
 5188000    1.3622878   -3.3751376   -1.7779702   0.18793576   -3.3751376    1.5971674  1124385 
 5189000    1.3621596   -3.3751938   -1.7782476   0.18758531   -3.3751938    1.5969462  1124435 
 5190000    1.3626361   -3.3764273    -1.779002   0.18552541   -3.3764273    1.5974252  1124491 
 5191000    1.3620491   -3.3751501   -1.7784698   0.18536704   -3.3751501    1.5966803  1124531 
 5192000     1.362045   -3.3753305    -1.778709   0.18862907   -3.3753305    1.5966215  1124569 
 5193000    1.3622216   -3.3755572   -1.7787954   0.18922795   -3.3755572    1.5967618  1124616 
 5194000    1.3630836    -3.376677   -1.7789602   0.18763093    -3.376677    1.5977168  1124655 
 5195000    1.3631267   -3.3762693   -1.7785745   0.18880604   -3.3762693    1.5976949  1124706 
 5196000    1.3637087   -3.3772784   -1.7789511   0.18589888   -3.3772784    1.5983273  1124741 
 5197000    1.3636704   -3.3773932   -1.7791833   0.18583869   -3.3773932      1.59821  1124792 
 5198000    1.3641601   -3.3786316   -1.7799174   0.18904689   -3.3786316    1.5987142  1124841 
 5199000    1.3622508    -3.376342   -1.7799123   0.19165143    -3.376342    1.5964297  1124874 
 5200000     1.361927   -3.3767372   -1.7807422   0.19059291   -3.3767372     1.595995  1124913 
 5201000    1.3624985   -3.3778791    -1.781267   0.18634654   -3.3778791    1.5966121  1124950 
 5202000    1.3624982   -3.3773326   -1.7807874   0.18687765   -3.3773326    1.5965452  1124997 
 5203000    1.3635492   -3.3790415   -1.7813274   0.18564902   -3.3790415    1.5977141  1125041 
 5204000    1.3622441    -3.378055   -1.7819239   0.18773214    -3.378055    1.5961311  1125079 
 5205000    1.3626241   -3.3777127   -1.7811903   0.19012036   -3.3777127    1.5965224  1125117 
 5206000    1.3622314   -3.3774079   -1.7814066   0.18586748   -3.3774079    1.5960013  1125160 
 5207000    1.3628289   -3.3780563   -1.7814331   0.18774777   -3.3780563    1.5966232  1125215 
 5208000    1.3638029   -3.3787675   -1.7810542   0.18887607   -3.3787675    1.5977132  1125251 
 5209000    1.3644398   -3.3796542   -1.7812602   0.18583267   -3.3796542     1.598394  1125297 
 5210000    1.3638207   -3.3788234   -1.7812085    0.1872576   -3.3788234    1.5976148  1125335 
 5211000     1.364269   -3.3791344   -1.7810512   0.18658236   -3.3791344    1.5980831  1125375 
 5212000    1.3642772   -3.3798629   -1.7818326   0.18217019   -3.3798629    1.5980303  1125419 
 5213000    1.3643337    -3.379026   -1.7809921   0.18514745    -3.379026    1.5980339  1125463 
 5214000    1.3644679   -3.3788649   -1.7807561   0.18650714   -3.3788649    1.5981088  1125521 
 5215000    1.3641123   -3.3784036   -1.7807767    0.1886131   -3.3784036     1.597627  1125567 
 5216000    1.3640461   -3.3784519   -1.7809634   0.18594565   -3.3784519    1.5974884  1125610 
 5217000     1.364014   -3.3786981   -1.7812941   0.18358286   -3.3786981    1.5974041  1125643 
 5218000    1.3637769    -3.379021   -1.7819542    0.1869644    -3.379021    1.5970668  1125685 
 5219000    1.3637844   -3.3790136   -1.7820147   0.19239362   -3.3790136    1.5969989  1125739 
 5220000    1.3636136   -3.3786339   -1.7818888    0.1912299   -3.3786339    1.5967451  1125777 
 5221000    1.3634533     -3.37848   -1.7819822   0.18829941     -3.37848    1.5964978  1125819 
 5222000    1.3648376   -3.3793759   -1.7813054   0.18707497   -3.3793759    1.5980705  1125853 
 5223000    1.3647069    -3.379403    -1.781531   0.18643047    -3.379403     1.597872  1125885 
 5224000    1.3644438   -3.3785135    -1.781012   0.19023601   -3.3785135    1.5975015  1125929 
 5225000    1.3658034   -3.3799888   -1.7809408   0.18460988   -3.3799888    1.5990479  1125961 
 5226000    1.3654936   -3.3794594   -1.7808182   0.18944461   -3.3794594    1.5986412  1125992 
 5227000    1.3658547   -3.3803375   -1.7813119   0.18788741   -3.3803375    1.5990256  1126019 
 5228000    1.3639023    -3.378029   -1.7813529   0.18892284    -3.378029    1.5966761  1126064 
 5229000    1.3655032   -3.3794535   -1.7809672   0.19108358   -3.3794535    1.5984863  1126109 
 5230000    1.3646766    -3.379402   -1.7819315   0.18664115    -3.379402    1.5974705  1126143 
 5231000    1.3659542   -3.3806795   -1.7817788   0.19127488   -3.3806795    1.5989007  1126189 
 5232000    1.3659229    -3.380305   -1.7815034   0.19280263    -3.380305    1.5988015  1126233 
 5233000    1.3656294   -3.3804396   -1.7820312   0.18586031   -3.3804396    1.5984083  1126268 
 5234000    1.3661355   -3.3809027   -1.7819659   0.19159732   -3.3809027    1.5989368  1126313 
 5235000    1.3656509   -3.3809009   -1.7825696   0.18962796   -3.3809009    1.5983313  1126340 
 5236000     1.364724   -3.3803937   -1.7831996   0.18875545   -3.3803937    1.5971941  1126377 
 5237000    1.3648109   -3.3808524   -1.7836077   0.18651952   -3.3808524    1.5972447  1126413 
 5238000    1.3648334   -3.3804624   -1.7832523   0.18745427   -3.3804624      1.59721  1126456 
 5239000    1.3653252   -3.3813814   -1.7836342   0.18515107   -3.3813814    1.5977473  1126483 
 5240000    1.3641792   -3.3800106   -1.7836525   0.18751027   -3.3800106    1.5963581  1126517 
 5241000    1.3644782   -3.3805683   -1.7839071   0.18774811   -3.3805683    1.5966612  1126550 
 5242000    1.3653076   -3.3812276   -1.7836668   0.19000705   -3.3812276    1.5975608  1126600 
 5243000    1.3660799   -3.3817586   -1.7833565   0.18672124   -3.3817586    1.5984021  1126644 
 5244000    1.3656595   -3.3814746    -1.783617   0.18810466   -3.3814746    1.5978576  1126681 
 5245000    1.3655636   -3.3816322   -1.7839547   0.18602067   -3.3816322    1.5976774  1126729 
 5246000    1.3642639   -3.3812454   -1.7851354   0.18705016   -3.3812454      1.59611  1126762 
 5247000    1.3655096   -3.3820458   -1.7845393   0.18744965   -3.3820458    1.5975064  1126805 
 5248000    1.3655933    -3.381848   -1.7843118   0.18584881    -3.381848    1.5975363  1126853 
 5249000    1.3642538   -3.3809481   -1.7850411   0.18777027   -3.3809481     1.595907  1126897 
 5250000    1.3655822   -3.3822473   -1.7848431   0.18918077   -3.3822473    1.5974042  1126937 
 5251000    1.3655063   -3.3821731   -1.7849185   0.18764687   -3.3821731    1.5972546  1126980 
 5252000    1.3661184   -3.3827056   -1.7848074   0.18588808   -3.3827056    1.5978982  1127031 
 5253000    1.3651408   -3.3822324   -1.7855216   0.18967669   -3.3822324    1.5967108  1127062 
 5254000    1.3654586   -3.3826438   -1.7856052   0.18790678   -3.3826438    1.5970386  1127093 
 5255000    1.3649226   -3.3823177   -1.7859387   0.18696983   -3.3823177    1.5963791  1127116 
 5256000      1.36478   -3.3824916   -1.7863316   0.18524751   -3.3824916    1.5961599  1127153 
 5257000    1.3648311   -3.3825338   -1.7863622   0.19025629   -3.3825338    1.5961716  1127187 
 5258000    1.3652305   -3.3834266    -1.786829   0.18455129   -3.3834266    1.5965976  1127216 
 5259000    1.3650152   -3.3824261   -1.7861383   0.19595077   -3.3824261    1.5962878  1127257 
 5260000    1.3655372    -3.383371   -1.7865323   0.18812161    -3.383371    1.5968387  1127299 
 5261000    1.3655685   -3.3830264   -1.7862007   0.18973273   -3.3830264    1.5968257  1127334 
 5262000    1.3661888   -3.3837493   -1.7862422   0.18772064   -3.3837493    1.5975072  1127365 
 5263000    1.3655141   -3.3830982   -1.7864594   0.18797989   -3.3830982    1.5966389  1127421 
 5264000    1.3649605   -3.3824253   -1.7864847   0.19115097   -3.3824253    1.5959406  1127457 
 5265000    1.3658001   -3.3835434   -1.7866821     0.191895   -3.3835434    1.5968614  1127500 
 5266000    1.3659816     -3.38311   -1.7860832   0.19241385     -3.38311    1.5970268  1127533 
 5267000    1.3657436   -3.3833897   -1.7866978   0.18754289   -3.3833897    1.5966919  1127573 
 5268000    1.3654738     -3.38315   -1.7868527   0.18834203     -3.38315    1.5962972  1127629 
 5269000    1.3655517   -3.3835113   -1.7871669   0.18661579   -3.3835113    1.5963445  1127660 
 5270000    1.3651456   -3.3835147   -1.7876902   0.19002131   -3.3835147    1.5958245  1127692 
 5271000    1.3643491   -3.3832684   -1.7884217   0.18920815   -3.3832684    1.5948466  1127725 
 5272000    1.3649998   -3.3836618   -1.7881097   0.18854163   -3.3836618    1.5955521  1127764 
 5273000    1.3652751   -3.3840541   -1.7882439   0.18703197   -3.3840541    1.5958102  1127809 
 5274000    1.3649486   -3.3841694   -1.7887917   0.18853861   -3.3841694    1.5953777  1127845 
 5275000    1.3652656   -3.3848937   -1.7892036   0.18830649   -3.3848937    1.5956902  1127886 
 5276000    1.3654544   -3.3842462    -1.788382   0.18865781   -3.3842462    1.5958642  1127919 
 5277000     1.364592   -3.3832597   -1.7884657   0.19147576   -3.3832597     1.594794  1127963 
 5278000    1.3653611   -3.3841325   -1.7884962   0.18915309   -3.3841325    1.5956363  1128003 
 5279000    1.3644094   -3.3827601   -1.7882897    0.1916456   -3.3827601    1.5944703  1128041 
 5280000    1.3662192   -3.3842719    -1.787722   0.18584779   -3.3842719    1.5965499  1128066 
 5281000    1.3657027    -3.383549   -1.7876535   0.19013877    -3.383549    1.5958954  1128102 
 5282000    1.3660703   -3.3841479   -1.7878895   0.18791159   -3.3841479    1.5962584  1128149 
 5283000    1.3666546   -3.3842989   -1.7874143   0.18868892   -3.3842989    1.5968846  1128189 
 5284000    1.3663604   -3.3838428   -1.7873487   0.19547963   -3.3838428    1.5964942  1128222 
 5285000    1.3675585   -3.3855446   -1.7877072   0.18960203   -3.3855446    1.5978374  1128262 
 5286000     1.367651   -3.3855278   -1.7876488   0.18785609   -3.3855278    1.5978789  1128309 
 5287000    1.3673677   -3.3858707    -1.788361   0.18830396   -3.3858707    1.5975097  1128336 
 5288000    1.3660567   -3.3847952   -1.7888766    0.1907215   -3.3847952    1.5959187  1128378 
 5289000    1.3661593    -3.384432   -1.7884557   0.19173367    -3.384432    1.5959763  1128422 
 5290000    1.3670194   -3.3857851   -1.7888508   0.18687812   -3.3857851    1.5969343  1128455 
 5291000    1.3656686   -3.3843868   -1.7891111    0.1913354   -3.3843868    1.5952757  1128512 
 5292000    1.3665828   -3.3856888   -1.7894073   0.18491646   -3.3856888    1.5962814  1128556 
 5293000      1.36712   -3.3863244   -1.7894693   0.18324793   -3.3863244    1.5968551  1128594 
 5294000    1.3661105   -3.3855426   -1.7899075   0.18578465   -3.3855426     1.595635  1128623 
 5295000    1.3660575   -3.3863502   -1.7908478    0.1852762   -3.3863502    1.5955024  1128673 
 5296000    1.3654997   -3.3851734   -1.7903734   0.19130143   -3.3851734    1.5948001  1128709 
 5297000    1.3667959   -3.3867837   -1.7905164   0.18852726   -3.3867837    1.5962673  1128742 
 5298000    1.3670974   -3.3863837   -1.7898166   0.18704422   -3.3863837    1.5965671  1128779 
 5299000    1.3665763    -3.386135   -1.7902388   0.19284428    -3.386135    1.5958963  1128823 
 5300000    1.3668785   -3.3871056   -1.7909074    0.1897448   -3.3871056    1.5961982  1128859 
 5301000    1.3671399   -3.3876731   -1.7912417   0.19130789   -3.3876731    1.5964314  1128910 
 5302000    1.3670664   -3.3871497   -1.7908635   0.18764515   -3.3871497    1.5962862  1128952 
 5303000    1.3672901   -3.3867519    -1.790261   0.19395103   -3.3867519    1.5964908  1128992 
 5304000     1.368487   -3.3884778    -1.790622   0.18756655   -3.3884778    1.5978558  1129015 
 5305000    1.3658571   -3.3858875   -1.7911546   0.18893175   -3.3858875    1.5947329  1129052 
 5306000    1.3673365   -3.3876477   -1.7912328   0.18942147   -3.3876477     1.596415  1129084 
 5307000    1.3679875   -3.3881748   -1.7910535   0.19004895   -3.3881748    1.5971213  1129122 
 5308000    1.3669948   -3.3872154   -1.7913011   0.19055329   -3.3872154    1.5959143  1129156 
 5309000    1.3664314   -3.3874665    -1.792292   0.19214297   -3.3874665    1.5951745  1129214 
 5310000      1.36706   -3.3881061   -1.7922458    0.1903036   -3.3881061    1.5958603  1129248 
 5311000    1.3667276    -3.387765   -1.7923436   0.19000217    -3.387765    1.5954214  1129284 
 5312000    1.3673999   -3.3881899   -1.7920289   0.18833521   -3.3881899     1.596161  1129316 
 5313000    1.3676941   -3.3876052   -1.7911417   0.19395769   -3.3876052    1.5964634  1129345 
 5314000    1.3696528   -3.3893055   -1.7905827   0.18853988   -3.3893055    1.5987228  1129364 
 5315000    1.3686383    -3.388871   -1.7913846   0.19019406    -3.388871    1.5974863  1129401 
 5316000    1.3670207    -3.388018   -1.7924791    0.1879865    -3.388018    1.5955389  1129443 
 5317000    1.3676471   -3.3888119   -1.7925998   0.18961935   -3.3888119    1.5962121  1129484 
 5318000    1.3668759   -3.3886327   -1.7933729   0.19299462   -3.3886327    1.5952598  1129521 
 5319000    1.3670317   -3.3884195   -1.7930344     0.190813   -3.3884195     1.595385  1129561 
 5320000    1.3672565   -3.3881302   -1.7925435   0.18820649   -3.3881302    1.5955867  1129604 
 5321000    1.3686147    -3.390249    -1.793114   0.18256324    -3.390249     1.597135  1129630 
 5322000    1.3689945   -3.3898064   -1.7922905   0.18712277   -3.3898064    1.5975159  1129674 
 5323000    1.3680419   -3.3892935   -1.7929372   0.19143466   -3.3892935    1.5963563  1129708 
 5324000    1.3677472   -3.3886188   -1.7926671   0.19110575   -3.3886188    1.5959517  1129751 
 5325000    1.3665725   -3.3877665   -1.7932167   0.18982873   -3.3877665    1.5945498  1129773 
 5326000     1.368115   -3.3899627   -1.7936723   0.18522626   -3.3899627    1.5962904  1129815 
 5327000    1.3675746   -3.3888967   -1.7932736   0.18538995   -3.3888967    1.5956232  1129841 
 5328000    1.3675698   -3.3894137   -1.7938569   0.18833176   -3.3894137    1.5955568  1129884 
 5329000    1.3671903   -3.3892023    -1.794139   0.18659592   -3.3892023    1.5950633  1129920 
 5330000    1.3672959   -3.3891017   -1.7939464   0.18915393   -3.3891017    1.5951553  1129942 
 5331000    1.3668709   -3.3889376   -1.7943458    0.1911269   -3.3889376    1.5945918  1129990 
 5332000    1.3671414   -3.3892897    -1.794436   0.19326144   -3.3892897    1.5948537  1130028 
 5333000    1.3681565   -3.3909144   -1.7949217   0.18828817   -3.3909144    1.5959927  1130060 
 5334000    1.3667379   -3.3897816   -1.7955016   0.18570111   -3.3897816      1.59428  1130101 
 5335000    1.3674785   -3.3906039   -1.7955136   0.19054831   -3.3906039    1.5950903  1130139 
 5336000    1.3673425   -3.3896581   -1.7947688   0.19086884   -3.3896581    1.5948893  1130169 
 5337000    1.3687952   -3.3908135   -1.7942962   0.19035725   -3.3908135    1.5965173  1130216 
 5338000    1.3678829   -3.3901863    -1.794781   0.19381063   -3.3901863    1.5954054  1130250 
 5339000    1.3683351   -3.3898023   -1.7939204   0.19370432   -3.3898023    1.5958819  1130286 
 5340000    1.3679304   -3.3895967   -1.7942545   0.18934067   -3.3895967    1.5953422  1130334 
 5341000     1.369024     -3.39076   -1.7941919   0.18937993     -3.39076    1.5965681  1130369 
 5342000    1.3677238   -3.3897347   -1.7947436   0.19298462   -3.3897347    1.5949911  1130412 
 5343000    1.3683632   -3.3911129   -1.7954382   0.18964364   -3.3911129    1.5956747  1130456 
 5344000    1.3697576   -3.3927932   -1.7955505   0.19014826   -3.3927932    1.5972427  1130497 
 5345000    1.3688198   -3.3914288    -1.795329   0.19530626   -3.3914288    1.5960998  1130532 
 5346000     1.367882    -3.390074   -1.7951058    0.1946922    -3.390074    1.5949682  1130559 
 5347000    1.3683559   -3.3909226   -1.7954724   0.19261651   -3.3909226    1.5954502  1130609 
 5348000    1.3690506   -3.3916023   -1.7953915   0.18976389   -3.3916023    1.5962108  1130644 
 5349000    1.3695571   -3.3913325   -1.7945735   0.18833529   -3.3913325     1.596759  1130674 
 5350000     1.369683    -3.391767   -1.7949008    0.1887915    -3.391767    1.5968662  1130702 
 5351000    1.3679711   -3.3901892   -1.7953738   0.19390705   -3.3901892    1.5948153  1130741 
 5352000    1.3679815   -3.3905532   -1.7957906   0.18812555   -3.3905532    1.5947626  1130787 
 5353000    1.3679272   -3.3904223   -1.7957738   0.18859339   -3.3904223    1.5946485  1130823 
 5354000    1.3687965   -3.3922957   -1.7966761   0.19306077   -3.3922957    1.5956196  1130853 
 5355000    1.3672952   -3.3908034   -1.7969761   0.18967958   -3.3908034    1.5938272  1130883 
 5356000     1.368143   -3.3923308   -1.7975801   0.18826982   -3.3923308    1.5947507  1130929 
 5357000    1.3681388   -3.3920993   -1.7974044   0.19344306   -3.3920993     1.594695  1130965 
 5358000    1.3687349   -3.3924238   -1.7970961   0.18711638   -3.3924238    1.5953277  1131009 
 5359000    1.3678612   -3.3912804   -1.7970133   0.19307549   -3.3912804    1.5942671  1131039 
 5360000    1.3684747   -3.3923627   -1.7974369   0.18904719   -3.3923627    1.5949258  1131079 
 5361000    1.3693241   -3.3926959   -1.7968338   0.19158522   -3.3926959    1.5958621  1131117 
 5362000     1.369237    -3.393149   -1.7974519   0.18704595    -3.393149    1.5956971  1131162 
 5363000    1.3689922   -3.3923553   -1.7969873   0.18999631   -3.3923553     1.595368  1131193 
 5364000    1.3697036   -3.3931268    -1.796996   0.19192413   -3.3931268    1.5961308  1131240 
 5365000    1.3691702   -3.3931443   -1.7976802   0.19310809   -3.3931443    1.5954641  1131272 
 5366000    1.3699326   -3.3937607   -1.7974562   0.19181734   -3.3937607    1.5963045  1131306 
 5367000    1.3692388   -3.3924286   -1.7969636   0.19361268   -3.3924286     1.595465  1131328 
 5368000    1.3689538   -3.3923539   -1.7972886   0.19426402   -3.3923539    1.5950653  1131376 
 5369000    1.3710361   -3.3948445   -1.7974222   0.18765257   -3.3948445    1.5974223  1131425 
 5370000    1.3695948   -3.3934979   -1.7978155   0.19002981   -3.3934979    1.5956824  1131468 
 5371000    1.3682997   -3.3924255   -1.7983027   0.19253546   -3.3924255    1.5941228  1131504 
 5372000    1.3697829   -3.3942819   -1.7984805   0.18861649   -3.3942819    1.5958013  1131539 
 5373000    1.3702631   -3.3941864   -1.7978679   0.18856161   -3.3941864    1.5963185  1131569 
 5374000    1.3697241   -3.3940348   -1.7984048   0.18675088   -3.3940348      1.59563  1131612 
 5375000    1.3689074     -3.39367   -1.7990266   0.19204616     -3.39367    1.5946434  1131637 
 5376000    1.3688808   -3.3932842   -1.7987225   0.18659592   -3.3932842    1.5945617  1131673 
 5377000     1.369536   -3.3944512   -1.7991871   0.18744402   -3.3944512    1.5952642  1131716 
 5378000    1.3690946   -3.3938851   -1.7992168   0.18939707   -3.3938851    1.5946683  1131774 
 5379000    1.3691827   -3.3937243    -1.799014   0.18957616   -3.3937243    1.5947103  1131817 
 5380000    1.3705589   -3.3952724   -1.7990001   0.19177576   -3.3952724    1.5962724  1131846 
 5381000    1.3689539   -3.3938679   -1.7995127   0.18975547   -3.3938679    1.5943552  1131880 
 5382000    1.3700687   -3.3950209   -1.7994295   0.18740268   -3.3950209    1.5955914  1131924 
 5383000    1.3698952   -3.3950364   -1.7996977   0.18757742   -3.3950364    1.5953387  1131960 
 5384000    1.3704552   -3.3954174   -1.7994943   0.18643715   -3.3954174    1.5959231  1132008 
 5385000    1.3694034    -3.393952   -1.7992819   0.19254163    -3.393952    1.5946701  1132028 
 5386000    1.3692108   -3.3944144   -1.8000122   0.18730883   -3.3944144    1.5944022  1132059 
 5387000    1.3708497   -3.3959634   -1.7997177   0.19036557   -3.3959634    1.5962458  1132105 
 5388000     1.370558   -3.3954728   -1.7996117   0.18860513   -3.3954728     1.595861  1132137 
 5389000     1.370318   -3.3958172   -1.8003117   0.19107704   -3.3958172    1.5955055  1132191 
 5390000    1.3690017   -3.3939452   -1.8000272   0.19236723   -3.3939452     1.593918  1132230 
 5391000    1.3694303   -3.3949303   -1.8005838   0.18860199   -3.3949303    1.5943465  1132280 
 5392000    1.3692692   -3.3938388   -1.7997516   0.19026862   -3.3938388    1.5940872  1132331 
 5393000    1.3693996   -3.3939843   -1.7997988   0.19430935   -3.3939843    1.5941855  1132369 
 5394000    1.3709598   -3.3956851   -1.7997396    0.1934933   -3.3956851    1.5959455  1132409 
 5395000    1.3698022   -3.3949117   -1.8003632   0.18906921   -3.3949117    1.5945485  1132444 
 5396000    1.3699566   -3.3953047   -1.8006257   0.18868574   -3.3953047    1.5946791  1132479 
 5397000    1.3706069   -3.3960109   -1.8006242   0.19143175   -3.3960109    1.5953867  1132514 
 5398000     1.370671   -3.3967591   -1.8013401   0.18823394   -3.3967591     1.595419  1132544 
 5399000    1.3694194   -3.3960893   -1.8021806   0.19208093   -3.3960893    1.5939087  1132582 
 5400000    1.3706519   -3.3975468   -1.8022627   0.18962322   -3.3975468    1.5952841  1132624 
 5401000    1.3690294   -3.3964343   -1.8030864   0.18816078   -3.3964343    1.5933479  1132658 
 5402000    1.3706494   -3.3981332   -1.8029492   0.19063301   -3.3981332     1.595184  1132693 
 5403000    1.3698908   -3.3972486    -1.802977   0.18663636   -3.3972486    1.5942716  1132714 
 5404000    1.3692058   -3.3956333   -1.8022265   0.19549983   -3.3956333    1.5934069  1132762 
 5405000    1.3700364   -3.3973336   -1.8030305   0.18986183   -3.3973336    1.5943031  1132812 
 5406000    1.3695319   -3.3975374    -1.803865   0.18502475   -3.3975374    1.5936724  1132843 
 5407000    1.3693176   -3.3971628   -1.8037946   0.18583345   -3.3971628    1.5933681  1132882 
 5408000    1.3700162   -3.3979441   -1.8038136   0.18849244   -3.3979441    1.5941305  1132918 
 5409000    1.3689317   -3.3964379     -1.80362    0.1925078   -3.3964379    1.5928179  1132954 
 5410000    1.3706705   -3.3989066   -1.8041176   0.18654174   -3.3989066     1.594789  1132991 
 5411000     1.369807   -3.3971671   -1.8034377   0.18873743   -3.3971671    1.5937294  1133030 
 5412000    1.3717396   -3.3994239   -1.8034924     0.184827   -3.3994239    1.5959315  1133063 
 5413000    1.3695676   -3.3968543   -1.8034977   0.19152092   -3.3968543    1.5933566  1133097 
 5414000     1.370646    -3.397918   -1.8033658   0.18667041    -3.397918    1.5945522  1133139 
 5415000    1.3712125   -3.3987512   -1.8035976   0.18969424   -3.3987512    1.5951535  1133180 
 5416000    1.3708465   -3.3987303   -1.8040532   0.19054872   -3.3987303    1.5946771  1133216 
 5417000    1.3687475   -3.3964952   -1.8042908   0.19273576   -3.3964952    1.5922045  1133238 
 5418000    1.3704421   -3.3985882    -1.804487   0.18820176   -3.3985882    1.5941012  1133291 
 5419000    1.3701735    -3.398014   -1.8042675    0.1882797    -3.398014    1.5937465  1133321 
 5420000    1.3705004   -3.3996108   -1.8055389   0.18851068   -3.3996108    1.5940719  1133360 
 5421000    1.3700256   -3.3985467   -1.8050706   0.19121316   -3.3985467    1.5934761  1133391 
 5422000    1.3702178   -3.3989301   -1.8052797   0.18609178   -3.3989301    1.5936504  1133426 
 5423000    1.3702383   -3.3989835   -1.8053739   0.18733086   -3.3989835    1.5936096  1133472 
 5424000    1.3709843   -3.3990764   -1.8046498   0.18510185   -3.3990764    1.5944266  1133508 
 5425000    1.3710973   -3.3996494   -1.8051378   0.18976713   -3.3996494    1.5945116  1133541 
 5426000    1.3703857   -3.3994609   -1.8058261   0.18910826   -3.3994609    1.5936348  1133576 
 5427000    1.3701198   -3.3994375   -1.8061709   0.19180466   -3.3994375    1.5932666  1133618 
 5428000    1.3700879   -3.3989203   -1.8057513    0.1881704   -3.3989203     1.593169  1133661 
 5429000    1.3707975   -3.3999397   -1.8059919   0.18899759   -3.3999397    1.5939478  1133694 
 5430000    1.3716436   -3.4004861   -1.8056052   0.18575936   -3.4004861    1.5948809  1133730 
 5431000    1.3708672   -3.3997553    -1.805815   0.18380379   -3.3997553    1.5939402  1133757 
 5432000    1.3712218   -3.4000194   -1.8057287   0.18953177   -3.4000194    1.5942907  1133801 
 5433000    1.3708547   -3.4000158   -1.8062054   0.19141771   -3.4000158    1.5938104  1133839 
 5434000     1.370504   -3.3989365   -1.8055704   0.19391973   -3.3989365    1.5933661  1133865 
 5435000    1.3716143   -3.4003378   -1.8057426   0.18873895   -3.4003378    1.5945952  1133909 
 5436000    1.3711987   -3.4006444   -1.8065943   0.19018731   -3.4006444    1.5940501  1133953 
 5437000    1.3697411   -3.3994644   -1.8071678   0.19386885   -3.3994644    1.5922966  1133995 
 5438000     1.369736   -3.3994937   -1.8072648   0.19015832   -3.3994937    1.5922289  1134039 
 5439000    1.3715427   -3.4014967   -1.8072281   0.18514074   -3.4014967    1.5942686  1134082 
 5440000    1.3707186   -3.4005361     -1.80729   0.18944731   -3.4005361    1.5932461  1134128 
 5441000    1.3724372   -3.4021451   -1.8069774   0.18450933   -3.4021451    1.5951677  1134182 
 5442000    1.3717912   -3.4003504   -1.8059814   0.18797677   -3.4003504    1.5943691  1134216 
 5443000    1.3718299   -3.4008901    -1.806514   0.19010765   -3.4008901    1.5943761  1134243 
 5444000    1.3712964   -3.4008057   -1.8071016   0.19395658   -3.4008057    1.5937041  1134280 
 5445000    1.3720137   -3.4014593   -1.8069849   0.19230715   -3.4014593    1.5944744  1134325 
 5446000    1.3704605   -3.4003624   -1.8077478   0.19117828   -3.4003624    1.5926147  1134364 
 5447000    1.3705034   -3.4010891   -1.8084934   0.19204365   -3.4010891    1.5925957  1134413 
 5448000    1.3710717   -3.4020053   -1.8087998   0.18848312   -3.4020053    1.5932055  1134449 
 5449000    1.3704242   -3.4013647   -1.8089551   0.19027242   -3.4013647    1.5924097  1134480 
 5450000     1.370054   -3.4019121   -1.8099915   0.19393676   -3.4019121    1.5919205  1134522 
 5451000    1.3708996   -3.4019373   -1.8090875   0.18635859   -3.4019373    1.5928497  1134560 
 5452000    1.3711946   -3.4017637   -1.8086316   0.18840007   -3.4017637    1.5931321  1134603 
 5453000    1.3705992   -3.4014705   -1.8090792   0.19472145   -3.4014705    1.5923913  1134638 
 5454000    1.3726745   -3.4032798   -1.8085294   0.18812855   -3.4032798    1.5947504  1134675 
 5455000    1.3719637   -3.4026021    -1.808745   0.19252477   -3.4026021    1.5938571  1134723 
 5456000    1.3715654   -3.4033207   -1.8099754   0.18765244   -3.4033207    1.5933453  1134758 
 5457000     1.371675   -3.4030105   -1.8095955   0.19113948   -3.4030105     1.593415  1134799 
 5458000    1.3724875   -3.4034063   -1.8090966   0.18822598   -3.4034063    1.5943097  1134834 
 5459000    1.3716064   -3.4027185   -1.8094829   0.19420833   -3.4027185    1.5932357  1134870 
 5460000    1.3716346    -3.402668   -1.8094684   0.19313198    -3.402668    1.5931996  1134919 
 5461000    1.3721438   -3.4027571   -1.8090124   0.19104711   -3.4027571    1.5937447  1134952 
 5462000    1.3717511   -3.4027812    -1.809546   0.19178154   -3.4027812    1.5932352  1134990 
 5463000    1.3724326   -3.4036487   -1.8096654    0.1878979   -3.4036487    1.5939832  1135021 
 5464000    1.3720916    -3.402968   -1.8094426   0.18797171    -3.402968    1.5935254  1135065 
 5465000    1.3728056    -3.402787   -1.8084801   0.19453046    -3.402787    1.5943069  1135099 
 5466000     1.372101   -3.4016434    -1.808218   0.19094942   -3.4016434    1.5934254  1135144 
 5467000    1.3732349   -3.4036078   -1.8089091   0.18520012   -3.4036078    1.5946987  1135175 
 5468000    1.3730052   -3.4036984   -1.8093211   0.19170149   -3.4036984    1.5943772  1135214 
 5469000     1.371918   -3.4025589   -1.8094877   0.18714516   -3.4025589    1.5930712  1135245 
 5470000    1.3725361   -3.4042979   -1.8105469   0.18536396   -3.4042979     1.593751  1135272 
 5471000    1.3714308   -3.4026459   -1.8102218   0.18666926   -3.4026459     1.592424  1135303 
 5472000    1.3735655   -3.4047377   -1.8098982   0.18740749   -3.4047377    1.5948395  1135348 
 5473000    1.3708051   -3.4018222   -1.8102256   0.19095444   -3.4018222    1.5915966  1135375 
 5474000    1.3721026    -3.403159   -1.8100966   0.18675975    -3.403159    1.5930624  1135404 
 5475000    1.3717959    -3.402656    -1.809989   0.19114547    -3.402656    1.5926671  1135432 
 5476000    1.3714633   -3.4024192   -1.8102001   0.18833253   -3.4024192    1.5922192  1135476 
 5477000    1.3721386   -3.4030018   -1.8100449   0.18816267   -3.4030018    1.5929569  1135509 
 5478000    1.3723767   -3.4036703   -1.8104664   0.18762437   -3.4036703    1.5932039  1135530 
 5479000    1.3720766   -3.4032426   -1.8104516   0.18972459   -3.4032426     1.592791  1135576 
 5480000    1.3725688   -3.4039259   -1.8106225   0.18668211   -3.4039259    1.5933034  1135618 
 5481000    1.3719382   -3.4033901   -1.8108608   0.18568006   -3.4033901    1.5925293  1135648 
 5482000     1.372614   -3.4046276   -1.8113587   0.18997909   -3.4046276    1.5932689  1135680 
 5483000    1.3722822   -3.4041395   -1.8113118   0.19307846   -3.4041395    1.5928276  1135720 
 5484000    1.3724891   -3.4050607   -1.8120617   0.19236343   -3.4050607     1.592999  1135769 
 5485000    1.3736474   -3.4064668   -1.8121599   0.18702314   -3.4064668     1.594307  1135795 
 5486000    1.3717725   -3.4045293   -1.8124517   0.19051765   -3.4045293    1.5920776  1135833 
 5487000    1.3734668   -3.4056341   -1.8116393   0.18720644   -3.4056341    1.5939949  1135868 
 5488000    1.3725653   -3.4057073   -1.8128133   0.19349421   -3.4057073     1.592894  1135907 
 5489000     1.372022   -3.4050018   -1.8127902    0.1922281   -3.4050018    1.5922116  1135944 
 5490000    1.3721575   -3.4053627   -1.8130471   0.19366477   -3.4053627    1.5923156  1135982 
 5491000    1.3723042   -3.4062579   -1.8138353   0.19115219   -3.4062579    1.5924227  1136027 
 5492000    1.3723127   -3.4062515    -1.813868   0.18979209   -3.4062515    1.5923835  1136062 
 5493000    1.3721093   -3.4063968   -1.8143068   0.19112751   -3.4063968    1.5920901  1136103 
 5494000    1.3724817   -3.4066315   -1.8141542   0.18617665   -3.4066315    1.5924773  1136135 
 5495000    1.3732347   -3.4078105   -1.8145072   0.18854938   -3.4078105    1.5933033  1136169 
 5496000    1.3722486   -3.4071354   -1.8150294   0.18998168   -3.4071354     1.592106  1136207 
 5497000    1.3730029   -3.4073994   -1.8144534   0.18973784   -3.4073994    1.5929461  1136232 
 5498000    1.3727161   -3.4069069   -1.8143581   0.18906465   -3.4069069    1.5925488  1136278 
 5499000    1.3723418   -3.4063756   -1.8142946   0.19095455   -3.4063756    1.5920809  1136302 
 5500000    1.3717561   -3.4060129   -1.8146381   0.18915514   -3.4060129    1.5913748  1136321 
 5501000    1.3716869   -3.4057492   -1.8145037   0.18588528   -3.4057492    1.5912455  1136356 
 5502000    1.3719842    -3.406846   -1.8153143   0.18542352    -3.406846    1.5915317  1136398 
 5503000    1.3729466   -3.4083438    -1.815756   0.19137712   -3.4083438    1.5925878  1136441 
 5504000    1.3722747   -3.4070483   -1.8152945   0.19258013   -3.4070483    1.5917538  1136480 
 5505000    1.3719413   -3.4069901    -1.815668   0.19087225   -3.4069901    1.5913222  1136512 
 5506000    1.3723969   -3.4066362   -1.8148611   0.18805805   -3.4066362    1.5917751  1136566 
 5507000    1.3729572   -3.4067783   -1.8144039   0.18606464   -3.4067783    1.5923744  1136602 
 5508000    1.3727364   -3.4066588   -1.8145852   0.18884744   -3.4066588    1.5920735  1136634 
 5509000    1.3727808   -3.4065644   -1.8144912   0.18787698   -3.4065644    1.5920732  1136671 
 5510000    1.3735213   -3.4078241   -1.8149327   0.18873239   -3.4078241    1.5928914  1136700 
 5511000    1.3731718   -3.4072367   -1.8147982   0.18605092   -3.4072367    1.5924385  1136734 
 5512000     1.372164   -3.4060468   -1.8148275    0.1911156   -3.4060468    1.5912193  1136770 
 5513000    1.3733217   -3.4078385    -1.815341     0.190329   -3.4078385    1.5924974  1136816 
 5514000    1.3732747   -3.4074979   -1.8151026   0.19206942   -3.4074979    1.5923953  1136850 
 5515000    1.3726939   -3.4072749   -1.8156119   0.18975867   -3.4072749     1.591663  1136892 
 5516000    1.3728687   -3.4071581   -1.8153484   0.19310799   -3.4071581    1.5918096  1136932 
 5517000    1.3725525   -3.4074245   -1.8160221   0.19237961   -3.4074245    1.5914024  1136961 
 5518000    1.3729849    -3.407886   -1.8160242   0.18885225    -3.407886    1.5918618  1136991 
 5519000    1.3714982   -3.4074597   -1.8173733   0.18909907   -3.4074597    1.5900864  1137028 
 5520000    1.3721109   -3.4075332   -1.8168093   0.18991261   -3.4075332    1.5907239  1137080 
 5521000    1.3718604   -3.4073905   -1.8170115   0.18981701   -3.4073905     1.590379  1137119 
 5522000     1.372778   -3.4080665   -1.8166727   0.19248648   -3.4080665    1.5913938  1137154 
 5523000    1.3729083   -3.4077438   -1.8162662    0.1928802   -3.4077438    1.5914776  1137202 
 5524000    1.3724028   -3.4081683   -1.8173326   0.19154665   -3.4081683    1.5908357  1137242 
 5525000    1.3733454   -3.4093702   -1.8174895   0.19435542   -3.4093702    1.5918807  1137276 
 5526000    1.3728308   -3.4082196   -1.8169759   0.19145391   -3.4082196    1.5912437  1137305 
 5527000    1.3740934   -3.4099097   -1.8172586   0.19059543   -3.4099097    1.5926511  1137345 
 5528000    1.3724089    -3.408216   -1.8175662   0.19217573    -3.408216    1.5906498  1137380 
 5529000    1.3743857   -3.4099611   -1.8170706   0.19200413   -3.4099611    1.5928905  1137416 
 5530000    1.3728585   -3.4084355   -1.8173667    0.1940064   -3.4084355    1.5910688  1137453 
 5531000    1.3741433   -3.4099792   -1.8174775   0.18914983   -3.4099792    1.5925017  1137493 
 5532000    1.3732693   -3.4093375   -1.8178934    0.1935796   -3.4093375    1.5914441  1137525 
 5533000    1.3720351   -3.4086564   -1.8186929    0.1914358   -3.4086564    1.5899635  1137561 
 5534000     1.374342   -3.4115876    -1.819025   0.18621039   -3.4115876    1.5925626  1137614 
 5535000    1.3730244   -3.4105259    -1.819525   0.18713749   -3.4105259    1.5910009  1137639 
 5536000    1.3725676   -3.4101698   -1.8197653   0.18675053   -3.4101698    1.5904045  1137687 
 5537000    1.3719491    -3.408984   -1.8193396   0.19307064    -3.408984    1.5896444  1137718 
 5538000    1.3728524   -3.4100656   -1.8194333   0.19113851   -3.4100656    1.5906323  1137760 
 5539000    1.3720959   -3.4102425   -1.8205188   0.19119366   -3.4102425    1.5897237  1137783 
 5540000    1.3715202    -3.409914   -1.8209117   0.18859693    -3.409914    1.5890022  1137822 
 5541000    1.3723843   -3.4108382   -1.8208852   0.18675346   -3.4108382     1.589953  1137858 
 5542000     1.372646   -3.4110561     -1.82086    0.1898875   -3.4110561    1.5901962  1137901 
 5543000    1.3729253   -3.4117268   -1.8212448   0.18731307   -3.4117268     1.590482  1137928 
 5544000    1.3721789   -3.4108933   -1.8213472   0.18780605   -3.4108933    1.5895461  1137979 
 5545000    1.3725035   -3.4109154   -1.8210506   0.19124783   -3.4109154    1.5898648  1138020 
 5546000    1.3732298   -3.4116434   -1.8209891   0.18689314   -3.4116434    1.5906544  1138057 
 5547000    1.3723894   -3.4110416    -1.821411   0.18929309   -3.4110416    1.5896306  1138093 
 5548000    1.3738475   -3.4126636    -1.821386    0.1874025   -3.4126636    1.5912776  1138123 
 5549000    1.3734619   -3.4123228   -1.8215379   0.18533921   -3.4123228    1.5907849  1138156 
 5550000    1.3732209   -3.4124504   -1.8219768   0.18856518   -3.4124504    1.5904736  1138179 
 5551000    1.3732732   -3.4128489   -1.8223706   0.18527779   -3.4128489    1.5904783  1138219 
 5552000    1.3736888    -3.412759   -1.8218526   0.18813397    -3.412759    1.5909064  1138257 
 5553000    1.3725214   -3.4110586   -1.8215571   0.19029809   -3.4110586    1.5895014  1138295 
 5554000    1.3733141   -3.4126994   -1.8223205   0.18753286   -3.4126994    1.5903789  1138324 
 5555000    1.3726215   -3.4118884    -1.822366   0.18820224   -3.4118884    1.5895224  1138363 
 5556000    1.3720429   -3.4115542   -1.8227577   0.18600407   -3.4115542    1.5887965  1138403 
 5557000    1.3736865   -3.4134957   -1.8228406   0.18703126   -3.4134957    1.5906551  1138435 
 5558000    1.3732906   -3.4128435   -1.8226916    0.1911169   -3.4128435     1.590152  1138467 
 5559000    1.3734895   -3.4136374   -1.8233069   0.18575031   -3.4136374    1.5903305  1138504 
 5560000    1.3728332   -3.4124956   -1.8229878    0.1909028   -3.4124956    1.5895078  1138549 
 5561000    1.3726008    -3.412209   -1.8230219   0.19001388    -3.412209    1.5891871  1138586 
 5562000    1.3738461   -3.4133255   -1.8227594   0.19170997   -3.4133255    1.5905661  1138631 
 5563000    1.3738832   -3.4131701   -1.8226142   0.18852734   -3.4131701    1.5905559  1138669 
 5564000    1.3730717   -3.4127272   -1.8231609    0.1891273   -3.4127272    1.5895662  1138705 
 5565000    1.3735115   -3.4126728   -1.8226491   0.19159345   -3.4126728    1.5900236  1138742 
 5566000    1.3730163   -3.4118966   -1.8225117   0.18961586   -3.4118966    1.5893848  1138789 
 5567000    1.3737798   -3.4127942   -1.8225772   0.19260148   -3.4127942     1.590217  1138826 
 5568000    1.3747217   -3.4140411   -1.8228177   0.18950645   -3.4140411    1.5912234  1138886 
 5569000    1.3748938   -3.4144278    -1.823029    0.1914057   -3.4144278    1.5913988  1138903 
 5570000     1.373366   -3.4125185   -1.8229466   0.18937608   -3.4125185    1.5895718  1138945 
 5571000    1.3739176   -3.4136559   -1.8235029   0.18776549   -3.4136559    1.5901531  1138986 
 5572000    1.3731292   -3.4135009   -1.8243161   0.18892957   -3.4135009    1.5891848  1139026 
 5573000    1.3738143   -3.4139559   -1.8240034   0.19041668   -3.4139559    1.5899525  1139044 
 5574000    1.3742702   -3.4145855   -1.8241444    0.1837905   -3.4145855    1.5904411  1139072 
 5575000    1.3740259   -3.4145896   -1.8244871   0.18457026   -3.4145896    1.5901025  1139112 
 5576000    1.3728797   -3.4134616   -1.8247301   0.19314993   -3.4134616    1.5887315  1139144 
 5577000    1.3737081   -3.4148169   -1.8251967   0.18913175   -3.4148169    1.5896202  1139194 
 5578000    1.3732715   -3.4146573   -1.8256092   0.18886951   -3.4146573    1.5890482  1139242 
 5579000    1.3744471   -3.4151908   -1.8248215   0.18921768   -3.4151908    1.5903693  1139270 
 5580000    1.3735842    -3.414556   -1.8252214   0.18821311    -3.414556    1.5893346  1139296 
 5581000    1.3743878   -3.4147103   -1.8245031   0.18775705   -3.4147103    1.5902072  1139337 
 5582000    1.3748564   -3.4148423   -1.8241278     0.189379   -3.4148423    1.5907145  1139362 
 5583000    1.3737503   -3.4136008   -1.8242303   0.19475531   -3.4136008    1.5893706  1139408 
 5584000    1.3751913   -3.4149946   -1.8240295   0.19095263   -3.4149946    1.5909651  1139460 
 5585000    1.3747359   -3.4146603   -1.8242695   0.18739097   -3.4146603    1.5903909  1139494 
 5586000    1.3753197    -3.415089   -1.8240759   0.19045367    -3.415089    1.5910131  1139532 
 5587000    1.3759692   -3.4149538   -1.8232423   0.19371443   -3.4149538    1.5917115  1139570 
 5588000    1.3769923   -3.4161479   -1.8232908   0.19137115   -3.4161479    1.5928571  1139597 
 5589000    1.3765726   -3.4151214   -1.8228042   0.19273747   -3.4151214    1.5923172  1139636 
 5590000    1.3777798   -3.4160434   -1.8224012   0.19452494   -3.4160434    1.5936422  1139687 
 5591000     1.376412   -3.4151176   -1.8231007   0.19252827   -3.4151176    1.5920169  1139718 
 5592000    1.3762597   -3.4152901   -1.8234872   0.19157207   -3.4152901     1.591803  1139745 
 5593000    1.3758648   -3.4149065    -1.823616   0.18990621   -3.4149065    1.5912904  1139785 
 5594000    1.3764537   -3.4153205   -1.8234034   0.18830809   -3.4153205    1.5919171  1139824 
 5595000     1.376473    -3.416247   -1.8243635   0.18576208    -3.416247    1.5918835  1139864 
 5596000    1.3747204   -3.4142879    -1.824501   0.19311009   -3.4142879    1.5897869  1139914 
 5597000    1.3762573   -3.4155749   -1.8240679   0.19121008   -3.4155749     1.591507  1139955 
 5598000    1.3757621   -3.4163339   -1.8254512   0.18823063   -3.4163339    1.5908827  1139992 
 5599000    1.3743962   -3.4149466   -1.8256838   0.19185492   -3.4149466    1.5892628  1140021 
 5600000    1.3763627   -3.4168575   -1.8253654   0.18914382   -3.4168575    1.5914921  1140053 
 5601000    1.3753207   -3.4157944   -1.8255629   0.19015803   -3.4157944    1.5902315  1140093 
 5602000    1.3755685   -3.4158964   -1.8254259   0.18956255   -3.4158964    1.5904705  1140127 
 5603000     1.375915   -3.4162501    -1.825439   0.18656221   -3.4162501    1.5908111  1140170 
 5604000    1.3765543    -3.416594   -1.8250842    0.1865448    -3.416594    1.5915098  1140199 
 5605000    1.3749323   -3.4146098   -1.8250199   0.19266298   -3.4146098    1.5895899  1140231 
 5606000    1.3757479   -3.4155348   -1.8250466   0.19111672   -3.4155348    1.5904882  1140263 
 5607000    1.3768262   -3.4170381   -1.8253507   0.19099831   -3.4170381    1.5916873  1140297 
 5608000    1.3752587   -3.4161371   -1.8263106   0.19146233   -3.4161371    1.5898264  1140332 
 5609000    1.3755509   -3.4168941   -1.8267843   0.18704452   -3.4168941    1.5901099  1140371 
 5610000    1.3752017   -3.4161098   -1.8264413   0.19073138   -3.4161098    1.5896685  1140398 
 5611000    1.3760878   -3.4175288   -1.8268903   0.18997278   -3.4175288    1.5906384  1140437 
 5612000     1.376669   -3.4178146   -1.8265602   0.18959501   -3.4178146    1.5912544  1140477 
 5613000    1.3767872   -3.4177889   -1.8264327   0.19394593   -3.4177889    1.5913562  1140502 
 5614000    1.3760449   -3.4174755     -1.82704   0.19100805   -3.4174755    1.5904355  1140547 
 5615000    1.3766257   -3.4178115   -1.8267549   0.19292897   -3.4178115    1.5910565  1140583 
 5616000    1.3774902   -3.4192072    -1.827206   0.18874175   -3.4192072    1.5920012  1140622 
 5617000    1.3767847   -3.4179359   -1.8268044   0.18976723   -3.4179359    1.5911315  1140661 
 5618000     1.376101   -3.4173154   -1.8270354   0.19171075   -3.4173154      1.59028  1140705 
 5619000    1.3756788   -3.4179592   -1.8282271   0.18998663   -3.4179592    1.5897321  1140748 
 5620000    1.3759455   -3.4184728   -1.8284701   0.19210535   -3.4184728    1.5900027  1140775 
 5621000    1.3750782   -3.4177176   -1.8287631   0.19227893   -3.4177176    1.5889546  1140808 
 5622000    1.3744168   -3.4174593   -1.8293191    0.1905211   -3.4174593    1.5881402  1140844 
 5623000    1.3750025   -3.4179537   -1.8291799    0.1880064   -3.4179537    1.5887738  1140875 
 5624000    1.3748293   -3.4180329   -1.8295178   0.19257723   -3.4180329    1.5885151  1140917 
 5625000    1.3767751   -3.4189596   -1.8282478    0.1894486   -3.4189596    1.5907118  1140954 
 5626000    1.3768325   -3.4180605   -1.8273313   0.19172656   -3.4180605    1.5907293  1140989 
 5627000    1.3774361   -3.4186724   -1.8273099   0.19268022   -3.4186724    1.5913625  1141035 
 5628000    1.3781247   -3.4192916   -1.8272019    0.1888918   -3.4192916    1.5920897  1141084 
 5629000    1.3778965   -3.4188007    -1.827036   0.19489151   -3.4188007    1.5917646  1141128 
 5630000    1.3766496    -3.417701   -1.8274102   0.19176437    -3.417701    1.5902908  1141152 
 5631000    1.3775244   -3.4188535   -1.8275981   0.19236501   -3.4188535    1.5912554  1141185 
 5632000    1.3774913   -3.4183713   -1.8272113   0.18973783   -3.4183713      1.59116  1141226 
 5633000    1.3786011   -3.4196313   -1.8272438   0.19605342   -3.4196313    1.5923875  1141265 
 5634000     1.377672   -3.4197043   -1.8284569   0.19154918   -3.4197043    1.5912474  1141313 
 5635000    1.3771578   -3.4196065   -1.8289893   0.19464024   -3.4196065    1.5906172  1141339 
 5636000    1.3769833   -3.4191948   -1.8288223   0.19157863   -3.4191948    1.5903725  1141370 
 5637000    1.3783661   -3.4207932   -1.8288571   0.19004953   -3.4207932    1.5919361  1141394 
 5638000    1.3772726   -3.4196027   -1.8289783   0.18952803   -3.4196027    1.5906243  1141429 
 5639000    1.3772791   -3.4195272    -1.828933   0.19546104   -3.4195272    1.5905942  1141456 
 5640000    1.3772355   -3.4188568   -1.8283575   0.19418632   -3.4188568    1.5904993  1141488 
 5641000    1.3781364     -3.41934   -1.8278519   0.19039954     -3.41934    1.5914882  1141525 
 5642000    1.3773967   -3.4187085   -1.8281234   0.19373449   -3.4187085    1.5905851  1141560 
 5643000    1.3784897   -3.4199641    -1.828167   0.18928093   -3.4199641    1.5917971  1141596 
 5644000    1.3781154   -3.4193266   -1.8280272   0.19639922   -3.4193266    1.5912994  1141643 
 5645000    1.3771872   -3.4189412   -1.8287665   0.19364253   -3.4189412    1.5901747  1141681 
 5646000    1.3770098   -3.4193103   -1.8293865   0.19418038   -3.4193103    1.5899239  1141714 
 5647000    1.3786357   -3.4203262    -1.828564   0.19243669   -3.4203262    1.5917622  1141742 
 5648000    1.3772519   -3.4196174   -1.8295087   0.19149202   -3.4196174    1.5901087  1141782 
 5649000    1.3773124   -3.4202258   -1.8301128   0.19365514   -3.4202258    1.5901131  1141829 
 5650000    1.3780621    -3.420386   -1.8294589   0.19355958    -3.420386     1.590927  1141866 
 5651000    1.3785265    -3.420654   -1.8292507   0.19257019    -3.420654    1.5914033  1141909 
 5652000    1.3775752    -3.419775   -1.8295603   0.19642791    -3.419775    1.5902146  1141974 
 5653000    1.3770287   -3.4193308   -1.8298055   0.19449178   -3.4193308    1.5895253  1142016 
 5654000    1.3781812   -3.4206451   -1.8298439   0.19063418   -3.4206451    1.5908012  1142055 
 5655000    1.3788979   -3.4209571   -1.8293801   0.19037956   -3.4209571     1.591577  1142092 
 5656000     1.378028    -3.420236   -1.8297104   0.19411689    -3.420236    1.5905256  1142126 
 5657000    1.3794666   -3.4221192   -1.8299931   0.19494205   -3.4221192     1.592126  1142169 
 5658000    1.3795261    -3.422328    -1.830196   0.19090933    -3.422328     1.592132  1142214 
 5659000    1.3779679   -3.4209472   -1.8306762   0.19417847   -3.4209472     1.590271  1142259 
 5660000    1.3774335   -3.4205751   -1.8309598   0.19607235   -3.4205751    1.5896152  1142287 
 5661000     1.378828   -3.4218443   -1.8306628   0.19258048   -3.4218443    1.5911814  1142318 
 5662000    1.3774948   -3.4210421   -1.8314326   0.19550185   -3.4210421    1.5896095  1142342 
 5663000    1.3794704    -3.422899   -1.8310612   0.19068504    -3.422899    1.5918377  1142379 
 5664000    1.3777321   -3.4211794   -1.8313893   0.19653992   -3.4211794    1.5897901  1142409 
 5665000    1.3774844   -3.4215051   -1.8320384   0.19181504   -3.4215051    1.5894667  1142436 
 5666000    1.3787752   -3.4229559   -1.8320415   0.19154433   -3.4229559    1.5909143  1142466 
 5667000    1.3783172   -3.4217337   -1.8313979   0.19378723   -3.4217337    1.5903358  1142502 
 5668000    1.3783617    -3.421998    -1.831654   0.19454012    -3.421998    1.5903439  1142533 
 5669000     1.377626   -3.4209645   -1.8315125   0.19728238   -3.4209645     1.589452  1142564 
 5670000    1.3784921   -3.4224234    -1.832025   0.18889589   -3.4224234    1.5903984  1142602 
 5671000    1.3786065   -3.4229319     -1.83246   0.19155674   -3.4229319    1.5904719  1142644 
 5672000    1.3780089   -3.4220433    -1.832297   0.19747824   -3.4220433    1.5897463  1142670 
 5673000    1.3785954   -3.4226896   -1.8323029   0.19215742   -3.4226896    1.5903867  1142696 
 5674000    1.3782897   -3.4218952   -1.8319139   0.19436268   -3.4218952    1.5899812  1142734 
 5675000    1.3782052   -3.4219016   -1.8320861   0.19673419   -3.4219016    1.5898156  1142783 
 5676000    1.3783134   -3.4227219   -1.8328288   0.19614554   -3.4227219    1.5898931  1142817 
 5677000    1.3781837   -3.4225225   -1.8328264   0.19458979   -3.4225225    1.5896961  1142851 
 5678000     1.379455   -3.4245542   -1.8334501   0.18789397   -3.4245542    1.5911041  1142893 
 5679000    1.3779238   -3.4229924   -1.8337128    0.1916149   -3.4229924    1.5892796  1142935 
 5680000    1.3778102     -3.42229   -1.8332055   0.19379591     -3.42229    1.5890846  1142981 
 5681000    1.3774958    -3.421931   -1.8332563   0.19474591    -3.421931    1.5886747  1143015 
 5682000    1.3792725   -3.4236038   -1.8329287    0.1928177   -3.4236038    1.5906751  1143050 
 5683000    1.3781999   -3.4230748   -1.8337021   0.19448225   -3.4230748    1.5893727  1143097 
 5684000    1.3777652   -3.4225985   -1.8337729   0.19296139   -3.4225985    1.5888255  1143130 
 5685000    1.3786933     -3.42379    -1.833954   0.19014119     -3.42379     1.589836  1143173 
 5686000    1.3789703   -3.4239615   -1.8338506   0.18999155   -3.4239615    1.5901109  1143205 
 5687000    1.3784135   -3.4233551    -1.833921   0.19200462   -3.4233551    1.5894341  1143230 
 5688000    1.3777429   -3.4227209   -1.8340836   0.19154184   -3.4227209    1.5886373  1143247 
 5689000     1.380622   -3.4254143   -1.8335213   0.18716113   -3.4254143     1.591893  1143293 
 5690000    1.3796678   -3.4248244   -1.8340844    0.1929383   -3.4248244      1.59074  1143331 
 5691000    1.3786045   -3.4238232   -1.8343606   0.19315263   -3.4238232    1.5894625  1143368 
 5692000    1.3790073   -3.4238603    -1.834003   0.19408979   -3.4238603    1.5898573  1143418 
 5693000    1.3795023   -3.4242487   -1.8338609   0.19250375   -3.4242487    1.5903877  1143447 
 5694000    1.3795471   -3.4247036   -1.8343185   0.19998791   -3.4247036    1.5903851  1143486 
 5695000    1.3791122   -3.4245042   -1.8346747   0.19836994   -3.4245042    1.5898295  1143525 
 5696000      1.37903   -3.4244305   -1.8347472   0.19312744   -3.4244305    1.5896833  1143562 
 5697000    1.3792963   -3.4248711   -1.8349212   0.19445141   -3.4248711      1.58995  1143591 
 5698000    1.3785738   -3.4240917   -1.8350398   0.19557783   -3.4240917    1.5890519  1143638 
 5699000    1.3804008   -3.4258782   -1.8347469   0.19306828   -3.4258782    1.5911314  1143657 
 5700000    1.3784455   -3.4239669   -1.8351407   0.19105988   -3.4239669    1.5888262  1143694 
 5701000    1.3797262   -3.4259777   -1.8357226   0.19141129   -3.4259777    1.5902551  1143728 
 5702000    1.3791142   -3.4251515   -1.8356532   0.19405336   -3.4251515    1.5894983  1143765 
 5703000    1.3787377    -3.424732    -1.835733   0.19596493    -3.424732     1.588999  1143812 
 5704000    1.3785457   -3.4251124   -1.8363846   0.19295549   -3.4251124    1.5887277  1143848 
 5705000    1.3795045   -3.4266624   -1.8368867   0.18672953   -3.4266624    1.5897757  1143889 
 5706000    1.3787706    -3.425466   -1.8365805   0.19503792    -3.425466    1.5888855  1143921 
 5707000    1.3785278     -3.42534   -1.8367899    0.1936316     -3.42534    1.5885501  1143961 
 5708000    1.3803287   -3.4264745   -1.8358949   0.19421069   -3.4264745    1.5905796  1143994 
 5709000    1.3797931    -3.425689   -1.8357961   0.19147812    -3.425689    1.5898929  1144044 
 5710000    1.3800003    -3.426406   -1.8363244   0.19381849    -3.426406    1.5900816  1144080 
 5711000    1.3792887   -3.4257785   -1.8365751   0.19539993   -3.4257785    1.5892033  1144122 
 5712000    1.3797683   -3.4263431   -1.8366316    0.1942115   -3.4263431    1.5897115  1144154 
 5713000    1.3804152   -3.4272523   -1.8368525   0.19010136   -3.4272523    1.5903998  1144195 
 5714000    1.3793594   -3.4261007   -1.8369771   0.19480994   -3.4261007    1.5891237  1144238 
 5715000    1.3787987   -3.4249737   -1.8365417   0.19520139   -3.4249737     1.588432  1144271 
 5716000    1.3807626   -3.4269057   -1.8362558   0.19600857   -3.4269057    1.5906499  1144303 
 5717000     1.381457   -3.4279416   -1.8365307   0.19210082   -3.4279416    1.5914109  1144331 
 5718000    1.3793726   -3.4261143   -1.8371518   0.19673994   -3.4261143    1.5889625  1144365 
 5719000    1.3805047   -3.4266673   -1.8364576   0.19393724   -3.4266673    1.5902096  1144406 
 5720000    1.3807796   -3.4273961   -1.8369142   0.19416327   -3.4273961    1.5904819  1144438 
 5721000    1.3802507   -3.4272864   -1.8374429   0.19734193   -3.4272864    1.5898435  1144459 
 5722000    1.3798875   -3.4274842   -1.8380993   0.19140546   -3.4274842    1.5893849  1144488 
 5723000    1.3800295    -3.427271   -1.8377823   0.19328825    -3.427271    1.5894887  1144531 
 5724000    1.3802371   -3.4278418   -1.8381612     0.193355   -3.4278418    1.5896806  1144565 
 5725000    1.3807236   -3.4290333   -1.8388703    0.1916473   -3.4290333     1.590163  1144621 
 5726000    1.3796901   -3.4279188   -1.8389987   0.19621408   -3.4279188    1.5889201  1144659 
 5727000    1.3795281   -3.4282041   -1.8395066   0.18996141   -3.4282041    1.5886974  1144685 
 5728000    1.3805538   -3.4288907   -1.8390731   0.19038332   -3.4288907    1.5898176  1144729 
 5729000    1.3795913   -3.4278719   -1.8392281   0.19336389   -3.4278719    1.5886438  1144776 
 5730000    1.3794655   -3.4280542   -1.8396038   0.19135625   -3.4280542    1.5884504  1144811 
 5731000    1.3793705   -3.4284154    -1.840127   0.19098794   -3.4284154    1.5882883  1144849 
 5732000      1.38004   -3.4284074   -1.8393829   0.19091015   -3.4284074    1.5890245  1144874 
 5733000    1.3802595   -3.4289396   -1.8397234   0.19414622   -3.4289396    1.5892162  1144918 
 5734000    1.3788016   -3.4277919    -1.840318   0.19652799   -3.4277919    1.5874739  1144964 
 5735000    1.3799139   -3.4286506   -1.8399392   0.19534655   -3.4286506    1.5887114  1144995 
 5736000    1.3803278   -3.4299887   -1.8408368   0.19305764   -3.4299887    1.5891519  1145021 
 5737000    1.3803877   -3.4297533   -1.8405824   0.19561348   -3.4297533    1.5891709  1145057 
 5738000    1.3784616   -3.4283801   -1.8414765    0.1946707   -3.4283801    1.5869035  1145093 
 5739000    1.3793595   -3.4299121   -1.8420178   0.18896105   -3.4299121    1.5878943  1145124 
 5740000     1.379331   -3.4301934   -1.8423763   0.19126286   -3.4301934    1.5878171  1145156 
 5741000    1.3793435    -3.430017   -1.8422272   0.19002708    -3.430017    1.5877898  1145186 
 5742000    1.3794646   -3.4288805    -1.840997   0.19455091   -3.4288805    1.5878835  1145219 
 5743000    1.3783275   -3.4281821   -1.8416559    0.1904627   -3.4281821    1.5865262  1145254 
 5744000    1.3792525   -3.4290229    -1.841482   0.19562549   -3.4290229    1.5875409  1145290 
 5745000    1.3809007   -3.4315215   -1.8421515   0.18769199   -3.4315215    1.5893701  1145339 
 5746000    1.3796081   -3.4296398   -1.8418226   0.19029222   -3.4296398    1.5878172  1145386 
 5747000    1.3806818   -3.4306193   -1.8416107   0.19184654   -3.4306193    1.5890085  1145418 
 5748000    1.3796851   -3.4300523   -1.8422435   0.19383837   -3.4300523    1.5878088  1145456 
 5749000     1.380649   -3.4312971   -1.8424512   0.19200004   -3.4312971    1.5888459  1145508 
 5750000    1.3798607    -3.430757   -1.8428612   0.19216199    -3.430757    1.5878958  1145539 
 5751000    1.3808768   -3.4320444   -1.8430362   0.18859238   -3.4320444    1.5890082  1145580 
 5752000    1.3789502   -3.4296105   -1.8428761   0.19519914   -3.4296105    1.5867345  1145621 
 5753000    1.3797196   -3.4299311   -1.8423584   0.19711347   -3.4299311    1.5875726  1145655 
 5754000    1.3799851   -3.4314602   -1.8436167   0.18947568   -3.4314602    1.5878435  1145680 
 5755000    1.3794833   -3.4309774    -1.843757   0.19580959   -3.4309774    1.5872204  1145713 
 5756000    1.3792368    -3.430065   -1.8431809   0.19431892    -3.430065    1.5868842  1145751 
 5757000    1.3813324   -3.4320721   -1.8428309   0.18930337   -3.4320721    1.5892412  1145790 
 5758000    1.3809219   -3.4321163   -1.8433987    0.1903115   -3.4321163    1.5887176  1145827 
 5759000    1.3807379   -3.4309462   -1.8424792   0.19599399   -3.4309462     1.588467  1145855 
 5760000     1.380944   -3.4309788   -1.8423301   0.19320746   -3.4309788    1.5886487  1145895 
 5761000    1.3807094   -3.4314812   -1.8431523   0.19768033   -3.4314812    1.5883289  1145931 
 5762000    1.3808333   -3.4316721   -1.8432353   0.19391155   -3.4316721    1.5884368  1145956 
 5763000    1.3805737   -3.4321178   -1.8440295   0.19573346   -3.4321178    1.5880883  1145992 
 5764000    1.3808448    -3.431478   -1.8431208   0.19265136    -3.431478    1.5883572  1146023 
 5765000    1.3805972    -3.432249   -1.8442349   0.19278581    -3.432249    1.5880142  1146065 
 5766000    1.3824163   -3.4332177   -1.8431653   0.19106412   -3.4332177    1.5900524  1146104 
 5767000    1.3806621   -3.4317413   -1.8437412   0.19570708   -3.4317413    1.5880001  1146129 
 5768000    1.3806102   -3.4314572   -1.8435681   0.19615997   -3.4314572    1.5878892  1146166 
 5769000    1.3803635   -3.4312434   -1.8436892   0.19760417   -3.4312434    1.5875542  1146203 
 5770000    1.3807503   -3.4322751   -1.8443218   0.19366907   -3.4322751    1.5879533  1146236 
 5771000    1.3805038   -3.4324051    -1.844781   0.19550758   -3.4324051    1.5876241  1146269 
 5772000     1.381275   -3.4328805   -1.8444249   0.18950644   -3.4328805    1.5884556  1146309 
 5773000    1.3813961   -3.4331835   -1.8446316   0.19274013   -3.4331835    1.5885519  1146340 
 5774000    1.3804433   -3.4323619   -1.8449499   0.19470589   -3.4323619    1.5874119  1146372 
 5775000    1.3801312   -3.4319557   -1.8449456    0.1954422   -3.4319557    1.5870101  1146403 
 5776000    1.3815598    -3.433064   -1.8444611   0.19117761    -3.433064     1.588603  1146439 
 5777000    1.3818718   -3.4333459   -1.8444396   0.19247937   -3.4333459    1.5889062  1146479 
 5778000    1.3816573   -3.4334741   -1.8448658   0.19248227   -3.4334741    1.5886084  1146516 
 5779000    1.3812835   -3.4328277   -1.8447198   0.19135372   -3.4328277    1.5881079  1146567 
 5780000    1.3817589   -3.4334666   -1.8448717   0.18994956   -3.4334666     1.588595  1146610 
 5781000    1.3809788   -3.4328624   -1.8452128   0.19556959   -3.4328624    1.5876496  1146645 
 5782000    1.3820958   -3.4339522   -1.8450767   0.19513021   -3.4339522    1.5888755  1146687 
 5783000    1.3811548   -3.4332622   -1.8455154   0.19315801   -3.4332622    1.5877468  1146721 
 5784000    1.3821061    -3.434607   -1.8458097   0.19223383    -3.434607    1.5887973  1146752 
 5785000    1.3806101   -3.4331721   -1.8461457   0.19411213   -3.4331721    1.5870264  1146789 
 5786000    1.3817224   -3.4345257   -1.8462816   0.19351272   -3.4345257    1.5882441  1146833 
 5787000    1.3814203   -3.4344811     -1.84663    0.1925385   -3.4344811    1.5878511  1146866 
 5788000    1.3818108   -3.4351525   -1.8468885   0.19178451   -3.4351525     1.588264  1146892 
 5789000    1.3812529   -3.4338133   -1.8462417   0.19463939   -3.4338133    1.5875716  1146929 
 5790000    1.3818982   -3.4345456   -1.8462727   0.19324598   -3.4345456     1.588273  1146958 
 5791000    1.3809201    -3.433664   -1.8465525   0.19328931    -3.433664    1.5871115  1146985 
 5792000    1.3815078   -3.4337687   -1.8460372    0.1979101   -3.4337687    1.5877316  1147025 
 5793000    1.3820815   -3.4346037   -1.8462391   0.19026384   -3.4346037    1.5883646  1147044 
 5794000    1.3827822   -3.4351424   -1.8460251   0.19573713   -3.4351424    1.5891173  1147082 
 5795000    1.3813185   -3.4343609   -1.8469741   0.19486308   -3.4343609    1.5873867  1147117 
 5796000    1.3812621   -3.4345117    -1.847259   0.19547566   -3.4345117    1.5872528  1147167 
 5797000      1.38258   -3.4362737    -1.847562   0.19489065   -3.4362737    1.5887118  1147207 
 5798000    1.3825203   -3.4361905    -1.847593   0.18942458   -3.4361905    1.5885974  1147240 
 5799000    1.3819622   -3.4352327   -1.8473167   0.19453623   -3.4352327     1.587916  1147269 
 5800000    1.3824487   -3.4359308   -1.8475154   0.19245359   -3.4359308    1.5884155  1147312 
 5801000    1.3820695   -3.4353837    -1.847451    0.1937272   -3.4353837    1.5879327  1147346 
 5802000    1.3815687   -3.4345837   -1.8472582   0.19497209   -3.4345837    1.5873255  1147369 
 5803000    1.3817147   -3.4349732    -1.847538   0.19678749   -3.4349732    1.5874352  1147411 
 5804000    1.3818732   -3.4344148   -1.8468127   0.19414289   -3.4344148    1.5876021  1147422 
 5805000    1.3812931   -3.4344617   -1.8475607   0.19808752   -3.4344617     1.586901  1147447 
 5806000    1.3816476   -3.4347159   -1.8474518   0.19351577   -3.4347159     1.587264  1147479 
 5807000    1.3826132   -3.4362119   -1.8478871   0.19389513   -3.4362119    1.5883248  1147514 
 5808000    1.3808306   -3.4343486   -1.8480992   0.19513633   -3.4343486    1.5862494  1147534 
 5809000    1.3813697   -3.4353248   -1.8485031   0.19309385   -3.4353248    1.5868217  1147568 
 5810000    1.3802552   -3.4338678    -1.848365    0.1952495   -3.4338678    1.5855028  1147596 
 5811000    1.3818087   -3.4361408   -1.8488867   0.19534126   -3.4361408     1.587254  1147620 
 5812000    1.3812058   -3.4354683   -1.8489455   0.19484779   -3.4354683    1.5865228  1147648 
 5813000    1.3829794   -3.4372007   -1.8486974    0.1918505   -3.4372007    1.5885033  1147689 
 5814000    1.3831796   -3.4373492   -1.8486658   0.19017236   -3.4373492    1.5886834  1147725 
 5815000    1.3817035   -3.4356019   -1.8486719   0.19532623   -3.4356019      1.58693  1147767 
 5816000    1.3818681   -3.4354008   -1.8483247    0.1943506   -3.4354008    1.5870761  1147798 
 5817000     1.382922    -3.436062   -1.8478336   0.19282476    -3.436062    1.5882284  1147840 
 5818000    1.3832325   -3.4368873   -1.8483327   0.19616583   -3.4368873    1.5885546  1147862 
 5819000     1.383344   -3.4372444   -1.8486075   0.19311469   -3.4372444     1.588637  1147895 
 5820000    1.3821926   -3.4359228   -1.8486524   0.19433418   -3.4359228    1.5872705  1147927 
 5821000    1.3821611   -3.4367014   -1.8495101   0.19478845   -3.4367014    1.5871914  1147958 
 5822000    1.3839803    -3.438002   -1.8487589   0.19561713    -3.438002    1.5892431  1147985 
 5823000    1.3832259   -3.4374816   -1.8491395   0.19080665   -3.4374816    1.5883422  1148010 
 5824000    1.3827374   -3.4374523   -1.8497333   0.19364565   -3.4374523     1.587719  1148055 
 5825000    1.3814772   -3.4362594   -1.8500399   0.19495234   -3.4362594    1.5862194  1148093 
 5826000    1.3827143   -3.4373733   -1.8497831   0.19586507   -3.4373733    1.5875901  1148129 
 5827000    1.3825747   -3.4378763   -1.8504893   0.19277367   -3.4378763     1.587387  1148160 
 5828000    1.3816114   -3.4370506    -1.850829   0.19742805   -3.4370506    1.5862216  1148203 
 5829000    1.3821208   -3.4374265   -1.8506851   0.19475066   -3.4374265    1.5867414  1148250 
 5830000    1.3828351   -3.4385776   -1.8510658   0.19092431   -3.4385776    1.5875117  1148286 
 5831000    1.3820929   -3.4373493   -1.8507394   0.19512785   -3.4373493    1.5866099  1148322 
 5832000    1.3820924   -3.4371198   -1.8505642   0.19532241   -3.4371198    1.5865555  1148361 
 5833000    1.3820437   -3.4369066   -1.8504553   0.19551031   -3.4369066    1.5864513  1148396 
 5834000    1.3822555   -3.4376648   -1.8510022   0.19635673   -3.4376648    1.5866626  1148419 
 5835000    1.3816532   -3.4373064   -1.8513946   0.19689355   -3.4373064    1.5859118  1148462 
 5836000    1.3824663   -3.4385431   -1.8517546   0.19216686   -3.4385431    1.5867885  1148503 
 5837000    1.3815556   -3.4373106   -1.8516212   0.19091026   -3.4373106    1.5856894  1148542 
 5838000    1.3820087   -3.4377402   -1.8515833   0.19606605   -3.4377402    1.5861569  1148580 
 5839000    1.3833577   -3.4394675    -1.851812   0.19160129   -3.4394675    1.5876555  1148616 
 5840000    1.3819588   -3.4377547   -1.8517447   0.19801442   -3.4377547      1.58601  1148645 
 5841000    1.3822168    -3.438451   -1.8521809   0.19574661    -3.438451    1.5862701  1148671 
 5842000    1.3822709   -3.4379634   -1.8516657   0.19266833   -3.4379634    1.5862977  1148696 
 5843000     1.383266    -3.438728   -1.8513325   0.19246284    -3.438728    1.5873955  1148728 
 5844000    1.3835796   -3.4380917   -1.8503793   0.19664886   -3.4380917    1.5877124  1148759 
 5845000    1.3823691   -3.4368633   -1.8505882   0.19718239   -3.4368633    1.5862751  1148794 
 5846000     1.384208   -3.4387229   -1.8503765   0.19447597   -3.4387229    1.5883464  1148822 
 5847000    1.3837442   -3.4384339   -1.8506624   0.19222976   -3.4384339    1.5877714  1148853 
 5848000    1.3846526   -3.4392147   -1.8504576     0.196756   -3.4392147     1.588757  1148894 
 5849000    1.3854628   -3.4401733   -1.8505338   0.19175641   -3.4401733    1.5896396  1148928 
 5850000     1.383853   -3.4380293   -1.8502782   0.19487078   -3.4380293    1.5877511  1148958 
 5851000    1.3837055   -3.4382157   -1.8506945   0.19337987   -3.4382157    1.5875212  1149002 
 5852000    1.3834402   -3.4382045    -1.851025   0.19882314   -3.4382045    1.5871795  1149029 
 5853000    1.3835214   -3.4382651   -1.8510437   0.19369827   -3.4382651    1.5872214  1149066 
 5854000    1.3842514   -3.4399757   -1.8519596   0.19473222   -3.4399757    1.5880161  1149097 
 5855000    1.3833665   -3.4387614   -1.8518157   0.19559586   -3.4387614    1.5869458  1149137 
 5856000    1.3832756   -3.4396864   -1.8528892   0.19095328   -3.4396864    1.5867972  1149169 
 5857000    1.3836488   -3.4393059   -1.8521192   0.19464181   -3.4393059    1.5871867  1149197 
 5858000    1.3837974   -3.4406945   -1.8533857   0.18818654   -3.4406945    1.5873088  1149232 
 5859000    1.3834529   -3.4396828   -1.8528106   0.18866804   -3.4396828    1.5868722  1149262 
 5860000    1.3832793   -3.4394056   -1.8527808   0.19179245   -3.4394056    1.5866248  1149297 
 5861000    1.3828277   -3.4391881   -1.8531158   0.19381745   -3.4391881    1.5860722  1149322 
 5862000    1.3838225   -3.4403226   -1.8531507   0.19419417   -3.4403226    1.5871719  1149352 
 5863000    1.3833535   -3.4397477   -1.8531594   0.19593567   -3.4397477    1.5865884  1149385 
 5864000    1.3833284   -3.4394639   -1.8529292   0.19095529   -3.4394639    1.5865347  1149403 
 5865000    1.3840949   -3.4402539   -1.8528829   0.19431956   -3.4402539    1.5873711  1149434 
 5866000    1.3830595    -3.438949   -1.8528206    0.1967864    -3.438949    1.5861284  1149474 
 5867000    1.3849888   -3.4408584   -1.8525699   0.19129819   -3.4408584    1.5882884  1149512 
 5868000    1.3836842    -3.439871   -1.8531242   0.19785776    -3.439871    1.5867468  1149545 
 5869000    1.3845718   -3.4409372   -1.8532057   0.19281048   -3.4409372    1.5877315  1149569 
 5870000    1.3843717   -3.4405819   -1.8531158    0.1961939   -3.4405819    1.5874661  1149595 
 5871000    1.3846333   -3.4405203   -1.8528136   0.19765084   -3.4405203    1.5877067  1149638 
 5872000    1.3852667   -3.4413525   -1.8529719   0.19521366   -3.4413525    1.5883806  1149676 
 5873000    1.3849004   -3.4412374   -1.8533196   0.19578231   -3.4412374    1.5879177  1149707 
 5874000    1.3843699   -3.4416712   -1.8543935   0.19622598   -3.4416712    1.5872777  1149730 
 5875000    1.3843489   -3.4409242   -1.8537175   0.19826681   -3.4409242    1.5872066  1149764 
 5876000    1.3842827   -3.4404812   -1.8533891   0.19531013   -3.4404812    1.5870921  1149792 
 5877000    1.3849447   -3.4418365   -1.8540254   0.19250804   -3.4418365    1.5878111  1149821 
 5878000    1.3843973   -3.4411213   -1.8539696    0.1968862   -3.4411213    1.5871517  1149844 
 5879000    1.3852951   -3.4419405   -1.8537981   0.19231168   -3.4419405    1.5881424  1149872 
 5880000    1.3851855   -3.4426397   -1.8546783   0.19054341   -3.4426397    1.5879615  1149912 
 5881000     1.384527   -3.4424298   -1.8552702   0.19143421   -3.4424298    1.5871596  1149946 
 5882000    1.3845225   -3.4419256   -1.8548084   0.19228434   -3.4419256    1.5871172  1149973 
 5883000    1.3836266   -3.4405742   -1.8545294   0.19709266   -3.4405742    1.5860447  1150006 
 5884000    1.3834247   -3.4405686   -1.8547911   0.19535855   -3.4405686    1.5857774  1150032 
 5885000    1.3835351   -3.4400156    -1.854153   0.19651961   -3.4400156    1.5858626  1150062 
 5886000    1.3854584   -3.4418519   -1.8538303    0.1948223   -3.4418519    1.5880216  1150095 
 5887000    1.3849186   -3.4410061    -1.853657   0.19621241   -3.4410061     1.587349  1150134 
 5888000    1.3840753   -3.4404299   -1.8540847   0.20293472   -3.4404299    1.5863452  1150161 
 5889000    1.3844356   -3.4415781   -1.8548654   0.19644115   -3.4415781    1.5867127  1150194 
 5890000    1.3844646   -3.4418196   -1.8551221   0.19560342   -3.4418196    1.5866976  1150229 
 5891000    1.3847443   -3.4421023   -1.8551214   0.19379521   -3.4421023    1.5869809  1150256 
 5892000    1.3854521   -3.4430178   -1.8552671   0.19288826   -3.4430178    1.5877507  1150286 
 5893000    1.3846593   -3.4416361   -1.8548271   0.19656126   -3.4416361     1.586809  1150310 
 5894000    1.3853772   -3.4429031   -1.8553155   0.19547652   -3.4429031    1.5875875  1150342 
 5895000    1.3844762   -3.4414743   -1.8549538    0.1965678   -3.4414743    1.5865206  1150367 
 5896000    1.3856502   -3.4425123   -1.8546947   0.19549888   -3.4425123    1.5878176  1150402 
 5897000    1.3853972   -3.4425966    -1.855109   0.19355575   -3.4425966    1.5874876  1150431 
 5898000    1.3855113   -3.4430327   -1.8554654   0.19469056   -3.4430327    1.5875673  1150468 
 5899000    1.3855272   -3.4442269   -1.8566869     0.186828   -3.4442269      1.58754  1150501 
 5900000    1.3840829   -3.4423059   -1.8564648    0.1960148   -3.4423059    1.5858411  1150533 
 5901000    1.3850718   -3.4432015   -1.8562715   0.19561879   -3.4432015      1.58693  1150565 
 5902000     1.385281   -3.4436173   -1.8564918   0.19255989   -3.4436173    1.5871255  1150597 
 5903000    1.3847695   -3.4439062   -1.8574122   0.18845078   -3.4439062     1.586494  1150630 
 5904000    1.3840692    -3.443016   -1.8573643   0.19447987    -3.443016    1.5856516  1150659 
 5905000     1.384872   -3.4440152    -1.857481   0.19382393   -3.4440152    1.5865342  1150686 
 5906000    1.3837142   -3.4426966   -1.8575315   0.19968126   -3.4426966    1.5851651  1150717 
 5907000    1.3845423   -3.4434845   -1.8574204   0.19411927   -3.4434845    1.5860641  1150753 
 5908000    1.3854825   -3.4439908   -1.8568938   0.19238029   -3.4439908     1.587097  1150785 
 5909000    1.3863972   -3.4451489   -1.8570509   0.19410333   -3.4451489    1.5880979  1150819 
 5910000    1.3851525   -3.4435918    -1.856968   0.19594514   -3.4435918    1.5866238  1150854 
 5911000     1.386568     -3.44472   -1.8565243   0.19507265     -3.44472    1.5881956  1150890 
 5912000    1.3858348   -3.4442136   -1.8569157   0.19425891   -3.4442136    1.5872979  1150932 
 5913000    1.3860123   -3.4451171   -1.8576476   0.19632831   -3.4451171    1.5874695  1150955 
 5914000    1.3852118   -3.4441283   -1.8576322   0.19913968   -3.4441283    1.5864961  1150996 
 5915000    1.3859549    -3.445527   -1.8582088   0.19147865    -3.445527    1.5873182  1151017 
 5916000    1.3855491   -3.4456284   -1.8588177   0.19145439   -3.4456284    1.5868107  1151048 
 5917000    1.3846519   -3.4451148   -1.8593895   0.19216992   -3.4451148    1.5857253  1151090 
 5918000    1.3852302    -3.445542   -1.8592068   0.19684066    -3.445542    1.5863352  1151128 
 5919000    1.3851528    -3.444989   -1.8587852   0.19036122    -3.444989    1.5862038  1151159 
 5920000    1.3837699   -3.4436455   -1.8590639   0.19762633   -3.4436455    1.5845816  1151187 
 5921000    1.3851509   -3.4447281   -1.8586132   0.19220932   -3.4447281    1.5861149  1151222 
 5922000    1.3851772     -3.44589   -1.8597781   0.19288897     -3.44589    1.5861119  1151246 
 5923000    1.3851357   -3.4448326   -1.8588027   0.19303481   -3.4448326    1.5860299  1151271 
 5924000    1.3854177   -3.4454489   -1.8591388   0.19597872   -3.4454489    1.5863101  1151302 
 5925000    1.3846075   -3.4443058   -1.8589784   0.19902985   -3.4443058    1.5853274  1151342 
 5926000    1.3855507   -3.4462347   -1.8598645   0.19107988   -3.4462347    1.5863701  1151369 
 5927000    1.3835053    -3.444102   -1.8601425   0.19658816    -3.444102    1.5839595  1151419 
 5928000    1.3855016   -3.4467196   -1.8605229   0.19003425   -3.4467196    1.5861968  1151454 
 5929000    1.3852323   -3.4456202   -1.8597758   0.19767482   -3.4456202    1.5858444  1151486 
 5930000    1.3865926   -3.4477376   -1.8603745   0.19144885   -3.4477376    1.5873631  1151514 
 5931000    1.3864218   -3.4469607   -1.8598373   0.19356996   -3.4469607    1.5871235  1151546 
 5932000    1.3858489   -3.4469154    -1.860485   0.19138194   -3.4469154    1.5864304  1151573 
 5933000    1.3853252   -3.4459248   -1.8601324   0.19482923   -3.4459248    1.5857924  1151601 
 5934000    1.3842174   -3.4453898   -1.8609054   0.19668084   -3.4453898    1.5844844  1151630 
 5935000    1.3853521   -3.4467626   -1.8610317   0.19419013   -3.4467626     1.585731  1151668 
 5936000     1.385362   -3.4470013   -1.8613058   0.19493106   -3.4470013    1.5856955  1151702 
 5937000    1.3853349   -3.4472864   -1.8616854   0.18797181   -3.4472864    1.5856011  1151748 
 5938000    1.3851528   -3.4470573   -1.8617183   0.19592951   -3.4470573     1.585339  1151787 
 5939000    1.3855987   -3.4476848   -1.8618658   0.19753138   -3.4476848     1.585819  1151809 
 5940000    1.3868204   -3.4480411   -1.8608748   0.19303493   -3.4480411    1.5871662  1151846 
 5941000    1.3867303   -3.4477725   -1.8607492   0.19175944   -3.4477725    1.5870233  1151875 
 5942000    1.3861598   -3.4472188    -1.860894   0.19865713   -3.4472188    1.5863248  1151908 
 5943000    1.3858338   -3.4463803   -1.8604891   0.19695388   -3.4463803    1.5858912  1151952 
 5944000    1.3861845   -3.4464021   -1.8601453   0.19500119   -3.4464021    1.5862567  1151978 
 5945000    1.3873578   -3.4473271   -1.8597635   0.19521061   -3.4473271    1.5875636  1152004 
 5946000    1.3866669   -3.4473484   -1.8606306   0.19783487   -3.4473484    1.5867178  1152044 
 5947000    1.3869759   -3.4472449   -1.8602272   0.19615271   -3.4472449    1.5870177  1152083 
 5948000    1.3875867   -3.4477939   -1.8601255    0.1928513   -3.4477939    1.5876684  1152118 
 5949000     1.385405   -3.4459732   -1.8608561   0.20051825   -3.4459732     1.585117  1152158 
 5950000    1.3858982   -3.4472313   -1.8615925   0.19341837   -3.4472313    1.5856387  1152189 
 5951000    1.3862127    -3.447768   -1.8618136   0.19223201    -3.447768    1.5859544  1152221 
 5952000    1.3847129   -3.4461754   -1.8619767   0.19795021   -3.4461754    1.5841987  1152250 
 5953000    1.3859947   -3.4475621   -1.8619562   0.19513283   -3.4475621    1.5856059  1152293 
 5954000    1.3864688    -3.447443   -1.8613538   0.19964425    -3.447443    1.5860892  1152336 
 5955000    1.3874014   -3.4483204   -1.8612098   0.19387381   -3.4483204    1.5871106  1152369 
 5956000    1.3867174   -3.4479301   -1.8616433    0.1938113   -3.4479301    1.5862868  1152399 
 5957000    1.3865537   -3.4477679    -1.861711   0.19524012   -3.4477679    1.5860569  1152430 
 5958000    1.3860026   -3.4476486   -1.8622661   0.19706704   -3.4476486    1.5853825  1152462 
 5959000    1.3866094   -3.4470855   -1.8610667   0.19651879   -3.4470855    1.5860187  1152504 
 5960000     1.388378   -3.4481519   -1.8601612   0.19698664   -3.4481519    1.5879907  1152541 
 5961000    1.3870099   -3.4473411   -1.8609841   0.20148662   -3.4473411    1.5863571  1152591 
 5962000    1.3874459   -3.4479916   -1.8611785   0.19840409   -3.4479916    1.5868131  1152622 
 5963000    1.3873742    -3.447704   -1.8610114   0.19784318    -3.447704    1.5866926  1152650 
 5964000    1.3871859   -3.4481295   -1.8616963   0.19324211   -3.4481295    1.5864332  1152682 
 5965000    1.3877336   -3.4490814   -1.8620728   0.19071343   -3.4490814    1.5870086  1152719 
 5966000    1.3875082   -3.4492091   -1.8625229   0.19444849   -3.4492091    1.5866862  1152766 
 5967000    1.3870885   -3.4486254   -1.8624659   0.20024901   -3.4486254    1.5861594  1152800 
 5968000    1.3874532   -3.4494477   -1.8629194   0.19208909   -3.4494477    1.5865283  1152835 
 5969000    1.3877552   -3.4500134   -1.8631866   0.19216049   -3.4500134    1.5868268  1152869 
 5970000    1.3865498   -3.4489649   -1.8635618   0.19114964   -3.4489649    1.5854031  1152902 
 5971000    1.3861469   -3.4483987   -1.8635015   0.19463948   -3.4483987    1.5848971  1152935 
 5972000    1.3868919   -3.4495476   -1.8638427   0.19863378   -3.4495476    1.5857049  1152967 
 5973000    1.3877081   -3.4507171   -1.8641175   0.19150228   -3.4507171    1.5865996  1152995 
 5974000    1.3870796   -3.4495395   -1.8637039   0.19975499   -3.4495395    1.5858356  1153028 
 5975000    1.3880966   -3.4512104   -1.8642548   0.19097913   -3.4512104    1.5869556  1153059 
 5976000    1.3881557   -3.4508207    -1.863843   0.19283873   -3.4508207    1.5869778  1153092 
 5977000    1.3883196   -3.4512936   -1.8641739   0.19551386   -3.4512936    1.5871197  1153125 
 5978000    1.3872052   -3.4492698   -1.8634846   0.20224174   -3.4492698    1.5857852  1153169 
 5979000     1.386606   -3.4493822     -1.86433   0.19581671   -3.4493822    1.5850522  1153204 
 5980000    1.3879234   -3.4506278   -1.8641137   0.19451308   -3.4506278    1.5865141  1153236 
 5981000    1.3886815   -3.4515665   -1.8642271   0.19448051   -3.4515665    1.5873394  1153266 
 5982000    1.3884985   -3.4502167    -1.863143   0.19318384   -3.4502167    1.5870737  1153307 
 5983000    1.3893504   -3.4513234   -1.8633075   0.19346551   -3.4513234    1.5880159  1153330 
 5984000     1.387613   -3.4500781   -1.8640921   0.19746998   -3.4500781     1.585986  1153362 
 5985000    1.3873613   -3.4497736   -1.8641001   0.19573536   -3.4497736    1.5856736  1153380 
 5986000    1.3876047    -3.450309    -1.864415   0.19437549    -3.450309     1.585894  1153422 
 5987000    1.3881709   -3.4504874   -1.8639889   0.19423474   -3.4504874    1.5864985  1153453 
 5988000    1.3873675   -3.4499191   -1.8643938   0.19583191   -3.4499191    1.5855253  1153493 
 5989000    1.3872887   -3.4502452   -1.8648416   0.20165878   -3.4502452    1.5854037  1153516 
 5990000    1.3866839   -3.4500933   -1.8654262   0.20061749   -3.4500933    1.5846671  1153549 
 5991000    1.3871915   -3.4507104   -1.8655154   0.19367798   -3.4507104     1.585195  1153587 
 5992000    1.3870624   -3.4505103   -1.8654999   0.19011725   -3.4505103    1.5850104  1153614 
 5993000    1.3867632   -3.4488334   -1.8642048   0.19630624   -3.4488334    1.5846287  1153643 
 5994000    1.3878347   -3.4503694   -1.8645632   0.19508399   -3.4503694    1.5858062  1153677 
 5995000    1.3881627   -3.4512827   -1.8651443   0.19487985   -3.4512827    1.5861385  1153708 
 5996000    1.3868939   -3.4507187   -1.8660644   0.19728828   -3.4507187    1.5846543  1153733 
 5997000     1.388418   -3.4523316   -1.8659866   0.18944751   -3.4523316    1.5863449  1153770 
 5998000    1.3883982   -3.4516397   -1.8653655   0.19899299   -3.4516397    1.5862742  1153805 
 5999000    1.3882385   -3.4515294   -1.8654679   0.19866864   -3.4515294    1.5860615  1153827 
 6000000    1.3871157     -3.45072   -1.8659977   0.19704243     -3.45072    1.5847223  1153868 
 6001000    1.3874618   -3.4515387   -1.8664758   0.19524072   -3.4515387    1.5850629  1153908 
 6002000    1.3882954   -3.4522521   -1.8662714   0.19411993   -3.4522521    1.5859808  1153933 
 6003000    1.3882543   -3.4522347    -1.866349   0.19980488   -3.4522347    1.5858857  1153968 
 6004000    1.3890253   -3.4528926   -1.8661646   0.19440457   -3.4528926     1.586728  1153996 
 6005000    1.3883301   -3.4528156   -1.8669202   0.19737078   -3.4528156    1.5858953  1154024 
 6006000    1.3879345   -3.4520394   -1.8666467     0.194575   -3.4520394    1.5853926  1154061 
 6007000    1.3885161   -3.4531403   -1.8671148   0.19378497   -3.4531403    1.5860254  1154084 
 6008000    1.3898766   -3.4540198   -1.8664886   0.19365313   -3.4540198    1.5875312  1154119 
 6009000    1.3873389   -3.4513519   -1.8667701    0.1990676   -3.4513519    1.5845818  1154156 
 6010000    1.3885486   -3.4529414   -1.8670218    0.1976154   -3.4529414    1.5859196  1154188 
 6011000    1.3892339   -3.4541848   -1.8675127   0.19634438   -3.4541848     1.586672  1154210 
 6012000     1.387738   -3.4536906   -1.8687752    0.1943674   -3.4536906    1.5849154  1154245 
 6013000    1.3876027   -3.4533595    -1.868637   0.19593089   -3.4533595    1.5847225  1154273 
 6014000    1.3876211   -3.4538994   -1.8691984     0.195438   -3.4538994    1.5847009  1154304 
 6015000    1.3869711   -3.4525655   -1.8686631   0.19868586   -3.4525655    1.5839024  1154345 
 6016000    1.3879385   -3.4536837   -1.8687246   0.19901998   -3.4536837    1.5849591  1154380 
 6017000    1.3889704   -3.4550784   -1.8689864    0.1958619   -3.4550784    1.5860921  1154413 
 6018000     1.387483   -3.4529206   -1.8685736   0.19839333   -3.4529206    1.5843469  1154447 
 6019000    1.3885628   -3.4544896   -1.8689453   0.19427691   -3.4544896    1.5855443  1154473 
 6020000    1.3874042   -3.4533237   -1.8691504   0.19347792   -3.4533237    1.5841733  1154508 
 6021000    1.3860745   -3.4520229     -1.86942   0.19774491   -3.4520229    1.5826029  1154546 
 6022000    1.3877466   -3.4535581   -1.8690831   0.19609468   -3.4535581     1.584475  1154573 
 6023000    1.3882864    -3.454293   -1.8692442   0.19293069    -3.454293    1.5850488  1154604 
 6024000    1.3873999    -3.453499   -1.8694994   0.19487349    -3.453499    1.5839997  1154631 
 6025000    1.3887288   -3.4547338   -1.8692678   0.19396345   -3.4547338     1.585466  1154668 
 6026000    1.3886698   -3.4539433   -1.8685845   0.19868183   -3.4539433    1.5853588  1154697 
 6027000    1.3890563   -3.4548942   -1.8691463   0.19726595   -3.4548942    1.5857479  1154735 
 6028000    1.3886143   -3.4553048   -1.8701081   0.19350129   -3.4553048    1.5851966  1154769 
 6029000     1.387331   -3.4539125   -1.8702439   0.19426492   -3.4539125    1.5836686  1154815 
 6030000    1.3886146   -3.4551682   -1.8700673   0.19118578   -3.4551682    1.5851009  1154839 
 6031000    1.3884877   -3.4542427   -1.8693115   0.19838711   -3.4542427    1.5849313  1154857 
 6032000    1.3883687   -3.4541224   -1.8693873   0.19541161   -3.4541224    1.5847352  1154901 
 6033000    1.3890092   -3.4550718   -1.8696536    0.1938477   -3.4550718    1.5854182  1154936 
 6034000    1.3873557   -3.4533467   -1.8698529   0.19779419   -3.4533467    1.5834938  1154963 
 6035000     1.388268   -3.4547073    -1.870201   0.19364957   -3.4547073    1.5845063  1154984 
 6036000    1.3891353   -3.4548837   -1.8694245   0.19411154   -3.4548837    1.5854592  1155011 
 6037000    1.3895387   -3.4545708    -1.868687   0.19671357   -3.4545708    1.5858838  1155037 
 6038000    1.3889181   -3.4533053   -1.8681723   0.19935332   -3.4533053     1.585133  1155068 
 6039000    1.3901967    -3.455004   -1.8684462   0.19697921    -3.455004    1.5865579  1155093 
 6040000    1.3903846   -3.4560722   -1.8693547   0.19521721   -3.4560722    1.5867174  1155133 
 6041000    1.3897404   -3.4545768   -1.8686412    0.1980173   -3.4545768    1.5859356  1155167 
 6042000    1.3893739   -3.4541892   -1.8687089   0.19848121   -3.4541892    1.5854803  1155194 
 6043000    1.3899678   -3.4546825   -1.8685616   0.19916612   -3.4546825    1.5861209  1155221 
 6044000    1.3887857   -3.4536805   -1.8689607    0.2019272   -3.4536805    1.5847198  1155259 
 6045000     1.389061   -3.4544823   -1.8695032   0.19645875   -3.4544823    1.5849791  1155299 
 6046000    1.3895326   -3.4547324    -1.869248   0.19770904   -3.4547324    1.5854843  1155323 
 6047000    1.3894528   -3.4551589   -1.8698027   0.19556571   -3.4551589    1.5853563  1155350 
 6048000    1.3890291   -3.4549702   -1.8701426   0.19334682   -3.4549702    1.5848275  1155383 
 6049000    1.3894495   -3.4562029   -1.8709327   0.19184445   -3.4562029    1.5852701  1155410 
 6050000    1.3888692   -3.4550958   -1.8705069   0.19647775   -3.4550958    1.5845889  1155424 
 6051000    1.3881896   -3.4545225   -1.8707351   0.19909097   -3.4545225    1.5837875  1155443 
 6052000    1.3896344   -3.4555563   -1.8701684    0.1949419   -3.4555563    1.5853878  1155478 
 6053000    1.3903005   -3.4561569   -1.8700587   0.19849089   -3.4561569    1.5860982  1155514 
 6054000    1.3905425   -3.4563972   -1.8700763   0.19599024   -3.4563972    1.5863209  1155553 
 6055000    1.3906669   -3.4567515   -1.8703354   0.19662613   -3.4567515    1.5864161  1155587 
 6056000    1.3896563   -3.4554333   -1.8702222   0.20022672   -3.4554333    1.5852111  1155625 
 6057000    1.3911837   -3.4567703   -1.8698512   0.19530398   -3.4567703    1.5869191  1155650 
 6058000    1.3908709   -3.4564255   -1.8698934   0.20311392   -3.4564255    1.5865321  1155672 
 6059000    1.3906453   -3.4561529   -1.8699303   0.20229255   -3.4561529    1.5862226  1155710 
 6060000    1.3916459   -3.4570117   -1.8696862   0.20220524   -3.4570117    1.5873255  1155738 
 6061000    1.3917021   -3.4572292   -1.8698768   0.19582596   -3.4572292    1.5873524  1155765 
 6062000    1.3909274   -3.4573257   -1.8709049   0.20138466   -3.4573257    1.5864208  1155800 
 6063000    1.3904311   -3.4569703   -1.8711471   0.20035558   -3.4569703    1.5858232  1155823 
 6064000     1.391681   -3.4580883   -1.8708959   0.19733211   -3.4580883    1.5871924  1155864 
 6065000    1.3911467   -3.4572473   -1.8707274   0.19863092   -3.4572473    1.5865199  1155910 
 6066000    1.3899647   -3.4564696   -1.8713429   0.20225684   -3.4564696    1.5851267  1155943 
 6067000     1.390302   -3.4569453    -1.871486   0.19503019   -3.4569453    1.5854593  1155981 
 6068000    1.3915839   -3.4580945   -1.8712065   0.19764038   -3.4580945    1.5868881  1156005 
 6069000    1.3906569   -3.4575757   -1.8717817   0.19886258   -3.4575757    1.5857939  1156032 
 6070000    1.3905715   -3.4570292    -1.871397   0.20177433   -3.4570292    1.5856321  1156079 
 6071000    1.3914209   -3.4582243   -1.8716826   0.19731527   -3.4582243    1.5865417  1156122 
 6072000    1.3898809   -3.4561891   -1.8714541   0.20324357   -3.4561891     1.584735  1156159 
 6073000    1.3895786   -3.4562247   -1.8718754   0.19940498   -3.4562247    1.5843493  1156189 
 6074000    1.3912675   -3.4572102    -1.870971   0.19766276   -3.4572102    1.5862392  1156215 
 6075000     1.390118   -3.4559746   -1.8710803   0.20284998   -3.4559746    1.5848943  1156240 
 6076000    1.3912639   -3.4573517   -1.8711948   0.19625028   -3.4573517    1.5861569  1156272 
 6077000    1.3920421   -3.4584657   -1.8714532    0.1964316   -3.4584657    1.5870125  1156295 
 6078000     1.389967   -3.4559053   -1.8713024   0.20041501   -3.4559053     1.584603  1156327 
 6079000    1.3916412   -3.4575886   -1.8711196   0.19743519   -3.4575886     1.586469  1156358 
 6080000    1.3899921   -3.4565097   -1.8719659   0.20079192   -3.4565097    1.5845438  1156391 
 6081000    1.3897013   -3.4561592   -1.8719893    0.2022542   -3.4561592    1.5841699  1156422 
 6082000    1.3909984   -3.4580546   -1.8724527   0.19620835   -3.4580546    1.5856018  1156456 
 6083000    1.3914576   -3.4586497   -1.8725793    0.1986631   -3.4586497    1.5860704  1156496 
 6084000    1.3912547   -3.4584479   -1.8726608   0.19946893   -3.4584479    1.5857871  1156534 
 6085000    1.3904376   -3.4573951   -1.8726039   0.20349821   -3.4573951    1.5847913  1156581 
 6086000    1.3905646   -3.4582615   -1.8733775   0.19967648   -3.4582615    1.5848839  1156619 
 6087000    1.3907303   -3.4586894   -1.8736796    0.1984161   -3.4586894    1.5850098  1156665 
 6088000    1.3915426    -3.459196    -1.873307   0.19619475    -3.459196    1.5858889  1156699 
 6089000    1.3923226   -3.4598369   -1.8731015   0.20226368   -3.4598369    1.5867354  1156730 
 6090000    1.3919618   -3.4595251   -1.8732448   0.19777538   -3.4595251    1.5862804  1156762 
 6091000    1.3925541   -3.4604936    -1.873574   0.19860276   -3.4604936    1.5869196  1156788 
 6092000    1.3918472   -3.4593253   -1.8732497   0.20191605   -3.4593253    1.5860757  1156816 
 6093000    1.3920349   -3.4599384   -1.8736941   0.20003481   -3.4599384    1.5862443  1156849 
 6094000    1.3924049   -3.4603349   -1.8736937   0.19859296   -3.4603349    1.5866412  1156867 
 6095000    1.3908454   -3.4591137   -1.8742934   0.20334634   -3.4591137    1.5848203  1156899 
 6096000    1.3917893   -3.4600968   -1.8742543   0.19797639   -3.4600968    1.5858425  1156938 
 6097000    1.3917765   -3.4610815   -1.8753085   0.19783097   -3.4610815     1.585773  1156978 
 6098000    1.3907729   -3.4599615   -1.8753552   0.20221654   -3.4599615    1.5846062  1156995 
 6099000    1.3910987   -3.4603583   -1.8754206   0.20123022   -3.4603583    1.5849378  1157024 
 6100000    1.3921463    -3.461119   -1.8750137   0.19621059    -3.461119    1.5861053  1157043 
 6101000    1.3904759    -3.459479   -1.8753179   0.19575379    -3.459479    1.5841611  1157073 
 6102000    1.3907994   -3.4598786   -1.8754037   0.19497671   -3.4598786    1.5844749  1157113 
 6103000    1.3921548   -3.4611931   -1.8752207   0.19945611   -3.4611931    1.5859724  1157147 
 6104000    1.3917233   -3.4609565     -1.87551   0.19739088   -3.4609565    1.5854465  1157172 
 6105000    1.3911678   -3.4604496   -1.8756715   0.19733086   -3.4604496    1.5847781  1157198 
 6106000    1.3917951   -3.4608309   -1.8753806     0.199087   -3.4608309    1.5854503  1157229 
 6107000    1.3906883   -3.4598897   -1.8757454   0.20075149   -3.4598897    1.5841443  1157262 
 6108000    1.3912107   -3.4607087   -1.8760077   0.19785508   -3.4607087    1.5847011  1157290 
 6109000    1.3914473   -3.4608546    -1.875943   0.19945173   -3.4608546    1.5849116  1157333 
 6110000    1.3910288   -3.4606536    -1.876257   0.19699512   -3.4606536    1.5843966  1157361 
 6111000     1.391617   -3.4613785   -1.8763462   0.19599199   -3.4613785    1.5850323  1157386 
 6112000    1.3914449   -3.4615781   -1.8768006   0.19580018   -3.4615781    1.5847775  1157429 
 6113000    1.3905968   -3.4610535   -1.8772899   0.19633554   -3.4610535    1.5837637  1157464 
 6114000    1.3908877   -3.4606664   -1.8766154   0.19666739   -3.4606664    1.5840511  1157496 
 6115000    1.3917694   -3.4618827   -1.8768589   0.19844284   -3.4618827    1.5850238  1157519 
 6116000    1.3917593   -3.4624199   -1.8774459   0.19788322   -3.4624199     1.584974  1157547 
 6117000      1.39277   -3.4633478   -1.8772585   0.19751838   -3.4633478    1.5860893  1157573 
 6118000      1.39126   -3.4617086    -1.877384   0.19965108   -3.4617086    1.5843245  1157606 
 6119000    1.3917403   -3.4624758    -1.877655   0.19917233   -3.4624758    1.5848208  1157643 
 6120000    1.3911511   -3.4620289   -1.8779241   0.19678771   -3.4620289    1.5841048  1157676 
 6121000    1.3913257   -3.4619735   -1.8777028   0.19749996   -3.4619735    1.5842707  1157700 
 6122000    1.3913721   -3.4622688   -1.8779972   0.19910519   -3.4622688    1.5842715  1157738 
 6123000     1.391328    -3.462162   -1.8779871   0.19818941    -3.462162    1.5841749  1157772 
 6124000     1.391451   -3.4622798   -1.8780046   0.20005717   -3.4622798    1.5842752  1157801 
 6125000     1.391446   -3.4626901   -1.8784753   0.19792867   -3.4626901    1.5842148  1157841 
 6126000    1.3916945   -3.4630799   -1.8786301   0.19833243   -3.4630799    1.5844498  1157876 
 6127000    1.3915457   -3.4633691   -1.8791352   0.19507089   -3.4633691    1.5842339  1157910 
 6128000    1.3916609   -3.4632124   -1.8788953   0.19637689   -3.4632124    1.5843171  1157945 
 6129000    1.3906864   -3.4622738   -1.8791057   0.19801715   -3.4622738    1.5831681  1157974 
 6130000    1.3923259   -3.4638034   -1.8788127   0.19749102   -3.4638034    1.5849907  1158006 
 6131000    1.3910229   -3.4626032   -1.8791449   0.19769614   -3.4626032    1.5834582  1158042 
 6132000    1.3911216   -3.4624117   -1.8788726   0.20251539   -3.4624117    1.5835391  1158065 
 6133000    1.3918089   -3.4623548   -1.8780991   0.19970255   -3.4623548    1.5842558  1158113 
 6134000    1.3915631   -3.4628518   -1.8789237   0.19955113   -3.4628518    1.5839281  1158148 
 6135000    1.3928088   -3.4640394   -1.8787454   0.19877098   -3.4640394     1.585294  1158186 
 6136000    1.3914534    -3.463137   -1.8794131   0.19805406    -3.463137     1.583724  1158206 
 6137000    1.3924021   -3.4639312   -1.8791657   0.19729296   -3.4639312    1.5847654  1158234 
 6138000    1.3915101   -3.4628018   -1.8790981   0.19928095   -3.4628018    1.5837037  1158268 
 6139000    1.3923628   -3.4632157   -1.8785826   0.19803897   -3.4632157    1.5846332  1158298 
 6140000    1.3920298   -3.4629498   -1.8787394   0.20011009   -3.4629498    1.5842104  1158330 
 6141000    1.3932078   -3.4637701   -1.8782478   0.20163052   -3.4637701    1.5855223  1158351 
 6142000    1.3914157   -3.4621755   -1.8787405   0.20254626   -3.4621755     1.583435  1158386 
 6143000    1.3928412   -3.4630372   -1.8780225   0.19915616   -3.4630372    1.5850147  1158417 
 6144000    1.3932067   -3.4636496   -1.8782544   0.19385876   -3.4636496    1.5853951  1158443 
 6145000    1.3918731   -3.4629729   -1.8791391   0.19589214   -3.4629729    1.5838338  1158475 
 6146000    1.3914847   -3.4624465   -1.8790861   0.19887938   -3.4624465    1.5833604  1158498 
 6147000    1.3920657   -3.4630221   -1.8790498   0.20440073   -3.4630221    1.5839723  1158534 
 6148000    1.3927799   -3.4638155   -1.8790757   0.20523404   -3.4638155    1.5847398  1158567 
 6149000    1.3930353    -3.464216   -1.8792293   0.19998201    -3.464216    1.5849867  1158599 
 6150000    1.3925808   -3.4649197   -1.8804817   0.19483627   -3.4649197    1.5844381  1158622 
 6151000    1.3918254   -3.4643792   -1.8808266   0.19730814   -3.4643792    1.5835526  1158641 
 6152000    1.3924335   -3.4646572   -1.8804483   0.19627189   -3.4646572    1.5842089  1158667 
 6153000    1.3920233   -3.4646346   -1.8809457   0.19935482   -3.4646346    1.5836889  1158706 
 6154000    1.3916912   -3.4648585   -1.8815775    0.1951365   -3.4648585    1.5832811  1158728 
 6155000     1.392067   -3.4649789   -1.8813169   0.19776359   -3.4649789    1.5836621  1158762 
 6156000    1.3917888   -3.4654585   -1.8821525   0.19736694   -3.4654585     1.583306  1158791 
 6157000    1.3921378   -3.4651594   -1.8815083   0.19907753   -3.4651594    1.5836511  1158829 
 6158000    1.3908857     -3.46411   -1.8819324   0.20150159     -3.46411    1.5821776  1158865 
 6159000    1.3915734   -3.4652031   -1.8822938   0.19658181   -3.4652031    1.5829093  1158902 
 6160000    1.3910006   -3.4648815    -1.882666   0.19907945   -3.4648815    1.5822154  1158933 
 6161000      1.39217   -3.4661125   -1.8826038   0.19636361   -3.4661125    1.5835087  1158960 
 6162000     1.391667   -3.4653823   -1.8824962   0.19729175   -3.4653823    1.5828861  1158997 
 6163000    1.3922246   -3.4656789   -1.8821956   0.20005389   -3.4656789    1.5834833  1159024 
 6164000    1.3929545   -3.4662143   -1.8819404   0.19580573   -3.4662143    1.5842739  1159053 
 6165000    1.3927102   -3.4664129   -1.8824552   0.19853654   -3.4664129    1.5839577  1159081 
 6166000      1.39246   -3.4660882   -1.8824684   0.20250166   -3.4660882    1.5836199  1159120 
 6167000    1.3928853   -3.4668328   -1.8827744   0.19517672   -3.4668328    1.5840585  1159153 
 6168000    1.3917243   -3.4656547   -1.8829533   0.19579993   -3.4656547    1.5827013  1159180 
 6169000    1.3929772   -3.4672703   -1.8831839   0.19414168   -3.4672703    1.5840865  1159209 
 6170000    1.3914453   -3.4653585   -1.8830428   0.19647727   -3.4653585    1.5823157  1159230 
 6171000    1.3916791   -3.4657501   -1.8832148   0.19768423   -3.4657501    1.5825353  1159264 
 6172000    1.3926276   -3.4672982   -1.8837268   0.19693548   -3.4672982    1.5835714  1159295 
 6173000    1.3924823   -3.4669537   -1.8835829   0.19676492   -3.4669537    1.5833708  1159321 
 6174000    1.3915489   -3.4654496   -1.8831662   0.19602585   -3.4654496    1.5822834  1159340 
 6175000    1.3916233   -3.4659042   -1.8835812   0.19796453   -3.4659042     1.582323  1159373 
 6176000    1.3921566   -3.4669269   -1.8840493   0.19672927   -3.4669269    1.5828775  1159411 
 6177000    1.3911803   -3.4663415   -1.8846191   0.19733684   -3.4663415    1.5817224  1159444 
 6178000    1.3916549   -3.4669715   -1.8847668   0.19671916   -3.4669715    1.5822047  1159486 
 6179000    1.3925929   -3.4675855   -1.8843662   0.19393645   -3.4675855    1.5832193  1159524 
 6180000    1.3924328   -3.4672642   -1.8842597   0.19933636   -3.4672642    1.5830045  1159548 
 6181000    1.3920601   -3.4662917   -1.8837477   0.19954835   -3.4662917    1.5825439  1159575 
 6182000    1.3929171   -3.4673552   -1.8838739   0.19814465   -3.4673552    1.5834813  1159602 
 6183000    1.3921547   -3.4660119   -1.8834477   0.20177459   -3.4660119    1.5825642  1159639 
 6184000    1.3937922   -3.4682181   -1.8838184   0.19410681   -3.4682181    1.5843996  1159658 
 6185000    1.3928471     -3.46734   -1.8840571   0.19900993     -3.46734    1.5832829  1159689 
 6186000    1.3940839    -3.467576    -1.882939   0.19961793    -3.467576    1.5846369  1159727 
 6187000    1.3940967   -3.4680082   -1.8833909   0.20110002   -3.4680082    1.5846173  1159752 
 6188000    1.3944399   -3.4680544   -1.8830785   0.19645474   -3.4680544    1.5849759  1159775 
 6189000    1.3940033   -3.4673159   -1.8828731   0.19785873   -3.4673159    1.5844428  1159802 
 6190000    1.3946015   -3.4686082   -1.8835169   0.19770052   -3.4686082    1.5850913  1159825 
 6191000     1.393922   -3.4678887   -1.8836024   0.19784573   -3.4678887    1.5842863  1159849 
 6192000    1.3934423   -3.4683774   -1.8846665   0.19725916   -3.4683774     1.583711  1159871 
 6193000    1.3931599    -3.468143   -1.8847898   0.19990035    -3.468143    1.5833532  1159898 
 6194000    1.3932697   -3.4680328   -1.8845889   0.19680381   -3.4680328    1.5834439  1159923 
 6195000    1.3938761   -3.4686947    -1.884604   0.19780313   -3.4686947    1.5840907  1159954 
 6196000    1.3937888    -3.468038   -1.8840794   0.20071497    -3.468038    1.5839586  1159978 
 6197000    1.3928882    -3.467276   -1.8843927   0.19880953    -3.467276    1.5828833  1160016 
 6198000    1.3923675   -3.4666418   -1.8843884   0.19839192   -3.4666418    1.5822534  1160044 
 6199000     1.393686   -3.4680381   -1.8843232   0.20026081   -3.4680381    1.5837149  1160071 
 6200000    1.3931233   -3.4684344   -1.8854067   0.19715191   -3.4684344    1.5830277  1160106 
 6201000    1.3938693   -3.4692926     -1.88545   0.19901521   -3.4692926    1.5838427  1160130 
 6202000    1.3925956   -3.4680049    -1.885645   0.19751253   -3.4680049    1.5823599  1160156 
 6203000    1.3917813   -3.4674786   -1.8860684   0.20169932   -3.4674786    1.5814101  1160174 
 6204000    1.3923456   -3.4678971   -1.8859017    0.1994793   -3.4678971    1.5819954  1160215 
 6205000    1.3928234   -3.4685813    -1.886088    0.1958326   -3.4685813    1.5824932  1160248 
 6206000    1.3925796    -3.468154   -1.8859774   0.19770158    -3.468154    1.5821766  1160277 
 6207000     1.392835   -3.4686726    -1.886248   0.20006187   -3.4686726    1.5824245  1160308 
 6208000     1.394566    -3.470204   -1.8858428   0.19709745    -3.470204    1.5843612  1160330 
 6209000     1.393948   -3.4692327   -1.8856132   0.19855574   -3.4692327    1.5836195  1160359 
 6210000     1.393555   -3.4689441   -1.8858217   0.19821331   -3.4689441    1.5831225  1160396 
 6211000    1.3946807   -3.4696814   -1.8853252   0.19794981   -3.4696814    1.5843562  1160429 
 6212000    1.3931463   -3.4686036   -1.8860177   0.20154881   -3.4686036    1.5825859  1160449 
 6213000    1.3925666   -3.4690184   -1.8871455   0.20007928   -3.4690184    1.5818729  1160489 
 6214000    1.3928553   -3.4699225   -1.8877721   0.19730092   -3.4699225    1.5821504  1160526 
 6215000    1.3919203   -3.4686944    -1.887651   0.20145164   -3.4686944    1.5810434  1160559 
 6216000    1.3937181   -3.4706484   -1.8876025   0.19809332   -3.4706484    1.5830459  1160588 
 6217000    1.3933322   -3.4705281   -1.8879602   0.19499597   -3.4705281     1.582568  1160617 
 6218000    1.3928564   -3.4698487   -1.8878662   0.20252803   -3.4698487    1.5819826  1160650 
 6219000     1.392302   -3.4698153   -1.8885033   0.20041895   -3.4698153     1.581312  1160680 
 6220000    1.3932476    -3.470681   -1.8883387   0.20175523    -3.470681    1.5823423  1160712 
 6221000    1.3950581   -3.4721848   -1.8878176   0.19324174   -3.4721848    1.5843672  1160735 
 6222000    1.3943668    -3.471538   -1.8879927   0.19642476    -3.471538    1.5835453  1160762 
 6223000    1.3926786   -3.4693305   -1.8877325   0.19970367   -3.4693305     1.581598  1160784 
 6224000    1.3924298   -3.4699056   -1.8886392   0.20365322   -3.4699056    1.5812664  1160820 
 6225000    1.3926866    -3.470468   -1.8889481   0.19542967    -3.470468    1.5815199  1160848 
 6226000    1.3938662   -3.4715226   -1.8887014   0.19910938   -3.4715226    1.5828212  1160876 
 6227000    1.3927664   -3.4703169   -1.8887799   0.19970872   -3.4703169     1.581537  1160902 
 6228000    1.3941032   -3.4712974   -1.8882737   0.19846128   -3.4712974    1.5830236  1160925 
 6229000    1.3940896   -3.4713708   -1.8884063   0.19798657   -3.4713708    1.5829645  1160957 
 6230000     1.394087   -3.4709979   -1.8880814   0.20168997   -3.4709979    1.5829166  1160990 
 6231000    1.3942935   -3.4711651     -1.88804   0.20077232   -3.4711651    1.5831251  1161009 
 6232000    1.3939346   -3.4711739   -1.8884971   0.19783503   -3.4711739    1.5826768  1161039 
 6233000    1.3932447   -3.4713058   -1.8894518   0.20083771   -3.4713058     1.581854  1161068 
 6234000    1.3937369   -3.4716958   -1.8893063    0.1927983   -3.4716958    1.5823895  1161085 
 6235000    1.3924868   -3.4702909   -1.8893616   0.19882235   -3.4702909    1.5809294  1161115 
 6236000    1.3932677   -3.4704974   -1.8887182   0.20418971   -3.4704974    1.5817792  1161142 
 6237000     1.392889   -3.4704692   -1.8891512   0.20321264   -3.4704692     1.581318  1161165 
 6238000    1.3943221   -3.4714531   -1.8885504   0.19807204   -3.4714531    1.5829027  1161196 
 6239000    1.3940386   -3.4711071   -1.8885714   0.20155866   -3.4711071    1.5825358  1161229 
 6240000    1.3947793   -3.4723619   -1.8890234    0.1977562   -3.4723619    1.5833385  1161257 
 6241000     1.394229    -3.471497   -1.8888228    0.2000127    -3.471497    1.5826743  1161286 
 6242000    1.3937624   -3.4716829   -1.8895886   0.19620396   -3.4716829    1.5820942  1161323 
 6243000    1.3933531   -3.4716956   -1.8901205   0.19759463   -3.4716956    1.5815751  1161363 
 6244000    1.3931485   -3.4717292   -1.8904326   0.19362412   -3.4717292    1.5812966  1161397 
 6245000    1.3943627   -3.4721662   -1.8895377    0.2009775   -3.4721662    1.5826285  1161431 
 6246000    1.3931483   -3.4718598   -1.8906574   0.20142328   -3.4718598    1.5812025  1161466 
 6247000    1.3947402   -3.4726352   -1.8896641    0.1974593   -3.4726352    1.5829711  1161494 
 6248000    1.3942769   -3.4721823   -1.8897725   0.20183467   -3.4721823    1.5824098  1161520 
 6249000    1.3933089   -3.4714036   -1.8901183   0.20085571   -3.4714036    1.5812853  1161539 
 6250000    1.3951153   -3.4733157    -1.890032   0.19863156   -3.4733157    1.5832837  1161577 
 6251000    1.3935353   -3.4711645    -1.889708   0.19681468   -3.4711645    1.5814565  1161602 
 6252000    1.3938025   -3.4719755   -1.8902513   0.19812496   -3.4719755    1.5817243  1161628 
 6253000    1.3942279   -3.4717993   -1.8896359    0.2021345   -3.4717993    1.5821634  1161660 
 6254000    1.3944475   -3.4726215   -1.8902579   0.19852061   -3.4726215    1.5823637  1161696 
 6255000    1.3951655   -3.4733662   -1.8902355    0.1973692   -3.4733662    1.5831307  1161731 
 6256000    1.3955743   -3.4744738   -1.8909173   0.19441769   -3.4744738    1.5835565  1161759 
 6257000    1.3955793    -3.475072   -1.8915454   0.19722428    -3.475072    1.5835266  1161785 
 6258000    1.3952806   -3.4745183   -1.8913605   0.19256342   -3.4745183    1.5831578  1161807 
 6259000    1.3946443   -3.4735911   -1.8912043    0.1976165   -3.4735911    1.5823868  1161843 
 6260000    1.3941247   -3.4738477   -1.8920804   0.20044216   -3.4738477    1.5817672  1161865 
 6261000    1.3941494   -3.4739189     -1.89217   0.19381136   -3.4739189     1.581749  1161899 
 6262000    1.3939997   -3.4738838   -1.8923619   0.20108965   -3.4738838    1.5815219  1161941 
 6263000    1.3942048    -3.473943   -1.8922182   0.19755355    -3.473943    1.5817248  1161963 
 6264000    1.3947725   -3.4746237   -1.8923053   0.19801535   -3.4746237    1.5823184  1162000 
 6265000    1.3944209    -3.473909   -1.8920304   0.19502721    -3.473909    1.5818786  1162030 
 6266000    1.3957056   -3.4749948   -1.8916982    0.1978405   -3.4749948    1.5832966  1162059 
 6267000    1.3943121   -3.4739153   -1.8922417   0.20100533   -3.4739153    1.5816735  1162090 
 6268000    1.3939892   -3.4735646   -1.8922914   0.19923697   -3.4735646    1.5812732  1162115 
 6269000    1.3955313   -3.4750542   -1.8920644   0.20010399   -3.4750542    1.5829898  1162139 
 6270000    1.3939335   -3.4735022   -1.8923697   0.20147142   -3.4735022    1.5811325  1162172 
 6271000    1.3948859    -3.474198   -1.8920137   0.20186673    -3.474198    1.5821842  1162193 
 6272000    1.3943014   -3.4735066   -1.8920085   0.20145671   -3.4735066    1.5814982  1162210 
 6273000    1.3950763   -3.4743079   -1.8919608   0.20095041   -3.4743079    1.5823471  1162232 
 6274000    1.3956764   -3.4749796    -1.892005   0.20343353   -3.4749796    1.5829746  1162271 
 6275000    1.3951898   -3.4746852   -1.8922857    0.2030217   -3.4746852    1.5823996  1162288 
 6276000    1.3954411   -3.4747029   -1.8920469   0.19654797   -3.4747029     1.582656  1162309 
 6277000    1.3955005    -3.474863     -1.89219   0.20054517    -3.474863     1.582673  1162346 
 6278000    1.3961161   -3.4752761   -1.8919403   0.20149216   -3.4752761    1.5833357  1162372 
 6279000    1.3955118   -3.4748349   -1.8922008   0.20069667   -3.4748349    1.5826341  1162384 
 6280000     1.394872   -3.4746011    -1.892728    0.1988782   -3.4746011    1.5818731  1162410 
 6281000    1.3949352   -3.4746275   -1.8927208   0.19864223   -3.4746275    1.5819067  1162438 
 6282000    1.3948091   -3.4749012   -1.8931728   0.19921778   -3.4749012    1.5817283  1162464 
 6283000    1.3951018   -3.4751112   -1.8931013   0.19711981   -3.4751112    1.5820099  1162501 
 6284000    1.3964422   -3.4763231   -1.8928246   0.19743442   -3.4763231    1.5834985  1162524 
 6285000    1.3959133   -3.4764322   -1.8935824   0.19481123   -3.4764322    1.5828498  1162560 
 6286000     1.395655    -3.475564   -1.8930465   0.19820754    -3.475564    1.5825174  1162589 
 6287000    1.3951743   -3.4757102   -1.8937977   0.20282734   -3.4757102    1.5819125  1162633 
 6288000    1.3947518    -3.474666   -1.8932829   0.19953146    -3.474666    1.5813831  1162670 
 6289000    1.3942307   -3.4746808   -1.8939239   0.20336913   -3.4746808    1.5807569  1162696 
 6290000    1.3950904   -3.4755575   -1.8938654   0.19622226   -3.4755575    1.5816921  1162725 
 6291000    1.3955244   -3.4761805    -1.894048   0.19845896   -3.4761805    1.5821325  1162763 
 6292000    1.3948572   -3.4760628   -1.8947247   0.19978629   -3.4760628     1.581338  1162791 
 6293000    1.3944951    -3.476022    -1.895123   0.19727195    -3.476022     1.580899  1162812 
 6294000    1.3946922   -3.4765847   -1.8955004   0.19527129   -3.4765847    1.5810844  1162840 
 6295000    1.3944706   -3.4763988   -1.8956051   0.19985746   -3.4763988    1.5807937  1162869 
 6296000    1.3936207   -3.4761075   -1.8963261   0.20078497   -3.4761075    1.5797814  1162905 
 6297000    1.3940104   -3.4766164   -1.8964382   0.19732724   -3.4766164    1.5801782  1162938 
 6298000    1.3946396   -3.4780437   -1.8971794   0.19538056   -3.4780437    1.5808643  1162958 
 6299000    1.3931465   -3.4772703   -1.8981406   0.19818741   -3.4772703    1.5791297  1162989 
 6300000      1.39361   -3.4776874   -1.8980853   0.19781707   -3.4776874    1.5796021  1163028 
 6301000    1.3940146   -3.4774684   -1.8974457   0.19699347   -3.4774684    1.5800227  1163056 
 6302000    1.3941073   -3.4774137    -1.897328   0.20124826   -3.4774137    1.5800856  1163087 
 6303000    1.3934974   -3.4763302   -1.8969575   0.20072711   -3.4763302    1.5793727  1163103 
 6304000    1.3945394   -3.4778803    -1.897362   0.19873373   -3.4778803    1.5805183  1163129 
 6305000    1.3951906   -3.4778928   -1.8966812   0.20159617   -3.4778928    1.5812115  1163162 
 6306000    1.3950693   -3.4779749   -1.8969403   0.20209549   -3.4779749    1.5810346  1163191 
 6307000    1.3942986   -3.4777206    -1.897592   0.20101177   -3.4777206    1.5801286  1163215 
 6308000    1.3942999   -3.4776105   -1.8975322   0.19916824   -3.4776105    1.5800784  1163253 
 6309000    1.3942786   -3.4779962   -1.8979854   0.20025654   -3.4779962    1.5800108  1163285 
 6310000    1.3944876   -3.4779455   -1.8977426    0.2008815   -3.4779455    1.5802029  1163318 
 6311000    1.3943356   -3.4780869   -1.8980943   0.19830522   -3.4780869    1.5799925  1163346 
 6312000    1.3950469   -3.4785684   -1.8978079   0.19863358   -3.4785684    1.5807605  1163374 
 6313000    1.3937196   -3.4771648   -1.8979463   0.19652766   -3.4771648    1.5792185  1163402 
 6314000    1.3941851   -3.4775993   -1.8978927   0.19953837   -3.4775993    1.5797066  1163431 
 6315000    1.3948262   -3.4785672   -1.8981477   0.19576001   -3.4785672    1.5804195  1163441 
 6316000    1.3944338   -3.4777044   -1.8977704   0.20158685   -3.4777044    1.5799341  1163471 
 6317000    1.3956949   -3.4793263   -1.8980014   0.19736428   -3.4793263    1.5813249  1163499 
 6318000     1.395859   -3.4801154   -1.8986576   0.19480119   -3.4801154    1.5814578  1163538 
 6319000    1.3938532   -3.4770784   -1.8979406   0.20066097   -3.4770784    1.5791378  1163573 
 6320000    1.3944442   -3.4778894   -1.8981296    0.1971371   -3.4778894    1.5797598  1163608 
 6321000    1.3945571   -3.4781315   -1.8982872   0.19823761   -3.4781315    1.5798442  1163640 
 6322000    1.3947612   -3.4785984     -1.89855   0.19739086   -3.4785984    1.5800484  1163660 
 6323000    1.3955792   -3.4791228   -1.8982008   0.19976606   -3.4791228     1.580922  1163699 
 6324000    1.3963305   -3.4794938   -1.8977628   0.19919891   -3.4794938     1.581731  1163730 
 6325000    1.3952194   -3.4775755   -1.8971384   0.20262784   -3.4775755     1.580437  1163756 
 6326000    1.3948817   -3.4774547   -1.8974504   0.20105022   -3.4774547    1.5800043  1163793 
 6327000    1.3949536     -3.47875   -1.8987023   0.19862754     -3.47875    1.5800477  1163821 
 6328000     1.394746   -3.4784049   -1.8986345    0.1969707   -3.4784049    1.5797705  1163852 
 6329000    1.3941605   -3.4782004   -1.8991284   0.20106299   -3.4782004     1.579072  1163878 
 6330000    1.3946201   -3.4793774   -1.8998052    0.2027076   -3.4793774    1.5795722  1163893 
 6331000    1.3956242   -3.4804391   -1.8997785   0.19952626   -3.4804391    1.5806606  1163929 
 6332000    1.3960034   -3.4807306   -1.8996677   0.19606681   -3.4807306    1.5810629  1163949 
 6333000    1.3957319   -3.4800038   -1.8992837   0.20010917   -3.4800038    1.5807201  1163975 
 6334000    1.3954095   -3.4799753   -1.8996596    0.1984292   -3.4799753    1.5803156  1164004 
 6335000    1.3950724   -3.4792712   -1.8993685   0.19984027   -3.4792712    1.5799027  1164027 
 6336000    1.3965004   -3.4808164   -1.8993333   0.19759408   -3.4808164    1.5814831  1164054 
 6337000    1.3948074    -3.478987   -1.8994524   0.20299226    -3.478987    1.5795346  1164077 
 6338000    1.3954848   -3.4796959   -1.8994226   0.20323401   -3.4796959    1.5802733  1164098 
 6339000    1.3962774   -3.4802713   -1.8991332   0.20159833   -3.4802713    1.5811382  1164122 
 6340000    1.3961587   -3.4793736   -1.8984078   0.20174033   -3.4793736    1.5809658  1164150 
 6341000    1.3971656   -3.4806334   -1.8985628    0.1979963   -3.4806334    1.5820706  1164176 
 6342000    1.3973571   -3.4805367   -1.8982954   0.19888992   -3.4805367    1.5822413  1164210 
 6343000    1.3963839   -3.4796834    -1.898574   0.19799895   -3.4796834    1.5811094  1164232 
 6344000    1.3968174    -3.480469    -1.898904    0.1966757    -3.480469     1.581565  1164258 
 6345000    1.3960244   -3.4796992   -1.8990742   0.20292402   -3.4796992     1.580625  1164289 
 6346000    1.3965294   -3.4802103   -1.8990556   0.19445851   -3.4802103    1.5811547  1164320 
 6347000    1.3961877   -3.4803003   -1.8995733   0.19835456   -3.4803003     1.580727  1164350 
 6348000    1.3957175   -3.4792439   -1.8990885   0.19716611   -3.4792439    1.5801554  1164379 
 6349000    1.3962387   -3.4799492   -1.8992458   0.19608864   -3.4799492    1.5807034  1164410 
 6350000    1.3954852   -3.4797171   -1.8998858   0.19476469   -3.4797171    1.5798313  1164424 
 6351000    1.3954959   -3.4797386   -1.8999278   0.20139359   -3.4797386    1.5798108  1164448 
 6352000    1.3955515   -3.4806757   -1.9008372   0.19722923   -3.4806757    1.5798385  1164474 
 6353000    1.3952575   -3.4797368   -1.9002746   0.19599229   -3.4797368    1.5794623  1164506 
 6354000    1.3942077   -3.4788497   -1.9006233   0.19988233   -3.4788497    1.5782264  1164541 
 6355000     1.396454   -3.4810681   -1.9003368    0.1986518   -3.4810681    1.5807313  1164569 
 6356000    1.3973718   -3.4811389    -1.899415   0.19814071   -3.4811389     1.581724  1164603 
 6357000    1.3966237   -3.4808027   -1.8999458   0.19971434   -3.4808027    1.5808568  1164618 
 6358000    1.3967637   -3.4809472   -1.8999712   0.19970506   -3.4809472    1.5809759  1164647 
 6359000    1.3968725   -3.4811444   -1.9000766   0.19725867   -3.4811444    1.5810678  1164670 
 6360000    1.3965994   -3.4811297   -1.9004254   0.20442244   -3.4811297    1.5807044  1164710 
 6361000    1.3971245   -3.4816718   -1.9004124   0.20074178   -3.4816718    1.5812594  1164739 
 6362000    1.3988454   -3.4833967   -1.9002317   0.19713706   -3.4833967     1.583165  1164770 
 6363000    1.3961906   -3.4806429   -1.9005342   0.20152788   -3.4806429    1.5801088  1164808 
 6364000    1.3958445   -3.4811029    -1.901417   0.20244205   -3.4811029    1.5796859  1164831 
 6365000    1.3958738   -3.4814076   -1.9017373   0.20230675   -3.4814076    1.5796703  1164867 
 6366000     1.397269   -3.4824326   -1.9012214   0.20036879   -3.4824326    1.5812112  1164895 
 6367000    1.3970573   -3.4831002   -1.9021653   0.20041578   -3.4831002    1.5809349  1164922 
 6368000    1.3960432   -3.4819132   -1.9021665   0.19760883   -3.4819132    1.5797467  1164952 
 6369000    1.3962091   -3.4826099   -1.9027094   0.20392124   -3.4826099    1.5799005  1164977 
 6370000    1.3963108   -3.4824731   -1.9024955   0.20321916   -3.4824731    1.5799776  1165005 
 6371000    1.3957032   -3.4818292   -1.9025798   0.19970112   -3.4818292    1.5792494  1165035 
 6372000    1.3964583    -3.482065   -1.9020059   0.20208919    -3.482065    1.5800591  1165068 
 6373000    1.3980893   -3.4839063    -1.902033   0.19661376   -3.4839063    1.5818733  1165091 
 6374000    1.3964426   -3.4822658    -1.902295   0.20093399   -3.4822658    1.5799708  1165120 
 6375000    1.3964687   -3.4823548    -1.902406   0.19925335   -3.4823548    1.5799488  1165158 
 6376000    1.3965418   -3.4825695   -1.9025693   0.19908198   -3.4825695    1.5800003  1165181 
 6377000    1.3972005   -3.4827348   -1.9020395   0.19724818   -3.4827348    1.5806953  1165218 
 6378000    1.3975001   -3.4827028   -1.9017159   0.20004912   -3.4827028    1.5809868  1165253 
 6379000    1.3981052   -3.4832364   -1.9015922   0.20126293   -3.4832364    1.5816442  1165273 
 6380000    1.3971846   -3.4816311   -1.9010663   0.20412712   -3.4816311    1.5805648  1165301 
 6381000    1.3982101   -3.4831978   -1.9015068   0.19735628   -3.4831978     1.581691  1165326 
 6382000    1.3987179   -3.4835501   -1.9013215   0.19892355   -3.4835501    1.5822287  1165353 
 6383000    1.3981033   -3.4827375   -1.9012542   0.20143979   -3.4827375    1.5814833  1165390 
 6384000    1.3973998   -3.4824392   -1.9017829   0.20139953   -3.4824392    1.5806563  1165413 
 6385000    1.3966916   -3.4814349   -1.9016189   0.20199284   -3.4814349     1.579816  1165442 
 6386000     1.397666   -3.4822891   -1.9014184   0.19697378   -3.4822891    1.5808706  1165477 
 6387000    1.3977701   -3.4819706   -1.9010243   0.19925574   -3.4819706    1.5809463  1165508 
 6388000    1.3978859   -3.4828252   -1.9017832   0.19944981   -3.4828252     1.581042  1165534 
 6389000    1.3983805   -3.4834739   -1.9019254    0.1984607   -3.4834739    1.5815485  1165573 
 6390000    1.3989669   -3.4834517   -1.9012712   0.20010045   -3.4834517    1.5821805  1165596 
 6391000    1.3985994   -3.4837231   -1.9019935   0.20251307   -3.4837231    1.5817296  1165622 
 6392000    1.3978654   -3.4837791   -1.9029122   0.20171322   -3.4837791    1.5808669  1165646 
 6393000    1.3969532   -3.4838908   -1.9040868   0.20204771   -3.4838908    1.5798041  1165669 
 6394000    1.3960951   -3.4834609    -1.904672   0.20256405   -3.4834609     1.578789  1165702 
 6395000    1.3972984   -3.4845595   -1.9044545   0.20011678   -3.4845595     1.580105  1165735 
 6396000    1.3974069   -3.4840023   -1.9038248   0.20113309   -3.4840023    1.5801775  1165772 
 6397000    1.3980188   -3.4846932   -1.9038576   0.20095387   -3.4846932    1.5808356  1165797 
 6398000    1.3979792   -3.4852894   -1.9045475   0.20452441   -3.4852894     1.580742  1165833 
 6399000    1.3966018   -3.4842871   -1.9051283   0.19961422   -3.4842871    1.5791588  1165852 
 6400000    1.3968908   -3.4847394   -1.9052864   0.19732007   -3.4847394     1.579453  1165876 
 6401000    1.3965719   -3.4845874   -1.9055261   0.20378441   -3.4845874    1.5790614  1165899 
 6402000    1.3977292   -3.4859081   -1.9055775   0.19910223   -3.4859081    1.5803306  1165928 
 6403000    1.3970475   -3.4851911   -1.9056747   0.20328674   -3.4851911    1.5795164  1165960 
 6404000    1.3967451   -3.4851124    -1.905969   0.19703272   -3.4851124    1.5791434  1165983 
 6405000    1.3961272   -3.4839715   -1.9055849   0.20505987   -3.4839715    1.5783865  1166026 
 6406000    1.3971897   -3.4850778   -1.9055442   0.19884678   -3.4850778    1.5795336  1166066 
 6407000    1.3971734   -3.4854361   -1.9059683    0.2040293   -3.4854361    1.5794678  1166101 
 6408000    1.3976392   -3.4854195   -1.9054658   0.20080842   -3.4854195    1.5799537  1166131 
 6409000    1.3978114   -3.4856614   -1.9055605   0.20081094   -3.4856614    1.5801009  1166166 
 6410000    1.3978948   -3.4861298   -1.9059779   0.19945607   -3.4861298    1.5801518  1166198 
 6411000    1.3970077   -3.4852817   -1.9061678   0.20399269   -3.4852817    1.5791139  1166224 
 6412000    1.3964637    -3.485231   -1.9067942   0.19643614    -3.485231    1.5784368  1166270 
 6413000    1.3961703   -3.4851286   -1.9070506   0.19432404   -3.4851286     1.578078  1166290 
 6414000    1.3972551   -3.4859677    -1.906692   0.19922746   -3.4859677    1.5792757  1166311 
 6415000    1.3973308   -3.4862768   -1.9069548   0.19979618   -3.4862768     1.579322  1166340 
 6416000    1.3966445   -3.4858446   -1.9073335   0.19589258   -3.4858446    1.5785111  1166366 
 6417000    1.3961649   -3.4851188   -1.9071944   0.20306282   -3.4851188    1.5779245  1166399 
 6418000    1.3976435   -3.4866681   -1.9070996   0.20063893   -3.4866681    1.5795685  1166419 
 6419000    1.3973544   -3.4856004   -1.9064021   0.20278176   -3.4856004    1.5791984  1166451 
 6420000    1.3984538   -3.4857845   -1.9053938   0.19899938   -3.4857845    1.5803907  1166488 
 6421000    1.3981989   -3.4856518   -1.9055816   0.20444755   -3.4856518    1.5800701  1166512 
 6422000    1.3989618    -3.486501   -1.9056243   0.20680553    -3.486501    1.5808767  1166553 
 6423000    1.3985108   -3.4858698   -1.9055515    0.2087748   -3.4858698    1.5803183  1166589 
 6424000    1.3986894   -3.4859927   -1.9054997   0.20375291   -3.4859927    1.5804931  1166609 
 6425000    1.3984736   -3.4857429   -1.9055263   0.20167365   -3.4857429    1.5802166  1166633 
 6426000    1.3983796    -3.486089   -1.9060137   0.20638444    -3.486089    1.5800753  1166659 
 6427000    1.3980399   -3.4861189   -1.9064654    0.2072666   -3.4861189    1.5796535  1166687 
 6428000    1.3983795   -3.4876217   -1.9076346   0.20079752   -3.4876217    1.5799871  1166724 
 6429000    1.3988494   -3.4876621   -1.9071942   0.19907516   -3.4876621    1.5804679  1166761 
 6430000      1.39755    -3.486261   -1.9073261   0.20440246    -3.486261    1.5789349  1166809 
 6431000    1.3984629   -3.4873572   -1.9074315   0.20258607   -3.4873572    1.5799256  1166839 
 6432000    1.3976203   -3.4856662    -1.906729    0.2058941   -3.4856662    1.5789372  1166866 
 6433000    1.3988787   -3.4878947    -1.907567   0.20028842   -3.4878947    1.5803277  1166889 
 6434000    1.3982617   -3.4869271    -1.907333   0.19913008   -3.4869271    1.5795941  1166916 
 6435000     1.398271   -3.4880095   -1.9084347   0.20310172   -3.4880095    1.5795748  1166938 
 6436000    1.3978811   -3.4876114   -1.9085109     0.199911   -3.4876114    1.5791005  1166963 
 6437000    1.3995673   -3.4887336    -1.907773   0.20205594   -3.4887336    1.5809606  1166996 
 6438000    1.3985054   -3.4877429   -1.9080211   0.19698705   -3.4877429    1.5797219  1167025 
 6439000    1.3974076   -3.4855304   -1.9070824   0.20656938   -3.4855304    1.5784479  1167050 
 6440000    1.3976359   -3.4863448   -1.9076864   0.20370737   -3.4863448    1.5786585  1167085 
 6441000     1.398979   -3.4880205   -1.9078775   0.20448023   -3.4880205    1.5801431  1167109 
 6442000    1.3986469   -3.4876495   -1.9079248   0.20073056   -3.4876495    1.5797247  1167141 
 6443000     1.398711   -3.4872889   -1.9075257   0.19855799   -3.4872889    1.5797632  1167166 
 6444000    1.3986451   -3.4874656   -1.9078216   0.20178768   -3.4874656     1.579644  1167199 
 6445000    1.3975756   -3.4866959   -1.9082908   0.20229541   -3.4866959    1.5784051  1167222 
 6446000    1.3977039   -3.4878043   -1.9092895   0.20119311   -3.4878043    1.5785149  1167248 
 6447000     1.399037   -3.4888452   -1.9088655   0.20041422   -3.4888452    1.5799797  1167278 
 6448000    1.3979188   -3.4881911   -1.9094958   0.20010925   -3.4881911    1.5786953  1167294 
 6449000    1.3980849   -3.4881454   -1.9092909   0.19948076   -3.4881454    1.5788545  1167315 
 6450000    1.3982033   -3.4886137   -1.9096526   0.20088273   -3.4886137    1.5789611  1167335 
 6451000      1.39853   -3.4881183   -1.9088288   0.20126708   -3.4881183    1.5792895  1167365 
 6452000    1.3972957   -3.4869636   -1.9090909   0.20377829   -3.4869636    1.5778726  1167382 
 6453000    1.3989899   -3.4890549   -1.9093123   0.20089623   -3.4890549    1.5797425  1167414 
 6454000    1.3981895   -3.4885091   -1.9097164   0.19840939   -3.4885091    1.5787927  1167448 
 6455000    1.3983212   -3.4885617     -1.90965   0.20187858   -3.4885617    1.5789117  1167470 
 6456000    1.3984557   -3.4887631    -1.909732   0.20240645   -3.4887631    1.5790311  1167494 
 6457000    1.3986913   -3.4890186    -1.909762    0.2023442   -3.4890186    1.5792565  1167524 
 6458000    1.3986529   -3.4892004   -1.9100359   0.20357182   -3.4892004    1.5791645  1167560 
 6459000    1.3988448   -3.4889425   -1.9096113    0.2054318   -3.4889425    1.5793311  1167597 
 6460000    1.3991733   -3.4897328   -1.9100605   0.20272299   -3.4897328    1.5796722  1167619 
 6461000    1.3988749   -3.4896878   -1.9103958   0.20512552   -3.4896878    1.5792921  1167651 
 6462000     1.400026   -3.4902139   -1.9096616   0.19960405   -3.4902139    1.5805524  1167680 
 6463000    1.3989047   -3.4886866   -1.9094393   0.20418574   -3.4886866    1.5792473  1167709 
 6464000    1.4000236   -3.4900433     -1.90956   0.20117321   -3.4900433    1.5804833  1167729 
 6465000    1.3989057   -3.4883539   -1.9091637   0.20711648   -3.4883539    1.5791902  1167752 
 6466000    1.4002459   -3.4900317   -1.9093611   0.19969461   -3.4900317    1.5806706  1167776 
 6467000    1.4000929   -3.4901075   -1.9096529   0.20146207   -3.4901075    1.5804546  1167808 
 6468000    1.3989294   -3.4896552   -1.9105586   0.20204021   -3.4896552    1.5790967  1167841 
 6469000    1.3977484   -3.4882235   -1.9105031   0.20159171   -3.4882235    1.5777204  1167873 
 6470000    1.3996064    -3.490334   -1.9105665   0.20029203    -3.490334    1.5797675  1167910 
 6471000    1.3996049   -3.4899106   -1.9101867    0.1989366   -3.4899106    1.5797239  1167941 
 6472000    1.3993061   -3.4900429   -1.9107036   0.19930943   -3.4900429    1.5793393  1167976 
 6473000    1.3988798   -3.4899524   -1.9111442   0.20323233   -3.4899524    1.5788082  1168013 
 6474000    1.3998616   -3.4908585   -1.9109721   0.19659058   -3.4908585    1.5798864  1168035 
 6475000    1.3988613   -3.4902567   -1.9115452   0.20032479   -3.4902567    1.5787115  1168069 
 6476000    1.3998253   -3.4904188   -1.9106571   0.20330791   -3.4904188    1.5797617  1168097 
 6477000    1.4009533   -3.4907919   -1.9097925   0.20340192   -3.4907919    1.5809994  1168123 
 6478000    1.4000324   -3.4903053   -1.9103844    0.2019928   -3.4903053    1.5799209  1168152 
 6479000    1.3988686   -3.4892676   -1.9106843   0.20328182   -3.4892676    1.5785833  1168170 
 6480000    1.4004947   -3.4909384   -1.9105716   0.19770054   -3.4909384    1.5803669  1168208 
 6481000    1.3998301   -3.4904801   -1.9108983   0.20061537   -3.4904801    1.5795817  1168234 
 6482000    1.4010151    -3.492636   -1.9117523   0.19765111    -3.492636    1.5808837  1168260 
 6483000    1.4000124   -3.4918202   -1.9121139   0.20117844   -3.4918202    1.5797063  1168294 
 6484000    1.3996117   -3.4914663    -1.912262   0.20048919   -3.4914663    1.5792043  1168331 
 6485000    1.3994452   -3.4913472     -1.91237    0.2013407   -3.4913472    1.5789772  1168360 
 6486000    1.3996571   -3.4920305   -1.9128521   0.20034739   -3.4920305    1.5791783  1168388 
 6487000    1.3989891   -3.4910652   -1.9126824    0.2062015   -3.4910652    1.5783829  1168419 
 6488000    1.3992049   -3.4914304   -1.9128459   0.19986123   -3.4914304    1.5785845  1168450 
 6489000     1.399236   -3.4910569    -1.912459   0.20406468   -3.4910569    1.5785979  1168466 
 6490000    1.4005661     -3.49288   -1.9128248    0.2008001     -3.49288    1.5800552  1168498 
 6491000    1.3992351   -3.4917515   -1.9132371   0.20137088   -3.4917515    1.5785144  1168527 
 6492000     1.399856   -3.4920779   -1.9129035   0.19727949   -3.4920779    1.5791743  1168557 
 6493000      1.39929   -3.4918746   -1.9133711   0.20497335   -3.4918746    1.5785035  1168581 
 6494000    1.4003564   -3.4924421   -1.9127775   0.20302225   -3.4924421    1.5796645  1168612 
 6495000    1.3996102   -3.4916557   -1.9128586   0.20264143   -3.4916557    1.5787971  1168631 
 6496000    1.4007259   -3.4926644   -1.9126642   0.20098679   -3.4926644    1.5800002  1168672 
 6497000    1.4003573   -3.4913373   -1.9118043   0.20280821   -3.4913373     1.579533  1168710 
 6498000    1.4011623   -3.4922511   -1.9118425   0.19726723   -3.4922511    1.5804086  1168734 
 6499000    1.4015704   -3.4927501   -1.9119109   0.20096322   -3.4927501    1.5808392  1168756 
 6500000    1.4005947   -3.4918162   -1.9121099   0.20202532   -3.4918162    1.5797063  1168780 
 6501000    1.4002831   -3.4920431   -1.9127234   0.19910539   -3.4920431    1.5793197  1168806 
 6502000    1.3992305   -3.4906787   -1.9126002   0.20379253   -3.4906787    1.5780785  1168846 
 6503000    1.4002142   -3.4921892   -1.9130486   0.19988961   -3.4921892    1.5791406  1168881 
 6504000    1.4008567   -3.4927786   -1.9129634   0.19901196   -3.4927786    1.5798152  1168918 
 6505000    1.3997283   -3.4910364   -1.9125315   0.20223659   -3.4910364    1.5785049  1168946 
 6506000    1.4009619   -3.4929614   -1.9131033   0.19983043   -3.4929614    1.5798582  1168974 
 6507000    1.4006944   -3.4932808    -1.913773   0.19995255   -3.4932808    1.5795078  1169010 
 6508000    1.3999274   -3.4917249   -1.9131103   0.20115168   -3.4917249    1.5786146  1169031 
 6509000     1.401094   -3.4936799   -1.9137769   0.19996912   -3.4936799    1.5799031  1169051 
 6510000    1.4002446   -3.4925569   -1.9136589   0.20256621   -3.4925569     1.578898  1169086 
 6511000    1.4011972   -3.4936486   -1.9137075   0.19980963   -3.4936486     1.579941  1169109 
 6512000    1.4011131   -3.4934699   -1.9136547    0.1996908   -3.4934699    1.5798151  1169132 
 6513000    1.4024971   -3.4944554   -1.9131217   0.19952141   -3.4944554    1.5813337  1169163 
 6514000    1.4008128   -3.4929477   -1.9135454   0.20589553   -3.4929477    1.5794023  1169187 
 6515000    1.4017666   -3.4931513   -1.9127156   0.20497525   -3.4931513    1.5804357  1169218 
 6516000    1.4017711   -3.4933963   -1.9129893   0.20440067   -3.4933963     1.580407  1169243 
 6517000    1.4017302   -3.4936495   -1.9133143   0.20337637   -3.4936495    1.5803352  1169262 
 6518000    1.4016981   -3.4937048   -1.9134382   0.20479098   -3.4937048    1.5802666  1169286 
 6519000    1.4012566   -3.4938825   -1.9141529   0.20526767   -3.4938825    1.5797296  1169315 
 6520000    1.4004307   -3.4935185   -1.9147537    0.2069666   -3.4935185    1.5787649  1169340 
 6521000    1.4012923     -3.49418   -1.9144911   0.20153318     -3.49418    1.5796889  1169375 
 6522000    1.4000823   -3.4929513   -1.9146657   0.19886195   -3.4929513    1.5782857  1169404 
 6523000    1.4001128   -3.4934551   -1.9151594   0.20597992   -3.4934551    1.5782957  1169422 
 6524000      1.39997   -3.4935305   -1.9154187   0.20868059   -3.4935305    1.5781119  1169439 
 6525000    1.4010686   -3.4950386    -1.915733   0.20207297   -3.4950386    1.5793056  1169472 
 6526000    1.4005335    -3.494467   -1.9157969   0.20130168    -3.494467    1.5786701  1169496 
 6527000    1.3994008    -3.493906   -1.9165505   0.20359874    -3.493906    1.5773556  1169524 
 6528000    1.4007799   -3.4945145   -1.9156274   0.19711832   -3.4945145    1.5788871  1169541 
 6529000    1.4017746   -3.4957377   -1.9157808   0.19855882   -3.4957377    1.5799569  1169579 
 6530000    1.4007582   -3.4946371   -1.9158797   0.20351718   -3.4946371    1.5787573  1169619 
 6531000    1.4007113   -3.4945694   -1.9159094    0.1981094   -3.4945694      1.57866  1169652 
 6532000    1.4016222   -3.4955676   -1.9159188   0.19705426   -3.4955676    1.5796488  1169680 
 6533000    1.4012519   -3.4947642   -1.9155773   0.19702822   -3.4947642    1.5791869  1169713 
 6534000    1.4013823   -3.4945643   -1.9152737   0.20007756   -3.4945643    1.5792906  1169745 
 6535000    1.4008214   -3.4937467   -1.9151287   0.20368057   -3.4937467     1.578618  1169775 
 6536000    1.4017664   -3.4951427   -1.9154894   0.20445416   -3.4951427    1.5796533  1169797 
 6537000    1.4011537   -3.4944488   -1.9155238    0.2059553   -3.4944488     1.578925  1169825 
 6538000    1.4008028   -3.4941713   -1.9156714    0.2061036   -3.4941713    1.5784999  1169847 
 6539000    1.4007904   -3.4946518   -1.9162239   0.20406913   -3.4946518    1.5784279  1169890 
 6540000    1.4004938   -3.4948365   -1.9167926   0.20185033   -3.4948365    1.5780438  1169927 
 6541000    1.4005979   -3.4944131   -1.9162803   0.20107815   -3.4944131    1.5781327  1169948 
 6542000    1.4009669   -3.4956815   -1.9171654   0.20104499   -3.4956815    1.5785161  1169972 
 6543000    1.4004384   -3.4945488   -1.9166673   0.20524378   -3.4945488    1.5778815  1170001 
 6544000    1.4016498   -3.4958169   -1.9166271   0.20287151   -3.4958169    1.5791898  1170043 
 6545000     1.402271   -3.4956336   -1.9157831   0.20470854   -3.4956336    1.5798505  1170072 
 6546000    1.4023891   -3.4955345   -1.9155902   0.20801404   -3.4955345    1.5799444  1170101 
 6547000    1.4017805   -3.4948573   -1.9156444   0.20357563   -3.4948573    1.5792129  1170135 
 6548000    1.4016049   -3.4959447   -1.9169607   0.20480878   -3.4959447     1.578984  1170158 
 6549000    1.4016099   -3.4958651   -1.9169133   0.20335544   -3.4958651    1.5789519  1170186 
 6550000    1.4018137   -3.4960431   -1.9168967   0.20472892   -3.4960431    1.5791464  1170212 
 6551000    1.4026155   -3.4968315    -1.916825   0.20231845   -3.4968315    1.5800064  1170244 
 6552000    1.4021114   -3.4964308   -1.9170328   0.20248479   -3.4964308     1.579398  1170274 
 6553000    1.4021012    -3.496526   -1.9171665   0.19744141    -3.496526    1.5793595  1170294 
 6554000     1.400822   -3.4958835    -1.918012   0.20248201   -3.4958835    1.5778715  1170329 
 6555000    1.4003721    -3.495536   -1.9182172   0.20300225    -3.495536    1.5773189  1170363 
 6556000    1.4006953   -3.4953476   -1.9177105   0.20456549   -3.4953476    1.5776371  1170397 
 6557000    1.4015269   -3.4966653   -1.9181375   0.19996071   -3.4966653    1.5785278  1170431 
 6558000    1.4001715   -3.4951761   -1.9182165   0.20554712   -3.4951761    1.5769596  1170462 
 6559000    1.4016447   -3.4970313   -1.9184436   0.19770604   -3.4970313    1.5785877  1170485 
 6560000    1.4015868    -3.496812   -1.9183245   0.20137415    -3.496812    1.5784875  1170511 
 6561000    1.4033307   -3.4979327   -1.9175299   0.19866066   -3.4979327    1.5804028  1170547 
 6562000      1.40221   -3.4969855    -1.917896   0.20223027   -3.4969855    1.5790895  1170585 
 6563000    1.4014814   -3.4966063   -1.9183657   0.20496906   -3.4966063    1.5782406  1170606 
 6564000    1.4023963    -3.497786   -1.9185637   0.20391532    -3.497786    1.5792223  1170642 
 6565000    1.4025484   -3.4976565   -1.9183101   0.20212278   -3.4976565    1.5793464  1170677 
 6566000    1.4033128   -3.4980789   -1.9179189   0.20055619   -3.4980789      1.58016  1170712 
 6567000    1.4019434   -3.4970517   -1.9184606   0.20381943   -3.4970517     1.578591  1170732 
 6568000    1.4028575   -3.4984738   -1.9188832   0.20004125   -3.4984738    1.5795906  1170754 
 6569000    1.4020816   -3.4973247   -1.9186415   0.20334586   -3.4973247    1.5786832  1170779 
 6570000    1.4016943   -3.4969135    -1.918696   0.20515692   -3.4969135    1.5782175  1170801 
 6571000    1.4022227    -3.497503   -1.9187486   0.20051602    -3.497503    1.5787544  1170844 
 6572000    1.4025679   -3.4974271   -1.9183217   0.20727626   -3.4974271    1.5791053  1170872 
 6573000    1.4030284   -3.4985242   -1.9189342   0.20289708   -3.4985242      1.57959  1170897 
 6574000    1.4033481   -3.4990194   -1.9191018   0.20480367   -3.4990194    1.5799176  1170921 
 6575000    1.4031745   -3.4993192   -1.9196253   0.20048591   -3.4993192    1.5796939  1170942 
 6576000     1.401581   -3.4978146   -1.9199646   0.20208647   -3.4978146      1.57785  1170979 
 6577000    1.4036832   -3.4992151   -1.9190255   0.20086401   -3.4992151    1.5801896  1170999 
 6578000    1.4018778    -3.497938   -1.9198212   0.20064539    -3.497938    1.5781168  1171029 
 6579000    1.4021663   -3.4987307   -1.9203241   0.20180974   -3.4987307    1.5784065  1171055 
 6580000    1.4008861    -3.497352   -1.9204149   0.20758877    -3.497352    1.5769371  1171076 
 6581000    1.4023473   -3.4985124   -1.9199763   0.20408935   -3.4985124    1.5785361  1171110 
 6582000    1.4029914   -3.4980717   -1.9188456   0.20495289   -3.4980717    1.5792261  1171136 
 6583000    1.4016543   -3.4974123   -1.9197237   0.20436637   -3.4974123    1.5776886  1171160 
 6584000    1.4027307    -3.498694   -1.9198287   0.20562766    -3.498694    1.5788652  1171186 
 6585000    1.4024827   -3.4982798   -1.9197328   0.20254877   -3.4982798     1.578547  1171215 
 6586000    1.4014828   -3.4974249   -1.9200371   0.20343781   -3.4974249    1.5773879  1171240 
 6587000    1.4025166   -3.4986281    -1.920109   0.20689978   -3.4986281    1.5785192  1171264 
 6588000    1.4022243   -3.4985989    -1.920437   0.20211051   -3.4985989    1.5781618  1171285 
 6589000    1.4020937   -3.4982943   -1.9203184   0.20525033   -3.4982943    1.5779758  1171314 
 6590000    1.4029154   -3.4992377   -1.9203749   0.19971083   -3.4992377    1.5788628  1171342 
 6591000    1.4023907   -3.4987307   -1.9205002   0.20409361   -3.4987307    1.5782305  1171373 
 6592000    1.4034533   -3.4993836   -1.9199856   0.20152306   -3.4993836     1.579398  1171394 
 6593000    1.4035852   -3.4998647   -1.9203708   0.20335312   -3.4998647    1.5794939  1171433 
 6594000    1.4035047   -3.5002542   -1.9208752   0.20354711   -3.5002542     1.579379  1171451 
 6595000    1.4030832   -3.4999656   -1.9210878   0.20434253   -3.4999656    1.5788778  1171471 
 6596000    1.4015191   -3.4985563   -1.9214736   0.20380344   -3.4985563    1.5770827  1171497 
 6597000    1.4017168   -3.4988403   -1.9215661   0.20557942   -3.4988403    1.5772742  1171520 
 6598000    1.4020369   -3.4991662   -1.9215547   0.20545808   -3.4991662    1.5776114  1171537 
 6599000    1.4028615   -3.5001539   -1.9216415   0.20265659   -3.5001539    1.5785124  1171557 
 6600000    1.4022972   -3.5002898   -1.9224501   0.20372286   -3.5002898    1.5778397  1171585 
 6601000    1.4026575   -3.4999378   -1.9217075    0.2031576   -3.4999378    1.5782303  1171596 
 6602000    1.4009609   -3.4990021   -1.9227238   0.20357805   -3.4990021    1.5762783  1171628 
 6603000    1.4016824   -3.4998379   -1.9227787    0.2040637   -3.4998379    1.5770591  1171651 
 6604000    1.4015765   -3.4995277   -1.9226241   0.20194496   -3.4995277    1.5769036  1171678 
 6605000    1.4013077   -3.4992936   -1.9227233   0.20405933   -3.4992936    1.5765703  1171701 
 6606000    1.4003251   -3.4987554   -1.9233189   0.20787382   -3.4987554    1.5754365  1171722 
 6607000    1.4024149   -3.5009493   -1.9231993   0.19632686   -3.5009493      1.57775  1171750 
 6608000    1.4011931   -3.4994062   -1.9230604   0.20533544   -3.4994062    1.5763458  1171772 
 6609000    1.4010791   -3.4992106   -1.9230132   0.20546615   -3.4992106    1.5761974  1171787 
 6610000    1.4015842   -3.5005756    -1.923845   0.20256791   -3.5005756    1.5767306  1171813 
 6611000    1.4016533   -3.5003783    -1.923613   0.20249676   -3.5003783    1.5767653  1171845 
 6612000    1.4012837   -3.4993696   -1.9230591   0.20322628   -3.4993696    1.5763105  1171874 
 6613000    1.4031278   -3.5013841   -1.9230355   0.19886611   -3.5013841    1.5783486  1171901 
 6614000    1.4034302   -3.5015004   -1.9228453   0.20624699   -3.5015004    1.5786551  1171926 
 6615000    1.4024564    -3.499668   -1.9221351   0.21258391    -3.499668    1.5775328  1171946 
 6616000    1.4024977   -3.5003779   -1.9228148   0.20782389   -3.5003779     1.577563  1171958 
 6617000    1.4014587    -3.499598   -1.9232225    0.2057213    -3.499598    1.5763756  1171972 
 6618000    1.4034812   -3.5014297   -1.9227955   0.20364561   -3.5014297    1.5786343  1171984 
 6619000    1.4030334    -3.501679   -1.9235821    0.1980341    -3.501679     1.578097  1172009 
 6620000    1.4031806   -3.5017588   -1.9235474   0.20398086   -3.5017588    1.5782114  1172047 
 6621000    1.4035915    -3.501603   -1.9229536    0.1999712    -3.501603    1.5786493  1172065 
 6622000    1.4016935   -3.5004162   -1.9239393   0.20710874   -3.5004162    1.5764769  1172093 
 6623000    1.4037939   -3.5029767   -1.9241846   0.20149146   -3.5029767    1.5787921  1172128 
 6624000    1.4021997   -3.5009326   -1.9239671   0.20385166   -3.5009326    1.5769655  1172153 
 6625000    1.4026678   -3.5021224   -1.9246641   0.20221373   -3.5021224    1.5774583  1172178 
 6626000    1.4019497   -3.5008341   -1.9242184   0.20690809   -3.5008341    1.5766157  1172204 
 6627000    1.4023891   -3.5018767   -1.9248125   0.20011236   -3.5018767    1.5770642  1172238 
 6628000    1.4039251   -3.5029327   -1.9241777   0.19900936   -3.5029327    1.5787551  1172265 
 6629000    1.4020113   -3.5003744   -1.9238064   0.20314614   -3.5003744     1.576568  1172291 
 6630000    1.4027638    -3.501269   -1.9238924   0.20566788    -3.501269    1.5773766  1172319 
 6631000     1.404573    -3.502772   -1.9233893   0.20107989    -3.502772    1.5793826  1172340 
 6632000    1.4034421   -3.5020877   -1.9240143   0.20120867   -3.5020877    1.5780733  1172368 
 6633000    1.4025016   -3.5019241   -1.9249325   0.19985761   -3.5019241    1.5769915  1172386 
 6634000    1.4018079   -3.5010493   -1.9248834   0.20490663   -3.5010493    1.5761658  1172420 
 6635000    1.4025792   -3.5025295   -1.9255368   0.20296893   -3.5025295    1.5769927  1172450 
 6636000    1.4031963    -3.503496   -1.9258525   0.20116809    -3.503496    1.5776435  1172482 
 6637000    1.4022944   -3.5031736   -1.9265926   0.20039753   -3.5031736     1.576581  1172518 
 6638000    1.4010769   -3.5022682   -1.9270774   0.20673183   -3.5022682    1.5751908  1172534 
 6639000    1.4015409   -3.5024455   -1.9267815   0.20252698   -3.5024455     1.575664  1172570 
 6640000    1.4018032   -3.5024633    -1.926546    0.2005523   -3.5024633    1.5759173  1172601 
 6641000    1.4017297   -3.5030828   -1.9272831   0.20359268   -3.5030828    1.5757997  1172627 
 6642000    1.4018309    -3.503228   -1.9273562   0.20574496    -3.503228    1.5758718  1172658 
 6643000    1.4018609   -3.5027548   -1.9268856   0.20489084   -3.5027548    1.5758692  1172685 
 6644000    1.4014264   -3.5025102    -1.927167   0.20645667   -3.5025102    1.5753432  1172713 
 6645000    1.4013837    -3.502627   -1.9273667   0.20244572    -3.502627    1.5752602  1172739 
 6646000      1.40323   -3.5044165   -1.9271118   0.20240533   -3.5044165    1.5773047  1172762 
 6647000    1.4016721   -3.5032036    -1.927689   0.20743897   -3.5032036    1.5755146  1172791 
 6648000    1.4031412   -3.5049708   -1.9278291   0.20124654   -3.5049708    1.5771417  1172809 
 6649000    1.4032593   -3.5047419   -1.9275145   0.20089796   -3.5047419    1.5772274  1172844 
 6650000    1.4030108   -3.5044581   -1.9275275     0.203336   -3.5044581    1.5769306  1172857 
 6651000    1.4028567   -3.5044295   -1.9277111   0.20540904   -3.5044295    1.5767184  1172886 
 6652000    1.4044106   -3.5056441   -1.9272183   0.20328256   -3.5056441    1.5784258  1172915 
 6653000    1.4029775   -3.5038715   -1.9270845   0.20402396   -3.5038715    1.5767869  1172936 
 6654000    1.4028271   -3.5042154    -1.927627   0.20384069   -3.5042154    1.5765883  1172958 
 6655000    1.4032517    -3.504982   -1.9279581   0.20037328    -3.504982    1.5770239  1172989 
 6656000     1.402903   -3.5042825   -1.9276935   0.20038961   -3.5042825    1.5765889  1173021 
 6657000    1.4027684   -3.5046585   -1.9282476     0.205255   -3.5046585    1.5764108  1173041 
 6658000    1.4036328   -3.5052739   -1.9279253   0.20367425   -3.5052739    1.5773486  1173066 
 6659000    1.4027937   -3.5042727   -1.9279181   0.20546579   -3.5042727    1.5763546  1173104 
 6660000    1.4028047   -3.5046106   -1.9282759   0.20629175   -3.5046106    1.5763348  1173128 
 6661000    1.4041689   -3.5053594   -1.9275536   0.19782923   -3.5053594    1.5778058  1173174 
 6662000    1.4026893   -3.5036227   -1.9275104    0.2043281   -3.5036227    1.5761123  1173197 
 6663000    1.4026677   -3.5044217   -1.9283646   0.20201933   -3.5044217    1.5760572  1173220 
 6664000    1.4015479    -3.503364      -1.9286    0.2044387    -3.503364     1.574764  1173246 
 6665000    1.4040088   -3.5051858   -1.9276891   0.20034794   -3.5051858    1.5774968  1173270 
 6666000    1.4034681   -3.5043013   -1.9274416   0.20398966   -3.5043013    1.5768597  1173292 
 6667000    1.4040462   -3.5045971   -1.9271322   0.20346689   -3.5045971    1.5774649  1173325 
 6668000    1.4036312   -3.5044957   -1.9275346    0.2044523   -3.5044957     1.576961  1173353 
 6669000    1.4030641   -3.5039799   -1.9276882   0.20499584   -3.5039799    1.5762917  1173377 
 6670000    1.4034727    -3.504722   -1.9280076   0.20038588    -3.504722    1.5767143  1173404 
 6671000    1.4043394   -3.5053386   -1.9276734   0.20051126   -3.5053386    1.5776652  1173421 
 6672000    1.4042438   -3.5059297   -1.9284189   0.19914909   -3.5059297    1.5775108  1173456 
 6673000    1.4023758   -3.5037894   -1.9284147   0.20460433   -3.5037894    1.5753747  1173484 
 6674000    1.4048487   -3.5058369   -1.9277259   0.20078801   -3.5058369    1.5781109  1173515 
 6675000    1.4031032    -3.504712   -1.9285955   0.20592613    -3.504712    1.5761166  1173540 
 6676000    1.4045721   -3.5056902   -1.9279518   0.20481667   -3.5056902    1.5777384  1173561 
 6677000    1.4049021    -3.506722   -1.9286572   0.20229678    -3.506722    1.5780647  1173594 
 6678000    1.4047671   -3.5062977   -1.9284304   0.20273289   -3.5062977    1.5778673  1173628 
 6679000    1.4043982   -3.5056689   -1.9282629   0.20636981   -3.5056689     1.577406  1173663 
 6680000    1.4047122   -3.5067718   -1.9290643    0.2063188   -3.5067718    1.5777075  1173701 
 6681000    1.4044469   -3.5060597    -1.928681   0.20533019   -3.5060597    1.5773787  1173724 
 6682000    1.4048637   -3.5059915   -1.9281904   0.20309906   -3.5059915    1.5778011  1173758 
 6683000    1.4047492    -3.506314   -1.9286698   0.20630433    -3.506314    1.5776442  1173779 
 6684000    1.4047324   -3.5068487   -1.9292582    0.2003099   -3.5068487    1.5775905  1173805 
 6685000    1.4039029   -3.5063078   -1.9296905   0.20346132   -3.5063078    1.5766173  1173836 
 6686000    1.4038371    -3.506561   -1.9300553   0.20344633    -3.506561    1.5765057  1173864 
 6687000    1.4026255   -3.5058354   -1.9307266   0.20200738   -3.5058354    1.5751089  1173891 
 6688000    1.4043107   -3.5080658   -1.9311088   0.19936844   -3.5080658     1.576957  1173924 
 6689000    1.4035824    -3.507066   -1.9309644   0.19904724    -3.507066    1.5761016  1173952 
 6690000    1.4021472   -3.5059344   -1.9314699   0.20426791   -3.5059344    1.5744645  1173971 
 6691000    1.4036074   -3.5071609   -1.9310957   0.20149769   -3.5071609    1.5760652  1174000 
 6692000    1.4035004    -3.506783   -1.9308809   0.19994009    -3.506783    1.5759021  1174032 
 6693000    1.4037302   -3.5065372   -1.9304133   0.20241738   -3.5065372    1.5761239  1174059 
 6694000    1.4027539   -3.5055045   -1.9305036   0.20587058   -3.5055045    1.5750009  1174079 
 6695000    1.4046526   -3.5074616   -1.9303692   0.20412799   -3.5074616    1.5770924  1174109 
 6696000    1.4043624   -3.5067128   -1.9299812   0.20410337   -3.5067128    1.5767316  1174135 
 6697000    1.4046166   -3.5064823   -1.9295043   0.20843653   -3.5064823    1.5769781  1174164 
 6698000    1.4056195     -3.50729   -1.9292277   0.20934185     -3.50729    1.5780624  1174195 
 6699000    1.4058441   -3.5075397   -1.9292708   0.20568961   -3.5075397    1.5782689  1174229 
 6700000    1.4060851   -3.5071005   -1.9286042   0.20594771   -3.5071005    1.5784964  1174261 
 6701000    1.4051388   -3.5070563   -1.9296598   0.20652665   -3.5070563    1.5773965  1174289 
 6702000    1.4053605   -3.5072437   -1.9296293   0.20534138   -3.5072437    1.5776144  1174312 
 6703000    1.4065876   -3.5079196   -1.9289572   0.20245505   -3.5079196    1.5789624  1174334 
 6704000    1.4069365    -3.509124   -1.9298023   0.20280514    -3.509124    1.5793217  1174358 
 6705000    1.4049411    -3.507225   -1.9301687   0.20517507    -3.507225    1.5770564  1174377 
 6706000    1.4060907   -3.5087139    -1.930394   0.20117789   -3.5087139    1.5783199  1174397 
 6707000    1.4057905   -3.5077247   -1.9297768   0.20495198   -3.5077247     1.577948  1174423 
 6708000    1.4048893    -3.506643   -1.9297455   0.20430691    -3.506643    1.5768975  1174452 
 6709000    1.4044963   -3.5072573   -1.9308318   0.20594364   -3.5072573    1.5764255  1174475 
 6710000    1.4047761   -3.5071884   -1.9304811   0.20681185   -3.5071884    1.5767073  1174499 
 6711000    1.4042306   -3.5074504   -1.9313943   0.20370089   -3.5074504    1.5760561  1174528 
 6712000    1.4050847   -3.5077245   -1.9307461   0.20375449   -3.5077245    1.5769785  1174555 
 6713000    1.4064011   -3.5087303   -1.9303214   0.19998443   -3.5087303    1.5784089  1174590 
 6714000    1.4056005   -3.5083078   -1.9308269   0.20148172   -3.5083078    1.5774809  1174612 
 6715000    1.4033234   -3.5061318   -1.9312387    0.2067021   -3.5061318    1.5748931  1174636 
 6716000    1.4056321   -3.5089566   -1.9315047   0.20314365   -3.5089566    1.5774519  1174660 
 6717000    1.4062337   -3.5087955   -1.9307035    0.2057838   -3.5087955     1.578092  1174686 
 6718000    1.4045486   -3.5075867   -1.9314206   0.20448689   -3.5075867    1.5761661  1174712 
 6719000    1.4051035   -3.5081375   -1.9313863   0.20972034   -3.5081375    1.5767512  1174740 
 6720000    1.4054821   -3.5080731   -1.9309373   0.20680066   -3.5080731    1.5771358  1174770 
 6721000    1.4054071   -3.5079637   -1.9309576   0.20756506   -3.5079637    1.5770061  1174804 
 6722000    1.4055786     -3.50819   -1.9310305   0.20226344     -3.50819    1.5771595  1174833 
 6723000    1.4060222    -3.509133   -1.9315241   0.20548207    -3.509133    1.5776089  1174869 
 6724000    1.4052032   -3.5086562    -1.932001   0.20371699   -3.5086562    1.5766551  1174895 
 6725000    1.4052199   -3.5085783    -1.931942   0.20810474   -3.5085783    1.5766363  1174923 
 6726000    1.4048512   -3.5079099   -1.9317141   0.20658765   -3.5079099    1.5761958  1174943 
 6727000    1.4063874   -3.5097729   -1.9318926   0.20677697   -3.5097729    1.5778804  1174972 
 6728000    1.4057223   -3.5094722   -1.9323716   0.20416245   -3.5094722    1.5771006  1174997 
 6729000    1.4051684   -3.5094532   -1.9330022   0.20204955   -3.5094532     1.576451  1175018 
 6730000    1.4051621   -3.5091321   -1.9327203   0.20436657   -3.5091321    1.5764118  1175042 
 6731000    1.4048111   -3.5088146   -1.9328248   0.20725572   -3.5088146    1.5759899  1175063 
 6732000    1.4060772   -3.5102068   -1.9328422    0.2028285   -3.5102068    1.5773646  1175097 
 6733000    1.4057314   -3.5099451    -1.933006    0.2058468   -3.5099451     1.576939  1175125 
 6734000    1.4060747   -3.5099994   -1.9327168   0.19948743   -3.5099994    1.5772826  1175156 
 6735000    1.4048901   -3.5092436   -1.9333141   0.21021833   -3.5092436    1.5759296  1175174 
 6736000    1.4059242   -3.5104722   -1.9334161   0.20433879   -3.5104722     1.577056  1175199 
 6737000     1.405076   -3.5099379   -1.9338736   0.20301814   -3.5099379    1.5760643  1175229 
 6738000    1.4049098   -3.5102475    -1.934403   0.19935375   -3.5102475    1.5758444  1175254 
 6739000    1.4057706   -3.5106703   -1.9338926   0.20749956   -3.5106703    1.5767777  1175278 
 6740000    1.4059205   -3.5101335   -1.9332171   0.20772393   -3.5101335    1.5769164  1175300 
 6741000    1.4053193   -3.5097839   -1.9335741   0.20997784   -3.5097839    1.5762098  1175324 
 6742000    1.4052743    -3.510153   -1.9340137   0.20594895    -3.510153    1.5761392  1175339 
 6743000    1.4054691   -3.5101128   -1.9337913   0.20746135   -3.5101128    1.5763215  1175366 
 6744000    1.4048805   -3.5088213   -1.9332042   0.20877732   -3.5088213    1.5756171  1175399 
 6745000    1.4064635   -3.5108094   -1.9334464   0.20348609   -3.5108094     1.577363  1175421 
 6746000    1.4055406   -3.5094007   -1.9331156   0.20869772   -3.5094007    1.5762851  1175453 
 6747000    1.4065441   -3.5110186   -1.9336417   0.20465481   -3.5110186    1.5773769  1175478 
 6748000    1.4057345   -3.5101347   -1.9336939   0.20800171   -3.5101347    1.5764408  1175499 
 6749000    1.4067849   -3.5103811   -1.9327972   0.20333223   -3.5103811    1.5775839  1175525 
 6750000    1.4058715   -3.5090081   -1.9324794   0.20783972   -3.5090081    1.5765287  1175548 
 6751000    1.4072554   -3.5099298   -1.9318788   0.20722448   -3.5099298     1.578051  1175570 
 6752000    1.4074577    -3.509584   -1.9313517     0.207629    -3.509584    1.5782323  1175604 
 6753000    1.4066151   -3.5096368   -1.9323802   0.20449807   -3.5096368    1.5772566  1175627 
 6754000    1.4072623   -3.5104654   -1.9325207   0.20636258   -3.5104654    1.5779447  1175655 
 6755000    1.4070542   -3.5093504   -1.9316874   0.20770745   -3.5093504    1.5776631  1175691 
 6756000    1.4071875   -3.5104019   -1.9326243   0.20605627   -3.5104019    1.5777776  1175717 
 6757000    1.4065459   -3.5102514   -1.9332213   0.20381211   -3.5102514    1.5770301  1175738 
 6758000    1.4061815   -3.5106649   -1.9340688   0.20748233   -3.5106649    1.5765961  1175757 
 6759000    1.4065781   -3.5104908   -1.9334837    0.2048188   -3.5104908    1.5770072  1175782 
 6760000    1.4062339   -3.5101402   -1.9335539   0.20878786   -3.5101402    1.5765864  1175808 
 6761000    1.4059883   -3.5099709   -1.9336907   0.20641634   -3.5099709    1.5762802  1175831 
 6762000    1.4070324   -3.5116329   -1.9342076   0.20525935   -3.5116329    1.5774253  1175850 
 6763000    1.4059824   -3.5107617   -1.9345592   0.20798361   -3.5107617    1.5762025  1175884 
 6764000    1.4063882   -3.5111755   -1.9345516   0.20691155   -3.5111755     1.576624  1175909 
 6765000    1.4054036   -3.5110711    -1.935567   0.20689489   -3.5110711    1.5755041  1175921 
 6766000    1.4070928   -3.5128711   -1.9355041   0.20281579   -3.5128711     1.577367  1175944 
 6767000    1.4058139   -3.5116279   -1.9357482   0.20807686   -3.5116279    1.5758797  1175984 
 6768000    1.4057226   -3.5115464    -1.935808   0.20929824   -3.5115464    1.5757384  1176013 
 6769000    1.4061037   -3.5124497    -1.936331   0.20492792   -3.5124497    1.5761187  1176048 
 6770000    1.4073036    -3.512951   -1.9355302   0.19964068    -3.512951    1.5774208  1176080 
 6771000    1.4068405   -3.5128137   -1.9359455   0.20552996   -3.5128137    1.5768682  1176105 
 6772000    1.4057049   -3.5120643   -1.9365239   0.20955119   -3.5120643    1.5755404  1176146 
 6773000    1.4066348   -3.5133092    -1.936752   0.20692656   -3.5133092    1.5765572  1176165 
 6774000    1.4059515   -3.5127166   -1.9369587   0.20440721   -3.5127166    1.5757579  1176190 
 6775000    1.4059737   -3.5132449    -1.937481   0.20892309   -3.5132449    1.5757639  1176204 
 6776000    1.4062339   -3.5141498   -1.9381357   0.20296797   -3.5141498    1.5760141  1176235 
 6777000     1.404897   -3.5127434   -1.9382677   0.20467337   -3.5127434    1.5744756  1176265 
 6778000    1.4060703    -3.513349   -1.9375934   0.20388868    -3.513349    1.5757557  1176291 
 6779000    1.4055636   -3.5135829   -1.9384299     0.205547   -3.5135829     1.575153  1176317 
 6780000    1.4058981    -3.513021   -1.9375306   0.20227006    -3.513021    1.5754904  1176345 
 6781000    1.4059672   -3.5129408   -1.9373971   0.20942385   -3.5129408    1.5755437  1176363 
 6782000    1.4067581   -3.5138694   -1.9374742   0.20204823   -3.5138694    1.5763952  1176389 
 6783000    1.4051904   -3.5127417   -1.9381367   0.20709349   -3.5127417     1.574605  1176414 
 6784000    1.4055681   -3.5135495   -1.9385534   0.20430249   -3.5135495    1.5749961  1176438 
 6785000    1.4061151   -3.5136096   -1.9380461   0.20852119   -3.5136096    1.5755634  1176472 
 6786000    1.4054039   -3.5125225   -1.9377974   0.20601597   -3.5125225     1.574725  1176503 
 6787000    1.4052699   -3.5126627   -1.9381186   0.20505609   -3.5126627    1.5745442  1176526 
 6788000    1.4060011    -3.513529   -1.9381978   0.20380015    -3.513529    1.5753313  1176550 
 6789000    1.4051126   -3.5125584   -1.9382521   0.20886561   -3.5125584    1.5743063  1176572 
 6790000    1.4051211   -3.5130467   -1.9387723    0.2068608   -3.5130467    1.5742744  1176603 
 6791000    1.4051257   -3.5125363   -1.9382942   0.20953896   -3.5125363    1.5742421  1176631 
 6792000    1.4070509   -3.5143119   -1.9379276   0.20435028   -3.5143119    1.5763843  1176642 
 6793000    1.4051013   -3.5127712     -1.93861   0.20604301   -3.5127712    1.5741612  1176671 
 6794000    1.4067191     -3.51437   -1.9384271   0.20117571     -3.51437    1.5759429  1176694 
 6795000    1.4059615   -3.5132207   -1.9381734    0.2065402   -3.5132207    1.5750473  1176729 
 6796000    1.4063301   -3.5141842   -1.9387641     0.203901   -3.5141842      1.57542  1176759 
 6797000    1.4063334   -3.5133363   -1.9379407   0.20781168   -3.5133363    1.5753956  1176780 
 6798000    1.4064653   -3.5139903   -1.9384925   0.20091917   -3.5139903    1.5754978  1176814 
 6799000    1.4073072   -3.5148039   -1.9384018   0.20465593   -3.5148039    1.5764021  1176843 
 6800000    1.4074476   -3.5147678   -1.9382526   0.20434944   -3.5147678    1.5765152  1176876 
 6801000    1.4068246   -3.5141484   -1.9383712   0.20596242   -3.5141484    1.5757772  1176906 
 6802000    1.4056105   -3.5132549   -1.9388737   0.20574879   -3.5132549    1.5743812  1176933 
 6803000    1.4063638   -3.5151013   -1.9399125   0.20571641   -3.5151013    1.5751888  1176960 
 6804000    1.4062139   -3.5145674   -1.9395868    0.2038544   -3.5145674    1.5749807  1176990 
 6805000    1.4078581   -3.5161728    -1.939368   0.20378264   -3.5161728    1.5768048  1177003 
 6806000    1.4082793   -3.5167442   -1.9395065   0.20398593   -3.5167442    1.5772377  1177032 
 6807000    1.4054649   -3.5135378    -1.939483   0.20957989   -3.5135378    1.5740549  1177055 
 6808000    1.4071245   -3.5151859   -1.9393099   0.20520438   -3.5151859    1.5758761  1177083 
 6809000     1.407985   -3.5151574   -1.9383511    0.2046688   -3.5151574    1.5768063  1177108 
 6810000    1.4079927   -3.5162498   -1.9394603   0.20354484   -3.5162498    1.5767894  1177127 
 6811000    1.4080022   -3.5161851   -1.9394319   0.20165213   -3.5161851    1.5767532  1177162 
 6812000     1.407819   -3.5160247   -1.9395155   0.20131304   -3.5160247    1.5765092  1177191 
 6813000    1.4085158   -3.5164753   -1.9392153   0.20321059   -3.5164753      1.57726  1177213 
 6814000    1.4073674   -3.5156005   -1.9396612   0.21008604   -3.5156005    1.5759393  1177239 
 6815000    1.4073525   -3.5154028   -1.9395191   0.20906573   -3.5154028    1.5758837  1177268 
 6816000    1.4078968   -3.5153373   -1.9388896   0.20709577   -3.5153373    1.5764477  1177302 
 6817000    1.4065384   -3.5140785   -1.9391813   0.20746719   -3.5140785    1.5748972  1177324 
 6818000     1.408079   -3.5154914   -1.9389094   0.20539171   -3.5154914     1.576582  1177354 
 6819000    1.4071283    -3.514561   -1.9390715   0.20941943    -3.514561    1.5754895  1177375 
 6820000    1.4076928   -3.5153721   -1.9392706   0.20522855   -3.5153721    1.5761015  1177390 
 6821000    1.4078864    -3.515046   -1.9387573   0.21067963    -3.515046    1.5762888  1177412 
 6822000    1.4075101   -3.5154129   -1.9395761    0.2063337   -3.5154129    1.5758367  1177435 
 6823000    1.4076952   -3.5156428   -1.9396444   0.20679302   -3.5156428    1.5759984  1177469 
 6824000      1.40868   -3.5168876   -1.9398241    0.2039751   -3.5168876    1.5770635  1177497 
 6825000    1.4074464   -3.5159985   -1.9403481   0.21020999   -3.5159985    1.5756503  1177521 
 6826000    1.4069971   -3.5157667   -1.9406395   0.20220999   -3.5157667    1.5751272  1177536 
 6827000    1.4078388   -3.5166894   -1.9406573   0.20391603   -3.5166894     1.576032  1177564 
 6828000    1.4079283   -3.5166735   -1.9405815   0.20330385   -3.5166735     1.576092  1177594 
 6829000    1.4083525   -3.5166761   -1.9401386   0.20838193   -3.5166761    1.5765375  1177616 
 6830000    1.4078856   -3.5167403   -1.9407535   0.20617292   -3.5167403    1.5759867  1177637 
 6831000     1.407758   -3.5166977   -1.9408981   0.20608929   -3.5166977    1.5757997  1177670 
 6832000    1.4070073   -3.5169037   -1.9419817   0.20336618   -3.5169037     1.574922  1177698 
 6833000    1.4085066   -3.5177946   -1.9412252   0.20786202   -3.5177946    1.5765694  1177721 
 6834000    1.4076332   -3.5177191   -1.9421554   0.20622649   -3.5177191    1.5755637  1177742 
 6835000    1.4070137   -3.5176169   -1.9427868   0.20654982   -3.5176169    1.5748302  1177772 
 6836000    1.4073522   -3.5176455   -1.9424566   0.20987665   -3.5176455    1.5751889  1177787 
 6837000    1.4079321   -3.5186539   -1.9428533   0.20460552   -3.5186539    1.5758006  1177815 
 6838000    1.4073321   -3.5180447   -1.9429423   0.20545079   -3.5180447    1.5751023  1177835 
 6839000    1.4059387   -3.5170165   -1.9435151   0.21196893   -3.5170165    1.5735014  1177866 
 6840000    1.4081759   -3.5184783   -1.9425052   0.20479764   -3.5184783    1.5759731  1177890 
 6841000     1.406966   -3.5172131   -1.9426369    0.2051757   -3.5172131    1.5745762  1177922 
 6842000    1.4077977    -3.517693   -1.9422221   0.20578877    -3.517693    1.5754709  1177949 
 6843000    1.4079613   -3.5172141   -1.9416137   0.20962257   -3.5172141    1.5756005  1177989 
 6844000    1.4071715   -3.5163317   -1.9416485     0.212102   -3.5163317    1.5746832  1178014 
 6845000    1.4091681   -3.5186862   -1.9417888   0.20942277   -3.5186862    1.5768974  1178029 
 6846000     1.408039   -3.5171453   -1.9415448   0.20771103   -3.5171453    1.5756005  1178054 
 6847000     1.408729   -3.5180666   -1.9417382   0.20843477   -3.5180666    1.5763285  1178087 
 6848000    1.4084652   -3.5181714   -1.9421556   0.20553691   -3.5181714    1.5760159  1178100 
 6849000    1.4076503   -3.5177752   -1.9427019    0.2049042   -3.5177752    1.5750733  1178123 
 6850000    1.4078106   -3.5178486    -1.942628   0.20365683   -3.5178486    1.5752205  1178147 
 6851000    1.4080043   -3.5175603   -1.9421564   0.20593553   -3.5175603    1.5754039  1178172 
 6852000    1.4072596   -3.5171083   -1.9425751   0.21012716   -3.5171083    1.5745332  1178200 
 6853000    1.4063959   -3.5167694   -1.9432305    0.2027261   -3.5167694    1.5735389  1178221 
 6854000    1.4070382   -3.5175458   -1.9433124   0.20738182   -3.5175458    1.5742334  1178239 
 6855000    1.4075316   -3.5181752   -1.9434219   0.20975763   -3.5181752    1.5747533  1178263 
 6856000    1.4085618   -3.5187235   -1.9428536   0.20334267   -3.5187235    1.5758698  1178290 
 6857000    1.4064869   -3.5164284    -1.942904    0.2083155   -3.5164284    1.5735244  1178308 
 6858000    1.4077966   -3.5179201   -1.9429585   0.20954219   -3.5179201    1.5749616  1178329 
 6859000    1.4079393   -3.5186176   -1.9435297   0.20367717   -3.5186176    1.5750878  1178354 
 6860000    1.4079686   -3.5179401   -1.9428583   0.20655809   -3.5179401    1.5750818  1178383 
 6861000    1.4075629   -3.5183961   -1.9438028   0.21103221   -3.5183961    1.5745933  1178409 
 6862000    1.4080933   -3.5184785   -1.9433388   0.21034283   -3.5184785    1.5751398  1178444 
 6863000    1.4091221   -3.5196541   -1.9433982   0.20779618   -3.5196541    1.5762559  1178470 
 6864000    1.4085231   -3.5192261   -1.9436763   0.20865701   -3.5192261    1.5755498  1178497 
 6865000    1.4081842   -3.5189546    -1.943828   0.20568818   -3.5189546    1.5751266  1178530 
 6866000    1.4090015   -3.5197714    -1.943752   0.20643616   -3.5197714    1.5760194  1178546 
 6867000    1.4091392   -3.5199614   -1.9438229   0.20887387   -3.5199614    1.5761386  1178572 
 6868000    1.4081259   -3.5200534   -1.9450856   0.20388067   -3.5200534    1.5749678  1178600 
 6869000    1.4071835   -3.5190665   -1.9451969   0.20969895   -3.5190665    1.5738697  1178633 
 6870000    1.4076596   -3.5195801   -1.9452153   0.20626645   -3.5195801    1.5743648  1178661 
 6871000    1.4072219     -3.51894   -1.9451021   0.20888349     -3.51894    1.5738378  1178689 
 6872000    1.4076898   -3.5199411   -1.9456066   0.20586169   -3.5199411    1.5743345  1178709 
 6873000    1.4075772    -3.519985   -1.9458085   0.20644697    -3.519985    1.5741765  1178733 
 6874000    1.4082044   -3.5206983   -1.9458525   0.20418673   -3.5206983    1.5748458  1178757 
 6875000    1.4075362   -3.5198235   -1.9457557   0.20476279   -3.5198235    1.5740678  1178780 
 6876000    1.4076304   -3.5189455    -1.944803   0.20954712   -3.5189455    1.5741425  1178803 
 6877000    1.4088305   -3.5200481   -1.9445876   0.20311679   -3.5200481    1.5754605  1178821 
 6878000     1.409256   -3.5208487   -1.9449458   0.20102097   -3.5208487    1.5759029  1178846 
 6879000    1.4096932   -3.5205361    -1.944175   0.20401901   -3.5205361    1.5763611  1178869 
 6880000    1.4086661   -3.5191891   -1.9440167   0.20868175   -3.5191891    1.5751724  1178899 
 6881000     1.409067   -3.5200554   -1.9444668   0.20072752   -3.5200554    1.5755886  1178923 
 6882000    1.4088512   -3.5202388   -1.9449329   0.20609429   -3.5202388    1.5753059  1178954 
 6883000    1.4092331   -3.5202771    -1.944575   0.20567838   -3.5202771    1.5757021  1178977 
 6884000    1.4090825   -3.5204964   -1.9450134   0.20606544   -3.5204964     1.575483  1179015 
 6885000    1.4087274   -3.5205698   -1.9455079   0.20605066   -3.5205698     1.575062  1179033 
 6886000    1.4077162   -3.5205961   -1.9467021   0.20584267   -3.5205961     1.573894  1179061 
 6887000    1.4080074    -3.521276   -1.9470832   0.20514396    -3.521276    1.5741929  1179081 
 6888000    1.4067551   -3.5189657   -1.9462183   0.21026852   -3.5189657    1.5727474  1179115 
 6889000    1.4085428   -3.5206795   -1.9459829   0.20798531   -3.5206795    1.5746966  1179152 
 6890000    1.4079036   -3.5209878   -1.9470539   0.20810604   -3.5209878    1.5739339  1179188 
 6891000    1.4087035   -3.5210762   -1.9462841   0.20698362   -3.5210762    1.5747921  1179215 
 6892000    1.4088469   -3.5213846   -1.9464563   0.20335415   -3.5213846    1.5749283  1179233 
 6893000    1.4086952   -3.5213767   -1.9466567    0.2050096   -3.5213767    1.5747201  1179262 
 6894000    1.4084317   -3.5209396   -1.9465555   0.20896121   -3.5209396    1.5743841  1179293 
 6895000    1.4091136   -3.5218827   -1.9467751   0.20694551   -3.5218827    1.5751077  1179322 
 6896000    1.4087911   -3.5210097   -1.9462986   0.21171729   -3.5210097    1.5747111  1179349 
 6897000    1.4087337   -3.5218391   -1.9472402    0.2100079   -3.5218391    1.5745989  1179385 
 6898000    1.4093493   -3.5226763   -1.9474161   0.20648272   -3.5226763    1.5752602  1179405 
 6899000    1.4091571   -3.5221639   -1.9471491   0.21037881   -3.5221639    1.5750147  1179428 
 6900000    1.4093155   -3.5218163   -1.9466605   0.21014243   -3.5218163    1.5751557  1179455 
 6901000    1.4089655   -3.5225399   -1.9478128   0.20627171   -3.5225399    1.5747271  1179483 
 6902000    1.4087518   -3.5226655    -1.948216   0.20465437   -3.5226655    1.5744496  1179512 
 6903000    1.4087421   -3.5219638   -1.9475599   0.20615373   -3.5219638    1.5744039  1179538 
 6904000    1.4092861   -3.5222477   -1.9472704   0.20791968   -3.5222477    1.5749773  1179564 
 6905000     1.409225   -3.5221167   -1.9472371   0.20608294   -3.5221167    1.5748796  1179586 
 6906000    1.4095393    -3.522725   -1.9475263   0.20473151    -3.522725    1.5751988  1179610 
 6907000    1.4090359   -3.5218394   -1.9472326   0.21077039   -3.5218394    1.5746068  1179632 
 6908000    1.4078779   -3.5210269   -1.9477501   0.21091683   -3.5210269    1.5732768  1179659 
 6909000     1.408333   -3.5219949   -1.9482417   0.20948356   -3.5219949    1.5737533  1179683 
 6910000    1.4088816   -3.5216929   -1.9473426   0.20851288   -3.5216929    1.5743504  1179695 
 6911000    1.4088817   -3.5219067   -1.9475882   0.20377643   -3.5219067    1.5743185  1179719 
 6912000    1.4090888   -3.5222795   -1.9477763   0.20926266   -3.5222795    1.5745032  1179754 
 6913000    1.4085015    -3.521323   -1.9475148   0.20535848    -3.521323    1.5738082  1179783 
 6914000    1.4091805   -3.5216363   -1.9470974    0.2071533   -3.5216363    1.5745389  1179804 
 6915000    1.4095179   -3.5224916   -1.9476064   0.20771915   -3.5224916    1.5748851  1179827 
 6916000    1.4094329   -3.5219939   -1.9472491   0.20650698   -3.5219939    1.5747448  1179861 
 6917000    1.4104931   -3.5229338   -1.9470419    0.2075405   -3.5229338    1.5758919  1179889 
 6918000    1.4100633   -3.5218028   -1.9464204   0.20828101   -3.5218028    1.5753824  1179911 
 6919000    1.4096934   -3.5219108   -1.9469803   0.20893479   -3.5219108    1.5749304  1179940 
 6920000    1.4105684   -3.5219501   -1.9460701   0.21278963   -3.5219501      1.57588  1179961 
 6921000    1.4100337   -3.5218895   -1.9466403   0.21051948   -3.5218895    1.5752492  1179986 
 6922000     1.410858   -3.5234617   -1.9473116   0.20706341   -3.5234617    1.5761501  1180001 
 6923000     1.409876   -3.5231513   -1.9481343   0.20789269   -3.5231513    1.5750169  1180028 
 6924000    1.4087513   -3.5221771   -1.9484473   0.20869603   -3.5221771    1.5737299  1180051 
 6925000    1.4090851   -3.5229597   -1.9488929   0.20917983   -3.5229597    1.5740667  1180078 
 6926000    1.4095734   -3.5243821   -1.9498113   0.20736174   -3.5243821    1.5745709  1180109 
 6927000    1.4105788   -3.5249814   -1.9493222   0.20090714   -3.5249814    1.5756592  1180135 
 6928000    1.4090933   -3.5229367   -1.9489702   0.20971977   -3.5229367    1.5739665  1180160 
 6929000    1.4098092   -3.5238982   -1.9491761     0.205864   -3.5238982    1.5747221  1180193 
 6930000    1.4097245   -3.5237589   -1.9491687   0.20777337   -3.5237589    1.5745902  1180221 
 6931000    1.4100013   -3.5240789   -1.9492156   0.20598404   -3.5240789    1.5748633  1180248 
 6932000    1.4101136   -3.5242712   -1.9493225   0.20756519   -3.5242712    1.5749487  1180278 
 6933000    1.4085851   -3.5223954   -1.9491966   0.21092802   -3.5223954    1.5731989  1180310 
 6934000    1.4096116   -3.5235186   -1.9492013   0.20740536   -3.5235186    1.5743173  1180331 
 6935000    1.4091624    -3.523178    -1.949393   0.20848916    -3.523178     1.573785  1180354 
 6936000    1.4085197   -3.5233911   -1.9503586   0.21247596   -3.5233911    1.5730325  1180380 
 6937000    1.4085488   -3.5234999   -1.9504695   0.21284699   -3.5234999    1.5730304  1180406 
 6938000    1.4101132   -3.5254271   -1.9506909   0.20614311   -3.5254271    1.5747362  1180437 
 6939000    1.4100816   -3.5255663   -1.9509028   0.20785797   -3.5255663    1.5746635  1180465 
 6940000    1.4085534   -3.5241473    -1.951229   0.20758173   -3.5241473    1.5729182  1180494 
 6941000    1.4091219   -3.5244784   -1.9509546   0.21176095   -3.5244784    1.5735238  1180516 
 6942000    1.4090457   -3.5246393    -1.951234   0.20728048   -3.5246393    1.5734054  1180541 
 6943000    1.4095333   -3.5244441   -1.9505222   0.21033132   -3.5244441    1.5739219  1180562 
 6944000     1.408818   -3.5241262   -1.9510391    0.2079875   -3.5241262    1.5730871  1180589 
 6945000    1.4085873   -3.5245785   -1.9517982   0.20373491   -3.5245785    1.5727802  1180626 
 6946000    1.4097374   -3.5253101   -1.9512923   0.21009898   -3.5253101    1.5740178  1180661 
 6947000    1.4096361   -3.5247013    -1.950822   0.21002347   -3.5247013    1.5738794  1180680 
 6948000    1.4100277   -3.5253544   -1.9510711    0.2087194   -3.5253544    1.5742832  1180705 
 6949000     1.408962   -3.5245719   -1.9514986   0.20805685   -3.5245719    1.5730733  1180720 
 6950000    1.4089491   -3.5245828   -1.9515531   0.20911195   -3.5245828    1.5730297  1180742 
 6951000    1.4099419   -3.5255611   -1.9514643   0.20603816   -3.5255611    1.5740968  1180773 
 6952000    1.4090437     -3.52444    -1.951382   0.21045088     -3.52444     1.573058  1180800 
 6953000    1.4098675   -3.5247927   -1.9508376   0.21008747   -3.5247927    1.5739551  1180817 
 6954000    1.4095749   -3.5256448    -1.952043    0.2079514   -3.5256448    1.5736018  1180837 
 6955000    1.4098454   -3.5262342   -1.9523532   0.21082831   -3.5262342     1.573881  1180854 
 6956000    1.4092216   -3.5261936    -1.953033   0.20657665   -3.5261936    1.5731607  1180872 
 6957000    1.4097094   -3.5268612   -1.9531932   0.20608438   -3.5268612     1.573668  1180900 
 6958000    1.4104466   -3.5277993   -1.9533458   0.20298432   -3.5277993    1.5744535  1180928 
 6959000    1.4094582   -3.5267598   -1.9534468   0.20716484   -3.5267598     1.573313  1180956 
 6960000    1.4083737   -3.5261012   -1.9540335   0.20780622   -3.5261012    1.5720677  1180982 
 6961000     1.409446   -3.5273338   -1.9541091   0.20521908   -3.5273338    1.5732247  1181012 
 6962000    1.4093204   -3.5265077   -1.9534511   0.20558103   -3.5265077    1.5730566  1181033 
 6963000    1.4102573    -3.527697   -1.9536374   0.20764584    -3.527697    1.5740596  1181065 
 6964000    1.4098688   -3.5267707   -1.9531859   0.20572114   -3.5267707    1.5735848  1181096 
 6965000    1.4096116    -3.526281   -1.9530166   0.21150087    -3.526281    1.5732644  1181121 
 6966000    1.4092014   -3.5263897   -1.9536139     0.207017   -3.5263897    1.5727758  1181144 
 6967000    1.4095686   -3.5264197   -1.9532687   0.20814667   -3.5264197     1.573151  1181170 
 6968000    1.4093047   -3.5262234   -1.9533988   0.20694639   -3.5262234    1.5728246  1181194 
 6969000    1.4098219   -3.5266578   -1.9532959    0.2077502   -3.5266578    1.5733619  1181224 
 6970000    1.4117241    -3.528524   -1.9530833    0.2060992    -3.528524    1.5754407  1181257 
 6971000    1.4117666   -3.5279438   -1.9524863   0.20571716   -3.5279438    1.5754575  1181280 
 6972000    1.4105293   -3.5264469   -1.9523982   0.20734695   -3.5264469    1.5740487  1181301 
 6973000    1.4090446    -3.525516   -1.9531547   0.20797263    -3.525516    1.5723612  1181324 
 6974000    1.4098555   -3.5264387   -1.9532058   0.20839716   -3.5264387    1.5732328  1181349 
 6975000    1.4107906   -3.5278989   -1.9536706   0.20497931   -3.5278989    1.5742284  1181385 
 6976000    1.4104645   -3.5279363   -1.9540931   0.20759539   -3.5279363    1.5738432  1181401 
 6977000    1.4088386   -3.5268025   -1.9547962   0.20776374   -3.5268025    1.5720064  1181418 
 6978000    1.4099748   -3.5282325    -1.954981   0.20243199   -3.5282325    1.5732515  1181435 
 6979000    1.4085533   -3.5264503   -1.9548155   0.20956345   -3.5264503    1.5716347  1181458 
 6980000    1.4094819   -3.5278666   -1.9552383   0.20550455   -3.5278666    1.5726283  1181490 
 6981000    1.4097152   -3.5277445   -1.9548813   0.20866903   -3.5277445    1.5728632  1181509 
 6982000    1.4096896   -3.5280563   -1.9552482   0.20496127   -3.5280563    1.5728081  1181529 
 6983000    1.4089694   -3.5265437   -1.9545617   0.20897872   -3.5265437    1.5719819  1181546 
 6984000    1.4090922   -3.5268112   -1.9547175   0.21063092   -3.5268112    1.5720937  1181565 
 6985000     1.410393   -3.5283848   -1.9548545   0.20321853   -3.5283848    1.5735303  1181576 
 6986000    1.4105991   -3.5281216      -1.9544   0.20971331   -3.5281216    1.5737216  1181605 
 6987000    1.4108539   -3.5286278   -1.9546473    0.2069804   -3.5286278    1.5739805  1181624 
 6988000    1.4101939   -3.5284024   -1.9551794   0.20779534   -3.5284024    1.5732229  1181640 
 6989000    1.4098301   -3.5282383   -1.9554517   0.20334572   -3.5282383    1.5727865  1181663 
 6990000    1.4109259   -3.5294173   -1.9554443   0.20419166   -3.5294173     1.573973  1181690 
 6991000    1.4096791   -3.5279897   -1.9554329   0.20796882   -3.5279897    1.5725568  1181709 
 6992000    1.4085822   -3.5273952   -1.9561152   0.21195532   -3.5273952      1.57128  1181749 
 6993000    1.4100978   -3.5289709   -1.9560361   0.20665807   -3.5289709    1.5729347  1181776 
 6994000     1.409311   -3.5284335   -1.9564071   0.20970214   -3.5284335    1.5720264  1181799 
 6995000     1.410044   -3.5294176   -1.9566054   0.20638101   -3.5294176    1.5728122  1181823 
 6996000    1.4090418    -3.528134   -1.9564809   0.20954576    -3.528134     1.571653  1181854 
 6997000    1.4096059   -3.5289134   -1.9566751   0.20858506   -3.5289134    1.5722383  1181887 
 6998000    1.4108433   -3.5297642   -1.9561817   0.20611112   -3.5297642    1.5735825  1181914 
 6999000     1.408803   -3.5280197   -1.9567394     0.211845   -3.5280197    1.5712803  1181934 
 7000000    1.4102861   -3.5291014   -1.9562015   0.20770358   -3.5291014    1.5728999  1181960 
 7001000    1.4098317   -3.5285517   -1.9561879   0.20779586   -3.5285517    1.5723638  1181982 
 7002000    1.4107717   -3.5297226   -1.9563411   0.20788692   -3.5297226    1.5733816  1182005 
 7003000    1.4105664   -3.5289885   -1.9558638   0.20737994   -3.5289885    1.5731247  1182026 
 7004000    1.4102281   -3.5286432   -1.9559264   0.20624742   -3.5286432    1.5727168  1182049 
 7005000    1.4110336    -3.529792   -1.9562035   0.20580193    -3.529792    1.5735885  1182069 
 7006000    1.4101051   -3.5287056   -1.9561806   0.21007179   -3.5287056     1.572525  1182090 
 7007000    1.4096326   -3.5283038   -1.9563363   0.20931246   -3.5283038    1.5719675  1182113 
 7008000     1.411525   -3.5294382    -1.955379   0.20679391   -3.5294382    1.5740592  1182127 
 7009000    1.4111756   -3.5295499   -1.9559163   0.20805567   -3.5295499    1.5736337  1182154 
 7010000    1.4105513   -3.5290781   -1.9561633   0.20763487   -3.5290781    1.5729148  1182171 
 7011000    1.4106312   -3.5291851   -1.9562265   0.21093919   -3.5291851    1.5729587  1182205 
 7012000    1.4103492   -3.5288915   -1.9562752   0.20640155   -3.5288915    1.5726163  1182226 
 7013000    1.4106356   -3.5287907   -1.9558976   0.21093228   -3.5287907     1.572893  1182258 
 7014000    1.4108402   -3.5298935   -1.9568109   0.20737402   -3.5298935    1.5730826  1182287 
 7015000    1.4107046   -3.5296389   -1.9567381   0.20702012   -3.5296389    1.5729008  1182310 
 7016000    1.4098699     -3.52874   -1.9568031   0.21138647     -3.52874     1.571937  1182335 
 7017000    1.4114903   -3.5299922   -1.9562858   0.20651206   -3.5299922    1.5737064  1182363 
 7018000    1.4126464   -3.5311328   -1.9561615   0.20461066   -3.5311328    1.5749713  1182381 
 7019000    1.4112962   -3.5295639   -1.9561312   0.20743974   -3.5295639    1.5734328  1182406 
 7020000    1.4110576   -3.5294503   -1.9563102   0.20937022   -3.5294503    1.5731401  1182426 
 7021000    1.4111861    -3.530078   -1.9568371   0.20544573    -3.530078    1.5732408  1182458 
 7022000    1.4114021    -3.530555   -1.9571067   0.20169274    -3.530555    1.5734483  1182483 
 7023000    1.4110214   -3.5300387   -1.9570508    0.2093574   -3.5300387     1.572988  1182510 
 7024000    1.4120561   -3.5316422   -1.9575367   0.20215735   -3.5316422    1.5741055  1182537 
 7025000    1.4116884   -3.5310066   -1.9573482   0.21255661   -3.5310066    1.5736584  1182565 
 7026000     1.410472   -3.5301828   -1.9579282   0.21065423   -3.5301828    1.5722545  1182601 
 7027000    1.4106533   -3.5302542   -1.9578281   0.20935214   -3.5302542    1.5724261  1182624 
 7028000    1.4103767   -3.5295867   -1.9575009   0.21030618   -3.5295867    1.5720858  1182648 
 7029000    1.4110748   -3.5310889   -1.9582555   0.20883654   -3.5310889    1.5728334  1182671 
 7030000    1.4110986   -3.5316139   -1.9587833    0.2077821   -3.5316139    1.5728306  1182693 
 7031000     1.410972    -3.531262    -1.958603    0.2093221    -3.531262     1.572659  1182716 
 7032000      1.41045   -3.5311608   -1.9591076   0.20635849   -3.5311608    1.5720532  1182734 
 7033000    1.4115805   -3.5320187   -1.9587267   0.20983583   -3.5320187     1.573292  1182750 
 7034000    1.4102342   -3.5305532    -1.958791   0.21124504   -3.5305532    1.5717622  1182772 
 7035000    1.4101338   -3.5304258   -1.9588127   0.20880502   -3.5304258    1.5716131  1182800 
 7036000    1.4094716   -3.5307482   -1.9599024   0.21324133   -3.5307482    1.5708458  1182822 
 7037000    1.4107669   -3.5313746   -1.9591277   0.21098675   -3.5313746    1.5722469  1182854 
 7038000    1.4100478   -3.5304939   -1.9590829   0.21388376   -3.5304939    1.5714109  1182880 
 7039000    1.4102862     -3.53066    -1.959014   0.21209607     -3.53066     1.571646  1182903 
 7040000    1.4112769   -3.5312901   -1.9585666   0.20638415   -3.5312901    1.5727235  1182923 
 7041000    1.4118127   -3.5312138   -1.9579357   0.21063153   -3.5312138    1.5732781  1182955 
 7042000    1.4121427   -3.5317755    -1.958159   0.20907037   -3.5317755    1.5736165  1182977 
 7043000    1.4119318   -3.5316358   -1.9582955   0.21052545   -3.5316358    1.5733403  1183008 
 7044000    1.4125898   -3.5319355   -1.9578966   0.21007358   -3.5319355    1.5740389  1183034 
 7045000    1.4123355   -3.5317564   -1.9580221   0.21002222   -3.5317564    1.5737343  1183050 
 7046000    1.4121984   -3.5317417   -1.9582014    0.2104648   -3.5317417    1.5735402  1183081 
 7047000    1.4107317    -3.530582   -1.9586999   0.21239364    -3.530582    1.5718821  1183099 
 7048000    1.4112488   -3.5309207   -1.9584997   0.20906071   -3.5309207     1.572421  1183127 
 7049000    1.4101926   -3.5304693   -1.9592517   0.20906159   -3.5304693    1.5712176  1183147 
 7050000    1.4109995   -3.5313043   -1.9592222   0.20231435   -3.5313043    1.5720821  1183173 
 7051000    1.4117802   -3.5319287   -1.9590087   0.20475133   -3.5319287      1.57292  1183197 
 7052000    1.4119055   -3.5324418   -1.9594033   0.20687935   -3.5324418    1.5730384  1183213 
 7053000    1.4112713   -3.5318761   -1.9595802   0.20529184   -3.5318761     1.572296  1183240 
 7054000       1.4115    -3.531996   -1.9594744   0.20720576    -3.531996    1.5725215  1183262 
 7055000    1.4118205   -3.5319517   -1.9591104   0.20754863   -3.5319517    1.5728414  1183290 
 7056000    1.4110346   -3.5317537   -1.9598078   0.20799704   -3.5317537    1.5719459  1183305 
 7057000    1.4125431   -3.5334964   -1.9599098   0.20408268   -3.5334964    1.5735865  1183335 
 7058000    1.4106265   -3.5319857   -1.9605689   0.21299713   -3.5319857    1.5714168  1183361 
 7059000    1.4110318   -3.5324685   -1.9606453   0.20793948   -3.5324685    1.5718232  1183395 
 7060000    1.4115993   -3.5326595   -1.9602307   0.21273981   -3.5326595    1.5724288  1183415 
 7061000    1.4104433   -3.5315301   -1.9604209   0.21251568   -3.5315301    1.5711092  1183439 
 7062000    1.4115267   -3.5324782   -1.9601873   0.21378625   -3.5324782    1.5722909  1183458 
 7063000    1.4118255    -3.533297   -1.9607145   0.20608339    -3.533297    1.5725825  1183489 
 7064000    1.4116594   -3.5333767   -1.9610191   0.21133985   -3.5333767    1.5723576  1183519 
 7065000    1.4126838   -3.5335394   -1.9600607   0.21442965   -3.5335394    1.5734787  1183534 
 7066000    1.4130562   -3.5343172    -1.960453   0.20789132   -3.5343172    1.5738642  1183556 
 7067000    1.4129259   -3.5344099    -1.960732   0.20571581   -3.5344099    1.5736779  1183587 
 7068000    1.4119568   -3.5339594   -1.9614008   0.20936088   -3.5339594    1.5725586  1183617 
 7069000    1.4128319   -3.5346159   -1.9611027   0.20646968   -3.5346159    1.5735133  1183632 
 7070000    1.4125368   -3.5345467   -1.9613887   0.21029502   -3.5345467    1.5731581  1183652 
 7071000    1.4119882   -3.5339032   -1.9613933   0.20918276   -3.5339032    1.5725099  1183680 
 7072000    1.4128777   -3.5350061   -1.9615388   0.20924453   -3.5350061    1.5734672  1183705 
 7073000    1.4117332   -3.5332144   -1.9610523   0.20975179   -3.5332144    1.5721621  1183728 
 7074000    1.4125474   -3.5341058   -1.9610568   0.20933698   -3.5341058     1.573049  1183743 
 7075000    1.4114671   -3.5329228   -1.9611114   0.21167342   -3.5329228    1.5718114  1183769 
 7076000    1.4128408    -3.534654   -1.9613607   0.20485079    -3.534654    1.5732932  1183805 
 7077000     1.411732   -3.5332022   -1.9611795   0.20899086   -3.5332022    1.5720227  1183832 
 7078000    1.4119195   -3.5338511   -1.9616634   0.21170069   -3.5338511    1.5721877  1183865 
 7079000    1.4120428   -3.5339993   -1.9617009   0.20762218   -3.5339993    1.5722984  1183885 
 7080000    1.4119568    -3.533724   -1.9615466    0.2109219    -3.533724    1.5721774  1183904 
 7081000    1.4127826   -3.5348232   -1.9617541   0.20604882   -3.5348232     1.573069  1183925 
 7082000    1.4121319   -3.5341736   -1.9618464   0.20697952   -3.5341736    1.5723273  1183938 
 7083000    1.4107204   -3.5329281    -1.962199   0.20666964   -3.5329281    1.5707291  1183958 
 7084000    1.4119717   -3.5340237   -1.9619359   0.20875518   -3.5340237    1.5720878  1183984 
 7085000    1.4120303   -3.5347183   -1.9625998   0.20820098   -3.5347183    1.5721185  1184010 
 7086000    1.4125055   -3.5354101   -1.9627905   0.20951503   -3.5354101    1.5726196  1184031 
 7087000    1.4113521   -3.5336224     -1.96232   0.20787658   -3.5336224    1.5713024  1184056 
 7088000    1.4124982   -3.5355851   -1.9630347   0.20510552   -3.5355851    1.5725504  1184077 
 7089000     1.411511   -3.5348305   -1.9634202   0.20997909   -3.5348305    1.5714103  1184108 
 7090000    1.4113259   -3.5343605   -1.9632054   0.21023689   -3.5343605    1.5711551  1184145 
 7091000    1.4111615   -3.5348468   -1.9639185   0.21194881   -3.5348468    1.5709283  1184178 
 7092000     1.413597   -3.5371217   -1.9635208   0.20631216   -3.5371217    1.5736009  1184207 
 7093000    1.4121579    -3.535392   -1.9634076    0.2110629    -3.535392    1.5719844  1184218 
 7094000     1.412747   -3.5359625   -1.9633449   0.21192122   -3.5359625    1.5726176  1184235 
 7095000    1.4118533   -3.5344128   -1.9628273   0.21112977   -3.5344128    1.5715856  1184263 
 7096000    1.4119878   -3.5353346   -1.9636444   0.21308163   -3.5353346    1.5716902  1184297 
 7097000    1.4131055   -3.5366559   -1.9637389   0.21184206   -3.5366559     1.572917  1184310 
 7098000    1.4119776   -3.5352852   -1.9636516   0.21326276   -3.5352852    1.5716337  1184331 
 7099000    1.4127307   -3.5368787   -1.9644518   0.20634576   -3.5368787    1.5724269  1184365 
 7100000    1.4128635   -3.5365146   -1.9639745   0.20773864   -3.5365146    1.5725401  1184391 
 7101000    1.4118492   -3.5360138   -1.9646319   0.21144881   -3.5360138     1.571382  1184413 
 7102000    1.4113476    -3.535265   -1.9644718   0.21257039    -3.535265    1.5707932  1184436 
 7103000    1.4117227   -3.5355911   -1.9644149   0.21145061   -3.5355911    1.5711762  1184462 
 7104000    1.4120753   -3.5355118   -1.9639737   0.20800114   -3.5355118    1.5715381  1184485 
 7105000     1.412257   -3.5365772   -1.9648581     0.206083   -3.5365772    1.5717191  1184501 
 7106000    1.4125834   -3.5362288   -1.9641929   0.21044352   -3.5362288     1.572036  1184536 
 7107000    1.4122138   -3.5353175    -1.963726   0.21212267   -3.5353175    1.5715915  1184561 
 7108000     1.413398   -3.5359474    -1.963062    0.2084373   -3.5359474    1.5728854  1184579 
 7109000    1.4125058   -3.5357476   -1.9638816   0.21102715   -3.5357476     1.571866  1184599 
 7110000    1.4121322   -3.5356958   -1.9642761   0.20908579   -3.5356958    1.5714197  1184622 
 7111000    1.4132341   -3.5358933   -1.9632847   0.20746677   -3.5358933    1.5726087  1184650 
 7112000    1.4125788    -3.535492   -1.9636324   0.21135244    -3.535492    1.5718596  1184665 
 7113000    1.4136075   -3.5367727   -1.9638188    0.2075876   -3.5367727    1.5729539  1184703 
 7114000    1.4136936   -3.5365784   -1.9635779   0.20792047   -3.5365784    1.5730005  1184740 
 7115000    1.4130773   -3.5357166   -1.9634217   0.21054366   -3.5357166    1.5722949  1184755 
 7116000    1.4127554   -3.5364137   -1.9645168   0.20974057   -3.5364137    1.5718969  1184785 
 7117000    1.4137215   -3.5367593   -1.9638221   0.20747437   -3.5367593    1.5729373  1184811 
 7118000    1.4124609   -3.5359973   -1.9644983   0.21087948   -3.5359973     1.571499  1184838 
 7119000     1.411807   -3.5353737   -1.9646261   0.21261826   -3.5353737    1.5707475  1184856 
 7120000    1.4124243   -3.5370547   -1.9656509   0.20900279   -3.5370547    1.5714038  1184879 
 7121000    1.4120892   -3.5364153   -1.9654122   0.21130015   -3.5364153    1.5710031  1184900 
 7122000    1.4131788    -3.537797   -1.9656228   0.20893945    -3.537797    1.5721742  1184931 
 7123000    1.4126706   -3.5369431   -1.9653648   0.21360827   -3.5369431    1.5715784  1184954 
 7124000    1.4126002    -3.537462   -1.9659991    0.2083022    -3.537462    1.5714629  1184982 
 7125000    1.4130426   -3.5385156   -1.9665924   0.20766248   -3.5385156    1.5719232  1185006 
 7126000    1.4119853    -3.538187   -1.9674784   0.20855034    -3.538187    1.5707086  1185035 
 7127000    1.4115422   -3.5389169   -1.9687277   0.20840043   -3.5389169    1.5701892  1185055 
 7128000    1.4107911   -3.5372003   -1.9678783   0.21137783   -3.5372003    1.5693219  1185079 
 7129000    1.4105091   -3.5369856   -1.9680263    0.2102381   -3.5369856    1.5689593  1185116 
 7130000    1.4129666   -3.5392941   -1.9676385    0.2085296   -3.5392941    1.5716556  1185144 
 7131000    1.4133513   -3.5398989     -1.96783   0.20563204   -3.5398989     1.572069  1185155 
 7132000    1.4127842   -3.5396544   -1.9682441   0.20994831   -3.5396544    1.5714103  1185176 
 7133000    1.4120314   -3.5397302   -1.9691943   0.20861057   -3.5397302    1.5705359  1185204 
 7134000    1.4121068   -3.5393879   -1.9688079   0.20507128   -3.5393879      1.57058  1185234 
 7135000    1.4118741   -3.5386714   -1.9683832   0.21273233   -3.5386714    1.5702881  1185259 
 7136000    1.4116042   -3.5385418   -1.9685857   0.20710004   -3.5385418    1.5699562  1185283 
 7137000    1.4114312   -3.5386415   -1.9689202   0.20648499   -3.5386415    1.5697213  1185315 
 7138000    1.4129769   -3.5397278   -1.9683219    0.2090237   -3.5397278    1.5714059  1185341 
 7139000    1.4122948   -3.5384315   -1.9678159    0.2106156   -3.5384315    1.5706155  1185365 
 7140000    1.4126453   -3.5384502   -1.9674727   0.21131258   -3.5384502    1.5709775  1185386 
 7141000    1.4127182   -3.5385201      -1.9675   0.20425585   -3.5385201    1.5710202  1185415 
 7142000    1.4121402   -3.5387315   -1.9683886   0.20919136   -3.5387315     1.570343  1185441 
 7143000    1.4128938   -3.5393153    -1.968182   0.20978985   -3.5393153    1.5711333  1185477 
 7144000      1.41283   -3.5391908   -1.9681577   0.20655561   -3.5391908    1.5710331  1185499 
 7145000      1.41303   -3.5389023   -1.9676866   0.20582455   -3.5389023    1.5712158  1185529 
 7146000    1.4144208   -3.5398021   -1.9670676   0.20796599   -3.5398021    1.5727344  1185550 
 7147000    1.4134997   -3.5392504   -1.9675814   0.20659673   -3.5392504    1.5716691  1185581 
 7148000     1.413516   -3.5395361   -1.9678992    0.2077885   -3.5395361    1.5716369  1185619 
 7149000    1.4126722   -3.5382091   -1.9675448   0.21015401   -3.5382091    1.5706642  1185645 
 7150000    1.4123637   -3.5383276   -1.9680488   0.21086675   -3.5383276    1.5702788  1185677 
 7151000    1.4132929   -3.5394314     -1.96815   0.20246173   -3.5394314    1.5712814  1185700 
 7152000    1.4135801   -3.5391121   -1.9675418   0.21096056   -3.5391121    1.5715702  1185723 
 7153000    1.4136536   -3.5383736   -1.9667534   0.20912138   -3.5383736    1.5716201  1185747 
 7154000    1.4146799   -3.5389883   -1.9662576   0.20657436   -3.5389883    1.5727307  1185770 
 7155000    1.4143237   -3.5393308   -1.9670333   0.21495826   -3.5393308    1.5722975  1185798 
 7156000    1.4132594   -3.5388335   -1.9677536   0.20963592   -3.5388335    1.5710799  1185824 
 7157000    1.4139762   -3.5396187   -1.9677764   0.20814783   -3.5396187    1.5718423  1185850 
 7158000    1.4144698   -3.5400673   -1.9677121   0.20787633   -3.5400673    1.5723552  1185877 
 7159000    1.4156823   -3.5419038   -1.9682339   0.20591026   -3.5419038    1.5736699  1185902 
 7160000    1.4126934    -3.538354   -1.9680317   0.21313629    -3.538354    1.5703223  1185921 
 7161000    1.4141555   -3.5401833   -1.9682716   0.20745043   -3.5401833    1.5719117  1185948 
 7162000    1.4134878   -3.5402118   -1.9690979   0.20881606   -3.5402118    1.5711139  1185990 
 7163000    1.4130237   -3.5400887   -1.9695066   0.20985275   -3.5400887    1.5705822  1186002 
 7164000    1.4125962   -3.5400421   -1.9699761   0.21194665   -3.5400421    1.5700659  1186033 
 7165000     1.413079   -3.5404694   -1.9698947   0.21149437   -3.5404694    1.5705747  1186054 
 7166000    1.4144547    -3.542216   -1.9701414   0.20584131    -3.542216    1.5720746  1186076 
 7167000    1.4132718   -3.5410834   -1.9703673   0.21152915   -3.5410834    1.5707161  1186109 
 7168000    1.4155392   -3.5430717   -1.9698647   0.20921718   -3.5430717     1.573207  1186131 
 7169000    1.4140229   -3.5411162   -1.9696341   0.21396764   -3.5411162     1.571482  1186161 
 7170000    1.4136596   -3.5413277   -1.9702812   0.21289602   -3.5413277    1.5710465  1186185 
 7171000    1.4145042   -3.5422297   -1.9702948   0.21129375   -3.5422297    1.5719348  1186223 
 7172000    1.4128019   -3.5405216   -1.9705196   0.21180744   -3.5405216     1.570002  1186254 
 7173000    1.4153741   -3.5423973   -1.9695714   0.21030211   -3.5423973    1.5728259  1186280 
 7174000    1.4126101   -3.5395213   -1.9697959   0.21382777   -3.5395213    1.5697254  1186302 
 7175000    1.4141843   -3.5407986   -1.9693518   0.21444021   -3.5407986    1.5714468  1186323 
 7176000    1.4153533   -3.5415084   -1.9688063   0.20566611   -3.5415084    1.5727021  1186356 
 7177000    1.4147353     -3.54129   -1.9693197   0.21270061     -3.54129    1.5719704  1186390 
 7178000    1.4151192   -3.5415566   -1.9692008     0.210074   -3.5415566    1.5723558  1186421 
 7179000    1.4145199    -3.540902   -1.9692359   0.21345461    -3.540902    1.5716661  1186439 
 7180000    1.4156227   -3.5412715   -1.9684305   0.21166634   -3.5412715     1.572841  1186477 
 7181000    1.4150101   -3.5412339   -1.9691014   0.20901692   -3.5412339    1.5721325  1186498 
 7182000    1.4146514    -3.540655   -1.9689541   0.21541982    -3.540655    1.5717009  1186523 
 7183000    1.4156171   -3.5412825   -1.9685472   0.21162939   -3.5412825    1.5727354  1186552 
 7184000    1.4146003   -3.5403745   -1.9688072   0.21593804   -3.5403745    1.5715673  1186581 
 7185000    1.4151665   -3.5412228   -1.9690463   0.21097243   -3.5412228    1.5721765  1186596 
 7186000    1.4160228   -3.5421371   -1.9690373   0.21068202   -3.5421371    1.5730999  1186617 
 7187000    1.4144586   -3.5402448    -1.968921   0.21350591   -3.5402448    1.5713238  1186646 
 7188000    1.4157526   -3.5419915    -1.969258   0.21330669   -3.5419915    1.5727335  1186667 
 7189000    1.4146487   -3.5407856   -1.9693075   0.20634956   -3.5407856     1.571478  1186689 
 7190000    1.4157945   -3.5413541   -1.9686311   0.21315803   -3.5413541    1.5727231  1186710 
 7191000    1.4148503   -3.5411718   -1.9695294    0.2139416   -3.5411718    1.5716424  1186734 
 7192000    1.4152829   -3.5420744   -1.9699845   0.20951116   -3.5420744    1.5720899  1186759 
 7193000    1.4151354   -3.5417705    -1.969871    0.2103382   -3.5417705    1.5718995  1186779 
 7194000    1.4152056   -3.5414525   -1.9695082   0.21302992   -3.5414525    1.5719443  1186804 
 7195000    1.4150661   -3.5414122   -1.9696532   0.21525937   -3.5414122    1.5717589  1186827 
 7196000    1.4145357   -3.5412345   -1.9700938   0.21609309   -3.5412345    1.5711407  1186849 
 7197000     1.415893   -3.5424072   -1.9697921   0.21091381   -3.5424072    1.5726151  1186874 
 7198000    1.4151659   -3.5424584    -1.970688   0.21301314   -3.5424584    1.5717704  1186902 
 7199000    1.4151376    -3.542385   -1.9706857   0.21570349    -3.542385    1.5716993  1186932 
 7200000     1.415576   -3.5422821   -1.9701449   0.21280459   -3.5422821    1.5721372  1186969 
 7201000    1.4149515   -3.5419841   -1.9705762    0.2118115   -3.5419841    1.5714079  1186996 
 7202000    1.4147086   -3.5420428   -1.9709312   0.20998677   -3.5420428    1.5711116  1187016 
 7203000    1.4154775   -3.5432208   -1.9712923   0.21496482   -3.5432208    1.5719284  1187044 
 7204000    1.4149481   -3.5423944   -1.9710896   0.21714757   -3.5423944    1.5713048  1187071 
 7205000    1.4151109   -3.5424775   -1.9710171   0.21209618   -3.5424775    1.5714604  1187090 
 7206000    1.4152623   -3.5422315     -1.97064   0.21233854   -3.5422315    1.5715916  1187118 
 7207000    1.4159673   -3.5432064   -1.9708677   0.21096314   -3.5432064    1.5723386  1187145 
 7208000      1.41585   -3.5429527   -1.9707708   0.21714941   -3.5429527    1.5721819  1187165 
 7209000    1.4165271   -3.5436166   -1.9707186    0.2099623   -3.5436166     1.572898  1187192 
 7210000    1.4155876   -3.5435564     -1.97174   0.21074579   -3.5435564    1.5718164  1187221 
 7211000    1.4147044   -3.5421138   -1.9713046   0.21471831   -3.5421138    1.5708092  1187241 
 7212000    1.4158089   -3.5435651   -1.9715599   0.21026561   -3.5435651    1.5720052  1187264 
 7213000    1.4163616   -3.5434899   -1.9708976   0.21202351   -3.5434899    1.5725923  1187284 
 7214000    1.4159541   -3.5430269   -1.9709202   0.21369311   -3.5430269    1.5721068  1187309 
 7215000    1.4168875   -3.5441741   -1.9710721   0.21191934   -3.5441741    1.5731021  1187340 
 7216000    1.4155301   -3.5423421   -1.9707775   0.21389556   -3.5423421    1.5715646  1187363 
 7217000    1.4159685   -3.5430455   -1.9710167   0.21129735   -3.5430455    1.5720288  1187380 
 7218000    1.4151548   -3.5424285   -1.9713243   0.21526358   -3.5424285    1.5711043  1187396 
 7219000    1.4155628   -3.5429415   -1.9714174   0.21140478   -3.5429415     1.571524  1187421 
 7220000    1.4144379   -3.5417843   -1.9715328   0.21236006   -3.5417843    1.5702515  1187439 
 7221000    1.4151987   -3.5428992   -1.9718283   0.21000522   -3.5428992    1.5710709  1187458 
 7222000    1.4158822   -3.5440926   -1.9722907   0.21241659   -3.5440926    1.5718019  1187479 
 7223000    1.4143909   -3.5423776   -1.9722644     0.213279   -3.5423776    1.5701133  1187504 
 7224000    1.4147921   -3.5429269   -1.9723867   0.21315583   -3.5429269    1.5705402  1187518 
 7225000    1.4159622   -3.5438678   -1.9720605   0.21007903   -3.5438678    1.5718073  1187542 
 7226000    1.4158486   -3.5435643   -1.9719307   0.21053723   -3.5435643    1.5716336  1187578 
 7227000    1.4167628   -3.5446791   -1.9720492   0.21146758   -3.5446791    1.5726299  1187592 
 7228000    1.4155889    -3.543476   -1.9721849      0.21381    -3.543476    1.5712911  1187619 
 7229000    1.4149747   -3.5432809   -1.9727073    0.2120459   -3.5432809    1.5705736  1187646 
 7230000    1.4173045    -3.545637   -1.9725118   0.20692933    -3.545637    1.5731252  1187672 
 7231000    1.4166275   -3.5444299   -1.9720933    0.2124311   -3.5444299    1.5723366  1187700 
 7232000    1.4166774   -3.5439454   -1.9715983   0.22118819   -3.5439454     1.572347  1187734 
 7233000    1.4156239     -3.54341   -1.9722574   0.21437116     -3.54341    1.5711526  1187753 
 7234000     1.415434   -3.5438369    -1.972936   0.21273325   -3.5438369    1.5709009  1187784 
 7235000    1.4164448   -3.5450623   -1.9730647   0.21467575   -3.5450623    1.5719976  1187803 
 7236000    1.4158152   -3.5440233   -1.9727549   0.21437721   -3.5440233    1.5712684  1187826 
 7237000    1.4167258   -3.5462126    -1.973972   0.21613743   -3.5462126    1.5722406  1187855 
 7238000    1.4145712   -3.5441439   -1.9743381   0.21715563   -3.5441439    1.5698058  1187888 
 7239000     1.414832   -3.5440629   -1.9740033   0.21361199   -3.5440629    1.5700595  1187915 
 7240000    1.4156831   -3.5455854   -1.9746144   0.21021344   -3.5455854     1.570971  1187940 
 7241000     1.415106   -3.5455297   -1.9752295   0.20877221   -3.5455297    1.5703002  1187963 
 7242000    1.4157675   -3.5454472   -1.9744487   0.21120719   -3.5454472    1.5709985  1187990 
 7243000    1.4155472   -3.5453656    -1.974638   0.21117608   -3.5453656    1.5707276  1188010 
 7244000    1.4163193   -3.5466154   -1.9750668   0.21021416   -3.5466154    1.5715486  1188037 
 7245000    1.4157892   -3.5456744    -1.974751    0.2080079   -3.5456744    1.5709234  1188065 
 7246000     1.414672     -3.54448    -1.974824   0.21783504     -3.54448    1.5696561  1188086 
 7247000    1.4154148   -3.5454046   -1.9749521    0.2121273   -3.5454046    1.5704525  1188107 
 7248000    1.4161786   -3.5461973   -1.9749278   0.21068529   -3.5461973    1.5712695  1188130 
 7249000    1.4163186   -3.5467337   -1.9753498   0.21346368   -3.5467337    1.5713839  1188161 
 7250000    1.4173846   -3.5470466   -1.9745065   0.20989396   -3.5470466    1.5725401  1188181 
 7251000    1.4161569   -3.5461346   -1.9749843   0.21426729   -3.5461346    1.5711503  1188202 
 7252000    1.4160775   -3.5464781   -1.9754437   0.21110358   -3.5464781    1.5710344  1188223 
 7253000    1.4155766   -3.5461095   -1.9756679   0.21297659   -3.5461095    1.5704416  1188251 
 7254000    1.4157112   -3.5460342   -1.9754763   0.21304352   -3.5460342    1.5705579  1188276 
 7255000    1.4156942   -3.5469329   -1.9764242   0.21040106   -3.5469329    1.5705087  1188299 
 7256000    1.4165747   -3.5472363   -1.9757852      0.21347   -3.5472363    1.5714511  1188325 
 7257000    1.4164046   -3.5472306   -1.9760145   0.20994685   -3.5472306    1.5712161  1188360 
 7258000    1.4159927    -3.546841   -1.9761254   0.21042492    -3.546841    1.5707156  1188393 
 7259000    1.4156932   -3.5466178   -1.9762767    0.2128945   -3.5466178    1.5703411  1188425 
 7260000    1.4151657   -3.5451722   -1.9754334   0.21523397   -3.5451722    1.5697388  1188438 
 7261000    1.4159416   -3.5461222   -1.9755439   0.21770373   -3.5461222    1.5705782  1188454 
 7262000    1.4169159   -3.5466661   -1.9750296   0.21455332   -3.5466661    1.5716365  1188471 
 7263000    1.4164252   -3.5468536   -1.9758022   0.21226642   -3.5468536    1.5710513  1188502 
 7264000    1.4157861   -3.5460546   -1.9757505   0.21269584   -3.5460546    1.5703041  1188531 
 7265000    1.4164213    -3.547062   -1.9760838   0.21259403    -3.547062    1.5709782  1188554 
 7266000    1.4168737   -3.5476129    -1.976162   0.21006576   -3.5476129    1.5714509  1188576 
 7267000    1.4157097   -3.5458717   -1.9757383   0.21599301   -3.5458717    1.5701334  1188596 
 7268000    1.4160915     -3.54701   -1.9764782   0.21194362     -3.54701    1.5705318  1188615 
 7269000    1.4167167   -3.5476385    -1.976445   0.21174673   -3.5476385    1.5711935  1188639 
 7270000    1.4163255   -3.5475986   -1.9768733   0.21320901   -3.5475986    1.5707253  1188665 
 7271000    1.4155845   -3.5462041   -1.9763323   0.20961719   -3.5462041    1.5698717  1188689 
 7272000    1.4158112   -3.5467071   -1.9766129   0.21517396   -3.5467071    1.5700942  1188711 
 7273000    1.4166521    -3.546807   -1.9758173   0.21685708    -3.546807    1.5709897  1188739 
 7274000     1.417946   -3.5479638   -1.9755709   0.21289582   -3.5479638    1.5723928  1188763 
 7275000    1.4165536   -3.5468599   -1.9760351   0.21480905   -3.5468599    1.5708249  1188781 
 7276000    1.4159789   -3.5464858   -1.9763272    0.2157491   -3.5464858    1.5701586  1188803 
 7277000    1.4170507   -3.5472258   -1.9759039    0.2114929   -3.5472258     1.571322  1188822 
 7278000    1.4162054   -3.5468108   -1.9764539   0.20856442   -3.5468108    1.5703569  1188843 
 7279000    1.4167197    -3.547371   -1.9764702   0.21311223    -3.547371    1.5709008  1188863 
 7280000    1.4167297   -3.5473827   -1.9764999   0.21184407   -3.5473827    1.5708828  1188885 
 7281000    1.4159015   -3.5466867   -1.9767606   0.21594631   -3.5466867    1.5699261  1188914 
 7282000    1.4173359   -3.5482862   -1.9768013   0.21240362   -3.5482862    1.5714849  1188938 
 7283000    1.4170535   -3.5477177    -1.976575   0.21520961   -3.5477177    1.5711427  1188960 
 7284000    1.4170413   -3.5481071   -1.9769991   0.21575486   -3.5481071     1.571108  1188976 
 7285000    1.4173782   -3.5482007   -1.9767469   0.21533271   -3.5482007    1.5714538  1188997 
 7286000    1.4167891   -3.5481869   -1.9774179   0.21408674   -3.5481869     1.570769  1189021 
 7287000    1.4170102   -3.5484319   -1.9774509   0.21384253   -3.5484319    1.5709811  1189046 
 7288000    1.4170145    -3.548758   -1.9778065   0.20955755    -3.548758    1.5709515  1189072 
 7289000    1.4163778    -3.549306   -1.9790948   0.21687669    -3.549306    1.5702113  1189098 
 7290000    1.4166544   -3.5495304   -1.9790377   0.21180241   -3.5495304    1.5704928  1189117 
 7291000    1.4163488   -3.5485406    -1.978413   0.21180142   -3.5485406    1.5701277  1189137 
 7292000    1.4174792   -3.5493377    -1.977998   0.21509863   -3.5493377    1.5713397  1189168 
 7293000     1.417535   -3.5488636   -1.9774963   0.21353187   -3.5488636    1.5713673  1189194 
 7294000    1.4181847   -3.5496793   -1.9776276   0.21307451   -3.5496793    1.5720518  1189221 
 7295000    1.4184042   -3.5495297   -1.9772862   0.21198648   -3.5495297    1.5722436  1189260 
 7296000    1.4164992   -3.5481653   -1.9780756   0.21537653   -3.5481653    1.5700897  1189292 
 7297000    1.4170587   -3.5492669   -1.9785821   0.21633444   -3.5492669    1.5706848  1189311 
 7298000      1.41744   -3.5493996   -1.9783147   0.21211156   -3.5493996     1.571085  1189328 
 7299000    1.4172774   -3.5496393   -1.9787715   0.21824374   -3.5496393    1.5708678  1189356 
 7300000    1.4173525   -3.5494095   -1.9785021   0.21584874   -3.5494095    1.5709074  1189389 
 7301000    1.4178224   -3.5501093   -1.9787128   0.20987103   -3.5501093    1.5713965  1189413 
 7302000    1.4179009   -3.5506863   -1.9792358   0.20731911   -3.5506863    1.5714505  1189438 
 7303000    1.4169771   -3.5495402   -1.9791386   0.21565575   -3.5495402    1.5704016  1189457 
 7304000    1.4163989   -3.5491431   -1.9794034   0.21405297   -3.5491431    1.5697396  1189473 
 7305000      1.41614   -3.5491939   -1.9797768   0.21210297   -3.5491939    1.5694171  1189500 
 7306000    1.4161715   -3.5486783   -1.9792619    0.2166379   -3.5486783    1.5694164  1189527 
 7307000    1.4166386   -3.5484805   -1.9785809   0.21347526   -3.5484805    1.5698997  1189553 
 7308000    1.4168228    -3.549631   -1.9795615   0.21332329    -3.549631    1.5700695  1189579 
 7309000    1.4180584   -3.5505717   -1.9791594   0.21127764   -3.5505717    1.5714123  1189599 
 7310000    1.4181435   -3.5507621   -1.9792912   0.21338011   -3.5507621    1.5714709  1189626 
 7311000    1.4171633   -3.5497807   -1.9794223   0.21146817   -3.5497807    1.5703584  1189646 
 7312000    1.4180468   -3.5511044   -1.9798052   0.21314429   -3.5511044    1.5712991  1189675 
 7313000    1.4170786   -3.5503436   -1.9801503   0.21166809   -3.5503436    1.5701933  1189700 
 7314000    1.4170998   -3.5498004   -1.9796127   0.21370026   -3.5498004    1.5701877  1189722 
 7315000    1.4175394   -3.5504175   -1.9797677   0.21578061   -3.5504175    1.5706497  1189741 
 7316000    1.4181513   -3.5509895   -1.9796922   0.21074946   -3.5509895    1.5712974  1189764 
 7317000    1.4177556   -3.5509567   -1.9801479    0.2126639   -3.5509567    1.5708088  1189802 
 7318000    1.4169334   -3.5501675   -1.9803001    0.2099922   -3.5501675    1.5698674  1189825 
 7319000    1.4180079   -3.5505663   -1.9795362   0.21614766   -3.5505663    1.5710301  1189846 
 7320000    1.4184431   -3.5508057   -1.9793317   0.21340598   -3.5508057     1.571474  1189875 
 7321000    1.4184863   -3.5513387   -1.9798445   0.21487035   -3.5513387    1.5714942  1189896 
 7322000    1.4174877   -3.5498157   -1.9794556   0.21580789   -3.5498157    1.5703601  1189917 
 7323000    1.4183716   -3.5513161   -1.9799952   0.21552269   -3.5513161    1.5713209  1189931 
 7324000    1.4176698   -3.5501008   -1.9795997   0.21824754   -3.5501008    1.5705011  1189963 
 7325000    1.4181891   -3.5508817   -1.9798462   0.21263841   -3.5508817    1.5710355  1189994 
 7326000    1.4179357    -3.550587   -1.9798692   0.21749362    -3.550587    1.5707178  1190022 
 7327000    1.4179944   -3.5514902    -1.980739   0.21518763   -3.5514902    1.5707512  1190046 
 7328000    1.4170286   -3.5500468   -1.9803892   0.22063045   -3.5500468    1.5696576  1190064 
 7329000    1.4181452   -3.5513703   -1.9805076   0.21472032   -3.5513703    1.5708628  1190088 
 7330000    1.4177962   -3.5511722   -1.9807144   0.21699892   -3.5511722    1.5704578  1190102 
 7331000    1.4164193   -3.5498824   -1.9809841   0.21293256   -3.5498824    1.5688983  1190128 
 7332000    1.4173176   -3.5508278   -1.9809622   0.21677004   -3.5508278    1.5698656  1190149 
 7333000    1.4179733   -3.5514275   -1.9808713   0.21325118   -3.5514275    1.5705563  1190176 
 7334000    1.4178472   -3.5507536   -1.9803674   0.21341488   -3.5507536    1.5703862  1190199 
 7335000    1.4173485    -3.550542   -1.9807438   0.21275075    -3.550542    1.5697982  1190226 
 7336000    1.4184678   -3.5522986   -1.9812818   0.21776413   -3.5522986    1.5710168  1190242 
 7337000    1.4179642   -3.5516286   -1.9811959   0.21487641   -3.5516286    1.5704327  1190262 
 7338000    1.4181236   -3.5519969   -1.9814154   0.21371323   -3.5519969    1.5705815  1190283 
 7339000    1.4183445   -3.5525342    -1.981749     0.214747   -3.5525342    1.5707853  1190314 
 7340000    1.4185517   -3.5516653    -1.980677   0.21464466   -3.5516653    1.5709883  1190334 
 7341000    1.4186105   -3.5509364   -1.9799146   0.21617502   -3.5509364    1.5710218  1190358 
 7342000    1.4179836   -3.5496432   -1.9793407   0.21873711   -3.5496432    1.5703025  1190377 
 7343000    1.4189485   -3.5514937   -1.9801755   0.21494818   -3.5514937    1.5713182  1190417 
 7344000    1.4186952   -3.5510682   -1.9800595   0.21903144   -3.5510682    1.5710087  1190439 
 7345000    1.4188576   -3.5512611   -1.9800963   0.21537522   -3.5512611    1.5711648  1190457 
 7346000    1.4192069   -3.5514085   -1.9798953   0.21895768   -3.5514085    1.5715133  1190486 
 7347000    1.4188201   -3.5519859   -1.9809352   0.21401025   -3.5519859    1.5710507  1190512 
 7348000     1.417199   -3.5509901   -1.9817569   0.21559693   -3.5509901    1.5692332  1190529 
 7349000    1.4186207   -3.5529316    -1.982165   0.21302402   -3.5529316    1.5707665  1190560 
 7350000    1.4188978   -3.5531089   -1.9820738   0.21076625   -3.5531089    1.5710351  1190589 
 7351000    1.4178827   -3.5523887   -1.9825105   0.21278098   -3.5523887    1.5698782  1190614 
 7352000    1.4186403   -3.5530106   -1.9823201   0.21028423   -3.5530106    1.5706905  1190634 
 7353000    1.4185507   -3.5527953    -1.982229   0.21016631   -3.5527953    1.5705663  1190653 
 7354000    1.4178937   -3.5523873   -1.9825707    0.2151053   -3.5523873    1.5698165  1190670 
 7355000    1.4177318   -3.5523275    -1.982714   0.21644983   -3.5523275    1.5696136  1190688 
 7356000     1.416679   -3.5514418    -1.983032   0.21863964   -3.5514418    1.5684097  1190717 
 7357000    1.4183718   -3.5531728   -1.9829074   0.21138223   -3.5531728    1.5702654  1190731 
 7358000    1.4186733   -3.5540217    -1.983445   0.21090572   -3.5540217    1.5705767  1190748 
 7359000    1.4168895   -3.5518423   -1.9832772   0.21935275   -3.5518423    1.5685651  1190776 
 7360000    1.4180963   -3.5531084    -1.983235   0.21322271   -3.5531084    1.5698734  1190797 
 7361000    1.4177357   -3.5534637   -1.9840185   0.21080629   -3.5534637    1.5694452  1190819 
 7362000    1.4183285   -3.5538717   -1.9837888   0.21909507   -3.5538717    1.5700829  1190833 
 7363000    1.4186302   -3.5541987   -1.9838054   0.21465213   -3.5541987    1.5703932  1190851 
 7364000    1.4166387   -3.5523789   -1.9842245   0.21862027   -3.5523789    1.5681544  1190877 
 7365000    1.4175725    -3.553505   -1.9843499    0.2155229    -3.553505    1.5691551  1190902 
 7366000    1.4188159   -3.5543576   -1.9838539   0.20665411   -3.5543576    1.5705038  1190923 
 7367000    1.4176069   -3.5539443   -1.9848104    0.2159685   -3.5539443    1.5691339  1190947 
 7368000    1.4167279   -3.5535001   -1.9853759   0.21513655   -3.5535001    1.5681241  1190975 
 7369000    1.4177215   -3.5551502   -1.9859527    0.2129445   -3.5551502    1.5691975  1190995 
 7370000    1.4178145   -3.5546961   -1.9854154   0.21354211   -3.5546961    1.5692807  1191010 
 7371000    1.4175855   -3.5540796     -1.98508   0.21377655   -3.5540796    1.5689996  1191031 
 7372000    1.4177401   -3.5537782   -1.9846352   0.21381419   -3.5537782     1.569143  1191052 
 7373000    1.4180974   -3.5531691   -1.9836649   0.22068937   -3.5531691    1.5695042  1191078 
 7374000    1.4179186   -3.5533883   -1.9841123   0.21553988   -3.5533883     1.569276  1191101 
 7375000    1.4185067   -3.5536973   -1.9838061   0.21318268   -3.5536973    1.5698913  1191128 
 7376000     1.417877   -3.5524541   -1.9832953   0.21825871   -3.5524541    1.5691588  1191155 
 7377000    1.4192611   -3.5540569   -1.9833887   0.21670084   -3.5540569    1.5706682  1191172 
 7378000    1.4191864    -3.554129   -1.9835606   0.21601676    -3.554129    1.5705684  1191185 
 7379000     1.419135   -3.5539681   -1.9834816   0.21531835   -3.5539681    1.5704865  1191204 
 7380000    1.4196198   -3.5544702   -1.9834657    0.2169852   -3.5544702    1.5710045  1191218 
 7381000     1.420053   -3.5547442   -1.9832893    0.2130805   -3.5547442    1.5714549  1191240 
 7382000    1.4186636   -3.5540807    -1.984195   0.21202613   -3.5540807    1.5698857  1191264 
 7383000     1.418601   -3.5539287    -1.984132   0.21803102   -3.5539287    1.5697967  1191279 
 7384000    1.4188046   -3.5548242   -1.9848417   0.21226614   -3.5548242    1.5699825  1191309 
 7385000    1.4185278   -3.5536004   -1.9839546   0.21397507   -3.5536004    1.5696458  1191332 
 7386000    1.4193156   -3.5539496   -1.9834611   0.21830962   -3.5539496    1.5704885  1191354 
 7387000    1.4199303   -3.5542213   -1.9830855   0.21742994   -3.5542213    1.5711358  1191379 
 7388000    1.4195998    -3.554778   -1.9840317   0.21563908    -3.554778    1.5707463  1191397 
 7389000    1.4184882     -3.55471   -1.9852319   0.21492489     -3.55471    1.5694782  1191426 
 7390000    1.4174563   -3.5540038   -1.9857095   0.21505073   -3.5540038    1.5682943  1191458 
 7391000    1.4188171   -3.5548174   -1.9850464   0.21545692   -3.5548174     1.569771  1191480 
 7392000    1.4198867   -3.5567679   -1.9858479   0.21032252   -3.5567679      1.57092  1191506 
 7393000    1.4186005     -3.55528   -1.9858264   0.21636789     -3.55528    1.5694536  1191539 
 7394000    1.4184992   -3.5547565   -1.9854572   0.21329642   -3.5547565    1.5692993  1191571 
 7395000    1.4192523   -3.5550452   -1.9849536   0.21902971   -3.5550452    1.5700916  1191602 
 7396000    1.4201652   -3.5567203   -1.9856477   0.21124322   -3.5567203    1.5710726  1191624 
 7397000    1.4192163   -3.5556111   -1.9856198   0.21749879   -3.5556111    1.5699912  1191648 
 7398000    1.4191294   -3.5556154   -1.9857598   0.21649243   -3.5556154    1.5698556  1191678 
 7399000    1.4188331   -3.5557678   -1.9862637   0.21489952   -3.5557678    1.5695041  1191696 
 7400000    1.4182851   -3.5557847   -1.9869131   0.21089367   -3.5557847    1.5688716  1191716 
 7401000    1.4183416   -3.5561077   -1.9872092   0.21428277   -3.5561077    1.5688985  1191743 
 7402000    1.4187268   -3.5554802   -1.9861832     0.214733   -3.5554802     1.569297  1191764 
 7403000    1.4186075   -3.5551067   -1.9859733   0.21412064   -3.5551067    1.5691335  1191788 
 7404000    1.4183663   -3.5551108   -1.9862692   0.21564587   -3.5551108    1.5688416  1191807 
 7405000    1.4189421   -3.5556467   -1.9861971   0.21562082   -3.5556467    1.5694495  1191829 
 7406000    1.4190243   -3.5561401   -1.9866247    0.2156448   -3.5561401    1.5695154  1191848 
 7407000    1.4195604   -3.5563708   -1.9862887   0.22044053   -3.5563708    1.5700821  1191868 
 7408000    1.4197666   -3.5572823   -1.9869986   0.21483682   -3.5572823    1.5702837  1191888 
 7409000    1.4194857   -3.5565364   -1.9865964   0.22011518   -3.5565364    1.5699401  1191913 
 7410000    1.4192585   -3.5560662   -1.9864051   0.21624036   -3.5560662    1.5696612  1191934 
 7411000    1.4198569   -3.5569124   -1.9866223   0.21467032   -3.5569124    1.5702901  1191959 
 7412000    1.4194555   -3.5562119   -1.9864053   0.21453149   -3.5562119    1.5698067  1191989 
 7413000    1.4199656   -3.5569572   -1.9866221   0.21487004   -3.5569572    1.5703352  1192016 
 7414000    1.4192056   -3.5555561   -1.9860837   0.21682297   -3.5555561    1.5694724  1192033 
 7415000    1.4198462   -3.5564076   -1.9862465   0.21513366   -3.5564076     1.570161  1192048 
 7416000    1.4183225   -3.5553122   -1.9868651   0.21527734   -3.5553122    1.5684471  1192070 
 7417000     1.418796   -3.5559559   -1.9870168   0.21454892   -3.5559559    1.5689391  1192094 
 7418000    1.4198604   -3.5564755   -1.9863884   0.21534766   -3.5564755    1.5700871  1192116 
 7419000    1.4193306   -3.5565234   -1.9870431   0.21203307   -3.5565234    1.5694803  1192132 
 7420000    1.4186619   -3.5558942   -1.9871824   0.21537371   -3.5558942    1.5687119  1192154 
 7421000    1.4191442   -3.5565674   -1.9873539    0.2173855   -3.5565674    1.5692135  1192178 
 7422000     1.419128   -3.5561071   -1.9869536   0.21592577   -3.5561071    1.5691535  1192210 
 7423000    1.4189975   -3.5563387   -1.9873637   0.21469896   -3.5563387     1.568975  1192236 
 7424000    1.4195724   -3.5568842   -1.9873012   0.21563859   -3.5568842     1.569583  1192257 
 7425000    1.4193999   -3.5568323   -1.9874676    0.2156788   -3.5568323    1.5693647  1192278 
 7426000    1.4210272    -3.558037   -1.9868968   0.21338432    -3.558037    1.5711402  1192296 
 7427000    1.4202002   -3.5577145   -1.9875361   0.21535115   -3.5577145    1.5701783  1192332 
 7428000    1.4199026   -3.5574726   -1.9876601   0.21566068   -3.5574726    1.5698125  1192360 
 7429000    1.4189131   -3.5565342   -1.9878591    0.2184018   -3.5565342    1.5686751  1192393 
 7430000    1.4197332   -3.5569976   -1.9874381   0.22047652   -3.5569976    1.5695595  1192410 
 7431000    1.4188781   -3.5568475   -1.9882689   0.21813179   -3.5568475    1.5685786  1192437 
 7432000    1.4194697   -3.5574723   -1.9882687   0.21716077   -3.5574723    1.5692036  1192459 
 7433000    1.4197957   -3.5576775   -1.9881411   0.21579417   -3.5576775    1.5695364  1192480 
 7434000    1.4198976   -3.5577726   -1.9881552   0.21755659   -3.5577726    1.5696174  1192504 
 7435000    1.4196989   -3.5576209   -1.9882482   0.21762652   -3.5576209    1.5693727  1192523 
 7436000    1.4205652   -3.5583404   -1.9880429   0.21792827   -3.5583404    1.5702975  1192548 
 7437000    1.4203382   -3.5574679   -1.9874516   0.21811339   -3.5574679    1.5700163  1192571 
 7438000    1.4202787   -3.5581698   -1.9882601   0.21417215   -3.5581698    1.5699097  1192602 
 7439000    1.4191734   -3.5574726   -1.9888163   0.21591409   -3.5574726    1.5686563  1192626 
 7440000    1.4198219   -3.5582204   -1.9888709   0.21426738   -3.5582204    1.5693495  1192644 
 7441000    1.4192991   -3.5572468   -1.9885133   0.21777344   -3.5572468    1.5687335  1192673 
 7442000    1.4210357   -3.5588835   -1.9882649   0.21512234   -3.5588835    1.5706187  1192699 
 7443000    1.4201131   -3.5581135   -1.9885554   0.21433273   -3.5581135    1.5695581  1192730 
 7444000    1.4196889   -3.5568444   -1.9878025   0.21520652   -3.5568444     1.569042  1192766 
 7445000     1.420407    -3.558284   -1.9884839   0.21580651    -3.558284    1.5698001  1192793 
 7446000    1.4204835   -3.5578732   -1.9880057   0.21857561   -3.5578732    1.5698675  1192806 
 7447000    1.4194029   -3.5573269   -1.9886878   0.21674809   -3.5573269    1.5686391  1192832 
 7448000    1.4203279   -3.5582494   -1.9886249   0.21576904   -3.5582494    1.5696245  1192860 
 7449000    1.4201262   -3.5581332   -1.9887593   0.21673974   -3.5581332    1.5693739  1192881 
 7450000    1.4213614   -3.5597999   -1.9891004   0.21297921   -3.5597999    1.5706995  1192911 
 7451000    1.4201866   -3.5584768   -1.9891136   0.21625153   -3.5584768    1.5693631  1192940 
 7452000     1.420899   -3.5587998   -1.9886718   0.21670576   -3.5587998     1.570128  1192957 
 7453000    1.4204381   -3.5585415   -1.9889583   0.21389181   -3.5585415    1.5695831  1192984 
 7454000    1.4199947   -3.5588631   -1.9898015   0.21619732   -3.5588631    1.5690616  1193008 
 7455000    1.4204856    -3.559356   -1.9897797   0.21468976    -3.559356    1.5695764  1193029 
 7456000    1.4198691   -3.5587636   -1.9899106   0.21786116   -3.5587636    1.5688531  1193061 
 7457000      1.41893   -3.5574342   -1.9896437   0.22010268   -3.5574342    1.5677905  1193080 
 7458000    1.4210937   -3.5597749   -1.9896253   0.21477447   -3.5597749    1.5701496  1193104 
 7459000    1.4206283   -3.5598887   -1.9902889   0.21676188   -3.5598887    1.5695999  1193131 
 7460000    1.4210829   -3.5600968   -1.9900354   0.21457458   -3.5600968    1.5700614  1193162 
 7461000    1.4191719   -3.5587836   -1.9908756   0.21385622   -3.5587836     1.567908  1193194 
 7462000    1.4195688   -3.5588968   -1.9905792   0.21670486   -3.5588968    1.5683176  1193216 
 7463000    1.4204959   -3.5607832   -1.9914716   0.21496893   -3.5607832    1.5693116  1193239 
 7464000    1.4197745    -3.560246   -1.9917617   0.21337063    -3.560246    1.5684843  1193262 
 7465000    1.4197604   -3.5597633   -1.9913209   0.21686354   -3.5597633    1.5684425  1193282 
 7466000     1.420892   -3.5614391    -1.991778   0.21520516   -3.5614391     1.569661  1193306 
 7467000    1.4193573   -3.5593933   -1.9914539   0.21792617   -3.5593933    1.5679393  1193326 
 7468000    1.4209485   -3.5605161   -1.9908453   0.21674301   -3.5605161    1.5696708  1193346 
 7469000    1.4214238   -3.5607906   -1.9906316   0.21745349   -3.5607906     1.570159  1193374 
 7470000    1.4213968   -3.5603683   -1.9902707   0.21675019   -3.5603683    1.5700977  1193398 
 7471000    1.4208114   -3.5599092   -1.9904871   0.21288956   -3.5599092    1.5694221  1193420 
 7472000    1.4213626   -3.5606137   -1.9906249   0.21729326   -3.5606137    1.5699888  1193452 
 7473000    1.4201562   -3.5596368   -1.9910148   0.22029051   -3.5596368    1.5686221  1193478 
 7474000     1.421043   -3.5609358   -1.9913631   0.21662751   -3.5609358    1.5695727  1193500 
 7475000     1.421095   -3.5611723   -1.9915725     0.211976   -3.5611723    1.5695998  1193523 
 7476000     1.420619   -3.5610269   -1.9919818   0.21548902   -3.5610269    1.5690451  1193545 
 7477000    1.4209553   -3.5612497   -1.9918712    0.2157071   -3.5612497    1.5693785  1193574 
 7478000    1.4211242   -3.5611387   -1.9916118   0.21807768   -3.5611387    1.5695269  1193603 
 7479000    1.4227341   -3.5618974   -1.9906174   0.21302669   -3.5618974    1.5712799  1193622 
 7480000    1.4216128   -3.5605936   -1.9905823   0.21557669   -3.5605936    1.5700113  1193645 
 7481000    1.4218178   -3.5608045   -1.9905826   0.21974892   -3.5608045    1.5702219  1193657 
 7482000    1.4215857   -3.5609253   -1.9909873   0.21933571   -3.5609253     1.569938  1193678 
 7483000    1.4205509   -3.5602841   -1.9915034   0.21473528   -3.5602841    1.5687807  1193689 
 7484000    1.4195039   -3.5598115   -1.9922159   0.21354078   -3.5598115    1.5675956  1193711 
 7485000    1.4201637   -3.5607948   -1.9924942    0.2141949   -3.5607948    1.5683006  1193729 
 7486000    1.4203633   -3.5604053   -1.9919118   0.21590144   -3.5604053    1.5684934  1193750 
 7487000    1.4200204   -3.5606762    -1.992601   0.21649751   -3.5606762    1.5680753  1193780 
 7488000    1.4211372   -3.5614256   -1.9921487    0.2126736   -3.5614256    1.5692769  1193804 
 7489000    1.4227075   -3.5628043   -1.9918249   0.21228603   -3.5628043    1.5709794  1193828 
 7490000    1.4206763   -3.5605926   -1.9918784   0.22044399   -3.5605926    1.5687142  1193845 
 7491000    1.4201565   -3.5602742   -1.9921616   0.21769855   -3.5602742    1.5681126  1193866 
 7492000    1.4213266   -3.5619413   -1.9925749   0.21169414   -3.5619413    1.5693665  1193895 
 7493000    1.4200757   -3.5605428   -1.9925852   0.21771879   -3.5605428    1.5679577  1193916 
 7494000    1.4207577    -3.561918   -1.9932349   0.21340373    -3.561918    1.5686831  1193937 
 7495000    1.4213306   -3.5626952   -1.9934202   0.21540731   -3.5626952    1.5692749  1193968 
 7496000    1.4211003   -3.5627786   -1.9937829   0.21529611   -3.5627786    1.5689957  1193987 
 7497000    1.4193918   -3.5610967   -1.9940135   0.21800786   -3.5610967    1.5670832  1194007 
 7498000    1.4195129    -3.561647   -1.9944498   0.21651667    -3.561647    1.5671972  1194022 
 7499000    1.4201608   -3.5628633   -1.9949797   0.21638695   -3.5628633    1.5678836  1194044 
 7500000    1.4209246   -3.5627943   -1.9940977   0.21758215   -3.5627943    1.5686966  1194067 
 7501000    1.4206853   -3.5633021   -1.9948919   0.21533647   -3.5633021    1.5684102  1194084 
 7502000    1.4203264   -3.5629045   -1.9949221   0.21717511   -3.5629045    1.5679824  1194108 
 7503000    1.4195837   -3.5617432    -1.994628   0.21957357   -3.5617432    1.5671152  1194144 
 7504000    1.4209278   -3.5635969   -1.9950189   0.22075791   -3.5635969     1.568578  1194160 
 7505000    1.4211735   -3.5638326   -1.9950057   0.21500593   -3.5638326    1.5688269  1194177 
 7506000    1.4212696   -3.5641241   -1.9952214   0.21738607   -3.5641241    1.5689027  1194200 
 7507000    1.4209384   -3.5639265   -1.9954247   0.21874624   -3.5639265    1.5685017  1194227 
 7508000    1.4220953   -3.5652477   -1.9955124   0.21368742   -3.5652477    1.5697353  1194260 
 7509000    1.4215022   -3.5650463   -1.9959972   0.21094929   -3.5650463    1.5690491  1194284 
 7510000    1.4224649   -3.5658208   -1.9957511   0.21211654   -3.5658208    1.5700697  1194316 
 7511000    1.4202502   -3.5628724   -1.9952892    0.2156184   -3.5628724    1.5675832  1194348 
 7512000    1.4195883    -3.563167   -1.9963327   0.21982798    -3.563167    1.5668343  1194362 
 7513000    1.4204576   -3.5643338   -1.9965715   0.21423621   -3.5643338    1.5677623  1194386 
 7514000    1.4206228   -3.5643255   -1.9964112   0.21695453   -3.5643255    1.5679143  1194409 
 7515000    1.4213628   -3.5648097   -1.9961088   0.21126161   -3.5648097    1.5687009  1194432 
 7516000    1.4206225   -3.5634562   -1.9956065   0.21349067   -3.5634562    1.5678497  1194458 
 7517000    1.4210513   -3.5640429   -1.9957462   0.21278289   -3.5640429    1.5682967  1194478 
 7518000     1.421303   -3.5631261   -1.9945792   0.21437163   -3.5631261    1.5685469  1194499 
 7519000    1.4210858   -3.5635636   -1.9952786   0.21667862   -3.5635636    1.5682849  1194516 
 7520000    1.4204017   -3.5619947   -1.9944976   0.21899073   -3.5619947    1.5674971  1194541 
 7521000    1.4208129   -3.5623133   -1.9943873   0.21583145   -3.5623133    1.5679259  1194560 
 7522000    1.4208689   -3.5633187   -1.9953742   0.21469999   -3.5633187    1.5679445  1194593 
 7523000    1.4214736   -3.5640467   -1.9954677   0.21543539   -3.5640467    1.5685789  1194618 
 7524000    1.4218296   -3.5641122   -1.9951641   0.21807663   -3.5641122    1.5689481  1194636 
 7525000    1.4216085   -3.5638142    -1.995139   0.21595588   -3.5638142    1.5686752  1194658 
 7526000    1.4212851   -3.5638607   -1.9955778   0.21532608   -3.5638607     1.568283  1194685 
 7527000    1.4215814   -3.5641822   -1.9956012   0.21860295   -3.5641822     1.568581  1194707 
 7528000     1.421565   -3.5643186   -1.9957859     0.214962   -3.5643186    1.5685327  1194730 
 7529000    1.4205306   -3.5635638   -1.9962052    0.2166557   -3.5635638    1.5673586  1194755 
 7530000    1.4195547    -3.561802   -1.9955477     0.222301    -3.561802    1.5662543  1194776 
 7531000    1.4215196   -3.5634861   -1.9950862   0.21739164   -3.5634861    1.5683999  1194793 
 7532000    1.4226959   -3.5655575   -1.9958873   0.21586121   -3.5655575    1.5696702  1194814 
 7533000     1.420516   -3.5630968   -1.9958698    0.2200042   -3.5630968     1.567227  1194843 
 7534000    1.4213412   -3.5642026   -1.9960939   0.21792605   -3.5642026    1.5681086  1194865 
 7535000    1.4220546   -3.5656119   -1.9967517   0.21593462   -3.5656119    1.5688602  1194892 
 7536000    1.4217584   -3.5656211    -1.997114   0.21935088   -3.5656211    1.5685071  1194912 
 7537000    1.4223392   -3.5659681   -1.9968504   0.21377776   -3.5659681    1.5691177  1194935 
 7538000    1.4224952    -3.566107   -1.9968539   0.21272689    -3.566107    1.5692531  1194963 
 7539000    1.4214722   -3.5648616   -1.9967659   0.21560214   -3.5648616    1.5680957  1194985 
 7540000    1.4221963    -3.565785   -1.9969103   0.21309172    -3.565785    1.5688747  1195000 
 7541000    1.4227955   -3.5664077   -1.9968996   0.21807849   -3.5664077    1.5695082  1195021 
 7542000    1.4210056   -3.5651194   -1.9976158   0.21651287   -3.5651194    1.5675035  1195044 
 7543000    1.4212472   -3.5654333   -1.9976909   0.21669316   -3.5654333    1.5677424  1195065 
 7544000    1.4204248   -3.5644314   -1.9976275   0.21764727   -3.5644314    1.5668039  1195089 
 7545000    1.4219227     -3.56615   -1.9977189   0.21607559     -3.56615    1.5684311  1195108 
 7546000    1.4211568   -3.5659387   -1.9983891    0.2120607   -3.5659387    1.5675496  1195136 
 7547000     1.420281   -3.5650637   -1.9985116   0.21625093   -3.5650637    1.5665521  1195160 
 7548000    1.4206843   -3.5656295   -1.9986443   0.21457342   -3.5656295    1.5669852  1195169 
 7549000    1.4212893   -3.5653976   -1.9977791   0.21806622   -3.5653976    1.5676184  1195195 
 7550000    1.4211028   -3.5652826   -1.9978922   0.21914731   -3.5652826    1.5673904  1195212 
 7551000    1.4219598   -3.5664477   -1.9981476   0.21341755   -3.5664477    1.5683001  1195239 
 7552000    1.4219301   -3.5659394   -1.9977127   0.21641218   -3.5659394    1.5682267  1195270 
 7553000    1.4219425   -3.5663654   -1.9981525   0.21688675   -3.5663654    1.5682128  1195291 
 7554000    1.4225198   -3.5661402   -1.9973131   0.21569585   -3.5661402    1.5688272  1195308 
 7555000    1.4219277   -3.5657964   -1.9976601   0.21645799   -3.5657964    1.5681362  1195337 
 7556000     1.421692    -3.565173   -1.9973256   0.21821703    -3.565173    1.5678474  1195359 
 7557000    1.4218766   -3.5651317   -1.9971095   0.21570715   -3.5651317    1.5680222  1195381 
 7558000    1.4224477   -3.5655297   -1.9968988   0.21413598   -3.5655297    1.5686309  1195397 
 7559000    1.4217812   -3.5654857   -1.9976147   0.21540987   -3.5654857     1.567871  1195416 
 7560000    1.4221966    -3.565727   -1.9974149   0.21827556    -3.565727     1.568312  1195429 
 7561000    1.4208797   -3.5643116   -1.9974793   0.21842744   -3.5643116    1.5668323  1195450 
 7562000    1.4220814   -3.5653496   -1.9972184   0.21973036   -3.5653496    1.5681312  1195470 
 7563000    1.4229561   -3.5667455    -1.997676   0.21698089   -3.5667455    1.5690695  1195490 
 7564000    1.4225666   -3.5665125   -1.9978883   0.21491608   -3.5665125    1.5686242  1195502 
 7565000    1.4206351    -3.564942   -1.9984881   0.21714743    -3.564942    1.5664539  1195533 
 7566000     1.422512   -3.5660471   -1.9975526   0.21913108   -3.5660471    1.5684945  1195555 
 7567000    1.4233937   -3.5673387   -1.9979021   0.21475216   -3.5673387    1.5694366  1195578 
 7568000    1.4219058   -3.5655987   -1.9978303   0.21673172   -3.5655987    1.5677684  1195599 
 7569000     1.421635   -3.5654938   -1.9980384   0.21657427   -3.5654938    1.5674554  1195610 
 7570000    1.4228294   -3.5665534   -1.9978099   0.21692785   -3.5665534    1.5687435  1195632 
 7571000    1.4227246   -3.5660832   -1.9974815   0.21689572   -3.5660832    1.5686016  1195652 
 7572000    1.4229581   -3.5671301   -1.9983011   0.21833245   -3.5671301     1.568829  1195675 
 7573000    1.4228541   -3.5672203   -1.9985363   0.21320531   -3.5672203    1.5686841  1195698 
 7574000     1.422394   -3.5662794   -1.9981367   0.21733884   -3.5662794    1.5681427  1195724 
 7575000    1.4224225   -3.5672164   -1.9990646   0.21782616   -3.5672164    1.5681518  1195741 
 7576000    1.4222319   -3.5674209   -1.9994936   0.21823762   -3.5674209    1.5679273  1195752 
 7577000    1.4211889   -3.5663165   -1.9995587   0.22094704   -3.5663165    1.5667578  1195767 
 7578000    1.4223834   -3.5676932    -1.999637   0.21376075   -3.5676932    1.5680563  1195781 
 7579000    1.4228624   -3.5677706   -1.9992072   0.21715362   -3.5677706    1.5685634  1195797 
 7580000    1.4215907   -3.5667501   -1.9996188   0.21817584   -3.5667501    1.5671313  1195820 
 7581000    1.4228511   -3.5683095   -1.9998163   0.21723166   -3.5683095    1.5684932  1195841 
 7582000    1.4224799   -3.5676002   -1.9995425   0.21558531   -3.5676002    1.5680577  1195861 
 7583000    1.4232129   -3.5688228   -1.9999872   0.20992651   -3.5688228    1.5688356  1195884 
 7584000    1.4221259   -3.5674981   -1.9999066   0.21660133   -3.5674981    1.5675916  1195919 
 7585000    1.4215328   -3.5676451   -2.0007297   0.21186611   -3.5676451    1.5669155  1195936 
 7586000    1.4214814   -3.5678214   -2.0009927   0.21547893   -3.5678214    1.5668287  1195959 
 7587000    1.4215363   -3.5688915   -2.0020337   0.21295728   -3.5688915    1.5668578  1195983 
 7588000    1.4207853   -3.5677034   -2.0017023   0.21723945   -3.5677034    1.5660011  1196005 
 7589000    1.4216009    -3.567878   -2.0010093   0.21849467    -3.567878    1.5668687  1196029 
 7590000     1.422189   -3.5684191   -2.0009284   0.21003051   -3.5684191    1.5674907  1196049 
 7591000    1.4216364   -3.5682624   -2.0014226   0.21425039   -3.5682624    1.5668398  1196081 
 7592000    1.4213436   -3.5680084   -2.0015216   0.21841375   -3.5680084    1.5664868  1196104 
 7593000    1.4215881   -3.5679286   -2.0012024   0.21800077   -3.5679286    1.5667262  1196127 
 7594000    1.4219498   -3.5683091   -2.0012157   0.21895085   -3.5683091    1.5670934  1196151 
 7595000    1.4221197   -3.5685544   -2.0013013   0.21652876   -3.5685544    1.5672531  1196172 
 7596000     1.423438   -3.5698599   -2.0011933   0.21621752   -3.5698599    1.5686666  1196202 
 7597000    1.4227286   -3.5691666   -2.0012909     0.214692   -3.5691666    1.5678757  1196209 
 7598000    1.4221083   -3.5681617   -2.0010023   0.21714513   -3.5681617    1.5671594  1196234 
 7599000    1.4227009    -3.569201   -2.0014096   0.21988339    -3.569201    1.5677914  1196250 
 7600000    1.4213519   -3.5680682   -2.0017896   0.21777325   -3.5680682    1.5662786  1196270 
 7601000     1.422627   -3.5691401   -2.0014733   0.21442704   -3.5691401    1.5676668  1196283 
 7602000    1.4218104   -3.5679344   -2.0011937   0.21647255   -3.5679344    1.5667406  1196303 
 7603000    1.4229096    -3.568961    -2.001038   0.21623751    -3.568961    1.5679231  1196325 
 7604000    1.4229681   -3.5687112   -2.0007524   0.21937329   -3.5687112    1.5679588  1196347 
 7605000    1.4232649   -3.5689018   -2.0006449   0.21444196   -3.5689018    1.5682569  1196369 
 7606000    1.4231613   -3.5690419   -2.0009332   0.21712533   -3.5690419    1.5681087  1196395 
 7607000    1.4231242   -3.5689195   -2.0008739   0.21663688   -3.5689195    1.5680456  1196412 
 7608000    1.4225326   -3.5680696   -2.0007178   0.21688183   -3.5680696    1.5673518  1196444 
 7609000    1.4224132   -3.5680915    -2.000904   0.22083772   -3.5680915    1.5671874  1196469 
 7610000    1.4227946   -3.5678873   -2.0003006    0.2242115   -3.5678873    1.5675867  1196485 
 7611000      1.42356   -3.5684507   -2.0000377   0.21955057   -3.5684507     1.568413  1196498 
 7612000    1.4229426   -3.5682186   -2.0005212   0.21796134   -3.5682186    1.5676974  1196525 
 7613000    1.4221986   -3.5677397   -2.0008843    0.2196859   -3.5677397    1.5668554  1196542 
 7614000    1.4236452   -3.5683397    -1.999909   0.21489847   -3.5683397    1.5684308  1196556 
 7615000    1.4232184   -3.5680991    -2.000166   0.21915306   -3.5680991    1.5679331  1196577 
 7616000    1.4231037   -3.5683369   -2.0005472   0.21657807   -3.5683369    1.5677897  1196590 
 7617000    1.4230898   -3.5689401   -2.0011879   0.21658563   -3.5689401    1.5677521  1196607 
 7618000    1.4230918   -3.5691237    -2.001393   0.21639738   -3.5691237    1.5677307  1196625 
 7619000    1.4235292   -3.5692838   -2.0010895   0.21777557   -3.5692838    1.5681943  1196639 
 7620000    1.4230285   -3.5692585   -2.0016421   0.21686563   -3.5692585    1.5676165  1196659 
 7621000    1.4231315     -3.56932   -2.0016124    0.2154024     -3.56932    1.5677076  1196676 
 7622000    1.4224813   -3.5691262   -2.0021662   0.21557055   -3.5691262    1.5669599  1196700 
 7623000    1.4223275   -3.5691147   -2.0023438   0.21525972   -3.5691147    1.5667709  1196715 
 7624000    1.4240478   -3.5705631   -2.0019286   0.21278514   -3.5705631    1.5686345  1196739 
 7625000    1.4230973   -3.5694046   -2.0018473   0.21991639   -3.5694046    1.5675573  1196762 
 7626000    1.4226956   -3.5694669   -2.0023991   0.21740293   -3.5694669    1.5670678  1196798 
 7627000    1.4229768   -3.5703479   -2.0029994   0.21866688   -3.5703479    1.5673486  1196820 
 7628000    1.4236626   -3.5703899   -2.0023042   0.21591084   -3.5703899    1.5680857  1196834 
 7629000    1.4221949   -3.5697082   -2.0032757   0.21592058   -3.5697082    1.5664325  1196862 
 7630000    1.4221822    -3.569572   -2.0031849   0.21770602    -3.569572    1.5663871  1196886 
 7631000    1.4228231    -3.570374   -2.0033072   0.22162782    -3.570374    1.5670668  1196906 
 7632000     1.423305   -3.5706064   -2.0030286   0.21687028   -3.5706064    1.5675779  1196921 
 7633000    1.4240642   -3.5711524   -2.0027659   0.21483251   -3.5711524    1.5683865  1196942 
 7634000    1.4237336   -3.5712232   -2.0032362    0.2179147   -3.5712232     1.567987  1196969 
 7635000     1.423509   -3.5716123   -2.0039067   0.21633361   -3.5716123    1.5677056  1196995 
 7636000    1.4239837   -3.5718051   -2.0036081   0.21759336   -3.5718051     1.568197  1197019 
 7637000    1.4227565    -3.570468   -2.0036657   0.21614713    -3.570468    1.5668023  1197052 
 7638000    1.4225304   -3.5700536   -2.0035462   0.22170987   -3.5700536    1.5665075  1197087 
 7639000    1.4244463   -3.5720745   -2.0034835   0.21449144   -3.5720745     1.568591  1197107 
 7640000    1.4231562   -3.5711738   -2.0040256   0.21724365   -3.5711738    1.5671482  1197124 
 7641000    1.4216851   -3.5702209   -2.0047227   0.21765725   -3.5702209    1.5654982  1197147 
 7642000    1.4223493   -3.5709531    -2.004751   0.21906637   -3.5709531    1.5662021  1197168 
 7643000     1.423013   -3.5717151   -2.0048044   0.21682086   -3.5717151    1.5669107  1197185 
 7644000    1.4233901     -3.57182   -2.0045374   0.21519437     -3.57182    1.5672826  1197218 
 7645000    1.4221624   -3.5709783   -2.0050762   0.21788573   -3.5709783    1.5659021  1197240 
 7646000     1.424153   -3.5729499   -2.0048783   0.21289067   -3.5729499    1.5680716  1197257 
 7647000     1.424233   -3.5726034   -2.0044699   0.21560401   -3.5726034    1.5681335  1197277 
 7648000    1.4231921   -3.5714741   -2.0045102   0.21595433   -3.5714741    1.5669639  1197295 
 7649000    1.4226301    -3.570848   -2.0045369   0.21758426    -3.570848    1.5663111  1197321 
 7650000     1.422899    -3.571303   -2.0047286   0.21538646    -3.571303    1.5665744  1197346 
 7651000    1.4229992   -3.5714376   -2.0047882    0.2168094   -3.5714376    1.5666494  1197373 
 7652000    1.4232041   -3.5713197   -2.0044865   0.21826248   -3.5713197    1.5668332  1197405 
 7653000    1.4231886   -3.5717067   -2.0049129   0.21979111   -3.5717067    1.5667939  1197422 
 7654000    1.4239808   -3.5722735   -2.0046443   0.21555962   -3.5722735    1.5676293  1197450 
 7655000    1.4242464    -3.573398   -2.0055142   0.21700147    -3.573398    1.5678837  1197479 
 7656000    1.4229716   -3.5718935   -2.0054471   0.22197638   -3.5718935    1.5664464  1197505 
 7657000    1.4225818    -3.571753   -2.0057527   0.21994814    -3.571753    1.5660003  1197518 
 7658000    1.4231836   -3.5723854   -2.0057514   0.21612272   -3.5723854    1.5666339  1197540 
 7659000    1.4244175   -3.5736584   -2.0056805   0.21469853   -3.5736584    1.5679778  1197551 
 7660000    1.4245494   -3.5739253   -2.0058259   0.21659092   -3.5739253    1.5680994  1197569 
 7661000    1.4232543   -3.5729348   -2.0062779   0.21492541   -3.5729348    1.5666568  1197582 
 7662000    1.4231925   -3.5728683   -2.0063018   0.21776594   -3.5728683    1.5665665  1197599 
 7663000    1.4223546   -3.5719252   -2.0063031   0.21849693   -3.5719252    1.5656221  1197616 
 7664000    1.4229863    -3.572814   -2.0065294   0.21639865    -3.572814    1.5662846  1197641 
 7665000    1.4228127   -3.5720396   -2.0059695   0.21797175   -3.5720396      1.56607  1197659 
 7666000    1.4238593    -3.573714   -2.0065181    0.2153286    -3.573714    1.5671959  1197679 
 7667000    1.4224025   -3.5722779   -2.0067155   0.21786736   -3.5722779    1.5655623  1197702 
 7668000    1.4239786   -3.5740351   -2.0067707   0.21598724   -3.5740351    1.5672644  1197727 
 7669000    1.4225975   -3.5718192   -2.0060932    0.2185867   -3.5718192    1.5657259  1197741 
 7670000    1.4244577   -3.5732173   -2.0054755   0.22012636   -3.5732173    1.5677419  1197765 
 7671000    1.4225968   -3.5713896   -2.0057298   0.21978157   -3.5713896    1.5656598  1197791 
 7672000    1.4239411   -3.5725654   -2.0054456   0.22141721   -3.5725654    1.5671197  1197806 
 7673000    1.4238272   -3.5731175   -2.0061676    0.2186943   -3.5731175    1.5669499  1197840 
 7674000    1.4237193   -3.5725378   -2.0057315   0.21890806   -3.5725378    1.5668063  1197859 
 7675000    1.4239155   -3.5728978   -2.0059057   0.21876878   -3.5728978    1.5669921  1197882 
 7676000    1.4246524   -3.5735746   -2.0058069   0.21835592   -3.5735746    1.5677677  1197909 
 7677000    1.4236865   -3.5728201   -2.0061402    0.2176976   -3.5728201    1.5666799  1197928 
 7678000    1.4236179   -3.5731869   -2.0066099   0.21678946   -3.5731869     1.566577  1197949 
 7679000    1.4229317   -3.5732325   -2.0074368   0.21380199   -3.5732325    1.5657958  1197969 
 7680000      1.42336   -3.5731758   -2.0069415   0.21529562   -3.5731758    1.5662343  1197994 
 7681000     1.422962    -3.573175   -2.0073956    0.2188514    -3.573175    1.5657794  1198007 
 7682000    1.4228354   -3.5727505   -2.0071288   0.21733917   -3.5727505    1.5656218  1198021 
 7683000    1.4233886   -3.5735122   -2.0073078     0.216005   -3.5735122    1.5662044  1198041 
 7684000     1.424331   -3.5746406   -2.0074268   0.21522528   -3.5746406    1.5672138  1198062 
 7685000    1.4249656   -3.5745523   -2.0066702   0.21651349   -3.5745523     1.567882  1198085 
 7686000    1.4233747   -3.5734435   -2.0073342   0.21645219   -3.5734435    1.5661093  1198102 
 7687000    1.4246894   -3.5753957   -2.0078646   0.21421234   -3.5753957     1.567531  1198121 
 7688000    1.4233049   -3.5733535   -2.0073759   0.21830834   -3.5733535    1.5659776  1198144 
 7689000    1.4238982   -3.5741297   -2.0075241   0.21849348   -3.5741297    1.5666056  1198163 
 7690000    1.4241705   -3.5744269   -2.0075531   0.22055632   -3.5744269    1.5668737  1198187 
 7691000    1.4242112   -3.5744307   -2.0075396   0.22116614   -3.5744307     1.566891  1198208 
 7692000    1.4238853    -3.574464   -2.0079524   0.21818981    -3.574464    1.5665116  1198224 
 7693000     1.424525   -3.5754209   -2.0082422   0.21724526   -3.5754209    1.5671788  1198252 
 7694000    1.4224952   -3.5737188    -2.008794   0.21983062   -3.5737188    1.5649248  1198268 
 7695000    1.4221382   -3.5742745   -2.0097634   0.21945609   -3.5742745    1.5645111  1198284 
 7696000    1.4237635   -3.5754657   -2.0092044   0.21523211   -3.5754657    1.5662613  1198313 
 7697000    1.4231824   -3.5749524   -2.0093697   0.21366659   -3.5749524    1.5655828  1198343 
 7698000    1.4241665    -3.575738    -2.009104   0.21192731    -3.575738     1.566634  1198367 
 7699000    1.4224714   -3.5744151   -2.0096693   0.21783896   -3.5744151    1.5647458  1198385 
 7700000    1.4233912    -3.575414   -2.0096865   0.21603664    -3.575414    1.5657276  1198408 
 7701000     1.423301   -3.5753006   -2.0096971   0.21628032   -3.5753006    1.5656036  1198427 
 7702000    1.4230278   -3.5744746   -2.0092081   0.22091001   -3.5744746    1.5652665  1198455 
 7703000    1.4231681   -3.5747554   -2.0093516   0.21676505   -3.5747554    1.5654038  1198468 
 7704000    1.4231716   -3.5747694   -2.0093918   0.21691378   -3.5747694    1.5653776  1198491 
 7705000    1.4237558   -3.5748985   -2.0089135   0.21817421   -3.5748985     1.565985  1198518 
 7706000    1.4242944   -3.5754758   -2.0089195    0.2197576   -3.5754758    1.5665564  1198534 
 7707000    1.4242822   -3.5748291     -2.00832   0.21892742   -3.5748291    1.5665091  1198560 
 7708000     1.423895   -3.5743605   -2.0083061   0.22032706   -3.5743605    1.5660544  1198582 
 7709000    1.4233337   -3.5739842   -2.0085629    0.2225558   -3.5739842    1.5654214  1198594 
 7710000    1.4248415   -3.5757489   -2.0086953     0.217454   -3.5757489    1.5670536  1198614 
 7711000    1.4243367   -3.5753098   -2.0088402    0.2146031   -3.5753098    1.5664696  1198636 
 7712000    1.4241676   -3.5761612   -2.0098972   0.21752655   -3.5761612    1.5662641  1198651 
 7713000     1.423893   -3.5751941   -2.0092517   0.21875791   -3.5751941    1.5659425  1198666 
 7714000    1.4241732   -3.5762523   -2.0100213   0.21098267   -3.5762523    1.5662309  1198681 
 7715000    1.4238423   -3.5757218   -2.0098861   0.21982721   -3.5757218    1.5658357  1198705 
 7716000    1.4229619   -3.5754436   -2.0105943   0.21950368   -3.5754436    1.5648493  1198719 
 7717000    1.4220058   -3.5748276   -2.0110598   0.22004671   -3.5748276    1.5637678  1198742 
 7718000    1.4222913   -3.5752533   -2.0112016   0.21674472   -3.5752533    1.5640518  1198765 
 7719000    1.4234311   -3.5761011   -2.0108142   0.21800189   -3.5761011    1.5652869  1198779 
 7720000    1.4240641    -3.576156   -2.0102004   0.21807026    -3.576156    1.5659556  1198800 
 7721000    1.4239958   -3.5751418   -2.0092954   0.22091377   -3.5751418    1.5658465  1198826 
 7722000    1.4249298   -3.5761384   -2.0092884   0.22002629   -3.5761384      1.56685  1198844 
 7723000    1.4252125   -3.5764359   -2.0093038   0.22245993   -3.5764359    1.5671321  1198866 
 7724000     1.424667   -3.5752895   -2.0087769   0.22409494   -3.5752895    1.5665126  1198881 
 7725000    1.4248115   -3.5757626   -2.0091224   0.22104411   -3.5757626    1.5666402  1198905 
 7726000    1.4255586   -3.5760794   -2.0086439    0.2242203   -3.5760794    1.5674355  1198925 
 7727000    1.4252917    -3.575989   -2.0088783   0.21756393    -3.575989    1.5671107  1198949 
 7728000    1.4247705   -3.5753166   -2.0088064   0.22205151   -3.5753166    1.5665102  1198970 
 7729000    1.4259285   -3.5778441   -2.0100881   0.22113243   -3.5778441     1.567756  1198991 
 7730000    1.4240928    -3.576112   -2.0103966   0.22005683    -3.576112    1.5657154  1199008 
 7731000    1.4237023   -3.5763859   -2.0111337   0.21935784   -3.5763859    1.5652522  1199034 
 7732000    1.4238565   -3.5758867   -2.0104846   0.21723881   -3.5758867    1.5654021  1199049 
 7733000     1.424011   -3.5761128   -2.0105617    0.2193601   -3.5761128    1.5655511  1199065 
 7734000    1.4246057   -3.5767856   -2.0106055   0.21817016   -3.5767856    1.5661801  1199084 
 7735000    1.4242272   -3.5770548   -2.0113235   0.21759711   -3.5770548    1.5657313  1199109 
 7736000    1.4232622   -3.5756179   -2.0109775   0.22294223   -3.5756179    1.5646404  1199132 
 7737000    1.4238238   -3.5760242   -2.0107925   0.21463207   -3.5760242    1.5652317  1199152 
 7738000    1.4236351   -3.5757529     -2.01076   0.21870864   -3.5757529    1.5649929  1199176 
 7739000    1.4245815   -3.5765481   -2.0105382   0.21840165   -3.5765481    1.5660099  1199194 
 7740000    1.4256206   -3.5774035   -2.0102894   0.21994579   -3.5774035    1.5671142  1199223 
 7741000    1.4260459   -3.5774561   -2.0099019   0.21720093   -3.5774561    1.5675542  1199244 
 7742000    1.4256479   -3.5772696   -2.0101908   0.21932013   -3.5772696    1.5670788  1199273 
 7743000    1.4259685   -3.5771331    -2.009724   0.22232187   -3.5771331    1.5674091  1199290 
 7744000    1.4245717   -3.5761541    -2.010313   0.21815809   -3.5761541    1.5658411  1199315 
 7745000    1.4255466   -3.5771215   -2.0102481   0.22242903   -3.5771215    1.5668734  1199345 
 7746000    1.4263785   -3.5782421   -2.0104909   0.21562158   -3.5782421    1.5677512  1199373 
 7747000    1.4238009   -3.5751891   -2.0102957   0.22686763   -3.5751891    1.5648934  1199392 
 7748000    1.4248998   -3.5768306   -2.0107633   0.22279941   -3.5768306    1.5660672  1199418 
 7749000    1.4244661    -3.576314   -2.0107471   0.22114093    -3.576314     1.565567  1199436 
 7750000    1.4241581   -3.5765906   -2.0113987   0.22046235   -3.5765906     1.565192  1199464 
 7751000    1.4255949   -3.5780167   -2.0112626    0.2193759   -3.5780167    1.5667541  1199477 
 7752000    1.4253399   -3.5776665   -2.0112071    0.2158924   -3.5776665    1.5664594  1199488 
 7753000    1.4256722    -3.578128   -2.0113425   0.21599426    -3.578128    1.5667855  1199518 
 7754000    1.4252958   -3.5781039   -2.0117556   0.22175399   -3.5781039    1.5663483  1199536 
 7755000    1.4248969   -3.5778023   -2.0119289   0.21885629   -3.5778023    1.5658734  1199564 
 7756000    1.4256969   -3.5785763   -2.0118551    0.2183139   -3.5785763    1.5667212  1199588 
 7757000    1.4243907    -3.577064   -2.0118082   0.22140256    -3.577064    1.5652557  1199611 
 7758000    1.4255599   -3.5782948    -2.011775   0.21605163   -3.5782948    1.5665197  1199627 
 7759000    1.4242746   -3.5771513   -2.0120739   0.21897289   -3.5771513    1.5650773  1199650 
 7760000    1.4258655   -3.5785419   -2.0117477   0.21690578   -3.5785419    1.5667941  1199674 
 7761000    1.4253251   -3.5783821   -2.0122092   0.21745364   -3.5783821    1.5661729  1199695 
 7762000    1.4259322   -3.5795569   -2.0127483   0.21755064   -3.5795569    1.5668086  1199719 
 7763000    1.4246704   -3.5779586   -2.0125651   0.21909356   -3.5779586    1.5653935  1199741 
 7764000    1.4243842   -3.5778639   -2.0128135   0.21684405   -3.5778639    1.5650503  1199763 
 7765000    1.4253589   -3.5789275   -2.0128336   0.21597001   -3.5789275    1.5660939  1199784 
 7766000    1.4250285   -3.5788804   -2.0131861    0.2207127   -3.5788804    1.5656943  1199812 
 7767000    1.4246951   -3.5784973   -2.0131941   0.21806681   -3.5784973    1.5653032  1199831 
 7768000    1.4243323   -3.5780936   -2.0132086   0.21956662   -3.5780936    1.5648851  1199846 
 7769000    1.4255142   -3.5791021   -2.0129511   0.21860068   -3.5791021     1.566151  1199871 
 7770000    1.4255023   -3.5790553   -2.0129487   0.21792915   -3.5790553    1.5661066  1199895 
 7771000    1.4253353   -3.5789991     -2.01311   0.22190137   -3.5789991    1.5658891  1199921 
 7772000    1.4250476   -3.5796152   -2.0140682   0.21759971   -3.5796152     1.565547  1199941 
 7773000    1.4253508   -3.5801259   -2.0142824   0.21530579   -3.5801259    1.5658435  1199969 
 7774000    1.4249879   -3.5793512   -2.0139324   0.22049173   -3.5793512    1.5654188  1199989 
 7775000    1.4263813   -3.5808292    -2.013911   0.21588576   -3.5808292    1.5669182  1200013 
 7776000    1.4250784   -3.5792775   -2.0138114   0.22315892   -3.5792775    1.5654661  1200029 
 7777000    1.4257675   -3.5796367   -2.0134385   0.21808197   -3.5796367    1.5661982  1200048 
 7778000    1.4258894    -3.579945   -2.0136469   0.21736039    -3.579945    1.5662981  1200074 
 7779000    1.4253995   -3.5793226     -2.01359   0.21875156   -3.5793226    1.5657326  1200095 
 7780000    1.4254808   -3.5796284   -2.0138327    0.2189135   -3.5796284    1.5657958  1200115 
 7781000    1.4244157   -3.5781479   -2.0135559   0.22404872   -3.5781479     1.564592  1200141 
 7782000    1.4267405   -3.5804998   -2.0133803   0.21844144   -3.5804998    1.5671195  1200161 
 7783000    1.4259627   -3.5796381   -2.0133991   0.22019269   -3.5796381     1.566239  1200181 
 7784000    1.4255139   -3.5791864   -2.0134664   0.21866731   -3.5791864      1.56572  1200201 
 7785000    1.4257939   -3.5793852   -2.0133812   0.21939562   -3.5793852    1.5660041  1200219 
 7786000    1.4259404   -3.5799148    -2.013776   0.21884703   -3.5799148    1.5661388  1200239 
 7787000    1.4269508   -3.5808891   -2.0136653   0.21760572   -3.5808891    1.5672238  1200258 
 7788000    1.4255817   -3.5797255   -2.0140406   0.21733817   -3.5797255    1.5656849  1200285 
 7789000    1.4249592   -3.5798122   -2.0148318   0.21629476   -3.5798122    1.5649803  1200301 
 7790000     1.425416   -3.5803971   -2.0149411   0.21637215   -3.5803971     1.565456  1200321 
 7791000    1.4250118   -3.5793739   -2.0143788   0.21875606   -3.5793739    1.5649951  1200334 
 7792000    1.4262146   -3.5805146   -2.0142219   0.21725379   -3.5805146    1.5662926  1200352 
 7793000    1.4263836   -3.5808055   -2.0143587   0.22078273   -3.5808055    1.5664468  1200376 
 7794000    1.4259604   -3.5808767   -2.0149155   0.22096479   -3.5808767    1.5659612  1200392 
 7795000    1.4269312   -3.5815685   -2.0145725   0.21333227   -3.5815685    1.5669959  1200416 
 7796000      1.42563   -3.5806073   -2.0150611   0.21621607   -3.5806073    1.5655462  1200432 
 7797000    1.4258476   -3.5804034   -2.0146495   0.21607581   -3.5804034    1.5657539  1200456 
 7798000     1.427187   -3.5819193    -2.014722   0.21644988   -3.5819193    1.5671973  1200477 
 7799000    1.4250836   -3.5797013   -2.0148372   0.22212146   -3.5797013     1.564864  1200495 
 7800000    1.4271749   -3.5819764   -2.0148329   0.21584441   -3.5819764    1.5671435  1200508 
 7801000    1.4263195   -3.5816071   -2.0154276   0.22398523   -3.5816071    1.5661794  1200527 
 7802000     1.426128   -3.5817917   -2.0158487   0.21630928   -3.5817917     1.565943  1200547 
 7803000    1.4263034   -3.5814193   -2.0153058   0.22070573   -3.5814193    1.5661135  1200564 
 7804000    1.4258213   -3.5813293   -2.0157818    0.2203047   -3.5813293    1.5655476  1200592 
 7805000    1.4254256   -3.5818475   -2.0167695   0.21423975   -3.5818475    1.5650779  1200619 
 7806000    1.4245712   -3.5808636   -2.0167602    0.2171827   -3.5808636    1.5641033  1200647 
 7807000     1.424132   -3.5802056   -2.0166079   0.22186851   -3.5802056    1.5635977  1200665 
 7808000    1.4252118   -3.5808157   -2.0160572   0.21694851   -3.5808157    1.5647585  1200684 
 7809000    1.4259214   -3.5816975   -2.0161795   0.21752815   -3.5816975     1.565518  1200699 
 7810000    1.4253795   -3.5806909   -2.0157979   0.22057581   -3.5806909     1.564893  1200722 
 7811000     1.426827   -3.5820053   -2.0155465   0.21413951   -3.5820053    1.5664588  1200740 
 7812000    1.4266477   -3.5821104   -2.0158837   0.21827583   -3.5821104    1.5662267  1200767 
 7813000    1.4273869    -3.582175   -2.0151707    0.2174163    -3.582175    1.5670043  1200793 
 7814000    1.4262503   -3.5809979   -2.0152714   0.21969847   -3.5809979    1.5657265  1200816 
 7815000     1.425952   -3.5815225   -2.0161495   0.22165063   -3.5815225     1.565373  1200836 
 7816000    1.4266152    -3.581945   -2.0158674   0.21830088    -3.581945    1.5660776  1200854 
 7817000    1.4268069   -3.5818522   -2.0155891   0.22434746   -3.5818522    1.5662632  1200873 
 7818000    1.4270803     -3.58183   -2.0152928    0.2211214     -3.58183    1.5665372  1200893 
 7819000    1.4260954    -3.581851   -2.0164157   0.22155012    -3.581851    1.5654352  1200909 
 7820000    1.4258019    -3.581559   -2.0164615   0.21868632    -3.581559    1.5650974  1200921 
 7821000    1.4256057   -3.5815097   -2.0166601   0.21871631   -3.5815097    1.5648495  1200946 
 7822000    1.4246586    -3.580692   -2.0169094   0.22088702    -3.580692    1.5637826  1200967 
 7823000      1.42561   -3.5819699     -2.01716   0.22168436   -3.5819699    1.5648099  1200980 
 7824000    1.4250165   -3.5815285   -2.0173922   0.22228749   -3.5815285    1.5641363  1200997 
 7825000    1.4260682    -3.582576   -2.0173153   0.22398775    -3.582576    1.5652607  1201020 
 7826000    1.4262157   -3.5827083   -2.0173157   0.21950219   -3.5827083    1.5653926  1201043 
 7827000    1.4253053   -3.5814345   -2.0170659   0.22293587   -3.5814345    1.5643686  1201062 
 7828000    1.4276726   -3.5836529    -2.016712   0.22202476   -3.5836529    1.5669408  1201082 
 7829000    1.4258456   -3.5824917   -2.0175808    0.2199792   -3.5824917    1.5649108  1201101 
 7830000    1.4265694   -3.5831651   -2.0174859   0.22331238   -3.5831651    1.5656792  1201121 
 7831000    1.4264419   -3.5827643   -2.0172616   0.22125327   -3.5827643    1.5655027  1201149 
 7832000    1.4263883   -3.5833281   -2.0179038   0.21973547   -3.5833281    1.5654243  1201164 
 7833000    1.4256557   -3.5821225   -2.0175321   0.22026653   -3.5821225    1.5645904  1201187 
 7834000    1.4275718   -3.5839596   -2.0172872   0.21777727   -3.5839596    1.5666724  1201203 
 7835000    1.4265851   -3.5828892   -2.0173336   0.21912484   -3.5828892    1.5655556  1201229 
 7836000    1.4256772   -3.5825682   -2.0180428   0.22047642   -3.5825682    1.5645254  1201255 
 7837000    1.4267769    -3.583474    -2.017773   0.22020937    -3.583474     1.565701  1201279 
 7838000    1.4265617   -3.5835346   -2.0180998   0.22012104   -3.5835346    1.5654348  1201302 
 7839000    1.4259767   -3.5831948   -2.0184437   0.21948934   -3.5831948    1.5647512  1201334 
 7840000    1.4255531   -3.5833089   -2.0190524   0.21839037   -3.5833089    1.5642564  1201357 
 7841000    1.4259047   -3.5833333   -2.0187198   0.22009606   -3.5833333    1.5646135  1201379 
 7842000    1.4259156   -3.5834247   -2.0188239   0.21742894   -3.5834247    1.5646008  1201398 
 7843000    1.4261324   -3.5834727   -2.0186679   0.22191149   -3.5834727    1.5648048  1201424 
 7844000    1.4263884   -3.5832534   -2.0181951   0.22172942   -3.5832534    1.5650583  1201445 
 7845000    1.4263935   -3.5833088   -2.0182684   0.21686203   -3.5833088    1.5650405  1201463 
 7846000     1.426549   -3.5840204    -2.018838   0.22249982   -3.5840204    1.5651824  1201485 
 7847000    1.4261926    -3.582621   -2.0178595   0.22103653    -3.582621    1.5647615  1201508 
 7848000    1.4272065    -3.584362   -2.0185116   0.22187162    -3.584362    1.5658504  1201526 
 7849000    1.4278646   -3.5846728   -2.0181277    0.2179028   -3.5846728     1.566545  1201547 
 7850000    1.4275974    -3.584775   -2.0185414   0.21734969    -3.584775    1.5662336  1201561 
 7851000    1.4271262   -3.5844332    -2.018753   0.22004836   -3.5844332    1.5656802  1201589 
 7852000    1.4261984   -3.5838933   -2.0192583   0.22101739   -3.5838933     1.564635  1201610 
 7853000    1.4265443   -3.5842214   -2.0192447   0.22115168   -3.5842214    1.5649767  1201639 
 7854000    1.4267843   -3.5838735     -2.01867    0.2209207   -3.5838735    1.5652035  1201667 
 7855000    1.4266819   -3.5832245    -2.018149   0.21976029   -3.5832245    1.5650756  1201679 
 7856000    1.4271211   -3.5837722   -2.0182461   0.22134637   -3.5837722    1.5655261  1201703 
 7857000    1.4279087   -3.5842523   -2.0178857   0.22125245   -3.5842523    1.5663666  1201721 
 7858000    1.4262421   -3.5830274   -2.0185267   0.22587022   -3.5830274    1.5645007  1201750 
 7859000    1.4274134   -3.5840479   -2.0183027   0.22798147   -3.5840479    1.5657452  1201781 
 7860000    1.4275955   -3.5847286   -2.0188059   0.21721923   -3.5847286    1.5659227  1201798 
 7861000    1.4275744   -3.5850377   -2.0191629   0.21814663   -3.5850377    1.5658748  1201817 
 7862000    1.4266457   -3.5842866   -2.0194552   0.22258867   -3.5842866    1.5648314  1201836 
 7863000    1.4276452   -3.5858727   -2.0199711   0.21712369   -3.5858727    1.5659017  1201856 
 7864000    1.4272538   -3.5848202   -2.0193791    0.2195599   -3.5848202    1.5654411  1201880 
 7865000    1.4268411    -3.584779   -2.0198167   0.22204471    -3.584779    1.5649623  1201900 
 7866000     1.427224   -3.5848966   -2.0195403   0.22076618   -3.5848966    1.5653563  1201920 
 7867000    1.4265848    -3.583848   -2.0192227   0.22358455    -3.583848    1.5646253  1201943 
 7868000    1.4272434   -3.5852996   -2.0199741   0.21714701   -3.5852996    1.5653255  1201960 
 7869000    1.4273068   -3.5852909   -2.0199311   0.22130508   -3.5852909    1.5653598  1201987 
 7870000    1.4269966   -3.5848935   -2.0198961   0.22056938   -3.5848935    1.5649975  1202004 
 7871000     1.426033   -3.5838624   -2.0199425   0.22229577   -3.5838624    1.5639199  1202020 
 7872000    1.4275146   -3.5858814   -2.0203666    0.2166446   -3.5858814    1.5655148  1202043 
 7873000    1.4259953   -3.5844199   -2.0206038   0.21964736   -3.5844199    1.5638161  1202068 
 7874000    1.4262205   -3.5846554   -2.0206275   0.21887815   -3.5846554    1.5640279  1202095 
 7875000    1.4276352   -3.5863228   -2.0207578     0.220537   -3.5863228    1.5655651  1202106 
 7876000    1.4261551   -3.5856417   -2.0217349   0.21842389   -3.5856417    1.5639068  1202133 
 7877000    1.4256332   -3.5846874    -2.021375   0.22100768   -3.5846874    1.5633124  1202150 
 7878000    1.4266371   -3.5855944    -2.021211    0.2223517   -3.5855944    1.5643833  1202173 
 7879000     1.426826   -3.5860264   -2.0214594   0.21985638   -3.5860264     1.564567  1202191 
 7880000    1.4257608   -3.5849996   -2.0216175   0.22417899   -3.5849996    1.5633821  1202204 
 7881000    1.4276019   -3.5871224   -2.0217554   0.21803553   -3.5871224     1.565367  1202230 
 7882000    1.4260886   -3.5855133   -2.0218329   0.22154464   -3.5855133    1.5636804  1202251 
 7883000    1.4258343   -3.5861841   -2.0228164   0.22076003   -3.5861841    1.5633677  1202277 
 7884000    1.4272383   -3.5874587   -2.0225776   0.21445251   -3.5874587    1.5648811  1202297 
 7885000     1.426351   -3.5853495   -2.0214738   0.22107975   -3.5853495    1.5638758  1202322 
 7886000    1.4274141   -3.5867524   -2.0217332    0.2180798   -3.5867524    1.5650192  1202339 
 7887000    1.4272627   -3.5866925   -2.0218575   0.22386707   -3.5866925     1.564835  1202353 
 7888000    1.4266416   -3.5862677   -2.0221345   0.22187717   -3.5862677    1.5641332  1202369 
 7889000    1.4268339   -3.5866147   -2.0223019    0.2210771   -3.5866147    1.5643128  1202393 
 7890000    1.4271428   -3.5870163   -2.0223882   0.22035738   -3.5870163    1.5646281  1202411 
 7891000    1.4270635   -3.5866475   -2.0221323   0.22259041   -3.5866475    1.5645151  1202431 
 7892000    1.4274224   -3.5868181   -2.0219355    0.2183001   -3.5868181    1.5648825  1202451 
 7893000    1.4270121   -3.5861876   -2.0217731   0.21831404   -3.5861876    1.5644145  1202465 
 7894000    1.4283729   -3.5876932   -2.0218155   0.21705606   -3.5876932    1.5658777  1202487 
 7895000    1.4272686   -3.5865278    -2.021888   0.21938353   -3.5865278    1.5646397  1202508 
 7896000    1.4271061   -3.5862421   -2.0218053   0.22204119   -3.5862421    1.5644369  1202527 
 7897000    1.4273694   -3.5864058   -2.0217219   0.21613489   -3.5864058    1.5646839  1202559 
 7898000    1.4265109   -3.5856067    -2.021886   0.22164878   -3.5856067    1.5637207  1202576 
 7899000    1.4272251   -3.5866099   -2.0221284   0.22104921   -3.5866099    1.5644815  1202593 
 7900000    1.4273564   -3.5874561   -2.0228646    0.2191834   -3.5874561    1.5645916  1202619 
 7901000    1.4264548   -3.5869612     -2.02338    0.2200808   -3.5869612    1.5635812  1202636 
 7902000    1.4273637   -3.5876305   -2.0230739   0.21827192   -3.5876305    1.5645567  1202652 
 7903000     1.427663   -3.5869792   -2.0221258   0.22073107   -3.5869792    1.5648535  1202676 
 7904000    1.4273163   -3.5860388   -2.0215914   0.21868583   -3.5860388    1.5644474  1202696 
 7905000    1.4267699   -3.5862386   -2.0224199   0.22476291   -3.5862386    1.5638187  1202719 
 7906000      1.42765   -3.5868786    -2.022133   0.21956216   -3.5868786    1.5647456  1202748 
 7907000    1.4277724   -3.5873006    -2.022452   0.21731952   -3.5873006    1.5648485  1202772 
 7908000    1.4274021   -3.5874723   -2.0230505   0.21856564   -3.5874723    1.5644218  1202788 
 7909000    1.4275583   -3.5871379   -2.0225643   0.21921587   -3.5871379    1.5645736  1202803 
 7910000    1.4268055   -3.5871288   -2.0234141    0.2225219   -3.5871288    1.5637147  1202829 
 7911000    1.4268801    -3.587076   -2.0233108   0.22026699    -3.587076    1.5637652  1202853 
 7912000     1.427401   -3.5873385   -2.0230272   0.21887566   -3.5873385    1.5643113  1202872 
 7913000    1.4281091   -3.5879514   -2.0228927   0.22497004   -3.5879514    1.5650587  1202894 
 7914000    1.4276734   -3.5878133   -2.0232502   0.21960722   -3.5878133     1.564563  1202908 
 7915000    1.4277149   -3.5877937    -2.023215    0.2193477   -3.5877937    1.5645787  1202931 
 7916000    1.4274712    -3.587812   -2.0235303   0.22403527    -3.587812    1.5642817  1202954 
 7917000    1.4268292   -3.5872182   -2.0236725   0.22128615   -3.5872182    1.5635457  1202979 
 7918000    1.4267782   -3.5872964   -2.0238391    0.2232531   -3.5872964    1.5634573  1203004 
 7919000    1.4267372    -3.587184   -2.0238042    0.2266961    -3.587184    1.5633799  1203029 
 7920000    1.4267872   -3.5884957   -2.0250922    0.2223229   -3.5884957    1.5634035  1203053 
 7921000     1.428207   -3.5904072   -2.0254753   0.21532909   -3.5904072    1.5649319  1203074 
 7922000    1.4269795   -3.5887366   -2.0251796   0.21833113   -3.5887366     1.563557  1203097 
 7923000    1.4257145    -3.587121   -2.0249722   0.22216558    -3.587121    1.5621488  1203114 
 7924000    1.4278219   -3.5895492   -2.0251081   0.21203832   -3.5895492    1.5644411  1203127 
 7925000    1.4269208   -3.5888698    -2.025446   0.21937053   -3.5888698    1.5634238  1203150 
 7926000    1.4269219   -3.5890613    -2.025657   0.21749211   -3.5890613    1.5634042  1203166 
 7927000    1.4260681   -3.5882396   -2.0258007   0.22577562   -3.5882396    1.5624389  1203189 
 7928000    1.4271925   -3.5891076   -2.0254589   0.21643404   -3.5891076    1.5636487  1203206 
 7929000    1.4274366   -3.5886174   -2.0247207   0.22299577   -3.5886174    1.5638967  1203221 
 7930000    1.4268569   -3.5888491   -2.0256174   0.22064632   -3.5888491    1.5632317  1203244 
 7931000    1.4272991   -3.5897955   -2.0261093   0.21590584   -3.5897955    1.5636862  1203267 
 7932000    1.4271374   -3.5898273   -2.0263482   0.22123533   -3.5898273    1.5634792  1203290 
 7933000     1.426517   -3.5891374   -2.0263703   0.22245803   -3.5891374    1.5627671  1203315 
 7934000    1.4271472   -3.5900627   -2.0266338   0.21666733   -3.5900627    1.5634288  1203337 
 7935000    1.4267485   -3.5898965     -2.02692   0.21754646   -3.5898965    1.5629765  1203349 
 7936000    1.4259142   -3.5885776   -2.0265358   0.21862162   -3.5885776    1.5620418  1203365 
 7937000    1.4263128   -3.5898577   -2.0274039   0.21753503   -3.5898577    1.5624538  1203384 
 7938000    1.4270439    -3.589593   -2.0263773   0.21971373    -3.589593    1.5632157  1203414 
 7939000    1.4274211   -3.5903164   -2.0267058    0.2195744   -3.5903164    1.5636106  1203428 
 7940000     1.427169    -3.590092   -2.0267782    0.2186698    -3.590092    1.5633138  1203444 
 7941000    1.4277122   -3.5909874   -2.0270969   0.21607047   -3.5909874    1.5638905  1203458 
 7942000    1.4273642    -3.589851    -2.026378   0.21905845    -3.589851     1.563473  1203486 
 7943000    1.4282019   -3.5907164   -2.0263466   0.21915592   -3.5907164    1.5643698  1203502 
 7944000    1.4278758   -3.5904357   -2.0264478   0.21728776   -3.5904357    1.5639879  1203521 
 7945000    1.4276325   -3.5896383   -2.0259442   0.22062762   -3.5896383    1.5636941  1203542 
 7946000     1.427207   -3.5897026   -2.0264915   0.21967841   -3.5897026    1.5632111  1203555 
 7947000    1.4274974   -3.5903863   -2.0268778    0.2182995   -3.5903863    1.5635085  1203571 
 7948000    1.4274509   -3.5903908   -2.0269631   0.21805901   -3.5903908    1.5634277  1203594 
 7949000    1.4286463   -3.5910323   -2.0263122   0.21806156   -3.5910323      1.56472  1203607 
 7950000    1.4275675   -3.5898425   -2.0263366   0.22216688   -3.5898425     1.563506  1203632 
 7951000    1.4274632   -3.5904241   -2.0270479   0.22001612   -3.5904241    1.5633762  1203644 
 7952000    1.4265783     -3.58985   -2.0274637   0.21846198     -3.58985    1.5623863  1203660 
 7953000     1.426604   -3.5900419   -2.0276547   0.21669853   -3.5900419    1.5623872  1203681 
 7954000     1.427211   -3.5901072   -2.0270865   0.22009439   -3.5901072    1.5630207  1203705 
 7955000    1.4264417   -3.5891544   -2.0270033   0.22296826   -3.5891544     1.562151  1203726 
 7956000    1.4267263   -3.5901736   -2.0277407   0.22083687   -3.5901736    1.5624328  1203749 
 7957000     1.427147   -3.5906027   -2.0277338   0.21960595   -3.5906027    1.5628689  1203768 
 7958000    1.4279352   -3.5909043    -2.027197   0.22060711   -3.5909043    1.5637073  1203787 
 7959000    1.4279622   -3.5905664   -2.0268529   0.22010159   -3.5905664    1.5637135  1203805 
 7960000    1.4279635   -3.5902502   -2.0265677   0.22560997   -3.5902502    1.5636825  1203830 
 7961000    1.4294949   -3.5920266   -2.0266996   0.21551284   -3.5920266    1.5653269  1203855 
 7962000     1.428265   -3.5909072   -2.0269492   0.21959776   -3.5909072     1.563958  1203872 
 7963000    1.4293011   -3.5913991   -2.0263376   0.21781214   -3.5913991    1.5650614  1203896 
 7964000    1.4288755    -3.591152   -2.0265918   0.22207893    -3.591152    1.5645603  1203923 
 7965000    1.4290646   -3.5915421   -2.0268008   0.22129834   -3.5915421    1.5647413  1203943 
 7966000    1.4282898   -3.5902097   -2.0263426    0.2232365   -3.5902097     1.563867  1203963 
 7967000    1.4278755   -3.5903783   -2.0269986   0.22306765   -3.5903783    1.5633796  1203989 
 7968000    1.4275602   -3.5905084      -2.0275   0.22347854   -3.5905084    1.5630084  1204009 
 7969000    1.4270728     -3.59041   -2.0279546   0.21865703     -3.59041    1.5624554  1204024 
 7970000    1.4279003   -3.5916582   -2.0283216   0.21999193   -3.5916582    1.5633367  1204043 
 7971000    1.4264325   -3.5904228   -2.0287243   0.22000554   -3.5904228    1.5616985  1204067 
 7972000    1.4276455    -3.591702   -2.0287196   0.22041479    -3.591702    1.5629824  1204101 
 7973000    1.4270774   -3.5916963   -2.0293696   0.22061375   -3.5916963    1.5623267  1204127 
 7974000    1.4285719   -3.5923306   -2.0284028    0.2166056   -3.5923306    1.5639278  1204154 
 7975000     1.428017   -3.5925242   -2.0292337    0.2172614   -3.5925242    1.5632905  1204177 
 7976000    1.4265014   -3.5913142   -2.0297063   0.22259152   -3.5913142    1.5616079  1204195 
 7977000    1.4275447   -3.5923837   -2.0296571   0.21813065   -3.5923837    1.5627267  1204213 
 7978000    1.4290235    -3.593044   -2.0287297   0.21860618    -3.593044    1.5643144  1204237 
 7979000    1.4276209   -3.5912749   -2.0285349    0.2187989   -3.5912749      1.56274  1204267 
 7980000    1.4287421   -3.5921915   -2.0282579   0.22063336   -3.5921915    1.5639335  1204293 
 7981000    1.4290708   -3.5931781   -2.0289041   0.21818635   -3.5931781    1.5642739  1204308 
 7982000    1.4277444    -3.592253   -2.0294569   0.21968908    -3.592253    1.5627961  1204328 
 7983000    1.4278352    -3.591855   -2.0289843   0.22260639    -3.591855    1.5628708  1204347 
 7984000    1.4280447   -3.5923259   -2.0292581   0.22088137   -3.5923259    1.5630677  1204372 
 7985000     1.428942   -3.5930406   -2.0290233   0.22275168   -3.5930406    1.5640173  1204397 
 7986000    1.4278343   -3.5913629     -2.02858   0.22264075   -3.5913629    1.5627829  1204414 
 7987000    1.4275898   -3.5920826   -2.0295906   0.22465643   -3.5920826    1.5624919  1204432 
 7988000    1.4286498   -3.5932269   -2.0296034   0.22215049   -3.5932269    1.5636235  1204454 
 7989000    1.4284482   -3.5926586   -2.0292817   0.21969589   -3.5926586    1.5633769  1204474 
 7990000     1.428469   -3.5929663   -2.0295939   0.21941996   -3.5929663    1.5633724  1204495 
 7991000    1.4266441    -3.591486   -2.0301328   0.22304646    -3.591486    1.5613532  1204512 
 7992000    1.4287949   -3.5923104   -2.0286319   0.22191614   -3.5923104    1.5636785  1204534 
 7993000     1.429033   -3.5925492   -2.0286387   0.22036363   -3.5925492    1.5639105  1204556 
 7994000    1.4281171   -3.5916943   -2.0288005   0.21636236   -3.5916943    1.5628938  1204567 
 7995000    1.4295066   -3.5929603   -2.0285691   0.21963266   -3.5929603    1.5643911  1204585 
 7996000    1.4289029   -3.5925744   -2.0288673   0.22183424   -3.5925744    1.5637071  1204603 
 7997000    1.4272771   -3.5914193   -2.0295095   0.22310509   -3.5914193    1.5619098  1204617 
 7998000    1.4293084   -3.5929823   -2.0288847   0.22029173   -3.5929823    1.5640976  1204644 
 7999000    1.4283344   -3.5920727   -2.0290733   0.22519039   -3.5920727    1.5629994  1204669 
 8000000    1.4290243   -3.5933094   -2.0295758   0.22009095   -3.5933094    1.5637335  1204685 
Loop time of 18976.5 on 192 procs for 5000000 steps with 1204685 atoms

Performance: 113824.871 tau/day, 263.483 timesteps/s
99.4% CPU use with 192 MPI tasks x 1 OpenMP threads

MPI task timing breakdown:
Section |  min time  |  avg time  |  max time  |%varavg|  %CPU | %total
-----------------------------------------------------------------------
Pair    | 6899       | 8773.8     | 9622.8     | 717.7 |  99.3 | 46.24
Bond    | 3.5696     | 3.7972     | 4.0496     |   5.3 | 100.0 |  0.02
Neigh   | 3592.4     | 4235.7     | 4504.8     | 294.2 |  99.6 | 22.32
Comm    | 2079       | 3681.5     | 5808.8     |1268.6 |  99.2 | 19.40
Output  | 283.84     | 285.44     | 285.46     |   0.7 |  99.3 |  1.50
Modify  | 1321.8     | 1497.5     | 2557.3     | 839.1 |  99.4 |  7.89
Other   |            | 498.8      |            |       |       |  2.63

Nlocal:        6274.40 ave        6394 max        6125 min
Histogram: 2 4 8 23 29 48 34 33 8 3
Nghost:        6327.91 ave        6839 max        4781 min
Histogram: 18 14 0 0 0 0 0 7 86 67
Neighs:        190979.0 ave      205287 max      164690 min
Histogram: 4 9 3 4 17 34 38 33 33 17

Total # of neighbors = 36668028
Ave neighs/atom = 30.437856
Ave special neighs/atom = 0.0000000
Neighbor list builds = 505000
Dangerous builds = 450000

write_restart   restart_write.dat
System init for write_restart ...
write_data	data.write
System init for write_data ...
WARNING: Not all mixed pair coeffs generated from mixing. Use write_data with 'pair ij' option to store all pair coeffs. (src/write_data.cpp:312)

Total wall time: 5:16:21
