LAMMPS (24 Dec 2020)
OMP_NUM_THREADS environment is not set. Defaulting to 1 thread. (src/comm.cpp:94)
  using 1 OpenMP thread(s) per MPI task
# Simple rigid body system
# needed variables:

#variable	startTemp equal 0.5
#variable 	temp 	  equal 0.8

units		lj
atom_style	full
dimension 	3
boundary	p p f
pair_style	lj/smooth ${cutin} ${cutout}
pair_style	lj/smooth 1.75 ${cutout}
pair_style	lj/smooth 1.75 2.75


variable 	sigma		equal 1.0
variable 	epsilon 	equal 1.0

region		box block 0 80 0 80 0 160
create_box 	3 box
Created orthogonal box = (0.0000000 0.0000000 0.0000000) to (80.000000 80.000000 160.00000)
  3 by 4 by 8 MPI processor grid



lattice 	sc 0.66
Lattice spacing in x,y,z = 1.1485556 1.1485556 1.1485556
region		fluid block EDGE EDGE EDGE EDGE 2 100 units box
create_atoms 	1 region fluid
Created 421400 atoms
  create_atoms CPU = 0.106 seconds

lattice 	sc 0.045
Lattice spacing in x,y,z = 2.8114422 2.8114422 2.8114422
region		gas block EDGE EDGE EDGE EDGE 101 158 units box
create_atoms    1 region gas
Created 17661 atoms
  create_atoms CPU = 0.004 seconds

group		solvent type 1
439061 atoms in group solvent

mass		1 1.0
mass		2 1.0
mass		3 1.0



neighbor 	0.4 bin

pair_coeff	1 1 1.0 1.0
pair_coeff	2 2 0.0 0.0
pair_coeff	3 3 0.0 0.0
pair_coeff	2 3 0.0 0.0
pair_coeff	1 2*3 0.0 0.0

pair_modify 	shift yes

delete_atoms	overlap 0.5 solvent solvent
System init for delete_atoms ...
Neighbor list info ...
  update every 1 steps, delay 10 steps, check yes
  max neighbors/atom: 2000, page size: 100000
  master list distance cutoff = 3.15
  ghost atom cutoff = 3.15
  binsize = 1.575, bins = 51 51 102
  2 neighbor lists, perpetual/occasional/extra = 1 1 0
  (1) command delete_atoms, occasional
      attributes: full, newton on
      pair build: full/bin
      stencil: full/bin/3d
      bin: standard
  (2) pair lj/smooth, perpetual
      attributes: half, newton on
      pair build: half/bin/newton
      stencil: half/bin/3d/newton
      bin: standard
WARNING: Ignoring 'compress yes' for molecular system (src/delete_atoms.cpp:125)
Deleted 0 atoms, new total = 439061

velocity 	solvent create ${startTemp} 563435 loop geom
velocity 	solvent create 1.0 563435 loop geom

balance 	1.05 shift z 10 1.05
Balancing ...
Neighbor list info ...
  update every 1 steps, delay 10 steps, check yes
  max neighbors/atom: 2000, page size: 100000
  master list distance cutoff = 3.15
  ghost atom cutoff = 3.15
  binsize = 1.575, bins = 51 51 102
  1 neighbor lists, perpetual/occasional/extra = 1 0 0
  (1) pair lj/smooth, perpetual
      attributes: half, newton on
      pair build: half/bin/newton
      stencil: half/bin/3d/newton
      bin: standard
 rebalancing time: 0.009 seconds
  iteration count = 5
  initial/final maximal load/proc = 7776.0000 5616.0000
  initial/final imbalance factor  = 1.7002102 1.2279296
  x cuts: 0.0000000 0.33333333 0.66666667 1.0000000
  y cuts: 0.0000000 0.25000000 0.50000000 0.75000000 1.0000000
  z cuts: 0.0000000 0.089843750 0.17578125 0.25390625 0.33593750 0.41406250 0.50390625 0.58203125 1.0000000


####################### WALLS ###########################


variable       epsilonWall equal 2*${epsilon}
variable       epsilonWall equal 2*1

variable       cutoffTop   equal   0.7147*${sigma}
variable       cutoffTop   equal   0.7147*1

variable       cutoffLow   equal   3*${sigma}
variable       cutoffLow   equal   3*1


fix            topWall all wall/lj93 zhi EDGE                ${epsilonWall} ${sigma} ${cutoffTop} units box
fix            topWall all wall/lj93 zhi EDGE                2 ${sigma} ${cutoffTop} units box
fix            topWall all wall/lj93 zhi EDGE                2 1 ${cutoffTop} units box
fix            topWall all wall/lj93 zhi EDGE                2 1 0.7147 units box

fix            lowWall all wall/lj93 zlo EDGE                ${epsilonWall} ${sigma} ${cutoffLow} units box
fix            lowWall all wall/lj93 zlo EDGE                2 ${sigma} ${cutoffLow} units box
fix            lowWall all wall/lj93 zlo EDGE                2 1 ${cutoffLow} units box
fix            lowWall all wall/lj93 zlo EDGE                2 1 3 units box


###################### COMPUTES ##########################

compute        bin1 solvent chunk/atom bin/1d z upper 1.0


######################	FIXES ############################


fix 		peclet solvent ave/chunk 1000 1 1000 bin1 density/number norm 		 none ave one file density.profile

fix 		 temp solvent ave/chunk 1000 1 1000 bin1 temp norm 		 none ave one file temp.profile

fix 		2 solvent nve


## Thermostat


region		regthermo block EDGE EDGE EDGE EDGE 0 20 units box

group 		thermo dynamic solvent region regthermo every 1000
dynamic group thermo defined

fix 		3 thermo langevin ${startTemp} ${temp} 10 156453
fix 		3 thermo langevin 1.0 ${temp} 10 156453
fix 		3 thermo langevin 1.0 1.0 10 156453



#### Load balancing


fix 		bal all balance 1000 1.05 shift z 10 1.05


############### Diagnostics and computes ###################
#compute 	com cube	  rigid/local	1 mol x y z
#compute 	quat cube	  rigid/local	1 mol quatw quati quatj quatk

thermo 		1000
thermo_style 	custom step temp epair evdwl etotal press pe ke atoms

dump		1 all custom 100000 dump.lammpstrj id mol type x y z
dump 		2 all image 10000 image.*.png type type
dump 		3 all movie 1000 movie.avi type type

#dump 		com cube local 1000 dump.*.xyz c_com[*]
#dump		quat cube      local 1000 dump.*.quat c_quat[*]


restart 	1000000 restart.dat
timestep 	0.005
timer 		full
New timer settings: style=full  mode=nosync  timeout=off

run		3000000
Per MPI rank memory allocation (min/avg/max) = 10.71 | 10.83 | 11.20 Mbytes
Step Temp E_pair E_vdwl TotEng Press PotEng KinEng Atoms 
       0            1  -0.76538999  -0.76538999    0.7346066    4.1982714  -0.76538999    1.4999966   439061 
    1000    1.9899345   -2.7254557   -2.7254557   0.25943931    2.2038221   -2.7254557     2.984895   439061 
    2000    1.8711503   -2.7270948   -2.7270948  0.079624294    1.3495661   -2.7270948    2.8067191   439061 
    3000    1.7032096    -2.627621    -2.627621 -0.072812316     1.011823    -2.627621    2.5548086   439061 
    4000    1.6154504   -2.5937292   -2.5937292  -0.17055908    0.7924803   -2.5937292    2.4231701   439061 
    5000    1.5676101   -2.5516697   -2.5516697  -0.20025993    0.6355342   -2.5516697    2.3514098   439061 
    6000     1.536756    -2.498587    -2.498587  -0.19345823   0.55695322    -2.498587    2.3051287   439061 
    7000    1.5144554   -2.4462502   -2.4462502  -0.17457235   0.55661271   -2.4462502    2.2716779   439061 
    8000    1.5039974   -2.4063765   -2.4063765  -0.15038548   0.59028188   -2.4063765     2.255991   439061 
    9000    1.5086401   -2.3895764   -2.3895764   -0.1266215   0.64266956   -2.3895764    2.2629549   439061 
   10000    1.5184829     -2.38044     -2.38044  -0.10272078   0.69512781     -2.38044    2.2777192   439061 
   11000    1.5281942   -2.3761289   -2.3761289 -0.083842757   0.72409374   -2.3761289    2.2922861   439061 
   12000    1.5276791   -2.3599722   -2.3599722 -0.068458791   0.72299823   -2.3599722    2.2915134   439061 
   13000    1.5179135   -2.3304494   -2.3304494 -0.053584387   0.67662638   -2.3304494     2.276865   439061 
   14000    1.5022113   -2.2932738   -2.2932738 -0.039961942    0.6284562   -2.2932738    2.2533119   439061 
   15000    1.4899693   -2.2616182   -2.2616182 -0.026669358   0.60334034   -2.2616182    2.2349488   439061 
   16000    1.4862197   -2.2478215   -2.2478215  -0.01849711   0.60352009   -2.2478215    2.2293244   439061 
   17000    1.4864362   -2.2426717   -2.2426717 -0.013022443   0.60834605   -2.2426717    2.2296493   439061 
   18000    1.4750023     -2.24921     -2.24921 -0.036711554   0.60428618     -2.24921    2.2124985   439061 
   19000    1.4522066   -2.2729438   -2.2729438 -0.094638941   0.60941776   -2.2729438    2.1783049   439061 
   20000    1.4245076   -2.3055597   -2.3055597  -0.16880323   0.63187973   -2.3055597    2.1367565   439061 
   21000    1.3979466   -2.3338943   -2.3338943  -0.23697912   0.63094895   -2.3338943    2.0969151   439061 
   22000    1.3792535   -2.3577441   -2.3577441  -0.28886866   0.62225131   -2.3577441    2.0688755   439061 
   23000    1.3641149   -2.3738896   -2.3738896   -0.3277219   0.61645362   -2.3738896    2.0461677   439061 
   24000    1.3532395    -2.383345    -2.383345  -0.35349038   0.60319599    -2.383345    2.0298547   439061 
   25000    1.3427711   -2.3865597   -2.3865597  -0.37240758   0.58742157   -2.3865597    2.0141521   439061 
   26000    1.3318815   -2.3844723   -2.3844723  -0.38665452    0.5748566   -2.3844723    1.9978178   439061 
   27000    1.3224902   -2.3795051   -2.3795051  -0.39577425   0.55073845   -2.3795051    1.9837308   439061 
   28000    1.3128794   -2.3712016   -2.3712016  -0.40188704   0.52062153   -2.3712016    1.9693146   439061 
   29000     1.298793   -2.3540357   -2.3540357  -0.40585066   0.49969169   -2.3540357     1.948185   439061 
   30000    1.2887278   -2.3409267   -2.3409267  -0.40783939   0.46280231   -2.3409267    1.9330873   439061 
   31000    1.2770234   -2.3213712   -2.3213712   -0.4058405    0.4458621   -2.3213712    1.9155307   439061 
   32000    1.2696787   -2.3087011   -2.3087011  -0.40418745    0.4263023   -2.3087011    1.9045137   439061 
   33000    1.2647345   -2.2977448   -2.2977448  -0.40064744    0.4181625   -2.2977448    1.8970974   439061 
   34000    1.2628683    -2.288238    -2.288238  -0.39393977   0.41504185    -2.288238    1.8942982   439061 
   35000    1.2628674   -2.2807121   -2.2807121  -0.38641536   0.41684636   -2.2807121    1.8942968   439061 
   36000    1.2648339   -2.2760492   -2.2760492  -0.37880258   0.41336957   -2.2760492    1.8972466   439061 
   37000    1.2641105   -2.2681948   -2.2681948  -0.37203349   0.42167432   -2.2681948    1.8961614   439061 
   38000    1.2699059   -2.2675342   -2.2675342  -0.36267972   0.41538819   -2.2675342    1.9048544   439061 
   39000    1.2688542   -2.2579607   -2.2579607  -0.35468366   0.41885192   -2.2579607     1.903277   439061 
   40000    1.2699557   -2.2515494   -2.2515494  -0.34662021   0.41724859   -2.2515494    1.9049292   439061 
   41000    1.2692685   -2.2443349   -2.2443349  -0.34043646   0.41093146   -2.2443349    1.9038985   439061 
   42000    1.2684326   -2.2365471   -2.2365471  -0.33390257   0.40574204   -2.2365471    1.9026445   439061 
   43000    1.2721407   -2.2353535   -2.2353535  -0.32714687   0.41078929   -2.2353535    1.9082066   439061 
   44000    1.2758341   -2.2370048   -2.2370048  -0.32325794   0.42071941   -2.2370048    1.9137468   439061 
   45000     1.277891   -2.2456823   -2.2456823  -0.32885012   0.42660759   -2.2456823    1.9168322   439061 
   46000    1.2742662   -2.2553924   -2.2553924  -0.34399751   0.43706291   -2.2553924    1.9113949   439061 
   47000    1.2694781   -2.2680679   -2.2680679  -0.36385505   0.44654042   -2.2680679    1.9042128   439061 
   48000    1.2628238   -2.2805445   -2.2805445  -0.38631315    0.4432611   -2.2805445    1.8942313   439061 
   49000    1.2560283   -2.2900487   -2.2900487  -0.40601061   0.43860166   -2.2900487    1.8840381   439061 
   50000    1.2517368   -2.2977693   -2.2977693   -0.4201683   0.43990137   -2.2977693     1.877601   439061 
   51000    1.2485718   -2.3031155   -2.3031155  -0.43026214   0.44278795   -2.3031155    1.8728534   439061 
   52000    1.2446945   -2.3068699   -2.3068699  -0.43983235   0.43694526   -2.3068699    1.8670375   439061 
   53000    1.2417064   -2.3118936   -2.3118936  -0.44933823   0.43263621   -2.3118936    1.8625554   439061 
   54000    1.2374298   -2.3113066   -2.3113066  -0.45516622   0.42997578   -2.3113066    1.8561404   439061 
   55000    1.2343185    -2.311327    -2.311327  -0.45985346   0.42556572    -2.311327    1.8514735   439061 
   56000    1.2307827   -2.3085893   -2.3085893  -0.46241948   0.41693274   -2.3085893    1.8461698   439061 
   57000     1.225345   -2.3016923   -2.3016923  -0.46367899    0.4121544   -2.3016923    1.8380133   439061 
   58000    1.2217334   -2.2984467   -2.2984467  -0.46585077   0.40053678   -2.2984467    1.8325959   439061 
   59000    1.2173532   -2.2940488   -2.2940488  -0.46802319   0.38719101   -2.2940488    1.8260256   439061 
   60000    1.2142092   -2.2879279   -2.2879279  -0.46661821   0.38009265   -2.2879279    1.8213097   439061 
   61000    1.2122494   -2.2823258   -2.2823258  -0.46395578   0.37174747   -2.2823258      1.81837   439061 
   62000     1.210945   -2.2777996   -2.2777996  -0.46138618    0.3712684   -2.2777996    1.8164134   439061 
   63000    1.2089459   -2.2717261   -2.2717261   -0.4583113   0.36811714   -2.2717261    1.8134148   439061 
   64000     1.209264   -2.2683142   -2.2683142  -0.45442238   0.36459583   -2.2683142    1.8138918   439061 
   65000    1.2098258   -2.2656782   -2.2656782  -0.45094357   0.36295157   -2.2656782    1.8147346   439061 
   66000    1.2100928   -2.2626894   -2.2626894   -0.4475543   0.35989386   -2.2626894    1.8151351   439061 
   67000    1.2103175   -2.2585655   -2.2585655  -0.44309329   0.35869962   -2.2585655    1.8154722   439061 
   68000    1.2103176   -2.2539056   -2.2539056  -0.43843327   0.36315101   -2.2539056    1.8154723   439061 
   69000    1.2133851   -2.2544484   -2.2544484  -0.43437497    0.3607757   -2.2544484    1.8200735   439061 
   70000    1.2135064   -2.2512011   -2.2512011  -0.43094556   0.36268258   -2.2512011    1.8202555   439061 
   71000    1.2165342   -2.2519737   -2.2519737  -0.42717665   0.36551269   -2.2519737    1.8247971   439061 
   72000    1.2170464   -2.2521373   -2.2521373  -0.42657188   0.36781484   -2.2521373    1.8255654   439061 
   73000    1.2180537   -2.2536767   -2.2536767  -0.42660028   0.37046024   -2.2536767    1.8270764   439061 
   74000    1.2194837     -2.25847     -2.25847  -0.42924872   0.37922168     -2.25847    1.8292213   439061 
   75000    1.2194306   -2.2647051   -2.2647051   -0.4355634   0.38019117   -2.2647051    1.8291417   439061 
   76000    1.2168049    -2.269876    -2.269876  -0.44467282   0.38116052    -2.269876    1.8252032   439061 
   77000    1.2137425   -2.2737349   -2.2737349  -0.45312525   0.38835911   -2.2737349    1.8206096   439061 
   78000    1.2119543   -2.2791718   -2.2791718  -0.46124441   0.38344154   -2.2791718    1.8179273   439061 
   79000       1.2103   -2.2844693   -2.2844693  -0.46902355   0.38453626   -2.2844693    1.8154458   439061 
   80000    1.2085941   -2.2881711   -2.2881711  -0.47528405   0.38388405   -2.2881711    1.8128871   439061 
   81000    1.2059391   -2.2901835   -2.2901835  -0.48127896    0.3855064   -2.2901835    1.8089045   439061 
   82000    1.2047182   -2.2920475   -2.2920475  -0.48497431   0.38267942   -2.2920475    1.8070732   439061 
   83000      1.20343   -2.2945145   -2.2945145  -0.48937368   0.37853323   -2.2945145    1.8051408   439061 
   84000    1.2013109    -2.294618    -2.294618   -0.4926558   0.36801842    -2.294618    1.8019622   439061 
   85000    1.1996388   -2.2942328   -2.2942328  -0.49477872   0.36686143   -2.2942328     1.799454   439061 
   86000     1.196292   -2.2907627   -2.2907627  -0.49632884   0.36791033   -2.2907627    1.7944339   439061 
   87000    1.1951391   -2.2890731   -2.2890731  -0.49636849   0.36311172   -2.2890731    1.7927046   439061 
   88000     1.193879    -2.287072    -2.287072  -0.49625749   0.35730072    -2.287072    1.7908145   439061 
   89000    1.1918423   -2.2828065   -2.2828065  -0.49504721   0.35947158   -2.2828065    1.7877593   439061 
   90000    1.1912105   -2.2816687   -2.2816687  -0.49485705   0.35577933   -2.2816687    1.7868117   439061 
   91000    1.1899715   -2.2787535   -2.2787535  -0.49380035   0.34893806   -2.2787535    1.7849531   439061 
   92000      1.18951   -2.2763765   -2.2763765  -0.49211561   0.34777299   -2.2763765    1.7842609   439061 
   93000    1.1888146   -2.2737618   -2.2737618  -0.49054401    0.3522238   -2.2737618    1.7832178   439061 
   94000    1.1891762   -2.2719615   -2.2719615  -0.48820124   0.34663283   -2.2719615    1.7837602   439061 
   95000    1.1900787   -2.2700757   -2.2700757  -0.48496175   0.34523174   -2.2700757     1.785114   439061 
   96000    1.1890104    -2.268256    -2.268256  -0.48474444   0.34145513    -2.268256    1.7835116   439061 
   97000    1.1896122     -2.26732     -2.26732  -0.48290573   0.34143224     -2.26732    1.7844143   439061 
   98000    1.1891558   -2.2651874   -2.2651874  -0.48145776   0.33962739   -2.2651874    1.7837296   439061 
   99000    1.1878535   -2.2623418   -2.2623418  -0.48056568   0.35054991   -2.2623418    1.7817762   439061 
  100000     1.189135   -2.2632206   -2.2632206  -0.47952222   0.34940956   -2.2632206    1.7836984   439061 
  101000    1.1910569   -2.2655452   -2.2655452  -0.47896389   0.34952329   -2.2655452    1.7865813   439061 
  102000     1.190942   -2.2677404   -2.2677404  -0.48133153   0.34905237   -2.2677404    1.7864089   439061 
  103000    1.1908066    -2.269484    -2.269484  -0.48327817   0.34754703    -2.269484    1.7862058   439061 
  104000    1.1906373   -2.2714202   -2.2714202  -0.48546831   0.35697266   -2.2714202    1.7859519   439061 
  105000    1.1910868   -2.2764578   -2.2764578  -0.48983169    0.3532368   -2.2764578    1.7866261   439061 
  106000    1.1885211   -2.2769545   -2.2769545   -0.4941769   0.35648084   -2.2769545    1.7827776   439061 
  107000    1.1878564   -2.2807429   -2.2807429  -0.49896236   0.35811498   -2.2807429    1.7817805   439061 
  108000    1.1877259   -2.2848344   -2.2848344   -0.5032496   0.35429334   -2.2848344    1.7815848   439061 
  109000    1.1856589    -2.285541    -2.285541  -0.50705667   0.35812548    -2.285541    1.7784843   439061 
  110000    1.1843274   -2.2861554   -2.2861554   -0.5096683   0.35896832   -2.2861554    1.7764871   439061 
  111000    1.1842654   -2.2891164   -2.2891164  -0.51272232   0.35943255   -2.2891164    1.7763941   439061 
  112000    1.1822564   -2.2879381   -2.2879381  -0.51455747   0.35249015   -2.2879381    1.7733806   439061 
  113000    1.1820721   -2.2902985   -2.2902985  -0.51719443   0.35428887   -2.2902985    1.7731041   439061 
  114000    1.1806281    -2.290301    -2.290301  -0.51936287   0.34819176    -2.290301    1.7709381   439061 
  115000    1.1793881   -2.2905308   -2.2905308  -0.52145269     0.348728   -2.2905308    1.7690781   439061 
  116000    1.1788628    -2.290279    -2.290279  -0.52198884   0.34575046    -2.290279    1.7682902   439061 
  117000    1.1786184   -2.2904637   -2.2904637  -0.52254013   0.34290871   -2.2904637    1.7679236   439061 
  118000    1.1753995   -2.2871589   -2.2871589  -0.52406367   0.33974255   -2.2871589    1.7630953   439061 
  119000    1.1771031   -2.2882937   -2.2882937  -0.52264306   0.33013955   -2.2882937    1.7656506   439061 
  120000    1.1749693   -2.2849503   -2.2849503  -0.52250033   0.34152416   -2.2849503      1.76245   439061 
  121000    1.1757164   -2.2850668   -2.2850668  -0.52149623   0.33795348   -2.2850668    1.7635706   439061 
  122000    1.1746708    -2.284025    -2.284025   -0.5220228   0.33800085    -2.284025    1.7620022   439061 
  123000    1.1748592   -2.2827753   -2.2827753  -0.52049054   0.33477765   -2.2827753    1.7622848   439061 
  124000    1.1745415   -2.2831653   -2.2831653  -0.52135709   0.33265648   -2.2831653    1.7618083   439061 
  125000    1.1736572   -2.2800352   -2.2800352  -0.51955337    0.3317789   -2.2800352    1.7604818   439061 
  126000    1.1743073   -2.2823706   -2.2823706  -0.52091371    0.3340597   -2.2823706    1.7614569   439061 
  127000    1.1730053   -2.2794227   -2.2794227   -0.5199187   0.33679596   -2.2794227     1.759504   439061 
  128000    1.1727322   -2.2802793   -2.2802793    -0.521185   0.32926557   -2.2802793    1.7590943   439061 
  129000    1.1736346   -2.2802409   -2.2802409  -0.51979299   0.32783263   -2.2802409    1.7604479   439061 
  130000    1.1731203   -2.2796711   -2.2796711   -0.5199947    0.3372311   -2.2796711    1.7596764   439061 
  131000    1.1744176   -2.2816836   -2.2816836  -0.52006129    0.3358852   -2.2816836    1.7616223   439061 
  132000    1.1733575   -2.2805607   -2.2805607  -0.52052842   0.33555164   -2.2805607    1.7600323   439061 
  133000    1.1753469   -2.2838588   -2.2838588  -0.52084241   0.33806769   -2.2838588    1.7630164   439061 
  134000     1.174164    -2.284106    -2.284106  -0.52286398   0.33415237    -2.284106     1.761242   439061 
  135000    1.1727033    -2.284036    -2.284036  -0.52498509   0.34269634    -2.284036    1.7590509   439061 
  136000    1.1742117   -2.2849691   -2.2849691   -0.5236556   0.34164554   -2.2849691    1.7613135   439061 
  137000    1.1729692   -2.2857258   -2.2857258  -0.52627592   0.33835127   -2.2857258    1.7594498   439061 
  138000    1.1720769   -2.2879386   -2.2879386  -0.52982728   0.33335764   -2.2879386    1.7581113   439061 
  139000    1.1708854   -2.2864493   -2.2864493  -0.53012512   0.33878626   -2.2864493    1.7563241   439061 
  140000    1.1705863   -2.2888511   -2.2888511  -0.53297569     0.341628   -2.2888511    1.7558754   439061 
  141000    1.1712193   -2.2907715   -2.2907715  -0.53394645   0.33405018   -2.2907715     1.756825   439061 
  142000    1.1697062   -2.2890549   -2.2890549  -0.53449962   0.33334576   -2.2890549    1.7545553   439061 
  143000    1.1715887   -2.2921755   -2.2921755  -0.53479646   0.33142206   -2.2921755     1.757379   439061 
  144000    1.1691039   -2.2903395   -2.2903395  -0.53668769   0.33534475   -2.2903395    1.7536519   439061 
  145000    1.1677216   -2.2899771   -2.2899771   -0.5383987   0.32746313   -2.2899771    1.7515784   439061 
  146000    1.1673538   -2.2916483   -2.2916483  -0.54062149     0.328541   -2.2916483    1.7510268   439061 
  147000    1.1678322   -2.2914337   -2.2914337  -0.53968936    0.3267653   -2.2914337    1.7517443   439061 
  148000    1.1659208   -2.2890717   -2.2890717  -0.54019448   0.33051571   -2.2890717    1.7488773   439061 
  149000    1.1644081   -2.2884464   -2.2884464  -0.54183829   0.33145565   -2.2884464    1.7466081   439061 
  150000    1.1645953   -2.2897523   -2.2897523  -0.54286339   0.32683698   -2.2897523    1.7468889   439061 
  151000    1.1641959   -2.2874438   -2.2874438  -0.54115395   0.32459941   -2.2874438    1.7462899   439061 
  152000    1.1655808   -2.2883189   -2.2883189  -0.53995162   0.32684352   -2.2883189    1.7483672   439061 
  153000    1.1633219   -2.2858372   -2.2858372  -0.54085835   0.32624514   -2.2858372    1.7449788   439061 
  154000    1.1636207   -2.2870305   -2.2870305  -0.54160351   0.32584543   -2.2870305     1.745427   439061 
  155000    1.1626428   -2.2842771   -2.2842771  -0.54031685   0.32665328   -2.2842771    1.7439602   439061 
  156000    1.1641705   -2.2868753   -2.2868753  -0.54062351   0.32645137   -2.2868753    1.7462518   439061 
  157000    1.1640724   -2.2869797   -2.2869797  -0.54087511   0.32171738   -2.2869797    1.7461046   439061 
  158000    1.1628285   -2.2838909   -2.2838909   -0.5396522    0.3259243   -2.2838909    1.7442387   439061 
  159000    1.1643363   -2.2852103   -2.2852103  -0.53870983   0.32815173   -2.2852103    1.7465004   439061 
  160000    1.1632264   -2.2852637   -2.2852637  -0.54042811   0.32260073   -2.2852637    1.7448356   439061 
  161000    1.1634957   -2.2870661   -2.2870661  -0.54182652   0.32570989   -2.2870661    1.7452396   439061 
  162000    1.1627642   -2.2873236   -2.2873236  -0.54318126   0.32434215   -2.2873236    1.7441424   439061 
  163000     1.162536   -2.2873546   -2.2873546  -0.54355458   0.32549947   -2.2873546       1.7438   439061 
  164000    1.1606454   -2.2870298   -2.2870298  -0.54606566   0.32910291   -2.2870298    1.7409642   439061 
  165000    1.1613768   -2.2886049   -2.2886049  -0.54654363   0.32622674   -2.2886049    1.7420613   439061 
  166000    1.1616898    -2.290663    -2.290663  -0.54813227   0.32861491    -2.290663    1.7425307   439061 
  167000    1.1605232   -2.2904361   -2.2904361  -0.54965529   0.32166084   -2.2904361    1.7407808   439061 
  168000    1.1604247   -2.2911735   -2.2911735  -0.55054042   0.32117387   -2.2911735    1.7406331   439061 
  169000    1.1596262   -2.2908539   -2.2908539  -0.55141858   0.32388145   -2.2908539    1.7394353   439061 
  170000    1.1591619   -2.2921531   -2.2921531  -0.55341419   0.32443145   -2.2921531    1.7387389   439061 
  171000    1.1592941   -2.2928946   -2.2928946  -0.55395745   0.32554789   -2.2928946    1.7389371   439061 
  172000    1.1571184   -2.2896766   -2.2896766    -0.554003   0.32483268   -2.2896766    1.7356736   439061 
  173000    1.1588375   -2.2949063   -2.2949063   -0.5566541   0.32038001   -2.2949063    1.7382522   439061 
  174000    1.1569445   -2.2932868   -2.2932868  -0.55787394   0.32340681   -2.2932868    1.7354128   439061 
  175000    1.1565632   -2.2932372   -2.2932372  -0.55839634   0.31807854   -2.2932372    1.7348408   439061 
  176000    1.1567677   -2.2943387   -2.2943387  -0.55919108   0.31704829   -2.2943387    1.7351476   439061 
  177000    1.1567332   -2.2942648   -2.2942648   -0.5591689   0.31813134   -2.2942648    1.7350959   439061 
  178000    1.1565506   -2.2932203   -2.2932203  -0.55839832   0.32288863   -2.2932203     1.734822   439061 
  179000     1.155081   -2.2912599   -2.2912599  -0.55864237   0.31957558   -2.2912599    1.7326175   439061 
  180000    1.1563393   -2.2941685   -2.2941685  -0.55966346   0.31972131   -2.2941685    1.7345051   439061 
  181000    1.1556946   -2.2952594   -2.2952594   -0.5617214   0.31610581   -2.2952594     1.733538   439061 
  182000    1.1543773   -2.2939935   -2.2939935  -0.56243149   0.31203096   -2.2939935     1.731562   439061 
  183000    1.1545961   -2.2936605   -2.2936605  -0.56177023   0.31429012   -2.2936605    1.7318902   439061 
  184000    1.1542947   -2.2934002   -2.2934002  -0.56196209   0.31727246   -2.2934002    1.7314381   439061 
  185000    1.1556046   -2.2953299   -2.2953299  -0.56192685   0.31697824   -2.2953299     1.733403   439061 
  186000    1.1538271   -2.2939842   -2.2939842  -0.56324753   0.31578168   -2.2939842    1.7307367   439061 
  187000    1.1533694   -2.2926522   -2.2926522  -0.56260199   0.31999109   -2.2926522    1.7300502   439061 
  188000    1.1539087   -2.2933748   -2.2933748  -0.56251578    0.3184993   -2.2933748     1.730859   439061 
  189000    1.1515842   -2.2895749   -2.2895749  -0.56220253   0.31694948   -2.2895749    1.7273723   439061 
  190000    1.1534033   -2.2931274   -2.2931274  -0.56302639   0.31874253   -2.2931274     1.730101   439061 
  191000    1.1544517   -2.2950055   -2.2950055  -0.56333192   0.31499125   -2.2950055    1.7316735   439061 
  192000    1.1542879   -2.2953816   -2.2953816  -0.56395375   0.31568014   -2.2953816    1.7314278   439061 
  193000    1.1536454   -2.2946772   -2.2946772  -0.56421311   0.31835237   -2.2946772    1.7304641   439061 
  194000    1.1523423   -2.2933039   -2.2933039  -0.56479438   0.32041797   -2.2933039    1.7285095   439061 
  195000    1.1527398   -2.2937685   -2.2937685  -0.56466274   0.31099944   -2.2937685    1.7291058   439061 
  196000    1.1530252   -2.2950373   -2.2950373  -0.56550342   0.31037913   -2.2950373    1.7295339   439061 
  197000    1.1520319   -2.2935675   -2.2935675  -0.56552359   0.31773636   -2.2935675    1.7280439   439061 
  198000    1.1521087   -2.2947738   -2.2947738  -0.56661471     0.319746   -2.2947738    1.7281591   439061 
  199000    1.1513741   -2.2929752   -2.2929752  -0.56591804   0.31605726   -2.2929752    1.7270572   439061 
  200000    1.1509758   -2.2956836   -2.2956836  -0.56922382   0.31333964   -2.2956836    1.7264598   439061 
  201000    1.1505148   -2.2953513   -2.2953513  -0.56958303   0.31330881   -2.2953513    1.7257682   439061 
  202000     1.149757   -2.2946371   -2.2946371  -0.57000551   0.31123263   -2.2946371    1.7246316   439061 
  203000    1.1496224   -2.2946694   -2.2946694  -0.57023964   0.31538977   -2.2946694    1.7244297   439061 
  204000    1.1513398   -2.2972212   -2.2972212  -0.57021543   0.30690158   -2.2972212    1.7270057   439061 
  205000    1.1502645   -2.2962955   -2.2962955  -0.57090269   0.31058755   -2.2962955    1.7253928   439061 
  206000    1.1493313   -2.2954681   -2.2954681  -0.57147508   0.30680608   -2.2954681     1.723993   439061 
  207000    1.1486937   -2.2947125   -2.2947125  -0.57167593   0.31320634   -2.2947125    1.7230366   439061 
  208000    1.1482155   -2.2947089   -2.2947089  -0.57238955   0.31079602   -2.2947089    1.7223194   439061 
  209000    1.1490127   -2.2961862   -2.2961862  -0.57267113   0.30754785   -2.2961862    1.7235151   439061 
  210000    1.1490522   -2.2969303   -2.2969303  -0.57335597   0.31561431   -2.2969303    1.7235743   439061 
  211000    1.1474963   -2.2950402   -2.2950402  -0.57379976       0.3126   -2.2950402    1.7212405   439061 
  212000    1.1483484   -2.2961586   -2.2961586  -0.57363988   0.30849099   -2.2961586    1.7225187   439061 
  213000     1.147137   -2.2953892   -2.2953892  -0.57468768   0.31175293   -2.2953892    1.7207015   439061 
  214000     1.146995    -2.295866    -2.295866   -0.5753774   0.30905303    -2.295866    1.7204886   439061 
  215000     1.145819   -2.2946821   -2.2946821  -0.57595744   0.31250163   -2.2946821    1.7187247   439061 
  216000    1.1489399   -2.2983126   -2.2983126  -0.57490667   0.30965583   -2.2983126     1.723406   439061 
  217000     1.148046   -2.2962375   -2.2962375   -0.5741725   0.30693236   -2.2962375     1.722065   439061 
  218000    1.1478533   -2.2968523   -2.2968523  -0.57507635   0.30802809   -2.2968523     1.721776   439061 
  219000    1.1467589   -2.2945696   -2.2945696  -0.57443518   0.30837015   -2.2945696    1.7201345   439061 
  220000    1.1467909    -2.295233    -2.295233  -0.57505058   0.31502249    -2.295233    1.7201824   439061 
  221000    1.1472829   -2.2968612   -2.2968612  -0.57594074   0.30952051   -2.2968612    1.7209205   439061 
  222000    1.1468258   -2.2969565   -2.2969565   -0.5767217    0.3042854   -2.2969565    1.7202348   439061 
  223000    1.1456948   -2.2977659   -2.2977659  -0.57922755    0.3108854   -2.2977659    1.7185383   439061 
  224000     1.144973   -2.2958551   -2.2958551  -0.57839948   0.30916038   -2.2958551    1.7174556   439061 
  225000    1.1457228   -2.2980296   -2.2980296  -0.57944924   0.30959752   -2.2980296    1.7185803   439061 
  226000    1.1434339   -2.2966855   -2.2966855  -0.58153852   0.30722712   -2.2966855    1.7151469   439061 
  227000    1.1444247   -2.2987155   -2.2987155  -0.58208228   0.30457885   -2.2987155    1.7166332   439061 
  228000    1.1436009    -2.297606    -2.297606   -0.5822085   0.30509407    -2.297606    1.7153975   439061 
  229000    1.1436116   -2.2979848   -2.2979848  -0.58257132   0.30669798   -2.2979848    1.7154135   439061 
  230000    1.1447731   -2.2985686   -2.2985686  -0.58141289   0.30479406   -2.2985686    1.7171557   439061 
  231000    1.1433226   -2.2986286   -2.2986286  -0.58364855    0.3048843   -2.2986286      1.71498   439061 
  232000    1.1426064    -2.297954    -2.297954  -0.58404833   0.30408588    -2.297954    1.7139057   439061 
  233000    1.1427436    -2.298695    -2.298695  -0.58458349   0.30508412    -2.298695    1.7141115   439061 
  234000    1.1413006   -2.2978147   -2.2978147  -0.58586772    0.3038743   -2.2978147     1.711947   439061 
  235000     1.141386   -2.2988327   -2.2988327  -0.58675757   0.30304082   -2.2988327    1.7120751   439061 
  236000    1.1431137   -2.3015118   -2.3015118  -0.58684512   0.30583433   -2.3015118    1.7146666   439061 
  237000     1.141072   -2.2996365   -2.2996365  -0.58803235    0.3054257   -2.2996365    1.7116042   439061 
  238000    1.1420403   -2.3012336   -2.3012336  -0.58817699   0.30390675   -2.3012336    1.7130566   439061 
  239000    1.1410696   -2.3007678   -2.3007678  -0.58916725   0.30721125   -2.3007678    1.7116005   439061 
  240000    1.1396629   -2.2988978   -2.2988978   -0.5894074   0.30167042   -2.2988978    1.7094904   439061 
  241000    1.1416453    -2.300645    -2.300645  -0.58818083   0.30346935    -2.300645    1.7124641   439061 
  242000    1.1395249   -2.2997604   -2.2997604  -0.59047691    0.3002174   -2.2997604    1.7092835   439061 
  243000    1.1414087    -2.302016    -2.302016  -0.58990683   0.29765801    -2.302016    1.7121092   439061 
  244000    1.1388705   -2.2997271   -2.2997271  -0.59142516   0.30122142   -2.2997271    1.7083019   439061 
  245000    1.1388498   -2.3012479   -2.3012479  -0.59297713   0.30484369   -2.3012479    1.7082708   439061 
  246000    1.1392082   -2.3008239   -2.3008239  -0.59201559   0.29805775   -2.3008239    1.7088084   439061 
  247000    1.1380117   -2.3002823   -2.3002823  -0.59326872   0.29901547   -2.3002823    1.7070136   439061 
  248000    1.1383445   -2.3014915   -2.3014915  -0.59397863   0.30519276   -2.3014915    1.7075129   439061 
  249000    1.1392268   -2.3024882   -2.3024882  -0.59365193   0.30234159   -2.3024882    1.7088363   439061 
  250000    1.1372148   -2.3004436   -2.3004436  -0.59462526   0.29975149   -2.3004436    1.7058183   439061 
  251000    1.1382704   -2.3026942   -2.3026942   -0.5952925   0.29946356   -2.3026942    1.7074017   439061 
  252000    1.1367141   -2.3022661   -2.3022661  -0.59719877   0.29683197   -2.3022661    1.7050673   439061 
  253000    1.1382143   -2.3033966   -2.3033966  -0.59607902   0.30022986   -2.3033966    1.7073176   439061 
  254000    1.1365339   -2.3000662   -2.3000662  -0.59526924   0.30103879   -2.3000662     1.704797   439061 
  255000    1.1362405   -2.3010558   -2.3010558  -0.59669896   0.29933534   -2.3010558    1.7043569   439061 
  256000     1.137417   -2.3032465   -2.3032465  -0.59712486   0.29975961   -2.3032465    1.7061216   439061 
  257000    1.1351565   -2.2988397   -2.2988397  -0.59610875   0.29774206   -2.2988397    1.7027309   439061 
  258000    1.1370648   -2.3015878   -2.3015878  -0.59599453   0.29783911   -2.3015878    1.7055933   439061 
  259000    1.1367845   -2.3017795   -2.3017795  -0.59660664   0.29958113   -2.3017795    1.7051728   439061 
  260000    1.1370681   -2.3022873   -2.3022873  -0.59668913   0.29573807   -2.3022873    1.7055982   439061 
  261000    1.1353249   -2.3015256   -2.3015256  -0.59854221   0.29458677   -2.3015256    1.7029834   439061 
  262000    1.1358339   -2.3031444   -2.3031444  -0.59939735   0.29915047   -2.3031444     1.703747   439061 
  263000    1.1357274   -2.3039821   -2.3039821  -0.60039496   0.29707169   -2.3039821    1.7035872   439061 
  264000    1.1349745    -2.303505    -2.303505  -0.60104713   0.29714108    -2.303505    1.7024579   439061 
  265000    1.1346866   -2.3026614   -2.3026614  -0.60063541   0.29823041   -2.3026614     1.702026   439061 
  266000    1.1356802   -2.3031992   -2.3031992  -0.59968273   0.29827928   -2.3031992    1.7035164   439061 
  267000    1.1344797   -2.3021018   -2.3021018  -0.60038614   0.30040848   -2.3021018    1.7017156   439061 
  268000    1.1337261   -2.3003834   -2.3003834  -0.59979808   0.29899947   -2.3003834    1.7005853   439061 
  269000    1.1365974   -2.3043683   -2.3043683  -0.59947601   0.29712234   -2.3043683    1.7048923   439061 
  270000    1.1360858   -2.3051812   -2.3051812   -0.6010564   0.30264312   -2.3051812    1.7041248   439061 
  271000    1.1330324   -2.3017484   -2.3017484  -0.60220371   0.30017685   -2.3017484    1.6995447   439061 
  272000    1.1330101   -2.3032873   -2.3032873  -0.60377608   0.30221712   -2.3032873    1.6995112   439061 
  273000    1.1336593   -2.3039934   -2.3039934  -0.60350828    0.2916713   -2.3039934    1.7004851   439061 
  274000     1.132234   -2.3031917   -2.3031917  -0.60484465   0.29830717   -2.3031917    1.6983471   439061 
  275000    1.1324391   -2.3027517   -2.3027517  -0.60409703   0.29689793   -2.3027517    1.6986547   439061 
  276000    1.1323233   -2.3025061   -2.3025061  -0.60402507   0.29471388   -2.3025061     1.698481   439061 
  277000    1.1327036   -2.3040095   -2.3040095   -0.6049579   0.29251869   -2.3040095    1.6990516   439061 
  278000    1.1319375   -2.3041386   -2.3041386  -0.60623625   0.29488709   -2.3041386    1.6979024   439061 
  279000    1.1310909    -2.303014    -2.303014  -0.60638154   0.29753115    -2.303014    1.6966325   439061 
  280000    1.1316025   -2.3046203   -2.3046203  -0.60722041   0.29125109   -2.3046203    1.6973999   439061 
  281000    1.1319259   -2.3045621   -2.3045621  -0.60667717   0.29564475   -2.3045621    1.6978849   439061 
  282000    1.1316548   -2.3042463   -2.3042463  -0.60676789   0.29185951   -2.3042463    1.6974784   439061 
  283000    1.1315637   -2.3041208   -2.3041208  -0.60677904   0.29557417   -2.3041208    1.6973417   439061 
  284000    1.1319946   -2.3043692   -2.3043692  -0.60638117   0.29717151   -2.3043692    1.6979881   439061 
  285000     1.131895   -2.3039428   -2.3039428  -0.60610411   0.29144777   -2.3039428    1.6978387   439061 
  286000    1.1321094   -2.3052473   -2.3052473   -0.6070871   0.29215581   -2.3052473    1.6981602   439061 
  287000     1.131651   -2.3046985   -2.3046985  -0.60722586   0.29124653   -2.3046985    1.6974727   439061 
  288000    1.1303887   -2.3028966   -2.3028966  -0.60731743   0.29555599   -2.3028966    1.6955792   439061 
  289000    1.1322835   -2.3054642   -2.3054642  -0.60704282   0.29254941   -2.3054642    1.6984214   439061 
  290000    1.1328726    -2.306448    -2.306448  -0.60714297   0.28969913    -2.306448    1.6993051   439061 
  291000    1.1299576   -2.3036175   -2.3036175  -0.60868503   0.29322193   -2.3036175    1.6949325   439061 
  292000    1.1296558   -2.3038027   -2.3038027  -0.60932277   0.29362642   -2.3038027    1.6944799   439061 
  293000    1.1303086   -2.3041759   -2.3041759  -0.60871683   0.29590581   -2.3041759    1.6954591   439061 
  294000    1.1292415   -2.3029507   -2.3029507  -0.60909238   0.29599543   -2.3029507    1.6938583   439061 
  295000     1.130605   -2.3050838   -2.3050838  -0.60918025   0.29411121   -2.3050838    1.6959036   439061 
  296000    1.1299044   -2.3048564   -2.3048564  -0.61000372   0.29310902   -2.3048564    1.6948527   439061 
  297000    1.1288687   -2.3053528   -2.3053528  -0.61205361   0.28843451   -2.3053528    1.6932992   439061 
  298000    1.1292974   -2.3064925   -2.3064925  -0.61255031   0.29186092   -2.3064925    1.6939422   439061 
  299000    1.1277242   -2.3046485   -2.3046485  -0.61306601   0.29187919   -2.3046485    1.6915825   439061 
  300000    1.1279618   -2.3058124   -2.3058124  -0.61387353   0.28682713   -2.3058124    1.6919389   439061 
  301000    1.1263073   -2.3047643   -2.3047643  -0.61530722   0.28773583   -2.3047643    1.6894571   439061 
  302000      1.12647   -2.3036704   -2.3036704  -0.61396933   0.29440656   -2.3036704    1.6897011   439061 
  303000    1.1285773   -2.3065242   -2.3065242  -0.61366212   0.28603631   -2.3065242    1.6928621   439061 
  304000    1.1279654   -2.3045221   -2.3045221  -0.61257777   0.29213136   -2.3045221    1.6919443   439061 
  305000    1.1273981   -2.3052972   -2.3052972  -0.61420382   0.28786051   -2.3052972    1.6910934   439061 
  306000     1.128768   -2.3064693   -2.3064693  -0.61332124   0.28813741   -2.3064693    1.6931481   439061 
  307000     1.128378   -2.3083125   -2.3083125  -0.61574942   0.28639834   -2.3083125    1.6925631   439061 
  308000    1.1263664    -2.306568    -2.306568  -0.61702227   0.29114343    -2.306568    1.6895457   439061 
  309000    1.1259639   -2.3068902   -2.3068902  -0.61794819   0.29324901   -2.3068902     1.688942   439061 
  310000    1.1265684    -2.306307    -2.306307  -0.61645818   0.28853427    -2.306307    1.6898488   439061 
  311000     1.126206   -2.3061885   -2.3061885  -0.61688329   0.28516448   -2.3061885    1.6893052   439061 
  312000    1.1266174    -2.307197    -2.307197  -0.61727466   0.28655116    -2.307197    1.6899223   439061 
  313000    1.1246827   -2.3045879   -2.3045879  -0.61756761   0.28676754   -2.3045879    1.6870203   439061 
  314000    1.1259313   -2.3058433   -2.3058433  -0.61695023   0.28672893   -2.3058433    1.6888931   439061 
  315000    1.1248456   -2.3053972   -2.3053972  -0.61813271   0.29069113   -2.3053972    1.6872645   439061 
  316000    1.1256348    -2.306845    -2.306845  -0.61839661   0.29195648    -2.306845    1.6884484   439061 
  317000    1.1249403   -2.3065454   -2.3065454  -0.61913878   0.28738409   -2.3065454    1.6874066   439061 
  318000    1.1260568   -2.3088817   -2.3088817  -0.61980032   0.28856483   -2.3088817    1.6890814   439061 
  319000    1.1250022   -2.3068888   -2.3068888  -0.61938927   0.28590364   -2.3068888    1.6874995   439061 
  320000    1.1247957   -2.3066805   -2.3066805  -0.61949081   0.29043656   -2.3066805    1.6871897   439061 
  321000    1.1255772   -2.3081625   -2.3081625  -0.61980064   0.28592151   -2.3081625    1.6883619   439061 
  322000    1.1244977    -2.306433    -2.306433  -0.61969032   0.29025681    -2.306433    1.6867426   439061 
  323000    1.1243994   -2.3066268   -2.3066268  -0.62003146    0.2887586   -2.3066268    1.6865953   439061 
  324000    1.1245249   -2.3091484   -2.3091484  -0.62236488   0.28367926   -2.3091484    1.6867835   439061 
  325000    1.1245207   -2.3089662   -2.3089662  -0.62218901   0.28286135   -2.3089662    1.6867772   439061 
  326000    1.1239803   -2.3069732   -2.3069732  -0.62100662   0.28606108   -2.3069732    1.6859666   439061 
  327000     1.123703   -2.3071068   -2.3071068  -0.62155618   0.28621675   -2.3071068    1.6855506   439061 
  328000    1.1234621   -2.3073542   -2.3073542  -0.62216484   0.28747239   -2.3073542    1.6851893   439061 
  329000    1.1238771   -2.3072672   -2.3072672  -0.62145539   0.28437857   -2.3072672    1.6858118   439061 
  330000    1.1241214   -2.3083751   -2.3083751  -0.62219682   0.28510933   -2.3083751    1.6861783   439061 
  331000    1.1240098   -2.3076595   -2.3076595  -0.62164875   0.28482127   -2.3076595    1.6860108   439061 
  332000    1.1244582    -2.308548    -2.308548  -0.62186442   0.28313071    -2.308548    1.6866835   439061 
  333000    1.1222442   -2.3066616   -2.3066616  -0.62329919   0.28603291   -2.3066616    1.6833624   439061 
  334000    1.1223206   -2.3074305   -2.3074305  -0.62395352   0.28691012   -2.3074305     1.683477   439061 
  335000    1.1220418   -2.3074608   -2.3074608  -0.62440194   0.28197475   -2.3074608    1.6830589   439061 
  336000    1.1215193   -2.3074883   -2.3074883  -0.62521327   0.28240457   -2.3074883    1.6822751   439061 
  337000    1.1215821   -2.3073209   -2.3073209  -0.62495161   0.28213924   -2.3073209    1.6823693   439061 
  338000    1.1225148   -2.3085921   -2.3085921  -0.62482381   0.28193656   -2.3085921    1.6837683   439061 
  339000    1.1217817   -2.3076729   -2.3076729  -0.62500421   0.28324131   -2.3076729    1.6826687   439061 
  340000    1.1208796   -2.3078304   -2.3078304  -0.62651482   0.28348414   -2.3078304    1.6813156   439061 
  341000    1.1216307   -2.3092631   -2.3092631    -0.626821   0.27590909   -2.3092631    1.6824421   439061 
  342000    1.1209308   -2.3074269   -2.3074269   -0.6260345   0.28299396   -2.3074269    1.6813924   439061 
  343000    1.1217498   -2.3070217   -2.3070217  -0.62440082   0.28587597   -2.3070217    1.6826209   439061 
  344000    1.1218307   -2.3071866   -2.3071866  -0.62444434   0.28349245   -2.3071866    1.6827423   439061 
  345000    1.1198573    -2.307538    -2.307538  -0.62775588   0.28106579    -2.307538    1.6797821   439061 
  346000    1.1205117   -2.3082894   -2.3082894  -0.62752571   0.28545972   -2.3082894    1.6807637   439061 
  347000    1.1196603   -2.3085882   -2.3085882  -0.62910149   0.28151371   -2.3085882    1.6794867   439061 
  348000    1.1196212   -2.3090399   -2.3090399   -0.6296119   0.28365892   -2.3090399     1.679428   439061 
  349000    1.1188871   -2.3096341   -2.3096341  -0.63130735   0.28103228   -2.3096341    1.6783268   439061 
  350000    1.1193226   -2.3099739   -2.3099739  -0.63099391   0.28233468   -2.3099739      1.67898   439061 
  351000    1.1187847   -2.3097585   -2.3097585  -0.63158527   0.28350683   -2.3097585    1.6781732   439061 
  352000    1.1191914   -2.3115556   -2.3115556  -0.63277227   0.27777848   -2.3115556    1.6787833   439061 
  353000    1.1187535   -2.3107443   -2.3107443  -0.63261792   0.27791195   -2.3107443    1.6781264   439061 
  354000    1.1186642   -2.3111042   -2.3111042  -0.63311171   0.27946753   -2.3111042    1.6779925   439061 
  355000    1.1181095   -2.3110769   -2.3110769  -0.63391656   0.28265327   -2.3110769    1.6771604   439061 
  356000    1.1190595   -2.3112533   -2.3112533  -0.63266781   0.28275219   -2.3112533    1.6785855   439061 
  357000    1.1176957   -2.3088641   -2.3088641  -0.63232431   0.28657936   -2.3088641    1.6765398   439061 
  358000    1.1201747   -2.3120933   -2.3120933  -0.63183504   0.28179545   -2.3120933    1.6802582   439061 
  359000    1.1180966   -2.3102464   -2.3102464  -0.63310527   0.27827687   -2.3102464    1.6771411   439061 
  360000    1.1176732   -2.3084337   -2.3084337  -0.63192774   0.28772614   -2.3084337     1.676506   439061 
  361000    1.1199322   -2.3110321   -2.3110321  -0.63113767   0.28134539   -2.3110321    1.6798944   439061 
  362000    1.1190807   -2.3096368   -2.3096368   -0.6310196   0.28015425   -2.3096368    1.6786172   439061 
  363000    1.1194748   -2.3107324   -2.3107324  -0.63152402   0.28022819   -2.3107324    1.6792084   439061 
  364000    1.1186842   -2.3104601   -2.3104601  -0.63243766   0.28022527   -2.3104601    1.6780225   439061 
  365000    1.1179898   -2.3091161   -2.3091161  -0.63213527   0.28232145   -2.3091161    1.6769809   439061 
  366000    1.1169835   -2.3085615   -2.3085615  -0.63309001   0.27594802   -2.3085615    1.6754714   439061 
  367000    1.1173857   -2.3093392   -2.3093392  -0.63326446   0.27513607   -2.3093392    1.6760747   439061 
  368000     1.116874   -2.3100978   -2.3100978  -0.63479068   0.28026026   -2.3100978    1.6753071   439061 
  369000    1.1156483   -2.3086881   -2.3086881  -0.63521938   0.27564953   -2.3086881    1.6734687   439061 
  370000    1.1142238   -2.3076068   -2.3076068  -0.63627492   0.27852775   -2.3076068    1.6713318   439061 
  371000    1.1152755   -2.3089805   -2.3089805  -0.63607114   0.27952051   -2.3089805    1.6729094   439061 
  372000    1.1159913   -2.3097453   -2.3097453  -0.63576207   0.27477255   -2.3097453    1.6739832   439061 
  373000    1.1145308   -2.3073198   -2.3073198  -0.63552739   0.27803669   -2.3073198    1.6717924   439061 
  374000     1.115104    -2.307802    -2.307802  -0.63514983   0.27750982    -2.307802    1.6726522   439061 
  375000    1.1157055   -2.3075275   -2.3075275  -0.63397299   0.27870134   -2.3075275    1.6735545   439061 
  376000    1.1172853   -2.3100193   -2.3100193  -0.63409516   0.27546591   -2.3100193    1.6759242   439061 
  377000    1.1148552   -2.3078366   -2.3078366  -0.63555754   0.28189334   -2.3078366    1.6722791   439061 
  378000    1.1167925   -2.3104163   -2.3104163  -0.63523137   0.27458612   -2.3104163    1.6751849   439061 
  379000    1.1165724    -2.310335    -2.310335  -0.63548027   0.27694705    -2.310335    1.6748547   439061 
  380000    1.1154482   -2.3093669   -2.3093669  -0.63619847    0.2804743   -2.3093669    1.6731685   439061 
  381000     1.115488   -2.3095951   -2.3095951   -0.6363669    0.2746749   -2.3095951    1.6732282   439061 
  382000    1.1137224   -2.3081934   -2.3081934  -0.63761357   0.27746769   -2.3081934    1.6705798   439061 
  383000    1.1142962   -2.3103848   -2.3103848  -0.63894438   0.28243849   -2.3103848    1.6714404   439061 
  384000    1.1145968   -2.3098868   -2.3098868  -0.63799538   0.27699753   -2.3098868    1.6718914   439061 
  385000    1.1148181   -2.3112332   -2.3112332  -0.63900982   0.27730445   -2.3112332    1.6722234   439061 
  386000    1.1147563   -2.3114061   -2.3114061  -0.63927547   0.28133283   -2.3114061    1.6721307   439061 
  387000    1.1147388   -2.3119749   -2.3119749  -0.63987051   0.27658416   -2.3119749    1.6721044   439061 
  388000    1.1149729   -2.3117115   -2.3117115  -0.63925599   0.27785067   -2.3117115    1.6724555   439061 
  389000    1.1149281   -2.3128693   -2.3128693  -0.64048095    0.2764984   -2.3128693    1.6723883   439061 
  390000    1.1140766   -2.3122272   -2.3122272  -0.64111602   0.27652832   -2.3122272    1.6711111   439061 
  391000    1.1123584   -2.3104025   -2.3104025  -0.64186868    0.2798714   -2.3104025    1.6685339   439061 
  392000    1.1130856   -2.3116054   -2.3116054  -0.64198087   0.27623993   -2.3116054    1.6696246   439061 
  393000    1.1118826   -2.3110987   -2.3110987  -0.64327864   0.27438651   -2.3110987    1.6678201   439061 
  394000    1.1118596   -2.3115683   -2.3115683  -0.64378269   0.27868702   -2.3115683    1.6677857   439061 
  395000    1.1122758   -2.3124937   -2.3124937  -0.64408385   0.26962359   -2.3124937    1.6684099   439061 
  396000    1.1125516   -2.3117959   -2.3117959  -0.64297224   0.27502387   -2.3117959    1.6688237   439061 
  397000    1.1129036   -2.3133994   -2.3133994   -0.6440478   0.27411476   -2.3133994    1.6693516   439061 
  398000     1.111057   -2.3103737   -2.3103737  -0.64379203   0.27143697   -2.3103737    1.6665817   439061 
  399000    1.1108999   -2.3097683   -2.3097683  -0.64342232   0.27496949   -2.3097683     1.666346   439061 
  400000     1.110925   -2.3096066   -2.3096066  -0.64322296   0.27521013   -2.3096066    1.6663837   439061 
  401000    1.1126965    -2.312295    -2.312295  -0.64325395   0.27068841    -2.312295     1.669041   439061 
  402000     1.111835   -2.3113077   -2.3113077  -0.64355903   0.27517194   -2.3113077    1.6677487   439061 
  403000    1.1101603   -2.3098165   -2.3098165  -0.64457974   0.27258702   -2.3098165    1.6652367   439061 
  404000    1.1102443    -2.309827    -2.309827  -0.64446435   0.27510589    -2.309827    1.6653627   439061 
  405000    1.1126231   -2.3128261   -2.3128261  -0.64389525   0.27331798   -2.3128261    1.6689309   439061 
  406000     1.110808   -2.3105592   -2.3105592  -0.64435103   0.27308691   -2.3105592    1.6662082   439061 
  407000    1.1112814   -2.3113513   -2.3113513  -0.64443304   0.26744243   -2.3113513    1.6669183   439061 
  408000    1.1106019   -2.3121818   -2.3121818  -0.64628278   0.27005167   -2.3121818     1.665899   439061 
  409000    1.1099021   -2.3110137   -2.3110137   -0.6461644   0.27217861   -2.3110137    1.6648493   439061 
  410000    1.1113831   -2.3129933   -2.3129933  -0.64592236   0.27146642   -2.3129933    1.6670709   439061 
  411000     1.110635   -2.3125654   -2.3125654  -0.64661665   0.26927539   -2.3125654    1.6659487   439061 
  412000    1.1107587   -2.3131744   -2.3131744  -0.64704023   0.27401439   -2.3131744    1.6661342   439061 
  413000    1.1101407   -2.3121075   -2.3121075  -0.64690035   0.27327014   -2.3121075    1.6652072   439061 
  414000     1.109421   -2.3121557   -2.3121557  -0.64802793   0.26787255   -2.3121557    1.6641277   439061 
  415000    1.1098414   -2.3131416   -2.3131416  -0.64838332   0.27300376   -2.3131416    1.6647583   439061 
  416000    1.1088019   -2.3119781   -2.3119781  -0.64877901   0.27120896   -2.3119781    1.6631991   439061 
  417000    1.1095603    -2.313301    -2.313301  -0.64896439    0.2695124    -2.313301    1.6643366   439061 
  418000    1.1106638   -2.3126599   -2.3126599  -0.64666805   0.27203199   -2.3126599    1.6659919   439061 
  419000    1.1098675    -2.313387    -2.313387  -0.64858947   0.27316768    -2.313387    1.6647975   439061 
  420000    1.1093254   -2.3132904   -2.3132904  -0.64930619   0.27030966   -2.3132904    1.6639843   439061 
  421000    1.1083835   -2.3125035   -2.3125035  -0.64993206   0.26965475   -2.3125035    1.6625714   439061 
  422000    1.1083409   -2.3131095   -2.3131095  -0.65060195   0.26601716   -2.3131095    1.6625075   439061 
  423000    1.1084258   -2.3124107   -2.3124107   -0.6497758   0.27030237   -2.3124107    1.6626349   439061 
  424000     1.108952   -2.3133725   -2.3133725  -0.64994836   0.27013672   -2.3133725    1.6634242   439061 
  425000    1.1083172   -2.3127852   -2.3127852  -0.65031312   0.27022049   -2.3127852    1.6624721   439061 
  426000    1.1074899    -2.311467    -2.311467  -0.65023603   0.26967197    -2.311467     1.661231   439061 
  427000    1.1070781   -2.3118334   -2.3118334  -0.65122006   0.27278982   -2.3118334    1.6606134   439061 
  428000    1.1075759   -2.3135421   -2.3135421   -0.6521821   0.27244439   -2.3135421      1.66136   439061 
  429000    1.1071633   -2.3131108   -2.3131108  -0.65236975   0.26482415   -2.3131108    1.6607411   439061 
  430000    1.1070673   -2.3132743   -2.3132743  -0.65267714   0.27608524   -2.3132743    1.6605971   439061 
  431000     1.107065   -2.3127355   -2.3127355  -0.65214176   0.27115875   -2.3127355    1.6605938   439061 
  432000    1.1082702   -2.3160748   -2.3160748  -0.65367333   0.26493249   -2.3160748    1.6624015   439061 
  433000    1.1065928    -2.313038    -2.313038  -0.65315259   0.26987436    -2.313038    1.6598854   439061 
  434000    1.1093916   -2.3160964   -2.3160964  -0.65201273   0.26911974   -2.3160964    1.6640836   439061 
  435000    1.1077317   -2.3139877   -2.3139877  -0.65239393     0.270167   -2.3139877    1.6615938   439061 
  436000    1.1067625   -2.3111017   -2.3111017  -0.65096171   0.27195675   -2.3111017      1.66014   439061 
  437000       1.1065   -2.3119893   -2.3119893  -0.65224297    0.2718106   -2.3119893    1.6597463   439061 
  438000    1.1068772   -2.3129796   -2.3129796  -0.65266764   0.26621146   -2.3129796     1.660312   439061 
  439000    1.1074294   -2.3142972   -2.3142972  -0.65315694   0.27008659   -2.3142972    1.6611403   439061 
  440000    1.1069458   -2.3147424   -2.3147424   -0.6543275   0.26920453   -2.3147424    1.6604149   439061 
  441000    1.1063476   -2.3139297   -2.3139297  -0.65441203   0.26673151   -2.3139297    1.6595177   439061 
  442000    1.1054823   -2.3127729   -2.3127729  -0.65455317   0.27201869   -2.3127729    1.6582197   439061 
  443000      1.10644   -2.3126601   -2.3126601  -0.65300394   0.27415544   -2.3126601    1.6596562   439061 
  444000    1.1074587   -2.3144029   -2.3144029   -0.6532187   0.26597877   -2.3144029    1.6611842   439061 
  445000    1.1052812   -2.3120936   -2.3120936  -0.65417562   0.26991299   -2.3120936     1.657918   439061 
  446000    1.1055831   -2.3128013   -2.3128013   -0.6544305   0.27178287   -2.3128013    1.6583708   439061 
  447000    1.1060961   -2.3131447   -2.3131447  -0.65400426   0.26403389   -2.3131447    1.6591404   439061 
  448000    1.1055231   -2.3135853   -2.3135853  -0.65530438   0.26594767   -2.3135853    1.6582809   439061 
  449000    1.1043477   -2.3128442   -2.3128442  -0.65632632   0.27041254   -2.3128442    1.6565178   439061 
  450000    1.1047784   -2.3127634   -2.3127634   -0.6555995   0.26902986   -2.3127634    1.6571639   439061 
  451000    1.1043125   -2.3128244   -2.3128244  -0.65635934   0.26748737   -2.3128244     1.656465   439061 
  452000    1.1041811   -2.3130672   -2.3130672  -0.65679934   0.26860054   -2.3130672    1.6562678   439061 
  453000    1.1045395   -2.3135577   -2.3135577  -0.65675229   0.26390517   -2.3135577    1.6568054   439061 
  454000    1.1032139   -2.3119233   -2.3119233  -0.65710613   0.26504472   -2.3119233    1.6548171   439061 
  455000    1.1054687   -2.3138714   -2.3138714  -0.65567204    0.2675189   -2.3138714    1.6581993   439061 
  456000    1.1058442   -2.3150848   -2.3150848  -0.65632233   0.26960664   -2.3150848    1.6587625   439061 
  457000    1.1049748   -2.3136444   -2.3136444  -0.65618587    0.2662675   -2.3136444    1.6574585   439061 
  458000    1.1055593   -2.3141931   -2.3141931  -0.65585789   0.26503183   -2.3141931    1.6583352   439061 
  459000    1.1042917    -2.311747    -2.311747  -0.65531319    0.2724703    -2.311747    1.6564338   439061 
  460000    1.1045291   -2.3142633   -2.3142633  -0.65747346   0.26874315   -2.3142633    1.6567898   439061 
  461000    1.1046866    -2.314451    -2.314451  -0.65742487   0.26192827    -2.314451    1.6570262   439061 
  462000    1.1041501   -2.3135353   -2.3135353  -0.65731399   0.26793011   -2.3135353    1.6562213   439061 
  463000    1.1037673   -2.3137369   -2.3137369  -0.65808976   0.26647449   -2.3137369    1.6556472   439061 
  464000    1.1029993   -2.3136578   -2.3136578  -0.65916263   0.26851989   -2.3136578    1.6544951   439061 
  465000    1.1035951   -2.3139062   -2.3139062  -0.65851729   0.26540008   -2.3139062    1.6553889   439061 
  466000    1.1040233   -2.3143082   -2.3143082  -0.65827693   0.26400784   -2.3143082    1.6560312   439061 
  467000    1.1024128   -2.3132302   -2.3132302  -0.65961487   0.26018616   -2.3132302    1.6536154   439061 
  468000    1.1033856   -2.3136604   -2.3136604   -0.6585857   0.26142056   -2.3136604    1.6550747   439061 
  469000    1.1021374   -2.3119498   -2.3119498  -0.65874749    0.2581272   -2.3119498    1.6532023   439061 
  470000    1.1017397   -2.3131745   -2.3131745  -0.66056874    0.2651717   -2.3131745    1.6526057   439061 
  471000    1.1025638   -2.3135223   -2.3135223   -0.6596804   0.25937155   -2.3135223    1.6538419   439061 
  472000    1.1020025   -2.3140412   -2.3140412  -0.66104128   0.26896845   -2.3140412        1.653   439061 
  473000    1.1017647   -2.3131901   -2.3131901  -0.66054678   0.26581179   -2.3131901    1.6526433   439061 
  474000    1.1021488   -2.3139151   -2.3139151  -0.66069563   0.26365146   -2.3139151    1.6532195   439061 
  475000    1.1028521   -2.3147401   -2.3147401  -0.66046581    0.2663115   -2.3147401    1.6542743   439061 
  476000    1.1010519   -2.3124993   -2.3124993   -0.6609252   0.27008693   -2.3124993    1.6515741   439061 
  477000    1.1015085   -2.3150173   -2.3150173  -0.66275835   0.26212692   -2.3150173    1.6522589   439061 
  478000    1.0992559   -2.3124462   -2.3124462  -0.66356614   0.26270467   -2.3124462    1.6488801   439061 
  479000    1.1012554   -2.3151753   -2.3151753  -0.66329597    0.2625962   -2.3151753    1.6518794   439061 
  480000    1.1012586   -2.3147383   -2.3147383  -0.66285423   0.26113294   -2.3147383    1.6518841   439061 
  481000     1.100781   -2.3145362   -2.3145362  -0.66336856    0.2603037   -2.3145362    1.6511677   439061 
  482000    1.1017323   -2.3156344   -2.3156344  -0.66303972   0.25938006   -2.3156344    1.6525947   439061 
  483000    1.1002095   -2.3140302   -2.3140302  -0.66371979   0.26222892   -2.3140302    1.6503104   439061 
  484000    1.1011148   -2.3154079   -2.3154079  -0.66373948   0.26305349   -2.3154079    1.6516684   439061 
  485000    1.1024765    -2.315175    -2.315175  -0.66146407   0.26099346    -2.315175    1.6537109   439061 
  486000    1.1009158   -2.3138718   -2.3138718  -0.66250184   0.26339769   -2.3138718    1.6513699   439061 
  487000    1.1004238   -2.3139251   -2.3139251  -0.66329304   0.26463131   -2.3139251     1.650632   439061 
  488000    1.1008543   -2.3138347   -2.3138347  -0.66255691   0.26344378   -2.3138347    1.6512777   439061 
  489000    1.1003891    -2.314476    -2.314476  -0.66389608   0.25874511    -2.314476    1.6505799   439061 
  490000    1.1010666   -2.3145677   -2.3145677   -0.6629716   0.26112979   -2.3145677    1.6515961   439061 
  491000      1.10092   -2.3151451   -2.3151451  -0.66376888   0.26154749   -2.3151451    1.6513763   439061 
  492000    1.0997375   -2.3153473   -2.3153473  -0.66574475   0.26060569   -2.3153473    1.6496026   439061 
  493000    1.0999255   -2.3164461   -2.3164461  -0.66656163   0.25597118   -2.3164461    1.6498845   439061 
  494000    1.0994586   -2.3150914   -2.3150914  -0.66590726   0.26024107   -2.3150914    1.6491842   439061 
  495000    1.0980894   -2.3135149   -2.3135149   -0.6663846   0.26319566   -2.3135149    1.6471303   439061 
  496000    1.0990887   -2.3157662   -2.3157662  -0.66713701   0.25690561   -2.3157662    1.6486292   439061 
  497000     1.100157   -2.3156464   -2.3156464  -0.66541468   0.26091114   -2.3156464    1.6502317   439061 
  498000    1.0980008   -2.3132783   -2.3132783  -0.66628079   0.26554265   -2.3132783    1.6469975   439061 
  499000    1.0991381   -2.3139854   -2.3139854  -0.66528204   0.25975949   -2.3139854    1.6487034   439061 
  500000    1.0992106   -2.3158398   -2.3158398  -0.66702763   0.26230665   -2.3158398    1.6488122   439061 
  501000    1.0984471   -2.3132846   -2.3132846  -0.66561769   0.26085094   -2.3132846    1.6476669   439061 
  502000    1.0987412    -2.315327    -2.315327  -0.66721902   0.25615304    -2.315327     1.648108   439061 
  503000     1.098632   -2.3165967   -2.3165967  -0.66865257   0.25711274   -2.3165967    1.6479442   439061 
  504000    1.0987042   -2.3163425   -2.3163425  -0.66828994   0.26000523   -2.3163425    1.6480525   439061 
  505000    1.0976024   -2.3140794   -2.3140794  -0.66767951    0.2573036   -2.3140794    1.6463999   439061 
  506000    1.0974418   -2.3150497   -2.3150497   -0.6688908   0.25629111   -2.3150497    1.6461589   439061 
  507000    1.0978117   -2.3154728   -2.3154728  -0.66875902   0.25928077   -2.3154728    1.6467137   439061 
  508000    1.0977193   -2.3159658   -2.3159658  -0.66939052   0.25947342   -2.3159658    1.6465752   439061 
  509000    1.0966605   -2.3147345   -2.3147345  -0.66974741   0.25728997   -2.3147345    1.6449871   439061 
  510000    1.0981972   -2.3160388   -2.3160388  -0.66874674   0.26071342   -2.3160388    1.6472921   439061 
  511000    1.0988665   -2.3163649   -2.3163649  -0.66806896   0.25974775   -2.3163649    1.6482959   439061 
  512000    1.0978237    -2.315448    -2.315448  -0.66871616   0.25835339    -2.315448    1.6467318   439061 
  513000    1.0958911   -2.3132561   -2.3132561  -0.66942319   0.25754311   -2.3132561    1.6438329   439061 
  514000    1.0964989   -2.3151322   -2.3151322  -0.67038766     0.260226   -2.3151322    1.6447446   439061 
  515000     1.096261   -2.3153142   -2.3153142  -0.67092637   0.25626249   -2.3153142    1.6443878   439061 
  516000    1.0959362   -2.3154014   -2.3154014  -0.67150087   0.25825345   -2.3154014    1.6439005   439061 
  517000    1.0965011   -2.3159255   -2.3159255  -0.67117748   0.25733892   -2.3159255     1.644748   439061 
  518000    1.0973697   -2.3175947   -2.3175947  -0.67154391   0.25350271   -2.3175947    1.6460508   439061 
  519000    1.0965333   -2.3178355   -2.3178355  -0.67303936     0.258245   -2.3178355    1.6447962   439061 
  520000    1.0961446   -2.3180055   -2.3180055  -0.67379231   0.25740883   -2.3180055    1.6442132   439061 
  521000    1.0956123    -2.318207    -2.318207  -0.67479232   0.25596559    -2.318207    1.6434146   439061 
  522000    1.0957232   -2.3180637   -2.3180637  -0.67448263   0.25140966   -2.3180637    1.6435811   439061 
  523000    1.0955478   -2.3169094   -2.3169094  -0.67359135   0.25951408   -2.3169094     1.643318   439061 
  524000    1.0963863   -2.3164977   -2.3164977  -0.67192201   0.25729533   -2.3164977    1.6445757   439061 
  525000    1.0949058    -2.315306    -2.315306  -0.67295094   0.25673766    -2.315306     1.642355   439061 
  526000    1.0935131   -2.3144909   -2.3144909  -0.67422502   0.26150289   -2.3144909    1.6402659   439061 
  527000    1.0948073   -2.3165446   -2.3165446  -0.67433741   0.25570996   -2.3165446    1.6422072   439061 
  528000    1.0964838   -2.3173417   -2.3173417  -0.67261963   0.25339861   -2.3173417     1.644722   439061 
  529000    1.0949488   -2.3164037   -2.3164037  -0.67398419   0.26112966   -2.3164037    1.6424195   439061 
  530000    1.0959563   -2.3175244   -2.3175244  -0.67359358   0.25516739   -2.3175244    1.6439308   439061 
  531000    1.0956954   -2.3182999   -2.3182999  -0.67476053   0.25440023   -2.3182999    1.6435393   439061 
  532000    1.0948072   -2.3169769   -2.3169769  -0.67476982   0.25610584   -2.3169769    1.6422071   439061 
  533000    1.0947867   -2.3168447   -2.3168447  -0.67466847   0.25690035   -2.3168447    1.6421763   439061 
  534000    1.0958898   -2.3186999   -2.3186999  -0.67486895   0.25634175   -2.3186999     1.643831   439061 
  535000    1.0941882   -2.3164795   -2.3164795  -0.67520105   0.25986565   -2.3164795    1.6412785   439061 
  536000    1.0957303   -2.3176782   -2.3176782  -0.67408652   0.25445237   -2.3176782    1.6435917   439061 
  537000    1.0949696   -2.3186811   -2.3186811  -0.67623038   0.25330746   -2.3186811    1.6424507   439061 
  538000    1.0924518   -2.3146681   -2.3146681  -0.67599408   0.25502551   -2.3146681     1.638674   439061 
  539000    1.0934317   -2.3169297   -2.3169297  -0.67678589   0.25527245   -2.3169297    1.6401438   439061 
  540000    1.0933337   -2.3163069   -2.3163069  -0.67631002   0.25577764   -2.3163069    1.6399969   439061 
  541000    1.0938459   -2.3185116   -2.3185116   -0.6777465   0.25215391   -2.3185116    1.6407651   439061 
  542000    1.0924675   -2.3170347   -2.3170347  -0.67833724   0.24860606   -2.3170347    1.6386975   439061 
  543000    1.0928061   -2.3156416   -2.3156416  -0.67643623   0.25144728   -2.3156416    1.6392054   439061 
  544000    1.0941105   -2.3171523   -2.3171523  -0.67599024    0.2567025   -2.3171523    1.6411621   439061 
  545000    1.0943926   -2.3170521   -2.3170521    -0.675467   0.25299648   -2.3170521    1.6415851   439061 
  546000    1.0959211   -2.3177951   -2.3177951  -0.67391726   0.25668812   -2.3177951    1.6438779   439061 
  547000    1.0937809    -2.317278    -2.317278  -0.67661035   0.25501821    -2.317278    1.6406676   439061 
  548000    1.0927929   -2.3167459   -2.3167459   -0.6775603   0.25222373   -2.3167459    1.6391856   439061 
  549000    1.0931423   -2.3180042   -2.3180042  -0.67829441   0.25623123   -2.3180042    1.6397098   439061 
  550000    1.0931683   -2.3185271   -2.3185271  -0.67877844   0.25388243   -2.3185271    1.6397487   439061 
  551000    1.0921757   -2.3168848   -2.3168848  -0.67862501   0.25288789   -2.3168848    1.6382598   439061 
  552000    1.0921604   -2.3173734   -2.3173734  -0.67913658   0.25243169   -2.3173734    1.6382369   439061 
  553000    1.0915479   -2.3164449   -2.3164449   -0.6791268   0.25085394   -2.3164449    1.6373181   439061 
  554000    1.0915706   -2.3164115   -2.3164115  -0.67905926     0.255314   -2.3164115    1.6373522   439061 
  555000    1.0917375   -2.3164631   -2.3164631   -0.6788605   0.25460281   -2.3164631    1.6376026   439061 
  556000    1.0916741   -2.3171849   -2.3171849  -0.67967756    0.2498651   -2.3171849    1.6375073   439061 
  557000    1.0913135   -2.3174314   -2.3174314  -0.68046492   0.24878366   -2.3174314    1.6369665   439061 
  558000      1.09159   -2.3154492   -2.3154492  -0.67806796   0.25584507   -2.3154492    1.6373812   439061 
  559000     1.092311    -2.317956    -2.317956  -0.67949323   0.25300647    -2.317956    1.6384627   439061 
  560000    1.0913047   -2.3169193   -2.3169193   -0.6799659   0.25258401   -2.3169193    1.6369534   439061 
  561000    1.0902337   -2.3165373   -2.3165373  -0.68119044   0.25063778   -2.3165373    1.6353468   439061 
  562000    1.0915117   -2.3187184   -2.3187184  -0.68145455   0.25284052   -2.3187184    1.6372638   439061 
  563000    1.0913839   -2.3177473   -2.3177473  -0.68067517   0.24707009   -2.3177473    1.6370721   439061 
  564000     1.090237   -2.3167918   -2.3167918  -0.68144001   0.25228367   -2.3167918    1.6353518   439061 
  565000    1.0906798   -2.3190949   -2.3190949    -0.683079   0.25045423   -2.3190949    1.6360159   439061 
  566000    1.0907072   -2.3190994   -2.3190994  -0.68304227   0.25422415   -2.3190994    1.6360571   439061 
  567000    1.0899811   -2.3180175   -2.3180175  -0.68304954   0.25596454   -2.3180175     1.634968   439061 
  568000    1.0882713    -2.317318    -2.317318  -0.68491479   0.25436554    -2.317318    1.6324032   439061 
  569000    1.0900788   -2.3189144   -2.3189144  -0.68379994   0.25233609   -2.3189144    1.6351145   439061 
  570000    1.0897118   -2.3187296   -2.3187296  -0.68416566   0.25421182   -2.3187296     1.634564   439061 
  571000    1.0901209   -2.3193715   -2.3193715  -0.68419395   0.24873541   -2.3193715    1.6351776   439061 
  572000    1.0908202   -2.3204579   -2.3204579  -0.68423127   0.25060791   -2.3204579    1.6362266   439061 
  573000    1.0880565   -2.3159635   -2.3159635  -0.68388248   0.24889186   -2.3159635     1.632081   439061 
  574000    1.0889086   -2.3182024   -2.3182024  -0.68484322   0.25004696   -2.3182024    1.6333592   439061 
  575000    1.0890724   -2.3184544   -2.3184544  -0.68484943   0.25183189   -2.3184544    1.6336049   439061 
  576000    1.0894237   -2.3177658   -2.3177658  -0.68363407   0.24821191   -2.3177658    1.6341318   439061 
  577000    1.0894938   -2.3176575   -2.3176575  -0.68342048   0.24938627   -2.3176575     1.634237   439061 
  578000    1.0896449    -2.317675    -2.317675   -0.6832114   0.24822678    -2.317675    1.6344636   439061 
  579000    1.0899946   -2.3188202   -2.3188202  -0.68383204   0.24733478   -2.3188202    1.6349881   439061 
  580000    1.0899686    -2.318472    -2.318472  -0.68352285   0.25086251    -2.318472    1.6349491   439061 
  581000    1.0898355   -2.3191158   -2.3191158  -0.68436624   0.24528179   -2.3191158    1.6347495   439061 
  582000    1.0885131   -2.3179223   -2.3179223  -0.68515631   0.24566909   -2.3179223     1.632766   439061 
  583000    1.0893567   -2.3186213   -2.3186213  -0.68459001   0.24429461   -2.3186213    1.6340313   439061 
  584000     1.089483    -2.317423    -2.317423  -0.68320232   0.25166705    -2.317423    1.6342207   439061 
  585000    1.0893801   -2.3186508   -2.3186508  -0.68458435   0.25045555   -2.3186508    1.6340664   439061 
  586000    1.0896816   -2.3185474   -2.3185474  -0.68402866   0.24414563   -2.3185474    1.6345187   439061 
  587000    1.0895086   -2.3192658   -2.3192658  -0.68500668   0.25087337   -2.3192658    1.6342592   439061 
  588000    1.0885445   -2.3182658   -2.3182658  -0.68545281   0.24686994   -2.3182658     1.632813   439061 
  589000    1.0885407   -2.3180191   -2.3180191  -0.68521173   0.24688139   -2.3180191    1.6328073   439061 
  590000    1.0864029    -2.315139    -2.315139  -0.68553831   0.24994699    -2.315139    1.6296007   439061 
  591000    1.0885399   -2.3186653   -2.3186653  -0.68585913   0.24935543   -2.3186653    1.6328061   439061 
  592000    1.0881822   -2.3166722   -2.3166722  -0.68440259    0.2514022   -2.3166722    1.6322696   439061 
  593000    1.0885446   -2.3176819   -2.3176819  -0.68486874   0.24897437   -2.3176819    1.6328132   439061 
  594000    1.0899261   -2.3184248   -2.3184248  -0.68353938   0.25151727   -2.3184248    1.6348854   439061 
  595000    1.0913098    -2.318866    -2.318866  -0.68190506   0.24937351    -2.318866     1.636961   439061 
  596000    1.0906415   -2.3189099   -2.3189099  -0.68295141   0.24942262   -2.3189099    1.6359585   439061 
  597000    1.0887409   -2.3164681   -2.3164681  -0.68336055   0.24963973   -2.3164681    1.6331076   439061 
  598000    1.0864875   -2.3135196   -2.3135196  -0.68379203   0.24838505   -2.3135196    1.6297276   439061 
  599000    1.0897505   -2.3186024   -2.3186024  -0.68398035   0.24785594   -2.3186024    1.6346221   439061 
  600000    1.0886642   -2.3160474   -2.3160474  -0.68305484    0.2558518   -2.3160474    1.6329926   439061 
  601000    1.0888444   -2.3175432   -2.3175432  -0.68428026   0.25093332   -2.3175432    1.6332629   439061 
  602000    1.0876293   -2.3142511   -2.3142511  -0.68281078   0.25047729   -2.3142511    1.6314403   439061 
  603000    1.0878165   -2.3163161   -2.3163161    -0.684595   0.25383353   -2.3163161    1.6317211   439061 
  604000    1.0856807   -2.3137599   -2.3137599  -0.68524263   0.25301244   -2.3137599    1.6285173   439061 
  605000    1.0888486   -2.3197315   -2.3197315   -0.6864623   0.24689215   -2.3197315    1.6332692   439061 
  606000    1.0871829   -2.3174369   -2.3174369  -0.68666632   0.24489345   -2.3174369    1.6307706   439061 
  607000    1.0870198   -2.3169004   -2.3169004  -0.68637435   0.24571754   -2.3169004     1.630526   439061 
  608000    1.0878033   -2.3175513   -2.3175513  -0.68585009   0.24408893   -2.3175513    1.6317012   439061 
  609000    1.0871771   -2.3164131   -2.3164131  -0.68565118   0.24523072   -2.3164131    1.6307619   439061 
  610000    1.0868162   -2.3161515   -2.3161515  -0.68593093   0.25083514   -2.3161515    1.6302205   439061 
  611000    1.0869117    -2.316049    -2.316049  -0.68568518   0.24616013    -2.316049    1.6303638   439061 
  612000    1.0870026   -2.3162592   -2.3162592  -0.68575897   0.24464903   -2.3162592    1.6305002   439061 
  613000    1.0882808   -2.3174527   -2.3174527  -0.68503523   0.24731555   -2.3174527    1.6324174   439061 
  614000     1.087514   -2.3173639   -2.3173639  -0.68609663    0.2489118   -2.3173639    1.6312672   439061 
  615000     1.087508   -2.3165769   -2.3165769  -0.68531871   0.24381079   -2.3165769    1.6312582   439061 
  616000    1.0873076   -2.3173672   -2.3173672  -0.68640957    0.2455866   -2.3173672    1.6309576   439061 
  617000    1.0875454   -2.3161774   -2.3161774  -0.68486305   0.24675114   -2.3161774    1.6313143   439061 
  618000    1.0875636   -2.3167767   -2.3167767  -0.68543497   0.24641209   -2.3167767    1.6313417   439061 
  619000    1.0889753   -2.3177994   -2.3177994  -0.68434012   0.24311326   -2.3177994    1.6334592   439061 
  620000    1.0875591   -2.3161313   -2.3161313   -0.6847963   0.24674699   -2.3161313     1.631335   439061 
  621000    1.0881406   -2.3167974   -2.3167974  -0.68459023   0.24747065   -2.3167974    1.6322071   439061 
  622000    1.0881821   -2.3169846   -2.3169846  -0.68471519   0.25111545   -2.3169846    1.6322694   439061 
  623000     1.085257   -2.3146238   -2.3146238  -0.68674193   0.24781784   -2.3146238    1.6278818   439061 
  624000    1.0873533   -2.3180335   -2.3180335  -0.68700733    0.2448331   -2.3180335    1.6310262   439061 
  625000    1.0856107   -2.3155609   -2.3155609  -0.68714858   0.24917872   -2.3155609    1.6284123   439061 
  626000    1.0870941   -2.3169109   -2.3169109  -0.68627342   0.24597437   -2.3169109    1.6306374   439061 
  627000    1.0855117   -2.3152373   -2.3152373  -0.68697352    0.2441014   -2.3152373    1.6282638   439061 
  628000    1.0846303   -2.3149397   -2.3149397  -0.68799786   0.24685938   -2.3149397    1.6269418   439061 
  629000    1.0869929   -2.3184765   -2.3184765  -0.68799088   0.24509875   -2.3184765    1.6304856   439061 
  630000    1.0856033   -2.3152944   -2.3152944  -0.68689324   0.24832929   -2.3152944    1.6284012   439061 
  631000    1.0860429   -2.3163018   -2.3163018  -0.68724125   0.24504655   -2.3163018    1.6290606   439061 
  632000    1.0846863   -2.3122696   -2.3122696  -0.68524379   0.24607888   -2.3122696    1.6270258   439061 
  633000    1.0862115   -2.3150674   -2.3150674  -0.68575382   0.23925134   -2.3150674    1.6293136   439061 
  634000    1.0862691   -2.3158416   -2.3158416   -0.6864417   0.24751138   -2.3158416    1.6293999   439061 
  635000    1.0863102    -2.316199    -2.316199  -0.68673741   0.24692675    -2.316199    1.6294616   439061 
  636000    1.0860334   -2.3158883   -2.3158883  -0.68684195   0.24679017   -2.3158883    1.6290463   439061 
  637000    1.0877486   -2.3176416   -2.3176416  -0.68602239   0.24434962   -2.3176416    1.6316192   439061 
  638000     1.085961   -2.3157668   -2.3157668  -0.68682892   0.24943698   -2.3157668    1.6289378   439061 
  639000     1.087643   -2.3187951   -2.3187951  -0.68733427   0.24660516   -2.3187951    1.6314608   439061 
  640000    1.0848156   -2.3164691   -2.3164691  -0.68924943   0.24226736   -2.3164691    1.6272197   439061 
  641000    1.0856721   -2.3159866   -2.3159866  -0.68748215   0.24775309   -2.3159866    1.6285045   439061 
  642000    1.0850147   -2.3164925   -2.3164925   -0.6889741    0.2450651   -2.3164925    1.6275184   439061 
  643000    1.0841896   -2.3166105   -2.3166105  -0.69032973   0.24358577   -2.3166105    1.6262807   439061 
  644000    1.0855393   -2.3185477   -2.3185477  -0.69024244   0.23961603   -2.3185477    1.6283053   439061 
  645000    1.0831668   -2.3167529   -2.3167529  -0.69200648   0.23862469   -2.3167529    1.6247464   439061 
  646000    1.0844139   -2.3171838   -2.3171838  -0.69056656   0.24390488   -2.3171838    1.6266172   439061 
  647000    1.0841551    -2.315974    -2.315974  -0.68974504    0.2428757    -2.315974     1.626229   439061 
  648000    1.0850471   -2.3177982   -2.3177982  -0.69023127   0.24877302   -2.3177982    1.6275669   439061 
  649000    1.0844138   -2.3187283   -2.3187283   -0.6921114   0.23725674   -2.3187283    1.6266169   439061 
  650000    1.0825783   -2.3158048   -2.3158048  -0.69194105   0.24628287   -2.3158048    1.6238638   439061 
  651000    1.0843305   -2.3183966   -2.3183966  -0.69190458   0.24326689   -2.3183966     1.626492   439061 
  652000    1.0823749   -2.3162467   -2.3162467  -0.69268808   0.24410876   -2.3162467    1.6235586   439061 
  653000    1.0844158   -2.3197712   -2.3197712  -0.69315128   0.24067815   -2.3197712    1.6266199   439061 
  654000    1.0838172   -2.3174372   -2.3174372  -0.69171514   0.24345534   -2.3174372    1.6257221   439061 
  655000    1.0836598   -2.3173146   -2.3173146  -0.69182864   0.24178348   -2.3173146     1.625486   439061 
  656000     1.081923   -2.3161025   -2.3161025  -0.69322165   0.24448022   -2.3161025    1.6228808   439061 
  657000    1.0846647    -2.319538    -2.319538  -0.69254466   0.24170456    -2.319538    1.6269934   439061 
  658000    1.0835237   -2.3185699   -2.3185699  -0.69328797   0.24204621   -2.3185699    1.6252819   439061 
  659000    1.0845011   -2.3179083   -2.3179083  -0.69116038   0.24478629   -2.3179083    1.6267479   439061 
  660000    1.0837744   -2.3170583   -2.3170583  -0.69140042   0.24692404   -2.3170583    1.6256579   439061 
  661000     1.085728   -2.3203885   -2.3203885  -0.69180017    0.2431664   -2.3203885    1.6285883   439061 
  662000    1.0838834   -2.3161415   -2.3161415  -0.69032017   0.24831701   -2.3161415    1.6258213   439061 
  663000    1.0850029   -2.3186981   -2.3186981  -0.69119754   0.24186285   -2.3186981    1.6275006   439061 
  664000    1.0836043   -2.3174029   -2.3174029  -0.69200011   0.24328071   -2.3174029    1.6254028   439061 
  665000    1.0835073   -2.3177498   -2.3177498  -0.69249253   0.24277532   -2.3177498    1.6252573   439061 
  666000    1.0837793   -2.3171989   -2.3171989  -0.69153362   0.24284377   -2.3171989    1.6256653   439061 
  667000    1.0848438   -2.3181963   -2.3181963  -0.69093431    0.2424548   -2.3181963     1.627262   439061 
  668000    1.0832273   -2.3155485   -2.3155485  -0.69071126   0.24696732   -2.3155485    1.6248372   439061 
  669000    1.0835663   -2.3165039   -2.3165039  -0.69115807   0.24596927   -2.3165039    1.6253458   439061 
  670000    1.0819712   -2.3155363   -2.3155363  -0.69258316   0.24224815   -2.3155363    1.6229532   439061 
  671000    1.0828826   -2.3173868   -2.3173868  -0.69306656   0.24018672   -2.3173868    1.6243203   439061 
  672000    1.0821473    -2.316639    -2.316639  -0.69342174    0.2406521    -2.316639    1.6232173   439061 
  673000    1.0827654   -2.3179212   -2.3179212  -0.69377679   0.24397275   -2.3179212    1.6241444   439061 
  674000    1.0818093   -2.3174689   -2.3174689  -0.69475868   0.24276829   -2.3174689    1.6227102   439061 
  675000    1.0820884   -2.3170805   -2.3170805  -0.69395172   0.24025434   -2.3170805    1.6231288   439061 
  676000     1.082995   -2.3189379   -2.3189379  -0.69444915   0.24150549   -2.3189379    1.6244888   439061 
  677000    1.0821342   -2.3182101   -2.3182101   -0.6950125   0.24334377   -2.3182101    1.6231976   439061 
  678000    1.0835871   -2.3202247   -2.3202247  -0.69484777   0.23972517   -2.3202247    1.6253769   439061 
  679000    1.0821968   -2.3184719   -2.3184719  -0.69518033   0.24364916   -2.3184719    1.6232916   439061 
  680000    1.0816044   -2.3178828   -2.3178828  -0.69548001   0.24113482   -2.3178828    1.6224028   439061 
  681000    1.0820519   -2.3181707   -2.3181707  -0.69509665   0.24200107   -2.3181707    1.6230741   439061 
  682000     1.080804   -2.3172163   -2.3172163  -0.69601407   0.24103367   -2.3172163    1.6212022   439061 
  683000    1.0805537   -2.3177903   -2.3177903   -0.6969634   0.24495219   -2.3177903    1.6208269   439061 
  684000    1.0819013   -2.3194355   -2.3194355  -0.69658715    0.2411898   -2.3194355    1.6228483   439061 
  685000    1.0814972    -2.318845    -2.318845  -0.69660301   0.23968042    -2.318845     1.622242   439061 
  686000    1.0807435   -2.3170591   -2.3170591  -0.69594762   0.23847983   -2.3170591    1.6211115   439061 
  687000    1.0822678   -2.3203899   -2.3203899  -0.69699193   0.24111941   -2.3203899     1.623398   439061 
  688000    1.0818283   -2.3193694   -2.3193694   -0.6966306   0.23943664   -2.3193694    1.6227388   439061 
  689000    1.0798985    -2.316749    -2.316749  -0.69690485   0.24266375    -2.316749    1.6198441   439061 
  690000    1.0825288   -2.3212493   -2.3212493  -0.69745982   0.24045028   -2.3212493    1.6237895   439061 
  691000    1.0793389   -2.3156529   -2.3156529  -0.69664819   0.24344052   -2.3156529    1.6190047   439061 
  692000     1.080397   -2.3178795   -2.3178795  -0.69728764   0.24273477   -2.3178795    1.6205919   439061 
  693000    1.0817427   -2.3198763   -2.3198763  -0.69726599   0.24409998   -2.3198763    1.6226103   439061 
  694000    1.0805088   -2.3178656   -2.3178656  -0.69710609   0.23981149   -2.3178656    1.6207595   439061 
  695000    1.0816103   -2.3206337   -2.3206337  -0.69822198   0.23461359   -2.3206337    1.6224117   439061 
  696000    1.0811559   -2.3188169   -2.3188169  -0.69708673   0.23856155   -2.3188169    1.6217302   439061 
  697000    1.0805547   -2.3174372   -2.3174372  -0.69660884   0.24537362   -2.3174372    1.6208284   439061 
  698000    1.0813233   -2.3182554   -2.3182554   -0.6962742   0.24235686   -2.3182554    1.6219812   439061 
  699000    1.0805791   -2.3191663   -2.3191663  -0.69830125   0.23991021   -2.3191663     1.620865   439061 
  700000    1.0801472   -2.3175692   -2.3175692  -0.69735203   0.23890844   -2.3175692    1.6202172   439061 
  701000    1.0801157   -2.3188186   -2.3188186  -0.69864871   0.23934158   -2.3188186    1.6201699   439061 
  702000     1.081663   -2.3200855   -2.3200855   -0.6975948   0.23909069   -2.3200855    1.6224907   439061 
  703000    1.0795958   -2.3167455   -2.3167455  -0.69735543   0.24104232   -2.3167455    1.6193901   439061 
  704000    1.0819316    -2.318808    -2.318808  -0.69591429   0.23990079    -2.318808    1.6228937   439061 
  705000    1.0799009   -2.3165223   -2.3165223  -0.69667461   0.24109965   -2.3165223    1.6198477   439061 
  706000    1.0796595   -2.3174522   -2.3174522  -0.69796669   0.23623603   -2.3174522    1.6194855   439061 
  707000    1.0795319   -2.3166845   -2.3166845  -0.69739043   0.24091411   -2.3166845    1.6192941   439061 
  708000    1.0803187    -2.317864    -2.317864   -0.6973897   0.23736202    -2.317864    1.6204743   439061 
  709000    1.0805225   -2.3188142   -2.3188142  -0.69803409   0.24114168   -2.3188142    1.6207801   439061 
  710000    1.0801028   -2.3180776   -2.3180776  -0.69792703   0.23892717   -2.3180776    1.6201505   439061 
  711000    1.0796496   -2.3178418   -2.3178418  -0.69837116   0.23852974   -2.3178418    1.6194707   439061 
  712000    1.0793297   -2.3198774   -2.3198774  -0.70088665   0.24162281   -2.3198774    1.6189908   439061 
  713000    1.0784072   -2.3187518   -2.3187518   -0.7011447   0.23218951   -2.3187518    1.6176071   439061 
  714000    1.0774108   -2.3171821   -2.3171821  -0.70106961    0.2370249   -2.3171821    1.6161125   439061 
  715000    1.0782088   -2.3182697   -2.3182697  -0.70096014   0.23763808   -2.3182697    1.6173096   439061 
  716000    1.0775307   -2.3172827   -2.3172827  -0.70099039   0.23587275   -2.3172827    1.6162924   439061 
  717000    1.0779341   -2.3185036   -2.3185036  -0.70160616   0.23812251   -2.3185036    1.6168974   439061 
  718000    1.0798905    -2.319171    -2.319171  -0.69933898   0.24356948    -2.319171     1.619832   439061 
  719000    1.0786679   -2.3189558   -2.3189558  -0.70095754   0.23962374   -2.3189558    1.6179982   439061 
  720000    1.0778099   -2.3196561   -2.3196561  -0.70294497   0.23725474   -2.3196561    1.6167111   439061 
  721000    1.0773616   -2.3191158   -2.3191158  -0.70307698   0.23159367   -2.3191158    1.6160388   439061 
  722000    1.0787119    -2.320166    -2.320166   -0.7021019   0.23910603    -2.320166    1.6180641   439061 
  723000    1.0785804   -2.3202647   -2.3202647  -0.70239768   0.23526884   -2.3202647     1.617867   439061 
  724000    1.0783468   -2.3198526   -2.3198526  -0.70233612   0.24024542   -2.3198526    1.6175165   439061 
  725000     1.079753   -2.3214557   -2.3214557  -0.70182987   0.23445116   -2.3214557    1.6196259   439061 
  726000    1.0782044   -2.3210939   -2.3210939  -0.70379093   0.23980826   -2.3210939     1.617303   439061 
  727000     1.078955   -2.3214352   -2.3214352  -0.70300638   0.23618822   -2.3214352    1.6184288   439061 
  728000    1.0783855   -2.3214987   -2.3214987  -0.70392404   0.23378729   -2.3214987    1.6175746   439061 
  729000    1.0777061   -2.3217828   -2.3217828  -0.70522728   0.23472076   -2.3217828    1.6165555   439061 
  730000    1.0762941   -2.3206434   -2.3206434  -0.70620602   0.24127849   -2.3206434    1.6144374   439061 
  731000    1.0775957   -2.3209985   -2.3209985  -0.70460866   0.23532196   -2.3209985    1.6163898   439061 
  732000    1.0777809   -2.3208354   -2.3208354  -0.70416768   0.23992174   -2.3208354    1.6166677   439061 
  733000    1.0790968   -2.3217258   -2.3217258  -0.70308428   0.23562504   -2.3217258    1.6186415   439061 
  734000    1.0790136   -2.3209445   -2.3209445   -0.7024278   0.23884441   -2.3209445    1.6185167   439061 
  735000    1.0776783   -2.3195937   -2.3195937  -0.70307992   0.23662741   -2.3195937    1.6165137   439061 
  736000     1.078023   -2.3198759   -2.3198759  -0.70284512   0.24156049   -2.3198759    1.6170307   439061 
  737000     1.077314   -2.3193369   -2.3193369  -0.70336947   0.23496231   -2.3193369    1.6159674   439061 
  738000    1.0777348   -2.3207417   -2.3207417   -0.7041432   0.23376051   -2.3207417    1.6165985   439061 
  739000    1.0766724   -2.3189002   -2.3189002  -0.70389518   0.23531957   -2.3189002     1.615005   439061 
  740000    1.0763389   -2.3194287   -2.3194287  -0.70492401   0.23408671   -2.3194287    1.6145046   439061 
  741000    1.0776725   -2.3205184   -2.3205184  -0.70401336   0.23436594   -2.3205184    1.6165051   439061 
  742000    1.0768435   -2.3183688   -2.3183688  -0.70310723   0.24148486   -2.3183688    1.6152616   439061 
  743000    1.0774424   -2.3205673   -2.3205673  -0.70440742   0.23234623   -2.3205673    1.6161599   439061 
  744000    1.0778897   -2.3198131   -2.3198131  -0.70298235   0.23894263   -2.3198131    1.6168308   439061 
  745000    1.0776207   -2.3179139   -2.3179139  -0.70148652   0.23597921   -2.3179139    1.6164274   439061 
  746000     1.076062   -2.3167396   -2.3167396   -0.7026502   0.23401482   -2.3167396    1.6140894   439061 
  747000    1.0772343   -2.3180977   -2.3180977  -0.70224988   0.23715272   -2.3180977    1.6158478   439061 
  748000    1.0753293   -2.3168802   -2.3168802  -0.70388984   0.23646882   -2.3168802    1.6129903   439061 
  749000    1.0759821   -2.3176571   -2.3176571  -0.70368766   0.23003067   -2.3176571    1.6139695   439061 
  750000    1.0749557    -2.316331    -2.316331  -0.70390116   0.23162764    -2.316331    1.6124299   439061 
  751000    1.0767122   -2.3179729   -2.3179729  -0.70290833   0.23339945   -2.3179729    1.6150646   439061 
  752000    1.0765945   -2.3192961   -2.3192961  -0.70440802   0.23020169   -2.3192961    1.6148881   439061 
  753000    1.0772856   -2.3193024   -2.3193024  -0.70337761   0.23187397   -2.3193024    1.6159248   439061 
  754000    1.0761186   -2.3171369   -2.3171369  -0.70296269   0.23551671   -2.3171369    1.6141742   439061 
  755000    1.0765604   -2.3177636   -2.3177636  -0.70292669   0.22875409   -2.3177636    1.6148369   439061 
  756000    1.0765528   -2.3177444   -2.3177444  -0.70291885    0.2418025   -2.3177444    1.6148256   439061 
  757000    1.0761982   -2.3186017   -2.3186017  -0.70430812   0.23731578   -2.3186017    1.6142936   439061 
  758000    1.0760331   -2.3171003   -2.3171003  -0.70305438   0.23617688   -2.3171003    1.6140459   439061 
  759000    1.0769151   -2.3207956   -2.3207956  -0.70542661   0.23422232   -2.3207956     1.615369   439061 
  760000    1.0744289   -2.3190349   -2.3190349  -0.70739519    0.2372656   -2.3190349    1.6116397   439061 
  761000    1.0746171   -2.3185225   -2.3185225  -0.70660057   0.23136795   -2.3185225     1.611922   439061 
  762000    1.0757799   -2.3183289   -2.3183289  -0.70466275   0.23785584   -2.3183289    1.6136662   439061 
  763000    1.0760551   -2.3196537   -2.3196537  -0.70557481   0.23599683   -2.3196537    1.6140789   439061 
  764000    1.0756562   -2.3197678   -2.3197678  -0.70628724   0.23819489   -2.3197678    1.6134806   439061 
  765000    1.0750067   -2.3184068   -2.3184068  -0.70590046   0.23351151   -2.3184068    1.6125063   439061 
  766000    1.0749081   -2.3201672   -2.3201672  -0.70780873   0.23714824   -2.3201672    1.6123585   439061 
  767000    1.0756049   -2.3205296   -2.3205296  -0.70712594   0.23602388   -2.3205296    1.6134037   439061 
  768000    1.0768498   -2.3227607   -2.3227607  -0.70748976   0.23369003   -2.3227607     1.615271   439061 
  769000    1.0771568   -2.3229042   -2.3229042  -0.70717265   0.23156258   -2.3229042    1.6157315   439061 
  770000    1.0770554   -2.3214158   -2.3214158  -0.70583637   0.23400946   -2.3214158    1.6155794   439061 
  771000    1.0753287    -2.318459    -2.318459  -0.70546952    0.2361785    -2.318459    1.6129894   439061 
  772000     1.074891   -2.3182693   -2.3182693  -0.70593636   0.23978368   -2.3182693    1.6123329   439061 
  773000     1.074378   -2.3196998   -2.3196998  -0.70813647   0.23745538   -2.3196998    1.6115634   439061 
  774000     1.074161   -2.3186132   -2.3186132  -0.70737539   0.23244543   -2.3186132    1.6112378   439061 
  775000    1.0751695   -2.3201101   -2.3201101  -0.70735963   0.23559434   -2.3201101    1.6127505   439061 
  776000    1.0745419    -2.320115    -2.320115  -0.70830579   0.23436418    -2.320115    1.6118092   439061 
  777000    1.0749544   -2.3204845   -2.3204845  -0.70805656   0.23116645   -2.3204845    1.6124279   439061 
  778000    1.0741466   -2.3200768   -2.3200768  -0.70886061   0.22840662   -2.3200768    1.6112162   439061 
  779000    1.0732861   -2.3185572   -2.3185572  -0.70863168   0.23367361   -2.3185572    1.6099255   439061 
  780000     1.072842   -2.3185477   -2.3185477  -0.70928837   0.22636629   -2.3185477    1.6092593   439061 
  781000    1.0728903   -2.3187694   -2.3187694  -0.70943763   0.23133298   -2.3187694    1.6093318   439061 
  782000    1.0719918   -2.3179039   -2.3179039  -0.70991982   0.22934485   -2.3179039    1.6079841   439061 
  783000    1.0750309   -2.3218403   -2.3218403  -0.70929765   0.22990446   -2.3218403    1.6125426   439061 
  784000    1.0733548   -2.3196781   -2.3196781  -0.70964948   0.23198112   -2.3196781    1.6100286   439061 
  785000    1.0735317   -2.3198321   -2.3198321  -0.70953814   0.23192263   -2.3198321    1.6102939   439061 
  786000    1.0729154   -2.3180065   -2.3180065  -0.70863713   0.23183868   -2.3180065    1.6093694   439061 
  787000    1.0738808   -2.3186873   -2.3186873  -0.70786987   0.22791702   -2.3186873    1.6108175   439061 
  788000    1.0745177   -2.3192718   -2.3192718  -0.70749898   0.23539399   -2.3192718    1.6117729   439061 
  789000    1.0735803   -2.3184654   -2.3184654  -0.70809855    0.2345027   -2.3184654    1.6103668   439061 
  790000    1.0743081   -2.3182366   -2.3182366  -0.70677811   0.23112919   -2.3182366    1.6114585   439061 
  791000    1.0730435   -2.3169406   -2.3169406  -0.70737909   0.23596626   -2.3169406    1.6095615   439061 
  792000    1.0749371   -2.3202766   -2.3202766  -0.70787462   0.22682788   -2.3202766     1.612402   439061 
  793000    1.0746162   -2.3185263   -2.3185263  -0.70660572   0.23333333   -2.3185263    1.6119206   439061 
  794000    1.0737803   -2.3186902   -2.3186902  -0.70802343   0.23064887   -2.3186902    1.6106667   439061 
  795000    1.0732372   -2.3174221   -2.3174221  -0.70756993   0.23445346   -2.3174221    1.6098521   439061 
  796000    1.0739506   -2.3183974   -2.3183974   -0.7074751   0.23639918   -2.3183974    1.6109223   439061 
  797000    1.0727213   -2.3171565   -2.3171565  -0.70807827   0.23210016   -2.3171565    1.6090782   439061 
  798000    1.0736553   -2.3194451   -2.3194451  -0.70896591   0.23382732   -2.3194451    1.6104792   439061 
  799000    1.0733723   -2.3194516   -2.3194516   -0.7093968   0.23108771   -2.3194516    1.6100548   439061 
  800000    1.0732783   -2.3187561   -2.3187561  -0.70884229   0.22969596   -2.3187561    1.6099138   439061 
  801000    1.0734014   -2.3192578   -2.3192578  -0.70915942   0.22903494   -2.3192578    1.6100984   439061 
  802000    1.0744222   -2.3210079   -2.3210079  -0.70937825   0.23393134   -2.3210079    1.6116296   439061 
  803000    1.0725483   -2.3183514   -2.3183514  -0.70953257   0.23144747   -2.3183514    1.6088188   439061 
  804000    1.0738078   -2.3201033   -2.3201033  -0.70939528   0.23112528   -2.3201033     1.610708   439061 
  805000    1.0730017   -2.3186918   -2.3186918  -0.70919287   0.23074904   -2.3186918    1.6094989   439061 
  806000    1.0738041   -2.3208799   -2.3208799  -0.71017738   0.22829869   -2.3208799    1.6107025   439061 
  807000    1.0715392   -2.3181662   -2.3181662  -0.71086106   0.23194647   -2.3181662    1.6073051   439061 
  808000    1.0720415   -2.3183378   -2.3183378  -0.71027923   0.23063251   -2.3183378    1.6080586   439061 
  809000     1.070811   -2.3170527   -2.3170527  -0.71083988   0.23214578   -2.3170527    1.6062128   439061 
  810000    1.0722852   -2.3193652   -2.3193652  -0.71094107   0.22386374   -2.3193652    1.6084242   439061 
  811000    1.0719185     -2.31971     -2.31971    -0.711836   0.23104083     -2.31971     1.607874   439061 
  812000    1.0702082   -2.3189499   -2.3189499  -0.71364134   0.22874556   -2.3189499    1.6053086   439061 
  813000    1.0706628   -2.3189072   -2.3189072  -0.71291669   0.22942692   -2.3189072    1.6059905   439061 
  814000    1.0719703   -2.3198016   -2.3198016   -0.7118498   0.22778011   -2.3198016    1.6079518   439061 
  815000    1.0713825   -2.3186172   -2.3186172  -0.71154713   0.23139728   -2.3186172    1.6070701   439061 
  816000    1.0721399   -2.3196284   -2.3196284  -0.71142228   0.22681125   -2.3196284    1.6082061   439061 
  817000     1.072956   -2.3198161   -2.3198161  -0.71038579   0.23123119   -2.3198161    1.6094303   439061 
  818000    1.0728192   -2.3191944   -2.3191944  -0.70996922   0.23030889   -2.3191944    1.6092252   439061 
  819000    1.0728263    -2.317757    -2.317757  -0.70852131   0.23350506    -2.317757    1.6092357   439061 
  820000    1.0728225   -2.3179759   -2.3179759  -0.70874581   0.23740116   -2.3179759      1.60923   439061 
  821000    1.0715727   -2.3169557   -2.3169557  -0.70960031   0.23060416   -2.3169557    1.6073554   439061 
  822000    1.0728495    -2.318464    -2.318464  -0.70919336   0.22644673    -2.318464    1.6092706   439061 
  823000    1.0727458     -2.31798     -2.31798  -0.70886497   0.23507402     -2.31798     1.609115   439061 
  824000    1.0722434   -2.3181351   -2.3181351  -0.70977368   0.22751427   -2.3181351    1.6083614   439061 
  825000    1.0726006   -2.3206991   -2.3206991  -0.71180179   0.22692135   -2.3206991    1.6088973   439061 
  826000    1.0717359    -2.319337    -2.319337  -0.71173678   0.22925621    -2.319337    1.6076002   439061 
  827000    1.0704535   -2.3176255   -2.3176255  -0.71194881   0.22776732   -2.3176255    1.6056766   439061 
  828000    1.0708511   -2.3171133   -2.3171133  -0.71084035   0.22840436   -2.3171133     1.606273   439061 
  829000     1.070945   -2.3174436   -2.3174436  -0.71102975   0.22979126   -2.3174436    1.6064139   439061 
  830000    1.0711444   -2.3178692   -2.3178692  -0.71115624   0.22890984   -2.3178692    1.6067129   439061 
  831000    1.0702703    -2.317143    -2.317143  -0.71174122   0.23298505    -2.317143    1.6054018   439061 
  832000    1.0709132   -2.3193881   -2.3193881  -0.71302193   0.23049266   -2.3193881    1.6063662   439061 
  833000    1.0709704   -2.3204374   -2.3204374  -0.71398555   0.22981158   -2.3204374    1.6064519   439061 
  834000    1.0705628   -2.3198185   -2.3198185  -0.71397787    0.2298761   -2.3198185    1.6058406   439061 
  835000    1.0690326   -2.3174349   -2.3174349  -0.71388967    0.2277263   -2.3174349    1.6035452   439061 
  836000    1.0697955   -2.3184135   -2.3184135  -0.71372394   0.22827783   -2.3184135    1.6046896   439061 
  837000    1.0702469   -2.3176907   -2.3176907  -0.71232401   0.22932079   -2.3176907    1.6053667   439061 
  838000    1.0706509   -2.3177387   -2.3177387    -0.711766   0.23272176   -2.3177387    1.6059727   439061 
  839000    1.0725352   -2.3190255   -2.3190255  -0.71022638   0.22930887   -2.3190255    1.6087991   439061 
  840000    1.0728229   -2.3198484   -2.3198484  -0.71061776   0.22489804   -2.3198484    1.6092306   439061 
  841000    1.0720471   -2.3184593   -2.3184593  -0.71039233   0.23228784   -2.3184593    1.6080669   439061 
  842000    1.0710289   -2.3170227   -2.3170227  -0.71048305   0.23391176   -2.3170227    1.6065396   439061 
  843000    1.0707162   -2.3162601   -2.3162601  -0.71018948    0.2344973   -2.3162601    1.6060706   439061 
  844000    1.0732061   -2.3198753   -2.3198753   -0.7100699   0.23053345   -2.3198753    1.6098054   439061 
  845000     1.071378   -2.3179949   -2.3179949   -0.7109316   0.22894948   -2.3179949    1.6070633   439061 
  846000     1.071665   -2.3188096   -2.3188096  -0.71131572   0.22733976   -2.3188096    1.6074939   439061 
  847000    1.0711382   -2.3174673   -2.3174673  -0.71076357   0.22752928   -2.3174673    1.6067037   439061 
  848000    1.0707713   -2.3169588   -2.3169588  -0.71080548   0.22969733   -2.3169588    1.6061533   439061 
  849000    1.0695689   -2.3158298   -2.3158298  -0.71148002   0.22901226   -2.3158298    1.6043498   439061 
  850000    1.0704834   -2.3176958   -2.3176958  -0.71197442   0.22766381   -2.3176958    1.6057214   439061 
  851000    1.0706649   -2.3183599   -2.3183599  -0.71236623   0.22572267   -2.3183599    1.6059937   439061 
  852000     1.070322   -2.3168492   -2.3168492  -0.71136987   0.23519074   -2.3168492    1.6054793   439061 
  853000    1.0698499   -2.3176255   -2.3176255  -0.71285424   0.22840933   -2.3176255    1.6047712   439061 
  854000    1.0706748   -2.3170994   -2.3170994   -0.7110909   0.23275346   -2.3170994    1.6060085   439061 
  855000    1.0711848   -2.3172181   -2.3172181  -0.71044459    0.2299865   -2.3172181    1.6067735   439061 
  856000    1.0706064   -2.3170674   -2.3170674  -0.71116145   0.22868119   -2.3170674     1.605906   439061 
  857000    1.0698988   -2.3165479   -2.3165479   -0.7117034   0.22324698   -2.3165479    1.6048445   439061 
  858000    1.0692158   -2.3154561   -2.3154561  -0.71163606   0.22981994   -2.3154561      1.60382   439061 
  859000    1.0697436   -2.3162844   -2.3162844  -0.71167263   0.23011204   -2.3162844    1.6046118   439061 
  860000    1.0685734   -2.3147785   -2.3147785  -0.71192202    0.2322204   -2.3147785    1.6028565   439061 
  861000    1.0692641   -2.3164016   -2.3164016  -0.71250917   0.22949951   -2.3164016    1.6038925   439061 
  862000    1.0700898   -2.3156292   -2.3156292  -0.71049817   0.23137158   -2.3156292     1.605131   439061 
  863000    1.0708272   -2.3167996   -2.3167996  -0.71056246   0.23071194   -2.3167996    1.6062371   439061 
  864000    1.0687641   -2.3140732   -2.3140732  -0.71093082   0.23037482   -2.3140732    1.6031424   439061 
  865000    1.0702935   -2.3164994   -2.3164994  -0.71106289   0.22806531   -2.3164994    1.6054365   439061 
  866000    1.0689762   -2.3161089   -2.3161089  -0.71264828   0.22236635   -2.3161089    1.6034606   439061 
  867000    1.0700113   -2.3184521   -2.3184521  -0.71343883   0.23129748   -2.3184521    1.6050133   439061 
  868000      1.07053   -2.3193515   -2.3193515  -0.71356008   0.22981748   -2.3193515    1.6057914   439061 
  869000    1.0688237   -2.3176354   -2.3176354  -0.71440346   0.22918556   -2.3176354    1.6032319   439061 
  870000      1.06801   -2.3182776   -2.3182776  -0.71626629   0.22880325   -2.3182776    1.6020113   439061 
  871000    1.0674797   -2.3189675   -2.3189675  -0.71775158   0.22549839   -2.3189675    1.6012159   439061 
  872000    1.0677853   -2.3182711   -2.3182711  -0.71659677   0.22805108   -2.3182711    1.6016744   439061 
  873000      1.06813   -2.3190666   -2.3190666  -0.71687534   0.22582021   -2.3190666    1.6021913   439061 
  874000    1.0672147   -2.3187672   -2.3187672  -0.71794886   0.22682473   -2.3187672    1.6008183   439061 
  875000    1.0680629   -2.3197012   -2.3197012  -0.71761046   0.22850399   -2.3197012    1.6020908   439061 
  876000    1.0662679     -2.31853     -2.31853  -0.71913182   0.22735417     -2.31853    1.5993982   439061 
  877000    1.0696008   -2.3222715   -2.3222715  -0.71787401   0.22810515   -2.3222715    1.6043975   439061 
  878000    1.0679517   -2.3205214   -2.3205214  -0.71859759   0.22585792   -2.3205214    1.6019238   439061 
  879000    1.0683939   -2.3207027   -2.3207027  -0.71811552   0.22571881   -2.3207027    1.6025872   439061 
  880000    1.0680515   -2.3207531   -2.3207531  -0.71867943   0.22797883   -2.3207531    1.6020737   439061 
  881000    1.0677825   -2.3205058   -2.3205058  -0.71883566   0.22729106   -2.3205058    1.6016701   439061 
  882000    1.0664723   -2.3188331   -2.3188331  -0.71912831   0.22709963   -2.3188331    1.5997048   439061 
  883000    1.0675935    -2.321695    -2.321695  -0.72030835   0.22269174    -2.321695    1.6013866   439061 
  884000    1.0691379   -2.3226297   -2.3226297  -0.71892656   0.22489188   -2.3226297    1.6037031   439061 
  885000    1.0673546   -2.3199863   -2.3199863  -0.71895796   0.22887894   -2.3199863    1.6010283   439061 
  886000    1.0674325   -2.3184925   -2.3184925  -0.71734739   0.22802533   -2.3184925    1.6011451   439061 
  887000    1.0677462   -2.3197776   -2.3197776  -0.71816192   0.22936114   -2.3197776    1.6016157   439061 
  888000    1.0681251   -2.3200182   -2.3200182  -0.71783415   0.22834858   -2.3200182    1.6021841   439061 
  889000    1.0667612   -2.3195834   -2.3195834  -0.71944523    0.2293245   -2.3195834    1.6001382   439061 
  890000    1.0661378   -2.3182786   -2.3182786  -0.71907551   0.22956149   -2.3182786    1.5992031   439061 
  891000    1.0681332   -2.3208701   -2.3208701  -0.71867391   0.22439106   -2.3208701    1.6021962   439061 
  892000    1.0679096   -2.3196693   -2.3196693  -0.71780851   0.22556951   -2.3196693    1.6018608   439061 
  893000    1.0681265   -2.3194387   -2.3194387  -0.71725254   0.22349303   -2.3194387    1.6021861   439061 
  894000    1.0683409   -2.3203661   -2.3203661  -0.71785837   0.22684895   -2.3203661    1.6025077   439061 
  895000     1.067088   -2.3186356   -2.3186356   -0.7180073   0.22441785   -2.3186356    1.6006283   439061 
  896000    1.0662657   -2.3176477   -2.3176477   -0.7182529   0.22372086   -2.3176477    1.5993948   439061 
  897000    1.0673623   -2.3196568   -2.3196568  -0.71861705   0.22369436   -2.3196568    1.6010398   439061 
  898000    1.0660534   -2.3178329   -2.3178329  -0.71875652   0.22340436   -2.3178329    1.5990764   439061 
  899000    1.0664259   -2.3197662   -2.3197662  -0.72013098   0.23118759   -2.3197662    1.5996352   439061 
  900000    1.0659651   -2.3190431   -2.3190431  -0.72009912    0.2242353   -2.3190431     1.598944   439061 
  901000    1.0657605   -2.3195098   -2.3195098  -0.72087262   0.22704544   -2.3195098    1.5986372   439061 
  902000    1.0657759   -2.3191852   -2.3191852  -0.72052492   0.22548763   -2.3191852    1.5986602   439061 
  903000    1.0659069   -2.3195608   -2.3195608  -0.72070413   0.22724589   -2.3195608    1.5988567   439061 
  904000    1.0655183   -2.3189516   -2.3189516  -0.72067783   0.22255994   -2.3189516    1.5982738   439061 
  905000    1.0653129   -2.3184384   -2.3184384  -0.72047264   0.22368995   -2.3184384    1.5979657   439061 
  906000    1.0654569   -2.3184288   -2.3184288  -0.72024715    0.2269906   -2.3184288    1.5981817   439061 
  907000    1.0645167   -2.3167794   -2.3167794  -0.72000803   0.22571428   -2.3167794    1.5967714   439061 
  908000    1.0658369   -2.3181107   -2.3181107  -0.71935898   0.22772558   -2.3181107    1.5987517   439061 
  909000    1.0655372   -2.3180919   -2.3180919  -0.71978982   0.22533596   -2.3180919    1.5983021   439061 
  910000    1.0677424   -2.3198678   -2.3198678  -0.71825785   0.22275643   -2.3198678      1.60161   439061 
  911000    1.0652704   -2.3186767   -2.3186767  -0.72077465   0.22281929   -2.3186767     1.597902   439061 
  912000    1.0653392   -2.3183281   -2.3183281  -0.72032295    0.2239183   -2.3183281    1.5980051   439061 
  913000     1.065951   -2.3198448   -2.3198448    -0.720922   0.21765603   -2.3198448    1.5989228   439061 
  914000    1.0654948   -2.3191387   -2.3191387  -0.72090011   0.22243362   -2.3191387    1.5982386   439061 
  915000    1.0664957   -2.3202093   -2.3202093  -0.72046951   0.22494778   -2.3202093    1.5997398   439061 
  916000    1.0673506   -2.3208343   -2.3208343  -0.71981205   0.22690939   -2.3208343    1.6010223   439061 
  917000    1.0657722   -2.3193306   -2.3193306  -0.72067593    0.2251666   -2.3193306    1.5986546   439061 
  918000    1.0662595   -2.3206595   -2.3206595  -0.72127393   0.22085343   -2.3206595    1.5993855   439061 
  919000     1.065398   -2.3203039   -2.3203039  -0.72221056   0.22293646   -2.3203039    1.5980934   439061 
  920000    1.0649192       -2.319       -2.319  -0.72162482   0.22726568       -2.319    1.5973752   439061 
  921000    1.0671953   -2.3227718   -2.3227718  -0.72198248    0.2212215   -2.3227718    1.6007894   439061 
  922000    1.0644622   -2.3196191   -2.3196191  -0.72292952     0.224981   -2.3196191    1.5966896   439061 
  923000    1.0642918   -2.3203398   -2.3203398   -0.7239057   0.22122857   -2.3203398    1.5964341   439061 
  924000    1.0636874   -2.3203215   -2.3203215  -0.72479406   0.22243855   -2.3203215    1.5955274   439061 
  925000    1.0632532   -2.3192908   -2.3192908  -0.72441466    0.2231547   -2.3192908    1.5948762   439061 
  926000    1.0647589   -2.3225349   -2.3225349  -0.72540009   0.21907962   -2.3225349    1.5971348   439061 
  927000    1.0623319   -2.3188419   -2.3188419  -0.72534758   0.22147555   -2.3188419    1.5934943   439061 
  928000    1.0642926   -2.3222764   -2.3222764  -0.72584114   0.22108466   -2.3222764    1.5964353   439061 
  929000    1.0630191   -2.3201628   -2.3201628  -0.72563777   0.22305421   -2.3201628    1.5945251   439061 
  930000    1.0633513    -2.320967    -2.320967  -0.72594371   0.22503937    -2.320967    1.5950232   439061 
  931000    1.0635596    -2.319918    -2.319918  -0.72458216   0.22128866    -2.319918    1.5953358   439061 
  932000     1.064522   -2.3195354   -2.3195354  -0.72275606     0.220984   -2.3195354    1.5967794   439061 
  933000    1.0635675   -2.3190485   -2.3190485  -0.72370085   0.22077504   -2.3190485    1.5953476   439061 
  934000    1.0633474   -2.3197797   -2.3197797  -0.72476231   0.22179899   -2.3197797    1.5950174   439061 
  935000    1.0623014   -2.3193348   -2.3193348  -0.72588637   0.22065543   -2.3193348    1.5934485   439061 
  936000    1.0634672   -2.3196359   -2.3196359  -0.72443879   0.22265227   -2.3196359    1.5951971   439061 
  937000    1.0645088   -2.3210732   -2.3210732  -0.72431357    0.2251134   -2.3210732    1.5967596   439061 
  938000    1.0655272   -2.3214458   -2.3214458   -0.7231586   0.22102403   -2.3214458    1.5982872   439061 
  939000    1.0647855   -2.3205536   -2.3205536    -0.723379   0.21813269   -2.3205536    1.5971746   439061 
  940000    1.0628274   -2.3207775   -2.3207775  -0.72653997   0.22297686   -2.3207775    1.5942375   439061 
  941000     1.061577   -2.3197083   -2.3197083  -0.72734647   0.22663464   -2.3197083    1.5923619   439061 
  942000    1.0631269   -2.3220751   -2.3220751  -0.72738846   0.21723462   -2.3220751    1.5946867   439061 
  943000    1.0630449   -2.3214991   -2.3214991  -0.72693535   0.21912986   -2.3214991    1.5945638   439061 
  944000    1.0623555   -2.3201629   -2.3201629  -0.72663329   0.22783795   -2.3201629    1.5935296   439061 
  945000    1.0639791   -2.3217871   -2.3217871  -0.72582206   0.21508386   -2.3217871     1.595965   439061 
  946000    1.0625771   -2.3194158   -2.3194158  -0.72555381   0.22177271   -2.3194158     1.593862   439061 
  947000    1.0643296   -2.3207525   -2.3207525   -0.7242618   0.22167735   -2.3207525    1.5964907   439061 
  948000    1.0631951   -2.3200817   -2.3200817   -0.7252926   0.22356061   -2.3200817    1.5947891   439061 
  949000    1.0630825   -2.3200321   -2.3200321  -0.72541199   0.21911925   -2.3200321    1.5946201   439061 
  950000     1.062459   -2.3185561   -2.3185561  -0.72487121   0.23010902   -2.3185561    1.5936849   439061 
  951000    1.0637347   -2.3214813   -2.3214813  -0.72588291   0.22320022   -2.3214813    1.5955984   439061 
  952000    1.0637698   -2.3223516   -2.3223516   -0.7267006    0.2180041   -2.3223516     1.595651   439061 
  953000    1.0632101   -2.3207148   -2.3207148  -0.72590326   0.22268767   -2.3207148    1.5948116   439061 
  954000     1.062649    -2.321223    -2.321223  -0.72725311    0.2206112    -2.321223    1.5939699   439061 
  955000    1.0630739   -2.3219424   -2.3219424  -0.72733525   0.21984807   -2.3219424    1.5946072   439061 
  956000    1.0615113   -2.3201855   -2.3201855  -0.72792224   0.22415342   -2.3201855    1.5922633   439061 
  957000    1.0621858   -2.3212403   -2.3212403  -0.72796519   0.22093229   -2.3212403    1.5932751   439061 
  958000    1.0618967   -2.3206024   -2.3206024  -0.72776099   0.21836031   -2.3206024    1.5928414   439061 
  959000     1.061896   -2.3200125   -2.3200125  -0.72717211   0.22229475   -2.3200125    1.5928404   439061 
  960000    1.0619078   -2.3191525   -2.3191525  -0.72629438   0.22072639   -2.3191525    1.5928581   439061 
  961000    1.0621184   -2.3204544   -2.3204544  -0.72728045   0.22321544   -2.3204544     1.593174   439061 
  962000    1.0609193   -2.3184878   -2.3184878  -0.72711246   0.22030193   -2.3184878    1.5913753   439061 
  963000    1.0611253   -2.3191156   -2.3191156  -0.72743135   0.21815858   -2.3191156    1.5916843   439061 
  964000    1.0619492    -2.320743    -2.320743  -0.72782282   0.21801925    -2.320743    1.5929201   439061 
  965000    1.0616484   -2.3207455   -2.3207455   -0.7282766   0.22268598   -2.3207455    1.5924689   439061 
  966000    1.0616088   -2.3206922   -2.3206922  -0.72828266   0.21970826   -2.3206922    1.5924095   439061 
  967000    1.0619457   -2.3196218   -2.3196218  -0.72670685   0.21724247   -2.3196218    1.5929149   439061 
  968000    1.0605907   -2.3198453   -2.3198453  -0.72896277   0.22348043   -2.3198453    1.5908825   439061 
  969000    1.0618156   -2.3225943   -2.3225943  -0.72987461   0.21836647   -2.3225943    1.5927197   439061 
  970000    1.0614349   -2.3212983   -2.3212983  -0.72914954   0.21914526   -2.3212983    1.5921488   439061 
  971000    1.0614947   -2.3201365   -2.3201365  -0.72789802   0.22267049   -2.3201365    1.5922385   439061 
  972000    1.0617987   -2.3213136   -2.3213136  -0.72861924   0.21818746   -2.3213136    1.5926944   439061 
  973000    1.0620538   -2.3218245   -2.3218245  -0.72874745   0.21821932   -2.3218245    1.5930771   439061 
  974000    1.0642137   -2.3237157   -2.3237157  -0.72739886   0.21763862   -2.3237157    1.5963169   439061 
  975000    1.0614288   -2.3210839   -2.3210839  -0.72894434   0.21993662   -2.3210839    1.5921396   439061 
  976000    1.0613981   -2.3206286   -2.3206286  -0.72853505   0.21687619   -2.3206286    1.5920935   439061 
  977000    1.0630265   -2.3220882   -2.3220882  -0.72755216   0.21893762   -2.3220882    1.5945361   439061 
  978000    1.0614097   -2.3208893   -2.3208893  -0.72877837   0.22234775   -2.3208893    1.5921109   439061 
  979000    1.0615346   -2.3207604   -2.3207604  -0.72846216    0.2214427   -2.3207604    1.5922983   439061 
  980000    1.0613189   -2.3217221   -2.3217221  -0.72974738    0.2181242   -2.3217221    1.5919747   439061 
  981000    1.0614479   -2.3202768   -2.3202768  -0.72810864   0.22337289   -2.3202768    1.5921682   439061 
  982000    1.0611155   -2.3204131   -2.3204131  -0.72874347   0.22046266   -2.3204131    1.5916696   439061 
  983000    1.0619905   -2.3234735   -2.3234735  -0.73049128    0.2178868   -2.3234735    1.5929822   439061 
  984000    1.0613297   -2.3206644   -2.3206644  -0.72867347   0.22177348   -2.3206644    1.5919909   439061 
  985000     1.060975   -2.3202364   -2.3202364  -0.72877759   0.22318817   -2.3202364    1.5914589   439061 
  986000    1.0610296    -2.321106    -2.321106  -0.72956518   0.21310131    -2.321106    1.5915408   439061 
  987000    1.0624734    -2.321809    -2.321809  -0.72810244    0.2160723    -2.321809    1.5937065   439061 
  988000    1.0625506    -2.320992    -2.320992  -0.72716971   0.21649315    -2.320992    1.5938223   439061 
  989000    1.0620929   -2.3207199   -2.3207199  -0.72758424    0.2179461   -2.3207199    1.5931357   439061 
  990000    1.0602416   -2.3194882   -2.3194882  -0.72912948   0.21802621   -2.3194882    1.5903587   439061 
  991000    1.0618759   -2.3209158   -2.3209158  -0.72810561   0.21596554   -2.3209158    1.5928102   439061 
  992000    1.0625514    -2.320671    -2.320671   -0.7268475   0.22134272    -2.320671    1.5938235   439061 
  993000    1.0603616   -2.3191072   -2.3191072  -0.72856845   0.21989767   -2.3191072    1.5905388   439061 
  994000    1.0624109   -2.3204881   -2.3204881  -0.72687536   0.22577596   -2.3204881    1.5936128   439061 
  995000    1.0616647   -2.3195635   -2.3195635  -0.72707014   0.22152093   -2.3195635    1.5924933   439061 
  996000    1.0626786   -2.3208533   -2.3208533  -0.72683904   0.21598894   -2.3208533    1.5940142   439061 
  997000    1.0622495   -2.3202059   -2.3202059  -0.72683537   0.21661893   -2.3202059    1.5933706   439061 
  998000    1.0620178   -2.3210904   -2.3210904  -0.72806731   0.21961336   -2.3210904    1.5930231   439061 
  999000    1.0618059   -2.3209017   -2.3209017  -0.72819643   0.21785898   -2.3209017    1.5927053   439061 
 1000000    1.0620637    -2.320118    -2.320118    -0.727026   0.22173787    -2.320118     1.593092   439061 
 1001000    1.0601677   -2.3176097   -2.3176097  -0.72736181   0.21959495   -2.3176097    1.5902479   439061 
 1002000    1.0608719   -2.3192994   -2.3192994  -0.72799529   0.22036367   -2.3192994    1.5913042   439061 
 1003000    1.0601008   -2.3187373   -2.3187373  -0.72858982   0.22028817   -2.3187373    1.5901475   439061 
 1004000    1.0594386   -2.3195933   -2.3195933  -0.73043899   0.21723846   -2.3195933    1.5891543   439061 
 1005000    1.0603954    -2.320533    -2.320533  -0.72994351   0.22121637    -2.320533    1.5905894   439061 
 1006000    1.0598239   -2.3186757   -2.3186757  -0.72894344   0.22390752   -2.3186757    1.5897322   439061 
 1007000    1.0609875   -2.3193886   -2.3193886   -0.7279111   0.22255166   -2.3193886    1.5914776   439061 
 1008000    1.0616945     -2.32136     -2.32136  -0.72882187    0.2182759     -2.32136    1.5925381   439061 
 1009000     1.061892   -2.3211857   -2.3211857  -0.72835135   0.21952318   -2.3211857    1.5928344   439061 
 1010000     1.059855   -2.3196439   -2.3196439  -0.72986497   0.21737064   -2.3196439    1.5897789   439061 
 1011000    1.0605896   -2.3192166   -2.3192166  -0.72833593   0.22523046   -2.3192166    1.5908807   439061 
 1012000    1.0619802    -2.321337    -2.321337   -0.7283704   0.22013717    -2.321337    1.5929667   439061 
 1013000    1.0630326   -2.3223796   -2.3223796  -0.72783434   0.21818322   -2.3223796    1.5945452   439061 
 1014000     1.062411   -2.3212552   -2.3212552  -0.72764232   0.21826473   -2.3212552    1.5936129   439061 
 1015000    1.0611946   -2.3190258   -2.3190258  -0.72723748   0.22060298   -2.3190258    1.5917883   439061 
 1016000     1.061531   -2.3200012   -2.3200012  -0.72770824   0.21984541   -2.3200012    1.5922929   439061 
 1017000    1.0616561   -2.3206608   -2.3206608  -0.72818027   0.21684454   -2.3206608    1.5924805   439061 
 1018000    1.0607375   -2.3174823   -2.3174823  -0.72637962   0.21969235   -2.3174823    1.5911026   439061 
 1019000    1.0600757   -2.3180331   -2.3180331  -0.72792314   0.22084265   -2.3180331    1.5901099   439061 
 1020000    1.0603696   -2.3195242   -2.3195242  -0.72897334   0.22027996   -2.3195242    1.5905508   439061 
 1021000    1.0621002   -2.3219865   -2.3219865  -0.72883988   0.21511365   -2.3219865    1.5931466   439061 
 1022000    1.0620987   -2.3220377   -2.3220377  -0.72889325   0.21323445   -2.3220377    1.5931444   439061 
 1023000    1.0599658   -2.3205443   -2.3205443   -0.7305993   0.21662294   -2.3205443     1.589945   439061 
 1024000    1.0589431   -2.3186999   -2.3186999  -0.73028881   0.22341259   -2.3186999    1.5884111   439061 
 1025000    1.0609478      -2.3211      -2.3211  -0.72968187   0.22136533      -2.3211    1.5914181   439061 
 1026000    1.0616284   -2.3197839   -2.3197839  -0.72734498   0.22203381   -2.3197839    1.5924389   439061 
 1027000    1.0611305   -2.3205765   -2.3205765   -0.7288843   0.21199492   -2.3205765    1.5916922   439061 
 1028000    1.0604921   -2.3191745   -2.3191745  -0.72843991   0.21724326   -2.3191745    1.5907346   439061 
 1029000    1.0611406   -2.3204968   -2.3204968   -0.7287896   0.22164901   -2.3204968    1.5917072   439061 
 1030000    1.0600765   -2.3180241   -2.3180241  -0.72791293   0.21966507   -2.3180241    1.5901111   439061 
 1031000    1.0602551   -2.3169611   -2.3169611  -0.72658209   0.21595674   -2.3169611     1.590379   439061 
 1032000    1.0612919    -2.317756    -2.317756  -0.72582171   0.21983771    -2.317756    1.5919343   439061 
 1033000    1.0620331   -2.3190795   -2.3190795  -0.72603349   0.21870414   -2.3190795     1.593046   439061 
 1034000    1.0615498   -2.3190147   -2.3190147  -0.72669354   0.21643329   -2.3190147    1.5923211   439061 
 1035000    1.0608971   -2.3173346   -2.3173346  -0.72599257   0.22588597   -2.3173346    1.5913421   439061 
 1036000    1.0626107   -2.3199537   -2.3199537  -0.72604135   0.21761836   -2.3199537    1.5939123   439061 
 1037000    1.0609749    -2.317976    -2.317976  -0.72651723   0.21999443    -2.317976    1.5914588   439061 
 1038000    1.0603009   -2.3175457   -2.3175457  -0.72709802   0.21682892   -2.3175457    1.5904477   439061 
 1039000    1.0602356   -2.3183383   -2.3183383  -0.72798859   0.21979596   -2.3183383    1.5903497   439061 
 1040000    1.0593687   -2.3170999   -2.3170999  -0.72805042   0.21779751   -2.3170999    1.5890495   439061 
 1041000     1.061153   -2.3186228   -2.3186228  -0.72689693   0.21427954   -2.3186228    1.5917258   439061 
 1042000    1.0610085   -2.3202187   -2.3202187  -0.72870962   0.21497349   -2.3202187    1.5915091   439061 
 1043000    1.0600295   -2.3185911   -2.3185911  -0.72855044   0.21514631   -2.3185911    1.5900407   439061 
 1044000    1.0594491   -2.3182663   -2.3182663  -0.72909624   0.21368018   -2.3182663      1.58917   439061 
 1045000    1.0594944   -2.3186935   -2.3186935  -0.72945546   0.21837986   -2.3186935     1.589238   439061 
 1046000    1.0597185   -2.3187152   -2.3187152  -0.72914101   0.21636116   -2.3187152    1.5895742   439061 
 1047000    1.0593756   -2.3183768   -2.3183768  -0.72931707   0.21855305   -2.3183768    1.5890597   439061 
 1048000    1.0586339   -2.3175598   -2.3175598   -0.7296125   0.21345276   -2.3175598    1.5879473   439061 
 1049000    1.0586748   -2.3190523   -2.3190523  -0.73104369   0.21656495   -2.3190523    1.5880086   439061 
 1050000    1.0592758   -2.3196215   -2.3196215  -0.73071145   0.21324552   -2.3196215      1.58891   439061 
 1051000     1.060183    -2.320731    -2.320731  -0.73046016   0.21451282    -2.320731    1.5902709   439061 
 1052000    1.0590287   -2.3198843   -2.3198843   -0.7313449   0.21960331   -2.3198843    1.5885394   439061 
 1053000     1.060108   -2.3214039   -2.3214039  -0.73124546   0.21810182   -2.3214039    1.5901584   439061 
 1054000    1.0597709   -2.3207518   -2.3207518  -0.73109905   0.22126827   -2.3207518    1.5896527   439061 
 1055000    1.0592955    -2.320224    -2.320224  -0.73128448   0.21492074    -2.320224    1.5889396   439061 
 1056000     1.059604     -2.31981     -2.31981   -0.7304076   0.21561869     -2.31981    1.5894024   439061 
 1057000    1.0604811   -2.3210275   -2.3210275  -0.73030957   0.22017611   -2.3210275     1.590718   439061 
 1058000    1.0601178   -2.3195408   -2.3195408  -0.72936763   0.21465808   -2.3195408    1.5901731   439061 
 1059000    1.0600876   -2.3177782   -2.3177782  -0.72765042   0.21839344   -2.3177782    1.5901278   439061 
 1060000    1.0610771   -2.3207209   -2.3207209   -0.7291089   0.21350832   -2.3207209     1.591612   439061 
 1061000    1.0594083   -2.3170924   -2.3170924  -0.72798355   0.22230108   -2.3170924    1.5891089   439061 
 1062000    1.0599831   -2.3190608   -2.3190608  -0.72908978   0.21618163   -2.3190608     1.589971   439061 
 1063000     1.059969   -2.3199258   -2.3199258  -0.72997592   0.21534235   -2.3199258    1.5899499   439061 
 1064000      1.05871   -2.3192208   -2.3192208  -0.73115933    0.2141377   -2.3192208    1.5880614   439061 
 1065000    1.0598548    -2.321174    -2.321174  -0.73139545   0.21569577    -2.321174    1.5897786   439061 
 1066000     1.060198   -2.3207056   -2.3207056  -0.73041215   0.21393108   -2.3207056    1.5902934   439061 
 1067000    1.0592024   -2.3200749   -2.3200749  -0.73127493   0.21695511   -2.3200749       1.5888   439061 
 1068000     1.059148    -2.320001    -2.320001  -0.73128267   0.21677789    -2.320001    1.5887183   439061 
 1069000    1.0577706   -2.3177857   -2.3177857  -0.73113334   0.21829134   -2.3177857    1.5866523   439061 
 1070000    1.0576943   -2.3189689   -2.3189689  -0.73243106   0.21361681   -2.3189689    1.5865378   439061 
 1071000     1.057796   -2.3192423   -2.3192423  -0.73255192   0.21747537   -2.3192423    1.5866904   439061 
 1072000    1.0575036   -2.3180322   -2.3180322  -0.73178032   0.21345306   -2.3180322    1.5862518   439061 
 1073000    1.0587977   -2.3192885   -2.3192885   -0.7310955   0.21375966   -2.3192885     1.588193   439061 
 1074000    1.0598074   -2.3205494   -2.3205494  -0.73084192   0.21520283   -2.3205494    1.5897075   439061 
 1075000      1.05917   -2.3210901   -2.3210901  -0.73233875   0.21399972   -2.3210901    1.5887513   439061 
 1076000     1.058024   -2.3184814   -2.3184814    -0.731449   0.21785385   -2.3184814    1.5870324   439061 
 1077000    1.0587613   -2.3201683   -2.3201683  -0.73203005   0.21544555   -2.3201683    1.5881383   439061 
 1078000    1.0577708   -2.3189517   -2.3189517  -0.73229908   0.21416696   -2.3189517    1.5866526   439061 
 1079000    1.0579972   -2.3200659   -2.3200659  -0.73307375   0.21462065   -2.3200659    1.5869922   439061 
 1080000    1.0585403   -2.3199974   -2.3199974  -0.73219055   0.21792095   -2.3199974    1.5878068   439061 
 1081000    1.0581336   -2.3198898   -2.3198898  -0.73269293   0.21815721   -2.3198898    1.5871968   439061 
 1082000    1.0573199   -2.3193264   -2.3193264  -0.73335007   0.21698585   -2.3193264    1.5859763   439061 
 1083000    1.0582037   -2.3210671   -2.3210671  -0.73376514   0.21308723   -2.3210671     1.587302   439061 
 1084000    1.0584766   -2.3198147   -2.3198147  -0.73210347   0.21404844   -2.3198147    1.5877113   439061 
 1085000    1.0579973   -2.3190041   -2.3190041  -0.73201176   0.21632148   -2.3190041    1.5869924   439061 
 1086000    1.0585027   -2.3203053   -2.3203053  -0.73255485   0.21506019   -2.3203053    1.5877504   439061 
 1087000     1.058266   -2.3202773   -2.3202773   -0.7328819   0.21494512   -2.3202773    1.5873954   439061 
 1088000     1.058461   -2.3202803   -2.3202803  -0.73259239   0.21459029   -2.3202803    1.5876879   439061 
 1089000    1.0593661   -2.3225546   -2.3225546  -0.73350903   0.21423143   -2.3225546    1.5890456   439061 
 1090000    1.0586401   -2.3201606   -2.3201606   -0.7322041   0.21774474   -2.3201606    1.5879566   439061 
 1091000    1.0572385   -2.3202397   -2.3202397  -0.73438556   0.21767939   -2.3202397    1.5858542   439061 
 1092000    1.0571542   -2.3211645   -2.3211645  -0.73543687   0.21003734   -2.3211645    1.5857277   439061 
 1093000    1.0570119   -2.3211396   -2.3211396  -0.73562527   0.21872664   -2.3211396    1.5855143   439061 
 1094000    1.0569835   -2.3224751   -2.3224751  -0.73700352   0.21524463   -2.3224751    1.5854716   439061 
 1095000    1.0574877   -2.3234138   -2.3234138  -0.73718594   0.21456163   -2.3234138    1.5862279   439061 
 1096000    1.0558433   -2.3205737   -2.3205737  -0.73681237   0.21258097   -2.3205737    1.5837613   439061 
 1097000    1.0548006   -2.3203591   -2.3203591  -0.73816178   0.21736089   -2.3203591    1.5821973   439061 
 1098000    1.0544645   -2.3204189   -2.3204189  -0.73872573   0.21792311   -2.3204189    1.5816932   439061 
 1099000    1.0553505   -2.3213787   -2.3213787  -0.73835648   0.21322958   -2.3213787    1.5830222   439061 
 1100000    1.0564348   -2.3224904   -2.3224904  -0.73784185   0.21139142   -2.3224904    1.5846486   439061 
 1101000    1.0559554   -2.3224059   -2.3224059  -0.73847635   0.21219548   -2.3224059    1.5839295   439061 
 1102000    1.0560026   -2.3216019   -2.3216019  -0.73760162    0.2139998   -2.3216019    1.5840003   439061 
 1103000    1.0575621   -2.3232973   -2.3232973  -0.73695782   0.21492581   -2.3232973    1.5863395   439061 
 1104000    1.0568551   -2.3223238   -2.3223238  -0.73704482   0.21111878   -2.3223238     1.585279   439061 
 1105000    1.0573666   -2.3225381   -2.3225381  -0.73649183    0.2114869   -2.3225381    1.5860462   439061 
 1106000     1.056826    -2.320793    -2.320793  -0.73555759   0.21570776    -2.320793    1.5852354   439061 
 1107000     1.054763    -2.318287    -2.318287  -0.73614605   0.21577616    -2.318287    1.5821409   439061 
 1108000    1.0557464   -2.3191792   -2.3191792  -0.73556329   0.21784012   -2.3191792    1.5836159   439061 
 1109000    1.0565044   -2.3198267   -2.3198267  -0.73507378   0.21206399   -2.3198267    1.5847529   439061 
 1110000    1.0572838   -2.3207275   -2.3207275  -0.73480534    0.2160182   -2.3207275    1.5859221   439061 
 1111000    1.0564564   -2.3192507   -2.3192507  -0.73456977   0.21295579   -2.3192507     1.584681   439061 
 1112000    1.0568604   -2.3206026   -2.3206026  -0.73531566   0.21592431   -2.3206026    1.5852869   439061 
 1113000    1.0576238   -2.3220624   -2.3220624  -0.73563041    0.2134197   -2.3220624     1.586432   439061 
 1114000    1.0567155   -2.3202958   -2.3202958  -0.73522612   0.21463242   -2.3202958    1.5850697   439061 
 1115000    1.0572194   -2.3199276   -2.3199276  -0.73410206    0.2163002   -2.3199276    1.5858255   439061 
 1116000    1.0568665   -2.3201021   -2.3201021  -0.73480593   0.21509861   -2.3201021    1.5852961   439061 
 1117000    1.0556187   -2.3199576   -2.3199576  -0.73653313   0.21353208   -2.3199576    1.5834245   439061 
 1118000    1.0555941   -2.3211551   -2.3211551   -0.7377676   0.21390338   -2.3211551    1.5833875   439061 
 1119000    1.0554659   -2.3199557   -2.3199557  -0.73676056   0.21473475   -2.3199557    1.5831952   439061 
 1120000    1.0557672   -2.3210512   -2.3210512  -0.73740395   0.21324413   -2.3210512    1.5836473   439061 
 1121000    1.0561385   -2.3217713   -2.3217713  -0.73756709    0.2073731   -2.3217713    1.5842042   439061 
 1122000    1.0542778   -2.3190789   -2.3190789  -0.73766584   0.21422356   -2.3190789    1.5814131   439061 
 1123000    1.0560035   -2.3213533   -2.3213533  -0.73735173   0.21572997   -2.3213533    1.5840016   439061 
 1124000    1.0560056   -2.3200536   -2.3200536  -0.73604889   0.21792487   -2.3200536    1.5840047   439061 
 1125000    1.0560523   -2.3203886   -2.3203886  -0.73631377   0.20969253   -2.3203886    1.5840748   439061 
 1126000    1.0564951   -2.3205407   -2.3205407  -0.73580162   0.21501339   -2.3205407    1.5847391   439061 
 1127000    1.0555584   -2.3198083   -2.3198083  -0.73647431   0.21340804   -2.3198083     1.583334   439061 
 1128000    1.0577933   -2.3209004   -2.3209004  -0.73421404   0.21665925   -2.3209004    1.5866864   439061 
 1129000    1.0572863   -2.3201158   -2.3201158   -0.7341899   0.21372229   -2.3201158    1.5859259   439061 
 1130000    1.0575922   -2.3203713   -2.3203713  -0.73398666   0.21388354   -2.3203713    1.5863847   439061 
 1131000    1.0566919   -2.3198676   -2.3198676  -0.73483339   0.21636726   -2.3198676    1.5850342   439061 
 1132000    1.0560119   -2.3188802   -2.3188802  -0.73486598   0.21189335   -2.3188802    1.5840142   439061 
 1133000    1.0572098   -2.3217642   -2.3217642  -0.73595315   0.20859289   -2.3217642     1.585811   439061 
 1134000    1.0561414   -2.3187395   -2.3187395  -0.73453093   0.21297839   -2.3187395    1.5842085   439061 
 1135000     1.056044   -2.3191409   -2.3191409  -0.73507854   0.21519094   -2.3191409    1.5840624   439061 
 1136000    1.0563366   -2.3202022   -2.3202022  -0.73570088   0.20827159   -2.3202022    1.5845013   439061 
 1137000    1.0552878   -2.3195931   -2.3195931  -0.73666497   0.21606618   -2.3195931    1.5829281   439061 
 1138000    1.0559783     -2.32095     -2.32095  -0.73698624   0.20704391     -2.32095    1.5839638   439061 
 1139000    1.0561208   -2.3210654   -2.3210654  -0.73688791   0.21450767   -2.3210654    1.5841775   439061 
 1140000    1.0553146   -2.3188711   -2.3188711  -0.73590287   0.21286267   -2.3188711    1.5829682   439061 
 1141000    1.0562573   -2.3191546   -2.3191546  -0.73477222   0.21220339   -2.3191546    1.5843824   439061 
 1142000    1.0572226   -2.3212373   -2.3212373  -0.73540707   0.21382499   -2.3212373    1.5858302   439061 
 1143000    1.0546184   -2.3198382   -2.3198382  -0.73791419   0.21206008   -2.3198382     1.581924   439061 
 1144000    1.0556954   -2.3204677   -2.3204677  -0.73692811    0.2099626   -2.3204677    1.5835396   439061 
 1145000    1.0559049    -2.320364    -2.320364  -0.73651028   0.20819198    -2.320364    1.5838537   439061 
 1146000    1.0569407   -2.3203951   -2.3203951   -0.7349877   0.21602357   -2.3203951    1.5854074   439061 
 1147000    1.0556407   -2.3183985   -2.3183985  -0.73494108   0.21700644   -2.3183985    1.5834574   439061 
 1148000    1.0554694   -2.3200101   -2.3200101  -0.73680964   0.21144457   -2.3200101    1.5832004   439061 
 1149000    1.0564158    -2.320135    -2.320135  -0.73551486   0.21863541    -2.320135    1.5846201   439061 
 1150000    1.0556489   -2.3187468   -2.3187468  -0.73527716   0.21123283   -2.3187468    1.5834697   439061 
 1151000    1.0570601   -2.3212798   -2.3212798  -0.73569331   0.21026802   -2.3212798    1.5855865   439061 
 1152000    1.0545355   -2.3174893   -2.3174893  -0.73568962   0.21748897   -2.3174893    1.5817997   439061 
 1153000    1.0557013   -2.3212685   -2.3212685   -0.7377202   0.21686131   -2.3212685    1.5835483   439061 
 1154000    1.0546132   -2.3202778   -2.3202778  -0.73836163   0.20703557   -2.3202778    1.5819161   439061 
 1155000    1.0533943   -2.3184688   -2.3184688  -0.73838084   0.21114816   -2.3184688    1.5800879   439061 
 1156000    1.0549395   -2.3215259   -2.3215259  -0.73912029   0.21369046   -2.3215259    1.5824056   439061 
 1157000    1.0536165   -2.3194776   -2.3194776  -0.73905649   0.20765659   -2.3194776    1.5804211   439061 
 1158000    1.0538431   -2.3188919   -2.3188919  -0.73813088   0.21187657   -2.3188919     1.580761   439061 
 1159000    1.0553493    -2.320143    -2.320143  -0.73712265   0.21343549    -2.320143    1.5830203   439061 
 1160000    1.0568992   -2.3226989   -2.3226989   -0.7373537   0.20918606   -2.3226989    1.5853452   439061 
 1161000    1.0554003   -2.3202717   -2.3202717  -0.73717483    0.2057791   -2.3202717    1.5830969   439061 
 1162000    1.0552711   -2.3208988   -2.3208988   -0.7379958   0.20638009   -2.3208988     1.582903   439061 
 1163000    1.0550925   -2.3190557   -2.3190557  -0.73642057   0.21553593   -2.3190557    1.5826351   439061 
 1164000      1.05417   -2.3191512   -2.3191512  -0.73789978    0.2094218   -2.3191512    1.5812514   439061 
 1165000    1.0550632   -2.3197661   -2.3197661  -0.73717489   0.21118732   -2.3197661    1.5825912   439061 
 1166000    1.0557691   -2.3206115   -2.3206115  -0.73696142   0.21623941   -2.3206115      1.58365   439061 
 1167000    1.0551116   -2.3203183   -2.3203183  -0.73765444   0.21268212   -2.3203183    1.5826638   439061 
 1168000    1.0551171   -2.3204628   -2.3204628  -0.73779079   0.21167875   -2.3204628     1.582672   439061 
 1169000    1.0553926   -2.3215789   -2.3215789  -0.73849354    0.2059535   -2.3215789    1.5830854   439061 
 1170000    1.0549307   -2.3202942   -2.3202942  -0.73790169   0.21075162   -2.3202942    1.5823925   439061 
 1171000    1.0545676    -2.320586    -2.320586   -0.7387382   0.21542101    -2.320586    1.5818478   439061 
 1172000    1.0538347   -2.3186811   -2.3186811  -0.73793267    0.2151394   -2.3186811    1.5807484   439061 
 1173000    1.0562739   -2.3210639   -2.3210639  -0.73665656   0.21114632   -2.3210639    1.5844073   439061 
 1174000    1.0564065   -2.3209001   -2.3209001   -0.7362939   0.21355183   -2.3209001    1.5846062   439061 
 1175000    1.0564756   -2.3211684   -2.3211684  -0.73645864   0.21247755   -2.3211684    1.5847097   439061 
 1176000    1.0551359   -2.3191924   -2.3191924  -0.73649223   0.21383405   -2.3191924    1.5827002   439061 
 1177000     1.054534   -2.3188121   -2.3188121  -0.73701471   0.20984854   -2.3188121    1.5817974   439061 
 1178000    1.0560931   -2.3197945   -2.3197945  -0.73565838   0.21143518   -2.3197945    1.5841361   439061 
 1179000    1.0554199   -2.3208425   -2.3208425  -0.73771628   0.20913383   -2.3208425    1.5831262   439061 
 1180000    1.0553244   -2.3200591   -2.3200591  -0.73707607    0.2079403   -2.3200591     1.582983   439061 
 1181000    1.0540783   -2.3187833   -2.3187833  -0.73766942    0.2160036   -2.3187833    1.5811139   439061 
 1182000    1.0548044   -2.3203467   -2.3203467  -0.73814377   0.21197242   -2.3203467     1.582203   439061 
 1183000    1.0559277   -2.3221393   -2.3221393  -0.73825144   0.20983131   -2.3221393    1.5838879   439061 
 1184000    1.0555813   -2.3205721   -2.3205721  -0.73720366   0.20916966   -2.3205721    1.5833684   439061 
 1185000    1.0561238    -2.321102    -2.321102  -0.73691984   0.21348444    -2.321102    1.5841821   439061 
 1186000    1.0554007    -2.321131    -2.321131  -0.73803349    0.2165002    -2.321131    1.5830975   439061 
 1187000    1.0531488   -2.3172166   -2.3172166  -0.73749704   0.21133274   -2.3172166    1.5797196   439061 
 1188000     1.055052   -2.3201343   -2.3201343  -0.73755991   0.20879592   -2.3201343    1.5825744   439061 
 1189000    1.0543793   -2.3190831   -2.3190831  -0.73751775   0.21520185   -2.3190831    1.5815654   439061 
 1190000    1.0543402   -2.3189658   -2.3189658  -0.73745914   0.21581209   -2.3189658    1.5815066   439061 
 1191000    1.0553071   -2.3212525   -2.3212525  -0.73829542   0.21148215   -2.3212525    1.5829571   439061 
 1192000    1.0547945   -2.3207805   -2.3207805  -0.73859237   0.20927663   -2.3207805    1.5821881   439061 
 1193000    1.0551896   -2.3207038   -2.3207038  -0.73792305   0.21434386   -2.3207038    1.5827807   439061 
 1194000    1.0543275   -2.3200584   -2.3200584  -0.73857079   0.21154325   -2.3200584    1.5814876   439061 
 1195000    1.0523197   -2.3180335   -2.3180335   -0.7395576   0.21267053   -2.3180335    1.5784759   439061 
 1196000    1.0539926   -2.3189662   -2.3189662  -0.73798102   0.21119145   -2.3189662    1.5809852   439061 
 1197000    1.0544541   -2.3200359   -2.3200359  -0.73835833   0.21106096   -2.3200359    1.5816776   439061 
 1198000     1.053361   -2.3190008   -2.3190008  -0.73896292   0.21138783   -2.3190008    1.5800379   439061 
 1199000    1.0534512    -2.320055    -2.320055  -0.73988179   0.20735355    -2.320055    1.5801732   439061 
 1200000    1.0528821   -2.3190806   -2.3190806  -0.73976107   0.20932214   -2.3190806    1.5793195   439061 
 1201000    1.0532423   -2.3209711   -2.3209711  -0.74111129   0.20651367   -2.3209711    1.5798598   439061 
 1202000    1.0529529   -2.3196508   -2.3196508  -0.74022509   0.20989538   -2.3196508    1.5794257   439061 
 1203000    1.0542535   -2.3213195   -2.3213195   -0.7399428   0.20976391   -2.3213195    1.5813767   439061 
 1204000    1.0540211    -2.321305    -2.321305  -0.74027697   0.20729331    -2.321305    1.5810281   439061 
 1205000      1.05278   -2.3187179   -2.3187179  -0.73955141   0.20928264   -2.3187179    1.5791664   439061 
 1206000     1.052086   -2.3188068   -2.3188068  -0.74068134   0.20952549   -2.3188068    1.5781255   439061 
 1207000    1.0539175    -2.322318    -2.322318  -0.74144532   0.20776397    -2.322318    1.5808727   439061 
 1208000    1.0527498   -2.3201779   -2.3201779  -0.74105679   0.20840805   -2.3201779    1.5791211   439061 
 1209000     1.052054   -2.3198261   -2.3198261  -0.74174865   0.21578762   -2.3198261    1.5780774   439061 
 1210000    1.0515818    -2.320123    -2.320123  -0.74275385   0.20908488    -2.320123    1.5773692   439061 
 1211000    1.0533904   -2.3219945   -2.3219945  -0.74191255   0.21122916   -2.3219945     1.580082   439061 
 1212000    1.0532579   -2.3215734   -2.3215734   -0.7416902   0.20912031   -2.3215734    1.5798832   439061 
 1213000    1.0534333   -2.3208853   -2.3208853  -0.74073898   0.21483598   -2.3208853    1.5801463   439061 
 1214000    1.0535077   -2.3217791   -2.3217791  -0.74152112   0.21240251   -2.3217791     1.580258   439061 
 1215000     1.053466   -2.3220295   -2.3220295  -0.74183411   0.20931669   -2.3220295    1.5801954   439061 
 1216000    1.0522275    -2.320066    -2.320066   -0.7417284   0.20839718    -2.320066    1.5783376   439061 
 1217000    1.0525997   -2.3218482   -2.3218482  -0.74295226   0.20972999   -2.3218482    1.5788959   439061 
 1218000    1.0532819    -2.323063    -2.323063  -0.74314365   0.20394532    -2.323063    1.5799193   439061 
 1219000    1.0527877   -2.3216271   -2.3216271  -0.74244922   0.21175645   -2.3216271    1.5791779   439061 
 1220000    1.0534143   -2.3221149   -2.3221149  -0.74199713   0.21096513   -2.3221149    1.5801178   439061 
 1221000    1.0525377    -2.322625    -2.322625  -0.74382202   0.21337941    -2.322625    1.5788029   439061 
 1222000    1.0517956   -2.3206381   -2.3206381  -0.74294826   0.20973836   -2.3206381    1.5776898   439061 
 1223000    1.0532268   -2.3211485   -2.3211485  -0.74131181   0.21011253   -2.3211485    1.5798366   439061 
 1224000    1.0521071    -2.320356    -2.320356  -0.74219896   0.21065221    -2.320356     1.578157   439061 
 1225000    1.0524609   -2.3217278   -2.3217278   -0.7430401   0.21176575   -2.3217278    1.5786877   439061 
 1226000    1.0522542   -2.3211747   -2.3211747  -0.74279707   0.20624326   -2.3211747    1.5783777   439061 
 1227000    1.0515907   -2.3209901   -2.3209901  -0.74360759   0.20896207   -2.3209901    1.5773825   439061 
 1228000    1.0521318   -2.3221297   -2.3221297  -0.74393559   0.20972366   -2.3221297    1.5781941   439061 
 1229000    1.0521552   -2.3197203   -2.3197203  -0.74149114   0.21466334   -2.3197203    1.5782291   439061 
 1230000    1.0523038   -2.3201691   -2.3201691  -0.74171704   0.21713274   -2.3201691    1.5784521   439061 
 1231000    1.0524911   -2.3211603   -2.3211603  -0.74242722   0.20733103   -2.3211603    1.5787331   439061 
 1232000    1.0524232   -2.3198389   -2.3198389  -0.74120773   0.20936484   -2.3198389    1.5786311   439061 
 1233000    1.0523376   -2.3196143   -2.3196143  -0.74111157   0.21117137   -2.3196143    1.5785028   439061 
 1234000    1.0523154    -2.320146    -2.320146  -0.74167649   0.21045836    -2.320146    1.5784696   439061 
 1235000    1.0504653   -2.3181435   -2.3181435  -0.74244911   0.20841777   -2.3181435    1.5756944   439061 
 1236000    1.0523491   -2.3206622   -2.3206622  -0.74214211   0.21008269   -2.3206622      1.57852   439061 
 1237000    1.0511233   -2.3195678   -2.3195678  -0.74288649   0.21272069   -2.3195678    1.5766813   439061 
 1238000    1.0511325   -2.3187281   -2.3187281  -0.74203296    0.2097806   -2.3187281    1.5766951   439061 
 1239000    1.0511351   -2.3192882   -2.3192882  -0.74258904   0.20767667   -2.3192882    1.5766991   439061 
 1240000     1.051289   -2.3200659   -2.3200659  -0.74313601   0.20436989   -2.3200659    1.5769299   439061 
 1241000    1.0525681   -2.3222025   -2.3222025  -0.74335396   0.20645508   -2.3222025    1.5788485   439061 
 1242000    1.0530114    -2.322507    -2.322507  -0.74299349   0.20643551    -2.322507    1.5795136   439061 
 1243000    1.0520898   -2.3207323   -2.3207323  -0.74260125   0.20563537   -2.3207323    1.5781311   439061 
 1244000    1.0520878   -2.3209681   -2.3209681  -0.74283997   0.20626877   -2.3209681    1.5781281   439061 
 1245000    1.0505096   -2.3184644   -2.3184644  -0.74270368   0.21058937   -2.3184644    1.5757607   439061 
 1246000    1.0524172   -2.3205062   -2.3205062  -0.74188399   0.20426746   -2.3205062    1.5786222   439061 
 1247000    1.0514633   -2.3189975   -2.3189975  -0.74180618   0.20792437   -2.3189975    1.5771913   439061 
 1248000     1.051695   -2.3202219   -2.3202219  -0.74268293   0.20472166   -2.3202219     1.577539   439061 
 1249000    1.0511351   -2.3192341   -2.3192341  -0.74253507   0.20876156   -2.3192341     1.576699   439061 
 1250000    1.0523998     -2.32034     -2.32034  -0.74174394   0.21272169     -2.32034    1.5785961   439061 
 1251000     1.051435   -2.3194293   -2.3194293  -0.74228033   0.20372735   -2.3194293    1.5771489   439061 
 1252000    1.0506403   -2.3188685   -2.3188685  -0.74291168   0.20855708   -2.3188685    1.5759568   439061 
 1253000    1.0514975   -2.3188773   -2.3188773  -0.74163462   0.21118282   -2.3188773    1.5772427   439061 
 1254000    1.0521416   -2.3208148   -2.3208148  -0.74260591   0.20933464   -2.3208148    1.5782089   439061 
 1255000    1.0511798   -2.3209496   -2.3209496  -0.74418361   0.20830678   -2.3209496     1.576766   439061 
 1256000    1.0521066   -2.3211423   -2.3211423  -0.74298605   0.20908831   -2.3211423    1.5781562   439061 
 1257000    1.0506435   -2.3196349   -2.3196349  -0.74367318   0.20791486   -2.3196349    1.5759617   439061 
 1258000    1.0506365   -2.3198429   -2.3198429  -0.74389177   0.21101402   -2.3198429    1.5759511   439061 
 1259000    1.0510676   -2.3207219   -2.3207219  -0.74412408   0.21066705   -2.3207219    1.5765979   439061 
 1260000    1.0501145   -2.3201467   -2.3201467  -0.74497859   0.20630569   -2.3201467    1.5751681   439061 
 1261000    1.0510249   -2.3207643   -2.3207643  -0.74423056   0.21047373   -2.3207643    1.5765338   439061 
 1262000    1.0516276   -2.3213316   -2.3213316  -0.74389377   0.20897058   -2.3213316    1.5774378   439061 
 1263000    1.0511758   -2.3204227   -2.3204227  -0.74366268   0.20770616   -2.3204227      1.57676   439061 
 1264000    1.0517766   -2.3214033   -2.3214033  -0.74374205   0.21010514   -2.3214033    1.5776613   439061 
 1265000    1.0517969   -2.3211601   -2.3211601  -0.74346832   0.21061531   -2.3211601    1.5776917   439061 
 1266000    1.0513705    -2.320942    -2.320942  -0.74388986   0.20699388    -2.320942    1.5770521   439061 
 1267000    1.0513023    -2.321716    -2.321716  -0.74476611   0.20213494    -2.321716    1.5769499   439061 
 1268000     1.049959   -2.3196117   -2.3196117  -0.74467669   0.21181032   -2.3196117     1.574935   439061 
 1269000    1.0495064   -2.3204938   -2.3204938  -0.74623777   0.20764568   -2.3204938     1.574256   439061 
 1270000    1.0505383   -2.3209925   -2.3209925  -0.74518859   0.20831736   -2.3209925    1.5758039   439061 
 1271000    1.0508855   -2.3223609   -2.3223609  -0.74603619   0.20366623   -2.3223609    1.5763247   439061 
 1272000    1.0504158   -2.3217856   -2.3217856  -0.74616556   0.20654493   -2.3217856      1.57562   439061 
 1273000    1.0503115   -2.3215821   -2.3215821  -0.74611846    0.2083182   -2.3215821    1.5754636   439061 
 1274000    1.0501939   -2.3210231   -2.3210231   -0.7457358   0.20853187   -2.3210231    1.5752873   439061 
 1275000    1.0506285   -2.3216836   -2.3216836  -0.74574435   0.20843359   -2.3216836    1.5759392   439061 
 1276000    1.0497759   -2.3211897   -2.3211897  -0.74652941   0.20728863   -2.3211897    1.5746603   439061 
 1277000     1.050401   -2.3214731   -2.3214731  -0.74587516   0.21023261   -2.3214731    1.5755979   439061 
 1278000    1.0500964   -2.3206667   -2.3206667  -0.74552564   0.21063263   -2.3206667     1.575141   439061 
 1279000    1.0500996   -2.3208164   -2.3208164  -0.74567063   0.20466885   -2.3208164    1.5751458   439061 
 1280000    1.0493619   -2.3199424   -2.3199424  -0.74590305   0.20841944   -2.3199424    1.5740393   439061 
 1281000    1.0505011   -2.3209804   -2.3209804  -0.74523232   0.20939299   -2.3209804    1.5757481   439061 
 1282000    1.0500845   -2.3202291   -2.3202291  -0.74510594   0.20692537   -2.3202291    1.5751232   439061 
 1283000    1.0506087   -2.3219328   -2.3219328  -0.74602333   0.21010494   -2.3219328    1.5759095   439061 
 1284000     1.050148   -2.3217529   -2.3217529  -0.74653443   0.20736625   -2.3217529    1.5752184   439061 
 1285000    1.0483249   -2.3189064   -2.3189064  -0.74642257   0.20769906   -2.3189064    1.5724838   439061 
 1286000     1.049048   -2.3187591   -2.3187591  -0.74519064   0.20395696   -2.3187591    1.5735684   439061 
 1287000    1.0525391   -2.3233522   -2.3233522  -0.74454718   0.20421406   -2.3233522    1.5788051   439061 
 1288000    1.0493116   -2.3194164   -2.3194164  -0.74545256   0.21183449   -2.3194164    1.5739638   439061 
 1289000    1.0507248   -2.3218834   -2.3218834   -0.7457997   0.19982624   -2.3218834    1.5760837   439061 
 1290000    1.0500123   -2.3199985   -2.3199985  -0.74498362   0.20697018   -2.3199985    1.5750149   439061 
 1291000    1.0493981   -2.3183557   -2.3183557  -0.74426223    0.2118377   -2.3183557    1.5740935   439061 
 1292000     1.049915   -2.3200242   -2.3200242  -0.74515532   0.20996832   -2.3200242    1.5748689   439061 
 1293000    1.0514961   -2.3211779   -2.3211779  -0.74393731   0.20614966   -2.3211779    1.5772406   439061 
 1294000    1.0496969   -2.3184268   -2.3184268  -0.74388497   0.20728008   -2.3184268    1.5745418   439061 
 1295000    1.0509926   -2.3212599   -2.3212599  -0.74477456   0.20965809   -2.3212599    1.5764854   439061 
 1296000    1.0482253   -2.3176052   -2.3176052  -0.74527086   0.20980227   -2.3176052    1.5723343   439061 
 1297000    1.0505107   -2.3218227   -2.3218227  -0.74606018   0.20291484   -2.3218227    1.5757625   439061 
 1298000    1.0494168   -2.3182573   -2.3182573  -0.74413576   0.20679791   -2.3182573    1.5741216   439061 
 1299000    1.0498589   -2.3192793   -2.3192793  -0.74449452   0.20680397   -2.3192793    1.5747848   439061 
 1300000    1.0492416   -2.3189833   -2.3189833  -0.74512455   0.20621718   -2.3189833    1.5738587   439061 
 1301000    1.0520252   -2.3216733   -2.3216733  -0.74363907   0.20873768   -2.3216733    1.5780342   439061 
 1302000    1.0489333   -2.3177763   -2.3177763  -0.74437993   0.20440676   -2.3177763    1.5733963   439061 
 1303000    1.0498218   -2.3194613   -2.3194613   -0.7447322   0.20551969   -2.3194613    1.5747291   439061 
 1304000     1.050997   -2.3214943   -2.3214943  -0.74500238   0.20685574   -2.3214943    1.5764919   439061 
 1305000    1.0507286   -2.3204567   -2.3204567  -0.74436729   0.20439032   -2.3204567    1.5760894   439061 
 1306000    1.0506089   -2.3196283   -2.3196283  -0.74371851    0.2066519   -2.3196283    1.5759098   439061 
 1307000    1.0521665   -2.3215399   -2.3215399   -0.7432937   0.20728269   -2.3215399    1.5782462   439061 
 1308000    1.0508219   -2.3208616   -2.3208616  -0.74463228   0.20620713   -2.3208616    1.5762293   439061 
 1309000    1.0492329    -2.318853    -2.318853  -0.74500721   0.20514333    -2.318853    1.5738458   439061 
 1310000    1.0503031   -2.3209491   -2.3209491  -0.74549814   0.20520061   -2.3209491     1.575451   439061 
 1311000    1.0503969   -2.3216456   -2.3216456  -0.74605387   0.20758906   -2.3216456    1.5755917   439061 
 1312000     1.048667   -2.3196622   -2.3196622  -0.74666518   0.20641722   -2.3196622     1.572997   439061 
 1313000    1.0474365   -2.3193107   -2.3193107  -0.74815952   0.20828164   -2.3193107    1.5711512   439061 
 1314000    1.0491523   -2.3230778   -2.3230778  -0.74935293      0.20056   -2.3230778    1.5737249   439061 
 1315000    1.0497655   -2.3235069   -2.3235069  -0.74886216   0.20391377   -2.3235069    1.5746447   439061 
 1316000     1.048653   -2.3206803   -2.3206803  -0.74770436   0.21008578   -2.3206803     1.572976   439061 
 1317000     1.048816   -2.3208954   -2.3208954  -0.74767503   0.20531565   -2.3208954    1.5732204   439061 
 1318000     1.049584   -2.3205362   -2.3205362   -0.7461638   0.20161667   -2.3205362    1.5743724   439061 
 1319000    1.0493836   -2.3212871   -2.3212871  -0.74721533   0.20805458   -2.3212871    1.5740717   439061 
 1320000    1.0500264   -2.3214317   -2.3214317  -0.74639576   0.20494326   -2.3214317     1.575036   439061 
 1321000    1.0490737   -2.3199512   -2.3199512  -0.74634423   0.20456046   -2.3199512     1.573607   439061 
 1322000    1.0484357   -2.3200347   -2.3200347   -0.7473847    0.2052754   -2.3200347    1.5726499   439061 
 1323000    1.0491769   -2.3213705   -2.3213705  -0.74760871   0.20889339   -2.3213705    1.5737618   439061 
 1324000    1.0481365   -2.3200387   -2.3200387  -0.74783752   0.20421034   -2.3200387    1.5722012   439061 
 1325000    1.0491117   -2.3213189   -2.3213189   -0.7476549   0.20733123   -2.3213189     1.573664   439061 
 1326000    1.0489951   -2.3230443   -2.3230443  -0.74955523   0.20341541   -2.3230443    1.5734891   439061 
 1327000    1.0482297   -2.3220671   -2.3220671  -0.74972615    0.2083229   -2.3220671    1.5723409   439061 
 1328000    1.0472102   -2.3206173   -2.3206173  -0.74980558   0.20429896   -2.3206173    1.5708117   439061 
 1329000     1.049444   -2.3244327   -2.3244327  -0.75027034    0.2013063   -2.3244327    1.5741624   439061 
 1330000    1.0472758   -2.3200648   -2.3200648  -0.74915465   0.20484696   -2.3200648    1.5709102   439061 
 1331000    1.0477515   -2.3200557   -2.3200557  -0.74843198   0.20978873   -2.3200557    1.5716237   439061 
 1332000    1.0478064   -2.3205239   -2.3205239  -0.74881787   0.20443955   -2.3205239    1.5717061   439061 
 1333000    1.0477338   -2.3193639   -2.3193639  -0.74776684   0.20595512   -2.3193639    1.5715971   439061 
 1334000    1.0468294   -2.3189059   -2.3189059  -0.74866541   0.20414794   -2.3189059    1.5702405   439061 
 1335000    1.0479912   -2.3209009   -2.3209009  -0.74891778   0.20170613   -2.3209009    1.5719831   439061 
 1336000    1.0488052   -2.3221546   -2.3221546  -0.74895033   0.21133264   -2.3221546    1.5732043   439061 
 1337000     1.048668   -2.3212666   -2.3212666  -0.74826818   0.20656445   -2.3212666    1.5729984   439061 
 1338000    1.0482901   -2.3211071   -2.3211071   -0.7486755   0.20533588   -2.3211071    1.5724316   439061 
 1339000    1.0482545   -2.3214485   -2.3214485  -0.74907031   0.20470239   -2.3214485    1.5723782   439061 
 1340000    1.0490204   -2.3220495   -2.3220495  -0.74852249   0.20403028   -2.3220495     1.573527   439061 
 1341000    1.0496491   -2.3224142   -2.3224142  -0.74794415   0.20807022   -2.3224142    1.5744701   439061 
 1342000    1.0491985   -2.3203485   -2.3203485  -0.74655429    0.2047542   -2.3203485    1.5737942   439061 
 1343000    1.0477085    -2.319379    -2.319379  -0.74781987   0.20820369    -2.319379    1.5715592   439061 
 1344000    1.0479504   -2.3192035   -2.3192035  -0.74728154   0.20494796   -2.3192035     1.571922   439061 
 1345000    1.0484899   -2.3201904   -2.3201904  -0.74745916   0.20238126   -2.3201904    1.5727313   439061 
 1346000    1.0490329   -2.3215162   -2.3215162  -0.74797047   0.20785316   -2.3215162    1.5735458   439061 
 1347000    1.0487794   -2.3212142   -2.3212142  -0.74804863   0.20533092   -2.3212142    1.5731655   439061 
 1348000    1.0497192   -2.3222276   -2.3222276  -0.74765237    0.2061775   -2.3222276    1.5745752   439061 
 1349000     1.049314   -2.3216972   -2.3216972  -0.74772975   0.20210285   -2.3216972    1.5739674   439061 
 1350000    1.0469234   -2.3187745   -2.3187745   -0.7483931   0.20777774   -2.3187745    1.5703815   439061 
 1351000    1.0475941   -2.3198262   -2.3198262  -0.74843857   0.20651404   -2.3198262    1.5713876   439061 
 1352000    1.0450791   -2.3171249   -2.3171249  -0.74950977   0.20237021   -2.3171249    1.5676151   439061 
 1353000    1.0464831   -2.3188649   -2.3188649  -0.74914383   0.20296551   -2.3188649     1.569721   439061 
 1354000    1.0482205   -2.3213247   -2.3213247  -0.74899747   0.20105616   -2.3213247    1.5723272   439061 
 1355000    1.0466848   -2.3194198   -2.3194198  -0.74939623   0.20169666   -2.3194198    1.5700236   439061 
 1356000    1.0454065   -2.3178134   -2.3178134  -0.74970711   0.20279993   -2.3178134    1.5681062   439061 
 1357000    1.0466557   -2.3206766   -2.3206766  -0.75069666   0.20363305   -2.3206766    1.5699799   439061 
 1358000    1.0468758   -2.3199244   -2.3199244  -0.74961432   0.20099526   -2.3199244    1.5703101   439061 
 1359000    1.0475951   -2.3201793   -2.3201793  -0.74879015   0.20366504   -2.3201793    1.5713891   439061 
 1360000    1.0477068   -2.3202381   -2.3202381  -0.74868155   0.20203592   -2.3202381    1.5715566   439061 
 1361000     1.045771   -2.3198651   -2.3198651  -0.75121214   0.20126635   -2.3198651    1.5686529   439061 
 1362000    1.0467646    -2.320392    -2.320392  -0.75024872   0.20160863    -2.320392    1.5701433   439061 
 1363000    1.0468291   -2.3199407   -2.3199407  -0.74970064   0.20620233   -2.3199407    1.5702401   439061 
 1364000    1.0470473   -2.3199358   -2.3199358  -0.74936839    0.2023405   -2.3199358    1.5705674   439061 
 1365000    1.0485919   -2.3213711   -2.3213711  -0.74848689   0.20506845   -2.3213711    1.5728843   439061 
 1366000    1.0462705   -2.3195886   -2.3195886  -0.75018641   0.20153483   -2.3195886    1.5694022   439061 
 1367000    1.0473924   -2.3217076   -2.3217076  -0.75062266   0.20921875   -2.3217076     1.571085   439061 
 1368000    1.0471768   -2.3206426   -2.3206426  -0.74988091   0.20589657   -2.3206426    1.5707616   439061 
 1369000    1.0479137   -2.3216009   -2.3216009  -0.74973401   0.19994245   -2.3216009    1.5718669   439061 
 1370000    1.0457492   -2.3207905   -2.3207905  -0.75217034   0.20451327   -2.3207905    1.5686202   439061 
 1371000    1.0460216   -2.3210476   -2.3210476  -0.75201879   0.20545694   -2.3210476    1.5690288   439061 
 1372000    1.0476518   -2.3238852   -2.3238852  -0.75241099   0.20324287   -2.3238852    1.5714742   439061 
 1373000    1.0473547   -2.3228552   -2.3228552  -0.75182676   0.20380828   -2.3228552    1.5710284   439061 
 1374000    1.0445652   -2.3203784   -2.3203784  -0.75353416   0.20470383   -2.3203784    1.5668442   439061 
 1375000    1.0450118   -2.3209578   -2.3209578  -0.75344374   0.19967379   -2.3209578    1.5675141   439061 
 1376000    1.0458918    -2.322463    -2.322463  -0.75362884   0.20210985    -2.322463    1.5688341   439061 
 1377000    1.0459495   -2.3227838   -2.3227838  -0.75386313   0.20279428   -2.3227838    1.5689206   439061 
 1378000      1.04624   -2.3240841   -2.3240841  -0.75472777   0.20037519   -2.3240841    1.5693564   439061 
 1379000    1.0454265   -2.3223158   -2.3223158  -0.75417968   0.20176415   -2.3223158    1.5681362   439061 
 1380000    1.0477308   -2.3253243   -2.3253243  -0.75373176   0.20442878   -2.3253243    1.5715926   439061 
 1381000    1.0450617   -2.3206919   -2.3206919  -0.75310286   0.20306653   -2.3206919     1.567589   439061 
 1382000    1.0448733   -2.3212419   -2.3212419   -0.7539356   0.20340327   -2.3212419    1.5673063   439061 
 1383000    1.0456699     -2.32173     -2.32173  -0.75322874   0.20613505     -2.32173    1.5685012   439061 
 1384000    1.0462668   -2.3228923   -2.3228923  -0.75349569   0.20383558   -2.3228923    1.5693966   439061 
 1385000    1.0448613   -2.3212742   -2.3212742  -0.75398587   0.20167287   -2.3212742    1.5672883   439061 
 1386000    1.0451426    -2.321477    -2.321477  -0.75376676   0.19918931    -2.321477    1.5677103   439061 
 1387000    1.0457051   -2.3222414   -2.3222414  -0.75368739   0.20442277   -2.3222414     1.568554   439061 
 1388000    1.0469779   -2.3236359   -2.3236359  -0.75317267   0.19922689   -2.3236359    1.5704633   439061 
 1389000    1.0461056   -2.3221433   -2.3221433   -0.7529885   0.20940568   -2.3221433    1.5691548   439061 
 1390000    1.0456373   -2.3215419   -2.3215419  -0.75308947   0.20193215   -2.3215419    1.5684525   439061 
 1391000    1.0461334   -2.3221331   -2.3221331  -0.75293662   0.20166266   -2.3221331    1.5691965   439061 
 1392000    1.0457436   -2.3201654   -2.3201654  -0.75155361   0.20215403   -2.3201654    1.5686118   439061 
 1393000    1.0471247    -2.322721    -2.322721   -0.7520376   0.20486515    -2.322721    1.5706835   439061 
 1394000    1.0459375    -2.321259    -2.321259  -0.75235623   0.20267956    -2.321259    1.5689027   439061 
 1395000    1.0451092   -2.3199513   -2.3199513   -0.7522911   0.20449524   -2.3199513    1.5676602   439061 
 1396000    1.0472382   -2.3229266   -2.3229266  -0.75207289   0.20064458   -2.3229266    1.5708537   439061 
 1397000    1.0469844   -2.3217702   -2.3217702  -0.75129728   0.20131475   -2.3217702     1.570473   439061 
 1398000     1.044392   -2.3194166   -2.3194166  -0.75283213   0.20216284   -2.3194166    1.5665845   439061 
 1399000    1.0469691   -2.3228684   -2.3228684  -0.75241826   0.19329095   -2.3228684    1.5704501   439061 
 1400000    1.0454949   -2.3199187   -2.3199187     -0.75168   0.20348675   -2.3199187    1.5682387   439061 
 1401000    1.0452221   -2.3190291   -2.3190291  -0.75119957   0.20093836   -2.3190291    1.5678295   439061 
 1402000    1.0454622   -2.3186202   -2.3186202  -0.75043045   0.20537755   -2.3186202    1.5681898   439061 
 1403000    1.0464098   -2.3202693   -2.3202693   -0.7506582   0.20537163   -2.3202693    1.5696111   439061 
 1404000     1.046295   -2.3202871   -2.3202871  -0.75084821   0.20043434   -2.3202871    1.5694389   439061 
 1405000     1.048112   -2.3226318   -2.3226318   -0.7504674   0.20087086   -2.3226318    1.5721644   439061 
 1406000    1.0460203   -2.3209155   -2.3209155  -0.75188866   0.20421158   -2.3209155    1.5690268   439061 
 1407000    1.0449692   -2.3194515   -2.3194515  -0.75200135   0.19790137   -2.3194515    1.5674502   439061 
 1408000     1.046831   -2.3206467   -2.3206467  -0.75040384   0.20498625   -2.3206467    1.5702429   439061 
 1409000    1.0451263   -2.3184005   -2.3184005  -0.75071469   0.20428733   -2.3184005    1.5676858   439061 
 1410000    1.0457873    -2.320606    -2.320606  -0.75192857   0.19825576    -2.320606    1.5686774   439061 
 1411000    1.0455987   -2.3190629   -2.3190629  -0.75066832   0.20279772   -2.3190629    1.5683945   439061 
 1412000    1.0470868   -2.3216959   -2.3216959  -0.75106923   0.20262059   -2.3216959    1.5706266   439061 
 1413000    1.0467051   -2.3212033   -2.3212033  -0.75114916   0.20364665   -2.3212033    1.5700541   439061 
 1414000    1.0452352   -2.3180592   -2.3180592  -0.75020993   0.20248474   -2.3180592    1.5678492   439061 
 1415000    1.0464523   -2.3193749   -2.3193749  -0.74969999   0.20837494   -2.3193749    1.5696749   439061 
 1416000    1.0476666   -2.3224072   -2.3224072  -0.75091084   0.19978492   -2.3224072    1.5714963   439061 
 1417000    1.0449557   -2.3190735   -2.3190735  -0.75164348    0.2038442   -2.3190735      1.56743   439061 
 1418000    1.0460726   -2.3216861   -2.3216861  -0.75258076   0.19846981   -2.3216861    1.5691054   439061 
 1419000    1.0456382   -2.3206171   -2.3206171   -0.7521634   0.19905398   -2.3206171    1.5684537   439061 
 1420000    1.0449662   -2.3193739   -2.3193739  -0.75192822   0.20546895   -2.3193739    1.5674457   439061 
 1421000    1.0449481   -2.3197657   -2.3197657   -0.7523472    0.2060422   -2.3197657    1.5674185   439061 
 1422000    1.0453316   -2.3215408   -2.3215408    -0.753547   0.19989734   -2.3215408    1.5679938   439061 
 1423000    1.0455526   -2.3214885   -2.3214885  -0.75316308   0.20059421   -2.3214885    1.5683254   439061 
 1424000    1.0442745   -2.3216247   -2.3216247  -0.75521654   0.20397733   -2.3216247    1.5664081   439061 
 1425000    1.0450687   -2.3230031   -2.3230031  -0.75540365    0.2005554   -2.3230031    1.5675995   439061 
 1426000    1.0449665   -2.3214079   -2.3214079  -0.75396177   0.19979258   -2.3214079    1.5674462   439061 
 1427000     1.043437   -2.3186859   -2.3186859  -0.75353395   0.19831685   -2.3186859     1.565152   439061 
 1428000    1.0451416    -2.322125    -2.322125  -0.75441615   0.20036719    -2.322125    1.5677088   439061 
 1429000      1.04429   -2.3205871   -2.3205871   -0.7541557   0.19990115   -2.3205871    1.5664314   439061 
 1430000     1.044042   -2.3210233   -2.3210233  -0.75496387   0.20255131   -2.3210233    1.5660594   439061 
 1431000    1.0441561   -2.3208538   -2.3208538  -0.75462323   0.20590651   -2.3208538    1.5662306   439061 
 1432000    1.0444941   -2.3215126   -2.3215126  -0.75477499   0.20698827   -2.3215126    1.5667376   439061 
 1433000    1.0436918   -2.3216047   -2.3216047  -0.75607056   0.19821198   -2.3216047    1.5655342   439061 
 1434000    1.0438582   -2.3212075   -2.3212075  -0.75542368    0.1986143   -2.3212075    1.5657838   439061 
 1435000      1.04399    -2.321781    -2.321781  -0.75579958   0.19530193    -2.321781    1.5659815   439061 
 1436000    1.0447527   -2.3222491   -2.3222491  -0.75512362   0.20062652   -2.3222491    1.5671255   439061 
 1437000     1.043525   -2.3209063   -2.3209063   -0.7556224   0.20393499   -2.3209063    1.5652839   439061 
 1438000     1.043799   -2.3209256   -2.3209256   -0.7552307   0.20184335   -2.3209256    1.5656949   439061 
 1439000    1.0451445   -2.3218823   -2.3218823  -0.75416911   0.20256426   -2.3218823    1.5677132   439061 
 1440000    1.0434215     -2.31979     -2.31979  -0.75466134   0.19949125     -2.31979    1.5651286   439061 
 1441000    1.0432228   -2.3206925   -2.3206925  -0.75586188   0.20409508   -2.3206925    1.5648306   439061 
 1442000    1.0449653   -2.3224185   -2.3224185  -0.75497407   0.20105161   -2.3224185    1.5674445   439061 
 1443000    1.0423689   -2.3187312   -2.3187312  -0.75518142   0.19970239   -2.3187312    1.5635498   439061 
 1444000     1.045026   -2.3217325   -2.3217325  -0.75419711   0.19875573   -2.3217325    1.5675354   439061 
 1445000    1.0439621   -2.3211572   -2.3211572  -0.75521768   0.20070289   -2.3211572    1.5659395   439061 
 1446000    1.0428279   -2.3185462   -2.3185462  -0.75430798   0.20154031   -2.3185462    1.5642382   439061 
 1447000    1.0452249   -2.3232095   -2.3232095  -0.75537576   0.19687433   -2.3232095    1.5678338   439061 
 1448000    1.0450345   -2.3213257   -2.3213257  -0.75377757   0.20463816   -2.3213257    1.5675481   439061 
 1449000    1.0434723   -2.3206954   -2.3206954  -0.75549041   0.20127548   -2.3206954    1.5652049   439061 
 1450000    1.0428233   -2.3197627   -2.3197627  -0.75553127   0.20173161   -2.3197627    1.5642314   439061 
 1451000    1.0432927   -2.3201751   -2.3201751  -0.75523971   0.19913025   -2.3201751    1.5649354   439061 
 1452000    1.0437517   -2.3204272   -2.3204272  -0.75480323   0.20247895   -2.3204272     1.565624   439061 
 1453000    1.0437729   -2.3211952   -2.3211952  -0.75553938   0.20111942   -2.3211952    1.5656558   439061 
 1454000    1.0434809   -2.3204342   -2.3204342  -0.75521636   0.19868913   -2.3204342    1.5652178   439061 
 1455000    1.0435206   -2.3198593   -2.3198593  -0.75458187   0.19803137   -2.3198593    1.5652774   439061 
 1456000    1.0456649   -2.3234027   -2.3234027  -0.75490889    0.1961206   -2.3234027    1.5684938   439061 
 1457000    1.0433364   -2.3205795   -2.3205795  -0.75557841   0.19737137   -2.3205795    1.5650011   439061 
 1458000       1.0444   -2.3207764   -2.3207764  -0.75417996   0.20158249   -2.3207764    1.5665964   439061 
 1459000    1.0445416   -2.3206406   -2.3206406  -0.75383169   0.20080124   -2.3206406    1.5668089   439061 
 1460000    1.0460306   -2.3229284   -2.3229284  -0.75388619   0.19887374   -2.3229284    1.5690423   439061 
 1461000    1.0440364   -2.3198741   -2.3198741  -0.75382308   0.20302321   -2.3198741     1.566051   439061 
 1462000    1.0427729   -2.3196788   -2.3196788  -0.75552312   0.19794282   -2.3196788    1.5641557   439061 
 1463000    1.0421671   -2.3192909   -2.3192909  -0.75604379   0.20158858   -2.3192909    1.5632471   439061 
 1464000    1.0438807   -2.3218552   -2.3218552  -0.75603775   0.19922831   -2.3218552    1.5658174   439061 
 1465000    1.0431882   -2.3217353   -2.3217353  -0.75695659   0.20210015   -2.3217353    1.5647787   439061 
 1466000    1.0448165   -2.3224122   -2.3224122  -0.75519109   0.19699477   -2.3224122    1.5672211   439061 
 1467000    1.0441402   -2.3221284   -2.3221284  -0.75592178     0.196477   -2.3221284    1.5662067   439061 
 1468000    1.0432136   -2.3209561   -2.3209561  -0.75613921    0.1986842   -2.3209561    1.5648169   439061 
 1469000     1.043307   -2.3208265   -2.3208265  -0.75586953   0.19661306   -2.3208265     1.564957   439061 
 1470000    1.0427811   -2.3193878   -2.3193878  -0.75521971   0.19955313   -2.3193878    1.5641681   439061 
 1471000    1.0425784   -2.3188818   -2.3188818  -0.75501786   0.20121083   -2.3188818     1.563864   439061 
 1472000    1.0439364   -2.3191136   -2.3191136  -0.75321256   0.20443908   -2.3191136     1.565901   439061 
 1473000    1.0424173   -2.3191443   -2.3191443  -0.75552199   0.19746832   -2.3191443    1.5636223   439061 
 1474000    1.0438868   -2.3213601   -2.3213601  -0.75553345   0.19927958   -2.3213601    1.5658266   439061 
 1475000    1.0441761   -2.3217049   -2.3217049  -0.75544427   0.19902415   -2.3217049    1.5662606   439061 
 1476000    1.0435033   -2.3207549   -2.3207549  -0.75550345   0.20133112   -2.3207549    1.5652514   439061 
 1477000     1.043539   -2.3193504   -2.3193504  -0.75404542   0.20066951   -2.3193504     1.565305   439061 
 1478000    1.0439434   -2.3201066   -2.3201066  -0.75419513   0.19872125   -2.3201066    1.5659115   439061 
 1479000     1.042236   -2.3204509   -2.3204509  -0.75710052   0.19839633   -2.3204509    1.5633504   439061 
 1480000    1.0430428   -2.3215739   -2.3215739  -0.75701338   0.20134246   -2.3215739    1.5645606   439061 
 1481000    1.0434897   -2.3229215   -2.3229215  -0.75769045   0.19483547   -2.3229215     1.565231   439061 
 1482000    1.0426085   -2.3214145   -2.3214145  -0.75750529   0.20197338   -2.3214145    1.5639092   439061 
 1483000    1.0412189   -2.3207896   -2.3207896  -0.75896485   0.19827409   -2.3207896    1.5618247   439061 
 1484000    1.0419371   -2.3217726   -2.3217726  -0.75887055   0.19898189   -2.3217726    1.5629021   439061 
 1485000    1.0433218   -2.3241215   -2.3241215  -0.75914231   0.19843951   -2.3241215    1.5649792   439061 
 1486000    1.0422331   -2.3230074   -2.3230074  -0.75966127   0.19913256   -2.3230074    1.5633462   439061 
 1487000    1.0413157    -2.321686    -2.321686  -0.75971608   0.20110993    -2.321686    1.5619699   439061 
 1488000    1.0427516   -2.3229853   -2.3229853  -0.75886155   0.19886054   -2.3229853    1.5641238   439061 
 1489000    1.0426676   -2.3219581   -2.3219581  -0.75796018   0.19913421   -2.3219581    1.5639979   439061 
 1490000    1.0434598   -2.3227771   -2.3227771  -0.75759096   0.20046398   -2.3227771    1.5651861   439061 
 1491000    1.0431502   -2.3224499   -2.3224499  -0.75772814   0.20078792   -2.3224499    1.5647218   439061 
 1492000    1.0408869   -2.3203945   -2.3203945  -0.75906772   0.20289242   -2.3203945    1.5613268   439061 
 1493000    1.0432009   -2.3234141   -2.3234141  -0.75861634   0.19723951   -2.3234141    1.5647978   439061 
 1494000    1.0421868   -2.3228937   -2.3228937  -0.75961704     0.198926   -2.3228937    1.5632766   439061 
 1495000    1.0419934   -2.3224039   -2.3224039  -0.75941743    0.1975605   -2.3224039    1.5629865   439061 
 1496000    1.0429389   -2.3226378   -2.3226378   -0.7582331   0.20251408   -2.3226378    1.5644047   439061 
 1497000     1.042458    -2.323046    -2.323046  -0.75936266   0.19685504    -2.323046    1.5636834   439061 
 1498000    1.0426391   -2.3213412   -2.3213412  -0.75738613   0.20082617   -2.3213412     1.563955   439061 
 1499000    1.0410336   -2.3188021   -2.3188021  -0.75725535   0.19951154   -2.3188021    1.5615468   439061 
 1500000    1.0418864   -2.3200126   -2.3200126  -0.75718652   0.20609972   -2.3200126    1.5628261   439061 
 1501000    1.0436337   -2.3220181   -2.3220181   -0.7565711   0.19963754   -2.3220181     1.565447   439061 
 1502000     1.043581   -2.3218392   -2.3218392   -0.7564713    0.1984961   -2.3218392    1.5653679   439061 
 1503000    1.0445822    -2.321382    -2.321382  -0.75451231     0.200786    -2.321382    1.5668697   439061 
 1504000    1.0428674   -2.3200808   -2.3200808  -0.75578324   0.19613796   -2.3200808    1.5642976   439061 
 1505000    1.0427179   -2.3203643   -2.3203643  -0.75629109   0.19539303   -2.3203643    1.5640732   439061 
 1506000    1.0412579   -2.3189308   -2.3189308  -0.75704742   0.20317829   -2.3189308    1.5618834   439061 
 1507000    1.0434523   -2.3210807   -2.3210807  -0.75590585   0.19731232   -2.3210807    1.5651749   439061 
 1508000    1.0430714   -2.3215787   -2.3215787  -0.75697518   0.19546382   -2.3215787    1.5646036   439061 
 1509000    1.0432307   -2.3207268   -2.3207268  -0.75588442   0.19761943   -2.3207268    1.5648424   439061 
 1510000    1.0423659   -2.3203546   -2.3203546  -0.75680936   0.20041777   -2.3203546    1.5635453   439061 
 1511000    1.0417128   -2.3214143   -2.3214143  -0.75884873   0.19802874   -2.3214143    1.5625656   439061 
 1512000    1.0420398   -2.3212774   -2.3212774  -0.75822125   0.19750142   -2.3212774    1.5630561   439061 
 1513000    1.0418429   -2.3217516   -2.3217516  -0.75899086   0.20388739   -2.3217516    1.5627608   439061 
 1514000    1.0428739    -2.322242    -2.322242  -0.75793476   0.19768035    -2.322242    1.5643072   439061 
 1515000     1.042318    -2.320948    -2.320948  -0.75747452   0.20009168    -2.320948    1.5634735   439061 
 1516000    1.0414283   -2.3205326   -2.3205326  -0.75839374   0.19633523   -2.3205326    1.5621389   439061 
 1517000    1.0413505   -2.3204057   -2.3204057  -0.75838346   0.20114606   -2.3204057    1.5620222   439061 
 1518000    1.0409564   -2.3190544   -2.3190544   -0.7576234   0.19549422   -2.3190544     1.561431   439061 
 1519000    1.0423585    -2.319883    -2.319883  -0.75634884   0.19999279    -2.319883    1.5635342   439061 
 1520000    1.0415595    -2.319225    -2.319225  -0.75688929   0.20086615    -2.319225    1.5623357   439061 
 1521000    1.0420669   -2.3206413   -2.3206413  -0.75754447   0.19260385   -2.3206413    1.5630968   439061 
 1522000    1.0428248   -2.3204173   -2.3204173  -0.75618363   0.19880476   -2.3204173    1.5642337   439061 
 1523000    1.0416916    -2.319174    -2.319174  -0.75664021   0.19741881    -2.319174    1.5625338   439061 
 1524000      1.04179   -2.3205157   -2.3205157  -0.75783425    0.2002596   -2.3205157    1.5626815   439061 
 1525000    1.0429607   -2.3229973   -2.3229973  -0.75855993   0.20011502   -2.3229973    1.5644374   439061 
 1526000    1.0410509   -2.3198227   -2.3198227  -0.75824996   0.19853678   -2.3198227    1.5615728   439061 
 1527000    1.0420622   -2.3219529   -2.3219529   -0.7588631   0.19901668   -2.3219529    1.5630898   439061 
 1528000    1.0420674     -2.32151     -2.32151  -0.75841242   0.19798277     -2.32151    1.5630976   439061 
 1529000    1.0418935   -2.3217643   -2.3217643   -0.7589276   0.19761099   -2.3217643    1.5628367   439061 
 1530000    1.0423225   -2.3235497   -2.3235497  -0.76006946   0.19647105   -2.3235497    1.5634802   439061 
 1531000    1.0398941   -2.3211887   -2.3211887  -0.76135108   0.19430467   -2.3211887    1.5598376   439061 
 1532000    1.0409023   -2.3215566   -2.3215566  -0.76020676   0.19717484   -2.3215566    1.5613499   439061 
 1533000    1.0427394    -2.323916    -2.323916   -0.7598104   0.19607741    -2.323916    1.5641055   439061 
 1534000    1.0406277   -2.3215646   -2.3215646  -0.76062664   0.19819596   -2.3215646     1.560938   439061 
 1535000    1.0420496   -2.3230912   -2.3230912  -0.76002038   0.20012226   -2.3230912    1.5630709   439061 
 1536000     1.041098   -2.3212185   -2.3212185  -0.75957509   0.19855278   -2.3212185    1.5616435   439061 
 1537000    1.0415831   -2.3219074   -2.3219074  -0.75953631   0.19673424   -2.3219074    1.5623711   439061 
 1538000    1.0403223    -2.320998    -2.320998  -0.76051804   0.19813422    -2.320998      1.56048   439061 
 1539000    1.0409086   -2.3224412   -2.3224412  -0.76108186   0.19856115   -2.3224412    1.5613593   439061 
 1540000    1.0395782   -2.3211791   -2.3211791  -0.76181532   0.19811494   -2.3211791    1.5593638   439061 
 1541000    1.0412523   -2.3215414   -2.3215414  -0.75966648   0.19580178   -2.3215414    1.5618749   439061 
 1542000    1.0403482   -2.3219214   -2.3219214   -0.7614027   0.19713114   -2.3219214    1.5605187   439061 
 1543000    1.0420113   -2.3236136   -2.3236136  -0.76060022   0.19623902   -2.3236136    1.5630134   439061 
 1544000    1.0424133   -2.3229415   -2.3229415  -0.75932513   0.19619057   -2.3229415    1.5636163   439061 
 1545000    1.0393741   -2.3196322   -2.3196322   -0.7605746   0.19766903   -2.3196322    1.5590576   439061 
 1546000    1.0421518   -2.3224476   -2.3224476  -0.75922349   0.19481933   -2.3224476    1.5632241   439061 
 1547000    1.0419543   -2.3217818   -2.3217818    -0.758854   0.19640731   -2.3217818    1.5629278   439061 
 1548000    1.0405375   -2.3197934   -2.3197934  -0.75899074   0.19452702   -2.3197934    1.5608027   439061 
 1549000    1.0418001   -2.3213585   -2.3213585  -0.75866195   0.19634172   -2.3213585    1.5626965   439061 
 1550000    1.0415073    -2.321511    -2.321511  -0.75925351   0.19469809    -2.321511    1.5622575   439061 
 1551000    1.0413027   -2.3192216   -2.3192216  -0.75727104   0.19821465   -2.3192216    1.5619505   439061 
 1552000    1.0428738   -2.3217603   -2.3217603  -0.75745311   0.20108094   -2.3217603    1.5643072   439061 
 1553000    1.0434669   -2.3210205   -2.3210205  -0.75582377   0.20052095   -2.3210205    1.5651967   439061 
 1554000     1.041143   -2.3195823   -2.3195823  -0.75787137   0.20098845   -2.3195823     1.561711   439061 
 1555000    1.0413233   -2.3204335   -2.3204335  -0.75845213     0.200759   -2.3204335    1.5619814   439061 
 1556000    1.0409074   -2.3199119   -2.3199119   -0.7585543   0.19695891   -2.3199119    1.5613576   439061 
 1557000    1.0418592   -2.3217679   -2.3217679  -0.75898268   0.20024388   -2.3217679    1.5627852   439061 
 1558000     1.039619    -2.317981    -2.317981  -0.75855602   0.19943682    -2.317981    1.5594249   439061 
 1559000    1.0426631   -2.3223401   -2.3223401  -0.75834904   0.19208549   -2.3223401     1.563991   439061 
 1560000    1.0412522   -2.3185321   -2.3185321  -0.75665734   0.20108382   -2.3185321    1.5618748   439061 
 1561000    1.0424088   -2.3211713   -2.3211713   -0.7575616   0.19939948   -2.3211713    1.5636097   439061 
 1562000     1.041726   -2.3193612   -2.3193612  -0.75677574   0.19729963   -2.3193612    1.5625854   439061 
 1563000    1.0421824   -2.3195035   -2.3195035  -0.75623345   0.19872931   -2.3195035    1.5632701   439061 
 1564000    1.0418224     -2.31859     -2.31859  -0.75586001   0.20420535     -2.31859      1.56273   439061 
 1565000    1.0420205   -2.3193631   -2.3193631  -0.75633587   0.19274404   -2.3193631    1.5630272   439061 
 1566000    1.0420623   -2.3209045   -2.3209045  -0.75781461   0.19403775   -2.3209045    1.5630898   439061 
 1567000    1.0415917   -2.3190735   -2.3190735  -0.75668945   0.20008291   -2.3190735    1.5623841   439061 
 1568000    1.0421778   -2.3204871   -2.3204871  -0.75722401   0.19728575   -2.3204871    1.5632631   439061 
 1569000     1.042737   -2.3219459   -2.3219459  -0.75784406   0.19399069   -2.3219459    1.5641019   439061 
 1570000    1.0419023   -2.3200742   -2.3200742   -0.7572242   0.20063971   -2.3200742      1.56285   439061 
 1571000    1.0417367    -2.319887    -2.319887  -0.75728545   0.19890278    -2.319887    1.5626015   439061 
 1572000    1.0403423   -2.3183768   -2.3183768  -0.75786682   0.19734077   -2.3183768      1.56051   439061 
 1573000    1.0419319   -2.3191519   -2.3191519  -0.75625759   0.19973679   -2.3191519    1.5628943   439061 
 1574000    1.0432282   -2.3209308   -2.3209308   -0.7560921   0.19851945   -2.3209308    1.5648387   439061 
 1575000    1.0430559   -2.3202798   -2.3202798  -0.75569954   0.20124268   -2.3202798    1.5645803   439061 
 1576000    1.0411541   -2.3187638   -2.3187638  -0.75703621   0.20008742   -2.3187638    1.5617276   439061 
 1577000    1.0412497   -2.3192862   -2.3192862  -0.75741518   0.20142736   -2.3192862     1.561871   439061 
 1578000    1.0429678   -2.3215772   -2.3215772  -0.75712898   0.19607998   -2.3215772    1.5644482   439061 
 1579000    1.0418484   -2.3192787   -2.3192787  -0.75650962   0.19801002   -2.3192787    1.5627691   439061 
 1580000    1.0422764   -2.3207692   -2.3207692  -0.75735806   0.19579593   -2.3207692    1.5634111   439061 
 1581000    1.0396106   -2.3195403   -2.3195403  -0.76012795    0.1970543   -2.3195403    1.5594124   439061 
 1582000    1.0408574    -2.320449    -2.320449  -0.75916654   0.19318135    -2.320449    1.5612825   439061 
 1583000    1.0402552   -2.3197867   -2.3197867  -0.75940747   0.20014915   -2.3197867    1.5603793   439061 
 1584000     1.038051    -2.318387    -2.318387  -0.76131407   0.19500587    -2.318387    1.5570729   439061 
 1585000    1.0407457   -2.3223764   -2.3223764  -0.76126144   0.19753678   -2.3223764    1.5611149   439061 
 1586000    1.0409811   -2.3216645   -2.3216645  -0.76019651   0.19978114   -2.3216645     1.561468   439061 
 1587000    1.0410935   -2.3211687   -2.3211687  -0.75953193   0.19797582   -2.3211687    1.5616367   439061 
 1588000    1.0406042   -2.3199872   -2.3199872  -0.75908446   0.19698309   -2.3199872    1.5609027   439061 
 1589000    1.0408166   -2.3208281   -2.3208281  -0.75960682   0.19742376   -2.3208281    1.5612213   439061 
 1590000    1.0397659   -2.3192708   -2.3192708  -0.75962547   0.19612052   -2.3192708    1.5596453   439061 
 1591000    1.0407892   -2.3220594   -2.3220594  -0.76087911   0.19080136   -2.3220594    1.5611803   439061 
 1592000    1.0397414   -2.3209266   -2.3209266  -0.76131804   0.19538489   -2.3209266    1.5596086   439061 
 1593000    1.0403888   -2.3204814   -2.3204814  -0.75990176   0.19511555   -2.3204814    1.5605797   439061 
 1594000    1.0413443   -2.3222241   -2.3222241  -0.76021127   0.19327829   -2.3222241    1.5620128   439061 
 1595000    1.0405351   -2.3209589   -2.3209589  -0.76015977    0.1961663   -2.3209589    1.5607991   439061 
 1596000    1.0409168   -2.3215841   -2.3215841  -0.76021239   0.19661301   -2.3215841    1.5613717   439061 
 1597000    1.0416202    -2.321513    -2.321513  -0.75908619   0.19462628    -2.321513    1.5624268   439061 
 1598000    1.0407359   -2.3203352   -2.3203352  -0.75923501   0.19287763   -2.3203352    1.5611002   439061 
 1599000    1.0396704    -2.320043    -2.320043  -0.76054101   0.19836568    -2.320043     1.559502   439061 
 1600000    1.0402925   -2.3203677   -2.3203677  -0.75993255   0.19685948   -2.3203677    1.5604352   439061 
 1601000    1.0416008   -2.3235242   -2.3235242  -0.76112652   0.19624961   -2.3235242    1.5623977   439061 
 1602000    1.0400895   -2.3219496   -2.3219496  -0.76181887   0.19581944   -2.3219496    1.5601307   439061 
 1603000    1.0391256   -2.3207108   -2.3207108  -0.76202595   0.19247397   -2.3207108    1.5586849   439061 
 1604000     1.041827   -2.3239302   -2.3239302  -0.76119318   0.19382763   -2.3239302     1.562737   439061 
 1605000    1.0401664   -2.3207963   -2.3207963  -0.76055017   0.19640343   -2.3207963    1.5602461   439061 
 1606000    1.0395293   -2.3213926   -2.3213926   -0.7621023   0.19441624   -2.3213926    1.5592903   439061 
 1607000    1.0385486   -2.3205138   -2.3205138  -0.76269442   0.20038371   -2.3205138    1.5578194   439061 
 1608000    1.0398791   -2.3209312   -2.3209312   -0.7611161     0.196972   -2.3209312    1.5598151   439061 
 1609000     1.039831   -2.3218491   -2.3218491  -0.76210614   0.19227783   -2.3218491     1.559743   439061 
 1610000    1.0410173   -2.3227385   -2.3227385  -0.76121602    0.2031431   -2.3227385    1.5615225   439061 
 1611000    1.0395049   -2.3212199   -2.3212199  -0.76196613   0.19786529   -2.3212199    1.5592538   439061 
 1612000    1.0410782   -2.3245257   -2.3245257  -0.76291204   0.19432658   -2.3245257    1.5616137   439061 
 1613000    1.0402513   -2.3212248   -2.3212248  -0.76085134   0.19539294   -2.3212248    1.5603734   439061 
 1614000    1.0402521   -2.3217123   -2.3217123  -0.76133772   0.19501686   -2.3217123    1.5603746   439061 
 1615000    1.0395929   -2.3209011   -2.3209011   -0.7615153   0.19986525   -2.3209011    1.5593858   439061 
 1616000    1.0404212   -2.3222942   -2.3222942  -0.76166605   0.19831312   -2.3222942    1.5606282   439061 
 1617000    1.0397215    -2.322767    -2.322767  -0.76318831   0.19794542    -2.322767    1.5595787   439061 
 1618000    1.0406303   -2.3243991   -2.3243991  -0.76345725   0.19666601   -2.3243991    1.5609418   439061 
 1619000     1.038879   -2.3214989   -2.3214989  -0.76318402   0.19319817   -2.3214989    1.5583149   439061 
 1620000    1.0404186    -2.322867    -2.322867  -0.76224255   0.19846683    -2.322867    1.5606244   439061 
 1621000    1.0380828   -2.3204385   -2.3204385  -0.76331778   0.19481795   -2.3204385    1.5571207   439061 
 1622000    1.0394393   -2.3219332   -2.3219332  -0.76277786   0.19474738   -2.3219332    1.5591554   439061 
 1623000    1.0399804   -2.3220974   -2.3220974  -0.76213041   0.19729021   -2.3220974     1.559967   439061 
 1624000    1.0400902   -2.3229603   -2.3229603  -0.76282854   0.19427017   -2.3229603    1.5601317   439061 
 1625000    1.0382736   -2.3198875   -2.3198875  -0.76248059   0.19468078   -2.3198875    1.5574069   439061 
 1626000    1.0398727   -2.3209684   -2.3209684  -0.76116295   0.19416899   -2.3209684    1.5598055   439061 
 1627000    1.0402221   -2.3218414   -2.3218414  -0.76151179   0.19874929   -2.3218414    1.5603296   439061 
 1628000     1.038965   -2.3204837   -2.3204837  -0.76203974   0.19986591   -2.3204837     1.558444   439061 
 1629000    1.0391818   -2.3202634   -2.3202634  -0.76149423   0.19173788   -2.3202634    1.5587692   439061 
 1630000     1.038106    -2.320119    -2.320119  -0.76296349   0.19572938    -2.320119    1.5571555   439061 
 1631000    1.0398995   -2.3237563   -2.3237563  -0.76391058    0.1910943   -2.3237563    1.5598457   439061 
 1632000    1.0393218   -2.3218561   -2.3218561  -0.76287688   0.19587885   -2.3218561    1.5589792   439061 
 1633000    1.0390913   -2.3221453   -2.3221453   -0.7635119   0.19406385   -2.3221453    1.5586334   439061 
 1634000    1.0386578   -2.3212908   -2.3212908  -0.76330756   0.19425913   -2.3212908    1.5579832   439061 
 1635000    1.0382966   -2.3204447   -2.3204447  -0.76300339   0.19545589   -2.3204447    1.5574413   439061 
 1636000    1.0389108   -2.3214318   -2.3214318  -0.76306918   0.19488838   -2.3214318    1.5583626   439061 
 1637000    1.0387666   -2.3202137   -2.3202137  -0.76206733   0.19326098   -2.3202137    1.5581463   439061 
 1638000    1.0384609   -2.3210614   -2.3210614  -0.76337355   0.19246809   -2.3210614    1.5576879   439061 
 1639000    1.0381922   -2.3208441   -2.3208441   -0.7635593   0.19777663   -2.3208441    1.5572848   439061 
 1640000    1.0394687   -2.3226723   -2.3226723  -0.76347286   0.19285052   -2.3226723    1.5591995   439061 
 1641000     1.039747   -2.3234576   -2.3234576  -0.76384056    0.1902496   -2.3234576     1.559617   439061 
 1642000     1.038524   -2.3223023   -2.3223023  -0.76451992   0.19038862   -2.3223023    1.5577824   439061 
 1643000    1.0377917   -2.3202772   -2.3202772  -0.76359311   0.19735825   -2.3202772    1.5566841   439061 
 1644000    1.0382678   -2.3211723   -2.3211723  -0.76377416   0.19766114   -2.3211723    1.5573981   439061 
 1645000     1.039083    -2.322219    -2.322219  -0.76359806   0.19730288    -2.322219    1.5586209   439061 
 1646000    1.0389912   -2.3221888   -2.3221888   -0.7637056   0.19461842   -2.3221888    1.5584832   439061 
 1647000    1.0376295   -2.3215402   -2.3215402  -0.76509954   0.19533969   -2.3215402    1.5564407   439061 
 1648000    1.0385396   -2.3219921   -2.3219921  -0.76418624   0.19545677   -2.3219921    1.5578059   439061 
 1649000    1.0402061   -2.3240345   -2.3240345  -0.76372895   0.19811164   -2.3240345    1.5603055   439061 
 1650000    1.0396383    -2.322154    -2.322154  -0.76270018   0.19663819    -2.322154    1.5594539   439061 
 1651000    1.0385132   -2.3217098   -2.3217098  -0.76394361   0.19571882   -2.3217098    1.5577662   439061 
 1652000    1.0401449   -2.3237339   -2.3237339  -0.76352013   0.19707427   -2.3237339    1.5602138   439061 
 1653000     1.039825   -2.3235071   -2.3235071  -0.76377308    0.1950277   -2.3235071     1.559734   439061 
 1654000    1.0385941    -2.321526    -2.321526  -0.76363843   0.19528645    -2.321526    1.5578876   439061 
 1655000    1.0382425   -2.3211951   -2.3211951  -0.76383491   0.19290447   -2.3211951    1.5573602   439061 
 1656000    1.0392631   -2.3231329   -2.3231329  -0.76424184   0.19262618   -2.3231329     1.558891   439061 
 1657000    1.0383397   -2.3222772   -2.3222772  -0.76477129     0.201183   -2.3222772    1.5575059   439061 
 1658000    1.0392557   -2.3231298   -2.3231298  -0.76424983   0.19179819   -2.3231298      1.55888   439061 
 1659000     1.037974   -2.3225892   -2.3225892  -0.76563177   0.19358279   -2.3225892    1.5569574   439061 
 1660000      1.03821   -2.3227397   -2.3227397  -0.76542827   0.19303427   -2.3227397    1.5573115   439061 
 1661000    1.0383517    -2.323688    -2.323688  -0.76616391     0.192024    -2.323688    1.5575241   439061 
 1662000    1.0378379   -2.3226517   -2.3226517   -0.7658984   0.19698224   -2.3226517    1.5567533   439061 
 1663000    1.0378635   -2.3215058   -2.3215058  -0.76471409   0.19591933   -2.3215058    1.5567917   439061 
 1664000    1.0387141   -2.3224126   -2.3224126  -0.76434496   0.19457142   -2.3224126    1.5580677   439061 
 1665000    1.0382676   -2.3215735   -2.3215735  -0.76417574   0.19388092   -2.3215735    1.5573978   439061 
 1666000    1.0392625   -2.3216919   -2.3216919  -0.76280163    0.2003421   -2.3216919    1.5588902   439061 
 1667000    1.0388959   -2.3215575   -2.3215575  -0.76321713   0.19636168   -2.3215575    1.5583403   439061 
 1668000    1.0400421   -2.3229472   -2.3229472  -0.76288758    0.1921147   -2.3229472    1.5600596   439061 
 1669000    1.0385261   -2.3190172   -2.3190172  -0.76123159   0.19586613   -2.3190172    1.5577856   439061 
 1670000    1.0407642   -2.3233214   -2.3233214  -0.76217867    0.1958889   -2.3233214    1.5611428   439061 
 1671000    1.0385994   -2.3202192   -2.3202192  -0.76232371   0.19282146   -2.3202192    1.5578955   439061 
 1672000    1.0385548   -2.3207508   -2.3207508  -0.76292222   0.19205968   -2.3207508    1.5578286   439061 
 1673000    1.0401727   -2.3223219   -2.3223219  -0.76206633   0.19583368   -2.3223219    1.5602555   439061 
 1674000    1.0391526   -2.3208077   -2.3208077  -0.76208234   0.19632475   -2.3208077    1.5587254   439061 
 1675000      1.03853   -2.3208044   -2.3208044  -0.76301293   0.19083257   -2.3208044    1.5577915   439061 
 1676000    1.0372236   -2.3181616   -2.3181616  -0.76232981    0.1989297   -2.3181616    1.5558318   439061 
 1677000    1.0391973   -2.3209522   -2.3209522  -0.76215972   0.19357093   -2.3209522    1.5587925   439061 
 1678000    1.0387394   -2.3210916   -2.3210916  -0.76298608   0.19284666   -2.3210916    1.5581055   439061 
 1679000    1.0390441   -2.3217727   -2.3217727  -0.76321006   0.19032113   -2.3217727    1.5585626   439061 
 1680000    1.0379354   -2.3195467   -2.3195467  -0.76264714   0.19655399   -2.3195467    1.5568996   439061 
 1681000    1.0393572   -2.3221458   -2.3221458  -0.76311358   0.19259848   -2.3221458    1.5590322   439061 
 1682000    1.0390032   -2.3216314   -2.3216314  -0.76313011   0.19535138   -2.3216314    1.5585013   439061 
 1683000    1.0393439   -2.3220524   -2.3220524  -0.76304004   0.19618417   -2.3220524    1.5590123   439061 
 1684000    1.0386006   -2.3203766   -2.3203766  -0.76247923   0.19297628   -2.3203766    1.5578974   439061 
 1685000    1.0369656   -2.3189945   -2.3189945  -0.76354954   0.19280211   -2.3189945    1.5554449   439061 
 1686000     1.037913   -2.3204642   -2.3204642  -0.76359825   0.19288515   -2.3204642    1.5568659   439061 
 1687000    1.0382372   -2.3201349   -2.3201349  -0.76278266   0.19223842   -2.3201349    1.5573522   439061 
 1688000    1.0391384   -2.3214024   -2.3214024  -0.76269836   0.19569747   -2.3214024     1.558704   439061 
 1689000    1.0394771   -2.3206176   -2.3206176   -0.7614055   0.19395959   -2.3206176    1.5592121   439061 
 1690000    1.0392818   -2.3212153   -2.3212153  -0.76229624   0.19362068   -2.3212153    1.5589191   439061 
 1691000    1.0380819   -2.3188492   -2.3188492  -0.76172987   0.19669388   -2.3188492    1.5571193   439061 
 1692000    1.0393263   -2.3206339   -2.3206339    -0.761648   0.20006843   -2.3206339    1.5589859   439061 
 1693000     1.039497   -2.3193628   -2.3193628  -0.76012088   0.19467987   -2.3193628    1.5592419   439061 
 1694000    1.0412227   -2.3213231   -2.3213231  -0.75949269   0.19932721   -2.3213231    1.5618304   439061 
 1695000    1.0389261   -2.3182356   -2.3182356  -0.75985001   0.19527227   -2.3182356    1.5583856   439061 
 1696000     1.039918   -2.3206845   -2.3206845  -0.76081113   0.19386357   -2.3206845    1.5598734   439061 
 1697000    1.0393484   -2.3212193   -2.3212193  -0.76220035   0.19574296   -2.3212193     1.559019   439061 
 1698000     1.039412   -2.3216564   -2.3216564  -0.76254202   0.19374808   -2.3216564    1.5591144   439061 
 1699000      1.03729     -2.31958     -2.31958  -0.76364855   0.19405061     -2.31958    1.5559315   439061 
 1700000    1.0395118   -2.3224412   -2.3224412  -0.76317705   0.19478184   -2.3224412    1.5592641   439061 
 1701000    1.0373633   -2.3190221   -2.3190221  -0.76298066    0.1926676   -2.3190221    1.5560414   439061 
 1702000    1.0380543   -2.3220264   -2.3220264  -0.76494844   0.18854424   -2.3220264     1.557078   439061 
 1703000    1.0381092   -2.3230958   -2.3230958  -0.76593558   0.19239687   -2.3230958    1.5571602   439061 
 1704000    1.0373937   -2.3218296   -2.3218296  -0.76574254   0.19016946   -2.3218296     1.556087   439061 
 1705000    1.0382317   -2.3226867   -2.3226867  -0.76534271   0.19652349   -2.3226867    1.5573439   439061 
 1706000    1.0387366    -2.323708    -2.323708  -0.76560669   0.19190296    -2.323708    1.5581014   439061 
 1707000    1.0386319   -2.3220358   -2.3220358  -0.76409143   0.19402908   -2.3220358    1.5579444   439061 
 1708000    1.0375417   -2.3214546   -2.3214546  -0.76514563   0.19019875   -2.3214546     1.556309   439061 
 1709000    1.0371778   -2.3213091   -2.3213091   -0.7655459   0.19286573   -2.3213091    1.5557632   439061 
 1710000    1.0377292   -2.3208571   -2.3208571  -0.76426679   0.19032557   -2.3208571    1.5565903   439061 
 1711000    1.0388556   -2.3233594   -2.3233594  -0.76507955   0.18971743   -2.3233594    1.5582799   439061 
 1712000    1.0382872   -2.3209772   -2.3209772  -0.76354994   0.19603988   -2.3209772    1.5574273   439061 
 1713000    1.0386065   -2.3216597   -2.3216597  -0.76375349   0.19343488   -2.3216597    1.5579062   439061 
 1714000    1.0382589   -2.3218176   -2.3218176  -0.76443274   0.19241148   -2.3218176    1.5573849   439061 
 1715000    1.0382436   -2.3212436   -2.3212436  -0.76388172   0.19340751   -2.3212436    1.5573619   439061 
 1716000    1.0369911   -2.3192577   -2.3192577  -0.76377456    0.1995352   -2.3192577    1.5554831   439061 
 1717000    1.0388103   -2.3225452   -2.3225452  -0.76433328   0.19170681   -2.3225452    1.5582119   439061 
 1718000    1.0394744   -2.3227542   -2.3227542   -0.7635462   0.19588651   -2.3227542     1.559208   439061 
 1719000    1.0383192   -2.3208709   -2.3208709   -0.7633956   0.19525395   -2.3208709    1.5574752   439061 
 1720000    1.0388813   -2.3209246   -2.3209246  -0.76260619   0.19466341   -2.3209246    1.5583185   439061 
 1721000     1.038714   -2.3199669   -2.3199669  -0.76189935   0.19298301   -2.3199669    1.5580675   439061 
 1722000    1.0389353   -2.3222134   -2.3222134  -0.76381403   0.19412927   -2.3222134    1.5583993   439061 
 1723000    1.0380238   -2.3214065   -2.3214065  -0.76437429   0.19570269   -2.3214065    1.5570322   439061 
 1724000    1.0388937   -2.3219037   -2.3219037  -0.76356682   0.19771281   -2.3219037    1.5583369   439061 
 1725000    1.0389438   -2.3233207   -2.3233207  -0.76490865   0.19123808   -2.3233207    1.5584121   439061 
 1726000    1.0370288   -2.3205578   -2.3205578  -0.76501814   0.19550987   -2.3205578    1.5555396   439061 
 1727000    1.0380131   -2.3224575   -2.3224575  -0.76544137   0.19173181   -2.3224575    1.5570162   439061 
 1728000    1.0358481   -2.3186699   -2.3186699  -0.76490126   0.19114229   -2.3186699    1.5537687   439061 
 1729000    1.0364424   -2.3205365   -2.3205365  -0.76587649   0.19048373   -2.3205365      1.55466   439061 
 1730000    1.0365095   -2.3209994   -2.3209994  -0.76623865   0.19563777   -2.3209994    1.5547607   439061 
 1731000    1.0390804   -2.3222048   -2.3222048  -0.76358772   0.19128887   -2.3222048     1.558617   439061 
 1732000     1.038748    -2.321312    -2.321312  -0.76319348   0.19246587    -2.321312    1.5581185   439061 
 1733000    1.0386699   -2.3212955   -2.3212955  -0.76329423   0.19565046   -2.3212955    1.5580013   439061 
 1734000    1.0398571   -2.3212297   -2.3212297  -0.76144767   0.19785358   -2.3212297    1.5597821   439061 
 1735000    1.0376635   -2.3202686   -2.3202686  -0.76377694     0.198188   -2.3202686    1.5564917   439061 
 1736000    1.0386055   -2.3212682   -2.3212682  -0.76336348   0.19498012   -2.3212682    1.5579047   439061 
 1737000    1.0379925   -2.3206093   -2.3206093    -0.763624   0.19360763   -2.3206093    1.5569853   439061 
 1738000    1.0383047   -2.3204954   -2.3204954  -0.76304194   0.19396871   -2.3204954    1.5574535   439061 
 1739000    1.0371506    -2.318156    -2.318156  -0.76243354    0.1961811    -2.318156    1.5557224   439061 
 1740000    1.0392627   -2.3217558   -2.3217558  -0.76286529   0.19988625   -2.3217558    1.5588905   439061 
 1741000    1.0377364   -2.3196733   -2.3196733  -0.76307227   0.19165679   -2.3196733     1.556601   439061 
 1742000    1.0370646   -2.3189867   -2.3189867  -0.76339333   0.19310643   -2.3189867    1.5555934   439061 
 1743000    1.0383537   -2.3199198   -2.3199198  -0.76239283   0.19368957   -2.3199198     1.557527   439061 
 1744000     1.038776   -2.3203299   -2.3203299  -0.76216943    0.1940693   -2.3203299    1.5581605   439061 
 1745000     1.037765   -2.3196947   -2.3196947  -0.76305069    0.1920924   -2.3196947     1.556644   439061 
 1746000    1.0375301   -2.3190703   -2.3190703  -0.76277874    0.1923994   -2.3190703    1.5562916   439061 
 1747000    1.0393379   -2.3211563   -2.3211563  -0.76215297   0.18922961   -2.3211563    1.5590033   439061 
 1748000    1.0374979   -2.3183749   -2.3183749  -0.76213152   0.19359515   -2.3183749    1.5562434   439061 
 1749000    1.0366578    -2.316327    -2.316327  -0.76134381   0.19390159    -2.316327    1.5549832   439061 
 1750000    1.0383981   -2.3194082   -2.3194082   -0.7618147   0.19505799   -2.3194082    1.5575935   439061 
 1751000      1.03879   -2.3201379   -2.3201379  -0.76195641   0.19020647   -2.3201379    1.5581814   439061 
 1752000    1.0382619   -2.3207383   -2.3207383  -0.76334897   0.19289186   -2.3207383    1.5573893   439061 
 1753000    1.0370746   -2.3200653   -2.3200653  -0.76445685   0.19185827   -2.3200653    1.5556084   439061 
 1754000    1.0373902   -2.3203311   -2.3203311  -0.76424932   0.19518594   -2.3203311    1.5560817   439061 
 1755000    1.0368304   -2.3194785   -2.3194785  -0.76423647   0.19550138   -2.3194785     1.555242   439061 
 1756000    1.0381549   -2.3215934   -2.3215934   -0.7643646   0.19389174   -2.3215934    1.5572288   439061 
 1757000    1.0374565   -2.3195244   -2.3195244  -0.76334312   0.19697312   -2.3195244    1.5561812   439061 
 1758000    1.0384662   -2.3221848   -2.3221848  -0.76448896   0.19272053   -2.3221848    1.5576958   439061 
 1759000    1.0367788   -2.3192672   -2.3192672  -0.76410261   0.19387042   -2.3192672    1.5551646   439061 
 1760000     1.037477   -2.3206736   -2.3206736  -0.76446168   0.19231309   -2.3206736    1.5562119   439061 
 1761000     1.036448   -2.3191615   -2.3191615  -0.76449308   0.19633485   -2.3191615    1.5546684   439061 
 1762000    1.0374715   -2.3210994   -2.3210994  -0.76489572   0.18943636   -2.3210994    1.5562036   439061 
 1763000    1.0370411   -2.3211892   -2.3211892  -0.76563111   0.19557779   -2.3211892    1.5555581   439061 
 1764000    1.0367342   -2.3208754   -2.3208754  -0.76577771   0.19409376   -2.3208754    1.5550977   439061 
 1765000    1.0360886   -2.3210284   -2.3210284  -0.76689898   0.19038029   -2.3210284    1.5541294   439061 
 1766000    1.0368552   -2.3224857   -2.3224857  -0.76720636   0.19213078   -2.3224857    1.5552793   439061 
 1767000    1.0361292   -2.3220306   -2.3220306  -0.76784033   0.18926477   -2.3220306    1.5541903   439061 
 1768000    1.0359699   -2.3203894   -2.3203894  -0.76643806    0.1914363   -2.3203894    1.5539513   439061 
 1769000    1.0362455   -2.3226573   -2.3226573  -0.76829264   0.19130007   -2.3226573    1.5543647   439061 
 1770000    1.0353442   -2.3220119   -2.3220119  -0.76899906   0.19335887   -2.3220119    1.5530128   439061 
 1771000    1.0370547   -2.3228529   -2.3228529  -0.76727439   0.19546189   -2.3228529    1.5555785   439061 
 1772000    1.0374394   -2.3231976   -2.3231976  -0.76704213   0.19036569   -2.3231976    1.5561555   439061 
 1773000    1.0362802   -2.3227327   -2.3227327  -0.76831589   0.18872257   -2.3227327    1.5544168   439061 
 1774000    1.0373927   -2.3232836   -2.3232836  -0.76719815   0.18896103   -2.3232836    1.5560855   439061 
 1775000    1.0365993   -2.3203268   -2.3203268  -0.76543129   0.19646609   -2.3203268    1.5548955   439061 
 1776000    1.0389971   -2.3239942   -2.3239942  -0.76550214   0.19282835   -2.3239942    1.5584921   439061 
 1777000     1.037717   -2.3212177   -2.3212177   -0.7646457   0.19230326   -2.3212177     1.556572   439061 
 1778000    1.0374737   -2.3216018   -2.3216018  -0.76539472   0.19121468   -2.3216018    1.5562071   439061 
 1779000    1.0369965    -2.320906    -2.320906  -0.76541475   0.19295761    -2.320906    1.5554912   439061 
 1780000    1.0353566   -2.3200113   -2.3200113  -0.76697992   0.19238087   -2.3200113    1.5530314   439061 
 1781000    1.0361655    -2.320668    -2.320668  -0.76642328   0.19355861    -2.320668    1.5542447   439061 
 1782000    1.0374088   -2.3219371   -2.3219371  -0.76582744   0.18977689   -2.3219371    1.5561096   439061 
 1783000    1.0379482   -2.3227922   -2.3227922  -0.76587344   0.19076798   -2.3227922    1.5569188   439061 
 1784000    1.0366452   -2.3199353   -2.3199353  -0.76497099   0.19559035   -2.3199353    1.5549643   439061 
 1785000     1.037196   -2.3194754   -2.3194754  -0.76368495   0.19730079   -2.3194754    1.5557904   439061 
 1786000    1.0381218   -2.3207457   -2.3207457  -0.76356652    0.1946543   -2.3207457    1.5571792   439061 
 1787000    1.0370841   -2.3203288   -2.3203288  -0.76470617   0.19007031   -2.3203288    1.5556226   439061 
 1788000    1.0383273   -2.3207291   -2.3207291  -0.76324159   0.19843369   -2.3207291    1.5574875   439061 
 1789000    1.0386851   -2.3195614   -2.3195614   -0.7615373    0.1916368   -2.3195614    1.5580241   439061 
 1790000    1.0380469   -2.3167821   -2.3167821  -0.75971537   0.19539691   -2.3167821    1.5570668   439061 
 1791000    1.0367629   -2.3157643   -2.3157643  -0.76062339   0.19631086   -2.3157643    1.5551409   439061 
 1792000    1.0377177   -2.3176461   -2.3176461  -0.76107314   0.19622681   -2.3176461    1.5565729   439061 
 1793000     1.037788   -2.3179623   -2.3179623   -0.7612838   0.19365653   -2.3179623    1.5566785   439061 
 1794000    1.0377786   -2.3165609   -2.3165609  -0.75989654   0.19297762   -2.3165609    1.5566643   439061 
 1795000     1.036197   -2.3143483   -2.3143483   -0.7600563   0.19606148   -2.3143483     1.554292   439061 
 1796000    1.0384929   -2.3190369   -2.3190369  -0.76130106   0.19373001   -2.3190369    1.5577358   439061 
 1797000    1.0370551   -2.3183598   -2.3183598  -0.76278068   0.18969924   -2.3183598    1.5555791   439061 
 1798000    1.0383005   -2.3206436   -2.3206436  -0.76319646   0.19337096   -2.3206436    1.5574471   439061 
 1799000    1.0368377   -2.3189474   -2.3189474  -0.76369433   0.19403857   -2.3189474     1.555253   439061 
 1800000    1.0373892    -2.319364    -2.319364  -0.76328371   0.19051407    -2.319364    1.5560803   439061 
 1801000    1.0374845   -2.3189733   -2.3189733  -0.76275006    0.1924678   -2.3189733    1.5562233   439061 
 1802000    1.0354843   -2.3166009   -2.3166009  -0.76337798   0.18889383   -2.3166009     1.553223   439061 
 1803000    1.0371046   -2.3192432   -2.3192432  -0.76358988   0.18994832   -2.3192432    1.5556533   439061 
 1804000    1.0357415    -2.318619    -2.318619  -0.76501024   0.19236854    -2.318619    1.5536087   439061 
 1805000    1.0364896   -2.3200776   -2.3200776  -0.76534674   0.18790869   -2.3200776    1.5547309   439061 
 1806000    1.0367464   -2.3204361   -2.3204361  -0.76532001   0.19087439   -2.3204361    1.5551161   439061 
 1807000    1.0370558    -2.319386    -2.319386   -0.7638058   0.18905339    -2.319386    1.5555802   439061 
 1808000    1.0356191   -2.3179276   -2.3179276  -0.76450257   0.19379501   -2.3179276    1.5534251   439061 
 1809000    1.0372065   -2.3211252   -2.3211252  -0.76531897   0.19595567   -2.3211252    1.5558063   439061 
 1810000    1.0352685   -2.3190466   -2.3190466  -0.76614733   0.19002862   -2.3190466    1.5528993   439061 
 1811000    1.0359317   -2.3203605   -2.3203605  -0.76646656    0.1894932   -2.3203605     1.553894   439061 
 1812000    1.0382807   -2.3249196   -2.3249196  -0.76750207   0.19384324   -2.3249196    1.5574175   439061 
 1813000    1.0356059    -2.320611    -2.320611  -0.76720569   0.19234624    -2.320611    1.5534053   439061 
 1814000    1.0366094   -2.3207843   -2.3207843  -0.76587372   0.19176369   -2.3207843    1.5549106   439061 
 1815000    1.0369423   -2.3197002   -2.3197002  -0.76429025   0.19628054   -2.3197002    1.5554099   439061 
 1816000    1.0364422   -2.3200635   -2.3200635  -0.76540379   0.19759696   -2.3200635    1.5546598   439061 
 1817000    1.0364808   -2.3211304   -2.3211304  -0.76641275   0.18903192   -2.3211304    1.5547176   439061 
 1818000    1.0354265   -2.3204688   -2.3204688  -0.76733261   0.19131452   -2.3204688    1.5531362   439061 
 1819000    1.0362986   -2.3213216   -2.3213216  -0.76687719   0.18954412   -2.3213216    1.5544444   439061 
 1820000    1.0367487   -2.3216811   -2.3216811   -0.7665615   0.19290311   -2.3216811    1.5551196   439061 
 1821000    1.0361953   -2.3217131   -2.3217131  -0.76742373   0.18749756   -2.3217131    1.5542894   439061 
 1822000    1.0355832   -2.3212026   -2.3212026  -0.76783131   0.19318931   -2.3212026    1.5533713   439061 
 1823000    1.0375415   -2.3237589   -2.3237589  -0.76745019   0.18904058   -2.3237589    1.5563087   439061 
 1824000    1.0364441   -2.3222177   -2.3222177  -0.76755513   0.19067713   -2.3222177    1.5546625   439061 
 1825000    1.0358791   -2.3217022   -2.3217022  -0.76788714   0.19013965   -2.3217022    1.5538151   439061 
 1826000    1.0355585   -2.3209917   -2.3209917  -0.76765748   0.18716136   -2.3209917    1.5533342   439061 
 1827000    1.0356844   -2.3217929   -2.3217929  -0.76826986   0.18967134   -2.3217929     1.553523   439061 
 1828000    1.0361685   -2.3212685   -2.3212685  -0.76701924   0.19410942   -2.3212685    1.5542492   439061 
 1829000    1.0352343   -2.3204259   -2.3204259  -0.76757799   0.19058939   -2.3204259     1.552848   439061 
 1830000     1.035901   -2.3211415   -2.3211415  -0.76729351   0.19138299   -2.3211415     1.553848   439061 
 1831000    1.0353056   -2.3194186   -2.3194186  -0.76646379   0.19525939   -2.3194186    1.5529548   439061 
 1832000    1.0351186   -2.3190407   -2.3190407  -0.76636633   0.19071224   -2.3190407    1.5526744   439061 
 1833000    1.0342046   -2.3178416   -2.3178416  -0.76653829    0.1909109   -2.3178416    1.5513033   439061 
 1834000    1.0366553   -2.3212077   -2.3212077  -0.76622833    0.1878432   -2.3212077    1.5549794   439061 
 1835000    1.0354138   -2.3197819   -2.3197819   -0.7666648   0.19004997   -2.3197819    1.5531171   439061 
 1836000    1.0355099   -2.3206576   -2.3206576  -0.76739626   0.19089643   -2.3206576    1.5532613   439061 
 1837000    1.0342137   -2.3176178   -2.3176178  -0.76630077   0.19190161   -2.3176178     1.551317   439061 
 1838000    1.0376423   -2.3215238   -2.3215238  -0.76506393   0.19150277   -2.3215238    1.5564599   439061 
 1839000    1.0365761   -2.3197753   -2.3197753  -0.76491465   0.19421888   -2.3197753    1.5548606   439061 
 1840000    1.0366722   -2.3192766   -2.3192766  -0.76427188   0.19161491   -2.3192766    1.5550047   439061 
 1841000    1.0375432   -2.3194638   -2.3194638  -0.76315258   0.19147594   -2.3194638    1.5563112   439061 
 1842000    1.0371822    -2.318245    -2.318245  -0.76247523   0.19153098    -2.318245    1.5557698   439061 
 1843000    1.0373257   -2.3186853   -2.3186853  -0.76270025   0.19230683   -2.3186853    1.5559851   439061 
 1844000    1.0370579   -2.3181794   -2.3181794  -0.76259612   0.19589284   -2.3181794    1.5555833   439061 
 1845000    1.0378356    -2.318964    -2.318964  -0.76221411   0.19285371    -2.318964    1.5567499   439061 
 1846000     1.037403   -2.3182245   -2.3182245  -0.76212356   0.19283866   -2.3182245    1.5561009   439061 
 1847000    1.0357832   -2.3166862   -2.3166862  -0.76301495   0.19707361   -2.3166862    1.5536712   439061 
 1848000    1.0345938   -2.3168434   -2.3168434  -0.76495618   0.19364169   -2.3168434    1.5518872   439061 
 1849000    1.0363114   -2.3193305   -2.3193305  -0.76486696   0.19134564   -2.3193305    1.5544635   439061 
 1850000    1.0358663   -2.3188271   -2.3188271  -0.76503118   0.19433662   -2.3188271    1.5537959   439061 
 1851000    1.0366082   -2.3194976   -2.3194976  -0.76458877   0.18900907   -2.3194976    1.5549088   439061 
 1852000    1.0356003   -2.3183788   -2.3183788  -0.76498196   0.19182987   -2.3183788    1.5533969   439061 
 1853000    1.0370425   -2.3195905   -2.3195905  -0.76403024   0.18956753   -2.3195905    1.5555603   439061 
 1854000    1.0372869   -2.3199406   -2.3199406  -0.76401377   0.19594656   -2.3199406    1.5559269   439061 
 1855000    1.0364749   -2.3192411   -2.3192411  -0.76453223   0.18790521   -2.3192411    1.5547088   439061 
 1856000    1.0363788   -2.3195279   -2.3195279   -0.7649633   0.19172711   -2.3195279    1.5545647   439061 
 1857000    1.0354073   -2.3184724   -2.3184724    -0.765365   0.19139076   -2.3184724    1.5531074   439061 
 1858000    1.0358309   -2.3201183   -2.3201183  -0.76637546   0.19185427   -2.3201183    1.5537428   439061 
 1859000    1.0349334   -2.3202716   -2.3202716  -0.76787502   0.19039242   -2.3202716    1.5523966   439061 
 1860000    1.0351316   -2.3210865   -2.3210865  -0.76839271   0.19210481   -2.3210865    1.5526938   439061 
 1861000    1.0351376     -2.32022     -2.32022  -0.76751713   0.19022204     -2.32022    1.5527028   439061 
 1862000    1.0342173   -2.3194924   -2.3194924  -0.76816995   0.19246003   -2.3194924    1.5513224   439061 
 1863000    1.0340157   -2.3189192   -2.3189192  -0.76789922   0.19345085   -2.3189192      1.55102   439061 
 1864000    1.0367725   -2.3231826   -2.3231826   -0.7680274   0.18531096   -2.3231826    1.5551552   439061 
 1865000     1.035532   -2.3205126   -2.3205126  -0.76721821   0.18851631   -2.3205126    1.5532944   439061 
 1866000    1.0349708   -2.3194232   -2.3194232  -0.76697056   0.19081091   -2.3194232    1.5524526   439061 
 1867000      1.03624     -2.32086     -2.32086  -0.76650352   0.18954998     -2.32086    1.5543565   439061 
 1868000    1.0351748    -2.319751    -2.319751  -0.76699242   0.19128439    -2.319751    1.5527586   439061 
 1869000    1.0355459   -2.3192064   -2.3192064  -0.76589118   0.19397151   -2.3192064    1.5533153   439061 
 1870000    1.0348275   -2.3185065   -2.3185065  -0.76626885    0.1921058   -2.3185065    1.5522377   439061 
 1871000    1.0354077   -2.3199563   -2.3199563   -0.7668483   0.19026491   -2.3199563     1.553108   439061 
 1872000    1.0364504   -2.3196994   -2.3196994  -0.76502738   0.18694713   -2.3196994    1.5546721   439061 
 1873000    1.0350089   -2.3191955   -2.3191955  -0.76668569   0.19421101   -2.3191955    1.5525098   439061 
 1874000    1.0349457   -2.3179851   -2.3179851   -0.7655701   0.19299015   -2.3179851     1.552415   439061 
 1875000    1.0359766   -2.3193539   -2.3193539  -0.76539252   0.18979402   -2.3193539    1.5539614   439061 
 1876000    1.0356791   -2.3194227   -2.3194227  -0.76590767   0.19299579   -2.3194227     1.553515   439061 
 1877000    1.0365369   -2.3204099   -2.3204099  -0.76560804   0.19293644   -2.3204099    1.5548019   439061 
 1878000    1.0364253   -2.3197034   -2.3197034    -0.765069   0.19155608   -2.3197034    1.5546344   439061 
 1879000    1.0356657   -2.3191334   -2.3191334   -0.7656383   0.19101632   -2.3191334     1.553495   439061 
 1880000    1.0360655   -2.3189136   -2.3189136  -0.76481889   0.19150267   -2.3189136    1.5540947   439061 
 1881000    1.0373416   -2.3186099   -2.3186099  -0.76260097   0.19449704   -2.3186099    1.5560089   439061 
 1882000    1.0364454   -2.3178335   -2.3178335  -0.76316901   0.19300302   -2.3178335    1.5546645   439061 
 1883000    1.0362328   -2.3175429   -2.3175429  -0.76319719   0.19075228   -2.3175429    1.5543457   439061 
 1884000    1.0357804   -2.3170413   -2.3170413  -0.76337422   0.19424351   -2.3170413    1.5536671   439061 
 1885000    1.0356263     -2.31731     -2.31731  -0.76387413   0.19472583     -2.31731    1.5534359   439061 
 1886000    1.0362704   -2.3178531   -2.3178531  -0.76345101    0.1914128   -2.3178531    1.5544021   439061 
 1887000    1.0366266   -2.3184075   -2.3184075  -0.76347113   0.19002781   -2.3184075    1.5549363   439061 
 1888000    1.0355088   -2.3176284   -2.3176284  -0.76436868   0.19124299   -2.3176284    1.5532597   439061 
 1889000    1.0364205   -2.3189135   -2.3189135  -0.76428626   0.19041059   -2.3189135    1.5546273   439061 
 1890000    1.0362066   -2.3192692   -2.3192692  -0.76496291   0.19430766   -2.3192692    1.5543063   439061 
 1891000    1.0363778   -2.3187821   -2.3187821  -0.76421891   0.18841065   -2.3187821    1.5545632   439061 
 1892000    1.0359289   -2.3171694   -2.3171694  -0.76327959   0.19096202   -2.3171694    1.5538898   439061 
 1893000    1.0361363   -2.3174309   -2.3174309  -0.76323011   0.19528644   -2.3174309    1.5542008   439061 
 1894000    1.0360891   -2.3178269   -2.3178269  -0.76369685   0.19502865   -2.3178269      1.55413   439061 
 1895000    1.0354753    -2.317651    -2.317651  -0.76444166   0.18948282    -2.317651    1.5532094   439061 
 1896000    1.0357606   -2.3189315   -2.3189315  -0.76529414   0.18742594   -2.3189315    1.5536374   439061 
 1897000    1.0348803   -2.3176403   -2.3176403  -0.76532331   0.18912698   -2.3176403    1.5523169   439061 
 1898000    1.0348648   -2.3174744   -2.3174744  -0.76518079   0.18821143   -2.3174744    1.5522936   439061 
 1899000    1.0352785    -2.317754    -2.317754  -0.76483975   0.19631421    -2.317754    1.5529142   439061 
 1900000    1.0358768   -2.3176034   -2.3176034  -0.76379164    0.1915107   -2.3176034    1.5538117   439061 
 1901000     1.038301   -2.3196945   -2.3196945  -0.76224656   0.18957529   -2.3196945    1.5574479   439061 
 1902000    1.0393615   -2.3211895   -2.3211895  -0.76215086   0.18811085   -2.3211895    1.5590386   439061 
 1903000    1.0363421   -2.3170713   -2.3170713  -0.76256166   0.19046674   -2.3170713    1.5545097   439061 
 1904000    1.0358204   -2.3172586   -2.3172586  -0.76353147   0.18673526   -2.3172586    1.5537271   439061 
 1905000    1.0370178   -2.3189585   -2.3189585  -0.76343543   0.19271843   -2.3189585    1.5555231   439061 
 1906000    1.0365801   -2.3181035   -2.3181035   -0.7632369   0.19144988   -2.3181035    1.5548666   439061 
 1907000    1.0370942   -2.3185839   -2.3185839  -0.76294606   0.19451799   -2.3185839    1.5556378   439061 
 1908000    1.0378931    -2.319391    -2.319391  -0.76255496   0.18826143    -2.319391     1.556836   439061 
 1909000    1.0354395   -2.3168444   -2.3168444  -0.76368864    0.1903918   -2.3168444    1.5531558   439061 
 1910000    1.0361416   -2.3166418   -2.3166418  -0.76243291   0.19251018   -2.3166418    1.5542089   439061 
 1911000     1.036078   -2.3170027   -2.3170027  -0.76288926   0.19508657   -2.3170027    1.5541134   439061 
 1912000    1.0373661   -2.3187414   -2.3187414  -0.76269583   0.19061949   -2.3187414    1.5560456   439061 
 1913000    1.0368211   -2.3178486   -2.3178486  -0.76262054   0.18878284   -2.3178486    1.5552281   439061 
 1914000     1.036709   -2.3189635   -2.3189635  -0.76390356   0.19061749   -2.3189635      1.55506   439061 
 1915000    1.0368315   -2.3190773   -2.3190773  -0.76383354   0.19211828   -2.3190773    1.5552438   439061 
 1916000    1.0364073   -2.3181342   -2.3181342  -0.76352683   0.19197805   -2.3181342    1.5546074   439061 
 1917000    1.0356727   -2.3176607   -2.3176607  -0.76415515   0.19223021   -2.3176607    1.5535056   439061 
 1918000     1.036205   -2.3192141   -2.3192141  -0.76491012   0.19629798   -2.3192141     1.554304   439061 
 1919000    1.0354018   -2.3187337   -2.3187337  -0.76563454   0.18723256   -2.3187337    1.5530992   439061 
 1920000    1.0345745   -2.3172718   -2.3172718   -0.7654136   0.19132742   -2.3172718    1.5518582   439061 
 1921000     1.037002   -2.3194798   -2.3194798  -0.76398037   0.19185273   -2.3194798    1.5554994   439061 
 1922000    1.0348837   -2.3181047   -2.3181047  -0.76578262   0.19041087   -2.3181047    1.5523221   439061 
 1923000     1.035101   -2.3189751   -2.3189751  -0.76632719   0.18910423   -2.3189751    1.5526479   439061 
 1924000    1.0332288   -2.3182407   -2.3182407  -0.76840098   0.19055592   -2.3182407    1.5498397   439061 
 1925000    1.0353399   -2.3204499   -2.3204499  -0.76744359   0.18924973   -2.3204499    1.5530063   439061 
 1926000    1.0343874   -2.3180952   -2.3180952  -0.76651762   0.18720748   -2.3180952    1.5515776   439061 
 1927000    1.0353162   -2.3194751   -2.3194751  -0.76650439   0.18931717   -2.3194751    1.5529708   439061 
 1928000     1.034343   -2.3180482   -2.3180482  -0.76653721   0.19009401   -2.3180482     1.551511   439061 
 1929000    1.0353059   -2.3184996   -2.3184996  -0.76554426   0.18831555   -2.3184996    1.5529553   439061 
 1930000    1.0368158   -2.3207133   -2.3207133  -0.76549311   0.18610473   -2.3207133    1.5552202   439061 
 1931000    1.0355228   -2.3179422   -2.3179422  -0.76466151   0.19074438   -2.3179422    1.5532807   439061 
 1932000    1.0368171   -2.3200823   -2.3200823  -0.76486017   0.19281479   -2.3200823    1.5552221   439061 
 1933000    1.0357726   -2.3193734   -2.3193734    -0.765718   0.19018628   -2.3193734    1.5536554   439061 
 1934000    1.0358333   -2.3195021   -2.3195021  -0.76575577   0.18865489   -2.3195021    1.5537464   439061 
 1935000    1.0363152   -2.3204548   -2.3204548  -0.76598553   0.19177658   -2.3204548    1.5544693   439061 
 1936000      1.03624   -2.3211311   -2.3211311  -0.76677465   0.18824616   -2.3211311    1.5543564   439061 
 1937000    1.0350317   -2.3201728   -2.3201728  -0.76762878   0.18959918   -2.3201728     1.552544   439061 
 1938000    1.0335043   -2.3178351   -2.3178351  -0.76758214   0.19009093   -2.3178351    1.5502529   439061 
 1939000    1.0344751   -2.3197181   -2.3197181  -0.76800893   0.18962371   -2.3197181    1.5517092   439061 
 1940000    1.0355571   -2.3213265   -2.3213265  -0.76799435   0.18934084   -2.3213265    1.5533322   439061 
 1941000    1.0343316    -2.321435    -2.321435   -0.7699412   0.18920167    -2.321435    1.5514938   439061 
 1942000    1.0350523   -2.3206912   -2.3206912  -0.76811624   0.19012403   -2.3206912     1.552575   439061 
 1943000     1.033221   -2.3180343   -2.3180343   -0.7682063   0.19210926   -2.3180343     1.549828   439061 
 1944000    1.0357846   -2.3215697   -2.3215697  -0.76789634   0.19189479   -2.3215697    1.5536734   439061 
 1945000    1.0343715   -2.3211869   -2.3211869  -0.76963324   0.18844327   -2.3211869    1.5515536   439061 
 1946000    1.0341848   -2.3217487   -2.3217487  -0.77047506   0.18691589   -2.3217487    1.5512737   439061 
 1947000    1.0334513   -2.3193474   -2.3193474  -0.76917403   0.19689398   -2.3193474    1.5501734   439061 
 1948000    1.0332492   -2.3193611   -2.3193611  -0.76949076   0.19164073   -2.3193611    1.5498703   439061 
 1949000    1.0329053   -2.3193269   -2.3193269  -0.76997253   0.18788969   -2.3193269    1.5493544   439061 
 1950000    1.0331663   -2.3199963   -2.3199963  -0.77025038   0.18834682   -2.3199963    1.5497459   439061 
 1951000     1.032753   -2.3195283   -2.3195283  -0.77040235   0.19313765   -2.3195283     1.549126   439061 
 1952000    1.0344588   -2.3205628   -2.3205628  -0.76887814   0.18510978   -2.3205628    1.5516847   439061 
 1953000     1.035003    -2.320463    -2.320463  -0.76796203   0.19163882    -2.320463     1.552501   439061 
 1954000    1.0335055   -2.3186701   -2.3186701  -0.76841536   0.18846888   -2.3186701    1.5502547   439061 
 1955000    1.0347253    -2.320101    -2.320101  -0.76801655   0.18850623    -2.320101    1.5520844   439061 
 1956000    1.0345173   -2.3199592   -2.3199592  -0.76818672   0.19079388   -2.3199592    1.5517725   439061 
 1957000    1.0341102   -2.3180285   -2.3180285  -0.76686664   0.18681139   -2.3180285    1.5511618   439061 
 1958000    1.0351115   -2.3192335   -2.3192335  -0.76656968   0.18590197   -2.3192335    1.5526638   439061 
 1959000    1.0344954   -2.3197304   -2.3197304  -0.76799081   0.18757025   -2.3197304    1.5517395   439061 
 1960000    1.0336266   -2.3189477   -2.3189477  -0.76851125   0.18580631   -2.3189477    1.5504364   439061 
 1961000    1.0335232   -2.3188224   -2.3188224  -0.76854116   0.18976229   -2.3188224    1.5502812   439061 
 1962000    1.0341502   -2.3196095   -2.3196095  -0.76838774   0.18780423   -2.3196095    1.5512218   439061 
 1963000    1.0344288   -2.3217407   -2.3217407  -0.77010097   0.18723366   -2.3217407    1.5516397   439061 
 1964000    1.0322552    -2.317883    -2.317883  -0.76950373   0.19118297    -2.317883    1.5483793   439061 
 1965000    1.0343452   -2.3209162   -2.3209162  -0.76940191   0.18306776   -2.3209162    1.5515143   439061 
 1966000    1.0348979   -2.3201534   -2.3201534  -0.76781005    0.1878274   -2.3201534    1.5523433   439061 
 1967000    1.0339066   -2.3194168   -2.3194168  -0.76856038   0.19268106   -2.3194168    1.5508564   439061 
 1968000    1.0340236   -2.3201378   -2.3201378  -0.76910598   0.19044965   -2.3201378    1.5510318   439061 
 1969000    1.0341775   -2.3197053   -2.3197053  -0.76844264   0.18751288   -2.3197053    1.5512627   439061 
 1970000    1.0360343   -2.3206654   -2.3206654  -0.76661739   0.18736973   -2.3206654     1.554048   439061 
 1971000    1.0351377   -2.3208434   -2.3208434  -0.76814039   0.18946748   -2.3208434    1.5527031   439061 
 1972000    1.0328272   -2.3175765   -2.3175765   -0.7683393   0.19407494   -2.3175765    1.5492372   439061 
 1973000    1.0354764   -2.3217416   -2.3217416  -0.76853058   0.18897252   -2.3217416     1.553211   439061 
 1974000    1.0344879   -2.3198353   -2.3198353  -0.76810706   0.18917723   -2.3198353    1.5517283   439061 
 1975000    1.0325248   -2.3164021   -2.3164021  -0.76761844   0.18991375   -2.3164021    1.5487837   439061 
 1976000    1.0345853   -2.3201779   -2.3201779  -0.76830354   0.18552512   -2.3201779    1.5518744   439061 
 1977000    1.0346311   -2.3188605   -2.3188605  -0.76691746   0.19079929   -2.3188605    1.5519431   439061 
 1978000    1.0333755   -2.3175012   -2.3175012  -0.76744151   0.18787121   -2.3175012    1.5500597   439061 
 1979000    1.0354544   -2.3203192   -2.3203192  -0.76714106   0.18608103   -2.3203192    1.5531781   439061 
 1980000    1.0359385    -2.319649    -2.319649  -0.76574488    0.1922491    -2.319649    1.5539041   439061 
 1981000    1.0356178   -2.3197371   -2.3197371  -0.76631386   0.18763172   -2.3197371    1.5534232   439061 
 1982000    1.0343734    -2.318837    -2.318837  -0.76728039    0.1864597    -2.318837    1.5515566   439061 
 1983000     1.034189   -2.3178341   -2.3178341  -0.76655406    0.1906056   -2.3178341      1.55128   439061 
 1984000    1.0329037   -2.3176285   -2.3176285   -0.7682764   0.18554344   -2.3176285    1.5493521   439061 
 1985000    1.0344658   -2.3188847   -2.3188847  -0.76718953   0.18228444   -2.3188847    1.5516951   439061 
 1986000    1.0343585   -2.3196817   -2.3196817  -0.76814746   0.18609661   -2.3196817    1.5515342   439061 
 1987000    1.0343338   -2.3179818   -2.3179818   -0.7664846   0.18953686   -2.3179818    1.5514972   439061 
 1988000    1.0336542   -2.3179284   -2.3179284  -0.76745059   0.18656606   -2.3179284    1.5504778   439061 
 1989000    1.0343462   -2.3195933   -2.3195933  -0.76807746   0.18857028   -2.3195933    1.5515158   439061 
 1990000    1.0345015   -2.3196654   -2.3196654   -0.7679168   0.18761722   -2.3196654    1.5517486   439061 
 1991000    1.0338009   -2.3182661   -2.3182661  -0.76756829   0.18629787   -2.3182661    1.5506979   439061 
 1992000    1.0330367   -2.3180239   -2.3180239  -0.76847238   0.18987414   -2.3180239    1.5495515   439061 
 1993000    1.0342987   -2.3187336   -2.3187336  -0.76728909   0.18689212   -2.3187336    1.5514446   439061 
 1994000    1.0335843   -2.3175009   -2.3175009  -0.76712804   0.18394661   -2.3175009    1.5503729   439061 
 1995000    1.0342655    -2.319253    -2.319253  -0.76785826    0.1896408    -2.319253    1.5513948   439061 
 1996000    1.0322793   -2.3159002   -2.3159002  -0.76748482   0.19382892   -2.3159002    1.5484154   439061 
 1997000    1.0332475   -2.3169006   -2.3169006  -0.76703286   0.19491294   -2.3169006    1.5498677   439061 
 1998000     1.034065    -2.317937    -2.317937  -0.76684303   0.18550532    -2.317937     1.551094   439061 
 1999000    1.0351288   -2.3193594   -2.3193594  -0.76666973   0.18765499   -2.3193594    1.5526896   439061 
 2000000    1.0344587   -2.3198088   -2.3198088  -0.76812432   0.18980384   -2.3198088    1.5516845   439061 
 2001000    1.0346175   -2.3195025   -2.3195025  -0.76757989   0.18979453   -2.3195025    1.5519227   439061 
 2002000    1.0353414   -2.3220608   -2.3220608  -0.76905227   0.18726474   -2.3220608    1.5530086   439061 
 2003000    1.0309355   -2.3169926   -2.3169926  -0.77059283   0.19022666   -2.3169926    1.5463997   439061 
 2004000    1.0320366   -2.3188013   -2.3188013  -0.77075001   0.18693787   -2.3188013    1.5480513   439061 
 2005000    1.0351269    -2.321798    -2.321798  -0.76911116   0.18817847    -2.321798    1.5526869   439061 
 2006000    1.0357543   -2.3220599   -2.3220599  -0.76843193   0.19134804   -2.3220599    1.5536279   439061 
 2007000    1.0345037   -2.3196605   -2.3196605  -0.76790846   0.18909099   -2.3196605     1.551752   439061 
 2008000     1.033852   -2.3185889   -2.3185889  -0.76781452   0.18626611   -2.3185889    1.5507744   439061 
 2009000    1.0334466   -2.3177424   -2.3177424  -0.76757599   0.19322698   -2.3177424    1.5501664   439061 
 2010000     1.034273   -2.3179268   -2.3179268  -0.76652087   0.18943426   -2.3179268     1.551406   439061 
 2011000    1.0345016   -2.3193143   -2.3193143  -0.76756547   0.18645072   -2.3193143    1.5517489   439061 
 2012000     1.034698    -2.318868    -2.318868  -0.76682447   0.18824819    -2.318868    1.5520435   439061 
 2013000    1.0349907   -2.3197309   -2.3197309  -0.76724838   0.19096065   -2.3197309    1.5524825   439061 
 2014000     1.032722   -2.3166539   -2.3166539  -0.76757445   0.19033852   -2.3166539    1.5490795   439061 
 2015000    1.0345044   -2.3191544   -2.3191544  -0.76740131   0.19008659   -2.3191544    1.5517531   439061 
 2016000    1.0352374   -2.3188554   -2.3188554  -0.76600288    0.1898656   -2.3188554    1.5528525   439061 
 2017000    1.0360047   -2.3198069   -2.3198069  -0.76580338   0.19357377   -2.3198069    1.5540035   439061 
 2018000    1.0360244   -2.3189429   -2.3189429  -0.76490984   0.18878553   -2.3189429    1.5540331   439061 
 2019000    1.0349611   -2.3179192   -2.3179192  -0.76548108   0.18828067   -2.3179192    1.5524381   439061 
 2020000    1.0348064   -2.3180633   -2.3180633  -0.76585725   0.18192846   -2.3180633     1.552206   439061 
 2021000    1.0352879   -2.3180074   -2.3180074  -0.76507905   0.18993841   -2.3180074    1.5529284   439061 
 2022000    1.0345604    -2.317306    -2.317306  -0.76546898   0.18595838    -2.317306    1.5518371   439061 
 2023000    1.0359111   -2.3201943   -2.3201943  -0.76633124      0.18714   -2.3201943    1.5538631   439061 
 2024000    1.0356885   -2.3189446   -2.3189446  -0.76541541   0.18621572   -2.3189446    1.5535292   439061 
 2025000    1.0335106   -2.3163124   -2.3163124  -0.76604999   0.18801951   -2.3163124    1.5502624   439061 
 2026000    1.0344147   -2.3168526   -2.3168526  -0.76523414    0.1898714   -2.3168526    1.5516185   439061 
 2027000    1.0345972   -2.3182407   -2.3182407  -0.76634838   0.18950123   -2.3182407    1.5518923   439061 
 2028000    1.0343815   -2.3182214   -2.3182214   -0.7666526   0.18634749   -2.3182214    1.5515688   439061 
 2029000    1.0345562    -2.318413    -2.318413  -0.76658221   0.18875325    -2.318413    1.5518308   439061 
 2030000    1.0342771   -2.3175621   -2.3175621  -0.76614993   0.18583316   -2.3175621    1.5514122   439061 
 2031000    1.0329537   -2.3164165   -2.3164165  -0.76698942   0.18442287   -2.3164165     1.549427   439061 
 2032000    1.0338508   -2.3189264   -2.3189264  -0.76815368   0.18675743   -2.3189264    1.5507727   439061 
 2033000    1.0340565   -2.3191203   -2.3191203   -0.7680391   0.18767931   -2.3191203    1.5510812   439061 
 2034000    1.0342494   -2.3183463   -2.3183463  -0.76697568   0.18696844   -2.3183463    1.5513706   439061 
 2035000    1.0353992    -2.318814    -2.318814  -0.76571869   0.18658825    -2.318814    1.5530953   439061 
 2036000    1.0344117   -2.3171223   -2.3171223  -0.76550829    0.1892807   -2.3171223     1.551614   439061 
 2037000     1.034934   -2.3189033   -2.3189033  -0.76650585   0.19355587   -2.3189033    1.5523975   439061 
 2038000    1.0357977   -2.3195506   -2.3195506   -0.7658576   0.19090497   -2.3195506     1.553693   439061 
 2039000    1.0353443   -2.3192949   -2.3192949  -0.76628204   0.19285471   -2.3192949    1.5530129   439061 
 2040000    1.0342623   -2.3167247   -2.3167247  -0.76533482   0.18983914   -2.3167247    1.5513899   439061 
 2041000     1.034344   -2.3179793   -2.3179793   -0.7664669   0.18593802   -2.3179793    1.5515124   439061 
 2042000     1.035085   -2.3186799   -2.3186799  -0.76605598   0.19328519   -2.3186799    1.5526239   439061 
 2043000    1.0341323   -2.3191687   -2.3191687  -0.76797382   0.18655327   -2.3191687    1.5511949   439061 
 2044000    1.0342349   -2.3189598   -2.3189598  -0.76761092    0.1850607   -2.3189598    1.5513489   439061 
 2045000     1.036047   -2.3217878   -2.3217878  -0.76772087   0.18406783   -2.3217878    1.5540669   439061 
 2046000     1.033823   -2.3185189   -2.3185189  -0.76778802   0.18903773   -2.3185189    1.5507309   439061 
 2047000    1.0339579    -2.320596    -2.320596  -0.76966265    0.1828137    -2.320596    1.5509334   439061 
 2048000    1.0332103   -2.3179603   -2.3179603  -0.76814847     0.191514   -2.3179603    1.5498119   439061 
 2049000    1.0333897   -2.3195101   -2.3195101  -0.76942916   0.18725289   -2.3195101     1.550081   439061 
 2050000    1.0332251   -2.3201673   -2.3201673  -0.77033314   0.18898437   -2.3201673    1.5498342   439061 
 2051000    1.0316102   -2.3179186   -2.3179186  -0.77050679   0.18691875   -2.3179186    1.5474118   439061 
 2052000     1.032746   -2.3188254   -2.3188254  -0.76970992     0.188021   -2.3188254    1.5491155   439061 
 2053000    1.0331107   -2.3192226   -2.3192226  -0.76956004   0.18921635   -2.3192226    1.5496626   439061 
 2054000    1.0316332   -2.3174974   -2.3174974   -0.7700511   0.18556932   -2.3174974    1.5474464   439061 
 2055000    1.0331551    -2.318827    -2.318827   -0.7690979   0.18956099    -2.318827    1.5497291   439061 
 2056000    1.0330559   -2.3186266   -2.3186266  -0.76904621   0.18380961   -2.3186266    1.5495803   439061 
 2057000    1.0322716   -2.3177392   -2.3177392  -0.76933532   0.19057492   -2.3177392    1.5484039   439061 
 2058000    1.0331304   -2.3190089   -2.3190089   -0.7693169   0.18956657   -2.3190089     1.549692   439061 
 2059000    1.0322246   -2.3175041   -2.3175041  -0.76917063   0.18808267   -2.3175041    1.5483334   439061 
 2060000    1.0330613   -2.3190296   -2.3190296  -0.76944114    0.1851356   -2.3190296    1.5495885   439061 
 2061000    1.0332981    -2.319824    -2.319824  -0.76988031   0.18656538    -2.319824    1.5499436   439061 
 2062000    1.0342338   -2.3198798   -2.3198798  -0.76853251   0.18751746   -2.3198798    1.5513472   439061 
 2063000    1.0334945   -2.3187253   -2.3187253  -0.76848711   0.19441186   -2.3187253    1.5502382   439061 
 2064000    1.0337476   -2.3203919   -2.3203919  -0.76977396   0.18857653   -2.3203919    1.5506179   439061 
 2065000    1.0329146   -2.3192432   -2.3192432  -0.76987475   0.18838282   -2.3192432    1.5493684   439061 
 2066000    1.0338017   -2.3204307   -2.3204307  -0.76973174   0.18446214   -2.3204307     1.550699   439061 
 2067000    1.0333612    -2.320001    -2.320001  -0.76996276   0.18780091    -2.320001    1.5500382   439061 
 2068000    1.0330486    -2.321287    -2.321287  -0.77171768    0.1857161    -2.321287    1.5495693   439061 
 2069000    1.0324555   -2.3206041   -2.3206041  -0.77192436   0.18389389   -2.3206041    1.5486797   439061 
 2070000    1.0325036    -2.321008    -2.321008  -0.77225619   0.18873298    -2.321008    1.5487518   439061 
 2071000    1.0319852   -2.3207553   -2.3207553  -0.77278101   0.18812239   -2.3207553    1.5479743   439061 
 2072000    1.0321187   -2.3206878   -2.3206878  -0.77251325   0.18200319   -2.3206878    1.5481745   439061 
 2073000    1.0328368   -2.3204269   -2.3204269  -0.77117531    0.1869506   -2.3204269    1.5492516   439061 
 2074000     1.033528   -2.3222767   -2.3222767  -0.77198822   0.18887474   -2.3222767    1.5502885   439061 
 2075000    1.0322756   -2.3212537   -2.3212537  -0.77284384    0.1868189   -2.3212537    1.5484098   439061 
 2076000    1.0322011   -2.3204403   -2.3204403  -0.77214216   0.18361838   -2.3204403    1.5482982   439061 
 2077000    1.0333902   -2.3207145   -2.3207145   -0.7706328   0.18500406   -2.3207145    1.5500817   439061 
 2078000    1.0324291   -2.3196903   -2.3196903  -0.77105022   0.18847809   -2.3196903    1.5486401   439061 
 2079000    1.0320367   -2.3199171   -2.3199171  -0.77186559    0.1887171   -2.3199171    1.5480515   439061 
 2080000    1.0325505   -2.3203053   -2.3203053  -0.77148313   0.19040334   -2.3203053    1.5488222   439061 
 2081000    1.0329367   -2.3210615   -2.3210615  -0.77166002   0.18820355   -2.3210615    1.5494015   439061 
 2082000    1.0319097    -2.319572    -2.319572  -0.77171095   0.18298954    -2.319572    1.5478611   439061 
 2083000    1.0320191   -2.3207424   -2.3207424  -0.77271727   0.18802196   -2.3207424    1.5480251   439061 
 2084000    1.0323093   -2.3204438   -2.3204438  -0.77198335   0.18658514   -2.3204438    1.5484604   439061 
 2085000    1.0324008   -2.3211344   -2.3211344  -0.77253666   0.18680049   -2.3211344    1.5485977   439061 
 2086000    1.0325687   -2.3207532   -2.3207532  -0.77190368   0.18639653   -2.3207532    1.5488495   439061 
 2087000    1.0330923   -2.3218852   -2.3218852  -0.77225027   0.18561905   -2.3218852    1.5496349   439061 
 2088000    1.0329612   -2.3214557   -2.3214557  -0.77201745   0.18738062   -2.3214557    1.5494383   439061 
 2089000     1.031945   -2.3184085   -2.3184085  -0.77049444   0.19195658   -2.3184085     1.547914   439061 
 2090000    1.0328802   -2.3188614   -2.3188614  -0.76954467   0.18261554   -2.3188614    1.5493167   439061 
 2091000    1.0327837   -2.3197745   -2.3197745   -0.7706024   0.18236258   -2.3197745    1.5491721   439061 
 2092000    1.0343685   -2.3209065   -2.3209065  -0.76935726   0.18239884   -2.3209065    1.5515492   439061 
 2093000    1.0306175   -2.3154786   -2.3154786  -0.76955575   0.18932862   -2.3154786    1.5459228   439061 
 2094000    1.0326807   -2.3185312   -2.3185312  -0.76951373    0.1874838   -2.3185312    1.5490175   439061 
 2095000    1.0347535   -2.3195551   -2.3195551  -0.76742834   0.18748756   -2.3195551    1.5521267   439061 
 2096000    1.0333178   -2.3181588   -2.3181588   -0.7681857   0.19235019   -2.3181588    1.5499731   439061 
 2097000    1.0328908   -2.3185925   -2.3185925  -0.76925981   0.18715141   -2.3185925    1.5493327   439061 
 2098000    1.0329907   -2.3185095   -2.3185095  -0.76902695   0.18645232   -2.3185095    1.5494825   439061 
 2099000    1.0332702   -2.3197672   -2.3197672  -0.76986539   0.18828054   -2.3197672    1.5499018   439061 
 2100000    1.0319651   -2.3171115   -2.3171115  -0.76916729   0.18861254   -2.3171115    1.5479442   439061 
 2101000    1.0339514   -2.3199538   -2.3199538  -0.76903027   0.18611583   -2.3199538    1.5509235   439061 
 2102000    1.0317762   -2.3170347   -2.3170347  -0.76937384   0.18949375   -2.3170347    1.5476608   439061 
 2103000    1.0338714   -2.3199559   -2.3199559  -0.76915222   0.19188789   -2.3199559    1.5508036   439061 
 2104000    1.0330926   -2.3185339   -2.3185339  -0.76889864   0.18529784   -2.3185339    1.5496353   439061 
 2105000    1.0339845   -2.3194998   -2.3194998  -0.76852657    0.1828208   -2.3194998    1.5509732   439061 
 2106000     1.032982   -2.3190394   -2.3190394  -0.76956995   0.18789702   -2.3190394    1.5494695   439061 
 2107000    1.0342231   -2.3195325   -2.3195325  -0.76820139   0.19100137   -2.3195325    1.5513311   439061 
 2108000    1.0329166   -2.3181839   -2.3181839   -0.7688125   0.18812602   -2.3181839    1.5493714   439061 
 2109000    1.0323941   -2.3173812   -2.3173812  -0.76879352   0.18884421   -2.3173812    1.5485876   439061 
 2110000    1.0336978   -2.3196925   -2.3196925   -0.7691493   0.18760519   -2.3196925    1.5505432   439061 
 2111000    1.0323702   -2.3190079   -2.3190079  -0.77045617   0.18300597   -2.3190079    1.5485518   439061 
 2112000     1.031283   -2.3172327   -2.3172327  -0.77031175   0.19394455   -2.3172327     1.546921   439061 
 2113000    1.0312597   -2.3193992   -2.3193992  -0.77251319   0.18469181   -2.3193992     1.546886   439061 
 2114000      1.03238   -2.3205335   -2.3205335  -0.77196695   0.18528783   -2.3205335    1.5485665   439061 
 2115000     1.031789   -2.3196194   -2.3196194  -0.77193946   0.18290396   -2.3196194    1.5476799   439061 
 2116000    1.0314903   -2.3185428   -2.3185428  -0.77131093   0.18770326   -2.3185428    1.5472319   439061 
 2117000    1.0322768    -2.319205    -2.319205  -0.77079337   0.19285707    -2.319205    1.5484117   439061 
 2118000    1.0334881   -2.3210608   -2.3210608  -0.77083219   0.18398203   -2.3210608    1.5502286   439061 
 2119000    1.0322392   -2.3187622   -2.3187622  -0.77040692   0.19045241   -2.3187622    1.5483553   439061 
 2120000    1.0325193   -2.3192532   -2.3192532  -0.77047782   0.18799009   -2.3192532    1.5487754   439061 
 2121000      1.03238   -2.3199768   -2.3199768  -0.77141039   0.18962593   -2.3199768    1.5485664   439061 
 2122000    1.0309105   -2.3186971   -2.3186971  -0.77233483   0.18427954   -2.3186971    1.5463623   439061 
 2123000    1.0305154    -2.319275    -2.319275  -0.77350538   0.18677248    -2.319275    1.5457696   439061 
 2124000    1.0315052   -2.3215527   -2.3215527   -0.7742985   0.18608712   -2.3215527    1.5472542   439061 
 2125000     1.031434   -2.3222198   -2.3222198  -0.77507232   0.18584783   -2.3222198    1.5471474   439061 
 2126000    1.0300874   -2.3192775   -2.3192775  -0.77414997   0.18786713   -2.3192775    1.5451276   439061 
 2127000     1.031784   -2.3215816   -2.3215816  -0.77390903   0.18522716   -2.3215816    1.5476725   439061 
 2128000    1.0320228   -2.3217173   -2.3217173  -0.77368658   0.18585495   -2.3217173    1.5480307   439061 
 2129000    1.0312407   -2.3203418   -2.3203418   -0.7734843   0.18406922   -2.3203418    1.5468575   439061 
 2130000    1.0312421   -2.3205241   -2.3205241  -0.77366445   0.18603582   -2.3205241    1.5468596   439061 
 2131000      1.03144   -2.3220422   -2.3220422  -0.77488568   0.18737513   -2.3220422    1.5471565   439061 
 2132000    1.0312364   -2.3206204   -2.3206204  -0.77376941   0.18205039   -2.3206204     1.546851   439061 
 2133000    1.0332039   -2.3221487   -2.3221487  -0.77234644   0.18774291   -2.3221487    1.5498023   439061 
 2134000    1.0320884    -2.320982    -2.320982  -0.77285303   0.18791152    -2.320982     1.548129   439061 
 2135000    1.0330079   -2.3226548   -2.3226548  -0.77314643   0.18446179   -2.3226548    1.5495084   439061 
 2136000    1.0313575   -2.3206638   -2.3206638  -0.77363114   0.18424351   -2.3206638    1.5470327   439061 
 2137000    1.0308216   -2.3194769   -2.3194769  -0.77324802   0.18385803   -2.3194769    1.5462289   439061 
 2138000    1.0322754   -2.3220708   -2.3220708  -0.77366118   0.18099227   -2.3220708    1.5484096   439061 
 2139000    1.0308774   -2.3207149   -2.3207149  -0.77440227   0.18214555   -2.3207149    1.5463126   439061 
 2140000    1.0309553   -2.3199745   -2.3199745  -0.77354504    0.1851506   -2.3199745    1.5464294   439061 
 2141000    1.0306831   -2.3196289   -2.3196289  -0.77360768    0.1885049   -2.3196289    1.5460212   439061 
 2142000    1.0318196    -2.322344    -2.322344  -0.77461807   0.18459135    -2.322344    1.5477259   439061 
 2143000    1.0319717   -2.3222493   -2.3222493  -0.77429527   0.18904437   -2.3222493     1.547954   439061 
 2144000    1.0315995   -2.3217054   -2.3217054  -0.77430967   0.18738374   -2.3217054    1.5473957   439061 
 2145000    1.0306871   -2.3202587   -2.3202587  -0.77423158   0.18458062   -2.3202587    1.5460271   439061 
 2146000    1.0313891   -2.3210891   -2.3210891  -0.77400905   0.18585071   -2.3210891    1.5470801   439061 
 2147000    1.0296434   -2.3188868   -2.3188868  -0.77442526    0.1875186   -2.3188868    1.5444616   439061 
 2148000    1.0301659   -2.3200962   -2.3200962  -0.77485078   0.18400237   -2.3200962    1.5452454   439061 
 2149000    1.0297607   -2.3183365   -2.3183365  -0.77369887   0.18502406   -2.3183365    1.5446376   439061 
 2150000    1.0317721   -2.3206227   -2.3206227   -0.7729681   0.19192004   -2.3206227    1.5476546   439061 
 2151000    1.0321234   -2.3208749   -2.3208749  -0.77269326   0.18582138   -2.3208749    1.5481816   439061 
 2152000    1.0297569   -2.3182225   -2.3182225  -0.77359071   0.17841056   -2.3182225    1.5446318   439061 
 2153000    1.0321438   -2.3209659   -2.3209659   -0.7727538    0.1849186   -2.3209659    1.5482121   439061 
 2154000    1.0306879   -2.3181865   -2.3181865  -0.77215821   0.18430029   -2.3181865    1.5460283   439061 
 2155000    1.0310403   -2.3185169   -2.3185169  -0.77196004   0.18936462   -2.3185169    1.5465569   439061 
 2156000    1.0326435   -2.3200603   -2.3200603  -0.77109863   0.17999462   -2.3200603    1.5489617   439061 
 2157000    1.0321963   -2.3194607   -2.3194607  -0.77116983   0.18770302   -2.3194607    1.5482909   439061 
 2158000    1.0314446   -2.3187141   -2.3187141  -0.77155072   0.18776582   -2.3187141    1.5471634   439061 
 2159000    1.0324612   -2.3198824   -2.3198824  -0.77119407   0.18921185   -2.3198824    1.5486883   439061 
 2160000    1.0306336   -2.3176947   -2.3176947  -0.77174791   0.18678566   -2.3176947    1.5459468   439061 
 2161000    1.0334129   -2.3205079   -2.3205079  -0.77039215   0.18829083   -2.3205079    1.5501157   439061 
 2162000    1.0330617   -2.3197282   -2.3197282  -0.77013928   0.18620478   -2.3197282     1.549589   439061 
 2163000    1.0328557   -2.3185295   -2.3185295  -0.76924948   0.18667444   -2.3185295      1.54928   439061 
 2164000    1.0323521   -2.3178995   -2.3178995  -0.76937484    0.1889421   -2.3178995    1.5485246   439061 
 2165000    1.0333016   -2.3205645   -2.3205645  -0.77061567   0.18519455   -2.3205645    1.5499488   439061 
 2166000    1.0322131   -2.3191581   -2.3191581  -0.77084199   0.18417233   -2.3191581    1.5483161   439061 
 2167000    1.0321016   -2.3188634   -2.3188634  -0.77071454   0.18589165   -2.3188634    1.5481489   439061 
 2168000    1.0316146   -2.3197211   -2.3197211  -0.77230274   0.18693705   -2.3197211    1.5474184   439061 
 2169000    1.0312003   -2.3201595   -2.3201595  -0.77336248   0.18734409   -2.3201595     1.546797   439061 
 2170000    1.0330511   -2.3216313   -2.3216313   -0.7720582   0.18839426   -2.3216313    1.5495731   439061 
 2171000    1.0293964   -2.3163658   -2.3163658  -0.77227481   0.18702733   -2.3163658     1.544091   439061 
 2172000     1.031024   -2.3198982   -2.3198982  -0.77336569   0.18716664   -2.3198982    1.5465325   439061 
 2173000    1.0310793   -2.3192566   -2.3192566  -0.77264115   0.18183655   -2.3192566    1.5466154   439061 
 2174000    1.0319214   -2.3194624   -2.3194624  -0.77158384   0.18637314   -2.3194624    1.5478785   439061 
 2175000    1.0321936   -2.3203192   -2.3203192  -0.77203229   0.18407453   -2.3203192    1.5482869   439061 
 2176000    1.0333216   -2.3209461   -2.3209461  -0.77096715   0.18660601   -2.3209461    1.5499789   439061 
 2177000    1.0316036   -2.3179322   -2.3179322  -0.77053036   0.18794417   -2.3179322    1.5474019   439061 
 2178000    1.0331485    -2.319879    -2.319879  -0.77015976   0.18750922    -2.319879    1.5497192   439061 
 2179000    1.0323417   -2.3171403   -2.3171403  -0.76863126   0.18337019   -2.3171403    1.5485091   439061 
 2180000    1.0326385   -2.3175028   -2.3175028  -0.76854868   0.18647001   -2.3175028    1.5489542   439061 
 2181000     1.031449   -2.3164374   -2.3164374  -0.76926746   0.18978524   -2.3164374    1.5471699   439061 
 2182000    1.0333564   -2.3193723   -2.3193723  -0.76934128   0.18843684   -2.3193723     1.550031   439061 
 2183000    1.0337756   -2.3196725   -2.3196725  -0.76901273    0.1847957   -2.3196725    1.5506598   439061 
 2184000    1.0324919   -2.3179656   -2.3179656  -0.76923125   0.18504539   -2.3179656    1.5487343   439061 
 2185000    1.0327066   -2.3188778   -2.3188778  -0.76982152   0.18889459   -2.3188778    1.5490563   439061 
 2186000    1.0322548    -2.318712    -2.318712  -0.77033334   0.18509233    -2.318712    1.5483787   439061 
 2187000    1.0323824   -2.3199982   -2.3199982  -0.77142819   0.18262558   -2.3199982      1.54857   439061 
 2188000    1.0321572   -2.3190235   -2.3190235  -0.77079126   0.18313876   -2.3190235    1.5482323   439061 
 2189000    1.0311919   -2.3188008   -2.3188008  -0.77201646   0.18795523   -2.3188008    1.5467844   439061 
 2190000    1.0320131   -2.3200222   -2.3200222  -0.77200608   0.18787021   -2.3200222    1.5480161   439061 
 2191000    1.0300176   -2.3172693   -2.3172693  -0.77224636   0.18394478   -2.3172693     1.545023   439061 
 2192000     1.032655   -2.3215975   -2.3215975  -0.77261854   0.18308614   -2.3215975     1.548979   439061 
 2193000    1.0319545   -2.3199673   -2.3199673    -0.772039   0.18206681   -2.3199673    1.5479283   439061 
 2194000    1.0300282   -2.3185281   -2.3185281  -0.77348931   0.18729579   -2.3185281    1.5450388   439061 
 2195000    1.0300621   -2.3184352   -2.3184352  -0.77334562   0.18306417   -2.3184352    1.5450896   439061 
 2196000    1.0312269   -2.3190295   -2.3190295  -0.77219263   0.18622907   -2.3190295    1.5468369   439061 
 2197000    1.0304819   -2.3186705   -2.3186705   -0.7729512   0.18903056   -2.3186705    1.5457193   439061 
 2198000    1.0296084   -2.3172931   -2.3172931  -0.77288412   0.18775724   -2.3172931     1.544409   439061 
 2199000    1.0316949   -2.3200747   -2.3200747  -0.77253582   0.18460287   -2.3200747    1.5475389   439061 
 2200000    1.0308397    -2.319967    -2.319967    -0.773711    0.1812019    -2.319967     1.546256   439061 
 2201000    1.0312865   -2.3209258   -2.3209258  -0.77399958    0.1843047   -2.3209258    1.5469263   439061 
 2202000    1.0309201    -2.320056    -2.320056  -0.77367934   0.18642853    -2.320056    1.5463767   439061 
 2203000    1.0301461   -2.3190001   -2.3190001  -0.77378452   0.18626287   -2.3190001    1.5452156   439061 
 2204000    1.0309196   -2.3202275   -2.3202275  -0.77385157   0.18141167   -2.3202275    1.5463759   439061 
 2205000    1.0303105   -2.3194037   -2.3194037  -0.77394151   0.18599451   -2.3194037    1.5454622   439061 
 2206000    1.0305566   -2.3203351   -2.3203351  -0.77450379   0.18315015   -2.3203351    1.5458313   439061 
 2207000     1.031372   -2.3217604   -2.3217604  -0.77470593   0.18167713   -2.3217604    1.5470545   439061 
 2208000    1.0306635   -2.3197664   -2.3197664  -0.77377463   0.18194741   -2.3197664    1.5459918   439061 
 2209000    1.0313167   -2.3192653   -2.3192653  -0.77229371   0.19010046   -2.3192653    1.5469716   439061 
 2210000    1.0313625   -2.3200058   -2.3200058  -0.77296559   0.18629669   -2.3200058    1.5470402   439061 
 2211000    1.0313587   -2.3206208   -2.3206208  -0.77358626   0.18504513   -2.3206208    1.5470346   439061 
 2212000    1.0307022   -2.3204881   -2.3204881   -0.7744384   0.18587573   -2.3204881    1.5460497   439061 
 2213000    1.0300684   -2.3192218   -2.3192218  -0.77412274   0.18421868   -2.3192218    1.5450991   439061 
 2214000     1.029224   -2.3182635   -2.3182635  -0.77443105    0.1882679   -2.3182635    1.5438325   439061 
 2215000    1.0310158   -2.3192622   -2.3192622  -0.77274207   0.18692053   -2.3192622    1.5465202   439061 
 2216000    1.0302686   -2.3183381   -2.3183381  -0.77293867   0.19019173   -2.3183381    1.5453994   439061 
 2217000    1.0307298   -2.3199387   -2.3199387  -0.77384754   0.18772099   -2.3199387    1.5460912   439061 
 2218000    1.0287957   -2.3182129   -2.3182129  -0.77502282   0.18394442   -2.3182129      1.54319   439061 
 2219000       1.0301   -2.3197002   -2.3197002   -0.7745538   0.18358521   -2.3197002    1.5451464   439061 
 2220000    1.0300321   -2.3184779   -2.3184779  -0.77343323   0.18671419   -2.3184779    1.5450447   439061 
 2221000    1.0315923   -2.3215657   -2.3215657  -0.77418078   0.18274895   -2.3215657    1.5473849   439061 
 2222000    1.0299483   -2.3202021   -2.3202021  -0.77528313   0.18215945   -2.3202021    1.5449189   439061 
 2223000    1.0313449   -2.3206994   -2.3206994  -0.77368565   0.18225284   -2.3206994    1.5470138   439061 
 2224000    1.0312154   -2.3209587   -2.3209587  -0.77413903   0.18534018   -2.3209587    1.5468196   439061 
 2225000    1.0306982   -2.3191186   -2.3191186   -0.7730748   0.18641945   -2.3191186    1.5460438   439061 
 2226000    1.0304007   -2.3199881   -2.3199881  -0.77439049   0.18132491   -2.3199881    1.5455976   439061 
 2227000    1.0300317   -2.3194852   -2.3194852  -0.77444114   0.18990972   -2.3194852    1.5450441   439061 
 2228000    1.0303684   -2.3195844   -2.3195844  -0.77403533   0.18675611   -2.3195844    1.5455491   439061 
 2229000    1.0330668   -2.3231469   -2.3231469  -0.77355017    0.1843115   -2.3231469    1.5495967   439061 
 2230000    1.0308961   -2.3202041   -2.3202041  -0.77386346   0.18116603   -2.3202041    1.5463406   439061 
 2231000    1.0305688   -2.3195783   -2.3195783  -0.77372866   0.18795504   -2.3195783    1.5458496   439061 
 2232000     1.030697   -2.3207707   -2.3207707  -0.77472869   0.18438349   -2.3207707     1.546042   439061 
 2233000    1.0304341   -2.3206651   -2.3206651  -0.77501754   0.18175571   -2.3206651    1.5456476   439061 
 2234000    1.0307481   -2.3221662   -2.3221662  -0.77604762   0.18640285   -2.3221662    1.5461186   439061 
 2235000    1.0285959   -2.3189374   -2.3189374  -0.77604699   0.18995953   -2.3189374    1.5428904   439061 
 2236000    1.0298768   -2.3213681   -2.3213681  -0.77655638    0.1869066   -2.3213681    1.5448118   439061 
 2237000    1.0296795   -2.3210623   -2.3210623  -0.77654662   0.18349703   -2.3210623    1.5445157   439061 
 2238000    1.0300371   -2.3220253   -2.3220253  -0.77697321   0.17760486   -2.3220253    1.5450521   439061 
 2239000     1.029533   -2.3201601   -2.3201601  -0.77586423   0.18593916   -2.3201601    1.5442959   439061 
 2240000    1.0308111   -2.3216348   -2.3216348  -0.77542176   0.18827102   -2.3216348    1.5462131   439061 
 2241000    1.0291081    -2.320505    -2.320505  -0.77684645   0.18786696    -2.320505    1.5436586   439061 
 2242000    1.0305361   -2.3221514   -2.3221514  -0.77635069   0.18917779   -2.3221514    1.5458007   439061 
 2243000    1.0294247   -2.3207775   -2.3207775  -0.77664404   0.18623344   -2.3207775    1.5441335   439061 
 2244000    1.0304278   -2.3223475   -2.3223475  -0.77670932   0.18323617   -2.3223475    1.5456382   439061 
 2245000    1.0301256   -2.3229694   -2.3229694  -0.77778459   0.18304412   -2.3229694    1.5451848   439061 
 2246000     1.028997   -2.3204437   -2.3204437  -0.77695173   0.18622367   -2.3204437     1.543492   439061 
 2247000    1.0301356   -2.3226227   -2.3226227  -0.77742279   0.18313777   -2.3226227    1.5451999   439061 
 2248000    1.0292446   -2.3203884   -2.3203884  -0.77652499   0.18431759   -2.3203884    1.5438634   439061 
 2249000    1.0274425   -2.3173143   -2.3173143  -0.77615412   0.18559862   -2.3173143    1.5411602   439061 
 2250000    1.0295409   -2.3192836   -2.3192836  -0.77497579   0.18542394   -2.3192836    1.5443078   439061 
 2251000    1.0311794   -2.3207082   -2.3207082  -0.77394262   0.18637537   -2.3207082    1.5467656   439061 
 2252000     1.031341   -2.3206561   -2.3206561  -0.77364809   0.18264262   -2.3206561     1.547008   439061 
 2253000    1.0300251   -2.3193034   -2.3193034  -0.77426932   0.18425204   -2.3193034    1.5450341   439061 
 2254000    1.0299835   -2.3185352   -2.3185352  -0.77356346   0.18560265   -2.3185352    1.5449718   439061 
 2255000    1.0308016   -2.3192651   -2.3192651  -0.77306615   0.18128792   -2.3192651    1.5461989   439061 
 2256000    1.0301554   -2.3196792   -2.3196792  -0.77444966   0.18510081   -2.3196792    1.5452295   439061 
 2257000     1.029713   -2.3197749   -2.3197749  -0.77520886   0.18761962   -2.3197749     1.544566   439061 
 2258000    1.0302771   -2.3211773   -2.3211773  -0.77576522   0.18382128   -2.3211773    1.5454121   439061 
 2259000    1.0301299   -2.3198417   -2.3198417  -0.77465029   0.18781409   -2.3198417    1.5451914   439061 
 2260000     1.031192   -2.3197765   -2.3197765  -0.77299202   0.18336404   -2.3197765    1.5467845   439061 
 2261000     1.031584   -2.3206994   -2.3206994  -0.77332694   0.18394374   -2.3206994    1.5473724   439061 
 2262000    1.0301635   -2.3177552   -2.3177552   -0.7725134    0.1822116   -2.3177552    1.5452418   439061 
 2263000    1.0330574   -2.3214877   -2.3214877  -0.77190511   0.18959139   -2.3214877    1.5495826   439061 
 2264000    1.0300627   -2.3187446   -2.3187446  -0.77365403   0.18068384   -2.3187446    1.5450905   439061 
 2265000     1.030534   -2.3193741   -2.3193741  -0.77357663   0.17771088   -2.3193741    1.5457974   439061 
 2266000    1.0309056   -2.3204683   -2.3204683  -0.77411336   0.18415853   -2.3204683    1.5463549   439061 
 2267000    1.0286646    -2.316606    -2.316606  -0.77361256   0.18280233    -2.316606    1.5429934   439061 
 2268000     1.030806   -2.3185281   -2.3185281  -0.77232269   0.17779165   -2.3185281    1.5462054   439061 
 2269000    1.0300009   -2.3172969   -2.3172969  -0.77229908   0.18383413   -2.3172969    1.5449978   439061 
 2270000    1.0310818    -2.319644    -2.319644  -0.77302473   0.18621645    -2.319644    1.5466193   439061 
 2271000    1.0310513   -2.3186777   -2.3186777  -0.77210426   0.18021288   -2.3186777    1.5465734   439061 
 2272000    1.0320382    -2.319905    -2.319905  -0.77185121   0.18960113    -2.319905    1.5480538   439061 
 2273000    1.0288716   -2.3160607   -2.3160607  -0.77275683   0.18936767   -2.3160607    1.5433038   439061 
 2274000    1.0310754   -2.3194114   -2.3194114  -0.77280177   0.18143672   -2.3194114    1.5466096   439061 
 2275000    1.0296362   -2.3173154   -2.3173154  -0.77286461   0.18032372   -2.3173154    1.5444508   439061 
 2276000    1.0303068   -2.3185573   -2.3185573  -0.77310066   0.18218956   -2.3185573    1.5454566   439061 
 2277000    1.0306715   -2.3187567   -2.3187567  -0.77275295   0.18764731   -2.3187567    1.5460038   439061 
 2278000    1.0291322   -2.3156243   -2.3156243  -0.77192943   0.18613151   -2.3156243    1.5436948   439061 
 2279000    1.0315443   -2.3190456   -2.3190456  -0.77173274   0.18467145   -2.3190456    1.5473129   439061 
 2280000    1.0307433   -2.3189381   -2.3189381   -0.7728267   0.18189032   -2.3189381    1.5461114   439061 
 2281000    1.0301264   -2.3193859   -2.3193859  -0.77419977   0.18335385   -2.3193859    1.5451861   439061 
 2282000    1.0306581    -2.319408    -2.319408  -0.77342435   0.18334332    -2.319408    1.5459837   439061 
 2283000    1.0307146   -2.3187459   -2.3187459  -0.77267748   0.18179411   -2.3187459    1.5460684   439061 
 2284000    1.0301959   -2.3187732   -2.3187732  -0.77348292   0.18274603   -2.3187732    1.5452903   439061 
 2285000    1.0307558   -2.3198055   -2.3198055  -0.77367531   0.18724464   -2.3198055    1.5461302   439061 
 2286000    1.0292133   -2.3191575   -2.3191575    -0.775341   0.18515704   -2.3191575    1.5438165   439061 
 2287000    1.0282184   -2.3181755   -2.3181755  -0.77585143   0.18326153   -2.3181755    1.5423241   439061 
 2288000    1.0298729   -2.3200087   -2.3200087  -0.77520289   0.18495281   -2.3200087    1.5448059   439061 
 2289000     1.028713   -2.3189812   -2.3189812  -0.77591513   0.18538964   -2.3189812     1.543066   439061 
 2290000    1.0294385   -2.3194689   -2.3194689  -0.77531474    0.1848591   -2.3194689    1.5441542   439061 
 2291000    1.0285002   -2.3185323   -2.3185323  -0.77578551   0.18454537   -2.3185323    1.5427468   439061 
 2292000    1.0290567   -2.3193361   -2.3193361  -0.77575458    0.1855728   -2.3193361    1.5435815   439061 
 2293000    1.0301119   -2.3198984   -2.3198984  -0.77473404   0.18344978   -2.3198984    1.5451643   439061 
 2294000    1.0303116   -2.3202805   -2.3202805  -0.77481658   0.17957182   -2.3202805    1.5454639   439061 
 2295000    1.0284869    -2.318197    -2.318197  -0.77547015   0.18185812    -2.318197    1.5427269   439061 
 2296000    1.0294657    -2.319696    -2.319696   -0.7755009   0.18272994    -2.319696    1.5441951   439061 
 2297000    1.0308578   -2.3231582   -2.3231582  -0.77687505   0.18128378   -2.3231582    1.5462832   439061 
 2298000    1.0302767   -2.3209617   -2.3209617  -0.77555022   0.18104417   -2.3209617    1.5454115   439061 
 2299000    1.0296039    -2.319839    -2.319839  -0.77543672   0.18003406    -2.319839    1.5444023   439061 
 2300000    1.0298359   -2.3206792   -2.3206792   -0.7759288   0.18524629   -2.3206792    1.5447504   439061 
 2301000    1.0302297   -2.3202004   -2.3202004  -0.77485935   0.18482881   -2.3202004    1.5453411   439061 
 2302000    1.0302877   -2.3196126   -2.3196126  -0.77418448   0.18417029   -2.3196126    1.5454281   439061 
 2303000    1.0304448   -2.3198165   -2.3198165  -0.77415281   0.18103715   -2.3198165    1.5456637   439061 
 2304000    1.0297007    -2.318121    -2.318121  -0.77357356   0.18788911    -2.318121    1.5445475   439061 
 2305000    1.0291426   -2.3182524   -2.3182524  -0.77454206   0.19019371   -2.3182524    1.5437104   439061 
 2306000    1.0307226   -2.3211081   -2.3211081  -0.77502765   0.17940626   -2.3211081    1.5460804   439061 
 2307000    1.0302072    -2.320343    -2.320343  -0.77503567   0.18216171    -2.320343    1.5453073   439061 
 2308000    1.0288151   -2.3188206   -2.3188206  -0.77560146   0.18475632   -2.3188206    1.5432191   439061 
 2309000     1.028831   -2.3191814   -2.3191814  -0.77593844   0.18737226   -2.3191814     1.543243   439061 
 2310000    1.0295218   -2.3196271   -2.3196271  -0.77534799   0.17971886   -2.3196271    1.5442791   439061 
 2311000    1.0292106   -2.3196535   -2.3196535   -0.7758411   0.17948457   -2.3196535    1.5438124   439061 
 2312000    1.0288081   -2.3200196   -2.3200196  -0.77681094   0.18198996   -2.3200196    1.5432086   439061 
 2313000    1.0280523   -2.3171415   -2.3171415  -0.77506655   0.18879221   -2.3171415    1.5420749   439061 
 2314000    1.0292156    -2.320085    -2.320085  -0.77626508   0.18338841    -2.320085    1.5438199   439061 
 2315000    1.0300946   -2.3221778   -2.3221778  -0.77703941   0.18129396   -2.3221778    1.5451384   439061 
 2316000      1.02913   -2.3203458   -2.3203458  -0.77665432   0.17899909   -2.3203458    1.5436915   439061 
 2317000    1.0297137   -2.3207924   -2.3207924  -0.77622527    0.1852606   -2.3207924    1.5445671   439061 
 2318000    1.0303087   -2.3207452   -2.3207452  -0.77528563   0.18593079   -2.3207452    1.5454596   439061 
 2319000    1.0287502   -2.3193693   -2.3193693  -0.77624745   0.18308443   -2.3193693    1.5431218   439061 
 2320000    1.0302208   -2.3196091   -2.3196091  -0.77428147   0.18304066   -2.3196091    1.5453276   439061 
 2321000    1.0293458    -2.318758    -2.318758  -0.77474283   0.18902687    -2.318758    1.5440151   439061 
 2322000    1.0302241   -2.3188404   -2.3188404  -0.77350774   0.17948946   -2.3188404    1.5453327   439061 
 2323000    1.0306713   -2.3187259   -2.3187259  -0.77272239   0.18395777   -2.3187259    1.5460035   439061 
 2324000    1.0309603   -2.3185896   -2.3185896  -0.77215263   0.18409555   -2.3185896     1.546437   439061 
 2325000    1.0298375   -2.3171382   -2.3171382  -0.77238549   0.18733822   -2.3171382    1.5447527   439061 
 2326000    1.0306896   -2.3176921   -2.3176921  -0.77166123   0.18707262   -2.3176921    1.5460309   439061 
 2327000    1.0305555    -2.320207    -2.320207  -0.77437722   0.18805861    -2.320207    1.5458298   439061 
 2328000    1.0303931   -2.3192342   -2.3192342  -0.77364817   0.18730787   -2.3192342    1.5455861   439061 
 2329000     1.029973   -2.3168482   -2.3168482   -0.7718923   0.18976589   -2.3168482    1.5449559   439061 
 2330000    1.0295282   -2.3174397   -2.3174397  -0.77315092   0.18727642   -2.3174397    1.5442888   439061 
 2331000    1.0322009   -2.3214114   -2.3214114  -0.77311364   0.18676443   -2.3214114    1.5482978   439061 
 2332000     1.031158   -2.3198654   -2.3198654  -0.77313189   0.18140379   -2.3198654    1.5467335   439061 
 2333000     1.032367   -2.3211249   -2.3211249  -0.77257789   0.18361765   -2.3211249     1.548547   439061 
 2334000    1.0304583   -2.3186141   -2.3186141  -0.77293015   0.18402258   -2.3186141     1.545684   439061 
 2335000    1.0298378   -2.3177192   -2.3177192    -0.772966   0.18235647   -2.3177192    1.5447532   439061 
 2336000    1.0289845   -2.3158124   -2.3158124  -0.77233911   0.19111609   -2.3158124    1.5434732   439061 
 2337000    1.0308946   -2.3184104   -2.3184104  -0.77207198   0.18448712   -2.3184104    1.5463384   439061 
 2338000    1.0314434   -2.3174969   -2.3174969  -0.77033541   0.18361504   -2.3174969    1.5471615   439061 
 2339000    1.0307794   -2.3174439   -2.3174439  -0.77127832   0.18751927   -2.3174439    1.5461656   439061 
 2340000    1.0308645   -2.3175237   -2.3175237  -0.77123055   0.18321219   -2.3175237    1.5462932   439061 
 2341000    1.0320133   -2.3193545   -2.3193545  -0.77133805   0.18692708   -2.3193545    1.5480165   439061 
 2342000    1.0310423   -2.3175773   -2.3175773  -0.77101744    0.1862201   -2.3175773    1.5465599   439061 
 2343000    1.0299858   -2.3166995   -2.3166995  -0.77172437    0.1888834   -2.3166995    1.5449752   439061 
 2344000    1.0311899   -2.3172991   -2.3172991  -0.77051776   0.18812655   -2.3172991    1.5467814   439061 
 2345000    1.0298426   -2.3164513   -2.3164513  -0.77169091   0.19027034   -2.3164513    1.5447604   439061 
 2346000    1.0313422    -2.318995    -2.318995  -0.77198531     0.183381    -2.318995    1.5470097   439061 
 2347000    1.0319384   -2.3184256   -2.3184256  -0.77052156    0.1853507   -2.3184256    1.5479041   439061 
 2348000    1.0299789   -2.3179226   -2.3179226  -0.77295778   0.18525714   -2.3179226    1.5449648   439061 
 2349000    1.0307837   -2.3179363   -2.3179363  -0.77176434   0.18578611   -2.3179363     1.546172   439061 
 2350000    1.0307456   -2.3179943   -2.3179943  -0.77187946   0.18224143   -2.3179943    1.5461148   439061 
 2351000    1.0294857   -2.3175546   -2.3175546  -0.77332964   0.18495746   -2.3175546     1.544225   439061 
 2352000    1.0297462   -2.3184309   -2.3184309  -0.77381522   0.18344204   -2.3184309    1.5446157   439061 
 2353000    1.0298462   -2.3175141   -2.3175141   -0.7727483   0.18288819   -2.3175141    1.5447658   439061 
 2354000    1.0294248   -2.3167776   -2.3167776  -0.77264396   0.18406411   -2.3167776    1.5441337   439061 
 2355000    1.0298425   -2.3178449   -2.3178449  -0.77308465   0.18337455   -2.3178449    1.5447603   439061 
 2356000    1.0297733   -2.3179909   -2.3179909  -0.77333439   0.18631158   -2.3179909    1.5446565   439061 
 2357000    1.0296763   -2.3177434   -2.3177434  -0.77323237   0.18499012   -2.3177434     1.544511   439061 
 2358000    1.0291181    -2.315949    -2.315949  -0.77227538   0.18704304    -2.315949    1.5436736   439061 
 2359000    1.0302106   -2.3179805   -2.3179805  -0.77266804   0.18595076   -2.3179805    1.5453124   439061 
 2360000    1.0303626   -2.3179135   -2.3179135   -0.7723731   0.18453341   -2.3179135    1.5455404   439061 
 2361000    1.0304593   -2.3185166   -2.3185166  -0.77283115   0.18347453   -2.3185166    1.5456854   439061 
 2362000    1.0302751   -2.3187637   -2.3187637   -0.7733546   0.18461327   -2.3187637    1.5454091   439061 
 2363000    1.0296298    -2.317258    -2.317258  -0.77281686   0.18279064    -2.317258    1.5444412   439061 
 2364000    1.0303204   -2.3178622   -2.3178622  -0.77238512   0.18634129   -2.3178622    1.5454771   439061 
 2365000    1.0315522   -2.3197025   -2.3197025  -0.77237771   0.18279085   -2.3197025    1.5473248   439061 
 2366000    1.0307389   -2.3187628   -2.3187628  -0.77265796   0.18721015   -2.3187628    1.5461048   439061 
 2367000    1.0319202   -2.3201565   -2.3201565  -0.77227971   0.18395055   -2.3201565    1.5478768   439061 
 2368000    1.0296883   -2.3168622   -2.3168622  -0.77233324   0.18278028   -2.3168622     1.544529   439061 
 2369000     1.030758   -2.3183774   -2.3183774  -0.77224391   0.18555807   -2.3183774    1.5461334   439061 
 2370000     1.030685   -2.3188368   -2.3188368  -0.77281289   0.18256012   -2.3188368    1.5460239   439061 
 2371000    1.0305944   -2.3187962   -2.3187962  -0.77290803   0.18480283   -2.3187962    1.5458881   439061 
 2372000    1.0294254   -2.3185816   -2.3185816  -0.77444698   0.18573728   -2.3185816    1.5441346   439061 
 2373000    1.0297931   -2.3181354   -2.3181354  -0.77344933   0.18355375   -2.3181354    1.5446861   439061 
 2374000    1.0303727   -2.3194182   -2.3194182  -0.77386263   0.18570824   -2.3194182    1.5455556   439061 
 2375000    1.0286387   -2.3176925   -2.3176925  -0.77473796   0.18386044   -2.3176925    1.5429545   439061 
 2376000    1.0299395   -2.3205678   -2.3205678  -0.77566203    0.1799015   -2.3205678    1.5449058   439061 
 2377000    1.0286648   -2.3176435   -2.3176435  -0.77464987   0.18793294   -2.3176435    1.5429936   439061 
 2378000    1.0293082   -2.3187685   -2.3187685  -0.77480973   0.18237016   -2.3187685    1.5439587   439061 
 2379000    1.0297466   -2.3195624   -2.3195624  -0.77494593    0.1799785   -2.3195624    1.5446164   439061 
 2380000    1.0285679   -2.3184542   -2.3184542  -0.77560586   0.18474528   -2.3184542    1.5428483   439061 
 2381000     1.029375   -2.3185305   -2.3185305  -0.77447151   0.18982254   -2.3185305     1.544059   439061 
 2382000    1.0298198   -2.3190122   -2.3190122  -0.77428601   0.18220703   -2.3190122    1.5447262   439061 
 2383000    1.0290029   -2.3167242   -2.3167242  -0.77322339   0.18869727   -2.3167242    1.5435008   439061 
 2384000    1.0294233   -2.3191646   -2.3191646  -0.77503309   0.18160911   -2.3191646    1.5441315   439061 
 2385000    1.0297557   -2.3196202   -2.3196202   -0.7749902   0.18096551   -2.3196202      1.54463   439061 
 2386000    1.0298739   -2.3181389   -2.3181389  -0.77333152   0.18600725   -2.3181389    1.5448074   439061 
 2387000    1.0300038   -2.3197215   -2.3197215  -0.77471928   0.18606763   -2.3197215    1.5450022   439061 
 2388000    1.0307127   -2.3198207   -2.3198207  -0.77375521   0.18193633   -2.3198207    1.5460655   439061 
 2389000    1.0284866   -2.3169909   -2.3169909  -0.77426455   0.18947746   -2.3169909    1.5427264   439061 
 2390000    1.0299671   -2.3184667   -2.3184667  -0.77351961   0.18119791   -2.3184667    1.5449471   439061 
 2391000    1.0297714   -2.3186436   -2.3186436  -0.77399003   0.17966309   -2.3186436    1.5446535   439061 
 2392000    1.0296572    -2.318031    -2.318031  -0.77354869   0.18493645    -2.318031    1.5444823   439061 
 2393000    1.0308391   -2.3206541   -2.3206541  -0.77439886   0.18135607   -2.3206541    1.5462552   439061 
 2394000    1.0292596   -2.3184832   -2.3184832  -0.77459737   0.18005287   -2.3184832    1.5438858   439061 
 2395000     1.030219    -2.319733    -2.319733  -0.77440812    0.1838565    -2.319733    1.5453249   439061 
 2396000    1.0293948   -2.3188472   -2.3188472  -0.77475842   0.18073757   -2.3188472    1.5440887   439061 
 2397000     1.028131   -2.3168743   -2.3168743  -0.77468139   0.18648407   -2.3168743     1.542193   439061 
 2398000    1.0290029   -2.3179644   -2.3179644  -0.77446364   0.18135377   -2.3179644    1.5435008   439061 
 2399000    1.0314232   -2.3222386   -2.3222386  -0.77510727   0.18168054   -2.3222386    1.5471313   439061 
 2400000    1.0299403   -2.3197568   -2.3197568  -0.77484993    0.1820727   -2.3197568    1.5449069   439061 
 2401000    1.0299292   -2.3196786   -2.3196786  -0.77478838   0.18230391   -2.3196786    1.5448902   439061 
 2402000    1.0292837   -2.3193975   -2.3193975  -0.77547548   0.18343537   -2.3193975     1.543922   439061 
 2403000     1.028728   -2.3190265   -2.3190265  -0.77593794    0.1838999   -2.3190265    1.5430885   439061 
 2404000    1.0281473   -2.3169265   -2.3169265  -0.77470905   0.18279761   -2.3169265    1.5422174   439061 
 2405000    1.0287549   -2.3181019   -2.3181019   -0.7749731   0.18157277   -2.3181019    1.5431288   439061 
 2406000    1.0283671   -2.3172236   -2.3172236  -0.77467653   0.18961702   -2.3172236    1.5425471   439061 
 2407000    1.0286437   -2.3186332   -2.3186332   -0.7756711    0.1858792   -2.3186332    1.5429621   439061 
 2408000    1.0278606   -2.3183488   -2.3183488  -0.77656136   0.18382787   -2.3183488    1.5417874   439061 
 2409000    1.0283244   -2.3193235   -2.3193235  -0.77684039   0.18230003   -2.3193235    1.5424832   439061 
 2410000    1.0286225   -2.3202008   -2.3202008   -0.7772706   0.18214448   -2.3202008    1.5429302   439061 
 2411000    1.0290437   -2.3195172   -2.3195172   -0.7759552   0.18421841   -2.3195172     1.543562   439061 
 2412000    1.0305484   -2.3207867   -2.3207867  -0.77496768   0.18515162   -2.3207867     1.545819   439061 
 2413000    1.0288848   -2.3194259   -2.3194259  -0.77610214   0.18075692   -2.3194259    1.5433238   439061 
 2414000    1.0298089   -2.3194922   -2.3194922  -0.77478239    0.1867117   -2.3194922    1.5447098   439061 
 2415000    1.0283726   -2.3176389   -2.3176389  -0.77508347    0.1828755   -2.3176389    1.5425554   439061 
 2416000    1.0270291   -2.3159583   -2.3159583  -0.77541822   0.18465645   -2.3159583    1.5405401   439061 
 2417000    1.0279837   -2.3173289   -2.3173289  -0.77535695   0.18222264   -2.3173289     1.541972   439061 
 2418000    1.0291739   -2.3188493   -2.3188493  -0.77509198   0.18253543   -2.3188493    1.5437573   439061 
 2419000    1.0286948   -2.3177049   -2.3177049  -0.77466613   0.18719601   -2.3177049    1.5430387   439061 
 2420000    1.0288726   -2.3193794   -2.3193794  -0.77607406   0.18283869   -2.3193794    1.5433053   439061 
 2421000    1.0281905    -2.318964    -2.318964  -0.77668181   0.18113527    -2.318964    1.5422822   439061 
 2422000    1.0276092   -2.3185835   -2.3185835  -0.77717312   0.18008542   -2.3185835    1.5414103   439061 
 2423000    1.0291229   -2.3208366   -2.3208366  -0.77715571   0.17758184   -2.3208366    1.5436809   439061 
 2424000    1.0280399   -2.3192511   -2.3192511   -0.7771948   0.17871508   -2.3192511    1.5420563   439061 
 2425000    1.0277151   -2.3176234   -2.3176234  -0.77605427   0.17918345   -2.3176234    1.5415691   439061 
 2426000     1.027594   -2.3173796   -2.3173796  -0.77599204   0.18136791   -2.3173796    1.5413875   439061 
 2427000    1.0295466   -2.3194638   -2.3194638  -0.77514735    0.1865002   -2.3194638    1.5443164   439061 
 2428000    1.0289887   -2.3191715   -2.3191715  -0.77569196   0.18730091   -2.3191715    1.5434795   439061 
 2429000    1.0298963   -2.3197715   -2.3197715  -0.77493056    0.1843422   -2.3197715    1.5448409   439061 
 2430000    1.0293611   -2.3179641   -2.3179641    -0.773926   0.18137293   -2.3179641    1.5440381   439061 
 2431000    1.0278166   -2.3179492   -2.3179492  -0.77622777   0.18503984   -2.3179492    1.5417214   439061 
 2432000    1.0280572   -2.3180167   -2.3180167  -0.77593438   0.18121345   -2.3180167    1.5420823   439061 
 2433000    1.0295758   -2.3192547   -2.3192547  -0.77489444   0.18093276   -2.3192547    1.5443603   439061 
 2434000    1.0298071   -2.3191707   -2.3191707  -0.77446357   0.18336252   -2.3191707    1.5447072   439061 
 2435000    1.0289622   -2.3168377   -2.3168377  -0.77339781   0.18706738   -2.3168377    1.5434399   439061 
 2436000    1.0300382   -2.3192726   -2.3192726  -0.77421884   0.18314247   -2.3192726    1.5450538   439061 
 2437000    1.0285647   -2.3181865   -2.3181865  -0.77534298   0.18318058   -2.3181865    1.5428435   439061 
 2438000    1.0288137   -2.3188227   -2.3188227  -0.77560565   0.18081928   -2.3188227     1.543217   439061 
 2439000    1.0309706   -2.3196344   -2.3196344  -0.77318195    0.1826131   -2.3196344    1.5464524   439061 
 2440000    1.0285853   -2.3173549   -2.3173549  -0.77448053   0.18262183   -2.3173549    1.5428744   439061 
 2441000    1.0292728   -2.3167395   -2.3167395  -0.77283385   0.18435649   -2.3167395    1.5439056   439061 
 2442000    1.0294557   -2.3178074   -2.3178074  -0.77362742   0.18319757   -2.3178074      1.54418   439061 
 2443000    1.0294395   -2.3168198   -2.3168198  -0.77266416   0.18306369   -2.3168198    1.5441557   439061 
 2444000    1.0293536   -2.3171193   -2.3171193  -0.77309238   0.18031632   -2.3171193     1.544027   439061 
 2445000    1.0304058   -2.3183918   -2.3183918   -0.7727866   0.18403234   -2.3183918    1.5456052   439061 
 2446000    1.0291289   -2.3166989   -2.3166989  -0.77300898   0.18654583   -2.3166989    1.5436899   439061 
 2447000    1.0298212   -2.3177783   -2.3177783  -0.77305002   0.18755067   -2.3177783    1.5447283   439061 
 2448000    1.0303004   -2.3187773   -2.3187773  -0.77333027   0.18071369   -2.3187773     1.545447   439061 
 2449000    1.0293988     -2.31638     -2.31638  -0.77228529   0.18398261     -2.31638    1.5440947   439061 
 2450000    1.0316115    -2.319912    -2.319912   -0.7724982   0.18109127    -2.319912    1.5474138   439061 
 2451000    1.0307635   -2.3194308   -2.3194308  -0.77328905   0.18290097   -2.3194308    1.5461418   439061 
 2452000    1.0298212   -2.3165828   -2.3165828  -0.77185442   0.18262489   -2.3165828    1.5447283   439061 
 2453000    1.0295104   -2.3152382   -2.3152382   -0.7709761   0.18817439   -2.3152382    1.5442621   439061 
 2454000    1.0301648   -2.3165116   -2.3165116  -0.77126796   0.18482624   -2.3165116    1.5452437   439061 
 2455000    1.0310999   -2.3174071   -2.3174071  -0.77076073   0.18422649   -2.3174071    1.5466464   439061 
 2456000    1.0312916   -2.3181051   -2.3181051  -0.77117114   0.18606526   -2.3181051    1.5469339   439061 
 2457000     1.031097   -2.3163277   -2.3163277  -0.76968566   0.18231397   -2.3163277     1.546642   439061 
 2458000    1.0313037   -2.3168544   -2.3168544  -0.76990235   0.18291521   -2.3168544    1.5469521   439061 
 2459000    1.0303022   -2.3156239   -2.3156239  -0.77017418   0.18252909   -2.3156239    1.5454498   439061 
 2460000    1.0312146    -2.317251    -2.317251  -0.77043259   0.18185925    -2.317251    1.5468184   439061 
 2461000    1.0299953   -2.3162802   -2.3162802  -0.77129086   0.18955746   -2.3162802    1.5449894   439061 
 2462000    1.0299363   -2.3150646   -2.3150646  -0.77016365   0.17968561   -2.3150646     1.544901   439061 
 2463000    1.0324167   -2.3182364   -2.3182364  -0.76961487   0.18396653   -2.3182364    1.5486216   439061 
 2464000    1.0301032    -2.314411    -2.314411  -0.76925971   0.18976502    -2.314411    1.5451513   439061 
 2465000    1.0309795    -2.316034    -2.316034   -0.7695683   0.18671765    -2.316034    1.5464657   439061 
 2466000    1.0301147   -2.3166168   -2.3166168  -0.77144825   0.18942217   -2.3166168    1.5451685   439061 
 2467000     1.030726   -2.3180923   -2.3180923  -0.77200674   0.18448141   -2.3180923    1.5460856   439061 
 2468000    1.0291742   -2.3158135   -2.3158135  -0.77205576   0.18538447   -2.3158135    1.5437578   439061 
 2469000    1.0298651   -2.3175525   -2.3175525  -0.77275834    0.1823813   -2.3175525    1.5447941   439061 
 2470000    1.0308449   -2.3195005   -2.3195005  -0.77323675   0.18566069   -2.3195005    1.5462638   439061 
 2471000    1.0280089   -2.3151007   -2.3151007  -0.77309083   0.18332088   -2.3151007    1.5420099   439061 
 2472000    1.0312595   -2.3185334   -2.3185334  -0.77164767   0.17796645   -2.3185334    1.5468858   439061 
 2473000    1.0293907    -2.316176    -2.316176  -0.77209342   0.18641829    -2.316176    1.5440826   439061 
 2474000    1.0290369    -2.315802    -2.315802  -0.77225007   0.18506362    -2.315802    1.5435519   439061 
 2475000    1.0292048   -2.3170915   -2.3170915  -0.77328785   0.18395785   -2.3170915    1.5438036   439061 
 2476000     1.029459   -2.3180388   -2.3180388  -0.77385379   0.18114012   -2.3180388     1.544185   439061 
 2477000    1.0285362   -2.3168238   -2.3168238  -0.77402307   0.18367704   -2.3168238    1.5428007   439061 
 2478000     1.029773   -2.3181733   -2.3181733  -0.77351737   0.18226622   -2.3181733     1.544656   439061 
 2479000    1.0298191   -2.3184914   -2.3184914  -0.77376622   0.17926907   -2.3184914    1.5447252   439061 
 2480000     1.029446   -2.3187801   -2.3187801   -0.7746146   0.18698909   -2.3187801    1.5441655   439061 
 2481000    1.0290032   -2.3169002   -2.3169002  -0.77339888   0.18668118   -2.3169002    1.5435013   439061 
 2482000    1.0295825   -2.3188451   -2.3188451  -0.77447482   0.18121064   -2.3188451    1.5443703   439061 
 2483000    1.0288404   -2.3179188   -2.3179188  -0.77466178   0.18516565   -2.3179188    1.5432571   439061 
 2484000    1.0294506   -2.3190407   -2.3190407  -0.77486841   0.18453665   -2.3190407    1.5441723   439061 
 2485000    1.0286868   -2.3172036   -2.3172036  -0.77417682   0.18667241   -2.3172036    1.5430267   439061 
 2486000    1.0287761   -2.3172866   -2.3172866  -0.77412597    0.1837922   -2.3172866    1.5431606   439061 
 2487000    1.0286001   -2.3185255   -2.3185255  -0.77562893   0.18394042   -2.3185255    1.5428966   439061 
 2488000    1.0294027   -2.3197397   -2.3197397  -0.77563915    0.1817226   -2.3197397    1.5441006   439061 
 2489000    1.0275874    -2.317956    -2.317956  -0.77657846   0.18068505    -2.317956    1.5413775   439061 
 2490000    1.0286982   -2.3196478   -2.3196478  -0.77660399   0.18543928   -2.3196478    1.5430438   439061 
 2491000     1.030631   -2.3216077   -2.3216077   -0.7756647   0.18142247   -2.3216077     1.545943   439061 
 2492000    1.0279047   -2.3171899   -2.3171899  -0.77533639   0.18203227   -2.3171899    1.5418535   439061 
 2493000    1.0296845   -2.3201785   -2.3201785  -0.77565526   0.18334085   -2.3201785    1.5445232   439061 
 2494000    1.0268444   -2.3184173   -2.3184173  -0.77815424   0.18224063   -2.3184173    1.5402631   439061 
 2495000    1.0266628   -2.3188263   -2.3188263  -0.77883562   0.18268895   -2.3188263    1.5399907   439061 
 2496000    1.0273785   -2.3185598   -2.3185598  -0.77749552   0.17878999   -2.3185598    1.5410643   439061 
 2497000    1.0265562   -2.3179169   -2.3179169  -0.77808605   0.18274276   -2.3179169    1.5398308   439061 
 2498000    1.0288379   -2.3205941   -2.3205941  -0.77734077   0.18489214   -2.3205941    1.5432533   439061 
 2499000    1.0288768   -2.3208599   -2.3208599  -0.77754822   0.18404858   -2.3208599    1.5433117   439061 
 2500000    1.0274362   -2.3186468   -2.3186468  -0.77749598   0.18178969   -2.3186468    1.5411508   439061 
 2501000    1.0288668   -2.3206724   -2.3206724   -0.7773757   0.18031999   -2.3206724    1.5432967   439061 
 2502000    1.0274338   -2.3186261   -2.3186261  -0.77747883   0.18285729   -2.3186261    1.5411472   439061 
 2503000    1.0291681   -2.3205996   -2.3205996  -0.77685092   0.18344329   -2.3205996    1.5437486   439061 
 2504000    1.0303789   -2.3219422   -2.3219422  -0.77637733   0.18414196   -2.3219422    1.5455649   439061 
 2505000    1.0298632   -2.3209224   -2.3209224  -0.77613119   0.18078127   -2.3209224    1.5447912   439061 
 2506000    1.0286406   -2.3197374   -2.3197374     -0.77678   0.18556606   -2.3197374    1.5429574   439061 
 2507000    1.0303614   -2.3215246   -2.3215246  -0.77598601   0.18267971   -2.3215246    1.5455386   439061 
 2508000    1.0277144   -2.3193212   -2.3193212  -0.77775315    0.1794836   -2.3193212     1.541568   439061 
 2509000    1.0286101   -2.3210853   -2.3210853  -0.77817368   0.18409692   -2.3210853    1.5429116   439061 
 2510000    1.0281958     -2.32012     -2.32012  -0.77782981   0.18335658     -2.32012    1.5422902   439061 
 2511000    1.0271708   -2.3189934   -2.3189934  -0.77824073   0.18029816   -2.3189934    1.5407526   439061 
 2512000    1.0278788   -2.3192566   -2.3192566  -0.77744185   0.18198518   -2.3192566    1.5418147   439061 
 2513000    1.0283397   -2.3196668   -2.3196668  -0.77716083   0.18722882   -2.3196668     1.542506   439061 
 2514000     1.029032   -2.3204145   -2.3204145  -0.77687004    0.1789458   -2.3204145    1.5435445   439061 
 2515000    1.0281108   -2.3187841   -2.3187841  -0.77662144   0.18146282   -2.3187841    1.5421627   439061 
 2516000    1.0275146   -2.3164445   -2.3164445   -0.7751761   0.18043265   -2.3164445    1.5412684   439061 
 2517000    1.0277661   -2.3182372   -2.3182372  -0.77659145   0.17911088   -2.3182372    1.5416457   439061 
 2518000    1.0279098   -2.3200858   -2.3200858  -0.77822466   0.18150752   -2.3200858    1.5418612   439061 
 2519000    1.0261168   -2.3181927   -2.3181927  -0.77902092   0.18089172   -2.3181927    1.5391718   439061 
 2520000    1.0274322   -2.3196898   -2.3196898  -0.77854493   0.17921109   -2.3196898    1.5411448   439061 
 2521000    1.0271108    -2.319306    -2.319306  -0.77864331   0.18542931    -2.319306    1.5406627   439061 
 2522000    1.0273985   -2.3199629   -2.3199629  -0.77886871   0.18105401   -2.3199629    1.5410942   439061 
 2523000    1.0270903   -2.3196116   -2.3196116  -0.77897968   0.17907424   -2.3196116    1.5406319   439061 
 2524000    1.0256962    -2.318799    -2.318799  -0.78025823   0.18239047    -2.318799    1.5385408   439061 
 2525000    1.0270283   -2.3205181   -2.3205181  -0.77997907   0.18199267   -2.3205181     1.540539   439061 
 2526000    1.0272803    -2.319493    -2.319493  -0.77857603   0.18493114    -2.319493    1.5409169   439061 
 2527000     1.026548   -2.3175537   -2.3175537  -0.77773518   0.18068546   -2.3175537    1.5398185   439061 
 2528000    1.0283098   -2.3201079   -2.3201079   -0.7776467   0.18759554   -2.3201079    1.5424612   439061 
 2529000    1.0278041   -2.3177927   -2.3177927  -0.77609005   0.18288128   -2.3177927    1.5417026   439061 
 2530000    1.0264065   -2.3174331   -2.3174331  -0.77782694   0.18331266   -2.3174331    1.5396062   439061 
 2531000    1.0301075   -2.3226625   -2.3226625  -0.77750475   0.18466286   -2.3226625    1.5451577   439061 
 2532000    1.0280434   -2.3190677   -2.3190677  -0.77700615   0.17820696   -2.3190677    1.5420616   439061 
 2533000    1.0273153    -2.318842    -2.318842  -0.77787265   0.18170853    -2.318842    1.5409694   439061 
 2534000    1.0289044   -2.3204551   -2.3204551  -0.77710198   0.18764358   -2.3204551    1.5433531   439061 
 2535000    1.0284023   -2.3208895   -2.3208895  -0.77828956   0.18469495   -2.3208895       1.5426   439061 
 2536000    1.0295503   -2.3223052   -2.3223052  -0.77798334   0.18097989   -2.3223052    1.5443219   439061 
 2537000    1.0271083   -2.3198259   -2.3198259  -0.77916693   0.18471553   -2.3198259     1.540659   439061 
 2538000    1.0278683   -2.3216691   -2.3216691  -0.77987019   0.17913355   -2.3216691    1.5417989   439061 
 2539000    1.0275625   -2.3206555   -2.3206555  -0.77931529   0.18223256   -2.3206555    1.5413402   439061 
 2540000    1.0270138   -2.3200245   -2.3200245  -0.77950729   0.18398102   -2.3200245    1.5405172   439061 
 2541000    1.0281406    -2.321277    -2.321277  -0.77906965   0.18383719    -2.321277    1.5422074   439061 
 2542000    1.0266237   -2.3205964   -2.3205964  -0.78066437   0.17740719   -2.3205964     1.539932   439061 
 2543000    1.0284283   -2.3216463   -2.3216463  -0.77900733   0.17735466   -2.3216463    1.5426389   439061 
 2544000    1.0258919   -2.3174833   -2.3174833  -0.77864895    0.1837437   -2.3174833    1.5388344   439061 
 2545000    1.0278688   -2.3205511   -2.3205511  -0.77875148   0.17880464   -2.3205511    1.5417996   439061 
 2546000    1.0262373   -2.3181415   -2.3181415  -0.77878912   0.18138985   -2.3181415    1.5393524   439061 
 2547000    1.0277591   -2.3194285   -2.3194285  -0.77779333   0.18353401   -2.3194285    1.5416351   439061 
 2548000    1.0280392   -2.3202969   -2.3202969  -0.77824157   0.17825065   -2.3202969    1.5420553   439061 
 2549000    1.0281318   -2.3211708   -2.3211708  -0.77897656   0.18608493   -2.3211708    1.5421942   439061 
 2550000    1.0280988    -2.320284    -2.320284  -0.77813931    0.1779542    -2.320284    1.5421447   439061 
 2551000    1.0293669   -2.3218512   -2.3218512  -0.77780432   0.18280496   -2.3218512    1.5440468   439061 
 2552000    1.0284277   -2.3200006   -2.3200006  -0.77736254    0.1825838   -2.3200006    1.5426381   439061 
 2553000    1.0272787   -2.3175008   -2.3175008  -0.77658633    0.1804974   -2.3175008    1.5409145   439061 
 2554000    1.0275064   -2.3182606   -2.3182606  -0.77700455   0.18159519   -2.3182606    1.5412561   439061 
 2555000    1.0250521   -2.3151317   -2.3151317  -0.77755708   0.18133439   -2.3151317    1.5375746   439061 
 2556000    1.0266728   -2.3160204   -2.3160204  -0.77601462   0.18374604   -2.3160204    1.5400057   439061 
 2557000    1.0276013   -2.3166726   -2.3166726   -0.7752742   0.18574238   -2.3166726    1.5413984   439061 
 2558000     1.027361   -2.3165886   -2.3165886  -0.77555057   0.18265066   -2.3165886     1.541038   439061 
 2559000    1.0287583   -2.3182204   -2.3182204  -0.77508637   0.18051653   -2.3182204     1.543134   439061 
 2560000    1.0277113   -2.3164805   -2.3164805  -0.77491695   0.18314407   -2.3164805    1.5415635   439061 
 2561000    1.0275918     -2.31643     -2.31643  -0.77504575   0.17946338     -2.31643    1.5413842   439061 
 2562000    1.0280221   -2.3178056   -2.3178056  -0.77577596   0.18242423   -2.3178056    1.5420296   439061 
 2563000    1.0270275   -2.3179033   -2.3179033  -0.77736559   0.17941364   -2.3179033    1.5405377   439061 
 2564000    1.0274003   -2.3177556   -2.3177556  -0.77665869   0.18011247   -2.3177556    1.5410969   439061 
 2565000    1.0267127   -2.3178407   -2.3178407  -0.77777523   0.18356446   -2.3178407    1.5400655   439061 
 2566000    1.0281103   -2.3197142   -2.3197142  -0.77755236   0.17980789   -2.3197142    1.5421619   439061 
 2567000    1.0282704   -2.3191228   -2.3191228  -0.77672067   0.17968511   -2.3191228    1.5424021   439061 
 2568000    1.0280827   -2.3204307   -2.3204307   -0.7783101   0.18126583   -2.3204307    1.5421206   439061 
 2569000    1.0286258   -2.3201244   -2.3201244  -0.77718924   0.18234433   -2.3201244    1.5429352   439061 
 2570000    1.0280926   -2.3196713   -2.3196713  -0.77753596   0.18141127   -2.3196713    1.5421354   439061 
 2571000     1.027884     -2.31789     -2.31789  -0.77606753   0.18232258     -2.31789    1.5418224   439061 
 2572000    1.0300645   -2.3205313   -2.3205313  -0.77543808    0.1844582   -2.3205313    1.5450933   439061 
 2573000    1.0271168   -2.3174231   -2.3174231  -0.77675144   0.18294444   -2.3174231    1.5406716   439061 
 2574000    1.0280619   -2.3187628   -2.3187628  -0.77667353   0.18333022   -2.3187628    1.5420893   439061 
 2575000    1.0269368   -2.3184008   -2.3184008  -0.77799909   0.18243043   -2.3184008    1.5404017   439061 
 2576000    1.0289758   -2.3208163   -2.3208163  -0.77735615   0.18509655   -2.3208163    1.5434601   439061 
 2577000    1.0279218   -2.3192037   -2.3192037  -0.77732451   0.18210656   -2.3192037    1.5418792   439061 
 2578000    1.0277334    -2.317857    -2.317857  -0.77626046   0.18519353    -2.317857    1.5415965   439061 
 2579000    1.0274138   -2.3177085   -2.3177085  -0.77659131   0.18291808   -2.3177085    1.5411172   439061 
 2580000    1.0272413   -2.3174135   -2.3174135  -0.77655513   0.18164173   -2.3174135    1.5408584   439061 
 2581000    1.0288758   -2.3190817   -2.3190817  -0.77577153   0.18882135   -2.3190817    1.5433102   439061 
 2582000     1.027365   -2.3187051   -2.3187051  -0.77766105   0.18359969   -2.3187051     1.541044   439061 
 2583000    1.0265929   -2.3178892   -2.3178892  -0.77800338   0.18241619   -2.3178892    1.5398858   439061 
 2584000    1.0284911   -2.3201127   -2.3201127  -0.77737956   0.18317361   -2.3201127    1.5427331   439061 
 2585000    1.0270798   -2.3197382   -2.3197382  -0.77912204   0.17968093   -2.3197382    1.5406161   439061 
 2586000    1.0278598   -2.3199421   -2.3199421  -0.77815587   0.17933857   -2.3199421    1.5417862   439061 
 2587000    1.0283782   -2.3212962   -2.3212962  -0.77873246   0.18646141   -2.3212962    1.5425637   439061 
 2588000     1.027742   -2.3200606   -2.3200606  -0.77845114   0.18172305   -2.3200606    1.5416095   439061 
 2589000    1.0257644   -2.3176081   -2.3176081  -0.77896493   0.18418882   -2.3176081    1.5386431   439061 
 2590000    1.0265659   -2.3187168   -2.3187168  -0.77887151   0.18131039   -2.3187168    1.5398453   439061 
 2591000    1.0272038   -2.3196324   -2.3196324  -0.77883024   0.17895467   -2.3196324    1.5408021   439061 
 2592000    1.0269238   -2.3188296   -2.3188296  -0.77844744   0.18423949   -2.3188296    1.5403822   439061 
 2593000    1.0256822   -2.3168388   -2.3168388  -0.77831895   0.18130468   -2.3168388    1.5385198   439061 
 2594000    1.0272933   -2.3182811   -2.3182811  -0.77734468   0.17940727   -2.3182811    1.5409364   439061 
 2595000    1.0285468   -2.3194364   -2.3194364  -0.77661977   0.18091768   -2.3194364    1.5428166   439061 
 2596000    1.0281241   -2.3186551   -2.3186551  -0.77647249   0.17966764   -2.3186551    1.5421826   439061 
 2597000    1.0269956   -2.3163245   -2.3163245  -0.77583458   0.17784799   -2.3163245    1.5404899   439061 
 2598000    1.0285675   -2.3178776   -2.3178776  -0.77502987   0.18007765   -2.3178776    1.5428477   439061 
 2599000    1.0274911   -2.3177503   -2.3177503  -0.77651719   0.17988043   -2.3177503    1.5412332   439061 
 2600000    1.0268968   -2.3168494   -2.3168494  -0.77650774   0.17805384   -2.3168494    1.5403417   439061 
 2601000    1.0266771   -2.3165884   -2.3165884  -0.77657617    0.1791636   -2.3165884    1.5400122   439061 
 2602000    1.0275821   -2.3169785   -2.3169785  -0.77560884   0.18128213   -2.3169785    1.5413697   439061 
 2603000    1.0276447   -2.3183733   -2.3183733  -0.77690979   0.18339799   -2.3183733    1.5414636   439061 
 2604000    1.0277832   -2.3176266   -2.3176266   -0.7759552   0.17994788   -2.3176266    1.5416714   439061 
 2605000    1.0280965    -2.318134    -2.318134  -0.77599277    0.1777517    -2.318134    1.5421412   439061 
 2606000    1.0290783   -2.3204553   -2.3204553  -0.77684142   0.18560067   -2.3204553    1.5436139   439061 
 2607000    1.0270108   -2.3157097   -2.3157097  -0.77519699   0.18612819   -2.3157097    1.5405127   439061 
 2608000    1.0270665   -2.3165406   -2.3165406  -0.77594432   0.18140372   -2.3165406    1.5405963   439061 
 2609000    1.0277663   -2.3184323   -2.3184323  -0.77678632   0.17753786   -2.3184323     1.541646   439061 
 2610000    1.0279045   -2.3182086   -2.3182086  -0.77635532   0.17939675   -2.3182086    1.5418532   439061 
 2611000    1.0278357   -2.3183215   -2.3183215  -0.77657145   0.18582829   -2.3183215    1.5417501   439061 
 2612000    1.0287037   -2.3196224   -2.3196224  -0.77657039    0.1800398   -2.3196224     1.543052   439061 
 2613000    1.0279866   -2.3172169   -2.3172169  -0.77524049   0.18324659   -2.3172169    1.5419764   439061 
 2614000    1.0293469   -2.3203591   -2.3203591  -0.77634233   0.17994461   -2.3203591    1.5440168   439061 
 2615000    1.0284704   -2.3186847   -2.3186847  -0.77598253   0.18360205   -2.3186847    1.5427022   439061 
 2616000    1.0278462     -2.31836     -2.31836  -0.77659419   0.17884945     -2.31836    1.5417658   439061 
 2617000    1.0280264   -2.3188682   -2.3188682  -0.77683214   0.18237345   -2.3188682    1.5420361   439061 
 2618000    1.0267322   -2.3167471   -2.3167471  -0.77665227   0.18366347   -2.3167471    1.5400949   439061 
 2619000    1.0284253   -2.3182483   -2.3182483  -0.77561382   0.18428953   -2.3182483    1.5426344   439061 
 2620000    1.0294355   -2.3187574   -2.3187574   -0.7746077   0.18202278   -2.3187574    1.5441497   439061 
 2621000    1.0281202   -2.3172366   -2.3172366  -0.77505985   0.18440814   -2.3172366    1.5421768   439061 
 2622000     1.027689   -2.3164961   -2.3164961  -0.77496611   0.18177861   -2.3164961      1.54153   439061 
 2623000    1.0274969    -2.316472    -2.316472  -0.77523019   0.18526709    -2.316472    1.5412419   439061 
 2624000    1.0282453   -2.3182775   -2.3182775  -0.77591303   0.17982774   -2.3182775    1.5423644   439061 
 2625000    1.0269686   -2.3168348   -2.3168348  -0.77638535   0.17963468   -2.3168348    1.5404494   439061 
 2626000    1.0286341    -2.318473    -2.318473  -0.77552543    0.1785395    -2.318473    1.5429476   439061 
 2627000    1.0266827   -2.3163557   -2.3163557  -0.77633515   0.18197019   -2.3163557    1.5400205   439061 
 2628000      1.02756   -2.3183165   -2.3183165  -0.77697992   0.17776416   -2.3183165    1.5413365   439061 
 2629000      1.02689   -2.3173117   -2.3173117  -0.77698027   0.18325198   -2.3173117    1.5403315   439061 
 2630000    1.0284944    -2.318996    -2.318996  -0.77625784   0.18521422    -2.318996    1.5427381   439061 
 2631000    1.0280089    -2.317143    -2.317143  -0.77513315    0.1821138    -2.317143    1.5420098   439061 
 2632000    1.0281061   -2.3170047   -2.3170047  -0.77484905   0.18524858   -2.3170047    1.5421556   439061 
 2633000      1.02791   -2.3172421   -2.3172421  -0.77538062   0.18169325   -2.3172421    1.5418615   439061 
 2634000    1.0299828   -2.3191629   -2.3191629  -0.77419227   0.17940468   -2.3191629    1.5449706   439061 
 2635000    1.0278814   -2.3171997   -2.3171997  -0.77538112   0.18004643   -2.3171997    1.5418186   439061 
 2636000    1.0264927   -2.3155164   -2.3155164  -0.77578093   0.18442946   -2.3155164    1.5397355   439061 
 2637000    1.0296328   -2.3187464   -2.3187464  -0.77430068   0.18412961   -2.3187464    1.5444457   439061 
 2638000    1.0281424   -2.3171513   -2.3171513  -0.77494124   0.18201955   -2.3171513      1.54221   439061 
 2639000    1.0274843   -2.3173035   -2.3173035  -0.77608058   0.18157989   -2.3173035     1.541223   439061 
 2640000    1.0278612   -2.3165938   -2.3165938  -0.77480547   0.18031551   -2.3165938    1.5417883   439061 
 2641000    1.0280744   -2.3149596   -2.3149596  -0.77285141    0.1819512   -2.3149596    1.5421082   439061 
 2642000    1.0276073   -2.3144825   -2.3144825  -0.77307508   0.18501081   -2.3144825    1.5414074   439061 
 2643000    1.0273783   -2.3146514   -2.3146514  -0.77358749   0.18000091   -2.3146514     1.541064   439061 
 2644000    1.0289394   -2.3162903   -2.3162903  -0.77288474   0.17868175   -2.3162903    1.5434056   439061 
 2645000    1.0286339   -2.3154877   -2.3154877  -0.77254034   0.18393031   -2.3154877    1.5429474   439061 
 2646000    1.0284286   -2.3157925   -2.3157925  -0.77315312   0.18226691   -2.3157925    1.5426394   439061 
 2647000    1.0281335    -2.316963    -2.316963  -0.77476629   0.18230836    -2.316963    1.5421967   439061 
 2648000    1.0278064   -2.3165999   -2.3165999  -0.77489384   0.18203486   -2.3165999     1.541706   439061 
 2649000    1.0282609   -2.3162794   -2.3162794  -0.77389167   0.18368963   -2.3162794    1.5423878   439061 
 2650000     1.028138   -2.3161923   -2.3161923  -0.77398891   0.18183216   -2.3161923    1.5422034   439061 
 2651000    1.0271602   -2.3155812   -2.3155812  -0.77484439   0.18445289   -2.3155812    1.5407368   439061 
 2652000    1.0269549   -2.3158369   -2.3158369  -0.77540809   0.18450626   -2.3158369    1.5404288   439061 
 2653000    1.0276921     -2.31622     -2.31622  -0.77468536   0.18161289     -2.31622    1.5415347   439061 
 2654000    1.0289243   -2.3176372   -2.3176372  -0.77425429   0.18303752   -2.3176372    1.5433829   439061 
 2655000    1.0281182   -2.3158384   -2.3158384  -0.77366462   0.18161719   -2.3158384    1.5421738   439061 
 2656000    1.0279108   -2.3161844   -2.3161844   -0.7743217   0.18260418   -2.3161844    1.5418627   439061 
 2657000    1.0290301    -2.318385    -2.318385  -0.77484335    0.1818508    -2.318385    1.5435417   439061 
 2658000    1.0274337    -2.316776    -2.316776  -0.77562906   0.18001573    -2.316776     1.541147   439061 
 2659000    1.0272436   -2.3159925   -2.3159925  -0.77513061   0.18423036   -2.3159925    1.5408619   439061 
 2660000    1.0271096     -2.31628     -2.31628  -0.77561905   0.18652729     -2.31628    1.5406609   439061 
 2661000    1.0257047   -2.3146739   -2.3146739  -0.77612039   0.18273611   -2.3146739    1.5385535   439061 
 2662000    1.0289182   -2.3198124   -2.3198124  -0.77643872    0.1784102   -2.3198124    1.5433737   439061 
 2663000    1.0274664    -2.318173    -2.318173  -0.77697691   0.18743977    -2.318173    1.5411961   439061 
 2664000    1.0276583   -2.3179982   -2.3179982  -0.77651419   0.18338184   -2.3179982     1.541484   439061 
 2665000    1.0278609   -2.3174776   -2.3174776  -0.77568968    0.1801427   -2.3174776    1.5417879   439061 
 2666000    1.0288224   -2.3193745   -2.3193745  -0.77614442   0.18420291   -2.3193745      1.54323   439061 
 2667000     1.027419   -2.3193061   -2.3193061  -0.77818119   0.18172099   -2.3193061     1.541125   439061 
 2668000    1.0270241   -2.3180387   -2.3180387  -0.77750605   0.18438823   -2.3180387    1.5405327   439061 
 2669000    1.0276123   -2.3183956   -2.3183956  -0.77698068   0.18663946   -2.3183956    1.5414149   439061 
 2670000    1.0272553   -2.3185952   -2.3185952  -0.77771578   0.18127818   -2.3185952    1.5408794   439061 
 2671000    1.0271839   -2.3189761   -2.3189761  -0.77820372   0.18619421   -2.3189761    1.5407723   439061 
 2672000    1.0266638   -2.3185362   -2.3185362  -0.77854403   0.18283765   -2.3185362    1.5399922   439061 
 2673000    1.0257111   -2.3168174   -2.3168174   -0.7782542   0.17680006   -2.3168174    1.5385632   439061 
 2674000    1.0271536   -2.3189417   -2.3189417  -0.77821489   0.17744678   -2.3189417    1.5407269   439061 
 2675000    1.0282278   -2.3208392   -2.3208392  -0.77850103   0.17795113   -2.3208392    1.5423382   439061 
 2676000    1.0270425   -2.3179076   -2.3179076  -0.77734739   0.18070978   -2.3179076    1.5405602   439061 
 2677000    1.0288554   -2.3210215   -2.3210215  -0.77774191   0.18514132   -2.3210215    1.5432796   439061 
 2678000    1.0259834   -2.3169326   -2.3169326  -0.77796103   0.18367679   -2.3169326    1.5389716   439061 
 2679000    1.0262391   -2.3195236   -2.3195236  -0.78016841    0.1809763   -2.3195236    1.5393552   439061 
 2680000    1.0262964   -2.3206969   -2.3206969  -0.78125581   0.18317617   -2.3206969    1.5394411   439061 
 2681000    1.0267332   -2.3209857   -2.3209857  -0.78088947   0.18302544   -2.3209857    1.5400963   439061 
 2682000    1.0253384   -2.3186727   -2.3186727  -0.78066869   0.18446342   -2.3186727     1.538004   439061 
 2683000    1.0272948    -2.319492    -2.319492  -0.77855333   0.18385184    -2.319492    1.5409386   439061 
 2684000    1.0255695   -2.3174071   -2.3174071  -0.77905637    0.1804418   -2.3174071    1.5383507   439061 
 2685000    1.0269888   -2.3184038   -2.3184038  -0.77792414   0.18366957   -2.3184038    1.5404797   439061 
 2686000    1.0266218   -2.3194086   -2.3194086  -0.77947951   0.18568414   -2.3194086    1.5399291   439061 
 2687000    1.0274985   -2.3193569   -2.3193569  -0.77811266   0.18048713   -2.3193569    1.5412442   439061 
 2688000    1.0257528   -2.3170825   -2.3170825  -0.77845675   0.18184316   -2.3170825    1.5386257   439061 
 2689000    1.0254919   -2.3182192   -2.3182192  -0.77998475   0.18148117   -2.3182192    1.5382344   439061 
 2690000    1.0258002   -2.3183286   -2.3183286  -0.77963178   0.18307747   -2.3183286    1.5386968   439061 
 2691000    1.0274286   -2.3199443   -2.3199443  -0.77880493   0.18058816   -2.3199443    1.5411393   439061 
 2692000    1.0261396    -2.317576    -2.317576  -0.77837001   0.18314389    -2.317576     1.539206   439061 
 2693000    1.0272904   -2.3178473   -2.3178473  -0.77691524   0.17605791   -2.3178473    1.5409321   439061 
 2694000    1.0269368    -2.317401    -2.317401  -0.77699927   0.18013574    -2.317401    1.5404017   439061 
 2695000    1.0269341   -2.3158187   -2.3158187  -0.77542105   0.18510156   -2.3158187    1.5403977   439061 
 2696000    1.0275026    -2.316447    -2.316447  -0.77519669   0.17960155    -2.316447    1.5412504   439061 
 2697000    1.0280651   -2.3174153   -2.3174153   -0.7753212    0.1812021   -2.3174153    1.5420941   439061 
 2698000    1.0285941   -2.3183047   -2.3183047  -0.77541705   0.18064001   -2.3183047    1.5428876   439061 
 2699000    1.0284115   -2.3179555   -2.3179555  -0.77534175   0.17882719   -2.3179555    1.5426137   439061 
 2700000    1.0278753   -2.3178558   -2.3178558  -0.77604637   0.17563878   -2.3178558    1.5418094   439061 
 2701000    1.0271757   -2.3167932   -2.3167932  -0.77603316    0.1784628   -2.3167932      1.54076   439061 
 2702000    1.0271232    -2.316542    -2.316542  -0.77586076   0.18164803    -2.316542    1.5406812   439061 
 2703000    1.0282043   -2.3176958   -2.3176958  -0.77539296   0.18142397   -2.3176958    1.5423029   439061 
 2704000    1.0262465   -2.3151154   -2.3151154  -0.77574923   0.18197497   -2.3151154    1.5393662   439061 
 2705000    1.0285637   -2.3190708   -2.3190708  -0.77622878   0.17722609   -2.3190708     1.542842   439061 
 2706000    1.0268403   -2.3165157   -2.3165157  -0.77625871   0.17710442   -2.3165157     1.540257   439061 
 2707000    1.0268054    -2.316083    -2.316083  -0.77587833   0.17783423    -2.316083    1.5402046   439061 
 2708000    1.0259549   -2.3143593   -2.3143593  -0.77543051   0.18055949   -2.3143593    1.5389288   439061 
 2709000     1.028777   -2.3183739   -2.3183739  -0.77521187   0.17921749   -2.3183739     1.543162   439061 
 2710000    1.0282675   -2.3165422   -2.3165422   -0.7741445    0.1795251   -2.3165422    1.5423977   439061 
 2711000    1.0292937   -2.3176126   -2.3176126  -0.77367563   0.18382224   -2.3176126     1.543937   439061 
 2712000    1.0280449   -2.3157333   -2.3157333  -0.77366957   0.18241704   -2.3157333    1.5420638   439061 
 2713000    1.0286063   -2.3173377   -2.3173377  -0.77443182   0.18147248   -2.3173377    1.5429059   439061 
 2714000    1.0278016     -2.31724     -2.31724  -0.77554106    0.1814525     -2.31724    1.5416989   439061 
 2715000    1.0273026   -2.3167055   -2.3167055  -0.77575514   0.18026539   -2.3167055    1.5409504   439061 
 2716000    1.0281191   -2.3176588   -2.3176588  -0.77548377   0.18314784   -2.3176588    1.5421751   439061 
 2717000    1.0279023   -2.3183645   -2.3183645  -0.77651457   0.18333363   -2.3183645    1.5418499   439061 
 2718000    1.0264261   -2.3165546   -2.3165546  -0.77691897   0.18097704   -2.3165546    1.5396356   439061 
 2719000    1.0262803   -2.3172041   -2.3172041  -0.77778724    0.1832959   -2.3172041    1.5394169   439061 
 2720000     1.025212   -2.3161339   -2.3161339   -0.7783194   0.17861897   -2.3161339    1.5378145   439061 
 2721000    1.0261252   -2.3170887   -2.3170887  -0.77790435   0.17812334   -2.3170887    1.5391843   439061 
 2722000    1.0280832   -2.3193154   -2.3193154  -0.77719412   0.18129839   -2.3193154    1.5421212   439061 
 2723000    1.0280596   -2.3189331   -2.3189331  -0.77684717   0.18005682   -2.3189331    1.5420859   439061 
 2724000    1.0281052   -2.3187037   -2.3187037  -0.77654944   0.17961806   -2.3187037    1.5421542   439061 
 2725000    1.0259563   -2.3156315   -2.3156315   -0.7767006   0.18092472   -2.3156315    1.5389309   439061 
 2726000    1.0281989   -2.3180159   -2.3180159  -0.77572098   0.18397289   -2.3180159    1.5422949   439061 
 2727000    1.0286807   -2.3196063   -2.3196063  -0.77658877   0.18446803   -2.3196063    1.5430175   439061 
 2728000    1.0266389   -2.3182449   -2.3182449  -0.77829017   0.18257679   -2.3182449    1.5399548   439061 
 2729000    1.0289325   -2.3205034   -2.3205034  -0.77710819   0.17958525   -2.3205034    1.5433952   439061 
 2730000    1.0270267   -2.3182382   -2.3182382  -0.77770166   0.18336682   -2.3182382    1.5405365   439061 
 2731000    1.0285054   -2.3211133   -2.3211133  -0.77835874   0.17726347   -2.3211133    1.5427546   439061 
 2732000    1.0267891   -2.3181662   -2.3181662  -0.77798609   0.18255094   -2.3181662    1.5401801   439061 
 2733000    1.0255552   -2.3152154   -2.3152154   -0.7768862   0.18347973   -2.3152154    1.5383292   439061 
 2734000    1.0272984   -2.3177937   -2.3177937  -0.77684952    0.1798768   -2.3177937    1.5409441   439061 
 2735000    1.0266318   -2.3170207   -2.3170207  -0.77707648   0.17870354   -2.3170207    1.5399443   439061 
 2736000    1.0257749   -2.3164163   -2.3164163  -0.77775739   0.18225039   -2.3164163    1.5386589   439061 
 2737000    1.0277733   -2.3187151   -2.3187151  -0.77705875   0.18212657   -2.3187151    1.5416564   439061 
 2738000    1.0264076   -2.3166098   -2.3166098  -0.77700182   0.18058627   -2.3166098     1.539608   439061 
 2739000    1.0266328   -2.3173799   -2.3173799   -0.7774342   0.17956476   -2.3173799    1.5399457   439061 
 2740000    1.0268141   -2.3177166   -2.3177166  -0.77749895   0.17488457   -2.3177166    1.5402177   439061 
 2741000    1.0262084   -2.3169097   -2.3169097  -0.77760054   0.18366571   -2.3169097    1.5393091   439061 
 2742000    1.0272131   -2.3183913   -2.3183913   -0.7775752   0.18067581   -2.3183913    1.5408161   439061 
 2743000    1.0271423   -2.3177309   -2.3177309  -0.77702102   0.18214617   -2.3177309    1.5407099   439061 
 2744000    1.0258287   -2.3160729   -2.3160729  -0.77733343   0.17866803   -2.3160729    1.5387395   439061 
 2745000    1.0265504   -2.3188902   -2.3188902  -0.77906811   0.17909211   -2.3188902    1.5398221   439061 
 2746000    1.0256094   -2.3165199   -2.3165199  -0.77810937   0.18201588   -2.3165199    1.5384105   439061 
 2747000    1.0269421   -2.3185447   -2.3185447  -0.77813513   0.18137739   -2.3185447    1.5404096   439061 
 2748000     1.025824   -2.3177048   -2.3177048  -0.77897236   0.17996311   -2.3177048    1.5387325   439061 
 2749000    1.0261038   -2.3182202   -2.3182202  -0.77906801   0.18072023   -2.3182202    1.5391522   439061 
 2750000    1.0276572   -2.3210202   -2.3210202  -0.77953787   0.17660762   -2.3210202    1.5414823   439061 
 2751000    1.0267512   -2.3198303   -2.3198303  -0.77970697   0.18225712   -2.3198303    1.5401233   439061 
 2752000    1.0274645   -2.3192982   -2.3192982  -0.77810498   0.18261152   -2.3192982    1.5411933   439061 
 2753000    1.0262531   -2.3175155   -2.3175155  -0.77813931   0.18185476   -2.3175155    1.5393761   439061 
 2754000    1.0277604   -2.3205274   -2.3205274   -0.7788903    0.1777668   -2.3205274    1.5416371   439061 
 2755000    1.0252486   -2.3167737   -2.3167737  -0.77890442   0.17974377   -2.3167737    1.5378693   439061 
 2756000    1.0275349   -2.3202587   -2.3202587  -0.77895993   0.18191491   -2.3202587    1.5412988   439061 
 2757000    1.0265695   -2.3189211   -2.3189211   -0.7790704   0.17754774   -2.3189211    1.5398507   439061 
 2758000    1.0261955   -2.3186896   -2.3186896  -0.77939986   0.17400593   -2.3186896    1.5392897   439061 
 2759000    1.0275346    -2.320046    -2.320046  -0.77874758   0.18517799    -2.320046    1.5412984   439061 
 2760000    1.0268936   -2.3192521   -2.3192521  -0.77891523   0.17866346   -2.3192521    1.5403368   439061 
 2761000    1.0263793     -2.31911     -2.31911  -0.77954458   0.17989333     -2.31911    1.5395654   439061 
 2762000    1.0249976   -2.3179493   -2.3179493  -0.78045647   0.18354102   -2.3179493    1.5374929   439061 
 2763000    1.0254731   -2.3177684   -2.3177684  -0.77956217   0.17847042   -2.3177684    1.5382062   439061 
 2764000    1.0245272   -2.3164034   -2.3164034  -0.77961607   0.17867073   -2.3164034    1.5367874   439061 
 2765000    1.0245309   -2.3160974   -2.3160974  -0.77930457   0.18298742   -2.3160974    1.5367928   439061 
 2766000    1.0263431    -2.319484    -2.319484  -0.77997279    0.1816486    -2.319484    1.5395112   439061 
 2767000    1.0253841   -2.3180226   -2.3180226  -0.77994988   0.18504009   -2.3180226    1.5380727   439061 
 2768000    1.0264355   -2.3194171   -2.3194171  -0.77976733   0.17983328   -2.3194171    1.5396498   439061 
 2769000    1.0254199   -2.3180277   -2.3180277  -0.77990137   0.18106619   -2.3180277    1.5381263   439061 
 2770000    1.0257594   -2.3180292   -2.3180292  -0.77939355   0.17528236   -2.3180292    1.5386356   439061 
 2771000    1.0262938   -2.3175201   -2.3175201   -0.7780828   0.18404299   -2.3175201    1.5394373   439061 
 2772000    1.0265817   -2.3177374   -2.3177374  -0.77786837   0.17872462   -2.3177374     1.539869   439061 
 2773000    1.0252682   -2.3165965   -2.3165965  -0.77869769   0.17886229   -2.3165965    1.5378988   439061 
 2774000    1.0255665   -2.3165722   -2.3165722  -0.77822595    0.1787204   -2.3165722    1.5383463   439061 
 2775000    1.0256095   -2.3153199   -2.3153199  -0.77690922   0.18554462   -2.3153199    1.5384107   439061 
 2776000    1.0277883   -2.3181941   -2.3181941  -0.77651512   0.18589905   -2.3181941     1.541679   439061 
 2777000    1.0259733   -2.3166674   -2.3166674  -0.77771098   0.17811288   -2.3166674    1.5389564   439061 
 2778000    1.0272517    -2.318837    -2.318837  -0.77796294   0.17823401    -2.318837    1.5408741   439061 
 2779000    1.0253994     -2.31638     -2.31638  -0.77828435   0.18351729     -2.31638    1.5380956   439061 
 2780000    1.0267307     -2.31775     -2.31775  -0.77765743   0.18240944     -2.31775    1.5400926   439061 
 2781000     1.026343   -2.3183363   -2.3183363  -0.77882534   0.18123578   -2.3183363     1.539511   439061 
 2782000    1.0267404   -2.3174282   -2.3174282  -0.77732115   0.17943904   -2.3174282    1.5401071   439061 
 2783000     1.025565   -2.3158588   -2.3158588  -0.77751484   0.18446956   -2.3158588     1.538344   439061 
 2784000    1.0277485   -2.3187094   -2.3187094  -0.77709016   0.18201881   -2.3187094    1.5416193   439061 
 2785000    1.0264481   -2.3180635   -2.3180635  -0.77839485   0.18157987   -2.3180635    1.5396686   439061 
 2786000    1.0270274     -2.31935     -2.31935  -0.77881242   0.17788534     -2.31935    1.5405376   439061 
 2787000    1.0256237   -2.3177071   -2.3177071  -0.77927506   0.18283149   -2.3177071     1.538432   439061 
 2788000    1.0267931   -2.3199254   -2.3199254  -0.77973923   0.17939188   -2.3199254    1.5401862   439061 
 2789000     1.025029   -2.3170874   -2.3170874  -0.77954746   0.17829304   -2.3170874      1.53754   439061 
 2790000    1.0260196   -2.3182886   -2.3182886   -0.7792627   0.18277581   -2.3182886    1.5390259   439061 
 2791000    1.0252031   -2.3161151   -2.3161151  -0.77831399   0.18191211   -2.3161151    1.5378011   439061 
 2792000    1.0257227   -2.3177216   -2.3177216  -0.77914108   0.17848641   -2.3177216    1.5385805   439061 
 2793000     1.026618   -2.3187088   -2.3187088  -0.77878532   0.18272457   -2.3187088    1.5399235   439061 
 2794000    1.0276065   -2.3203473   -2.3203473  -0.77894096   0.17731716   -2.3203473    1.5414063   439061 
 2795000    1.0269746   -2.3198888   -2.3198888  -0.77943044   0.18407153   -2.3198888    1.5404584   439061 
 2796000    1.0263732   -2.3188125   -2.3188125  -0.77925626   0.17635568   -2.3188125    1.5395562   439061 
 2797000    1.0269283   -2.3197795   -2.3197795   -0.7793906   0.18034612   -2.3197795    1.5403889   439061 
 2798000    1.0260074   -2.3187537   -2.3187537  -0.77974612   0.17871315   -2.3187537    1.5390076   439061 
 2799000    1.0275336   -2.3208431   -2.3208431   -0.7795462   0.17927624   -2.3208431    1.5412969   439061 
 2800000    1.0264517   -2.3195708   -2.3195708  -0.77989683   0.18296795   -2.3195708     1.539674   439061 
 2801000     1.025913   -2.3193783   -2.3193783  -0.78051236   0.17811081   -2.3193783     1.538866   439061 
 2802000    1.0260829    -2.319815    -2.319815  -0.78069412   0.17827684    -2.319815    1.5391209   439061 
 2803000    1.0243293   -2.3182274   -2.3182274  -0.78173695   0.18085791   -2.3182274    1.5364904   439061 
 2804000    1.0256265   -2.3212365   -2.3212365  -0.78280029   0.17968255   -2.3212365    1.5384362   439061 
 2805000    1.0251291   -2.3199359   -2.3199359  -0.78224579   0.17942836   -2.3199359    1.5376902   439061 
 2806000    1.0248605   -2.3196553   -2.3196553  -0.78236801   0.17867827   -2.3196553    1.5372873   439061 
 2807000    1.0254942   -2.3203273   -2.3203273  -0.78208944   0.17889605   -2.3203273    1.5382378   439061 
 2808000    1.0248597   -2.3203334   -2.3203334  -0.78304729   0.17419743   -2.3203334    1.5372861   439061 
 2809000    1.0248859   -2.3207703   -2.3207703  -0.78344487   0.17827374   -2.3207703    1.5373254   439061 
 2810000    1.0246299   -2.3191297   -2.3191297  -0.78218824   0.17781507   -2.3191297    1.5369414   439061 
 2811000     1.026954   -2.3215431   -2.3215431  -0.78111567   0.17594993   -2.3215431    1.5404275   439061 
 2812000    1.0251014   -2.3193826   -2.3193826  -0.78173393   0.17973892   -2.3193826    1.5376487   439061 
 2813000    1.0255197   -2.3187256   -2.3187256  -0.78044953   0.17894421   -2.3187256    1.5382761   439061 
 2814000    1.0266424   -2.3197843   -2.3197843  -0.77982423   0.17960216   -2.3197843    1.5399601   439061 
 2815000    1.0263357   -2.3183778   -2.3183778  -0.77887776   0.18380202   -2.3183778       1.5395   439061 
 2816000     1.026571   -2.3184625   -2.3184625  -0.77860951   0.17470504   -2.3184625     1.539853   439061 
 2817000    1.0261128   -2.3184082   -2.3184082  -0.77924246   0.18134354   -2.3184082    1.5391658   439061 
 2818000    1.0254972   -2.3170061   -2.3170061  -0.77876374   0.18587952   -2.3170061    1.5382423   439061 
 2819000    1.0266829   -2.3203426   -2.3203426  -0.78032169   0.17557402   -2.3203426    1.5400209   439061 
 2820000    1.0260099   -2.3194812   -2.3194812  -0.78046991   0.17916846   -2.3194812    1.5390113   439061 
 2821000     1.025937   -2.3184308   -2.3184308  -0.77952881   0.18126964   -2.3184308     1.538902   439061 
 2822000    1.0267146    -2.319151    -2.319151  -0.77908257   0.17754904    -2.319151    1.5400684   439061 
 2823000    1.0282318    -2.321629    -2.321629  -0.77928478   0.17893019    -2.321629    1.5423442   439061 
 2824000    1.0259972   -2.3188795   -2.3188795  -0.77988714   0.17456871   -2.3188795    1.5389923   439061 
 2825000    1.0256322   -2.3189083   -2.3189083  -0.78046348   0.17759145   -2.3189083    1.5384448   439061 
 2826000    1.0263396   -2.3198299   -2.3198299   -0.7803241   0.17656332   -2.3198299    1.5395058   439061 
 2827000    1.0255409   -2.3195603   -2.3195603  -0.78125244   0.17523561   -2.3195603    1.5383078   439061 
 2828000    1.0240169   -2.3185632   -2.3185632  -0.78254137   0.17665072   -2.3185632    1.5360219   439061 
 2829000    1.0244388   -2.3186581   -2.3186581  -0.78200338   0.18003992   -2.3186581    1.5366547   439061 
 2830000    1.0251797   -2.3194835   -2.3194835  -0.78171744   0.17780991   -2.3194835    1.5377661   439061 
 2831000    1.0250022   -2.3192634   -2.3192634  -0.78176362   0.17717918   -2.3192634    1.5374998   439061 
 2832000    1.0249062   -2.3192724   -2.3192724  -0.78191653   0.18252535   -2.3192724    1.5373559   439061 
 2833000    1.0255555   -2.3220576   -2.3220576  -0.78372786   0.17953638   -2.3220576    1.5383298   439061 
 2834000    1.0242329   -2.3213083   -2.3213083  -0.78496249   0.17880847   -2.3213083    1.5363459   439061 
 2835000    1.0222424   -2.3184936   -2.3184936  -0.78513356   0.17757929   -2.3184936    1.5333601   439061 
 2836000    1.0243861   -2.3214878   -2.3214878  -0.78491222   0.17850799   -2.3214878    1.5365756   439061 
 2837000    1.0252741   -2.3216536   -2.3216536  -0.78374598   0.17606371   -2.3216536    1.5379076   439061 
 2838000    1.0239364   -2.3191835   -2.3191835   -0.7832825   0.18067959   -2.3191835     1.535901   439061 
 2839000    1.0252641   -2.3215584   -2.3215584  -0.78366577    0.1767233   -2.3215584    1.5378926   439061 
 2840000    1.0240061   -2.3199549   -2.3199549  -0.78394921   0.17770439   -2.3199549    1.5360057   439061 
 2841000    1.0265614   -2.3219646   -2.3219646   -0.7821261    0.1768737   -2.3219646    1.5398385   439061 
 2842000    1.0253802   -2.3207043   -2.3207043   -0.7826375   0.18291453   -2.3207043    1.5380668   439061 
 2843000    1.0251938   -2.3198644   -2.3198644   -0.7820772   0.18263214   -2.3198644    1.5377872   439061 
 2844000    1.0264183    -2.322595    -2.322595   -0.7829711   0.17906249    -2.322595    1.5396239   439061 
 2845000    1.0253725    -2.320896    -2.320896  -0.78284081   0.18192144    -2.320896    1.5380552   439061 
 2846000      1.02478   -2.3208878   -2.3208878  -0.78372131   0.17893025   -2.3208878    1.5371665   439061 
 2847000    1.0242775   -2.3195287   -2.3195287  -0.78311595   0.18168046   -2.3195287    1.5364128   439061 
 2848000     1.024042   -2.3199365   -2.3199365   -0.7838771   0.17946119   -2.3199365    1.5360594   439061 
 2849000    1.0242986   -2.3209065   -2.3209065  -0.78446206   0.17769319   -2.3209065    1.5364444   439061 
 2850000    1.0266086     -2.32325     -2.32325  -0.78334063   0.18069465     -2.32325    1.5399094   439061 
 2851000    1.0261101   -2.3217297   -2.3217297  -0.78256803   0.17949632   -2.3217297    1.5391617   439061 
 2852000    1.0240466   -2.3187249   -2.3187249  -0.78265858   0.18215802   -2.3187249    1.5360664   439061 
 2853000     1.025839      -2.3198      -2.3198  -0.78104508   0.17770707      -2.3198     1.538755   439061 
 2854000    1.0252997   -2.3197345   -2.3197345  -0.78178851   0.18170256   -2.3197345     1.537946   439061 
 2855000    1.0254317   -2.3199941   -2.3199941  -0.78184998   0.17678011   -2.3199941    1.5381441   439061 
 2856000    1.0255639   -2.3202683   -2.3202683  -0.78192591   0.17971623   -2.3202683    1.5383424   439061 
 2857000    1.0258347   -2.3211011   -2.3211011  -0.78235248   0.17772498   -2.3211011    1.5387486   439061 
 2858000    1.0248744   -2.3196475   -2.3196475  -0.78233949   0.17823328   -2.3196475    1.5373081   439061 
 2859000    1.0258071    -2.320562    -2.320562  -0.78185489   0.17647014    -2.320562    1.5387071   439061 
 2860000    1.0263825   -2.3197788   -2.3197788  -0.78020851   0.18113055   -2.3197788    1.5395703   439061 
 2861000    1.0261796   -2.3188963   -2.3188963  -0.77963032   0.17991887   -2.3188963    1.5392659   439061 
 2862000    1.0252379   -2.3181296   -2.3181296  -0.78027623   0.17680405   -2.3181296    1.5378533   439061 
 2863000      1.02584   -2.3192112   -2.3192112  -0.78045473   0.17807721   -2.3192112    1.5387565   439061 
 2864000    1.0242089   -2.3189057   -2.3189057  -0.78259591   0.17938024   -2.3189057    1.5363098   439061 
 2865000    1.0242439   -2.3181856   -2.3181856  -0.78182329   0.18032696   -2.3181856    1.5363623   439061 
 2866000     1.025952   -2.3211748   -2.3211748  -0.78225028   0.17961569   -2.3211748    1.5389245   439061 
 2867000     1.025013   -2.3192497   -2.3192497  -0.78173371   0.17723745   -2.3192497    1.5375159   439061 
 2868000    1.0246979   -2.3185085   -2.3185085  -0.78146512    0.1812527   -2.3185085    1.5370433   439061 
 2869000    1.0246895   -2.3186274   -2.3186274  -0.78159655   0.18127399   -2.3186274    1.5370308   439061 
 2870000    1.0246712   -2.3187652   -2.3187652  -0.78176193   0.18094695   -2.3187652    1.5370033   439061 
 2871000    1.0251953   -2.3186563   -2.3186563  -0.78086684   0.17616787   -2.3186563    1.5377895   439061 
 2872000    1.0261506   -2.3188923   -2.3188923  -0.77966999   0.18218143   -2.3188923    1.5392223   439061 
 2873000    1.0259881   -2.3187754   -2.3187754  -0.77979677   0.17929918   -2.3187754    1.5389787   439061 
 2874000    1.0250694   -2.3185473   -2.3185473  -0.78094673   0.18209196   -2.3185473    1.5376006   439061 
 2875000    1.0250971   -2.3184797   -2.3184797  -0.78083764   0.18596229   -2.3184797    1.5376421   439061 
 2876000     1.025887   -2.3205472   -2.3205472  -0.78172011   0.17665006   -2.3205472     1.538827   439061 
 2877000    1.0262998   -2.3207063   -2.3207063  -0.78126015   0.17824657   -2.3207063    1.5394462   439061 
 2878000    1.0267524   -2.3210506   -2.3210506  -0.78092544   0.17810014   -2.3210506    1.5401251   439061 
 2879000    1.0256109   -2.3199963   -2.3199963  -0.78158347   0.18321531   -2.3199963    1.5384129   439061 
 2880000     1.025399   -2.3206161   -2.3206161  -0.78252105    0.1787196   -2.3206161     1.538095   439061 
 2881000    1.0256418   -2.3203605   -2.3203605  -0.78190122    0.1793241   -2.3203605    1.5384592   439061 
 2882000    1.0257946   -2.3209173   -2.3209173  -0.78222895   0.17578182   -2.3209173    1.5386884   439061 
 2883000     1.024625   -2.3188861   -2.3188861   -0.7819522   0.18151589   -2.3188861    1.5369339   439061 
 2884000     1.026453   -2.3215332   -2.3215332  -0.78185717   0.18582345   -2.3215332     1.539676   439061 
 2885000     1.025104   -2.3197644   -2.3197644  -0.78211187   0.17874528   -2.3197644    1.5376526   439061 
 2886000    1.0249873   -2.3198664   -2.3198664  -0.78238895    0.1784556   -2.3198664    1.5374774   439061 
 2887000    1.0249814   -2.3203485   -2.3203485  -0.78287989   0.18434705   -2.3203485    1.5374687   439061 
 2888000    1.0244936    -2.319716    -2.319716  -0.78297912   0.17817249    -2.319716    1.5367369   439061 
 2889000    1.0252123    -2.320286    -2.320286  -0.78247103   0.18290772    -2.320286     1.537815   439061 
 2890000    1.0275716   -2.3219558   -2.3219558  -0.78060202   0.18026382   -2.3219558    1.5413538   439061 
 2891000    1.0255419   -2.3192553   -2.3192553  -0.78094601   0.18067359   -2.3192553    1.5383093   439061 
 2892000    1.0246706    -2.318102    -2.318102  -0.78109968   0.17793877    -2.318102    1.5370024   439061 
 2893000     1.026195   -2.3204296   -2.3204296  -0.78114055   0.17629463   -2.3204296     1.539289   439061 
 2894000    1.0240125   -2.3174441   -2.3174441   -0.7814288   0.17864402   -2.3174441    1.5360153   439061 
 2895000    1.0245157   -2.3176906   -2.3176906  -0.78092058   0.18505036   -2.3176906      1.53677   439061 
 2896000    1.0252043   -2.3178572   -2.3178572  -0.78005429   0.17452989   -2.3178572     1.537803   439061 
 2897000    1.0256354   -2.3183905   -2.3183905  -0.77994089   0.17792936   -2.3183905    1.5384496   439061 
 2898000    1.0244321   -2.3165858   -2.3165858  -0.77994119   0.18028466   -2.3165858    1.5366446   439061 
 2899000    1.0248318   -2.3187425   -2.3187425  -0.78149832   0.18236096   -2.3187425    1.5372442   439061 
 2900000    1.0261455    -2.318972    -2.318972  -0.77975726   0.17979393    -2.318972    1.5392147   439061 
 2901000    1.0242677   -2.3172867   -2.3172867  -0.78088873   0.17944089   -2.3172867     1.536398   439061 
 2902000    1.0250757   -2.3182106   -2.3182106  -0.78060047   0.17956339   -2.3182106    1.5376101   439061 
 2903000    1.0250107   -2.3188859   -2.3188859  -0.78137336   0.17734592   -2.3188859    1.5375125   439061 
 2904000    1.0250014   -2.3189806   -2.3189806  -0.78148204   0.18094801   -2.3189806    1.5374986   439061 
 2905000    1.0248415   -2.3186157   -2.3186157  -0.78135697   0.18054213   -2.3186157    1.5372587   439061 
 2906000    1.0247276    -2.318681    -2.318681  -0.78159319   0.18120151    -2.318681    1.5370878   439061 
 2907000     1.024581   -2.3180119   -2.3180119  -0.78114392   0.17639822   -2.3180119     1.536868   439061 
 2908000    1.0269806   -2.3198182   -2.3198182  -0.77935074   0.17909644   -2.3198182    1.5404674   439061 
 2909000    1.0269154   -2.3203436   -2.3203436   -0.7799739   0.18376806   -2.3203436    1.5403697   439061 
 2910000    1.0258129   -2.3185328   -2.3185328  -0.77981695   0.18242947   -2.3185328    1.5387158   439061 
 2911000    1.0254753   -2.3176516   -2.3176516  -0.77944213   0.18413296   -2.3176516    1.5382095   439061 
 2912000    1.0250982   -2.3183034   -2.3183034  -0.78065964   0.18216326   -2.3183034    1.5376437   439061 
 2913000    1.0265875   -2.3201355   -2.3201355  -0.78025771   0.18111127   -2.3201355    1.5398778   439061 
 2914000    1.0264309   -2.3192995   -2.3192995  -0.77965674   0.18367322   -2.3192995    1.5396428   439061 
 2915000    1.0271195   -2.3201733   -2.3201733   -0.7794975   0.18028927   -2.3201733    1.5406758   439061 
 2916000    1.0267223   -2.3206779   -2.3206779  -0.78059795   0.17750775   -2.3206779    1.5400799   439061 
 2917000    1.0267421   -2.3190734   -2.3190734  -0.77896373   0.17717724   -2.3190734    1.5401097   439061 
 2918000    1.0266065   -2.3188925   -2.3188925  -0.77898621   0.18386785   -2.3188925    1.5399063   439061 
 2919000    1.0261251   -2.3184814   -2.3184814   -0.7792972    0.1799876   -2.3184814    1.5391842   439061 
 2920000    1.0255446   -2.3184244   -2.3184244  -0.78011102    0.1797507   -2.3184244    1.5383133   439061 
 2921000     1.025728   -2.3182264   -2.3182264  -0.77963794   0.18320996   -2.3182264    1.5385885   439061 
 2922000    1.0269902   -2.3203977   -2.3203977  -0.77991593   0.17819586   -2.3203977    1.5404818   439061 
 2923000    1.0253434   -2.3182769   -2.3182769  -0.78026537    0.1822259   -2.3182769    1.5380116   439061 
 2924000    1.0253503   -2.3182045   -2.3182045  -0.78018261   0.18246661   -2.3182045    1.5380219   439061 
 2925000    1.0253024   -2.3182744   -2.3182744  -0.78032427   0.17798863   -2.3182744    1.5379501   439061 
 2926000    1.0250047   -2.3186268   -2.3186268  -0.78112323   0.18329109   -2.3186268    1.5375036   439061 
 2927000    1.0259924   -2.3202581   -2.3202581    -0.781273   0.17698463   -2.3202581    1.5389851   439061 
 2928000    1.0243801   -2.3175714   -2.3175714  -0.78100478   0.17915465   -2.3175714    1.5365666   439061 
 2929000     1.024565   -2.3168723   -2.3168723  -0.78002829   0.18194149   -2.3168723     1.536844   439061 
 2930000    1.0235794   -2.3173429   -2.3173429  -0.78197733   0.17848678   -2.3173429    1.5353655   439061 
 2931000    1.0258849   -2.3202123   -2.3202123  -0.78138847   0.17579194   -2.3202123    1.5388238   439061 
 2932000    1.0263087   -2.3198206   -2.3198206  -0.78036094   0.17553889   -2.3198206    1.5394596   439061 
 2933000    1.0252324   -2.3169303   -2.3169303  -0.77908526   0.18105124   -2.3169303    1.5378451   439061 
 2934000    1.0239663   -2.3158728   -2.3158728  -0.77992692   0.18279173   -2.3158728    1.5359459   439061 
 2935000    1.0248085   -2.3190989   -2.3190989  -0.78188967   0.18003739   -2.3190989    1.5372092   439061 
 2936000    1.0252723   -2.3175595   -2.3175595  -0.77965455   0.18168767   -2.3175595     1.537905   439061 
 2937000    1.0240719   -2.3167356   -2.3167356  -0.78063135   0.18023352   -2.3167356    1.5361043   439061 
 2938000    1.0236764   -2.3155241   -2.3155241  -0.78001303   0.17983072   -2.3155241    1.5355111   439061 
 2939000    1.0259706   -2.3185262   -2.3185262  -0.77957384   0.17802489   -2.3185262    1.5389524   439061 
 2940000    1.0257547   -2.3185515   -2.3185515  -0.77992302   0.17845797   -2.3185515    1.5386285   439061 
 2941000    1.0262865   -2.3189828   -2.3189828  -0.77955648   0.18195616   -2.3189828    1.5394263   439061 
 2942000    1.0271931   -2.3196535   -2.3196535  -0.77886731   0.17802283   -2.3196535    1.5407861   439061 
 2943000    1.0257882   -2.3164988   -2.3164988  -0.77782006   0.17919814   -2.3164988    1.5386788   439061 
 2944000    1.0243799   -2.3154302   -2.3154302  -0.77886383    0.1831328   -2.3154302    1.5365664   439061 
 2945000    1.0273086   -2.3188441   -2.3188441  -0.77788474   0.18279192   -2.3188441    1.5409594   439061 
 2946000    1.0267396   -2.3181606   -2.3181606   -0.7780547   0.17958209   -2.3181606    1.5401059   439061 
 2947000    1.0280733   -2.3192325   -2.3192325  -0.77712604   0.18054094   -2.3192325    1.5421065   439061 
 2948000    1.0274146   -2.3188211   -2.3188211  -0.77770274   0.18058621   -2.3188211    1.5411184   439061 
 2949000    1.0259626   -2.3185961   -2.3185961  -0.77965573   0.18503409   -2.3185961    1.5389404   439061 
 2950000    1.0267407    -2.319861    -2.319861   -0.7797535    0.1791072    -2.319861    1.5401075   439061 
 2951000     1.025212   -2.3188233   -2.3188233  -0.78100874   0.18032443   -2.3188233    1.5378145   439061 
 2952000    1.0241795    -2.318398    -2.318398   -0.7821322   0.18188776    -2.318398    1.5362658   439061 
 2953000    1.0244399   -2.3190454   -2.3190454  -0.78238896   0.17943016   -2.3190454    1.5366564   439061 
 2954000    1.0241034   -2.3186547   -2.3186547  -0.78250301   0.18343014   -2.3186547    1.5361516   439061 
 2955000    1.0257277   -2.3211054   -2.3211054  -0.78251733   0.17746249   -2.3211054     1.538588   439061 
 2956000    1.0240055   -2.3183279   -2.3183279  -0.78232313   0.17576469   -2.3183279    1.5360048   439061 
 2957000    1.0253673   -2.3201291   -2.3201291  -0.78208164    0.1779325   -2.3201291    1.5380474   439061 
 2958000    1.0253536   -2.3212453   -2.3212453   -0.7832185   0.17859408   -2.3212453    1.5380268   439061 
 2959000    1.0252941   -2.3211451   -2.3211451  -0.78320752   0.17612527   -2.3211451    1.5379376   439061 
 2960000    1.0266447   -2.3211843   -2.3211843  -0.78122069   0.17818373   -2.3211843    1.5399636   439061 
 2961000    1.0266023   -2.3215323   -2.3215323  -0.78163231   0.17784176   -2.3215323       1.5399   439061 
 2962000    1.0238885   -2.3183226   -2.3183226  -0.78249343     0.179417   -2.3183226    1.5358292   439061 
 2963000    1.0256344   -2.3205099   -2.3205099  -0.78206178   0.17544702   -2.3205099    1.5384481   439061 
 2964000    1.0253417   -2.3202325   -2.3202325  -0.78222346   0.17724354   -2.3202325    1.5380091   439061 
 2965000    1.0241501   -2.3184433   -2.3184433  -0.78222161   0.18225904   -2.3184433    1.5362217   439061 
 2966000    1.0272897   -2.3217855   -2.3217855  -0.78085449    0.1776453   -2.3217855     1.540931   439061 
 2967000    1.0254453   -2.3180924   -2.3180924    -0.779928   0.18137433   -2.3180924    1.5381644   439061 
 2968000    1.0267353   -2.3200308   -2.3200308  -0.77993139   0.18109738   -2.3200308    1.5400994   439061 
 2969000    1.0259667   -2.3203218   -2.3203218  -0.78137523   0.17293625   -2.3203218    1.5389466   439061 
 2970000    1.0245775   -2.3185611   -2.3185611  -0.78169838   0.17857954   -2.3185611    1.5368627   439061 
 2971000    1.0248424   -2.3181855   -2.3181855  -0.78092541   0.18169081   -2.3181855    1.5372601   439061 
 2972000    1.0242533   -2.3176653   -2.3176653   -0.7812888    0.1745787   -2.3176653    1.5363765   439061 
 2973000    1.0249249     -2.31813     -2.31813  -0.78074623   0.18123294     -2.31813    1.5373838   439061 
 2974000    1.0252005   -2.3192464   -2.3192464  -0.78144915   0.17404147   -2.3192464    1.5377973   439061 
 2975000    1.0257459   -2.3195009   -2.3195009  -0.78088554   0.17620799   -2.3195009    1.5386154   439061 
 2976000    1.0266861   -2.3211995   -2.3211995  -0.78117382   0.17770406   -2.3211995    1.5400257   439061 
 2977000     1.025259   -2.3183973   -2.3183973  -0.78051228   0.18246474   -2.3183973     1.537885   439061 
 2978000    1.0250842   -2.3191226   -2.3191226  -0.78149978   0.17865865   -2.3191226    1.5376228   439061 
 2979000    1.0250186   -2.3197909   -2.3197909  -0.78226653   0.18411535   -2.3197909    1.5375243   439061 
 2980000    1.0252526   -2.3192042   -2.3192042   -0.7813289   0.18102501   -2.3192042    1.5378753   439061 
 2981000    1.0260022   -2.3211755   -2.3211755  -0.78217569   0.17915521   -2.3211755    1.5389998   439061 
 2982000     1.023972   -2.3174699   -2.3174699  -0.78151542   0.17789762   -2.3174699    1.5359545   439061 
 2983000    1.0253964   -2.3201845   -2.3201845  -0.78209344   0.17464583   -2.3201845    1.5380911   439061 
 2984000    1.0236609   -2.3193121   -2.3193121  -0.78382419   0.17907489   -2.3193121    1.5354879   439061 
 2985000    1.0254752   -2.3216877   -2.3216877  -0.78347843   0.18041306   -2.3216877    1.5382092   439061 
 2986000    1.0233459   -2.3185379   -2.3185379  -0.78352258   0.17780009   -2.3185379    1.5350153   439061 
 2987000    1.0248106   -2.3199683   -2.3199683   -0.7827559   0.17787821   -2.3199683    1.5372124   439061 
 2988000    1.0246628   -2.3200014   -2.3200014  -0.78301072   0.17902285   -2.3200014    1.5369907   439061 
 2989000     1.022229   -2.3170296   -2.3170296  -0.78368967   0.17390769   -2.3170296      1.53334   439061 
 2990000    1.0251939   -2.3201882   -2.3201882   -0.7824008   0.17806928   -2.3201882    1.5377874   439061 
 2991000    1.0260205   -2.3215448   -2.3215448  -0.78251751   0.18058492   -2.3215448    1.5390273   439061 
 2992000    1.0231465   -2.3179881   -2.3179881  -0.78327176   0.17886884   -2.3179881    1.5347163   439061 
 2993000    1.0229711   -2.3187455   -2.3187455  -0.78429236   0.17807609   -2.3187455    1.5344531   439061 
 2994000     1.023207   -2.3190873   -2.3190873  -0.78428033   0.17855243   -2.3190873     1.534807   439061 
 2995000    1.0248813   -2.3220688   -2.3220688  -0.78475038   0.17595789   -2.3220688    1.5373184   439061 
 2996000    1.0250766   -2.3213761   -2.3213761  -0.78376469   0.17898414   -2.3213761    1.5376114   439061 
 2997000    1.0232516   -2.3197924   -2.3197924  -0.78491849   0.17631512   -2.3197924    1.5348739   439061 
 2998000    1.0237017   -2.3194927   -2.3194927  -0.78394357   0.17400666   -2.3194927    1.5355491   439061 
 2999000    1.0240304   -2.3193655   -2.3193655  -0.78332338   0.18200519   -2.3193655    1.5360421   439061 
 3000000    1.0249028   -2.3208041   -2.3208041   -0.7834534   0.17741303   -2.3208041    1.5373507   439061 
Loop time of 12019.7 on 96 procs for 3000000 steps with 439061 atoms

Performance: 107822.614 tau/day, 249.589 timesteps/s
91.2% CPU use with 96 MPI tasks x 1 OpenMP threads

MPI task timing breakdown:
Section |  min time  |  avg time  |  max time  |%varavg|  %CPU | %total
-----------------------------------------------------------------------
Pair    | 5121.6     | 6655.5     | 7872.4     | 992.5 |  96.5 | 55.37
Bond    | 2.155      | 2.2456     | 2.3719     |   2.6 | 100.0 |  0.02
Neigh   | 1706.9     | 1979.3     | 2168.5     | 290.3 |  99.4 | 16.47
Comm    | 1050.4     | 2739.2     | 4322.1     |1716.1 |  78.7 | 22.79
Output  | 112.09     | 112.32     | 112.33     |   0.2 |  68.2 |  0.93
Modify  | 169.85     | 270.83     | 776.19     |1133.5 |  82.6 |  2.25
Other   |            | 260.3      |            |       |       |  2.17

Nlocal:        4573.55 ave        4830 max        4388 min
Histogram: 7 9 11 17 17 17 13 3 1 1
Nghost:        4970.01 ave        5636 max        3842 min
Histogram: 10 11 3 0 0 2 10 22 24 14
Neighs:        130506.0 ave      156939 max       99884 min
Histogram: 4 7 5 10 14 13 14 19 7 3

Total # of neighbors = 12528624
Ave neighs/atom = 28.535042
Ave special neighs/atom = 0.0000000
Neighbor list builds = 300000
Dangerous builds = 297000

write_data	data.lj
System init for write_data ...
WARNING: Not all mixed pair coeffs generated from mixing. Use write_data with 'pair ij' option to store all pair coeffs. (src/write_data.cpp:312)
Total wall time: 3:20:21
