LAMMPS (24 Dec 2020)
OMP_NUM_THREADS environment is not set. Defaulting to 1 thread. (src/comm.cpp:94)
  using 1 OpenMP thread(s) per MPI task
# Simple rigid body system
# needed variables:

#variable	startTemp equal 0.5
#variable 	temp 	  equal 0.8

units		lj
atom_style	full
dimension 	3
boundary	p p f
pair_style	lj/smooth/linear ${cutoff}
pair_style	lj/smooth/linear 2.3


variable 	sigma		equal 1.0
variable 	epsilon 	equal 1.0

region		box block 0 80 0 80 0 160
create_box 	3 box
Created orthogonal box = (0.0000000 0.0000000 0.0000000) to (80.000000 80.000000 160.00000)
  3 by 4 by 8 MPI processor grid



lattice 	sc 0.66
Lattice spacing in x,y,z = 1.1485556 1.1485556 1.1485556
region		fluid block EDGE EDGE EDGE EDGE 2 100 units box
create_atoms 	1 region fluid
Created 421400 atoms
  create_atoms CPU = 0.149 seconds

lattice 	sc 0.045
Lattice spacing in x,y,z = 2.8114422 2.8114422 2.8114422
region		gas block EDGE EDGE EDGE EDGE 101 158 units box
create_atoms    1 region gas
Created 17661 atoms
  create_atoms CPU = 0.004 seconds

group		solvent type 1
439061 atoms in group solvent

mass		1 1.0
mass		2 1.0
mass		3 1.0



neighbor 	0.4 bin

pair_coeff	1 1 1.0 1.0
pair_coeff	2 2 0.0 0.0
pair_coeff	3 3 0.0 0.0
pair_coeff	2 3 0.0 0.0
pair_coeff	1 2*3 0.0 0.0

pair_modify 	shift yes

delete_atoms	overlap 0.5 solvent solvent
System init for delete_atoms ...
Neighbor list info ...
  update every 1 steps, delay 10 steps, check yes
  max neighbors/atom: 2000, page size: 100000
  master list distance cutoff = 2.7
  ghost atom cutoff = 2.7
  binsize = 1.35, bins = 60 60 119
  2 neighbor lists, perpetual/occasional/extra = 1 1 0
  (1) command delete_atoms, occasional
      attributes: full, newton on
      pair build: full/bin
      stencil: full/bin/3d
      bin: standard
  (2) pair lj/smooth/linear, perpetual
      attributes: half, newton on
      pair build: half/bin/newton
      stencil: half/bin/3d/newton
      bin: standard
WARNING: Ignoring 'compress yes' for molecular system (src/delete_atoms.cpp:125)
Deleted 0 atoms, new total = 439061

velocity 	solvent create ${startTemp} 563435 loop geom
velocity 	solvent create 1.0 563435 loop geom

balance 	1.05 shift z 10 1.05
Balancing ...
Neighbor list info ...
  update every 1 steps, delay 10 steps, check yes
  max neighbors/atom: 2000, page size: 100000
  master list distance cutoff = 2.7
  ghost atom cutoff = 2.7
  binsize = 1.35, bins = 60 60 119
  1 neighbor lists, perpetual/occasional/extra = 1 0 0
  (1) pair lj/smooth/linear, perpetual
      attributes: half, newton on
      pair build: half/bin/newton
      stencil: half/bin/3d/newton
      bin: standard
 rebalancing time: 0.010 seconds
  iteration count = 5
  initial/final maximal load/proc = 7776.0000 5616.0000
  initial/final imbalance factor  = 1.7002102 1.2279296
  x cuts: 0.0000000 0.33333333 0.66666667 1.0000000
  y cuts: 0.0000000 0.25000000 0.50000000 0.75000000 1.0000000
  z cuts: 0.0000000 0.089843750 0.17578125 0.25390625 0.33593750 0.41406250 0.50390625 0.58203125 1.0000000


####################### WALLS ###########################


variable       epsilonWall equal 2*${epsilon}
variable       epsilonWall equal 2*1

variable       cutoffTop   equal   0.7147*${sigma}
variable       cutoffTop   equal   0.7147*1

variable       cutoffLow   equal   3*${sigma}
variable       cutoffLow   equal   3*1


fix            topWall all wall/lj93 zhi EDGE                ${epsilonWall} ${sigma} ${cutoffTop} units box
fix            topWall all wall/lj93 zhi EDGE                2 ${sigma} ${cutoffTop} units box
fix            topWall all wall/lj93 zhi EDGE                2 1 ${cutoffTop} units box
fix            topWall all wall/lj93 zhi EDGE                2 1 0.7147 units box

fix            lowWall all wall/lj93 zlo EDGE                ${epsilonWall} ${sigma} ${cutoffLow} units box
fix            lowWall all wall/lj93 zlo EDGE                2 ${sigma} ${cutoffLow} units box
fix            lowWall all wall/lj93 zlo EDGE                2 1 ${cutoffLow} units box
fix            lowWall all wall/lj93 zlo EDGE                2 1 3 units box


###################### COMPUTES ##########################

compute        bin1 solvent chunk/atom bin/1d z upper 1.0


######################	FIXES ############################


fix 		peclet solvent ave/chunk 1000 1 1000 bin1 density/number norm 		 none ave one file density.profile

fix 		 temp solvent ave/chunk 1000 1 1000 bin1 temp norm 		 none ave one file temp.profile

fix 		2 solvent nve


## Thermostat


region		regthermo block EDGE EDGE EDGE EDGE 0 20 units box

group 		thermo dynamic solvent region regthermo every 1000
dynamic group thermo defined

fix 		3 thermo langevin ${startTemp} ${temp} 10 156453
fix 		3 thermo langevin 1.0 ${temp} 10 156453
fix 		3 thermo langevin 1.0 1.0 10 156453



#### Load balancing


fix 		bal all balance 1000 1.05 shift z 10 1.05


############### Diagnostics and computes ###################
#compute 	com cube	  rigid/local	1 mol x y z
#compute 	quat cube	  rigid/local	1 mol quatw quati quatj quatk

thermo 		1000
thermo_style 	custom step temp epair evdwl etotal press pe ke atoms

dump		1 all custom 100000 dump.lammpstrj id mol type x y z
dump 		2 all image 10000 image.*.png type type
dump 		3 all movie 1000 movie.avi type type

#dump 		com cube local 1000 dump.*.xyz c_com[*]
#dump		quat cube      local 1000 dump.*.quat c_quat[*]


restart 	1000000 restart.dat
timestep 	0.005
timer 		full
New timer settings: style=full  mode=nosync  timeout=off

run		3000000
Per MPI rank memory allocation (min/avg/max) = 10.43 | 10.74 | 10.82 Mbytes
Step Temp E_pair E_vdwl TotEng Press PotEng KinEng Atoms 
       0            1  -0.47580147  -0.47580147    1.0241951    4.3351595  -0.47580147    1.4999966   439061 
    1000     1.999369   -2.4477695   -2.4477695   0.55127713    2.2986536   -2.4477695    2.9990466   439061 
    2000    1.8888721   -2.4648707   -2.4648707   0.36843094    1.4301536   -2.4648707    2.8333016   439061 
    3000    1.7267848   -2.3741801   -2.3741801   0.21599113    1.0944729   -2.3741801    2.5901712   439061 
    4000    1.6419878   -2.3418511   -2.3418511   0.12112507   0.86822328   -2.3418511    2.4629761   439061 
    5000    1.5957031   -2.2966369   -2.2966369  0.096912291   0.70307845   -2.2966369    2.3935492   439061 
    6000    1.5674089   -2.2441988   -2.2441988   0.10690929   0.64606676   -2.2441988    2.3511081   439061 
    7000    1.5475004    -2.191335    -2.191335   0.12991036   0.65652184    -2.191335    2.3212453   439061 
    8000    1.5395067    -2.151994    -2.151994   0.15726072   0.69991196    -2.151994    2.3092547   439061 
    9000    1.5410394   -2.1280809   -2.1280809   0.18347297   0.75836535   -2.1280809    2.3115539   439061 
   10000    1.5508425   -2.1198966   -2.1198966   0.20636189   0.80117256   -2.1198966    2.3262585   439061 
   11000    1.5579475   -2.1098634   -2.1098634   0.22705248   0.84253073   -2.1098634    2.3369159   439061 
   12000    1.5606276   -2.0936187   -2.0936187    0.2473174   0.82454007   -2.0936187    2.3409361   439061 
   13000    1.5482053   -2.0595397   -2.0595397   0.26276306   0.76480738   -2.0595397    2.3223027   439061 
   14000    1.5391968   -2.0305684   -2.0305684    0.2782216   0.72067027   -2.0305684      2.30879   439061 
   15000    1.5394761   -2.0171964   -2.0171964    0.2920125   0.73251054   -2.0171964    2.3092089   439061 
   16000    1.5412358   -2.0097812   -2.0097812   0.30206718   0.73963417   -2.0097812    2.3118484   439061 
   17000    1.5328116   -2.0084081   -2.0084081   0.29080398     0.729296   -2.0084081    2.2992121   439061 
   18000    1.5063561   -2.0210256   -2.0210256   0.23850334   0.71628369   -2.0210256     2.259529   439061 
   19000    1.4715957   -2.0462839   -2.0462839   0.16110457   0.72291433   -2.0462839    2.2073885   439061 
   20000    1.4378936   -2.0779731   -2.0779731  0.078862421   0.73445975   -2.0779731    2.1568355   439061 
   21000    1.4126944   -2.1066966   -2.1066966  0.012340113   0.73072399   -2.1066966    2.1190367   439061 
   22000    1.3907999   -2.1224771   -2.1224771 -0.036281935   0.71873883   -2.1224771    2.0861952   439061 
   23000    1.3749775   -2.1312941   -2.1312941 -0.068832568   0.70105454   -2.1312941    2.0624616   439061 
   24000    1.3611802   -2.1341353   -2.1341353 -0.092369601   0.67899615   -2.1341353    2.0417657   439061 
   25000     1.350791    -2.133178    -2.133178  -0.10699605   0.65977212    -2.133178    2.0261819   439061 
   26000    1.3411393   -2.1275683   -2.1275683  -0.11586397   0.63214812   -2.1275683    2.0117044   439061 
   27000    1.3341965   -2.1201845   -2.1201845  -0.11889429   0.61124606   -2.1201845    2.0012902   439061 
   28000    1.3242396   -2.1083457   -2.1083457  -0.12199086   0.58790451   -2.1083457    1.9863548   439061 
   29000    1.3150474   -2.0960647   -2.0960647  -0.12349811   0.56190241   -2.0960647    1.9725665   439061 
   30000    1.3054582   -2.0789054   -2.0789054  -0.12072258   0.53956378   -2.0789054    1.9581828   439061 
   31000    1.2987345     -2.06506     -2.06506  -0.11696274   0.52129035     -2.06506    1.9480973   439061 
   32000    1.2969302   -2.0553211   -2.0553211  -0.10993029   0.51177452   -2.0553211    1.9453909   439061 
   33000    1.2950345   -2.0448215   -2.0448215  -0.10227418   0.51459694   -2.0448215    1.9425473   439061 
   34000    1.2961926   -2.0376493   -2.0376493 -0.093364801   0.52161179   -2.0376493    1.9442845   439061 
   35000    1.2992406   -2.0358859   -2.0358859 -0.087029492   0.51337192   -2.0358859    1.9488564   439061 
   36000    1.3001732   -2.0283151   -2.0283151 -0.078059685   0.52315095   -2.0283151    1.9502554   439061 
   37000    1.3019371   -2.0215305   -2.0215305 -0.068629232   0.52128711   -2.0215305    1.9529013   439061 
   38000    1.3038552   -2.0157163   -2.0157163  -0.05993788   0.51891558   -2.0157163    1.9557784   439061 
   39000    1.3046769   -2.0096131   -2.0096131  -0.05260214   0.51682384   -2.0096131    1.9570109   439061 
   40000    1.3073303   -2.0046207   -2.0046207 -0.043629805   0.51758572   -2.0046207    1.9609909   439061 
   41000    1.3103864   -2.0029185   -2.0029185 -0.037343419   0.52043319   -2.0029185    1.9655751   439061 
   42000    1.3156033   -2.0073407   -2.0073407 -0.033940274   0.53427997   -2.0073407    1.9734005   439061 
   43000    1.3150673   -2.0147741   -2.0147741 -0.042177602   0.53557559   -2.0147741    1.9725965   439061 
   44000    1.3086137    -2.023664    -2.023664 -0.060747941   0.55099271    -2.023664    1.9629161   439061 
   45000    1.3025473   -2.0369873   -2.0369873 -0.083170771   0.55336091   -2.0369873    1.9538165   439061 
   46000     1.294834   -2.0466495   -2.0466495  -0.10440294   0.54909128   -2.0466495    1.9422465   439061 
   47000    1.2892819   -2.0553818   -2.0553818  -0.12146342   0.54821313   -2.0553818    1.9339184   439061 
   48000    1.2820913   -2.0596854   -2.0596854  -0.13655284   0.54949494   -2.0596854    1.9231326   439061 
   49000    1.2795796   -2.0678993   -2.0678993  -0.14853426   0.53665086   -2.0678993    1.9193651   439061 
   50000    1.2749861   -2.0687647   -2.0687647  -0.15628985   0.52818521   -2.0687647    1.9124748   439061 
   51000    1.2716411   -2.0692071   -2.0692071  -0.16174981   0.52753288   -2.0692071    1.9074573   439061 
   52000     1.267165   -2.0664566   -2.0664566  -0.16571345   0.52677965   -2.0664566    1.9007431   439061 
   53000    1.2651912   -2.0669909   -2.0669909   -0.1692085   0.51102644   -2.0669909    1.8977824   439061 
   54000    1.2594055   -2.0612216   -2.0612216  -0.17211768   0.50820801   -2.0612216    1.8891039   439061 
   55000    1.2562085   -2.0562702   -2.0562702  -0.17196174   0.50392201   -2.0562702    1.8843085   439061 
   56000    1.2533538   -2.0518358   -2.0518358  -0.17180936   0.48448587   -2.0518358    1.8800265   439061 
   57000    1.2504923     -2.04645     -2.04645  -0.17071588   0.48199787     -2.04645    1.8757341   439061 
   58000     1.249423   -2.0415258   -2.0415258  -0.16739549   0.47764911   -2.0415258    1.8741303   439061 
   59000    1.2492057   -2.0379197   -2.0379197  -0.16411541   0.47372054   -2.0379197    1.8738043   439061 
   60000    1.2486821   -2.0337185   -2.0337185  -0.16069965   0.47489957   -2.0337185    1.8730189   439061 
   61000    1.2505196   -2.0315772   -2.0315772  -0.15580205    0.4706752   -2.0315772    1.8757752   439061 
   62000    1.2502226   -2.0267981   -2.0267981  -0.15146844   0.47006619   -2.0267981    1.8753296   439061 
   63000     1.250623   -2.0232159   -2.0232159  -0.14728567   0.47161777   -2.0232159    1.8759302   439061 
   64000    1.2522799   -2.0223628   -2.0223628  -0.14394723   0.46954604   -2.0223628    1.8784156   439061 
   65000    1.2539189   -2.0197735   -2.0197735  -0.13889939   0.46749216   -2.0197735    1.8808741   439061 
   66000    1.2555294   -2.0185433   -2.0185433  -0.13525348   0.47225749   -2.0185433    1.8832898   439061 
   67000    1.2575559   -2.0181833   -2.0181833  -0.13185371   0.47611111   -2.0181833    1.8863296   439061 
   68000    1.2569768   -2.0175509   -2.0175509     -0.13209   0.48613217   -2.0175509    1.8854609   439061 
   69000    1.2574754   -2.0209532   -2.0209532   -0.1347443   0.48975861   -2.0209532    1.8862089   439061 
   70000    1.2567447   -2.0270277   -2.0270277  -0.14191489   0.49125642   -2.0270277    1.8851128   439061 
   71000    1.2546667   -2.0324957   -2.0324957  -0.15049994   0.49135548   -2.0324957    1.8819958   439061 
   72000       1.2533   -2.0375662   -2.0375662  -0.15762044   0.49639714   -2.0375662    1.8799458   439061 
   73000    1.2511848   -2.0426025   -2.0426025  -0.16582953   0.49469028   -2.0426025     1.876773   439061 
   74000    1.2479791   -2.0459684   -2.0459684    -0.174004   0.49485944   -2.0459684    1.8719644   439061 
   75000    1.2455666    -2.048355    -2.048355  -0.18000944   0.50026537    -2.048355    1.8683456   439061 
   76000    1.2422729   -2.0489346   -2.0489346  -0.18552944   0.49312598   -2.0489346    1.8634052   439061 
   77000    1.2416247   -2.0525534   -2.0525534  -0.19012064   0.48926934   -2.0525534    1.8624328   439061 
   78000    1.2381988   -2.0504979   -2.0504979  -0.19320392   0.48570258   -2.0504979     1.857294   439061 
   79000    1.2368168   -2.0516887   -2.0516887  -0.19646768   0.48074139   -2.0516887     1.855221   439061 
   80000    1.2366369   -2.0515378   -2.0515378  -0.19658661   0.47403475   -2.0515378    1.8549512   439061 
   81000    1.2330127   -2.0469056   -2.0469056  -0.19739081   0.47738135   -2.0469056    1.8495148   439061 
   82000    1.2338308   -2.0483745   -2.0483745   -0.1976325   0.46801821   -2.0483745     1.850742   439061 
   83000    1.2300233   -2.0445958   -2.0445958  -0.19956503   0.46694606   -2.0445958    1.8450308   439061 
   84000    1.2283622   -2.0413681   -2.0413681  -0.19882903   0.46566496   -2.0413681    1.8425391   439061 
   85000    1.2287656   -2.0409814   -2.0409814  -0.19783715   0.46080629   -2.0409814    1.8431442   439061 
   86000    1.2291531   -2.0407468   -2.0407468  -0.19702136    0.4535139   -2.0407468    1.8437254   439061 
   87000    1.2272698     -2.03699     -2.03699  -0.19608952   0.45248504     -2.03699    1.8409005   439061 
   88000    1.2269683   -2.0339085   -2.0339085  -0.19346025   0.45063086   -2.0339085    1.8404483   439061 
   89000    1.2271417   -2.0335784   -2.0335784  -0.19287001   0.45564897   -2.0335784    1.8407083   439061 
   90000    1.2270886   -2.0325551   -2.0325551  -0.19192645   0.45140686   -2.0325551    1.8406287   439061 
   91000    1.2269797   -2.0318941   -2.0318941  -0.19142884   0.45286366   -2.0318941    1.8404653   439061 
   92000    1.2280313   -2.0311524   -2.0311524  -0.18910958   0.45133513   -2.0311524    1.8420428   439061 
   93000     1.230215   -2.0336831   -2.0336831  -0.18836475   0.44740876   -2.0336831    1.8453183   439061 
   94000    1.2314745   -2.0346989   -2.0346989  -0.18749141   0.45514987   -2.0346989    1.8472075   439061 
   95000    1.2307404   -2.0343854   -2.0343854  -0.18827898   0.45766175   -2.0343854    1.8461064   439061 
   96000    1.2304299   -2.0360078   -2.0360078  -0.19036713   0.46255996   -2.0360078    1.8456407   439061 
   97000    1.2303559   -2.0381174   -2.0381174  -0.19258778   0.46111192   -2.0381174    1.8455296   439061 
   98000    1.2288632   -2.0410671   -2.0410671  -0.19777644   0.46155071   -2.0410671    1.8432906   439061 
   99000    1.2280428   -2.0434153   -2.0434153  -0.20135532   0.46550139   -2.0434153      1.84206   439061 
  100000    1.2258066   -2.0447825   -2.0447825  -0.20607678   0.46766808   -2.0447825    1.8387057   439061 
  101000    1.2260334   -2.0482358   -2.0482358  -0.20918998   0.46411564   -2.0482358    1.8390459   439061 
  102000    1.2228425   -2.0467091   -2.0467091  -0.21244957    0.4629697   -2.0467091    1.8342595   439061 
  103000    1.2248601   -2.0513998   -2.0513998  -0.21411388   0.45944778   -2.0513998    1.8372859   439061 
  104000     1.222211   -2.0496828   -2.0496828  -0.21637043   0.45661731   -2.0496828    1.8333123   439061 
  105000    1.2200948   -2.0486664   -2.0486664  -0.21852831   0.46170765   -2.0486664    1.8301381   439061 
  106000    1.2199633   -2.0498157   -2.0498157  -0.21987496   0.45698636   -2.0498157    1.8299407   439061 
  107000    1.2180383   -2.0498635   -2.0498635  -0.22281026   0.45070239   -2.0498635    1.8270532   439061 
  108000    1.2167053   -2.0484614   -2.0484614   -0.2234077   0.45288411   -2.0484614    1.8250537   439061 
  109000    1.2155665   -2.0468245   -2.0468245  -0.22347898   0.45115212   -2.0468245    1.8233456   439061 
  110000    1.2157411   -2.0475398   -2.0475398  -0.22393235   0.44783332   -2.0475398    1.8236075   439061 
  111000    1.2149351   -2.0468257   -2.0468257  -0.22442722   0.44670049   -2.0468257    1.8223985   439061 
  112000     1.214401   -2.0458719   -2.0458719  -0.22427457   0.44541094   -2.0458719    1.8215973   439061 
  113000    1.2126289   -2.0431912   -2.0431912  -0.22425195   0.44554333   -2.0431912    1.8189393   439061 
  114000    1.2145246   -2.0451348   -2.0451348  -0.22335206   0.44060401   -2.0451348    1.8217828   439061 
  115000     1.214437   -2.0425653   -2.0425653  -0.22091389   0.44013431   -2.0425653    1.8216514   439061 
  116000    1.2133479   -2.0415141   -2.0415141   -0.2214963   0.44333631   -2.0415141    1.8200178   439061 
  117000    1.2141681   -2.0410722   -2.0410722  -0.21982411   0.44374514   -2.0410722    1.8212481   439061 
  118000    1.2145373   -2.0411637   -2.0411637  -0.21936187    0.4421498   -2.0411637    1.8218019   439061 
  119000      1.21317   -2.0402346   -2.0402346  -0.22048375   0.44511246   -2.0402346    1.8197508   439061 
  120000    1.2151914   -2.0410936   -2.0410936  -0.21831063    0.4443133   -2.0410936     1.822783   439061 
  121000    1.2147755   -2.0425451   -2.0425451  -0.22038596   0.44283891   -2.0425451    1.8221592   439061 
  122000    1.2145376   -2.0429225   -2.0429225  -0.22112028   0.44394973   -2.0429225    1.8218022   439061 
  123000    1.2144314     -2.04391     -2.04391  -0.22226717   0.44376672     -2.04391    1.8216429   439061 
  124000    1.2141542   -2.0446972   -2.0446972  -0.22347002   0.44526259   -2.0446972    1.8212271   439061 
  125000    1.2123791   -2.0435025   -2.0435025  -0.22493807   0.44875643   -2.0435025    1.8185644   439061 
  126000    1.2133476   -2.0462933   -2.0462933  -0.22627599   0.44487549   -2.0462933    1.8200173   439061 
  127000    1.2107712   -2.0451237   -2.0451237  -0.22897108   0.45026359   -2.0451237    1.8161526   439061 
  128000    1.2113085   -2.0478902   -2.0478902  -0.23093161   0.44919298   -2.0478902    1.8169585   439061 
  129000    1.2100058   -2.0476685   -2.0476685  -0.23266401   0.44949853   -2.0476685    1.8150045   439061 
  130000    1.2110001   -2.0521718   -2.0521718  -0.23567579   0.44208295   -2.0521718     1.816496   439061 
  131000    1.2084794   -2.0505276   -2.0505276  -0.23781265   0.44209977   -2.0505276     1.812715   439061 
  132000    1.2075048   -2.0507697   -2.0507697  -0.23951662   0.44027114   -2.0507697     1.811253   439061 
  133000    1.2075671   -2.0504546   -2.0504546  -0.23910808   0.44358844   -2.0504546    1.8113465   439061 
  134000    1.2072202   -2.0505612   -2.0505612  -0.23973494   0.43835226   -2.0505612    1.8108262   439061 
  135000    1.2056592   -2.0488207   -2.0488207  -0.24033597   0.44484088   -2.0488207    1.8084848   439061 
  136000    1.2044428   -2.0492879   -2.0492879  -0.24262782   0.43643356   -2.0492879    1.8066601   439061 
  137000    1.2056827   -2.0507741   -2.0507741  -0.24225416   0.43354809   -2.0507741      1.80852   439061 
  138000    1.2030064   -2.0469153   -2.0469153  -0.24240977   0.44128233   -2.0469153    1.8045055   439061 
  139000    1.2034104    -2.048275    -2.048275  -0.24316361   0.43369478    -2.048275    1.8051114   439061 
  140000    1.2042095   -2.0488355   -2.0488355  -0.24252539   0.43497465   -2.0488355    1.8063102   439061 
  141000     1.203536   -2.0483611   -2.0483611  -0.24306128   0.43557136   -2.0483611    1.8052999   439061 
  142000    1.2034925   -2.0487216   -2.0487216  -0.24348699   0.43568514   -2.0487216    1.8052346   439061 
  143000    1.2029063   -2.0476669   -2.0476669  -0.24331154   0.43379457   -2.0476669    1.8043554   439061 
  144000    1.2028454   -2.0467742   -2.0467742  -0.24251025   0.43870747   -2.0467742    1.8042639   439061 
  145000    1.2041968   -2.0481861   -2.0481861  -0.24189502   0.43477508   -2.0481861    1.8062911   439061 
  146000    1.2022039   -2.0470092   -2.0470092  -0.24370743   0.43286563   -2.0470092    1.8033017   439061 
  147000    1.2021379   -2.0475724   -2.0475724  -0.24436967   0.43303248   -2.0475724    1.8032027   439061 
  148000    1.2023978   -2.0472388   -2.0472388  -0.24364621   0.43705512   -2.0472388    1.8035926   439061 
  149000    1.2020078   -2.0476001   -2.0476001  -0.24459258   0.43619091   -2.0476001    1.8030075   439061 
  150000    1.2035148   -2.0507843   -2.0507843  -0.24551615   0.42834522   -2.0507843    1.8052681   439061 
  151000    1.2020391   -2.0495571   -2.0495571  -0.24650254   0.43399448   -2.0495571    1.8030545   439061 
  152000    1.2025556   -2.0510823   -2.0510823    -0.247253   0.43664001   -2.0510823    1.8038293   439061 
  153000    1.2014241   -2.0513264   -2.0513264  -0.24919437   0.43605698   -2.0513264     1.802132   439061 
  154000    1.2013055   -2.0518941   -2.0518941  -0.24993992   0.43616388   -2.0518941    1.8019542   439061 
  155000    1.1981829   -2.0493966   -2.0493966  -0.25212634   0.43710688   -2.0493966    1.7972702   439061 
  156000     1.201148   -2.0535732   -2.0535732  -0.25185536   0.43094535   -2.0535732    1.8017178   439061 
  157000    1.1988979   -2.0517033   -2.0517033  -0.25336052   0.43406562   -2.0517033    1.7983427   439061 
  158000    1.1988376   -2.0517019   -2.0517019  -0.25344955   0.43594156   -2.0517019    1.7982523   439061 
  159000      1.19728    -2.050987    -2.050987  -0.25507116   0.43235567    -2.050987    1.7959158   439061 
  160000    1.1988425   -2.0525574   -2.0525574  -0.25429767   0.43189255   -2.0525574    1.7982597   439061 
  161000    1.1977114   -2.0525809   -2.0525809  -0.25601781    0.4328913   -2.0525809    1.7965631   439061 
  162000    1.1960567   -2.0532735   -2.0532735  -0.25919256   0.42781161   -2.0532735    1.7940809   439061 
  163000    1.1947006    -2.051725    -2.051725  -0.25967811   0.43102985    -2.051725    1.7920468   439061 
  164000    1.1949252   -2.0516093   -2.0516093  -0.25922555   0.43287143   -2.0516093    1.7923837   439061 
  165000    1.1965165   -2.0533364   -2.0533364  -0.25856579   0.42620505   -2.0533364    1.7947706   439061 
  166000    1.1955471   -2.0510522   -2.0510522  -0.25773557   0.43182605   -2.0510522    1.7933166   439061 
  167000    1.1954705   -2.0505209   -2.0505209  -0.25731926   0.42965578   -2.0505209    1.7932016   439061 
  168000    1.1959845   -2.0532494   -2.0532494  -0.25927677   0.42088215   -2.0532494    1.7939727   439061 
  169000    1.1949621   -2.0520495   -2.0520495  -0.25961044   0.42432821   -2.0520495     1.792439   439061 
  170000    1.1938184   -2.0531883   -2.0531883  -0.26246472   0.42144393   -2.0531883    1.7907236   439061 
  171000     1.192936   -2.0528487   -2.0528487  -0.26344886   0.42031736   -2.0528487    1.7893999   439061 
  172000     1.192113   -2.0510104   -2.0510104    -0.262845   0.43116102   -2.0510104    1.7881654   439061 
  173000     1.192807    -2.052948    -2.052948  -0.26374161   0.41964697    -2.052948    1.7892064   439061 
  174000    1.1928005   -2.0512291   -2.0512291  -0.26203236   0.42189863   -2.0512291    1.7891967   439061 
  175000    1.1925866   -2.0519802   -2.0519802  -0.26310446   0.42303881   -2.0519802    1.7888758   439061 
  176000    1.1926102   -2.0529638   -2.0529638  -0.26405255   0.42045714   -2.0529638    1.7889112   439061 
  177000    1.1914051   -2.0518733   -2.0518733  -0.26476979   0.42288319   -2.0518733    1.7871035   439061 
  178000    1.1917327   -2.0520763   -2.0520763  -0.26448126   0.42417971   -2.0520763     1.787595   439061 
  179000    1.1902881   -2.0524037   -2.0524037   -0.2669756   0.42964761   -2.0524037    1.7854281   439061 
  180000    1.1902598   -2.0545244   -2.0545244  -0.26913872   0.42126463   -2.0545244    1.7853856   439061 
  181000    1.1883655   -2.0525945   -2.0525945  -0.27005036   0.42761821   -2.0525945    1.7825441   439061 
  182000    1.1896534   -2.0546183   -2.0546183  -0.27014221    0.4241516   -2.0546183    1.7844761   439061 
  183000    1.1893222   -2.0539722   -2.0539722  -0.26999297   0.42641316   -2.0539722    1.7839793   439061 
  184000    1.1896041   -2.0557766   -2.0557766  -0.27137454   0.41656822   -2.0557766    1.7844021   439061 
  185000    1.1887992   -2.0544179   -2.0544179  -0.27122311   0.42402216   -2.0544179    1.7831948   439061 
  186000    1.1879199   -2.0543254   -2.0543254   -0.2724496   0.41936984   -2.0543254    1.7818758   439061 
  187000    1.1887966   -2.0554967   -2.0554967  -0.27230584   0.41990282   -2.0554967    1.7831909   439061 
  188000    1.1868769   -2.0559382   -2.0559382  -0.27562701   0.41768052   -2.0559382    1.7803112   439061 
  189000    1.1859117   -2.0543833   -2.0543833  -0.27551974    0.4181857   -2.0543833    1.7788635   439061 
  190000    1.1851256   -2.0548469   -2.0548469   -0.2771625   0.41944328   -2.0548469    1.7776844   439061 
  191000    1.1857814   -2.0566799   -2.0566799  -0.27801183   0.41216117   -2.0566799    1.7786681   439061 
  192000    1.1875726   -2.0589761   -2.0589761  -0.27762129   0.41881962   -2.0589761    1.7813548   439061 
  193000     1.185189   -2.0564595   -2.0564595  -0.27868004   0.41929159   -2.0564595    1.7777795   439061 
  194000    1.1836907   -2.0551103   -2.0551103  -0.27957835   0.41864244   -2.0551103     1.775532   439061 
  195000    1.1855967   -2.0568085   -2.0568085  -0.27841741   0.41818918   -2.0568085    1.7783911   439061 
  196000    1.1850965   -2.0569343   -2.0569343  -0.27929367   0.42273462   -2.0569343    1.7776407   439061 
  197000    1.1840394   -2.0560345   -2.0560345  -0.27997941   0.41385507   -2.0560345    1.7760551   439061 
  198000    1.1851659   -2.0580832   -2.0580832  -0.28033838   0.41223105   -2.0580832    1.7777448   439061 
  199000    1.1838605   -2.0561778   -2.0561778  -0.28039108    0.4191608   -2.0561778    1.7757867   439061 
  200000     1.184448    -2.056826    -2.056826  -0.28015807   0.41790663    -2.056826    1.7766679   439061 
  201000    1.1845716    -2.057945    -2.057945  -0.28109168   0.41628844    -2.057945    1.7768533   439061 
  202000    1.1833016   -2.0576632   -2.0576632  -0.28271484   0.41485067   -2.0576632    1.7749483   439061 
  203000    1.1840101   -2.0571412   -2.0571412  -0.28113006   0.41552317   -2.0571412    1.7760112   439061 
  204000    1.1834429   -2.0565077   -2.0565077  -0.28134739   0.41735596   -2.0565077    1.7751603   439061 
  205000    1.1838642    -2.057721    -2.057721   -0.2819287   0.41562679    -2.057721    1.7757923   439061 
  206000    1.1827828   -2.0568268   -2.0568268  -0.28265659   0.41696832   -2.0568268    1.7741702   439061 
  207000    1.1826808   -2.0555466   -2.0555466  -0.28152947   0.41906758   -2.0555466    1.7740172   439061 
  208000    1.1827074   -2.0567307   -2.0567307   -0.2826736   0.41418424   -2.0567307    1.7740571   439061 
  209000    1.1827101   -2.0576533   -2.0576533  -0.28359218   0.41353356   -2.0576533    1.7740611   439061 
  210000    1.1821044   -2.0580079   -2.0580079  -0.28485532   0.40988327   -2.0580079    1.7731526   439061 
  211000     1.179872   -2.0573717   -2.0573717  -0.28756783   0.41375506   -2.0573717    1.7698039   439061 
  212000    1.1810012   -2.0575405   -2.0575405  -0.28604268   0.41249643   -2.0575405    1.7714978   439061 
  213000     1.180411   -2.0578446   -2.0578446  -0.28723204   0.41186982   -2.0578446    1.7706125   439061 
  214000    1.1794665   -2.0566536   -2.0566536  -0.28745795   0.41288179   -2.0566536    1.7691957   439061 
  215000     1.179224   -2.0571467   -2.0571467  -0.28831476   0.41291781   -2.0571467    1.7688319   439061 
  216000    1.1801597   -2.0582785   -2.0582785   -0.2880429   0.41058542   -2.0582785    1.7702356   439061 
  217000    1.1790636   -2.0582966   -2.0582966  -0.28970513   0.41217574   -2.0582966    1.7685914   439061 
  218000    1.1778044    -2.058396    -2.058396  -0.29169344   0.41194305    -2.058396    1.7667025   439061 
  219000    1.1779842   -2.0577305   -2.0577305  -0.29075816   0.41048747   -2.0577305    1.7669723   439061 
  220000    1.1783118   -2.0581158   -2.0581158  -0.29065206   0.41107868   -2.0581158    1.7674637   439061 
  221000    1.1784561   -2.0586539   -2.0586539  -0.29097378   0.41281259   -2.0586539    1.7676801   439061 
  222000    1.1800918   -2.0611647   -2.0611647  -0.29103098   0.40762284   -2.0611647    1.7701337   439061 
  223000    1.1764905   -2.0570948   -2.0570948  -0.29236312   0.41253323   -2.0570948    1.7647317   439061 
  224000    1.1768828   -2.0578846   -2.0578846  -0.29256443   0.41075969   -2.0578846    1.7653202   439061 
  225000    1.1761931   -2.0587943   -2.0587943  -0.29450862   0.41122128   -2.0587943    1.7642857   439061 
  226000    1.1764811   -2.0596266   -2.0596266  -0.29490897   0.40531019   -2.0596266    1.7647177   439061 
  227000    1.1740541   -2.0576784   -2.0576784  -0.29660131   0.40859019   -2.0576784    1.7610771   439061 
  228000    1.1746908   -2.0581974   -2.0581974  -0.29616515   0.41190793   -2.0581974    1.7620322   439061 
  229000     1.174991   -2.0602875   -2.0602875  -0.29780501   0.41145568   -2.0602875    1.7624825   439061 
  230000     1.173789   -2.0607877   -2.0607877  -0.30010819   0.40847703   -2.0607877    1.7606795   439061 
  231000    1.1735353   -2.0609853   -2.0609853  -0.30068633   0.40148776   -2.0609853     1.760299   439061 
  232000    1.1768815   -2.0641433   -2.0641433  -0.29882506   0.40371747   -2.0641433    1.7653183   439061 
  233000    1.1752476   -2.0602264   -2.0602264  -0.29735896   0.41128175   -2.0602264    1.7628675   439061 
  234000    1.1740753   -2.0596541   -2.0596541  -0.29854522   0.40811531   -2.0596541    1.7611089   439061 
  235000    1.1751971    -2.061098    -2.061098  -0.29830631   0.40885886    -2.061098    1.7627917   439061 
  236000     1.173422   -2.0594472   -2.0594472  -0.29931825    0.4079974   -2.0594472    1.7601289   439061 
  237000    1.1744363   -2.0607788   -2.0607788  -0.29912844   0.40451823   -2.0607788    1.7616504   439061 
  238000    1.1734026   -2.0608308   -2.0608308  -0.30073095   0.40537412   -2.0608308    1.7600999   439061 
  239000    1.1739267   -2.0609557   -2.0609557   -0.3000696    0.4060821   -2.0609557    1.7608861   439061 
  240000    1.1719762   -2.0599809   -2.0599809  -0.30202052   0.39851531   -2.0599809    1.7579604   439061 
  241000    1.1728594    -2.059734    -2.059734  -0.30044894   0.40206496    -2.059734    1.7592851   439061 
  242000    1.1722974   -2.0594256   -2.0594256   -0.3009836   0.40442484   -2.0594256     1.758442   439061 
  243000    1.1715259   -2.0597579   -2.0597579  -0.30247295   0.40072657   -2.0597579    1.7572849   439061 
  244000    1.1701588   -2.0589233   -2.0589233  -0.30368913   0.40530237   -2.0589233    1.7552342   439061 
  245000    1.1707703   -2.0605997   -2.0605997  -0.30444829   0.39733931   -2.0605997    1.7561514   439061 
  246000    1.1704439   -2.0608698   -2.0608698  -0.30520797   0.40574946   -2.0608698    1.7556618   439061 
  247000    1.1698971   -2.0615043   -2.0615043   -0.3066627   0.39900771   -2.0615043    1.7548416   439061 
  248000    1.1688751   -2.0589849   -2.0589849  -0.30567624   0.40259126   -2.0589849    1.7533087   439061 
  249000    1.1684571   -2.0586011   -2.0586011  -0.30591936   0.40694575   -2.0586011    1.7526817   439061 
  250000    1.1684239   -2.0594168   -2.0594168  -0.30678498   0.40200713   -2.0594168    1.7526318   439061 
  251000    1.1706825   -2.0618181   -2.0618181  -0.30579831   0.40154708   -2.0618181    1.7560198   439061 
  252000    1.1689545   -2.0593715   -2.0593715  -0.30594366   0.40054973   -2.0593715    1.7534278   439061 
  253000      1.17026   -2.0608995   -2.0608995  -0.30551342    0.4025462   -2.0608995     1.755386   439061 
  254000    1.1713004   -2.0628588   -2.0628588  -0.30591222    0.4067728   -2.0628588    1.7569466   439061 
  255000    1.1693005   -2.0609641   -2.0609641  -0.30701742   0.40162453   -2.0609641    1.7539467   439061 
  256000    1.1679629   -2.0592323   -2.0592323  -0.30729187   0.40423682   -2.0592323    1.7519404   439061 
  257000    1.1693604   -2.0614581   -2.0614581  -0.30742158    0.4034616   -2.0614581    1.7540366   439061 
  258000    1.1686036   -2.0601674   -2.0601674    -0.307266   0.40272759   -2.0601674    1.7529014   439061 
  259000    1.1695819   -2.0623548   -2.0623548   -0.3079859   0.39638157   -2.0623548    1.7543689   439061 
  260000    1.1687236   -2.0604088   -2.0604088  -0.30732735   0.40443613   -2.0604088    1.7530815   439061 
  261000    1.1676997     -2.06161     -2.06161  -0.31006443   0.39509968     -2.06161    1.7515456   439061 
  262000    1.1686868   -2.0629378   -2.0629378  -0.30991152   0.39874645   -2.0629378    1.7530262   439061 
  263000    1.1672957   -2.0620002   -2.0620002  -0.31106055   0.39572774   -2.0620002    1.7509396   439061 
  264000    1.1674779   -2.0614942   -2.0614942  -0.31028144   0.40564816   -2.0614942    1.7512128   439061 
  265000    1.1668486   -2.0616101   -2.0616101  -0.31134116   0.39836915   -2.0616101     1.750269   439061 
  266000    1.1646529   -2.0594585   -2.0594585  -0.31248321   0.40045383   -2.0594585    1.7469753   439061 
  267000    1.1654222   -2.0606114   -2.0606114  -0.31248207   0.39856201   -2.0606114    1.7481293   439061 
  268000    1.1659885   -2.0627262   -2.0627262  -0.31374738   0.39494414   -2.0627262    1.7489788   439061 
  269000    1.1658101   -2.0610487   -2.0610487  -0.31233743   0.39495973   -2.0610487    1.7487112   439061 
  270000    1.1654469   -2.0617748   -2.0617748  -0.31360848   0.39475982   -2.0617748    1.7481663   439061 
  271000    1.1646372   -2.0601351   -2.0601351  -0.31318328   0.39786335   -2.0601351    1.7469518   439061 
  272000    1.1643341   -2.0591098   -2.0591098  -0.31261255   0.39906278   -2.0591098    1.7464972   439061 
  273000     1.165815   -2.0619448   -2.0619448  -0.31322629   0.39996158   -2.0619448    1.7487185   439061 
  274000    1.1641576   -2.0598593   -2.0598593  -0.31362679   0.39744607   -2.0598593    1.7462325   439061 
  275000    1.1645483   -2.0610916   -2.0610916  -0.31427311    0.3963144   -2.0610916    1.7468185   439061 
  276000    1.1645287    -2.059973    -2.059973  -0.31318399   0.39218083    -2.059973     1.746789   439061 
  277000    1.1646695   -2.0613827   -2.0613827  -0.31438251   0.39811837   -2.0613827    1.7470002   439061 
  278000    1.1644876   -2.0608193   -2.0608193   -0.3140918   0.39975548   -2.0608193    1.7467275   439061 
  279000    1.1660512   -2.0623395   -2.0623395   -0.3132667   0.39646971   -2.0623395    1.7490728   439061 
  280000      1.16343    -2.060343    -2.060343  -0.31520201   0.39843363    -2.060343     1.745141   439061 
  281000     1.166054   -2.0642087   -2.0642087  -0.31513164   0.39171819   -2.0642087    1.7490771   439061 
  282000    1.1629103   -2.0616601   -2.0616601  -0.31729873   0.39797195   -2.0616601    1.7443614   439061 
  283000    1.1615742   -2.0603145   -2.0603145  -0.31795722   0.39653745   -2.0603145    1.7423573   439061 
  284000     1.161083    -2.060471    -2.060471  -0.31885051   0.39313013    -2.060471    1.7416205   439061 
  285000     1.162839   -2.0642841   -2.0642841  -0.32002949   0.39189332   -2.0642841    1.7442546   439061 
  286000    1.1614473   -2.0633225   -2.0633225  -0.32115547   0.39266478   -2.0633225     1.742167   439061 
  287000    1.1605556   -2.0623727   -2.0623727  -0.32154327   0.39514803   -2.0623727    1.7408295   439061 
  288000    1.1600905   -2.0625975   -2.0625975  -0.32246566   0.38978489   -2.0625975    1.7401318   439061 
  289000    1.1592116   -2.0618297   -2.0618297  -0.32301636   0.39162838   -2.0618297    1.7388134   439061 
  290000    1.1582944   -2.0615352   -2.0615352   -0.3240975   0.39566896   -2.0615352    1.7374377   439061 
  291000    1.1592639   -2.0637421   -2.0637421  -0.32485026   0.38928208   -2.0637421    1.7388919   439061 
  292000     1.158954   -2.0634432   -2.0634432  -0.32501621   0.39096003   -2.0634432     1.738427   439061 
  293000     1.158112   -2.0626577   -2.0626577   -0.3254936   0.39097247   -2.0626577    1.7371641   439061 
  294000    1.1583233   -2.0645114   -2.0645114  -0.32703033   0.38833568   -2.0645114    1.7374811   439061 
  295000    1.1583842   -2.0647238   -2.0647238  -0.32715141   0.39280497   -2.0647238    1.7375724   439061 
  296000    1.1597215   -2.0656443   -2.0656443    -0.326066   0.38852379   -2.0656443    1.7395783   439061 
  297000    1.1594822   -2.0639992   -2.0639992  -0.32477977   0.39101492   -2.0639992    1.7392194   439061 
  298000    1.1597729   -2.0637081   -2.0637081  -0.32405264   0.39133131   -2.0637081    1.7396554   439061 
  299000    1.1606735   -2.0646483   -2.0646483  -0.32364203   0.38966659   -2.0646483    1.7410063   439061 
  300000    1.1597097   -2.0640796   -2.0640796  -0.32451902   0.39233868   -2.0640796    1.7395606   439061 
  301000    1.1603191   -2.0644665   -2.0644665  -0.32399179   0.39050584   -2.0644665    1.7404747   439061 
  302000    1.1594254    -2.063554    -2.063554  -0.32441985   0.38929233    -2.063554    1.7391341   439061 
  303000    1.1595997    -2.063486    -2.063486  -0.32409047   0.38977319    -2.063486    1.7393956   439061 
  304000     1.158709   -2.0631413   -2.0631413   -0.3250818   0.39439226   -2.0631413    1.7380595   439061 
  305000    1.1584226   -2.0623777   -2.0623777  -0.32474773   0.39209917   -2.0623777      1.73763   439061 
  306000     1.157749   -2.0628758   -2.0628758  -0.32625622   0.38402726   -2.0628758    1.7366196   439061 
  307000    1.1579677   -2.0641057   -2.0641057  -0.32715801    0.3875923   -2.0641057    1.7369476   439061 
  308000    1.1554764   -2.0619402   -2.0619402  -0.32872957   0.38798328   -2.0619402    1.7332106   439061 
  309000    1.1556108   -2.0613343   -2.0613343  -0.32792209   0.39155454   -2.0613343    1.7334123   439061 
  310000    1.1554771   -2.0623196   -2.0623196  -0.32910793    0.3865121   -2.0623196    1.7332117   439061 
  311000    1.1559975   -2.0622664   -2.0622664  -0.32827414   0.38620328   -2.0622664    1.7339923   439061 
  312000    1.1560086     -2.06294     -2.06294  -0.32893101   0.38689404     -2.06294     1.734009   439061 
  313000     1.156221   -2.0630071   -2.0630071  -0.32867957   0.38237345   -2.0630071    1.7343275   439061 
  314000    1.1554019   -2.0628616   -2.0628616  -0.32976266   0.38693728   -2.0628616    1.7330989   439061 
  315000    1.1553357   -2.0631219   -2.0631219  -0.33012228   0.38972356   -2.0631219    1.7329996   439061 
  316000    1.1544357   -2.0613189   -2.0613189  -0.32966933   0.39052945   -2.0613189    1.7316496   439061 
  317000    1.1543303   -2.0630177   -2.0630177  -0.33152612   0.38671426   -2.0630177    1.7314915   439061 
  318000    1.1549036   -2.0637398   -2.0637398  -0.33138836   0.38380458   -2.0637398    1.7323515   439061 
  319000    1.1541932   -2.0633444   -2.0633444  -0.33205861   0.38512697   -2.0633444    1.7312858   439061 
  320000    1.1552841    -2.064553    -2.064553  -0.33163074   0.38729406    -2.064553    1.7329223   439061 
  321000    1.1555259   -2.0657708   -2.0657708  -0.33248587   0.38349501   -2.0657708    1.7332849   439061 
  322000    1.1529445   -2.0632417   -2.0632417   -0.3338289   0.38564215   -2.0632417    1.7294128   439061 
  323000    1.1533663   -2.0646967   -2.0646967  -0.33465116   0.38895111   -2.0646967    1.7300455   439061 
  324000    1.1519081   -2.0636047   -2.0636047  -0.33574648   0.38980552   -2.0636047    1.7278582   439061 
  325000    1.1535632   -2.0655062   -2.0655062  -0.33516537   0.38474128   -2.0655062    1.7303408   439061 
  326000    1.1537713      -2.0654      -2.0654  -0.33474709   0.38247478      -2.0654    1.7306529   439061 
  327000    1.1523528    -2.064988    -2.064988  -0.33646275   0.38434239    -2.064988    1.7285252   439061 
  328000    1.1526968   -2.0667336   -2.0667336  -0.33769227   0.38268722   -2.0667336    1.7290413   439061 
  329000    1.1506352   -2.0651395   -2.0651395  -0.33919069   0.38429539   -2.0651395    1.7259488   439061 
  330000    1.1522056   -2.0680381   -2.0680381  -0.33973361   0.38557774   -2.0680381    1.7283045   439061 
  331000    1.1514234   -2.0668361   -2.0668361    -0.339705   0.38412327   -2.0668361    1.7271311   439061 
  332000    1.1502073   -2.0650688   -2.0650688  -0.33976182    0.3840055   -2.0650688     1.725307   439061 
  333000    1.1504631   -2.0667674   -2.0667674  -0.34107666   0.38079318   -2.0667674    1.7256907   439061 
  334000    1.1510928   -2.0680392   -2.0680392  -0.34140399   0.37601847   -2.0680392    1.7266352   439061 
  335000    1.1498178   -2.0651751   -2.0651751  -0.34045239   0.38315649   -2.0651751    1.7247227   439061 
  336000    1.1490241   -2.0636372   -2.0636372   -0.3401049   0.38532812   -2.0636372    1.7235323   439061 
  337000    1.1497935   -2.0662861   -2.0662861  -0.34159986    0.3851435   -2.0662861    1.7246863   439061 
  338000    1.1490637   -2.0645167   -2.0645167  -0.34092506   0.38101529   -2.0645167    1.7235917   439061 
  339000    1.1505221   -2.0663257   -2.0663257  -0.34054651   0.37751429   -2.0663257    1.7257792   439061 
  340000    1.1493378    -2.064726    -2.064726   -0.3407233   0.37973602    -2.064726    1.7240027   439061 
  341000    1.1497761   -2.0668735   -2.0668735  -0.34221334   0.37857059   -2.0668735    1.7246602   439061 
  342000    1.1494279   -2.0674561   -2.0674561  -0.34331823   0.37874677   -2.0674561    1.7241379   439061 
  343000    1.1491368   -2.0683754   -2.0683754  -0.34467418   0.37454199   -2.0683754    1.7237013   439061 
  344000    1.1495409    -2.067048    -2.067048  -0.34274061   0.37738137    -2.067048    1.7243074   439061 
  345000    1.1477776   -2.0652693   -2.0652693  -0.34360681   0.37742269   -2.0652693    1.7216624   439061 
  346000    1.1473963   -2.0662864   -2.0662864  -0.34519585   0.37812537   -2.0662864    1.7210906   439061 
  347000    1.1479846   -2.0665231   -2.0665231  -0.34455016   0.38097668   -2.0665231    1.7219729   439061 
  348000    1.1487921   -2.0665657   -2.0665657  -0.34338144   0.37736021   -2.0665657    1.7231843   439061 
  349000    1.1480489   -2.0648727   -2.0648727  -0.34280327   0.38399293   -2.0648727    1.7220695   439061 
  350000    1.1487243   -2.0661476   -2.0661476  -0.34306505   0.37933772   -2.0661476    1.7230825   439061 
  351000    1.1491172   -2.0670339   -2.0670339  -0.34336197   0.38063227   -2.0670339    1.7236719   439061 
  352000    1.1480119   -2.0643445   -2.0643445  -0.34233058   0.38279755   -2.0643445    1.7220139   439061 
  353000    1.1483347   -2.0658282   -2.0658282  -0.34332997   0.37366165   -2.0658282    1.7224982   439061 
  354000    1.1484396    -2.066614    -2.066614  -0.34395851    0.3811808    -2.066614    1.7226555   439061 
  355000    1.1480776    -2.065919    -2.065919  -0.34380657   0.37580929    -2.065919    1.7221125   439061 
  356000    1.1461028   -2.0664562   -2.0664562  -0.34730587   0.38115364   -2.0664562    1.7191503   439061 
  357000    1.1465699   -2.0671445   -2.0671445  -0.34729363   0.37414896   -2.0671445    1.7198509   439061 
  358000    1.1451402   -2.0652038   -2.0652038  -0.34749739   0.37903244   -2.0652038    1.7177064   439061 
  359000    1.1458951   -2.0663928   -2.0663928  -0.34755416   0.38092132   -2.0663928    1.7188387   439061 
  360000    1.1448364   -2.0650985   -2.0650985  -0.34784788   0.37907297   -2.0650985    1.7172507   439061 
  361000    1.1468154   -2.0675582   -2.0675582  -0.34733913   0.38136031   -2.0675582    1.7202191   439061 
  362000    1.1459864   -2.0673196   -2.0673196  -0.34834381   0.37711207   -2.0673196    1.7189757   439061 
  363000    1.1448253   -2.0643252   -2.0643252   -0.3470911   0.38280156   -2.0643252    1.7172341   439061 
  364000    1.1449941   -2.0644755   -2.0644755  -0.34698824    0.3765274   -2.0644755    1.7174873   439061 
  365000    1.1455519   -2.0668246   -2.0668246  -0.34850074   0.36968966   -2.0668246    1.7183239   439061 
  366000    1.1460775   -2.0666966   -2.0666966  -0.34758421   0.37267798   -2.0666966    1.7191123   439061 
  367000      1.14464   -2.0651231   -2.0651231  -0.34816696   0.37713267   -2.0651231    1.7169561   439061 
  368000     1.146727    -2.066989    -2.066989  -0.34690241   0.37232172    -2.066989    1.7200866   439061 
  369000    1.1450186   -2.0659768   -2.0659768  -0.34845286   0.37248152   -2.0659768    1.7175239   439061 
  370000    1.1455484   -2.0669246   -2.0669246  -0.34860602    0.3708191   -2.0669246    1.7183186   439061 
  371000    1.1431195   -2.0637121   -2.0637121  -0.34903673   0.37614198   -2.0637121    1.7146753   439061 
  372000    1.1446568   -2.0654412   -2.0654412  -0.34845987   0.37565877   -2.0654412    1.7169813   439061 
  373000    1.1444076   -2.0662507   -2.0662507  -0.34964321   0.37676594   -2.0662507    1.7166075   439061 
  374000    1.1445752   -2.0646966   -2.0646966  -0.34783775   0.37746416   -2.0646966    1.7168588   439061 
  375000    1.1454501   -2.0669931   -2.0669931  -0.34882186    0.3801053   -2.0669931    1.7181712   439061 
  376000    1.1439564   -2.0662998   -2.0662998  -0.35036903   0.37505342   -2.0662998    1.7159307   439061 
  377000    1.1432981    -2.064897    -2.064897  -0.34995368   0.37334641    -2.064897    1.7149433   439061 
  378000    1.1458966   -2.0685221   -2.0685221  -0.34968108   0.36925078   -2.0685221     1.718841   439061 
  379000    1.1432712   -2.0656881   -2.0656881  -0.35078531   0.37322424   -2.0656881    1.7149028   439061 
  380000    1.1429939   -2.0659452   -2.0659452   -0.3514583   0.37354703   -2.0659452    1.7144869   439061 
  381000    1.1422658   -2.0658266   -2.0658266  -0.35243181   0.37552875   -2.0658266    1.7133948   439061 
  382000    1.1434415   -2.0680062   -2.0680062  -0.35284786   0.37637551   -2.0680062    1.7151584   439061 
  383000    1.1420237   -2.0667303   -2.0667303  -0.35369865   0.37629756   -2.0667303    1.7130316   439061 
  384000     1.142571   -2.0664467   -2.0664467  -0.35259413   0.37399586   -2.0664467    1.7138525   439061 
  385000    1.1438004   -2.0689519   -2.0689519   -0.3532553   0.37189483   -2.0689519    1.7156966   439061 
  386000    1.1424562   -2.0662782   -2.0662782  -0.35259779   0.37072162   -2.0662782    1.7136804   439061 
  387000    1.1419405   -2.0657764   -2.0657764  -0.35286955   0.37180436   -2.0657764    1.7129069   439061 
  388000    1.1435051   -2.0675084   -2.0675084  -0.35225469   0.37517346   -2.0675084    1.7152537   439061 
  389000    1.1420932   -2.0670979   -2.0670979  -0.35396202   0.37427181   -2.0670979    1.7131359   439061 
  390000    1.1442363   -2.0688664   -2.0688664  -0.35251586   0.37168312   -2.0688664    1.7163505   439061 
  391000    1.1428254   -2.0659564   -2.0659564  -0.35172221   0.37315206   -2.0659564    1.7142342   439061 
  392000    1.1423173   -2.0670182   -2.0670182  -0.35354614   0.37020944   -2.0670182     1.713472   439061 
  393000    1.1429549   -2.0673362   -2.0673362  -0.35290765   0.37165062   -2.0673362    1.7144285   439061 
  394000    1.1397116   -2.0642306   -2.0642306  -0.35466715   0.37176342   -2.0642306    1.7095635   439061 
  395000    1.1426288   -2.0680183   -2.0680183  -0.35407899   0.37276317   -2.0680183    1.7139394   439061 
  396000     1.141056   -2.0661087   -2.0661087  -0.35452866   0.36723456   -2.0661087      1.71158   439061 
  397000    1.1398609   -2.0663012   -2.0663012  -0.35651375   0.37133338   -2.0663012    1.7097875   439061 
  398000    1.1412356   -2.0663522   -2.0663522  -0.35450277   0.37086931   -2.0663522    1.7118495   439061 
  399000     1.140056   -2.0660087   -2.0660087  -0.35592858   0.37221288   -2.0660087    1.7100801   439061 
  400000    1.1405541   -2.0673603   -2.0673603  -0.35653306   0.37009855   -2.0673603    1.7108272   439061 
  401000    1.1407461   -2.0682187   -2.0682187  -0.35710336    0.3687265   -2.0682187    1.7111153   439061 
  402000    1.1398949   -2.0683195   -2.0683195  -0.35848101   0.36957026   -2.0683195    1.7098385   439061 
  403000    1.1394279    -2.069291    -2.069291  -0.36015304   0.37091158    -2.069291     1.709138   439061 
  404000    1.1387568   -2.0677737   -2.0677737  -0.35964243   0.37121058   -2.0677737    1.7081312   439061 
  405000    1.1381717   -2.0666442   -2.0666442  -0.35939061   0.37065037   -2.0666442    1.7072536   439061 
  406000    1.1381541   -2.0677426   -2.0677426  -0.36051535   0.37160936   -2.0677426    1.7072273   439061 
  407000     1.138484   -2.0682129   -2.0682129  -0.36049082   0.37304259   -2.0682129    1.7077221   439061 
  408000    1.1387908   -2.0683701   -2.0683701  -0.36018775   0.36514086   -2.0683701    1.7081823   439061 
  409000    1.1396695   -2.0675979   -2.0675979  -0.35809747   0.36849533   -2.0675979    1.7095004   439061 
  410000    1.1403607   -2.0684239   -2.0684239  -0.35788679   0.37073088   -2.0684239    1.7105372   439061 
  411000    1.1396229   -2.0675286   -2.0675286  -0.35809816   0.37366133   -2.0675286    1.7094305   439061 
  412000    1.1404614    -2.069301    -2.069301  -0.35861283   0.37151349    -2.069301    1.7106881   439061 
  413000    1.1388059   -2.0680208   -2.0680208  -0.35981588   0.36930599   -2.0680208    1.7082049   439061 
  414000    1.1371799   -2.0684072   -2.0684072  -0.36264126   0.37147767   -2.0684072    1.7057659   439061 
  415000    1.1370943   -2.0687007   -2.0687007  -0.36306321   0.36794628   -2.0687007    1.7056375   439061 
  416000     1.138245   -2.0696025   -2.0696025  -0.36223894   0.36733238   -2.0696025    1.7073636   439061 
  417000    1.1396614    -2.070685    -2.070685  -0.36119692   0.36576847    -2.070685    1.7094881   439061 
  418000    1.1364637   -2.0676543   -2.0676543  -0.36296265   0.36713826   -2.0676543    1.7046917   439061 
  419000    1.1376423   -2.0673778   -2.0673778   -0.3609183   0.36624031   -2.0673778    1.7064595   439061 
  420000    1.1381331   -2.0694329   -2.0694329  -0.36223721   0.36453867   -2.0694329    1.7071957   439061 
  421000     1.137466   -2.0679035   -2.0679035  -0.36170838   0.36647941   -2.0679035    1.7061951   439061 
  422000    1.1368348   -2.0661779   -2.0661779  -0.36092961   0.37102604   -2.0661779    1.7052483   439061 
  423000     1.137036   -2.0665688   -2.0665688  -0.36101876   0.36607073   -2.0665688    1.7055501   439061 
  424000    1.1358818   -2.0656103   -2.0656103  -0.36179149   0.36536374   -2.0656103    1.7038188   439061 
  425000    1.1358617   -2.0645606   -2.0645606  -0.36077198   0.36615416   -2.0645606    1.7037886   439061 
  426000    1.1371105   -2.0654617   -2.0654617  -0.35979986   0.37059563   -2.0654617    1.7056618   439061 
  427000    1.1366435   -2.0658006   -2.0658006  -0.36083914    0.3661469   -2.0658006    1.7049614   439061 
  428000    1.1372651   -2.0660494   -2.0660494  -0.36015561   0.36689337   -2.0660494    1.7058938   439061 
  429000    1.1359762   -2.0655815   -2.0655815  -0.36162107   0.36385897   -2.0655815    1.7039605   439061 
  430000    1.1362137   -2.0679331   -2.0679331  -0.36361644   0.36523265   -2.0679331    1.7043166   439061 
  431000    1.1360478    -2.067779    -2.067779   -0.3637111   0.36397078    -2.067779    1.7040679   439061 
  432000    1.1352632   -2.0679354   -2.0679354  -0.36504455   0.36452112   -2.0679354    1.7028909   439061 
  433000     1.135025   -2.0670992   -2.0670992  -0.36456567   0.36632964   -2.0670992    1.7025336   439061 
  434000     1.134103   -2.0667524   -2.0667524  -0.36560184   0.36338801   -2.0667524    1.7011506   439061 
  435000    1.1357335   -2.0685318   -2.0685318  -0.36493536   0.36327786   -2.0685318    1.7035964   439061 
  436000    1.1352659   -2.0679209   -2.0679209  -0.36502589   0.36790326   -2.0679209     1.702895   439061 
  437000    1.1349338   -2.0676913   -2.0676913   -0.3652944   0.36180666   -2.0676913    1.7023969   439061 
  438000    1.1347153   -2.0672002   -2.0672002  -0.36513107   0.35910037   -2.0672002    1.7020691   439061 
  439000    1.1335232   -2.0679974   -2.0679974  -0.36771643   0.36250635   -2.0679974     1.700281   439061 
  440000    1.1341405   -2.0688998   -2.0688998  -0.36769289   0.35786114   -2.0688998    1.7012069   439061 
  441000     1.134715   -2.0697932   -2.0697932  -0.36772462   0.36082797   -2.0697932    1.7020686   439061 
  442000    1.1339106   -2.0678603   -2.0678603  -0.36699832   0.36460021   -2.0678603     1.700862   439061 
  443000    1.1328016    -2.066641    -2.066641   -0.3674424    0.3672311    -2.066641    1.6991986   439061 
  444000    1.1352731   -2.0708331   -2.0708331  -0.36792736   0.36009782   -2.0708331    1.7029058   439061 
  445000    1.1333152   -2.0683742   -2.0683742  -0.36840525   0.36523967   -2.0683742    1.6999689   439061 
  446000    1.1329847   -2.0687602   -2.0687602    -0.369287   0.36372217   -2.0687602    1.6994732   439061 
  447000    1.1315115   -2.0685741   -2.0685741  -0.37131066   0.36557324   -2.0685741    1.6972634   439061 
  448000    1.1318545   -2.0685838   -2.0685838  -0.37080589   0.36394173   -2.0685838    1.6977779   439061 
  449000    1.1324795   -2.0683007   -2.0683007   -0.3695854   0.36502788   -2.0683007    1.6987153   439061 
  450000     1.131875   -2.0671987   -2.0671987  -0.36939003   0.36027989   -2.0671987    1.6978087   439061 
  451000    1.1327221   -2.0690583   -2.0690583  -0.36997892   0.36192221   -2.0690583    1.6990793   439061 
  452000    1.1315433    -2.068922    -2.068922  -0.37161089    0.3659632    -2.068922    1.6973111   439061 
  453000      1.13102   -2.0668873   -2.0668873  -0.37036115   0.36583122   -2.0668873    1.6965261   439061 
  454000    1.1316545   -2.0671279   -2.0671279  -0.36964999   0.36517449   -2.0671279    1.6974779   439061 
  455000    1.1325125   -2.0693543   -2.0693543  -0.37058941   0.35726478   -2.0693543    1.6987649   439061 
  456000    1.1318694   -2.0687379   -2.0687379  -0.37093758   0.35840049   -2.0687379    1.6978003   439061 
  457000    1.1312109   -2.0676845   -2.0676845  -0.37087205   0.35773599   -2.0676845    1.6968124   439061 
  458000    1.1315319    -2.066887    -2.066887  -0.36959301   0.36052939    -2.066887     1.697294   439061 
  459000    1.1306811   -2.0660653   -2.0660653   -0.3700476   0.36147363   -2.0660653    1.6960177   439061 
  460000    1.1321753    -2.068379    -2.068379  -0.37011989   0.36082921    -2.068379    1.6982591   439061 
  461000    1.1316029   -2.0667021   -2.0667021  -0.36930157   0.36131753   -2.0667021    1.6974005   439061 
  462000    1.1300187   -2.0664876   -2.0664876  -0.37146342   0.36600479   -2.0664876    1.6950242   439061 
  463000    1.1303486   -2.0667121   -2.0667121   -0.3711931   0.35655772   -2.0667121     1.695519   439061 
  464000    1.1306772   -2.0680118   -2.0680118  -0.37199985   0.35719908   -2.0680118    1.6960119   439061 
  465000     1.130438   -2.0673827   -2.0673827   -0.3717296   0.35962727   -2.0673827    1.6956531   439061 
  466000    1.1315658   -2.0702487   -2.0702487  -0.37290387   0.35449567   -2.0702487    1.6973448   439061 
  467000    1.1293354    -2.068473    -2.068473   -0.3744737   0.35456546    -2.068473    1.6939993   439061 
  468000    1.1299201   -2.0684901   -2.0684901  -0.37361377   0.35984708   -2.0684901    1.6948764   439061 
  469000    1.1288199   -2.0677034   -2.0677034  -0.37447734   0.36139281   -2.0677034     1.693226   439061 
  470000    1.1284193   -2.0683607   -2.0683607  -0.37573564   0.35613407   -2.0683607    1.6926251   439061 
  471000    1.1288969   -2.0694033   -2.0694033   -0.3760619   0.35814159   -2.0694033    1.6933414   439061 
  472000    1.1277801   -2.0675177   -2.0675177  -0.37585131   0.36248497   -2.0675177    1.6916664   439061 
  473000    1.1292522   -2.0693124   -2.0693124  -0.37543801   0.35494622   -2.0693124    1.6938744   439061 
  474000    1.1289052    -2.068785    -2.068785  -0.37543117   0.35806824    -2.068785    1.6933539   439061 
  475000    1.1294984   -2.0709599   -2.0709599  -0.37671618    0.3529041   -2.0709599    1.6942438   439061 
  476000      1.12794   -2.0692883   -2.0692883  -0.37738221   0.36054452   -2.0692883    1.6919061   439061 
  477000    1.1288538   -2.0707973   -2.0707973  -0.37752048     0.354345   -2.0707973    1.6932768   439061 
  478000    1.1272012    -2.067626    -2.067626   -0.3768281   0.36295501    -2.067626    1.6907979   439061 
  479000    1.1272939   -2.0692597   -2.0692597   -0.3783227   0.35484545   -2.0692597     1.690937   439061 
  480000    1.1285184   -2.0708279   -2.0708279  -0.37805406   0.35730214   -2.0708279    1.6927738   439061 
  481000    1.1281659   -2.0698802   -2.0698802  -0.37763524   0.35469877   -2.0698802    1.6922449   439061 
  482000     1.126298      -2.0685      -2.0685  -0.37905678   0.36168493      -2.0685    1.6894432   439061 
  483000    1.1266149   -2.0698229   -2.0698229  -0.37990441     0.358976   -2.0698229    1.6899185   439061 
  484000    1.1265005   -2.0697646   -2.0697646  -0.38001763   0.35727484   -2.0697646    1.6897469   439061 
  485000    1.1263108   -2.0703572   -2.0703572  -0.38089492   0.35605664   -2.0703572    1.6894623   439061 
  486000    1.1262477   -2.0700624   -2.0700624  -0.38069459   0.35173583   -2.0700624    1.6893678   439061 
  487000    1.1275231   -2.0703011   -2.0703011  -0.37902037   0.35345507   -2.0703011    1.6912808   439061 
  488000    1.1273335   -2.0702174   -2.0702174  -0.37922103   0.35811141   -2.0702174    1.6909963   439061 
  489000    1.1265239   -2.0694169   -2.0694169  -0.37963492   0.35620629   -2.0694169     1.689782   439061 
  490000    1.1271832   -2.0708252   -2.0708252  -0.38005424   0.35682225   -2.0708252    1.6907709   439061 
  491000    1.1257091   -2.0683416   -2.0683416  -0.37978174   0.35401803   -2.0683416    1.6885599   439061 
  492000    1.1267419   -2.0701582   -2.0701582  -0.38004921   0.35253127   -2.0701582     1.690109   439061 
  493000    1.1253997   -2.0688596   -2.0688596  -0.38076388   0.35751425   -2.0688596    1.6880957   439061 
  494000     1.126411   -2.0685412   -2.0685412  -0.37892854   0.35390214   -2.0685412    1.6896127   439061 
  495000    1.1257789   -2.0687532   -2.0687532  -0.38008869   0.35332294   -2.0687532    1.6886645   439061 
  496000    1.1246873    -2.067245    -2.067245  -0.38021786   0.35396112    -2.067245    1.6870271   439061 
  497000    1.1246126   -2.0669627   -2.0669627  -0.38004765   0.35516289   -2.0669627    1.6869151   439061 
  498000     1.126413   -2.0685479   -2.0685479  -0.37893227   0.35709523   -2.0685479    1.6896157   439061 
  499000     1.125043   -2.0668919   -2.0668919  -0.37933127   0.35919269   -2.0668919    1.6875606   439061 
  500000    1.1268989   -2.0695155   -2.0695155  -0.37917091   0.35177275   -2.0695155    1.6903446   439061 
  501000    1.1254089   -2.0677943   -2.0677943  -0.37968484   0.35699224   -2.0677943    1.6881095   439061 
  502000    1.1231754   -2.0658494   -2.0658494  -0.38109013   0.35565426   -2.0658494    1.6847592   439061 
  503000    1.1232837   -2.0665671   -2.0665671  -0.38164549   0.35528996   -2.0665671    1.6849216   439061 
  504000    1.1235305   -2.0684006   -2.0684006   -0.3831087   0.35209698   -2.0684006    1.6852919   439061 
  505000    1.1245122   -2.0696661   -2.0696661  -0.38290173   0.35434053   -2.0696661    1.6867644   439061 
  506000    1.1241917   -2.0690929   -2.0690929  -0.38280919   0.35579877   -2.0690929    1.6862837   439061 
  507000    1.1243656   -2.0693482   -2.0693482  -0.38280355    0.3496156   -2.0693482    1.6865446   439061 
  508000    1.1250231   -2.0701702   -2.0701702  -0.38263938   0.35044143   -2.0701702    1.6875308   439061 
  509000    1.1238712   -2.0686252   -2.0686252  -0.38282223   0.35269702   -2.0686252    1.6858029   439061 
  510000    1.1242569   -2.0695944   -2.0695944  -0.38321294   0.35014517   -2.0695944    1.6863815   439061 
  511000    1.1228946   -2.0683822   -2.0683822   -0.3840441   0.35267471   -2.0683822    1.6843381   439061 
  512000    1.1239262   -2.0691607   -2.0691607  -0.38327525   0.35199545   -2.0691607    1.6858854   439061 
  513000    1.1236863   -2.0705186   -2.0705186   -0.3849931   0.35077906   -2.0705186    1.6855255   439061 
  514000    1.1238695   -2.0693905   -2.0693905  -0.38359009   0.35382178   -2.0693905    1.6858004   439061 
  515000    1.1231302   -2.0682284   -2.0682284  -0.38353702   0.35592744   -2.0682284    1.6846914   439061 
  516000    1.1237157   -2.0703385   -2.0703385  -0.38476879   0.35550687   -2.0703385    1.6855697   439061 
  517000    1.1225654   -2.0687873   -2.0687873  -0.38494302   0.34937255   -2.0687873    1.6838443   439061 
  518000      1.12348   -2.0694425   -2.0694425  -0.38422631   0.35286033   -2.0694425    1.6852162   439061 
  519000    1.1239542   -2.0695784   -2.0695784  -0.38365096   0.35162184   -2.0695784    1.6859274   439061 
  520000    1.1228118   -2.0687307   -2.0687307  -0.38451684   0.35462519   -2.0687307    1.6842139   439061 
  521000    1.1231381   -2.0693938   -2.0693938  -0.38469053   0.35419502   -2.0693938    1.6847033   439061 
  522000    1.1219586   -2.0672189   -2.0672189  -0.38428486   0.35586581   -2.0672189    1.6829341   439061 
  523000    1.1227757   -2.0691299   -2.0691299  -0.38497014   0.35107645   -2.0691299    1.6841597   439061 
  524000    1.1233226   -2.0675513   -2.0675513   -0.3825712    0.3517012   -2.0675513    1.6849801   439061 
  525000    1.1229718   -2.0685959   -2.0685959  -0.38414211   0.35189471   -2.0685959    1.6844538   439061 
  526000    1.1234478   -2.0686004   -2.0686004  -0.38343254   0.35137037   -2.0686004    1.6851678   439061 
  527000    1.1226048   -2.0669674   -2.0669674  -0.38306399   0.35604779   -2.0669674    1.6839034   439061 
  528000    1.1218706   -2.0672986   -2.0672986  -0.38449654   0.34919683   -2.0672986     1.682802   439061 
  529000    1.1234731   -2.0694639   -2.0694639  -0.38425816   0.35569261   -2.0694639    1.6852058   439061 
  530000    1.1232023   -2.0684235   -2.0684235  -0.38362394   0.35100952   -2.0684235    1.6847996   439061 
  531000    1.1225044   -2.0676282   -2.0676282  -0.38387553   0.35123008   -2.0676282    1.6837527   439061 
  532000    1.1224779   -2.0686349   -2.0686349   -0.3849219   0.35353443   -2.0686349     1.683713   439061 
  533000    1.1210193   -2.0682329   -2.0682329  -0.38670777   0.34786678   -2.0682329    1.6815251   439061 
  534000    1.1200825   -2.0677326   -2.0677326  -0.38761263   0.35020337   -2.0677326      1.68012   439061 
  535000    1.1205177   -2.0681661   -2.0681661   -0.3873934   0.34914167   -2.0681661    1.6807727   439061 
  536000     1.121241   -2.0688347   -2.0688347  -0.38697701   0.35180307   -2.0688347    1.6818576   439061 
  537000     1.120209   -2.0671892   -2.0671892  -0.38687963   0.35076687   -2.0671892    1.6803096   439061 
  538000    1.1209146   -2.0687645   -2.0687645   -0.3873965   0.35020027   -2.0687645     1.681368   439061 
  539000    1.1202578   -2.0675054   -2.0675054  -0.38712244   0.35158005   -2.0675054    1.6803829   439061 
  540000    1.1208937   -2.0683964   -2.0683964  -0.38705965   0.35348796   -2.0683964    1.6813367   439061 
  541000    1.1195428   -2.0670279   -2.0670279  -0.38771757   0.35019598   -2.0670279    1.6793103   439061 
  542000    1.1203808   -2.0683766   -2.0683766  -0.38780922   0.34909808   -2.0683766    1.6805674   439061 
  543000    1.1199736    -2.067973    -2.067973  -0.38801643    0.3482574    -2.067973    1.6799566   439061 
  544000    1.1208699   -2.0710207   -2.0710207  -0.38971963   0.34783711   -2.0710207    1.6813011   439061 
  545000    1.1208076   -2.0700854   -2.0700854   -0.3888778   0.34949477   -2.0700854    1.6812076   439061 
  546000    1.1201997    -2.070578    -2.070578  -0.39028224   0.34753782    -2.070578    1.6802957   439061 
  547000    1.1205206   -2.0712863   -2.0712863  -0.39050934   0.34324667   -2.0712863     1.680777   439061 
  548000    1.1194156   -2.0705937   -2.0705937  -0.39147411   0.35283246   -2.0705937    1.6791196   439061 
  549000    1.1191168   -2.0711909   -2.0711909  -0.39251954   0.34564353   -2.0711909    1.6786713   439061 
  550000    1.1182775   -2.0692487   -2.0692487  -0.39183619   0.34573012   -2.0692487    1.6774125   439061 
  551000    1.1177026   -2.0682636   -2.0682636  -0.39171348   0.35011244   -2.0682636    1.6765501   439061 
  552000    1.1195564   -2.0693225   -2.0693225  -0.38999177   0.34863003   -2.0693225    1.6793308   439061 
  553000     1.119408   -2.0682317   -2.0682317  -0.38912348   0.35186677   -2.0682317    1.6791082   439061 
  554000     1.119502   -2.0700634   -2.0700634  -0.39081427   0.34585595   -2.0700634    1.6792491   439061 
  555000    1.1187832   -2.0687599   -2.0687599  -0.39058891    0.3526056   -2.0687599     1.678171   439061 
  556000     1.119142   -2.0686326   -2.0686326  -0.38992335   0.34871403   -2.0686326    1.6787092   439061 
  557000     1.117898   -2.0690443   -2.0690443  -0.39220104    0.3468911   -2.0690443    1.6768432   439061 
  558000    1.1185657   -2.0704263   -2.0704263  -0.39258166   0.34455232   -2.0704263    1.6778447   439061 
  559000    1.1165699   -2.0675568   -2.0675568  -0.39270579   0.34858127   -2.0675568    1.6748511   439061 
  560000    1.1182634    -2.070986    -2.070986   -0.3935947     0.346193    -2.070986    1.6773913   439061 
  561000    1.1178083   -2.0697669   -2.0697669  -0.39305832   0.34807135   -2.0697669    1.6767086   439061 
  562000    1.1181252    -2.069293    -2.069293    -0.392109   0.34863921    -2.069293     1.677184   439061 
  563000    1.1180482   -2.0674997   -2.0674997  -0.39043117   0.34840283   -2.0674997    1.6770686   439061 
  564000     1.118745    -2.069946    -2.069946   -0.3918323   0.34381551    -2.069946    1.6781137   439061 
  565000    1.1171715   -2.0661003   -2.0661003   -0.3903469   0.34410176   -2.0661003    1.6757535   439061 
  566000    1.1177811   -2.0683396   -2.0683396  -0.39167175    0.3485463   -2.0683396    1.6766679   439061 
  567000    1.1188607   -2.0693295   -2.0693295  -0.39104222   0.34767385   -2.0693295    1.6782873   439061 
  568000    1.1188171   -2.0696534   -2.0696534  -0.39143162   0.34783126   -2.0696534    1.6782218   439061 
  569000    1.1183466   -2.0685313   -2.0685313   -0.3910153   0.34347805   -2.0685313     1.677516   439061 
  570000     1.117014   -2.0664285   -2.0664285  -0.39091134   0.34589674   -2.0664285    1.6755172   439061 
  571000    1.1176657    -2.068374    -2.068374   -0.3918792   0.34563355    -2.068374    1.6764948   439061 
  572000    1.1168739   -2.0670852   -2.0670852  -0.39177827   0.35040692   -2.0670852     1.675307   439061 
  573000    1.1177939    -2.069171    -2.069171    -0.392484   0.34754644    -2.069171     1.676687   439061 
  574000    1.1172105   -2.0689906   -2.0689906  -0.39317879   0.34292424   -2.0689906    1.6758119   439061 
  575000    1.1151791   -2.0672153   -2.0672153  -0.39445058    0.3459823   -2.0672153    1.6727648   439061 
  576000    1.1170512   -2.0700884   -2.0700884  -0.39451544    0.3473428   -2.0700884     1.675573   439061 
  577000    1.1159336   -2.0689543   -2.0689543  -0.39505774   0.34420297   -2.0689543    1.6738966   439061 
  578000    1.1172525   -2.0699305   -2.0699305  -0.39405558   0.34373204   -2.0699305    1.6758749   439061 
  579000     1.116232   -2.0702067   -2.0702067  -0.39586253   0.34309116   -2.0702067    1.6743442   439061 
  580000    1.1152338   -2.0688442   -2.0688442  -0.39599722   0.34485174   -2.0688442     1.672847   439061 
  581000    1.1161898   -2.0692429   -2.0692429  -0.39496197   0.34356534   -2.0692429    1.6742809   439061 
  582000    1.1153467   -2.0681776   -2.0681776  -0.39516141   0.34665567   -2.0681776    1.6730162   439061 
  583000    1.1153258   -2.0675103   -2.0675103  -0.39452545   0.34181152   -2.0675103    1.6729848   439061 
  584000    1.1158538   -2.0682546   -2.0682546  -0.39447762   0.34719879   -2.0682546    1.6737769   439061 
  585000    1.1158529   -2.0690884   -2.0690884  -0.39531281   0.34717514   -2.0690884    1.6737756   439061 
  586000    1.1147729   -2.0688871   -2.0688871  -0.39673153   0.34734783   -2.0688871    1.6721555   439061 
  587000    1.1142412   -2.0681711   -2.0681711  -0.39681311   0.34197717   -2.0681711     1.671358   439061 
  588000    1.1148837   -2.0686154   -2.0686154  -0.39629366   0.34313134   -2.0686154    1.6723218   439061 
  589000    1.1146237   -2.0687773   -2.0687773  -0.39684555   0.34606903   -2.0687773    1.6719317   439061 
  590000    1.1146042   -2.0696783   -2.0696783  -0.39777579   0.34489653   -2.0696783    1.6719025   439061 
  591000    1.1148534   -2.0709334   -2.0709334  -0.39865715   0.34008934   -2.0709334    1.6722763   439061 
  592000    1.1142026   -2.0714831   -2.0714831  -0.40018292   0.34127187   -2.0714831    1.6713001   439061 
  593000    1.1123941   -2.0685449   -2.0685449  -0.39995754   0.34405727   -2.0685449    1.6685874   439061 
  594000    1.1133881   -2.0685771   -2.0685771  -0.39849866    0.3430473   -2.0685771    1.6700784   439061 
  595000     1.113052   -2.0683253   -2.0683253  -0.39875117    0.3449342   -2.0683253    1.6695742   439061 
  596000    1.1143368   -2.0701315   -2.0701315  -0.39863008    0.3422287   -2.0701315    1.6715014   439061 
  597000    1.1138986   -2.0688148   -2.0688148  -0.39797076    0.3466785   -2.0688148    1.6708441   439061 
  598000    1.1144862   -2.0702497   -2.0702497  -0.39852418   0.33907856   -2.0702497    1.6717255   439061 
  599000    1.1125568     -2.06776     -2.06776  -0.39892855   0.33869971     -2.06776    1.6688315   439061 
  600000     1.114507   -2.0704776   -2.0704776  -0.39872087   0.34146419   -2.0704776    1.6717567   439061 
  601000    1.1128712   -2.0680708   -2.0680708  -0.39876783   0.34614015   -2.0680708     1.669303   439061 
  602000    1.1128404   -2.0680762   -2.0680762  -0.39881942   0.34152967   -2.0680762    1.6692567   439061 
  603000    1.1122096   -2.0688387   -2.0688387  -0.40052806   0.34222713   -2.0688387    1.6683106   439061 
  604000    1.1110394   -2.0684275   -2.0684275  -0.40187215   0.34305573   -2.0684275    1.6665553   439061 
  605000    1.1128812   -2.0700593   -2.0700593  -0.40074136   0.34003924   -2.0700593    1.6693179   439061 
  606000    1.1144453   -2.0723191   -2.0723191  -0.40065493   0.33980229   -2.0723191    1.6716642   439061 
  607000     1.112981   -2.0697962   -2.0697962  -0.40032861   0.34189821   -2.0697962    1.6694676   439061 
  608000    1.1133441   -2.0701593   -2.0701593  -0.40014699     0.341477   -2.0701593    1.6700123   439061 
  609000    1.1106677   -2.0685202   -2.0685202  -0.40252248   0.34697983   -2.0685202    1.6659977   439061 
  610000    1.1117904   -2.0707608   -2.0707608  -0.40307894    0.3410622   -2.0707608    1.6676819   439061 
  611000    1.1119462   -2.0713315   -2.0713315  -0.40341602   0.33895251   -2.0713315    1.6679155   439061 
  612000     1.110891   -2.0702243   -2.0702243   -0.4038917   0.33864598   -2.0702243    1.6663326   439061 
  613000    1.1101826    -2.068534    -2.068534  -0.40326391   0.33971495    -2.068534    1.6652701   439061 
  614000    1.1108316   -2.0703243   -2.0703243  -0.40408061   0.33815609   -2.0703243    1.6662437   439061 
  615000    1.1111028   -2.0712518   -2.0712518  -0.40460139   0.33398573   -2.0712518    1.6666504   439061 
  616000    1.1108744   -2.0699718   -2.0699718  -0.40366397   0.34376976   -2.0699718    1.6663078   439061 
  617000    1.1116619   -2.0712296   -2.0712296  -0.40374052   0.33804695   -2.0712296    1.6674891   439061 
  618000     1.109266   -2.0672465   -2.0672465  -0.40335126   0.33881623   -2.0672465    1.6638952   439061 
  619000    1.1118871   -2.0694415   -2.0694415   -0.4016147   0.33870049   -2.0694415    1.6678268   439061 
  620000    1.1115047      -2.0703      -2.0703  -0.40304672   0.33939526      -2.0703    1.6672533   439061 
  621000    1.1123337   -2.0725038   -2.0725038  -0.40400696   0.33482882   -2.0725038    1.6684968   439061 
  622000    1.1098475    -2.070223    -2.070223  -0.40545558   0.33440107    -2.070223    1.6647674   439061 
  623000    1.1104716   -2.0698314   -2.0698314  -0.40412776   0.33611684   -2.0698314    1.6657036   439061 
  624000    1.1115843    -2.071248    -2.071248  -0.40387536   0.33724929    -2.071248    1.6673726   439061 
  625000    1.1124183   -2.0718336   -2.0718336  -0.40321003   0.34101429   -2.0718336    1.6686236   439061 
  626000    1.1107725   -2.0695347   -2.0695347  -0.40337981   0.33528127   -2.0695347    1.6661549   439061 
  627000    1.1102028   -2.0679087   -2.0679087  -0.40260829    0.3388214   -2.0679087    1.6653004   439061 
  628000    1.1113117   -2.0705786   -2.0705786  -0.40361478   0.33398121   -2.0705786    1.6669638   439061 
  629000    1.1108752   -2.0695613   -2.0695613   -0.4032523   0.33718244   -2.0695613     1.666309   439061 
  630000    1.1114845   -2.0705299   -2.0705299  -0.40330697    0.3365036   -2.0705299     1.667223   439061 
  631000    1.1101845   -2.0689793   -2.0689793   -0.4037064   0.33932506   -2.0689793    1.6652729   439061 
  632000    1.1106249   -2.0701631   -2.0701631  -0.40422951   0.33475774   -2.0701631    1.6659336   439061 
  633000    1.1086407   -2.0678782   -2.0678782  -0.40492089   0.33758965   -2.0678782    1.6629573   439061 
  634000    1.1106586   -2.0699317   -2.0699317  -0.40394761   0.33696179   -2.0699317    1.6659841   439061 
  635000    1.1107174   -2.0702843   -2.0702843  -0.40421206   0.33902466   -2.0702843    1.6660723   439061 
  636000    1.1095158   -2.0690459   -2.0690459  -0.40477599   0.33908257   -2.0690459    1.6642699   439061 
  637000    1.1091489    -2.069094    -2.069094   -0.4053744   0.33627392    -2.069094    1.6637196   439061 
  638000    1.1106132   -2.0709493   -2.0709493  -0.40503318   0.34095135   -2.0709493    1.6659161   439061 
  639000    1.1091459   -2.0697518   -2.0697518  -0.40603677   0.33801979   -2.0697518     1.663715   439061 
  640000    1.1084421   -2.0696871   -2.0696871  -0.40702771   0.33400014   -2.0696871    1.6626594   439061 
  641000    1.1079183   -2.0705948   -2.0705948  -0.40872107   0.33794555   -2.0705948    1.6618737   439061 
  642000    1.1076732   -2.0690358   -2.0690358  -0.40752974   0.33952442   -2.0690358    1.6615061   439061 
  643000    1.1094486    -2.071879    -2.071879  -0.40770978   0.33981166    -2.071879    1.6641692   439061 
  644000    1.1078319   -2.0715671   -2.0715671  -0.40982305    0.3352359   -2.0715671    1.6617441   439061 
  645000    1.1090481   -2.0727876   -2.0727876  -0.40921919   0.33363779   -2.0727876    1.6635684   439061 
  646000     1.109889    -2.074903    -2.074903  -0.41007327   0.33220737    -2.074903    1.6648297   439061 
  647000    1.1073991   -2.0715501   -2.0715501  -0.41045533   0.33687175   -2.0715501    1.6610948   439061 
  648000    1.1071787   -2.0710788   -2.0710788  -0.41031452    0.3373401   -2.0710788    1.6607643   439061 
  649000    1.1068205   -2.0702424   -2.0702424  -0.41001543   0.33351821   -2.0702424    1.6602269   439061 
  650000    1.1071709   -2.0687726   -2.0687726   -0.4080201   0.34019312   -2.0687726    1.6607525   439061 
  651000    1.1070998   -2.0700337   -2.0700337  -0.40938781   0.33574099   -2.0700337    1.6606459   439061 
  652000     1.107387    -2.070636    -2.070636  -0.40955928   0.33302008    -2.070636    1.6610767   439061 
  653000    1.1079634   -2.0709636   -2.0709636  -0.40902221   0.33656777   -2.0709636    1.6619414   439061 
  654000    1.1069844   -2.0695527   -2.0695527  -0.40907984   0.33527447   -2.0695527    1.6604729   439061 
  655000    1.1082006   -2.0708404   -2.0708404  -0.40854332   0.33563038   -2.0708404    1.6622971   439061 
  656000    1.1068279   -2.0710604   -2.0710604   -0.4108224   0.33596891   -2.0710604     1.660238   439061 
  657000    1.1057296     -2.06945     -2.06945   -0.4108594   0.33911806     -2.06945    1.6585906   439061 
  658000    1.1066644   -2.0710447   -2.0710447  -0.41105186   0.33223699   -2.0710447    1.6599929   439061 
  659000    1.1070298   -2.0714163   -2.0714163  -0.41087543    0.3382268   -2.0714163    1.6605409   439061 
  660000    1.1063835   -2.0708341   -2.0708341  -0.41126269   0.33191949   -2.0708341    1.6595714   439061 
  661000    1.1071604   -2.0723013   -2.0723013  -0.41156444   0.33392389   -2.0723013    1.6607368   439061 
  662000    1.1058484   -2.0717093   -2.0717093  -0.41294054   0.33073427   -2.0717093    1.6587688   439061 
  663000    1.1054586    -2.071251    -2.071251  -0.41306685   0.33614225    -2.071251    1.6581841   439061 
  664000    1.1052649   -2.0704155   -2.0704155  -0.41252192   0.33153393   -2.0704155    1.6578936   439061 
  665000    1.1046403   -2.0700343   -2.0700343  -0.41307757    0.3337467   -2.0700343    1.6569567   439061 
  666000    1.1059828   -2.0704196   -2.0704196  -0.41144915   0.33450655   -2.0704196    1.6589705   439061 
  667000    1.1067388   -2.0712355   -2.0712355  -0.41113111   0.33270013   -2.0712355    1.6601043   439061 
  668000    1.1058167   -2.0705951   -2.0705951  -0.41187385   0.33044891   -2.0705951    1.6587212   439061 
  669000    1.1059673   -2.0691596   -2.0691596  -0.41021241   0.33605543   -2.0691596    1.6589472   439061 
  670000      1.10612   -2.0700563   -2.0700563  -0.41088004   0.33220424   -2.0700563    1.6591763   439061 
  671000    1.1060021   -2.0711011   -2.0711011  -0.41210169   0.33545022   -2.0711011    1.6589994   439061 
  672000    1.1060055   -2.0710214   -2.0710214  -0.41201695    0.3329153   -2.0710214    1.6590045   439061 
  673000    1.1070714   -2.0708165   -2.0708165  -0.41021316   0.33632676   -2.0708165    1.6606033   439061 
  674000    1.1056248   -2.0702733   -2.0702733  -0.41183998   0.33360734   -2.0702733    1.6584334   439061 
  675000    1.1058602   -2.0710965   -2.0710965   -0.4123099   0.33585547   -2.0710965    1.6587866   439061 
  676000    1.1043171   -2.0690054   -2.0690054  -0.41253356   0.33354544   -2.0690054    1.6564719   439061 
  677000    1.1051951   -2.0711762   -2.0711762  -0.41338727   0.33100898   -2.0711762    1.6577889   439061 
  678000    1.1046711   -2.0702348   -2.0702348  -0.41323189   0.33355344   -2.0702348    1.6570029   439061 
  679000     1.105548   -2.0701459   -2.0701459  -0.41182771   0.33279329   -2.0701459    1.6583182   439061 
  680000    1.1042426   -2.0684129   -2.0684129  -0.41205281   0.33843561   -2.0684129    1.6563601   439061 
  681000    1.1056728   -2.0722977   -2.0722977  -0.41379229   0.33489213   -2.0722977    1.6585054   439061 
  682000    1.1048737   -2.0708792   -2.0708792  -0.41357246   0.33078593   -2.0708792    1.6573067   439061 
  683000    1.1058205   -2.0723842   -2.0723842  -0.41365727   0.32773238   -2.0723842    1.6587269   439061 
  684000    1.1064908   -2.0730846   -2.0730846  -0.41335228   0.33097343   -2.0730846    1.6597324   439061 
  685000    1.1047912   -2.0713466   -2.0713466   -0.4141636   0.32958998   -2.0713466     1.657183   439061 
  686000    1.1042272   -2.0701326   -2.0701326  -0.41379556   0.33530245   -2.0701326    1.6563371   439061 
  687000    1.1039107   -2.0703051   -2.0703051  -0.41444277   0.33170994   -2.0703051    1.6558623   439061 
  688000    1.1043774   -2.0704565   -2.0704565  -0.41389414   0.33147023   -2.0704565    1.6565623   439061 
  689000    1.1043035   -2.0711965   -2.0711965    -0.414745   0.33522884   -2.0711965    1.6564515   439061 
  690000    1.1048523   -2.0715656   -2.0715656  -0.41429087    0.3277282   -2.0715656    1.6572747   439061 
  691000    1.1038233   -2.0697289   -2.0697289  -0.41399773   0.33618311   -2.0697289    1.6557311   439061 
  692000    1.1045736   -2.0707985   -2.0707985  -0.41394184   0.33487701   -2.0707985    1.6568566   439061 
  693000    1.1045178   -2.0694493   -2.0694493  -0.41267647   0.33236137   -2.0694493    1.6567729   439061 
  694000    1.1041261   -2.0687775   -2.0687775  -0.41259216   0.33623275   -2.0687775    1.6561853   439061 
  695000    1.1056588   -2.0700853   -2.0700853  -0.41160093    0.3320426   -2.0700853    1.6584844   439061 
  696000    1.1057296   -2.0717478   -2.0717478  -0.41315713   0.33302785   -2.0717478    1.6585907   439061 
  697000    1.1050627   -2.0718456   -2.0718456  -0.41425533   0.33079486   -2.0718456    1.6575903   439061 
  698000      1.10274   -2.0698086   -2.0698086  -0.41570239   0.33194343   -2.0698086    1.6541062   439061 
  699000    1.1025066   -2.0700654   -2.0700654  -0.41630922   0.33022864   -2.0700654    1.6537562   439061 
  700000    1.1045294    -2.071455    -2.071455  -0.41466473   0.33256114    -2.071455    1.6567903   439061 
  701000    1.1036377   -2.0702009   -2.0702009  -0.41474809   0.33658091   -2.0702009    1.6554528   439061 
  702000    1.1040846   -2.0698673   -2.0698673  -0.41374422   0.33319976   -2.0698673    1.6561231   439061 
  703000    1.1040067   -2.0697752   -2.0697752  -0.41376886   0.33114336   -2.0697752    1.6560063   439061 
  704000    1.1041938   -2.0711903   -2.0711903  -0.41490336   0.32940867   -2.0711903    1.6562869   439061 
  705000    1.1033563   -2.0694288   -2.0694288  -0.41439823   0.33343617   -2.0694288    1.6550306   439061 
  706000    1.1039357   -2.0706392   -2.0706392  -0.41473952   0.33146878   -2.0706392    1.6558997   439061 
  707000     1.105175   -2.0724127   -2.0724127  -0.41465397   0.32666649   -2.0724127    1.6577587   439061 
  708000    1.1048124   -2.0713175   -2.0713175  -0.41410263   0.33012912   -2.0713175    1.6572149   439061 
  709000     1.102384   -2.0690681   -2.0690681  -0.41549588   0.33049586   -2.0690681    1.6535722   439061 
  710000    1.1025952   -2.0698612   -2.0698612  -0.41597222   0.32795083   -2.0698612     1.653889   439061 
  711000    1.1033845   -2.0710342   -2.0710342  -0.41596131   0.33149354   -2.0710342    1.6550729   439061 
  712000    1.1039516   -2.0711738   -2.0711738   -0.4152502   0.32975339   -2.0711738    1.6559236   439061 
  713000    1.1037128   -2.0709323   -2.0709323  -0.41536681   0.33077742   -2.0709323    1.6555655   439061 
  714000    1.1035052   -2.0704483   -2.0704483  -0.41519427   0.33505065   -2.0704483     1.655254   439061 
  715000    1.1039832   -2.0702192   -2.0702192   -0.4142482   0.33075553   -2.0702192     1.655971   439061 
  716000    1.1032521   -2.0703778   -2.0703778   -0.4155034   0.33095879   -2.0703778    1.6548744   439061 
  717000     1.102775   -2.0704456   -2.0704456  -0.41628691   0.33347444   -2.0704456    1.6541587   439061 
  718000    1.1034381   -2.0719925   -2.0719925  -0.41683909   0.33021639   -2.0719925    1.6551535   439061 
  719000    1.1030853    -2.071994    -2.071994  -0.41736983   0.32559295    -2.071994    1.6546242   439061 
  720000    1.1008591   -2.0693221   -2.0693221  -0.41803722   0.32674148   -2.0693221    1.6512848   439061 
  721000     1.101977   -2.0719058   -2.0719058   -0.4189441   0.32762529   -2.0719058    1.6529617   439061 
  722000    1.1006129   -2.0704545   -2.0704545  -0.41953893   0.32901907   -2.0704545    1.6509156   439061 
  723000    1.1029721   -2.0742406   -2.0742406   -0.4197862   0.31951676   -2.0742406    1.6544544   439061 
  724000    1.0993997   -2.0697309   -2.0697309  -0.42063514   0.32851042   -2.0697309    1.6490958   439061 
  725000    1.1018738    -2.072573    -2.072573  -0.41976605   0.32486939    -2.072573    1.6528069   439061 
  726000    1.0994917   -2.0692081   -2.0692081  -0.41997426   0.33061495   -2.0692081    1.6492339   439061 
  727000    1.1015567   -2.0714383   -2.0714383  -0.41910701   0.33108447   -2.0714383    1.6523313   439061 
  728000    1.1003079   -2.0699101   -2.0699101  -0.41945191   0.32910699   -2.0699101    1.6504581   439061 
  729000    1.1021773   -2.0716407   -2.0716407  -0.41837847   0.32802092   -2.0716407    1.6532622   439061 
  730000    1.1007506   -2.0703722   -2.0703722  -0.41925015    0.3281862   -2.0703722    1.6511221   439061 
  731000     1.100601   -2.0703393   -2.0703393  -0.41944152   0.32930939   -2.0703393    1.6508978   439061 
  732000     1.100683   -2.0688386   -2.0688386  -0.41781782   0.33054107   -2.0688386    1.6510208   439061 
  733000    1.1022643   -2.0712532   -2.0712532  -0.41786051   0.33201097   -2.0712532    1.6533927   439061 
  734000    1.1015373    -2.071211    -2.071211  -0.41890888   0.32217061    -2.071211    1.6523022   439061 
  735000    1.1004656   -2.0702728   -2.0702728  -0.41957814   0.32562109   -2.0702728    1.6506946   439061 
  736000    1.1004864   -2.0717175   -2.0717175   -0.4209916   0.32483784   -2.0717175    1.6507259   439061 
  737000    1.0990454   -2.0702351   -2.0702351   -0.4216707   0.32834904   -2.0702351    1.6485644   439061 
  738000    1.1004616   -2.0714046   -2.0714046  -0.42071601   0.32811554   -2.0714046    1.6506886   439061 
  739000    1.0996417   -2.0703442   -2.0703442  -0.42088544   0.32640876   -2.0703442    1.6494588   439061 
  740000    1.1010621   -2.0719479   -2.0719479   -0.4203586   0.32447735   -2.0719479    1.6515893   439061 
  741000    1.1018862   -2.0721568   -2.0721568  -0.41933135   0.32525076   -2.0721568    1.6528255   439061 
  742000    1.1009059   -2.0712552   -2.0712552  -0.41990016   0.33011033   -2.0712552     1.651355   439061 
  743000    1.1002269   -2.0706752   -2.0706752  -0.42033858   0.32725344   -2.0706752    1.6503366   439061 
  744000    1.0998486   -2.0708455   -2.0708455  -0.42107628   0.33023889   -2.0708455    1.6497692   439061 
  745000    1.0999809   -2.0703667   -2.0703667  -0.42039908   0.32546067   -2.0703667    1.6499676   439061 
  746000    1.1005528   -2.0709691   -2.0709691   -0.4201437   0.33019742   -2.0709691    1.6508254   439061 
  747000    1.1001904   -2.0702832   -2.0702832  -0.42000139   0.32414501   -2.0702832    1.6502818   439061 
  748000    1.0999341    -2.070003    -2.070003  -0.42010555   0.32647903    -2.070003    1.6498974   439061 
  749000    1.1002491   -2.0708411   -2.0708411  -0.42047117   0.32779788   -2.0708411    1.6503699   439061 
  750000    1.0998697   -2.0708191   -2.0708191  -0.42101828   0.33048265   -2.0708191    1.6498008   439061 
  751000    1.0989377   -2.0706608   -2.0706608  -0.42225804   0.32939575   -2.0706608    1.6484027   439061 
  752000    1.0992868   -2.0713607   -2.0713607  -0.42243416   0.32455698   -2.0713607    1.6489265   439061 
  753000    1.0985272   -2.0702975   -2.0702975  -0.42251051   0.32899144   -2.0702975     1.647787   439061 
  754000    1.0994482    -2.071941    -2.071941  -0.42277241   0.32539338    -2.071941    1.6491685   439061 
  755000    1.0993478   -2.0718307   -2.0718307  -0.42281275   0.32681039   -2.0718307    1.6490179   439061 
  756000    1.0995065   -2.0720745   -2.0720745  -0.42281848   0.32661775   -2.0720745     1.649256   439061 
  757000     1.099313   -2.0719332   -2.0719332  -0.42296739   0.32640872   -2.0719332    1.6489658   439061 
  758000    1.0994723   -2.0710289   -2.0710289  -0.42182422   0.32238482   -2.0710289    1.6492047   439061 
  759000     1.098666   -2.0717911   -2.0717911  -0.42379578   0.32642358   -2.0717911    1.6479953   439061 
  760000    1.0998693   -2.0720886   -2.0720886  -0.42228834   0.32388029   -2.0720886    1.6498002   439061 
  761000    1.0981853   -2.0692286   -2.0692286  -0.42195434   0.32751463   -2.0692286    1.6472742   439061 
  762000    1.0982089   -2.0705354   -2.0705354  -0.42322574   0.33262084   -2.0705354    1.6473096   439061 
  763000    1.0988339   -2.0719734   -2.0719734  -0.42372635   0.32413348   -2.0719734     1.648247   439061 
  764000    1.0977421   -2.0705788   -2.0705788  -0.42396937   0.32619948   -2.0705788    1.6466094   439061 
  765000    1.0977071   -2.0719825   -2.0719825   -0.4254256   0.32646286   -2.0719825    1.6465569   439061 
  766000     1.097653   -2.0713863   -2.0713863  -0.42491049   0.32553198   -2.0713863    1.6464758   439061 
  767000     1.097848   -2.0721789   -2.0721789  -0.42541071   0.32352863   -2.0721789    1.6467682   439061 
  768000    1.0961124    -2.071129    -2.071129  -0.42696413   0.31971067    -2.071129    1.6441648   439061 
  769000    1.0978241   -2.0724716   -2.0724716  -0.42573923   0.32350652   -2.0724716    1.6467324   439061 
  770000    1.0961665   -2.0712125   -2.0712125  -0.42696646   0.32731242   -2.0712125    1.6442461   439061 
  771000    1.0982051   -2.0731849   -2.0731849  -0.42588097   0.32608926   -2.0731849    1.6473039   439061 
  772000    1.0982938     -2.07289     -2.07289  -0.42545298   0.32633874     -2.07289     1.647437   439061 
  773000    1.0983058   -2.0711421   -2.0711421  -0.42368721   0.32752918   -2.0711421    1.6474549   439061 
  774000    1.0974822   -2.0709786   -2.0709786  -0.42475908   0.32440279   -2.0709786    1.6462195   439061 
  775000    1.0983338   -2.0720488   -2.0720488  -0.42455187   0.32283925   -2.0720488    1.6474969   439061 
  776000    1.0975894   -2.0723026   -2.0723026  -0.42592218   0.32378194   -2.0723026    1.6463804   439061 
  777000    1.0971213   -2.0719521   -2.0719521  -0.42627388   0.32731814   -2.0719521    1.6456782   439061 
  778000    1.0964359   -2.0712267   -2.0712267  -0.42657655   0.32518701   -2.0712267    1.6446501   439061 
  779000    1.0967478   -2.0708402   -2.0708402  -0.42572223   0.32860977   -2.0708402     1.645118   439061 
  780000    1.0966782    -2.072213    -2.072213  -0.42719957   0.32024981    -2.072213    1.6450135   439061 
  781000    1.0952447   -2.0712416   -2.0712416  -0.42837827   0.32099721   -2.0712416    1.6428633   439061 
  782000    1.0963636   -2.0732174   -2.0732174  -0.42867574   0.32239924   -2.0732174    1.6445416   439061 
  783000    1.0950431   -2.0712428   -2.0712428  -0.42868198   0.32335461   -2.0712428    1.6425609   439061 
  784000    1.0958992   -2.0724602   -2.0724602  -0.42861515   0.32382023   -2.0724602     1.643845   439061 
  785000     1.094496   -2.0716297   -2.0716297  -0.42988952   0.32115746   -2.0716297    1.6417402   439061 
  786000    1.0961788   -2.0724286   -2.0724286  -0.42816413   0.32056066   -2.0724286    1.6442644   439061 
  787000    1.0954426   -2.0721443   -2.0721443  -0.42898409   0.32033464   -2.0721443    1.6431602   439061 
  788000    1.0951931   -2.0715243   -2.0715243  -0.42873843   0.32653345   -2.0715243    1.6427859   439061 
  789000    1.0940497   -2.0700736   -2.0700736  -0.42900283   0.32838275   -2.0700736    1.6410707   439061 
  790000    1.0946756     -2.07225     -2.07225  -0.43024036    0.3194781     -2.07225    1.6420096   439061 
  791000    1.0949269   -2.0719131   -2.0719131  -0.42952641   0.32177186   -2.0719131    1.6423867   439061 
  792000    1.0949676   -2.0722586   -2.0722586  -0.42981087   0.32482873   -2.0722586    1.6424477   439061 
  793000    1.0949689   -2.0735094   -2.0735094  -0.43105974   0.32687186   -2.0735094    1.6424496   439061 
  794000    1.0936158   -2.0711271   -2.0711271   -0.4307072   0.32591729   -2.0711271    1.6404199   439061 
  795000    1.0945028   -2.0723368   -2.0723368  -0.43058635   0.31908602   -2.0723368    1.6417505   439061 
  796000    1.0943886   -2.0712197   -2.0712197   -0.4296405   0.31614157   -2.0712197    1.6415792   439061 
  797000    1.0947498    -2.071899    -2.071899  -0.42977804   0.32374051    -2.071899     1.642121   439061 
  798000    1.0957277   -2.0729618   -2.0729618  -0.42937395    0.3214785   -2.0729618    1.6435878   439061 
  799000     1.094579   -2.0716006   -2.0716006  -0.42973591   0.32008469   -2.0716006    1.6418647   439061 
  800000    1.0943958   -2.0736186   -2.0736186  -0.43202867   0.31874362   -2.0736186    1.6415899   439061 
  801000    1.0943493   -2.0718437   -2.0718437  -0.43032346   0.32491374   -2.0718437    1.6415203   439061 
  802000    1.0936956   -2.0720437   -2.0720437  -0.43150403    0.3207172   -2.0720437    1.6405397   439061 
  803000    1.0942567   -2.0724605   -2.0724605  -0.43107921     0.320305   -2.0724605    1.6413813   439061 
  804000    1.0941656   -2.0725251   -2.0725251  -0.43128037   0.32243349   -2.0725251    1.6412447   439061 
  805000    1.0934822   -2.0720036   -2.0720036  -0.43178399   0.32219414   -2.0720036    1.6402196   439061 
  806000    1.0924673   -2.0717419   -2.0717419  -0.43304477   0.32095152   -2.0717419    1.6386972   439061 
  807000    1.0940457   -2.0743384   -2.0743384  -0.43327361   0.31990281   -2.0743384    1.6410648   439061 
  808000    1.0912299    -2.071509    -2.071509  -0.43466781   0.32151633    -2.071509    1.6368412   439061 
  809000     1.092731   -2.0715338   -2.0715338  -0.43244093   0.31862785   -2.0715338    1.6390928   439061 
  810000    1.0932273   -2.0731374   -2.0731374  -0.43330021    0.3195536   -2.0731374    1.6398372   439061 
  811000    1.0938017   -2.0738693   -2.0738693  -0.43317046   0.31784574   -2.0738693    1.6406989   439061 
  812000    1.0937542   -2.0733057   -2.0733057  -0.43267817   0.32022666   -2.0733057    1.6406275   439061 
  813000    1.0935294   -2.0729529   -2.0729529  -0.43266244   0.32054656   -2.0729529    1.6402904   439061 
  814000    1.0937559   -2.0725388   -2.0725388  -0.43190869   0.31794369   -2.0725388    1.6406302   439061 
  815000    1.0943001   -2.0726268   -2.0726268  -0.43118033   0.32186582   -2.0726268    1.6414464   439061 
  816000    1.0930451   -2.0719319   -2.0719319  -0.43236802   0.31720616   -2.0719319    1.6395639   439061 
  817000    1.0938342   -2.0718331   -2.0718331  -0.43108559    0.3213009   -2.0718331    1.6407475   439061 
  818000    1.0929258   -2.0716152   -2.0716152  -0.43223018   0.31969285   -2.0716152     1.639385   439061 
  819000     1.092745   -2.0724757   -2.0724757  -0.43336188   0.31547324   -2.0724757    1.6391138   439061 
  820000    1.0924502   -2.0731603   -2.0731603  -0.43448882   0.31727998   -2.0731603    1.6386715   439061 
  821000    1.0917092   -2.0706363   -2.0706363  -0.43307626   0.32096664   -2.0706363      1.63756   439061 
  822000    1.0936981   -2.0736225   -2.0736225  -0.43307907   0.32175023   -2.0736225    1.6405435   439061 
  823000    1.0912589   -2.0705197   -2.0705197  -0.43363512     0.318417   -2.0705197    1.6368846   439061 
  824000    1.0904001    -2.069492    -2.069492   -0.4338955   0.31958719    -2.069492    1.6355965   439061 
  825000    1.0932313   -2.0733126   -2.0733126  -0.43346938    0.3177414   -2.0733126    1.6398432   439061 
  826000    1.0933525   -2.0731352   -2.0731352  -0.43311024   0.31506815   -2.0731352     1.640025   439061 
  827000    1.0924347   -2.0744009   -2.0744009  -0.43575252     0.315624   -2.0744009    1.6386484   439061 
  828000    1.0918771   -2.0731056   -2.0731056  -0.43529363   0.32041119   -2.0731056     1.637812   439061 
  829000    1.0909919   -2.0718051   -2.0718051  -0.43532108   0.32279494   -2.0718051    1.6364841   439061 
  830000    1.0905687   -2.0717376   -2.0717376  -0.43588822   0.31807075   -2.0717376    1.6358494   439061 
  831000    1.0915452   -2.0720421   -2.0720421    -0.434728   0.31744246   -2.0720421    1.6373141   439061 
  832000    1.0919608   -2.0741391   -2.0741391  -0.43620159   0.31232454   -2.0741391    1.6379375   439061 
  833000    1.0913731   -2.0726728   -2.0726728  -0.43561692   0.31706912   -2.0726728    1.6370559   439061 
  834000    1.0910729   -2.0726225   -2.0726225  -0.43601679   0.31702496   -2.0726225    1.6366057   439061 
  835000    1.0920645   -2.0748306   -2.0748306  -0.43673758   0.31917503   -2.0748306     1.638093   439061 
  836000    1.0906309   -2.0728833   -2.0728833  -0.43694059   0.31749719   -2.0728833    1.6359427   439061 
  837000    1.0893576   -2.0711923   -2.0711923  -0.43715964   0.31969266   -2.0711923    1.6340327   439061 
  838000     1.091269   -2.0725308   -2.0725308  -0.43563108   0.31658103   -2.0725308    1.6368997   439061 
  839000    1.0917004   -2.0738204   -2.0738204  -0.43627357   0.31783031   -2.0738204    1.6375468   439061 
  840000    1.0918703   -2.0739804   -2.0739804  -0.43617867   0.31774713   -2.0739804    1.6378017   439061 
  841000    1.0915387   -2.0741764   -2.0741764  -0.43687212   0.31840932   -2.0741764    1.6373043   439061 
  842000     1.090521   -2.0730264   -2.0730264  -0.43724869   0.31570536   -2.0730264    1.6357777   439061 
  843000    1.0905908   -2.0740598   -2.0740598  -0.43817729   0.31998353   -2.0740598    1.6358825   439061 
  844000    1.0886853    -2.071098    -2.071098  -0.43807374   0.32168735    -2.071098    1.6330243   439061 
  845000    1.0904008   -2.0734328   -2.0734328  -0.43783524   0.31600963   -2.0734328    1.6355975   439061 
  846000    1.0904807   -2.0739199   -2.0739199   -0.4382025    0.3176327   -2.0739199    1.6357174   439061 
  847000    1.0892267   -2.0717343   -2.0717343  -0.43789795   0.31714443   -2.0717343    1.6338364   439061 
  848000    1.0909353   -2.0731416   -2.0731416   -0.4367423   0.31675518   -2.0731416    1.6363993   439061 
  849000    1.0903445   -2.0727207   -2.0727207  -0.43720771   0.31821773   -2.0727207     1.635513   439061 
  850000    1.0896978    -2.071099    -2.071099  -0.43655595   0.31584335    -2.071099     1.634543   439061 
  851000    1.0919072   -2.0738755   -2.0738755  -0.43601841   0.31636495   -2.0738755     1.637857   439061 
  852000     1.091778   -2.0727408   -2.0727408  -0.43507753   0.31527185   -2.0727408    1.6376633   439061 
  853000    1.0908849   -2.0720704   -2.0720704  -0.43574674   0.32067029   -2.0720704    1.6363236   439061 
  854000    1.0906153   -2.0714357   -2.0714357  -0.43551646   0.31318045   -2.0714357    1.6359193   439061 
  855000     1.089227   -2.0698366   -2.0698366  -0.43599981   0.31632243   -2.0698366    1.6338368   439061 
  856000    1.0908639   -2.0715815   -2.0715815  -0.43528932   0.32090261   -2.0715815    1.6362921   439061 
  857000      1.09007   -2.0719253   -2.0719253  -0.43682399   0.32110011   -2.0719253    1.6351013   439061 
  858000    1.0887145   -2.0716307   -2.0716307  -0.43856266   0.32218062   -2.0716307     1.633068   439061 
  859000    1.0885314   -2.0710082   -2.0710082  -0.43821487   0.31183167   -2.0710082    1.6327933   439061 
  860000    1.0899234   -2.0721998   -2.0721998  -0.43731834   0.31761119   -2.0721998    1.6348814   439061 
  861000    1.0887056    -2.070629    -2.070629  -0.43757424   0.32173242    -2.070629    1.6330548   439061 
  862000    1.0896116   -2.0719657   -2.0719657  -0.43755202   0.31644924   -2.0719657    1.6344137   439061 
  863000    1.0900466   -2.0732948   -2.0732948   -0.4382286    0.3206329   -2.0732948    1.6350662   439061 
  864000      1.08818   -2.0705297   -2.0705297  -0.43826346   0.31772169   -2.0705297    1.6322662   439061 
  865000    1.0899955   -2.0730878   -2.0730878  -0.43809817   0.31481729   -2.0730878    1.6349896   439061 
  866000    1.0902007   -2.0719035   -2.0719035  -0.43660621    0.3161765   -2.0719035    1.6352973   439061 
  867000    1.0899649   -2.0714658   -2.0714658  -0.43652217   0.31848347   -2.0714658    1.6349436   439061 
  868000    1.0907992     -2.07318     -2.07318  -0.43698496   0.31398118     -2.07318    1.6361951   439061 
  869000    1.0905316   -2.0716774   -2.0716774  -0.43588377   0.31750443   -2.0716774    1.6357937   439061 
  870000    1.0912996   -2.0735088   -2.0735088   -0.4365631   0.31788066   -2.0735088    1.6369457   439061 
  871000    1.0889174   -2.0704645   -2.0704645  -0.43709206   0.31834262   -2.0704645    1.6333724   439061 
  872000    1.0905458   -2.0722298   -2.0722298   -0.4364148   0.31389784   -2.0722298     1.635815   439061 
  873000    1.0886594   -2.0710003   -2.0710003  -0.43801486   0.31844315   -2.0710003    1.6329854   439061 
  874000    1.0887401   -2.0708038   -2.0708038  -0.43769737   0.31695705   -2.0708038    1.6331064   439061 
  875000    1.0897308   -2.0725462   -2.0725462  -0.43795366   0.31603584   -2.0725462    1.6345925   439061 
  876000     1.089043   -2.0718218   -2.0718218  -0.43826107   0.31108792   -2.0718218    1.6335608   439061 
  877000    1.0893064   -2.0719683   -2.0719683  -0.43801241   0.32011821   -2.0719683    1.6339559   439061 
  878000    1.0898626   -2.0730574   -2.0730574  -0.43826726   0.31013442   -2.0730574    1.6347902   439061 
  879000     1.088455   -2.0724229   -2.0724229  -0.43974408   0.31381239   -2.0724229    1.6326788   439061 
  880000    1.0884598   -2.0716898   -2.0716898  -0.43900382   0.31872568   -2.0716898     1.632686   439061 
  881000    1.0886735   -2.0732011   -2.0732011  -0.44019459   0.31522427   -2.0732011    1.6330065   439061 
  882000    1.0870652   -2.0709539   -2.0709539  -0.44035974   0.31298773   -2.0709539    1.6305941   439061 
  883000    1.0886341   -2.0732065   -2.0732065  -0.44025916   0.31819939   -2.0732065    1.6329474   439061 
  884000    1.0876581    -2.071987    -2.071987  -0.44050358   0.31483427    -2.071987    1.6314834   439061 
  885000     1.087036   -2.0722689   -2.0722689  -0.44171863   0.31636789   -2.0722689    1.6305503   439061 
  886000    1.0886051   -2.0740528   -2.0740528  -0.44114885   0.31175028   -2.0740528     1.632904   439061 
  887000      1.08783   -2.0719963   -2.0719963  -0.44025501   0.31721661   -2.0719963    1.6317413   439061 
  888000     1.086614   -2.0724554   -2.0724554  -0.44253813   0.31449335   -2.0724554    1.6299172   439061 
  889000    1.0859691   -2.0725562   -2.0725562  -0.44360624   0.31592404   -2.0725562      1.62895   439061 
  890000    1.0858723   -2.0728826   -2.0728826  -0.44407795   0.31305621   -2.0728826    1.6288047   439061 
  891000    1.0872353   -2.0729911   -2.0729911  -0.44214176   0.31431469   -2.0729911    1.6308493   439061 
  892000    1.0866064   -2.0725574   -2.0725574  -0.44265151   0.31455288   -2.0725574    1.6299059   439061 
  893000    1.0873147   -2.0742372   -2.0742372  -0.44326877   0.31111107   -2.0742372    1.6309684   439061 
  894000    1.0863764   -2.0725335   -2.0725335  -0.44297262   0.31538086   -2.0725335    1.6295609   439061 
  895000    1.0864216   -2.0724391   -2.0724391   -0.4428105   0.31568794   -2.0724391    1.6296286   439061 
  896000    1.0862715   -2.0725147   -2.0725147  -0.44311117   0.31386701   -2.0725147    1.6294036   439061 
  897000    1.0876887   -2.0745056   -2.0745056  -0.44297626   0.31367774   -2.0745056    1.6315293   439061 
  898000    1.0856664   -2.0725367   -2.0725367  -0.44404081   0.31660566   -2.0725367    1.6284959   439061 
  899000    1.0857925   -2.0736514   -2.0736514  -0.44496646   0.31218393   -2.0736514     1.628685   439061 
  900000     1.086356   -2.0740072   -2.0740072  -0.44447682   0.30832407   -2.0740072    1.6295303   439061 
  901000    1.0845217   -2.0710138   -2.0710138  -0.44423484   0.31408636   -2.0710138    1.6267789   439061 
  902000    1.0864592   -2.0722555   -2.0722555  -0.44257038   0.31204608   -2.0722555    1.6296851   439061 
  903000    1.0863721   -2.0729817   -2.0729817  -0.44342728   0.31162576   -2.0729817    1.6295544   439061 
  904000    1.0859265   -2.0733894   -2.0733894  -0.44450331   0.31029472   -2.0733894    1.6288861   439061 
  905000    1.0870912   -2.0750377   -2.0750377   -0.4444046   0.31266434   -2.0750377    1.6306331   439061 
  906000    1.0865952   -2.0743722   -2.0743722   -0.4444832   0.30787592   -2.0743722     1.629889   439061 
  907000    1.0852764   -2.0720124   -2.0720124  -0.44410141   0.31090125   -2.0720124     1.627911   439061 
  908000    1.0861688   -2.0739722   -2.0739722  -0.44472272   0.31141364   -2.0739722    1.6292494   439061 
  909000    1.0845471   -2.0719473   -2.0719473  -0.44513044   0.31341517   -2.0719473    1.6268169   439061 
  910000    1.0865509   -2.0740346   -2.0740346  -0.44421201   0.31044145   -2.0740346    1.6298226   439061 
  911000    1.0853475   -2.0724973   -2.0724973  -0.44447976   0.31383032   -2.0724973    1.6280176   439061 
  912000    1.0869083   -2.0737808   -2.0737808  -0.44342201   0.31261959   -2.0737808    1.6303588   439061 
  913000    1.0862596   -2.0740764   -2.0740764  -0.44469063   0.30980683   -2.0740764    1.6293857   439061 
  914000    1.0861606   -2.0721568   -2.0721568  -0.44291959   0.31435837   -2.0721568    1.6292372   439061 
  915000     1.087219   -2.0732592   -2.0732592  -0.44243434   0.31500221   -2.0732592    1.6308248   439061 
  916000    1.0859372   -2.0711498   -2.0711498  -0.44224767   0.31178159   -2.0711498    1.6289022   439061 
  917000    1.0851537   -2.0709005   -2.0709005  -0.44317369   0.31295722   -2.0709005    1.6277268   439061 
  918000    1.0863951   -2.0713273   -2.0713273  -0.44173837   0.31301438   -2.0713273     1.629589   439061 
  919000     1.086753   -2.0712234   -2.0712234  -0.44109762   0.31523057   -2.0712234    1.6301258   439061 
  920000    1.0871173   -2.0712216   -2.0712216  -0.44054941   0.31688345   -2.0712216    1.6306722   439061 
  921000    1.0864568   -2.0727179   -2.0727179  -0.44303637   0.31081286   -2.0727179    1.6296815   439061 
  922000    1.0870665   -2.0742624   -2.0742624  -0.44366638   0.31090385   -2.0742624     1.630596   439061 
  923000    1.0861055   -2.0722651   -2.0722651  -0.44311058   0.30849481   -2.0722651    1.6291545   439061 
  924000    1.0864666   -2.0729513   -2.0729513  -0.44325503   0.31491825   -2.0729513    1.6296962   439061 
  925000    1.0870044   -2.0746259   -2.0746259  -0.44412293   0.31083797   -2.0746259    1.6305029   439061 
  926000    1.0852739   -2.0722481   -2.0722481  -0.44434099   0.31116726   -2.0722481    1.6279071   439061 
  927000     1.085393    -2.073136    -2.073136  -0.44505021   0.30649398    -2.073136    1.6280858   439061 
  928000    1.0843349   -2.0706973   -2.0706973  -0.44419865   0.31467971   -2.0706973    1.6264986   439061 
  929000    1.0852806   -2.0722727   -2.0722727   -0.4443555   0.30840538   -2.0722727    1.6279172   439061 
  930000     1.084913   -2.0720233   -2.0720233  -0.44465745   0.31324385   -2.0720233    1.6273659   439061 
  931000    1.0857573    -2.073206    -2.073206  -0.44457378   0.30933433    -2.073206    1.6286322   439061 
  932000    1.0851484   -2.0714171   -2.0714171  -0.44369821   0.31197991   -2.0714171    1.6277188   439061 
  933000    1.0843544   -2.0708939   -2.0708939    -0.444366   0.31416673   -2.0708939    1.6265279   439061 
  934000     1.083372   -2.0699188   -2.0699188  -0.44486451    0.3160344   -2.0699188    1.6250543   439061 
  935000    1.0849845   -2.0734591   -2.0734591   -0.4459861   0.30780088   -2.0734591     1.627473   439061 
  936000    1.0843333   -2.0719361   -2.0719361   -0.4454399   0.31383308   -2.0719361    1.6264962   439061 
  937000    1.0852186   -2.0740524   -2.0740524   -0.4462283    0.3086119   -2.0740524    1.6278241   439061 
  938000    1.0835699   -2.0719587   -2.0719587  -0.44660753   0.31045464   -2.0719587    1.6253511   439061 
  939000    1.0841422   -2.0727337   -2.0727337  -0.44652403   0.31214584   -2.0727337    1.6262096   439061 
  940000    1.0835583   -2.0720961   -2.0720961  -0.44676241   0.31449191   -2.0720961    1.6253337   439061 
  941000    1.0839481   -2.0738898   -2.0738898  -0.44797125   0.30815008   -2.0738898    1.6259185   439061 
  942000    1.0838391   -2.0743261   -2.0743261  -0.44857108   0.30684796   -2.0743261     1.625755   439061 
  943000    1.0821713   -2.0717295   -2.0717295  -0.44847618   0.30980975   -2.0717295    1.6232533   439061 
  944000    1.0830887   -2.0744913   -2.0744913  -0.44986198   0.30868312   -2.0744913    1.6246293   439061 
  945000    1.0827471   -2.0728679   -2.0728679  -0.44875093   0.30788995   -2.0728679    1.6241169   439061 
  946000    1.0832675   -2.0735962   -2.0735962  -0.44869871   0.30768404   -2.0735962    1.6248975   439061 
  947000     1.082174   -2.0716899   -2.0716899  -0.44843254   0.30858695   -2.0716899    1.6232573   439061 
  948000    1.0827466    -2.072315    -2.072315  -0.44819887   0.30975042    -2.072315    1.6241162   439061 
  949000    1.0825597   -2.0717254   -2.0717254  -0.44788963   0.30826874   -2.0717254    1.6238358   439061 
  950000    1.0832528   -2.0744626   -2.0744626  -0.44958711   0.30607716   -2.0744626    1.6248755   439061 
  951000    1.0820992   -2.0731266   -2.0731266  -0.44998143   0.30711846   -2.0731266    1.6231451   439061 
  952000    1.0824973    -2.074155    -2.074155  -0.45041283   0.30876541    -2.074155    1.6237422   439061 
  953000     1.082559   -2.0749248   -2.0749248  -0.45108997   0.30482059   -2.0749248    1.6238349   439061 
  954000    1.0825687   -2.0747096   -2.0747096  -0.45086015   0.30933027   -2.0747096    1.6238494   439061 
  955000    1.0828029   -2.0738819   -2.0738819  -0.44968118   0.30892298   -2.0738819    1.6242007   439061 
  956000    1.0824753   -2.0737154   -2.0737154   -0.4500062   0.30747115   -2.0737154    1.6237092   439061 
  957000    1.0823493   -2.0730622   -2.0730622  -0.44954187   0.30455343   -2.0730622    1.6235203   439061 
  958000    1.0827364   -2.0737086   -2.0737086  -0.44960766   0.30701943   -2.0737086    1.6241009   439061 
  959000    1.0837342    -2.073651    -2.073651  -0.44805344   0.30837162    -2.073651    1.6255976   439061 
  960000    1.0814362   -2.0704938   -2.0704938  -0.44834327   0.31120822   -2.0704938    1.6221505   439061 
  961000    1.0838685   -2.0728812   -2.0728812  -0.44708212    0.3122515   -2.0728812    1.6257991   439061 
  962000      1.08472   -2.0740495   -2.0740495  -0.44697322   0.30795191   -2.0740495    1.6270763   439061 
  963000    1.0839513   -2.0729661   -2.0729661   -0.4470429   0.31071761   -2.0729661    1.6259232   439061 
  964000    1.0829816   -2.0722119   -2.0722119  -0.44774315   0.30987289   -2.0722119    1.6244687   439061 
  965000    1.0824715   -2.0726826   -2.0726826  -0.44897908   0.30888389   -2.0726826    1.6237035   439061 
  966000    1.0806116   -2.0706526   -2.0706526  -0.44973895    0.3106522   -2.0706526    1.6209137   439061 
  967000    1.0810655   -2.0726663   -2.0726663  -0.45107165   0.30633823   -2.0726663    1.6215946   439061 
  968000    1.0811199   -2.0727666   -2.0727666  -0.45109053    0.3060778   -2.0727666    1.6216761   439061 
  969000    1.0790039    -2.069237    -2.069237  -0.45073487   0.30650705    -2.069237    1.6185021   439061 
  970000    1.0804511   -2.0719098   -2.0719098  -0.45123686   0.30493871   -2.0719098    1.6206729   439061 
  971000    1.0806166   -2.0721235   -2.0721235  -0.45120236   0.30800583   -2.0721235    1.6209211   439061 
  972000    1.0816026    -2.072991    -2.072991  -0.45059076   0.31175265    -2.072991    1.6224002   439061 
  973000    1.0806475   -2.0726612   -2.0726612  -0.45169365   0.30800758   -2.0726612    1.6209676   439061 
  974000    1.0814221   -2.0728806   -2.0728806  -0.45075107   0.30944371   -2.0728806    1.6221295   439061 
  975000    1.0811461   -2.0728575   -2.0728575  -0.45114199   0.30889251   -2.0728575    1.6217155   439061 
  976000    1.0811666   -2.0722082   -2.0722082  -0.45046195   0.30968249   -2.0722082    1.6217462   439061 
  977000    1.0812385   -2.0714929   -2.0714929  -0.44963885   0.31183932   -2.0714929    1.6218541   439061 
  978000    1.0827314   -2.0732165   -2.0732165  -0.44912315   0.30759884   -2.0732165    1.6240934   439061 
  979000    1.0819577    -2.072205    -2.072205  -0.44927204   0.30448366    -2.072205    1.6229329   439061 
  980000    1.0821264   -2.0727559   -2.0727559  -0.44957003   0.30937108   -2.0727559    1.6231859   439061 
  981000    1.0817127   -2.0715032   -2.0715032  -0.44893784   0.30436748   -2.0715032    1.6225654   439061 
  982000    1.0822997   -2.0723871   -2.0723871  -0.44894122   0.30626119   -2.0723871    1.6234459   439061 
  983000    1.0835763   -2.0735727   -2.0735727  -0.44821185   0.30872322   -2.0735727    1.6253608   439061 
  984000    1.0816967   -2.0717439   -2.0717439  -0.44920253   0.30493858   -2.0717439    1.6225414   439061 
  985000    1.0813301   -2.0707178   -2.0707178  -0.44872633    0.3077226   -2.0707178    1.6219915   439061 
  986000    1.0815701   -2.0715181   -2.0715181  -0.44916667   0.30557221   -2.0715181    1.6223514   439061 
  987000    1.0823959   -2.0727657   -2.0727657  -0.44917558   0.30860742   -2.0727657    1.6235902   439061 
  988000    1.0827315   -2.0731226   -2.0731226  -0.44902904    0.3067982   -2.0731226    1.6240935   439061 
  989000    1.0824075   -2.0729814   -2.0729814  -0.44937389   0.30418982   -2.0729814    1.6236075   439061 
  990000    1.0819094   -2.0724794   -2.0724794  -0.44961903   0.30219279   -2.0724794    1.6228604   439061 
  991000    1.0809346   -2.0709942   -2.0709942  -0.44959602   0.30809471   -2.0709942    1.6213982   439061 
  992000    1.0808068   -2.0711517   -2.0711517  -0.44994515   0.30445013   -2.0711517    1.6212065   439061 
  993000    1.0809953   -2.0717521   -2.0717521  -0.45026284     0.310778   -2.0717521    1.6214893   439061 
  994000    1.0806413   -2.0726366   -2.0726366  -0.45167832   0.30567222   -2.0726366    1.6209583   439061 
  995000    1.0803749   -2.0712733   -2.0712733  -0.45071469   0.30568312   -2.0712733    1.6205586   439061 
  996000    1.0804767   -2.0715094   -2.0715094  -0.45079812   0.31112637   -2.0715094    1.6207113   439061 
  997000    1.0805475   -2.0718764   -2.0718764  -0.45105894   0.30552683   -2.0718764    1.6208175   439061 
  998000    1.0804112   -2.0719082   -2.0719082  -0.45129504   0.30773366   -2.0719082    1.6206132   439061 
  999000    1.0818535   -2.0720289   -2.0720289  -0.44925231   0.30619773   -2.0720289    1.6227765   439061 
 1000000    1.0820141   -2.0716606   -2.0716606  -0.44864304   0.30997926   -2.0716606    1.6230175   439061 
 1001000    1.0817088   -2.0709387   -2.0709387  -0.44837913   0.30886747   -2.0709387    1.6225595   439061 
 1002000    1.0819473   -2.0724088   -2.0724088  -0.44949154   0.30501511   -2.0724088    1.6229173   439061 
 1003000    1.0809505   -2.0723061   -2.0723061  -0.45088413   0.30278876   -2.0723061     1.621422   439061 
 1004000    1.0822756   -2.0735103   -2.0735103  -0.45010063    0.3029471   -2.0735103    1.6234097   439061 
 1005000     1.079734   -2.0718703   -2.0718703    -0.452273   0.30741303   -2.0718703    1.6195973   439061 
 1006000    1.0806186   -2.0731809   -2.0731809  -0.45225672   0.30626978   -2.0731809    1.6209242   439061 
 1007000    1.0796396   -2.0713957   -2.0713957  -0.45193996   0.30773501   -2.0713957    1.6194557   439061 
 1008000    1.0794718   -2.0715113   -2.0715113  -0.45230729   0.30979432   -2.0715113     1.619204   439061 
 1009000     1.081852    -2.073009    -2.073009   -0.4502347   0.30617972    -2.073009    1.6227743   439061 
 1010000    1.0816504   -2.0723763   -2.0723763  -0.44990438   0.30680417   -2.0723763    1.6224719   439061 
 1011000    1.0797473   -2.0715039   -2.0715039  -0.45188671   0.31063315   -2.0715039    1.6196172   439061 
 1012000    1.0813667   -2.0739687   -2.0739687  -0.45192239   0.30355103   -2.0739687    1.6220464   439061 
 1013000    1.0810842   -2.0721142   -2.0721142  -0.45049153   0.30743017   -2.0721142    1.6216226   439061 
 1014000    1.0807502   -2.0720707   -2.0720707  -0.45094918   0.30334654   -2.0720707    1.6211216   439061 
 1015000    1.0790323   -2.0705032   -2.0705032  -0.45195853   0.30902158   -2.0705032    1.6185447   439061 
 1016000    1.0801888   -2.0712683   -2.0712683  -0.45098873   0.30446384   -2.0712683    1.6202796   439061 
 1017000    1.0790716   -2.0701871   -2.0701871  -0.45158335   0.30744294   -2.0701871    1.6186037   439061 
 1018000    1.0793744   -2.0710431   -2.0710431  -0.45198512   0.30869225   -2.0710431     1.619058   439061 
 1019000    1.0807985   -2.0736923   -2.0736923  -0.45249819   0.29953567   -2.0736923    1.6211941   439061 
 1020000    1.0787177   -2.0715174   -2.0715174  -0.45344451   0.30180143   -2.0715174    1.6180729   439061 
 1021000    1.0799388   -2.0720739   -2.0720739  -0.45216939   0.30330187   -2.0720739    1.6199045   439061 
 1022000     1.081219   -2.0747716   -2.0747716   -0.4529467   0.29964694   -2.0747716    1.6218249   439061 
 1023000    1.0780347   -2.0722561   -2.0722561  -0.45520773    0.3022277   -2.0722561    1.6170484   439061 
 1024000    1.0782772   -2.0722041   -2.0722041  -0.45479201   0.30711079   -2.0722041    1.6174121   439061 
 1025000    1.0784068   -2.0725193   -2.0725193  -0.45491272   0.30247785   -2.0725193    1.6176065   439061 
 1026000    1.0802019   -2.0749126   -2.0749126  -0.45461338   0.30327893   -2.0749126    1.6202992   439061 
 1027000    1.0794655   -2.0733633   -2.0733633   -0.4541688   0.30335062   -2.0733633    1.6191945   439061 
 1028000    1.0790141   -2.0725389   -2.0725389  -0.45402145   0.30685672   -2.0725389    1.6185174   439061 
 1029000    1.0777412   -2.0705859   -2.0705859  -0.45397771   0.30303845   -2.0705859    1.6166082   439061 
 1030000    1.0773118   -2.0718097   -2.0718097  -0.45584565   0.30437071   -2.0718097    1.6159641   439061 
 1031000    1.0781717   -2.0721727   -2.0721727  -0.45491881   0.30504961   -2.0721727    1.6172539   439061 
 1032000    1.0781626   -2.0721893   -2.0721893   -0.4549491   0.30483569   -2.0721893    1.6172402   439061 
 1033000    1.0784347   -2.0743088   -2.0743088   -0.4566604   0.29995156   -2.0743088    1.6176484   439061 
 1034000    1.0781118   -2.0734845   -2.0734845  -0.45632046   0.30285357   -2.0734845     1.617164   439061 
 1035000    1.0769614   -2.0729595   -2.0729595  -0.45752111   0.30257936   -2.0729595    1.6154384   439061 
 1036000    1.0788051   -2.0752194   -2.0752194   -0.4570154   0.30626617   -2.0752194     1.618204   439061 
 1037000    1.0762338   -2.0725626   -2.0725626  -0.45821551   0.30349146   -2.0725626    1.6143471   439061 
 1038000      1.07657   -2.0716923   -2.0716923  -0.45684092    0.3067096   -2.0716923    1.6148514   439061 
 1039000    1.0772141   -2.0718398   -2.0718398  -0.45602231   0.30094625   -2.0718398    1.6158175   439061 
 1040000     1.079183   -2.0736238   -2.0736238  -0.45485293    0.3049198   -2.0736238    1.6187708   439061 
 1041000    1.0778388    -2.072288    -2.072288  -0.45553346   0.30762887    -2.072288    1.6167546   439061 
 1042000    1.0787603   -2.0738165   -2.0738165  -0.45567969   0.30135029   -2.0738165    1.6181368   439061 
 1043000    1.0777503   -2.0730262   -2.0730262  -0.45640437   0.30472488   -2.0730262    1.6166218   439061 
 1044000    1.0784548   -2.0739691   -2.0739691  -0.45629052   0.30414076   -2.0739691    1.6176786   439061 
 1045000     1.077647   -2.0713882   -2.0713882  -0.45492136   0.30586084   -2.0713882    1.6164669   439061 
 1046000    1.0764893   -2.0712662   -2.0712662  -0.45653593   0.30225211   -2.0712662    1.6147303   439061 
 1047000    1.0775721   -2.0729901   -2.0729901  -0.45663572   0.30638769   -2.0729901    1.6163544   439061 
 1048000    1.0771641   -2.0725657   -2.0725657   -0.4568232    0.3047085   -2.0725657    1.6157425   439061 
 1049000    1.0773084   -2.0727711   -2.0727711  -0.45681214   0.30066547   -2.0727711    1.6159589   439061 
 1050000    1.0754704   -2.0725233   -2.0725233  -0.45932129   0.29967729   -2.0725233     1.613202   439061 
 1051000    1.0764838   -2.0744787   -2.0744787  -0.45975667   0.30144004   -2.0744787     1.614722   439061 
 1052000    1.0764172   -2.0733784   -2.0733784   -0.4587563   0.29517113   -2.0733784    1.6146221   439061 
 1053000    1.0767807   -2.0729923   -2.0729923  -0.45782495   0.29896061   -2.0729923    1.6151674   439061 
 1054000    1.0759326   -2.0715007   -2.0715007  -0.45760536   0.30479617   -2.0715007    1.6138953   439061 
 1055000    1.0777309   -2.0737051   -2.0737051  -0.45711243   0.30163916   -2.0737051    1.6165927   439061 
 1056000    1.0762504   -2.0719284   -2.0719284  -0.45755654   0.30517978   -2.0719284    1.6143719   439061 
 1057000    1.0763983   -2.0721951   -2.0721951  -0.45760135      0.30169   -2.0721951    1.6145937   439061 
 1058000    1.0769054   -2.0732451   -2.0732451  -0.45789069   0.30545329   -2.0732451    1.6153544   439061 
 1059000    1.0747486   -2.0707993   -2.0707993  -0.45868007   0.30150048   -2.0707993    1.6121192   439061 
 1060000    1.0754137   -2.0725084   -2.0725084  -0.45939155    0.3017219   -2.0725084    1.6131168   439061 
 1061000     1.077473   -2.0746008   -2.0746008  -0.45839496   0.30208346   -2.0746008    1.6162058   439061 
 1062000    1.0762837   -2.0740104   -2.0740104  -0.45958858   0.30347311   -2.0740104    1.6144218   439061 
 1063000    1.0765439   -2.0744167   -2.0744167  -0.45960448   0.30096806   -2.0744167    1.6148122   439061 
 1064000    1.0754508   -2.0725004   -2.0725004   -0.4593278   0.30281844   -2.0725004    1.6131726   439061 
 1065000    1.0754834   -2.0720966   -2.0720966  -0.45887509   0.30389359   -2.0720966    1.6132215   439061 
 1066000    1.0754489   -2.0727887   -2.0727887  -0.45961902   0.30264776   -2.0727887    1.6131696   439061 
 1067000    1.0763353   -2.0750477   -2.0750477  -0.46054846   0.30635682   -2.0750477    1.6144993   439061 
 1068000    1.0751396   -2.0723811   -2.0723811  -0.45967527   0.30618798   -2.0723811    1.6127058   439061 
 1069000    1.0759073   -2.0756162   -2.0756162  -0.46175888    0.2951111   -2.0756162    1.6138573   439061 
 1070000    1.0755971   -2.0749082   -2.0749082  -0.46151627   0.30155384   -2.0749082    1.6133919   439061 
 1071000    1.0763264   -2.0764593   -2.0764593  -0.46197335   0.29993794   -2.0764593    1.6144859   439061 
 1072000     1.073801   -2.0724653   -2.0724653   -0.4617675   0.30475429   -2.0724653    1.6106978   439061 
 1073000    1.0753187   -2.0736192   -2.0736192  -0.46064481   0.29973698   -2.0736192    1.6129744   439061 
 1074000    1.0762438   -2.0750859   -2.0750859  -0.46072383   0.29835606   -2.0750859     1.614362   439061 
 1075000    1.0747928   -2.0733932   -2.0733932  -0.46120768   0.29828389   -2.0733932    1.6121855   439061 
 1076000    1.0740334   -2.0725004   -2.0725004  -0.46145394   0.30034493   -2.0725004    1.6110465   439061 
 1077000    1.0755635   -2.0738631   -2.0738631  -0.46052154   0.30076527   -2.0738631    1.6133415   439061 
 1078000    1.0747587     -2.07313     -2.07313  -0.46099563   0.29881088     -2.07313    1.6121343   439061 
 1079000    1.0754511   -2.0733472   -2.0733472  -0.46017427     0.300711   -2.0733472    1.6131729   439061 
 1080000    1.0761871    -2.074844    -2.074844  -0.46056709   0.29988984    -2.074844    1.6142769   439061 
 1081000    1.0746404   -2.0727726   -2.0727726  -0.46081572   0.30326054   -2.0727726    1.6119569   439061 
 1082000    1.0754929   -2.0741702   -2.0741702  -0.46093461   0.29904274   -2.0741702    1.6132356   439061 
 1083000    1.0745312   -2.0730065   -2.0730065  -0.46121348   0.30059509   -2.0730065    1.6117931   439061 
 1084000    1.0748698   -2.0730707   -2.0730707  -0.46076961   0.30035048   -2.0730707    1.6123011   439061 
 1085000    1.0736545   -2.0712445   -2.0712445   -0.4607664   0.29861742   -2.0712445    1.6104781   439061 
 1086000    1.0743056   -2.0711957   -2.0711957  -0.45974093   0.30241574   -2.0711957    1.6114547   439061 
 1087000    1.0757001   -2.0738006   -2.0738006  -0.46025409   0.30188342   -2.0738006    1.6135465   439061 
 1088000    1.0747668   -2.0735892   -2.0735892  -0.46144262   0.29979638   -2.0735892    1.6121466   439061 
 1089000    1.0744638   -2.0723364   -2.0723364  -0.46064445   0.30206939   -2.0723364     1.611692   439061 
 1090000    1.0740119   -2.0719273   -2.0719273  -0.46091309   0.30386831   -2.0719273    1.6110142   439061 
 1091000    1.0749547   -2.0732868   -2.0732868   -0.4608584   0.29974849   -2.0732868    1.6124284   439061 
 1092000    1.0745175   -2.0721713   -2.0721713  -0.46039875   0.30177322   -2.0721713    1.6117725   439061 
 1093000    1.0742991   -2.0723155   -2.0723155   -0.4608704   0.30278833   -2.0723155    1.6114451   439061 
 1094000    1.0756635   -2.0724584   -2.0724584  -0.45896691   0.30237551   -2.0724584    1.6134915   439061 
 1095000    1.0740627   -2.0716698   -2.0716698  -0.46057947   0.30020585   -2.0716698    1.6110903   439061 
 1096000    1.0764021   -2.0735169   -2.0735169   -0.4589174   0.30479399   -2.0735169    1.6145995   439061 
 1097000    1.0736224    -2.070491    -2.070491  -0.46006113   0.30310697    -2.070491    1.6104299   439061 
 1098000     1.074757   -2.0726993   -2.0726993  -0.46056748    0.2976423   -2.0726993    1.6121318   439061 
 1099000    1.0742222   -2.0721552   -2.0721552  -0.46082554   0.29926343   -2.0721552    1.6113296   439061 
 1100000     1.074563    -2.072348    -2.072348   -0.4605072   0.30457538    -2.072348    1.6118408   439061 
 1101000    1.0751095   -2.0728502   -2.0728502  -0.46018964    0.2995153   -2.0728502    1.6126605   439061 
 1102000    1.0728015   -2.0709298   -2.0709298  -0.46173114   0.30133056   -2.0709298    1.6091986   439061 
 1103000    1.0745152    -2.072195    -2.072195  -0.46042593   0.30312435    -2.072195    1.6117691   439061 
 1104000    1.0753506   -2.0742626   -2.0742626  -0.46124039   0.29893803   -2.0742626    1.6130222   439061 
 1105000    1.0732833   -2.0713875   -2.0713875  -0.46146617   0.30186501   -2.0713875    1.6099213   439061 
 1106000    1.0739724   -2.0731652   -2.0731652  -0.46221026    0.3007844   -2.0731652     1.610955   439061 
 1107000    1.0729664   -2.0716577   -2.0716577  -0.46221179   0.30138507   -2.0716577    1.6094459   439061 
 1108000    1.0732342   -2.0723589   -2.0723589  -0.46251132    0.2989421   -2.0723589    1.6098476   439061 
 1109000    1.0749973   -2.0741951   -2.0741951  -0.46170276   0.29641433   -2.0741951    1.6124923   439061 
 1110000    1.0732438   -2.0708312   -2.0708312  -0.46096917   0.30052706   -2.0708312     1.609862   439061 
 1111000    1.0744687   -2.0727404   -2.0727404  -0.46104109   0.29853333   -2.0727404    1.6116993   439061 
 1112000    1.0738029    -2.072375    -2.072375  -0.46167424   0.30456891    -2.072375    1.6107007   439061 
 1113000    1.0745324    -2.072996    -2.072996  -0.46120103   0.29811589    -2.072996     1.611795   439061 
 1114000    1.0733609   -2.0722586   -2.0722586  -0.46222084   0.29690276   -2.0722586    1.6100377   439061 
 1115000     1.073633   -2.0715328   -2.0715328  -0.46108699   0.30282685   -2.0715328    1.6104458   439061 
 1116000    1.0725308   -2.0703467   -2.0703467  -0.46155415     0.297608   -2.0703467    1.6087926   439061 
 1117000    1.0734926   -2.0716309   -2.0716309  -0.46139556   0.29693331   -2.0716309    1.6102353   439061 
 1118000    1.0733804   -2.0723476   -2.0723476  -0.46228058   0.30165101   -2.0723476     1.610067   439061 
 1119000    1.0722213   -2.0714347   -2.0714347   -0.4631064   0.30341148   -2.0714347    1.6083283   439061 
 1120000    1.0733867   -2.0720941   -2.0720941  -0.46201774   0.29606061   -2.0720941    1.6100764   439061 
 1121000    1.0735292   -2.0730849   -2.0730849  -0.46279471   0.29767377   -2.0730849    1.6102902   439061 
 1122000    1.0740537   -2.0738416   -2.0738416  -0.46276476   0.29991938   -2.0738416    1.6110769   439061 
 1123000    1.0742762   -2.0743906   -2.0743906  -0.46298002   0.30116164   -2.0743906    1.6114106   439061 
 1124000    1.0738276   -2.0741736   -2.0741736  -0.46343594   0.30026886   -2.0741736    1.6107377   439061 
 1125000    1.0728959   -2.0727308   -2.0727308  -0.46339059   0.29472153   -2.0727308    1.6093402   439061 
 1126000    1.0722695    -2.072263    -2.072263  -0.46386243   0.29437965    -2.072263    1.6084005   439061 
 1127000    1.0728942   -2.0731418   -2.0731418  -0.46380422   0.30010384   -2.0731418    1.6093376   439061 
 1128000    1.0721446   -2.0717931   -2.0717931  -0.46357984   0.30050086   -2.0717931    1.6082133   439061 
 1129000    1.0731473   -2.0721623   -2.0721623  -0.46244508   0.30280882   -2.0721623    1.6097173   439061 
 1130000    1.0739575   -2.0725835   -2.0725835   -0.4616509   0.29893793   -2.0725835    1.6109326   439061 
 1131000    1.0742876   -2.0723652   -2.0723652  -0.46093748   0.29906663   -2.0723652    1.6114277   439061 
 1132000    1.0740325   -2.0730688   -2.0730688  -0.46202376   0.30249948   -2.0730688     1.611045   439061 
 1133000     1.073321   -2.0720358   -2.0720358  -0.46205801   0.29974364   -2.0720358    1.6099778   439061 
 1134000    1.0734144   -2.0726722   -2.0726722  -0.46255427    0.2964083   -2.0726722     1.610118   439061 
 1135000    1.0732365   -2.0721814   -2.0721814  -0.46233026   0.29812092   -2.0721814    1.6098512   439061 
 1136000    1.0726772   -2.0719229   -2.0719229  -0.46291072   0.29695158   -2.0719229    1.6090122   439061 
 1137000    1.0742517   -2.0727376   -2.0727376  -0.46136379   0.30089603   -2.0727376    1.6113738   439061 
 1138000    1.0719342   -2.0710544   -2.0710544  -0.46315674   0.29505458   -2.0710544    1.6078976   439061 
 1139000    1.0720546    -2.071615    -2.071615  -0.46353673   0.30127184    -2.071615    1.6080783   439061 
 1140000    1.0723165   -2.0726642   -2.0726642  -0.46419314   0.29847465   -2.0726642    1.6084711   439061 
 1141000    1.0715455    -2.072942    -2.072942  -0.46562738   0.29682507    -2.072942    1.6073147   439061 
 1142000    1.0713722   -2.0730291   -2.0730291  -0.46597439   0.29619806   -2.0730291    1.6070547   439061 
 1143000    1.0715099   -2.0734178   -2.0734178  -0.46615663   0.29925303   -2.0734178    1.6072612   439061 
 1144000    1.0718405   -2.0726583   -2.0726583  -0.46490129   0.29486162   -2.0726583     1.607757   439061 
 1145000    1.0713584   -2.0723022   -2.0723022   -0.4652682   0.29921273   -2.0723022     1.607034   439061 
 1146000    1.0711628   -2.0713863   -2.0713863  -0.46464577     0.296654   -2.0713863    1.6067405   439061 
 1147000     1.071664   -2.0706346   -2.0706346  -0.46314223   0.29695424   -2.0706346    1.6074924   439061 
 1148000    1.0724358   -2.0732105   -2.0732105  -0.46456043   0.29867356   -2.0732105    1.6086501   439061 
 1149000      1.07327   -2.0736753   -2.0736753  -0.46377391   0.29993443   -2.0736753    1.6099014   439061 
 1150000    1.0723791    -2.071607    -2.071607  -0.46304204   0.29806479    -2.071607     1.608565   439061 
 1151000    1.0727443   -2.0723129   -2.0723129  -0.46320009   0.29724194   -2.0723129    1.6091128   439061 
 1152000    1.0729743   -2.0721435   -2.0721435  -0.46268578   0.30063184   -2.0721435    1.6094578   439061 
 1153000    1.0721719    -2.073076    -2.073076  -0.46482182    0.3003626    -2.073076    1.6082541   439061 
 1154000    1.0710454   -2.0718836   -2.0718836  -0.46531914    0.2960595   -2.0718836    1.6065644   439061 
 1155000    1.0724895   -2.0729259   -2.0729259  -0.46419531   0.30103307   -2.0729259    1.6087306   439061 
 1156000    1.0713426    -2.071756    -2.071756  -0.46474574   0.29859472    -2.071756    1.6070103   439061 
 1157000    1.0712869   -2.0727044   -2.0727044  -0.46577768   0.29835627   -2.0727044    1.6069267   439061 
 1158000    1.0727397   -2.0757516   -2.0757516  -0.46664574   0.29571495   -2.0757516    1.6091059   439061 
 1159000     1.071238   -2.0739338   -2.0739338  -0.46708043   0.29712861   -2.0739338    1.6068534   439061 
 1160000    1.0700724   -2.0719704   -2.0719704  -0.46686551   0.29575459   -2.0719704    1.6051049   439061 
 1161000    1.0701267   -2.0725639   -2.0725639  -0.46737747   0.29906245   -2.0725639    1.6051864   439061 
 1162000    1.0699827   -2.0733597   -2.0733597  -0.46838923   0.29324619   -2.0733597    1.6049704   439061 
 1163000    1.0699112   -2.0741033   -2.0741033  -0.46924015   0.29566104   -2.0741033    1.6048632   439061 
 1164000    1.0715999   -2.0744488   -2.0744488  -0.46705266   0.29582379   -2.0744488    1.6073961   439061 
 1165000    1.0703827   -2.0738933   -2.0738933  -0.46832294   0.29800925   -2.0738933    1.6055704   439061 
 1166000    1.0704133    -2.073846    -2.073846   -0.4682297   0.29300696    -2.073846    1.6056163   439061 
 1167000    1.0704634   -2.0732913   -2.0732913  -0.46759978   0.29329327   -2.0732913    1.6056915   439061 
 1168000    1.0715328    -2.075103    -2.075103  -0.46780752   0.28893368    -2.075103    1.6072955   439061 
 1169000    1.0709416   -2.0741657   -2.0741657  -0.46775689   0.29003242   -2.0741657    1.6064088   439061 
 1170000    1.0705582   -2.0740465   -2.0740465  -0.46821284   0.29647011   -2.0740465    1.6058337   439061 
 1171000    1.0695434   -2.0735334   -2.0735334  -0.46922201   0.29552661   -2.0735334    1.6043114   439061 
 1172000    1.0691062   -2.0729751   -2.0729751  -0.46931951   0.29431049   -2.0729751    1.6036556   439061 
 1173000    1.0705353   -2.0754136   -2.0754136   -0.4696143    0.2954166   -2.0754136    1.6057993   439061 
 1174000    1.0696464   -2.0729974   -2.0729974  -0.46853149   0.29488748   -2.0729974    1.6044659   439061 
 1175000    1.0702581   -2.0737681   -2.0737681  -0.46838451   0.29417507   -2.0737681    1.6053835   439061 
 1176000    1.0699858   -2.0746065   -2.0746065  -0.46963154   0.29403949   -2.0746065     1.604975   439061 
 1177000    1.0707714   -2.0745563   -2.0745563  -0.46840283   0.29586532   -2.0745563    1.6061535   439061 
 1178000    1.0698306   -2.0733652   -2.0733652  -0.46862288   0.29705475   -2.0733652    1.6047423   439061 
 1179000    1.0684773   -2.0718063   -2.0718063  -0.46909401   0.29248741   -2.0718063    1.6027123   439061 
 1180000    1.0708733   -2.0743057   -2.0743057  -0.46799938    0.2971109   -2.0743057    1.6063063   439061 
 1181000    1.0710103   -2.0744308   -2.0744308  -0.46791897   0.29750789   -2.0744308    1.6065118   439061 
 1182000    1.0697458   -2.0729151   -2.0729151  -0.46830003   0.29583718   -2.0729151     1.604615   439061 
 1183000    1.0706626   -2.0733614   -2.0733614  -0.46737112   0.29462212   -2.0733614    1.6059902   439061 
 1184000    1.0697554   -2.0728602   -2.0728602  -0.46823077   0.29429983   -2.0728602    1.6046295   439061 
 1185000    1.0708911   -2.0737992   -2.0737992  -0.46746616   0.29468318   -2.0737992     1.606333   439061 
 1186000     1.070761   -2.0734219   -2.0734219  -0.46728404   0.29501017   -2.0734219    1.6061379   439061 
 1187000     1.070376   -2.0732602   -2.0732602  -0.46769984   0.29319385   -2.0732602    1.6055603   439061 
 1188000    1.0697942   -2.0731184   -2.0731184  -0.46843072    0.2972051   -2.0731184    1.6046877   439061 
 1189000     1.069152   -2.0717359   -2.0717359  -0.46801154   0.29414789   -2.0717359    1.6037243   439061 
 1190000    1.0707754   -2.0729532   -2.0729532  -0.46679383   0.29390588   -2.0729532    1.6061594   439061 
 1191000    1.0706812   -2.0738508   -2.0738508  -0.46783269   0.29590202   -2.0738508    1.6060181   439061 
 1192000    1.0711266   -2.0740332   -2.0740332  -0.46734699   0.29697648   -2.0740332    1.6066862   439061 
 1193000    1.0688061    -2.070807    -2.070807  -0.46760145   0.29266435    -2.070807    1.6032056   439061 
 1194000    1.0700443    -2.071507    -2.071507  -0.46644418   0.29725052    -2.071507    1.6050628   439061 
 1195000    1.0689966   -2.0709697   -2.0709697  -0.46747844   0.29251765   -2.0709697    1.6034913   439061 
 1196000    1.0707753   -2.0725809   -2.0725809  -0.46642167   0.29236437   -2.0725809    1.6061592   439061 
 1197000    1.0694546   -2.0718241   -2.0718241  -0.46764585    0.2931571   -2.0718241    1.6041783   439061 
 1198000    1.0687557   -2.0711433   -2.0711433  -0.46801334   0.29250891   -2.0711433    1.6031299   439061 
 1199000    1.0693166   -2.0721978   -2.0721978  -0.46822657   0.29754396   -2.0721978    1.6039712   439061 
 1200000    1.0700247   -2.0725025   -2.0725025  -0.46746909   0.29599616   -2.0725025    1.6050334   439061 
 1201000    1.0704796   -2.0717522   -2.0717522  -0.46603641   0.29562735   -2.0717522    1.6057158   439061 
 1202000    1.0694949   -2.0705156   -2.0705156  -0.46627695   0.29759187   -2.0705156    1.6042387   439061 
 1203000    1.0691135   -2.0705536   -2.0705536  -0.46688707   0.29639934   -2.0705536    1.6036665   439061 
 1204000    1.0699285   -2.0717395   -2.0717395  -0.46685046   0.29679206   -2.0717395     1.604889   439061 
 1205000    1.0695721   -2.0724977   -2.0724977  -0.46814314   0.29296008   -2.0724977    1.6043545   439061 
 1206000     1.069887   -2.0728197   -2.0728197  -0.46799286   0.29355859   -2.0728197    1.6048269   439061 
 1207000    1.0701187   -2.0737655   -2.0737655  -0.46859112   0.29563018   -2.0737655    1.6051744   439061 
 1208000    1.0699091   -2.0736586   -2.0736586  -0.46879868   0.29449745   -2.0736586      1.60486   439061 
 1209000    1.0688659   -2.0742166   -2.0742166  -0.47092143   0.29310621   -2.0742166    1.6032951   439061 
 1210000    1.0683132   -2.0737919   -2.0737919  -0.47132575   0.29467528   -2.0737919    1.6024662   439061 
 1211000    1.0681549   -2.0731629   -2.0731629  -0.47093419   0.29003692   -2.0731629    1.6022287   439061 
 1212000    1.0691283   -2.0749616   -2.0749616   -0.4712728   0.29394701   -2.0749616    1.6036888   439061 
 1213000    1.0680816   -2.0735352   -2.0735352  -0.47141648   0.29431301   -2.0735352    1.6021187   439061 
 1214000     1.068763   -2.0747807   -2.0747807   -0.4716399    0.2912534   -2.0747807    1.6031408   439061 
 1215000    1.0692822   -2.0751498   -2.0751498  -0.47123013   0.29792401   -2.0751498    1.6039197   439061 
 1216000    1.0685599   -2.0738577   -2.0738577  -0.47102148   0.29712947   -2.0738577    1.6028362   439061 
 1217000    1.0692957   -2.0753457   -2.0753457  -0.47140584   0.28934064   -2.0753457    1.6039399   439061 
 1218000    1.0683395   -2.0751467   -2.0751467  -0.47264112   0.29323262   -2.0751467    1.6025056   439061 
 1219000    1.0673002   -2.0744527   -2.0744527   -0.4735061   0.29170868   -2.0744527    1.6009466   439061 
 1220000    1.0684975   -2.0744465   -2.0744465   -0.4717039   0.29543167   -2.0744465    1.6027426   439061 
 1221000    1.0673581    -2.072439    -2.072439  -0.47140557   0.29405192    -2.072439    1.6010335   439061 
 1222000    1.0678209   -2.0742007   -2.0742007  -0.47247298   0.28832353   -2.0742007    1.6017277   439061 
 1223000    1.0687273   -2.0750655   -2.0750655  -0.47197815   0.28874478   -2.0750655    1.6030874   439061 
 1224000     1.066872   -2.0709067   -2.0709067  -0.47060231   0.29025073   -2.0709067    1.6003044   439061 
 1225000    1.0700594   -2.0757974   -2.0757974  -0.47071192   0.29008517   -2.0757974    1.6050855   439061 
 1226000    1.0689628   -2.0744911   -2.0744911   -0.4710506   0.29268272   -2.0744911    1.6034405   439061 
 1227000    1.0699642   -2.0756263   -2.0756263  -0.47068369   0.29006016   -2.0756263    1.6049426   439061 
 1228000    1.0668589   -2.0705522   -2.0705522  -0.47026743   0.29260214   -2.0705522    1.6002848   439061 
 1229000    1.0691045   -2.0736656   -2.0736656  -0.47001252   0.28756873   -2.0736656    1.6036531   439061 
 1230000    1.0689707   -2.0741284   -2.0741284  -0.47067597   0.29219593   -2.0741284    1.6034525   439061 
 1231000    1.0675344   -2.0711191   -2.0711191  -0.46982118   0.29345492   -2.0711191    1.6012979   439061 
 1232000    1.0672606   -2.0711368   -2.0711368  -0.47024956   0.29839447   -2.0711368    1.6008873   439061 
 1233000    1.0673976   -2.0720161   -2.0720161  -0.47092345   0.29251687   -2.0720161    1.6010927   439061 
 1234000    1.0674926   -2.0730523   -2.0730523  -0.47181705   0.29726867   -2.0730523    1.6012353   439061 
 1235000    1.0674108   -2.0726685   -2.0726685  -0.47155593   0.29161906   -2.0726685    1.6011126   439061 
 1236000    1.0674543   -2.0716475   -2.0716475  -0.47046964   0.29353032   -2.0716475    1.6011778   439061 
 1237000    1.0680402    -2.073838    -2.073838  -0.47178129   0.29132565    -2.073838    1.6020567   439061 
 1238000    1.0678525   -2.0733146   -2.0733146  -0.47153946   0.29164886   -2.0733146    1.6017752   439061 
 1239000    1.0673393   -2.0728052   -2.0728052  -0.47179982   0.29117607   -2.0728052    1.6010054   439061 
 1240000    1.0686198   -2.0749875   -2.0749875  -0.47206156   0.28763612   -2.0749875     1.602926   439061 
 1241000    1.0675166   -2.0725888   -2.0725888  -0.47131748   0.29636508   -2.0725888    1.6012713   439061 
 1242000    1.0679948   -2.0737166   -2.0737166  -0.47172803   0.29047234   -2.0737166    1.6019885   439061 
 1243000    1.0674273   -2.0721437   -2.0721437  -0.47100646   0.29438058   -2.0721437    1.6011373   439061 
 1244000     1.068793   -2.0743718   -2.0743718  -0.47118593   0.29306863   -2.0743718    1.6031859   439061 
 1245000    1.0674394   -2.0731927   -2.0731927  -0.47203725   0.29069594   -2.0731927    1.6011555   439061 
 1246000    1.0672552   -2.0726102   -2.0726102  -0.47173106   0.29697888   -2.0726102    1.6008792   439061 
 1247000    1.0666327   -2.0705973   -2.0705973  -0.47065183   0.29608413   -2.0705973    1.5999455   439061 
 1248000    1.0677501   -2.0726584   -2.0726584  -0.47103684   0.28883367   -2.0726584    1.6016215   439061 
 1249000    1.0671669   -2.0716748   -2.0716748  -0.47092808   0.29596542   -2.0716748    1.6007467   439061 
 1250000    1.0687705    -2.073647    -2.073647  -0.47049491   0.29561597    -2.073647    1.6031521   439061 
 1251000     1.067669   -2.0729036   -2.0729036  -0.47140377   0.29400317   -2.0729036    1.6014998   439061 
 1252000    1.0677281   -2.0738162   -2.0738162  -0.47222765   0.28848523   -2.0738162    1.6015886   439061 
 1253000    1.0679217   -2.0743423   -2.0743423  -0.47246332   0.29164925   -2.0743423     1.601879   439061 
 1254000    1.0682459   -2.0741864   -2.0741864  -0.47182113    0.2938544   -2.0741864    1.6023652   439061 
 1255000    1.0686933   -2.0738359   -2.0738359  -0.47079956   0.29059809   -2.0738359    1.6030363   439061 
 1256000    1.0662893   -2.0707942   -2.0707942  -0.47136394   0.29424154   -2.0707942    1.5994303   439061 
 1257000    1.0682396   -2.0750381   -2.0750381  -0.47268229   0.28914386   -2.0750381    1.6023558   439061 
 1258000    1.0664834   -2.0733089   -2.0733089  -0.47358743   0.28977445   -2.0733089    1.5997215   439061 
 1259000    1.0674478   -2.0735634   -2.0735634  -0.47239526   0.29311949   -2.0735634    1.6011681   439061 
 1260000    1.0667455   -2.0734228   -2.0734228  -0.47330815     0.288972   -2.0734228    1.6001146   439061 
 1261000    1.0670313   -2.0736171   -2.0736171  -0.47307384   0.29150787   -2.0736171    1.6005433   439061 
 1262000    1.0659803   -2.0736637   -2.0736637  -0.47469682   0.29009385   -2.0736637    1.5989668   439061 
 1263000    1.0667547   -2.0728556   -2.0728556  -0.47272717   0.28960367   -2.0728556    1.6001285   439061 
 1264000    1.0660613   -2.0721621   -2.0721621  -0.47307378   0.29343694   -2.0721621    1.5990883   439061 
 1265000    1.0665758   -2.0719303   -2.0719303  -0.47207023   0.29145589   -2.0719303    1.5998601   439061 
 1266000    1.0673004   -2.0727746   -2.0727746   -0.4718277   0.29068254   -2.0727746    1.6009469   439061 
 1267000    1.0675392   -2.0734346   -2.0734346  -0.47212952   0.29052535   -2.0734346    1.6013051   439061 
 1268000    1.0671601   -2.0716607   -2.0716607  -0.47092422   0.29004357   -2.0716607    1.6007365   439061 
 1269000    1.0676994   -2.0730197   -2.0730197  -0.47147429   0.29177979   -2.0730197    1.6015454   439061 
 1270000    1.0665544   -2.0722773   -2.0722773  -0.47244927   0.29412547   -2.0722773     1.599828   439061 
 1271000    1.0673059   -2.0726083   -2.0726083  -0.47165302   0.29037819   -2.0726083    1.6009552   439061 
 1272000    1.0675285    -2.072859    -2.072859  -0.47156994   0.29195455    -2.072859    1.6012891   439061 
 1273000    1.0666618   -2.0709887   -2.0709887  -0.47099971   0.29210368   -2.0709887     1.599989   439061 
 1274000    1.0652205   -2.0710203   -2.0710203  -0.47319318   0.29267105   -2.0710203    1.5978271   439061 
 1275000    1.0658668   -2.0714181   -2.0714181  -0.47262145   0.29255134   -2.0714181    1.5987966   439061 
 1276000    1.0663429   -2.0721564   -2.0721564  -0.47264567   0.29194629   -2.0721564    1.5995107   439061 
 1277000    1.0682987   -2.0743872   -2.0743872  -0.47194278   0.29208638   -2.0743872    1.6024444   439061 
 1278000    1.0670105   -2.0723747   -2.0723747  -0.47186252   0.28990679   -2.0723747    1.6005122   439061 
 1279000    1.0666613   -2.0719539   -2.0719539   -0.4719656   0.28779538   -2.0719539    1.5999883   439061 
 1280000    1.0659435   -2.0722703   -2.0722703  -0.47335864   0.28985981   -2.0722703    1.5989116   439061 
 1281000     1.065965   -2.0727599   -2.0727599  -0.47381602   0.29095225   -2.0727599    1.5989439   439061 
 1282000    1.0650987   -2.0716023   -2.0716023  -0.47395786   0.29157332   -2.0716023    1.5976445   439061 
 1283000    1.0657395   -2.0732525   -2.0732525  -0.47464687   0.28934457   -2.0732525    1.5986057   439061 
 1284000    1.0641689    -2.071064    -2.071064  -0.47481426   0.29369803    -2.071064    1.5962498   439061 
 1285000    1.0642572    -2.072427    -2.072427  -0.47604473   0.29167747    -2.072427    1.5963822   439061 
 1286000    1.0633001   -2.0715845   -2.0715845  -0.47663799   0.28795299   -2.0715845    1.5949466   439061 
 1287000    1.0665219   -2.0744362   -2.0744362  -0.47465688   0.29195738   -2.0744362    1.5997793   439061 
 1288000    1.0637174   -2.0716442   -2.0716442  -0.47607176   0.28881814   -2.0716442    1.5955725   439061 
 1289000    1.0656626   -2.0742974   -2.0742974  -0.47580704   0.29057338   -2.0742974    1.5984903   439061 
 1290000    1.0644206   -2.0730305   -2.0730305  -0.47640331   0.28884674   -2.0730305    1.5966272   439061 
 1291000    1.0646804   -2.0730535   -2.0730535  -0.47603657   0.29202765   -2.0730535     1.597017   439061 
 1292000    1.0647401   -2.0739404   -2.0739404  -0.47683386   0.29022406   -2.0739404    1.5971065   439061 
 1293000    1.0643585   -2.0733326   -2.0733326  -0.47679852   0.28807823   -2.0733326    1.5965341   439061 
 1294000    1.0651709   -2.0742734   -2.0742734  -0.47652063   0.29202059   -2.0742734    1.5977528   439061 
 1295000    1.0653978   -2.0749754   -2.0749754  -0.47688242   0.28841258   -2.0749754     1.598093   439061 
 1296000    1.0644735   -2.0729503   -2.0729503  -0.47624365   0.29090884   -2.0729503    1.5967066   439061 
 1297000    1.0655347   -2.0726616   -2.0726616  -0.47436312    0.2913714   -2.0726616    1.5982985   439061 
 1298000    1.0648401   -2.0725693   -2.0725693  -0.47531277   0.28995953   -2.0725693    1.5972566   439061 
 1299000    1.0656685   -2.0746282   -2.0746282   -0.4761291   0.29334326   -2.0746282    1.5984991   439061 
 1300000    1.0660407   -2.0745254   -2.0745254  -0.47546799   0.28716734   -2.0745254    1.5990575   439061 
 1301000    1.0631526   -2.0716669   -2.0716669  -0.47694166   0.29292812   -2.0716669    1.5947253   439061 
 1302000    1.0645811   -2.0744538   -2.0744538  -0.47758577   0.28422045   -2.0744538    1.5968681   439061 
 1303000    1.0636449   -2.0729277   -2.0729277  -0.47746399   0.29046308   -2.0729277    1.5954637   439061 
 1304000    1.0631897   -2.0731299   -2.0731299    -0.478349   0.28729145   -2.0731299    1.5947809   439061 
 1305000    1.0655397   -2.0753434   -2.0753434  -0.47703745     0.286372   -2.0753434    1.5983059   439061 
 1306000    1.0646592   -2.0720559   -2.0720559  -0.47507075   0.29235836   -2.0720559    1.5969852   439061 
 1307000     1.064643   -2.0733443   -2.0733443  -0.47638338   0.28992643   -2.0733443    1.5969609   439061 
 1308000    1.0649174   -2.0742818   -2.0742818  -0.47690924   0.28828177   -2.0742818    1.5973725   439061 
 1309000     1.063414   -2.0722043   -2.0722043  -0.47708697   0.29017723   -2.0722043    1.5951174   439061 
 1310000    1.0640701   -2.0722674   -2.0722674  -0.47616586   0.29064426   -2.0722674    1.5961015   439061 
 1311000    1.0646174   -2.0731912   -2.0731912  -0.47626869   0.28494675   -2.0731912    1.5969225   439061 
 1312000    1.0641185   -2.0708879   -2.0708879  -0.47471373   0.29449169   -2.0708879    1.5961741   439061 
 1313000    1.0652566   -2.0723361   -2.0723361  -0.47445484    0.2897817   -2.0723361    1.5978813   439061 
 1314000    1.0660938   -2.0735113   -2.0735113  -0.47437429   0.28844168   -2.0735113     1.599137   439061 
 1315000    1.0659083   -2.0730764   -2.0730764  -0.47421749   0.28941531   -2.0730764    1.5988589   439061 
 1316000     1.065148   -2.0712659   -2.0712659  -0.47354753   0.29294097   -2.0712659    1.5977183   439061 
 1317000    1.0668588   -2.0744962   -2.0744962  -0.47421164   0.29156065   -2.0744962    1.6002845   439061 
 1318000    1.0658365   -2.0736889   -2.0736889  -0.47493773   0.28812245   -2.0736889    1.5987512   439061 
 1319000    1.0644634   -2.0720536   -2.0720536  -0.47536217   0.29186374   -2.0720536    1.5966914   439061 
 1320000    1.0651246   -2.0737162   -2.0737162  -0.47603299   0.29005564   -2.0737162    1.5976832   439061 
 1321000    1.0638668   -2.0735869   -2.0735869  -0.47779038   0.28629289   -2.0735869    1.5957965   439061 
 1322000    1.0645073   -2.0740447   -2.0740447  -0.47728749   0.28595697   -2.0740447    1.5967572   439061 
 1323000    1.0642964   -2.0735162   -2.0735162  -0.47707534   0.28519383   -2.0735162    1.5964409   439061 
 1324000    1.0650696   -2.0753785   -2.0753785  -0.47777772   0.28329533   -2.0753785    1.5976007   439061 
 1325000    1.0636261   -2.0740478   -2.0740478  -0.47861236   0.28703428   -2.0740478    1.5954355   439061 
 1326000    1.0640966   -2.0751428   -2.0751428  -0.47900151   0.28661927   -2.0751428    1.5961413   439061 
 1327000    1.0641965   -2.0747966   -2.0747966  -0.47850544   0.28708601   -2.0747966    1.5962912   439061 
 1328000    1.0630363    -2.074085    -2.074085  -0.47953423   0.28982063    -2.074085    1.5945507   439061 
 1329000    1.0630082   -2.0743242   -2.0743242  -0.47981549    0.2874201   -2.0743242    1.5945087   439061 
 1330000    1.0620444   -2.0737437   -2.0737437  -0.48068077   0.28879734   -2.0737437    1.5930629   439061 
 1331000    1.0632966   -2.0752273   -2.0752273  -0.48028606   0.28770423   -2.0752273    1.5949413   439061 
 1332000    1.0621144    -2.073769    -2.073769  -0.48060106   0.29076232    -2.073769     1.593168   439061 
 1333000    1.0623612   -2.0726965   -2.0726965  -0.47915826   0.29430531   -2.0726965    1.5935382   439061 
 1334000    1.0642747   -2.0754302   -2.0754302  -0.47902177   0.28604314   -2.0754302    1.5964084   439061 
 1335000     1.063648   -2.0745508   -2.0745508  -0.47908248    0.2868118   -2.0745508    1.5954683   439061 
 1336000    1.0631128     -2.07452     -2.07452  -0.47985446   0.28446203     -2.07452    1.5946655   439061 
 1337000    1.0647455   -2.0750453   -2.0750453  -0.47793081   0.28406372   -2.0750453    1.5971145   439061 
 1338000     1.063957     -2.07365     -2.07365  -0.47771818   0.28863787     -2.07365    1.5959318   439061 
 1339000    1.0637376   -2.0729111   -2.0729111  -0.47730845   0.29234078   -2.0729111    1.5956027   439061 
 1340000    1.0639385   -2.0731717   -2.0731717   -0.4772677   0.28917006   -2.0731717    1.5959041   439061 
 1341000    1.0640059   -2.0732298   -2.0732298  -0.47722464   0.28987422   -2.0732298    1.5960051   439061 
 1342000    1.0657893   -2.0757327   -2.0757327  -0.47705234   0.29126849   -2.0757327    1.5986804   439061 
 1343000    1.0634511   -2.0726695   -2.0726695  -0.47749652   0.29071066   -2.0726695     1.595173   439061 
 1344000    1.0649687   -2.0729406   -2.0729406  -0.47549114   0.29036158   -2.0729406    1.5974495   439061 
 1345000    1.0653068   -2.0734412   -2.0734412  -0.47548468   0.28588701   -2.0734412    1.5979565   439061 
 1346000    1.0640198   -2.0726911   -2.0726911    -0.476665   0.28986388   -2.0726911    1.5960261   439061 
 1347000    1.0629211   -2.0714272   -2.0714272   -0.4770491   0.29000591   -2.0714272    1.5943781   439061 
 1348000    1.0636874    -2.074052    -2.074052  -0.47852444   0.28746292    -2.074052    1.5955275   439061 
 1349000    1.0621461   -2.0720685   -2.0720685   -0.4788529   0.28548715   -2.0720685    1.5932156   439061 
 1350000    1.0613901   -2.0725507   -2.0725507  -0.48046915   0.28171379   -2.0725507    1.5920815   439061 
 1351000    1.0620345   -2.0732333   -2.0732333   -0.4801851   0.28481341   -2.0732333    1.5930482   439061 
 1352000    1.0634733   -2.0742177   -2.0742177  -0.47901134   0.28554211   -2.0742177    1.5952064   439061 
 1353000    1.0639493   -2.0735184   -2.0735184  -0.47759799   0.28886429   -2.0735184    1.5959204   439061 
 1354000    1.0639114   -2.0725184   -2.0725184  -0.47665504   0.28866159   -2.0725184    1.5958634   439061 
 1355000    1.0645682    -2.074296    -2.074296   -0.4774474   0.28687919    -2.074296    1.5968486   439061 
 1356000     1.064079    -2.073444    -2.073444  -0.47732916     0.289683    -2.073444    1.5961149   439061 
 1357000    1.0625733   -2.0708176   -2.0708176  -0.47696123    0.2883795   -2.0708176    1.5938563   439061 
 1358000    1.0642085   -2.0726044   -2.0726044  -0.47629518   0.28721027   -2.0726044    1.5963092   439061 
 1359000    1.0642764   -2.0733962   -2.0733962  -0.47698525   0.28872545   -2.0733962    1.5964109   439061 
 1360000    1.0632728   -2.0721929   -2.0721929   -0.4772873   0.29021073   -2.0721929    1.5949056   439061 
 1361000    1.0634113   -2.0740793   -2.0740793  -0.47896588   0.28872211   -2.0740793    1.5951134   439061 
 1362000    1.0633106   -2.0738817   -2.0738817  -0.47891951   0.28890677   -2.0738817    1.5949622   439061 
 1363000     1.063107   -2.0745065   -2.0745065  -0.47984971   0.29109889   -2.0745065    1.5946568   439061 
 1364000     1.062209   -2.0733378   -2.0733378  -0.48002789   0.28460291   -2.0733378    1.5933099   439061 
 1365000    1.0613416   -2.0717158   -2.0717158  -0.47970692   0.28910834   -2.0717158    1.5920088   439061 
 1366000    1.0621958   -2.0733722   -2.0733722  -0.48008209   0.28840188   -2.0733722    1.5932901   439061 
 1367000    1.0631851   -2.0747224   -2.0747224  -0.47994846   0.28901864   -2.0747224     1.594774   439061 
 1368000    1.0629112   -2.0739342   -2.0739342  -0.47957104   0.28458991   -2.0739342    1.5943632   439061 
 1369000    1.0622783   -2.0744193   -2.0744193  -0.48100546   0.28558575   -2.0744193    1.5934138   439061 
 1370000    1.0622929   -2.0737734   -2.0737734  -0.48033773   0.28793012   -2.0737734    1.5934357   439061 
 1371000    1.0634914   -2.0752201   -2.0752201  -0.47998664    0.2876776   -2.0752201    1.5952335   439061 
 1372000    1.0636151   -2.0741358   -2.0741358  -0.47871681   0.28433406   -2.0741358     1.595419   439061 
 1373000    1.0618976   -2.0723802   -2.0723802  -0.47953742    0.2911775   -2.0723802    1.5928428   439061 
 1374000    1.0627125   -2.0737585   -2.0737585  -0.47969346   0.28228437   -2.0737585    1.5940651   439061 
 1375000    1.0632611   -2.0742716   -2.0742716  -0.47938357   0.28848699   -2.0742716     1.594888   439061 
 1376000    1.0617127   -2.0730999   -2.0730999  -0.48053444    0.2882825   -2.0730999    1.5925655   439061 
 1377000    1.0622333   -2.0737354   -2.0737354   -0.4803891   0.28846863   -2.0737354    1.5933463   439061 
 1378000    1.0606552   -2.0729411   -2.0729411  -0.48196193   0.28768808   -2.0729411    1.5909791   439061 
 1379000     1.060237   -2.0712187   -2.0712187   -0.4808669   0.28576112   -2.0712187    1.5903518   439061 
 1380000    1.0618404   -2.0723069   -2.0723069  -0.47954989   0.28849506   -2.0723069     1.592757   439061 
 1381000    1.0626163   -2.0721649   -2.0721649   -0.4782441   0.28599384   -2.0721649    1.5939209   439061 
 1382000    1.0629064   -2.0729885   -2.0729885  -0.47863262   0.28665397   -2.0729885    1.5943559   439061 
 1383000    1.0620759   -2.0717138   -2.0717138  -0.47860354   0.28855741   -2.0717138    1.5931103   439061 
 1384000    1.0635421     -2.07234     -2.07234  -0.47703045   0.28704699     -2.07234    1.5953096   439061 
 1385000    1.0624406   -2.0722343   -2.0722343  -0.47857703   0.28769218   -2.0722343    1.5936573   439061 
 1386000    1.0623365   -2.0720919   -2.0720919  -0.47859087   0.28389873   -2.0720919    1.5935011   439061 
 1387000    1.0626902    -2.074065    -2.074065  -0.48003341   0.28667916    -2.074065    1.5940316   439061 
 1388000    1.0613548   -2.0731343   -2.0731343  -0.48110569   0.28890867   -2.0731343    1.5920286   439061 
 1389000    1.0611801   -2.0725571   -2.0725571  -0.48079058   0.28735138   -2.0725571    1.5917665   439061 
 1390000    1.0613134   -2.0728317   -2.0728317  -0.48086521   0.28458323   -2.0728317    1.5919665   439061 
 1391000     1.063564   -2.0754067   -2.0754067  -0.48006433   0.28222487   -2.0754067    1.5953423   439061 
 1392000    1.0628689   -2.0737456   -2.0737456  -0.47944584   0.28290064   -2.0737456    1.5942997   439061 
 1393000    1.0620648   -2.0733367   -2.0733367   -0.4802431    0.2871577   -2.0733367    1.5930936   439061 
 1394000    1.0621399   -2.0743708   -2.0743708  -0.48116459   0.28959155   -2.0743708    1.5932062   439061 
 1395000    1.0610726   -2.0736518   -2.0736518  -0.48204645   0.28492336   -2.0736518    1.5916053   439061 
 1396000    1.0610224   -2.0729052   -2.0729052  -0.48137528   0.28278424   -2.0729052    1.5915299   439061 
 1397000    1.0621031   -2.0747258   -2.0747258  -0.48157476   0.28408287   -2.0747258     1.593151   439061 
 1398000     1.060648   -2.0736224   -2.0736224  -0.48265393   0.28543089   -2.0736224    1.5909684   439061 
 1399000    1.0617266    -2.075415    -2.075415  -0.48282881   0.28542945    -2.075415    1.5925862   439061 
 1400000    1.0606796   -2.0725631   -2.0725631  -0.48154725   0.29042841   -2.0725631    1.5910158   439061 
 1401000    1.0621628   -2.0754363   -2.0754363  -0.48219569   0.28046215   -2.0754363    1.5932406   439061 
 1402000    1.0606946   -2.0738656   -2.0738656  -0.48282729   0.28528349   -2.0738656    1.5910383   439061 
 1403000    1.0605829   -2.0734596   -2.0734596  -0.48258894   0.28430688   -2.0734596    1.5908707   439061 
 1404000    1.0614922   -2.0741704   -2.0741704  -0.48193582   0.28965547   -2.0741704    1.5922346   439061 
 1405000      1.06146   -2.0734744   -2.0734744  -0.48128806   0.28240577   -2.0734744    1.5921863   439061 
 1406000    1.0591416   -2.0723598   -2.0723598    -0.483651   0.28637594   -2.0723598    1.5887088   439061 
 1407000    1.0599083   -2.0727345   -2.0727345  -0.48287566   0.28600458   -2.0727345    1.5898588   439061 
 1408000    1.0614281   -2.0748008   -2.0748008  -0.48266227   0.28300235   -2.0748008    1.5921385   439061 
 1409000    1.0605487   -2.0727523   -2.0727523  -0.48193288   0.28701112   -2.0727523    1.5908194   439061 
 1410000    1.0589862   -2.0725106   -2.0725106  -0.48403487   0.28543726   -2.0725106    1.5884757   439061 
 1411000     1.059936    -2.074388    -2.074388  -0.48448758   0.28546892    -2.074388    1.5899005   439061 
 1412000     1.059699   -2.0737785   -2.0737785  -0.48423356   0.28611763   -2.0737785    1.5895449   439061 
 1413000     1.060028   -2.0759456   -2.0759456  -0.48590717   0.28303094   -2.0759456    1.5900384   439061 
 1414000    1.0600368   -2.0751806   -2.0751806  -0.48512894   0.28169493   -2.0751806    1.5900516   439061 
 1415000     1.058811   -2.0726964   -2.0726964  -0.48448349    0.2881463   -2.0726964    1.5882129   439061 
 1416000    1.0607894   -2.0741352   -2.0741352  -0.48295465    0.2887633   -2.0741352    1.5911805   439061 
 1417000    1.0600028   -2.0733062   -2.0733062  -0.48330552   0.28613381   -2.0733062    1.5900006   439061 
 1418000    1.0588888   -2.0718891   -2.0718891  -0.48355953   0.28450856   -2.0718891    1.5883296   439061 
 1419000    1.0599385    -2.073804    -2.073804  -0.48389999   0.28425113    -2.073804    1.5899041   439061 
 1420000    1.0611649   -2.0754434   -2.0754434  -0.48369973   0.28156964   -2.0754434    1.5917437   439061 
 1421000    1.0599032   -2.0736893   -2.0736893  -0.48383813   0.28651127   -2.0736893    1.5898511   439061 
 1422000    1.0593332   -2.0736187   -2.0736187  -0.48462257   0.28787386   -2.0736187    1.5889961   439061 
 1423000    1.0600859   -2.0744537   -2.0744537  -0.48432841   0.28876836   -2.0744537    1.5901253   439061 
 1424000    1.0609667   -2.0759191   -2.0759191  -0.48447273   0.28570928   -2.0759191    1.5914464   439061 
 1425000     1.060222    -2.074447    -2.074447  -0.48411766   0.28474724    -2.074447    1.5903294   439061 
 1426000    1.0602187   -2.0743353   -2.0743353  -0.48401084   0.28260602   -2.0743353    1.5903245   439061 
 1427000    1.0598575   -2.0733855   -2.0733855  -0.48360287   0.28217864   -2.0733855    1.5897826   439061 
 1428000    1.0607559   -2.0754468   -2.0754468  -0.48431654   0.28338026   -2.0754468    1.5911303   439061 
 1429000    1.0589399   -2.0736772   -2.0736772  -0.48527089   0.28189108   -2.0736772    1.5884063   439061 
 1430000    1.0590465   -2.0741267   -2.0741267   -0.4855606   0.28370255   -2.0741267    1.5885661   439061 
 1431000    1.0603221   -2.0756208   -2.0756208  -0.48514131   0.28089709   -2.0756208    1.5904795   439061 
 1432000    1.0605632   -2.0758506   -2.0758506  -0.48500944    0.2829713   -2.0758506    1.5908411   439061 
 1433000     1.060218   -2.0759133   -2.0759133  -0.48558982   0.28109085   -2.0759133    1.5903234   439061 
 1434000    1.0589669   -2.0756509   -2.0756509  -0.48720421   0.28304781   -2.0756509    1.5884467   439061 
 1435000    1.0592793   -2.0751335   -2.0751335  -0.48621812   0.28485232   -2.0751335    1.5889153   439061 
 1436000    1.0590527   -2.0746189   -2.0746189  -0.48604348   0.28086355   -2.0746189    1.5885754   439061 
 1437000    1.0599899   -2.0743992   -2.0743992  -0.48441802   0.28570598   -2.0743992    1.5899812   439061 
 1438000    1.0592078   -2.0740589   -2.0740589  -0.48525078   0.28509117   -2.0740589    1.5888081   439061 
 1439000    1.0598899    -2.074769    -2.074769  -0.48493776   0.28104348    -2.074769    1.5898313   439061 
 1440000    1.0597608   -2.0732452   -2.0732452  -0.48360754    0.2848305   -2.0732452    1.5896376   439061 
 1441000    1.0600455   -2.0748526   -2.0748526  -0.48478801   0.28453292   -2.0748526    1.5900646   439061 
 1442000    1.0605167   -2.0748901   -2.0748901  -0.48411863   0.28395366   -2.0748901    1.5907715   439061 
 1443000     1.059936   -2.0726024   -2.0726024  -0.48270204   0.28295363   -2.0726024    1.5899004   439061 
 1444000    1.0604091   -2.0744725   -2.0744725  -0.48386249   0.28393725   -2.0744725      1.59061   439061 
 1445000    1.0586773   -2.0719111   -2.0719111  -0.48389876    0.2866463   -2.0719111    1.5880124   439061 
 1446000    1.0592394   -2.0717962   -2.0717962  -0.48294077   0.28492822   -2.0717962    1.5888555   439061 
 1447000    1.0595833   -2.0718586   -2.0718586  -0.48248737   0.28127938   -2.0718586    1.5893713   439061 
 1448000    1.0590259   -2.0710823   -2.0710823  -0.48254705   0.28670072   -2.0710823    1.5885353   439061 
 1449000    1.0574818   -2.0709476   -2.0709476  -0.48472848   0.28636031   -2.0709476    1.5862191   439061 
 1450000    1.0595525   -2.0742086   -2.0742086  -0.48488339   0.28471244   -2.0742086    1.5893252   439061 
 1451000    1.0585751   -2.0738864   -2.0738864   -0.4860274   0.28351107   -2.0738864     1.587859   439061 
 1452000    1.0581174   -2.0719822   -2.0719822  -0.48480975   0.28000102   -2.0719822    1.5871724   439061 
 1453000    1.0582895   -2.0734554   -2.0734554  -0.48602472   0.27960372   -2.0734554    1.5874307   439061 
 1454000    1.0593164   -2.0739765   -2.0739765  -0.48500549   0.27940276   -2.0739765     1.588971   439061 
 1455000    1.0591819   -2.0735947   -2.0735947  -0.48482551   0.28458731   -2.0735947    1.5887692   439061 
 1456000    1.0580174   -2.0722328   -2.0722328  -0.48521024    0.2863164   -2.0722328    1.5870225   439061 
 1457000    1.0590627   -2.0729107   -2.0729107  -0.48432024   0.28751324   -2.0729107    1.5885905   439061 
 1458000    1.0605841   -2.0732217   -2.0732217  -0.48234909   0.28403403   -2.0732217    1.5908726   439061 
 1459000    1.0588776   -2.0725066   -2.0725066  -0.48419378   0.28444318   -2.0725066    1.5883128   439061 
 1460000    1.0605419    -2.074114    -2.074114   -0.4833047   0.28524148    -2.074114    1.5908093   439061 
 1461000     1.060384    -2.074398    -2.074398  -0.48382568   0.28342362    -2.074398    1.5905723   439061 
 1462000    1.0597914   -2.0733036   -2.0733036  -0.48362006   0.28405533   -2.0733036    1.5896835   439061 
 1463000    1.0597219   -2.0723811   -2.0723811   -0.4828018   0.28202817   -2.0723811    1.5895793   439061 
 1464000    1.0583011   -2.0725559   -2.0725559  -0.48510782   0.28247754   -2.0725559    1.5874481   439061 
 1465000    1.0590071   -2.0730203   -2.0730203  -0.48451334   0.28103504   -2.0730203     1.588507   439061 
 1466000    1.0584856   -2.0726351   -2.0726351  -0.48491026   0.28634873   -2.0726351    1.5877248   439061 
 1467000    1.0593766   -2.0744244   -2.0744244  -0.48536308   0.28654013   -2.0744244    1.5890613   439061 
 1468000    1.0581142   -2.0724775   -2.0724775  -0.48530987   0.28786585   -2.0724775    1.5871676   439061 
 1469000     1.058134   -2.0739272   -2.0739272  -0.48672981   0.28603392   -2.0739272    1.5871974   439061 
 1470000    1.0582261   -2.0753835   -2.0753835  -0.48804798   0.28011996   -2.0753835    1.5873355   439061 
 1471000    1.0576457   -2.0737383   -2.0737383  -0.48727336   0.28660237   -2.0737383    1.5864649   439061 
 1472000    1.0576401   -2.0740715   -2.0740715  -0.48761502   0.28259912   -2.0740715    1.5864565   439061 
 1473000    1.0584502   -2.0756299   -2.0756299  -0.48795823   0.28036907   -2.0756299    1.5876716   439061 
 1474000    1.0571065   -2.0737544   -2.0737544  -0.48809824   0.27810448   -2.0737544    1.5856562   439061 
 1475000    1.0585219   -2.0764675   -2.0764675  -0.48868833   0.28027917   -2.0764675    1.5877792   439061 
 1476000    1.0579102   -2.0746153   -2.0746153  -0.48775357   0.27886353   -2.0746153    1.5868617   439061 
 1477000    1.0582826   -2.0742534   -2.0742534  -0.48683306   0.27901863   -2.0742534    1.5874203   439061 
 1478000    1.0586264   -2.0741602   -2.0741602  -0.48622424   0.28096555   -2.0741602     1.587936   439061 
 1479000    1.0589143   -2.0752983   -2.0752983  -0.48693038   0.28481004   -2.0752983    1.5883679   439061 
 1480000    1.0580288   -2.0740361   -2.0740361  -0.48699654   0.28698907   -2.0740361    1.5870395   439061 
 1481000    1.0588256   -2.0750291   -2.0750291  -0.48679434   0.28229821   -2.0750291    1.5882348   439061 
 1482000    1.0578539   -2.0725458   -2.0725458   -0.4857686   0.28453239   -2.0725458    1.5867772   439061 
 1483000    1.0583618   -2.0730473   -2.0730473  -0.48550817   0.28389932   -2.0730473    1.5875391   439061 
 1484000    1.0583248   -2.0736216   -2.0736216  -0.48613806   0.28239687   -2.0736216    1.5874836   439061 
 1485000    1.0583472   -2.0745117   -2.0745117  -0.48699458   0.28002553   -2.0745117    1.5875171   439061 
 1486000    1.0586107   -2.0746841   -2.0746841   -0.4867717    0.2824622   -2.0746841    1.5879124   439061 
 1487000    1.0570946   -2.0724371   -2.0724371  -0.48679881   0.28564906   -2.0724371    1.5856383   439061 
 1488000    1.0584222   -2.0746046   -2.0746046  -0.48697494   0.28485303   -2.0746046    1.5876297   439061 
 1489000    1.0596252   -2.0764755   -2.0764755   -0.4870413   0.27954671   -2.0764755    1.5894342   439061 
 1490000    1.0592772   -2.0750425   -2.0750425   -0.4861303   0.27914592   -2.0750425    1.5889122   439061 
 1491000     1.060174   -2.0753181   -2.0753181  -0.48506074   0.28370172   -2.0753181    1.5902573   439061 
 1492000    1.0582321   -2.0729263   -2.0729263  -0.48558186   0.28170046   -2.0729263    1.5873445   439061 
 1493000    1.0579514   -2.0730802   -2.0730802  -0.48615672   0.28044034   -2.0730802    1.5869235   439061 
 1494000    1.0591857   -2.0744846   -2.0744846  -0.48570967   0.28347396   -2.0744846    1.5887749   439061 
 1495000    1.0569657   -2.0712104   -2.0712104  -0.48576538   0.28119448   -2.0712104     1.585445   439061 
 1496000    1.0583738   -2.0737438   -2.0737438  -0.48618666   0.28135077   -2.0737438    1.5875572   439061 
 1497000    1.0581891   -2.0728307   -2.0728307  -0.48555078   0.28557619   -2.0728307      1.58728   439061 
 1498000    1.0577526    -2.073215    -2.073215   -0.4865897   0.28458347    -2.073215    1.5866253   439061 
 1499000     1.057718   -2.0730424   -2.0730424  -0.48646905   0.28458869   -2.0730424    1.5865733   439061 
 1500000    1.0586893   -2.0731703   -2.0731703  -0.48513999   0.28303889   -2.0731703    1.5880303   439061 
 1501000    1.0573006    -2.071406    -2.071406  -0.48545862   0.29127845    -2.071406    1.5859473   439061 
 1502000    1.0572508   -2.0719299   -2.0719299  -0.48605724   0.28036206   -2.0719299    1.5858726   439061 
 1503000     1.057858   -2.0732522   -2.0732522  -0.48646885   0.28114216   -2.0732522    1.5867833   439061 
 1504000    1.0563409   -2.0714501   -2.0714501  -0.48694239   0.28482258   -2.0714501    1.5845077   439061 
 1505000    1.0587634   -2.0733646   -2.0733646  -0.48522312   0.28311039   -2.0733646    1.5881415   439061 
 1506000    1.0586647   -2.0739967   -2.0739967  -0.48600332   0.27922775   -2.0739967    1.5879934   439061 
 1507000    1.0581477   -2.0735124   -2.0735124  -0.48629447   0.28216623   -2.0735124    1.5872179   439061 
 1508000    1.0570047   -2.0724425   -2.0724425  -0.48693899   0.27956369   -2.0724425    1.5855035   439061 
 1509000     1.057735   -2.0731102   -2.0731102  -0.48651133   0.28295616   -2.0731102    1.5865989   439061 
 1510000    1.0583525   -2.0738896   -2.0738896  -0.48636445   0.28279062   -2.0738896    1.5875251   439061 
 1511000    1.0581283   -2.0750171   -2.0750171  -0.48782823   0.28432822   -2.0750171    1.5871889   439061 
 1512000    1.0582037   -2.0752637   -2.0752637  -0.48796182   0.28384495   -2.0752637    1.5873019   439061 
 1513000    1.0587595   -2.0751133   -2.0751133  -0.48697768   0.28324611   -2.0751133    1.5881357   439061 
 1514000    1.0569595   -2.0729555   -2.0729555   -0.4875199   0.28465981   -2.0729555    1.5854356   439061 
 1515000    1.0577968   -2.0748947   -2.0748947  -0.48820315   0.28007067   -2.0748947    1.5866916   439061 
 1516000    1.0573934   -2.0749746   -2.0749746  -0.48888814   0.28330163   -2.0749746    1.5860865   439061 
 1517000    1.0560974   -2.0732701   -2.0732701   -0.4891276   0.28817115   -2.0732701    1.5841425   439061 
 1518000    1.0568654   -2.0731373   -2.0731373  -0.48784274   0.28363659   -2.0731373    1.5852946   439061 
 1519000    1.0578422   -2.0740003   -2.0740003  -0.48724063   0.28180187   -2.0740003    1.5867596   439061 
 1520000    1.0569496   -2.0735013   -2.0735013  -0.48808049   0.28149645   -2.0735013    1.5854208   439061 
 1521000    1.0585378    -2.076156    -2.076156  -0.48835291   0.28192131    -2.076156    1.5878031   439061 
 1522000    1.0566778   -2.0731195   -2.0731195  -0.48810645   0.28583589   -2.0731195     1.585013   439061 
 1523000    1.0583303   -2.0757859   -2.0757859  -0.48829407   0.27884293   -2.0757859    1.5874918   439061 
 1524000    1.0576878    -2.074556    -2.074556  -0.48802783    0.2821699    -2.074556    1.5865281   439061 
 1525000    1.0573124   -2.0740877   -2.0740877  -0.48812265   0.28079174   -2.0740877     1.585965   439061 
 1526000    1.0569741   -2.0731861   -2.0731861  -0.48772857   0.28067276   -2.0731861    1.5854575   439061 
 1527000    1.0568151   -2.0725512   -2.0725512  -0.48733214    0.2825049   -2.0725512    1.5852191   439061 
 1528000    1.0593848   -2.0753865   -2.0753865  -0.48631288   0.27724884   -2.0753865    1.5890736   439061 
 1529000    1.0580425   -2.0744259   -2.0744259   -0.4873658   0.28261009   -2.0744259    1.5870601   439061 
 1530000    1.0582018   -2.0747888   -2.0747888  -0.48748979   0.28224261   -2.0747888     1.587299   439061 
 1531000    1.0569342   -2.0721832   -2.0721832  -0.48678549   0.28331854   -2.0721832    1.5853977   439061 
 1532000    1.0584178    -2.073926    -2.073926  -0.48630284   0.28379788    -2.073926    1.5876231   439061 
 1533000    1.0591206   -2.0752053   -2.0752053  -0.48652794   0.28309613   -2.0752053    1.5886773   439061 
 1534000     1.057739   -2.0737131   -2.0737131  -0.48710819   0.27973495   -2.0737131     1.586605   439061 
 1535000    1.0586349   -2.0737707   -2.0737707  -0.48582196   0.28236124   -2.0737707    1.5879487   439061 
 1536000     1.058551   -2.0736792   -2.0736792   -0.4858564   0.28448651   -2.0736792    1.5878228   439061 
 1537000    1.0586357   -2.0726361   -2.0726361  -0.48468611   0.28358288   -2.0726361      1.58795   439061 
 1538000    1.0569035   -2.0714602   -2.0714602  -0.48610849   0.28037793   -2.0714602    1.5853517   439061 
 1539000    1.0567261   -2.0715029   -2.0715029  -0.48641735   0.28080142   -2.0715029    1.5850855   439061 
 1540000    1.0596325   -2.0749773   -2.0749773   -0.4855321   0.28071595   -2.0749773    1.5894452   439061 
 1541000     1.057297   -2.0717391   -2.0717391  -0.48579729   0.28097488   -2.0717391    1.5859418   439061 
 1542000    1.0574939   -2.0716965   -2.0716965  -0.48545931   0.28489547   -2.0716965    1.5862372   439061 
 1543000    1.0602111   -2.0743783   -2.0743783  -0.48406532   0.27871357   -2.0743783     1.590313   439061 
 1544000    1.0574849   -2.0716252   -2.0716252  -0.48540137   0.28163676   -2.0716252    1.5862238   439061 
 1545000    1.0575631   -2.0726589   -2.0726589  -0.48631784   0.28052973   -2.0726589    1.5863411   439061 
 1546000    1.0574306   -2.0731293   -2.0731293  -0.48698698   0.28107223   -2.0731293    1.5861423   439061 
 1547000    1.0574002   -2.0735017   -2.0735017  -0.48740504   0.28215793   -2.0735017    1.5860967   439061 
 1548000    1.0572573   -2.0738234   -2.0738234  -0.48794115   0.28332917   -2.0738234    1.5858823   439061 
 1549000    1.0579451    -2.073421    -2.073421  -0.48650702   0.28567471    -2.073421     1.586914   439061 
 1550000    1.0577797   -2.0729237   -2.0729237  -0.48625777   0.28071199   -2.0729237     1.586666   439061 
 1551000    1.0573968   -2.0741205   -2.0741205  -0.48802888   0.28093412   -2.0741205    1.5860916   439061 
 1552000    1.0569228   -2.0728271   -2.0728271  -0.48744654   0.28454574   -2.0728271    1.5853806   439061 
 1553000    1.0569087   -2.0731419   -2.0731419  -0.48778255    0.2836083   -2.0731419    1.5853594   439061 
 1554000    1.0577083   -2.0746011   -2.0746011  -0.48804224   0.28037471   -2.0746011    1.5865588   439061 
 1555000    1.0565733   -2.0724205   -2.0724205  -0.48756409   0.28215843   -2.0724205    1.5848564   439061 
 1556000     1.057514    -2.073771    -2.073771  -0.48750359   0.28343669    -2.073771    1.5862674   439061 
 1557000      1.05798   -2.0749517   -2.0749517   -0.4879853    0.2833824   -2.0749517    1.5869664   439061 
 1558000    1.0554384   -2.0717949   -2.0717949  -0.48864084   0.28545724   -2.0717949     1.583154   439061 
 1559000    1.0571042   -2.0738895   -2.0738895  -0.48823676   0.27995527   -2.0738895    1.5856527   439061 
 1560000    1.0575741   -2.0747967   -2.0747967  -0.48843913   0.27772403   -2.0747967    1.5863576   439061 
 1561000    1.0567404   -2.0729573   -2.0729573  -0.48785029   0.28121494   -2.0729573     1.585107   439061 
 1562000    1.0566969   -2.0726172   -2.0726172  -0.48757549   0.28002022   -2.0726172    1.5850417   439061 
 1563000    1.0568461   -2.0742333   -2.0742333  -0.48896772   0.27728509   -2.0742333    1.5852656   439061 
 1564000    1.0556243      -2.0713      -2.0713   -0.4878672   0.28365612      -2.0713    1.5834328   439061 
 1565000    1.0574461   -2.0743967   -2.0743967  -0.48823124   0.27667958   -2.0743967    1.5861655   439061 
 1566000    1.0565951   -2.0724238   -2.0724238   -0.4875347   0.27518953   -2.0724238    1.5848891   439061 
 1567000    1.0573528   -2.0741637   -2.0741637  -0.48813816   0.28567234   -2.0741637    1.5860256   439061 
 1568000    1.0562414   -2.0729108   -2.0729108  -0.48855227   0.28031113   -2.0729108    1.5843585   439061 
 1569000    1.0553947   -2.0716422   -2.0716422  -0.48855372    0.2808668   -2.0716422    1.5830884   439061 
 1570000     1.056846   -2.0749869   -2.0749869  -0.48972154   0.27569903   -2.0749869    1.5852654   439061 
 1571000    1.0565374   -2.0741152   -2.0741152  -0.48931267   0.27668344   -2.0741152    1.5848025   439061 
 1572000    1.0550172   -2.0711157   -2.0711157  -0.48859355   0.27891407   -2.0711157    1.5825221   439061 
 1573000    1.0573079   -2.0740063   -2.0740063  -0.48804805   0.28340903   -2.0740063    1.5859583   439061 
 1574000    1.0559903   -2.0737225   -2.0737225  -0.48974056   0.27810142   -2.0737225    1.5839819   439061 
 1575000    1.0547118   -2.0717157   -2.0717157  -0.48965162   0.28115608   -2.0717157    1.5820641   439061 
 1576000      1.05586   -2.0732927   -2.0732927  -0.48950627   0.28298126   -2.0732927    1.5837864   439061 
 1577000    1.0547178    -2.072758    -2.072758   -0.4906848   0.28551217    -2.072758    1.5820732   439061 
 1578000    1.0558166   -2.0728697   -2.0728697  -0.48914848   0.28336972   -2.0728697    1.5837213   439061 
 1579000    1.0554726   -2.0738385   -2.0738385  -0.49063318   0.28301672   -2.0738385    1.5832053   439061 
 1580000    1.0557946   -2.0728032   -2.0728032  -0.48911491    0.2812105   -2.0728032    1.5836883   439061 
 1581000    1.0566153   -2.0748559   -2.0748559  -0.48993658   0.28080051   -2.0748559    1.5849193   439061 
 1582000    1.0554693   -2.0728187   -2.0728187  -0.48961831    0.2764844   -2.0728187    1.5832004   439061 
 1583000    1.0562235   -2.0748444   -2.0748444  -0.49051279   0.28122149   -2.0748444    1.5843316   439061 
 1584000    1.0556883   -2.0728791   -2.0728791  -0.48935032   0.28365822   -2.0728791    1.5835288   439061 
 1585000    1.0570756   -2.0746371   -2.0746371  -0.48902729   0.27862122   -2.0746371    1.5856098   439061 
 1586000    1.0555418    -2.073765    -2.073765  -0.49045596   0.27954485    -2.073765    1.5833091   439061 
 1587000    1.0562544   -2.0751167   -2.0751167  -0.49073875    0.2810437   -2.0751167     1.584378   439061 
 1588000    1.0555294    -2.073564    -2.073564  -0.49027351   0.28133183    -2.073564    1.5832905   439061 
 1589000    1.0556335   -2.0738904   -2.0738904  -0.49044367   0.27676499   -2.0738904    1.5834467   439061 
 1590000    1.0546805   -2.0735475   -2.0735475  -0.49153037   0.27885053   -2.0735475    1.5820171   439061 
 1591000    1.0547749   -2.0749449   -2.0749449  -0.49278619   0.27594761   -2.0749449    1.5821587   439061 
 1592000    1.0553057   -2.0756171   -2.0756171  -0.49266225   0.28215913   -2.0756171    1.5829549   439061 
 1593000     1.054859   -2.0747116   -2.0747116  -0.49242674   0.27999309   -2.0747116    1.5822848   439061 
 1594000    1.0557645   -2.0747402   -2.0747402  -0.49109706   0.28075925   -2.0747402    1.5836432   439061 
 1595000    1.0545081   -2.0733952   -2.0733952  -0.49163665   0.27766784   -2.0733952    1.5817585   439061 
 1596000    1.0544441   -2.0738395   -2.0738395   -0.4921769   0.27581485   -2.0738395    1.5816626   439061 
 1597000     1.054216   -2.0750901   -2.0750901  -0.49376969    0.2787106   -2.0750901    1.5813204   439061 
 1598000    1.0529178   -2.0742361   -2.0742361    -0.494863    0.2789091   -2.0742361    1.5793731   439061 
 1599000    1.0538361   -2.0745235   -2.0745235  -0.49377292   0.28204937   -2.0745235    1.5807506   439061 
 1600000     1.054644   -2.0747886   -2.0747886   -0.4928262   0.27992431   -2.0747886    1.5819624   439061 
 1601000    1.0537807   -2.0745112   -2.0745112  -0.49384379   0.27527997   -2.0745112    1.5806674   439061 
 1602000     1.053998   -2.0755315   -2.0755315  -0.49453808   0.27644279   -2.0755315    1.5809934   439061 
 1603000     1.055557   -2.0766244   -2.0766244  -0.49329248   0.28216355   -2.0766244     1.583332   439061 
 1604000    1.0546664   -2.0748894   -2.0748894  -0.49289347    0.2763687   -2.0748894     1.581996   439061 
 1605000     1.054751   -2.0750387   -2.0750387  -0.49291586   0.27785915   -2.0750387    1.5821229   439061 
 1606000     1.055627   -2.0756445   -2.0756445  -0.49220751   0.27787479   -2.0756445    1.5834369   439061 
 1607000    1.0559779   -2.0758284   -2.0758284  -0.49186518   0.27938609   -2.0758284    1.5839632   439061 
 1608000    1.0546302   -2.0749484   -2.0749484  -0.49300662   0.27792309   -2.0749484    1.5819418   439061 
 1609000    1.0545641    -2.075218    -2.075218   -0.4933754   0.27640168    -2.075218    1.5818426   439061 
 1610000    1.0543268   -2.0738943   -2.0738943  -0.49240767   0.27670638   -2.0738943    1.5814867   439061 
 1611000    1.0545255   -2.0756541   -2.0756541  -0.49386949    0.2728092   -2.0756541    1.5817846   439061 
 1612000     1.052575   -2.0745312   -2.0745312  -0.49567233   0.27824566   -2.0745312    1.5788589   439061 
 1613000     1.054086   -2.0764195   -2.0764195  -0.49529414   0.27784279   -2.0764195    1.5811254   439061 
 1614000    1.0536458   -2.0763686   -2.0763686  -0.49590346   0.27674943   -2.0763686    1.5804651   439061 
 1615000    1.0527323   -2.0749294   -2.0749294  -0.49583451   0.27353665   -2.0749294    1.5790949   439061 
 1616000    1.0529659   -2.0761573   -2.0761573  -0.49671195   0.27479571   -2.0761573    1.5794453   439061 
 1617000    1.0540781   -2.0744679   -2.0744679  -0.49335436   0.28164419   -2.0744679    1.5811135   439061 
 1618000    1.0546387   -2.0756308   -2.0756308  -0.49367631   0.27589458   -2.0756308    1.5819544   439061 
 1619000    1.0546267   -2.0759417   -2.0759417   -0.4940053   0.28077812   -2.0759417    1.5819364   439061 
 1620000    1.0537973   -2.0746794   -2.0746794  -0.49398707   0.28054076   -2.0746794    1.5806923   439061 
 1621000    1.0545045   -2.0758247   -2.0758247  -0.49407156   0.27642627   -2.0758247    1.5817531   439061 
 1622000    1.0539281   -2.0748827   -2.0748827  -0.49399417   0.28029464   -2.0748827    1.5808886   439061 
 1623000    1.0547582   -2.0752335   -2.0752335  -0.49309969   0.28247528   -2.0752335    1.5821338   439061 
 1624000    1.0542839   -2.0762885   -2.0762885   -0.4948663   0.28073146   -2.0762885    1.5814222   439061 
 1625000     1.053085   -2.0737653   -2.0737653  -0.49414138   0.27959737   -2.0737653     1.579624   439061 
 1626000    1.0552185   -2.0779064   -2.0779064  -0.49508232    0.2730008   -2.0779064    1.5828241   439061 
 1627000    1.0531304   -2.0758251   -2.0758251  -0.49613315   0.27383226   -2.0758251    1.5796919   439061 
 1628000    1.0527256   -2.0730805   -2.0730805  -0.49399569   0.28139638   -2.0730805    1.5790848   439061 
 1629000    1.0537817   -2.0736188   -2.0736188  -0.49294989   0.28118843   -2.0736188    1.5806689   439061 
 1630000    1.0543426   -2.0745344   -2.0745344  -0.49302416   0.27380891   -2.0745344    1.5815102   439061 
 1631000    1.0536262   -2.0741985   -2.0741985  -0.49376289    0.2776724   -2.0741985    1.5804356   439061 
 1632000    1.0532773   -2.0725451   -2.0725451  -0.49263279    0.2791938   -2.0725451    1.5799123   439061 
 1633000    1.0538741   -2.0735003   -2.0735003  -0.49269275   0.27957184   -2.0735003    1.5808076   439061 
 1634000    1.0533486   -2.0725796   -2.0725796  -0.49256025    0.2772069   -2.0725796    1.5800193   439061 
 1635000     1.053123   -2.0731191   -2.0731191  -0.49343827   0.28198938   -2.0731191    1.5796809   439061 
 1636000    1.0533411   -2.0735833   -2.0735833  -0.49357524   0.27441049   -2.0735833     1.580008   439061 
 1637000    1.0551624   -2.0753201   -2.0753201  -0.49258013   0.27567909   -2.0753201      1.58274   439061 
 1638000    1.0542604   -2.0742177   -2.0742177  -0.49283069   0.27654051   -2.0742177     1.581387   439061 
 1639000    1.0543053   -2.0737253   -2.0737253  -0.49227093   0.27807594   -2.0737253    1.5814544   439061 
 1640000    1.0541777   -2.0736879   -2.0736879  -0.49242497    0.2802685   -2.0736879    1.5812629   439061 
 1641000    1.0536026   -2.0729574   -2.0729574  -0.49255716   0.27539206   -2.0729574    1.5804003   439061 
 1642000     1.054133   -2.0742331   -2.0742331  -0.49303723   0.27926068   -2.0742331    1.5811959   439061 
 1643000    1.0546867   -2.0746019   -2.0746019  -0.49257545   0.27929729   -2.0746019    1.5820264   439061 
 1644000    1.0549049   -2.0752776   -2.0752776  -0.49292386    0.2772729   -2.0752776    1.5823537   439061 
 1645000    1.0533871   -2.0726754   -2.0726754  -0.49259833   0.28250738   -2.0726754     1.580077   439061 
 1646000     1.053714   -2.0719383   -2.0719383  -0.49137087   0.27693796   -2.0719383    1.5805674   439061 
 1647000     1.054095   -2.0720508   -2.0720508  -0.49091195   0.28026194   -2.0720508    1.5811389   439061 
 1648000    1.0544147   -2.0729535   -2.0729535  -0.49133497   0.27637314   -2.0729535    1.5816185   439061 
 1649000    1.0536985   -2.0728261   -2.0728261    -0.492282   0.27401414   -2.0728261    1.5805441   439061 
 1650000    1.0552806   -2.0751642   -2.0751642  -0.49224699   0.27799814   -2.0751642    1.5829172   439061 
 1651000    1.0559919   -2.0752005   -2.0752005  -0.49121618   0.27923806   -2.0752005    1.5839843   439061 
 1652000    1.0548681   -2.0754318   -2.0754318  -0.49313328   0.27491676   -2.0754318    1.5822985   439061 
 1653000    1.0547337   -2.0756826   -2.0756826  -0.49358565   0.27718963   -2.0756826     1.582097   439061 
 1654000     1.054259   -2.0764156   -2.0764156  -0.49503078   0.27552712   -2.0764156    1.5813848   439061 
 1655000     1.054389   -2.0758945   -2.0758945  -0.49431464   0.27803831   -2.0758945    1.5815799   439061 
 1656000    1.0527012   -2.0735765   -2.0735765  -0.49452821   0.28364189   -2.0735765    1.5790483   439061 
 1657000    1.0555275   -2.0770304   -2.0770304  -0.49374267   0.27401432   -2.0770304    1.5832877   439061 
 1658000    1.0542834    -2.075079    -2.075079   -0.4936575   0.28027525    -2.075079    1.5814215   439061 
 1659000    1.0537384   -2.0747961   -2.0747961  -0.49419207   0.27504513   -2.0747961    1.5806041   439061 
 1660000    1.0532089   -2.0758391   -2.0758391  -0.49602932   0.27439043   -2.0758391    1.5798097   439061 
 1661000     1.053522   -2.0756408   -2.0756408  -0.49536137   0.27651523   -2.0756408    1.5802794   439061 
 1662000    1.0539604   -2.0757176   -2.0757176  -0.49478069   0.27805976   -2.0757176    1.5809369   439061 
 1663000    1.0533258   -2.0764072   -2.0764072  -0.49642212   0.26934582   -2.0764072    1.5799851   439061 
 1664000    1.0518694   -2.0731856   -2.0731856  -0.49538509   0.27766795   -2.0731856    1.5778005   439061 
 1665000    1.0526374   -2.0745207   -2.0745207  -0.49556815    0.2751329   -2.0745207    1.5789525   439061 
 1666000    1.0531954   -2.0757602   -2.0757602  -0.49597076   0.27598756   -2.0757602    1.5797895   439061 
 1667000    1.0527302   -2.0759866   -2.0759866  -0.49689497   0.27581699   -2.0759866    1.5790917   439061 
 1668000     1.053829   -2.0754116   -2.0754116  -0.49467179    0.2760144   -2.0754116    1.5807398   439061 
 1669000    1.0514644   -2.0742071   -2.0742071  -0.49701406   0.27253091   -2.0742071     1.577193   439061 
 1670000    1.0525202   -2.0747891   -2.0747891  -0.49601239   0.27926579   -2.0747891    1.5787767   439061 
 1671000    1.0523552   -2.0745349   -2.0745349  -0.49600573    0.2755735   -2.0745349    1.5785291   439061 
 1672000    1.0516741   -2.0733022   -2.0733022  -0.49579463   0.27694448   -2.0733022    1.5775076   439061 
 1673000    1.0528089    -2.075203    -2.075203  -0.49599317   0.27814169    -2.075203    1.5792098   439061 
 1674000    1.0522632   -2.0744954   -2.0744954  -0.49610417   0.27685991   -2.0744954    1.5783912   439061 
 1675000    1.0533345   -2.0767293   -2.0767293  -0.49673122   0.27341794   -2.0767293    1.5799981   439061 
 1676000    1.0532077    -2.074891    -2.074891  -0.49508308   0.27898331    -2.074891    1.5798079   439061 
 1677000    1.0534398   -2.0748208   -2.0748208  -0.49466465   0.27705014   -2.0748208    1.5801562   439061 
 1678000    1.0525449   -2.0736959   -2.0736959  -0.49488219   0.27655541   -2.0736959    1.5788137   439061 
 1679000    1.0533441   -2.0751898   -2.0751898  -0.49517726   0.27687838   -2.0751898    1.5800126   439061 
 1680000    1.0534998   -2.0751626   -2.0751626  -0.49491653   0.27481111   -2.0751626    1.5802461   439061 
 1681000    1.0530289   -2.0755132   -2.0755132  -0.49597338   0.27398085   -2.0755132    1.5795398   439061 
 1682000    1.0525801   -2.0743358   -2.0743358  -0.49546922   0.27923605   -2.0743358    1.5788666   439061 
 1683000    1.0506002   -2.0732587   -2.0732587  -0.49736207   0.27827481   -2.0732587    1.5758967   439061 
 1684000     1.052002   -2.0743733   -2.0743733  -0.49637391   0.27841734   -2.0743733    1.5779994   439061 
 1685000    1.0517159   -2.0752291   -2.0752291  -0.49765883   0.27709558   -2.0752291    1.5775702   439061 
 1686000    1.0508937   -2.0732426   -2.0732426  -0.49690558   0.27523605   -2.0732426     1.576337   439061 
 1687000    1.0522323   -2.0757306   -2.0757306  -0.49738581    0.2788393   -2.0757306    1.5783448   439061 
 1688000     1.053028   -2.0762463   -2.0762463  -0.49670789   0.27633924   -2.0762463    1.5795384   439061 
 1689000    1.0523648   -2.0759865   -2.0759865  -0.49744283   0.27411374   -2.0759865    1.5785436   439061 
 1690000    1.0521674   -2.0756617   -2.0756617  -0.49741417   0.27710934   -2.0756617    1.5782475   439061 
 1691000    1.0513226   -2.0742875   -2.0742875  -0.49730727   0.27887024   -2.0742875    1.5769802   439061 
 1692000    1.0514903   -2.0744876   -2.0744876  -0.49725579   0.27342988   -2.0744876    1.5772319   439061 
 1693000    1.0520924   -2.0759247   -2.0759247   -0.4977897   0.27423393   -2.0759247     1.578135   439061 
 1694000    1.0514368   -2.0746038   -2.0746038  -0.49745222   0.27671928   -2.0746038    1.5771516   439061 
 1695000    1.0515497   -2.0729525   -2.0729525  -0.49563153   0.27577307   -2.0729525     1.577321   439061 
 1696000    1.0524472   -2.0744103   -2.0744103   -0.4957431   0.27854102   -2.0744103    1.5786672   439061 
 1697000    1.0522398   -2.0748112   -2.0748112  -0.49645506   0.27456805   -2.0748112    1.5783562   439061 
 1698000    1.0514492   -2.0731455   -2.0731455  -0.49597522   0.27874724   -2.0731455    1.5771702   439061 
 1699000    1.0513007   -2.0738499   -2.0738499  -0.49690249   0.27408425   -2.0738499    1.5769474   439061 
 1700000    1.0524996    -2.075022    -2.075022  -0.49627614   0.27555529    -2.075022    1.5787458   439061 
 1701000    1.0531333   -2.0757771   -2.0757771   -0.4960808   0.27452016   -2.0757771    1.5796963   439061 
 1702000    1.0518363   -2.0729409   -2.0729409  -0.49519004   0.27533479   -2.0729409    1.5777508   439061 
 1703000    1.0535912   -2.0744581   -2.0744581  -0.49407487   0.27521777   -2.0744581    1.5803832   439061 
 1704000    1.0546617    -2.076275    -2.076275  -0.49428606   0.27731427    -2.076275    1.5819889   439061 
 1705000    1.0524141   -2.0740131   -2.0740131  -0.49539553   0.27941193   -2.0740131    1.5786176   439061 
 1706000      1.05337    -2.074703    -2.074703  -0.49465162   0.27748691    -2.074703    1.5800513   439061 
 1707000    1.0520505   -2.0726543   -2.0726543   -0.4945822   0.27815322   -2.0726543    1.5780721   439061 
 1708000    1.0533747   -2.0741231   -2.0741231   -0.4940646   0.28036183   -2.0741231    1.5800585   439061 
 1709000    1.0525628   -2.0737708   -2.0737708  -0.49493017   0.27414175   -2.0737708    1.5788407   439061 
 1710000      1.05217    -2.074054    -2.074054  -0.49580252   0.27443251    -2.074054    1.5782515   439061 
 1711000    1.0519542   -2.0734447   -2.0734447  -0.49551695   0.27837156   -2.0734447    1.5779278   439061 
 1712000    1.0514547   -2.0737169   -2.0737169  -0.49653838   0.27553615   -2.0737169    1.5771785   439061 
 1713000    1.0510728   -2.0724245   -2.0724245  -0.49581891   0.27577627   -2.0724245    1.5766056   439061 
 1714000    1.0541027   -2.0742615   -2.0742615  -0.49311109   0.27639953   -2.0742615    1.5811504   439061 
 1715000    1.0539993   -2.0744709   -2.0744709  -0.49347559    0.2777084   -2.0744709    1.5809954   439061 
 1716000    1.0528601   -2.0732753   -2.0732753  -0.49398865   0.27768484   -2.0732753    1.5792866   439061 
 1717000    1.0531958   -2.0746628   -2.0746628  -0.49487265   0.27596552   -2.0746628    1.5797901   439061 
 1718000    1.0528552   -2.0737578   -2.0737578   -0.4944785   0.27503153   -2.0737578    1.5792793   439061 
 1719000        1.054   -2.0744265   -2.0744265  -0.49343018   0.27620527   -2.0744265    1.5809963   439061 
 1720000    1.0534712   -2.0749024   -2.0749024  -0.49469926   0.27174683   -2.0749024    1.5802032   439061 
 1721000    1.0527654   -2.0737897   -2.0737897  -0.49464523   0.27556488   -2.0737897    1.5791444   439061 
 1722000    1.0512085   -2.0722813   -2.0722813  -0.49547212   0.27440583   -2.0722813    1.5768092   439061 
 1723000    1.0515216   -2.0738176   -2.0738176  -0.49653878   0.27548287   -2.0738176    1.5772788   439061 
 1724000    1.0522092   -2.0753024   -2.0753024  -0.49699225   0.27199734   -2.0753024    1.5783101   439061 
 1725000    1.0516565   -2.0749097   -2.0749097  -0.49742855   0.27255584   -2.0749097    1.5774811   439061 
 1726000    1.0502818   -2.0720422   -2.0720422  -0.49662309   0.27862423   -2.0720422    1.5754192   439061 
 1727000    1.0514427   -2.0733229   -2.0733229   -0.4961624   0.27296383   -2.0733229    1.5771605   439061 
 1728000     1.051191   -2.0744452   -2.0744452  -0.49766226   0.27165495   -2.0744452     1.576783   439061 
 1729000    1.0508137   -2.0739891   -2.0739891  -0.49777213   0.27409286   -2.0739891     1.576217   439061 
 1730000    1.0507419   -2.0738902   -2.0738902  -0.49778099   0.27472321   -2.0738902    1.5761092   439061 
 1731000    1.0515694   -2.0755397   -2.0755397  -0.49818913   0.27014724   -2.0755397    1.5773505   439061 
 1732000    1.0511073   -2.0748898   -2.0748898   -0.4982324   0.27542957   -2.0748898    1.5766574   439061 
 1733000    1.0521839   -2.0747018   -2.0747018  -0.49642951   0.27531711   -2.0747018    1.5782723   439061 
 1734000    1.0524848   -2.0753878   -2.0753878  -0.49666421   0.27496447   -2.0753878    1.5787236   439061 
 1735000    1.0522602     -2.07509     -2.07509  -0.49670321   0.27494602     -2.07509    1.5783868   439061 
 1736000    1.0511043   -2.0736535   -2.0736535  -0.49700062   0.27467623   -2.0736535    1.5766529   439061 
 1737000    1.0529135   -2.0750516   -2.0750516  -0.49568489   0.27812934   -2.0750516    1.5793667   439061 
 1738000    1.0532439    -2.073834    -2.073834  -0.49397178   0.27431123    -2.073834    1.5798622   439061 
 1739000     1.052665   -2.0740929   -2.0740929  -0.49509904     0.273204   -2.0740929    1.5789939   439061 
 1740000    1.0520454    -2.074121    -2.074121  -0.49605644   0.27878346    -2.074121    1.5780645   439061 
 1741000    1.0524961   -2.0747572   -2.0747572  -0.49601658   0.27343424   -2.0747572    1.5787406   439061 
 1742000    1.0523819   -2.0754071   -2.0754071   -0.4968378   0.27238155   -2.0754071    1.5785693   439061 
 1743000    1.0512839    -2.073832    -2.073832  -0.49690981   0.27368634    -2.073832    1.5769222   439061 
 1744000    1.0529577   -2.0757309   -2.0757309  -0.49629801   0.27357855   -2.0757309    1.5794329   439061 
 1745000    1.0526366   -2.0754949   -2.0754949  -0.49654354   0.27310967   -2.0754949    1.5789513   439061 
 1746000     1.051596   -2.0737781   -2.0737781  -0.49638774   0.27469922   -2.0737781    1.5773904   439061 
 1747000     1.052557   -2.0752023   -2.0752023  -0.49637037   0.27476704   -2.0752023     1.578832   439061 
 1748000      1.05212   -2.0754545   -2.0754545  -0.49727813   0.27298877   -2.0754545    1.5781764   439061 
 1749000    1.0517931   -2.0735343   -2.0735343   -0.4958482    0.2767305   -2.0735343    1.5776861   439061 
 1750000    1.0507121   -2.0733814   -2.0733814  -0.49731683   0.27092939   -2.0733814    1.5760646   439061 
 1751000    1.0515145   -2.0740551   -2.0740551  -0.49678703   0.27208075   -2.0740551    1.5772681   439061 
 1752000    1.0519074   -2.0748067   -2.0748067   -0.4969492   0.27942338   -2.0748067    1.5778575   439061 
 1753000    1.0520991   -2.0736662   -2.0736662  -0.49552106   0.27557627   -2.0736662    1.5781451   439061 
 1754000      1.05133   -2.0721843   -2.0721843  -0.49519297   0.27577057   -2.0721843    1.5769913   439061 
 1755000     1.052166   -2.0736218   -2.0736218   -0.4953764   0.27615488   -2.0736218    1.5782454   439061 
 1756000    1.0519671   -2.0736479   -2.0736479  -0.49570091   0.27391227   -2.0736479     1.577947   439061 
 1757000    1.0524486   -2.0743201   -2.0743201  -0.49565075   0.27325772   -2.0743201    1.5786694   439061 
 1758000    1.0510943   -2.0731717   -2.0731717  -0.49653384   0.27116028   -2.0731717    1.5766378   439061 
 1759000    1.0512558   -2.0742384   -2.0742384   -0.4973583   0.27802394   -2.0742384    1.5768801   439061 
 1760000    1.0510989   -2.0734181   -2.0734181  -0.49677343   0.27319534   -2.0734181    1.5766447   439061 
 1761000    1.0521104   -2.0751434   -2.0751434  -0.49698143   0.27346649   -2.0751434     1.578162   439061 
 1762000    1.0506394   -2.0736689   -2.0736689  -0.49771333   0.27421937   -2.0736689    1.5759555   439061 
 1763000    1.0494999   -2.0722923   -2.0722923  -0.49804604    0.2790365   -2.0722923    1.5742462   439061 
 1764000    1.0514388   -2.0757881   -2.0757881   -0.4986335   0.26739775   -2.0757881    1.5771546   439061 
 1765000    1.0518232    -2.075219    -2.075219  -0.49748785   0.27587273    -2.075219    1.5777311   439061 
 1766000    1.0514407   -2.0756078   -2.0756078  -0.49845036   0.27496589   -2.0756078    1.5771575   439061 
 1767000    1.0519402   -2.0757925   -2.0757925   -0.4978858   0.26873431   -2.0757925    1.5779068   439061 
 1768000    1.0509545   -2.0744439   -2.0744439  -0.49801582   0.27678555   -2.0744439    1.5764281   439061 
 1769000    1.0509071   -2.0745414   -2.0745414  -0.49818429   0.27548327   -2.0745414    1.5763571   439061 
 1770000    1.0504834   -2.0736091   -2.0736091  -0.49788768   0.27831042   -2.0736091    1.5757215   439061 
 1771000    1.0506409   -2.0739483   -2.0739483   -0.4979905   0.27236077   -2.0739483    1.5759578   439061 
 1772000    1.0518333   -2.0765919   -2.0765919   -0.4988456   0.27309235   -2.0765919    1.5777463   439061 
 1773000    1.0501483   -2.0741239   -2.0741239  -0.49890507   0.27515377   -2.0741239    1.5752188   439061 
 1774000    1.0515133   -2.0745958   -2.0745958  -0.49732949   0.27356698   -2.0745958    1.5772663   439061 
 1775000    1.0507209   -2.0727898   -2.0727898  -0.49671213   0.27924813   -2.0727898    1.5760777   439061 
 1776000    1.0525334   -2.0765021   -2.0765021  -0.49770562    0.2713145   -2.0765021    1.5787965   439061 
 1777000    1.0509873   -2.0746536   -2.0746536  -0.49817621   0.27303341   -2.0746536    1.5764774   439061 
 1778000    1.0503027   -2.0748164   -2.0748164  -0.49936606   0.27753755   -2.0748164    1.5754504   439061 
 1779000    1.0490886    -2.073253    -2.073253   -0.4996237    0.2740628    -2.073253    1.5736293   439061 
 1780000    1.0508763   -2.0747492   -2.0747492  -0.49843835   0.27453468   -2.0747492    1.5763109   439061 
 1781000    1.0515166    -2.075396    -2.075396  -0.49812472   0.27261832    -2.075396    1.5772713   439061 
 1782000    1.0520968   -2.0760277   -2.0760277  -0.49788611    0.2719085   -2.0760277    1.5781416   439061 
 1783000    1.0498612   -2.0737676   -2.0737676  -0.49897936   0.27629012   -2.0737676    1.5747882   439061 
 1784000    1.0499044   -2.0758094   -2.0758094  -0.50095635   0.27076274   -2.0758094    1.5748531   439061 
 1785000    1.0502847   -2.0745912   -2.0745912  -0.49916777   0.27172974   -2.0745912    1.5754234   439061 
 1786000    1.0494518   -2.0740213   -2.0740213  -0.49984728   0.27207544   -2.0740213     1.574174   439061 
 1787000    1.0503129   -2.0748368   -2.0748368  -0.49937106   0.27765482   -2.0748368    1.5754658   439061 
 1788000    1.0508282   -2.0754318   -2.0754318  -0.49919301   0.27581081   -2.0754318    1.5762388   439061 
 1789000    1.0497983   -2.0739667   -2.0739667   -0.4992728   0.27480102   -2.0739667    1.5746939   439061 
 1790000     1.051444   -2.0750929   -2.0750929  -0.49793052   0.26952221   -2.0750929    1.5771624   439061 
 1791000    1.0518642   -2.0744826   -2.0744826  -0.49668993   0.27768736   -2.0744826    1.5777927   439061 
 1792000    1.0520232   -2.0748592   -2.0748592  -0.49682806     0.273983   -2.0748592    1.5780312   439061 
 1793000    1.0505935   -2.0733057   -2.0733057   -0.4974191    0.2782905   -2.0733057    1.5758866   439061 
 1794000      1.04936   -2.0723924   -2.0723924    -0.498356   0.27762086   -2.0723924    1.5740364   439061 
 1795000    1.0497417   -2.0725924   -2.0725924  -0.49798345   0.27486054   -2.0725924     1.574609   439061 
 1796000     1.050781   -2.0739884   -2.0739884   -0.4978205   0.27533014   -2.0739884    1.5761679   439061 
 1797000    1.0508725   -2.0743023   -2.0743023  -0.49799705   0.27023032   -2.0743023    1.5763052   439061 
 1798000    1.0517666    -2.075705    -2.075705   -0.4980587   0.27160552    -2.075705    1.5776463   439061 
 1799000    1.0503992   -2.0747476   -2.0747476  -0.49915238   0.27350722   -2.0747476    1.5755952   439061 
 1800000    1.0503625   -2.0740867   -2.0740867  -0.49854658   0.27727006   -2.0740867    1.5755401   439061 
 1801000    1.0508947    -2.074569    -2.074569  -0.49823055   0.27501419    -2.074569    1.5763384   439061 
 1802000    1.0504482    -2.073787    -2.073787  -0.49811831   0.27687621    -2.073787    1.5756687   439061 
 1803000    1.0483532   -2.0727979   -2.0727979  -0.50027168    0.2738972   -2.0727979    1.5725262   439061 
 1804000    1.0494198     -2.07474     -2.07474  -0.50061384   0.27498229     -2.07474    1.5741262   439061 
 1805000    1.0489076   -2.0734533   -2.0734533  -0.50009539   0.27262446   -2.0734533    1.5733579   439061 
 1806000    1.0482736   -2.0729161   -2.0729161  -0.50050936   0.27465474   -2.0729161    1.5724067   439061 
 1807000    1.0489599   -2.0737859   -2.0737859  -0.50034958    0.2710798   -2.0737859    1.5734363   439061 
 1808000    1.0487642   -2.0741149   -2.0741149  -0.50097215   0.27898668   -2.0741149    1.5731428   439061 
 1809000    1.0500362   -2.0759366   -2.0759366  -0.50088595   0.27240066   -2.0759366    1.5750507   439061 
 1810000    1.0506208   -2.0766135   -2.0766135   -0.5006859   0.27402721   -2.0766135    1.5759276   439061 
 1811000    1.0491654   -2.0737519   -2.0737519  -0.50000743   0.27246594   -2.0737519    1.5737445   439061 
 1812000    1.0496017   -2.0752499   -2.0752499  -0.50085086   0.27251662   -2.0752499     1.574399   439061 
 1813000    1.0501163   -2.0758378   -2.0758378  -0.50066701   0.26914753   -2.0758378    1.5751708   439061 
 1814000    1.0495105   -2.0751933   -2.0751933   -0.5009311   0.27457734   -2.0751933    1.5742622   439061 
 1815000     1.050886   -2.0767268   -2.0767268  -0.50040141   0.27230385   -2.0767268    1.5763254   439061 
 1816000    1.0486062    -2.073342    -2.073342  -0.50043629   0.27325226    -2.073342    1.5729057   439061 
 1817000    1.0499903   -2.0760802   -2.0760802  -0.50109837   0.27575337   -2.0760802    1.5749818   439061 
 1818000    1.0486128    -2.074271    -2.074271  -0.50135546   0.27590215    -2.074271    1.5729156   439061 
 1819000    1.0483301    -2.074956    -2.074956  -0.50246447   0.27387477    -2.074956    1.5724916   439061 
 1820000    1.0483058   -2.0750136   -2.0750136  -0.50255838   0.27084289   -2.0750136    1.5724552   439061 
 1821000    1.0499808   -2.0766299   -2.0766299   -0.5016623   0.27683596   -2.0766299    1.5749676   439061 
 1822000    1.0495662   -2.0763147   -2.0763147  -0.50196892   0.27280464   -2.0763147    1.5743457   439061 
 1823000    1.0495025   -2.0766145   -2.0766145  -0.50236434    0.2717818   -2.0766145    1.5742501   439061 
 1824000     1.049284   -2.0768056   -2.0768056  -0.50288308   0.26777799   -2.0768056    1.5739225   439061 
 1825000    1.0486256   -2.0758478   -2.0758478  -0.50291294     0.267297   -2.0758478    1.5729349   439061 
 1826000    1.0489088   -2.0760303   -2.0760303  -0.50267074   0.27147474   -2.0760303    1.5733596   439061 
 1827000    1.0472013   -2.0762049   -2.0762049   -0.5054065   0.26947761   -2.0762049    1.5707983   439061 
 1828000    1.0472494   -2.0752597   -2.0752597  -0.50438915   0.27072129   -2.0752597    1.5708706   439061 
 1829000    1.0472623   -2.0749763   -2.0749763  -0.50408641   0.27123681   -2.0749763    1.5708899   439061 
 1830000    1.0473451   -2.0746162   -2.0746162  -0.50360214   0.27136514   -2.0746162    1.5710141   439061 
 1831000    1.0485361   -2.0760861   -2.0760861  -0.50328549   0.27353163   -2.0760861    1.5728006   439061 
 1832000    1.0482438   -2.0765196   -2.0765196  -0.50415742   0.27357464   -2.0765196    1.5723621   439061 
 1833000     1.049529   -2.0764546   -2.0764546  -0.50216464   0.27107014   -2.0764546      1.57429   439061 
 1834000     1.049488   -2.0752285   -2.0752285  -0.50100011   0.27323183   -2.0752285    1.5742284   439061 
 1835000    1.0503025   -2.0764653   -2.0764653  -0.50101509   0.27528253   -2.0764653    1.5754502   439061 
 1836000    1.0509369   -2.0763448   -2.0763448  -0.49994298   0.27274458   -2.0763448    1.5764018   439061 
 1837000    1.0509724   -2.0765796   -2.0765796   -0.5001245   0.27481957   -2.0765796    1.5764551   439061 
 1838000    1.0513536   -2.0774708   -2.0774708  -0.50044396   0.27580062   -2.0774708    1.5770269   439061 
 1839000     1.049134   -2.0741034   -2.0741034  -0.50040595   0.27160005   -2.0741034    1.5736974   439061 
 1840000    1.0492679   -2.0742583   -2.0742583  -0.50036005   0.27401695   -2.0742583    1.5738982   439061 
 1841000    1.0490262    -2.075211    -2.075211  -0.50167527   0.27465835    -2.075211    1.5735357   439061 
 1842000     1.049958    -2.075387    -2.075387  -0.50045358   0.26934543    -2.075387    1.5749334   439061 
 1843000    1.0497201   -2.0748881   -2.0748881  -0.50031154   0.26905749   -2.0748881    1.5745766   439061 
 1844000    1.0505785   -2.0752519   -2.0752519  -0.49938766   0.27163853   -2.0752519    1.5758642   439061 
 1845000    1.0499627   -2.0733315   -2.0733315   -0.4983911   0.27166839   -2.0733315    1.5749404   439061 
 1846000    1.0504614   -2.0731001   -2.0731001  -0.49741161   0.27187264   -2.0731001    1.5756884   439061 
 1847000    1.0512789   -2.0758597   -2.0758597  -0.49894494   0.26894948   -2.0758597    1.5769147   439061 
 1848000    1.0511755   -2.0753483   -2.0753483  -0.49858866   0.27048031   -2.0753483    1.5767596   439061 
 1849000    1.0494084    -2.072973    -2.072973    -0.498864   0.26644154    -2.072973     1.574109   439061 
 1850000    1.0489929   -2.0735483   -2.0735483  -0.50006255   0.26995475   -2.0735483    1.5734858   439061 
 1851000    1.0500763   -2.0744792   -2.0744792  -0.49936839   0.26671996   -2.0744792    1.5751109   439061 
 1852000    1.0501568   -2.0758754   -2.0758754   -0.5006437   0.27134068   -2.0758754    1.5752317   439061 
 1853000    1.0497147   -2.0740469   -2.0740469   -0.4994784   0.27391773   -2.0740469    1.5745685   439061 
 1854000    1.0498634   -2.0749162   -2.0749162  -0.50012476   0.26878203   -2.0749162    1.5747915   439061 
 1855000    1.0483598   -2.0729965   -2.0729965  -0.50046031   0.27252916   -2.0729965    1.5725362   439061 
 1856000    1.0499643   -2.0740901   -2.0740901   -0.4991473   0.27160334   -2.0740901    1.5749428   439061 
 1857000    1.0490268    -2.073182    -2.073182  -0.49964527    0.2751155    -2.073182    1.5735367   439061 
 1858000    1.0491923   -2.0735344   -2.0735344  -0.49974946   0.27128048   -2.0735344    1.5737849   439061 
 1859000    1.0497072   -2.0748723   -2.0748723  -0.50031507   0.27334966   -2.0748723    1.5745572   439061 
 1860000    1.0491949   -2.0736715   -2.0736715  -0.49988271   0.27068271   -2.0736715    1.5737888   439061 
 1861000     1.050169   -2.0749339   -2.0749339  -0.49968401   0.27302341   -2.0749339    1.5752499   439061 
 1862000    1.0503895   -2.0756846   -2.0756846  -0.50010394    0.2717927   -2.0756846    1.5755807   439061 
 1863000    1.0486019   -2.0730745   -2.0730745  -0.50017523   0.27284885   -2.0730745    1.5728993   439061 
 1864000    1.0489781   -2.0748745   -2.0748745    -0.501411   0.27346753   -2.0748745    1.5734635   439061 
 1865000    1.0496498   -2.0767513   -2.0767513  -0.50228026   0.27026058   -2.0767513     1.574471   439061 
 1866000    1.0478387   -2.0733065   -2.0733065  -0.50155209   0.27349509   -2.0733065    1.5717544   439061 
 1867000    1.0489456   -2.0752519   -2.0752519  -0.50183705   0.27199776   -2.0752519    1.5734148   439061 
 1868000    1.0496869    -2.074582    -2.074582  -0.50005524   0.27037129    -2.074582    1.5745268   439061 
 1869000    1.0500293   -2.0759025   -2.0759025  -0.50086213    0.2683432   -2.0759025    1.5750404   439061 
 1870000    1.0480544   -2.0737659   -2.0737659  -0.50168785   0.27518153   -2.0737659    1.5720781   439061 
 1871000    1.0488699   -2.0767276   -2.0767276  -0.50342635   0.26810488   -2.0767276    1.5733013   439061 
 1872000      1.04712   -2.0739509   -2.0739509  -0.50327457   0.27300979   -2.0739509    1.5706764   439061 
 1873000    1.0487245    -2.076381    -2.076381  -0.50329784   0.27125949    -2.076381    1.5730832   439061 
 1874000    1.0473643   -2.0749143   -2.0749143  -0.50387148   0.27508113   -2.0749143    1.5710428   439061 
 1875000     1.048763   -2.0777015   -2.0777015  -0.50456065   0.26707212   -2.0777015    1.5731409   439061 
 1876000    1.0484341   -2.0768691   -2.0768691   -0.5042216    0.2688162   -2.0768691    1.5726475   439061 
 1877000    1.0480571   -2.0757652   -2.0757652  -0.50368315   0.27259436   -2.0757652     1.572082   439061 
 1878000    1.0463586   -2.0740551   -2.0740551  -0.50452081   0.27331765   -2.0740551    1.5695343   439061 
 1879000     1.047324   -2.0746153   -2.0746153  -0.50363278   0.27141672   -2.0746153    1.5709825   439061 
 1880000    1.0476162   -2.0743598   -2.0743598  -0.50293907   0.27000272   -2.0743598    1.5714207   439061 
 1881000    1.0481807    -2.074221    -2.074221  -0.50195364   0.27059627    -2.074221    1.5722674   439061 
 1882000    1.0482605    -2.074544    -2.074544  -0.50215683   0.26647069    -2.074544    1.5723872   439061 
 1883000    1.0487403   -2.0756802   -2.0756802  -0.50257336   0.26996478   -2.0756802    1.5731069   439061 
 1884000     1.048806   -2.0750565   -2.0750565  -0.50185114   0.27043956   -2.0750565    1.5732054   439061 
 1885000    1.0490036   -2.0751296   -2.0751296  -0.50162775   0.27108584   -2.0751296    1.5735019   439061 
 1886000    1.0486036   -2.0750466   -2.0750466  -0.50214481   0.26994308   -2.0750466    1.5729018   439061 
 1887000    1.0478962   -2.0736221   -2.0736221  -0.50178132   0.27318392   -2.0736221    1.5718408   439061 
 1888000    1.0484939   -2.0743877   -2.0743877  -0.50165039   0.27138844   -2.0743877    1.5727373   439061 
 1889000    1.0499793   -2.0767185   -2.0767185   -0.5017531   0.26826768   -2.0767185    1.5749654   439061 
 1890000    1.0475347   -2.0735006   -2.0735006  -0.50220209   0.27194121   -2.0735006    1.5712985   439061 
 1891000    1.0469563    -2.073779    -2.073779  -0.50334813   0.27181416    -2.073779    1.5704309   439061 
 1892000    1.0472316   -2.0741681   -2.0741681  -0.50332434   0.27359828   -2.0741681    1.5708438   439061 
 1893000    1.0475556   -2.0739133   -2.0739133  -0.50258341   0.27324347   -2.0739133    1.5713299   439061 
 1894000    1.0472806   -2.0737507   -2.0737507  -0.50283343    0.2735671   -2.0737507    1.5709173   439061 
 1895000    1.0478321   -2.0742087   -2.0742087  -0.50246418   0.27101423   -2.0742087    1.5717446   439061 
 1896000    1.0466597   -2.0731552   -2.0731552  -0.50316928   0.27179343   -2.0731552     1.569986   439061 
 1897000    1.0478483   -2.0738265   -2.0738265  -0.50205762   0.27271256   -2.0738265    1.5717688   439061 
 1898000    1.0488785   -2.0759463   -2.0759463  -0.50263211   0.26968768   -2.0759463    1.5733142   439061 
 1899000    1.0484691    -2.075591    -2.075591  -0.50289091   0.27469547    -2.075591    1.5727001   439061 
 1900000    1.0492798   -2.0759635   -2.0759635  -0.50204747   0.27177943   -2.0759635     1.573916   439061 
 1901000     1.049306   -2.0755508   -2.0755508  -0.50159537   0.27301816   -2.0755508    1.5739554   439061 
 1902000     1.050189   -2.0762041   -2.0762041  -0.50092429   0.27390994   -2.0762041    1.5752798   439061 
 1903000    1.0492042   -2.0748166   -2.0748166  -0.50101386   0.27471645   -2.0748166    1.5738027   439061 
 1904000    1.0507968   -2.0766859   -2.0766859  -0.50049426   0.26873192   -2.0766859    1.5761916   439061 
 1905000    1.0492475   -2.0766218   -2.0766218  -0.50275417   0.26933368   -2.0766218    1.5738677   439061 
 1906000    1.0475522   -2.0740312   -2.0740312  -0.50270649   0.27174195   -2.0740312    1.5713247   439061 
 1907000    1.0482187   -2.0748857   -2.0748857  -0.50256116   0.27881128   -2.0748857    1.5723245   439061 
 1908000    1.0482547    -2.074952    -2.074952  -0.50257351   0.26967896    -2.074952    1.5723785   439061 
 1909000    1.0471437   -2.0736621   -2.0736621   -0.5029501   0.26730607   -2.0736621     1.570712   439061 
 1910000    1.0473579   -2.0750285   -2.0750285   -0.5039952   0.27140304   -2.0750285    1.5710333   439061 
 1911000    1.0475389   -2.0739266   -2.0739266  -0.50262173    0.2743779   -2.0739266    1.5713048   439061 
 1912000    1.0484333   -2.0759796   -2.0759796  -0.50333321   0.27009776   -2.0759796    1.5726464   439061 
 1913000     1.047368   -2.0745794   -2.0745794  -0.50353103   0.27145862   -2.0745794    1.5710484   439061 
 1914000    1.0477921    -2.075551    -2.075551  -0.50386636   0.27419735    -2.075551    1.5716846   439061 
 1915000    1.0473162   -2.0737706   -2.0737706  -0.50279994   0.27006852   -2.0737706    1.5709707   439061 
 1916000    1.0476106   -2.0756586   -2.0756586  -0.50424619   0.26929058   -2.0756586    1.5714124   439061 
 1917000     1.047616   -2.0749478   -2.0749478  -0.50352737    0.2714073   -2.0749478    1.5714204   439061 
 1918000    1.0484247   -2.0748716   -2.0748716  -0.50223805   0.27242637   -2.0748716    1.5726335   439061 
 1919000    1.0485486   -2.0751099   -2.0751099  -0.50229064    0.2705224   -2.0751099    1.5728193   439061 
 1920000    1.0483204   -2.0741196   -2.0741196  -0.50164266   0.27338047   -2.0741196     1.572477   439061 
 1921000    1.0481997   -2.0734912   -2.0734912  -0.50119524   0.27242169   -2.0734912     1.572296   439061 
 1922000    1.0491315   -2.0745842   -2.0745842  -0.50089044   0.27226762   -2.0745842    1.5736937   439061 
 1923000    1.0491319   -2.0735391   -2.0735391  -0.49984491   0.27040018   -2.0735391    1.5736942   439061 
 1924000    1.0486572   -2.0738467   -2.0738467  -0.50086452   0.27326627   -2.0738467    1.5729822   439061 
 1925000     1.049234   -2.0750018   -2.0750018  -0.50115434   0.27199069   -2.0750018    1.5738474   439061 
 1926000    1.0488077    -2.073478    -2.073478  -0.50027002   0.27159336    -2.073478    1.5732079   439061 
 1927000    1.0492907   -2.0753239   -2.0753239  -0.50139134   0.27449467   -2.0753239    1.5739325   439061 
 1928000    1.0482669   -2.0739909   -2.0739909  -0.50159406   0.26944341   -2.0739909    1.5723968   439061 
 1929000    1.0484476   -2.0748757   -2.0748757  -0.50220785   0.27339145   -2.0748757    1.5726678   439061 
 1930000    1.0488796   -2.0760102   -2.0760102  -0.50269447   0.26847826   -2.0760102    1.5733157   439061 
 1931000    1.0482157   -2.0741638   -2.0741638  -0.50184379   0.26943009   -2.0741638      1.57232   439061 
 1932000    1.0481764   -2.0737292   -2.0737292  -0.50146813   0.26779296   -2.0737292    1.5722611   439061 
 1933000    1.0471339   -2.0724837   -2.0724837  -0.50178645   0.27219857   -2.0724837    1.5706972   439061 
 1934000    1.0477877   -2.0729911   -2.0729911  -0.50131313   0.27104861   -2.0729911    1.5716779   439061 
 1935000    1.0491741   -2.0759447   -2.0759447  -0.50218707   0.27222389   -2.0759447    1.5737576   439061 
 1936000    1.0476752   -2.0738526   -2.0738526  -0.50234337   0.27517654   -2.0738526    1.5715093   439061 
 1937000    1.0485472   -2.0756355   -2.0756355   -0.5028183   0.27076813   -2.0756355    1.5728172   439061 
 1938000    1.0479972   -2.0745726   -2.0745726  -0.50258029   0.26928125   -2.0745726    1.5719923   439061 
 1939000    1.0458997   -2.0737896   -2.0737896  -0.50494372    0.2681513   -2.0737896    1.5688459   439061 
 1940000    1.0470028   -2.0746253   -2.0746253  -0.50412466   0.27360769   -2.0746253    1.5705007   439061 
 1941000    1.0471762   -2.0748849   -2.0748849  -0.50412419   0.27271211   -2.0748849    1.5707607   439061 
 1942000    1.0467268   -2.0740986   -2.0740986   -0.5040119   0.27068016   -2.0740986    1.5700867   439061 
 1943000    1.0478558   -2.0760337   -2.0760337  -0.50425365   0.26959932   -2.0760337      1.57178   439061 
 1944000    1.0468921   -2.0768212   -2.0768212  -0.50648664    0.2689562   -2.0768212    1.5703346   439061 
 1945000    1.0472727   -2.0746329   -2.0746329  -0.50372738   0.26909857   -2.0746329    1.5709055   439061 
 1946000    1.0479446   -2.0761471   -2.0761471  -0.50423381   0.26750656   -2.0761471    1.5719133   439061 
 1947000    1.0480169   -2.0769395   -2.0769395  -0.50491769   0.26445449   -2.0769395    1.5720218   439061 
 1948000     1.046183   -2.0751873   -2.0751873  -0.50591637   0.27353846   -2.0751873    1.5692709   439061 
 1949000    1.0460061   -2.0746858   -2.0746858  -0.50568019   0.27078923   -2.0746858    1.5690056   439061 
 1950000    1.0469855   -2.0757052   -2.0757052  -0.50523055    0.2719915   -2.0757052    1.5704746   439061 
 1951000    1.0480405   -2.0762957   -2.0762957  -0.50423848   0.26833911   -2.0762957    1.5720572   439061 
 1952000    1.0477024   -2.0761748   -2.0761748  -0.50462484   0.27044516   -2.0761748      1.57155   439061 
 1953000    1.0474894   -2.0752591   -2.0752591  -0.50402852   0.27023811   -2.0752591    1.5712306   439061 
 1954000    1.0457815   -2.0734025   -2.0734025  -0.50473387    0.2729495   -2.0734025    1.5686686   439061 
 1955000    1.0475814   -2.0761279   -2.0761279  -0.50475942   0.26925343   -2.0761279    1.5713685   439061 
 1956000    1.0467459   -2.0751865   -2.0751865  -0.50507126   0.26849147   -2.0751865    1.5701153   439061 
 1957000    1.0484875    -2.077664    -2.077664  -0.50493638   0.26999588    -2.077664    1.5727276   439061 
 1958000    1.0457875   -2.0749423   -2.0749423  -0.50626452   0.26983659   -2.0749423    1.5686777   439061 
 1959000    1.0474853   -2.0763568   -2.0763568  -0.50513244   0.26914182   -2.0763568    1.5712244   439061 
 1960000    1.0477877    -2.076314    -2.076314  -0.50463606   0.26954334    -2.076314     1.571678   439061 
 1961000       1.0462   -2.0741872   -2.0741872   -0.5048908   0.26652187   -2.0741872    1.5692964   439061 
 1962000    1.0458189   -2.0741193   -2.0741193  -0.50539452   0.27149892   -2.0741193    1.5687248   439061 
 1963000    1.0464651   -2.0740772   -2.0740772  -0.50438314   0.27117559   -2.0740772     1.569694   439061 
 1964000    1.0463677   -2.0744051   -2.0744051  -0.50485715    0.2694851   -2.0744051     1.569548   439061 
 1965000     1.047883   -2.0770915   -2.0770915  -0.50527059   0.26889653   -2.0770915    1.5718209   439061 
 1966000    1.0455679   -2.0732814   -2.0732814  -0.50493312   0.26798631   -2.0732814    1.5683483   439061 
 1967000    1.0449936   -2.0735544   -2.0735544  -0.50606755   0.27417908   -2.0735544    1.5674869   439061 
 1968000    1.0459342   -2.0746435   -2.0746435  -0.50574575   0.27072844   -2.0746435    1.5688977   439061 
 1969000    1.0469306   -2.0758949   -2.0758949  -0.50550261   0.26491001   -2.0758949    1.5703923   439061 
 1970000    1.0456585   -2.0745077   -2.0745077   -0.5060235   0.27264143   -2.0745077    1.5684842   439061 
 1971000    1.0454509   -2.0752338   -2.0752338  -0.50706099   0.27074583   -2.0752338    1.5681728   439061 
 1972000    1.0461462   -2.0776493   -2.0776493   -0.5084335   0.26516702   -2.0776493    1.5692158   439061 
 1973000    1.0458727   -2.0778732   -2.0778732  -0.50906767   0.26331715   -2.0778732    1.5688055   439061 
 1974000     1.045648     -2.07572     -2.07572  -0.50725149   0.26494934     -2.07572    1.5684685   439061 
 1975000    1.0454332   -2.0751756   -2.0751756  -0.50702941   0.26702872   -2.0751756    1.5681462   439061 
 1976000    1.0448736   -2.0734184   -2.0734184  -0.50611162   0.27022368   -2.0734184    1.5673068   439061 
 1977000     1.045808   -2.0747305   -2.0747305  -0.50602205    0.2694614   -2.0747305    1.5687084   439061 
 1978000    1.0452878   -2.0733157   -2.0733157  -0.50538748   0.27233592   -2.0733157    1.5679282   439061 
 1979000    1.0463578   -2.0760001   -2.0760001   -0.5064669   0.27437118   -2.0760001    1.5695332   439061 
 1980000     1.045763   -2.0755666   -2.0755666   -0.5069257   0.27250715   -2.0755666    1.5686409   439061 
 1981000    1.0466641   -2.0762993   -2.0762993  -0.50630674   0.27148492   -2.0762993    1.5699925   439061 
 1982000    1.0454806   -2.0756999   -2.0756999  -0.50748248   0.26682165   -2.0756999    1.5682174   439061 
 1983000    1.0459895    -2.075998    -2.075998  -0.50701725   0.26558138    -2.075998    1.5689807   439061 
 1984000    1.0452251   -2.0760873   -2.0760873  -0.50825327   0.26658408   -2.0760873    1.5678341   439061 
 1985000    1.0458036   -2.0766195   -2.0766195  -0.50791773   0.26609024   -2.0766195    1.5687018   439061 
 1986000    1.0473856   -2.0775469   -2.0775469  -0.50647214   0.26831192   -2.0775469    1.5710748   439061 
 1987000    1.0475207     -2.07667     -2.07667  -0.50539256   0.26654603     -2.07667    1.5712775   439061 
 1988000    1.0463748   -2.0747347   -2.0747347  -0.50517604   0.26947299   -2.0747347    1.5695587   439061 
 1989000    1.0454205   -2.0749592   -2.0749592  -0.50683199   0.27309289   -2.0749592    1.5681272   439061 
 1990000    1.0447268   -2.0735454   -2.0735454  -0.50645876   0.27109495   -2.0735454    1.5670867   439061 
 1991000    1.0459383   -2.0750626   -2.0750626  -0.50615872   0.26730951   -2.0750626    1.5689039   439061 
 1992000    1.0458421   -2.0750807   -2.0750807  -0.50632119   0.26999824   -2.0750807    1.5687595   439061 
 1993000    1.0473573   -2.0771302   -2.0771302  -0.50609787   0.26440361   -2.0771302    1.5710324   439061 
 1994000    1.0453705    -2.075155    -2.075155   -0.5071028   0.26820625    -2.075155    1.5680522   439061 
 1995000    1.0468276   -2.0775171   -2.0775171  -0.50727919   0.26678724   -2.0775171    1.5702379   439061 
 1996000    1.0467277   -2.0779186   -2.0779186  -0.50783067   0.26733995   -2.0779186    1.5700879   439061 
 1997000    1.0450813   -2.0754821   -2.0754821   -0.5078637   0.26761495   -2.0754821    1.5676184   439061 
 1998000    1.0442425    -2.073824    -2.073824  -0.50746388   0.26647113    -2.073824    1.5663601   439061 
 1999000    1.0451611   -2.0757133   -2.0757133  -0.50797521   0.26719078   -2.0757133    1.5677381   439061 
 2000000    1.0455041   -2.0759004   -2.0759004  -0.50764784    0.2642359   -2.0759004    1.5682526   439061 
 2001000    1.0446178   -2.0744473   -2.0744473  -0.50752419   0.26796335   -2.0744473    1.5669231   439061 
 2002000    1.0454162   -2.0764064   -2.0764064  -0.50828578   0.26858096   -2.0764064    1.5681207   439061 
 2003000    1.0455415    -2.076478    -2.076478  -0.50816932    0.2695129    -2.076478    1.5683086   439061 
 2004000    1.0440462   -2.0736485   -2.0736485  -0.50758284   0.26723688   -2.0736485    1.5660657   439061 
 2005000    1.0462951   -2.0764053   -2.0764053  -0.50696624    0.2687079   -2.0764053    1.5694391   439061 
 2006000     1.045739   -2.0768684   -2.0768684  -0.50826344   0.26799249   -2.0768684     1.568605   439061 
 2007000    1.0447543   -2.0750468   -2.0750468  -0.50791893   0.26844639   -2.0750468    1.5671279   439061 
 2008000    1.0446566   -2.0763099   -2.0763099  -0.50932849   0.26852375   -2.0763099    1.5669814   439061 
 2009000    1.0447709   -2.0756552   -2.0756552  -0.50850238   0.26674244   -2.0756552    1.5671528   439061 
 2010000    1.0453517   -2.0765464   -2.0765464   -0.5085224   0.26562773   -2.0765464     1.568024   439061 
 2011000    1.0450809   -2.0751188   -2.0751188  -0.50750102   0.26376994   -2.0751188    1.5676178   439061 
 2012000    1.0450752   -2.0746888   -2.0746888  -0.50707951   0.26778109   -2.0746888    1.5676093   439061 
 2013000    1.0446564   -2.0742019   -2.0742019  -0.50722083   0.26629257   -2.0742019    1.5669811   439061 
 2014000     1.045272    -2.075588    -2.075588  -0.50768363   0.26836984    -2.075588    1.5679044   439061 
 2015000     1.044589   -2.0759538   -2.0759538  -0.50907388   0.26433021   -2.0759538    1.5668799   439061 
 2016000    1.0448638   -2.0766049   -2.0766049  -0.50931279   0.26912974   -2.0766049    1.5672921   439061 
 2017000    1.0447804   -2.0764512   -2.0764512  -0.50928409   0.26984251   -2.0764512    1.5671671   439061 
 2018000    1.0436994   -2.0749207   -2.0749207  -0.50937513   0.26852977   -2.0749207    1.5655455   439061 
 2019000    1.0442463     -2.07535     -2.07535  -0.50898417    0.2671501     -2.07535    1.5663659   439061 
 2020000    1.0453423   -2.0762333   -2.0762333   -0.5082234   0.26904615   -2.0762333    1.5680099   439061 
 2021000    1.0455246   -2.0751412   -2.0751412  -0.50685781   0.27026321   -2.0751412    1.5682834   439061 
 2022000    1.0454024   -2.0750133   -2.0750133  -0.50691331   0.26872369   -2.0750133       1.5681   439061 
 2023000    1.0457774   -2.0773508   -2.0773508  -0.50868824   0.26692402   -2.0773508    1.5686626   439061 
 2024000    1.0455217    -2.077057    -2.077057  -0.50877801   0.26905101    -2.077057    1.5682789   439061 
 2025000    1.0463655   -2.0771294   -2.0771294  -0.50758469   0.26577566   -2.0771294    1.5695447   439061 
 2026000    1.0450616    -2.074493    -2.074493  -0.50690413   0.26958413    -2.074493    1.5675889   439061 
 2027000     1.045281   -2.0768792   -2.0768792  -0.50896127    0.2674386   -2.0768792    1.5679179   439061 
 2028000    1.0449822   -2.0758766   -2.0758766  -0.50840678   0.26521199   -2.0758766    1.5674698   439061 
 2029000    1.0455553   -2.0761852   -2.0761852  -0.50785582   0.26948505   -2.0761852    1.5683294   439061 
 2030000    1.0448208   -2.0757003   -2.0757003  -0.50847268     0.267557   -2.0757003    1.5672276   439061 
 2031000    1.0448983   -2.0748408   -2.0748408  -0.50749687   0.26955796   -2.0748408    1.5673439   439061 
 2032000    1.0457743   -2.0775415   -2.0775415  -0.50888372   0.27147212   -2.0775415    1.5686578   439061 
 2033000    1.0451323   -2.0760224   -2.0760224  -0.50832744   0.27002045   -2.0760224    1.5676949   439061 
 2034000    1.0451623   -2.0761458   -2.0761458  -0.50840598   0.26786886   -2.0761458    1.5677398   439061 
 2035000    1.0443425   -2.0747164   -2.0747164  -0.50820626   0.27137548   -2.0747164    1.5665101   439061 
 2036000    1.0456567   -2.0766543   -2.0766543  -0.50817291    0.2678656   -2.0766543    1.5684814   439061 
 2037000    1.0439478   -2.0755607   -2.0755607  -0.50964255    0.2679285   -2.0755607    1.5659182   439061 
 2038000    1.0458718   -2.0787973   -2.0787973  -0.50999314   0.26349764   -2.0787973    1.5688042   439061 
 2039000    1.0450998   -2.0776903   -2.0776903  -0.51004428   0.26903369   -2.0776903    1.5676461   439061 
 2040000    1.0438945   -2.0761635   -2.0761635  -0.51032535   0.26927879   -2.0761635    1.5658381   439061 
 2041000    1.0444926   -2.0757764   -2.0757764  -0.50904105   0.27264073   -2.0757764    1.5667354   439061 
 2042000    1.0455378   -2.0760104   -2.0760104  -0.50770734   0.26708398   -2.0760104    1.5683031   439061 
 2043000    1.0455554   -2.0771152   -2.0771152  -0.50878561   0.26652411   -2.0771152    1.5683296   439061 
 2044000    1.0439381   -2.0770059   -2.0770059   -0.5111023   0.26855355   -2.0770059    1.5659036   439061 
 2045000    1.0439828   -2.0750733   -2.0750733  -0.50910265   0.26890495   -2.0750733    1.5659706   439061 
 2046000    1.0452377   -2.0765823   -2.0765823  -0.50872933   0.26997986   -2.0765823     1.567853   439061 
 2047000    1.0445787   -2.0753334   -2.0753334  -0.50846902   0.26660279   -2.0753334    1.5668644   439061 
 2048000    1.0432281   -2.0738737   -2.0738737  -0.50903512   0.26535616   -2.0738737    1.5648386   439061 
 2049000    1.0449555   -2.0771459   -2.0771459  -0.50971612   0.26484383   -2.0771459    1.5674297   439061 
 2050000    1.0443141   -2.0774189   -2.0774189  -0.51095136   0.26667347   -2.0774189    1.5664675   439061 
 2051000    1.0438707   -2.0767087   -2.0767087  -0.51090613   0.27082094   -2.0767087    1.5658025   439061 
 2052000    1.0446239    -2.076104    -2.076104  -0.50917181   0.27256678    -2.076104    1.5669322   439061 
 2053000    1.0439206   -2.0757771   -2.0757771  -0.50989968   0.26910826   -2.0757771    1.5658774   439061 
 2054000    1.0434447   -2.0753846   -2.0753846  -0.51022122   0.26738804   -2.0753846    1.5651634   439061 
 2055000    1.0446988   -2.0764609   -2.0764609  -0.50941618   0.26680064   -2.0764609    1.5670447   439061 
 2056000    1.0441788   -2.0761811   -2.0761811  -0.50991649   0.26640356   -2.0761811    1.5662646   439061 
 2057000    1.0429042   -2.0752794   -2.0752794  -0.51092665   0.26820687   -2.0752794    1.5643528   439061 
 2058000    1.0443224   -2.0765978   -2.0765978  -0.51011783   0.26925769   -2.0765978      1.56648   439061 
 2059000     1.044182   -2.0758106   -2.0758106  -0.50954117   0.26657502   -2.0758106    1.5662695   439061 
 2060000    1.0452388   -2.0764249   -2.0764249  -0.50857024    0.2701386   -2.0764249    1.5678547   439061 
 2061000     1.044314   -2.0747143   -2.0747143  -0.50824689   0.27285826   -2.0747143    1.5664674   439061 
 2062000    1.0436119    -2.073881    -2.073881   -0.5084667   0.26995791    -2.073881    1.5654143   439061 
 2063000    1.0447744   -2.0748186   -2.0748186  -0.50766064   0.26970878   -2.0748186     1.567158   439061 
 2064000    1.0456788   -2.0758178   -2.0758178  -0.50730311   0.27103167   -2.0758178    1.5685147   439061 
 2065000    1.0432855   -2.0727969   -2.0727969  -0.50787223   0.27059838   -2.0727969    1.5649247   439061 
 2066000    1.0452104   -2.0759204   -2.0759204  -0.50810833   0.26741767   -2.0759204     1.567812   439061 
 2067000    1.0444305   -2.0746536   -2.0746536  -0.50801142   0.26705884   -2.0746536    1.5666421   439061 
 2068000    1.0446427    -2.075204    -2.075204  -0.50824352   0.26974318    -2.075204    1.5669605   439061 
 2069000     1.043902   -2.0744214   -2.0744214  -0.50857197   0.26639434   -2.0744214    1.5658494   439061 
 2070000    1.0436258   -2.0741629   -2.0741629  -0.50872772   0.27470613   -2.0741629    1.5654352   439061 
 2071000    1.0438102   -2.0747437   -2.0747437  -0.50903188   0.26466141   -2.0747437    1.5657118   439061 
 2072000    1.0442325   -2.0757597   -2.0757597  -0.50941448   0.26380236   -2.0757597    1.5663452   439061 
 2073000    1.0432615    -2.074693    -2.074693  -0.50980425   0.26994286    -2.074693    1.5648888   439061 
 2074000    1.0432416   -2.0747131   -2.0747131  -0.50985426   0.26976964   -2.0747131    1.5648589   439061 
 2075000    1.0432124   -2.0746272   -2.0746272  -0.50981219   0.26710395   -2.0746272     1.564815   439061 
 2076000    1.0435698   -2.0747031   -2.0747031    -0.509352   0.26578447   -2.0747031    1.5653511   439061 
 2077000    1.0437716   -2.0750269   -2.0750269  -0.50937309   0.26647787   -2.0750269    1.5656538   439061 
 2078000    1.0445475    -2.076083    -2.076083  -0.50926537     0.265621    -2.076083    1.5668177   439061 
 2079000    1.0447973    -2.076155    -2.076155  -0.50896259   0.26766345    -2.076155    1.5671924   439061 
 2080000    1.0444429   -2.0751069   -2.0751069  -0.50844607   0.26901046   -2.0751069    1.5666608   439061 
 2081000     1.044477   -2.0737908   -2.0737908  -0.50707881   0.27006507   -2.0737908     1.566712   439061 
 2082000    1.0454506   -2.0767062   -2.0767062  -0.50853378   0.26469013   -2.0767062    1.5681724   439061 
 2083000    1.0433848   -2.0738192   -2.0738192   -0.5087455   0.26871439   -2.0738192    1.5650737   439061 
 2084000     1.045203   -2.0763045   -2.0763045  -0.50850352   0.26296892   -2.0763045     1.567801   439061 
 2085000     1.045573   -2.0755709   -2.0755709  -0.50721503   0.27180192   -2.0755709    1.5683559   439061 
 2086000    1.0447582   -2.0748941   -2.0748941  -0.50776041   0.27360225   -2.0748941    1.5671337   439061 
 2087000     1.044859   -2.0753343   -2.0753343  -0.50804935   0.26935389   -2.0753343     1.567285   439061 
 2088000    1.0450506   -2.0749535   -2.0749535  -0.50738124    0.2688934   -2.0749535    1.5675723   439061 
 2089000    1.0463837   -2.0767257   -2.0767257  -0.50715375    0.2699861   -2.0767257    1.5695719   439061 
 2090000    1.0458503   -2.0772864   -2.0772864  -0.50851454   0.26916709   -2.0772864    1.5687718   439061 
 2091000    1.0457159   -2.0765937   -2.0765937  -0.50802344   0.26553972   -2.0765937    1.5685703   439061 
 2092000    1.0446146   -2.0757347   -2.0757347  -0.50881637   0.26791677   -2.0757347    1.5669183   439061 
 2093000    1.0451207   -2.0768918   -2.0768918  -0.50921438   0.26886883   -2.0768918    1.5676775   439061 
 2094000    1.0438379   -2.0759577   -2.0759577   -0.5102044   0.26620675   -2.0759577    1.5657533   439061 
 2095000    1.0451843   -2.0778513   -2.0778513   -0.5100785   0.26234378   -2.0778513    1.5677728   439061 
 2096000    1.0436456   -2.0748844   -2.0748844   -0.5094195   0.26756877   -2.0748844    1.5654649   439061 
 2097000    1.0439339   -2.0757044   -2.0757044  -0.50980708   0.26879408   -2.0757044    1.5658973   439061 
 2098000     1.042648   -2.0747293   -2.0747293  -0.51076077   0.26442937   -2.0747293    1.5639685   439061 
 2099000    1.0430735   -2.0742639   -2.0742639  -0.50965725   0.26411268   -2.0742639    1.5646066   439061 
 2100000    1.0442264   -2.0751071   -2.0751071  -0.50877102   0.26222439   -2.0751071    1.5663361   439061 
 2101000    1.0457515   -2.0760313   -2.0760313  -0.50740769   0.27089068   -2.0760313    1.5686237   439061 
 2102000    1.0434551   -2.0737428   -2.0737428   -0.5085637   0.26320525   -2.0737428    1.5651791   439061 
 2103000    1.0448721   -2.0754956   -2.0754956  -0.50819103   0.26871993   -2.0754956    1.5673046   439061 
 2104000    1.0453406   -2.0763787   -2.0763787  -0.50837134   0.26747566   -2.0763787    1.5680073   439061 
 2105000    1.0439805   -2.0742841   -2.0742841  -0.50831694   0.26507818   -2.0742841    1.5659672   439061 
 2106000    1.0448009   -2.0745371   -2.0745371  -0.50733931   0.27108022   -2.0745371    1.5671978   439061 
 2107000    1.0442146   -2.0737219   -2.0737219  -0.50740354   0.26488204   -2.0737219    1.5663183   439061 
 2108000    1.0438964   -2.0741057   -2.0741057  -0.50826462   0.26892464   -2.0741057    1.5658411   439061 
 2109000     1.044089    -2.075688    -2.075688  -0.50955803   0.26886037    -2.075688      1.56613   439061 
 2110000    1.0442239   -2.0755016   -2.0755016  -0.50916933   0.26301013   -2.0755016    1.5663323   439061 
 2111000    1.0441166   -2.0757541   -2.0757541  -0.50958273   0.26768708   -2.0757541    1.5661714   439061 
 2112000    1.0435203   -2.0756386   -2.0756386  -0.51036175   0.26473717   -2.0756386    1.5652769   439061 
 2113000    1.0443005   -2.0760807   -2.0760807  -0.50963347   0.26862793   -2.0760807    1.5664473   439061 
 2114000    1.0446071   -2.0758642   -2.0758642   -0.5089571   0.26434391   -2.0758642    1.5669071   439061 
 2115000    1.0450515   -2.0764256   -2.0764256  -0.50885192   0.26877332   -2.0764256    1.5675737   439061 
 2116000    1.0435815   -2.0749185   -2.0749185  -0.50954977   0.26532703   -2.0749185    1.5653687   439061 
 2117000    1.0438769   -2.0753394   -2.0753394  -0.50952763   0.26842516   -2.0753394    1.5658118   439061 
 2118000    1.0449645   -2.0769907   -2.0769907  -0.50954759   0.27215336   -2.0769907    1.5674431   439061 
 2119000    1.0452215   -2.0778189   -2.0778189  -0.50999025   0.26583741   -2.0778189    1.5678287   439061 
 2120000    1.0445722    -2.076976    -2.076976  -0.51012123   0.26675887    -2.076976    1.5668548   439061 
 2121000    1.0443994   -2.0759837   -2.0759837  -0.50938816   0.26734953   -2.0759837    1.5665955   439061 
 2122000    1.0451948   -2.0779799   -2.0779799  -0.51019121   0.26356588   -2.0779799    1.5677887   439061 
 2123000    1.0437953   -2.0759153   -2.0759153  -0.51022588   0.26710481   -2.0759153    1.5656894   439061 
 2124000    1.0447632   -2.0761333   -2.0761333  -0.50899202   0.26749755   -2.0761333    1.5671413   439061 
 2125000    1.0440372   -2.0765732   -2.0765732    -0.510521   0.26812869   -2.0765732    1.5660522   439061 
 2126000    1.0433293   -2.0759116   -2.0759116  -0.51092133    0.2652375   -2.0759116    1.5649903   439061 
 2127000    1.0438426   -2.0763232   -2.0763232  -0.51056288   0.26496622   -2.0763232    1.5657603   439061 
 2128000    1.0432321   -2.0754224   -2.0754224  -0.51057777   0.26579836   -2.0754224    1.5648446   439061 
 2129000    1.0438774   -2.0764312   -2.0764312  -0.51061869   0.26474033   -2.0764312    1.5658125   439061 
 2130000    1.0430886   -2.0759586   -2.0759586  -0.51132928   0.26588648   -2.0759586    1.5646294   439061 
 2131000    1.0435157    -2.075729    -2.075729  -0.51045904   0.26975861    -2.075729      1.56527   439061 
 2132000    1.0447733   -2.0778659   -2.0778659  -0.51070958   0.26333381   -2.0778659    1.5671563   439061 
 2133000    1.0429434   -2.0747508   -2.0747508  -0.51033932   0.26709395   -2.0747508    1.5644115   439061 
 2134000    1.0425764   -2.0737259   -2.0737259  -0.50986495   0.26601575   -2.0737259     1.563861   439061 
 2135000    1.0452307   -2.0776354   -2.0776354  -0.50979284   0.26668332   -2.0776354    1.5678425   439061 
 2136000    1.0450479   -2.0764553   -2.0764553  -0.50888708   0.26998825   -2.0764553    1.5675682   439061 
 2137000    1.0446505   -2.0759683   -2.0759683  -0.50899614   0.26621777   -2.0759683    1.5669721   439061 
 2138000     1.044147    -2.074957    -2.074957  -0.50874011    0.2645166    -2.074957    1.5662169   439061 
 2139000    1.0447876   -2.0748175   -2.0748175  -0.50763975   0.26453997   -2.0748175    1.5671778   439061 
 2140000    1.0444987   -2.0751663   -2.0751663  -0.50842187   0.26528509   -2.0751663    1.5667444   439061 
 2141000    1.0448559   -2.0747023   -2.0747023  -0.50742207   0.26510664   -2.0747023    1.5672803   439061 
 2142000    1.0454635   -2.0753335   -2.0753335  -0.50714175    0.2645865   -2.0753335    1.5681917   439061 
 2143000    1.0438548   -2.0729048   -2.0729048  -0.50712618   0.27159274   -2.0729048    1.5657786   439061 
 2144000    1.0432519   -2.0724629   -2.0724629  -0.50758852   0.26643442   -2.0724629    1.5648743   439061 
 2145000    1.0428825   -2.0727242   -2.0727242  -0.50840397   0.26707442   -2.0727242    1.5643202   439061 
 2146000    1.0434979   -2.0746115   -2.0746115  -0.50936819   0.26292829   -2.0746115    1.5652433   439061 
 2147000    1.0455446   -2.0772351   -2.0772351  -0.50892184    0.2663297   -2.0772351    1.5683133   439061 
 2148000    1.0431047   -2.0728114   -2.0728114  -0.50815798   0.27163553   -2.0728114    1.5646535   439061 
 2149000    1.0443634   -2.0754627   -2.0754627  -0.50892114   0.26616806   -2.0754627    1.5665416   439061 
 2150000    1.0431735   -2.0752242   -2.0752242  -0.51046744   0.26681938   -2.0752242    1.5647567   439061 
 2151000    1.0440984   -2.0756456   -2.0756456  -0.50950165    0.2697624   -2.0756456     1.566144   439061 
 2152000    1.0443274   -2.0761197   -2.0761197  -0.50963221   0.27356558   -2.0761197    1.5664875   439061 
 2153000    1.0439439   -2.0773372   -2.0773372   -0.5114248    0.2703797   -2.0773372    1.5659124   439061 
 2154000    1.0424914   -2.0752959   -2.0752959  -0.51156226   0.26640918   -2.0752959    1.5637336   439061 
 2155000    1.0433326    -2.077255    -2.077255  -0.51225966   0.26721646    -2.077255    1.5649954   439061 
 2156000    1.0430444   -2.0775513   -2.0775513  -0.51298829   0.26621121   -2.0775513     1.564563   439061 
 2157000    1.0413089   -2.0751174   -2.0751174  -0.51315761    0.2713245   -2.0751174    1.5619598   439061 
 2158000    1.0420873   -2.0769285   -2.0769285   -0.5138012   0.26817496   -2.0769285    1.5631273   439061 
 2159000    1.0420309   -2.0771047   -2.0771047  -0.51406198   0.26687759   -2.0771047    1.5630428   439061 
 2160000    1.0417978   -2.0765407   -2.0765407  -0.51384755   0.26649896   -2.0765407    1.5626931   439061 
 2161000    1.0424823   -2.0762663   -2.0762663  -0.51254637   0.26678165   -2.0762663    1.5637199   439061 
 2162000    1.0429711   -2.0772052   -2.0772052  -0.51275208   0.26358272   -2.0772052    1.5644531   439061 
 2163000    1.0428404   -2.0771033   -2.0771033  -0.51284635   0.26985046   -2.0771033     1.564257   439061 
 2164000    1.0424202   -2.0753158   -2.0753158  -0.51168908   0.27007018   -2.0753158    1.5636267   439061 
 2165000     1.043169   -2.0767016   -2.0767016  -0.51195166   0.26681104   -2.0767016    1.5647499   439061 
 2166000    1.0427605    -2.076253    -2.076253  -0.51211579   0.26629025    -2.076253    1.5641372   439061 
 2167000      1.04375   -2.0767588   -2.0767588  -0.51113731   0.26056534   -2.0767588    1.5656215   439061 
 2168000      1.04213   -2.0741434   -2.0741434  -0.51095185   0.26249295   -2.0741434    1.5631915   439061 
 2169000    1.0442716   -2.0772199   -2.0772199  -0.51081606   0.26755024   -2.0772199    1.5664039   439061 
 2170000    1.0431506   -2.0761684   -2.0761684  -0.51144604   0.26330439   -2.0761684    1.5647223   439061 
 2171000    1.0423136   -2.0756284   -2.0756284  -0.51216146    0.2652218   -2.0756284    1.5634669   439061 
 2172000    1.0415434   -2.0742348   -2.0742348  -0.51192333   0.26495665   -2.0742348    1.5623115   439061 
 2173000    1.0431118   -2.0766903   -2.0766903  -0.51202614   0.26179472   -2.0766903    1.5646641   439061 
 2174000    1.0427369    -2.076976    -2.076976   -0.5128742   0.26492947    -2.076976    1.5641018   439061 
 2175000    1.0430087   -2.0774175   -2.0774175  -0.51290799   0.26569609   -2.0774175    1.5645095   439061 
 2176000    1.0421004   -2.0775492   -2.0775492  -0.51440211   0.26517643   -2.0775492    1.5631471   439061 
 2177000     1.041165   -2.0759536   -2.0759536   -0.5142097   0.26282508   -2.0759536    1.5617439   439061 
 2178000    1.0410897   -2.0740401   -2.0740401   -0.5124091   0.26478914   -2.0740401     1.561631   439061 
 2179000    1.0433642   -2.0770662   -2.0770662  -0.51202351   0.26381668   -2.0770662    1.5650427   439061 
 2180000    1.0428425   -2.0764171   -2.0764171  -0.51215693   0.26479592   -2.0764171    1.5642602   439061 
 2181000    1.0421518   -2.0762303   -2.0762303  -0.51300616   0.27044867   -2.0762303    1.5632242   439061 
 2182000    1.0425468   -2.0760414   -2.0760414  -0.51222468   0.26103314   -2.0760414    1.5638167   439061 
 2183000     1.041533   -2.0750754   -2.0750754  -0.51277948   0.26657793   -2.0750754    1.5622959   439061 
 2184000    1.0440793   -2.0766091   -2.0766091   -0.5104937   0.26542024   -2.0766091    1.5661154   439061 
 2185000    1.0442478   -2.0764463   -2.0764463  -0.51007823   0.26707093   -2.0764463    1.5663681   439061 
 2186000    1.0423812   -2.0740245   -2.0740245  -0.51045631   0.26799922   -2.0740245    1.5635682   439061 
 2187000    1.0420358   -2.0736678   -2.0736678  -0.51061767   0.26531949   -2.0736678    1.5630502   439061 
 2188000    1.0432379   -2.0752575   -2.0752575  -0.51040422   0.26581439   -2.0752575    1.5648533   439061 
 2189000    1.0439046   -2.0747086   -2.0747086  -0.50885535   0.27202965   -2.0747086    1.5658533   439061 
 2190000    1.0436985    -2.075503    -2.075503   -0.5099589   0.26402646    -2.075503    1.5655441   439061 
 2191000    1.0441564   -2.0769087   -2.0769087  -0.51067768   0.26913448   -2.0769087    1.5662311   439061 
 2192000    1.0432934   -2.0757637   -2.0757637  -0.51082715   0.26969728   -2.0757637    1.5649365   439061 
 2193000     1.043384   -2.0765562   -2.0765562  -0.51148381   0.26471492   -2.0765562    1.5650724   439061 
 2194000    1.0428509   -2.0756872   -2.0756872  -0.51141439   0.26718743   -2.0756872    1.5642728   439061 
 2195000      1.04302   -2.0743938   -2.0743938  -0.50986741   0.26929006   -2.0743938    1.5645264   439061 
 2196000     1.044367   -2.0753962   -2.0753962  -0.50884926   0.26927579   -2.0753962    1.5665469   439061 
 2197000    1.0437233   -2.0764141   -2.0764141   -0.5108327   0.26284501   -2.0764141    1.5655814   439061 
 2198000     1.043313   -2.0754466   -2.0754466  -0.51048064   0.26465924   -2.0754466    1.5649659   439061 
 2199000    1.0435327   -2.0764576   -2.0764576  -0.51116208   0.26335816   -2.0764576    1.5652955   439061 
 2200000    1.0437753   -2.0761729   -2.0761729  -0.51051344   0.26580646   -2.0761729    1.5656594   439061 
 2201000     1.043357    -2.076307    -2.076307  -0.51127512   0.26388454    -2.076307    1.5650319   439061 
 2202000    1.0432055   -2.0770444   -2.0770444  -0.51223974   0.26661885   -2.0770444    1.5648047   439061 
 2203000    1.0432294   -2.0767119   -2.0767119  -0.51187131   0.26665452   -2.0767119    1.5648406   439061 
 2204000    1.0433074   -2.0770125   -2.0770125  -0.51205488   0.25976395   -2.0770125    1.5649576   439061 
 2205000    1.0414054   -2.0736133   -2.0736133  -0.51150866   0.26930274   -2.0736133    1.5621046   439061 
 2206000    1.0418374   -2.0731158   -2.0731158  -0.51036325   0.26364447   -2.0731158    1.5627526   439061 
 2207000    1.0435545   -2.0754591   -2.0754591  -0.51013091   0.26260452   -2.0754591    1.5653282   439061 
 2208000    1.0431143   -2.0750281   -2.0750281  -0.51036015   0.26674951   -2.0750281    1.5646679   439061 
 2209000     1.044514   -2.0777744   -2.0777744  -0.51100692   0.26780685   -2.0777744    1.5667675   439061 
 2210000    1.0432744   -2.0762148   -2.0762148  -0.51130673   0.26635017   -2.0762148    1.5649081   439061 
 2211000    1.0427347    -2.076626    -2.076626  -0.51252746   0.26378814    -2.076626    1.5640985   439061 
 2212000     1.040625   -2.0740011   -2.0740011  -0.51306715   0.27095351   -2.0740011    1.5609339   439061 
 2213000    1.0417411   -2.0747989   -2.0747989  -0.51219083   0.26545134   -2.0747989    1.5626081   439061 
 2214000    1.0412121   -2.0745548   -2.0745548  -0.51274018   0.26166161   -2.0745548    1.5618146   439061 
 2215000    1.0427853   -2.0770329   -2.0770329  -0.51285859   0.26067913   -2.0770329    1.5641743   439061 
 2216000    1.0428215   -2.0762431   -2.0762431  -0.51201429   0.26829401   -2.0762431    1.5642288   439061 
 2217000    1.0405588   -2.0726414   -2.0726414  -0.51180679   0.26626704   -2.0726414    1.5608346   439061 
 2218000    1.0434026   -2.0767401   -2.0767401  -0.51163978   0.26689524   -2.0767401    1.5651003   439061 
 2219000    1.0429387   -2.0751481   -2.0751481  -0.51074359   0.26759421   -2.0751481    1.5644045   439061 
 2220000    1.0421519   -2.0763068   -2.0763068  -0.51308247   0.26251206   -2.0763068    1.5632244   439061 
 2221000    1.0419975   -2.0768898   -2.0768898  -0.51389719    0.2633027   -2.0768898    1.5629926   439061 
 2222000    1.0425173    -2.076937    -2.076937   -0.5131647   0.26708038    -2.076937    1.5637723   439061 
 2223000    1.0426337   -2.0765218   -2.0765218  -0.51257473   0.26745193   -2.0765218    1.5639471   439061 
 2224000    1.0426303   -2.0776935   -2.0776935  -0.51375167   0.26378172   -2.0776935    1.5639418   439061 
 2225000    1.0427167   -2.0780135   -2.0780135    -0.513942   0.26221861   -2.0780135    1.5640715   439061 
 2226000    1.0427159   -2.0756695   -2.0756695  -0.51159926   0.26681637   -2.0756695    1.5640702   439061 
 2227000    1.0418429   -2.0753975   -2.0753975  -0.51263673   0.26343246   -2.0753975    1.5627608   439061 
 2228000    1.0424752   -2.0770275   -2.0770275  -0.51331826   0.25986815   -2.0770275    1.5637092   439061 
 2229000    1.0428448   -2.0788282   -2.0788282  -0.51456449   0.26070926   -2.0788282    1.5642637   439061 
 2230000    1.0408612   -2.0763791   -2.0763791  -0.51509076    0.2643267   -2.0763791    1.5612883   439061 
 2231000    1.0413204   -2.0768161   -2.0768161  -0.51483913   0.26304975   -2.0768161     1.561977   439061 
 2232000    1.0404207   -2.0759082   -2.0759082  -0.51528072   0.25709886   -2.0759082    1.5606275   439061 
 2233000    1.0414134   -2.0762823   -2.0762823  -0.51416583   0.26531969   -2.0762823    1.5621165   439061 
 2234000    1.0405239   -2.0749199   -2.0749199  -0.51413764    0.2627132   -2.0749199    1.5607822   439061 
 2235000    1.0408068   -2.0757693   -2.0757693  -0.51456257   0.26297209   -2.0757693    1.5612067   439061 
 2236000    1.0409726   -2.0768378   -2.0768378  -0.51538243   0.26166918   -2.0768378    1.5614553   439061 
 2237000    1.0426821   -2.0778112   -2.0778112  -0.51379166   0.26412815   -2.0778112    1.5640196   439061 
 2238000    1.0424791   -2.0780594   -2.0780594   -0.5143444   0.26005205   -2.0780594     1.563715   439061 
 2239000    1.0412523   -2.0753495   -2.0753495  -0.51347469   0.26341988   -2.0753495    1.5618748   439061 
 2240000    1.0416014   -2.0761424   -2.0761424  -0.51374384   0.26909814   -2.0761424    1.5623985   439061 
 2241000     1.040756   -2.0750164   -2.0750164  -0.51388594   0.26245823   -2.0750164    1.5611304   439061 
 2242000    1.0415492   -2.0777749   -2.0777749  -0.51545458   0.26710201   -2.0777749    1.5623203   439061 
 2243000    1.0418427   -2.0769588   -2.0769588  -0.51419837   0.26082939   -2.0769588    1.5627604   439061 
 2244000    1.0430982   -2.0778314   -2.0778314  -0.51318769   0.26186266   -2.0778314    1.5646438   439061 
 2245000     1.042027   -2.0769346   -2.0769346  -0.51389758   0.26393387   -2.0769346     1.563037   439061 
 2246000    1.0413642   -2.0758116   -2.0758116  -0.51376884   0.26713049   -2.0758116    1.5620428   439061 
 2247000    1.0423861   -2.0785427   -2.0785427  -0.51496715   0.26215752   -2.0785427    1.5635756   439061 
 2248000    1.0408299   -2.0756927   -2.0756927  -0.51445136   0.26451409   -2.0756927    1.5612414   439061 
 2249000    1.0420192   -2.0767459   -2.0767459  -0.51372063   0.26875526   -2.0767459    1.5630253   439061 
 2250000    1.0419428    -2.077152    -2.077152  -0.51424139   0.25740364    -2.077152    1.5629106   439061 
 2251000    1.0422913   -2.0768548   -2.0768548  -0.51342139   0.26194579   -2.0768548    1.5634334   439061 
 2252000    1.0431286   -2.0780212   -2.0780212  -0.51333186   0.26284917   -2.0780212    1.5646893   439061 
 2253000    1.0421583   -2.0755118   -2.0755118  -0.51227784   0.26341222   -2.0755118    1.5632339   439061 
 2254000    1.0433747   -2.0776157   -2.0776157   -0.5125572   0.26168968   -2.0776157    1.5650585   439061 
 2255000    1.0420572   -2.0762598   -2.0762598   -0.5131775   0.26452283   -2.0762598    1.5630823   439061 
 2256000    1.0407946   -2.0748434   -2.0748434  -0.51365506   0.26597729   -2.0748434    1.5611884   439061 
 2257000    1.0420366    -2.076059    -2.076059  -0.51300759   0.26743386    -2.076059    1.5630514   439061 
 2258000    1.0419375     -2.07671     -2.07671  -0.51380736   0.26287299     -2.07671    1.5629026   439061 
 2259000    1.0418173   -2.0769244   -2.0769244  -0.51420195   0.27087426   -2.0769244    1.5627224   439061 
 2260000    1.0411276   -2.0754146   -2.0754146  -0.51372688   0.26855612   -2.0754146    1.5616878   439061 
 2261000    1.0425188   -2.0776653   -2.0776653  -0.51389066   0.26287334   -2.0776653    1.5637747   439061 
 2262000    1.0421701   -2.0777672   -2.0777672  -0.51451553   0.26126355   -2.0777672    1.5632516   439061 
 2263000    1.0420201   -2.0762578   -2.0762578  -0.51323129    0.2651901   -2.0762578    1.5630265   439061 
 2264000    1.0416421   -2.0757002   -2.0757002   -0.5132406   0.26663128   -2.0757002    1.5624596   439061 
 2265000    1.0418812   -2.0765533   -2.0765533  -0.51373503   0.26012043   -2.0765533    1.5628183   439061 
 2266000    1.0415223   -2.0755552   -2.0755552  -0.51327531   0.26270478   -2.0755552    1.5622799   439061 
 2267000     1.040367   -2.0748379   -2.0748379  -0.51429099   0.26238469   -2.0748379    1.5605469   439061 
 2268000    1.0404107   -2.0738899   -2.0738899  -0.51327742   0.26596083   -2.0738899    1.5606125   439061 
 2269000    1.0410029   -2.0751386   -2.0751386  -0.51363779   0.26365038   -2.0751386    1.5615008   439061 
 2270000    1.0407704   -2.0754306   -2.0754306  -0.51427853   0.26111382   -2.0754306    1.5611521   439061 
 2271000    1.0411912   -2.0748445   -2.0748445  -0.51306129   0.26280586   -2.0748445    1.5617832   439061 
 2272000    1.0405883   -2.0740641   -2.0740641  -0.51318522   0.26324644   -2.0740641    1.5608789   439061 
 2273000    1.0421321   -2.0750127   -2.0750127  -0.51181814    0.2671459   -2.0750127    1.5631945   439061 
 2274000    1.0417387   -2.0740385   -2.0740385  -0.51143403   0.26681791   -2.0740385    1.5626044   439061 
 2275000    1.0420282   -2.0742599   -2.0742599  -0.51122111   0.26911629   -2.0742599    1.5630388   439061 
 2276000    1.0403497    -2.074544    -2.074544  -0.51402292   0.26572048    -2.074544     1.560521   439061 
 2277000    1.0407469   -2.0759819   -2.0759819  -0.51486509   0.26232173   -2.0759819    1.5611168   439061 
 2278000    1.0398673   -2.0744062   -2.0744062  -0.51460881    0.2643941   -2.0744062    1.5597974   439061 
 2279000    1.0422152   -2.0763895   -2.0763895  -0.51307034   0.25964811   -2.0763895    1.5633192   439061 
 2280000    1.0402632   -2.0751091   -2.0751091  -0.51471788   0.26541342   -2.0751091    1.5603913   439061 
 2281000    1.0409937   -2.0754184   -2.0754184  -0.51393137   0.25852822   -2.0754184     1.561487   439061 
 2282000    1.0418138   -2.0753113   -2.0753113  -0.51259407   0.26782638   -2.0753113    1.5627172   439061 
 2283000    1.0414496   -2.0755712   -2.0755712  -0.51340034   0.26331377   -2.0755712    1.5621709   439061 
 2284000    1.0431949   -2.0770368   -2.0770368  -0.51224809   0.26997488   -2.0770368    1.5647887   439061 
 2285000    1.0419529   -2.0775795   -2.0775795   -0.5146537   0.26093742   -2.0775795    1.5629258   439061 
 2286000    1.0414168   -2.0751592   -2.0751592  -0.51303754   0.26415359   -2.0751592    1.5621217   439061 
 2287000    1.0398165   -2.0744083   -2.0744083  -0.51468704   0.26534882   -2.0744083    1.5597212   439061 
 2288000    1.0407817   -2.0750956   -2.0750956  -0.51392661   0.26529637   -2.0750956     1.561169   439061 
 2289000     1.041815   -2.0768244   -2.0768244  -0.51410548   0.26345381   -2.0768244    1.5627189   439061 
 2290000    1.0413727   -2.0762593   -2.0762593  -0.51420386   0.26969319   -2.0762593    1.5620554   439061 
 2291000    1.0404487   -2.0747638   -2.0747638  -0.51409432   0.26659281   -2.0747638    1.5606695   439061 
 2292000    1.0420263   -2.0759724   -2.0759724  -0.51293655   0.26518677   -2.0759724    1.5630359   439061 
 2293000    1.0425856   -2.0770876   -2.0770876  -0.51321274    0.2637137   -2.0770876    1.5638748   439061 
 2294000     1.042554   -2.0767919   -2.0767919  -0.51296448   0.26070289   -2.0767919    1.5638274   439061 
 2295000    1.0420292   -2.0764845   -2.0764845   -0.5134443   0.26480085   -2.0764845    1.5630402   439061 
 2296000     1.041668   -2.0752223   -2.0752223  -0.51272381   0.26414967   -2.0752223    1.5624985   439061 
 2297000    1.0428188   -2.0753388   -2.0753388  -0.51111409    0.2660621   -2.0753388    1.5642247   439061 
 2298000    1.0422622   -2.0752403   -2.0752403  -0.51185044   0.26320903   -2.0752403    1.5633898   439061 
 2299000    1.0412844   -2.0737646   -2.0737646  -0.51184158    0.2669394   -2.0737646     1.561923   439061 
 2300000    1.0413299    -2.074729    -2.074729  -0.51273776   0.26673461    -2.074729    1.5619913   439061 
 2301000    1.0418235   -2.0757339   -2.0757339  -0.51300223   0.26749236   -2.0757339    1.5627317   439061 
 2302000    1.0405999   -2.0749651   -2.0749651  -0.51406883   0.26915592   -2.0749651    1.5608963   439061 
 2303000    1.0418678   -2.0766577   -2.0766577  -0.51385962   0.26116545   -2.0766577    1.5627981   439061 
 2304000    1.0430918   -2.0766176   -2.0766176  -0.51198355   0.26426943   -2.0766176    1.5646341   439061 
 2305000    1.0429862   -2.0754299   -2.0754299  -0.51095415   0.26476055   -2.0754299    1.5644758   439061 
 2306000    1.0432624   -2.0745479   -2.0745479  -0.50965791   0.26520161   -2.0745479      1.56489   439061 
 2307000    1.0425753   -2.0749711   -2.0749711  -0.51111175   0.26532679   -2.0749711    1.5638594   439061 
 2308000    1.0416831   -2.0742417   -2.0742417  -0.51172053   0.26169899   -2.0742417    1.5625212   439061 
 2309000    1.0429681   -2.0749528   -2.0749528  -0.51050418    0.2617963   -2.0749528    1.5644486   439061 
 2310000    1.0425596   -2.0762214   -2.0762214  -0.51238552   0.26260002   -2.0762214    1.5638359   439061 
 2311000    1.0416145   -2.0746335   -2.0746335  -0.51221528   0.27035307   -2.0746335    1.5624182   439061 
 2312000    1.0418459   -2.0746791   -2.0746791  -0.51191382   0.26735314   -2.0746791    1.5627653   439061 
 2313000    1.0400607    -2.073699    -2.073699  -0.51361155   0.26448016    -2.073699    1.5600874   439061 
 2314000    1.0427782   -2.0763824   -2.0763824   -0.5122187   0.26044496   -2.0763824    1.5641637   439061 
 2315000    1.0436363   -2.0770255   -2.0770255  -0.51157451   0.26480584   -2.0770255    1.5654509   439061 
 2316000    1.0414666   -2.0747588   -2.0747588  -0.51256242   0.26638001   -2.0747588    1.5621964   439061 
 2317000    1.0419501   -2.0757681   -2.0757681  -0.51284659   0.26854588   -2.0757681    1.5629215   439061 
 2318000    1.0408741   -2.0741894   -2.0741894  -0.51288188   0.26580561   -2.0741894    1.5613075   439061 
 2319000    1.0405305    -2.074243    -2.074243  -0.51345081   0.26514479    -2.074243    1.5607922   439061 
 2320000    1.0416641   -2.0759225   -2.0759225  -0.51342991   0.26438313   -2.0759225    1.5624925   439061 
 2321000    1.0412313   -2.0744243   -2.0744243  -0.51258097   0.25966832   -2.0744243    1.5618433   439061 
 2322000    1.0422534   -2.0754531   -2.0754531  -0.51207656   0.26772864   -2.0754531    1.5633765   439061 
 2323000    1.0418772   -2.0755512   -2.0755512  -0.51273902    0.2651694   -2.0755512    1.5628122   439061 
 2324000    1.0417369   -2.0752851   -2.0752851  -0.51268335   0.26561416   -2.0752851    1.5626018   439061 
 2325000    1.0414588   -2.0746707   -2.0746707   -0.5124861   0.26476277   -2.0746707    1.5621846   439061 
 2326000    1.0417273   -2.0755611   -2.0755611  -0.51297374   0.26376453   -2.0755611    1.5625874   439061 
 2327000    1.0409537   -2.0751202   -2.0751202  -0.51369312   0.26645318   -2.0751202     1.561427   439061 
 2328000    1.0411388   -2.0756913   -2.0756913   -0.5139866    0.2683149   -2.0756913    1.5617047   439061 
 2329000    1.0404984   -2.0758765   -2.0758765  -0.51513254   0.26607332   -2.0758765     1.560744   439061 
 2330000    1.0406167   -2.0757869   -2.0757869  -0.51486543   0.26596639   -2.0757869    1.5609215   439061 
 2331000    1.0403644   -2.0750697   -2.0750697  -0.51452664   0.26545478   -2.0750697     1.560543   439061 
 2332000    1.0414864   -2.0761078   -2.0761078  -0.51388166      0.26184   -2.0761078    1.5622261   439061 
 2333000    1.0405576   -2.0747213   -2.0747213  -0.51388837   0.26047161   -2.0747213    1.5608329   439061 
 2334000    1.0403557   -2.0756179   -2.0756179  -0.51508785   0.26492257   -2.0756179      1.56053   439061 
 2335000    1.0412176   -2.0769197   -2.0769197  -0.51509692   0.26557432   -2.0769197    1.5618228   439061 
 2336000    1.0397925    -2.075239    -2.075239  -0.51555377   0.26504158    -2.075239    1.5596852   439061 
 2337000    1.0407105    -2.076301    -2.076301  -0.51523884   0.26163081    -2.076301    1.5610622   439061 
 2338000    1.0408272   -2.0768698   -2.0768698  -0.51563264   0.26683902   -2.0768698    1.5612372   439061 
 2339000    1.0425774   -2.0783155   -2.0783155  -0.51445291   0.26357241   -2.0783155    1.5638626   439061 
 2340000    1.0400773   -2.0747842   -2.0747842  -0.51467183   0.25925883   -2.0747842    1.5601123   439061 
 2341000    1.0414678   -2.0757459   -2.0757459  -0.51354776   0.26129692   -2.0757459    1.5621982   439061 
 2342000    1.0415586   -2.0744226   -2.0744226  -0.51208824   0.26644963   -2.0744226    1.5623344   439061 
 2343000    1.0422127    -2.076312    -2.076312  -0.51299644   0.25577221    -2.076312    1.5633156   439061 
 2344000    1.0411809   -2.0746936   -2.0746936  -0.51292589   0.26547656   -2.0746936    1.5617677   439061 
 2345000    1.0416229    -2.074354    -2.074354  -0.51192323   0.26394854    -2.074354    1.5624308   439061 
 2346000    1.0412872   -2.0750931   -2.0750931  -0.51316578   0.26540815   -2.0750931    1.5619273   439061 
 2347000    1.0416238   -2.0757085   -2.0757085  -0.51327636   0.26358939   -2.0757085    1.5624321   439061 
 2348000    1.0415009   -2.0759866   -2.0759866   -0.5137387    0.2618083   -2.0759866    1.5622479   439061 
 2349000    1.0413322   -2.0754764   -2.0754764  -0.51348163   0.25755916   -2.0754764    1.5619947   439061 
 2350000    1.0412895   -2.0755193   -2.0755193  -0.51358864   0.26117598   -2.0755193    1.5619307   439061 
 2351000    1.0412654   -2.0759908   -2.0759908  -0.51409623   0.26132481   -2.0759908    1.5618945   439061 
 2352000    1.0414869   -2.0765383   -2.0765383  -0.51431152   0.26676728   -2.0765383    1.5622268   439061 
 2353000    1.0405386   -2.0747515   -2.0747515  -0.51394719   0.26285873   -2.0747515    1.5608044   439061 
 2354000    1.0414218   -2.0768314   -2.0768314  -0.51470236    0.2609168   -2.0768314    1.5621291   439061 
 2355000    1.0414273   -2.0763319   -2.0763319  -0.51419457    0.2644999   -2.0763319    1.5621374   439061 
 2356000    1.0419906   -2.0777603   -2.0777603  -0.51477794   0.26221345   -2.0777603    1.5629823   439061 
 2357000    1.0411444   -2.0751281   -2.0751281  -0.51341507   0.26193407   -2.0751281     1.561713   439061 
 2358000    1.0409756   -2.0752271   -2.0752271  -0.51376731   0.26894982   -2.0752271    1.5614598   439061 
 2359000    1.0416876   -2.0770984   -2.0770984  -0.51457066   0.26610002   -2.0770984    1.5625278   439061 
 2360000      1.03923   -2.0742911   -2.0742911  -0.51544958   0.26348119   -2.0742911    1.5588415   439061 
 2361000     1.040292   -2.0759949   -2.0759949  -0.51556045   0.26015663   -2.0759949    1.5604345   439061 
 2362000    1.0411579   -2.0771776   -2.0771776  -0.51544425   0.26297442   -2.0771776    1.5617333   439061 
 2363000    1.0410828   -2.0776723   -2.0776723  -0.51605172   0.26266869   -2.0776723    1.5616206   439061 
 2364000    1.0412542   -2.0768176   -2.0768176  -0.51493996   0.25862322   -2.0768176    1.5618777   439061 
 2365000    1.0417655   -2.0777723   -2.0777723  -0.51512761   0.26016111   -2.0777723    1.5626447   439061 
 2366000    1.0406051   -2.0761587   -2.0761587  -0.51525465   0.26619557   -2.0761587     1.560904   439061 
 2367000    1.0400902   -2.0754778   -2.0754778  -0.51534611   0.25788191   -2.0754778    1.5601317   439061 
 2368000    1.0391896    -2.075512    -2.075512   -0.5167311   0.26134642    -2.075512    1.5587809   439061 
 2369000    1.0403486   -2.0763663   -2.0763663  -0.51584697   0.26150583   -2.0763663    1.5605194   439061 
 2370000    1.0405393    -2.076412    -2.076412  -0.51560662   0.26169138    -2.076412    1.5608053   439061 
 2371000    1.0386196   -2.0747283   -2.0747283  -0.51680251   0.25947639   -2.0747283    1.5579258   439061 
 2372000    1.0390511   -2.0756087   -2.0756087  -0.51703566   0.25778435   -2.0756087    1.5585731   439061 
 2373000    1.0404511   -2.0782279   -2.0782279   -0.5175548   0.26338773   -2.0782279    1.5606731   439061 
 2374000    1.0390032   -2.0763879   -2.0763879  -0.51788665   0.26108843   -2.0763879    1.5585012   439061 
 2375000     1.038438   -2.0760315   -2.0760315  -0.51837806   0.26072122   -2.0760315    1.5576534   439061 
 2376000     1.039233   -2.0784674   -2.0784674  -0.51962151   0.26014807   -2.0784674    1.5588459   439061 
 2377000    1.0398907   -2.0782286   -2.0782286  -0.51839602   0.25617312   -2.0782286    1.5598325   439061 
 2378000    1.0390141   -2.0784315   -2.0784315  -0.51991383   0.26198491   -2.0784315    1.5585176   439061 
 2379000    1.0388694   -2.0772039   -2.0772039  -0.51890329     0.262284   -2.0772039    1.5583006   439061 
 2380000    1.0380936   -2.0771994   -2.0771994  -0.52006249   0.26483766   -2.0771994    1.5571369   439061 
 2381000    1.0392803   -2.0777651   -2.0777651  -0.51884812   0.26349875   -2.0777651     1.558917   439061 
 2382000    1.0387311   -2.0764183   -2.0764183  -0.51832524   0.26335725   -2.0764183    1.5580931   439061 
 2383000    1.0394133   -2.0776525   -2.0776525   -0.5185361   0.25809188   -2.0776525    1.5591164   439061 
 2384000    1.0385536   -2.0753496   -2.0753496  -0.51752282   0.26810804   -2.0753496    1.5578268   439061 
 2385000     1.038811   -2.0749863   -2.0749863  -0.51677334   0.26259304   -2.0749863    1.5582129   439061 
 2386000    1.0380441   -2.0739894   -2.0739894  -0.51692677   0.26487625   -2.0739894    1.5570626   439061 
 2387000      1.03938   -2.0758613   -2.0758613  -0.51679475   0.26543424   -2.0758613    1.5590665   439061 
 2388000      1.03939   -2.0767655   -2.0767655  -0.51768412   0.26466358   -2.0767655    1.5590814   439061 
 2389000    1.0392234    -2.076785    -2.076785  -0.51795349   0.26111725    -2.076785    1.5588316   439061 
 2390000    1.0393406   -2.0757692   -2.0757692  -0.51676185   0.26341369   -2.0757692    1.5590074   439061 
 2391000    1.0393986   -2.0768973   -2.0768973  -0.51780294   0.26097985   -2.0768973    1.5590943   439061 
 2392000    1.0397451    -2.076302    -2.076302  -0.51668789   0.26179927    -2.076302    1.5596141   439061 
 2393000    1.0399887   -2.0758331   -2.0758331  -0.51585358   0.26283235   -2.0758331    1.5599796   439061 
 2394000     1.040099   -2.0763581   -2.0763581  -0.51621317   0.26551222   -2.0763581    1.5601449   439061 
 2395000    1.0399016   -2.0757886   -2.0757886   -0.5159398   0.25878036   -2.0757886    1.5598488   439061 
 2396000    1.0394526   -2.0743375   -2.0743375  -0.51516221    0.2654134   -2.0743375    1.5591753   439061 
 2397000    1.0395265   -2.0763061   -2.0763061  -0.51701993   0.26291167   -2.0763061    1.5592862   439061 
 2398000    1.0385835   -2.0749172   -2.0749172  -0.51704549   0.26285578   -2.0749172    1.5578717   439061 
 2399000    1.0390994   -2.0760183   -2.0760183  -0.51737281   0.26050951   -2.0760183    1.5586455   439061 
 2400000    1.0382293   -2.0750656   -2.0750656  -0.51772523   0.26113432   -2.0750656    1.5573404   439061 
 2401000    1.0402114   -2.0764381   -2.0764381  -0.51612461   0.26221576   -2.0764381    1.5603135   439061 
 2402000    1.0395593   -2.0755284   -2.0755284  -0.51619294   0.26258501   -2.0755284    1.5593354   439061 
 2403000    1.0396408   -2.0767749   -2.0767749  -0.51731723   0.25507908   -2.0767749    1.5594577   439061 
 2404000    1.0404216   -2.0771863   -2.0771863  -0.51655746   0.26145498   -2.0771863    1.5606289   439061 
 2405000    1.0382384   -2.0740897   -2.0740897  -0.51673566   0.26187565   -2.0740897     1.557354   439061 
 2406000    1.0408004   -2.0765978   -2.0765978  -0.51540079   0.26524292   -2.0765978     1.561197   439061 
 2407000    1.0406958   -2.0752217   -2.0752217  -0.51418157   0.26345141   -2.0752217    1.5610401   439061 
 2408000    1.0402418   -2.0752726   -2.0752726  -0.51491351   0.25933219   -2.0752726    1.5603591   439061 
 2409000    1.0405783   -2.0752542   -2.0752542  -0.51439039    0.2620121   -2.0752542    1.5608638   439061 
 2410000    1.0414695   -2.0754062   -2.0754062  -0.51320547   0.26201753   -2.0754062    1.5622007   439061 
 2411000     1.040195   -2.0758274   -2.0758274   -0.5155385   0.25939771   -2.0758274    1.5602889   439061 
 2412000    1.0388417   -2.0734178   -2.0734178  -0.51515886   0.26630975   -2.0734178     1.558259   439061 
 2413000    1.0389142   -2.0738615   -2.0738615  -0.51549379   0.26233601   -2.0738615    1.5583677   439061 
 2414000    1.0404036    -2.074936    -2.074936  -0.51433422   0.26392723    -2.074936    1.5606018   439061 
 2415000    1.0407585   -2.0760484   -2.0760484  -0.51491421   0.26141113   -2.0760484    1.5611341   439061 
 2416000    1.0401565   -2.0757431   -2.0757431  -0.51551193   0.26163357   -2.0757431    1.5602311   439061 
 2417000    1.0393595   -2.0740786   -2.0740786  -0.51504285   0.26547192   -2.0740786    1.5590358   439061 
 2418000    1.0408596   -2.0759099   -2.0759099    -0.514624    0.2635693   -2.0759099    1.5612859   439061 
 2419000    1.0408628   -2.0769952   -2.0769952  -0.51570461   0.25874113   -2.0769952    1.5612906   439061 
 2420000    1.0398796   -2.0760909   -2.0760909  -0.51627505   0.26100371   -2.0760909    1.5598159   439061 
 2421000    1.0385987   -2.0753244   -2.0753244  -0.51742983   0.25693983   -2.0753244    1.5578946   439061 
 2422000    1.0394146   -2.0761549   -2.0761549  -0.51703658   0.26507573   -2.0761549    1.5591183   439061 
 2423000    1.0408984   -2.0770631   -2.0770631  -0.51571908   0.26137919   -2.0770631     1.561344   439061 
 2424000    1.0403095   -2.0757639   -2.0757639  -0.51530325   0.26385557   -2.0757639    1.5604607   439061 
 2425000    1.0390541   -2.0743862   -2.0743862  -0.51580862   0.26501541   -2.0743862    1.5585775   439061 
 2426000    1.0391731   -2.0748202   -2.0748202  -0.51606408   0.26416148   -2.0748202    1.5587561   439061 
 2427000     1.040318   -2.0755504   -2.0755504  -0.51507692   0.25872754   -2.0755504    1.5604734   439061 
 2428000    1.0396188   -2.0755658   -2.0755658  -0.51614124   0.26218095   -2.0755658    1.5594246   439061 
 2429000    1.0405659   -2.0761381   -2.0761381  -0.51529282   0.26406102   -2.0761381    1.5608452   439061 
 2430000    1.0403499   -2.0765502   -2.0765502  -0.51602891   0.26116377   -2.0765502    1.5605213   439061 
 2431000    1.0386853   -2.0751042   -2.0751042  -0.51707983   0.26224763   -2.0751042    1.5580244   439061 
 2432000    1.0395914   -2.0761668   -2.0761668  -0.51678321   0.26156984   -2.0761668    1.5593836   439061 
 2433000    1.0385336   -2.0759641   -2.0759641  -0.51816724   0.26250869   -2.0759641    1.5577969   439061 
 2434000    1.0388571   -2.0760341   -2.0760341  -0.51775211   0.26251371   -2.0760341     1.558282   439061 
 2435000    1.0380129    -2.074265    -2.074265  -0.51724919   0.26492055    -2.074265    1.5570158   439061 
 2436000    1.0387977   -2.0759534   -2.0759534  -0.51776034   0.26113157   -2.0759534    1.5581931   439061 
 2437000    1.0369884   -2.0740391   -2.0740391  -0.51855999   0.26112189   -2.0740391    1.5554791   439061 
 2438000    1.0376987   -2.0757646   -2.0757646  -0.51922019   0.26472153   -2.0757646    1.5565445   439061 
 2439000    1.0375538   -2.0754431   -2.0754431  -0.51911589   0.26103487   -2.0754431    1.5563272   439061 
 2440000    1.0388579   -2.0782442   -2.0782442  -0.51996087   0.25979388   -2.0782442    1.5582833   439061 
 2441000     1.038858   -2.0775478   -2.0775478  -0.51926431   0.26059197   -2.0775478    1.5582835   439061 
 2442000     1.038507   -2.0774927   -2.0774927  -0.51973569   0.26451916   -2.0774927     1.557757   439061 
 2443000      1.03998   -2.0787677   -2.0787677  -0.51880118   0.26687582   -2.0787677    1.5599665   439061 
 2444000    1.0389642   -2.0779561   -2.0779561  -0.51951329   0.25659849   -2.0779561    1.5584428   439061 
 2445000    1.0380883   -2.0770296   -2.0770296  -0.51990062   0.26150694   -2.0770296     1.557129   439061 
 2446000    1.0386605   -2.0769233   -2.0769233    -0.518936   0.26077797   -2.0769233    1.5579873   439061 
 2447000    1.0376104   -2.0764165   -2.0764165  -0.52000456    0.2636548   -2.0764165     1.556412   439061 
 2448000    1.0384452   -2.0769013   -2.0769013  -0.51923704     0.260247   -2.0769013    1.5576643   439061 
 2449000     1.037824    -2.076441    -2.076441  -0.51970855   0.26188773    -2.076441    1.5567324   439061 
 2450000     1.037913   -2.0763783   -2.0763783  -0.51951229   0.26512047   -2.0763783     1.556866   439061 
 2451000    1.0397215   -2.0790824   -2.0790824  -0.51950365   0.25929214   -2.0790824    1.5595787   439061 
 2452000    1.0382989   -2.0773899   -2.0773899  -0.51994509   0.26216315   -2.0773899    1.5574448   439061 
 2453000    1.0363911   -2.0746056   -2.0746056  -0.52002257   0.26063923   -2.0746056    1.5545831   439061 
 2454000     1.037039   -2.0763109   -2.0763109  -0.52075599   0.26076592   -2.0763109    1.5555549   439061 
 2455000    1.0377892   -2.0767142   -2.0767142  -0.52003397   0.25889407   -2.0767142    1.5566802   439061 
 2456000     1.036546   -2.0750565   -2.0750565  -0.52024106    0.2581519   -2.0750565    1.5548154   439061 
 2457000    1.0376633   -2.0764018   -2.0764018   -0.5199103   0.26108351   -2.0764018    1.5564915   439061 
 2458000    1.0401881   -2.0784041   -2.0784041  -0.51812546    0.2573312   -2.0784041    1.5602786   439061 
 2459000    1.0369971   -2.0747439   -2.0747439  -0.51925172   0.26542736   -2.0747439    1.5554921   439061 
 2460000    1.0386741   -2.0773027   -2.0773027  -0.51929503   0.25800021   -2.0773027    1.5580077   439061 
 2461000    1.0370328   -2.0747053   -2.0747053  -0.51915957   0.26462335   -2.0747053    1.5555457   439061 
 2462000    1.0389607   -2.0760918   -2.0760918   -0.5176543   0.26278478   -2.0760918    1.5584375   439061 
 2463000    1.0389659   -2.0765859   -2.0765859  -0.51814059    0.2606902   -2.0765859    1.5584454   439061 
 2464000      1.03895   -2.0768259   -2.0768259  -0.51840452   0.26126627   -2.0768259    1.5584214   439061 
 2465000    1.0392375    -2.075989    -2.075989  -0.51713625    0.2609335    -2.075989    1.5588527   439061 
 2466000    1.0402498    -2.075706    -2.075706  -0.51533492   0.26527235    -2.075706    1.5603711   439061 
 2467000    1.0398327   -2.0768122   -2.0768122  -0.51706678   0.26034473   -2.0768122    1.5597455   439061 
 2468000    1.0389873   -2.0770991   -2.0770991  -0.51862163   0.25854257   -2.0770991    1.5584774   439061 
 2469000    1.0377472     -2.07463     -2.07463  -0.51801274   0.26284474     -2.07463    1.5566173   439061 
 2470000    1.0393917   -2.0766479   -2.0766479  -0.51756391   0.25741365   -2.0766479     1.559084   439061 
 2471000     1.038836   -2.0755476   -2.0755476  -0.51729717   0.26012158   -2.0755476    1.5582504   439061 
 2472000    1.0390605   -2.0753967   -2.0753967  -0.51680948   0.26097699   -2.0753967    1.5585873   439061 
 2473000    1.0387806   -2.0748313   -2.0748313    -0.516664   0.26356599   -2.0748313    1.5581673   439061 
 2474000    1.0396865   -2.0764753   -2.0764753  -0.51694911   0.26422968   -2.0764753    1.5595262   439061 
 2475000    1.0385107   -2.0754896   -2.0754896  -0.51772717    0.2615923   -2.0754896    1.5577624   439061 
 2476000    1.0375865   -2.0752503   -2.0752503  -0.51887408   0.26023454   -2.0752503    1.5563762   439061 
 2477000    1.0364249   -2.0736881   -2.0736881  -0.51905432   0.26030789   -2.0736881    1.5546338   439061 
 2478000    1.0384898   -2.0766934   -2.0766934  -0.51896226   0.25929731   -2.0766934    1.5577311   439061 
 2479000    1.0387247    -2.076115    -2.076115  -0.51803158   0.26260175    -2.076115    1.5580834   439061 
 2480000    1.0387085   -2.0762596   -2.0762596  -0.51820038   0.25986506   -2.0762596    1.5580592   439061 
 2481000    1.0385286   -2.0756203   -2.0756203    -0.517831   0.26206209   -2.0756203    1.5577893   439061 
 2482000    1.0378906   -2.0757919   -2.0757919   -0.5189596   0.26126859   -2.0757919    1.5568323   439061 
 2483000    1.0388013   -2.0780758   -2.0780758  -0.51987744   0.25567165   -2.0780758    1.5581984   439061 
 2484000    1.0381345   -2.0758892   -2.0758892  -0.51869095   0.26075568   -2.0758892    1.5571982   439061 
 2485000    1.0378541   -2.0762945   -2.0762945  -0.51951696   0.25582798   -2.0762945    1.5567775   439061 
 2486000    1.0374803   -2.0748712   -2.0748712  -0.51865435   0.25908784   -2.0748712    1.5562169   439061 
 2487000    1.0392657   -2.0768238   -2.0768238  -0.51792877   0.25887387   -2.0768238     1.558895   439061 
 2488000    1.0398301   -2.0773346   -2.0773346  -0.51759294   0.26258699   -2.0773346    1.5597416   439061 
 2489000    1.0386074   -2.0771057   -2.0771057  -0.51919821   0.26155682   -2.0771057    1.5579075   439061 
 2490000    1.0390255   -2.0787874   -2.0787874  -0.52025268   0.26070724   -2.0787874    1.5585347   439061 
 2491000    1.0386561   -2.0777002   -2.0777002  -0.51971959   0.25925855   -2.0777002    1.5579806   439061 
 2492000    1.0382367   -2.0765826   -2.0765826  -0.51923106   0.26855255   -2.0765826    1.5573515   439061 
 2493000    1.0395016   -2.0804897   -2.0804897  -0.52124083   0.25976417   -2.0804897    1.5592488   439061 
 2494000    1.0380296   -2.0774247   -2.0774247  -0.52038385   0.25697856   -2.0774247    1.5570409   439061 
 2495000    1.0388815   -2.0789041   -2.0789041  -0.52058541   0.25670198   -2.0789041    1.5583186   439061 
 2496000    1.0373829   -2.0761378   -2.0761378  -0.52006692   0.26295906   -2.0761378    1.5560708   439061 
 2497000    1.0388263   -2.0787704   -2.0787704  -0.52053455   0.26019789   -2.0787704    1.5582359   439061 
 2498000    1.0370323   -2.0759807   -2.0759807  -0.52043589   0.26304424   -2.0759807    1.5555448   439061 
 2499000     1.038619   -2.0785011   -2.0785011  -0.52057608   0.25941106   -2.0785011     1.557925   439061 
 2500000    1.0373187   -2.0762093   -2.0762093  -0.52023476   0.26443242   -2.0762093    1.5559745   439061 
 2501000    1.0381785   -2.0766538   -2.0766538  -0.51938955   0.26255656   -2.0766538    1.5572642   439061 
 2502000    1.0368738   -2.0754561   -2.0754561   -0.5201489   0.25898547   -2.0754561    1.5553072   439061 
 2503000    1.0378291   -2.0759151   -2.0759151  -0.51917499   0.26144044   -2.0759151    1.5567401   439061 
 2504000    1.0382869   -2.0769901   -2.0769901  -0.51956337   0.25950101   -2.0769901    1.5574268   439061 
 2505000    1.0389853   -2.0760879   -2.0760879  -0.51761352   0.26092423   -2.0760879    1.5584744   439061 
 2506000    1.0398752   -2.0771204   -2.0771204  -0.51731104   0.25641527   -2.0771204    1.5598093   439061 
 2507000    1.0399513   -2.0761082   -2.0761082  -0.51618484   0.26270557   -2.0761082    1.5599234   439061 
 2508000    1.0388875   -2.0757744   -2.0757744  -0.51744673   0.26125979   -2.0757744    1.5583277   439061 
 2509000    1.0391266    -2.077494    -2.077494  -0.51880769   0.25880921    -2.077494    1.5586863   439061 
 2510000    1.0380782   -2.0771203   -2.0771203  -0.52000648   0.25667439   -2.0771203    1.5571138   439061 
 2511000    1.0381905   -2.0774119   -2.0774119  -0.52012967   0.25803831   -2.0774119    1.5572822   439061 
 2512000    1.0367248   -2.0754131   -2.0754131  -0.52032946   0.26420764   -2.0754131    1.5550837   439061 
 2513000    1.0374742   -2.0757983   -2.0757983  -0.51959055   0.26006087   -2.0757983    1.5562078   439061 
 2514000    1.0381973   -2.0763324   -2.0763324  -0.51903989   0.25611716   -2.0763324    1.5572925   439061 
 2515000    1.0394355   -2.0774858   -2.0774858  -0.51833605    0.2567697   -2.0774858    1.5591497   439061 
 2516000    1.0369265   -2.0755599   -2.0755599  -0.52017378   0.25789408   -2.0755599    1.5553862   439061 
 2517000    1.0360873   -2.0737526   -2.0737526  -0.51962523   0.26482372   -2.0737526    1.5541274   439061 
 2518000    1.0373695    -2.075843    -2.075843  -0.51979224    0.2618206    -2.075843    1.5560508   439061 
 2519000    1.0388939   -2.0778896   -2.0778896   -0.5195523   0.25817892   -2.0778896    1.5583373   439061 
 2520000    1.0378804   -2.0747899   -2.0747899  -0.51797292   0.26060407   -2.0747899     1.556817   439061 
 2521000    1.0396135   -2.0781228   -2.0781228  -0.51870606   0.26154096   -2.0781228    1.5594168   439061 
 2522000      1.03757   -2.0755232   -2.0755232  -0.51917175   0.26475192   -2.0755232    1.5563514   439061 
 2523000    1.0376197   -2.0760112   -2.0760112  -0.51958515   0.26089872   -2.0760112     1.556426   439061 
 2524000    1.0382006   -2.0768546   -2.0768546   -0.5195572   0.26118038   -2.0768546    1.5572974   439061 
 2525000     1.037589   -2.0760706   -2.0760706   -0.5196906   0.25844497   -2.0760706      1.55638   439061 
 2526000    1.0381386   -2.0775727   -2.0775727  -0.52036833   0.25801215   -2.0775727    1.5572043   439061 
 2527000    1.0377242   -2.0782408   -2.0782408  -0.52165803    0.2626548   -2.0782408    1.5565828   439061 
 2528000    1.0373589   -2.0783462   -2.0783462  -0.52231131   0.25780314   -2.0783462    1.5560348   439061 
 2529000    1.0367587   -2.0774313   -2.0774313  -0.52229678   0.26009371   -2.0774313    1.5551345   439061 
 2530000    1.0349818    -2.075236    -2.075236  -0.52276685   0.26076408    -2.075236    1.5524692   439061 
 2531000    1.0374988   -2.0785336   -2.0785336  -0.52228893   0.25894545   -2.0785336    1.5562447   439061 
 2532000    1.0369473   -2.0784082   -2.0784082  -0.52299079   0.25911712   -2.0784082    1.5554174   439061 
 2533000    1.0369006   -2.0781732   -2.0781732  -0.52282585   0.26114255   -2.0781732    1.5553473   439061 
 2534000    1.0371235   -2.0787222   -2.0787222  -0.52304053    0.2639142   -2.0787222    1.5556817   439061 
 2535000    1.0352362   -2.0767869   -2.0767869  -0.52393622   0.26163124   -2.0767869    1.5528507   439061 
 2536000    1.0363924   -2.0797295   -2.0797295  -0.52514443   0.25290349   -2.0797295    1.5545851   439061 
 2537000    1.0355217   -2.0790034   -2.0790034   -0.5257244   0.25490445   -2.0790034     1.553279   439061 
 2538000    1.0359822   -2.0789218   -2.0789218  -0.52495202    0.2606055   -2.0789218    1.5539698   439061 
 2539000    1.0371782   -2.0801263   -2.0801263  -0.52436253   0.26038795   -2.0801263    1.5557637   439061 
 2540000    1.0361667   -2.0777115   -2.0777115    -0.523465    0.2641912   -2.0777115    1.5542465   439061 
 2541000    1.0358882   -2.0777414   -2.0777414   -0.5239126   0.25918608   -2.0777414    1.5538288   439061 
 2542000    1.0359569   -2.0781216   -2.0781216  -0.52418974   0.25716703   -2.0781216    1.5539318   439061 
 2543000    1.0363368    -2.076985    -2.076985   -0.5224834   0.25694612    -2.076985    1.5545016   439061 
 2544000    1.0368587    -2.077739    -2.077739  -0.52245448   0.26104523    -2.077739    1.5552845   439061 
 2545000    1.0369422   -2.0784368   -2.0784368  -0.52302709   0.25987646   -2.0784368    1.5554097   439061 
 2546000     1.035406   -2.0752477   -2.0752477  -0.52214227   0.25869382   -2.0752477    1.5531054   439061 
 2547000     1.036682   -2.0768171   -2.0768171  -0.52179764   0.26313936   -2.0768171    1.5550195   439061 
 2548000    1.0358642   -2.0765541   -2.0765541  -0.52276134   0.25804302   -2.0765541    1.5537928   439061 
 2549000    1.0370384   -2.0770906   -2.0770906  -0.52153663   0.25930486   -2.0770906     1.555554   439061 
 2550000    1.0367354   -2.0780066   -2.0780066  -0.52290698      0.26127   -2.0780066    1.5550996   439061 
 2551000     1.037328   -2.0792641   -2.0792641  -0.52327562   0.25384573   -2.0792641    1.5559884   439061 
 2552000    1.0358344   -2.0763919   -2.0763919  -0.52264386   0.25808897   -2.0763919     1.553748   439061 
 2553000    1.0360231   -2.0769041   -2.0769041  -0.52287291   0.25580102   -2.0769041    1.5540311   439061 
 2554000    1.0355643   -2.0758087   -2.0758087  -0.52246589    0.2557023   -2.0758087    1.5533428   439061 
 2555000     1.036117   -2.0770814   -2.0770814  -0.52290947   0.25545621   -2.0770814    1.5541719   439061 
 2556000    1.0359377   -2.0768209   -2.0768209  -0.52291777   0.25656605   -2.0768209    1.5539031   439061 
 2557000    1.0348484   -2.0747805   -2.0747805  -0.52251139   0.25923017   -2.0747805    1.5522691   439061 
 2558000    1.0358181   -2.0760785   -2.0760785  -0.52235483   0.25969592   -2.0760785    1.5537236   439061 
 2559000    1.0360745   -2.0764494   -2.0764494   -0.5223412   0.25051706   -2.0764494    1.5541082   439061 
 2560000    1.0358534    -2.076909    -2.076909  -0.52313244    0.2576666    -2.076909    1.5537766   439061 
 2561000    1.0364566   -2.0759426   -2.0759426  -0.52126134   0.26167404   -2.0759426    1.5546813   439061 
 2562000    1.0383954   -2.0779555   -2.0779555  -0.52036583   0.25753744   -2.0779555    1.5575896   439061 
 2563000    1.0360241   -2.0763622   -2.0763622  -0.52232953   0.25816647   -2.0763622    1.5540326   439061 
 2564000    1.0355154   -2.0770006   -2.0770006  -0.52373104   0.26072012   -2.0770006    1.5532696   439061 
 2565000    1.0360083   -2.0779871   -2.0779871  -0.52397808     0.258853   -2.0779871     1.554009   439061 
 2566000    1.0366827   -2.0780376   -2.0780376   -0.5230171   0.25918566   -2.0780376    1.5550205   439061 
 2567000    1.0378025   -2.0787494   -2.0787494  -0.52204917   0.25614599   -2.0787494    1.5567002   439061 
 2568000    1.0357622   -2.0756508   -2.0756508   -0.5220111   0.26011956   -2.0756508    1.5536397   439061 
 2569000    1.0364171   -2.0771245   -2.0771245  -0.52250247     0.263655   -2.0771245    1.5546221   439061 
 2570000    1.0360038   -2.0769536   -2.0769536  -0.52295147   0.26089626   -2.0769536    1.5540021   439061 
 2571000    1.0365643   -2.0779143   -2.0779143  -0.52307146   0.25903663   -2.0779143    1.5548429   439061 
 2572000    1.0372088   -2.0787026   -2.0787026  -0.52289297   0.26291655   -2.0787026    1.5558096   439061 
 2573000    1.0375002   -2.0787554   -2.0787554  -0.52250866   0.25783248   -2.0787554    1.5562467   439061 
 2574000    1.0368874   -2.0780309   -2.0780309  -0.52270332    0.2553356   -2.0780309    1.5553276   439061 
 2575000    1.0357857   -2.0770609   -2.0770609   -0.5233859   0.25929524   -2.0770609     1.553675   439061 
 2576000    1.0366141    -2.078195    -2.078195  -0.52327735   0.25582723    -2.078195    1.5549176   439061 
 2577000    1.0366412   -2.0794249   -2.0794249  -0.52446671   0.25506049   -2.0794249    1.5549582   439061 
 2578000     1.034733   -2.0764369   -2.0764369  -0.52434095   0.26163454   -2.0764369    1.5520959   439061 
 2579000    1.0354342   -2.0774016   -2.0774016  -0.52425383   0.25580257   -2.0774016    1.5531477   439061 
 2580000    1.0364112   -2.0774057   -2.0774057  -0.52279249     0.260855   -2.0774057    1.5546132   439061 
 2581000    1.0362127   -2.0775326   -2.0775326  -0.52321714   0.26173251   -2.0775326    1.5543155   439061 
 2582000     1.037595   -2.0792564   -2.0792564  -0.52286741   0.25825698   -2.0792564     1.556389   439061 
 2583000    1.0348288   -2.0761312   -2.0761312   -0.5238916   0.25784074   -2.0761312    1.5522396   439061 
 2584000    1.0359966     -2.07867     -2.07867  -0.52467854   0.25682603     -2.07867    1.5539914   439061 
 2585000     1.035943   -2.0784994   -2.0784994   -0.5245885   0.25488738   -2.0784994    1.5539109   439061 
 2586000    1.0356902   -2.0784528   -2.0784528  -0.52492108   0.25483883   -2.0784528    1.5535318   439061 
 2587000    1.0355635   -2.0761181   -2.0761181  -0.52277636   0.25700728   -2.0761181    1.5533417   439061 
 2588000    1.0364001   -2.0787667   -2.0787667  -0.52417004   0.25568451   -2.0787667    1.5545966   439061 
 2589000    1.0363516   -2.0774535   -2.0774535  -0.52292959   0.25987245   -2.0774535    1.5545239   439061 
 2590000    1.0356502    -2.076003    -2.076003  -0.52253124   0.25802813    -2.076003    1.5534718   439061 
 2591000    1.0363755   -2.0768319   -2.0768319  -0.52227218   0.25671946   -2.0768319    1.5545597   439061 
 2592000     1.036381   -2.0762317   -2.0762317  -0.52166379   0.25844101   -2.0762317    1.5545679   439061 
 2593000    1.0357896   -2.0757658   -2.0757658  -0.52208498   0.26090053   -2.0757658    1.5536808   439061 
 2594000    1.0366279   -2.0763902   -2.0763902  -0.52145193   0.25487395   -2.0763902    1.5549383   439061 
 2595000    1.0372222   -2.0781743   -2.0781743  -0.52234451   0.25677558   -2.0781743    1.5558298   439061 
 2596000    1.0365073   -2.0774355   -2.0774355  -0.52267807   0.25838892   -2.0774355    1.5547574   439061 
 2597000    1.0372299   -2.0769381   -2.0769381   -0.5210967   0.25793468   -2.0769381    1.5558414   439061 
 2598000    1.0360545   -2.0751806   -2.0751806  -0.52110241   0.26379278   -2.0751806    1.5540782   439061 
 2599000    1.0362123   -2.0760007   -2.0760007  -0.52168582   0.25954453   -2.0760007    1.5543149   439061 
 2600000    1.0381701   -2.0783322   -2.0783322  -0.52108065   0.25669564   -2.0783322    1.5572516   439061 
 2601000    1.0372391   -2.0772324   -2.0772324  -0.52137732   0.25892112   -2.0772324    1.5558551   439061 
 2602000    1.0359686   -2.0753641   -2.0753641  -0.52141468   0.26352818   -2.0753641    1.5539494   439061 
 2603000    1.0365415   -2.0766205   -2.0766205  -0.52181184   0.26177028   -2.0766205    1.5548086   439061 
 2604000    1.0372294   -2.0778672   -2.0778672  -0.52202657   0.25569678   -2.0778672    1.5558406   439061 
 2605000    1.0359476   -2.0776234   -2.0776234  -0.52370561   0.25857095   -2.0776234    1.5539178   439061 
 2606000     1.037321   -2.0779628   -2.0779628  -0.52198488   0.25422019   -2.0779628    1.5559779   439061 
 2607000    1.0359226    -2.075099    -2.075099  -0.52121866    0.2598172    -2.075099    1.5538803   439061 
 2608000    1.0376233   -2.0787594   -2.0787594  -0.52232796   0.25654272   -2.0787594    1.5564314   439061 
 2609000    1.0363534   -2.0770694   -2.0770694  -0.52254277   0.25994567   -2.0770694    1.5545266   439061 
 2610000    1.0368639   -2.0784574   -2.0784574   -0.5231651   0.25456757   -2.0784574    1.5552923   439061 
 2611000    1.0372075    -2.077405    -2.077405  -0.52159735   0.25737717    -2.077405    1.5558077   439061 
 2612000    1.0363575   -2.0763063   -2.0763063  -0.52177369   0.25635231   -2.0763063    1.5545326   439061 
 2613000    1.0368263   -2.0768896   -2.0768896  -0.52165375   0.26072749   -2.0768896    1.5552359   439061 
 2614000    1.0366988   -2.0769308   -2.0769308  -0.52188609   0.25773682   -2.0769308    1.5550447   439061 
 2615000     1.035863   -2.0756206   -2.0756206  -0.52182959   0.25811474   -2.0756206     1.553791   439061 
 2616000    1.0380813   -2.0792265   -2.0792265  -0.52210808   0.25651013   -2.0792265    1.5571185   439061 
 2617000    1.0356872   -2.0773817   -2.0773817  -0.52385441      0.25598   -2.0773817    1.5535273   439061 
 2618000    1.0357316   -2.0764563   -2.0764563  -0.52286239   0.25879413   -2.0764563    1.5535939   439061 
 2619000    1.0369543   -2.0774018   -2.0774018  -0.52197381   0.26258133   -2.0774018    1.5554279   439061 
 2620000    1.0370577   -2.0768186   -2.0768186  -0.52123564   0.26081481   -2.0768186     1.555583   439061 
 2621000    1.0363195   -2.0770631   -2.0770631  -0.52258743   0.25702048   -2.0770631    1.5544757   439061 
 2622000    1.0357654   -2.0767135   -2.0767135  -0.52306886   0.25992429   -2.0767135    1.5536446   439061 
 2623000    1.0377867    -2.080522    -2.080522  -0.52384549   0.25648428    -2.080522    1.5566765   439061 
 2624000    1.0365025   -2.0774176   -2.0774176  -0.52266742   0.25434479   -2.0774176    1.5547502   439061 
 2625000    1.0359206   -2.0762824   -2.0762824  -0.52240499   0.26051194   -2.0762824    1.5538774   439061 
 2626000    1.0364301   -2.0773666   -2.0773666  -0.52272499   0.25734137   -2.0773666    1.5546416   439061 
 2627000    1.0361807   -2.0765552   -2.0765552  -0.52228773   0.25743145   -2.0765552    1.5542675   439061 
 2628000    1.0355495   -2.0768097   -2.0768097  -0.52348908    0.2608297   -2.0768097    1.5533207   439061 
 2629000    1.0358181   -2.0768119   -2.0768119   -0.5230882   0.26088911   -2.0768119    1.5537237   439061 
 2630000    1.0358189   -2.0772106   -2.0772106  -0.52348572   0.25271438   -2.0772106    1.5537249   439061 
 2631000    1.0353363   -2.0771934   -2.0771934  -0.52419238   0.25484723   -2.0771934     1.553001   439061 
 2632000    1.0357308    -2.076807    -2.076807  -0.52321438   0.25685001    -2.076807    1.5535926   439061 
 2633000    1.0359186   -2.0767734   -2.0767734  -0.52289899   0.25944863   -2.0767734    1.5538744   439061 
 2634000    1.0364072   -2.0786666   -2.0786666  -0.52405936   0.26056384   -2.0786666    1.5546072   439061 
 2635000    1.0358785   -2.0776108   -2.0776108  -0.52379662   0.26140856   -2.0776108    1.5538142   439061 
 2636000    1.0365732   -2.0789479   -2.0789479  -0.52409164   0.25903855   -2.0789479    1.5548563   439061 
 2637000    1.0355468   -2.0777277   -2.0777277  -0.52441109   0.25624843   -2.0777277    1.5533167   439061 
 2638000    1.0356025    -2.077467    -2.077467  -0.52406688   0.25672531    -2.077467    1.5534002   439061 
 2639000     1.036901   -2.0794238   -2.0794238  -0.52407588   0.25678388   -2.0794238    1.5553479   439061 
 2640000    1.0352117   -2.0776898   -2.0776898  -0.52487572   0.26032019   -2.0776898     1.552814   439061 
 2641000    1.0356092   -2.0788614   -2.0788614  -0.52545119   0.25801255   -2.0788614    1.5534102   439061 
 2642000     1.035002   -2.0772889   -2.0772889  -0.52478943   0.25605954   -2.0772889    1.5524995   439061 
 2643000    1.0352054   -2.0782495   -2.0782495  -0.52544494   0.25810652   -2.0782495    1.5528045   439061 
 2644000    1.0349844   -2.0768915   -2.0768915  -0.52441843   0.25961973   -2.0768915    1.5524731   439061 
 2645000    1.0360874    -2.079387    -2.079387  -0.52525948   0.25775658    -2.079387    1.5541275   439061 
 2646000     1.034832   -2.0783748   -2.0783748  -0.52613028   0.25606339   -2.0783748    1.5522445   439061 
 2647000     1.035113   -2.0786859   -2.0786859  -0.52601997   0.25437062   -2.0786859     1.552666   439061 
 2648000    1.0342281   -2.0774601   -2.0774601  -0.52612144    0.2536914   -2.0774601    1.5513386   439061 
 2649000    1.0347554   -2.0777949   -2.0777949  -0.52566526   0.25743775   -2.0777949    1.5521296   439061 
 2650000    1.0342834   -2.0770395   -2.0770395  -0.52561801   0.26018647   -2.0770395    1.5514215   439061 
 2651000    1.0353329   -2.0777796   -2.0777796  -0.52478373   0.25361793   -2.0777796    1.5529959   439061 
 2652000     1.034654   -2.0773422   -2.0773422  -0.52536473   0.25860368   -2.0773422    1.5519775   439061 
 2653000    1.0363814   -2.0782651   -2.0782651  -0.52369651   0.25732733   -2.0782651    1.5545686   439061 
 2654000    1.0352385   -2.0765633   -2.0765633  -0.52370907    0.2549568   -2.0765633    1.5528543   439061 
 2655000     1.035328   -2.0778035   -2.0778035  -0.52481503   0.25605742   -2.0778035    1.5529885   439061 
 2656000    1.0345298   -2.0773428   -2.0773428  -0.52555167   0.25856589   -2.0773428    1.5517912   439061 
 2657000    1.0360187   -2.0776451   -2.0776451  -0.52362051   0.25808124   -2.0776451    1.5540246   439061 
 2658000    1.0359643   -2.0784205   -2.0784205  -0.52447761   0.25664615   -2.0784205    1.5539429   439061 
 2659000    1.0361782   -2.0792742   -2.0792742  -0.52501048   0.25687984   -2.0792742    1.5542637   439061 
 2660000    1.0357292   -2.0783065   -2.0783065  -0.52471623   0.25446302   -2.0783065    1.5535903   439061 
 2661000    1.0371941   -2.0801488   -2.0801488  -0.52436116   0.25988726   -2.0801488    1.5557877   439061 
 2662000    1.0343843   -2.0769772   -2.0769772  -0.52540426   0.25538903   -2.0769772    1.5515729   439061 
 2663000    1.0351911    -2.078463    -2.078463  -0.52567994    0.2585657    -2.078463    1.5527831   439061 
 2664000    1.0353717   -2.0786147   -2.0786147  -0.52556069   0.25605317   -2.0786147     1.553054   439061 
 2665000    1.0352282   -2.0782706   -2.0782706  -0.52543181   0.25425294   -2.0782706    1.5528388   439061 
 2666000    1.0338776   -2.0779772   -2.0779772  -0.52716435   0.25501023   -2.0779772    1.5508128   439061 
 2667000    1.0349439   -2.0776457   -2.0776457  -0.52523342   0.25635095   -2.0776457    1.5524123   439061 
 2668000    1.0359148   -2.0780866   -2.0780866  -0.52421792   0.25354163   -2.0780866    1.5538687   439061 
 2669000    1.0335968   -2.0768691   -2.0768691  -0.52647737   0.25688977   -2.0768691    1.5503917   439061 
 2670000    1.0331592   -2.0756601   -2.0756601  -0.52592491     0.261919   -2.0756601    1.5497352   439061 
 2671000    1.0337905   -2.0766154   -2.0766154  -0.52593318   0.25805403   -2.0766154    1.5506823   439061 
 2672000    1.0358225   -2.0791725   -2.0791725  -0.52544222    0.2573342   -2.0791725    1.5537303   439061 
 2673000    1.0344595   -2.0767027   -2.0767027  -0.52501697   0.26012098   -2.0767027    1.5516858   439061 
 2674000    1.0359781   -2.0796758   -2.0796758  -0.52571223   0.26050642   -2.0796758    1.5539635   439061 
 2675000     1.035287   -2.0782628   -2.0782628  -0.52533588   0.25603149   -2.0782628    1.5529269   439061 
 2676000    1.0355392   -2.0792033   -2.0792033  -0.52589802   0.25977675   -2.0792033    1.5533053   439061 
 2677000    1.0351744   -2.0779696   -2.0779696   -0.5252115   0.25864087   -2.0779696    1.5527581   439061 
 2678000    1.0357395   -2.0791732   -2.0791732   -0.5255675   0.26097979   -2.0791732    1.5536057   439061 
 2679000    1.0348878   -2.0780861   -2.0780861  -0.52575785   0.25623208   -2.0780861    1.5523282   439061 
 2680000    1.0346484   -2.0780008   -2.0780008  -0.52603176   0.26052322   -2.0780008    1.5519691   439061 
 2681000    1.0350418   -2.0782917   -2.0782917  -0.52573246    0.2524495   -2.0782917    1.5525592   439061 
 2682000    1.0344586   -2.0786033   -2.0786033  -0.52691886   0.25728272   -2.0786033    1.5516844   439061 
 2683000    1.0332643   -2.0777077   -2.0777077   -0.5278148   0.25812204   -2.0777077    1.5498929   439061 
 2684000    1.0342538   -2.0786073   -2.0786073  -0.52723016   0.25714982   -2.0786073    1.5513771   439061 
 2685000     1.034016   -2.0780177   -2.0780177  -0.52699716   0.26178113   -2.0780177    1.5510205   439061 
 2686000    1.0341229   -2.0786767   -2.0786767  -0.52749593   0.25440292   -2.0786767    1.5511808   439061 
 2687000    1.0340826   -2.0784317   -2.0784317  -0.52731129   0.26123189   -2.0784317    1.5511204   439061 
 2688000    1.0343331   -2.0776403   -2.0776403  -0.52614409   0.25593141   -2.0776403    1.5514962   439061 
 2689000    1.0358139   -2.0806184   -2.0806184   -0.5269011   0.25458657   -2.0806184    1.5537173   439061 
 2690000    1.0347648   -2.0790026   -2.0790026  -0.52685896   0.25563023   -2.0790026    1.5521437   439061 
 2691000    1.0348412   -2.0792077   -2.0792077  -0.52694939   0.25663031   -2.0792077    1.5522583   439061 
 2692000    1.0346945   -2.0790652   -2.0790652  -0.52702702   0.25530358   -2.0790652    1.5520382   439061 
 2693000    1.0349344   -2.0794644   -2.0794644  -0.52706645   0.25348714   -2.0794644     1.552398   439061 
 2694000    1.0351853   -2.0796802   -2.0796802  -0.52690573   0.25572322   -2.0796802    1.5527745   439061 
 2695000    1.0338304   -2.0786641   -2.0786641  -0.52792206   0.25595089   -2.0786641     1.550742   439061 
 2696000    1.0338408    -2.076926    -2.076926  -0.52616828   0.25731974    -2.076926    1.5507577   439061 
 2697000     1.034867    -2.077627    -2.077627  -0.52533004   0.25741439    -2.077627     1.552297   439061 
 2698000    1.0352405   -2.0787495   -2.0787495  -0.52589231   0.25696714   -2.0787495    1.5528572   439061 
 2699000    1.0340366   -2.0769401   -2.0769401  -0.52588876    0.2575583   -2.0769401    1.5510513   439061 
 2700000    1.0353536   -2.0782261   -2.0782261  -0.52519926   0.25531053   -2.0782261    1.5530269   439061 
 2701000    1.0349455   -2.0780513   -2.0780513  -0.52563667   0.25363758   -2.0780513    1.5524147   439061 
 2702000    1.0345433   -2.0783074   -2.0783074  -0.52649593   0.25715405   -2.0783074    1.5518114   439061 
 2703000    1.0346473   -2.0783483   -2.0783483  -0.52638095   0.25856291   -2.0783483    1.5519674   439061 
 2704000    1.0323632    -2.074737    -2.074737  -0.52619572   0.25660245    -2.074737    1.5485413   439061 
 2705000    1.0352868   -2.0785647   -2.0785647  -0.52563795   0.25443773   -2.0785647    1.5529267   439061 
 2706000     1.035123   -2.0777814   -2.0777814  -0.52510046   0.25758235   -2.0777814     1.552681   439061 
 2707000    1.0342326   -2.0771935   -2.0771935  -0.52584811   0.25719265   -2.0771935    1.5513454   439061 
 2708000    1.0338499   -2.0758958   -2.0758958  -0.52512452   0.25397219   -2.0758958    1.5507713   439061 
 2709000    1.0350501   -2.0781019   -2.0781019  -0.52553033   0.25281416   -2.0781019    1.5525716   439061 
 2710000    1.0346217   -2.0781031   -2.0781031  -0.52617414   0.25814263   -2.0781031    1.5519289   439061 
 2711000    1.0346605   -2.0769513   -2.0769513  -0.52496399   0.25902109   -2.0769513    1.5519873   439061 
 2712000    1.0346257    -2.077714    -2.077714  -0.52577891   0.25808218    -2.077714    1.5519351   439061 
 2713000    1.0347507   -2.0786523   -2.0786523  -0.52652981   0.25399323   -2.0786523    1.5521225   439061 
 2714000     1.034355   -2.0773996   -2.0773996  -0.52587062   0.25842832   -2.0773996     1.551529   439061 
 2715000    1.0351135    -2.079151    -2.079151  -0.52648427   0.26079989    -2.079151    1.5526667   439061 
 2716000    1.0333755   -2.0773691   -2.0773691  -0.52730934   0.25716191   -2.0773691    1.5500598   439061 
 2717000    1.0334818   -2.0774439   -2.0774439  -0.52722465   0.26064751   -2.0774439    1.5502192   439061 
 2718000     1.034452   -2.0780661   -2.0780661  -0.52639161   0.25887809   -2.0780661    1.5516745   439061 
 2719000    1.0339063   -2.0777311   -2.0777311  -0.52687516   0.26120149   -2.0777311     1.550856   439061 
 2720000    1.0331448   -2.0766193   -2.0766193  -0.52690559   0.25558844   -2.0766193    1.5497137   439061 
 2721000    1.0331595   -2.0774273   -2.0774273  -0.52769156   0.25784488   -2.0774273    1.5497357   439061 
 2722000     1.034924   -2.0803301   -2.0803301  -0.52794767   0.25298806   -2.0803301    1.5523824   439061 
 2723000     1.034991   -2.0791928   -2.0791928  -0.52670981   0.25511996   -2.0791928     1.552483   439061 
 2724000    1.0342455    -2.077772    -2.077772  -0.52640729   0.25193679    -2.077772    1.5513647   439061 
 2725000    1.0349471   -2.0787219   -2.0787219  -0.52630485   0.25829974   -2.0787219    1.5524171   439061 
 2726000    1.0343577   -2.0775962   -2.0775962  -0.52606316   0.26049124   -2.0775962    1.5515331   439061 
 2727000    1.0330235   -2.0763579   -2.0763579  -0.52682621   0.25640768   -2.0763579    1.5495317   439061 
 2728000    1.0343586   -2.0769827   -2.0769827  -0.52544829   0.25937635   -2.0769827    1.5515344   439061 
 2729000    1.0349722   -2.0776404   -2.0776404  -0.52518562     0.256504   -2.0776404    1.5524548   439061 
 2730000    1.0352823   -2.0779063   -2.0779063  -0.52498647   0.26192958   -2.0779063    1.5529199   439061 
 2731000    1.0343332   -2.0762494   -2.0762494  -0.52475322   0.25418639   -2.0762494    1.5514962   439061 
 2732000    1.0349861   -2.0781413   -2.0781413  -0.52566569   0.25665193   -2.0781413    1.5524756   439061 
 2733000    1.0342893   -2.0765681   -2.0765681  -0.52513773   0.25715422   -2.0765681    1.5514304   439061 
 2734000    1.0338191   -2.0771883   -2.0771883  -0.52646325    0.2578933   -2.0771883    1.5507251   439061 
 2735000    1.0342142   -2.0780868   -2.0780868  -0.52676897   0.25526179   -2.0780868    1.5513178   439061 
 2736000    1.0341812   -2.0782903   -2.0782903   -0.5270221   0.25781198   -2.0782903    1.5512682   439061 
 2737000    1.0350905   -2.0813237   -2.0813237  -0.52869146   0.25418014   -2.0813237    1.5526322   439061 
 2738000    1.0333858   -2.0788214   -2.0788214  -0.52874631   0.25065605   -2.0788214    1.5500751   439061 
 2739000     1.032526   -2.0778768   -2.0778768  -0.52909133   0.25490636   -2.0778768    1.5487855   439061 
 2740000    1.0346002   -2.0793106   -2.0793106  -0.52741389   0.25654501   -2.0793106    1.5518967   439061 
 2741000    1.0335739   -2.0777184   -2.0777184  -0.52736104   0.25874316   -2.0777184    1.5503573   439061 
 2742000    1.0323397   -2.0756197   -2.0756197  -0.52711357   0.25418072   -2.0756197    1.5485061   439061 
 2743000    1.0334845   -2.0783605   -2.0783605  -0.52813724   0.25743045   -2.0783605    1.5502232   439061 
 2744000    1.0332881   -2.0762283   -2.0762283  -0.52629973   0.25649815   -2.0762283    1.5499286   439061 
 2745000    1.0346458   -2.0788516   -2.0788516  -0.52688649   0.25328889   -2.0788516    1.5519651   439061 
 2746000    1.0349906   -2.0791391   -2.0791391  -0.52665681   0.25896433   -2.0791391    1.5524823   439061 
 2747000    1.0346209   -2.0785804   -2.0785804  -0.52665248    0.2548687   -2.0785804    1.5519279   439061 
 2748000    1.0337179   -2.0774199   -2.0774199  -0.52684658   0.25691464   -2.0774199    1.5505734   439061 
 2749000    1.0349856   -2.0781746   -2.0781746  -0.52569978   0.26035476   -2.0781746    1.5524748   439061 
 2750000    1.0355178    -2.077824    -2.077824  -0.52455077   0.25934458    -2.077824    1.5532732   439061 
 2751000    1.0345132   -2.0764861   -2.0764861  -0.52471974   0.25884772   -2.0764861    1.5517663   439061 
 2752000    1.0348308   -2.0781923   -2.0781923  -0.52594956    0.2566115   -2.0781923    1.5522427   439061 
 2753000    1.0344182   -2.0776969   -2.0776969  -0.52607313   0.25837873   -2.0776969    1.5516238   439061 
 2754000    1.0352331   -2.0781734   -2.0781734  -0.52532722   0.25768884   -2.0781734    1.5528462   439061 
 2755000    1.0346686   -2.0775949   -2.0775949  -0.52559549   0.25530795   -2.0775949    1.5519994   439061 
 2756000    1.0356996   -2.0796452   -2.0796452  -0.52609938   0.25538766   -2.0796452    1.5535458   439061 
 2757000    1.0353555   -2.0785777   -2.0785777  -0.52554799    0.2576289   -2.0785777    1.5530297   439061 
 2758000    1.0356326   -2.0795469   -2.0795469  -0.52610154   0.25590691   -2.0795469    1.5534453   439061 
 2759000    1.0353502   -2.0797551   -2.0797551  -0.52673331    0.2559601   -2.0797551    1.5530218   439061 
 2760000    1.0338823   -2.0771085   -2.0771085  -0.52628848   0.25979735   -2.0771085      1.55082   439061 
 2761000    1.0342486    -2.077126    -2.077126  -0.52575665   0.25853705    -2.077126    1.5513693   439061 
 2762000    1.0339184   -2.0777833   -2.0777833  -0.52690925   0.26148102   -2.0777833     1.550874   439061 
 2763000     1.034947   -2.0785532   -2.0785532  -0.52613622   0.25419824   -2.0785532     1.552417   439061 
 2764000    1.0337068   -2.0763364   -2.0763364  -0.52577976   0.25763382   -2.0763364    1.5505566   439061 
 2765000    1.0355014   -2.0783978   -2.0783978   -0.5251492   0.25693181   -2.0783978    1.5532486   439061 
 2766000    1.0353105   -2.0787241   -2.0787241  -0.52576184   0.25830576   -2.0787241    1.5529623   439061 
 2767000    1.0352458   -2.0781954   -2.0781954  -0.52533032   0.25545658   -2.0781954    1.5528651   439061 
 2768000    1.0349257   -2.0779611   -2.0779611  -0.52557613   0.25933853   -2.0779611     1.552385   439061 
 2769000    1.0344001   -2.0769346   -2.0769346    -0.525338    0.2620322   -2.0769346    1.5515966   439061 
 2770000    1.0355028   -2.0773188   -2.0773188  -0.52406815   0.25658887   -2.0773188    1.5532506   439061 
 2771000    1.0357101   -2.0772646   -2.0772646  -0.52370294    0.2593073   -2.0772646    1.5535616   439061 
 2772000    1.0362955   -2.0775595   -2.0775595  -0.52311987   0.25075877   -2.0775595    1.5544397   439061 
 2773000    1.0353583   -2.0773248   -2.0773248  -0.52429088   0.25298087   -2.0773248    1.5530339   439061 
 2774000    1.0360097   -2.0771202   -2.0771202  -0.52310925   0.25929064   -2.0771202     1.554011   439061 
 2775000    1.0368806   -2.0777883   -2.0777883  -0.52247088   0.25671428   -2.0777883    1.5553174   439061 
 2776000    1.0367684    -2.078873    -2.078873  -0.52372398   0.25805705    -2.078873     1.555149   439061 
 2777000    1.0354065   -2.0765689   -2.0765689  -0.52346265   0.25600767   -2.0765689    1.5531062   439061 
 2778000    1.0358526   -2.0774468   -2.0774468  -0.52367144   0.25682345   -2.0774468    1.5537754   439061 
 2779000    1.0356355   -2.0772989   -2.0772989  -0.52384916   0.25646953   -2.0772989    1.5534498   439061 
 2780000    1.0344821   -2.0769566   -2.0769566  -0.52523704   0.25699011   -2.0769566    1.5517196   439061 
 2781000    1.0362541   -2.0787628   -2.0787628  -0.52438526     0.257855   -2.0787628    1.5543776   439061 
 2782000    1.0356508    -2.076613    -2.076613  -0.52314036   0.25861154    -2.076613    1.5534727   439061 
 2783000    1.0355655   -2.0766072   -2.0766072  -0.52326249   0.25923319   -2.0766072    1.5533447   439061 
 2784000     1.036251   -2.0779873   -2.0779873  -0.52361428   0.26057057   -2.0779873     1.554373   439061 
 2785000    1.0347765   -2.0766174   -2.0766174  -0.52445628   0.25619778   -2.0766174    1.5521612   439061 
 2786000    1.0350283   -2.0758587   -2.0758587  -0.52331984    0.2581531   -2.0758587    1.5525389   439061 
 2787000     1.034393   -2.0766663   -2.0766663  -0.52508032   0.25829575   -2.0766663     1.551586   439061 
 2788000    1.0336625   -2.0750126   -2.0750126  -0.52452232   0.25729414   -2.0750126    1.5504902   439061 
 2789000    1.0354228   -2.0782482   -2.0782482  -0.52511757   0.25661392   -2.0782482    1.5531307   439061 
 2790000    1.0351141   -2.0786135   -2.0786135  -0.52594593   0.25761929   -2.0786135    1.5526676   439061 
 2791000    1.0348131   -2.0776531   -2.0776531  -0.52543701   0.25357268   -2.0776531    1.5522161   439061 
 2792000     1.034942   -2.0762776   -2.0762776   -0.5238681   0.25593481   -2.0762776    1.5524095   439061 
 2793000    1.0342258   -2.0760557   -2.0760557  -0.52472049    0.2608597   -2.0760557    1.5513352   439061 
 2794000    1.0358485   -2.0781172   -2.0781172  -0.52434788   0.25577558   -2.0781172    1.5537693   439061 
 2795000    1.0338795    -2.075588    -2.075588  -0.52477226   0.25988282    -2.075588    1.5508157   439061 
 2796000    1.0339422    -2.076796    -2.076796   -0.5258862   0.25926006    -2.076796    1.5509098   439061 
 2797000    1.0346557   -2.0775818   -2.0775818   -0.5256018   0.25659882   -2.0775818      1.55198   439061 
 2798000    1.0349619   -2.0784215   -2.0784215  -0.52598216   0.25553335   -2.0784215    1.5524394   439061 
 2799000    1.0343145    -2.078336    -2.078336  -0.52686775   0.25981617    -2.078336    1.5514683   439061 
 2800000    1.0353602   -2.0791024   -2.0791024  -0.52606553   0.25844515   -2.0791024    1.5530368   439061 
 2801000     1.033928   -2.0780091   -2.0780091  -0.52712067    0.2599514   -2.0780091    1.5508884   439061 
 2802000    1.0339007   -2.0793579   -2.0793579  -0.52851035   0.25236881   -2.0793579    1.5508475   439061 
 2803000      1.03366   -2.0790318   -2.0790318  -0.52854527   0.25396558   -2.0790318    1.5504865   439061 
 2804000    1.0333021   -2.0779637   -2.0779637   -0.5280141   0.25605484   -2.0779637    1.5499496   439061 
 2805000    1.0330886   -2.0771808   -2.0771808  -0.52755146   0.25729117   -2.0771808    1.5496294   439061 
 2806000    1.0341821   -2.0780237   -2.0780237  -0.52675406   0.25408715   -2.0780237    1.5512697   439061 
 2807000    1.0339844   -2.0780455   -2.0780455  -0.52707243   0.25287917   -2.0780455    1.5509731   439061 
 2808000    1.0338135   -2.0769205   -2.0769205  -0.52620385   0.25977224   -2.0769205    1.5507167   439061 
 2809000     1.034861   -2.0775097   -2.0775097  -0.52522173   0.25878457   -2.0775097    1.5522879   439061 
 2810000    1.0344545   -2.0781145   -2.0781145  -0.52643625   0.25501091   -2.0781145    1.5516783   439061 
 2811000     1.035759   -2.0784524   -2.0784524   -0.5248175   0.25628903   -2.0784524    1.5536349   439061 
 2812000    1.0343751   -2.0772774   -2.0772774  -0.52571827   0.25766938   -2.0772774    1.5515591   439061 
 2813000    1.0357467   -2.0779468   -2.0779468  -0.52433038   0.25962444   -2.0779468    1.5536164   439061 
 2814000    1.0354199   -2.0766851   -2.0766851  -0.52355887   0.25932792   -2.0766851    1.5531262   439061 
 2815000    1.0350938   -2.0772729   -2.0772729  -0.52463577   0.25563722   -2.0772729    1.5526372   439061 
 2816000    1.0335004    -2.076757    -2.076757  -0.52650989   0.25999932    -2.076757    1.5502471   439061 
 2817000    1.0360465   -2.0789114   -2.0789114  -0.52484513   0.25757849   -2.0789114    1.5540663   439061 
 2818000    1.0360907   -2.0787707   -2.0787707  -0.52463817   0.25532048   -2.0787707    1.5541325   439061 
 2819000    1.0335487   -2.0752887   -2.0752887   -0.5249692   0.25456404   -2.0752887    1.5503195   439061 
 2820000    1.0345015   -2.0764881   -2.0764881  -0.52473933   0.26069092   -2.0764881    1.5517488   439061 
 2821000    1.0349266   -2.0779725   -2.0779725  -0.52558622   0.25756432   -2.0779725    1.5523863   439061 
 2822000    1.0349989   -2.0778234   -2.0778234  -0.52532863   0.25836148   -2.0778234    1.5524948   439061 
 2823000    1.0342419   -2.0775539   -2.0775539   -0.5261946   0.25402333   -2.0775539    1.5513593   439061 
 2824000     1.035203   -2.0770358   -2.0770358  -0.52423491   0.25920811   -2.0770358    1.5528009   439061 
 2825000    1.0353174   -2.0776233   -2.0776233  -0.52465073   0.25718985   -2.0776233    1.5529726   439061 
 2826000    1.0349669   -2.0781689   -2.0781689  -0.52572209   0.25293757   -2.0781689    1.5524468   439061 
 2827000    1.0334551   -2.0760148   -2.0760148  -0.52583565   0.25998086   -2.0760148    1.5501791   439061 
 2828000    1.0351846   -2.0778862   -2.0778862  -0.52511287   0.25874464   -2.0778862    1.5527733   439061 
 2829000    1.0333664   -2.0757909   -2.0757909  -0.52574477   0.25977171   -2.0757909    1.5500461   439061 
 2830000    1.0362546    -2.079705    -2.079705  -0.52532656   0.25394822    -2.079705    1.5543784   439061 
 2831000    1.0354047    -2.077452    -2.077452  -0.52434849   0.25584098    -2.077452    1.5531035   439061 
 2832000    1.0355718   -2.0786559   -2.0786559  -0.52530178   0.25785306   -2.0786559    1.5533541   439061 
 2833000    1.0350666   -2.0769673   -2.0769673  -0.52437101   0.25244131   -2.0769673    1.5525963   439061 
 2834000    1.0361324   -2.0785932   -2.0785932  -0.52439818   0.25730379   -2.0785932     1.554195   439061 
 2835000    1.0351148   -2.0770679   -2.0770679  -0.52439924   0.25805831   -2.0770679    1.5526687   439061 
 2836000    1.0353064   -2.0778962   -2.0778962  -0.52494003   0.25516549   -2.0778962    1.5529561   439061 
 2837000    1.0346373   -2.0775927   -2.0775927  -0.52564021   0.25485869   -2.0775927    1.5519525   439061 
 2838000    1.0348019   -2.0772175   -2.0772175  -0.52501816   0.25550275   -2.0772175    1.5521993   439061 
 2839000    1.0357162   -2.0779883   -2.0779883  -0.52441759   0.25200898   -2.0779883    1.5535707   439061 
 2840000    1.0350657   -2.0771913   -2.0771913  -0.52459637   0.25433848   -2.0771913     1.552595   439061 
 2841000    1.0364051   -2.0797084   -2.0797084  -0.52510432   0.25873802   -2.0797084    1.5546041   439061 
 2842000    1.0348396   -2.0775656   -2.0775656  -0.52530976   0.25938236   -2.0775656    1.5522558   439061 
 2843000    1.0357783   -2.0791188   -2.0791188  -0.52545485   0.25483208   -2.0791188    1.5536639   439061 
 2844000    1.0351052   -2.0777619   -2.0777619  -0.52510773    0.2551335   -2.0777619    1.5526542   439061 
 2845000    1.0348459   -2.0772482   -2.0772482  -0.52498285   0.25579123   -2.0772482    1.5522654   439061 
 2846000    1.0331087    -2.075687    -2.075687   -0.5260275    0.2542697    -2.075687    1.5496595   439061 
 2847000    1.0338475   -2.0769896   -2.0769896  -0.52622194   0.25939051   -2.0769896    1.5507677   439061 
 2848000    1.0330903   -2.0762144   -2.0762144  -0.52658247   0.25927717   -2.0762144    1.5496319   439061 
 2849000    1.0338136     -2.07778     -2.07778  -0.52706317    0.2570117     -2.07778    1.5507168   439061 
 2850000    1.0325612   -2.0765004   -2.0765004  -0.52766218   0.25507006   -2.0765004    1.5488382   439061 
 2851000    1.0336054   -2.0776987   -2.0776987  -0.52729409    0.2552522   -2.0776987    1.5504046   439061 
 2852000    1.0336413   -2.0792331   -2.0792331   -0.5287747   0.25218825   -2.0792331    1.5504584   439061 
 2853000    1.0317438   -2.0761166   -2.0761166  -0.52850439   0.25895186   -2.0761166    1.5476122   439061 
 2854000    1.0335836   -2.0784293   -2.0784293  -0.52805739   0.25880909   -2.0784293    1.5503719   439061 
 2855000    1.0334038   -2.0783562   -2.0783562  -0.52825408   0.25804673   -2.0783562    1.5501021   439061 
 2856000    1.0327822   -2.0784628   -2.0784628  -0.52929309   0.25234128   -2.0784628    1.5491697   439061 
 2857000    1.0322683   -2.0768592   -2.0768592  -0.52846033   0.25331764   -2.0768592    1.5483989   439061 
 2858000    1.0321664    -2.077055    -2.077055   -0.5288089   0.25591143    -2.077055    1.5482461   439061 
 2859000    1.0336747   -2.0783717   -2.0783717  -0.52786319   0.25880997   -2.0783717    1.5505085   439061 
 2860000    1.0339687   -2.0782387   -2.0782387  -0.52728919   0.25294788   -2.0782387    1.5509495   439061 
 2861000    1.0336213   -2.0787575   -2.0787575    -0.528329   0.25606278   -2.0787575    1.5504285   439061 
 2862000    1.0321852   -2.0766678   -2.0766678  -0.52839347   0.25943905   -2.0766678    1.5482743   439061 
 2863000    1.0322109   -2.0769792   -2.0769792  -0.52866647   0.25924169   -2.0769792    1.5483128   439061 
 2864000    1.0342908   -2.0797654   -2.0797654  -0.52833275   0.25244729   -2.0797654    1.5514327   439061 
 2865000    1.0328668   -2.0771098   -2.0771098  -0.52781314   0.25896305   -2.0771098    1.5492966   439061 
 2866000    1.0335153   -2.0783869   -2.0783869  -0.52811756   0.25827029   -2.0783869    1.5502694   439061 
 2867000    1.0336271    -2.079796    -2.079796  -0.52935891   0.25954062    -2.079796    1.5504371   439061 
 2868000    1.0343881   -2.0808417   -2.0808417  -0.52926307   0.25329392   -2.0808417    1.5515787   439061 
 2869000    1.0332809   -2.0793557   -2.0793557  -0.52943784   0.25408575   -2.0793557    1.5499179   439061 
 2870000    1.0334812    -2.079849    -2.079849  -0.52963075   0.25237684    -2.079849    1.5502183   439061 
 2871000    1.0325254   -2.0785878   -2.0785878  -0.52980314   0.25453719   -2.0785878    1.5487846   439061 
 2872000    1.0329298   -2.0782557   -2.0782557  -0.52886456   0.25237694   -2.0782557    1.5493912   439061 
 2873000    1.0318133   -2.0774507   -2.0774507  -0.52973426   0.26029045   -2.0774507    1.5477165   439061 
 2874000    1.0319823    -2.078082    -2.078082  -0.53011199   0.25113582    -2.078082      1.54797   439061 
 2875000    1.0324575   -2.0802955   -2.0802955  -0.53161278   0.25225443   -2.0802955    1.5486827   439061 
 2876000    1.0318811   -2.0793804   -2.0793804  -0.53156225    0.2540587   -2.0793804    1.5478182   439061 
 2877000    1.0321436   -2.0789019   -2.0789019  -0.53069008   0.25287219   -2.0789019    1.5482118   439061 
 2878000    1.0319305   -2.0785631   -2.0785631  -0.53067092   0.25663984   -2.0785631    1.5478922   439061 
 2879000    1.0322431   -2.0788925   -2.0788925  -0.53053141   0.25157645   -2.0788925    1.5483611   439061 
 2880000     1.032924   -2.0811421   -2.0811421  -0.53175962   0.25540811   -2.0811421    1.5493824   439061 
 2881000     1.031703   -2.0775977   -2.0775977  -0.53004673   0.25348413   -2.0775977     1.547551   439061 
 2882000    1.0336164   -2.0800157   -2.0800157  -0.52959461   0.25280709   -2.0800157     1.550421   439061 
 2883000    1.0340843   -2.0792155   -2.0792155  -0.52809258    0.2597823   -2.0792155    1.5511229   439061 
 2884000    1.0331813   -2.0782578   -2.0782578  -0.52848937   0.25299782   -2.0782578    1.5497684   439061 
 2885000    1.0345739   -2.0799194   -2.0799194  -0.52806205   0.25521066   -2.0799194    1.5518574   439061 
 2886000    1.0352775   -2.0804044   -2.0804044  -0.52749167      0.25877   -2.0804044    1.5529127   439061 
 2887000    1.0336717   -2.0773615   -2.0773615  -0.52685751   0.25821033   -2.0773615     1.550504   439061 
 2888000    1.0338225   -2.0782361   -2.0782361  -0.52750594    0.2554834   -2.0782361    1.5507302   439061 
 2889000    1.0334578   -2.0783049   -2.0783049  -0.52812177   0.25646254   -2.0783049    1.5501831   439061 
 2890000    1.0342597    -2.079612    -2.079612   -0.5282259   0.25416533    -2.079612    1.5513861   439061 
 2891000    1.0328998   -2.0781899   -2.0781899  -0.52884378   0.25424023   -2.0781899    1.5493461   439061 
 2892000    1.0313198    -2.075822    -2.075822  -0.52884575   0.25793078    -2.075822    1.5469762   439061 
 2893000    1.0340829   -2.0796166   -2.0796166  -0.52849572   0.25761777   -2.0796166    1.5511209   439061 
 2894000    1.0332051    -2.078943    -2.078943   -0.5291388   0.25252867    -2.078943    1.5498042   439061 
 2895000    1.0322259   -2.0789215   -2.0789215  -0.53058615   0.25709917   -2.0789215    1.5483354   439061 
 2896000    1.0330876   -2.0806039   -2.0806039  -0.53097594   0.25630861   -2.0806039    1.5496279   439061 
 2897000    1.0325405   -2.0798063   -2.0798063  -0.53099903   0.25170444   -2.0798063    1.5488072   439061 
 2898000    1.0309824    -2.077041    -2.077041  -0.53057103   0.25642064    -2.077041      1.54647   439061 
 2899000    1.0328342   -2.0787786   -2.0787786  -0.52953077   0.25023108   -2.0787786    1.5492478   439061 
 2900000    1.0336044   -2.0798868   -2.0798868  -0.52948368    0.2556723   -2.0798868    1.5504031   439061 
 2901000    1.0311978   -2.0762758   -2.0762758  -0.52948264   0.25225079   -2.0762758    1.5467931   439061 
 2902000    1.0330103   -2.0774151   -2.0774151   -0.5279032   0.25786433   -2.0774151    1.5495119   439061 
 2903000    1.0325711    -2.075911    -2.075911   -0.5270579   0.25127325    -2.075911    1.5488531   439061 
 2904000    1.0336197   -2.0772642   -2.0772642  -0.52683825   0.26139345   -2.0772642     1.550426   439061 
 2905000    1.0351036   -2.0779165   -2.0779165  -0.52526456   0.25411154   -2.0779165    1.5526519   439061 
 2906000    1.0346842   -2.0772299   -2.0772299  -0.52520715   0.26092851   -2.0772299    1.5520228   439061 
 2907000     1.035335   -2.0774658   -2.0774658   -0.5244669   0.25617812   -2.0774658    1.5529989   439061 
 2908000    1.0344978   -2.0760976   -2.0760976  -0.52435444   0.25906814   -2.0760976    1.5517432   439061 
 2909000    1.0333162   -2.0745528   -2.0745528  -0.52458204   0.25722164   -2.0745528    1.5499707   439061 
 2910000    1.0351279    -2.077244    -2.077244  -0.52455562   0.25161318    -2.077244    1.5526884   439061 
 2911000     1.034507   -2.0778311   -2.0778311  -0.52607422    0.2547126   -2.0778311    1.5517569   439061 
 2912000    1.0341433   -2.0774229   -2.0774229  -0.52621152   0.25189097   -2.0774229    1.5512114   439061 
 2913000    1.0338279   -2.0778753   -2.0778753  -0.52713691   0.25392097   -2.0778753    1.5507384   439061 
 2914000    1.0333242   -2.0772429   -2.0772429  -0.52726016   0.25649862   -2.0772429    1.5499827   439061 
 2915000    1.0333835   -2.0769211   -2.0769211   -0.5268493   0.25100298   -2.0769211    1.5500718   439061 
 2916000    1.0347382   -2.0790178   -2.0790178  -0.52691393   0.25270244   -2.0790178    1.5521038   439061 
 2917000    1.0346148   -2.0773693   -2.0773693   -0.5254506   0.25520241   -2.0773693    1.5519187   439061 
 2918000     1.034147   -2.0778011   -2.0778011  -0.52658409    0.2552115   -2.0778011     1.551217   439061 
 2919000    1.0339642   -2.0774639   -2.0774639  -0.52652114   0.25555513   -2.0774639    1.5509427   439061 
 2920000    1.0338078   -2.0765786   -2.0765786  -0.52587045   0.25886891   -2.0765786    1.5507082   439061 
 2921000    1.0339112   -2.0768267   -2.0768267  -0.52596342   0.25538411   -2.0768267    1.5508632   439061 
 2922000    1.0338259   -2.0767541   -2.0767541  -0.52601876   0.25926725   -2.0767541    1.5507353   439061 
 2923000    1.0335409   -2.0754223   -2.0754223  -0.52511454   0.25721404   -2.0754223    1.5503078   439061 
 2924000    1.0347897   -2.0769186   -2.0769186   -0.5247376   0.25576203   -2.0769186     1.552181   439061 
 2925000    1.0338716   -2.0761405   -2.0761405  -0.52533666   0.25301315   -2.0761405    1.5508038   439061 
 2926000    1.0349941   -2.0778924   -2.0778924  -0.52540472   0.25618124   -2.0778924    1.5524877   439061 
 2927000    1.0329078    -2.076234    -2.076234  -0.52687582   0.25952802    -2.076234    1.5493582   439061 
 2928000    1.0347245   -2.0791288   -2.0791288  -0.52704555   0.25584797   -2.0791288    1.5520832   439061 
 2929000    1.0343565   -2.0791583   -2.0791583  -0.52762697   0.25584822   -2.0791583    1.5515313   439061 
 2930000    1.0339851   -2.0774566   -2.0774566  -0.52648258   0.25787161   -2.0774566     1.550974   439061 
 2931000    1.0334532   -2.0754791   -2.0754791  -0.52530287   0.25313232   -2.0754791    1.5501762   439061 
 2932000    1.0337506   -2.0776901   -2.0776901  -0.52706769   0.25410819   -2.0776901    1.5506224   439061 
 2933000    1.0328402   -2.0774063   -2.0774063  -0.52814957    0.2513371   -2.0774063    1.5492568   439061 
 2934000    1.0336391   -2.0798829   -2.0798829  -0.52942787   0.25056236   -2.0798829    1.5504551   439061 
 2935000    1.0309673   -2.0774637   -2.0774637  -0.53101624   0.25423716   -2.0774637    1.5464475   439061 
 2936000    1.0325906   -2.0785666   -2.0785666  -0.52968424   0.25957257   -2.0785666    1.5488824   439061 
 2937000     1.031553   -2.0780088   -2.0780088  -0.53068287   0.25698938   -2.0780088     1.547326   439061 
 2938000    1.0319608   -2.0790349   -2.0790349  -0.53109721   0.25309796   -2.0790349    1.5479377   439061 
 2939000    1.0305422   -2.0770173   -2.0770173  -0.53120752   0.25822617   -2.0770173    1.5458098   439061 
 2940000    1.0337056   -2.0805715   -2.0805715  -0.53001655   0.25284868   -2.0805715    1.5505549   439061 
 2941000     1.032183   -2.0776166   -2.0776166  -0.52934564   0.25767221   -2.0776166    1.5482709   439061 
 2942000    1.0344521   -2.0804308   -2.0804308  -0.52875617    0.2558364   -2.0804308    1.5516747   439061 
 2943000    1.0330848   -2.0784302   -2.0784302  -0.52880645   0.25627417   -2.0784302    1.5496237   439061 
 2944000    1.0338812     -2.07929     -2.07929  -0.52847175    0.2505707     -2.07929    1.5508183   439061 
 2945000    1.0312604   -2.0771306   -2.0771306  -0.53024359   0.25421246   -2.0771306     1.546887   439061 
 2946000    1.0337035   -2.0796683   -2.0796683  -0.52911658   0.25754532   -2.0796683    1.5505517   439061 
 2947000    1.0339082   -2.0787606   -2.0787606  -0.52790191   0.25977963   -2.0787606    1.5508587   439061 
 2948000    1.0333689   -2.0775859   -2.0775859  -0.52753609   0.25886698   -2.0775859    1.5500498   439061 
 2949000     1.032535   -2.0772877   -2.0772877  -0.52848873   0.25160585   -2.0772877    1.5487989   439061 
 2950000    1.0329055   -2.0791106   -2.0791106  -0.52975592   0.25224943   -2.0791106    1.5493547   439061 
 2951000    1.0326276   -2.0785532   -2.0785532  -0.52961541   0.25854958   -2.0785532    1.5489378   439061 
 2952000    1.0319993    -2.078387    -2.078387  -0.53039168    0.2540886    -2.078387    1.5479954   439061 
 2953000    1.0310223   -2.0771247   -2.0771247  -0.53059476   0.25618176   -2.0771247      1.54653   439061 
 2954000    1.0319213   -2.0769761   -2.0769761   -0.5290976   0.25018392   -2.0769761    1.5478785   439061 
 2955000    1.0327966   -2.0783353   -2.0783353  -0.52914388   0.25658882   -2.0783353    1.5491914   439061 
 2956000    1.0322536   -2.0784572   -2.0784572  -0.53008028   0.25098926   -2.0784572    1.5483769   439061 
 2957000    1.0312134   -2.0769595   -2.0769595  -0.53014298   0.25600029   -2.0769595    1.5468166   439061 
 2958000    1.0323085   -2.0779366   -2.0779366  -0.52947731   0.25130479   -2.0779366    1.5484593   439061 
 2959000    1.0334065   -2.0797135   -2.0797135  -0.52960727   0.25509643   -2.0797135    1.5501062   439061 
 2960000    1.0329278   -2.0786287   -2.0786287  -0.52924045   0.25548347   -2.0786287    1.5493882   439061 
 2961000    1.0323357   -2.0759082   -2.0759082  -0.52740825   0.25967721   -2.0759082    1.5484999   439061 
 2962000    1.0327882   -2.0785048   -2.0785048  -0.52932603   0.25518013   -2.0785048    1.5491788   439061 
 2963000    1.0327149   -2.0786997   -2.0786997  -0.52963088    0.2503719   -2.0786997    1.5490689   439061 
 2964000    1.0319759   -2.0773091   -2.0773091  -0.52934879   0.25570468   -2.0773091    1.5479603   439061 
 2965000    1.0324519    -2.077288    -2.077288  -0.52861375   0.25324748    -2.077288    1.5486743   439061 
 2966000    1.0322251   -2.0775732   -2.0775732  -0.52923906   0.25331856   -2.0775732    1.5483341   439061 
 2967000    1.0330291   -2.0790622   -2.0790622  -0.52952198   0.25354327   -2.0790622    1.5495402   439061 
 2968000    1.0328566   -2.0793837   -2.0793837  -0.53010223   0.25014471   -2.0793837    1.5492814   439061 
 2969000    1.0324215   -2.0784197   -2.0784197  -0.52979096   0.25319774   -2.0784197    1.5486287   439061 
 2970000    1.0324808   -2.0784698   -2.0784698  -0.52975222   0.25742273   -2.0784698    1.5487176   439061 
 2971000     1.031192   -2.0775888   -2.0775888  -0.53080422    0.2542361   -2.0775888    1.5467845   439061 
 2972000      1.03201   -2.0786595   -2.0786595  -0.53064807   0.25900799   -2.0786595    1.5480114   439061 
 2973000    1.0328702   -2.0791962   -2.0791962  -0.52989451   0.25464913   -2.0791962    1.5493017   439061 
 2974000    1.0324862   -2.0795297   -2.0795297  -0.53080388   0.25229851   -2.0795297    1.5487258   439061 
 2975000    1.0307583    -2.077462    -2.077462  -0.53132808   0.25274041    -2.077462    1.5461339   439061 
 2976000    1.0317056    -2.078769    -2.078769  -0.53121417   0.25560071    -2.078769    1.5475548   439061 
 2977000    1.0315907   -2.0791006   -2.0791006  -0.53171809   0.25299449   -2.0791006    1.5473825   439061 
 2978000    1.0309272   -2.0777362   -2.0777362  -0.53134903   0.25453646   -2.0777362    1.5463872   439061 
 2979000    1.0306468   -2.0771787   -2.0771787  -0.53121197   0.25758122   -2.0771787    1.5459667   439061 
 2980000    1.0327115   -2.0809342   -2.0809342  -0.53187053   0.25306138   -2.0809342    1.5490637   439061 
 2981000    1.0328225   -2.0791895   -2.0791895  -0.52995923   0.26225009   -2.0791895    1.5492302   439061 
 2982000    1.0325437   -2.0795529   -2.0795529   -0.5307408   0.25312235   -2.0795529    1.5488121   439061 
 2983000    1.0315387   -2.0785158   -2.0785158  -0.53121131   0.25323095   -2.0785158    1.5473045   439061 
 2984000    1.0328463   -2.0804346   -2.0804346  -0.53116876   0.25436526   -2.0804346    1.5492659   439061 
 2985000    1.0309949   -2.0792211   -2.0792211  -0.53273221   0.25481836   -2.0792211    1.5464889   439061 
 2986000    1.0320764   -2.0800665   -2.0800665  -0.53195534   0.25366148   -2.0800665    1.5481111   439061 
 2987000    1.0322074   -2.0792786   -2.0792786  -0.53097101   0.25168217   -2.0792786    1.5483076   439061 
 2988000    1.0322339   -2.0796633   -2.0796633  -0.53131598    0.2527789   -2.0796633    1.5483473   439061 
 2989000    1.0322416   -2.0795869   -2.0795869  -0.53122798   0.25528194   -2.0795869    1.5483589   439061 
 2990000    1.0323055   -2.0792367   -2.0792367  -0.53078192   0.25275557   -2.0792367    1.5484548   439061 
 2991000    1.0329691   -2.0788674   -2.0788674  -0.52941723   0.25929398   -2.0788674    1.5494502   439061 
 2992000    1.0324643   -2.0778137   -2.0778137  -0.52912081   0.25510364   -2.0778137    1.5486929   439061 
 2993000    1.0330826   -2.0778914   -2.0778914  -0.52827095   0.25327978   -2.0778914    1.5496204   439061 
 2994000    1.0341299    -2.077106    -2.077106  -0.52591471   0.25688246    -2.077106    1.5511913   439061 
 2995000    1.0324041   -2.0744082   -2.0744082  -0.52580552   0.25628558   -2.0744082    1.5486027   439061 
 2996000    1.0339947   -2.0759027   -2.0759027  -0.52491414   0.25313389   -2.0759027    1.5509886   439061 
 2997000     1.034557   -2.0755824   -2.0755824  -0.52375044   0.25569513   -2.0755824     1.551832   439061 
 2998000    1.0348027   -2.0754021   -2.0754021  -0.52320155   0.25699939   -2.0754021    1.5522006   439061 
 2999000    1.0346544   -2.0757591   -2.0757591  -0.52378096   0.26081745   -2.0757591    1.5519781   439061 
 3000000    1.0347692   -2.0765455   -2.0765455   -0.5243952   0.26142122   -2.0765455    1.5521503   439061 
Loop time of 7392.96 on 96 procs for 3000000 steps with 439061 atoms

Performance: 175301.809 tau/day, 405.791 timesteps/s
90.6% CPU use with 96 MPI tasks x 1 OpenMP threads

MPI task timing breakdown:
Section |  min time  |  avg time  |  max time  |%varavg|  %CPU | %total
-----------------------------------------------------------------------
Pair    | 2737.8     | 3485.3     | 4083.6     | 632.6 |  93.7 | 47.14
Bond    | 1.9982     | 2.1181     | 2.2606     |   4.2 | 100.0 |  0.03
Neigh   | 1306.9     | 1491.9     | 1624.3     | 218.3 |  99.3 | 20.18
Comm    | 789.56     | 1847.9     | 2678.5     |1128.7 |  83.1 | 25.00
Output  | 112.2      | 112.41     | 112.42     |   0.2 |  67.6 |  1.52
Modify  | 156.89     | 247.73     | 742.65     |1183.4 |  86.8 |  3.35
Other   |            | 205.6      |            |       |       |  2.78

Nlocal:        4573.55 ave        4699 max        4420 min
Histogram: 4 4 6 5 23 14 16 10 6 8
Nghost:        4085.41 ave        4536 max        3201 min
Histogram: 11 10 3 0 0 0 1 18 35 18
Neighs:        81400.8 ave       92268 max       65311 min
Histogram: 3 4 5 7 14 10 15 18 14 6

Total # of neighbors = 7814474
Ave neighs/atom = 17.798151
Ave special neighs/atom = 0.0000000
Neighbor list builds = 300000
Dangerous builds = 297000

write_data	data.lj
System init for write_data ...
Total wall time: 2:03:15
