LAMMPS (24 Dec 2020)
OMP_NUM_THREADS environment is not set. Defaulting to 1 thread. (src/comm.cpp:94)
  using 1 OpenMP thread(s) per MPI task
# Simple rigid body system
# needed variables:

#variable	startTemp equal 0.5
#variable 	temp 	  equal 0.8

units		lj
atom_style	full
dimension 	3
boundary	p p f
pair_style	lj/cut/opt 2.5


variable 	sigma		equal 1.0
variable 	epsilon 	equal 1.0


region		box block 0 160 0 160 0 160
create_box 	3 box
Created orthogonal box = (0.0000000 0.0000000 0.0000000) to (160.00000 160.00000 160.00000)
  4 by 6 by 8 MPI processor grid
lattice 	sc 1.0
Lattice spacing in x,y,z = 1.0000000 1.0000000 1.0000000

create_atoms 	1 region box
Created 4096000 atoms
  create_atoms CPU = 0.154 seconds

mass		1 1.0
mass		2 1.0
mass		3 1.0


group		solvent type 1
4096000 atoms in group solvent


velocity 	solvent create ${startTemp} 563435 loop geom
velocity 	solvent create 0.5 563435 loop geom

read_data	data.vac add append
Reading data file ...
  orthogonal box = (0.0000000 0.0000000 0.0000000) to (160.00000 160.00000 320.00000)
  6 by 4 by 8 MPI processor grid
Finding 1-2 1-3 1-4 neighbors ...
  special bond factors lj:    0        0        0       
  special bond factors coul:  0        0        0       
     0 = max # of 1-2 neighbors
     0 = max # of 1-3 neighbors
     0 = max # of 1-4 neighbors
     1 = max # of special neighbors
  special bonds CPU = 1.375 seconds
  read_data CPU = 1.406 seconds

neighbor 	0.4 bin

pair_coeff	1 1 1.0 1.0
pair_coeff	2 2 0.0 0.0
pair_coeff	3 3 0.0 0.0
pair_coeff	2 3 0.0 0.0
pair_coeff	1 2*3 0.0 0.0

pair_modify 	shift yes


balance 	1.05 shift z 10 1.05
Balancing ...
Neighbor list info ...
  update every 1 steps, delay 10 steps, check yes
  max neighbors/atom: 2000, page size: 100000
  master list distance cutoff = 2.9
  ghost atom cutoff = 2.9
  binsize = 1.45, bins = 111 111 221
  1 neighbor lists, perpetual/occasional/extra = 1 0 0
  (1) pair lj/cut/opt, perpetual
      attributes: half, newton on
      pair build: half/bin/newton
      stencil: half/bin/3d/newton
      bin: standard
 rebalancing time: 0.050 seconds
  iteration count = 5
  initial/final maximal load/proc = 43200.000 27000.000
  initial/final imbalance factor  = 2.0250000 1.2656250
  x cuts: 0.0000000 0.16666667 0.33333333 0.50000000 0.66666667 0.83333333 1.0000000
  y cuts: 0.0000000 0.25000000 0.50000000 0.75000000 1.0000000
  z cuts: 0.0000000 0.062500000 0.12890625 0.18750000 0.25781250 0.30859375 0.38671875 0.43750000 1.0000000


####################### WALLS ###########################


region	       low block  EDGE EDGE EDGE EDGE 0 2

region 	       top block  EDGE EDGE EDGE EDGE 159 160


delete_atoms   region low
WARNING: Ignoring 'compress yes' for molecular system (src/delete_atoms.cpp:125)
Deleted 76800 atoms, new total = 4019200

delete_atoms   region top
WARNING: Ignoring 'compress yes' for molecular system (src/delete_atoms.cpp:125)
Deleted 25600 atoms, new total = 3993600


variable       epsilonWall equal 2*${epsilon}
variable       epsilonWall equal 2*1

variable       cutoffTop   equal   0.7147*${sigma}
variable       cutoffTop   equal   0.7147*1

variable       cutoffLow   equal   3*${sigma}
variable       cutoffLow   equal   3*1


fix            topWall all wall/lj93 zhi EDGE                ${epsilonWall} ${sigma} ${cutoffTop} units box
fix            topWall all wall/lj93 zhi EDGE                2 ${sigma} ${cutoffTop} units box
fix            topWall all wall/lj93 zhi EDGE                2 1 ${cutoffTop} units box
fix            topWall all wall/lj93 zhi EDGE                2 1 0.7147 units box

fix            lowWall all wall/lj93 zlo EDGE                ${epsilonWall} ${sigma} ${cutoffLow} units box
fix            lowWall all wall/lj93 zlo EDGE                2 ${sigma} ${cutoffLow} units box
fix            lowWall all wall/lj93 zlo EDGE                2 1 ${cutoffLow} units box
fix            lowWall all wall/lj93 zlo EDGE                2 1 3 units box


###################### COMPUTES ##########################

compute        bin1 solvent chunk/atom bin/1d z upper 1.0



######################	FIXES ############################


fix 		peclet solvent ave/chunk 1000 1 1000 bin1 density/number norm 		 none ave one file density.profile

fix 		2 solvent nve

## Thermostat


region		regthermo block EDGE EDGE EDGE EDGE 0 20

group 		thermo dynamic solvent region regthermo every 1000
dynamic group thermo defined

fix 		3 thermo langevin ${startTemp} ${temp} 10 156453
fix 		3 thermo langevin 0.5 ${temp} 10 156453
fix 		3 thermo langevin 0.5 1.0 10 156453



#### Load balancing


fix 		bal all balance 1000 1.05 shift z 10 1.05


############### Diagnostics and computes ###################
#compute 	com cube	  rigid/local	1 mol x y z
#compute 	quat cube	  rigid/local	1 mol quatw quati quatj quatk

thermo 		1000
thermo_style 	custom step temp epair evdwl etotal press pe ke vol

dump		1 all custom 100000 dump.lammpstrj id mol type x y z
dump 		2 all image 10000 image.*.png type type
dump 		3 all movie 1000 movie.avi type type
#dump 		com cube local 1000 dump.*.xyz c_com[*]
#dump		quat cube      local 1000 dump.*.quat c_quat[*]


restart 	500000 restart.dat
timestep 	0.0025
timer 		full
New timer settings: style=full  mode=nosync  timeout=off


run		1000000
Per MPI rank memory allocation (min/avg/max) = 21.58 | 28.12 | 30.30 Mbytes
Step Temp E_pair E_vdwl TotEng Press PotEng KinEng Volume 
       0   0.49997217   -3.3137429   -3.3137429   -2.5637849    8.4475947   -3.3137429   0.74995807      8192000 
    1000    1.4218221    -4.758417    -4.758417   -2.6256844    4.8148831    -4.758417    2.1327326      8192000 
    2000    1.4167681   -4.8199055   -4.8199055   -2.6947539    4.0903546   -4.8199055    2.1251516      8192000 
    3000    1.4131262   -4.8812458   -4.8812458    -2.761557    3.3785637   -4.8812458    2.1196887      8192000 
    4000    1.3810008   -4.8920617   -4.8920617   -2.8205609    2.8258555   -4.8920617    2.0715007      8192000 
    5000      1.34393   -4.8888944   -4.8888944   -2.8729999    2.3529092   -4.8888944    2.0158945      8192000 
    6000    1.3245259   -4.9045602   -4.9045602   -2.9177719    1.8413165   -4.9045602    1.9867883      8192000 
    7000    1.3168488   -4.9261666   -4.9261666   -2.9508939    1.3028427   -4.9261666    1.9752727      8192000 
    8000    1.3033663   -4.9261713   -4.9261713   -2.9711224   0.81640019   -4.9261713    1.9550489      8192000 
    9000    1.2766761    -4.896293    -4.896293   -2.9812793   0.42749328    -4.896293    1.9150137      8192000 
   10000    1.2399698   -4.8444767   -4.8444767   -2.9845225   0.13655294   -4.8444767    1.8599542      8192000 
   11000    1.2000576   -4.7836108   -4.7836108   -2.9835249 -0.064781857   -4.7836108    1.8000859      8192000 
   12000    1.1634628   -4.7251534   -4.7251534   -2.9799595   -0.1823645   -4.7251534    1.7451938      8192000 
   13000    1.1387685   -4.6832474   -4.6832474   -2.9750951  -0.21806981   -4.6832474    1.7081523      8192000 
   14000    1.1349802   -4.6722522   -4.6722522   -2.9697822  -0.16247878   -4.6722522    1.7024699      8192000 
   15000    1.1425773   -4.6788117   -4.6788117   -2.9649462 -0.071965922   -4.6788117    1.7138655      8192000 
   16000     1.151283   -4.6890019   -4.6890019   -2.9620778 0.0071929122   -4.6890019    1.7269241      8192000 
   17000     1.157782   -4.6978087   -4.6978087   -2.9611361  0.066467934   -4.6978087    1.7366725      8192000 
   18000    1.1615823   -4.7049927   -4.7049927   -2.9626197  0.099550802   -4.7049927     1.742373      8192000 
   19000    1.1631588   -4.7104367   -4.7104367   -2.9656989   0.12417998   -4.7104367    1.7447378      8192000 
   20000    1.1631421   -4.7143434   -4.7143434   -2.9696307   0.13946345   -4.7143434    1.7447127      8192000 
   21000    1.1614676   -4.7157494   -4.7157494   -2.9735485   0.14535792   -4.7157494    1.7422009      8192000 
   22000    1.1593677   -4.7159304   -4.7159304   -2.9768793   0.14188236   -4.7159304    1.7390511      8192000 
   23000    1.1586184   -4.7174905   -4.7174905   -2.9795633   0.13722884   -4.7174905    1.7379272      8192000 
   24000    1.1590666   -4.7201915   -4.7201915   -2.9815921   0.14167435   -4.7201915    1.7385994      8192000 
   25000    1.1617994   -4.7257479   -4.7257479   -2.9830492   0.15578256   -4.7257479    1.7426987      8192000 
   26000    1.1647377   -4.7313871   -4.7313871    -2.984281    0.1795587   -4.7313871    1.7471061      8192000 
   27000    1.1670946   -4.7364805   -4.7364805    -2.985839   0.20010815   -4.7364805    1.7506415      8192000 
   28000    1.1686401   -4.7402715   -4.7402715   -2.9873118    0.2126529   -4.7402715    1.7529598      8192000 
   29000    1.1686183   -4.7419781   -4.7419781    -2.989051   0.21524422   -4.7419781     1.752927      8192000 
   30000    1.1671181   -4.7414787   -4.7414787   -2.9908021   0.21147796   -4.7414787    1.7506767      8192000 
   31000    1.1655251   -4.7405851   -4.7405851   -2.9922979   0.20668048   -4.7405851    1.7482872      8192000 
   32000    1.1636046   -4.7389767   -4.7389767   -2.9935703   0.20055083   -4.7389767    1.7454064      8192000 
   33000    1.1625647   -4.7387379   -4.7387379   -2.9948913   0.19563943   -4.7387379    1.7438466      8192000 
   34000    1.1613916   -4.7382984   -4.7382984   -2.9962115   0.19092978   -4.7382984     1.742087      8192000 
   35000    1.1611629   -4.7387188   -4.7387188   -2.9969749   0.19320968   -4.7387188    1.7417439      8192000 
   36000    1.1618079   -4.7406897   -4.7406897   -2.9979783   0.19791196   -4.7406897    1.7427114      8192000 
   37000    1.1625271   -4.7428106   -4.7428106   -2.9990203   0.20691348   -4.7428106    1.7437903      8192000 
   38000    1.1630975   -4.7447051   -4.7447051   -3.0000593   0.21539565   -4.7447051    1.7446458      8192000 
   39000    1.1641971   -4.7476651   -4.7476651   -3.0013699    0.2193921   -4.7476651    1.7462952      8192000 
   40000    1.1642225   -4.7486547   -4.7486547   -3.0023214    0.2246775   -4.7486547    1.7463333      8192000 
   41000    1.1646448   -4.7505099   -4.7505099   -3.0035432   0.22726986   -4.7505099    1.7469667      8192000 
   42000    1.1644594   -4.7512023   -4.7512023   -3.0045136   0.23442421   -4.7512023    1.7466886      8192000 
   43000    1.1652823   -4.7533892   -4.7533892   -3.0054662   0.24039551   -4.7533892     1.747923      8192000 
   44000    1.1675313   -4.7585562   -4.7585562   -3.0072597   0.39361516   -4.7585562    1.7512965      8192000 
   45000    1.1685606   -4.7611543   -4.7611543   -3.0083138   0.73643653   -4.7611543    1.7528405      8192000 
   46000    1.1680733   -4.7613585   -4.7613585   -3.0092491    1.0958488   -4.7613585    1.7521094      8192000 
   47000    1.1670733   -4.7607277   -4.7607277   -3.0101183     1.443158   -4.7607277    1.7506094      8192000 
   48000    1.1676068   -4.7624754   -4.7624754   -3.0110657    1.7944167   -4.7624754    1.7514097      8192000 
   49000    1.1687055   -4.7650221   -4.7650221   -3.0119644     2.152083   -4.7650221    1.7530577      8192000 
   50000    1.1707926    -4.769053    -4.769053   -3.0128646    2.4505739    -4.769053    1.7561884      8192000 
   51000    1.1755521   -4.7770073   -4.7770073   -3.0136796    2.4249436   -4.7770073    1.7633277      8192000 
   52000    1.1755185   -4.7780047   -4.7780047   -3.0147274    2.1607134   -4.7780047    1.7632772      8192000 
   53000    1.1728128   -4.7747244   -4.7747244   -3.0155056    1.8878403   -4.7747244    1.7592188      8192000 
   54000     1.171388   -4.7733687   -4.7733687   -3.0162871    1.6210118   -4.7733687    1.7570816      8192000 
   55000    1.1674603   -4.7682914   -4.7682914   -3.0171014    1.3594666   -4.7682914      1.75119      8192000 
   56000    1.1589436   -4.7559694   -4.7559694   -3.0175544    1.1213893   -4.7559694    1.7384149      8192000 
   57000    1.1405522   -4.7291677   -4.7291677   -3.0183398   0.92480607   -4.7291677    1.7108279      8192000 
   58000    1.1172546   -4.6950389   -4.6950389   -3.0191575   0.75223375   -4.6950389    1.6758815      8192000 
   59000    1.0921508   -4.6582111   -4.6582111   -3.0199853   0.59929714   -4.6582111    1.6382258      8192000 
   60000     1.066989   -4.6213072   -4.6213072   -3.0208241   0.46637532   -4.6213072    1.6004831      8192000 
   61000    1.0409195    -4.583193    -4.583193   -3.0218142   0.34366458    -4.583193    1.5613788      8192000 
   62000    1.0158294   -4.5465996   -4.5465996   -3.0228558    0.2360998   -4.5465996    1.5237438      8192000 
   63000   0.99172787   -4.5112367   -4.5112367   -3.0236453   0.14395831   -4.5112367    1.4875914      8192000 
   64000   0.96947656   -4.4786923   -4.4786923   -3.0244778  0.073043807   -4.4786923    1.4542145      8192000 
   65000   0.94939321   -4.4496775   -4.4496775    -3.025588  0.017383184   -4.4496775    1.4240895      8192000 
   66000   0.93170848    -4.423949    -4.423949   -3.0263866 -0.020483085    -4.423949    1.3975624      8192000 
   67000   0.91725786   -4.4032933   -4.4032933   -3.0274068  -0.04923918   -4.4032933    1.3758864      8192000 
   68000    0.9050737   -4.3859019   -4.3859019   -3.0282917 -0.062676498   -4.3859019    1.3576102      8192000 
   69000   0.89726415   -4.3752134   -4.3752134   -3.0293175 -0.073492788   -4.3752134    1.3458959      8192000 
   70000   0.89239101   -4.3690284   -4.3690284   -3.0304422 -0.073954614   -4.3690284    1.3385862      8192000 
   71000   0.89052024   -4.3671778   -4.3671778   -3.0313978 -0.061742193   -4.3671778      1.33578      8192000 
   72000   0.89092181   -4.3688253   -4.3688253   -3.0324429 -0.042485434   -4.3688253    1.3363824      8192000 
   73000   0.89367934   -4.3741997   -4.3741997    -3.033681 -0.022776041   -4.3741997    1.3405187      8192000 
   74000   0.89734493   -4.3810666   -4.3810666   -3.0350496 0.0031198948   -4.3810666    1.3460171      8192000 
   75000   0.90129317   -4.3883083   -4.3883083   -3.0363689  0.028433358   -4.3883083    1.3519394      8192000 
   76000    0.9061461   -4.3969199   -4.3969199   -3.0377011  0.054841043   -4.3969199    1.3592188      8192000 
   77000   0.91079276   -4.4053506   -4.4053506   -3.0391618  0.083859327   -4.4053506    1.3661888      8192000 
   78000   0.91453171   -4.4122807   -4.4122807   -3.0404835   0.10816265   -4.4122807    1.3717972      8192000 
   79000    0.9173446   -4.4178306   -4.4178306    -3.041814   0.12592411   -4.4178306    1.3760166      8192000 
   80000   0.91849994   -4.4212052   -4.4212052   -3.0434556   0.14013214   -4.4212052    1.3777496      8192000 
   81000    0.9179028   -4.4218433   -4.4218433   -3.0449895   0.14951761   -4.4218433    1.3768538      8192000 
   82000   0.91775614   -4.4232816   -4.4232816   -3.0466477   0.15306313   -4.4232816    1.3766339      8192000 
   83000   0.91665633   -4.4235158   -4.4235158   -3.0485317    0.1544713   -4.4235158    1.3749842      8192000 
   84000   0.91590283   -4.4240966   -4.4240966   -3.0502427   0.15665777   -4.4240966    1.3738539      8192000 
   85000   0.91514654   -4.4246798   -4.4246798   -3.0519603   0.16110278   -4.4246798    1.3727195      8192000 
   86000   0.91457417   -4.4257552   -4.4257552   -3.0538943   0.15900349   -4.4257552    1.3718609      8192000 
   87000   0.91357291   -4.4261066   -4.4261066   -3.0557476   0.15820719   -4.4261066     1.370359      8192000 
   88000   0.91130229   -4.4248288   -4.4248288   -3.0578757   0.15146218   -4.4248288    1.3669531      8192000 
   89000    0.9082035   -4.4223216   -4.4223216   -3.0600167   0.14245178   -4.4223216    1.3623049      8192000 
   90000   0.90455798   -4.4188714   -4.4188714   -3.0620348   0.13063819   -4.4188714    1.3568366      8192000 
   91000   0.90092688    -4.415675    -4.415675    -3.064285   0.11795378    -4.415675      1.35139      8192000 
   92000   0.89752121   -4.4125223   -4.4125223   -3.0662408   0.10496986   -4.4125223    1.3462815      8192000 
   93000   0.89345692   -4.4085629   -4.4085629   -3.0683779  0.094821734   -4.4085629     1.340185      8192000 
   94000   0.89025256   -4.4057969   -4.4057969   -3.0704184  0.084782978   -4.4057969    1.3353785      8192000 
   95000   0.88810622    -4.404731    -4.404731    -3.072572  0.075049071    -4.404731     1.332159      8192000 
   96000   0.88549307   -4.4026874   -4.4026874   -3.0744481  0.070097579   -4.4026874    1.3282393      8192000 
   97000   0.88321099   -4.4013528   -4.4013528   -3.0765366  0.063088119   -4.4013528    1.3248161      8192000 
   98000   0.88119156    -4.400538    -4.400538   -3.0787509  0.057438399    -4.400538     1.321787      8192000 
   99000   0.87922893   -4.3997856   -4.3997856   -3.0809425  0.050415112   -4.3997856    1.3188431      8192000 
  100000   0.87795497   -4.4001004   -4.4001004   -3.0831683  0.047484851   -4.4001004    1.3169321      8192000 
  101000   0.87653342   -4.4004129   -4.4004129   -3.0856132  0.046029204   -4.4004129    1.3147998      8192000 
  102000   0.87649249   -4.4026881   -4.4026881   -3.0879497  0.045354497   -4.4026881    1.3147384      8192000 
  103000    0.8758187   -4.4037821   -4.4037821   -3.0900543  0.048769286   -4.4037821    1.3137277      8192000 
  104000   0.87640854   -4.4068627   -4.4068627   -3.0922502  0.051831769   -4.4068627    1.3146125      8192000 
  105000   0.87695735   -4.4098637   -4.4098637    -3.094428   0.05973367   -4.4098637    1.3154357      8192000 
  106000   0.87853218   -4.4147361   -4.4147361   -3.0969382  0.064280753   -4.4147361    1.3177979      8192000 
  107000   0.87905965   -4.4180051   -4.4180051   -3.0994159  0.071397981   -4.4180051    1.3185891      8192000 
  108000   0.88087237   -4.4228017   -4.4228017   -3.1014935  0.076583951   -4.4228017    1.3213082      8192000 
  109000    0.8816894   -4.4263249   -4.4263249   -3.1037911  0.083840042   -4.4263249    1.3225338      8192000 
  110000   0.88247819   -4.4295809   -4.4295809    -3.105864  0.089864991   -4.4295809     1.323717      8192000 
  111000   0.88298559   -4.4322162   -4.4322162   -3.1077381  0.096600889   -4.4322162    1.3244781      8192000 
  112000   0.88340323   -4.4348624   -4.4348624   -3.1097579  0.098942782   -4.4348624    1.3251045      8192000 
  113000   0.88381048   -4.4371967   -4.4371967   -3.1114813   0.10199842   -4.4371967    1.3257154      8192000 
  114000    0.8837046   -4.4389429   -4.4389429   -3.1133863   0.10600698   -4.4389429    1.3255566      8192000 
  115000   0.88446036   -4.4421388   -4.4421388   -3.1154486    0.1054086   -4.4421388    1.3266902      8192000 
  116000   0.88408918   -4.4435647   -4.4435647   -3.1174312   0.10658637   -4.4435647    1.3261334      8192000 
  117000   0.88400982   -4.4452805   -4.4452805   -3.1192661   0.10593014   -4.4452805    1.3260144      8192000 
  118000   0.88251416   -4.4450014   -4.4450014   -3.1212305    0.1062037   -4.4450014    1.3237709      8192000 
  119000   0.88200196   -4.4464283   -4.4464283   -3.1234257   0.10021385   -4.4464283    1.3230026      8192000 
  120000   0.88075314   -4.4466132   -4.4466132   -3.1254838   0.09706025   -4.4466132    1.3211294      8192000 
  121000   0.87957761   -4.4467047   -4.4467047   -3.1273387  0.091373051   -4.4467047    1.3193661      8192000 
  122000    0.8783478   -4.4469009   -4.4469009   -3.1293796  0.086023299   -4.4469009    1.3175214      8192000 
  123000   0.87743652   -4.4474857   -4.4474857   -3.1313313  0.083748905   -4.4474857    1.3161545      8192000 
  124000   0.87676079   -4.4485341   -4.4485341   -3.1333933  0.083092756   -4.4485341    1.3151409      8192000 
  125000   0.87706091   -4.4508473   -4.4508473   -3.1352562  0.082824221   -4.4508473     1.315591      8192000 
  126000   0.87719662   -4.4531951   -4.4531951   -3.1374005  0.084827167   -4.4531951    1.3157946      8192000 
  127000   0.87826041   -4.4570351   -4.4570351   -3.1396448  0.089243881   -4.4570351    1.3173903      8192000 
  128000   0.87878722   -4.4599074   -4.4599074   -3.1417269  0.099765741   -4.4599074    1.3181805      8192000 
  129000   0.88140407   -4.4658865   -4.4658865   -3.1437807   0.10636315   -4.4658865    1.3221058      8192000 
  130000   0.88379213   -4.4714246   -4.4714246   -3.1457367   0.11706386   -4.4714246    1.3256879      8192000 
  131000   0.88682356   -4.4781538   -4.4781538   -3.1479188   0.13276549   -4.4781538     1.330235      8192000 
  132000   0.89026755   -4.4857116   -4.4857116   -3.1503106   0.14999811   -4.4857116     1.335401      8192000 
  133000   0.89422961   -4.4941916   -4.4941916   -3.1528475   0.16858697   -4.4941916    1.3413441      8192000 
  134000   0.89821507   -4.5028389   -4.5028389   -3.1555167   0.19025099   -4.5028389    1.3473223      8192000 
  135000   0.90246376   -4.5117711   -4.5117711   -3.1580758   0.21640153   -4.5117711    1.3536953      8192000 
  136000   0.90756581   -4.5218654   -4.5218654   -3.1605171   0.24354724   -4.5218654    1.3613484      8192000 
  137000   0.91308887   -4.5331016   -4.5331016   -3.1634687   0.27044505   -4.5331016     1.369633      8192000 
  138000   0.91821855   -4.5435507   -4.5435507   -3.1662233   0.30102577   -4.5435507    1.3773275      8192000 
  139000   0.92387134   -4.5550991   -4.5550991   -3.1692925   0.33405766   -4.5550991    1.3858067      8192000 
  140000    0.9289413   -4.5660172   -4.5660172   -3.1726056   0.37368889   -4.5660172    1.3934116      8192000 
  141000   0.93417114   -4.5772488   -4.5772488   -3.1759925     0.414558   -4.5772488    1.4012564      8192000 
  142000   0.93986763   -4.5894388   -4.5894388   -3.1796377    0.4576762   -4.5894388    1.4098011      8192000 
  143000    0.9446275   -4.6001645   -4.6001645   -3.1832237   0.50242902   -4.6001645    1.4169409      8192000 
  144000    0.9495165   -4.6115162   -4.6115162   -3.1872418   0.54370954   -4.6115162    1.4242744      8192000 
  145000   0.95282778     -4.62088     -4.62088   -3.1916387   0.58581492     -4.62088    1.4292413      8192000 
  146000   0.95627866   -4.6305685   -4.6305685   -3.1961508   0.62153425   -4.6305685    1.4344176      8192000 
  147000   0.95902509   -4.6395004   -4.6395004   -3.2009631   0.65486834   -4.6395004    1.4385373      8192000 
  148000   0.95987381   -4.6457369   -4.6457369   -3.2059265    0.6825692   -4.6457369    1.4398104      8192000 
  149000   0.95970865   -4.6506696   -4.6506696    -3.211107   0.69782569   -4.6506696    1.4395626      8192000 
  150000   0.95954267   -4.6555243   -4.6555243   -3.2162107    0.7002058   -4.6555243    1.4393136      8192000 
  151000   0.95731498   -4.6570012   -4.6570012   -3.2210291   0.69794054   -4.6570012    1.4359721      8192000 
  152000   0.95434859   -4.6571442   -4.6571442   -3.2256217   0.68729901   -4.6571442    1.4315225      8192000 
  153000   0.95087445   -4.6564719   -4.6564719   -3.2301606   0.67223576   -4.6564719    1.4263113      8192000 
  154000   0.94753268   -4.6556734   -4.6556734   -3.2343747   0.64899021   -4.6556734    1.4212987      8192000 
  155000   0.94326875   -4.6532891   -4.6532891   -3.2383863   0.62649301   -4.6532891    1.4149028      8192000 
  156000   0.93877317   -4.6503103   -4.6503103   -3.2421509   0.60054104   -4.6503103    1.4081594      8192000 
  157000      0.93429   -4.6470804   -4.6470804   -3.2456458   0.56861264   -4.6470804    1.4014346      8192000 
  158000   0.92888341   -4.6422819   -4.6422819   -3.2489571   0.53543578   -4.6422819    1.3933248      8192000 
  159000   0.92267966   -4.6360446   -4.6360446   -3.2520254   0.49959855   -4.6360446    1.3840191      8192000 
  160000   0.91605586   -4.6291483   -4.6291483   -3.2550649   0.46169858   -4.6291483    1.3740835      8192000 
  161000   0.90888013   -4.6211491   -4.6211491   -3.2578292   0.41964409   -4.6211491    1.3633199      8192000 
  162000   0.90075342   -4.6113617   -4.6113617   -3.2602319   0.37608701   -4.6113617    1.3511298      8192000 
  163000   0.89295305   -4.6014763   -4.6014763    -3.262047   0.32846376   -4.6014763    1.3394292      8192000 
  164000   0.88411195   -4.5899761   -4.5899761   -3.2638085   0.28183743   -4.5899761    1.3261676      8192000 
  165000   0.87547172   -4.5785414   -4.5785414   -3.2653341   0.23319907   -4.5785414    1.3132073      8192000 
  166000   0.86608834   -4.5654528   -4.5654528   -3.2663206   0.18929729   -4.5654528    1.2991322      8192000 
  167000   0.85663674   -4.5519324   -4.5519324   -3.2669776   0.14924962   -4.5519324    1.2849548      8192000 
  168000   0.84781996    -4.539307    -4.539307   -3.2675774   0.10639696    -4.539307    1.2717296      8192000 
  169000   0.83906983   -4.5264184   -4.5264184    -3.267814  0.070729811   -4.5264184    1.2586044      8192000 
  170000   0.82992401   -4.5130428   -4.5130428   -3.2681571  0.039756457   -4.5130428    1.2448857      8192000 
  171000   0.82178358   -4.5009969   -4.5009969   -3.2683218  0.011488996   -4.5009969    1.2326751      8192000 
  172000   0.81391966   -4.4892615   -4.4892615   -3.2683823   -0.0116489   -4.4892615    1.2208792      8192000 
  173000   0.80681399   -4.4785225   -4.4785225   -3.2683018  -0.03269291   -4.4785225    1.2102207      8192000 
  174000   0.80075438   -4.4694378   -4.4694378   -3.2683065 -0.052209202   -4.4694378    1.2011313      8192000 
  175000   0.79527587   -4.4610957   -4.4610957   -3.2681822 -0.065253257   -4.4610957    1.1929135      8192000 
  176000   0.79123904   -4.4546717   -4.4546717   -3.2678135 -0.075086968   -4.4546717    1.1868583      8192000 
  177000   0.78851398   -4.4502572   -4.4502572   -3.2674865 -0.082247884   -4.4502572    1.1827707      8192000 
  178000    0.7866823   -4.4471726   -4.4471726   -3.2671495 -0.084576636   -4.4471726    1.1800231      8192000 
  179000    0.7865772   -4.4466863   -4.4466863   -3.2668208 -0.081603094   -4.4466863    1.1798655      8192000 
  180000   0.78708043    -4.447207    -4.447207   -3.2665867 -0.075447627    -4.447207    1.1806204      8192000 
  181000   0.78964546   -4.4509297   -4.4509297   -3.2664618 -0.065545212   -4.4509297    1.1844679      8192000 
  182000   0.79343202   -4.4566845   -4.4566845   -3.2665367 -0.053047196   -4.4566845    1.1901477      8192000 
  183000   0.79709316   -4.4623554   -4.4623554   -3.2667159 -0.034761204   -4.4623554    1.1956394      8192000 
  184000   0.80162097   -4.4694479   -4.4694479   -3.2670168 -0.016799188   -4.4694479    1.2024312      8192000 
  185000   0.80606654   -4.4764758   -4.4764758   -3.2673763 0.0038171872   -4.4764758    1.2090995      8192000 
  186000   0.81088288   -4.4841573   -4.4841573   -3.2678333  0.022838006   -4.4841573     1.216324      8192000 
  187000   0.81469443   -4.4903814   -4.4903814   -3.2683401  0.040959435   -4.4903814    1.2220413      8192000 
  188000   0.81776702    -4.495473    -4.495473   -3.2688227  0.058825344    -4.495473    1.2266502      8192000 
  189000   0.82022455   -4.4999725   -4.4999725    -3.269636  0.068342874   -4.4999725    1.2303365      8192000 
  190000   0.82159491   -4.5026915   -4.5026915   -3.2702994  0.072550655   -4.5026915    1.2323921      8192000 
  191000   0.82199942   -4.5037697   -4.5037697   -3.2707709  0.079248724   -4.5037697    1.2329988      8192000 
  192000   0.82150494   -4.5032718   -4.5032718   -3.2710147  0.076417846   -4.5032718    1.2322571      8192000 
  193000   0.82062092   -4.5021551   -4.5021551    -3.271224  0.072547199   -4.5021551    1.2309311      8192000 
  194000   0.81883502    -4.499584    -4.499584   -3.2713318  0.062289905    -4.499584    1.2282522      8192000 
  195000   0.81651815   -4.4963968   -4.4963968   -3.2716199  0.051623698   -4.4963968    1.2247769      8192000 
  196000   0.81389397    -4.492305    -4.492305   -3.2714643  0.037719456    -4.492305    1.2208407      8192000 
  197000   0.81077272   -4.4877809   -4.4877809   -3.2716221  0.026394923   -4.4877809    1.2161588      8192000 
  198000   0.80799393    -4.483824    -4.483824   -3.2718334   0.01530363    -4.483824    1.2119906      8192000 
  199000   0.80518867   -4.4798962   -4.4798962   -3.2721135 0.0054128811   -4.4798962    1.2077827      8192000 
  200000   0.80333968   -4.4774507   -4.4774507   -3.2724415 -0.0020345329   -4.4774507    1.2050092      8192000 
  201000   0.80123292   -4.4744868   -4.4744868   -3.2726377 -0.0058247396   -4.4744868    1.2018491      8192000 
  202000   0.80038634   -4.4735827   -4.4735827   -3.2730035 -0.0096739136   -4.4735827    1.2005792      8192000 
  203000   0.80003103   -4.4731976   -4.4731976   -3.2731514 -0.012148145   -4.4731976    1.2000462      8192000 
  204000   0.79994153   -4.4733866   -4.4733866   -3.2734746 -0.010899364   -4.4733866     1.199912      8192000 
  205000   0.80079024   -4.4751187   -4.4751187   -3.2739336 -0.0082338339   -4.4751187    1.2011851      8192000 
  206000   0.80188195     -4.47699     -4.47699   -3.2741673 -0.0021852419     -4.47699    1.2028226      8192000 
  207000   0.80337573   -4.4795324   -4.4795324   -3.2744691 0.0043358645   -4.4795324    1.2050633      8192000 
  208000   0.80499078   -4.4820545   -4.4820545   -3.2745686  0.013207633   -4.4820545    1.2074859      8192000 
  209000   0.80711184   -4.4854075   -4.4854075   -3.2747401  0.022072223   -4.4854075    1.2106675      8192000 
  210000   0.80890116    -4.488238    -4.488238   -3.2748866  0.033682263    -4.488238    1.2133514      8192000 
  211000   0.81122402   -4.4918474   -4.4918474   -3.2750116  0.043319873   -4.4918474    1.2168357      8192000 
  212000   0.81345789   -4.4952428   -4.4952428   -3.2750563  0.052449351   -4.4952428    1.2201865      8192000 
  213000   0.81496088   -4.4974823   -4.4974823   -3.2750412  0.059921824   -4.4974823     1.222441      8192000 
  214000   0.81561788   -4.4985184   -4.4985184   -3.2750919  0.062882394   -4.4985184    1.2234265      8192000 
  215000   0.81531901   -4.4984125   -4.4984125   -3.2754343  0.064038325   -4.4984125    1.2229782      8192000 
  216000    0.8143772   -4.4970873   -4.4970873   -3.2755218  0.058468451   -4.4970873    1.2215655      8192000 
  217000   0.81265013   -4.4945254   -4.4945254   -3.2755505  0.054258445   -4.4945254    1.2189749      8192000 
  218000   0.81051099   -4.4913858   -4.4913858   -3.2756196  0.047454587   -4.4913858    1.2157662      8192000 
  219000   0.80840261   -4.4883924   -4.4883924   -3.2757888  0.037021572   -4.4883924    1.2126036      8192000 
  220000   0.80605983   -4.4850127   -4.4850127   -3.2759232  0.026039955   -4.4850127    1.2090894      8192000 
  221000   0.80347063   -4.4812167   -4.4812167    -3.276011  0.016650521   -4.4812167    1.2052056      8192000 
  222000   0.80140174   -4.4782683   -4.4782683   -3.2761659   0.00848653   -4.4782683    1.2021023      8192000 
  223000   0.79952186   -4.4753216   -4.4753216   -3.2760391 0.0022311382   -4.4753216    1.1992825      8192000 
  224000   0.79869198   -4.4740737   -4.4740737    -3.276036 -0.0021461341   -4.4740737    1.1980377      8192000 
  225000   0.79777111   -4.4728039   -4.4728039   -3.2761475 -0.0062294105   -4.4728039    1.1966564      8192000 
  226000   0.79769703   -4.4726567   -4.4726567   -3.2761115 -0.0053732805   -4.4726567    1.1965452      8192000 
  227000   0.79811184   -4.4732216   -4.4732216   -3.2760542 -0.0020597309   -4.4732216    1.1971675      8192000 
  228000   0.79961608   -4.4753545   -4.4753545   -3.2759307   0.00172567   -4.4753545    1.1994238      8192000 
  229000   0.80087011    -4.477072    -4.477072   -3.2757671  0.010050393    -4.477072    1.2013049      8192000 
  230000   0.80295011   -4.4802165   -4.4802165   -3.2757917  0.018820553   -4.4802165    1.2044249      8192000 
  231000   0.80470902   -4.4827694   -4.4827694   -3.2757061  0.028524841   -4.4827694    1.2070632      8192000 
  232000   0.80680298   -4.4858997   -4.4858997   -3.2756956  0.036769045   -4.4858997    1.2102042      8192000 
  233000   0.80814923   -4.4878311   -4.4878311   -3.2756076  0.047052627   -4.4878311    1.2122235      8192000 
  234000   0.80940795   -4.4894782   -4.4894782   -3.2753665  0.052919675   -4.4894782    1.2141116      8192000 
  235000   0.80962714   -4.4897433   -4.4897433   -3.2753029   0.05503515   -4.4897433    1.2144404      8192000 
  236000   0.80962618   -4.4894382   -4.4894382   -3.2749992  0.058031567   -4.4894382     1.214439      8192000 
  237000   0.80901931   -4.4883828   -4.4883828   -3.2748541  0.055148713   -4.4883828    1.2135287      8192000 
  238000   0.80848501    -4.487417    -4.487417   -3.2746898  0.048733054    -4.487417    1.2127272      8192000 
  239000   0.80725149   -4.4853654   -4.4853654   -3.2744884  0.043073114   -4.4853654    1.2108769      8192000 
  240000   0.80569872   -4.4827242   -4.4827242   -3.2741764  0.034590319   -4.4827242    1.2085478      8192000 
  241000   0.80355322   -4.4795081   -4.4795081   -3.2741786  0.027222615   -4.4795081    1.2053295      8192000 
  242000     0.801579   -4.4764753   -4.4764753   -3.2741071   0.02014996   -4.4764753    1.2023682      8192000 
  243000   0.80027999   -4.4741519   -4.4741519   -3.2737322  0.012762704   -4.4741519    1.2004197      8192000 
  244000   0.79833848   -4.4711655   -4.4711655    -3.273658 0.0090930418   -4.4711655    1.1975074      8192000 
  245000   0.79763232   -4.4701226   -4.4701226   -3.2736744  0.004391257   -4.4701226    1.1964482      8192000 
  246000   0.79681129   -4.4684894   -4.4684894   -3.2732727  0.004722365   -4.4684894    1.1952166      8192000 
  247000   0.79687795   -4.4681622   -4.4681622   -3.2728456 0.0041665031   -4.4681622    1.1953166      8192000 
  248000   0.79751951   -4.4688795   -4.4688795   -3.2726005 0.0048313464   -4.4688795     1.196279      8192000 
  249000   0.79807649   -4.4693433   -4.4693433   -3.2722288 0.0094531605   -4.4693433    1.1971144      8192000 
  250000   0.79903233   -4.4706199   -4.4706199   -3.2720717  0.015035693   -4.4706199    1.1985482      8192000 
  251000   0.80001828   -4.4718241   -4.4718241    -3.271797  0.019650251   -4.4718241    1.2000271      8192000 
  252000   0.80146529   -4.4736034   -4.4736034   -3.2714058  0.025162371   -4.4736034    1.2021976      8192000 
  253000   0.80278327   -4.4754637   -4.4754637   -3.2712891  0.031734101   -4.4754637    1.2041746      8192000 
  254000   0.80394772   -4.4766437   -4.4766437   -3.2707224  0.038442577   -4.4766437    1.2059213      8192000 
  255000   0.80531102   -4.4785201   -4.4785201   -3.2705539  0.042475776   -4.4785201    1.2079662      8192000 
  256000   0.80602491   -4.4792216   -4.4792216   -3.2701845  0.044289909   -4.4792216    1.2090371      8192000 
  257000   0.80593687   -4.4785729   -4.4785729   -3.2696679  0.045817741   -4.4785729     1.208905      8192000 
  258000    0.8055757   -4.4775987   -4.4775987   -3.2692354  0.045328745   -4.4775987    1.2083632      8192000 
  259000   0.80487296   -4.4761003   -4.4761003   -3.2687912  0.042452089   -4.4761003    1.2073091      8192000 
  260000   0.80368897   -4.4737033   -4.4737033   -3.2681702  0.040025447   -4.4737033    1.2055332      8192000 
  261000   0.80269989   -4.4717928   -4.4717928   -3.2677433  0.032318534   -4.4717928    1.2040495      8192000 
  262000   0.80099835   -4.4689396   -4.4689396   -3.2674424  0.029643689   -4.4689396    1.2014972      8192000 
  263000   0.80011587   -4.4671021   -4.4671021   -3.2669286  0.024131553   -4.4671021    1.2001735      8192000 
  264000   0.79822309   -4.4636856   -4.4636856   -3.2663513  0.017718537   -4.4636856    1.1973343      8192000 
  265000   0.79698153   -4.4613053   -4.4613053   -3.2658333  0.013458508   -4.4613053     1.195472      8192000 
  266000   0.79635433   -4.4600489   -4.4600489   -3.2655177 0.0085735097   -4.4600489    1.1945312      8192000 
  267000   0.79579994   -4.4586568   -4.4586568   -3.2649572 0.0049665786   -4.4586568    1.1936996      8192000 
  268000   0.79553357   -4.4578408   -4.4578408   -3.2645407 0.0054000515   -4.4578408    1.1933001      8192000 
  269000   0.79570981   -4.4575164   -4.4575164    -3.263952 0.0070947957   -4.4575164    1.1935644      8192000 
  270000   0.79598005   -4.4572507   -4.4572507    -3.263281  0.011666054   -4.4572507    1.1939698      8192000 
  271000   0.79730411   -4.4586168   -4.4586168   -3.2626609  0.014177392   -4.4586168    1.1959559      8192000 
  272000   0.79801509   -4.4593271   -4.4593271   -3.2623047  0.018154406   -4.4593271    1.1970223      8192000 
  273000   0.79956872   -4.4611595   -4.4611595   -3.2618068   0.02475509   -4.4611595    1.1993528      8192000 
  274000    0.8006087   -4.4621121   -4.4621121   -3.2611994  0.031250082   -4.4621121    1.2009128      8192000 
  275000   0.80235647   -4.4638651   -4.4638651   -3.2603307  0.035996699   -4.4638651    1.2035344      8192000 
  276000   0.80289615   -4.4638618   -4.4638618   -3.2595179  0.041766025   -4.4638618    1.2043439      8192000 
  277000   0.80328221   -4.4640905   -4.4640905   -3.2591674  0.042283977   -4.4640905     1.204923      8192000 
  278000   0.80384275   -4.4641292   -4.4641292   -3.2583654  0.044173263   -4.4641292    1.2057638      8192000 
  279000   0.80380549   -4.4633836   -4.4633836   -3.2576756  0.044834582   -4.4633836    1.2057079      8192000 
  280000     0.803227   -4.4619235   -4.4619235   -3.2570833  0.043236684   -4.4619235    1.2048402      8192000 
  281000    0.8020218   -4.4597303   -4.4597303    -3.256698   0.03969426   -4.4597303    1.2030324      8192000 
  282000   0.80132251   -4.4581188   -4.4581188   -3.2561353  0.036671087   -4.4581188    1.2019835      8192000 
  283000   0.80157058   -4.4576929   -4.4576929   -3.2553374  0.033999251   -4.4576929    1.2023556      8192000 
  284000   0.80126749    -4.456674    -4.456674   -3.2547731  0.036152636    -4.456674    1.2019009      8192000 
  285000   0.80198972   -4.4568871   -4.4568871   -3.2539028  0.041459422   -4.4568871    1.2029843      8192000 
  286000   0.80286696    -4.457584    -4.457584   -3.2532839  0.048794218    -4.457584    1.2043001      8192000 
  287000   0.80440815   -4.4592702   -4.4592702   -3.2526583  0.059038556   -4.4592702    1.2066119      8192000 
  288000   0.80716201   -4.4626936   -4.4626936   -3.2519509  0.068134491   -4.4626936    1.2107427      8192000 
  289000   0.80960279   -4.4656126   -4.4656126   -3.2512087  0.087019096   -4.4656126    1.2144039      8192000 
  290000   0.81288688   -4.4698444   -4.4698444   -3.2505144   0.10619574   -4.4698444      1.21933      8192000 
  291000   0.81646299   -4.4744633   -4.4744633   -3.2497692   0.12815553   -4.4744633    1.2246942      8192000 
  292000   0.82063216   -4.4799106   -4.4799106   -3.2489627   0.15261581   -4.4799106    1.2309479      8192000 
  293000   0.82492669   -4.4854641   -4.4854641   -3.2480744    0.1781227   -4.4854641    1.2373897      8192000 
  294000   0.82806205   -4.4893518   -4.4893518    -3.247259   0.21002191   -4.4893518    1.2420928      8192000 
  295000   0.83215971   -4.4949041   -4.4949041   -3.2466648   0.23152646   -4.4949041    1.2482392      8192000 
  296000   0.83514785   -4.4986938   -4.4986938   -3.2459724   0.24841501   -4.4986938    1.2527215      8192000 
  297000    0.8371994   -4.5010787   -4.5010787   -3.2452799   0.25549464   -4.5010787    1.2557988      8192000 
  298000   0.83796662   -4.5014115   -4.5014115   -3.2444619   0.26123096   -4.5014115    1.2569496      8192000 
  299000   0.83743539   -4.4997296   -4.4997296   -3.2435769    0.2572418   -4.4997296    1.2561528      8192000 
  300000   0.83566571   -4.4964213   -4.4964213    -3.242923   0.24455489   -4.4964213    1.2534982      8192000 
  301000   0.83213919   -4.4905408   -4.4905408   -3.2423323   0.22221038   -4.4905408    1.2482085      8192000 
  302000   0.82750339   -4.4826997   -4.4826997   -3.2414449   0.19559318   -4.4826997    1.2412548      8192000 
  303000    0.8228841   -4.4751796   -4.4751796   -3.2408537   0.16608078   -4.4751796    1.2343258      8192000 
  304000   0.81802527   -4.4671722   -4.4671722   -3.2401346    0.1380349   -4.4671722    1.2270376      8192000 
  305000   0.81321674   -4.4591404   -4.4591404   -3.2393156   0.11098478   -4.4591404    1.2198248      8192000 
  306000   0.80846643   -4.4512085   -4.4512085   -3.2385092  0.086966932   -4.4512085    1.2126993      8192000 
  307000    0.8042078   -4.4439581   -4.4439581   -3.2376466  0.067832755   -4.4439581    1.2063114      8192000 
  308000   0.80052065   -4.4377614   -4.4377614   -3.2369807  0.050507686   -4.4377614    1.2007807      8192000 
  309000   0.79742828   -4.4323921   -4.4323921     -3.23625  0.035966281   -4.4323921    1.1961421      8192000 
  310000   0.79460532   -4.4275309   -4.4275309   -3.2356233  0.026936098   -4.4275309    1.1919077      8192000 
  311000   0.79289728   -4.4242525   -4.4242525   -3.2349069  0.018833462   -4.4242525    1.1893456      8192000 
  312000   0.79106476   -4.4208902   -4.4208902   -3.2342933  0.012990306   -4.4208902    1.1865968      8192000 
  313000   0.79048744   -4.4194913   -4.4194913   -3.2337604 0.0084484689   -4.4194913    1.1857309      8192000 
  314000   0.78968372   -4.4175965   -4.4175965   -3.2330712 0.0063631772   -4.4175965    1.1845253      8192000 
  315000   0.78937659   -4.4164916   -4.4164916    -3.232427 0.0089103536   -4.4164916    1.1840646      8192000 
  316000   0.79005891   -4.4168131   -4.4168131    -3.231725  0.013651355   -4.4168131    1.1850881      8192000 
  317000   0.79148748    -4.418327    -4.418327   -3.2310961  0.016984418    -4.418327    1.1872309      8192000 
  318000   0.79320621   -4.4203237   -4.4203237   -3.2305147  0.022018176   -4.4203237     1.189809      8192000 
  319000   0.79395792   -4.4206858   -4.4206858   -3.2297492  0.030597175   -4.4206858    1.1909366      8192000 
  320000   0.79558116   -4.4226781   -4.4226781   -3.2293067  0.033397277   -4.4226781    1.1933714      8192000 
  321000   0.79660378   -4.4238746   -4.4238746   -3.2289693  0.038669768   -4.4238746    1.1949054      8192000 
  322000   0.79719016   -4.4245066   -4.4245066   -3.2287216  0.043686672   -4.4245066    1.1957849      8192000 
  323000   0.79794408   -4.4249884   -4.4249884   -3.2280726   0.04670277   -4.4249884    1.1969158      8192000 
  324000    0.7988493   -4.4258399   -4.4258399   -3.2275662  0.049357532   -4.4258399    1.1982736      8192000 
  325000   0.79942904   -4.4260961   -4.4260961   -3.2269529  0.051230238   -4.4260961    1.1991433      8192000 
  326000   0.79925846   -4.4253132   -4.4253132   -3.2264258   0.05089537   -4.4253132    1.1988874      8192000 
  327000   0.79874848   -4.4239464   -4.4239464    -3.225824    0.0496007   -4.4239464    1.1981224      8192000 
  328000   0.79860964   -4.4233021   -4.4233021    -3.225388  0.045203717   -4.4233021    1.1979142      8192000 
  329000    0.7974024   -4.4211616   -4.4211616   -3.2250583  0.042151039   -4.4211616    1.1961033      8192000 
  330000   0.79582777   -4.4185822   -4.4185822   -3.2248408  0.037231411   -4.4185822    1.1937414      8192000 
  331000   0.79486672   -4.4169602   -4.4169602   -3.2246604  0.028957261   -4.4169602    1.1922998      8192000 
  332000   0.79343302   -4.4144429   -4.4144429   -3.2242937  0.022019588   -4.4144429    1.1901492      8192000 
  333000   0.79161383   -4.4114682   -4.4114682   -3.2240478  0.019489204   -4.4114682    1.1874205      8192000 
  334000   0.79072576   -4.4097551   -4.4097551   -3.2236668  0.012710508   -4.4097551    1.1860883      8192000 
  335000   0.78909552   -4.4070454   -4.4070454   -3.2234025 0.0091544311   -4.4070454     1.183643      8192000 
  336000   0.78862175   -4.4060661   -4.4060661   -3.2231337 0.0038228646   -4.4060661    1.1829323      8192000 
  337000   0.78785288   -4.4048046   -4.4048046   -3.2230256 0.0015125881   -4.4048046     1.181779      8192000 
  338000   0.78764545   -4.4040779   -4.4040779     -3.22261 0.00091348357   -4.4040779    1.1814679      8192000 
  339000   0.78747428   -4.4037692   -4.4037692   -3.2225581 0.00017338734   -4.4037692    1.1812111      8192000 
  340000    0.7879594   -4.4043657   -4.4043657   -3.2224269 0.0012318885   -4.4043657    1.1819388      8192000 
  341000   0.78796183   -4.4040793   -4.4040793   -3.2221368 0.0060386585   -4.4040793    1.1819424      8192000 
  342000   0.78918928   -4.4057491   -4.4057491   -3.2219654 0.0080665144   -4.4057491    1.1837836      8192000 
  343000    0.7895551   -4.4062605   -4.4062605   -3.2219282  0.013037502   -4.4062605    1.1843324      8192000 
  344000   0.79076316   -4.4080294   -4.4080294    -3.221885  0.015598401   -4.4080294    1.1861444      8192000 
  345000   0.79169858   -4.4092664   -4.4092664   -3.2217188  0.022249951   -4.4092664    1.1875476      8192000 
  346000   0.79276626   -4.4108113   -4.4108113   -3.2216622  0.026784514   -4.4108113    1.1891491      8192000 
  347000    0.7941426   -4.4127075   -4.4127075   -3.2214939    0.0297722   -4.4127075    1.1912136      8192000 
  348000   0.79475752   -4.4132928   -4.4132928   -3.2211569  0.035381804   -4.4132928     1.192136      8192000 
  349000   0.79576161   -4.4145573   -4.4145573   -3.2209152  0.039592731   -4.4145573    1.1936421      8192000 
  350000   0.79657923   -4.4156911   -4.4156911   -3.2208226  0.040845053   -4.4156911    1.1948686      8192000 
  351000   0.79665594   -4.4154689   -4.4154689   -3.2204853  0.042139634   -4.4154689    1.1949836      8192000 
  352000   0.79723825   -4.4163046   -4.4163046   -3.2204475  0.042324504   -4.4163046    1.1958571      8192000 
  353000   0.79653035   -4.4152834   -4.4152834   -3.2204882  0.040292068   -4.4152834    1.1947952      8192000 
  354000   0.79603125   -4.4145143   -4.4145143   -3.2204677  0.038701429   -4.4145143    1.1940466      8192000 
  355000   0.79540936   -4.4135126   -4.4135126   -3.2203988  0.035081394   -4.4135126    1.1931137      8192000 
  356000   0.79435792   -4.4116915   -4.4116915   -3.2201549  0.033437546   -4.4116915    1.1915366      8192000 
  357000   0.79369371   -4.4104052   -4.4104052   -3.2198649  0.028015742   -4.4104052    1.1905403      8192000 
  358000    0.7928424   -4.4090794   -4.4090794   -3.2198161  0.023060267   -4.4090794    1.1892633      8192000 
  359000   0.79161943   -4.4070704   -4.4070704   -3.2196415  0.017567911   -4.4070704    1.1874288      8192000 
  360000   0.78993548   -4.4044196   -4.4044196   -3.2195167  0.014560337   -4.4044196    1.1849029      8192000 
  361000   0.78924872   -4.4032754   -4.4032754   -3.2194026 0.0084001601   -4.4032754    1.1838728      8192000 
  362000   0.78801067   -4.4015099   -4.4015099   -3.2194942 0.0070490875   -4.4015099    1.1820157      8192000 
  363000   0.78777582   -4.4010604   -4.4010604    -3.219397 0.0029723037   -4.4010604    1.1816634      8192000 
  364000   0.78763911   -4.4008667   -4.4008667   -3.2194083 0.0011963167   -4.4008667    1.1814584      8192000 
  365000   0.78756484   -4.4003559   -4.4003559   -3.2190089 0.0013222657   -4.4003559     1.181347      8192000 
  366000   0.78750133   -4.4002258   -4.4002258   -3.2189741 0.0027002484   -4.4002258    1.1812517      8192000 
  367000   0.78811536   -4.4010308   -4.4010308    -3.218858  0.004140926   -4.4010308    1.1821727      8192000 
  368000   0.78854053   -4.4014495   -4.4014495    -3.218639 0.0078809452   -4.4014495    1.1828105      8192000 
  369000   0.78928351   -4.4023892   -4.4023892   -3.2184642   0.01052348   -4.4023892     1.183925      8192000 
  370000   0.78972774   -4.4030021   -4.4030021   -3.2184108  0.013580293   -4.4030021    1.1845913      8192000 
  371000   0.79076511    -4.404483    -4.404483   -3.2183356  0.015843225    -4.404483    1.1861474      8192000 
  372000   0.79165162   -4.4055501   -4.4055501   -3.2180729  0.019944578   -4.4055501    1.1874771      8192000 
  373000   0.79332269   -4.4079456   -4.4079456   -3.2179619  0.022596589   -4.4079456    1.1899837      8192000 
  374000   0.79393235   -4.4087609   -4.4087609   -3.2178626  0.028423377   -4.4087609    1.1908982      8192000 
  375000   0.79472622   -4.4099026   -4.4099026   -3.2178136  0.031219238   -4.4099026     1.192089      8192000 
  376000   0.79533762   -4.4106899   -4.4106899   -3.2176838  0.032240467   -4.4106899    1.1930061      8192000 
  377000   0.79559082   -4.4107035   -4.4107035   -3.2173176  0.035145654   -4.4107035    1.1933859      8192000 
  378000   0.79586278   -4.4111242   -4.4111242   -3.2173303   0.03399353   -4.4111242    1.1937939      8192000 
  379000   0.79565483   -4.4107041   -4.4107041   -3.2172222  0.033411181   -4.4107041     1.193482      8192000 
  380000   0.79504538     -4.40968     -4.40968   -3.2171123  0.033234759     -4.40968    1.1925678      8192000 
  381000   0.79495673   -4.4093349   -4.4093349   -3.2169001  0.030820252   -4.4093349    1.1924348      8192000 
  382000   0.79414696   -4.4079931   -4.4079931    -3.216773  0.029415781   -4.4079931    1.1912201      8192000 
  383000   0.79318413   -4.4065668   -4.4065668   -3.2167909  0.025649186   -4.4065668    1.1897759      8192000 
  384000   0.79252461   -4.4054787   -4.4054787   -3.2166921  0.021278248   -4.4054787    1.1887866      8192000 
  385000   0.79184527   -4.4043462   -4.4043462   -3.2165786  0.017181633   -4.4043462    1.1877676      8192000 
  386000   0.79066493   -4.4022244   -4.4022244   -3.2162273  0.014193573   -4.4022244    1.1859971      8192000 
  387000   0.78958284   -4.4004757   -4.4004757   -3.2161017  0.012151402   -4.4004757     1.184374      8192000 
  388000   0.78951255   -4.4001501   -4.4001501   -3.2158816 0.0073075558   -4.4001501    1.1842685      8192000 
  389000   0.78951788   -4.4000936   -4.4000936   -3.2158171 0.0048977372   -4.4000936    1.1842765      8192000 
  390000   0.78859643    -4.398466    -4.398466   -3.2155716 0.0055149324    -4.398466    1.1828943      8192000 
  391000   0.78856517   -4.3982825   -4.3982825   -3.2154351 0.0027261887   -4.3982825    1.1828475      8192000 
  392000   0.78841972   -4.3982309   -4.3982309   -3.2156016  0.004105389   -4.3982309    1.1826293      8192000 
  393000   0.78858771   -4.3980501   -4.3980501   -3.2151688 0.0049350887   -4.3980501    1.1828813      8192000 
  394000   0.78886552    -4.398626    -4.398626    -3.215328 0.0052810395    -4.398626     1.183298      8192000 
  395000   0.78962348   -4.3993847   -4.3993847   -3.2149498 0.0065973171   -4.3993847    1.1844349      8192000 
  396000   0.79020735   -4.4000075   -4.4000075   -3.2146968  0.010241756   -4.4000075    1.1853107      8192000 
  397000   0.79057926    -4.400351    -4.400351   -3.2144824  0.014610554    -4.400351    1.1858686      8192000 
  398000   0.79190237   -4.4020745   -4.4020745   -3.2142213  0.017006736   -4.4020745    1.1878533      8192000 
  399000   0.79287868   -4.4035487   -4.4035487    -3.214231  0.020084806   -4.4035487    1.1893177      8192000 
  400000   0.79324508    -4.403864    -4.403864   -3.2139966  0.023795595    -4.403864    1.1898673      8192000 
  401000   0.79420678   -4.4051325   -4.4051325   -3.2138226  0.027068259   -4.4051325    1.1913099      8192000 
  402000   0.79485685   -4.4055697   -4.4055697   -3.2132847  0.030104881   -4.4055697     1.192285      8192000 
  403000   0.79499718   -4.4055095   -4.4055095   -3.2130141   0.03092155   -4.4055095    1.1924955      8192000 
  404000   0.79567338   -4.4061974   -4.4061974   -3.2126876  0.030557898   -4.4061974    1.1935098      8192000 
  405000    0.7950701   -4.4050088   -4.4050088    -3.212404  0.029780475   -4.4050088    1.1926049      8192000 
  406000   0.79561765   -4.4057444   -4.4057444   -3.2123182  0.027762623   -4.4057444    1.1934262      8192000 
  407000   0.79512369   -4.4048459   -4.4048459   -3.2121606  0.026992503   -4.4048459    1.1926852      8192000 
  408000   0.79406388   -4.4029027   -4.4029027   -3.2118071  0.026379865   -4.4029027    1.1910955      8192000 
  409000    0.7939966   -4.4026859   -4.4026859   -3.2116913  0.020923898   -4.4026859    1.1909946      8192000 
  410000   0.79316558   -4.4012845   -4.4012845   -3.2115364  0.017923919   -4.4012845    1.1897481      8192000 
  411000   0.79233757   -4.3999093   -4.3999093   -3.2114032  0.015381613   -4.3999093    1.1885061      8192000 
  412000   0.79161817   -4.3986861   -4.3986861   -3.2112592  0.012814727   -4.3986861     1.187427      8192000 
  413000   0.79071414   -4.3972433   -4.3972433   -3.2111724 0.0094030078   -4.3972433    1.1860709      8192000 
  414000   0.79002422    -4.396133    -4.396133    -3.211097 0.0054288817    -4.396133     1.185036      8192000 
  415000   0.78905727   -4.3944255   -4.3944255   -3.2108399 0.0047931259   -4.3944255    1.1835856      8192000 
  416000   0.78954093    -4.394961    -4.394961   -3.2106499 0.0023986543    -4.394961    1.1843111      8192000 
  417000   0.78919055   -4.3940842   -4.3940842   -3.2102987 0.0021545636   -4.3940842    1.1837855      8192000 
  418000   0.78921521   -4.3940024   -4.3940024   -3.2101798 0.0015979029   -4.3940024    1.1838225      8192000 
  419000   0.78915307   -4.3936119   -4.3936119   -3.2098826 0.0046176812   -4.3936119    1.1837293      8192000 
  420000   0.78971602   -4.3943334   -4.3943334   -3.2097597 0.0057535731   -4.3943334    1.1845737      8192000 
  421000    0.7902677   -4.3948987   -4.3948987   -3.2094974 0.0075796091   -4.3948987    1.1854012      8192000 
  422000   0.79099501    -4.395752    -4.395752   -3.2092598  0.011223003    -4.395752    1.1864922      8192000 
  423000   0.79177842   -4.3967524   -4.3967524   -3.2090851  0.014263047   -4.3967524    1.1876673      8192000 
  424000   0.79263815   -4.3979013   -4.3979013   -3.2089444  0.017244125   -4.3979013    1.1889569      8192000 
  425000    0.7930657   -4.3985429   -4.3985429   -3.2089447  0.020584001   -4.3985429    1.1895983      8192000 
  426000   0.79396369    -4.399789    -4.399789   -3.2088438  0.021847109    -4.399789    1.1909452      8192000 
  427000   0.79464997   -4.4006142   -4.4006142   -3.2086396  0.024123875   -4.4006142    1.1919747      8192000 
  428000   0.79513484   -4.4010484   -4.4010484   -3.2083465  0.028270667   -4.4010484     1.192702      8192000 
  429000   0.79529149   -4.4011368   -4.4011368   -3.2081999  0.029181465   -4.4011368    1.1929369      8192000 
  430000   0.79537255   -4.4008499   -4.4008499   -3.2077914  0.028687367   -4.4008499    1.1930585      8192000 
  431000   0.79530517   -4.4005673   -4.4005673   -3.2076098  0.029076237   -4.4005673    1.1929574      8192000 
  432000   0.79576722   -4.4010025   -4.4010025    -3.207352  0.026270297   -4.4010025    1.1936505      8192000 
  433000   0.79514327   -4.3998048   -4.3998048   -3.2070902  0.027692723   -4.3998048    1.1927146      8192000 
  434000   0.79470294   -4.3988719   -4.3988719   -3.2068178  0.024372812   -4.3988719    1.1920541      8192000 
  435000   0.79475849   -4.3986198   -4.3986198   -3.2064824  0.020456594   -4.3986198    1.1921374      8192000 
  436000    0.7942439   -4.3974582   -4.3974582   -3.2060927  0.018634044   -4.3974582    1.1913656      8192000 
  437000   0.79315984   -4.3957704   -4.3957704   -3.2060309   0.01566462   -4.3957704    1.1897395      8192000 
  438000   0.79250406   -4.3945834   -4.3945834   -3.2058276  0.011362374   -4.3945834    1.1887558      8192000 
  439000   0.79194563   -4.3933577   -4.3933577   -3.2054395  0.010313187   -4.3933577    1.1879181      8192000 
  440000   0.79132505   -4.3923987   -4.3923987   -3.2054115 0.0078985094   -4.3923987    1.1869873      8192000 
  441000   0.79093634   -4.3915218   -4.3915218   -3.2051176 0.0072206247   -4.3915218    1.1864042      8192000 
  442000   0.79048166   -4.3906052   -4.3906052    -3.204883   0.00502406   -4.3906052    1.1857222      8192000 
  443000    0.7906217   -4.3909372   -4.3909372    -3.205005 0.0032477392   -4.3909372    1.1859322      8192000 
  444000   0.79079479   -4.3910525   -4.3910525   -3.2048606 0.0052758551   -4.3910525    1.1861919      8192000 
  445000   0.79132548   -4.3913601   -4.3913601   -3.2043722 0.0058234842   -4.3913601    1.1869879      8192000 
  446000   0.79125297   -4.3912052   -4.3912052   -3.2043261 0.0077977241   -4.3912052    1.1868792      8192000 
  447000   0.79211566   -4.3922812   -4.3922812    -3.204108 0.0063502475   -4.3922812    1.1881732      8192000 
  448000   0.79245154   -4.3924034   -4.3924034   -3.2037264  0.010236708   -4.3924034     1.188677      8192000 
  449000   0.79325451   -4.3933085   -4.3933085    -3.203427   0.01258588   -4.3933085    1.1898815      8192000 
  450000   0.79371581   -4.3938092   -4.3938092   -3.2032358  0.016342249   -4.3938092    1.1905734      8192000 
  451000   0.79430029     -4.39459     -4.39459   -3.2031399  0.019943941     -4.39459    1.1914501      8192000 
  452000   0.79497825   -4.3953121   -4.3953121   -3.2028451  0.021270473   -4.3953121    1.1924671      8192000 
  453000   0.79586521   -4.3966325   -4.3966325    -3.202835   0.02210908   -4.3966325    1.1937975      8192000 
  454000    0.7961375   -4.3968192   -4.3968192   -3.2026133  0.023361645   -4.3968192    1.1942059      8192000 
  455000    0.7960619   -4.3963611   -4.3963611   -3.2022686   0.02535305   -4.3963611    1.1940926      8192000 
  456000   0.79609005   -4.3962828   -4.3962828    -3.202148  0.024402448   -4.3962828    1.1941348      8192000 
  457000   0.79649383    -4.396627    -4.396627   -3.2018866  0.024719951    -4.396627    1.1947404      8192000 
  458000   0.79643345   -4.3961826   -4.3961826   -3.2015327  0.025845226   -4.3961826    1.1946499      8192000 
  459000   0.79586022    -4.395039    -4.395039    -3.201249   0.02224152    -4.395039      1.19379      8192000 
  460000    0.7956864    -4.394337    -4.394337   -3.2008077  0.022153838    -4.394337    1.1935293      8192000 
  461000   0.79525633   -4.3935791   -4.3935791   -3.2006949  0.016231662   -4.3935791    1.1928842      8192000 
  462000   0.79433385   -4.3921853   -4.3921853   -3.2006848   0.01666378   -4.3921853    1.1915005      8192000 
  463000   0.79414147   -4.3915383   -4.3915383   -3.2003264  0.014275065   -4.3915383    1.1912119      8192000 
  464000   0.79395744   -4.3908975   -4.3908975   -3.1999617  0.011255439   -4.3908975    1.1909359      8192000 
  465000    0.7934933    -4.389794    -4.389794   -3.1995543  0.010067425    -4.389794    1.1902397      8192000 
  466000   0.79310177   -4.3889399   -4.3889399   -3.1992875 0.0075860415   -4.3889399    1.1896524      8192000 
  467000   0.79252512   -4.3878271   -4.3878271   -3.1990397 0.0093266235   -4.3878271    1.1887874      8192000 
  468000   0.79245537   -4.3874821   -4.3874821   -3.1987993 0.0061874929   -4.3874821    1.1886828      8192000 
  469000   0.79258446     -4.38722     -4.38722   -3.1983436 0.0074153747     -4.38722    1.1888764      8192000 
  470000   0.79260552   -4.3869486   -4.3869486   -3.1980406 0.0074736854   -4.3869486     1.188908      8192000 
  471000   0.79296383   -4.3870921   -4.3870921   -3.1976467 0.0066123251   -4.3870921    1.1894454      8192000 
  472000   0.79377624    -4.388088    -4.388088   -3.1974239 0.0074012773    -4.388088    1.1906641      8192000 
  473000   0.79362561   -4.3874971   -4.3874971    -3.197059 0.0098932869   -4.3874971    1.1904381      8192000 
  474000   0.79427328   -4.3881391   -4.3881391   -3.1967295  0.012893039   -4.3881391    1.1914096      8192000 
  475000   0.79459062   -4.3883382   -4.3883382   -3.1964525  0.014889219   -4.3883382    1.1918856      8192000 
  476000     0.795295   -4.3893858   -4.3893858   -3.1964436  0.016598269   -4.3893858    1.1929422      8192000 
  477000   0.79539857   -4.3893568   -4.3893568   -3.1962592  0.019049427   -4.3893568    1.1930975      8192000 
  478000   0.79605118   -4.3902788   -4.3902788   -3.1962023  0.020375886   -4.3902788    1.1940765      8192000 
  479000   0.79679777   -4.3908948   -4.3908948   -3.1956984  0.020055063   -4.3908948    1.1951963      8192000 
  480000   0.79705463   -4.3910622   -4.3910622   -3.1954806  0.022559485   -4.3910622    1.1955817      8192000 
  481000   0.79721462    -4.391025    -4.391025   -3.1952034  0.021445549    -4.391025    1.1958216      8192000 
  482000   0.79718102   -4.3907448   -4.3907448   -3.1949736  0.023265498   -4.3907448    1.1957712      8192000 
  483000   0.79724491   -4.3905697   -4.3905697   -3.1947027   0.02208849   -4.3905697    1.1958671      8192000 
  484000   0.79690913   -4.3898081   -4.3898081   -3.1944447  0.020442353   -4.3898081    1.1953634      8192000 
  485000    0.7968882   -4.3893917   -4.3893917   -3.1940597  0.018833532   -4.3893917     1.195332      8192000 
  486000   0.79711344   -4.3892303   -4.3892303   -3.1935605  0.018847335   -4.3892303    1.1956699      8192000 
  487000   0.79639929   -4.3878832   -4.3878832   -3.1932845  0.017013717   -4.3878832    1.1945986      8192000 
  488000   0.79609172   -4.3871105   -4.3871105   -3.1929733  0.014875273   -4.3871105    1.1941373      8192000 
  489000   0.79572113   -4.3864852   -4.3864852   -3.1929038  0.013897986   -4.3864852    1.1935814      8192000 
  490000   0.79521408   -4.3850727   -4.3850727   -3.1922519  0.014251176   -4.3850727    1.1928208      8192000 
  491000   0.79517968   -4.3846913   -4.3846913   -3.1919221  0.012226991   -4.3846913    1.1927692      8192000 
  492000   0.79500756    -4.384155    -4.384155   -3.1916439  0.011807578    -4.384155     1.192511      8192000 
  493000   0.79486216    -4.383907    -4.383907   -3.1916141 0.0078926385    -4.383907    1.1922929      8192000 
  494000   0.79449928   -4.3832805   -4.3832805   -3.1915319 0.0072657364   -4.3832805    1.1917486      8192000 
  495000   0.79467161    -4.383081    -4.383081   -3.1910739  0.006767051    -4.383081    1.1920071      8192000 
  496000   0.79492564   -4.3830745   -4.3830745   -3.1906863 0.0070073879   -4.3830745    1.1923882      8192000 
  497000   0.79509969   -4.3829677   -4.3829677   -3.1903184 0.0080481385   -4.3829677    1.1926492      8192000 
  498000   0.79482169   -4.3824122   -4.3824122     -3.19018  0.010560319   -4.3824122    1.1922322      8192000 
  499000   0.79521499   -4.3826718   -4.3826718   -3.1898496  0.011450116   -4.3826718    1.1928222      8192000 
  500000   0.79617985   -4.3836205   -4.3836205    -3.189351  0.012401072   -4.3836205    1.1942695      8192000 
  501000   0.79634295    -4.383581    -4.383581   -3.1890668   0.01610929    -4.383581    1.1945141      8192000 
  502000   0.79728508   -4.3846174   -4.3846174   -3.1886901  0.016140456   -4.3846174    1.1959273      8192000 
  503000    0.7973087   -4.3842706   -4.3842706   -3.1883078  0.018410989   -4.3842706    1.1959628      8192000 
  504000    0.7975409   -4.3843562   -4.3843562   -3.1880451  0.018324481   -4.3843562    1.1963111      8192000 
  505000   0.79821285   -4.3851443   -4.3851443   -3.1878254   0.01949457   -4.3851443     1.197319      8192000 
  506000   0.79831584   -4.3849611   -4.3849611   -3.1874877   0.02023254   -4.3849611    1.1974735      8192000 
  507000   0.79846203    -4.384814    -4.384814   -3.1871213  0.019925975    -4.384814    1.1976927      8192000 
  508000   0.79852154    -4.384705    -4.384705    -3.186923  0.020175644    -4.384705     1.197782      8192000 
  509000   0.79845045   -4.3842608   -4.3842608   -3.1865854  0.021683514   -4.3842608    1.1976754      8192000 
  510000   0.79874534    -4.384469    -4.384469   -3.1863513  0.019352111    -4.384469    1.1981177      8192000 
  511000   0.79840308   -4.3836279   -4.3836279   -3.1860236   0.01932998   -4.3836279    1.1976043      8192000 
  512000   0.79798425   -4.3824943   -4.3824943   -3.1855182  0.019138109   -4.3824943    1.1969761      8192000 
  513000   0.79815108   -4.3825223   -4.3825223   -3.1852959  0.014893481   -4.3825223    1.1972263      8192000 
  514000   0.79695546   -4.3806269   -4.3806269    -3.185194  0.015008271   -4.3806269    1.1954329      8192000 
  515000   0.79670394   -4.3800596   -4.3800596    -3.185004  0.012232467   -4.3800596    1.1950556      8192000 
  516000   0.79673311   -4.3795667   -4.3795667   -3.1844673  0.010794455   -4.3795667    1.1950994      8192000 
  517000   0.79630966   -4.3787754   -4.3787754   -3.1843112    0.0101389   -4.3787754    1.1944642      8192000 
  518000   0.79644505   -4.3789639   -4.3789639   -3.1842966   0.00888558   -4.3789639    1.1946673      8192000 
  519000   0.79609585   -4.3780637   -4.3780637   -3.1839202 0.0081496818   -4.3780637    1.1941435      8192000 
  520000   0.79603652   -4.3778508   -4.3778508   -3.1837963 0.0061346668   -4.3778508    1.1940545      8192000 
  521000   0.79605052    -4.377605    -4.377605   -3.1835295 0.0081496972    -4.377605    1.1940755      8192000 
  522000    0.7965151   -4.3780232   -4.3780232   -3.1832509 0.0083317918   -4.3780232    1.1947723      8192000 
  523000   0.79657446   -4.3779553   -4.3779553    -3.183094 0.0072781792   -4.3779553    1.1948614      8192000 
  524000   0.79698019   -4.3779969   -4.3779969   -3.1825269  0.010648589   -4.3779969      1.19547      8192000 
  525000   0.79773746   -4.3786245   -4.3786245   -3.1820186  0.011317461   -4.3786245    1.1966059      8192000 
  526000   0.79776364   -4.3784453   -4.3784453   -3.1818001  0.012466584   -4.3784453    1.1966452      8192000 
  527000   0.79826476   -4.3786631   -4.3786631   -3.1812662  0.015890191   -4.3786631    1.1973968      8192000 
  528000   0.79887379   -4.3793137   -4.3793137   -3.1810033  0.017039963   -4.3793137    1.1983104      8192000 
  529000    0.7992828    -4.379646    -4.379646   -3.1807221  0.018450363    -4.379646    1.1989239      8192000 
  530000   0.79942649   -4.3796049   -4.3796049   -3.1804655  0.019112166   -4.3796049    1.1991394      8192000 
  531000   0.79995205    -4.379787    -4.379787   -3.1798593  0.020777587    -4.379787    1.1999278      8192000 
  532000   0.80018796    -4.379702    -4.379702   -3.1794203  0.021292742    -4.379702    1.2002816      8192000 
  533000   0.80038655   -4.3798729   -4.3798729   -3.1792934  0.022544464   -4.3798729    1.2005795      8192000 
  534000   0.80038697   -4.3796227   -4.3796227   -3.1790425  0.020495813   -4.3796227    1.2005802      8192000 
  535000   0.80001636   -4.3784919   -4.3784919   -3.1784676  0.020196534   -4.3784919    1.2000242      8192000 
  536000   0.80009597   -4.3782969   -4.3782969   -3.1781532  0.019875843   -4.3782969    1.2001436      8192000 
  537000   0.80011109   -4.3781175   -4.3781175   -3.1779511  0.017399664   -4.3781175    1.2001663      8192000 
  538000   0.79988708   -4.3772004   -4.3772004   -3.1773701  0.016813248   -4.3772004    1.1998303      8192000 
  539000   0.79949174   -4.3763221   -4.3763221   -3.1770848  0.016064302   -4.3763221    1.1992373      8192000 
  540000   0.79884541   -4.3752475   -4.3752475   -3.1769797  0.013672993   -4.3752475    1.1982678      8192000 
  541000   0.79863651   -4.3744883   -4.3744883   -3.1765338   0.01213436   -4.3744883    1.1979545      8192000 
  542000   0.79837211   -4.3738035   -4.3738035   -3.1762456 0.0094907931   -4.3738035    1.1975579      8192000 
  543000   0.79801548   -4.3728144   -4.3728144   -3.1757915 0.0093760331   -4.3728144    1.1970229      8192000 
  544000   0.79773479   -4.3718454   -4.3718454   -3.1752435 0.0092247324   -4.3718454    1.1966019      8192000 
  545000   0.79818745   -4.3720315   -4.3720315   -3.1747506   0.01079813   -4.3720315    1.1972809      8192000 
  546000   0.79827984   -4.3719528   -4.3719528   -3.1745333 0.0092668523   -4.3719528    1.1974195      8192000 
  547000   0.79815286   -4.3716219   -4.3716219   -3.1743929 0.0094959025   -4.3716219     1.197229      8192000 
  548000   0.79850488   -4.3716517   -4.3716517   -3.1738947  0.010721769   -4.3716517     1.197757      8192000 
  549000    0.7987506   -4.3717308   -4.3717308   -3.1736052 0.0099873358   -4.3717308    1.1981256      8192000 
  550000    0.7992421   -4.3720346   -4.3720346   -3.1731718 0.0098618312   -4.3720346    1.1988629      8192000 
  551000   0.79946978   -4.3721194   -4.3721194    -3.172915   0.01095814   -4.3721194    1.1992044      8192000 
  552000   0.80003529   -4.3722647   -4.3722647    -3.172212   0.01366297   -4.3722647    1.2000526      8192000 
  553000   0.80054366   -4.3727938   -4.3727938   -3.1719787  0.014833567   -4.3727938    1.2008152      8192000 
  554000   0.80094777   -4.3730486   -4.3730486   -3.1716273  0.015535547   -4.3730486    1.2014213      8192000 
  555000   0.80122738    -4.373271    -4.373271   -3.1714302  0.019044683    -4.373271    1.2018408      8192000 
  556000   0.80138546   -4.3732146   -4.3732146   -3.1711367  0.018446304   -4.3732146    1.2020779      8192000 
  557000   0.80184274   -4.3733019   -4.3733019   -3.1705381  0.019371153   -4.3733019    1.2027638      8192000 
  558000   0.80163528   -4.3726283   -4.3726283   -3.1701757  0.018259876   -4.3726283    1.2024526      8192000 
  559000   0.80185058   -4.3725712   -4.3725712   -3.1697957  0.018856645   -4.3725712    1.2027756      8192000 
  560000   0.80203803   -4.3722014   -4.3722014   -3.1691446  0.019551123   -4.3722014    1.2030567      8192000 
  561000   0.80180154   -4.3714597   -4.3714597   -3.1687577  0.019466767   -4.3714597     1.202702      8192000 
  562000     0.801541   -4.3709057   -4.3709057   -3.1685945  0.017219273   -4.3709057    1.2023112      8192000 
  563000   0.80174502   -4.3707214   -4.3707214   -3.1681041  0.015804288   -4.3707214    1.2026172      8192000 
  564000   0.80144127   -4.3700802   -4.3700802   -3.1679186  0.015716821   -4.3700802    1.2021616      8192000 
  565000   0.80093104   -4.3690197   -4.3690197   -3.1676234  0.013816539   -4.3690197    1.2013963      8192000 
  566000    0.8007141   -4.3685234   -4.3685234   -3.1674526  0.013604254   -4.3685234    1.2010709      8192000 
  567000   0.80077508   -4.3683264   -4.3683264   -3.1671641  0.010937315   -4.3683264    1.2011623      8192000 
  568000   0.80064378   -4.3675478   -4.3675478   -3.1665825 0.0088943657   -4.3675478    1.2009654      8192000 
  569000   0.80033852   -4.3667521   -4.3667521   -3.1662446 0.0095730987   -4.3667521    1.2005075      8192000 
  570000   0.80016211   -4.3663271   -4.3663271   -3.1660843  0.010584847   -4.3663271    1.2002429      8192000 
  571000   0.80026237   -4.3661143   -4.3661143    -3.165721 0.0081158857   -4.3661143    1.2003933      8192000 
  572000   0.80039251   -4.3656601   -4.3656601   -3.1650716  0.010205746   -4.3656601    1.2005885      8192000 
  573000   0.80066954   -4.3657708   -4.3657708   -3.1647668  0.010296292   -4.3657708     1.201004      8192000 
  574000   0.80086548   -4.3655504   -4.3655504   -3.1642525  0.010103157   -4.3655504    1.2012979      8192000 
  575000   0.80162214   -4.3663436   -4.3663436   -3.1639106  0.012526868   -4.3663436    1.2024329      8192000 
  576000   0.80145725   -4.3659127   -4.3659127   -3.1637271  0.014352357   -4.3659127    1.2021856      8192000 
  577000   0.80199899   -4.3663634   -4.3663634   -3.1633652  0.013466545   -4.3663634    1.2029982      8192000 
  578000   0.80209986   -4.3662102   -4.3662102   -3.1630607  0.014353313   -4.3662102    1.2031495      8192000 
  579000   0.80267463   -4.3667271   -4.3667271   -3.1627155  0.014467614   -4.3667271    1.2040116      8192000 
  580000   0.80311062   -4.3670207   -4.3670207    -3.162355  0.015249067   -4.3670207    1.2046656      8192000 
  581000   0.80322821   -4.3667737   -4.3667737   -3.1619317  0.015369078   -4.3667737     1.204842      8192000 
  582000   0.80334602   -4.3667301   -4.3667301   -3.1617114  0.018549354   -4.3667301    1.2050187      8192000 
  583000   0.80346172   -4.3665401   -4.3665401   -3.1613478   0.01866059   -4.3665401    1.2051923      8192000 
  584000   0.80356883   -4.3664106   -4.3664106   -3.1610576  0.018487532   -4.3664106    1.2053529      8192000 
  585000   0.80358892   -4.3663105   -4.3663105   -3.1609274  0.017411391   -4.3663105    1.2053831      8192000 
  586000   0.80342439   -4.3654329   -4.3654329   -3.1602967  0.017065435   -4.3654329    1.2051363      8192000 
  587000   0.80290677   -4.3643257   -4.3643257   -3.1599658  0.017142376   -4.3643257    1.2043599      8192000 
  588000   0.80315788   -4.3642618   -4.3642618   -3.1595253  0.015992177   -4.3642618    1.2047365      8192000 
  589000   0.80283332   -4.3635657   -4.3635657   -3.1593161  0.014720256   -4.3635657    1.2042497      8192000 
  590000   0.80268511   -4.3631085   -4.3631085   -3.1590811  0.014002294   -4.3631085    1.2040274      8192000 
  591000   0.80283821   -4.3627648   -4.3627648   -3.1585078  0.013638132   -4.3627648     1.204257      8192000 
  592000    0.8027849   -4.3621821   -4.3621821    -3.158005  0.012232092   -4.3621821     1.204177      8192000 
  593000   0.80267448   -4.3616545   -4.3616545   -3.1576431   0.01266793   -4.3616545    1.2040114      8192000 
  594000   0.80287575   -4.3615083   -4.3615083    -3.157195  0.011865156   -4.3615083    1.2043133      8192000 
  595000   0.80284314    -4.361186    -4.361186   -3.1569216  0.010070811    -4.361186    1.2042644      8192000 
  596000   0.80238727   -4.3600974   -4.3600974   -3.1565168  0.011319626   -4.3600974    1.2035806      8192000 
  597000   0.80227486   -4.3598614   -4.3598614   -3.1564494   0.01252441   -4.3598614     1.203412      8192000 
  598000   0.80245161   -4.3598214   -4.3598214   -3.1561443  0.010937009   -4.3598214    1.2036771      8192000 
  599000    0.8026062   -4.3594925   -4.3594925   -3.1555835  0.012231669   -4.3594925     1.203909      8192000 
  600000   0.80323715   -4.3598631   -4.3598631   -3.1550076  0.010471792   -4.3598631    1.2048554      8192000 
  601000   0.80323546   -4.3597048   -4.3597048   -3.1548519  0.013036872   -4.3597048    1.2048529      8192000 
  602000   0.80341078   -4.3595159   -4.3595159      -3.1544  0.014170604   -4.3595159    1.2051159      8192000 
  603000   0.80390021   -4.3595972   -4.3595972   -3.1537472  0.014268669   -4.3595972      1.20585      8192000 
  604000   0.80461754   -4.3603962   -4.3603962   -3.1534702  0.013737687   -4.3603962     1.206926      8192000 
  605000    0.8051268   -4.3604012   -4.3604012   -3.1527113  0.016675007   -4.3604012    1.2076899      8192000 
  606000   0.80489876   -4.3594543   -4.3594543   -3.1521064  0.017400679   -4.3594543    1.2073478      8192000 
  607000   0.80532823   -4.3597033   -4.3597033   -3.1517112  0.016336211   -4.3597033     1.207992      8192000 
  608000    0.8053341   -4.3592296   -4.3592296   -3.1512288  0.017559558   -4.3592296    1.2080009      8192000 
  609000   0.80520141   -4.3587655   -4.3587655   -3.1509637  0.017887511   -4.3587655    1.2078018      8192000 
  610000   0.80603938   -4.3596481   -4.3596481   -3.1505893  0.015619428   -4.3596481    1.2090588      8192000 
  611000   0.80515043   -4.3579215   -4.3579215   -3.1501961  0.017985907   -4.3579215    1.2077253      8192000 
  612000   0.80528888   -4.3576913   -4.3576913   -3.1497583   0.01483141   -4.3576913     1.207933      8192000 
  613000   0.80570076   -4.3577819   -4.3577819   -3.1492311  0.015472195   -4.3577819    1.2085508      8192000 
  614000    0.8055525   -4.3573241   -4.3573241   -3.1489957  0.013850481   -4.3573241    1.2083284      8192000 
  615000   0.80498936   -4.3561107   -4.3561107    -3.148627  0.012697315   -4.3561107    1.2074837      8192000 
  616000   0.80504487   -4.3557294   -4.3557294   -3.1481624   0.01296517   -4.3557294     1.207567      8192000 
  617000   0.80500307   -4.3552894   -4.3552894   -3.1477851  0.012348835   -4.3552894    1.2075043      8192000 
  618000   0.80480166   -4.3544895   -4.3544895   -3.1472873  0.010770477   -4.3544895    1.2072022      8192000 
  619000   0.80456686   -4.3536203   -4.3536203   -3.1467704  0.010305058   -4.3536203      1.20685      8192000 
  620000   0.80499685   -4.3537367   -4.3537367   -3.1462418 0.0096426002   -4.3537367     1.207495      8192000 
  621000   0.80517213   -4.3536064   -4.3536064   -3.1458485 0.0099140315   -4.3536064    1.2077579      8192000 
  622000   0.80523052     -4.35333     -4.35333   -3.1454845 0.0090873807     -4.35333    1.2078455      8192000 
  623000   0.80508611   -4.3525395   -4.3525395   -3.1449107  0.011000239   -4.3525395    1.2076289      8192000 
  624000   0.80499314   -4.3519998   -4.3519998   -3.1445104  0.011903629   -4.3519998    1.2074894      8192000 
  625000   0.80547427   -4.3525051   -4.3525051    -3.144294   0.01132857   -4.3525051    1.2082111      8192000 
  626000    0.8053651   -4.3519109   -4.3519109   -3.1438636  0.013426235   -4.3519109    1.2080473      8192000 
  627000    0.8059904   -4.3525045   -4.3525045   -3.1435192  0.013170199   -4.3525045    1.2089853      8192000 
  628000   0.80585227   -4.3520251   -4.3520251    -3.143247  0.012881879   -4.3520251    1.2087781      8192000 
  629000   0.80620119   -4.3521725   -4.3521725    -3.142871  0.012584223   -4.3521725    1.2093015      8192000 
  630000   0.80597862   -4.3518156   -4.3518156   -3.1428479    0.0139499   -4.3518156    1.2089676      8192000 
  631000   0.80659488   -4.3521138   -4.3521138   -3.1422218  0.013315717   -4.3521138     1.209892      8192000 
  632000   0.80680794   -4.3523244   -4.3523244   -3.1421128  0.016216486   -4.3523244    1.2102116      8192000 
  633000   0.80721066   -4.3522371   -4.3522371   -3.1414214  0.016245175   -4.3522371    1.2108157      8192000 
  634000   0.80683374   -4.3513626   -4.3513626   -3.1411123   0.01872344   -4.3513626    1.2102503      8192000 
  635000   0.80687545   -4.3511256   -4.3511256   -3.1408127  0.018227538   -4.3511256    1.2103129      8192000 
  636000    0.8073964   -4.3515591   -4.3515591   -3.1404648  0.016001747   -4.3515591    1.2110943      8192000 
  637000   0.80706898   -4.3505887   -4.3505887   -3.1399855  0.014976131   -4.3505887    1.2106032      8192000 
  638000   0.80728164   -4.3504658   -4.3504658   -3.1395436  0.016062691   -4.3504658    1.2109222      8192000 
  639000   0.80747818   -4.3505794   -4.3505794   -3.1393624  0.015883123   -4.3505794     1.211217      8192000 
  640000   0.80770378   -4.3503711   -4.3503711   -3.1388157  0.012914638   -4.3503711    1.2115554      8192000 
  641000   0.80751986   -4.3496108   -4.3496108   -3.1383313  0.013936883   -4.3496108    1.2112795      8192000 
  642000   0.80722044   -4.3488344   -4.3488344   -3.1380041  0.014646152   -4.3488344    1.2108304      8192000 
  643000   0.80728796   -4.3485249   -4.3485249   -3.1375933  0.013482756   -4.3485249    1.2109316      8192000 
  644000   0.80741991    -4.348213    -4.348213   -3.1370834  0.014078642    -4.348213    1.2111296      8192000 
  645000   0.80678775   -4.3472172   -4.3472172   -3.1370359  0.013697364   -4.3472172    1.2101813      8192000 
  646000    0.8070193   -4.3469647   -4.3469647    -3.136436   0.01160105   -4.3469647    1.2105287      8192000 
  647000   0.80777602   -4.3474003   -4.3474003   -3.1357366  0.010194875   -4.3474003    1.2116637      8192000 
  648000   0.80705369   -4.3458357   -4.3458357   -3.1352555   0.01136882   -4.3458357    1.2105802      8192000 
  649000   0.80723819   -4.3458486   -4.3458486   -3.1349916   0.01135513   -4.3458486     1.210857      8192000 
  650000   0.80702114   -4.3451099   -4.3451099   -3.1345785  0.012707913   -4.3451099    1.2105314      8192000 
  651000   0.80745168   -4.3453472   -4.3453472     -3.13417  0.010771612   -4.3453472    1.2111772      8192000 
  652000   0.80796325   -4.3454084   -4.3454084   -3.1334638  0.011692447   -4.3454084    1.2119446      8192000 
  653000   0.80795642   -4.3448551   -4.3448551   -3.1329208  0.013115604   -4.3448551    1.2119343      8192000 
  654000   0.80810813   -4.3447553   -4.3447553   -3.1325934  0.012849411   -4.3447553    1.2121619      8192000 
  655000     0.808543   -4.3450764   -4.3450764   -3.1322622  0.012423077   -4.3450764    1.2128142      8192000 
  656000   0.80856143   -4.3445511   -4.3445511   -3.1317092  0.015079056   -4.3445511    1.2128418      8192000 
  657000   0.80870079   -4.3441852   -4.3441852   -3.1311343  0.014880063   -4.3441852    1.2130509      8192000 
  658000   0.80887508    -4.344143    -4.344143   -3.1308307  0.013287623    -4.344143    1.2133123      8192000 
  659000    0.8092619   -4.3442748   -4.3442748   -3.1303823  0.016905767   -4.3442748    1.2138926      8192000 
  660000   0.80931963   -4.3439056   -4.3439056   -3.1299265  0.015205855   -4.3439056    1.2139791      8192000 
  661000   0.80966765   -4.3438779   -4.3438779   -3.1293768  0.016590179   -4.3438779    1.2145012      8192000 
  662000   0.80954358   -4.3430315   -4.3430315   -3.1287164  0.016212861   -4.3430315    1.2143151      8192000 
  663000   0.80922137   -4.3422599   -4.3422599   -3.1284282  0.016634095   -4.3422599    1.2138318      8192000 
  664000    0.8094198   -4.3419994   -4.3419994     -3.12787  0.013771776   -4.3419994    1.2141294      8192000 
  665000   0.80948328   -4.3417511   -4.3417511   -3.1275265   0.01187739   -4.3417511    1.2142246      8192000 
  666000   0.80969384   -4.3414776   -4.3414776   -3.1269372  0.012284195   -4.3414776    1.2145405      8192000 
  667000   0.80955773    -4.340839    -4.340839   -3.1265027  0.013499378    -4.340839    1.2143363      8192000 
  668000   0.80933775   -4.3401166   -4.3401166   -3.1261103  0.012828503   -4.3401166    1.2140063      8192000 
  669000   0.80907513   -4.3394897   -4.3394897   -3.1258773  0.012595385   -4.3394897    1.2136124      8192000 
  670000   0.80919164   -4.3392357   -4.3392357   -3.1254486  0.013142975   -4.3392357    1.2137872      8192000 
  671000   0.80895094   -4.3383456   -4.3383456   -3.1249195   0.01163895   -4.3383456    1.2134261      8192000 
  672000   0.80916754   -4.3380586   -4.3380586   -3.1243076  0.011858701   -4.3380586     1.213751      8192000 
  673000   0.80892948   -4.3373053   -4.3373053   -3.1239114  0.010455839   -4.3373053    1.2133939      8192000 
  674000    0.8091217    -4.337125    -4.337125   -3.1234427  0.010559287    -4.337125    1.2136823      8192000 
  675000   0.80980178   -4.3375381   -4.3375381   -3.1228358  0.010889486   -4.3375381    1.2147024      8192000 
  676000   0.80936862   -4.3363879   -4.3363879   -3.1223352  0.011916564   -4.3363879    1.2140526      8192000 
  677000   0.80977745    -4.336525    -4.336525   -3.1218591  0.012242993    -4.336525    1.2146659      8192000 
  678000   0.81026898   -4.3369088   -4.3369088   -3.1215056  0.011320841   -4.3369088    1.2154032      8192000 
  679000   0.81042895   -4.3366461   -4.3366461   -3.1210029  0.012747789   -4.3366461    1.2156431      8192000 
  680000   0.81046149   -4.3362474   -4.3362474   -3.1205555  0.013658951   -4.3362474    1.2156919      8192000 
  681000   0.81060649   -4.3359495   -4.3359495     -3.12004   0.01375032   -4.3359495    1.2159094      8192000 
  682000   0.81086843   -4.3360198   -4.3360198   -3.1197175  0.014070536   -4.3360198    1.2163023      8192000 
  683000   0.81121881   -4.3360435   -4.3360435   -3.1192156  0.014352363   -4.3360435    1.2168279      8192000 
  684000   0.81119169   -4.3355623   -4.3355623    -3.118775  0.014324497   -4.3355623    1.2167872      8192000 
  685000   0.81149321   -4.3352387   -4.3352387   -3.1179992  0.014094673   -4.3352387    1.2172395      8192000 
  686000   0.81130359   -4.3345113   -4.3345113   -3.1175562  0.015483893   -4.3345113    1.2169551      8192000 
  687000   0.81146657   -4.3342829   -4.3342829   -3.1170834  0.014558188   -4.3342829    1.2171996      8192000 
  688000   0.81116462   -4.3335476   -4.3335476    -3.116801  0.015994818   -4.3335476    1.2167466      8192000 
  689000   0.81189001   -4.3344474   -4.3344474   -3.1166127  0.011622087   -4.3344474    1.2178347      8192000 
  690000   0.81182588   -4.3340401   -4.3340401   -3.1163016  0.012695678   -4.3340401    1.2177385      8192000 
  691000   0.81168902   -4.3331394   -4.3331394   -3.1156062  0.013152494   -4.3331394    1.2175332      8192000 
  692000   0.81179955   -4.3328574   -4.3328574   -3.1151584  0.011618547   -4.3328574     1.217699      8192000 
  693000   0.81150586   -4.3318488   -4.3318488   -3.1145903  0.012927298   -4.3318488    1.2172585      8192000 
  694000   0.81167964    -4.331412    -4.331412   -3.1138928  0.012771936    -4.331412    1.2175192      8192000 
  695000   0.81167746   -4.3312181   -4.3312181   -3.1137022  0.010761242   -4.3312181    1.2175159      8192000 
  696000   0.81131792   -4.3302282   -4.3302282   -3.1132516  0.011948529   -4.3302282    1.2169766      8192000 
  697000   0.81130346        -4.33        -4.33   -3.1130451  0.011815909        -4.33    1.2169549      8192000 
  698000   0.81141876   -4.3295793   -4.3295793   -3.1124515 0.0096806489   -4.3295793    1.2171278      8192000 
  699000   0.81144354   -4.3291411   -4.3291411   -3.1119761 0.0097134685   -4.3291411     1.217165      8192000 
  700000   0.81174972   -4.3292139   -4.3292139   -3.1115896  0.010462518   -4.3292139    1.2176243      8192000 
  701000    0.8117874   -4.3289047   -4.3289047   -3.1112239  0.011027122   -4.3289047    1.2176808      8192000 
  702000   0.81206961   -4.3288771   -4.3288771    -3.110773  0.010729539   -4.3288771    1.2181041      8192000 
  703000   0.81200517   -4.3281853   -4.3281853   -3.1101778  0.014306675   -4.3281853    1.2180075      8192000 
  704000    0.8123466   -4.3281109   -4.3281109   -3.1095913  0.011968948   -4.3281109    1.2185196      8192000 
  705000   0.81263992   -4.3281164   -4.3281164   -3.1091568  0.011677509   -4.3281164    1.2189596      8192000 
  706000   0.81251911   -4.3275412   -4.3275412   -3.1087628  0.012609676   -4.3275412    1.2187784      8192000 
  707000   0.81289384   -4.3277373   -4.3277373   -3.1083969  0.014120317   -4.3277373    1.2193405      8192000 
  708000   0.81269949   -4.3270035   -4.3270035   -3.1079546  0.015262083   -4.3270035    1.2190489      8192000 
  709000   0.81339111   -4.3275201   -4.3275201   -3.1074337   0.01376133   -4.3275201    1.2200864      8192000 
  710000   0.81317515   -4.3267943   -4.3267943   -3.1070319  0.013985091   -4.3267943    1.2197624      8192000 
  711000   0.81318171   -4.3265521   -4.3265521   -3.1067798   0.01312399   -4.3265521    1.2197723      8192000 
  712000   0.81310114   -4.3261329   -4.3261329   -3.1064815  0.013508864   -4.3261329    1.2196514      8192000 
  713000   0.81352399   -4.3262372   -4.3262372   -3.1059516  0.012108509   -4.3262372    1.2202857      8192000 
  714000   0.81368074   -4.3259563   -4.3259563   -3.1054355  0.013058401   -4.3259563    1.2205208      8192000 
  715000   0.81385555   -4.3254792   -4.3254792   -3.1046961   0.01386663   -4.3254792     1.220783      8192000 
  716000   0.81365347   -4.3248014   -4.3248014   -3.1043215   0.01509113   -4.3248014    1.2204799      8192000 
  717000   0.81351296   -4.3240467   -4.3240467   -3.1037775  0.014067465   -4.3240467    1.2202691      8192000 
  718000   0.81398043   -4.3240713   -4.3240713    -3.103101  0.013638089   -4.3240713    1.2209703      8192000 
  719000   0.81368801   -4.3232436   -4.3232436   -3.1027119  0.013798954   -4.3232436    1.2205317      8192000 
  720000   0.81382844   -4.3230182   -4.3230182   -3.1022758  0.013004189   -4.3230182    1.2207423      8192000 
  721000   0.81394827   -4.3229979   -4.3229979   -3.1020758   0.01102776   -4.3229979    1.2209221      8192000 
  722000   0.81339143   -4.3217738   -4.3217738    -3.101687   0.01203571   -4.3217738    1.2200868      8192000 
  723000   0.81351125   -4.3214274   -4.3214274   -3.1011608  0.013095035   -4.3214274    1.2202666      8192000 
  724000   0.81407648   -4.3220524   -4.3220524    -3.100938  0.011079674   -4.3220524    1.2211144      8192000 
  725000   0.81367869   -4.3208067   -4.3208067   -3.1002889  0.012231201   -4.3208067    1.2205177      8192000 
  726000   0.81393327    -4.320677    -4.320677   -3.0997774  0.011716638    -4.320677    1.2208996      8192000 
  727000   0.81445115   -4.3207432   -4.3207432   -3.0990668  0.011748735   -4.3207432    1.2216764      8192000 
  728000   0.81415332    -4.319902    -4.319902   -3.0986723  0.013693207    -4.319902    1.2212297      8192000 
  729000   0.81399922   -4.3193046   -4.3193046   -3.0983061  0.014508948   -4.3193046    1.2209985      8192000 
  730000   0.81470221   -4.3196025   -4.3196025   -3.0975494  0.014650094   -4.3196025     1.222053      8192000 
  731000   0.81483683   -4.3194996   -4.3194996   -3.0972447  0.014064747   -4.3194996    1.2222549      8192000 
  732000   0.81506194   -4.3192438   -4.3192438   -3.0966512  0.011831762   -4.3192438    1.2225926      8192000 
  733000   0.81497418   -4.3186335   -4.3186335   -3.0961726  0.013053354   -4.3186335     1.222461      8192000 
  734000   0.81491083   -4.3180935   -4.3180935   -3.0957276   0.01373515   -4.3180935    1.2223659      8192000 
  735000   0.81492864   -4.3179144   -4.3179144   -3.0955217  0.012479273   -4.3179144    1.2223927      8192000 
  736000    0.8142823   -4.3165286   -4.3165286   -3.0951055  0.014796878   -4.3165286    1.2214231      8192000 
  737000   0.81489366   -4.3168032   -4.3168032    -3.094463  0.013094454   -4.3168032    1.2223402      8192000 
  738000   0.81509152   -4.3166994   -4.3166994   -3.0940624  0.012643238   -4.3166994     1.222637      8192000 
  739000   0.81513027   -4.3163607   -4.3163607   -3.0936656  0.012677886   -4.3163607    1.2226951      8192000 
  740000   0.81495596   -4.3155711   -4.3155711   -3.0931375  0.011980278   -4.3155711    1.2224336      8192000 
  741000   0.81509571   -4.3150943   -4.3150943    -3.092451  0.013982922   -4.3150943    1.2226433      8192000 
  742000   0.81508291   -4.3147036   -4.3147036   -3.0920795  0.012685987   -4.3147036    1.2226241      8192000 
  743000   0.81513889   -4.3142402   -4.3142402   -3.0915322    0.0145958   -4.3142402     1.222708      8192000 
  744000   0.81599156   -4.3146974   -4.3146974   -3.0907104  0.010979244   -4.3146974     1.223987      8192000 
  745000   0.81564274   -4.3136294   -4.3136294   -3.0901656  0.012331111   -4.3136294    1.2234638      8192000 
  746000   0.81609263   -4.3138294   -4.3138294   -3.0896907  0.010811175   -4.3138294    1.2241386      8192000 
  747000   0.81605821   -4.3132209   -4.3132209   -3.0891339  0.011431524   -4.3132209     1.224087      8192000 
  748000   0.81607776    -4.312935    -4.312935   -3.0888187  0.010870447    -4.312935    1.2241163      8192000 
  749000    0.8160485   -4.3122587   -4.3122587   -3.0881863  0.012180414   -4.3122587    1.2240724      8192000 
  750000   0.81611001    -4.312076    -4.312076   -3.0879113  0.013206416    -4.312076    1.2241647      8192000 
  751000   0.81638827   -4.3119512   -4.3119512   -3.0873691  0.011174429   -4.3119512    1.2245821      8192000 
  752000   0.81660561   -4.3118649   -4.3118649   -3.0869568  0.010534688   -4.3118649    1.2249081      8192000 
  753000   0.81624424   -4.3108127   -4.3108127   -3.0864467  0.012115616   -4.3108127    1.2243661      8192000 
  754000   0.81639745   -4.3102935   -4.3102935   -3.0856977  0.014662544   -4.3102935    1.2245959      8192000 
  755000   0.81700698   -4.3107092   -4.3107092   -3.0851991  0.013082325   -4.3107092    1.2255102      8192000 
  756000   0.81693377    -4.310226    -4.310226   -3.0848257  0.014306498    -4.310226    1.2254003      8192000 
  757000   0.81700005   -4.3097913   -4.3097913   -3.0842915  0.014321692   -4.3097913    1.2254998      8192000 
  758000   0.81716016   -4.3095494   -4.3095494   -3.0838095  0.012447952   -4.3095494    1.2257399      8192000 
  759000    0.8174817   -4.3093416   -4.3093416   -3.0831194  0.013172881   -4.3093416    1.2262222      8192000 
  760000   0.81796211   -4.3094807   -4.3094807   -3.0825379  0.012817853   -4.3094807    1.2269429      8192000 
  761000   0.81764333   -4.3085364   -4.3085364   -3.0820717  0.014229796   -4.3085364    1.2264647      8192000 
  762000    0.8175439   -4.3079534   -4.3079534   -3.0816378  0.014076694   -4.3079534    1.2263156      8192000 
  763000   0.81781058   -4.3077979   -4.3077979   -3.0810824  0.014184562   -4.3077979    1.2267156      8192000 
  764000    0.8168857   -4.3060428   -4.3060428   -3.0807145   0.01616918   -4.3060428    1.2253282      8192000 
  765000   0.81769295    -4.306515    -4.306515   -3.0799759  0.010200592    -4.306515    1.2265391      8192000 
  766000   0.81767857   -4.3061509   -4.3061509   -3.0796334  0.012382032   -4.3061509    1.2265175      8192000 
  767000   0.81776543   -4.3056983   -4.3056983   -3.0790504  0.011840706   -4.3056983    1.2266478      8192000 
  768000   0.81733182   -4.3046877   -4.3046877   -3.0786903  0.011863232   -4.3046877    1.2259974      8192000 
  769000   0.81806401   -4.3050569   -4.3050569   -3.0779612  0.013460589   -4.3050569    1.2270957      8192000 
  770000   0.81799467   -4.3044332   -4.3044332   -3.0774415  0.012157083   -4.3044332    1.2269917      8192000 
  771000   0.81797604   -4.3037371   -4.3037371   -3.0767733  0.013659493   -4.3037371    1.2269638      8192000 
  772000   0.81812677   -4.3034039   -4.3034039    -3.076214  0.011560603   -4.3034039    1.2271898      8192000 
  773000   0.81799503   -4.3027322   -4.3027322     -3.07574  0.012230681   -4.3027322    1.2269922      8192000 
  774000   0.81837892    -4.302819    -4.302819    -3.075251   0.01149313    -4.302819    1.2275681      8192000 
  775000   0.81851547   -4.3022772   -4.3022772   -3.0745043  0.011509806   -4.3022772    1.2277729      8192000 
  776000   0.81890677   -4.3022996   -4.3022996   -3.0739397  0.010093926   -4.3022996    1.2283598      8192000 
  777000   0.81843772   -4.3010867   -4.3010867   -3.0734305  0.012740839   -4.3010867    1.2276563      8192000 
  778000   0.81829046   -4.3002827   -4.3002827   -3.0728473  0.013050197   -4.3002827    1.2274354      8192000 
  779000   0.81911467   -4.3009728   -4.3009728   -3.0723011  0.010867194   -4.3009728    1.2286717      8192000 
  780000   0.81915799   -4.3003513   -4.3003513   -3.0716146  0.011308108   -4.3003513    1.2287367      8192000 
  781000   0.81879866    -4.299279    -4.299279   -3.0710813   0.01190206    -4.299279    1.2281977      8192000 
  782000   0.81899287   -4.2989218   -4.2989218   -3.0704328  0.010946441   -4.2989218     1.228489      8192000 
  783000   0.81912634   -4.2986577   -4.2986577   -3.0699685   0.01295423   -4.2986577    1.2286892      8192000 
  784000    0.8198628   -4.2989212   -4.2989212   -3.0691273  0.013929875   -4.2989212    1.2297939      8192000 
  785000     0.819889   -4.2984925   -4.2984925   -3.0686593  0.014086567   -4.2984925    1.2298332      8192000 
  786000   0.82006003   -4.2982986   -4.2982986   -3.0682089  0.014958353   -4.2982986    1.2300897      8192000 
  787000   0.81970876   -4.2972507   -4.2972507   -3.0676878  0.013289743   -4.2972507    1.2295628      8192000 
  788000    0.8197265   -4.2967901   -4.2967901   -3.0672007  0.013624498   -4.2967901    1.2295894      8192000 
  789000   0.81978956   -4.2964865   -4.2964865   -3.0668024   0.01338057   -4.2964865     1.229684      8192000 
  790000   0.82001579   -4.2964088   -4.2964088   -3.0663854  0.012025275   -4.2964088    1.2300234      8192000 
  791000   0.81991322   -4.2956912   -4.2956912   -3.0658216  0.012059254   -4.2956912    1.2298695      8192000 
  792000   0.82005862   -4.2955667   -4.2955667   -3.0654791 0.0097591464   -4.2955667    1.2300876      8192000 
  793000   0.81988917   -4.2946069   -4.2946069   -3.0647735  0.012117519   -4.2946069    1.2298334      8192000 
  794000   0.82043067   -4.2947496   -4.2947496   -3.0641039  0.011305229   -4.2947496    1.2306457      8192000 
  795000   0.82010639    -4.293421    -4.293421   -3.0632617  0.013627427    -4.293421    1.2301593      8192000 
  796000    0.8209466   -4.2938919   -4.2938919   -3.0624723  0.010976199   -4.2938919    1.2314196      8192000 
  797000   0.82074813   -4.2927363   -4.2927363   -3.0616144  0.012066414   -4.2927363    1.2311219      8192000 
  798000   0.82086054   -4.2925523   -4.2925523   -3.0612618  0.010698017   -4.2925523    1.2312905      8192000 
  799000   0.82033581   -4.2910977   -4.2910977   -3.0605943  0.012547851   -4.2910977    1.2305034      8192000 
  800000   0.82036634   -4.2909219   -4.2909219   -3.0603727  0.010112599   -4.2909219    1.2305492      8192000 
  801000   0.82035761   -4.2903453   -4.2903453   -3.0598092 0.0096480491   -4.2903453    1.2305361      8192000 
  802000    0.8207454   -4.2903856   -4.2903856   -3.0592678  0.011715241   -4.2903856    1.2311178      8192000 
  803000   0.82132691   -4.2908131   -4.2908131   -3.0588231 0.0098993403   -4.2908131    1.2319901      8192000 
  804000   0.82093765   -4.2896178   -4.2896178   -3.0582117  0.011434598   -4.2896178    1.2314062      8192000 
  805000   0.82124562   -4.2894485   -4.2894485   -3.0575804 0.0098985025   -4.2894485    1.2318681      8192000 
  806000   0.82097229   -4.2883277   -4.2883277   -3.0568696  0.010892225   -4.2883277    1.2314581      8192000 
  807000   0.82149719   -4.2887414   -4.2887414   -3.0564959  0.009643434   -4.2887414    1.2322455      8192000 
  808000   0.82143517   -4.2880827   -4.2880827   -3.0559303  0.011162586   -4.2880827    1.2321525      8192000 
  809000   0.82182529   -4.2879769   -4.2879769   -3.0552392  0.012769187   -4.2879769    1.2327376      8192000 
  810000    0.8222179   -4.2880507   -4.2880507   -3.0547241   0.01283712   -4.2880507    1.2333265      8192000 
  811000   0.82220951   -4.2873156   -4.2873156   -3.0540017   0.01272947   -4.2873156     1.233314      8192000 
  812000   0.82250238   -4.2871724   -4.2871724   -3.0534192  0.012219693   -4.2871724    1.2337533      8192000 
  813000   0.82203943   -4.2860675   -4.2860675   -3.0530087  0.015325494   -4.2860675    1.2330588      8192000 
  814000   0.82275719   -4.2867211   -4.2867211   -3.0525856  0.011778551   -4.2867211    1.2341355      8192000 
  815000   0.82258419   -4.2860973   -4.2860973   -3.0522213   0.01272985   -4.2860973     1.233876      8192000 
  816000   0.82260877   -4.2857871   -4.2857871   -3.0518742  0.011274739   -4.2857871    1.2339128      8192000 
  817000   0.82256225   -4.2848803   -4.2848803   -3.0510372  0.013151593   -4.2848803    1.2338431      8192000 
  818000   0.82286622   -4.2848401   -4.2848401   -3.0505411  0.012281964   -4.2848401     1.234299      8192000 
  819000   0.82268873   -4.2840203   -4.2840203   -3.0499875  0.013543878   -4.2840203    1.2340328      8192000 
  820000   0.82265844   -4.2835314   -4.2835314    -3.049544   0.01313695   -4.2835314    1.2339874      8192000 
  821000   0.82283025   -4.2831899   -4.2831899   -3.0489448  0.010102935   -4.2831899    1.2342451      8192000 
  822000   0.82236713   -4.2820145   -4.2820145   -3.0484641  0.012125756   -4.2820145    1.2335504      8192000 
  823000   0.82321265   -4.2828305   -4.2828305   -3.0480118 0.0093747393   -4.2828305    1.2348187      8192000 
  824000   0.82323102   -4.2822433   -4.2822433   -3.0473971  0.012109932   -4.2822433    1.2348462      8192000 
  825000   0.82342397   -4.2818703   -4.2818703   -3.0467347   0.01127968   -4.2818703    1.2351356      8192000 
  826000   0.82334664   -4.2813044   -4.2813044   -3.0462848  0.011362908   -4.2813044    1.2350196      8192000 
  827000   0.82325299   -4.2805087   -4.2805087   -3.0456296  0.011822354   -4.2805087    1.2348792      8192000 
  828000   0.82315812   -4.2798298   -4.2798298   -3.0450929  0.011424289   -4.2798298    1.2347369      8192000 
  829000    0.8233337   -4.2795288   -4.2795288   -3.0445285  0.012081382   -4.2795288    1.2350002      8192000 
  830000    0.8236385   -4.2795197   -4.2795197   -3.0440623 0.0092681261   -4.2795197    1.2354574      8192000 
  831000   0.82326717   -4.2785263   -4.2785263   -3.0436259  0.010773723   -4.2785263    1.2349004      8192000 
  832000   0.82366623   -4.2782262   -4.2782262   -3.0427272  0.011603223   -4.2782262     1.235499      8192000 
  833000   0.82370584   -4.2776768   -4.2776768   -3.0421183  0.011956616   -4.2776768    1.2355584      8192000 
  834000   0.82360203   -4.2770712   -4.2770712   -3.0416684  0.012769833   -4.2770712    1.2354027      8192000 
  835000   0.82424792   -4.2776159   -4.2776159   -3.0412443    0.0116086   -4.2776159    1.2363716      8192000 
  836000   0.82387863   -4.2766681   -4.2766681   -3.0408505  0.013559978   -4.2766681    1.2358176      8192000 
  837000   0.82431492    -4.276585    -4.276585   -3.0401129  0.012130811    -4.276585    1.2364721      8192000 
  838000   0.82445989   -4.2763246   -4.2763246   -3.0396351  0.013700969   -4.2763246    1.2366895      8192000 
  839000   0.82467928   -4.2760663   -4.2760663   -3.0390477  0.012447799   -4.2760663    1.2370186      8192000 
  840000   0.82469703   -4.2757268   -4.2757268   -3.0386815  0.012890048   -4.2757268    1.2370452      8192000 
  841000   0.82487928   -4.2753414   -4.2753414   -3.0380228  0.012807678   -4.2753414    1.2373186      8192000 
  842000   0.82473385   -4.2744315   -4.2744315   -3.0373311  0.013031071   -4.2744315    1.2371005      8192000 
  843000   0.82496901   -4.2742538   -4.2742538   -3.0368005  0.011132335   -4.2742538    1.2374532      8192000 
  844000   0.82469829   -4.2735503   -4.2735503   -3.0365032  0.012693008   -4.2735503    1.2370471      8192000 
  845000   0.82518974   -4.2738249   -4.2738249   -3.0360406  0.010492239   -4.2738249    1.2377843      8192000 
  846000    0.8247911    -4.272589    -4.272589   -3.0354027  0.010849597    -4.272589    1.2371863      8192000 
  847000    0.8249557   -4.2721198   -4.2721198   -3.0346866  0.011951706   -4.2721198    1.2374332      8192000 
  848000   0.82491869   -4.2713489   -4.2713489   -3.0339712  0.010854053   -4.2713489    1.2373777      8192000 
  849000    0.8250919   -4.2711022   -4.2711022   -3.0334647   0.00866692   -4.2711022    1.2376375      8192000 
  850000   0.82538831   -4.2708604   -4.2708604   -3.0327782  0.010234593   -4.2708604    1.2380822      8192000 
  851000   0.82519208     -4.26999     -4.26999   -3.0322022  0.012398623     -4.26999    1.2377878      8192000 
  852000   0.82530935   -4.2696655   -4.2696655   -3.0317018  0.010345542   -4.2696655    1.2379637      8192000 
  853000   0.82583343   -4.2699475   -4.2699475   -3.0311977 0.0095161041   -4.2699475    1.2387498      8192000 
  854000   0.82525481   -4.2687276   -4.2687276   -3.0308457  0.011804483   -4.2687276    1.2378819      8192000 
  855000   0.82579797    -4.268964    -4.268964   -3.0302673  0.011665294    -4.268964    1.2386966      8192000 
  856000   0.82596943   -4.2689262   -4.2689262   -3.0299724 0.0093043572   -4.2689262    1.2389538      8192000 
  857000   0.82562905   -4.2678889   -4.2678889   -3.0294457  0.010343484   -4.2678889    1.2384433      8192000 
  858000    0.8256021   -4.2673696   -4.2673696   -3.0289668  0.010390309   -4.2673696    1.2384028      8192000 
  859000   0.82566027   -4.2668856   -4.2668856   -3.0283956 0.0099579131   -4.2668856    1.2384901      8192000 
  860000   0.82553568   -4.2660971   -4.2660971   -3.0277938  0.011300099   -4.2660971    1.2383032      8192000 
  861000   0.82629453   -4.2664321   -4.2664321   -3.0269906 0.0098787434   -4.2664321    1.2394415      8192000 
  862000   0.82635374   -4.2659257   -4.2659257   -3.0263954  0.011021805   -4.2659257    1.2395303      8192000 
  863000   0.82687504   -4.2659366   -4.2659366   -3.0256243  0.010857806   -4.2659366    1.2403122      8192000 
  864000   0.82670861   -4.2649668   -4.2649668   -3.0249041  0.012686102   -4.2649668    1.2400626      8192000 
  865000   0.82714596   -4.2649604   -4.2649604   -3.0242418  0.012566591   -4.2649604    1.2407186      8192000 
  866000   0.82722685   -4.2644203   -4.2644203   -3.0235803  0.014559932   -4.2644203      1.24084      8192000 
  867000   0.82748193    -4.264231    -4.264231   -3.0230084  0.013582314    -4.264231    1.2412226      8192000 
  868000   0.82751532   -4.2637962   -4.2637962   -3.0225235  0.012029326   -4.2637962    1.2412727      8192000 
  869000   0.82720339   -4.2627299   -4.2627299   -3.0219252  0.012364015   -4.2627299    1.2408048      8192000 
  870000   0.82723778   -4.2623006   -4.2623006   -3.0214443  0.013356931   -4.2623006    1.2408564      8192000 
  871000    0.8276656     -4.26271     -4.26271   -3.0212119  0.013153584     -4.26271    1.2414981      8192000 
  872000   0.82725745   -4.2617331   -4.2617331   -3.0208472   0.01241924   -4.2617331    1.2408859      8192000 
  873000   0.82771588   -4.2613805   -4.2613805    -3.019807  0.011052798   -4.2613805    1.2415735      8192000 
  874000   0.82743497   -4.2605217   -4.2605217   -3.0193696  0.009760558   -4.2605217    1.2411521      8192000 
  875000   0.82745631   -4.2598609   -4.2598609   -3.0186767  0.010497145   -4.2598609    1.2411842      8192000 
  876000   0.82696447   -4.2588317   -4.2588317   -3.0183853  0.010310707   -4.2588317    1.2404464      8192000 
  877000   0.82738571    -4.259006    -4.259006   -3.0179278  0.010144928    -4.259006    1.2410783      8192000 
  878000   0.82731482   -4.2582607   -4.2582607   -3.0172888 0.0091371174   -4.2582607    1.2409719      8192000 
  879000   0.82791286   -4.2584067   -4.2584067   -3.0165377  0.010162491   -4.2584067     1.241869      8192000 
  880000   0.82799153   -4.2579264   -4.2579264   -3.0159394 0.0089469909   -4.2579264     1.241987      8192000 
  881000   0.82818054   -4.2574577   -4.2574577   -3.0151872   0.00898029   -4.2574577    1.2422705      8192000 
  882000    0.8281029   -4.2566954   -4.2566954   -3.0145413  0.011824705   -4.2566954     1.242154      8192000 
  883000   0.82833161   -4.2564208   -4.2564208   -3.0139237  0.010600883   -4.2564208    1.2424971      8192000 
  884000   0.82838158   -4.2559355   -4.2559355   -3.0133634   0.01111883   -4.2559355    1.2425721      8192000 
  885000   0.82846947   -4.2555114   -4.2555114   -3.0128075     0.010139   -4.2555114    1.2427039      8192000 
  886000   0.82838231   -4.2547961   -4.2547961    -3.012223   0.01021686   -4.2547961    1.2425732      8192000 
  887000   0.82885165   -4.2547838   -4.2547838   -3.0115067   0.01197914   -4.2547838    1.2432772      8192000 
  888000   0.82917728   -4.2546987   -4.2546987    -3.010933   0.01024982   -4.2546987    1.2437656      8192000 
  889000   0.82923274   -4.2541235   -4.2541235   -3.0102747  0.011520488   -4.2541235    1.2438488      8192000 
  890000   0.82932487   -4.2538021   -4.2538021   -3.0098151  0.012864444   -4.2538021     1.243987      8192000 
  891000   0.82929547   -4.2529874   -4.2529874   -3.0090446    0.0128787   -4.2529874    1.2439429      8192000 
  892000   0.82965985   -4.2528899   -4.2528899   -3.0084004  0.012680613   -4.2528899    1.2444895      8192000 
  893000   0.82923473   -4.2518795   -4.2518795   -3.0080277  0.013144997   -4.2518795    1.2438518      8192000 
  894000   0.82930999   -4.2514974   -4.2514974   -3.0075327  0.012336265   -4.2514974    1.2439647      8192000 
  895000   0.82967249   -4.2516783   -4.2516783   -3.0071699  0.011372234   -4.2516783    1.2445084      8192000 
  896000    0.8294881    -4.250823    -4.250823   -3.0065912  0.012448229    -4.250823    1.2442318      8192000 
  897000   0.82939938   -4.2500446   -4.2500446   -3.0059459  0.011836358   -4.2500446    1.2440988      8192000 
  898000     0.829763   -4.2499417   -4.2499417   -3.0052975  0.011256394   -4.2499417    1.2446442      8192000 
  899000   0.82974987    -4.249347    -4.249347   -3.0047225  0.010883397    -4.249347    1.2446245      8192000 
  900000   0.82961767   -4.2483723   -4.2483723   -3.0039461  0.010272504   -4.2483723    1.2444262      8192000 
  901000   0.82968743   -4.2479723   -4.2479723   -3.0034414 0.0094676539   -4.2479723    1.2445308      8192000 
  902000   0.82942629   -4.2467246   -4.2467246   -3.0025855  0.011745579   -4.2467246    1.2441391      8192000 
  903000   0.83000716   -4.2470699   -4.2470699   -3.0020595  0.011187956   -4.2470699    1.2450104      8192000 
  904000   0.83003061   -4.2464108   -4.2464108   -3.0013652  0.010655816   -4.2464108    1.2450456      8192000 
  905000   0.83092548   -4.2468228   -4.2468228   -3.0004349 0.0092691837   -4.2468228    1.2463879      8192000 
  906000    0.8304012   -4.2455334   -4.2455334   -2.9999319  0.010373995   -4.2455334    1.2456015      8192000 
  907000   0.83046896   -4.2451322   -4.2451322   -2.9994291  0.010537589   -4.2451322    1.2457031      8192000 
  908000   0.83053475   -4.2445172   -4.2445172   -2.9987154   0.01133555   -4.2445172    1.2458018      8192000 
  909000   0.83082737    -4.244383    -4.244383   -2.9981422 0.0096175685    -4.244383    1.2462407      8192000 
  910000   0.83095908   -4.2439375   -4.2439375   -2.9974992 0.0098452853   -4.2439375    1.2464383      8192000 
  911000   0.83094229   -4.2434374   -4.2434374   -2.9970242  0.010291155   -4.2434374    1.2464131      8192000 
  912000   0.83106057   -4.2430002   -4.2430002   -2.9964097      0.00978   -4.2430002    1.2465905      8192000 
  913000   0.83119934   -4.2427203   -4.2427203   -2.9959216   0.01052185   -4.2427203    1.2467987      8192000 
  914000   0.83105347   -4.2420122   -4.2420122   -2.9954323  0.011110432   -4.2420122    1.2465799      8192000 
  915000   0.83133653    -4.241955    -4.241955   -2.9949506  0.010718933    -4.241955    1.2470045      8192000 
  916000   0.83174544   -4.2420906   -4.2420906   -2.9944728  0.011607615   -4.2420906    1.2476179      8192000 
  917000   0.83149999   -4.2412411   -4.2412411   -2.9939914  0.013916416   -4.2412411    1.2472497      8192000 
  918000   0.83152659   -4.2405051   -4.2405051   -2.9932155  0.012423189   -4.2405051    1.2472896      8192000 
  919000   0.83222562    -4.240783    -4.240783   -2.9924449  0.011499352    -4.240783    1.2483381      8192000 
  920000   0.83190982   -4.2396641   -4.2396641   -2.9917996  0.012590329   -4.2396641    1.2478644      8192000 
  921000   0.83205945   -4.2393621   -4.2393621   -2.9912733  0.011851071   -4.2393621    1.2480889      8192000 
  922000   0.83228216   -4.2391943   -4.2391943   -2.9907714  0.012399965   -4.2391943    1.2484229      8192000 
  923000   0.83230371   -4.2386827   -4.2386827   -2.9902274  0.010243179   -4.2386827    1.2484553      8192000 
  924000   0.83218952   -4.2381315   -4.2381315   -2.9898475  0.012494705   -4.2381315     1.248284      8192000 
  925000   0.83260362   -4.2381616   -4.2381616   -2.9892565  0.011365911   -4.2381616    1.2489051      8192000 
  926000   0.83258307   -4.2372581   -4.2372581   -2.9883838  0.010887745   -4.2372581    1.2488743      8192000 
  927000   0.83277956   -4.2370679   -4.2370679   -2.9878988 0.0099153684   -4.2370679     1.249169      8192000 
  928000   0.83226381   -4.2356418   -4.2356418   -2.9872464  0.012241587   -4.2356418    1.2483954      8192000 
  929000   0.83262644   -4.2358726   -4.2358726   -2.9869332  0.010615844   -4.2358726    1.2489394      8192000 
  930000   0.83260451   -4.2353498   -4.2353498   -2.9864433    0.0117701   -4.2353498    1.2489064      8192000 
  931000   0.83309728   -4.2352331   -4.2352331   -2.9855875  0.011106717   -4.2352331    1.2496456      8192000 
  932000   0.83298185   -4.2345714   -4.2345714   -2.9850989  0.011909934   -4.2345714    1.2494725      8192000 
  933000   0.83308215   -4.2342768   -4.2342768   -2.9846539  0.011157337   -4.2342768    1.2496229      8192000 
  934000   0.83317558   -4.2338462   -4.2338462   -2.9840832 0.0097482218   -4.2338462     1.249763      8192000 
  935000   0.83329096    -4.233313    -4.233313   -2.9833769  0.008184893    -4.233313    1.2499361      8192000 
  936000   0.83316813   -4.2327695   -4.2327695   -2.9830176   0.01020332   -4.2327695    1.2497519      8192000 
  937000   0.83330827   -4.2323092   -4.2323092   -2.9823471  0.010157523   -4.2323092    1.2499621      8192000 
  938000   0.83390568   -4.2325637   -4.2325637   -2.9817055  0.010504483   -4.2325637    1.2508582      8192000 
  939000   0.83411738   -4.2326433   -4.2326433   -2.9814676  0.010592493   -4.2326433    1.2511758      8192000 
  940000   0.83346005    -4.231158    -4.231158   -2.9809683  0.011670311    -4.231158    1.2501898      8192000 
  941000   0.83420527   -4.2314575   -4.2314575   -2.9801499  0.011367881   -4.2314575    1.2513076      8192000 
  942000   0.83369031   -4.2300149   -4.2300149   -2.9794797  0.013532021   -4.2300149    1.2505352      8192000 
  943000   0.83458899   -4.2306555   -4.2306555   -2.9787723  0.012337029   -4.2306555    1.2518832      8192000 
  944000    0.8343501    -4.229743    -4.229743   -2.9782182  0.012925763    -4.229743    1.2515248      8192000 
  945000   0.83465068   -4.2296726   -4.2296726   -2.9776969  0.012828679   -4.2296726    1.2519757      8192000 
  946000   0.83506237   -4.2296911   -4.2296911   -2.9770979  0.011155399   -4.2296911    1.2525932      8192000 
  947000   0.83524703   -4.2294437   -4.2294437   -2.9765735  0.012047494   -4.2294437    1.2528702      8192000 
  948000   0.83489422   -4.2281661   -4.2281661   -2.9758251  0.015253802   -4.2281661     1.252341      8192000 
  949000    0.8353502   -4.2280192   -4.2280192   -2.9749942  0.014546996   -4.2280192     1.253025      8192000 
  950000   0.83522718   -4.2276121   -4.2276121   -2.9747716  0.012851772   -4.2276121    1.2528405      8192000 
  951000   0.83493864   -4.2265416   -4.2265416   -2.9741339   0.01496032   -4.2265416    1.2524076      8192000 
  952000   0.83502534   -4.2262419   -4.2262419   -2.9737042   0.01339163   -4.2262419    1.2525377      8192000 
  953000   0.83495783   -4.2254297   -4.2254297   -2.9729933  0.013227554   -4.2254297    1.2524364      8192000 
  954000   0.83556053   -4.2256613   -4.2256613   -2.9723209   0.01185706   -4.2256613    1.2533405      8192000 
  955000   0.83543025   -4.2249171   -4.2249171    -2.971772  0.012256114   -4.2249171    1.2531451      8192000 
  956000   0.83531728   -4.2239294   -4.2239294   -2.9709538  0.013343665   -4.2239294    1.2529756      8192000 
  957000   0.83508786   -4.2229979   -4.2229979   -2.9703664  0.011661447   -4.2229979    1.2526315      8192000 
  958000   0.83598296   -4.2234587   -4.2234587   -2.9694846 0.0088572225   -4.2234587    1.2539741      8192000 
  959000   0.83518079   -4.2215986   -4.2215986   -2.9688277  0.013056503   -4.2215986    1.2527709      8192000 
  960000   0.83574106   -4.2218498   -4.2218498   -2.9682385  0.011129992   -4.2218498    1.2536113      8192000 
  961000   0.83565734   -4.2209048   -4.2209048   -2.9674191  0.013470729   -4.2209048    1.2534857      8192000 
  962000   0.83615087   -4.2210327   -4.2210327   -2.9668067  0.012839247   -4.2210327     1.254226      8192000 
  963000   0.83648626   -4.2207849   -4.2207849   -2.9660558  0.013866026   -4.2207849    1.2547291      8192000 
  964000   0.83624762   -4.2201672   -4.2201672   -2.9657961  0.015290085   -4.2201672    1.2543711      8192000 
  965000   0.83681657   -4.2203694   -4.2203694   -2.9651449  0.013820267   -4.2203694    1.2552245      8192000 
  966000   0.83708354   -4.2202359   -4.2202359   -2.9646109  0.013317934   -4.2202359     1.255625      8192000 
  967000   0.83706134   -4.2196121   -4.2196121   -2.9640204   0.01429489   -4.2196121    1.2555917      8192000 
  968000   0.83759765    -4.219781    -4.219781   -2.9633848  0.014278466    -4.219781    1.2563962      8192000 
  969000   0.83747234   -4.2191064   -4.2191064   -2.9628982  0.014582773   -4.2191064    1.2562082      8192000 
  970000   0.83725329   -4.2181287   -4.2181287   -2.9622491  0.016099756   -4.2181287    1.2558796      8192000 
  971000   0.83733057   -4.2178426   -4.2178426    -2.961847  0.014149084   -4.2178426    1.2559955      8192000 
  972000   0.83744948   -4.2171209   -4.2171209    -2.960947  0.016279351   -4.2171209    1.2561739      8192000 
  973000   0.83778878   -4.2169996   -4.2169996   -2.9603167  0.013618356   -4.2169996    1.2566829      8192000 
  974000   0.83742838   -4.2159559   -4.2159559   -2.9598137  0.014091106   -4.2159559    1.2561422      8192000 
  975000   0.83755665    -4.215497    -4.215497   -2.9591623  0.014408809    -4.215497    1.2563347      8192000 
  976000   0.83771203   -4.2150517   -4.2150517   -2.9584839  0.014935018   -4.2150517    1.2565677      8192000 
  977000   0.83811992   -4.2150259   -4.2150259   -2.9578464  0.013596294   -4.2150259    1.2571796      8192000 
  978000   0.83824165   -4.2145144   -4.2145144   -2.9571522  0.015548144   -4.2145144    1.2573622      8192000 
  979000     0.838054   -4.2137873   -4.2137873   -2.9567066  0.014446344   -4.2137873    1.2570807      8192000 
  980000   0.83786765   -4.2128399   -4.2128399   -2.9560387  0.013250386   -4.2128399    1.2568012      8192000 
  981000   0.83796363    -4.212402    -4.212402   -2.9554568  0.012538212    -4.212402    1.2569451      8192000 
  982000   0.83788748   -4.2118771   -4.2118771   -2.9550462  0.011098817   -4.2118771    1.2568309      8192000 
  983000   0.83786463   -4.2109329   -4.2109329   -2.9541362  0.013462155   -4.2109329    1.2567966      8192000 
  984000   0.83847791   -4.2113363   -4.2113363   -2.9536198  0.010317575   -4.2113363    1.2577166      8192000 
  985000   0.83812455   -4.2101381   -4.2101381   -2.9529516  0.012930906   -4.2101381    1.2571865      8192000 
  986000   0.83836908   -4.2100089   -4.2100089   -2.9524556  0.012129357   -4.2100089    1.2575533      8192000 
  987000   0.83814633    -4.208851    -4.208851   -2.9516318  0.012896762    -4.208851    1.2572192      8192000 
  988000   0.83859923   -4.2088778   -4.2088778   -2.9509793  0.013539666   -4.2088778    1.2578985      8192000 
  989000   0.83863268   -4.2081799   -4.2081799   -2.9502312  0.013300781   -4.2081799    1.2579487      8192000 
  990000   0.83883258   -4.2076593   -4.2076593   -2.9494107  0.015162123   -4.2076593    1.2582486      8192000 
  991000   0.83930296   -4.2081203   -4.2081203   -2.9491662  0.013117521   -4.2081203    1.2589541      8192000 
  992000   0.83908246   -4.2070402   -4.2070402   -2.9484169  0.015225939   -4.2070402    1.2586234      8192000 
  993000   0.83961193   -4.2073568   -4.2073568   -2.9479392   0.01451887   -4.2073568    1.2594176      8192000 
  994000   0.83947049   -4.2063223   -4.2063223   -2.9471168  0.016968264   -4.2063223    1.2592054      8192000 
  995000   0.83990386   -4.2062618   -4.2062618   -2.9464063  0.016721587   -4.2062618    1.2598555      8192000 
  996000   0.84009043   -4.2059562   -4.2059562   -2.9458208  0.014277811   -4.2059562    1.2601353      8192000 
  997000   0.83973077   -4.2046716   -4.2046716   -2.9450757   0.01482215   -4.2046716    1.2595958      8192000 
  998000   0.83944644   -4.2038254   -4.2038254    -2.944656  0.016888224   -4.2038254    1.2591693      8192000 
  999000     0.840292   -4.2041247   -4.2041247    -2.943687  0.015520896   -4.2041247    1.2604377      8192000 
 1000000   0.84046118   -4.2037984   -4.2037984    -2.943107  0.016855977   -4.2037984    1.2606915      8192000 
Loop time of 20117.8 on 192 procs for 1000000 steps with 3993600 atoms

Performance: 10736.756 tau/day, 49.707 timesteps/s
99.5% CPU use with 192 MPI tasks x 1 OpenMP threads

MPI task timing breakdown:
Section |  min time  |  avg time  |  max time  |%varavg|  %CPU | %total
-----------------------------------------------------------------------
Pair    | 4480.1     | 7754       | 10939      | 885.8 |  99.5 | 38.54
Bond    | 0.78786    | 0.88548    | 0.96286    |   3.7 | 100.0 |  0.00
Neigh   | 1330.5     | 2180.1     | 3055.3     | 428.8 |  99.6 | 10.84
Comm    | 4643.2     | 8022.9     | 12469      |1421.5 |  99.5 | 39.88
Output  | 59.757     | 61.82      | 61.836     |   1.9 |  98.4 |  0.31
Modify  | 268.99     | 489.15     | 1096.6     |1002.4 |  99.2 |  2.43
Other   |            | 1609       |            |       |       |  8.00

Nlocal:        20800.0 ave       23232 max        8587 min
Histogram: 2 2 1 1 2 0 0 8 139 37
Nghost:        13413.8 ave       15394 max        7703 min
Histogram: 2 2 2 2 44 6 2 1 103 28
Neighs:        715980.0 ave      828394 max      243278 min
Histogram: 2 2 1 1 2 0 26 32 92 34

Total # of neighbors = 1.3746809e+08
Ave neighs/atom = 34.422097
Ave special neighs/atom = 0.0000000
Neighbor list builds = 67197
Dangerous builds = 2404
write_data	data.lj
System init for write_data ...
WARNING: Not all mixed pair coeffs generated from mixing. Use write_data with 'pair ij' option to store all pair coeffs. (src/write_data.cpp:312)
Total wall time: 5:35:26
