LAMMPS (24 Dec 2020)
OMP_NUM_THREADS environment is not set. Defaulting to 1 thread. (src/comm.cpp:94)
  using 1 OpenMP thread(s) per MPI task
# Simple rigid body system
# needed variables: startTemp, temp

units		lj
atom_style	full
dimension 	3
boundary	p p f
pair_style	lj/smooth 2.5 3.0



variable 	sigma		equal 1.0
variable 	epsilon 	equal 1.0


region		box block 0 80 0 80 0 80
create_box 	3 box
Created orthogonal box = (0.0000000 0.0000000 0.0000000) to (80.000000 80.000000 80.000000)
  6 by 4 by 4 MPI processor grid
lattice 	sc 1.0
Lattice spacing in x,y,z = 1.0000000 1.0000000 1.0000000

create_atoms 	1 region box
Created 512000 atoms
  create_atoms CPU = 0.097 seconds

mass		1 1.0
mass		2 1.0
mass		3 1.0


group		solvent type 1
512000 atoms in group solvent


velocity 	solvent create ${startTemp} 563435 loop geom
velocity 	solvent create 0.5 563435 loop geom

read_data	data.vac add append
Reading data file ...
  orthogonal box = (0.0000000 0.0000000 0.0000000) to (80.000000 80.000000 160.00000)
  3 by 4 by 8 MPI processor grid
Finding 1-2 1-3 1-4 neighbors ...
  special bond factors lj:    0        0        0       
  special bond factors coul:  0        0        0       
     0 = max # of 1-2 neighbors
     0 = max # of 1-3 neighbors
     0 = max # of 1-4 neighbors
     1 = max # of special neighbors
  special bonds CPU = 0.447 seconds
  read_data CPU = 0.454 seconds

neighbor 	0.4 bin

pair_coeff	1 1 1.0 1.0
pair_coeff	2 2 0.0 0.0
pair_coeff	3 3 0.0 0.0
pair_coeff	2 3 0.0 0.0
pair_coeff	1 2*3 0.0 0.0

pair_modify 	shift yes

pair_write      1 1 1000 r 1.0 3.1 pair.txt LJ
Creating table file pair.txt with DATE: 2021-05-19
Neighbor list info ...
  update every 1 steps, delay 10 steps, check yes
  max neighbors/atom: 2000, page size: 100000
  master list distance cutoff = 3.4
  ghost atom cutoff = 3.4
  binsize = 1.7, bins = 48 48 95
  1 neighbor lists, perpetual/occasional/extra = 1 0 0
  (1) pair lj/smooth, perpetual
      attributes: half, newton on
      pair build: half/bin/newton
      stencil: half/bin/3d/newton
      bin: standard
balance 	1.05 shift z 10 1.05
Balancing ...
 rebalancing time: 0.009 seconds
  iteration count = 5
  initial/final maximal load/proc = 10800.000 6480.0000
  initial/final imbalance factor  = 2.0250000 1.2150000
  x cuts: 0.0000000 0.33333333 0.66666667 1.0000000
  y cuts: 0.0000000 0.25000000 0.50000000 0.75000000 1.0000000
  z cuts: 0.0000000 0.062500000 0.12890625 0.18750000 0.25781250 0.30859375 0.38671875 0.43750000 1.0000000


####################### WALLS ###########################


region	       low block  EDGE EDGE EDGE EDGE 0 2

region 	       top block  EDGE EDGE EDGE EDGE 159 160


delete_atoms   region low
WARNING: Ignoring 'compress yes' for molecular system (src/delete_atoms.cpp:125)
Deleted 19200 atoms, new total = 492800

delete_atoms   region top
WARNING: Ignoring 'compress yes' for molecular system (src/delete_atoms.cpp:125)
Deleted 0 atoms, new total = 492800


variable       epsilonWall equal 2*${epsilon}
variable       epsilonWall equal 2*1

variable       cutoffTop   equal   0.7147*${sigma}
variable       cutoffTop   equal   0.7147*1

variable       cutoffLow   equal   3*${sigma}
variable       cutoffLow   equal   3*1


fix            topWall all wall/lj93 zhi EDGE                ${epsilonWall} ${sigma} ${cutoffTop} units box
fix            topWall all wall/lj93 zhi EDGE                2 ${sigma} ${cutoffTop} units box
fix            topWall all wall/lj93 zhi EDGE                2 1 ${cutoffTop} units box
fix            topWall all wall/lj93 zhi EDGE                2 1 0.7147 units box

fix            lowWall all wall/lj93 zlo EDGE                ${epsilonWall} ${sigma} ${cutoffLow} units box
fix            lowWall all wall/lj93 zlo EDGE                2 ${sigma} ${cutoffLow} units box
fix            lowWall all wall/lj93 zlo EDGE                2 1 ${cutoffLow} units box
fix            lowWall all wall/lj93 zlo EDGE                2 1 3 units box


###################### COMPUTES ##########################

compute        bin1 solvent chunk/atom bin/1d z upper 1.0



######################	FIXES ############################


fix 		peclet solvent ave/chunk 1000 1 1000 bin1 density/number norm 		 none ave one file density.profile

fix 		 temp solvent ave/chunk 1000 1 1000 bin1 temp norm none ave one 		 file temp.profile

fix 		2 solvent nve

## Thermostat


region		regthermo block EDGE EDGE EDGE EDGE 0 20

group 		thermo dynamic solvent region regthermo every 1000
dynamic group thermo defined

fix 		3 thermo langevin ${startTemp} ${temp} 10 156453
fix 		3 thermo langevin 0.5 ${temp} 10 156453
fix 		3 thermo langevin 0.5 .7 10 156453



#### Load balancing


fix 		bal all balance 1000 1.05 shift z 10 1.05


############### Diagnostics and computes ###################
#compute 	com cube	  rigid/local	1 mol x y z
#compute 	quat cube	  rigid/local	1 mol quatw quati quatj quatk

thermo 		1000
thermo_style 	custom step temp epair evdwl etotal press pe ke vol

dump		1 all custom 100000 dump.lammpstrj id mol type x y z
dump 		2 all image 10000 image.*.png type type
dump 		3 all movie 1000 movie.avi type type
#dump 		com cube local 1000 dump.*.xyz c_com[*]
#dump		quat cube      local 1000 dump.*.quat c_quat[*]


restart 	500000 restart.dat
timestep 	0.0025
timer 		full
New timer settings: style=full  mode=nosync  timeout=off


run		1000000
Per MPI rank memory allocation (min/avg/max) = 12.19 | 12.58 | 12.81 Mbytes
Step Temp E_pair E_vdwl TotEng Press PotEng KinEng Volume 
       0   0.49998514   -3.5955076   -3.5955076   -2.8455314     8.314756   -3.5955076   0.74997619      1024000 
    1000    1.4098592   -5.0835578   -5.0835578   -2.9687732    3.5474455   -5.0835578    2.1147846      1024000 
    2000    1.3455916   -5.1248049   -5.1248049   -3.1064216    2.3502784   -5.1248049    2.0183833      1024000 
    3000    1.2368676   -5.0884596   -5.0884596   -3.2331619    1.5412495   -5.0884596    1.8552977      1024000 
    4000    1.1838558    -5.096215    -5.096215   -3.3204349   0.63317499    -5.096215    1.7757801      1024000 
    5000    1.1102498   -5.0296528   -5.0296528   -3.3642814 0.0027869319   -5.0296528    1.6653714      1024000 
    6000    1.0330241   -4.9293547   -4.9293547   -3.3798218  -0.32646991   -4.9293547    1.5495329      1024000 
    7000   0.97346502   -4.8434857   -4.8434857   -3.3832911  -0.41550269   -4.8434857    1.4601946      1024000 
    8000   0.96240888   -4.8292684   -4.8292684    -3.385658  -0.27496277   -4.8292684    1.4436104      1024000 
    9000   0.97963311   -4.8646902   -4.8646902   -3.3952436  -0.12249666   -4.8646902    1.4694467      1024000 
   10000   0.98556239   -4.8883977   -4.8883977   -3.4100571  -0.02699835   -4.8883977    1.4783406      1024000 
   11000   0.98311308   -4.8986672   -4.8986672   -3.4240006 -0.0027747043   -4.8986672    1.4746666      1024000 
   12000   0.98176795    -4.907059    -4.907059   -3.4344101  0.015169479    -4.907059    1.4726489      1024000 
   13000   0.98573878   -4.9224849   -4.9224849   -3.4438798  0.049285083   -4.9224849    1.4786052      1024000 
   14000   0.98540291   -4.9304746   -4.9304746   -3.4523732  0.073701509   -4.9304746    1.4781014      1024000 
   15000   0.98229905   -4.9332069   -4.9332069   -3.4597613  0.064210705   -4.9332069    1.4734456      1024000 
   16000   0.97833916   -4.9335398   -4.9335398    -3.466034  0.058219772   -4.9335398    1.4675058      1024000 
   17000   0.97565705   -4.9352167   -4.9352167    -3.471734   0.06467034   -4.9352167    1.4634826      1024000 
   18000   0.97737651   -4.9423621   -4.9423621   -3.4763003  0.075770029   -4.9423621    1.4660618      1024000 
   19000   0.97839578   -4.9482289   -4.9482289   -3.4806382  0.087392885   -4.9482289    1.4675907      1024000 
   20000   0.97737218   -4.9512091   -4.9512091   -3.4851538   0.10062403   -4.9512091    1.4660553      1024000 
   21000   0.97724691    -4.954897    -4.954897   -3.4890296   0.10016171    -4.954897    1.4658674      1024000 
   22000   0.97620303    -4.956115    -4.956115   -3.4918134   0.10089693    -4.956115    1.4643016      1024000 
   23000   0.97637812    -4.959409    -4.959409   -3.4948448  0.099126985    -4.959409    1.4645642      1024000 
   24000   0.97663163   -4.9621755   -4.9621755    -3.497231   0.10499017   -4.9621755    1.4649445      1024000 
   25000    0.9773853   -4.9660256   -4.9660256   -3.4999506   0.11508034   -4.9660256     1.466075      1024000 
   26000   0.98350864    -4.978346    -4.978346    -3.503086   0.21046571    -4.978346      1.47526      1024000 
   27000   0.99669271   -5.0007073   -5.0007073   -3.5056713   0.64037602   -5.0007073     1.495036      1024000 
   28000    1.0130343   -5.0269122   -5.0269122   -3.5073639    1.0628926   -5.0269122    1.5195484      1024000 
   29000    1.0275408   -5.0498612   -5.0498612   -3.5085531    1.5484647   -5.0498612    1.5413081      1024000 
   30000    1.0319614   -5.0582256   -5.0582256   -3.5102867    1.6919317   -5.0582256    1.5479389      1024000 
   31000    1.0120829   -5.0300978   -5.0300978   -3.5119765    1.2670739   -5.0300978    1.5181212      1024000 
   32000    0.9939837   -5.0039559   -5.0039559   -3.5129834   0.85164266   -5.0039559    1.4909725      1024000 
   33000   0.97294147   -4.9733273   -4.9733273    -3.513918     0.491647   -4.9733273    1.4594092      1024000 
   34000    0.9366025   -4.9197877   -4.9197877   -3.5148868   0.25035524   -4.9197877    1.4049009      1024000 
   35000   0.89724342   -4.8624635   -4.8624635   -3.5166011  0.081662861   -4.8624635    1.3458624      1024000 
   36000   0.86738213   -4.8193482   -4.8193482   -3.5182776 -0.036220774   -4.8193482    1.3010706      1024000 
   37000   0.84681925   -4.7896961   -4.7896961   -3.5194698 -0.099523115   -4.7896961    1.2702263      1024000 
   38000   0.83567728   -4.7744238   -4.7744238   -3.5209104  -0.11558331   -4.7744238    1.2535134      1024000 
   39000   0.83390379   -4.7726964   -4.7726964   -3.5218433  -0.10513394   -4.7726964    1.2508531      1024000 
   40000    0.8411768   -4.7849797   -4.7849797    -3.523217 -0.075759727   -4.7849797    1.2617626      1024000 
   41000   0.85533834   -4.8074929   -4.8074929   -3.5244879 -0.027849977   -4.8074929    1.2830049      1024000 
   42000   0.87333501   -4.8356055   -4.8356055   -3.5256056  0.051625729   -4.8356055    1.3099999      1024000 
   43000   0.89019698   -4.8622384   -4.8622384   -3.5269456   0.14678982   -4.8622384    1.3352928      1024000 
   44000   0.90176888   -4.8811792   -4.8811792   -3.5285286   0.21829075   -4.8811792    1.3526506      1024000 
   45000   0.90356666   -4.8845798   -4.8845798   -3.5292326    0.2324287   -4.8845798    1.3553472      1024000 
   46000   0.89673186   -4.8753928   -4.8753928   -3.5302978    0.1846318   -4.8753928    1.3450951      1024000 
   47000   0.88051924   -4.8520447   -4.8520447   -3.5312685   0.10982256   -4.8520447    1.3207762      1024000 
   48000   0.86357699    -4.828198    -4.828198   -3.5328351  0.022535744    -4.828198    1.2953629      1024000 
   49000   0.84829528   -4.8061312   -4.8061312   -3.5336909 -0.032928796   -4.8061312    1.2724403      1024000 
   50000   0.83885661   -4.7932541   -4.7932541   -3.5349717 -0.064768678   -4.7932541    1.2582824      1024000 
   51000   0.83636781   -4.7909827   -4.7909827   -3.5364335   -0.0697687   -4.7909827    1.2545492      1024000 
   52000   0.83891691   -4.7958822   -4.7958822   -3.5375094 -0.055786077   -4.7958822    1.2583728      1024000 
   53000   0.84910532   -4.8129413   -4.8129413   -3.5392859 -0.011200644   -4.8129413    1.2736554      1024000 
   54000   0.86408446   -4.8369804   -4.8369804   -3.5408564  0.045504158   -4.8369804    1.2961241      1024000 
   55000   0.87619515   -4.8568103   -4.8568103   -3.5425202    0.1106541   -4.8568103    1.3142901      1024000 
   56000    0.8874234   -4.8754613   -4.8754613   -3.5443289   0.17076723   -4.8754613    1.3311324      1024000 
   57000   0.89157836   -4.8837045   -4.8837045   -3.5463397   0.19264422   -4.8837045    1.3373648      1024000 
   58000   0.89042075   -4.8839197   -4.8839197   -3.5482913   0.18346018   -4.8839197    1.3356284      1024000 
   59000   0.88233732   -4.8742737   -4.8742737   -3.5507704    0.1531992   -4.8742737    1.3235033      1024000 
   60000    0.8734151   -4.8631724   -4.8631724   -3.5530524   0.10629389   -4.8631724      1.31012      1024000 
   61000   0.86409281   -4.8523595   -4.8523595    -3.556223  0.071339853   -4.8523595    1.2961366      1024000 
   62000   0.86000207   -4.8498171   -4.8498171   -3.5598166  0.056575354   -4.8498171    1.2900005      1024000 
   63000   0.86179088   -4.8559141   -4.8559141   -3.5632304  0.094182833   -4.8559141    1.2926837      1024000 
   64000   0.86960513    -4.872718    -4.872718    -3.568313   0.14399612    -4.872718     1.304405      1024000 
   65000   0.88249375   -4.8982436   -4.8982436   -3.5745057   0.22859796   -4.8982436    1.3237379      1024000 
   66000   0.89503846   -4.9245202   -4.9245202   -3.5819653   0.31737891   -4.9245202     1.342555      1024000 
   67000   0.90394565   -4.9473121   -4.9473121   -3.5913963   0.38966213   -4.9473121    1.3559157      1024000 
   68000   0.90429804   -4.9580644   -4.9580644   -3.6016201   0.42431748   -4.9580644    1.3564443      1024000 
   69000   0.89635931   -4.9584515   -4.9584515   -3.6139153   0.40860986   -4.9584515    1.3445362      1024000 
   70000   0.88017597   -4.9484064   -4.9484064   -3.6281451    0.3468069   -4.9484064    1.3202613      1024000 
   71000   0.85911893   -4.9337476   -4.9337476   -3.6450719   0.26079744   -4.9337476    1.2886758      1024000 
   72000   0.83808124   -4.9190686   -4.9190686   -3.6619493   0.16698902   -4.9190686    1.2571193      1024000 
   73000   0.81706023   -4.9022535   -4.9022535   -3.6766656   0.12407379   -4.9022535    1.2255879      1024000 
   74000   0.80399778   -4.9006652   -4.9006652    -3.694671    0.1818532   -4.9006652    1.2059942      1024000 
   75000   0.79773399     -4.91797     -4.91797   -3.7213714   0.27346387     -4.91797    1.1965986      1024000 
   76000   0.79899173   -4.9465198   -4.9465198   -3.7480346   0.27702104   -4.9465198    1.1984852      1024000 
   77000   0.80440143   -4.9733893   -4.9733893   -3.7667896   0.26539865   -4.9733893    1.2065997      1024000 
   78000   0.80824264   -4.9925563   -4.9925563   -3.7801948   0.28345085   -4.9925563    1.2123615      1024000 
   79000   0.81567846   -5.0135185   -5.0135185   -3.7900033   0.33612442   -5.0135185    1.2235152      1024000 
   80000   0.82510159   -5.0365792   -5.0365792   -3.7989293   0.39918346   -5.0365792    1.2376499      1024000 
   81000   0.82694893   -5.0483216   -5.0483216   -3.8079007   0.43472777   -5.0483216    1.2404209      1024000 
   82000   0.81296521   -5.0364123   -5.0364123    -3.816967   0.35859785   -5.0364123    1.2194453      1024000 
   83000    0.7942102   -5.0177851   -5.0177851   -3.8264722   0.28103216   -5.0177851    1.1913129      1024000 
   84000   0.77944545   -5.0054293   -5.0054293   -3.8362635   0.21821991   -5.0054293    1.1691658      1024000 
   85000   0.76689174   -4.9965925   -4.9965925   -3.8462572   0.17377163   -4.9965925    1.1503353      1024000 
   86000   0.75658138   -4.9906796   -4.9906796   -3.8558099   0.13328183   -4.9906796    1.1348698      1024000 
   87000   0.74948615   -4.9880227   -4.9880227   -3.8637958  0.076801681   -4.9880227    1.1242269      1024000 
   88000   0.74209076   -4.9825775   -4.9825775   -3.8694436  0.017171419   -4.9825775    1.1131339      1024000 
   89000   0.73487535   -4.9737217   -4.9737217   -3.8714109 -0.045624939   -4.9737217    1.1023108      1024000 
   90000   0.72558132   -4.9597655   -4.9597655   -3.8713957 -0.098302465   -4.9597655    1.0883698      1024000 
   91000   0.71874181    -4.946068    -4.946068   -3.8679574  -0.14952133    -4.946068    1.0781105      1024000 
   92000   0.70907986    -4.928961    -4.928961   -3.8653433  -0.17635115    -4.928961    1.0636176      1024000 
   93000   0.70276275   -4.9166907   -4.9166907   -3.8625487   -0.1995457   -4.9166907     1.054142      1024000 
   94000   0.69634205   -4.9059808   -4.9059808   -3.8614699  -0.21196509   -4.9059808     1.044511      1024000 
   95000   0.69202597   -4.8995829   -4.8995829    -3.861546   -0.2214028   -4.8995829    1.0380369      1024000 
   96000   0.68794467   -4.8951748   -4.8951748   -3.8632599  -0.22917207   -4.8951748    1.0319149      1024000 
   97000   0.68612448   -4.8946959   -4.8946959   -3.8655113  -0.22919097   -4.8946959    1.0291846      1024000 
   98000   0.68825663   -4.8995211   -4.8995211   -3.8671383  -0.22908655   -4.8995211    1.0323828      1024000 
   99000   0.69168476   -4.9064685   -4.9064685   -3.8689434  -0.22129253   -4.9064685     1.037525      1024000 
  100000   0.69759588   -4.9157841   -4.9157841   -3.8693924  -0.19896645   -4.9157841    1.0463917      1024000 
  101000   0.70497675   -4.9279313   -4.9279313   -3.8704684  -0.17468487   -4.9279313     1.057463      1024000 
  102000   0.71215809   -4.9399331   -4.9399331   -3.8716981  -0.14167129   -4.9399331     1.068235      1024000 
  103000    0.7212025    -4.954822    -4.954822   -3.8730205  -0.10494698    -4.954822    1.0818016      1024000 
  104000   0.72900887    -4.967323    -4.967323    -3.873812 -0.067108506    -4.967323    1.0935111      1024000 
  105000    0.7354525   -4.9794494   -4.9794494   -3.8762729 -0.029437569   -4.9794494    1.1031765      1024000 
  106000   0.74145887     -4.99281     -4.99281   -3.8806239  0.013279417     -4.99281    1.1121861      1024000 
  107000   0.74622819   -5.0058911   -5.0058911   -3.8865511   0.05301536   -5.0058911      1.11934      1024000 
  108000   0.74927966   -5.0176983   -5.0176983   -3.8937811   0.10036563   -5.0176983    1.1239172      1024000 
  109000   0.75423069   -5.0334544   -5.0334544   -3.9021107   0.13711487   -5.0334544    1.1313437      1024000 
  110000   0.75842935    -5.048845    -5.048845   -3.9112033   0.17013529    -5.048845    1.1376417      1024000 
  111000   0.76158709   -5.0616962   -5.0616962   -3.9193179   0.19601628   -5.0616962    1.1423783      1024000 
  112000   0.76316592   -5.0712563   -5.0712563   -3.9265098   0.22382247   -5.0712563    1.1447466      1024000 
  113000   0.76411263   -5.0796972   -5.0796972   -3.9335306   0.23015789   -5.0796972    1.1461666      1024000 
  114000   0.76412312   -5.0861286   -5.0861286   -3.9399463   0.22846727   -5.0861286    1.1461823      1024000 
  115000   0.75897165   -5.0845424   -5.0845424   -3.9460872    0.2228174   -5.0845424    1.1384552      1024000 
  116000   0.75506432   -5.0837707   -5.0837707   -3.9511765   0.20388815   -5.0837707    1.1325942      1024000 
  117000   0.74899046   -5.0802817   -5.0802817   -3.9567983   0.17099643   -5.0802817    1.1234834      1024000 
  118000   0.74146982   -5.0742053   -5.0742053   -3.9620029   0.13543765   -5.0742053    1.1122025      1024000 
  119000   0.73551932   -5.0700221   -5.0700221   -3.9667453  0.089893618   -5.0700221    1.1032767      1024000 
  120000    0.7283446    -5.063216    -5.063216   -3.9707013  0.055265137    -5.063216    1.0925147      1024000 
  121000   0.72140866   -5.0552588   -5.0552588    -3.973148  0.019021001   -5.0552588    1.0821108      1024000 
  122000   0.71407009   -5.0447067   -5.0447067   -3.9736038 -0.017075327   -5.0447067     1.071103      1024000 
  123000   0.70924073   -5.0380181   -5.0380181   -3.9741592 -0.054077493   -5.0380181    1.0638589      1024000 
  124000   0.70433802    -5.030554    -5.030554   -3.9740491  -0.08847439    -5.030554    1.0565049      1024000 
  125000   0.70095365   -5.0248575   -5.0248575   -3.9734292  -0.11418222   -5.0248575    1.0514283      1024000 
  126000   0.69674583   -5.0180837   -5.0180837    -3.972967  -0.13421738   -5.0180837    1.0451166      1024000 
  127000   0.69230603   -5.0108334   -5.0108334   -3.9723764  -0.14688113   -5.0108334    1.0384569      1024000 
  128000   0.69105533   -5.0085275   -5.0085275   -3.9719466  -0.15670231   -5.0085275    1.0365809      1024000 
  129000   0.68957995   -5.0062937   -5.0062937   -3.9719259  -0.15493154   -5.0062937    1.0343678      1024000 
  130000    0.6906056   -5.0078595   -5.0078595   -3.9719532  -0.14776392   -5.0078595    1.0359063      1024000 
  131000   0.69218634   -5.0096407   -5.0096407   -3.9713633  -0.13664004   -5.0096407    1.0382774      1024000 
  132000   0.69558179   -5.0160105   -5.0160105   -3.9726399  -0.12846349   -5.0160105    1.0433706      1024000 
  133000   0.69921555   -5.0229422   -5.0229422    -3.974121  -0.11155925   -5.0229422    1.0488212      1024000 
  134000   0.70379196   -5.0310256   -5.0310256   -3.9753398 -0.089801977   -5.0310256    1.0556858      1024000 
  135000   0.70931925   -5.0409161   -5.0409161   -3.9769393 -0.061232944   -5.0409161    1.0639767      1024000 
  136000   0.71414656   -5.0494675   -5.0494675   -3.9782498 -0.030880215   -5.0494675    1.0712177      1024000 
  137000   0.71892411   -5.0601538   -5.0601538   -3.9817698 0.00053576561   -5.0601538     1.078384      1024000 
  138000   0.72167649   -5.0678938   -5.0678938   -3.9853812  0.033201535   -5.0678938    1.0825125      1024000 
  139000   0.72602876   -5.0785952   -5.0785952   -3.9895543  0.060777105   -5.0785952    1.0890409      1024000 
  140000   0.73006549   -5.0893375   -5.0893375   -3.9942415  0.084643859   -5.0893375     1.095096      1024000 
  141000   0.73105756   -5.0963592   -5.0963592   -3.9997751   0.10855442   -5.0963592    1.0965841      1024000 
  142000   0.73330772   -5.1045406   -5.1045406   -4.0045813   0.12606093   -5.1045406    1.0999593      1024000 
  143000   0.73423844   -5.1113853   -5.1113853   -4.0100298   0.13922771   -5.1113853    1.1013554      1024000 
  144000   0.73449467   -5.1172563   -5.1172563   -4.0155165   0.14579843   -5.1172563    1.1017398      1024000 
  145000   0.73407321   -5.1204804   -5.1204804   -4.0193728   0.15177367   -5.1204804    1.1011076      1024000 
  146000   0.73169381   -5.1218959   -5.1218959   -4.0243574   0.14313405   -5.1218959    1.0975385      1024000 
  147000   0.72928382   -5.1217472   -5.1217472   -4.0278236   0.13210687   -5.1217472    1.0939235      1024000 
  148000   0.72584725   -5.1212895   -5.1212895   -4.0325208   0.10832179   -5.1212895    1.0887687      1024000 
  149000   0.72170149   -5.1188534   -5.1188534   -4.0363034  0.082137151   -5.1188534      1.08255      1024000 
  150000   0.71745642   -5.1155437   -5.1155437   -4.0393613   0.05949996   -5.1155437    1.0761824      1024000 
  151000   0.71311332   -5.1114717   -5.1114717   -4.0418039  0.033255631   -5.1114717    1.0696678      1024000 
  152000   0.70807567   -5.1059302   -5.1059302   -4.0438188  0.013189078   -5.1059302    1.0621114      1024000 
  153000   0.70428452   -5.1026973   -5.1026973   -4.0462727 -0.019692534   -5.1026973    1.0564246      1024000 
  154000   0.70084826   -5.0992709   -5.0992709   -4.0480006 -0.046854669   -5.0992709    1.0512702      1024000 
  155000    0.6966309   -5.0940816   -5.0940816   -4.0491374 -0.063217082   -5.0940816    1.0449442      1024000 
  156000   0.69425795   -5.0910247   -5.0910247   -4.0496399 -0.075211789   -5.0910247    1.0413848      1024000 
  157000   0.69176119   -5.0871109   -5.0871109   -4.0494712 -0.087025926   -5.0871109    1.0376397      1024000 
  158000   0.69141941   -5.0872439   -5.0872439   -4.0501169 -0.099455009   -5.0872439     1.037127      1024000 
  159000   0.69002655   -5.0855799   -5.0855799   -4.0505422  -0.09728863   -5.0855799    1.0350377      1024000 
  160000   0.69074824   -5.0873426   -5.0873426   -4.0512223 -0.096062422   -5.0873426    1.0361203      1024000 
  161000   0.69177769   -5.0898636   -5.0898636   -4.0521992 -0.090709411   -5.0898636    1.0376644      1024000 
  162000    0.6936805   -5.0937624   -5.0937624   -4.0532438 -0.081687925   -5.0937624    1.0405186      1024000 
  163000    0.6957644   -5.0987306   -5.0987306   -4.0550861 -0.073230876   -5.0987306    1.0436445      1024000 
  164000   0.69820278   -5.1044178   -5.1044178   -4.0571157 -0.056935712   -5.1044178     1.047302      1024000 
  165000   0.70110735   -5.1107982   -5.1107982   -4.0591394 -0.034304858   -5.1107982    1.0516589      1024000 
  166000   0.70476002   -5.1189104   -5.1189104   -4.0617725 -0.017583015   -5.1189104    1.0571379      1024000 
  167000   0.70654993   -5.1244973   -5.1244973   -4.0646746 0.0028648204   -5.1244973    1.0598227      1024000 
  168000   0.70937448   -5.1324159   -5.1324159   -4.0683563  0.023945799   -5.1324159    1.0640596      1024000 
  169000   0.71170307   -5.1390957   -5.1390957   -4.0715432  0.044089059   -5.1390957    1.0675524      1024000 
  170000   0.71401114   -5.1467094   -5.1467094   -4.0756948   0.06255284   -5.1467094    1.0710145      1024000 
  171000   0.71569272   -5.1538035   -5.1538035   -4.0802666   0.07233512   -5.1538035    1.0735369      1024000 
  172000   0.71686479   -5.1600938   -5.1600938   -4.0847988  0.084180379   -5.1600938     1.075295      1024000 
  173000   0.71586806   -5.1632633   -5.1632633   -4.0894634  0.093760303   -5.1632633    1.0737999      1024000 
  174000   0.71565583    -5.167683    -5.167683   -4.0942014  0.094521163    -5.167683    1.0734816      1024000 
  175000   0.71567317   -5.1721126   -5.1721126    -4.098605  0.089706987   -5.1721126    1.0735076      1024000 
  176000    0.7140882   -5.1740466   -5.1740466   -4.1029164  0.083926889   -5.1740466    1.0711301      1024000 
  177000   0.71223184   -5.1748774   -5.1748774   -4.1065318   0.07306568   -5.1748774    1.0683456      1024000 
  178000   0.70996206   -5.1753638   -5.1753638   -4.1104228  0.063382806   -5.1753638    1.0649409      1024000 
  179000   0.70735518   -5.1752481   -5.1752481   -4.1142175  0.047723943   -5.1752481    1.0610306      1024000 
  180000   0.70416155   -5.1743984   -5.1743984   -4.1181583  0.030709076   -5.1743984    1.0562402      1024000 
  181000   0.70163997    -5.173493    -5.173493   -4.1210352  0.013995781    -5.173493    1.0524578      1024000 
  182000   0.69915017   -5.1716913   -5.1716913   -4.1229682 -0.00090580625   -5.1716913    1.0487231      1024000 
  183000    0.6966183    -5.170392    -5.170392   -4.1254667 -0.015442549    -5.170392    1.0449253      1024000 
  184000   0.69440273   -5.1687734   -5.1687734   -4.1271714 -0.031592953   -5.1687734     1.041602      1024000 
  185000   0.69257773    -5.167807    -5.167807   -4.1289425 -0.041587231    -5.167807    1.0388645      1024000 
  186000   0.69065163   -5.1674074   -5.1674074    -4.131432 -0.047433696   -5.1674074    1.0359753      1024000 
  187000   0.68951012   -5.1678278   -5.1678278   -4.1335647 -0.054719282   -5.1678278    1.0342631      1024000 
  188000   0.68927041    -5.168904    -5.168904   -4.1350005 -0.055604324    -5.168904    1.0339035      1024000 
  189000   0.68978077   -5.1706962   -5.1706962   -4.1360271 -0.056714045   -5.1706962    1.0346691      1024000 
  190000   0.69069007   -5.1738039   -5.1738039   -4.1377709 -0.054929712   -5.1738039     1.036033      1024000 
  191000   0.68966909   -5.1742186   -5.1742186   -4.1397171  -0.04428964   -5.1742186    1.0345015      1024000 
  192000   0.69213306   -5.1795596   -5.1795596   -4.1413621 -0.038960052   -5.1795596    1.0381975      1024000 
  193000   0.69566695     -5.18669     -5.18669   -4.1431917 -0.031699047     -5.18669    1.0434983      1024000 
  194000   0.69502389   -5.1894792   -5.1894792   -4.1469455   -0.0155348   -5.1894792    1.0425337      1024000 
  195000   0.69735563   -5.1961696   -5.1961696   -4.1501383 -0.0056221404   -5.1961696    1.0460313      1024000 
  196000   0.70016079   -5.2031856   -5.2031856   -4.1529466 0.00069296946   -5.2031856    1.0502391      1024000 
  197000   0.69926132   -5.2059385   -5.2059385   -4.1570487  0.016596875   -5.2059385    1.0488899      1024000 
  198000   0.70206041   -5.2139804   -5.2139804   -4.1608919  0.025216238   -5.2139804    1.0530885      1024000 
  199000   0.70194785   -5.2176554   -5.2176554   -4.1647358  0.038548215   -5.2176554    1.0529196      1024000 
  200000   0.70400786   -5.2248757   -5.2248757   -4.1688661  0.040092038   -5.2248757    1.0560097      1024000 
  201000   0.70389902   -5.2297925   -5.2297925   -4.1739461  0.044722865   -5.2297925    1.0558464      1024000 
  202000    0.7028154    -5.232577    -5.232577   -4.1783561  0.055627845    -5.232577     1.054221      1024000 
  203000   0.70260991   -5.2369212   -5.2369212   -4.1830085  0.055468366   -5.2369212    1.0539127      1024000 
  204000   0.70293441   -5.2421367   -5.2421367   -4.1877372  0.044764013   -5.2421367    1.0543995      1024000 
  205000   0.70111009    -5.242871    -5.242871    -4.191208  0.047366534    -5.242871     1.051663      1024000 
  206000   0.69908795   -5.2437321   -5.2437321   -4.1951023  0.041564993   -5.2437321    1.0486298      1024000 
  207000   0.69893613   -5.2468996   -5.2468996   -4.1984975  0.028844108   -5.2468996    1.0484021      1024000 
  208000   0.69641638   -5.2471902   -5.2471902   -4.2025677  0.022157562   -5.2471902    1.0446224      1024000 
  209000   0.69535074   -5.2493351   -5.2493351   -4.2063111  0.014297105   -5.2493351     1.043024      1024000 
  210000    0.6940671   -5.2506456   -5.2506456    -4.209547 0.0054301951   -5.2506456    1.0410985      1024000 
  211000   0.69306728   -5.2521486   -5.2521486   -4.2125498 -0.0025797438   -5.2521486    1.0395988      1024000 
  212000    0.6917583   -5.2537029   -5.2537029   -4.2160675  -0.01404843   -5.2537029    1.0376353      1024000 
  213000    0.6907421   -5.2556509   -5.2556509   -4.2195399 -0.022550256   -5.2556509    1.0361111      1024000 
  214000    0.6897896    -5.257205    -5.257205   -4.2225227 -0.025211379    -5.257205    1.0346823      1024000 
  215000   0.68867612   -5.2583055   -5.2583055   -4.2252934 -0.027152026   -5.2583055    1.0330121      1024000 
  216000    0.6876962   -5.2598757   -5.2598757   -4.2283335 -0.030779592   -5.2598757    1.0315422      1024000 
  217000   0.68818272   -5.2640699   -5.2640699   -4.2317979 -0.033135953   -5.2640699     1.032272      1024000 
  218000   0.68750647   -5.2657203   -5.2657203   -4.2344627 -0.031939234   -5.2657203    1.0312576      1024000 
  219000   0.68869239    -5.270196    -5.270196   -4.2371595 -0.029857886    -5.270196    1.0330365      1024000 
  220000   0.68996954    -5.275344    -5.275344   -4.2403918 -0.022287704    -5.275344    1.0349522      1024000 
  221000   0.69117035   -5.2802094   -5.2802094    -4.243456 -0.017890192   -5.2802094    1.0367534      1024000 
  222000   0.69130395   -5.2843245   -5.2843245   -4.2473707 -0.012882788   -5.2843245    1.0369538      1024000 
  223000   0.69192905   -5.2881979   -5.2881979   -4.2503065 -0.0010854521   -5.2881979    1.0378915      1024000 
  224000   0.69376452   -5.2938013   -5.2938013   -4.2531567 0.0057843158   -5.2938013    1.0406447      1024000 
  225000   0.69391295   -5.2977829   -5.2977829   -4.2569156  0.012894413   -5.2977829    1.0408673      1024000 
  226000    0.6944638   -5.3021681   -5.3021681   -4.2604745  0.014099506   -5.3021681    1.0416936      1024000 
  227000   0.69389818   -5.3054378   -5.3054378   -4.2645926  0.018842525   -5.3054378    1.0408452      1024000 
  228000   0.69516222   -5.3110761   -5.3110761   -4.2683349  0.021030344   -5.3110761    1.0427412      1024000 
  229000   0.69493637   -5.3140429   -5.3140429   -4.2716405  0.023195432   -5.3140429    1.0424024      1024000 
  230000   0.69541256   -5.3178807   -5.3178807    -4.274764  0.024799586   -5.3178807    1.0431167      1024000 
  231000   0.69634306   -5.3228581   -5.3228581   -4.2783456  0.020955755   -5.3228581    1.0445125      1024000 
  232000   0.69529689   -5.3246725   -5.3246725   -4.2817293  0.017200481   -5.3246725    1.0429432      1024000 
  233000   0.69277801   -5.3254663   -5.3254663   -4.2863014  0.013754004   -5.3254663    1.0391649      1024000 
  234000   0.69273903   -5.3282237   -5.3282237   -4.2891173 0.0052866189   -5.3282237    1.0391064      1024000 
  235000   0.69079481   -5.3294107   -5.3294107   -4.2932205 -0.0015403955   -5.3294107    1.0361901      1024000 
  236000   0.68934269   -5.3302462   -5.3302462   -4.2962343 -0.0039146782   -5.3302462    1.0340119      1024000 
  237000   0.68856511   -5.3316606   -5.3316606    -4.298815 -0.011333887   -5.3316606    1.0328456      1024000 
  238000   0.68724217   -5.3330281   -5.3330281   -4.3021669 -0.016437104   -5.3330281    1.0308612      1024000 
  239000        0.687   -5.3351904   -5.3351904   -4.3046925 -0.022162918   -5.3351904    1.0304979      1024000 
  240000   0.68729214   -5.3391051   -5.3391051    -4.308169 -0.028875917   -5.3391051    1.0309361      1024000 
  241000   0.68639632   -5.3401166   -5.3401166   -4.3105242 -0.033131447   -5.3401166    1.0295924      1024000 
  242000    0.6862658   -5.3423724   -5.3423724   -4.3129758  -0.03481687   -5.3423724    1.0293966      1024000 
  243000   0.68566876   -5.3448008   -5.3448008   -4.3162997 -0.036313546   -5.3448008     1.028501      1024000 
  244000   0.68467344   -5.3453338   -5.3453338   -4.3183257 -0.035054553   -5.3453338    1.0270081      1024000 
  245000   0.68530195   -5.3492208   -5.3492208     -4.32127 -0.032629244   -5.3492208    1.0279508      1024000 
  246000   0.68576122   -5.3521645   -5.3521645   -4.3235248 -0.027590583   -5.3521645    1.0286397      1024000 
  247000   0.68637724   -5.3561671   -5.3561671   -4.3266033 -0.027354919   -5.3561671    1.0295638      1024000 
  248000   0.68713006   -5.3598032   -5.3598032   -4.3291102 -0.020899246   -5.3598032     1.030693      1024000 
  249000   0.68699096   -5.3625896   -5.3625896   -4.3321052 -0.015043809   -5.3625896    1.0304844      1024000 
  250000   0.68754176   -5.3663925   -5.3663925    -4.335082  -0.01232185   -5.3663925    1.0313106      1024000 
  251000   0.68764307   -5.3696411   -5.3696411   -4.3381785 -0.010642894   -5.3696411    1.0314625      1024000 
  252000   0.68725379   -5.3718077   -5.3718077   -4.3409291 -0.0028182228   -5.3718077    1.0308786      1024000 
  253000   0.68846264   -5.3760397   -5.3760397   -4.3433478 -0.00027556633   -5.3760397    1.0326919      1024000 
  254000   0.68831053    -5.378967    -5.378967   -4.3465033 0.0024182329    -5.378967    1.0324637      1024000 
  255000   0.68822247   -5.3819732   -5.3819732   -4.3496416 0.0026463181   -5.3819732    1.0323316      1024000 
  256000   0.68822499   -5.3851576   -5.3851576   -4.3528222 0.0001712266   -5.3851576    1.0323354      1024000 
  257000   0.68875121   -5.3883327   -5.3883327    -4.355208 -0.0081152889   -5.3883327    1.0331247      1024000 
  258000   0.68718595   -5.3885076   -5.3885076   -4.3577308 -0.0040015673   -5.3885076    1.0307768      1024000 
  259000   0.68706119   -5.3901433   -5.3901433   -4.3595536 -0.0061398072   -5.3901433    1.0305897      1024000 
  260000   0.68677196   -5.3920315   -5.3920315   -4.3618756 -0.015956012   -5.3920315    1.0301559      1024000 
  261000    0.6853287   -5.3918647   -5.3918647   -4.3638737 -0.015890955   -5.3918647     1.027991      1024000 
  262000   0.68422492   -5.3927895   -5.3927895   -4.3664542 -0.018781855   -5.3927895    1.0263353      1024000 
  263000   0.68401895   -5.3943132   -5.3943132   -4.3682869 -0.025136455   -5.3943132    1.0260263      1024000 
  264000   0.68316976   -5.3961121   -5.3961121   -4.3713595 -0.032414045   -5.3961121    1.0247526      1024000 
  265000   0.68296161   -5.3976798   -5.3976798   -4.3732394 -0.034783162   -5.3976798    1.0244403      1024000 
  266000   0.68187103   -5.3984003   -5.3984003   -4.3755958 -0.038652994   -5.3984003    1.0228045      1024000 
  267000   0.68065139   -5.3992546   -5.3992546   -4.3782796 -0.040476801   -5.3992546     1.020975      1024000 
  268000   0.68066822   -5.4018549   -5.4018549   -4.3808547 -0.042261528   -5.4018549    1.0210003      1024000 
  269000   0.67991647   -5.4017956   -5.4017956   -4.3819229  -0.03365561   -5.4017956    1.0198726      1024000 
  270000   0.68089611   -5.4049188   -5.4049188   -4.3835767 -0.044391083   -5.4049188    1.0213421      1024000 
  271000   0.68084068   -5.4071578   -5.4071578   -4.3858989 -0.038133799   -5.4071578    1.0212589      1024000 
  272000   0.68158503   -5.4097641   -5.4097641   -4.3873886 -0.031781675   -5.4097641    1.0223755      1024000 
  273000   0.68102307    -5.411291    -5.411291   -4.3897585 -0.028006661    -5.411291    1.0215325      1024000 
  274000   0.68292366   -5.4157514   -5.4157514    -4.391368 -0.025454022   -5.4157514    1.0243834      1024000 
  275000   0.68202707   -5.4164159   -5.4164159   -4.3933774 -0.018094522   -5.4164159    1.0230385      1024000 
  276000   0.68229234   -5.4184229   -5.4184229   -4.3949865 -0.014737168   -5.4184229    1.0234364      1024000 
  277000    0.6831115   -5.4209605   -5.4209605   -4.3962953 -0.011853097   -5.4209605    1.0246652      1024000 
  278000   0.68415652   -5.4247617   -5.4247617    -4.398529  -0.01467045   -5.4247617    1.0262327      1024000 
  279000   0.68416177   -5.4270797   -5.4270797   -4.4008391 -0.010799565   -5.4270797    1.0262406      1024000 
  280000   0.68332318   -5.4276637   -5.4276637    -4.402681 -0.009712371   -5.4276637    1.0249827      1024000 
  281000   0.68380619   -5.4297927   -5.4297927   -4.4040855 -0.012485517   -5.4297927    1.0257072      1024000 
  282000    0.6834577   -5.4314195   -5.4314195    -4.406235 -0.014284191   -5.4314195    1.0251845      1024000 
  283000   0.68229966   -5.4322544   -5.4322544   -4.4088069 -0.016278121   -5.4322544    1.0234474      1024000 
  284000   0.68061501   -5.4314647   -5.4314647   -4.4105442 -0.016482073   -5.4314647    1.0209204      1024000 
  285000   0.68118289   -5.4335703   -5.4335703   -4.4117981 -0.022359505   -5.4335703    1.0217723      1024000 
  286000   0.67905081   -5.4318228   -5.4318228   -4.4132486 -0.018266319   -5.4318228    1.0185742      1024000 
  287000    0.6801733   -5.4347467   -5.4347467   -4.4144889 -0.031839582   -5.4347467    1.0202579      1024000 
  288000   0.67822326   -5.4341684   -5.4341684   -4.4168356 -0.031971315   -5.4341684    1.0173328      1024000 
  289000   0.67803743   -5.4356599   -5.4356599   -4.4186058  -0.03689065   -5.4356599    1.0170541      1024000 
  290000    0.6776478   -5.4365356   -5.4365356    -4.420066 -0.035960349   -5.4365356    1.0164696      1024000 
  291000   0.67793313   -5.4384214   -5.4384214   -4.4215238 -0.038763657   -5.4384214    1.0168976      1024000 
  292000   0.67757928   -5.4389609   -5.4389609    -4.422594 -0.038106322   -5.4389609    1.0163669      1024000 
  293000   0.67816358   -5.4412542   -5.4412542   -4.4240109 -0.042149168   -5.4412542    1.0172433      1024000 
  294000   0.67745753   -5.4412897   -5.4412897   -4.4251055 -0.039233233   -5.4412897    1.0161842      1024000 
  295000   0.67724466   -5.4420176   -5.4420176   -4.4261527 -0.034830208   -5.4420176    1.0158649      1024000 
  296000   0.67728544   -5.4441734   -5.4441734   -4.4282473 -0.031404554   -5.4441734    1.0159261      1024000 
  297000   0.67781113   -5.4464566   -5.4464566    -4.429742 -0.028468905   -5.4464566    1.0167146      1024000 
  298000   0.67760966   -5.4479571   -5.4479571   -4.4315447  -0.02013247   -5.4479571    1.0164124      1024000 
  299000   0.67904511    -5.451342    -5.451342   -4.4327764  -0.02519381    -5.451342    1.0185656      1024000 
  300000   0.67903201   -5.4529048   -5.4529048   -4.4343588 -0.020574101   -5.4529048    1.0185459      1024000 
  301000    0.6790223   -5.4546052   -5.4546052   -4.4360738 -0.016785288   -5.4546052    1.0185314      1024000 
  302000   0.67830906   -5.4553989   -5.4553989   -4.4379374 -0.011508538   -5.4553989    1.0174615      1024000 
  303000    0.6788235   -5.4573813   -5.4573813   -4.4391481 -0.013818762   -5.4573813    1.0182332      1024000 
  304000   0.67898534   -5.4590504   -5.4590504   -4.4405745  -0.01218433   -5.4590504    1.0184759      1024000 
  305000   0.67761646   -5.4578507   -5.4578507   -4.4414281 -0.011489648   -5.4578507    1.0164226      1024000 
  306000   0.67815548   -5.4604649   -5.4604649   -4.4432338 -0.019066156   -5.4604649    1.0172311      1024000 
  307000   0.67686119   -5.4601353   -5.4601353   -4.4448455  -0.01827121   -5.4601353    1.0152897      1024000 
  308000   0.67665133   -5.4608413   -5.4608413   -4.4458663 -0.017356541   -5.4608413    1.0149749      1024000 
  309000   0.67602299    -5.460097    -5.460097   -4.4460646 -0.019585184    -5.460097    1.0140324      1024000 
  310000   0.67452913   -5.4606669   -5.4606669   -4.4488752 -0.023893053   -5.4606669    1.0117916      1024000 
  311000   0.67527563   -5.4619061   -5.4619061   -4.4489947 -0.031484001   -5.4619061    1.0129114      1024000 
  312000    0.6756001    -5.463224    -5.463224   -4.4498259 -0.032482432    -5.463224    1.0133981      1024000 
  313000   0.67538674   -5.4640701   -5.4640701   -4.4509921 -0.033993428   -5.4640701    1.0130781      1024000 
  314000   0.67465706   -5.4643582   -5.4643582   -4.4523747 -0.036433372   -5.4643582    1.0119835      1024000 
  315000   0.67476144   -5.4654993   -5.4654993   -4.4533592 -0.034849034   -5.4654993    1.0121401      1024000 
  316000   0.67487514    -5.467404    -5.467404   -4.4550934 -0.038990844    -5.467404    1.0123106      1024000 
  317000   0.67382562   -5.4663605   -5.4663605   -4.4556242 -0.036485412   -5.4663605    1.0107364      1024000 
  318000   0.67491015   -5.4698345   -5.4698345   -4.4574713 -0.037941478   -5.4698345    1.0123632      1024000 
  319000   0.67354523   -5.4695776   -5.4695776   -4.4592618 -0.036124067   -5.4695776    1.0103158      1024000 
  320000   0.67415871   -5.4709093   -5.4709093   -4.4596733 -0.029802997   -5.4709093     1.011236      1024000 
  321000   0.67429205   -5.4722321   -5.4722321   -4.4607961 -0.024676261   -5.4722321     1.011436      1024000 
  322000   0.67542954   -5.4749428   -5.4749428   -4.4618005  -0.02421091   -5.4749428    1.0131422      1024000 
  323000   0.67460572   -5.4747908   -5.4747908   -4.4628842 -0.020370661   -5.4747908    1.0119065      1024000 
  324000   0.67489428   -5.4769731   -5.4769731   -4.4646337 -0.014224749   -5.4769731    1.0123394      1024000 
  325000   0.67627833    -5.479445    -5.479445   -4.4650295 -0.017424487    -5.479445    1.0144154      1024000 
  326000   0.67518973   -5.4791894   -5.4791894   -4.4664068 -0.0089597178   -5.4791894    1.0127825      1024000 
  327000   0.67504966   -5.4804124   -5.4804124     -4.46784 -0.010628036   -5.4804124    1.0125724      1024000 
  328000   0.67560429   -5.4828842   -5.4828842   -4.4694798 -0.016760602   -5.4828842    1.0134044      1024000 
  329000   0.67450922   -5.4830223   -5.4830223   -4.4712605 -0.012238236   -5.4830223    1.0117618      1024000 
  330000   0.67529498   -5.4851542   -5.4851542   -4.4722138 -0.015339222   -5.4851542    1.0129404      1024000 
  331000   0.67382453   -5.4846561   -5.4846561   -4.4739214 -0.013054954   -5.4846561    1.0107347      1024000 
  332000   0.67373575   -5.4854472   -5.4854472   -4.4748456   -0.0193494   -5.4854472    1.0106016      1024000 
  333000   0.67267164   -5.4854573   -5.4854573   -4.4764518 -0.023266018   -5.4854573    1.0090054      1024000 
  334000   0.67230442   -5.4868296   -5.4868296    -4.478375 -0.027843151   -5.4868296    1.0084546      1024000 
  335000   0.67197578   -5.4878647   -5.4878647   -4.4799031 -0.031840597   -5.4878647    1.0079616      1024000 
  336000   0.67124324   -5.4881144   -5.4881144   -4.4812515 -0.033568551   -5.4881144    1.0068628      1024000 
  337000   0.67120919   -5.4879107   -5.4879107   -4.4810989 -0.034172339   -5.4879107    1.0068117      1024000 
  338000   0.67023618    -5.487711    -5.487711   -4.4823588 -0.034875172    -5.487711    1.0053522      1024000 
  339000   0.67025284   -5.4876548   -5.4876548   -4.4822776 -0.034898148   -5.4876548    1.0053772      1024000 
  340000    0.6711915   -5.4899661   -5.4899661   -4.4831809 -0.033086845   -5.4899661    1.0067852      1024000 
  341000   0.67106555   -5.4907426   -5.4907426   -4.4841463 -0.032574166   -5.4907426    1.0065963      1024000 
  342000   0.67124807   -5.4913064   -5.4913064   -4.4844363 -0.027850086   -5.4913064    1.0068701      1024000 
  343000   0.67173021    -5.492853    -5.492853   -4.4852597 -0.029615732    -5.492853    1.0075933      1024000 
  344000   0.67124808   -5.4925022   -5.4925022   -4.4856321 -0.025135396   -5.4925022    1.0068701      1024000 
  345000   0.67314502   -5.4964059   -5.4964059   -4.4866904  -0.02549789   -5.4964059    1.0097155      1024000 
  346000   0.67260691   -5.4973231   -5.4973231   -4.4884148 -0.020503117   -5.4973231    1.0089083      1024000 
  347000   0.67216368   -5.4978575   -5.4978575    -4.489614 -0.017101523   -5.4978575    1.0082435      1024000 
  348000   0.67193344   -5.4998211   -5.4998211    -4.491923  -0.01978157   -5.4998211    1.0078981      1024000 
  349000   0.67156022   -5.4997691   -5.4997691   -4.4924308 -0.015139383   -5.4997691    1.0073383      1024000 
  350000   0.67175959   -5.5013917   -5.5013917   -4.4937544 -0.015080635   -5.5013917    1.0076373      1024000 
  351000   0.67238679     -5.50249     -5.50249   -4.4939119 -0.013984765     -5.50249    1.0085781      1024000 
  352000    0.6717898   -5.5029621   -5.5029621   -4.4952794 -0.011384347   -5.5029621    1.0076827      1024000 
  353000   0.67211954   -5.5043123   -5.5043123    -4.496135 -0.017773671   -5.5043123    1.0081773      1024000 
  354000   0.67112436   -5.5042077   -5.5042077   -4.4975232 -0.014836497   -5.5042077    1.0066845      1024000 
  355000   0.67033945   -5.5041614   -5.5041614   -4.4986543 -0.020533594   -5.5041614    1.0055071      1024000 
  356000   0.67156855   -5.5060071   -5.5060071   -4.4986563 -0.020865805   -5.5060071    1.0073508      1024000 
  357000   0.67109561   -5.5064437   -5.5064437   -4.4998023 -0.023278853   -5.5064437    1.0066414      1024000 
  358000   0.67063707   -5.5071141   -5.5071141   -4.5011605 -0.026693722   -5.5071141    1.0059536      1024000 
  359000   0.67094495   -5.5090141   -5.5090141   -4.5025987 -0.028939752   -5.5090141    1.0064154      1024000 
  360000   0.67057209   -5.5095899   -5.5095899   -4.5037338 -0.034829741   -5.5095899    1.0058561      1024000 
  361000   0.66900093   -5.5077905   -5.5077905   -4.5042912 -0.027783719   -5.5077905    1.0034994      1024000 
  362000   0.66929517   -5.5098156   -5.5098156   -4.5058749 -0.031228391   -5.5098156    1.0039407      1024000 
  363000   0.66779401   -5.5084303   -5.5084303   -4.5067413 -0.024582702   -5.5084303     1.001689      1024000 
  364000     0.668622    -5.510317    -5.510317   -4.5073861 -0.028030244    -5.510317     1.002931      1024000 
  365000   0.66888978   -5.5119171   -5.5119171   -4.5085844 -0.028973868   -5.5119171    1.0033326      1024000 
  366000   0.66976434   -5.5136326   -5.5136326   -4.5089881 -0.028804078   -5.5136326    1.0046445      1024000 
  367000    0.6703014    -5.515591    -5.515591   -4.5101409 -0.024318711    -5.515591    1.0054501      1024000 
  368000   0.67107397   -5.5176447   -5.5176447   -4.5110358  -0.02014584   -5.5176447    1.0066089      1024000 
  369000   0.67091358   -5.5186715   -5.5186715   -4.5123032 -0.020497111   -5.5186715    1.0063683      1024000 
  370000   0.67112582   -5.5194323   -5.5194323   -4.5127456 -0.019665675   -5.5194323    1.0066867      1024000 
  371000   0.67048092   -5.5192142   -5.5192142   -4.5134948 -0.014372678   -5.5192142    1.0057193      1024000 
  372000    0.6709534   -5.5218975   -5.5218975   -4.5154694  -0.01354894   -5.5218975    1.0064281      1024000 
  373000   0.67105206    -5.522731    -5.522731    -4.516155 -0.013468554    -5.522731     1.006576      1024000 
  374000   0.67255755   -5.5250776   -5.5250776   -4.5162433  -0.01469124   -5.5250776    1.0088343      1024000 
  375000   0.67103404   -5.5243256   -5.5243256   -4.5177766 -0.017088045   -5.5243256     1.006549      1024000 
  376000   0.67150856   -5.5263946   -5.5263946   -4.5191338  -0.01850756   -5.5263946    1.0072608      1024000 
  377000   0.67070505   -5.5254568   -5.5254568   -4.5194013 -0.016248127   -5.5254568    1.0060555      1024000 
  378000   0.67077022   -5.5272325   -5.5272325   -4.5210792 -0.022748886   -5.5272325    1.0061533      1024000 
  379000    0.6697788   -5.5264355   -5.5264355   -4.5217694 -0.023156661   -5.5264355    1.0046662      1024000 
  380000   0.66875246   -5.5261404   -5.5261404   -4.5230137 -0.022474687   -5.5261404    1.0031266      1024000 
  381000   0.66903134   -5.5272433   -5.5272433   -4.5236983 -0.030081566   -5.5272433     1.003545      1024000 
  382000   0.66667217   -5.5250053   -5.5250053   -4.5249991  -0.02212105   -5.5250053    1.0000062      1024000 
  383000   0.66751089   -5.5275998   -5.5275998   -4.5263355 -0.027563146   -5.5275998    1.0012643      1024000 
  384000   0.66852332   -5.5305619   -5.5305619    -4.527779  -0.03288472   -5.5305619    1.0027829      1024000 
  385000   0.66731636   -5.5286198   -5.5286198   -4.5276473 -0.027953536   -5.5286198    1.0009725      1024000 
  386000   0.66776002   -5.5308555   -5.5308555   -4.5292175 -0.029363699   -5.5308555     1.001638      1024000 
  387000   0.66782135   -5.5317718   -5.5317718   -4.5300418 -0.032663034   -5.5317718      1.00173      1024000 
  388000   0.66694363   -5.5311589   -5.5311589   -4.5307454 -0.024260955   -5.5311589    1.0004134      1024000 
  389000   0.66785561   -5.5329866   -5.5329866   -4.5312052  -0.02560915   -5.5329866    1.0017814      1024000 
  390000   0.66840398   -5.5347059   -5.5347059    -4.532102 -0.026057354   -5.5347059    1.0026039      1024000 
  391000   0.66802291   -5.5341025   -5.5341025   -4.5320702 -0.019743359   -5.5341025    1.0020323      1024000 
  392000   0.66929445   -5.5366041   -5.5366041   -4.5326644 -0.018256316   -5.5366041    1.0039396      1024000 
  393000   0.66904744     -5.53703     -5.53703   -4.5334608 -0.015529914     -5.53703    1.0035691      1024000 
  394000    0.6685666   -5.5377733   -5.5377733   -4.5349254 -0.011531838   -5.5377733    1.0028479      1024000 
  395000   0.66848539   -5.5388055   -5.5388055   -4.5360795 -0.015136138   -5.5388055     1.002726      1024000 
  396000   0.66867467   -5.5394413   -5.5394413   -4.5364313  -0.01334689   -5.5394413      1.00301      1024000 
  397000   0.66854216   -5.5393266   -5.5393266   -4.5365154 -0.009405036   -5.5393266    1.0028112      1024000 
  398000   0.66925139   -5.5411124   -5.5411124   -4.5372374 -0.012733713   -5.5411124     1.003875      1024000 
  399000   0.66913196   -5.5413747   -5.5413747   -4.5376788 -0.010934506   -5.5413747    1.0036959      1024000 
  400000   0.66826794   -5.5410639   -5.5410639    -4.538664 -0.012487885   -5.5410639    1.0023999      1024000 
  401000   0.66851348   -5.5416328   -5.5416328   -4.5388646 -0.015711599   -5.5416328    1.0027682      1024000 
  402000   0.66811006   -5.5423627   -5.5423627   -4.5401996 -0.018562809   -5.5423627    1.0021631      1024000 
  403000   0.66784103   -5.5430991   -5.5430991   -4.5413396 -0.021296867   -5.5430991    1.0017595      1024000 
  404000   0.66778269   -5.5439103   -5.5439103   -4.5422383 -0.028840069   -5.5439103     1.001672      1024000 
  405000   0.66668792   -5.5431017   -5.5431017   -4.5430719 -0.026977228   -5.5431017    1.0000298      1024000 
  406000   0.66638457   -5.5435704   -5.5435704   -4.5439956 -0.027525196   -5.5435704   0.99957482      1024000 
  407000   0.66589342   -5.5445186   -5.5445186   -4.5456805 -0.028392616   -5.5445186    0.9988381      1024000 
  408000    0.6668717   -5.5463447   -5.5463447   -4.5460392 -0.031304282   -5.5463447    1.0003055      1024000 
  409000   0.66619403   -5.5464149   -5.5464149   -4.5471259 -0.028668198   -5.5464149   0.99928902      1024000 
  410000   0.66605546   -5.5470045   -5.5470045   -4.5479233 -0.029145667   -5.5470045   0.99908116      1024000 
  411000   0.66705691    -5.549042    -5.549042   -4.5484586 -0.027555585    -5.549042    1.0005833      1024000 
  412000   0.66638319   -5.5481382   -5.5481382   -4.5485655 -0.023068572   -5.5481382   0.99957276      1024000 
  413000   0.66695393   -5.5504042   -5.5504042   -4.5499753 -0.024272174   -5.5504042    1.0004289      1024000 
  414000   0.66670659   -5.5511624   -5.5511624   -4.5511045 -0.022919686   -5.5511624    1.0000579      1024000 
  415000   0.66588049   -5.5512317   -5.5512317    -4.552413 -0.019174887   -5.5512317   0.99881871      1024000 
  416000   0.66715364   -5.5537415   -5.5537415   -4.5530131  -0.01512956   -5.5537415    1.0007284      1024000 
  417000   0.66785821   -5.5556222   -5.5556222   -4.5538369 -0.018839737   -5.5556222    1.0017853      1024000 
  418000   0.66739839    -5.555744    -5.555744   -4.5546484 -0.013931319    -5.555744    1.0010956      1024000 
  419000   0.66693635   -5.5552332   -5.5552332   -4.5548307 -0.015963427   -5.5552332    1.0004025      1024000 
  420000   0.66747273   -5.5572689   -5.5572689   -4.5560618 -0.012789366   -5.5572689    1.0012071      1024000 
  421000   0.66748209   -5.5577919   -5.5577919   -4.5565708 -0.014602629   -5.5577919    1.0012211      1024000 
  422000   0.66709038   -5.5575899   -5.5575899   -4.5569564 -0.014425469   -5.5575899    1.0006335      1024000 
  423000   0.66634271   -5.5566306   -5.5566306   -4.5571186 -0.011269356   -5.5566306   0.99951204      1024000 
  424000   0.66660457   -5.5583646   -5.5583646   -4.5584598 -0.015361023   -5.5583646   0.99990483      1024000 
  425000   0.66638085   -5.5580169   -5.5580169   -4.5584477 -0.017734122   -5.5580169   0.99956924      1024000 
  426000   0.66623122    -5.558296    -5.558296   -4.5589512 -0.016115883    -5.558296    0.9993448      1024000 
  427000   0.66612288   -5.5587572   -5.5587572   -4.5595749 -0.021083995   -5.5587572   0.99918229      1024000 
  428000   0.66484395    -5.557188    -5.557188   -4.5599241  -0.02194975    -5.557188    0.9972639      1024000 
  429000   0.66489748   -5.5581285   -5.5581285   -4.5607843 -0.025836696   -5.5581285    0.9973442      1024000 
  430000   0.66558155   -5.5594477   -5.5594477   -4.5610774 -0.027671549   -5.5594477    0.9983703      1024000 
  431000   0.66513812   -5.5593361   -5.5593361    -4.561631 -0.023669052   -5.5593361   0.99770516      1024000 
  432000   0.66500195   -5.5608152   -5.5608152   -4.5633143 -0.028125771   -5.5608152    0.9975009      1024000 
  433000   0.66430383   -5.5594693   -5.5594693   -4.5630156 -0.025889887   -5.5594693   0.99645372      1024000 
  434000   0.66427514   -5.5605642   -5.5605642   -4.5641535 -0.023331126   -5.5605642   0.99641068      1024000 
  435000   0.66454404   -5.5618862   -5.5618862   -4.5650722 -0.024098515   -5.5618862   0.99681403      1024000 
  436000   0.66394042   -5.5609655   -5.5609655   -4.5650569 -0.019036093   -5.5609655   0.99590861      1024000 
  437000   0.66490063   -5.5626638   -5.5626638   -4.5653149 -0.016226311   -5.5626638   0.99734892      1024000 
  438000    0.6657549   -5.5643645   -5.5643645   -4.5657342 -0.018012337   -5.5643645   0.99863032      1024000 
  439000   0.66528485   -5.5641526   -5.5641526   -4.5662274 -0.013291382   -5.5641526   0.99792525      1024000 
  440000   0.66625176   -5.5653623   -5.5653623   -4.5659867 -0.012092541   -5.5653623   0.99937561      1024000 
  441000   0.66596297   -5.5653329   -5.5653329   -4.5663904 -0.0081172397   -5.5653329   0.99894242      1024000 
  442000   0.66534747   -5.5653332   -5.5653332   -4.5673141 -0.0097143178   -5.5653332   0.99801918      1024000 
  443000   0.66527449   -5.5658495   -5.5658495   -4.5679398 -0.010701262   -5.5658495    0.9979097      1024000 
  444000   0.66567094   -5.5663058   -5.5663058   -4.5678014 -0.012705231   -5.5663058   0.99850439      1024000 
  445000   0.66481032   -5.5667006   -5.5667006   -4.5694871 -0.013388131   -5.5667006   0.99721345      1024000 
  446000    0.6642134   -5.5656684   -5.5656684   -4.5693503 -0.011304084   -5.5656684   0.99631808      1024000 
  447000   0.66433168   -5.5661421   -5.5661421   -4.5696466 -0.016745637   -5.5661421    0.9964955      1024000 
  448000   0.66472761   -5.5679474   -5.5679474    -4.570858 -0.019720128   -5.5679474   0.99708939      1024000 
  449000   0.66389031   -5.5669774   -5.5669774    -4.571144 -0.021716678   -5.5669774   0.99583345      1024000 
  450000    0.6627361   -5.5661793   -5.5661793   -4.5720771 -0.021442348   -5.5661793   0.99410214      1024000 
  451000   0.66305274   -5.5676932   -5.5676932   -4.5731161 -0.025566014   -5.5676932    0.9945771      1024000 
  452000   0.66292362    -5.568498    -5.568498   -4.5741146 -0.028221188    -5.568498   0.99438341      1024000 
  453000   0.66138931   -5.5664357   -5.5664357   -4.5743538 -0.024142428   -5.5664357   0.99208195      1024000 
  454000   0.66376433   -5.5699427   -5.5699427   -4.5742982 -0.025986103   -5.5699427   0.99564447      1024000 
  455000   0.66378751     -5.56962     -5.56962   -4.5739407  -0.02589604     -5.56962   0.99567925      1024000 
  456000    0.6630322   -5.5695266   -5.5695266   -4.5749803 -0.021998828   -5.5695266   0.99454628      1024000 
  457000   0.66335503   -5.5703961   -5.5703961   -4.5753656 -0.023754179   -5.5703961   0.99503052      1024000 
  458000   0.66371906   -5.5708069   -5.5708069   -4.5752303 -0.016700361   -5.5708069   0.99557656      1024000 
  459000   0.66416059   -5.5719775   -5.5719775   -4.5757386 -0.018589944   -5.5719775   0.99623887      1024000 
  460000   0.66423781   -5.5730982   -5.5730982   -4.5767436 -0.015781466   -5.5730982   0.99635469      1024000 
  461000   0.66445875   -5.5739646   -5.5739646   -4.5772785 -0.010806482   -5.5739646    0.9966861      1024000 
  462000   0.66486391    -5.574789    -5.574789   -4.5774952 -0.0063793272    -5.574789   0.99729384      1024000 
  463000   0.66544014    -5.576198    -5.576198   -4.5780398 -0.0076714294    -5.576198   0.99815818      1024000 
  464000   0.66520605   -5.5763153   -5.5763153   -4.5785082 -0.005333349   -5.5763153   0.99780705      1024000 
  465000   0.66498347   -5.5766632   -5.5766632     -4.57919 -0.0065141672   -5.5766632   0.99747318      1024000 
  466000   0.66558789   -5.5778046   -5.5778046   -4.5794248 -0.010811924   -5.5778046   0.99837981      1024000 
  467000   0.66467731   -5.5764482   -5.5764482   -4.5794342 -0.0095124948   -5.5764482   0.99701394      1024000 
  468000   0.66469055   -5.5770192   -5.5770192   -4.5799854 -0.011865964   -5.5770192    0.9970338      1024000 
  469000   0.66500832   -5.5781888   -5.5781888   -4.5806784  -0.01469781   -5.5781888   0.99751045      1024000 
  470000   0.66287971   -5.5757259   -5.5757259   -4.5814084 -0.010400988   -5.5757259   0.99431755      1024000 
  471000   0.66337392   -5.5767163   -5.5767163   -4.5816574 -0.015391907   -5.5767163   0.99505886      1024000 
  472000   0.66393489   -5.5774923   -5.5774923   -4.5815919 -0.024349303   -5.5774923   0.99590032      1024000 
  473000   0.66230657   -5.5762014   -5.5762014   -4.5827435 -0.021889686   -5.5762014   0.99345784      1024000 
  474000   0.66101164     -5.57478     -5.57478   -4.5832646  -0.01782604     -5.57478   0.99151544      1024000 
  475000    0.6624565   -5.5770494   -5.5770494   -4.5833666  -0.02506425   -5.5770494   0.99368274      1024000 
  476000   0.66154682   -5.5760736   -5.5760736   -4.5837554 -0.024970466   -5.5760736   0.99231822      1024000 
  477000   0.66189186   -5.5768302   -5.5768302   -4.5839945 -0.023009149   -5.5768302   0.99283578      1024000 
  478000   0.66312254   -5.5795007   -5.5795007   -4.5848189 -0.022355111   -5.5795007    0.9946818      1024000 
  479000   0.66321255   -5.5797504   -5.5797504   -4.5849336 -0.018555314   -5.5797504   0.99481681      1024000 
  480000   0.66386966   -5.5800721   -5.5800721   -4.5842697 -0.015760885   -5.5800721   0.99580247      1024000 
  481000   0.66323433   -5.5794777   -5.5794777   -4.5846282 -0.010363244   -5.5794777   0.99484947      1024000 
  482000   0.66421534   -5.5809687   -5.5809687   -4.5846477  -0.01513341   -5.5809687   0.99632099      1024000 
  483000   0.66315055   -5.5806607   -5.5806607   -4.5859368 -0.0064294661   -5.5806607   0.99472381      1024000 
  484000   0.66426658   -5.5827133   -5.5827133   -4.5863155 -0.004769112   -5.5827133   0.99639785      1024000 
  485000    0.6649986   -5.5840949   -5.5840949    -4.586599 -0.0067558457   -5.5840949   0.99749588      1024000 
  486000   0.66415509   -5.5841794   -5.5841794   -4.5879488 -0.0076541826   -5.5841794   0.99623062      1024000 
  487000   0.66508627   -5.5857066   -5.5857066   -4.5880792 -0.0090540718   -5.5857066   0.99762739      1024000 
  488000   0.66413506   -5.5853663   -5.5853663   -4.5891658 -0.0048938829   -5.5853663   0.99620056      1024000 
  489000   0.66345318   -5.5843919   -5.5843919   -4.5892142 -0.006337535   -5.5843919   0.99517774      1024000 
  490000   0.66379852   -5.5857324   -5.5857324   -4.5900366 -0.010064247   -5.5857324   0.99569575      1024000 
  491000   0.66401461   -5.5860919   -5.5860919    -4.590072 -0.010489375   -5.5860919   0.99601989      1024000 
  492000   0.66334038   -5.5857572   -5.5857572   -4.5907486 -0.014729977   -5.5857572   0.99500855      1024000 
  493000   0.66265185   -5.5854355   -5.5854355   -4.5914597 -0.017802032   -5.5854355   0.99397576      1024000 
  494000   0.66265247     -5.58568     -5.58568   -4.5917033 -0.016994821     -5.58568   0.99397668      1024000 
  495000   0.66134983   -5.5841086   -5.5841086   -4.5920859 -0.013941372   -5.5841086   0.99202274      1024000 
  496000   0.66251907   -5.5861381   -5.5861381   -4.5923615 -0.020178158   -5.5861381   0.99377659      1024000 
  497000   0.66248497   -5.5860708   -5.5860708   -4.5923453 -0.022246551   -5.5860708   0.99372544      1024000 
  498000    0.6610894   -5.5844065   -5.5844065   -4.5927744 -0.018193506   -5.5844065   0.99163209      1024000 
  499000   0.66191213   -5.5859157   -5.5859157   -4.5930495  -0.02290392   -5.5859157   0.99286617      1024000 
  500000   0.66145108   -5.5853564   -5.5853564   -4.5931818 -0.015640117   -5.5853564    0.9921746      1024000 
  501000   0.66210536    -5.586778    -5.586778    -4.593622 -0.019308694    -5.586778   0.99315602      1024000 
  502000   0.66088625   -5.5854425   -5.5854425   -4.5941151 -0.014175125   -5.5854425   0.99132737      1024000 
  503000   0.66262476   -5.5874604   -5.5874604   -4.5935253 -0.018987834   -5.5874604   0.99393512      1024000 
  504000   0.66300486   -5.5881084   -5.5881084   -4.5936031 -0.012591429   -5.5881084   0.99450528      1024000 
  505000   0.66250806   -5.5872432   -5.5872432   -4.5934831 -0.010155159   -5.5872432   0.99376007      1024000 
  506000   0.66329875   -5.5889249   -5.5889249   -4.5939788 -0.0095294378   -5.5889249    0.9949461      1024000 
  507000    0.6632635   -5.5887985   -5.5887985   -4.5939052 -0.0068322913   -5.5887985   0.99489323      1024000 
  508000   0.66311498   -5.5891695   -5.5891695    -4.594499 -0.0052352531   -5.5891695   0.99467045      1024000 
  509000   0.66312229   -5.5898657   -5.5898657   -4.5951843 -0.0047126495   -5.5898657   0.99468142      1024000 
  510000   0.66447766   -5.5915636   -5.5915636   -4.5948492 -0.0069740639   -5.5915636   0.99671446      1024000 
  511000    0.6635881   -5.5907704   -5.5907704   -4.5953903 -0.0034162467   -5.5907704   0.99538013      1024000 
  512000   0.66308309    -5.591684    -5.591684   -4.5970614 -0.0079224583    -5.591684   0.99462262      1024000 
  513000   0.66275238   -5.5916787   -5.5916787   -4.5975522 -0.0078027491   -5.5916787   0.99412655      1024000 
  514000   0.66278771   -5.5921166   -5.5921166   -4.5979371 -0.0072235586   -5.5921166   0.99417954      1024000 
  515000   0.66260851   -5.5917672   -5.5917672   -4.5978564 -0.0077185649   -5.5917672   0.99391075      1024000 
  516000   0.66205571     -5.59108     -5.59108   -4.5979985 -0.0058991911     -5.59108   0.99308155      1024000 
  517000    0.6624963   -5.5921928   -5.5921928   -4.5984504 -0.011077483   -5.5921928   0.99374244      1024000 
  518000   0.66112415   -5.5913223   -5.5913223    -4.599638 -0.0098576894   -5.5913223   0.99168421      1024000 
  519000   0.66201686   -5.5927972   -5.5927972   -4.5997739 -0.013227217   -5.5927972   0.99302328      1024000 
  520000   0.66148296   -5.5916415   -5.5916415    -4.599419 -0.012172147   -5.5916415   0.99222243      1024000 
  521000   0.65980004   -5.5898542   -5.5898542   -4.6001561  -0.01023181   -5.5898542   0.98969805      1024000 
  522000   0.66077463   -5.5914715   -5.5914715   -4.6003116 -0.012321887   -5.5914715   0.99115993      1024000 
  523000   0.66136657   -5.5928897   -5.5928897   -4.6008419 -0.014176149   -5.5928897   0.99204784      1024000 
  524000   0.66134278   -5.5924025   -5.5924025   -4.6003903 -0.0092905716   -5.5924025   0.99201215      1024000 
  525000    0.6619963   -5.5938242   -5.5938242   -4.6008318 -0.013216829   -5.5938242   0.99299243      1024000 
  526000   0.66163514   -5.5931846   -5.5931846   -4.6007339 -0.0093449892   -5.5931846    0.9924507      1024000 
  527000   0.66103458   -5.5928744   -5.5928744   -4.6013246 -0.0055754225   -5.5928744   0.99154986      1024000 
  528000   0.66200597   -5.5938916   -5.5938916   -4.6008846 -0.0061317981   -5.5938916   0.99300694      1024000 
  529000   0.66228021   -5.5942246   -5.5942246   -4.6008063 -0.0076792073   -5.5942246   0.99341829      1024000 
  530000   0.66174896   -5.5941987   -5.5941987   -4.6015773 -0.0066477907   -5.5941987   0.99262143      1024000 
  531000   0.66283263   -5.5956162   -5.5956162   -4.6013692 -0.0055383234   -5.5956162   0.99424692      1024000 
  532000   0.66267023   -5.5952346   -5.5952346   -4.6012312 -0.0040123753   -5.5952346   0.99400333      1024000 
  533000   0.66292299   -5.5969656   -5.5969656   -4.6025831 -0.0050119037   -5.5969656   0.99438247      1024000 
  534000   0.66225442   -5.5961526   -5.5961526    -4.602773 -0.0064183906   -5.5961526   0.99337962      1024000 
  535000   0.66264885   -5.5975222   -5.5975222   -4.6035509 -0.0089909846   -5.5975222   0.99397126      1024000 
  536000   0.66251808   -5.5976878   -5.5976878   -4.6039127 -0.010801974   -5.5976878    0.9937751      1024000 
  537000   0.66209982    -5.597091    -5.597091   -4.6039433  -0.00585264    -5.597091   0.99314772      1024000 
  538000   0.66228538   -5.5974338   -5.5974338   -4.6040077 -0.0073665886   -5.5974338   0.99342605      1024000 
  539000   0.66193819   -5.5969389   -5.5969389   -4.6040336 -0.0067240537   -5.5969389   0.99290527      1024000 
  540000   0.66097049   -5.5960863   -5.5960863   -4.6046325 -0.006876871   -5.5960863   0.99145373      1024000 
  541000   0.66269274   -5.5987588   -5.5987588   -4.6047217 -0.012396837   -5.5987588   0.99403709      1024000 
  542000   0.66279156   -5.5982331   -5.5982331   -4.6040478 -0.0074574493   -5.5982331   0.99418533      1024000 
  543000   0.66090259   -5.5966835   -5.5966835   -4.6053316 -0.0033458671   -5.5966835   0.99135187      1024000 
  544000   0.66205529   -5.5986426   -5.5986426   -4.6055617 -0.0066700763   -5.5986426   0.99308091      1024000 
  545000   0.66225253   -5.5992946   -5.5992946   -4.6059178 -0.0093397183   -5.5992946   0.99337678      1024000 
  546000    0.6623229   -5.5996314   -5.5996314    -4.606149 -0.0093544342   -5.5996314   0.99348233      1024000 
  547000   0.66206058    -5.599625    -5.599625   -4.6065361 -0.0083348549    -5.599625   0.99308885      1024000 
  548000   0.66091442   -5.5984864   -5.5984864   -4.6071168 -0.0049352823   -5.5984864   0.99136962      1024000 
  549000   0.66252323   -5.6012432   -5.6012432   -4.6074604 -0.0044649359   -5.6012432   0.99378283      1024000 
  550000   0.66237106   -5.6013378   -5.6013378   -4.6077833 -0.011673144   -5.6013378   0.99355457      1024000 
  551000   0.66053247   -5.5999048   -5.5999048   -4.6091081 -0.0085950151   -5.5999048    0.9907967      1024000 
  552000   0.66146473   -5.6013505   -5.6013505   -4.6091554 -0.0074958766   -5.6013505   0.99219508      1024000 
  553000   0.66110144   -5.6011337   -5.6011337   -4.6094836 -0.0041663813   -5.6011337   0.99165014      1024000 
  554000   0.66104342   -5.6012217   -5.6012217   -4.6096586 -0.0053911922   -5.6012217   0.99156312      1024000 
  555000    0.6615732   -5.6017272   -5.6017272   -4.6093695 -0.0087334163   -5.6017272   0.99235778      1024000 
  556000   0.66296758   -5.6040058   -5.6040058   -4.6095564 -0.0088212317   -5.6040058   0.99444936      1024000 
  557000   0.66193622   -5.6035121   -5.6035121   -4.6106098 -0.0057039509   -5.6035121   0.99290232      1024000 
  558000   0.66165584   -5.6032772   -5.6032772   -4.6107954 -0.0077354151   -5.6032772   0.99248174      1024000 
  559000    0.6609363   -5.6015965   -5.6015965   -4.6101941 -0.0057028339   -5.6015965   0.99140244      1024000 
  560000    0.6611838   -5.6018626   -5.6018626   -4.6100889 -0.0045766354   -5.6018626   0.99177369      1024000 
  561000   0.66080431   -5.6015438   -5.6015438   -4.6103394 -0.0012002354   -5.6015438   0.99120446      1024000 
  562000   0.66228007   -5.6032862   -5.6032862   -4.6098681 -0.0046492351   -5.6032862   0.99341809      1024000 
  563000   0.66226531   -5.6038225   -5.6038225   -4.6104266 -0.0046296333   -5.6038225   0.99339595      1024000 
  564000    0.6612453    -5.602405    -5.602405    -4.610539 -0.0039641257    -5.602405   0.99186593      1024000 
  565000   0.66156368   -5.6032434   -5.6032434   -4.6108999 -0.010084945   -5.6032434   0.99234351      1024000 
  566000   0.66121202   -5.6032886   -5.6032886   -4.6114726 -0.0062533384   -5.6032886   0.99181602      1024000 
  567000   0.66123879   -5.6034215   -5.6034215   -4.6115653 -0.0096279462   -5.6034215   0.99185617      1024000 
  568000   0.66236349   -5.6045135   -5.6045135   -4.6109703 -0.0095719819   -5.6045135   0.99354321      1024000 
  569000   0.66110792   -5.6025948   -5.6025948    -4.610935 -0.0030271253   -5.6025948   0.99165987      1024000 
  570000   0.66106252   -5.6031202   -5.6031202   -4.6115284 -0.0047480608   -5.6031202   0.99159177      1024000 
  571000   0.66155159   -5.6040367   -5.6040367   -4.6117114 -0.0038520035   -5.6040367   0.99232537      1024000 
  572000   0.66234912   -5.6043792   -5.6043792   -4.6108575 -0.0037534946   -5.6043792   0.99352167      1024000 
  573000   0.66171872   -5.6039323   -5.6039323   -4.6113562 -0.0040220575   -5.6039323   0.99257606      1024000 
  574000   0.66100397   -5.6025533   -5.6025533   -4.6110493 0.0033123921   -5.6025533   0.99150395      1024000 
  575000   0.66222757   -5.6041027   -5.6041027   -4.6107634 -0.00041898264   -5.6041027   0.99333934      1024000 
  576000   0.66184538   -5.6036928   -5.6036928   -4.6109267 0.0014849872   -5.6036928   0.99276606      1024000 
  577000   0.66120584   -5.6041666   -5.6041666   -4.6123598 -0.001701694   -5.6041666   0.99180675      1024000 
  578000   0.66165242   -5.6050902   -5.6050902   -4.6126136 -0.0028112686   -5.6050902   0.99247661      1024000 
  579000   0.66228096   -5.6059555   -5.6059555    -4.612536 -0.0025530278   -5.6059555   0.99341942      1024000 
  580000   0.66069628   -5.6045777   -5.6045777   -4.6135353 -0.00071850176   -5.6045777   0.99104241      1024000 
  581000   0.66089272   -5.6063671   -5.6063671   -4.6150301 -0.0033923442   -5.6063671   0.99133707      1024000 
  582000   0.66059471   -5.6052417   -5.6052417   -4.6143517 -0.0035337268   -5.6052417   0.99089006      1024000 
  583000   0.66149748   -5.6068091   -5.6068091   -4.6145649 -0.0088899318   -5.6068091    0.9922442      1024000 
  584000   0.66017021    -5.604161    -5.604161   -4.6139076 -0.0055844563    -5.604161   0.99025331      1024000 
  585000   0.66138861   -5.6057615   -5.6057615   -4.6136806 -0.0071427398   -5.6057615    0.9920809      1024000 
  586000   0.66112331   -5.6053862   -5.6053862   -4.6137032 -0.0033970029   -5.6053862   0.99168295      1024000 
  587000   0.66079704   -5.6051215   -5.6051215    -4.613928 -0.0011091675   -5.6051215   0.99119354      1024000 
  588000   0.66248438   -5.6074345   -5.6074345     -4.61371  -0.00545905   -5.6074345   0.99372455      1024000 
  589000   0.66018664   -5.6050662   -5.6050662   -4.6147883 -0.0039205367   -5.6050662   0.99027795      1024000 
  590000    0.6610221   -5.6055204   -5.6055204   -4.6139893 -0.0026131017   -5.6055204   0.99153113      1024000 
  591000    0.6616221   -5.6061862   -5.6061862   -4.6137551 -0.0038643505   -5.6061862   0.99243113      1024000 
  592000   0.66024092   -5.6048537   -5.6048537   -4.6144943 -0.00089661228   -5.6048537   0.99035938      1024000 
  593000   0.66071607   -5.6056611   -5.6056611    -4.614589 -0.003903266   -5.6056611    0.9910721      1024000 
  594000    0.6611083   -5.6067119   -5.6067119   -4.6150514 -0.0011578631   -5.6067119   0.99166043      1024000 
  595000   0.66029159   -5.6057037   -5.6057037   -4.6152683 0.0017846163   -5.6057037   0.99043537      1024000 
  596000     0.661455   -5.6076149   -5.6076149   -4.6154345 0.0036616124   -5.6076149   0.99218048      1024000 
  597000    0.6616228   -5.6077024   -5.6077024   -4.6152702 0.0010265375   -5.6077024   0.99243218      1024000 
  598000   0.66154726   -5.6067663   -5.6067663   -4.6144474 0.0034277534   -5.6067663   0.99231887      1024000 
  599000   0.66104925   -5.6061471   -5.6061471   -4.6145753 -3.8589289e-05   -5.6061471   0.99157186      1024000 
  600000   0.66162554   -5.6072314   -5.6072314   -4.6147951 -0.0045370981   -5.6072314    0.9924363      1024000 
  601000   0.66049716   -5.6063162   -5.6063162   -4.6155725 0.00014553136   -5.6063162   0.99074372      1024000 
  602000   0.66187163    -5.608432    -5.608432   -4.6156266 -0.0044005784    -5.608432   0.99280543      1024000 
  603000    0.6602615   -5.6061901   -5.6061901   -4.6157998 -0.00031753634   -5.6061901   0.99039024      1024000 
  604000   0.66087723   -5.6067719   -5.6067719    -4.615458 0.00082906285   -5.6067719   0.99131384      1024000 
  605000   0.66077912   -5.6067397   -5.6067397    -4.615573 -0.0028259726   -5.6067397   0.99116666      1024000 
  606000   0.66067704   -5.6060611   -5.6060611   -4.6150475 0.00063095453   -5.6060611   0.99101355      1024000 
  607000   0.66137463   -5.6066146   -5.6066146   -4.6145547 -0.0014533811   -5.6066146   0.99205994      1024000 
  608000   0.66047505   -5.6061922   -5.6061922   -4.6154816  0.001425708   -5.6061922   0.99071057      1024000 
  609000   0.66158348   -5.6078015   -5.6078015   -4.6154282 -0.0012451335   -5.6078015   0.99237321      1024000 
  610000   0.66028259   -5.6055729   -5.6055729   -4.6151511 0.0019574828   -5.6055729   0.99042188      1024000 
  611000   0.66112601    -5.607081    -5.607081    -4.615394 -0.00069824058    -5.607081   0.99168701      1024000 
  612000   0.66158205   -5.6082459   -5.6082459   -4.6158748 0.0017339072   -5.6082459   0.99237106      1024000 
  613000   0.66133934   -5.6074538   -5.6074538   -4.6154468 0.00050617285   -5.6074538     0.992007      1024000 
  614000   0.66186361   -5.6081821   -5.6081821   -4.6153887 -0.00064977844   -5.6081821    0.9927934      1024000 
  615000   0.66110846   -5.6068871   -5.6068871   -4.6152264 0.0029747853   -5.6068871   0.99166067      1024000 
  616000    0.6616542   -5.6076122   -5.6076122   -4.6151329 0.00028070803   -5.6076122   0.99247928      1024000 
  617000    0.6616215   -5.6077498   -5.6077498   -4.6153196 0.00094435396   -5.6077498   0.99243024      1024000 
  618000    0.6606696   -5.6082265   -5.6082265   -4.6172242 0.0005528801   -5.6082265   0.99100239      1024000 
  619000   0.66103997   -5.6084349   -5.6084349    -4.616877 -0.00042070855   -5.6084349   0.99155794      1024000 
  620000   0.66071639   -5.6076671   -5.6076671   -4.6165945 0.0024739074   -5.6076671   0.99107258      1024000 
  621000    0.6604065   -5.6072476   -5.6072476   -4.6166398 -0.00038437004   -5.6072476   0.99060774      1024000 
  622000   0.66117173   -5.6075141   -5.6075141   -4.6157585 -0.0002396502   -5.6075141   0.99175558      1024000 
  623000   0.66170371   -5.6083731   -5.6083731   -4.6158196 0.0016920431   -5.6083731   0.99255355      1024000 
  624000    0.6605703   -5.6060426   -5.6060426   -4.6151892 0.0039665531   -5.6060426   0.99085344      1024000 
  625000   0.66064964   -5.6065766   -5.6065766   -4.6156041 0.0043600794   -5.6065766   0.99097244      1024000 
  626000   0.66165163   -5.6078876   -5.6078876   -4.6154122 0.0017939811   -5.6078876   0.99247544      1024000 
  627000   0.66153099    -5.608149    -5.608149   -4.6158545 0.0043674764    -5.608149   0.99229447      1024000 
  628000   0.66096878   -5.6068895   -5.6068895   -4.6154383 0.0034397957   -5.6068895   0.99145116      1024000 
  629000    0.6618108    -5.608157    -5.608157   -4.6154428 0.0036349681    -5.608157   0.99271419      1024000 
  630000   0.66214825    -5.609151    -5.609151   -4.6159306 -3.5076691e-05    -5.609151   0.99322036      1024000 
  631000    0.6611911   -5.6070275   -5.6070275   -4.6152429 0.0069203515   -5.6070275   0.99178464      1024000 
  632000    0.6620537   -5.6074333   -5.6074333   -4.6143548 0.0076052395   -5.6074333   0.99307854      1024000 
  633000    0.6627844   -5.6097836   -5.6097836   -4.6156091 -0.0017290116   -5.6097836   0.99417458      1024000 
  634000   0.66114575   -5.6081214   -5.6081214   -4.6164048 0.0050368936   -5.6081214   0.99171661      1024000 
  635000   0.66055283   -5.6079534   -5.6079534   -4.6171262 0.0024933791   -5.6079534   0.99082723      1024000 
  636000   0.66058016   -5.6067607   -5.6067607   -4.6158924   0.00340728   -5.6067607   0.99086822      1024000 
  637000   0.66146809   -5.6082564   -5.6082564   -4.6160563 0.0023201542   -5.6082564   0.99220012      1024000 
  638000   0.66178025   -5.6087548   -5.6087548   -4.6160865  0.001472989   -5.6087548   0.99266836      1024000 
  639000   0.66067169   -5.6075008   -5.6075008   -4.6164953 0.0044267155   -5.6075008   0.99100552      1024000 
  640000   0.66129259   -5.6081727   -5.6081727   -4.6162358 0.0052659714   -5.6081727   0.99193688      1024000 
  641000   0.66191111   -5.6084854   -5.6084854   -4.6156208 0.0071890035   -5.6084854   0.99286465      1024000 
  642000    0.6614561   -5.6091424   -5.6091424   -4.6169602 0.0013866861   -5.6091424   0.99218213      1024000 
  643000   0.66161761   -5.6095981   -5.6095981   -4.6171737 0.0027863294   -5.6095981    0.9924244      1024000 
  644000    0.6606467   -5.6083978   -5.6083978   -4.6174297 0.0041563481   -5.6083978   0.99096804      1024000 
  645000   0.66047657   -5.6088492   -5.6088492   -4.6181363 0.0023510017   -5.6088492   0.99071284      1024000 
  646000   0.66050391   -5.6083568   -5.6083568    -4.617603 0.0060878228   -5.6083568   0.99075386      1024000 
  647000   0.66141118   -5.6103463   -5.6103463   -4.6182315 0.0025837511   -5.6103463   0.99211476      1024000 
  648000   0.66076979   -5.6098176   -5.6098176    -4.618665 0.0030592881   -5.6098176   0.99115268      1024000 
  649000   0.66072359   -5.6095663   -5.6095663   -4.6184829 0.0012824349   -5.6095663   0.99108338      1024000 
  650000   0.66089519   -5.6095219   -5.6095219   -4.6181811 0.0081421541   -5.6095219   0.99134077      1024000 
  651000   0.66119517   -5.6098645   -5.6098645   -4.6180737 0.0071969353   -5.6098645   0.99179074      1024000 
  652000   0.66139435   -5.6103531   -5.6103531   -4.6182636 0.0056690523   -5.6103531   0.99208951      1024000 
  653000   0.66079112   -5.6100403   -5.6100403   -4.6188556 0.0070001661   -5.6100403   0.99118467      1024000 
  654000    0.6609411   -5.6106034   -5.6106034   -4.6191937 0.0047692338   -5.6106034   0.99140963      1024000 
  655000   0.66198001   -5.6117865   -5.6117865   -4.6188184 0.0029898112   -5.6117865     0.992968      1024000 
  656000   0.66052241   -5.6088606   -5.6088606   -4.6180789  0.008478079   -5.6088606   0.99078161      1024000 
  657000   0.66076542   -5.6090197   -5.6090197   -4.6178735  0.007243756   -5.6090197   0.99114612      1024000 
  658000   0.66155571   -5.6103512   -5.6103512   -4.6180196 0.0068197363   -5.6103512   0.99233155      1024000 
  659000   0.66086629   -5.6096175   -5.6096175   -4.6183201 0.0048217771   -5.6096175   0.99129743      1024000 
  660000   0.66142689   -5.6101714   -5.6101714   -4.6180331 0.0038260011   -5.6101714   0.99213832      1024000 
  661000   0.66127661   -5.6099254   -5.6099254   -4.6180126 0.0059944289   -5.6099254    0.9919129      1024000 
  662000   0.66180121   -5.6096517   -5.6096517   -4.6169519 0.0041582067   -5.6096517    0.9926998      1024000 
  663000    0.6610234   -5.6095391   -5.6095391    -4.618006 0.0050989961   -5.6095391   0.99153309      1024000 
  664000   0.66033728   -5.6083207   -5.6083207   -4.6178168 0.0052996063   -5.6083207   0.99050391      1024000 
  665000   0.66034688   -5.6085266   -5.6085266   -4.6180083 0.0058846315   -5.6085266   0.99051831      1024000 
  666000   0.66021296   -5.6078301   -5.6078301   -4.6175127  0.005800485   -5.6078301   0.99031743      1024000 
  667000   0.66122744   -5.6087391   -5.6087391      -4.6169  0.007603533   -5.6087391   0.99183915      1024000 
  668000   0.66089558   -5.6077613   -5.6077613     -4.61642 0.0068215047   -5.6077613   0.99134136      1024000 
  669000   0.66070987   -5.6069942   -5.6069942   -4.6159314  0.006830879   -5.6069942   0.99106279      1024000 
  670000    0.6611357   -5.6074155   -5.6074155   -4.6157139 0.0089683002   -5.6074155   0.99170153      1024000 
  671000   0.66037847   -5.6064518   -5.6064518   -4.6158861  0.012528071   -5.6064518   0.99056569      1024000 
  672000    0.6608832   -5.6069137   -5.6069137   -4.6155909 0.0073844373   -5.6069137   0.99132278      1024000 
  673000   0.66134608   -5.6072527   -5.6072527   -4.6152356 0.0069569984   -5.6072527    0.9920171      1024000 
  674000   0.66122615   -5.6069749   -5.6069749   -4.6151377 0.0065783096   -5.6069749   0.99183721      1024000 
  675000   0.66168076   -5.6075167   -5.6075167   -4.6149976 0.0073284275   -5.6075167   0.99251912      1024000 
  676000   0.66138305    -5.607193    -5.607193   -4.6151205 0.0069828438    -5.607193   0.99207256      1024000 
  677000   0.66198211   -5.6080821   -5.6080821   -4.6151109 0.0074156625   -5.6080821   0.99297115      1024000 
  678000   0.66108843   -5.6063495   -5.6063495   -4.6147188  0.010189758   -5.6063495   0.99163063      1024000 
  679000   0.66195435   -5.6078541   -5.6078541   -4.6149246 0.0071129685   -5.6078541   0.99292951      1024000 
  680000   0.66248811   -5.6078215   -5.6078215   -4.6140913 0.0067256066   -5.6078215   0.99373014      1024000 
  681000    0.6629924   -5.6089598   -5.6089598   -4.6144732 0.0056864762   -5.6089598   0.99448659      1024000 
  682000   0.66152316   -5.6058331   -5.6058331   -4.6135503 0.0078690854   -5.6058331   0.99228273      1024000 
  683000   0.66184875   -5.6058506   -5.6058506   -4.6130795 0.0078152459   -5.6058506   0.99277111      1024000 
  684000   0.66249785   -5.6067012   -5.6067012   -4.6129565 0.0056540533   -5.6067012   0.99374475      1024000 
  685000   0.66223768    -5.604975    -5.604975   -4.6116205  0.012517634    -5.604975    0.9933545      1024000 
  686000    0.6625934   -5.6062376   -5.6062376   -4.6123495 0.0094875829   -5.6062376   0.99388808      1024000 
  687000   0.66247831   -5.6056505   -5.6056505    -4.611935 0.0080000877   -5.6056505   0.99371546      1024000 
  688000   0.66194956   -5.6034596   -5.6034596   -4.6105373  0.011510101   -5.6034596   0.99292233      1024000 
  689000    0.6617329   -5.6038021   -5.6038021   -4.6112048 0.0085887994   -5.6038021   0.99259734      1024000 
  690000   0.66126366   -5.6032934   -5.6032934   -4.6113999 0.0097664013   -5.6032934   0.99189347      1024000 
  691000   0.66273483   -5.6055779   -5.6055779   -4.6114777 0.0052744439   -5.6055779   0.99410022      1024000 
  692000   0.66153444   -5.6033235   -5.6033235   -4.6110239  0.009578274   -5.6033235   0.99229964      1024000 
  693000   0.66192854   -5.6047247   -5.6047247   -4.6118339 0.0090095234   -5.6047247    0.9928908      1024000 
  694000   0.66160236   -5.6037194   -5.6037194   -4.6113178 0.0072415134   -5.6037194   0.99240153      1024000 
  695000   0.66255713   -5.6043203   -5.6043203   -4.6104866 0.0054199454   -5.6043203   0.99383368      1024000 
  696000   0.66141915   -5.6023362   -5.6023362   -4.6102095  0.011079714   -5.6023362   0.99212671      1024000 
  697000   0.66186391   -5.6022804   -5.6022804   -4.6094866  0.010050148   -5.6022804   0.99279385      1024000 
  698000   0.66160293   -5.6015607   -5.6015607   -4.6091583  0.012421724   -5.6015607   0.99240239      1024000 
  699000   0.66263564   -5.6028917   -5.6028917   -4.6089403  0.012559195   -5.6028917   0.99395144      1024000 
  700000   0.66243028   -5.6022318   -5.6022318   -4.6085884  0.018821947   -5.6022318    0.9936434      1024000 
  701000    0.6626421   -5.6024781   -5.6024781    -4.608517  0.013861599   -5.6024781   0.99396114      1024000 
  702000   0.66233407   -5.6018231   -5.6018231    -4.608324  0.014727031   -5.6018231   0.99349908      1024000 
  703000   0.66178952    -5.600298    -5.600298   -4.6076158  0.014043306    -5.600298   0.99268227      1024000 
  704000   0.66215952   -5.6008334   -5.6008334   -4.6075961  0.012252348   -5.6008334   0.99323726      1024000 
  705000   0.66237801   -5.6004056   -5.6004056   -4.6068406  0.014856003   -5.6004056     0.993565      1024000 
  706000   0.66125208   -5.5993753   -5.5993753   -4.6074992  0.012954783   -5.5993753   0.99187611      1024000 
  707000   0.66193396    -5.599759    -5.599759     -4.60686  0.011693591    -5.599759   0.99289892      1024000 
  708000   0.66147748   -5.5985606   -5.5985606   -4.6063464  0.014262252   -5.5985606   0.99221421      1024000 
  709000    0.6621273   -5.5976838   -5.5976838   -4.6044948  0.013402242   -5.5976838   0.99318893      1024000 
  710000    0.6624387    -5.597935    -5.597935   -4.6042789  0.012425358    -5.597935   0.99365603      1024000 
  711000   0.66069579   -5.5968525   -5.5968525   -4.6058108  0.014109821   -5.5968525   0.99104168      1024000 
  712000   0.66132458   -5.5969224   -5.5969224   -4.6049375  0.009267757   -5.5969224   0.99198485      1024000 
  713000   0.66153208    -5.596834    -5.596834   -4.6045379  0.008102193    -5.596834   0.99229611      1024000 
  714000   0.66122391   -5.5963126   -5.5963126   -4.6044788  0.011041395   -5.5963126   0.99183385      1024000 
  715000   0.66168358   -5.5967134   -5.5967134     -4.60419 0.0080917382   -5.5967134   0.99252336      1024000 
  716000   0.66099409   -5.5946673   -5.5946673   -4.6031782  0.012073038   -5.5946673   0.99148912      1024000 
  717000   0.66220831   -5.5956164   -5.5956164    -4.602306  0.011157704   -5.5956164   0.99331045      1024000 
  718000   0.66207274   -5.5949718   -5.5949718   -4.6018647  0.012347422   -5.5949718   0.99310709      1024000 
  719000    0.6626539    -5.595532    -5.595532   -4.6015531  0.014081037    -5.595532   0.99397883      1024000 
  720000   0.66250447   -5.5955976   -5.5955976   -4.6018429  0.013516192   -5.5955976   0.99375469      1024000 
  721000    0.6627211   -5.5957888   -5.5957888   -4.6017092 0.0081157572   -5.5957888   0.99407963      1024000 
  722000   0.66293422   -5.5955197   -5.5955197   -4.6011204  0.013464369   -5.5955197   0.99439931      1024000 
  723000   0.66193514   -5.5941047   -5.5941047    -4.601204  0.016229803   -5.5941047   0.99290069      1024000 
  724000    0.6635519   -5.5967726   -5.5967726   -4.6014467   0.01575533   -5.5967726   0.99532583      1024000 
  725000   0.66332176   -5.5953686   -5.5953686    -4.600388  0.015183427   -5.5953686   0.99498063      1024000 
  726000   0.66363933   -5.5953692   -5.5953692   -4.5999122  0.018024331   -5.5953692   0.99545698      1024000 
  727000   0.66379409   -5.5948514   -5.5948514   -4.5991623  0.014190879   -5.5948514   0.99568911      1024000 
  728000   0.66337036   -5.5945199   -5.5945199   -4.5994664  0.016116768   -5.5945199   0.99505353      1024000 
  729000   0.66342173   -5.5945193   -5.5945193   -4.5993887  0.019573297   -5.5945193   0.99513057      1024000 
  730000   0.66325111   -5.5940736   -5.5940736   -4.5991989  0.012585388   -5.5940736   0.99487464      1024000 
  731000    0.6621334    -5.592439    -5.592439    -4.599241  0.013510661    -5.592439   0.99319808      1024000 
  732000   0.66135525   -5.5909662   -5.5909662   -4.5989354  0.015891042   -5.5909662   0.99203085      1024000 
  733000   0.66289986   -5.5925172   -5.5925172   -4.5981695  0.011853264   -5.5925172   0.99434777      1024000 
  734000   0.66174387   -5.5896704   -5.5896704   -4.5970566  0.014862679   -5.5896704   0.99261379      1024000 
  735000   0.66136246   -5.5889699   -5.5889699   -4.5969282  0.011649449   -5.5889699   0.99204168      1024000 
  736000   0.66163659    -5.589066    -5.589066   -4.5966131  0.011504181    -5.589066   0.99245288      1024000 
  737000   0.66180586   -5.5887691   -5.5887691   -4.5960623   0.01063233   -5.5887691   0.99270678      1024000 
  738000    0.6626778   -5.5886165   -5.5886165   -4.5946019 0.0098600943   -5.5886165   0.99401469      1024000 
  739000   0.66226978   -5.5872594   -5.5872594   -4.5938567  0.014282578   -5.5872594   0.99340265      1024000 
  740000   0.66290215   -5.5884493   -5.5884493   -4.5940981  0.010782871   -5.5884493    0.9943512      1024000 
  741000   0.66240987   -5.5871171   -5.5871171   -4.5935043  0.011766119   -5.5871171   0.99361279      1024000 
  742000   0.66215413   -5.5860071   -5.5860071   -4.5927779  0.010674793   -5.5860071   0.99322918      1024000 
  743000   0.66244648   -5.5866056   -5.5866056    -4.592938 0.0097756116   -5.5866056    0.9936677      1024000 
  744000   0.66213751   -5.5864433   -5.5864433    -4.593239  0.017708132   -5.5864433   0.99320425      1024000 
  745000    0.6626758   -5.5864438   -5.5864438   -4.5924321  0.017909485   -5.5864438   0.99401168      1024000 
  746000   0.66280933   -5.5856445   -5.5856445   -4.5914326  0.017044587   -5.5856445   0.99421197      1024000 
  747000   0.66292754   -5.5853094   -5.5853094   -4.5909201   0.01676017   -5.5853094   0.99438929      1024000 
  748000   0.66346446   -5.5858819   -5.5858819   -4.5906872  0.013874403   -5.5858819   0.99519468      1024000 
  749000   0.66346728   -5.5846499   -5.5846499    -4.589451  0.016946812   -5.5846499    0.9951989      1024000 
  750000   0.66348335   -5.5847813   -5.5847813   -4.5895583  0.017852671   -5.5847813   0.99522301      1024000 
  751000   0.66288355   -5.5833587   -5.5833587   -4.5890354  0.022015836   -5.5833587   0.99432331      1024000 
  752000   0.66240433   -5.5827986   -5.5827986   -4.5891941    0.0175132   -5.5827986   0.99360447      1024000 
  753000   0.66351978   -5.5829551   -5.5829551   -4.5876774  0.019355842   -5.5829551   0.99527765      1024000 
  754000   0.66415096   -5.5838011   -5.5838011   -4.5875766   0.01538889   -5.5838011   0.99622443      1024000 
  755000   0.66350496   -5.5828899   -5.5828899   -4.5876344  0.020407239   -5.5828899   0.99525542      1024000 
  756000   0.66224103   -5.5807155   -5.5807155    -4.587356   0.02214755   -5.5807155   0.99335952      1024000 
  757000    0.6635659   -5.5816929   -5.5816929   -4.5863461   0.01410104   -5.5816929   0.99534683      1024000 
  758000   0.66316872   -5.5802987   -5.5802987   -4.5855476  0.016719724   -5.5802987   0.99475107      1024000 
  759000   0.66359044    -5.580223    -5.580223   -4.5848393  0.015081646    -5.580223   0.99538364      1024000 
  760000   0.66338045   -5.5790559   -5.5790559   -4.5839872  0.015184363   -5.5790559   0.99506866      1024000 
  761000   0.66278349   -5.5779934   -5.5779934   -4.5838202  0.015128421   -5.5779934   0.99417321      1024000 
  762000   0.66289775   -5.5767559   -5.5767559   -4.5824113  0.016913738   -5.5767559   0.99434461      1024000 
  763000   0.66314794   -5.5771034   -5.5771034   -4.5823835  0.013206852   -5.5771034    0.9947199      1024000 
  764000    0.6624479   -5.5758169   -5.5758169   -4.5821471  0.011869011   -5.5758169   0.99366983      1024000 
  765000    0.6635494   -5.5771925   -5.5771925   -4.5818705  0.012273956   -5.5771925   0.99532207      1024000 
  766000   0.66246927   -5.5751495   -5.5751495   -4.5814476  0.014927386   -5.5751495   0.99370188      1024000 
  767000   0.66374188   -5.5761012   -5.5761012   -4.5804904   0.01123184   -5.5761012    0.9956108      1024000 
  768000   0.66308124    -5.574444    -5.574444   -4.5798242  0.016243458    -5.574444   0.99461984      1024000 
  769000   0.66295975   -5.5742259   -5.5742259   -4.5797883  0.013335401   -5.5742259   0.99443761      1024000 
  770000   0.66294669   -5.5731159   -5.5731159   -4.5786979  0.017780364   -5.5731159   0.99441802      1024000 
  771000   0.66226912   -5.5724661   -5.5724661   -4.5790644  0.019931658   -5.5724661   0.99340167      1024000 
  772000   0.66341437   -5.5738163   -5.5738163   -4.5786968  0.018706931   -5.5738163   0.99511954      1024000 
  773000   0.66288099   -5.5723861   -5.5723861   -4.5780666  0.021074647   -5.5723861   0.99431946      1024000 
  774000   0.66311603   -5.5725944   -5.5725944   -4.5779224  0.023865554   -5.5725944   0.99467203      1024000 
  775000   0.66390187   -5.5729078   -5.5729078    -4.577057  0.020509527   -5.5729078   0.99585079      1024000 
  776000   0.66375291   -5.5716522   -5.5716522   -4.5760249   0.02292042   -5.5716522   0.99562734      1024000 
  777000   0.66399782    -5.571879    -5.571879   -4.5758843  0.023641236    -5.571879   0.99599471      1024000 
  778000   0.66451663   -5.5709316   -5.5709316   -4.5741586  0.023284089   -5.5709316   0.99677292      1024000 
  779000   0.66375593   -5.5700268   -5.5700268   -4.5743949  0.023641991   -5.5700268   0.99563187      1024000 
  780000   0.66391059   -5.5700208   -5.5700208    -4.574157  0.022230943   -5.5700208   0.99586386      1024000 
  781000   0.66397472   -5.5693451   -5.5693451    -4.573385  0.021980079   -5.5693451   0.99596006      1024000 
  782000   0.66368324   -5.5684137   -5.5684137   -4.5728909  0.017797863   -5.5684137   0.99552284      1024000 
  783000   0.66371898   -5.5682692   -5.5682692   -4.5726927  0.014084467   -5.5682692   0.99557645      1024000 
  784000   0.66268005   -5.5660819   -5.5660819   -4.5720638   0.02191265   -5.5660819   0.99401806      1024000 
  785000   0.66340947   -5.5663229   -5.5663229   -4.5712107  0.017067242   -5.5663229   0.99511218      1024000 
  786000   0.66364906   -5.5659218   -5.5659218   -4.5704503  0.014395071   -5.5659218   0.99547156      1024000 
  787000   0.66353968   -5.5647929   -5.5647929   -4.5694854  0.015649438   -5.5647929    0.9953075      1024000 
  788000   0.66354217   -5.5641046   -5.5641046   -4.5687934  0.013572625   -5.5641046   0.99531124      1024000 
  789000   0.66250737       -5.562       -5.562    -4.568241  0.019982892       -5.562   0.99375904      1024000 
  790000   0.66316243    -5.562078    -5.562078   -4.5673364  0.015099588    -5.562078   0.99474163      1024000 
  791000   0.66346725   -5.5617011   -5.5617011   -4.5665022  0.012624972   -5.5617011   0.99519885      1024000 
  792000   0.66345953    -5.560384    -5.560384   -4.5651967  0.013359971    -5.560384   0.99518728      1024000 
  793000   0.66295239   -5.5579938   -5.5579938   -4.5635673  0.019126792   -5.5579938   0.99442656      1024000 
  794000   0.66371062   -5.5589821   -5.5589821   -4.5634182  0.016878281   -5.5589821   0.99556392      1024000 
  795000   0.66335698   -5.5588121   -5.5588121   -4.5637787  0.019533313   -5.5588121   0.99503345      1024000 
  796000   0.66221906    -5.555229    -5.555229   -4.5619024  0.022435156    -5.555229   0.99332658      1024000 
  797000   0.66337568   -5.5565841   -5.5565841   -4.5615226  0.020136545   -5.5565841    0.9950615      1024000 
  798000   0.66344945   -5.5552726   -5.5552726   -4.5601004  0.019537757   -5.5552726   0.99517216      1024000 
  799000   0.66397731   -5.5551349   -5.5551349   -4.5591709  0.020248268   -5.5551349   0.99596394      1024000 
  800000   0.66444175   -5.5546194   -5.5546194   -4.5579588  0.020390671   -5.5546194    0.9966606      1024000 
  801000   0.66468693   -5.5545851   -5.5545851   -4.5575567   0.02147319   -5.5545851   0.99702837      1024000 
  802000    0.6633932   -5.5517914   -5.5517914   -4.5567036  0.026520144   -5.5517914   0.99508778      1024000 
  803000   0.66473503   -5.5529888   -5.5529888   -4.5558882  0.022358021   -5.5529888   0.99710052      1024000 
  804000   0.66502138   -5.5525597   -5.5525597   -4.5550296  0.023020179   -5.5525597   0.99753005      1024000 
  805000   0.66504488   -5.5516978   -5.5516978   -4.5541325  0.021750893   -5.5516978   0.99756529      1024000 
  806000   0.66394616   -5.5488545   -5.5488545   -4.5529373   0.02453645   -5.5488545   0.99591722      1024000 
  807000   0.66432293   -5.5484919   -5.5484919   -4.5520095  0.021874112   -5.5484919   0.99648238      1024000 
  808000   0.66443052   -5.5490335   -5.5490335   -4.5523898  0.017760757   -5.5490335   0.99664376      1024000 
  809000   0.66392412   -5.5475368   -5.5475368   -4.5516526  0.019986009   -5.5475368   0.99588417      1024000 
  810000   0.66413817   -5.5471168   -5.5471168   -4.5509116  0.017942449   -5.5471168   0.99620523      1024000 
  811000   0.66300067   -5.5445271   -5.5445271   -4.5500281  0.023023687   -5.5445271   0.99449899      1024000 
  812000   0.66290292   -5.5434816   -5.5434816   -4.5491293  0.021584729   -5.5434816   0.99435236      1024000 
  813000   0.66398524   -5.5444374   -5.5444374   -4.5484616  0.017271883   -5.5444374   0.99597584      1024000 
  814000   0.66315498   -5.5424927   -5.5424927   -4.5477623  0.018410327   -5.5424927   0.99473045      1024000 
  815000   0.66276241   -5.5420614   -5.5420614   -4.5479198  0.015548303   -5.5420614    0.9941416      1024000 
  816000   0.66315715   -5.5413505   -5.5413505   -4.5466167  0.015890904   -5.5413505   0.99473371      1024000 
  817000    0.6633307   -5.5398116   -5.5398116   -4.5448176  0.018595174   -5.5398116   0.99499403      1024000 
  818000   0.66458059    -5.540762    -5.540762   -4.5438932  0.020291391    -5.540762   0.99686887      1024000 
  819000   0.66409013   -5.5388512   -5.5388512    -4.542718  0.020918034   -5.5388512   0.99613317      1024000 
  820000   0.66417531   -5.5384617   -5.5384617   -4.5422007  0.020388472   -5.5384617   0.99626095      1024000 
  821000   0.66475649   -5.5375699   -5.5375699   -4.5404372   0.02127451   -5.5375699   0.99713272      1024000 
  822000   0.66455949   -5.5364084   -5.5364084   -4.5395712  0.024828196   -5.5364084   0.99683722      1024000 
  823000   0.66518057   -5.5363288   -5.5363288     -4.53856   0.02481013   -5.5363288   0.99776882      1024000 
  824000   0.66527329   -5.5344823   -5.5344823   -4.5365744  0.027113201   -5.5344823    0.9979079      1024000 
  825000   0.66421523   -5.5321351   -5.5321351   -4.5358143  0.025945362   -5.5321351   0.99632083      1024000 
  826000   0.66577356   -5.5338672   -5.5338672   -4.5352089  0.022808855   -5.5338672   0.99865832      1024000 
  827000    0.6658845   -5.5324501   -5.5324501   -4.5336254  0.028262949   -5.5324501   0.99882472      1024000 
  828000   0.66498683   -5.5304737   -5.5304737   -4.5329955  0.029199939   -5.5304737   0.99747822      1024000 
  829000   0.66489843   -5.5296616   -5.5296616    -4.532316  0.023902547   -5.5296616   0.99734562      1024000 
  830000   0.66452297   -5.5268925   -5.5268925     -4.53011  0.026227367   -5.5268925   0.99678243      1024000 
  831000   0.66540424   -5.5268185   -5.5268185   -4.5287141  0.022900246   -5.5268185   0.99810434      1024000 
  832000   0.66420588   -5.5239602   -5.5239602   -4.5276534  0.027105117   -5.5239602   0.99630679      1024000 
  833000   0.66459595   -5.5238508   -5.5238508   -4.5269589  0.024575022   -5.5238508    0.9968919      1024000 
  834000   0.66423566   -5.5223739   -5.5223739   -4.5260224  0.020800411   -5.5223739   0.99635147      1024000 
  835000   0.66472989    -5.522761    -5.522761   -4.5256682  0.018140584    -5.522761   0.99709281      1024000 
  836000   0.66376101   -5.5204632   -5.5204632   -4.5248237  0.022044502   -5.5204632    0.9956395      1024000 
  837000   0.66370179   -5.5197212   -5.5197212   -4.5241705  0.022790906   -5.5197212   0.99555067      1024000 
  838000   0.66412883   -5.5194687   -5.5194687   -4.5232775  0.016463409   -5.5194687   0.99619123      1024000 
  839000   0.66422898   -5.5169849   -5.5169849   -4.5206435  0.021903768   -5.5169849   0.99634145      1024000 
  840000   0.66419216    -5.515027    -5.515027   -4.5187408  0.023261552    -5.515027   0.99628622      1024000 
  841000   0.66509627   -5.5151025   -5.5151025   -4.5174601  0.023590157   -5.5151025   0.99764238      1024000 
  842000    0.6655514   -5.5144893   -5.5144893   -4.5161642  0.022203979   -5.5144893   0.99832508      1024000 
  843000   0.66488856   -5.5133232   -5.5133232   -4.5159924  0.024411651   -5.5133232   0.99733082      1024000 
  844000    0.6644331   -5.5120232   -5.5120232   -4.5153756  0.023814807   -5.5120232   0.99664763      1024000 
  845000     0.664838   -5.5118008   -5.5118008   -4.5145458  0.023829907   -5.5118008   0.99725498      1024000 
  846000   0.66462821   -5.5104496   -5.5104496   -4.5135093  0.026063805   -5.5104496    0.9969403      1024000 
  847000   0.66547216   -5.5104623   -5.5104623   -4.5122561  0.024691092   -5.5104623   0.99820621      1024000 
  848000   0.66481038   -5.5079638   -5.5079638   -4.5107503  0.027560476   -5.5079638   0.99721354      1024000 
  849000   0.66578657   -5.5087934   -5.5087934   -4.5101155  0.027279979   -5.5087934   0.99867783      1024000 
  850000   0.66718435   -5.5096987   -5.5096987   -4.5089242  0.028082992   -5.5096987    1.0007745      1024000 
  851000   0.66583586   -5.5066489   -5.5066489   -4.5078972  0.030539954   -5.5066489   0.99875177      1024000 
  852000   0.66651579   -5.5055188   -5.5055188   -4.5057472   0.02747285   -5.5055188   0.99977166      1024000 
  853000   0.66585815   -5.5034255   -5.5034255   -4.5046403  0.025897327   -5.5034255    0.9987852      1024000 
  854000   0.66599621   -5.5031846   -5.5031846   -4.5041923  0.021129181   -5.5031846   0.99899229      1024000 
  855000   0.66608919   -5.5027178   -5.5027178   -4.5035861  0.023024328   -5.5027178   0.99913175      1024000 
  856000    0.6651287   -5.4999529   -5.4999529   -4.5022619  0.027423912   -5.4999529   0.99769102      1024000 
  857000   0.66567793   -5.4998834   -5.4998834   -4.5013685  0.025804508   -5.4998834   0.99851487      1024000 
  858000   0.66479239   -5.4975347   -5.4975347   -4.5003481  0.028157493   -5.4975347   0.99718656      1024000 
  859000   0.66499551   -5.4963806   -5.4963806   -4.4988893  0.023635394   -5.4963806   0.99749125      1024000 
  860000   0.66492897   -5.4944986   -5.4944986   -4.4971072  0.023708342   -5.4944986   0.99739143      1024000 
  861000   0.66654179   -5.4947337   -5.4947337   -4.4949231  0.017941876   -5.4947337   0.99981066      1024000 
  862000   0.66499741    -5.490533    -5.490533   -4.4930389   0.02113787    -5.490533   0.99749409      1024000 
  863000   0.66531059   -5.4892293   -5.4892293   -4.4912655  0.023403497   -5.4892293   0.99796387      1024000 
  864000   0.66551548   -5.4878441   -5.4878441   -4.4895729  0.023360902   -5.4878441   0.99827119      1024000 
  865000    0.6664229   -5.4878784   -5.4878784   -4.4882461  0.024469654   -5.4878784   0.99963233      1024000 
  866000   0.66515554     -5.48457     -5.48457   -4.4868387   0.02779009     -5.48457   0.99773129      1024000 
  867000   0.66701442   -5.4862827   -5.4862827   -4.4857631  0.020410364   -5.4862827    1.0005196      1024000 
  868000   0.66591813     -5.48334     -5.48334   -4.4844648  0.023275921     -5.48334   0.99887517      1024000 
  869000   0.66565645    -5.480758    -5.480758   -4.4822754  0.023158528    -5.480758   0.99848265      1024000 
  870000   0.66539053   -5.4788929   -5.4788929   -4.4808091  0.020046848   -5.4788929   0.99808377      1024000 
  871000   0.66613839   -5.4778564   -5.4778564   -4.4786509  0.022059469   -5.4778564   0.99920556      1024000 
  872000   0.66624406   -5.4772137   -5.4772137   -4.4778497   0.02277651   -5.4772137   0.99936406      1024000 
  873000    0.6666713   -5.4761324   -5.4761324   -4.4761275  0.024411931   -5.4761324    1.0000049      1024000 
  874000   0.66701888   -5.4757853   -5.4757853    -4.475259  0.021276914   -5.4757853    1.0005263      1024000 
  875000   0.66606418    -5.472374    -5.472374   -4.4732798  0.028705971    -5.472374   0.99909424      1024000 
  876000   0.66768128   -5.4736926   -5.4736926   -4.4721727  0.020607067   -5.4736926    1.0015199      1024000 
  877000   0.66552581   -5.4686326   -5.4686326   -4.4703459  0.029407506   -5.4686326    0.9982867      1024000 
  878000   0.66658226   -5.4688241   -5.4688241   -4.4689527  0.023741997   -5.4688241   0.99987136      1024000 
  879000   0.66692096   -5.4684307   -5.4684307   -4.4680512   0.02381669   -5.4684307    1.0003794      1024000 
  880000   0.66605878   -5.4659762   -5.4659762   -4.4668901  0.027535023   -5.4659762   0.99908614      1024000 
  881000   0.66548421   -5.4634006   -5.4634006   -4.4651763  0.029741173   -5.4634006   0.99822429      1024000 
  882000   0.66654957   -5.4634182   -5.4634182   -4.4635959  0.027658378   -5.4634182   0.99982233      1024000 
  883000   0.66729749   -5.4621248   -5.4621248   -4.4611806  0.025724765   -5.4621248    1.0009442      1024000 
  884000   0.66623209   -5.4583332   -5.4583332   -4.4589871  0.027904323   -5.4583332   0.99934611      1024000 
  885000   0.66606308   -5.4564551   -5.4564551   -4.4573625  0.028075108   -5.4564551   0.99909259      1024000 
  886000   0.66681057   -5.4551814   -5.4551814   -4.4549676   0.02282929   -5.4551814    1.0002138      1024000 
  887000   0.66584059    -5.452645    -5.452645   -4.4538861  0.021173833    -5.452645   0.99875886      1024000 
  888000   0.66654235   -5.4511091   -5.4511091   -4.4512976    0.0228842   -5.4511091    0.9998115      1024000 
  889000    0.6667843    -5.449419    -5.449419   -4.4492446   0.02176747    -5.449419    1.0001744      1024000 
  890000   0.66683758   -5.4473115   -5.4473115   -4.4470572  0.020733289   -5.4473115    1.0002543      1024000 
  891000   0.66662957    -5.445103    -5.445103   -4.4451607  0.016767274    -5.445103   0.99994232      1024000 
  892000   0.66692389   -5.4432254   -5.4432254   -4.4428416  0.019094682   -5.4432254    1.0003838      1024000 
  893000   0.66656241   -5.4401362   -5.4401362   -4.4402946  0.017456909   -5.4401362   0.99984158      1024000 
  894000   0.66703219   -5.4376545   -5.4376545   -4.4371083   0.02041951   -5.4376545    1.0005463      1024000 
  895000   0.66755522   -5.4354065   -5.4354065   -4.4340757   0.02534083   -5.4354065    1.0013308      1024000 
  896000   0.66669103   -5.4335024   -5.4335024   -4.4334679  0.021281906   -5.4335024    1.0000345      1024000 
  897000    0.6676451    -5.432073    -5.432073   -4.4306073  0.019719176    -5.432073    1.0014656      1024000 
  898000   0.66722833   -5.4302799   -5.4302799   -4.4294395  0.020102545   -5.4302799    1.0008405      1024000 
  899000   0.66687033   -5.4278014   -5.4278014   -4.4274979  0.023612358   -5.4278014    1.0003035      1024000 
  900000   0.66757349   -5.4264959   -5.4264959   -4.4251377  0.022051727   -5.4264959    1.0013582      1024000 
  901000   0.66626044   -5.4226261   -5.4226261   -4.4232374  0.020431416   -5.4226261   0.99938863      1024000 
  902000   0.66704675   -5.4214238   -5.4214238   -4.4208557  0.017103243   -5.4214238    1.0005681      1024000 
  903000   0.66696497   -5.4188111   -5.4188111   -4.4183657  0.016720555   -5.4188111    1.0004454      1024000 
  904000   0.66707113   -5.4172545   -5.4172545   -4.4166498  0.017809548   -5.4172545    1.0006047      1024000 
  905000    0.6671309   -5.4149099   -5.4149099   -4.4142156  0.018212357   -5.4149099    1.0006943      1024000 
  906000   0.66839776   -5.4148117   -5.4148117   -4.4122171  0.017061808   -5.4148117    1.0025946      1024000 
  907000   0.66784312   -5.4121468   -5.4121468   -4.4103841  0.020045448   -5.4121468    1.0017626      1024000 
  908000   0.66697598   -5.4078283   -5.4078283   -4.4073664  0.020084456   -5.4078283    1.0004619      1024000 
  909000   0.66772409   -5.4062931   -5.4062931    -4.404709  0.018200558   -5.4062931    1.0015841      1024000 
  910000   0.66820134   -5.4052326   -5.4052326   -4.4029327  0.016201982   -5.4052326       1.0023      1024000 
  911000   0.66834432   -5.4027107   -5.4027107   -4.4001962  0.019514729   -5.4027107    1.0025144      1024000 
  912000   0.66733106   -5.3999957   -5.3999957   -4.3990012  0.023520271   -5.3999957    1.0009946      1024000 
  913000   0.66860061    -5.399087    -5.399087   -4.3961882  0.017523644    -5.399087    1.0028989      1024000 
  914000   0.66827374   -5.3969085   -5.3969085   -4.3944999  0.020662913   -5.3969085    1.0024086      1024000 
  915000   0.66942932   -5.3951188   -5.3951188   -4.3909769  0.021609017   -5.3951188    1.0041419      1024000 
  916000   0.66804263   -5.3907036   -5.3907036   -4.3886417  0.027443467   -5.3907036    1.0020619      1024000 
  917000   0.66919429    -5.390004    -5.390004   -4.3862146   0.02116801    -5.390004    1.0037894      1024000 
  918000   0.66799554   -5.3861129   -5.3861129   -4.3841216  0.022299207   -5.3861129    1.0019913      1024000 
  919000   0.66844406   -5.3840387   -5.3840387   -4.3813746  0.017627404   -5.3840387    1.0026641      1024000 
  920000    0.6683202   -5.3818846   -5.3818846   -4.3794064  0.013852314   -5.3818846    1.0024783      1024000 
  921000   0.66817185    -5.379244    -5.379244   -4.3769883  0.018921535    -5.379244    1.0022557      1024000 
  922000   0.66793486   -5.3763578   -5.3763578   -4.3744575  0.016408387   -5.3763578    1.0019002      1024000 
  923000   0.66861552   -5.3746803   -5.3746803    -4.371759  0.017064173   -5.3746803    1.0029212      1024000 
  924000   0.66883814   -5.3727004   -5.3727004   -4.3694452  0.016990057   -5.3727004    1.0032552      1024000 
  925000   0.66797621   -5.3687985   -5.3687985   -4.3668362  0.013820266   -5.3687985    1.0019623      1024000 
  926000   0.66764249   -5.3651303   -5.3651303   -4.3636686  0.013811396   -5.3651303    1.0014617      1024000 
  927000   0.66883571   -5.3640348   -5.3640348   -4.3607833 0.0080226584   -5.3640348    1.0032515      1024000 
  928000   0.66762133   -5.3603877   -5.3603877   -4.3589578  0.013989378   -5.3603877      1.00143      1024000 
  929000   0.66848863   -5.3591603   -5.3591603   -4.3564294  0.014929562   -5.3591603    1.0027309      1024000 
  930000   0.66915894   -5.3583445   -5.3583445   -4.3546081  0.012812409   -5.3583445    1.0037364      1024000 
  931000   0.66899595   -5.3546801   -5.3546801   -4.3511883  0.012791934   -5.3546801    1.0034919      1024000 
  932000   0.66996492   -5.3536417   -5.3536417   -4.3486964  0.011665388   -5.3536417    1.0049453      1024000 
  933000   0.67026379    -5.351152    -5.351152   -4.3457583  0.014999733    -5.351152    1.0053937      1024000 
  934000   0.67013592   -5.3480594   -5.3480594   -4.3428576  0.013726205   -5.3480594    1.0052018      1024000 
  935000   0.66985691   -5.3450831   -5.3450831   -4.3402998  0.016801826   -5.3450831    1.0047833      1024000 
  936000   0.66994968   -5.3418726   -5.3418726   -4.3369501  0.019089138   -5.3418726    1.0049225      1024000 
  937000   0.67009923   -5.3400207   -5.3400207   -4.3348739  0.019429047   -5.3400207    1.0051468      1024000 
  938000   0.67056835   -5.3384592   -5.3384592   -4.3326087    0.0151377   -5.3384592    1.0058505      1024000 
  939000   0.66969544   -5.3342906   -5.3342906   -4.3297495  0.020308387   -5.3342906    1.0045411      1024000 
  940000   0.67050347   -5.3331414   -5.3331414   -4.3273883  0.019499242   -5.3331414    1.0057532      1024000 
  941000    0.6703274   -5.3300286   -5.3300286   -4.3245396  0.022511795   -5.3300286    1.0054891      1024000 
  942000   0.67068782   -5.3272585   -5.3272585   -4.3212288   0.01923299   -5.3272585    1.0060297      1024000 
  943000   0.67091062   -5.3239575   -5.3239575   -4.3175936  0.019183682   -5.3239575    1.0063639      1024000 
  944000   0.66975403   -5.3195575   -5.3195575   -4.3149285   0.01584899   -5.3195575     1.004629      1024000 
  945000   0.66933563   -5.3161423   -5.3161423   -4.3121409  0.014980004   -5.3161423    1.0040014      1024000 
  946000    0.6697674   -5.3147535   -5.3147535   -4.3101044  0.011339503   -5.3147535    1.0046491      1024000 
  947000   0.67034722   -5.3124369   -5.3124369   -4.3069181 0.0062957528   -5.3124369    1.0055188      1024000 
  948000   0.67111833   -5.3101244   -5.3101244   -4.3034489 0.0038770658   -5.3101244    1.0066755      1024000 
  949000   0.67025543   -5.3055202   -5.3055202   -4.3001391  0.010993113   -5.3055202    1.0053811      1024000 
  950000   0.67037713   -5.3028172   -5.3028172   -4.2972536 0.0076627632   -5.3028172    1.0055636      1024000 
  951000   0.66943858   -5.2985895   -5.2985895   -4.2944337  0.013636457   -5.2985895    1.0041558      1024000 
  952000   0.66996132   -5.2966374   -5.2966374   -4.2916974 0.0096565003   -5.2966374    1.0049399      1024000 
  953000   0.66990869   -5.2932371   -5.2932371   -4.2883761  0.008897466   -5.2932371     1.004861      1024000 
  954000   0.67102832   -5.2921603   -5.2921603   -4.2856199 0.0024495251   -5.2921603    1.0065404      1024000 
  955000   0.67049175   -5.2878439   -5.2878439   -4.2821083 0.0026787891   -5.2878439    1.0057356      1024000 
  956000   0.67054097   -5.2849784   -5.2849784    -4.279169 0.0061192094   -5.2849784    1.0058094      1024000 
  957000   0.67064747    -5.282431    -5.282431   -4.2764619 0.0041042293    -5.282431    1.0059692      1024000 
  958000   0.67097708   -5.2799296   -5.2799296   -4.2734661 0.0062797848   -5.2799296    1.0064636      1024000 
  959000   0.67076463   -5.2769009   -5.2769009    -4.270756 0.0063758636   -5.2769009    1.0061449      1024000 
  960000   0.67104811    -5.275062    -5.275062   -4.2684919  0.001702156    -5.275062    1.0065701      1024000 
  961000   0.67039096   -5.2712106   -5.2712106   -4.2656262 0.0033426863   -5.2712106    1.0055844      1024000 
  962000   0.67195222    -5.270661    -5.270661   -4.2627347 0.0020305141    -5.270661    1.0079263      1024000 
  963000   0.67120828   -5.2675113   -5.2675113   -4.2607009 0.0015358458   -5.2675113    1.0068104      1024000 
  964000   0.67295862   -5.2666486   -5.2666486   -4.2572128 -0.0014930909   -5.2666486    1.0094359      1024000 
  965000   0.67241965   -5.2637427   -5.2637427   -4.2551153 0.0010444358   -5.2637427    1.0086274      1024000 
  966000   0.67309596   -5.2620029   -5.2620029    -4.252361 -0.0002194458   -5.2620029    1.0096419      1024000 
  967000   0.67301829   -5.2596896   -5.2596896   -4.2501642 0.00014452434   -5.2596896    1.0095254      1024000 
  968000   0.67290014   -5.2572603   -5.2572603   -4.2479121 -0.0018340702   -5.2572603    1.0093482      1024000 
  969000   0.67309854   -5.2547368   -5.2547368    -4.245091  0.001561016   -5.2547368    1.0096458      1024000 
  970000   0.67381885   -5.2533942   -5.2533942    -4.242668 0.0022452949   -5.2533942    1.0107262      1024000 
  971000   0.67525204   -5.2535446   -5.2535446   -4.2406686 -0.0011926616   -5.2535446     1.012876      1024000 
  972000   0.67363188   -5.2499114   -5.2499114   -4.2394656 0.00031201922   -5.2499114    1.0104458      1024000 
  973000   0.67455912    -5.249084    -5.249084   -4.2372474 -0.00029811993    -5.249084    1.0118366      1024000 
  974000   0.67441488   -5.2481413   -5.2481413    -4.236521 0.00046495363   -5.2481413    1.0116203      1024000 
  975000   0.67401711   -5.2458554   -5.2458554   -4.2348317 -0.0030495761   -5.2458554    1.0110236      1024000 
  976000   0.67429862    -5.245532    -5.245532   -4.2340861 -0.0072529222    -5.245532    1.0114459      1024000 
  977000   0.67439399    -5.244022    -5.244022   -4.2324331 -0.0088059289    -5.244022    1.0115889      1024000 
  978000   0.67529079   -5.2439384   -5.2439384   -4.2310043 -0.0090100109   -5.2439384    1.0129341      1024000 
  979000   0.67454908   -5.2416075   -5.2416075   -4.2297859 -0.0078676407   -5.2416075    1.0118216      1024000 
  980000   0.67431268   -5.2399085   -5.2399085   -4.2284415 -0.0081269678   -5.2399085     1.011467      1024000 
  981000   0.67372906   -5.2380954   -5.2380954   -4.2275039 -0.0046016243   -5.2380954    1.0105915      1024000 
  982000   0.67564331   -5.2397422   -5.2397422   -4.2262793 -0.010663819   -5.2397422    1.0134629      1024000 
  983000   0.67529923   -5.2380932   -5.2380932   -4.2251464 -0.0028608214   -5.2380932    1.0129468      1024000 
  984000   0.67693928   -5.2394578   -5.2394578    -4.224051  -0.00239823   -5.2394578    1.0154069      1024000 
  985000   0.67661061   -5.2383177   -5.2383177   -4.2234039 -0.0014688112   -5.2383177    1.0149139      1024000 
  986000   0.67780176   -5.2386918   -5.2386918   -4.2219912 -0.0017556169   -5.2386918    1.0167006      1024000 
  987000   0.67734732   -5.2374755   -5.2374755   -4.2214566 -0.0016080195   -5.2374755    1.0160189      1024000 
  988000   0.67838306   -5.2382211   -5.2382211   -4.2206486 -0.0015902682   -5.2382211    1.0175725      1024000 
  989000   0.67911623   -5.2395621   -5.2395621   -4.2208898 -0.00092582383   -5.2395621    1.0186723      1024000 
  990000    0.6773778   -5.2366907   -5.2366907    -4.220626 0.0083666285   -5.2366907    1.0160646      1024000 
  991000   0.67888398   -5.2384403   -5.2384403   -4.2201164 0.0040614636   -5.2384403    1.0183239      1024000 
  992000   0.67802399   -5.2365563   -5.2365563   -4.2195224 0.0057912346   -5.2365563    1.0170339      1024000 
  993000   0.67823985    -5.236353    -5.236353   -4.2189953  0.006830098    -5.236353    1.0173577      1024000 
  994000   0.67839259   -5.2369539   -5.2369539    -4.219367 0.0060745777   -5.2369539    1.0175868      1024000 
  995000   0.67850548   -5.2367031   -5.2367031   -4.2189469 0.0048543452   -5.2367031    1.0177561      1024000 
  996000   0.67864264   -5.2361994   -5.2361994   -4.2182375 0.0063514116   -5.2361994    1.0179619      1024000 
  997000   0.67818573   -5.2349903   -5.2349903   -4.2177137  0.012863042   -5.2349903    1.0172765      1024000 
  998000   0.67907025   -5.2354025   -5.2354025   -4.2167992  0.013425122   -5.2354025    1.0186033      1024000 
  999000    0.6801601   -5.2360556   -5.2360556   -4.2158175  0.014439308   -5.2360556    1.0202381      1024000 
 1000000   0.67942596   -5.2350856   -5.2350856   -4.2159487 0.0082538963   -5.2350856    1.0191369      1024000 
Loop time of 8180.25 on 96 procs for 1000000 steps with 492800 atoms

Performance: 26405.066 tau/day, 122.246 timesteps/s
99.5% CPU use with 96 MPI tasks x 1 OpenMP threads

MPI task timing breakdown:
Section |  min time  |  avg time  |  max time  |%varavg|  %CPU | %total
-----------------------------------------------------------------------
Pair    | 4435.8     | 5708.8     | 6558.8     | 673.0 |  99.5 | 69.79
Bond    | 0.73816    | 0.7888     | 0.86982    |   3.1 | 100.0 |  0.01
Neigh   | 484.57     | 616.03     | 683.76     | 191.7 |  99.6 |  7.53
Comm    | 501.51     | 1348.8     | 2568.3     |1307.0 |  99.3 | 16.49
Output  | 40.088     | 40.267     | 40.273     |   0.3 |  98.9 |  0.49
Modify  | 67.533     | 119.74     | 302.95     | 771.4 |  99.6 |  1.46
Other   |            | 345.8      |            |       |       |  4.23

Nlocal:        5133.33 ave        5331 max        4864 min
Histogram: 1 1 0 1 6 60 22 2 0 3
Nghost:        7845.70 ave        8524 max        5865 min
Histogram: 24 0 0 0 0 0 0 0 0 72
Neighs:        337321.0 ave      351147 max      275461 min
Histogram: 2 3 2 3 2 0 0 5 29 50

Total # of neighbors = 32382809
Ave neighs/atom = 65.711869
Ave special neighs/atom = 0.0000000
Neighbor list builds = 56317
Dangerous builds = 17
Total wall time: 2:16:21
