LAMMPS (24 Dec 2020)
OMP_NUM_THREADS environment is not set. Defaulting to 1 thread. (src/comm.cpp:94)
  using 1 OpenMP thread(s) per MPI task
# Simple rigid body system
# needed variables: startTemp, temp

units		lj
atom_style	full
dimension 	3
boundary	p p f
pair_style	lj/smooth/linear 1.5


variable 	sigma		equal 1.0
variable 	epsilon 	equal 1.0


region		box block 0 80 0 80 0 160
create_box 	3 box
Created orthogonal box = (0.0000000 0.0000000 0.0000000) to (80.000000 80.000000 160.00000)
  2 by 3 by 8 MPI processor grid
lattice 	sc 1.0
Lattice spacing in x,y,z = 1.0000000 1.0000000 1.0000000

region		create block EDGE EDGE EDGE EDGE 2 82

create_atoms 	1 region create
Created 518400 atoms
  create_atoms CPU = 0.010 seconds

mass		1 1.0
mass		2 1.0
mass		3 1.0


group		solvent type 1
518400 atoms in group solvent


velocity 	solvent create ${startTemp} 563435 loop geom
velocity 	solvent create 0.5 563435 loop geom

neighbor 	0.4 bin

pair_coeff	1 1 1.0 1.0
pair_coeff	2 2 0.0 0.0
pair_coeff	3 3 0.0 0.0
pair_coeff	2 3 0.0 0.0
pair_coeff	1 2*3 0.0 0.0

pair_modify 	shift yes


balance 	1.05 shift z 10 1.05
Balancing ...
Neighbor list info ...
  update every 1 steps, delay 10 steps, check yes
  max neighbors/atom: 2000, page size: 100000
  master list distance cutoff = 1.9
  ghost atom cutoff = 1.9
  binsize = 0.95, bins = 85 85 169
  1 neighbor lists, perpetual/occasional/extra = 1 0 0
  (1) pair lj/smooth/linear, perpetual
      attributes: half, newton on
      pair build: half/bin/newton
      stencil: half/bin/3d/newton
      bin: standard
 rebalancing time: 0.028 seconds
  iteration count = 4
  initial/final maximal load/proc = 21600.000 12960.000
  initial/final imbalance factor  = 2.0000000 1.2000000
  x cuts: 0.0000000 0.50000000 1.0000000
  y cuts: 0.0000000 0.33333333 0.66666667 1.0000000
  z cuts: 0.0000000 0.070312500 0.13281250 0.20312500 0.26562500 0.32031250 0.39843750 0.46875000 1.0000000


####################### WALLS ###########################


#region	       low block  EDGE EDGE EDGE EDGE EDGE 2

#region 	       top block  EDGE EDGE EDGE EDGE 159 160


#delete_atoms   region low

#delete_atoms   region top


variable       epsilonWall equal 2*${epsilon}
variable       epsilonWall equal 2*1

variable       cutoffTop   equal   0.7147*${sigma}
variable       cutoffTop   equal   0.7147*1

variable       cutoffLow   equal   3*${sigma}
variable       cutoffLow   equal   3*1


fix            topWall all wall/lj93 zhi EDGE                ${epsilonWall} ${sigma} ${cutoffTop} units box
fix            topWall all wall/lj93 zhi EDGE                2 ${sigma} ${cutoffTop} units box
fix            topWall all wall/lj93 zhi EDGE                2 1 ${cutoffTop} units box
fix            topWall all wall/lj93 zhi EDGE                2 1 0.7147 units box

fix            lowWall all wall/lj93 zlo EDGE                ${epsilonWall} ${sigma} ${cutoffLow} units box
fix            lowWall all wall/lj93 zlo EDGE                2 ${sigma} ${cutoffLow} units box
fix            lowWall all wall/lj93 zlo EDGE                2 1 ${cutoffLow} units box
fix            lowWall all wall/lj93 zlo EDGE                2 1 3 units box


###################### COMPUTES ##########################

compute        bin1 solvent chunk/atom bin/1d z upper 1.0

######################	FIXES ############################


fix 		peclet solvent ave/chunk 1000 1 1000 bin1 density/number norm 		 none ave one file density.profile

fix 		 temp solvent ave/chunk 1000 1 1000 bin1 temp norm none ave one file temp.profile

fix 		2 solvent nvt temp 0.8 0.8 $(100*dt)
fix 		2 solvent nvt temp 0.8 0.8 0.5

## Thermostat


#region		regthermo block EDGE EDGE EDGE EDGE 0 20

#group 		thermo dynamic solvent region regthermo every 1000

#fix 		3 thermo langevin ${startTemp} ${temp} 10 156453



#### Load balancing


fix 		bal all balance 1000 1.05 shift z 10 1.05


############### Diagnostics and computes ###################
#compute 	com cube	  rigid/local	1 mol x y z
#compute 	quat cube	  rigid/local	1 mol quatw quati quatj quatk

thermo 		1000
thermo_style 	custom step temp epair evdwl etotal press pe ke atoms

dump		1 all custom 100000 dump.lammpstrj id mol type x y z
dump 		2 all image 10000 image.*.png type type
dump 		3 all movie 1000 movie.avi type type
#dump 		com cube local 1000 dump.*.xyz c_com[*]
#dump		quat cube      local 1000 dump.*.quat c_quat[*]


restart 	1000000 restart.dat
timestep 	0.005
timer 		full
New timer settings: style=full  mode=nosync  timeout=off


run		3000000
Per MPI rank memory allocation (min/avg/max) = 12.62 | 17.60 | 18.40 Mbytes
Step Temp E_pair E_vdwl TotEng Press PotEng KinEng Atoms 
       0          0.5    2.5809085    2.5809085    3.3309071    12.322113    2.5809085   0.74999855   518400 
    1000     0.935247  -0.18419077  -0.18419077     1.218677    4.0468426  -0.18419077    1.4028678   518400 
    2000   0.80078968  -0.64198457  -0.64198457   0.55919763    1.8627819  -0.64198457    1.2011822   518400 
    3000   0.79970819  -0.76011692  -0.76011692   0.43944306   0.86961314  -0.76011692      1.19956   518400 
    4000   0.79987231  -0.74295751  -0.74295751   0.45684863   0.51320927  -0.74295751    1.1998061   518400 
    5000   0.79959279  -0.70941058  -0.70941058   0.48997629   0.39811199  -0.70941058    1.1993869   518400 
    6000   0.79992588  -0.68343565  -0.68343565   0.51645085    0.3527239  -0.68343565    1.1998865   518400 
    7000   0.80063674  -0.66292721  -0.66292721   0.53802558   0.33539551  -0.66292721    1.2009528   518400 
    8000   0.79962177  -0.64277522  -0.64277522   0.55665511   0.36223716  -0.64277522    1.1994303   518400 
    9000   0.80006204  -0.49607837  -0.49607837   0.70401238     1.094414  -0.49607837    1.2000907   518400 
   10000   0.80018924  -0.34744667  -0.34744667   0.85283487    1.7995484  -0.34744667    1.2002815   518400 
   11000   0.79927894  -0.30625217  -0.30625217   0.89266392    1.9775565  -0.30625217    1.1989161   518400 
   12000   0.79934383   -0.3207907   -0.3207907   0.87822274    1.8472692   -0.3207907    1.1990134   518400 
   13000   0.79916687  -0.34465899  -0.34465899     0.854089     1.635791  -0.34465899     1.198748   518400 
   14000   0.79913818  -0.35716634  -0.35716634   0.84153862    1.4456601  -0.35716634     1.198705   518400 
   15000   0.79843733  -0.36295142  -0.36295142   0.83470226    1.2642923  -0.36295142    1.1976537   518400 
   16000   0.79842866  -0.36359393  -0.36359393   0.83404676    1.1107551  -0.36359393    1.1976407   518400 
   17000    0.7991669  -0.36444978  -0.36444978   0.83429826   0.95632088  -0.36444978     1.198748   518400 
   18000   0.80002707  -0.33456273  -0.33456273   0.86547556   0.96486544  -0.33456273    1.2000383   518400 
   19000   0.80022645  -0.29893956  -0.29893956    0.9013978     1.073111  -0.29893956    1.2003374   518400 
   20000    0.8002895  -0.27771295  -0.27771295   0.92271898    1.1477613  -0.27771295    1.2004319   518400 
   21000   0.80064074  -0.27028953  -0.27028953   0.93066927    1.1809588  -0.27028953    1.2009588   518400 
   22000   0.80070349  -0.26951309  -0.26951309   0.93153983    1.1913532  -0.26951309    1.2010529   518400 
   23000   0.80082317  -0.27274785  -0.27274785   0.92848459    1.1894262  -0.27274785    1.2012324   518400 
   24000   0.80078472  -0.27528084  -0.27528084   0.92589392    1.2000391  -0.27528084    1.2011748   518400 
   25000   0.80064812  -0.28169096  -0.28169096   0.91927891    1.1950602  -0.28169096    1.2009699   518400 
   26000    0.7996088    -0.289247    -0.289247   0.91016389    1.1654467    -0.289247    1.1994109   518400 
   27000   0.80033125  -0.29741293  -0.29741293   0.90308164    1.1165133  -0.29741293    1.2004946   518400 
   28000   0.79937085  -0.29938713  -0.29938713   0.89966683    1.0816694  -0.29938713     1.199054   518400 
   29000   0.79996574   -0.2844515   -0.2844515    0.9154948    1.1588677   -0.2844515    1.1999463   518400 
   30000    0.7997401  -0.27322747  -0.27322747   0.92638036    1.2370445  -0.27322747    1.1996078   518400 
   31000   0.80013062  -0.26995435  -0.26995435   0.93023926    1.2762501  -0.26995435    1.2001936   518400 
   32000   0.80017237  -0.26895884  -0.26895884    0.9312974    1.2915714  -0.26895884    1.2002562   518400 
   33000   0.80022945  -0.27125476  -0.27125476    0.9290871    1.2770505  -0.27125476    1.2003419   518400 
   34000   0.80026398  -0.27576017  -0.27576017   0.92463349     1.250637  -0.27576017    1.2003937   518400 
   35000   0.79863539  -0.27698158  -0.27698158    0.9209692    1.2281144  -0.27698158    1.1979508   518400 
   36000   0.79978979  -0.28254221  -0.28254221   0.91714016    1.1882153  -0.28254221    1.1996824   518400 
   37000   0.80029076  -0.28504658  -0.28504658   0.91538724     1.154039  -0.28504658    1.2004338   518400 
   38000   0.79921751  -0.28518758  -0.28518758   0.91363637    1.1247742  -0.28518758     1.198824   518400 
   39000   0.80060707  -0.27888288  -0.27888288   0.92202542    1.1337864  -0.27888288    1.2009083   518400 
   40000   0.79984656  -0.27578636  -0.27578636   0.92398116    1.1359637  -0.27578636    1.1997675   518400 
   41000   0.79926908  -0.27083933  -0.27083933   0.92806198     1.148463  -0.27083933    1.1989013   518400 
   42000   0.80029449  -0.27021168  -0.27021168   0.93022774      1.15176  -0.27021168    1.2004394   518400 
   43000   0.79961801  -0.26934826  -0.26934826   0.93007644    1.1526678  -0.26934826    1.1994247   518400 
   44000   0.79965048  -0.27095334  -0.27095334   0.92852007    1.1574916  -0.27095334    1.1994734   518400 
   45000   0.80061879  -0.27198921  -0.27198921   0.92893666    1.1645662  -0.27198921    1.2009259   518400 
   46000   0.79980726  -0.27463176  -0.27463176   0.92507682    1.1640059  -0.27463176    1.1997086   518400 
   47000   0.80015709  -0.27668972  -0.27668972    0.9235436    1.1579191  -0.27668972    1.2002333   518400 
   48000   0.79930281  -0.27933611  -0.27933611   0.91961578    1.1463592  -0.27933611    1.1989519   518400 
   49000   0.80072328  -0.27769641  -0.27769641   0.92338619    1.1588176  -0.27769641    1.2010826   518400 
   50000   0.79908452  -0.27174503  -0.27174503   0.92687944    1.1946508  -0.27174503    1.1986245   518400 
   51000   0.79999559  -0.27024208  -0.27024208   0.92974899    1.2125984  -0.27024208    1.1999911   518400 
   52000   0.80051925  -0.27040924  -0.27040924   0.93036732    1.2206204  -0.27040924    1.2007766   518400 
   53000   0.80064922  -0.27141224  -0.27141224   0.92955928    1.2180001  -0.27141224    1.2009715   518400 
   54000   0.80130721  -0.27199054  -0.27199054   0.92996796    1.2140023  -0.27199054    1.2019585   518400 
   55000   0.80204402  -0.27369855  -0.27369855   0.92936516    1.2005548  -0.27369855    1.2030637   518400 
   56000   0.80185716  -0.27453155  -0.27453155   0.92825188     1.186406  -0.27453155    1.2027834   518400 
   57000   0.80017757   -0.2746813   -0.2746813   0.92558274     1.173076   -0.2746813     1.200264   518400 
   58000   0.79969503  -0.27667339  -0.27667339   0.92286684    1.1535176  -0.27667339    1.1995402   518400 
   59000   0.79972627  -0.27410708  -0.27410708   0.92548001    1.1504856  -0.27410708    1.1995871   518400 
   60000   0.79988216  -0.27309295  -0.27309295   0.92672798    1.1488097  -0.27309295    1.1998209   518400 
   61000   0.79874886  -0.27011289  -0.27011289   0.92800809    1.1531302  -0.27011289     1.198121   518400 
   62000   0.79915196  -0.26898872  -0.26898872   0.92973691    1.1550601  -0.26898872    1.1987256   518400 
   63000   0.79989562  -0.26811743  -0.26811743   0.93172369    1.1592131  -0.26811743    1.1998411   518400 
   64000   0.80035526  -0.26893884  -0.26893884   0.93159173    1.1603509  -0.26893884    1.2005306   518400 
   65000   0.80151392  -0.27110072  -0.27110072   0.93116784    1.1593105  -0.27110072    1.2022686   518400 
   66000   0.80128816  -0.27139646  -0.27139646   0.93053346    1.1646792  -0.27139646    1.2019299   518400 
   67000   0.80004968  -0.27188057  -0.27188057   0.92819164    1.1641907  -0.27188057    1.2000722   518400 
   68000   0.80040066  -0.27427337  -0.27427337   0.92632531    1.1567255  -0.27427337    1.2005987   518400 
   69000   0.80092241  -0.27321218  -0.27321218   0.92816911    1.1624931  -0.27321218    1.2013813   518400 
   70000   0.80016592  -0.27214393  -0.27214393   0.92810264    1.1748365  -0.27214393    1.2002466   518400 
   71000    0.7988569  -0.27036242  -0.27036242   0.92792063      1.19046  -0.27036242     1.198283   518400 
   72000   0.79896913  -0.27026863  -0.27026863   0.92818275    1.1972295  -0.27026863    1.1984514   518400 
   73000   0.79995798  -0.27073736  -0.27073736    0.9291973    1.1991672  -0.27073736    1.1999347   518400 
   74000   0.80072264  -0.27104379  -0.27104379   0.93003785    1.1963711  -0.27104379    1.2010816   518400 
   75000   0.80008756   -0.2712133   -0.2712133   0.92891573    1.1936414   -0.2712133     1.200129   518400 
   76000    0.8007819  -0.27219312  -0.27219312   0.92897741    1.1827761  -0.27219312    1.2011705   518400 
   77000   0.80000645  -0.27135143  -0.27135143   0.92865593    1.1758573  -0.27135143    1.2000074   518400 
   78000   0.79938664  -0.27230776  -0.27230776    0.9267699     1.162915  -0.27230776    1.1990777   518400 
   79000   0.79981551   -0.2726096   -0.2726096   0.92711135    1.1559025   -0.2726096     1.199721   518400 
   80000   0.80023193  -0.27076544  -0.27076544   0.92958015    1.1582062  -0.27076544    1.2003456   518400 
   81000   0.79998175   -0.2691696   -0.2691696    0.9308007    1.1586447   -0.2691696    1.1999703   518400 
   82000   0.79997418  -0.26884121  -0.26884121   0.93111774    1.1559962  -0.26884121    1.1999589   518400 
   83000   0.80038252  -0.26828137  -0.26828137   0.93229009    1.1590756  -0.26828137    1.2005715   518400 
   84000    0.8007197  -0.26890664  -0.26890664   0.93217059    1.1577089  -0.26890664    1.2010772   518400 
   85000   0.80109621  -0.26907148  -0.26907148   0.93257051    1.1623128  -0.26907148     1.201642   518400 
   86000    0.8006152  -0.27002867  -0.27002867   0.93089181    1.1627964  -0.27002867    1.2009205   518400 
   87000   0.80020779  -0.26975126  -0.26975126   0.93055812    1.1670827  -0.26975126    1.2003094   518400 
   88000   0.80053975  -0.27024231  -0.27024231   0.93056499    1.1663238  -0.27024231    1.2008073   518400 
   89000   0.80070023   -0.2709977   -0.2709977   0.93005032    1.1665934   -0.2709977     1.201048   518400 
   90000   0.80120902  -0.27092994  -0.27092994   0.93088128    1.1715263  -0.27092994    1.2018112   518400 
   91000   0.80028693  -0.26925894  -0.26925894   0.93116914     1.182346  -0.26925894    1.2004281   518400 
   92000   0.80103397  -0.26930577  -0.26930577   0.93224287    1.1888444  -0.26930577    1.2015486   518400 
   93000   0.80047641  -0.26826621  -0.26826621   0.93244609    1.1939034  -0.26826621    1.2007123   518400 
   94000   0.80067479  -0.27035231  -0.27035231   0.93065756    1.1860059  -0.27035231    1.2010099   518400 
   95000   0.79969398  -0.26836479  -0.26836479   0.93117386    1.1914943  -0.26836479    1.1995386   518400 
   96000   0.79946551   -0.2698106   -0.2698106   0.92938534    1.1831174   -0.2698106    1.1991959   518400 
   97000   0.80133823  -0.26961372  -0.26961372   0.93239131    1.1765064  -0.26961372     1.202005   518400 
   98000   0.79994044  -0.27069573  -0.27069573   0.92921261    1.1691761  -0.27069573    1.1999083   518400 
   99000   0.79988754  -0.27019925  -0.27019925   0.92962976    1.1629937  -0.27019925     1.199829   518400 
  100000   0.80033695  -0.26983453  -0.26983453   0.93066857    1.1618104  -0.26983453    1.2005031   518400 
  101000   0.80046987  -0.26955657  -0.26955657   0.93114591     1.158338  -0.26955657    1.2007025   518400 
  102000   0.79906384   -0.2669394   -0.2669394   0.93165404    1.1643687   -0.2669394    1.1985934   518400 
  103000   0.79915376  -0.26819188  -0.26819188   0.93053645    1.1585169  -0.26819188    1.1987283   518400 
  104000   0.79825964  -0.26788353  -0.26788353   0.92950363    1.1616005  -0.26788353    1.1973872   518400 
  105000   0.79902699   -0.2685415   -0.2685415   0.92999668    1.1614076   -0.2685415    1.1985382   518400 
  106000   0.79931056  -0.26924331  -0.26924331   0.92972021    1.1612609  -0.26924331    1.1989635   518400 
  107000   0.79924605  -0.26923994  -0.26923994   0.92962683    1.1652452  -0.26923994    1.1988668   518400 
  108000   0.79962117  -0.26960159  -0.26960159   0.92982784    1.1642293  -0.26960159    1.1994294   518400 
  109000   0.79884468   -0.2696357   -0.2696357   0.92862901     1.166422   -0.2696357    1.1982647   518400 
  110000    0.8002469   -0.2707731   -0.2707731   0.92959494    1.1670192   -0.2707731     1.200368   518400 
  111000   0.80062186  -0.26951368  -0.26951368   0.93141679    1.1765734  -0.26951368    1.2009305   518400 
  112000   0.80064683  -0.26836122  -0.26836122   0.93260671     1.183517  -0.26836122    1.2009679   518400 
  113000   0.80152808  -0.26791361  -0.26791361   0.93437619    1.1876832  -0.26791361    1.2022898   518400 
  114000   0.79871765  -0.26823181  -0.26823181   0.92984236    1.1855013  -0.26823181    1.1980742   518400 
  115000   0.80112785  -0.26923571  -0.26923571   0.93245375    1.1826688  -0.26923571    1.2016895   518400 
  116000   0.80067936  -0.26762916  -0.26762916   0.93338757    1.1846811  -0.26762916    1.2010167   518400 
  117000   0.80025189  -0.26902697  -0.26902697   0.93134856    1.1773961  -0.26902697    1.2003755   518400 
  118000   0.80124002  -0.26910525  -0.26910525   0.93275246    1.1710555  -0.26910525    1.2018577   518400 
  119000   0.80040457  -0.26696205  -0.26696205   0.93364249     1.172257  -0.26696205    1.2006045   518400 
  120000   0.80139206  -0.26894673  -0.26894673   0.93313904    1.1640149  -0.26894673    1.2020858   518400 
  121000   0.80059851  -0.26794373  -0.26794373   0.93295171    1.1635089  -0.26794373    1.2008954   518400 
  122000   0.80006347   -0.2680253   -0.2680253   0.93206759    1.1634955   -0.2680253    1.2000929   518400 
  123000   0.79945944   -0.2676425   -0.2676425   0.93154435    1.1617387   -0.2676425    1.1991868   518400 
  124000   0.80084662  -0.26751053  -0.26751053   0.93375709    1.1631212  -0.26751053    1.2012676   518400 
  125000   0.80071913   -0.2678665   -0.2678665   0.93320987    1.1638968   -0.2678665    1.2010764   518400 
  126000   0.79937524  -0.26703093  -0.26703093   0.93202962     1.166071  -0.26703093    1.1990605   518400 
  127000   0.79937538  -0.26782638  -0.26782638   0.93123437    1.1656793  -0.26782638    1.1990608   518400 
  128000    0.7994377   -0.2698061   -0.2698061   0.92934814    1.1601841   -0.2698061    1.1991542   518400 
  129000   0.79917363    -0.268288    -0.268288   0.93047013    1.1659195    -0.268288    1.1987581   518400 
  130000   0.79811603  -0.26788067  -0.26788067   0.92929106    1.1712697  -0.26788067    1.1971717   518400 
  131000   0.79910433  -0.26816469  -0.26816469   0.93048949    1.1737464  -0.26816469    1.1986542   518400 
  132000   0.79948532  -0.26805861  -0.26805861   0.93116706    1.1786882  -0.26805861    1.1992257   518400 
  133000   0.80066759  -0.26826301  -0.26826301   0.93273605      1.17883  -0.26826301    1.2009991   518400 
  134000   0.80058202  -0.26722202  -0.26722202   0.93364868    1.1834621  -0.26722202    1.2008707   518400 
  135000   0.80087652  -0.26836889  -0.26836889   0.93294358    1.1784098  -0.26836889    1.2013125   518400 
  136000   0.79909914    -0.268096    -0.268096    0.9305504    1.1766948    -0.268096    1.1986464   518400 
  137000    0.7998049  -0.26762656  -0.26762656   0.93207847    1.1768443  -0.26762656     1.199705   518400 
  138000    0.8002692  -0.26815592  -0.26815592   0.93224557    1.1731058  -0.26815592    1.2004015   518400 
  139000   0.79985786  -0.26824655  -0.26824655   0.93153792    1.1660775  -0.26824655    1.1997845   518400 
  140000   0.80061261   -0.2684937   -0.2684937    0.9324229    1.1663522   -0.2684937    1.2009166   518400 
  141000   0.79882403   -0.2673589   -0.2673589   0.93087483    1.1634711   -0.2673589    1.1982337   518400 
  142000   0.79932259  -0.26713153  -0.26713153   0.93185005    1.1644401  -0.26713153    1.1989816   518400 
  143000   0.79755884  -0.26743581  -0.26743581   0.92890015    1.1594907  -0.26743581     1.196336   518400 
  144000   0.79902284  -0.26637734  -0.26637734   0.93215461    1.1666746  -0.26637734     1.198532   518400 
  145000   0.79818635    -0.266407    -0.266407   0.93087021    1.1661694    -0.266407    1.1972772   518400 
  146000   0.79919969  -0.26660825  -0.26660825   0.93218897     1.166758  -0.26660825    1.1987972   518400 
  147000   0.80012734  -0.26647524  -0.26647524   0.93371346    1.1700636  -0.26647524    1.2001887   518400 
  148000   0.79989868  -0.26752705  -0.26752705   0.93231866    1.1669921  -0.26752705    1.1998457   518400 
  149000    0.8004878  -0.26819341  -0.26819341   0.93253598     1.165365  -0.26819341    1.2007294   518400 
  150000   0.79949962  -0.26644957  -0.26644957   0.93279754    1.1721027  -0.26644957    1.1992471   518400 
  151000    0.8007602  -0.26815563  -0.26815563   0.93298236    1.1715575  -0.26815563     1.201138   518400 
  152000   0.80105239  -0.26645628  -0.26645628   0.93511999    1.1785814  -0.26645628    1.2015763   518400 
  153000   0.79951236  -0.26681879  -0.26681879   0.93244744     1.178342  -0.26681879    1.1992662   518400 
  154000   0.79920726  -0.26816739  -0.26816739   0.93064119    1.1761663  -0.26816739    1.1988086   518400 
  155000   0.79986161  -0.26788886  -0.26788886   0.93190124    1.1771252  -0.26788886    1.1997901   518400 
  156000   0.79904397  -0.26637593  -0.26637593   0.93218772    1.1813349  -0.26637593    1.1985636   518400 
  157000   0.79929424  -0.26622229  -0.26622229   0.93271675    1.1781042  -0.26622229     1.198939   518400 
  158000   0.79979059  -0.26797833  -0.26797833   0.93170525    1.1692469  -0.26797833    1.1996836   518400 
  159000   0.79977363  -0.26555134  -0.26555134   0.93410679    1.1762499  -0.26555134    1.1996581   518400 
  160000   0.80000317  -0.26764332  -0.26764332   0.93235912    1.1659653  -0.26764332    1.2000024   518400 
  161000   0.80173056   -0.2666856   -0.2666856   0.93590792    1.1674178   -0.2666856    1.2025935   518400 
  162000   0.79913216  -0.26540368  -0.26540368   0.93329224    1.1707065  -0.26540368    1.1986959   518400 
  163000   0.79969889  -0.26781439  -0.26781439   0.93173163    1.1620239  -0.26781439     1.199546   518400 
  164000   0.79967625  -0.26653236  -0.26653236   0.93297971    1.1639905  -0.26653236    1.1995121   518400 
  165000   0.79794308  -0.26765302  -0.26765302   0.92925929    1.1614248  -0.26765302    1.1969123   518400 
  166000      0.80027  -0.26712838  -0.26712838   0.93327431    1.1662531  -0.26712838    1.2004027   518400 
  167000   0.79988738  -0.26624134  -0.26624134   0.93358741     1.169193  -0.26624134    1.1998288   518400 
  168000   0.80060474  -0.26670875  -0.26670875   0.93419605    1.1695992  -0.26670875    1.2009048   518400 
  169000   0.79977241  -0.26614627  -0.26614627   0.93351002    1.1704253  -0.26614627    1.1996563   518400 
  170000   0.79911686  -0.26744736  -0.26744736   0.93122562    1.1668033  -0.26744736     1.198673   518400 
  171000   0.79902515  -0.26572276  -0.26572276   0.93281265    1.1743896  -0.26572276    1.1985354   518400 
  172000   0.79994038  -0.26708071  -0.26708071   0.93282754    1.1742095  -0.26708071    1.1999083   518400 
  173000   0.80071045  -0.26735043  -0.26735043   0.93371294    1.1741918  -0.26735043    1.2010634   518400 
  174000   0.80086065  -0.26689291  -0.26689291   0.93439574    1.1779264  -0.26689291    1.2012887   518400 
  175000   0.80102134  -0.26502202  -0.26502202   0.93650767    1.1833692  -0.26502202    1.2015297   518400 
  176000   0.80037785  -0.26582727  -0.26582727   0.93473719    1.1790062  -0.26582727    1.2005645   518400 
  177000   0.79914125  -0.26596897  -0.26596897   0.93274059    1.1774734  -0.26596897    1.1987096   518400 
  178000   0.80042851  -0.26597467  -0.26597467   0.93466578    1.1761387  -0.26597467    1.2006405   518400 
  179000   0.80096389  -0.26635412  -0.26635412    0.9350894    1.1722569  -0.26635412    1.2014435   518400 
  180000   0.80002011  -0.26494005  -0.26494005    0.9350878    1.1740873  -0.26494005    1.2000279   518400 
  181000     0.801619  -0.26504163  -0.26504163   0.93738455    1.1717906  -0.26504163    1.2024262   518400 
  182000   0.79974627  -0.26534949  -0.26534949    0.9342676    1.1683733  -0.26534949    1.1996171   518400 
  183000   0.79983196  -0.26563329  -0.26563329   0.93411234    1.1673212  -0.26563329    1.1997456   518400 
  184000    0.8009743  -0.26456047  -0.26456047   0.93689866    1.1708264  -0.26456047    1.2014591   518400 
  185000   0.80042362  -0.26619896  -0.26619896   0.93443416    1.1664123  -0.26619896    1.2006331   518400 
  186000   0.79912949  -0.26538121  -0.26538121   0.93331071     1.168044  -0.26538121    1.1986919   518400 
  187000   0.79917972  -0.26524259  -0.26524259   0.93352468    1.1696279  -0.26524259    1.1987673   518400 
  188000   0.79927199  -0.26547631  -0.26547631   0.93342937    1.1703585  -0.26547631    1.1989057   518400 
  189000    0.7983326  -0.26603152  -0.26603152   0.93146507    1.1679188  -0.26603152    1.1974966   518400 
  190000   0.79985257  -0.26697316  -0.26697316   0.93280337    1.1675653  -0.26697316    1.1997765   518400 
  191000   0.79947576  -0.26628127  -0.26628127   0.93293007    1.1696139  -0.26628127    1.1992113   518400 
  192000   0.80083852  -0.26458441  -0.26458441   0.93667106    1.1779379  -0.26458441    1.2012555   518400 
  193000    0.8003531  -0.26506664  -0.26506664   0.93546069    1.1777902  -0.26506664    1.2005273   518400 
  194000   0.80122612  -0.26550928  -0.26550928   0.93632757    1.1788781  -0.26550928    1.2018369   518400 
  195000   0.80041298  -0.26569287  -0.26569287   0.93492429    1.1795993  -0.26569287    1.2006172   518400 
  196000   0.79943811   -0.2662134   -0.2662134   0.93294146    1.1754699   -0.2662134    1.1991549   518400 
  197000   0.79953032   -0.2660627   -0.2660627   0.93323047    1.1750795   -0.2660627    1.1992932   518400 
  198000   0.79969119  -0.26647362  -0.26647362   0.93306086    1.1710792  -0.26647362    1.1995345   518400 
  199000   0.79899031  -0.26495227  -0.26495227   0.93353088    1.1762634  -0.26495227    1.1984831   518400 
  200000   0.79959564  -0.26588862  -0.26588862   0.93350252    1.1723328  -0.26588862    1.1993911   518400 
  201000     0.798267  -0.26518931  -0.26518931   0.93220888    1.1693462  -0.26518931    1.1973982   518400 
  202000   0.79875776    -0.264905    -0.264905   0.93322933    1.1689926    -0.264905    1.1981343   518400 
  203000    0.7990343  -0.26645678  -0.26645678   0.93209235    1.1641398  -0.26645678    1.1985491   518400 
  204000   0.79984868   -0.2659017   -0.2659017   0.93386901    1.1665514   -0.2659017    1.1997707   518400 
  205000   0.80003653   -0.2659308   -0.2659308   0.93412168    1.1665552   -0.2659308    1.2000525   518400 
  206000   0.79988672  -0.26497476  -0.26497476     0.934853    1.1696878  -0.26497476    1.1998278   518400 
  207000   0.79894647  -0.26418164  -0.26418164   0.93423575    1.1723067  -0.26418164    1.1984174   518400 
  208000   0.79907069  -0.26604052  -0.26604052   0.93256321    1.1681558  -0.26604052    1.1986037   518400 
  209000   0.79872303  -0.26451744  -0.26451744   0.93356479     1.172121  -0.26451744    1.1980822   518400 
  210000   0.80127392  -0.26530562  -0.26530562   0.93660294    1.1714958  -0.26530562    1.2019086   518400 
  211000   0.80061973  -0.26622845  -0.26622845   0.93469884    1.1700505  -0.26622845    1.2009273   518400 
  212000   0.80029233  -0.26518438  -0.26518438   0.93525179     1.176269  -0.26518438    1.2004362   518400 
  213000   0.80038996  -0.26447348  -0.26447348   0.93610915     1.178321  -0.26447348    1.2005826   518400 
  214000    0.8007992   -0.2657861   -0.2657861   0.93541038    1.1757838   -0.2657861    1.2011965   518400 
  215000   0.80082558  -0.26520327  -0.26520327   0.93603278    1.1756573  -0.26520327     1.201236   518400 
  216000   0.79986134  -0.26391322  -0.26391322   0.93587648     1.180631  -0.26391322    1.1997897   518400 
  217000   0.79992543  -0.26592381  -0.26592381   0.93396202    1.1736554  -0.26592381    1.1998858   518400 
  218000   0.79944013  -0.26625555  -0.26625555   0.93290233    1.1739256  -0.26625555    1.1991579   518400 
  219000   0.79969046  -0.26643219  -0.26643219   0.93310119    1.1678457  -0.26643219    1.1995334   518400 
  220000   0.79874958  -0.26521265  -0.26521265   0.93290941     1.171259  -0.26521265    1.1981221   518400 
  221000   0.80001903  -0.26532022  -0.26532022   0.93470601     1.168849  -0.26532022    1.2000262   518400 
  222000   0.80049221  -0.26534028  -0.26534028   0.93539572    1.1685846  -0.26534028     1.200736   518400 
  223000   0.80146689  -0.26528212  -0.26528212    0.9369159    1.1688765  -0.26528212     1.202198   518400 
  224000   0.80156469  -0.26509609  -0.26509609   0.93724863    1.1673834  -0.26509609    1.2023447   518400 
  225000   0.80020731  -0.26466473  -0.26466473   0.93564391    1.1683686  -0.26466473    1.2003086   518400 
  226000   0.80098221  -0.26532447  -0.26532447   0.93614653    1.1686525  -0.26532447     1.201471   518400 
  227000   0.79983316  -0.26423598  -0.26423598   0.93551145    1.1719131  -0.26423598    1.1997474   518400 
  228000   0.79937317  -0.26519503  -0.26519503   0.93386242    1.1686209  -0.26519503    1.1990574   518400 
  229000   0.79920367  -0.26532965  -0.26532965   0.93347355    1.1687108  -0.26532965    1.1988032   518400 
  230000   0.79915702  -0.26600643  -0.26600643   0.93272678    1.1670242  -0.26600643    1.1987332   518400 
  231000   0.79970043  -0.26492316  -0.26492316   0.93462517    1.1735054  -0.26492316    1.1995483   518400 
  232000   0.79977529  -0.26417601  -0.26417601   0.93548461    1.1770406  -0.26417601    1.1996606   518400 
  233000   0.80005742   -0.2646312   -0.2646312   0.93545262    1.1771288   -0.2646312    1.2000838   518400 
  234000    0.8014079    -0.263371    -0.263371   0.93873852    1.1810869    -0.263371    1.2021095   518400 
  235000   0.79994576  -0.26383303  -0.26383303   0.93608329    1.1803063  -0.26383303    1.1999163   518400 
  236000   0.80023837  -0.26393317  -0.26393317   0.93642207    1.1796272  -0.26393317    1.2003552   518400 
  237000   0.80054276  -0.26429858  -0.26429858   0.93651324    1.1786051  -0.26429858    1.2008118   518400 
  238000   0.80138461  -0.26415854  -0.26415854   0.93791605    1.1787015  -0.26415854    1.2020746   518400 
  239000   0.79996907  -0.26566452  -0.26566452   0.93428676    1.1714218  -0.26566452    1.1999513   518400 
  240000   0.80028422  -0.26628477  -0.26628477   0.93413925     1.168651  -0.26628477     1.200424   518400 
  241000   0.79771972   -0.2641799   -0.2641799   0.93239737    1.1720458   -0.2641799    1.1965773   518400 
  242000   0.79966548  -0.26404196  -0.26404196   0.93545395    1.1724037  -0.26404196    1.1994959   518400 
  243000   0.80103516  -0.26507406  -0.26507406   0.93647636    1.1690626  -0.26507406    1.2015504   518400 
  244000   0.79802178   -0.2642351   -0.2642351   0.93279525    1.1707751   -0.2642351    1.1970304   518400 
  245000   0.79919074  -0.26452623  -0.26452623   0.93425758    1.1695149  -0.26452623    1.1987838   518400 
  246000   0.79904916  -0.26489787  -0.26489787   0.93367357    1.1670064  -0.26489787    1.1985714   518400 
  247000   0.79824761  -0.26453099  -0.26453099   0.93283811    1.1704067  -0.26453099    1.1973691   518400 
  248000    0.7995372  -0.26544327  -0.26544327   0.93386022    1.1668991  -0.26544327    1.1993035   518400 
  249000   0.80000837  -0.26372382  -0.26372382   0.93628643    1.1742419  -0.26372382    1.2000102   518400 
  250000   0.80010163  -0.26462749  -0.26462749   0.93552264    1.1714223  -0.26462749    1.2001501   518400 
  251000   0.79905575  -0.26500698  -0.26500698   0.93357434    1.1704839  -0.26500698    1.1985813   518400 
  252000   0.79825039  -0.26326921  -0.26326921   0.93410406    1.1754747  -0.26326921    1.1973733   518400 
  253000   0.79912485  -0.26371808  -0.26371808   0.93496688     1.175964  -0.26371808     1.198685   518400 
  254000   0.79940879  -0.26327402  -0.26327402   0.93583684    1.1785807  -0.26327402    1.1991109   518400 
  255000    0.8002356  -0.26415472  -0.26415472   0.93619636    1.1767205  -0.26415472    1.2003511   518400 
  256000   0.80092467  -0.26366145  -0.26366145   0.93772323    1.1795594  -0.26366145    1.2013847   518400 
  257000   0.80002601    -0.263502    -0.263502   0.93653471      1.17728    -0.263502    1.2000367   518400 
  258000   0.80070781   -0.2638193   -0.2638193    0.9372401    1.1784101   -0.2638193    1.2010594   518400 
  259000    0.7996306  -0.26402788  -0.26402788   0.93541572    1.1761713  -0.26402788    1.1994436   518400 
  260000   0.79885084  -0.26327108  -0.26327108   0.93500286    1.1772782  -0.26327108    1.1982739   518400 
  261000   0.79941219  -0.26505247  -0.26505247   0.93406351    1.1693681  -0.26505247     1.199116   518400 
  262000   0.79941677  -0.26424083  -0.26424083   0.93488201    1.1722198  -0.26424083    1.1991228   518400 
  263000   0.79838582  -0.26380893  -0.26380893    0.9337675    1.1730086  -0.26380893    1.1975764   518400 
  264000   0.79846739  -0.26496346  -0.26496346   0.93273532    1.1686969  -0.26496346    1.1976988   518400 
  265000   0.79952715  -0.26390814  -0.26390814   0.93538027    1.1707072  -0.26390814    1.1992884   518400 
  266000   0.79856023  -0.26291547  -0.26291547   0.93492256     1.171959  -0.26291547     1.197838   518400 
  267000   0.79966524  -0.26577017  -0.26577017   0.93372537    1.1652851  -0.26577017    1.1994955   518400 
  268000   0.79771528  -0.26298372  -0.26298372   0.93358689    1.1771983  -0.26298372    1.1965706   518400 
  269000   0.80057435   -0.2645848   -0.2645848   0.93627441    1.1721021   -0.2645848    1.2008592   518400 
  270000    0.8006333  -0.26340607  -0.26340607   0.93754157    1.1751567  -0.26340607    1.2009476   518400 
  271000   0.80127795  -0.26507101  -0.26507101    0.9368436    1.1697656  -0.26507101    1.2019146   518400 
  272000   0.80187958  -0.26462449  -0.26462449   0.93819256    1.1726837  -0.26462449     1.202817   518400 
  273000   0.80079439  -0.26360046  -0.26360046   0.93758881     1.177585  -0.26360046    1.2011893   518400 
  274000   0.80101287  -0.26438554  -0.26438554   0.93713144    1.1734224  -0.26438554     1.201517   518400 
  275000     0.800215  -0.26390203  -0.26390203   0.93641815    1.1768087  -0.26390203    1.2003202   518400 
  276000   0.80091267   -0.2639806   -0.2639806   0.93738608     1.176196   -0.2639806    1.2013667   518400 
  277000   0.80054475  -0.26452449  -0.26452449   0.93629031    1.1733982  -0.26452449    1.2008148   518400 
  278000   0.80156574  -0.26409381  -0.26409381   0.93825248    1.1755263  -0.26409381    1.2023463   518400 
  279000   0.79887018  -0.26304678  -0.26304678   0.93525619    1.1769127  -0.26304678     1.198303   518400 
  280000   0.80067291  -0.26362102  -0.26362102   0.93738603    1.1752983  -0.26362102     1.201007   518400 
  281000   0.79988387  -0.26361705  -0.26361705   0.93620643    1.1731163  -0.26361705    1.1998235   518400 
  282000    0.8000299  -0.26432168  -0.26432168   0.93572085    1.1698487  -0.26432168    1.2000425   518400 
  283000   0.80050856  -0.26452764  -0.26452764   0.93623288    1.1710056  -0.26452764    1.2007605   518400 
  284000   0.80001301  -0.26438756  -0.26438756   0.93562964    1.1708524  -0.26438756    1.2000172   518400 
  285000   0.79806279  -0.26387715  -0.26387715   0.93321474    1.1693313  -0.26387715    1.1970919   518400 
  286000    0.7999729  -0.26393093  -0.26393093   0.93602611    1.1699629  -0.26393093     1.199957   518400 
  287000    0.7998188  -0.26410465  -0.26410465   0.93562124    1.1707619  -0.26410465    1.1997259   518400 
  288000   0.79851152  -0.26367468  -0.26367468   0.93409029     1.174845  -0.26367468     1.197765   518400 
  289000   0.79945728  -0.26365943  -0.26365943   0.93552418    1.1724291  -0.26365943    1.1991836   518400 
  290000     0.799129  -0.26466138  -0.26466138    0.9340298    1.1711834  -0.26466138    1.1986912   518400 
  291000   0.79956346  -0.26392554  -0.26392554   0.93541734    1.1715926  -0.26392554    1.1993429   518400 
  292000   0.80095809   -0.2656628   -0.2656628   0.93577202    1.1682441   -0.2656628    1.2014348   518400 
  293000    0.7999109  -0.26336056  -0.26336056   0.93650348    1.1767711  -0.26336056     1.199864   518400 
  294000   0.80055333  -0.26417631  -0.26417631   0.93665136    1.1735761  -0.26417631    1.2008277   518400 
  295000    0.7993075   -0.2643582   -0.2643582   0.93460074    1.1724714   -0.2643582    1.1989589   518400 
  296000   0.80091649  -0.26456409  -0.26456409   0.93680832    1.1740658  -0.26456409    1.2013724   518400 
  297000   0.79894829  -0.26359307  -0.26359307   0.93482706    1.1748441  -0.26359307    1.1984201   518400 
  298000   0.79905696  -0.26407716  -0.26407716   0.93450596     1.172841  -0.26407716    1.1985831   518400 
  299000   0.80038496  -0.26508765  -0.26508765   0.93548747    1.1693805  -0.26508765    1.2005751   518400 
  300000   0.80069922   -0.2640299   -0.2640299   0.93701661    1.1727673   -0.2640299    1.2010465   518400 
  301000   0.80095157  -0.26282907  -0.26282907   0.93859596    1.1759684  -0.26282907     1.201425   518400 
  302000    0.8006099  -0.26458907  -0.26458907   0.93632346    1.1705973  -0.26458907    1.2009125   518400 
  303000   0.80124977  -0.26408074  -0.26408074   0.93779161    1.1723264  -0.26408074    1.2018723   518400 
  304000   0.80129214  -0.26296322  -0.26296322   0.93897268    1.1735635  -0.26296322    1.2019359   518400 
  305000   0.80093556  -0.26389171  -0.26389171   0.93750931     1.173518  -0.26389171     1.201401   518400 
  306000   0.80159382  -0.26432536  -0.26432536   0.93806305    1.1704358  -0.26432536    1.2023884   518400 
  307000   0.79985447  -0.26316312  -0.26316312   0.93661627    1.1730327  -0.26316312    1.1997794   518400 
  308000   0.79954162  -0.26384286  -0.26384286   0.93546726    1.1699103  -0.26384286    1.1993101   518400 
  309000   0.80072432  -0.26360405  -0.26360405   0.93748012    1.1719619  -0.26360405    1.2010842   518400 
  310000   0.79916486  -0.26383269  -0.26383269   0.93491229    1.1717306  -0.26383269     1.198745   518400 
  311000    0.8008447  -0.26429319  -0.26429319   0.93697154    1.1712742  -0.26429319    1.2012647   518400 
  312000    0.7991182  -0.26334254  -0.26334254   0.93533245    1.1748302  -0.26334254     1.198675   518400 
  313000   0.79913241  -0.26269325  -0.26269325   0.93600306    1.1766123  -0.26269325    1.1986963   518400 
  314000   0.80027663   -0.2645813   -0.2645813   0.93583133    1.1728678   -0.2645813    1.2004126   518400 
  315000   0.79907137  -0.26404598  -0.26404598   0.93455877    1.1752516  -0.26404598    1.1986047   518400 
  316000   0.79868367  -0.26357606  -0.26357606   0.93444714    1.1753896  -0.26357606    1.1980232   518400 
  317000    0.7989647  -0.26381942  -0.26381942   0.93462532    1.1739905  -0.26381942    1.1984447   518400 
  318000   0.79855815  -0.26299805  -0.26299805   0.93483686    1.1760252  -0.26299805    1.1978349   518400 
  319000   0.79825171  -0.26418109  -0.26418109   0.93319416    1.1737875  -0.26418109    1.1973753   518400 
  320000   0.79912596  -0.26313359  -0.26313359   0.93555304    1.1746718  -0.26313359    1.1986866   518400 
  321000    0.7990927  -0.26316954  -0.26316954    0.9354672    1.1736976  -0.26316954    1.1986367   518400 
  322000   0.79948574  -0.26322763  -0.26322763   0.93599866    1.1731365  -0.26322763    1.1992263   518400 
  323000   0.80113254  -0.26495285  -0.26495285   0.93674364    1.1695636  -0.26495285    1.2016965   518400 
  324000   0.80150612   -0.2627966   -0.2627966   0.93946026    1.1763037   -0.2627966    1.2022569   518400 
  325000   0.80098955  -0.26424834  -0.26424834   0.93723366    1.1682672  -0.26424834     1.201482   518400 
  326000   0.80059754  -0.26366356  -0.26366356   0.93723044    1.1713127  -0.26366356     1.200894   518400 
  327000   0.79953425  -0.26391884  -0.26391884   0.93538022    1.1683428  -0.26391884    1.1992991   518400 
  328000   0.79823936  -0.26408337  -0.26408337   0.93327335    1.1678264  -0.26408337    1.1973567   518400 
  329000    0.7994147  -0.26335829  -0.26335829   0.93576145     1.171758  -0.26335829    1.1991197   518400 
  330000   0.79896062  -0.26394851  -0.26394851   0.93449011    1.1704897  -0.26394851    1.1984386   518400 
  331000    0.7998304  -0.26381971  -0.26381971   0.93592357    1.1719109  -0.26381971    1.1997433   518400 
  332000   0.80061329  -0.26316147  -0.26316147   0.93775614    1.1748307  -0.26316147    1.2009176   518400 
  333000   0.80007087  -0.26178986  -0.26178986   0.93831413    1.1788334  -0.26178986     1.200104   518400 
  334000   0.80075539  -0.26349286  -0.26349286   0.93763791    1.1760881  -0.26349286    1.2011308   518400 
  335000   0.80115881  -0.26332566  -0.26332566   0.93841023    1.1746763  -0.26332566    1.2017359   518400 
  336000     0.799363  -0.26324218  -0.26324218       0.9358    1.1761229  -0.26324218    1.1990422   518400 
  337000   0.79869253  -0.26388795  -0.26388795   0.93414852    1.1726519  -0.26388795    1.1980365   518400 
  338000   0.80069594  -0.26315455  -0.26315455   0.93788704    1.1769216  -0.26315455    1.2010416   518400 
  339000   0.80087035  -0.26310769  -0.26310769   0.93819552    1.1766399  -0.26310769    1.2013032   518400 
  340000   0.79955906  -0.26276266  -0.26276266   0.93657362    1.1745667  -0.26276266    1.1993363   518400 
  341000   0.79933591  -0.26428051  -0.26428051   0.93472105    1.1706193  -0.26428051    1.1990016   518400 
  342000   0.79906518  -0.26295071  -0.26295071   0.93564475     1.174134  -0.26295071    1.1985955   518400 
  343000   0.79895371  -0.26456993  -0.26456993   0.93385831    1.1673281  -0.26456993    1.1984282   518400 
  344000   0.79951335  -0.26402297  -0.26402297   0.93524475     1.170526  -0.26402297    1.1992677   518400 
  345000   0.79965429  -0.26355827  -0.26355827   0.93592085    1.1712554  -0.26355827    1.1994791   518400 
  346000   0.80003986  -0.26343237  -0.26343237   0.93662511    1.1720453  -0.26343237    1.2000575   518400 
  347000   0.80022248  -0.26200992  -0.26200992   0.93832148    1.1765507  -0.26200992    1.2003314   518400 
  348000   0.80150326  -0.26432624  -0.26432624   0.93792633    1.1698753  -0.26432624    1.2022526   518400 
  349000   0.80099501  -0.26267504  -0.26267504   0.93881515    1.1758846  -0.26267504    1.2014902   518400 
  350000   0.80245958  -0.26401009  -0.26401009   0.93967696    1.1703057  -0.26401009     1.203687   518400 
  351000   0.80003736  -0.26300821  -0.26300821   0.93704551    1.1743359  -0.26300821    1.2000537   518400 
  352000   0.79989104   -0.2629307   -0.2629307   0.93690356    1.1754955   -0.2629307    1.1998343   518400 
  353000   0.80074709  -0.26312993  -0.26312993   0.93798839    1.1748441  -0.26312993    1.2011183   518400 
  354000   0.80098262   -0.2637997   -0.2637997   0.93767191    1.1727212   -0.2637997    1.2014716   518400 
  355000   0.79960513  -0.26257872  -0.26257872   0.93682667    1.1768956  -0.26257872    1.1994054   518400 
  356000   0.79942786  -0.26193415  -0.26193415   0.93720533    1.1786296  -0.26193415    1.1991395   518400 
  357000   0.80183057   -0.2625738   -0.2625738   0.94016973    1.1766781   -0.2625738    1.2027435   518400 
  358000   0.80024959  -0.26350498  -0.26350498   0.93686709    1.1733955  -0.26350498    1.2003721   518400 
  359000    0.7993669  -0.26387665  -0.26387665   0.93517138    1.1712102  -0.26387665     1.199048   518400 
  360000   0.80073893  -0.26236216  -0.26236216   0.93874392    1.1786976  -0.26236216    1.2011061   518400 
  361000   0.80125433  -0.26391154  -0.26391154   0.93796764    1.1737129  -0.26391154    1.2018792   518400 
  362000   0.80102423  -0.26335669  -0.26335669   0.93817734    1.1715288  -0.26335669     1.201534   518400 
  363000   0.80091479  -0.26400071  -0.26400071   0.93736916    1.1716015  -0.26400071    1.2013699   518400 
  364000    0.8003256  -0.26328524  -0.26328524   0.93720085     1.173199  -0.26328524    1.2004861   518400 
  365000   0.80042108  -0.26302968  -0.26302968   0.93759963    1.1729013  -0.26302968    1.2006293   518400 
  366000   0.80017667  -0.26241996  -0.26241996   0.93784273     1.174681  -0.26241996    1.2002627   518400 
  367000   0.80083602  -0.26247339  -0.26247339   0.93877833    1.1726381  -0.26247339    1.2012517   518400 
  368000   0.80075255  -0.26290798  -0.26290798   0.93821853    1.1737985  -0.26290798    1.2011265   518400 
  369000     0.800312  -0.26289632  -0.26289632   0.93756936    1.1733415  -0.26289632    1.2004657   518400 
  370000   0.79915515   -0.2630001   -0.2630001   0.93573031    1.1733686   -0.2630001    1.1987304   518400 
  371000   0.80022534   -0.2628654   -0.2628654   0.93747029    1.1756172   -0.2628654    1.2003357   518400 
  372000   0.80212435  -0.26430181  -0.26430181   0.93888239    1.1702353  -0.26430181    1.2031842   518400 
  373000   0.79974063  -0.26369073  -0.26369073    0.9359179    1.1718215  -0.26369073    1.1996086   518400 
  374000   0.79940627  -0.26290169  -0.26290169    0.9362054    1.1768263  -0.26290169    1.1991071   518400 
  375000   0.79935144  -0.26339185  -0.26339185   0.93563299     1.174129  -0.26339185    1.1990248   518400 
  376000   0.79989866  -0.26264689  -0.26264689   0.93719878    1.1782991  -0.26264689    1.1998457   518400 
  377000   0.80053067  -0.26264242  -0.26264242   0.93815126    1.1760934  -0.26264242    1.2007937   518400 
  378000    0.8012834  -0.26309116  -0.26309116   0.93883162    1.1764749  -0.26309116    1.2019228   518400 
  379000   0.80024686  -0.26328038  -0.26328038   0.93708759    1.1724915  -0.26328038     1.200368   518400 
  380000   0.79988746  -0.26268655  -0.26268655   0.93714232    1.1749904  -0.26268655    1.1998289   518400 
  381000   0.79959075  -0.26379948  -0.26379948   0.93558434     1.170823  -0.26379948    1.1993838   518400 
  382000   0.79833237  -0.26225681  -0.26225681   0.93523943    1.1752722  -0.26225681    1.1974962   518400 
  383000   0.79911487  -0.26387249  -0.26387249   0.93479751    1.1692058  -0.26387249      1.19867   518400 
  384000   0.79925611   -0.2628867   -0.2628867   0.93599515    1.1714653   -0.2628867    1.1988818   518400 
  385000   0.79928523  -0.26264118  -0.26264118   0.93628436    1.1737971  -0.26264118    1.1989255   518400 
  386000   0.80001224  -0.26287347  -0.26287347   0.93714256    1.1715567  -0.26287347     1.200016   518400 
  387000   0.79933522  -0.26190252  -0.26190252   0.93709799    1.1754841  -0.26190252    1.1990005   518400 
  388000   0.79957353  -0.26299557  -0.26299557   0.93636242    1.1727517  -0.26299557     1.199358   518400 
  389000   0.80062173  -0.26461355  -0.26461355   0.93631672    1.1693663  -0.26461355    1.2009303   518400 
  390000   0.80015429  -0.26261272  -0.26261272    0.9376164    1.1744812  -0.26261272    1.2002291   518400 
  391000   0.80056099     -0.26352     -0.26352   0.93731917    1.1729801     -0.26352    1.2008392   518400 
  392000   0.79930971  -0.26267662  -0.26267662   0.93628563    1.1752413  -0.26267662    1.1989623   518400 
  393000   0.79988342  -0.26378364  -0.26378364   0.93603917    1.1725393  -0.26378364    1.1998228   518400 
  394000   0.80011112  -0.26293478  -0.26293478   0.93722959    1.1744607  -0.26293478    1.2001644   518400 
  395000   0.79888031   -0.2628197   -0.2628197   0.93549846    1.1743023   -0.2628197    1.1983182   518400 
  396000   0.79929887  -0.26293698  -0.26293698     0.936009    1.1759226  -0.26293698     1.198946   518400 
  397000   0.79913841  -0.26411643  -0.26411643   0.93458887    1.1701398  -0.26411643    1.1987053   518400 
  398000   0.80015755  -0.26336168  -0.26336168   0.93687233     1.170608  -0.26336168     1.200234   518400 
  399000    0.7990754  -0.26244093  -0.26244093   0.93616985    1.1752554  -0.26244093    1.1986108   518400 
  400000   0.79947265  -0.26179156  -0.26179156    0.9374151      1.17608  -0.26179156    1.1992067   518400 
  401000   0.80081428  -0.26227983  -0.26227983   0.93893927    1.1750416  -0.26227983    1.2012191   518400 
  402000   0.79931406  -0.26246893  -0.26246893   0.93649985    1.1733342  -0.26246893    1.1989688   518400 
  403000   0.79798487  -0.26323201  -0.26323201   0.93374299    1.1716364  -0.26323201     1.196975   518400 
  404000   0.79998567  -0.26326047  -0.26326047   0.93671573    1.1738987  -0.26326047    1.1999762   518400 
  405000   0.79990244   -0.2623734   -0.2623734   0.93747795    1.1745144   -0.2623734    1.1998513   518400 
  406000    0.8004242  -0.26372697  -0.26372697   0.93690701    1.1709934  -0.26372697     1.200634   518400 
  407000    0.7995072  -0.26366127  -0.26366127   0.93559722    1.1708162  -0.26366127    1.1992585   518400 
  408000   0.80101175  -0.26249542  -0.26249542   0.93901989    1.1759866  -0.26249542    1.2015153   518400 
  409000    0.7996021  -0.26270822  -0.26270822   0.93669261    1.1748238  -0.26270822    1.1994008   518400 
  410000   0.79861624  -0.26326012  -0.26326012   0.93466192    1.1717908  -0.26326012     1.197922   518400 
  411000    0.7992364  -0.26262247  -0.26262247   0.93622982    1.1708094  -0.26262247    1.1988523   518400 
  412000   0.79990619  -0.26231176  -0.26231176   0.93754521    1.1750895  -0.26231176     1.199857   518400 
  413000   0.80013169  -0.26237497  -0.26237497   0.93782025    1.1763486  -0.26237497    1.2001952   518400 
  414000   0.79817524  -0.26211467  -0.26211467   0.93514587    1.1754545  -0.26211467    1.1972605   518400 
  415000   0.79904844  -0.26207903  -0.26207903   0.93649131    1.1750093  -0.26207903    1.1985703   518400 
  416000   0.79871679  -0.26272733  -0.26272733   0.93534555    1.1742731  -0.26272733    1.1980729   518400 
  417000   0.80094456  -0.26351852  -0.26351852     0.937896    1.1709711  -0.26351852    1.2014145   518400 
  418000     0.801581  -0.26270097  -0.26270097   0.93966821    1.1751484  -0.26270097    1.2023692   518400 
  419000   0.80009017  -0.26274914  -0.26274914    0.9373838    1.1760213  -0.26274914    1.2001329   518400 
  420000   0.80048012  -0.26280436  -0.26280436   0.93791351    1.1751375  -0.26280436    1.2007179   518400 
  421000   0.80000825  -0.26317888  -0.26317888   0.93683117    1.1736733  -0.26317888    1.2000101   518400 
  422000   0.80067014  -0.26243061  -0.26243061   0.93857228     1.175548  -0.26243061    1.2010029   518400 
  423000   0.80106142  -0.26309034  -0.26309034   0.93849948    1.1735368  -0.26309034    1.2015898   518400 
  424000   0.80133688  -0.26306483  -0.26306483   0.93893817    1.1737345  -0.26306483     1.202003   518400 
  425000   0.80062042  -0.26286624  -0.26286624   0.93806208     1.173741  -0.26286624    1.2009283   518400 
  426000   0.80032445  -0.26195078  -0.26195078   0.93853357     1.176084  -0.26195078    1.2004844   518400 
  427000    0.8000641  -0.26223661  -0.26223661   0.93785722     1.174726  -0.26223661    1.2000938   518400 
  428000    0.8008726  -0.26271732  -0.26271732   0.93858926     1.173226  -0.26271732    1.2013066   518400 
  429000   0.80042306  -0.26398098  -0.26398098    0.9366513    1.1700331  -0.26398098    1.2006323   518400 
  430000   0.79966915  -0.26283928  -0.26283928   0.93666213    1.1728484  -0.26283928    1.1995014   518400 
  431000   0.79923684  -0.26118838  -0.26118838   0.93766457     1.178807  -0.26118838    1.1988529   518400 
  432000   0.79959522  -0.26335676  -0.26335676   0.93603375     1.171105  -0.26335676    1.1993905   518400 
  433000   0.79912497  -0.26284911  -0.26284911   0.93583604    1.1731364  -0.26284911    1.1986851   518400 
  434000   0.79842235  -0.26257318  -0.26257318   0.93505804    1.1722307  -0.26257318    1.1976312   518400 
  435000   0.80032656  -0.26279783  -0.26279783    0.9376897      1.17512  -0.26279783    1.2004875   518400 
  436000   0.79957674   -0.2618622   -0.2618622    0.9375006    1.1761308   -0.2618622    1.1993628   518400 
  437000   0.79988484  -0.26296306  -0.26296306   0.93686188    1.1717492  -0.26296306    1.1998249   518400 
  438000   0.80021187   -0.2633587   -0.2633587   0.93695678    1.1719894   -0.2633587    1.2003155   518400 
  439000   0.79969664  -0.26268643  -0.26268643   0.93685622     1.173508  -0.26268643    1.1995427   518400 
  440000   0.79913609  -0.26380587  -0.26380587   0.93489596    1.1703525  -0.26380587    1.1987018   518400 
  441000   0.79858377  -0.26267589  -0.26267589   0.93519745    1.1740039  -0.26267589    1.1978733   518400 
  442000   0.79975331   -0.2627921   -0.2627921   0.93683555    1.1712844   -0.2627921    1.1996277   518400 
  443000   0.79756284  -0.26239516  -0.26239516   0.93394679    1.1722313  -0.26239516    1.1963419   518400 
  444000   0.80021405  -0.26227094  -0.26227094   0.93804782    1.1741496  -0.26227094    1.2003188   518400 
  445000   0.80059303  -0.26245883  -0.26245883    0.9384284    1.1755557  -0.26245883    1.2008872   518400 
  446000   0.80011135  -0.26262802  -0.26262802    0.9375367      1.17276  -0.26262802    1.2001647   518400 
  447000   0.79978546  -0.26315949  -0.26315949   0.93651638    1.1751622  -0.26315949    1.1996759   518400 
  448000   0.79937102  -0.26251847  -0.26251847   0.93653574    1.1733413  -0.26251847    1.1990542   518400 
  449000   0.80007546   -0.2620764   -0.2620764   0.93803447    1.1771766   -0.2620764    1.2001109   518400 
  450000   0.79945492  -0.26208921  -0.26208921   0.93709086    1.1773362  -0.26208921    1.1991801   518400 
  451000   0.79920504  -0.26293482  -0.26293482   0.93587042    1.1749299  -0.26293482    1.1988052   518400 
  452000   0.79875552  -0.26383698  -0.26383698   0.93429399    1.1696708  -0.26383698     1.198131   518400 
  453000   0.79946535  -0.26327673  -0.26327673   0.93591899    1.1711559  -0.26327673    1.1991957   518400 
  454000   0.79892084  -0.26237504  -0.26237504   0.93600391    1.1743191  -0.26237504    1.1983789   518400 
  455000   0.79891761  -0.26202886  -0.26202886   0.93634524    1.1737945  -0.26202886    1.1983741   518400 
  456000   0.79886592  -0.26282047  -0.26282047   0.93547609    1.1715695  -0.26282047    1.1982966   518400 
  457000   0.80015118  -0.26187889  -0.26187889   0.93834557    1.1775645  -0.26187889    1.2002245   518400 
  458000   0.79965134  -0.26255502  -0.26255502   0.93691967    1.1743801  -0.26255502    1.1994747   518400 
  459000   0.79929767  -0.26189618  -0.26189618   0.93704801    1.1749483  -0.26189618    1.1989442   518400 
  460000   0.79913124  -0.26363544  -0.26363544    0.9350591    1.1707194  -0.26363544    1.1986945   518400 
  461000   0.79928373  -0.26340309  -0.26340309    0.9355202    1.1710711  -0.26340309    1.1989233   518400 
  462000   0.80013319  -0.26282729  -0.26282729   0.93737018    1.1724707  -0.26282729    1.2001975   518400 
  463000   0.80127659  -0.26256827  -0.26256827    0.9393443    1.1728021  -0.26256827    1.2019126   518400 
  464000   0.79912388  -0.26247957  -0.26247957   0.93620394    1.1720704  -0.26247957    1.1986835   518400 
  465000   0.80045057  -0.26140633  -0.26140633    0.9392672    1.1785221  -0.26140633    1.2006735   518400 
  466000   0.80035548  -0.26261035  -0.26261035   0.93792056    1.1723155  -0.26261035    1.2005309   518400 
  467000   0.79982653  -0.26242306  -0.26242306   0.93731442    1.1740569  -0.26242306    1.1997375   518400 
  468000   0.79982737  -0.26297826  -0.26297826   0.93676048    1.1731254  -0.26297826    1.1997387   518400 
  469000   0.80084647  -0.26147861  -0.26147861   0.93978878    1.1777181  -0.26147861    1.2012674   518400 
  470000   0.79939437    -0.261968    -0.261968   0.93712125    1.1763659    -0.261968    1.1990892   518400 
  471000   0.79885629  -0.26282193  -0.26282193   0.93546019    1.1721116  -0.26282193    1.1982821   518400 
  472000   0.80084958  -0.26331443  -0.26331443   0.93795763     1.172796  -0.26331443    1.2012721   518400 
  473000   0.79961375  -0.26300642  -0.26300642   0.93641188    1.1716606  -0.26300642    1.1994183   518400 
  474000   0.79983614  -0.26311537  -0.26311537   0.93663653    1.1721117  -0.26311537    1.1997519   518400 
  475000   0.79961847  -0.26259854  -0.26259854   0.93682685    1.1713882  -0.26259854    1.1994254   518400 
  476000   0.80037595  -0.26184278  -0.26184278   0.93871884    1.1778804  -0.26184278    1.2005616   518400 
  477000    0.8000971  -0.26161455  -0.26161455   0.93852878    1.1784522  -0.26161455    1.2001433   518400 
  478000   0.80045501  -0.26133448  -0.26133448   0.93934572    1.1793372  -0.26133448    1.2006802   518400 
  479000   0.80037744  -0.26194335  -0.26194335   0.93862049    1.1763546  -0.26194335    1.2005638   518400 
  480000   0.80062762  -0.26316936  -0.26316936   0.93776975    1.1716507  -0.26316936    1.2009391   518400 
  481000   0.79902161  -0.26204981  -0.26204981    0.9364803    1.1781064  -0.26204981    1.1985301   518400 
  482000   0.80004459  -0.26208705  -0.26208705   0.93797751    1.1773321  -0.26208705    1.2000646   518400 
  483000   0.79987703  -0.26256984  -0.26256984    0.9372434     1.175081  -0.26256984    1.1998132   518400 
  484000   0.80117454  -0.26409833  -0.26409833   0.93766116     1.169094  -0.26409833    1.2017595   518400 
  485000   0.80064633   -0.2617856   -0.2617856   0.93918158    1.1759851   -0.2617856    1.2009672   518400 
  486000   0.80043201  -0.26202506  -0.26202506   0.93862064       1.1757  -0.26202506    1.2006457   518400 
  487000   0.80060463  -0.26269858  -0.26269858   0.93820604    1.1735219  -0.26269858    1.2009046   518400 
  488000   0.79939712  -0.26155254  -0.26155254   0.93754082    1.1772974  -0.26155254    1.1990934   518400 
  489000   0.79930768  -0.26256641  -0.26256641   0.93639279    1.1728967  -0.26256641    1.1989592   518400 
  490000   0.79871773   -0.2621132   -0.2621132   0.93596108    1.1760383   -0.2621132    1.1980743   518400 
  491000   0.80087959  -0.26251181  -0.26251181   0.93880527    1.1752643  -0.26251181    1.2013171   518400 
  492000   0.79983016  -0.26245071  -0.26245071   0.93729221    1.1730945  -0.26245071    1.1997429   518400 
  493000   0.80039224  -0.26125272  -0.26125272   0.93933332    1.1767315  -0.26125272     1.200586   518400 
  494000   0.79979669  -0.26189574  -0.26189574   0.93779699    1.1770885  -0.26189574    1.1996927   518400 
  495000   0.80127502  -0.26215921  -0.26215921     0.939751     1.176907  -0.26215921    1.2019102   518400 
  496000   0.80107082  -0.26329949  -0.26329949   0.93830442    1.1738033  -0.26329949    1.2016039   518400 
  497000   0.79816247  -0.26248119  -0.26248119    0.9347602    1.1746606  -0.26248119    1.1972414   518400 
  498000   0.79881552  -0.26198747  -0.26198747    0.9362335    1.1786536  -0.26198747     1.198221   518400 
  499000   0.79961975  -0.26352176  -0.26352176   0.93590555    1.1723176  -0.26352176    1.1994273   518400 
  500000   0.80034263  -0.26199638  -0.26199638   0.93851524    1.1764558  -0.26199638    1.2005116   518400 
  501000   0.79793427   -0.2628515   -0.2628515   0.93404759    1.1735379   -0.2628515    1.1968991   518400 
  502000   0.79923657  -0.26308936  -0.26308936   0.93576319    1.1714704  -0.26308936    1.1988525   518400 
  503000   0.79969063  -0.26275719  -0.26275719   0.93677645     1.172088  -0.26275719    1.1995336   518400 
  504000   0.80038099  -0.26177462  -0.26177462   0.93879455    1.1761899  -0.26177462    1.2005692   518400 
  505000   0.80021567  -0.26211051  -0.26211051   0.93821068    1.1775839  -0.26211051    1.2003212   518400 
  506000   0.80145228  -0.26262906  -0.26262906   0.93954705    1.1738658  -0.26262906    1.2021761   518400 
  507000   0.80105085  -0.26287754  -0.26287754   0.93869643    1.1732683  -0.26287754     1.201574   518400 
  508000   0.80147081  -0.26327249  -0.26327249    0.9389314    1.1704721  -0.26327249    1.2022039   518400 
  509000   0.80086125  -0.26255762  -0.26255762   0.93873193    1.1773326  -0.26255762    1.2012896   518400 
  510000   0.80112327  -0.26235193  -0.26235193   0.93933066    1.1763945  -0.26235193    1.2016826   518400 
  511000   0.79871761  -0.26281786  -0.26281786   0.93525624    1.1726464  -0.26281786    1.1980741   518400 
  512000     0.799999  -0.26344858  -0.26344858   0.93654761    1.1710259  -0.26344858    1.1999962   518400 
  513000   0.80018994  -0.26273884  -0.26273884   0.93754375    1.1722324  -0.26273884    1.2002826   518400 
  514000   0.80114637  -0.26281651  -0.26281651   0.93890072    1.1740076  -0.26281651    1.2017172   518400 
  515000   0.80071821  -0.26239952  -0.26239952   0.93867549    1.1764427  -0.26239952     1.201075   518400 
  516000   0.80071918  -0.26328241  -0.26328241   0.93779405    1.1708594  -0.26328241    1.2010765   518400 
  517000   0.79874125  -0.26178319  -0.26178319   0.93632637     1.176966  -0.26178319    1.1981096   518400 
  518000   0.79937187  -0.26329232  -0.26329232   0.93576318    1.1736752  -0.26329232    1.1990555   518400 
  519000   0.80033715  -0.26186137  -0.26186137   0.93864204    1.1775865  -0.26186137    1.2005034   518400 
  520000   0.79960317  -0.26197016  -0.26197016   0.93743228    1.1772494  -0.26197016    1.1994024   518400 
  521000   0.80089573  -0.26387238  -0.26387238    0.9374689    1.1711386  -0.26387238    1.2013413   518400 
  522000    0.7998587  -0.26223331  -0.26223331   0.93755243    1.1738557  -0.26223331    1.1997857   518400 
  523000    0.7997937  -0.26244024  -0.26244024   0.93724799    1.1732884  -0.26244024    1.1996882   518400 
  524000   0.80088104  -0.26401674  -0.26401674    0.9373025    1.1697274  -0.26401674    1.2013192   518400 
  525000   0.79906066  -0.26281273  -0.26281273   0.93577596    1.1719716  -0.26281273    1.1985887   518400 
  526000   0.79928392  -0.26276297  -0.26276297   0.93616059    1.1729873  -0.26276297    1.1989236   518400 
  527000   0.79915705  -0.26218709  -0.26218709   0.93654617    1.1727643  -0.26218709    1.1987333   518400 
  528000   0.80090178  -0.26337417  -0.26337417   0.93797618    1.1714394  -0.26337417    1.2013504   518400 
  529000   0.80144181  -0.26351284  -0.26351284   0.93864755    1.1679521  -0.26351284    1.2021604   518400 
  530000     0.800767   -0.2624282   -0.2624282   0.93871999    1.1758458   -0.2624282    1.2011482   518400 
  531000   0.80040526  -0.26276699  -0.26276699   0.93783858    1.1731541  -0.26276699    1.2006056   518400 
  532000   0.79884043  -0.26270907  -0.26270907   0.93554927    1.1732207  -0.26270907    1.1982583   518400 
  533000   0.79772352  -0.26303518  -0.26303518    0.9335478     1.171756  -0.26303518     1.196583   518400 
  534000   0.80058842  -0.26328064  -0.26328064   0.93759967    1.1702587  -0.26328064    1.2008803   518400 
  535000   0.80012246  -0.26205946  -0.26205946   0.93812191    1.1757412  -0.26205946    1.2001814   518400 
  536000   0.80146825  -0.26138713  -0.26138713   0.94081292     1.178468  -0.26138713    1.2022001   518400 
  537000    0.8011356  -0.26238708  -0.26238708     0.939314    1.1754144  -0.26238708    1.2017011   518400 
  538000    0.8006483  -0.26285873  -0.26285873   0.93811141    1.1735609  -0.26285873    1.2009701   518400 
  539000   0.80039487  -0.26297695  -0.26297695   0.93761304    1.1731365  -0.26297695      1.20059   518400 
  540000    0.8003376  -0.26320221  -0.26320221   0.93730188    1.1714688  -0.26320221    1.2005041   518400 
  541000   0.79904595  -0.26235513  -0.26235513   0.93621148    1.1741399  -0.26235513    1.1985666   518400 
  542000   0.79974021  -0.26291932  -0.26291932   0.93668867    1.1716715  -0.26291932     1.199608   518400 
  543000   0.79960567  -0.26298836  -0.26298836   0.93641783    1.1728799  -0.26298836    1.1994062   518400 
  544000   0.79815334  -0.26275284  -0.26275284   0.93447486    1.1730859  -0.26275284    1.1972277   518400 
  545000   0.79939962   -0.2626592   -0.2626592   0.93643791    1.1724127   -0.2626592    1.1990971   518400 
  546000    0.7995598   -0.2621931   -0.2621931   0.93714429    1.1740524   -0.2621931    1.1993374   518400 
  547000    0.7998147  -0.26202316  -0.26202316   0.93769657    1.1762138  -0.26202316    1.1997197   518400 
  548000    0.8002909  -0.26255386  -0.26255386   0.93788018    1.1753848  -0.26255386     1.200434   518400 
  549000   0.80134435  -0.26333927  -0.26333927   0.93867493    1.1709163  -0.26333927    1.2020142   518400 
  550000   0.80083332  -0.26277966  -0.26277966     0.938468    1.1708859  -0.26277966    1.2012477   518400 
  551000   0.79941247  -0.26231163  -0.26231163   0.93680476    1.1717921  -0.26231163    1.1991164   518400 
  552000   0.80062598  -0.26220511  -0.26220511   0.93873155    1.1760652  -0.26220511    1.2009367   518400 
  553000   0.80082516  -0.26254368  -0.26254368   0.93869174     1.174162  -0.26254368    1.2012354   518400 
  554000   0.79918935  -0.26276767  -0.26276767   0.93601404    1.1725459  -0.26276767    1.1987817   518400 
  555000   0.79940813   -0.2620463   -0.2620463   0.93706358     1.177777   -0.2620463    1.1991099   518400 
  556000   0.80051343  -0.26179757  -0.26179757   0.93897026    1.1770582  -0.26179757    1.2007678   518400 
  557000    0.7992702  -0.26288227  -0.26288227   0.93602071    1.1715205  -0.26288227     1.198903   518400 
  558000   0.79986545   -0.2627575   -0.2627575   0.93703837    1.1730829   -0.2627575    1.1997959   518400 
  559000   0.79998712  -0.26342974  -0.26342974   0.93654862    1.1706694  -0.26342974    1.1999784   518400 
  560000   0.79897736  -0.26345423  -0.26345423   0.93500951    1.1689255  -0.26345423    1.1984637   518400 
  561000   0.80021074  -0.26169841  -0.26169841    0.9386154    1.1780416  -0.26169841    1.2003138   518400 
  562000   0.80150002  -0.26247606  -0.26247606   0.93977164    1.1758098  -0.26247606    1.2022477   518400 
  563000   0.79869948   -0.2608451   -0.2608451   0.93720181    1.1773348   -0.2608451    1.1980469   518400 
  564000   0.79987901  -0.26246999  -0.26246999    0.9373462    1.1723773  -0.26246999    1.1998162   518400 
  565000   0.79757179  -0.26227573  -0.26227573   0.93407964    1.1730149  -0.26227573    1.1963554   518400 
  566000    0.7996566  -0.26290396  -0.26290396   0.93657863     1.171955  -0.26290396    1.1994826   518400 
  567000    0.7979411   -0.2621425   -0.2621425   0.93476685     1.173716   -0.2621425    1.1969093   518400 
  568000    0.8006914  -0.26307244  -0.26307244   0.93796235    1.1732611  -0.26307244    1.2010348   518400 
  569000   0.80222509  -0.26270064  -0.26270064   0.94063467    1.1730545  -0.26270064    1.2033353   518400 
  570000   0.80072342  -0.26341494  -0.26341494   0.93766787    1.1702569  -0.26341494    1.2010828   518400 
  571000   0.79939009  -0.26218342  -0.26218342   0.93689941    1.1745006  -0.26218342    1.1990828   518400 
  572000   0.80063467  -0.26330066  -0.26330066   0.93764902    1.1740914  -0.26330066    1.2009497   518400 
  573000   0.79927339  -0.26149469  -0.26149469   0.93741309     1.176267  -0.26149469    1.1989078   518400 
  574000   0.80088373  -0.26164185  -0.26164185   0.93968143    1.1775973  -0.26164185    1.2013233   518400 
  575000   0.79950871   -0.2618609   -0.2618609   0.93739985    1.1740696   -0.2618609    1.1992607   518400 
  576000   0.79835713  -0.26268364  -0.26268364   0.93484974     1.171965  -0.26268364    1.1975334   518400 
  577000   0.80030932   -0.2629687   -0.2629687   0.93749296    1.1727916   -0.2629687    1.2004617   518400 
  578000   0.79917573   -0.2636024   -0.2636024   0.93515888    1.1706152   -0.2636024    1.1987613   518400 
  579000   0.79921921  -0.26272907  -0.26272907   0.93609743    1.1733909  -0.26272907    1.1988265   518400 
  580000    0.7986187  -0.26330857  -0.26330857   0.93461717    1.1727804  -0.26330857    1.1979257   518400 
  581000   0.79896662  -0.26248941  -0.26248941   0.93595821    1.1740343  -0.26248941    1.1984476   518400 
  582000   0.79950415  -0.26287582  -0.26287582   0.93637809    1.1730026  -0.26287582    1.1992539   518400 
  583000   0.79967962  -0.26219399  -0.26219399   0.93732312    1.1746676  -0.26219399    1.1995171   518400 
  584000   0.79878687  -0.26292045  -0.26292045   0.93525754    1.1727999  -0.26292045     1.198178   518400 
  585000   0.79978978  -0.26248449  -0.26248449   0.93719786    1.1742016  -0.26248449    1.1996823   518400 
  586000   0.80079856  -0.26177083  -0.26177083   0.93942469    1.1794672  -0.26177083    1.2011955   518400 
  587000   0.80057385  -0.26352045  -0.26352045   0.93733801    1.1723649  -0.26352045    1.2008585   518400 
  588000   0.80136808  -0.26246817  -0.26246817   0.93958163    1.1760507  -0.26246817    1.2020498   518400 
  589000   0.80000019  -0.26165017  -0.26165017    0.9383478    1.1770396  -0.26165017     1.199998   518400 
  590000   0.80130855  -0.26209219  -0.26209219   0.93986831    1.1754942  -0.26209219    1.2019605   518400 
  591000   0.80092636  -0.26271242  -0.26271242    0.9386748    1.1733632  -0.26271242    1.2013872   518400 
  592000   0.80038418  -0.26164076  -0.26164076   0.93893319    1.1782048  -0.26164076    1.2005739   518400 
  593000   0.80148646   -0.2624999   -0.2624999   0.93972747    1.1740149   -0.2624999    1.2022274   518400 
  594000   0.79956819  -0.26270115  -0.26270115   0.93664882    1.1725868  -0.26270115      1.19935   518400 
  595000   0.80037738   -0.2630309   -0.2630309   0.93753286    1.1733267   -0.2630309    1.2005638   518400 
  596000   0.79986545  -0.26281745  -0.26281745   0.93697841     1.174469  -0.26281745    1.1997959   518400 
  597000   0.79975359  -0.26256219  -0.26256219   0.93706589    1.1744256  -0.26256219    1.1996281   518400 
  598000   0.79986021  -0.26292089  -0.26292089    0.9368671    1.1717181  -0.26292089     1.199788   518400 
  599000   0.79933335  -0.26276774  -0.26276774   0.93622998    1.1733498  -0.26276774    1.1989977   518400 
  600000   0.79803582  -0.26162657  -0.26162657   0.93542486    1.1777467  -0.26162657    1.1970514   518400 
  601000   0.79865272  -0.26302529  -0.26302529   0.93495148    1.1713293  -0.26302529    1.1979768   518400 
  602000   0.80087186  -0.26277807  -0.26277807    0.9385274    1.1725535  -0.26277807    1.2013055   518400 
  603000   0.80074822  -0.26257869  -0.26257869   0.93854132    1.1724536  -0.26257869      1.20112   518400 
  604000   0.80094293  -0.26211445  -0.26211445   0.93929762     1.174397  -0.26211445    1.2014121   518400 
  605000    0.8004204   -0.2618678   -0.2618678   0.93876048    1.1764622   -0.2618678    1.2006283   518400 
  606000   0.80079979  -0.26247596  -0.26247596    0.9387214     1.174482  -0.26247596    1.2011974   518400 
  607000   0.79998678  -0.26176826  -0.26176826   0.93820959    1.1778951  -0.26176826    1.1999779   518400 
  608000   0.79934967  -0.26118079  -0.26118079    0.9378414    1.1783585  -0.26118079    1.1990222   518400 
  609000   0.80188192   -0.2625058   -0.2625058   0.94031476    1.1739794   -0.2625058    1.2028206   518400 
  610000   0.80085885  -0.26245489  -0.26245489   0.93883107    1.1741267  -0.26245489     1.201286   518400 
  611000   0.80042179  -0.26172982  -0.26172982   0.93890056    1.1768357  -0.26172982    1.2006304   518400 
  612000   0.80198786  -0.26260707  -0.26260707    0.9403724    1.1751344  -0.26260707    1.2029795   518400 
  613000   0.80130451   -0.2630719   -0.2630719   0.93888255    1.1711898   -0.2630719    1.2019544   518400 
  614000   0.79993231  -0.26026591  -0.26026591   0.93963024    1.1829953  -0.26026591    1.1998961   518400 
  615000   0.80066819  -0.26214005  -0.26214005   0.93885991    1.1758351  -0.26214005        1.201   518400 
  616000    0.8016084  -0.26319176  -0.26319176   0.93921852    1.1722718  -0.26319176    1.2024103   518400 
  617000   0.80121437  -0.26218887  -0.26218887   0.93963037    1.1750161  -0.26218887    1.2018192   518400 
  618000   0.79968945  -0.26181024  -0.26181024   0.93772163     1.175451  -0.26181024    1.1995319   518400 
  619000   0.79946329  -0.26192066  -0.26192066   0.93727196    1.1749896  -0.26192066    1.1991926   518400 
  620000   0.79957558  -0.26197486  -0.26197486   0.93738621    1.1750618  -0.26197486    1.1993611   518400 
  621000   0.79956453  -0.26248624  -0.26248624   0.93685825    1.1743332  -0.26248624    1.1993445   518400 
  622000    0.7993896  -0.26222834  -0.26222834   0.93685376    1.1748418  -0.26222834    1.1990821   518400 
  623000   0.79895401  -0.26276626  -0.26276626   0.93566245    1.1726653  -0.26276626    1.1984287   518400 
  624000   0.79827601  -0.26239736  -0.26239736   0.93501435    1.1729313  -0.26239736    1.1974117   518400 
  625000    0.7995598  -0.26324373  -0.26324373   0.93609366    1.1738576  -0.26324373    1.1993374   518400 
  626000    0.7992707  -0.26265183  -0.26265183    0.9362519    1.1732148  -0.26265183    1.1989037   518400 
  627000   0.79913956  -0.26286109  -0.26286109   0.93584594     1.173344  -0.26286109     1.198707   518400 
  628000   0.80054728  -0.26308178  -0.26308178   0.93773683    1.1723374  -0.26308178    1.2008186   518400 
  629000   0.79901488  -0.26237575  -0.26237575   0.93614427    1.1735592  -0.26237575      1.19852   518400 
  630000   0.79984721  -0.26287014  -0.26287014   0.93689836    1.1727888  -0.26287014    1.1997685   518400 
  631000   0.79915096  -0.26275306  -0.26275306   0.93597106    1.1742791  -0.26275306    1.1987241   518400 
  632000   0.79763684  -0.26240641  -0.26240641   0.93404653    1.1730903  -0.26240641    1.1964529   518400 
  633000   0.80001142  -0.26264999  -0.26264999   0.93736483    1.1727874  -0.26264999    1.2000148   518400 
  634000    0.8003516  -0.26310419  -0.26310419   0.93742089    1.1724707  -0.26310419    1.2005251   518400 
  635000   0.79898936  -0.26222605  -0.26222605   0.93625568     1.173536  -0.26222605    1.1984817   518400 
  636000   0.79999149  -0.26288534  -0.26288534   0.93709958    1.1723123  -0.26288534    1.1999849   518400 
  637000   0.79876177  -0.26224474  -0.26224474    0.9358956    1.1741725  -0.26224474    1.1981403   518400 
  638000   0.79919266  -0.26239383  -0.26239383   0.93639285    1.1750489  -0.26239383    1.1987867   518400 
  639000   0.80016553  -0.26296785  -0.26296785   0.93727814    1.1738356  -0.26296785     1.200246   518400 
  640000   0.79953279  -0.26314171  -0.26314171   0.93615517    1.1710819  -0.26314171    1.1992969   518400 
  641000   0.80011819  -0.26238643  -0.26238643   0.93778855    1.1748406  -0.26238643     1.200175   518400 
  642000   0.80038458  -0.26266377  -0.26266377   0.93791079    1.1729758  -0.26266377    1.2005746   518400 
  643000   0.80130592  -0.26184972  -0.26184972   0.94010684    1.1761042  -0.26184972    1.2019566   518400 
  644000   0.80075546  -0.26200228  -0.26200228    0.9391286     1.174186  -0.26200228    1.2011309   518400 
  645000   0.80078743  -0.26280679  -0.26280679   0.93837203    1.1736454  -0.26280679    1.2011788   518400 
  646000   0.80223052  -0.26141864  -0.26141864   0.94192483    1.1777765  -0.26141864    1.2033435   518400 
  647000   0.80061721  -0.26218481  -0.26218481   0.93873868    1.1759394  -0.26218481    1.2009235   518400 
  648000   0.80129995  -0.26320498  -0.26320498   0.93874263    1.1733327  -0.26320498    1.2019476   518400 
  649000   0.80037616   -0.2620358   -0.2620358   0.93852613    1.1760363   -0.2620358    1.2005619   518400 
  650000   0.79927174  -0.26342815  -0.26342815   0.93547714    1.1712491  -0.26342815    1.1989053   518400 
  651000   0.79905363  -0.26211853  -0.26211853    0.9364596    1.1742954  -0.26211853    1.1985781   518400 
  652000   0.79852714  -0.26266109  -0.26266109    0.9351273    1.1740772  -0.26266109    1.1977884   518400 
  653000   0.79926947  -0.26050446  -0.26050446   0.93839744    1.1793773  -0.26050446    1.1989019   518400 
  654000   0.79972343  -0.26171159  -0.26171159   0.93787125    1.1748946  -0.26171159    1.1995828   518400 
  655000   0.80091473  -0.26277159  -0.26277159   0.93859819    1.1748036  -0.26277159    1.2013698   518400 
  656000    0.8009065  -0.26270024  -0.26270024    0.9386572    1.1740608  -0.26270024    1.2013574   518400 
  657000    0.8003478  -0.26254283  -0.26254283   0.93797655    1.1734476  -0.26254283    1.2005194   518400 
  658000   0.80054916  -0.26257382  -0.26257382    0.9382476    1.1740358  -0.26257382    1.2008214   518400 
  659000   0.80128972  -0.26305906  -0.26305906   0.93887321    1.1733434  -0.26305906    1.2019323   518400 
  660000    0.8003996  -0.26257227  -0.26257227   0.93802481    1.1768539  -0.26257227    1.2005971   518400 
  661000   0.79942337  -0.26184635  -0.26184635   0.93728639    1.1763626  -0.26184635    1.1991327   518400 
  662000   0.80112245  -0.26181505  -0.26181505    0.9398663    1.1773307  -0.26181505    1.2016814   518400 
  663000   0.79984632  -0.26281119  -0.26281119   0.93695597    1.1744177  -0.26281119    1.1997672   518400 
  664000   0.80088812  -0.26302998  -0.26302998   0.93829988    1.1721345  -0.26302998    1.2013299   518400 
  665000   0.79944171  -0.26242587  -0.26242587   0.93673438    1.1745733  -0.26242587    1.1991602   518400 
  666000   0.79790174  -0.26206462  -0.26206462   0.93478569    1.1739318  -0.26206462    1.1968503   518400 
  667000   0.79889745  -0.26253595  -0.26253595   0.93580791     1.174405  -0.26253595    1.1983439   518400 
  668000   0.80001515   -0.2627658   -0.2627658   0.93725462    1.1719077   -0.2627658    1.2000204   518400 
  669000   0.80020373  -0.26289051  -0.26289051   0.93741277    1.1736085  -0.26289051    1.2003033   518400 
  670000   0.80045742  -0.26250104  -0.26250104   0.93818277    1.1737883  -0.26250104    1.2006838   518400 
  671000   0.79907732  -0.26190563  -0.26190563   0.93670805     1.176076  -0.26190563    1.1986137   518400 
  672000   0.79860417  -0.26245474  -0.26245474   0.93544921    1.1748559  -0.26245474    1.1979039   518400 
  673000   0.80020853  -0.26302795  -0.26302795   0.93728253    1.1722254  -0.26302795    1.2003105   518400 
  674000   0.79987172  -0.26261963  -0.26261963   0.93718564    1.1725243  -0.26261963    1.1998053   518400 
  675000    0.7992004  -0.26351124  -0.26351124   0.93528705    1.1698092  -0.26351124    1.1987983   518400 
  676000   0.79973967  -0.26165219  -0.26165219     0.937955    1.1756545  -0.26165219    1.1996072   518400 
  677000   0.80000526  -0.26268999  -0.26268999   0.93731559     1.172348  -0.26268999    1.2000056   518400 
  678000   0.80007042  -0.26326533  -0.26326533   0.93683799    1.1718732  -0.26326533    1.2001033   518400 
  679000   0.79960334  -0.26239199  -0.26239199   0.93701071    1.1736962  -0.26239199    1.1994027   518400 
  680000   0.80056325  -0.26378913  -0.26378913   0.93705343    1.1690244  -0.26378913    1.2008426   518400 
  681000   0.79973522  -0.26165375  -0.26165375   0.93794676     1.177513  -0.26165375    1.1996005   518400 
  682000   0.80060774  -0.26338237  -0.26338237   0.93752693    1.1706163  -0.26338237    1.2009093   518400 
  683000   0.79980578  -0.26238311  -0.26238311   0.93732324    1.1740775  -0.26238311    1.1997064   518400 
  684000   0.80014087   -0.2631988   -0.2631988    0.9370102    1.1723868   -0.2631988     1.200209   518400 
  685000   0.80142417  -0.26246995  -0.26246995   0.93966398    1.1742531  -0.26246995    1.2021339   518400 
  686000   0.80122224  -0.26219273  -0.26219273   0.93963832    1.1766344  -0.26219273     1.201831   518400 
  687000   0.79897283  -0.26204192  -0.26204192   0.93641501    1.1753226  -0.26204192    1.1984569   518400 
  688000   0.79920087  -0.26208947  -0.26208947   0.93670952    1.1744608  -0.26208947     1.198799   518400 
  689000   0.80048168  -0.26193537  -0.26193537   0.93878484    1.1747934  -0.26193537    1.2007202   518400 
  690000   0.80014939  -0.26244117  -0.26244117    0.9377806    1.1729018  -0.26244117    1.2002218   518400 
  691000   0.80041038  -0.26180189  -0.26180189   0.93881137    1.1769997  -0.26180189    1.2006133   518400 
  692000   0.80068366  -0.26293058  -0.26293058    0.9380926    1.1705781  -0.26293058    1.2010232   518400 
  693000   0.80011572  -0.26315116  -0.26315116    0.9370201     1.171692  -0.26315116    1.2001713   518400 
  694000   0.80107412  -0.26186116  -0.26186116   0.93974769    1.1774298  -0.26186116    1.2016089   518400 
  695000   0.79964839  -0.26242267  -0.26242267    0.9370476    1.1742917  -0.26242267    1.1994703   518400 
  696000   0.79855903  -0.26230276  -0.26230276   0.93553348    1.1740581  -0.26230276    1.1978362   518400 
  697000   0.79919153  -0.26165142  -0.26165142   0.93713357    1.1765423  -0.26165142     1.198785   518400 
  698000   0.79916593  -0.26243844  -0.26243844   0.93630815    1.1739371  -0.26243844    1.1987466   518400 
  699000   0.80046802  -0.26298306  -0.26298306   0.93771665    1.1714024  -0.26298306    1.2006997   518400 
  700000   0.80202501  -0.26265338  -0.26265338   0.94038182      1.17569  -0.26265338    1.2030352   518400 
  701000   0.80047538  -0.26280008  -0.26280008   0.93791067    1.1719288  -0.26280008    1.2007108   518400 
  702000   0.80128305  -0.26205005  -0.26205005    0.9398722    1.1759242  -0.26205005    1.2019223   518400 
  703000   0.80100775  -0.26349624  -0.26349624   0.93801307    1.1714127  -0.26349624    1.2015093   518400 
  704000   0.80047811   -0.2629978   -0.2629978   0.93771705    1.1710451   -0.2629978    1.2007149   518400 
  705000   0.79940325  -0.26175646  -0.26175646    0.9373461    1.1760839  -0.26175646    1.1991026   518400 
  706000   0.79996964  -0.26293638  -0.26293638   0.93701576       1.1735  -0.26293638    1.1999521   518400 
  707000   0.80073481  -0.26242107  -0.26242107   0.93867884    1.1760768  -0.26242107    1.2010999   518400 
  708000   0.79978419  -0.26078657  -0.26078657    0.9388874    1.1801322  -0.26078657     1.199674   518400 
  709000      0.80037  -0.26381255  -0.26381255   0.93674014    1.1712317  -0.26381255    1.2005527   518400 
  710000    0.7997021  -0.26318127  -0.26318127   0.93636956    1.1717108  -0.26318127    1.1995508   518400 
  711000   0.79807649  -0.26320149  -0.26320149   0.93391094    1.1712915  -0.26320149    1.1971124   518400 
  712000   0.79975724  -0.26257794  -0.26257794   0.93705561    1.1742382  -0.26257794    1.1996335   518400 
  713000   0.80013122  -0.26312682  -0.26312682    0.9370677    1.1704902  -0.26312682    1.2001945   518400 
  714000   0.79972794  -0.26230551  -0.26230551   0.93728408    1.1731624  -0.26230551    1.1995896   518400 
  715000   0.79817507  -0.26229112  -0.26229112   0.93496918    1.1746063  -0.26229112    1.1972603   518400 
  716000   0.80040519  -0.26242402  -0.26242402   0.93818145    1.1762568  -0.26242402    1.2006055   518400 
  717000   0.79915194  -0.26141482  -0.26141482   0.93731077     1.179774  -0.26141482    1.1987256   518400 
  718000   0.79953053  -0.26231922  -0.26231922   0.93697425    1.1739356  -0.26231922    1.1992935   518400 
  719000   0.79794077  -0.26178196  -0.26178196   0.93512689    1.1730911  -0.26178196    1.1969089   518400 
  720000   0.79983126  -0.26208417  -0.26208417   0.93766041    1.1748581  -0.26208417    1.1997446   518400 
  721000   0.79973359  -0.26208737  -0.26208737    0.9375107    1.1738535  -0.26208737    1.1995981   518400 
  722000   0.79908748  -0.26103505  -0.26103505   0.93759386    1.1778801  -0.26103505    1.1986289   518400 
  723000   0.80031081  -0.26271242  -0.26271242   0.93775148     1.172516  -0.26271242    1.2004639   518400 
  724000   0.80022347  -0.26376408  -0.26376408    0.9365688     1.171506  -0.26376408    1.2003329   518400 
  725000   0.80062541  -0.26353137  -0.26353137   0.93740443    1.1702303  -0.26353137    1.2009358   518400 
  726000   0.80030112  -0.26234046  -0.26234046   0.93810891    1.1755785  -0.26234046    1.2004494   518400 
  727000   0.80103811  -0.26298592  -0.26298592   0.93856893    1.1736728  -0.26298592    1.2015548   518400 
  728000   0.80042512  -0.26173355  -0.26173355   0.93890182     1.177866  -0.26173355    1.2006354   518400 
  729000   0.80057082  -0.26382059  -0.26382059   0.93703331    1.1711923  -0.26382059    1.2008539   518400 
  730000   0.79999906  -0.26281966  -0.26281966   0.93717661    1.1725867  -0.26281966    1.1999963   518400 
  731000   0.80068681   -0.2624715   -0.2624715    0.9385564    1.1746331   -0.2624715    1.2010279   518400 
  732000   0.79993979  -0.26321472  -0.26321472   0.93669265    1.1715365  -0.26321472    1.1999074   518400 
  733000   0.79975948  -0.26260949  -0.26260949   0.93702742    1.1748535  -0.26260949    1.1996369   518400 
  734000   0.79989521  -0.26299497  -0.26299497   0.93684553    1.1724774  -0.26299497    1.1998405   518400 
  735000   0.80008099  -0.26252758  -0.26252758   0.93759159     1.174781  -0.26252758    1.2001192   518400 
  736000   0.79864441  -0.26273945  -0.26273945   0.93522485    1.1738009  -0.26273945    1.1979643   518400 
  737000   0.80068514  -0.26329313  -0.26329313   0.93773226    1.1697774  -0.26329313    1.2010254   518400 
  738000   0.79964924   -0.2625127   -0.2625127   0.93695885    1.1740283   -0.2625127    1.1994715   518400 
  739000   0.79955406  -0.26348562  -0.26348562   0.93584316    1.1720483  -0.26348562    1.1993288   518400 
  740000   0.79992793  -0.26275712  -0.26275712   0.93713246    1.1741375  -0.26275712    1.1998896   518400 
  741000   0.80085346  -0.26348935  -0.26348935   0.93778852    1.1705725  -0.26348935    1.2012779   518400 
  742000   0.80000898  -0.26342627  -0.26342627   0.93658488    1.1713293  -0.26342627    1.2000112   518400 
  743000   0.79996271  -0.26306622  -0.26306622   0.93687553    1.1725275  -0.26306622    1.1999417   518400 
  744000    0.7985469  -0.26192551  -0.26192551   0.93589253    1.1749393  -0.26192551     1.197818   518400 
  745000   0.79940869   -0.2623539   -0.2623539   0.93675682    1.1742702   -0.2623539    1.1991107   518400 
  746000   0.80024417  -0.26319345  -0.26319345   0.93717049    1.1730332  -0.26319345    1.2003639   518400 
  747000    0.7996673  -0.26215933  -0.26215933   0.93733931    1.1744655  -0.26215933    1.1994986   518400 
  748000   0.79919802  -0.26352305  -0.26352305   0.93527166    1.1720684  -0.26352305    1.1987947   518400 
  749000   0.80071406  -0.26336003  -0.26336003   0.93770874    1.1731295  -0.26336003    1.2010688   518400 
  750000   0.79851688  -0.26255074  -0.26255074   0.93522227    1.1748833  -0.26255074     1.197773   518400 
  751000   0.79948091  -0.26256604  -0.26256604   0.93665302    1.1726229  -0.26256604    1.1992191   518400 
  752000   0.79991064  -0.26228415  -0.26228415    0.9375795    1.1767043  -0.26228415    1.1998636   518400 
  753000   0.80182121  -0.26152081  -0.26152081   0.94120869    1.1803774  -0.26152081    1.2027295   518400 
  754000     0.799928  -0.26248205  -0.26248205   0.93740763    1.1746516  -0.26248205    1.1998897   518400 
  755000   0.79863676  -0.26275957  -0.26275957   0.93519325    1.1746642  -0.26275957    1.1979528   518400 
  756000   0.79960269  -0.26292087  -0.26292087   0.93648086    1.1720673  -0.26292087    1.1994017   518400 
  757000   0.79830253  -0.26344231  -0.26344231   0.93400918    1.1699295  -0.26344231    1.1974515   518400 
  758000   0.79905782  -0.26249073  -0.26249073   0.93609368     1.171142  -0.26249073    1.1985844   518400 
  759000   0.79996843  -0.26297044  -0.26297044   0.93697989     1.172794  -0.26297044    1.1999503   518400 
  760000   0.79909094  -0.26258439  -0.26258439   0.93604972    1.1729945  -0.26258439    1.1986341   518400 
  761000   0.79972784   -0.2618381   -0.2618381   0.93775135    1.1750899   -0.2618381    1.1995894   518400 
  762000   0.79951477  -0.26307662  -0.26307662   0.93619322     1.172968  -0.26307662    1.1992698   518400 
  763000   0.79896754  -0.26280213  -0.26280213   0.93564687    1.1721051  -0.26280213     1.198449   518400 
  764000   0.79955439  -0.26330022  -0.26330022   0.93602905    1.1713727  -0.26330022    1.1993293   518400 
  765000   0.79862818  -0.26176863  -0.26176863   0.93617133    1.1753587  -0.26176863      1.19794   518400 
  766000   0.79880897   -0.2628958   -0.2628958   0.93531535    1.1733034   -0.2628958    1.1982111   518400 
  767000   0.79958165  -0.26308252  -0.26308252   0.93628765    1.1719735  -0.26308252    1.1993702   518400 
  768000   0.80051465  -0.26255475  -0.26255475   0.93821492     1.174656  -0.26255475    1.2007697   518400 
  769000   0.80099987  -0.26095142  -0.26095142   0.94054606    1.1819601  -0.26095142    1.2014975   518400 
  770000   0.79961181  -0.26187844  -0.26187844   0.93753695     1.176702  -0.26187844    1.1994154   518400 
  771000   0.80089781  -0.26263668  -0.26263668   0.93870771    1.1737708  -0.26263668    1.2013444   518400 
  772000   0.80100724  -0.26251638  -0.26251638   0.93899216    1.1751226  -0.26251638    1.2015085   518400 
  773000    0.8009705  -0.26196301  -0.26196301   0.93949042    1.1771835  -0.26196301    1.2014534   518400 
  774000   0.80052507  -0.26229308  -0.26229308   0.93849221    1.1767092  -0.26229308    1.2007853   518400 
  775000   0.80118064  -0.26312731  -0.26312731   0.93864134    1.1732202  -0.26312731    1.2017686   518400 
  776000   0.80114081  -0.26271268  -0.26271268   0.93899622    1.1744582  -0.26271268    1.2017089   518400 
  777000   0.80039731   -0.2617372   -0.2617372   0.93885645    1.1775412   -0.2617372    1.2005937   518400 
  778000   0.79920296  -0.26275297  -0.26275297   0.93604915    1.1723042  -0.26275297    1.1988021   518400 
  779000    0.7997179   -0.2620665   -0.2620665   0.93750803    1.1751984   -0.2620665    1.1995745   518400 
  780000   0.80028283  -0.26256365  -0.26256365   0.93785827    1.1746118  -0.26256365    1.2004219   518400 
  781000   0.80201006   -0.2614657   -0.2614657   0.94154707    1.1788727   -0.2614657    1.2030128   518400 
  782000   0.80000996  -0.26199632  -0.26199632   0.93801631    1.1777843  -0.26199632    1.2000126   518400 
  783000   0.79993085  -0.26250262  -0.26250262   0.93739134    1.1745014  -0.26250262     1.199894   518400 
  784000   0.80035259  -0.26316728  -0.26316728    0.9373593    1.1727906  -0.26316728    1.2005266   518400 
  785000   0.80043276  -0.26241266  -0.26241266   0.93823416    1.1749851  -0.26241266    1.2006468   518400 
  786000   0.80031458  -0.26246249  -0.26246249   0.93800706    1.1742436  -0.26246249    1.2004695   518400 
  787000   0.80108626    -0.263076    -0.263076   0.93855108    1.1705728    -0.263076    1.2016271   518400 
  788000   0.80077067  -0.26202965  -0.26202965   0.93912404    1.1762708  -0.26202965    1.2011537   518400 
  789000   0.80056213   -0.2627167   -0.2627167   0.93812418    1.1744354   -0.2627167    1.2008409   518400 
  790000   0.79887156  -0.26262412  -0.26262412   0.93568091     1.175264  -0.26262412     1.198305   518400 
  791000   0.79886282  -0.26234523  -0.26234523   0.93594669    1.1761076  -0.26234523    1.1982919   518400 
  792000   0.79877679  -0.26326541  -0.26326541   0.93489746    1.1723169  -0.26326541    1.1981629   518400 
  793000   0.79951709  -0.26307886  -0.26307886   0.93619447    1.1737214  -0.26307886    1.1992733   518400 
  794000   0.79997471  -0.26304127  -0.26304127   0.93691847    1.1710476  -0.26304127    1.1999597   518400 
  795000   0.80024797  -0.26311923  -0.26311923   0.93725041    1.1705636  -0.26311923    1.2003696   518400 
  796000   0.79920311  -0.26234716  -0.26234716   0.93645519    1.1762056  -0.26234716    1.1988023   518400 
  797000   0.80022655  -0.26313483  -0.26313483   0.93720268     1.172778  -0.26313483    1.2003375   518400 
  798000   0.79916936  -0.26242753  -0.26242753    0.9363242    1.1738029  -0.26242753    1.1987517   518400 
  799000   0.80026271  -0.26212204  -0.26212204    0.9382697    1.1733934  -0.26212204    1.2003917   518400 
  800000   0.80129428  -0.26330222  -0.26330222   0.93863688      1.17264  -0.26330222    1.2019391   518400 
  801000   0.80100631  -0.26195739  -0.26195739   0.93954976    1.1773527  -0.26195739    1.2015071   518400 
  802000   0.80050581  -0.26167587  -0.26167587   0.93908053    1.1777012  -0.26167587    1.2007564   518400 
  803000   0.80149248  -0.26283611  -0.26283611    0.9394003    1.1729328  -0.26283611    1.2022364   518400 
  804000   0.80094532  -0.26181566  -0.26181566       0.9396    1.1771046  -0.26181566    1.2014157   518400 
  805000   0.79905319  -0.26284424  -0.26284424   0.93573324    1.1723267  -0.26284424    1.1985775   518400 
  806000   0.79904889   -0.2625177   -0.2625177   0.93605333    1.1752684   -0.2625177     1.198571   518400 
  807000   0.79915982  -0.26214522  -0.26214522    0.9365922    1.1749738  -0.26214522    1.1987374   518400 
  808000   0.79966661  -0.26219518  -0.26219518   0.93730241    1.1764565  -0.26219518    1.1994976   518400 
  809000   0.80003582  -0.26231161  -0.26231161    0.9377398    1.1765485  -0.26231161    1.2000514   518400 
  810000   0.79981557  -0.26247418  -0.26247418   0.93724686    1.1751165  -0.26247418     1.199721   518400 
  811000   0.79849471  -0.26312236  -0.26312236    0.9346174    1.1721528  -0.26312236    1.1977398   518400 
  812000   0.79963609  -0.26357981  -0.26357981     0.935872    1.1695964  -0.26357981    1.1994518   518400 
  813000   0.79897211  -0.26264126  -0.26264126    0.9358146    1.1743346  -0.26264126    1.1984559   518400 
  814000   0.79916306  -0.26341454  -0.26341454   0.93532774    1.1725053  -0.26341454    1.1987423   518400 
  815000   0.79976621   -0.2629996   -0.2629996    0.9366474    1.1709624   -0.2629996     1.199647   518400 
  816000    0.7999934   -0.2623924   -0.2623924   0.93759539    1.1736893   -0.2623924    1.1999878   518400 
  817000   0.79928786  -0.26217601  -0.26217601   0.93675347    1.1759516  -0.26217601    1.1989295   518400 
  818000   0.79958262  -0.26300325  -0.26300325   0.93636836    1.1714652  -0.26300325    1.1993716   518400 
  819000   0.79965154  -0.26426594  -0.26426594   0.93520905    1.1684955  -0.26426594     1.199475   518400 
  820000   0.79899327  -0.26218243  -0.26218243   0.93630517    1.1754804  -0.26218243    1.1984876   518400 
  821000   0.80052577   -0.2626645   -0.2626645   0.93812183    1.1714833   -0.2626645    1.2007863   518400 
  822000    0.7989475  -0.26234377  -0.26234377   0.93607517    1.1756378  -0.26234377    1.1984189   518400 
  823000   0.79896575  -0.26201129  -0.26201129   0.93643501    1.1768742  -0.26201129    1.1984463   518400 
  824000   0.80017356  -0.26292234  -0.26292234   0.93733569    1.1749772  -0.26292234     1.200258   518400 
  825000    0.8004659  -0.26200807  -0.26200807   0.93868846    1.1769647  -0.26200807    1.2006965   518400 
  826000   0.79912877  -0.26346803  -0.26346803   0.93522282     1.168342  -0.26346803    1.1986908   518400 
  827000   0.80027913  -0.26295325  -0.26295325   0.93746313    1.1718125  -0.26295325    1.2004164   518400 
  828000   0.80026521  -0.26187502  -0.26187502   0.93852048    1.1743481  -0.26187502    1.2003955   518400 
  829000   0.79977715  -0.26268954  -0.26268954   0.93697387    1.1752703  -0.26268954    1.1996634   518400 
  830000   0.79947938  -0.26348068  -0.26348068   0.93573607     1.171205  -0.26348068    1.1992168   518400 
  831000   0.79987293  -0.26173978  -0.26173978   0.93806729    1.1769345  -0.26173978    1.1998071   518400 
  832000   0.80062052  -0.26251381  -0.26251381   0.93841466    1.1752044  -0.26251381    1.2009285   518400 
  833000   0.80065303  -0.26215028  -0.26215028   0.93882695    1.1769756  -0.26215028    1.2009772   518400 
  834000    0.8007324  -0.26153361  -0.26153361   0.93956267    1.1786613  -0.26153361    1.2010963   518400 
  835000   0.80007291  -0.26207402  -0.26207402   0.93803304    1.1768345  -0.26207402    1.2001071   518400 
  836000   0.79902435  -0.26312196  -0.26312196   0.93541226    1.1724436  -0.26312196    1.1985342   518400 
  837000   0.79895059  -0.26253152  -0.26253152   0.93589205     1.175437  -0.26253152    1.1984236   518400 
  838000   0.79995504   -0.2614507   -0.2614507   0.93847954    1.1770637   -0.2614507    1.1999302   518400 
  839000   0.80053213  -0.26338134  -0.26338134   0.93741454    1.1717106  -0.26338134    1.2007959   518400 
  840000   0.80025237  -0.26264921  -0.26264921   0.93772704      1.17405  -0.26264921    1.2003762   518400 
  841000   0.79872033  -0.26212015  -0.26212015   0.93595804    1.1752096  -0.26212015    1.1980782   518400 
  842000   0.79972423  -0.26331859  -0.26331859   0.93626544    1.1702998  -0.26331859     1.199584   518400 
  843000   0.79884066  -0.26333353  -0.26333353   0.93492514    1.1724383  -0.26333353    1.1982587   518400 
  844000   0.79877468  -0.26157628  -0.26157628   0.93658344    1.1766012  -0.26157628    1.1981597   518400 
  845000   0.79891187  -0.26288723  -0.26288723   0.93547826    1.1704076  -0.26288723    1.1983655   518400 
  846000   0.79996443  -0.26216708  -0.26216708   0.93777725      1.17647  -0.26216708    1.1999443   518400 
  847000   0.79949626   -0.2609315   -0.2609315   0.93831057     1.180262   -0.2609315    1.1992421   518400 
  848000   0.79983082  -0.26277333  -0.26277333   0.93697059    1.1739567  -0.26277333    1.1997439   518400 
  849000     0.799141  -0.26142934  -0.26142934   0.93727984    1.1785831  -0.26142934    1.1987092   518400 
  850000   0.80080898  -0.26146148  -0.26146148   0.93974968    1.1780121  -0.26146148    1.2012112   518400 
  851000   0.80053427  -0.26295823  -0.26295823   0.93784086    1.1731382  -0.26295823    1.2007991   518400 
  852000   0.80123765    -0.262323    -0.262323   0.93953116    1.1744291    -0.262323    1.2018542   518400 
  853000   0.80158595  -0.26347768  -0.26347768   0.93889893    1.1716245  -0.26347768    1.2023766   518400 
  854000   0.80021393  -0.26218229  -0.26218229   0.93813629    1.1742673  -0.26218229    1.2003186   518400 
  855000   0.80255016  -0.26367263  -0.26367263   0.94015028    1.1703217  -0.26367263    1.2038229   518400 
  856000   0.79962236  -0.26214684  -0.26214684   0.93728438    1.1744857  -0.26214684    1.1994312   518400 
  857000   0.80103895  -0.26231631  -0.26231631   0.93923979    1.1761195  -0.26231631    1.2015561   518400 
  858000    0.8001743  -0.26118659  -0.26118659   0.93907254     1.178032  -0.26118659    1.2002591   518400 
  859000   0.80041637  -0.26251655  -0.26251655   0.93810569    1.1742381  -0.26251655    1.2006222   518400 
  860000   0.80067704   -0.2634388   -0.2634388   0.93757443     1.171324   -0.2634388    1.2010132   518400 
  861000   0.80129473  -0.26208039  -0.26208039   0.93985939    1.1784969  -0.26208039    1.2019398   518400 
  862000   0.79958554  -0.26241856  -0.26241856   0.93695744    1.1742065  -0.26241856     1.199376   518400 
  863000   0.80004419  -0.26219343  -0.26219343   0.93787054    1.1773565  -0.26219343     1.200064   518400 
  864000   0.79978253  -0.26436074  -0.26436074   0.93531074    1.1683506  -0.26436074    1.1996715   518400 
  865000   0.79822566  -0.26265739  -0.26265739   0.93467879     1.172455  -0.26265739    1.1973362   518400 
  866000   0.80003753  -0.26298084  -0.26298084   0.93707313    1.1734281  -0.26298084     1.200054   518400 
  867000   0.80026275  -0.26248119  -0.26248119   0.93791062    1.1761956  -0.26248119    1.2003918   518400 
  868000   0.79992982  -0.26218317  -0.26218317   0.93770925    1.1764009  -0.26218317    1.1998924   518400 
  869000   0.80290707  -0.26321806  -0.26321806   0.94114023    1.1727426  -0.26321806    1.2043583   518400 
  870000   0.80068543  -0.26244688  -0.26244688   0.93857895    1.1746142  -0.26244688    1.2010258   518400 
  871000   0.80017496  -0.26323886  -0.26323886   0.93702126    1.1735994  -0.26323886    1.2002601   518400 
  872000   0.79885397  -0.26242843  -0.26242843   0.93585022    1.1751653  -0.26242843    1.1982786   518400 
  873000   0.80002739  -0.26389323  -0.26389323   0.93614555    1.1699939  -0.26389323    1.2000388   518400 
  874000   0.80120986  -0.26339054  -0.26339054   0.93842193    1.1711423  -0.26339054    1.2018125   518400 
  875000    0.8009448  -0.26257104  -0.26257104   0.93884385    1.1746218  -0.26257104    1.2014149   518400 
  876000   0.80172638  -0.26295196  -0.26295196   0.93963529    1.1735545  -0.26295196    1.2025872   518400 
  877000   0.80039769   -0.2614333   -0.2614333   0.93916092    1.1778279   -0.2614333    1.2005942   518400 
  878000   0.79984697  -0.26221252  -0.26221252   0.93755563    1.1760451  -0.26221252    1.1997681   518400 
  879000   0.80066486  -0.26236615  -0.26236615   0.93862882    1.1755284  -0.26236615     1.200995   518400 
  880000   0.80151435  -0.26293966  -0.26293966   0.93932954    1.1740146  -0.26293966    1.2022692   518400 
  881000    0.8012056  -0.26383275  -0.26383275   0.93797333    1.1702841  -0.26383275    1.2018061   518400 
  882000   0.80083792  -0.26351369  -0.26351369   0.93774087     1.171498  -0.26351369    1.2012546   518400 
  883000   0.79896196  -0.26301785  -0.26301785   0.93542278    1.1737254  -0.26301785    1.1984406   518400 
  884000   0.80159789  -0.26295849  -0.26295849   0.93943603     1.172422  -0.26295849    1.2023945   518400 
  885000   0.79972486  -0.26156372  -0.26156372   0.93802127    1.1772651  -0.26156372     1.199585   518400 
  886000   0.80122913  -0.26372335  -0.26372335   0.93811803     1.171608  -0.26372335    1.2018414   518400 
  887000   0.80049829   -0.2628442   -0.2628442   0.93790092    1.1728678   -0.2628442    1.2007451   518400 
  888000   0.79893498  -0.26192112  -0.26192112   0.93647903    1.1775088  -0.26192112    1.1984002   518400 
  889000   0.79971842  -0.26435984  -0.26435984   0.93521547    1.1695996  -0.26435984    1.1995753   518400 
  890000   0.79889369  -0.26240501  -0.26240501   0.93593321    1.1752751  -0.26240501    1.1983382   518400 
  891000   0.80128102  -0.26230453  -0.26230453   0.93961468     1.175383  -0.26230453    1.2019192   518400 
  892000    0.7990622  -0.26129385  -0.26129385   0.93729713     1.177297  -0.26129385     1.198591   518400 
  893000   0.79842555  -0.26201217  -0.26201217   0.93562384    1.1756694  -0.26201217     1.197636   518400 
  894000   0.80078768  -0.26423679  -0.26423679   0.93694241    1.1698597  -0.26423679    1.2011792   518400 
  895000   0.79965493  -0.26305997  -0.26305997   0.93642011    1.1724985  -0.26305997    1.1994801   518400 
  896000   0.80000738  -0.26300729  -0.26300729   0.93700147     1.172715  -0.26300729    1.2000088   518400 
  897000   0.80061084  -0.26291205  -0.26291205    0.9380019    1.1716828  -0.26291205     1.200914   518400 
  898000   0.80061631  -0.26167711  -0.26167711   0.93924503    1.1781783  -0.26167711    1.2009221   518400 
  899000   0.79927262  -0.26279507  -0.26279507   0.93611155    1.1731498  -0.26279507    1.1989066   518400 
  900000   0.79923795  -0.26198724  -0.26198724   0.93686738     1.175833  -0.26198724    1.1988546   518400 
  901000   0.79984376  -0.26271519  -0.26271519   0.93704814    1.1723299  -0.26271519    1.1997633   518400 
  902000   0.80047625  -0.26277914  -0.26277914   0.93793292    1.1728768  -0.26277914    1.2007121   518400 
  903000   0.80032016  -0.26264415  -0.26264415   0.93783378    1.1755716  -0.26264415    1.2004779   518400 
  904000   0.80078894  -0.26361102  -0.26361102   0.93757007    1.1725768  -0.26361102    1.2011811   518400 
  905000   0.80084825  -0.26290829  -0.26290829   0.93836177    1.1750085  -0.26290829    1.2012701   518400 
  906000   0.80132677  -0.26268465  -0.26268465   0.93930318    1.1752906  -0.26268465    1.2019878   518400 
  907000   0.79914046  -0.26316536  -0.26316536   0.93554301    1.1727579  -0.26316536    1.1987084   518400 
  908000   0.79933826   -0.2629628   -0.2629628   0.93604227    1.1724195   -0.2629628    1.1990051   518400 
  909000   0.79843056  -0.26310097  -0.26310097   0.93454256    1.1726902  -0.26310097    1.1976435   518400 
  910000   0.79969506  -0.26280588  -0.26280588   0.93673439    1.1740289  -0.26280588    1.1995403   518400 
  911000   0.80016164  -0.26233188  -0.26233188   0.93790826     1.176345  -0.26233188    1.2002401   518400 
  912000   0.80059769   -0.2632696   -0.2632696   0.93762463    1.1716338   -0.2632696    1.2008942   518400 
  913000   0.79999805  -0.26242043  -0.26242043   0.93757434    1.1732633  -0.26242043    1.1999948   518400 
  914000   0.80114101  -0.26333319  -0.26333319     0.938376    1.1743208  -0.26333319    1.2017092   518400 
  915000   0.80228383  -0.26310847  -0.26310847   0.94031495    1.1738073  -0.26310847    1.2034234   518400 
  916000   0.80023184  -0.26238135  -0.26238135   0.93796411    1.1762301  -0.26238135    1.2003455   518400 
  917000   0.79864992  -0.26341124  -0.26341124   0.93456133    1.1699882  -0.26341124    1.1979726   518400 
  918000   0.79906663  -0.26252768  -0.26252768   0.93606996    1.1765568  -0.26252768    1.1985976   518400 
  919000   0.79995842  -0.26183173  -0.26183173   0.93810359    1.1770296  -0.26183173    1.1999353   518400 
  920000   0.80126631  -0.26336463  -0.26336463   0.93853252    1.1727666  -0.26336463    1.2018971   518400 
  921000   0.80131469  -0.26388688  -0.26388688   0.93808284    1.1708838  -0.26388688    1.2019697   518400 
  922000   0.80173253  -0.26268454  -0.26268454   0.93991193    1.1738412  -0.26268454    1.2025965   518400 
  923000   0.80113702  -0.26268836  -0.26268836   0.93901485    1.1749514  -0.26268836    1.2017032   518400 
  924000   0.80036363  -0.26286937  -0.26286937   0.93767375    1.1742931  -0.26286937    1.2005431   518400 
  925000   0.80070643  -0.26300998  -0.26300998   0.93804735    1.1735535  -0.26300998    1.2010573   518400 
  926000    0.8005071  -0.26237671  -0.26237671   0.93838162     1.176001  -0.26237671    1.2007583   518400 
  927000   0.80033663  -0.26255867  -0.26255867   0.93794396    1.1763134  -0.26255867    1.2005026   518400 
  928000   0.80037723  -0.26278911  -0.26278911   0.93777442    1.1745116  -0.26278911    1.2005635   518400 
  929000   0.80129088  -0.26332409  -0.26332409   0.93860991    1.1730849  -0.26332409     1.201934   518400 
  930000   0.80060527  -0.26324329  -0.26324329   0.93766229    1.1712814  -0.26324329    1.2009056   518400 
  931000   0.80091926  -0.26308642  -0.26308642   0.93829015    1.1717528  -0.26308642    1.2013766   518400 
  932000   0.80197486  -0.26193227  -0.26193227    0.9410277    1.1783513  -0.26193227      1.20296   518400 
  933000   0.80067336   -0.2628362   -0.2628362   0.93817152    1.1741026   -0.2628362    1.2010077   518400 
  934000    0.8000648  -0.26475806  -0.26475806   0.93533682    1.1682518  -0.26475806    1.2000949   518400 
  935000   0.79981518  -0.26304419  -0.26304419   0.93667627    1.1726298  -0.26304419    1.1997205   518400 
  936000   0.79924928  -0.26369096  -0.26369096   0.93518064    1.1727937  -0.26369096    1.1988716   518400 
  937000   0.79880589  -0.26278373  -0.26278373   0.93542279    1.1745154  -0.26278373    1.1982065   518400 
  938000   0.79993451  -0.26399594  -0.26399594    0.9359035    1.1705322  -0.26399594    1.1998994   518400 
  939000   0.79936459  -0.26294526  -0.26294526   0.93609931    1.1737631  -0.26294526    1.1990446   518400 
  940000   0.79785572  -0.26323862  -0.26323862   0.93354265    1.1713175  -0.26323862    1.1967813   518400 
  941000   0.79893975  -0.26165156  -0.26165156   0.93675576    1.1766902  -0.26165156    1.1984073   518400 
  942000   0.79971744  -0.26232859  -0.26232859   0.93724525    1.1757954  -0.26232859    1.1995738   518400 
  943000   0.80018657  -0.26402808  -0.26402808   0.93624946    1.1699672  -0.26402808    1.2002775   518400 
  944000   0.79970274  -0.26218599  -0.26218599    0.9373658     1.175454  -0.26218599    1.1995518   518400 
  945000   0.79960512  -0.26215818  -0.26215818   0.93724719    1.1750894  -0.26215818    1.1994054   518400 
  946000   0.80132054  -0.26270929  -0.26270929   0.93926919    1.1758074  -0.26270929    1.2019785   518400 
  947000   0.80131072  -0.26327012  -0.26327012   0.93869364    1.1743255  -0.26327012    1.2019638   518400 
  948000   0.80146003  -0.26368236  -0.26368236   0.93850536    1.1729195  -0.26368236    1.2021877   518400 
  949000   0.80010348  -0.26265758  -0.26265758   0.93749533    1.1745961  -0.26265758    1.2001529   518400 
  950000   0.80061575  -0.26339931  -0.26339931   0.93752199    1.1723884  -0.26339931    1.2009213   518400 
  951000   0.79875686  -0.26260828  -0.26260828    0.9355247     1.174648  -0.26260828     1.198133   518400 
  952000    0.7989913  -0.26331079  -0.26331079   0.93517385    1.1720659  -0.26331079    1.1984846   518400 
  953000   0.80018659  -0.26373231  -0.26373231   0.93654526    1.1707775  -0.26373231    1.2002776   518400 
  954000   0.79960529  -0.26365816  -0.26365816   0.93574745    1.1709384  -0.26365816    1.1994056   518400 
  955000   0.79821868   -0.2631193   -0.2631193   0.93420642    1.1719042   -0.2631193    1.1973257   518400 
  956000   0.79864915  -0.26188641  -0.26188641     0.936085    1.1749513  -0.26188641    1.1979714   518400 
  957000   0.79973133  -0.26342344  -0.26342344   0.93617123    1.1731294  -0.26342344    1.1995947   518400 
  958000   0.79964759  -0.26307148  -0.26307148   0.93639759    1.1736708  -0.26307148    1.1994691   518400 
  959000   0.79964592  -0.26302235  -0.26302235   0.93644421    1.1749316  -0.26302235    1.1994666   518400 
  960000    0.7991255  -0.26300392  -0.26300392   0.93568201    1.1722378  -0.26300392    1.1986859   518400 
  961000   0.79991938   -0.2633856   -0.2633856   0.93649115    1.1699006   -0.2633856    1.1998768   518400 
  962000   0.79964521  -0.26219857  -0.26219857   0.93726694     1.176332  -0.26219857    1.1994655   518400 
  963000    0.8007362   -0.2618471   -0.2618471   0.93925489      1.17751   -0.2618471     1.201102   518400 
  964000   0.79825539  -0.26242236  -0.26242236   0.93495841    1.1758675  -0.26242236    1.1973808   518400 
  965000   0.79955166  -0.26284111  -0.26284111   0.93648406    1.1724692  -0.26284111    1.1993252   518400 
  966000   0.79926054  -0.26256219  -0.26256219    0.9363263    1.1754145  -0.26256219    1.1988885   518400 
  967000   0.79955848  -0.26311152  -0.26311152   0.93622388    1.1729568  -0.26311152    1.1993354   518400 
  968000   0.79962752   -0.2624399   -0.2624399   0.93699906    1.1747406   -0.2624399     1.199439   518400 
  969000   0.80012511  -0.26296622  -0.26296622   0.93721913     1.173554  -0.26296622    1.2001854   518400 
  970000   0.79997589  -0.26297972  -0.26297972    0.9369818    1.1750921  -0.26297972    1.1999615   518400 
  971000   0.79970009   -0.2629053   -0.2629053   0.93664252    1.1724978   -0.2629053    1.1995478   518400 
  972000   0.80023907  -0.26233387  -0.26233387   0.93802242      1.17621  -0.26233387    1.2003563   518400 
  973000   0.80126777  -0.26210049  -0.26210049   0.93979884    1.1778629  -0.26210049    1.2018993   518400 
  974000   0.80003985  -0.26236746  -0.26236746      0.93769    1.1746166  -0.26236746    1.2000575   518400 
  975000   0.80047205  -0.26262425  -0.26262425   0.93808151    1.1735061  -0.26262425    1.2007058   518400 
  976000   0.80053505   -0.2628167   -0.2628167   0.93798356    1.1745096   -0.2628167    1.2008003   518400 
  977000   0.79999712  -0.26259285  -0.26259285   0.93740052    1.1752295  -0.26259285    1.1999934   518400 
  978000   0.79893635  -0.26290188  -0.26290188   0.93550033    1.1730389  -0.26290188    1.1984022   518400 
  979000   0.80008275  -0.26381028  -0.26381028   0.93631153    1.1719781  -0.26381028    1.2001218   518400 
  980000   0.79875901  -0.26281399  -0.26281399   0.93532221    1.1741775  -0.26281399    1.1981362   518400 
  981000   0.80029127  -0.26144671  -0.26144671   0.93898788    1.1776687  -0.26144671    1.2004346   518400 
  982000   0.80087971  -0.26259119  -0.26259119   0.93872605    1.1749226  -0.26259119    1.2013172   518400 
  983000   0.79916567  -0.26278052  -0.26278052   0.93596567    1.1714134  -0.26278052    1.1987462   518400 
  984000   0.79862001  -0.26256773  -0.26256773   0.93535997    1.1733634  -0.26256773    1.1979277   518400 
  985000   0.79976889  -0.26314376  -0.26314376   0.93650726    1.1742995  -0.26314376     1.199651   518400 
  986000   0.80026827  -0.26355362  -0.26355362   0.93684647    1.1719844  -0.26355362    1.2004001   518400 
  987000   0.79927433  -0.26419729  -0.26419729    0.9347119    1.1667774  -0.26419729    1.1989092   518400 
  988000   0.79973697  -0.26337711  -0.26337711   0.93622602    1.1716701  -0.26337711    1.1996031   518400 
  989000   0.80006496  -0.26321089  -0.26321089   0.93688423    1.1718691  -0.26321089    1.2000951   518400 
  990000   0.79852495  -0.26214728  -0.26214728   0.93563783    1.1761704  -0.26214728    1.1977851   518400 
  991000   0.79896952   -0.2638845   -0.2638845   0.93456747     1.168883   -0.2638845     1.198452   518400 
  992000    0.8003463  -0.26336991  -0.26336991   0.93714723    1.1727044  -0.26336991    1.2005171   518400 
  993000   0.79986755  -0.26335034  -0.26335034   0.93644868    1.1717946  -0.26335034     1.199799   518400 
  994000   0.79864166  -0.26229685  -0.26229685   0.93566333    1.1763441  -0.26229685    1.1979602   518400 
  995000   0.80095168  -0.26357329  -0.26357329   0.93785192     1.172456  -0.26357329    1.2014252   518400 
  996000   0.80037813   -0.2620066   -0.2620066   0.93855827     1.177011   -0.2620066    1.2005649   518400 
  997000   0.80098764  -0.26329885  -0.26329885   0.93818029    1.1743488  -0.26329885    1.2014791   518400 
  998000   0.80043243  -0.26163438  -0.26163438   0.93901195    1.1781937  -0.26163438    1.2006463   518400 
  999000   0.80161564  -0.26223198  -0.26223198   0.94018916    1.1773469  -0.26223198    1.2024211   518400 
 1000000   0.80005182  -0.26220027  -0.26220027   0.93787514    1.1758008  -0.26220027    1.2000754   518400 
 1001000   0.80027176    -0.261637    -0.261637   0.93876833     1.178256    -0.261637    1.2004053   518400 
 1002000   0.80147344  -0.26285596  -0.26285596   0.93935188     1.174832  -0.26285596    1.2022078   518400 
 1003000   0.80066702  -0.26221601  -0.26221601   0.93878221    1.1765607  -0.26221601    1.2009982   518400 
 1004000   0.80027836  -0.26252481  -0.26252481   0.93789041     1.175162  -0.26252481    1.2004152   518400 
 1005000    0.8010534   -0.2624333   -0.2624333   0.93914448    1.1758789   -0.2624333    1.2015778   518400 
 1006000   0.80038879     -0.26387     -0.26387   0.93671087    1.1711809     -0.26387    1.2005809   518400 
 1007000   0.80110454  -0.26344483  -0.26344483   0.93820966    1.1736029  -0.26344483    1.2016545   518400 
 1008000    0.7997097  -0.26233332  -0.26233332   0.93722892     1.176622  -0.26233332    1.1995622   518400 
 1009000    0.8000613  -0.26288317  -0.26288317   0.93720646    1.1735981  -0.26288317    1.2000896   518400 
 1010000   0.79978617  -0.26340785  -0.26340785   0.93626909    1.1722304  -0.26340785    1.1996769   518400 
 1011000   0.79948197  -0.26328718  -0.26328718   0.93593347    1.1732182  -0.26328718    1.1992206   518400 
 1012000   0.80026694  -0.26307676  -0.26307676   0.93732134     1.173317  -0.26307676    1.2003981   518400 
 1013000   0.79838019  -0.26211328  -0.26211328   0.93545469    1.1762606  -0.26211328     1.197568   518400 
 1014000   0.79918415   -0.2619778   -0.2619778   0.93679611    1.1763037   -0.2619778    1.1987739   518400 
 1015000   0.79987032  -0.26374206  -0.26374206   0.93606112    1.1706786  -0.26374206    1.1998032   518400 
 1016000   0.79916849  -0.26384846  -0.26384846   0.93490196    1.1696725  -0.26384846    1.1987504   518400 
 1017000    0.7992262  -0.26259306  -0.26259306   0.93624392    1.1735648  -0.26259306     1.198837   518400 
 1018000   0.79851656  -0.26243527  -0.26243527   0.93533726    1.1752038  -0.26243527    1.1977725   518400 
 1019000   0.79933916  -0.26347503  -0.26347503   0.93553139     1.171769  -0.26347503    1.1990064   518400 
 1020000   0.79975214  -0.26350841  -0.26350841   0.93611749    1.1734858  -0.26350841    1.1996259   518400 
 1021000   0.80097474  -0.26476022  -0.26476022   0.93669957    1.1680653  -0.26476022    1.2014598   518400 
 1022000   0.79953596  -0.26194187  -0.26194187   0.93735976    1.1757023  -0.26194187    1.1993016   518400 
 1023000   0.80112576  -0.26285667  -0.26285667   0.93882965    1.1731169  -0.26285667    1.2016863   518400 
 1024000   0.80142257  -0.26311797  -0.26311797   0.93901357    1.1738732  -0.26311797    1.2021315   518400 
 1025000   0.80101592  -0.26388994  -0.26388994   0.93763163    1.1722719  -0.26388994    1.2015216   518400 
 1026000   0.79984094  -0.26238761  -0.26238761   0.93737149    1.1746554  -0.26238761    1.1997591   518400 
 1027000   0.80046556  -0.26277655  -0.26277655   0.93791948    1.1744284  -0.26277655     1.200696   518400 
 1028000   0.79882945  -0.26387919  -0.26387919   0.93436267    1.1691744  -0.26387919    1.1982419   518400 
 1029000   0.79964791  -0.26280764  -0.26280764   0.93666191    1.1753861  -0.26280764    1.1994695   518400 
 1030000   0.79852134  -0.26333823  -0.26333823   0.93444147    1.1728634  -0.26333823    1.1977797   518400 
 1031000     0.798904  -0.26255068  -0.26255068     0.935803    1.1755871  -0.26255068    1.1983537   518400 
 1032000   0.79898509  -0.26180151  -0.26180151   0.93667381    1.1768876  -0.26180151    1.1984753   518400 
 1033000   0.80101294  -0.26288368  -0.26288368   0.93863341    1.1737575  -0.26288368    1.2015171   518400 
 1034000   0.80127204  -0.26208518  -0.26208518   0.93982057    1.1754755  -0.26208518    1.2019057   518400 
 1035000   0.80095229  -0.26370752  -0.26370752   0.93771861    1.1710182  -0.26370752    1.2014261   518400 
 1036000   0.80162311  -0.26329469  -0.26329469   0.93913766    1.1732811  -0.26329469    1.2024323   518400 
 1037000   0.80039799  -0.26268421  -0.26268421   0.93791045    1.1735286  -0.26268421    1.2005947   518400 
 1038000   0.79832283  -0.26177391  -0.26177391   0.93570802    1.1748306  -0.26177391    1.1974819   518400 
 1039000   0.79861844  -0.26383653  -0.26383653   0.93408882    1.1696179  -0.26383653    1.1979254   518400 
 1040000   0.79989203  -0.26357525  -0.26357525   0.93626047     1.171977  -0.26357525    1.1998357   518400 
 1041000   0.79937116  -0.26380024  -0.26380024   0.93525418    1.1711569  -0.26380024    1.1990544   518400 
 1042000   0.79804698  -0.26369272  -0.26369272   0.93337544     1.169581  -0.26369272    1.1970682   518400 
 1043000   0.79941889   -0.2632311   -0.2632311   0.93589493    1.1724313   -0.2632311     1.199126   518400 
 1044000   0.79920578  -0.26309954  -0.26309954   0.93570682    1.1731376  -0.26309954    1.1988064   518400 
 1045000   0.79928915  -0.26280465  -0.26280465   0.93612676    1.1742389  -0.26280465    1.1989314   518400 
 1046000   0.80037265  -0.26294991  -0.26294991   0.93760675    1.1732835  -0.26294991    1.2005567   518400 
 1047000   0.80197598  -0.26287074  -0.26287074   0.94009091    1.1743367  -0.26287074    1.2029617   518400 
 1048000   0.79953107  -0.26205982  -0.26205982   0.93723448    1.1761735  -0.26205982    1.1992943   518400 
 1049000   0.79940336  -0.26185572  -0.26185572   0.93724701    1.1797459  -0.26185572    1.1991027   518400 
 1050000   0.80069012  -0.26351308  -0.26351308   0.93751978    1.1724309  -0.26351308    1.2010329   518400 
 1051000   0.80109875  -0.26245584  -0.26245584   0.93918997    1.1756349  -0.26245584    1.2016458   518400 
 1052000   0.80054625  -0.26348126  -0.26348126   0.93733579    1.1726873  -0.26348126    1.2008171   518400 
 1053000   0.79886209  -0.26250766  -0.26250766   0.93578317    1.1740636  -0.26250766    1.1982908   518400 
 1054000    0.7994088  -0.26297013  -0.26297013   0.93614075    1.1745702  -0.26297013    1.1991109   518400 
 1055000    0.7998317  -0.26308163  -0.26308163    0.9366636    1.1742391  -0.26308163    1.1997452   518400 
 1056000   0.79882587  -0.26243664  -0.26243664   0.93579985    1.1760171  -0.26243664    1.1982365   518400 
 1057000   0.79962708  -0.26387422  -0.26387422    0.9355641    1.1686455  -0.26387422    1.1994383   518400 
 1058000   0.80031252  -0.26322059  -0.26322059   0.93724588    1.1720376  -0.26322059    1.2004665   518400 
 1059000   0.80071501  -0.26148253  -0.26148253   0.93958767    1.1788436  -0.26148253    1.2010702   518400 
 1060000    0.8005231  -0.26282738  -0.26282738   0.93795495    1.1765398  -0.26282738    1.2007823   518400 
 1061000   0.80040982  -0.26407944  -0.26407944   0.93653298    1.1691074  -0.26407944    1.2006124   518400 
 1062000   0.79795867  -0.26255665  -0.26255665   0.93437905    1.1738992  -0.26255665    1.1969357   518400 
 1063000   0.79921413  -0.26212976  -0.26212976   0.93668912    1.1760329  -0.26212976    1.1988189   518400 
 1064000   0.79970483   -0.2627973   -0.2627973   0.93675764    1.1720061   -0.2627973    1.1995549   518400 
 1065000   0.80037333   -0.2640828   -0.2640828   0.93647488    1.1718896   -0.2640828    1.2005577   518400 
 1066000   0.79715598   -0.2635268   -0.2635268   0.93220486     1.171762   -0.2635268    1.1957317   518400 
 1067000   0.79972407  -0.26286739  -0.26286739    0.9367164    1.1737834  -0.26286739    1.1995838   518400 
 1068000   0.79893682  -0.26351293  -0.26351293   0.93488999    1.1722428  -0.26351293    1.1984029   518400 
 1069000   0.79989976  -0.26444288  -0.26444288   0.93540445    1.1677166  -0.26444288    1.1998473   518400 
 1070000   0.79968219   -0.2627943   -0.2627943   0.93672666    1.1758486   -0.2627943     1.199521   518400 
 1071000   0.80038417  -0.26179207  -0.26179207   0.93878186    1.1765128  -0.26179207    1.2005739   518400 
 1072000   0.80102314  -0.26204628  -0.26204628   0.93948611    1.1772292  -0.26204628    1.2015324   518400 
 1073000   0.79996364  -0.26375665  -0.26375665   0.93618649    1.1717049  -0.26375665    1.1999431   518400 
 1074000   0.79836463  -0.26348058  -0.26348058   0.93406405     1.172461  -0.26348058    1.1975446   518400 
 1075000   0.79944939  -0.26283976  -0.26283976   0.93633202    1.1736062  -0.26283976    1.1991718   518400 
 1076000   0.80028234  -0.26261693  -0.26261693   0.93780426    1.1750008  -0.26261693    1.2004212   518400 
 1077000   0.79960328  -0.26226515  -0.26226515   0.93713746    1.1761133  -0.26226515    1.1994026   518400 
 1078000   0.79942056  -0.26210538  -0.26210538   0.93702315    1.1765662  -0.26210538    1.1991285   518400 
 1079000   0.79859328  -0.26367185  -0.26367185   0.93421576    1.1688574  -0.26367185    1.1978876   518400 
 1080000   0.79987555    -0.263593    -0.263593   0.93621801    1.1731891    -0.263593     1.199811   518400 
 1081000    0.7991441  -0.26303881  -0.26303881   0.93567503    1.1728684  -0.26303881    1.1987138   518400 
 1082000   0.79888309  -0.26351013  -0.26351013   0.93481219    1.1720889  -0.26351013    1.1983223   518400 
 1083000   0.79947492  -0.26337223  -0.26337223   0.93583785    1.1701639  -0.26337223    1.1992101   518400 
 1084000   0.79841962  -0.26323787  -0.26323787   0.93438926     1.171355  -0.26323787    1.1976271   518400 
 1085000   0.79921589  -0.26258734  -0.26258734   0.93623418    1.1749404  -0.26258734    1.1988215   518400 
 1086000   0.79958554  -0.26201313  -0.26201313   0.93736286     1.177351  -0.26201313     1.199376   518400 
 1087000   0.80003332   -0.2623279   -0.2623279   0.93771976    1.1743389   -0.2623279    1.2000477   518400 
 1088000   0.80049532  -0.26298322  -0.26298322   0.93775744    1.1742857  -0.26298322    1.2007407   518400 
 1089000   0.80038156  -0.26252739  -0.26252739   0.93804264    1.1760467  -0.26252739      1.20057   518400 
 1090000    0.8014988  -0.26234515  -0.26234515   0.93990073    1.1776071  -0.26234515    1.2022459   518400 
 1091000   0.80049574  -0.26248793  -0.26248793   0.93825336    1.1763283  -0.26248793    1.2007413   518400 
 1092000   0.79944093  -0.26277873  -0.26277873   0.93638035    1.1750558  -0.26277873    1.1991591   518400 
 1093000   0.79914763  -0.26230307  -0.26230307   0.93641607    1.1759856  -0.26230307    1.1987191   518400 
 1094000   0.79954987   -0.2633587   -0.2633587    0.9359638    1.1726907   -0.2633587    1.1993225   518400 
 1095000   0.80049616  -0.26360245  -0.26360245   0.93713948     1.170609  -0.26360245    1.2007419   518400 
 1096000   0.79915457  -0.26265695  -0.26265695   0.93607259    1.1727137  -0.26265695    1.1987295   518400 
 1097000   0.79975394  -0.26374612  -0.26374612   0.93588248    1.1697963  -0.26374612    1.1996286   518400 
 1098000    0.7998512  -0.26301886  -0.26301886   0.93675563    1.1727442  -0.26301886    1.1997745   518400 
 1099000   0.79882144  -0.26233838  -0.26233838   0.93589147    1.1749714  -0.26233838    1.1982299   518400 
 1100000   0.79760411  -0.26317225  -0.26317225   0.93323161    1.1725156  -0.26317225    1.1964039   518400 
 1101000   0.80001842  -0.26253581  -0.26253581   0.93748949    1.1735174  -0.26253581    1.2000253   518400 
 1102000   0.80104807  -0.26253291  -0.26253291   0.93903687    1.1759934  -0.26253291    1.2015698   518400 
 1103000   0.79875612  -0.26180119  -0.26180119   0.93633067    1.1783043  -0.26180119    1.1981319   518400 
 1104000   0.79941587  -0.26224599  -0.26224599   0.93687551    1.1768002  -0.26224599    1.1991215   518400 
 1105000   0.79972912  -0.26307638  -0.26307638   0.93651499    1.1713202  -0.26307638    1.1995914   518400 
 1106000   0.79882696  -0.26234691  -0.26234691   0.93589122    1.1731859  -0.26234691    1.1982381   518400 
 1107000   0.79912516  -0.26284621  -0.26284621   0.93583922    1.1739012  -0.26284621    1.1986854   518400 
 1108000   0.79895371  -0.26280946  -0.26280946   0.93561879    1.1720787  -0.26280946    1.1984283   518400 
 1109000   0.79959762  -0.26340475  -0.26340475   0.93598937     1.171188  -0.26340475    1.1993941   518400 
 1110000   0.80039442  -0.26355175  -0.26355175   0.93703757    1.1730194  -0.26355175    1.2005893   518400 
 1111000   0.79941277  -0.26334043  -0.26334043    0.9357764    1.1735174  -0.26334043    1.1991168   518400 
 1112000   0.79876134  -0.26280594  -0.26280594   0.93533376    1.1746363  -0.26280594    1.1981397   518400 
 1113000   0.80002646  -0.26358267  -0.26358267    0.9364547    1.1711379  -0.26358267    1.2000374   518400 
 1114000   0.79984147  -0.26290227  -0.26290227   0.93685761    1.1744548  -0.26290227    1.1997599   518400 
 1115000   0.79907049  -0.26352925  -0.26352925   0.93507417    1.1720319  -0.26352925    1.1986034   518400 
 1116000   0.79850933  -0.26400242  -0.26400242   0.93375927    1.1687077  -0.26400242    1.1977617   518400 
 1117000   0.80045855  -0.26356972  -0.26356972   0.93711579     1.172513  -0.26356972    1.2006855   518400 
 1118000   0.80001826  -0.26271022  -0.26271022   0.93731485    1.1733093  -0.26271022    1.2000251   518400 
 1119000   0.79861498  -0.26305106  -0.26305106    0.9348691    1.1727263  -0.26305106    1.1979202   518400 
 1120000   0.79909702  -0.26287721  -0.26287721   0.93576601    1.1728876  -0.26287721    1.1986432   518400 
 1121000    0.7999835  -0.26318837  -0.26318837   0.93678457    1.1721038  -0.26318837    1.1999729   518400 
 1122000   0.80084184  -0.26335497  -0.26335497   0.93790548    1.1737367  -0.26335497    1.2012604   518400 
 1123000   0.79770531  -0.26182328  -0.26182328   0.93473238    1.1783181  -0.26182328    1.1965557   518400 
 1124000   0.79946596  -0.26397816  -0.26397816   0.93521846    1.1714725  -0.26397816    1.1991966   518400 
 1125000   0.79871306  -0.26231094  -0.26231094   0.93575634     1.176128  -0.26231094    1.1980673   518400 
 1126000   0.79934729  -0.26288923  -0.26288923   0.93612939    1.1737918  -0.26288923    1.1990186   518400 
 1127000   0.80044176  -0.26293171  -0.26293171   0.93772862    1.1756997  -0.26293171    1.2006603   518400 
 1128000   0.80080244  -0.26359294  -0.26359294    0.9376084    1.1730328  -0.26359294    1.2012013   518400 
 1129000   0.80074222  -0.26253823  -0.26253823   0.93857279    1.1764563  -0.26253823     1.201111   518400 
 1130000   0.79983396  -0.26314765  -0.26314765   0.93660097    1.1733306  -0.26314765    1.1997486   518400 
 1131000   0.79997207  -0.26317021  -0.26317021   0.93678558    1.1748403  -0.26317021    1.1999558   518400 
 1132000   0.79993967  -0.26305094  -0.26305094   0.93685626    1.1726415  -0.26305094    1.1999072   518400 
 1133000   0.79844734  -0.26291832  -0.26291832   0.93475038    1.1720817  -0.26291832    1.1976687   518400 
 1134000   0.79972791  -0.26315128  -0.26315128   0.93643827    1.1733178  -0.26315128    1.1995896   518400 
 1135000   0.80012809   -0.2646749   -0.2646749   0.93551491    1.1682393   -0.2646749    1.2001898   518400 
 1136000   0.80046892  -0.26314248  -0.26314248   0.93755859    1.1738426  -0.26314248    1.2007011   518400 
 1137000   0.80074621  -0.26296397  -0.26296397   0.93815302    1.1731454  -0.26296397     1.201117   518400 
 1138000   0.79996578  -0.26337886  -0.26337886   0.93656751    1.1726495  -0.26337886    1.1999464   518400 
 1139000   0.80023721  -0.26255802  -0.26255802   0.93779548    1.1745323  -0.26255802    1.2003535   518400 
 1140000     0.799319  -0.26371243  -0.26371243   0.93526377    1.1734387  -0.26371243    1.1989762   518400 
 1141000   0.80043022   -0.2621489   -0.2621489   0.93849412    1.1784386   -0.2621489     1.200643   518400 
 1142000   0.79946789   -0.2617915   -0.2617915   0.93740802    1.1777143   -0.2617915    1.1991995   518400 
 1143000   0.79999949  -0.26245861  -0.26245861    0.9375383    1.1753924  -0.26245861    1.1999969   518400 
 1144000   0.80161975  -0.26221649  -0.26221649   0.94021081    1.1770367  -0.26221649    1.2024273   518400 
 1145000   0.80145236   -0.2634876   -0.2634876   0.93868861    1.1721909   -0.2634876    1.2021762   518400 
 1146000    0.7997857  -0.26294122  -0.26294122   0.93673502    1.1722431  -0.26294122    1.1996762   518400 
 1147000   0.79936095  -0.26299611  -0.26299611   0.93604299    1.1729145  -0.26299611    1.1990391   518400 
 1148000   0.79951995  -0.26418923  -0.26418923   0.93508839    1.1709925  -0.26418923    1.1992776   518400 
 1149000   0.79913022  -0.26284942  -0.26284942    0.9358436    1.1735348  -0.26284942     1.198693   518400 
 1150000    0.7999157   -0.2634703   -0.2634703   0.93640093    1.1722774   -0.2634703    1.1998712   518400 
 1151000   0.79971848  -0.26416392  -0.26416392   0.93541148    1.1701539  -0.26416392    1.1995754   518400 
 1152000   0.79959877  -0.26385586  -0.26385586   0.93553998    1.1710886  -0.26385586    1.1993958   518400 
 1153000    0.7998646  -0.26326218  -0.26326218    0.9365324    1.1717677  -0.26326218    1.1997946   518400 
 1154000   0.79980475  -0.26301008  -0.26301008   0.93669473    1.1719497  -0.26301008    1.1997048   518400 
 1155000   0.79949533  -0.26251691  -0.26251691   0.93672377    1.1737664  -0.26251691    1.1992407   518400 
 1156000   0.79958184   -0.2634299   -0.2634299   0.93594054    1.1717718   -0.2634299    1.1993704   518400 
 1157000   0.79965384  -0.26370887  -0.26370887   0.93576957    1.1710236  -0.26370887    1.1994784   518400 
 1158000   0.79967627  -0.26340227  -0.26340227   0.93610982    1.1724899  -0.26340227    1.1995121   518400 
 1159000   0.80136307  -0.26325279  -0.26325279    0.9387895    1.1750114  -0.26325279    1.2020423   518400 
 1160000   0.80082934  -0.26306615  -0.26306615   0.93817554    1.1739208  -0.26306615    1.2012417   518400 
 1161000    0.8002222  -0.26207985  -0.26207985   0.93825113    1.1774542  -0.26207985     1.200331   518400 
 1162000   0.79993749  -0.26372041  -0.26372041   0.93618351    1.1727102  -0.26372041    1.1999039   518400 
 1163000   0.79969519   -0.2630423   -0.2630423   0.93649816    1.1757343   -0.2630423    1.1995405   518400 
 1164000   0.79987314  -0.26277882  -0.26277882   0.93702857    1.1751463  -0.26277882    1.1998074   518400 
 1165000   0.79830381  -0.26352908  -0.26352908   0.93392434    1.1717393  -0.26352908    1.1974534   518400 
 1166000   0.79871025  -0.26303434  -0.26303434   0.93502872    1.1716735  -0.26303434    1.1980631   518400 
 1167000   0.80023391  -0.26382791  -0.26382791   0.93652063    1.1701726  -0.26382791    1.2003485   518400 
 1168000   0.80030282  -0.26204536  -0.26204536   0.93840655    1.1779149  -0.26204536    1.2004519   518400 
 1169000    0.8011488  -0.26256405  -0.26256405   0.93915684    1.1764057  -0.26256405    1.2017209   518400 
 1170000   0.80003863  -0.26274989  -0.26274989   0.93730573     1.175952  -0.26274989    1.2000556   518400 
 1171000   0.80141034  -0.26218022  -0.26218022   0.93993298    1.1779423  -0.26218022    1.2021132   518400 
 1172000   0.80092697  -0.26356153  -0.26356153   0.93782661    1.1749801  -0.26356153    1.2013881   518400 
 1173000   0.80066169  -0.26238293  -0.26238293   0.93860729    1.1754715  -0.26238293    1.2009902   518400 
 1174000   0.80141565  -0.26234812  -0.26234812   0.93977303    1.1753304  -0.26234812    1.2021212   518400 
 1175000   0.80126109  -0.26326227  -0.26326227   0.93862704    1.1732184  -0.26326227    1.2018893   518400 
 1176000   0.79928414  -0.26325974  -0.26325974   0.93566416    1.1733067  -0.26325974    1.1989239   518400 
 1177000   0.79825193  -0.26233605  -0.26233605   0.93503953    1.1776637  -0.26233605    1.1973756   518400 
 1178000   0.80000127  -0.26487246  -0.26487246   0.93512713    1.1664082  -0.26487246    1.1999996   518400 
 1179000   0.79844734  -0.26290887  -0.26290887   0.93475983    1.1738419  -0.26290887    1.1976687   518400 
 1180000   0.79920162  -0.26242968  -0.26242968   0.93637044    1.1756248  -0.26242968    1.1988001   518400 
 1181000   0.79822099  -0.26298349  -0.26298349   0.93434569    1.1716436  -0.26298349    1.1973292   518400 
 1182000    0.7992553  -0.26297974  -0.26297974   0.93590089    1.1736064  -0.26297974    1.1988806   518400 
 1183000   0.79893697  -0.26228529  -0.26228529   0.93611785    1.1747956  -0.26228529    1.1984031   518400 
 1184000   0.79920772   -0.2621973   -0.2621973   0.93661196     1.176561   -0.2621973    1.1988093   518400 
 1185000   0.80001729  -0.26228206  -0.26228206   0.93774155    1.1766415  -0.26228206    1.2000236   518400 
 1186000   0.80054109  -0.26182631  -0.26182631   0.93898302    1.1782564  -0.26182631    1.2008093   518400 
 1187000   0.80063505  -0.26291273  -0.26291273   0.93803753     1.174639  -0.26291273    1.2009503   518400 
 1188000   0.80083891  -0.26315647  -0.26315647   0.93809958    1.1727377  -0.26315647     1.201256   518400 
 1189000    0.7995021  -0.26170497  -0.26170497   0.93754587    1.1778422  -0.26170497    1.1992508   518400 
 1190000   0.80002614  -0.26258113  -0.26258113   0.93745577    1.1750239  -0.26258113    1.2000369   518400 
 1191000   0.80200118  -0.26337269  -0.26337269   0.93962677    1.1744973  -0.26337269    1.2029995   518400 
 1192000   0.79999561  -0.26293581  -0.26293581   0.93705529    1.1739005  -0.26293581    1.1999911   518400 
 1193000   0.79995602  -0.26203182  -0.26203182   0.93789989    1.1759151  -0.26203182    1.1999317   518400 
 1194000   0.79891667  -0.26363859  -0.26363859   0.93473409    1.1708686  -0.26363859    1.1983727   518400 
 1195000   0.79877933  -0.26291304  -0.26291304   0.93525364    1.1750382  -0.26291304    1.1981667   518400 
 1196000    0.7993123  -0.26281055  -0.26281055   0.93615559    1.1744982  -0.26281055    1.1989661   518400 
 1197000   0.79955528  -0.26270985  -0.26270985   0.93662076    1.1751434  -0.26270985    1.1993306   518400 
 1198000    0.7994541  -0.26411964  -0.26411964    0.9350592    1.1698991  -0.26411964    1.1991788   518400 
 1199000   0.79954294  -0.26156386  -0.26156386   0.93774825    1.1777373  -0.26156386    1.1993121   518400 
 1200000    0.8019278  -0.26217907  -0.26217907   0.94071031     1.177243  -0.26217907    1.2028894   518400 
 1201000   0.80009469  -0.26346452  -0.26346452   0.93667519    1.1720855  -0.26346452    1.2001397   518400 
 1202000   0.79997975   -0.2624927   -0.2624927   0.93747461    1.1760933   -0.2624927    1.1999673   518400 
 1203000   0.80154118  -0.26332456  -0.26332456   0.93898489    1.1764062  -0.26332456    1.2023094   518400 
 1204000   0.80088168  -0.26306294  -0.26306294   0.93825727    1.1743174  -0.26306294    1.2013202   518400 
 1205000   0.80173888  -0.26184899  -0.26184899     0.940757    1.1795837  -0.26184899     1.202606   518400 
 1206000   0.80011906  -0.26278451  -0.26278451   0.93739177    1.1739546  -0.26278451    1.2001763   518400 
 1207000   0.79925663  -0.26362236  -0.26362236   0.93526027    1.1702479  -0.26362236    1.1988826   518400 
 1208000   0.79939219   -0.2627991   -0.2627991   0.93628687    1.1741087   -0.2627991     1.199086   518400 
 1209000   0.80007368    -0.263395    -0.263395    0.9367132    1.1728215    -0.263395    1.2001082   518400 
 1210000   0.79922035  -0.26237737  -0.26237737   0.93645084    1.1773837  -0.26237737    1.1988282   518400 
 1211000   0.79891372  -0.26278899  -0.26278899   0.93557928    1.1727424  -0.26278899    1.1983683   518400 
 1212000   0.79991527  -0.26317346  -0.26317346   0.93669712    1.1720646  -0.26317346    1.1998706   518400 
 1213000   0.79941939  -0.26266726  -0.26266726   0.93645951    1.1757815  -0.26266726    1.1991268   518400 
 1214000   0.80051938  -0.26234041  -0.26234041   0.93843634    1.1772865  -0.26234041    1.2007768   518400 
 1215000   0.80009575   -0.2619842   -0.2619842    0.9381571    1.1778599   -0.2619842    1.2001413   518400 
 1216000   0.80021039  -0.26261309  -0.26261309   0.93770018    1.1768868  -0.26261309    1.2003133   518400 
 1217000   0.79914496  -0.26244217  -0.26244217   0.93627295    1.1763289  -0.26244217    1.1987151   518400 
 1218000   0.79877846  -0.26195169  -0.26195169   0.93621369    1.1780488  -0.26195169    1.1981654   518400 
 1219000   0.79926691  -0.26234156  -0.26234156   0.93655649    1.1741575  -0.26234156     1.198898   518400 
 1220000   0.80053235  -0.26319162  -0.26319162   0.93760459    1.1729067  -0.26319162    1.2007962   518400 
 1221000   0.80016797  -0.26250843  -0.26250843   0.93774121    1.1749092  -0.26250843    1.2002496   518400 
 1222000   0.80054758  -0.26238453  -0.26238453   0.93843452    1.1766133  -0.26238453    1.2008191   518400 
 1223000    0.8019792  -0.26301058  -0.26301058    0.9399559    1.1750871  -0.26301058    1.2029665   518400 
 1224000   0.80167567   -0.2643237   -0.2643237   0.93818748    1.1710799   -0.2643237    1.2025112   518400 
 1225000   0.80106793  -0.26235721  -0.26235721   0.93924237    1.1769235  -0.26235721    1.2015996   518400 
 1226000   0.79842025  -0.26408549  -0.26408549   0.93354257    1.1701127  -0.26408549    1.1976281   518400 
 1227000   0.80017558  -0.26320719  -0.26320719   0.93705387    1.1748035  -0.26320719    1.2002611   518400 
 1228000   0.80042259  -0.26311864  -0.26311864   0.93751294     1.173819  -0.26311864    1.2006316   518400 
 1229000   0.80039241  -0.26356533  -0.26356533   0.93702096    1.1727335  -0.26356533    1.2005863   518400 
 1230000   0.79903425  -0.26347716  -0.26347716    0.9350719    1.1722954  -0.26347716    1.1985491   518400 
 1231000   0.79853589  -0.26358209  -0.26358209   0.93421943    1.1734907  -0.26358209    1.1978015   518400 
 1232000   0.80038242  -0.26319757  -0.26319757   0.93737374    1.1716782  -0.26319757    1.2005713   518400 
 1233000   0.80030709  -0.26269968  -0.26269968   0.93775864    1.1747741  -0.26269968    1.2004583   518400 
 1234000   0.80109091  -0.26424957  -0.26424957   0.93738447     1.169255  -0.26424957     1.201634   518400 
 1235000   0.80033247  -0.26306126  -0.26306126   0.93743513    1.1722954  -0.26306126    1.2004964   518400 
 1236000   0.79977112  -0.26269096  -0.26269096   0.93696341    1.1737381  -0.26269096    1.1996544   518400 
 1237000   0.79994027  -0.26323656  -0.26323656   0.93667152    1.1725149  -0.26323656    1.1999081   518400 
 1238000    0.7993806  -0.26253895  -0.26253895   0.93652964    1.1753139  -0.26253895    1.1990686   518400 
 1239000   0.79972472  -0.26293705  -0.26293705   0.93664771    1.1725104  -0.26293705    1.1995848   518400 
 1240000    0.8006011  -0.26324709  -0.26324709   0.93765224    1.1744191  -0.26324709    1.2008993   518400 
 1241000   0.79859095  -0.26207309  -0.26207309   0.93581102    1.1752364  -0.26207309    1.1978841   518400 
 1242000   0.79868187  -0.26291302  -0.26291302   0.93510747    1.1737093  -0.26291302    1.1980205   518400 
 1243000   0.79942781   -0.2625095   -0.2625095   0.93662991    1.1767961   -0.2625095    1.1991394   518400 
 1244000   0.79991032  -0.26444014  -0.26444014   0.93542303    1.1688452  -0.26444014    1.1998632   518400 
 1245000    0.7992639  -0.26372976  -0.26372976   0.93516377    1.1722157  -0.26372976    1.1988935   518400 
 1246000   0.79921928  -0.26279401  -0.26279401   0.93603259    1.1748415  -0.26279401    1.1988266   518400 
 1247000   0.79974862  -0.26486609  -0.26486609   0.93475452     1.167872  -0.26486609    1.1996206   518400 
 1248000   0.79955415  -0.26331093  -0.26331093   0.93601799    1.1719073  -0.26331093    1.1993289   518400 
 1249000   0.80199344  -0.26333448  -0.26333448   0.93965337    1.1729314  -0.26333448    1.2029878   518400 
 1250000   0.80021802  -0.26293331  -0.26293331    0.9373914    1.1731788  -0.26293331    1.2003247   518400 
 1251000   0.80068409  -0.26196885  -0.26196885   0.93905496     1.177818  -0.26196885    1.2010238   518400 
 1252000   0.80060199   -0.2638206   -0.2638206   0.93708008    1.1712896   -0.2638206    1.2009007   518400 
 1253000   0.79973164  -0.26304737  -0.26304737   0.93654778    1.1736003  -0.26304737    1.1995952   518400 
 1254000   0.79888573  -0.26339387  -0.26339387   0.93493242    1.1732881  -0.26339387    1.1983263   518400 
 1255000   0.79892656  -0.26340718  -0.26340718   0.93498036    1.1718359  -0.26340718    1.1983875   518400 
 1256000   0.79931187  -0.26276654  -0.26276654   0.93619896    1.1735763  -0.26276654    1.1989655   518400 
 1257000   0.80008448  -0.26374052  -0.26374052   0.93638388    1.1731029  -0.26374052    1.2001244   518400 
 1258000   0.80009829  -0.26165687  -0.26165687   0.93848826    1.1785522  -0.26165687    1.2001451   518400 
 1259000   0.80027864  -0.26380268  -0.26380268   0.93661296    1.1714289  -0.26380268    1.2004156   518400 
 1260000   0.79901843  -0.26416758  -0.26416758   0.93435774    1.1690002  -0.26416758    1.1985253   518400 
 1261000   0.79787591  -0.26266551  -0.26266551   0.93414605    1.1754238  -0.26266551    1.1968116   518400 
 1262000   0.79870076  -0.26272326  -0.26272326   0.93532556    1.1755276  -0.26272326    1.1980488   518400 
 1263000   0.80009248  -0.26278048  -0.26278048   0.93735592    1.1727755  -0.26278048    1.2001364   518400 
 1264000   0.80084768  -0.26355772  -0.26355772   0.93771149    1.1740187  -0.26355772    1.2012692   518400 
 1265000   0.80249198   -0.2630408   -0.2630408   0.94069485    1.1769792   -0.2630408    1.2037357   518400 
 1266000   0.80000526  -0.26247079  -0.26247079   0.93753478    1.1770478  -0.26247079    1.2000056   518400 
 1267000   0.80076625  -0.26309569  -0.26309569   0.93805137    1.1760899  -0.26309569    1.2011471   518400 
 1268000   0.80049859  -0.26382266  -0.26382266   0.93692292    1.1706521  -0.26382266    1.2007456   518400 
 1269000   0.79996224   -0.2639199   -0.2639199   0.93602115    1.1712779   -0.2639199     1.199941   518400 
 1270000   0.80001462  -0.26314006  -0.26314006   0.93687955    1.1728182  -0.26314006    1.2000196   518400 
 1271000   0.79948648  -0.26227576  -0.26227576   0.93695165    1.1762905  -0.26227576    1.1992274   518400 
 1272000   0.79921637  -0.26224665  -0.26224665   0.93657559    1.1754839  -0.26224665    1.1988222   518400 
 1273000   0.79792133  -0.26344769  -0.26344769     0.933432    1.1706007  -0.26344769    1.1968797   518400 
 1274000   0.79884392  -0.26231384  -0.26231384   0.93594973    1.1777026  -0.26231384    1.1982636   518400 
 1275000   0.79928291  -0.26286138  -0.26286138   0.93606067    1.1743042  -0.26286138     1.198922   518400 
 1276000   0.80012018  -0.26327257  -0.26327257   0.93690537    1.1722116  -0.26327257    1.2001779   518400 
 1277000   0.80056315   -0.2634285   -0.2634285   0.93741391    1.1747701   -0.2634285    1.2008424   518400 
 1278000    0.8005059  -0.26258291  -0.26258291   0.93817362    1.1766657  -0.26258291    1.2007565   518400 
 1279000   0.79868084  -0.26177665  -0.26177665    0.9362423     1.179239  -0.26177665     1.198019   518400 
 1280000   0.79946816  -0.26211914  -0.26211914   0.93708078    1.1767003  -0.26211914    1.1991999   518400 
 1281000   0.80079495  -0.26342813  -0.26342813   0.93776198    1.1751266  -0.26342813    1.2011901   518400 
 1282000   0.79830421  -0.26262149  -0.26262149   0.93483251    1.1752999  -0.26262149     1.197454   518400 
 1283000   0.79898347  -0.26340886  -0.26340886   0.93506403    1.1724024  -0.26340886    1.1984729   518400 
 1284000   0.79989366  -0.26398063  -0.26398063   0.93585755    1.1699249  -0.26398063    1.1998382   518400 
 1285000   0.79900961  -0.26377212  -0.26377212   0.93473998    1.1706052  -0.26377212    1.1985121   518400 
 1286000    0.7998127  -0.26339699  -0.26339699   0.93631975    1.1737426  -0.26339699    1.1997167   518400 
 1287000   0.79980553  -0.26372405  -0.26372405   0.93598193    1.1713194  -0.26372405     1.199706   518400 
 1288000   0.80072699  -0.26288094  -0.26288094   0.93820723    1.1740688  -0.26288094    1.2010882   518400 
 1289000   0.79977875  -0.26275572  -0.26275572   0.93691008    1.1758181  -0.26275572    1.1996658   518400 
 1290000   0.80240084  -0.26394284  -0.26394284    0.9396561    1.1733133  -0.26394284    1.2035989   518400 
 1291000   0.80065351  -0.26338214  -0.26338214   0.93759581    1.1732093  -0.26338214    1.2009779   518400 
 1292000   0.79896928  -0.26257108  -0.26257108   0.93588053    1.1759724  -0.26257108    1.1984516   518400 
 1293000   0.79896583  -0.26353922  -0.26353922   0.93490721    1.1730464  -0.26353922    1.1984464   518400 
 1294000   0.79952043  -0.26261465  -0.26261465   0.93666368    1.1753388  -0.26261465    1.1992783   518400 
 1295000   0.79918055  -0.26308202  -0.26308202   0.93568649    1.1753394  -0.26308202    1.1987685   518400 
 1296000   0.80014225  -0.26259636  -0.26259636    0.9376147    1.1772171  -0.26259636    1.2002111   518400 
 1297000    0.7982939  -0.26287897  -0.26287897   0.93455957    1.1731232  -0.26287897    1.1974385   518400 
 1298000   0.79932595  -0.26318117  -0.26318117   0.93580544    1.1736176  -0.26318117    1.1989866   518400 
 1299000   0.79999289   -0.2635043   -0.2635043   0.93648272    1.1712988   -0.2635043     1.199987   518400 
 1300000   0.79959631  -0.26301991  -0.26301991   0.93637224    1.1751259  -0.26301991    1.1993922   518400 
 1301000   0.79955499  -0.26364331  -0.26364331   0.93568686    1.1703646  -0.26364331    1.1993302   518400 
 1302000   0.79979857  -0.26320266  -0.26320266   0.93649288    1.1721414  -0.26320266    1.1996955   518400 
 1303000   0.79995321  -0.26277767  -0.26277767   0.93714983    1.1744122  -0.26277767    1.1999275   518400 
 1304000    0.8004261  -0.26419951  -0.26419951   0.93643731    1.1712574  -0.26419951    1.2006368   518400 
 1305000     0.799037  -0.26248331  -0.26248331   0.93606988    1.1755906  -0.26248331    1.1985532   518400 
 1306000   0.80011573  -0.26409603  -0.26409603   0.93607525    1.1702309  -0.26409603    1.2001713   518400 
 1307000   0.80060866  -0.26398287  -0.26398287   0.93692781    1.1713616  -0.26398287    1.2009107   518400 
 1308000   0.80022057  -0.26332935  -0.26332935   0.93699918     1.173931  -0.26332935    1.2003285   518400 
 1309000   0.79946163  -0.26355928  -0.26355928   0.93563086    1.1721855  -0.26355928    1.1991901   518400 
 1310000   0.79919351  -0.26412503  -0.26412503   0.93466293    1.1702705  -0.26412503     1.198788   518400 
 1311000    0.7989339  -0.26258635  -0.26258635   0.93581219    1.1762156  -0.26258635    1.1983985   518400 
 1312000   0.79901194  -0.26271252  -0.26271252   0.93580308    1.1735577  -0.26271252    1.1985156   518400 
 1313000   0.79939896  -0.26388341  -0.26388341   0.93521272    1.1717943  -0.26388341    1.1990961   518400 
 1314000   0.79886725  -0.26239357  -0.26239357   0.93590499    1.1766607  -0.26239357    1.1982986   518400 
 1315000   0.79948183  -0.26233414  -0.26233414   0.93688629    1.1740351  -0.26233414    1.1992204   518400 
 1316000   0.79926778  -0.26243977  -0.26243977   0.93645958    1.1752196  -0.26243977    1.1988994   518400 
 1317000     0.799711  -0.26404662  -0.26404662   0.93551756    1.1721005  -0.26404662    1.1995642   518400 
 1318000   0.80097154  -0.26199738  -0.26199738   0.93945761    1.1804038  -0.26199738     1.201455   518400 
 1319000   0.80094214  -0.26316982  -0.26316982   0.93824108    1.1753685  -0.26316982    1.2014109   518400 
 1320000   0.80054342  -0.26373236  -0.26373236   0.93708045    1.1734898  -0.26373236    1.2008128   518400 
 1321000   0.80082263  -0.26354021  -0.26354021   0.93769142    1.1728116  -0.26354021    1.2012316   518400 
 1322000    0.7998454  -0.26194397  -0.26194397   0.93782182    1.1792117  -0.26194397    1.1997658   518400 
 1323000   0.80031267  -0.26268123  -0.26268123   0.93778547    1.1747092  -0.26268123    1.2004667   518400 
 1324000   0.79941807   -0.2638495   -0.2638495    0.9352753    1.1716772   -0.2638495    1.1991248   518400 
 1325000   0.80042465  -0.26320056  -0.26320056    0.9374341    1.1729143  -0.26320056    1.2006347   518400 
 1326000   0.80089891   -0.2630267   -0.2630267   0.93831934    1.1755855   -0.2630267     1.201346   518400 
 1327000   0.80115289  -0.26273328  -0.26273328   0.93899374    1.1758601  -0.26273328     1.201727   518400 
 1328000   0.80061047  -0.26301603  -0.26301603   0.93789735    1.1727034  -0.26301603    1.2009134   518400 
 1329000   0.80164353  -0.26272986  -0.26272986   0.93973311    1.1753915  -0.26272986     1.202463   518400 
 1330000   0.80056498  -0.26149311  -0.26149311   0.93935204    1.1789944  -0.26149311    1.2008452   518400 
 1331000   0.80047908  -0.26331953  -0.26331953   0.93739677    1.1723679  -0.26331953    1.2007163   518400 
 1332000   0.79995713  -0.26382957  -0.26382957   0.93610381    1.1710575  -0.26382957    1.1999334   518400 
 1333000   0.79868885  -0.26353047  -0.26353047   0.93450049    1.1713809  -0.26353047     1.198031   518400 
 1334000   0.80008888  -0.26305161  -0.26305161   0.93707939    1.1753848  -0.26305161     1.200131   518400 
 1335000   0.80182453   -0.2616284   -0.2616284   0.94110608    1.1788374   -0.2616284    1.2027345   518400 
 1336000   0.80041249  -0.26192977  -0.26192977   0.93868665    1.1768058  -0.26192977    1.2006164   518400 
 1337000   0.80016897  -0.26185009  -0.26185009   0.93840105    1.1791521  -0.26185009    1.2002511   518400 
 1338000   0.80168193  -0.26325315  -0.26325315   0.93926743    1.1739545  -0.26325315    1.2025206   518400 
 1339000   0.80078677  -0.26391565  -0.26391565    0.9372622    1.1694163  -0.26391565    1.2011778   518400 
 1340000   0.80060813  -0.26370277  -0.26370277    0.9372071    1.1707651  -0.26370277    1.2009099   518400 
 1341000   0.80137376  -0.26273001  -0.26273001   0.93932831    1.1770866  -0.26273001    1.2020583   518400 
 1342000   0.80040497  -0.26241381  -0.26241381   0.93819133    1.1758016  -0.26241381    1.2006051   518400 
 1343000      0.79996  -0.26267548  -0.26267548    0.9372622    1.1766695  -0.26267548    1.1999377   518400 
 1344000   0.80015557  -0.26344619  -0.26344619   0.93678484    1.1734095  -0.26344619     1.200231   518400 
 1345000   0.79998403  -0.26341449  -0.26341449   0.93655923     1.172652  -0.26341449    1.1999737   518400 
 1346000    0.8009716  -0.26375833  -0.26375833   0.93769675    1.1718899  -0.26375833    1.2014551   518400 
 1347000   0.79872166  -0.26398501  -0.26398501   0.93409517    1.1709483  -0.26398501    1.1980802   518400 
 1348000   0.79927333  -0.26326969  -0.26326969   0.93563799    1.1725384  -0.26326969    1.1989077   518400 
 1349000   0.80006451  -0.26314061  -0.26314061   0.93695383    1.1720206  -0.26314061    1.2000944   518400 
 1350000   0.79914482  -0.26303889  -0.26303889   0.93567603    1.1749831  -0.26303889    1.1987149   518400 
 1351000   0.79825238  -0.26275828  -0.26275828   0.93461799    1.1744018  -0.26275828    1.1973763   518400 
 1352000    0.7993437  -0.26433044  -0.26433044   0.93468279    1.1696139  -0.26433044    1.1990132   518400 
 1353000   0.80027218  -0.26314607  -0.26314607   0.93725988    1.1751831  -0.26314607     1.200406   518400 
 1354000   0.80074876  -0.26277135  -0.26277135   0.93834947    1.1761384  -0.26277135    1.2011208   518400 
 1355000   0.79991107  -0.26326474  -0.26326474   0.93659955    1.1728737  -0.26326474    1.1998643   518400 
 1356000   0.79981011   -0.2628767   -0.2628767   0.93683615     1.174671   -0.2628767    1.1997129   518400 
 1357000   0.79990303  -0.26389966  -0.26389966   0.93595258    1.1706254  -0.26389966    1.1998522   518400 
 1358000   0.79941109  -0.26284976  -0.26284976   0.93626456    1.1753207  -0.26284976    1.1991143   518400 
 1359000   0.79857009  -0.26281257  -0.26281257   0.93504026    1.1724874  -0.26281257    1.1978528   518400 
 1360000   0.80002102  -0.26386821  -0.26386821   0.93616101    1.1721892  -0.26386821    1.2000292   518400 
 1361000   0.79978397  -0.26322909  -0.26322909   0.93644455    1.1724239  -0.26322909    1.1996736   518400 
 1362000   0.80107122  -0.26373334  -0.26373334   0.93787117    1.1727958  -0.26373334    1.2016045   518400 
 1363000   0.80088691  -0.26327397  -0.26327397   0.93805408    1.1746644  -0.26327397     1.201328   518400 
 1364000   0.79979867  -0.26333654  -0.26333654   0.93635915    1.1733372  -0.26333654    1.1996957   518400 
 1365000   0.80085902  -0.26261443  -0.26261443   0.93867179    1.1776493  -0.26261443    1.2012862   518400 
 1366000   0.80110784  -0.26315528  -0.26315528   0.93850417    1.1710468  -0.26315528    1.2016594   518400 
 1367000    0.8008701  -0.26289503  -0.26289503    0.9384078    1.1775535  -0.26289503    1.2013028   518400 
 1368000   0.80021782  -0.26222624  -0.26222624   0.93809818     1.176755  -0.26222624    1.2003244   518400 
 1369000   0.80032315  -0.26252432  -0.26252432   0.93795809    1.1756598  -0.26252432    1.2004824   518400 
 1370000   0.79996578  -0.26255668  -0.26255668   0.93738967     1.174872  -0.26255668    1.1999463   518400 
 1371000   0.79992118  -0.26366025  -0.26366025   0.93621921    1.1730282  -0.26366025    1.1998795   518400 
 1372000   0.79951165  -0.26294805  -0.26294805   0.93631711    1.1736879  -0.26294805    1.1992652   518400 
 1373000   0.79853179  -0.26334213  -0.26334213   0.93445325    1.1714493  -0.26334213    1.1977954   518400 
 1374000   0.79880526  -0.26354813  -0.26354813   0.93465744    1.1703768  -0.26354813    1.1982056   518400 
 1375000   0.79915883  -0.26342484  -0.26342484    0.9353111    1.1727285  -0.26342484    1.1987359   518400 
 1376000    0.7990651  -0.26422852  -0.26422852   0.93436681    1.1709021  -0.26422852    1.1985953   518400 
 1377000   0.79987399  -0.26209533  -0.26209533   0.93771335    1.1778018  -0.26209533    1.1998087   518400 
 1378000   0.80026565  -0.26425555  -0.26425555   0.93614061    1.1719014  -0.26425555    1.2003962   518400 
 1379000   0.79967252  -0.26287379  -0.26287379   0.93663267    1.1756193  -0.26287379    1.1995065   518400 
 1380000   0.80089062  -0.26342407  -0.26342407   0.93790954    1.1728888  -0.26342407    1.2013336   518400 
 1381000   0.80106623  -0.26285079  -0.26285079   0.93874625    1.1760819  -0.26285079     1.201597   518400 
 1382000   0.80053301  -0.26298493  -0.26298493   0.93781226    1.1753586  -0.26298493    1.2007972   518400 
 1383000   0.79857958  -0.26258186  -0.26258186   0.93528519    1.1728774  -0.26258186    1.1978671   518400 
 1384000     0.799855  -0.26270817  -0.26270817   0.93707202    1.1733787  -0.26270817    1.1997802   518400 
 1385000   0.80069135  -0.26437476  -0.26437476   0.93665995     1.168952  -0.26437476    1.2010347   518400 
 1386000   0.80003363  -0.26316286  -0.26316286   0.93688526    1.1728495  -0.26316286    1.2000481   518400 
 1387000   0.79892992  -0.26250659  -0.26250659   0.93588598    1.1768737  -0.26250659    1.1983926   518400 
 1388000   0.79888966  -0.26366593  -0.26366593   0.93466625    1.1715177  -0.26366593    1.1983322   518400 
 1389000   0.80091477  -0.26444274  -0.26444274    0.9369271     1.169482  -0.26444274    1.2013698   518400 
 1390000   0.80024343  -0.26309227  -0.26309227   0.93727056    1.1736827  -0.26309227    1.2003628   518400 
 1391000   0.79966302  -0.26321792  -0.26321792    0.9362743    1.1734983  -0.26321792    1.1994922   518400 
 1392000   0.79752728  -0.26240583  -0.26240583   0.93388279    1.1746999  -0.26240583    1.1962886   518400 
 1393000   0.80071665  -0.26378361  -0.26378361   0.93728905    1.1699805  -0.26378361    1.2010727   518400 
 1394000   0.80013264  -0.26298728  -0.26298728   0.93720937    1.1753188  -0.26298728    1.2001966   518400 
 1395000   0.79980056  -0.26283296  -0.26283296   0.93686556    1.1748807  -0.26283296    1.1996985   518400 
 1396000   0.79866002  -0.26332164  -0.26332164   0.93466607    1.1713144  -0.26332164    1.1979877   518400 
 1397000   0.79864308   -0.2625603   -0.2625603   0.93540202    1.1754665   -0.2625603    1.1979623   518400 
 1398000   0.80032356  -0.26429039  -0.26429039   0.93619264    1.1705254  -0.26429039     1.200483   518400 
 1399000   0.79910771  -0.26441399  -0.26441399   0.93424527    1.1683711  -0.26441399    1.1986593   518400 
 1400000   0.79923002  -0.26263822  -0.26263822    0.9362045    1.1760195  -0.26263822    1.1988427   518400 
 1401000   0.79911182  -0.26336367  -0.26336367   0.93530175    1.1733779  -0.26336367    1.1986654   518400 
 1402000   0.79832482  -0.26270789  -0.26270789   0.93477703    1.1753152  -0.26270789    1.1974849   518400 
 1403000   0.80098174  -0.26401545  -0.26401545   0.93745485    1.1720522  -0.26401545    1.2014703   518400 
 1404000    0.8020996  -0.26300811  -0.26300811   0.94013897    1.1743673  -0.26300811    1.2031471   518400 
 1405000   0.80012178  -0.26233768  -0.26233768   0.93784268    1.1756549  -0.26233768    1.2001804   518400 
 1406000   0.80005225   -0.2613236   -0.2613236   0.93875246    1.1805048   -0.2613236    1.2000761   518400 
 1407000    0.8005631  -0.26340007  -0.26340007   0.93744227    1.1731744  -0.26340007    1.2008423   518400 
 1408000   0.80087697  -0.26319632  -0.26319632   0.93811682    1.1735428  -0.26319632    1.2013131   518400 
 1409000   0.80175663  -0.26277804  -0.26277804   0.93985458    1.1754111  -0.26277804    1.2026326   518400 
 1410000   0.80108949  -0.26323637  -0.26323637   0.93839554    1.1755969  -0.26323637    1.2016319   518400 
 1411000   0.80012071  -0.26373881  -0.26373881   0.93643994    1.1702352  -0.26373881    1.2001787   518400 
 1412000   0.80062779  -0.26395379  -0.26395379   0.93698558    1.1703641  -0.26395379    1.2009394   518400 
 1413000   0.80105694  -0.26282743  -0.26282743   0.93875567     1.176392  -0.26282743    1.2015831   518400 
 1414000   0.79969556  -0.26308097  -0.26308097   0.93646005    1.1740934  -0.26308097     1.199541   518400 
 1415000    0.7991935  -0.26306147  -0.26306147   0.93572646     1.175285  -0.26306147    1.1987879   518400 
 1416000   0.79960112   -0.2635244   -0.2635244   0.93587496    1.1730515   -0.2635244    1.1993994   518400 
 1417000   0.80070389  -0.26365321  -0.26365321   0.93740031    1.1733781  -0.26365321    1.2010535   518400 
 1418000   0.80109983  -0.26237679  -0.26237679   0.93927064    1.1772097  -0.26237679    1.2016474   518400 
 1419000   0.80005084  -0.26189501  -0.26189501   0.93817893    1.1777753  -0.26189501    1.2000739   518400 
 1420000   0.80083627  -0.26250158  -0.26250158   0.93875051    1.1759291  -0.26250158    1.2012521   518400 
 1421000   0.79965894  -0.26316481  -0.26316481   0.93632129    1.1748452  -0.26316481    1.1994861   518400 
 1422000   0.80037831  -0.26385357  -0.26385357   0.93671157    1.1698847  -0.26385357    1.2005651   518400 
 1423000   0.79766221  -0.26228448  -0.26228448   0.93420653    1.1773673  -0.26228448     1.196491   518400 
 1424000   0.79876148  -0.26314152  -0.26314152    0.9349984    1.1735442  -0.26314152    1.1981399   518400 
 1425000   0.79911321   -0.2643931   -0.2643931   0.93427441    1.1682846   -0.2643931    1.1986675   518400 
 1426000   0.80044732  -0.26351001  -0.26351001   0.93715866    1.1720686  -0.26351001    1.2006687   518400 
 1427000   0.79896458  -0.26245844  -0.26245844   0.93598611    1.1765731  -0.26245844    1.1984446   518400 
 1428000   0.80112559  -0.26367203  -0.26367203   0.93801404    1.1709193  -0.26367203    1.2016861   518400 
 1429000   0.80049093   -0.2627007   -0.2627007   0.93803338     1.174848   -0.2627007    1.2007341   518400 
 1430000   0.79945421  -0.26277416  -0.26277416   0.93640485    1.1766972  -0.26277416     1.199179   518400 
 1431000   0.79976528  -0.26339751  -0.26339751    0.9362481    1.1733579  -0.26339751    1.1996456   518400 
 1432000   0.79861902  -0.26362522  -0.26362522     0.934301    1.1715822  -0.26362522    1.1979262   518400 
 1433000   0.79918421   -0.2632356   -0.2632356    0.9355384    1.1751628   -0.2632356     1.198774   518400 
 1434000   0.80003949  -0.26250714  -0.26250714   0.93754978     1.177877  -0.26250714    1.2000569   518400 
 1435000   0.80157042  -0.26343347  -0.26343347   0.93891984    1.1751632  -0.26343347    1.2023533   518400 
 1436000   0.80048571  -0.26220893  -0.26220893   0.93851731    1.1775069  -0.26220893    1.2007262   518400 
 1437000   0.80063619  -0.26315448  -0.26315448    0.9377975    1.1732844  -0.26315448     1.200952   518400 
 1438000   0.80083587  -0.26257754  -0.26257754   0.93867395    1.1755498  -0.26257754    1.2012515   518400 
 1439000    0.8005649  -0.26335287  -0.26335287   0.93749217    1.1736705  -0.26335287     1.200845   518400 
 1440000   0.79936824  -0.26218293  -0.26218293   0.93686712    1.1737147  -0.26218293      1.19905   518400 
 1441000   0.80036476   -0.2629843   -0.2629843   0.93756053    1.1735391   -0.2629843    1.2005448   518400 
 1442000   0.80055299  -0.26182677  -0.26182677   0.93900041     1.177197  -0.26182677    1.2008272   518400 
 1443000   0.79995592  -0.26222027  -0.26222027    0.9377113    1.1786301  -0.26222027    1.1999316   518400 
 1444000    0.8005744  -0.26332609  -0.26332609    0.9375332    1.1749036  -0.26332609    1.2008593   518400 
 1445000     0.802498  -0.26385622  -0.26385622   0.93988846    1.1714416  -0.26385622    1.2037447   518400 
 1446000   0.79843076  -0.26306229  -0.26306229   0.93458154    1.1733413  -0.26306229    1.1976438   518400 
 1447000   0.80021953  -0.26454813  -0.26454813   0.93577885    1.1708463  -0.26454813     1.200327   518400 
 1448000   0.79772307  -0.26306756  -0.26306756   0.93351473    1.1718284  -0.26306756    1.1965823   518400 
 1449000   0.79964397  -0.26277778  -0.26277778   0.93668587    1.1750891  -0.26277778    1.1994636   518400 
 1450000   0.79957856  -0.26296869  -0.26296869   0.93639683    1.1749711  -0.26296869    1.1993655   518400 
 1451000   0.80000927  -0.26386812  -0.26386812   0.93614347     1.172914  -0.26386812    1.2000116   518400 
 1452000   0.79975528  -0.26308978  -0.26308978   0.93654083    1.1747633  -0.26308978    1.1996306   518400 
 1453000   0.80006855   -0.2635697   -0.2635697   0.93653081    1.1720992   -0.2635697    1.2001005   518400 
 1454000   0.79960005  -0.26319115  -0.26319115    0.9362066    1.1743027  -0.26319115    1.1993978   518400 
 1455000   0.80010786  -0.26321282  -0.26321282   0.93694666    1.1740155  -0.26321282    1.2001595   518400 
 1456000   0.80054885  -0.26267001  -0.26267001   0.93815095    1.1743125  -0.26267001     1.200821   518400 
 1457000   0.80012976  -0.26271934  -0.26271934   0.93747299    1.1743139  -0.26271934    1.2001923   518400 
 1458000   0.80152799  -0.26345092  -0.26345092   0.93883874    1.1729169  -0.26345092    1.2022897   518400 
 1459000   0.80078313  -0.26208149  -0.26208149   0.93909089    1.1776712  -0.26208149    1.2011724   518400 
 1460000     0.800196  -0.26391833  -0.26391833   0.93637335    1.1707972  -0.26391833    1.2002917   518400 
 1461000   0.80042038  -0.26352121  -0.26352121   0.93710704    1.1726318  -0.26352121    1.2006283   518400 
 1462000   0.80108083  -0.26293432  -0.26293432   0.93868461    1.1748022  -0.26293432    1.2016189   518400 
 1463000   0.80166113  -0.26418085  -0.26418085   0.93830852     1.171492  -0.26418085    1.2024894   518400 
 1464000   0.80002012  -0.26314812  -0.26314812   0.93687974    1.1717431  -0.26314812    1.2000279   518400 
 1465000   0.79841516  -0.26232423  -0.26232423    0.9352962    1.1753815  -0.26232423    1.1976204   518400 
 1466000   0.79931045   -0.2628636   -0.2628636   0.93609976    1.1746558   -0.2628636    1.1989634   518400 
 1467000    0.7983689  -0.26343533  -0.26343533   0.93411571      1.17096  -0.26343533     1.197551   518400 
 1468000   0.80072973  -0.26411363  -0.26411363   0.93697865    1.1700809  -0.26411363    1.2010923   518400 
 1469000   0.80159392  -0.26286558  -0.26286558   0.93952299    1.1780786  -0.26286558    1.2023886   518400 
 1470000   0.80028297  -0.26235957  -0.26235957   0.93806258    1.1776305  -0.26235957    1.2004221   518400 
 1471000   0.80061195  -0.26283244  -0.26283244   0.93808316    1.1756244  -0.26283244    1.2009156   518400 
 1472000   0.80032197  -0.26307147  -0.26307147   0.93740918    1.1730109  -0.26307147    1.2004806   518400 
 1473000   0.79985594  -0.26221305  -0.26221305   0.93756855    1.1781284  -0.26221305    1.1997816   518400 
 1474000   0.80048468  -0.26253259  -0.26253259   0.93819212    1.1764075  -0.26253259    1.2007247   518400 
 1475000   0.80110788  -0.26358036  -0.26358036   0.93807914    1.1723535  -0.26358036    1.2016595   518400 
 1476000   0.79990387  -0.26346995  -0.26346995   0.93638355     1.172195  -0.26346995    1.1998535   518400 
 1477000   0.80108614  -0.26322077  -0.26322077   0.93840613    1.1732805  -0.26322077    1.2016269   518400 
 1478000   0.80072494  -0.26295059  -0.26295059   0.93813451    1.1750957  -0.26295059    1.2010851   518400 
 1479000   0.79863169  -0.26264538  -0.26264538   0.93529985    1.1744321  -0.26264538    1.1979452   518400 
 1480000   0.79839627  -0.26410962  -0.26410962   0.93348248    1.1698351  -0.26410962    1.1975921   518400 
 1481000   0.79938945  -0.26241357  -0.26241357   0.93666829    1.1775933  -0.26241357    1.1990819   518400 
 1482000   0.79897785  -0.26243889  -0.26243889   0.93602557    1.1753426  -0.26243889    1.1984645   518400 
 1483000   0.79873957  -0.26285285  -0.26285285   0.93525419    1.1737748  -0.26285285     1.198107   518400 
 1484000   0.79965786  -0.26272869  -0.26272869   0.93675578    1.1749341  -0.26272869    1.1994845   518400 
 1485000   0.80061097  -0.26268604  -0.26268604   0.93822809    1.1764495  -0.26268604    1.2009141   518400 
 1486000   0.80271698     -0.26376     -0.26376   0.94031315    1.1733623     -0.26376    1.2040731   518400 
 1487000    0.8002439  -0.26306775  -0.26306775   0.93729578    1.1748772  -0.26306775    1.2003635   518400 
 1488000   0.80031638  -0.26329035  -0.26329035    0.9371819    1.1735039  -0.26329035    1.2004723   518400 
 1489000   0.79988546  -0.26332564  -0.26332564   0.93650024    1.1744612  -0.26332564    1.1998259   518400 
 1490000    0.7990558  -0.26345271  -0.26345271   0.93512868    1.1722287  -0.26345271    1.1985814   518400 
 1491000   0.79974307    -0.263451    -0.263451    0.9361613    1.1739013    -0.263451    1.1996123   518400 
 1492000   0.79938694  -0.26335964  -0.26335964   0.93571846    1.1718001  -0.26335964    1.1990781   518400 
 1493000   0.79890675  -0.26249967  -0.26249967   0.93585814    1.1758093  -0.26249967    1.1983578   518400 
 1494000   0.79934263  -0.26276105  -0.26276105   0.93625058    1.1748502  -0.26276105    1.1990116   518400 
 1495000   0.80113842     -0.26245     -0.26245   0.93925531    1.1760062     -0.26245    1.2017053   518400 
 1496000   0.80062152  -0.26312439  -0.26312439   0.93780556    1.1734415  -0.26312439      1.20093   518400 
 1497000   0.79942052  -0.26439573  -0.26439573   0.93473273     1.170808  -0.26439573    1.1991285   518400 
 1498000   0.79977069  -0.26307402  -0.26307402    0.9365797    1.1752625  -0.26307402    1.1996537   518400 
 1499000   0.79991033  -0.26285532  -0.26285532   0.93700785    1.1740147  -0.26285532    1.1998632   518400 
 1500000   0.80023195  -0.26324656  -0.26324656   0.93709906    1.1718004  -0.26324656    1.2003456   518400 
 1501000   0.80002476  -0.26245871  -0.26245871   0.93757612    1.1766494  -0.26245871    1.2000348   518400 
 1502000   0.80098419  -0.26465326  -0.26465326   0.93682071    1.1688907  -0.26465326     1.201474   518400 
 1503000   0.79942498  -0.26208968  -0.26208968   0.93704548    1.1786879  -0.26208968    1.1991352   518400 
 1504000   0.79921163  -0.26288929  -0.26288929   0.93592585    1.1732018  -0.26288929    1.1988151   518400 
 1505000   0.80052998  -0.26388915  -0.26388915    0.9369035    1.1709649  -0.26388915    1.2007926   518400 
 1506000    0.7990364   -0.2629026   -0.2629026   0.93564969      1.17371   -0.2629026    1.1985523   518400 
 1507000   0.80095808  -0.26432824  -0.26432824   0.93710657    1.1705412  -0.26432824    1.2014348   518400 
 1508000   0.80010107  -0.26284821  -0.26284821   0.93730108    1.1760165  -0.26284821    1.2001493   518400 
 1509000   0.80253138  -0.26345618  -0.26345618   0.94033857    1.1724806  -0.26345618    1.2037948   518400 
 1510000   0.80094316  -0.26324589  -0.26324589   0.93816653    1.1731411  -0.26324589    1.2014124   518400 
 1511000   0.80019435  -0.26310881  -0.26310881   0.93718039    1.1738273  -0.26310881    1.2002892   518400 
 1512000   0.79986261  -0.26263723  -0.26263723   0.93715438    1.1747266  -0.26263723    1.1997916   518400 
 1513000   0.79994393  -0.26338438  -0.26338438   0.93652919    1.1729972  -0.26338438    1.1999136   518400 
 1514000   0.80093955  -0.26200809  -0.26200809   0.93939893    1.1783917  -0.26200809     1.201407   518400 
 1515000   0.80095055  -0.26357411  -0.26357411   0.93784939    1.1722935  -0.26357411    1.2014235   518400 
 1516000    0.7998367  -0.26216142  -0.26216142   0.93759131    1.1777312  -0.26216142    1.1997527   518400 
 1517000   0.80114789  -0.26331875  -0.26331875   0.93840077    1.1748513  -0.26331875    1.2017195   518400 
 1518000   0.80012324  -0.26335803  -0.26335803   0.93682452     1.174847  -0.26335803    1.2001825   518400 
 1519000   0.79981831    -0.263375    -0.263375   0.93635015      1.17337    -0.263375    1.1997251   518400 
 1520000   0.79820041  -0.26350957  -0.26350957   0.93378874    1.1700422  -0.26350957    1.1972983   518400 
 1521000   0.79917854  -0.26362186  -0.26362186   0.93514365    1.1699056  -0.26362186    1.1987655   518400 
 1522000   0.79927062  -0.26327814  -0.26327814   0.93562547    1.1734273  -0.26327814    1.1989036   518400 
 1523000   0.79911917  -0.26244335  -0.26244335   0.93623309    1.1762448  -0.26244335    1.1986764   518400 
 1524000   0.79902245  -0.26346395  -0.26346395   0.93506741    1.1713332  -0.26346395    1.1985314   518400 
 1525000   0.80058413  -0.26336954  -0.26336954   0.93750434     1.172945  -0.26336954    1.2008739   518400 
 1526000   0.80133587  -0.26241525  -0.26241525   0.93958623    1.1774128  -0.26241525    1.2020015   518400 
 1527000   0.80058444  -0.26377226  -0.26377226   0.93710209    1.1732074  -0.26377226    1.2008743   518400 
 1528000   0.80023273  -0.26305887  -0.26305887   0.93728791    1.1735887  -0.26305887    1.2003468   518400 
 1529000   0.79983805  -0.26420662  -0.26420662   0.93554814    1.1720225  -0.26420662    1.1997548   518400 
 1530000   0.80024873    -0.263345    -0.263345   0.93702578    1.1742762    -0.263345    1.2003708   518400 
 1531000   0.79951549  -0.26337459  -0.26337459   0.93589633    1.1722663  -0.26337459    1.1992709   518400 
 1532000   0.79999471  -0.26259533  -0.26259533   0.93739442    1.1774653  -0.26259533    1.1999897   518400 
 1533000   0.79996288  -0.26389025  -0.26389025   0.93605175    1.1711475  -0.26389025     1.199942   518400 
 1534000   0.79913605  -0.26399913  -0.26399913   0.93470264    1.1711102  -0.26399913    1.1987018   518400 
 1535000   0.79922458  -0.26274214  -0.26274214   0.93609242    1.1742198  -0.26274214    1.1988346   518400 
 1536000   0.79872605  -0.26249293  -0.26249293   0.93559383    1.1750283  -0.26249293    1.1980868   518400 
 1537000   0.80106766  -0.26382535  -0.26382535   0.93777383    1.1725397  -0.26382535    1.2015992   518400 
 1538000   0.80010574  -0.26261794  -0.26261794   0.93753836    1.1766312  -0.26261794    1.2001563   518400 
 1539000   0.80179936  -0.26335181  -0.26335181   0.93934491    1.1740609  -0.26335181    1.2026967   518400 
 1540000   0.80064444  -0.26267718  -0.26267718   0.93828716    1.1753629  -0.26267718    1.2009643   518400 
 1541000   0.80000411  -0.26294112  -0.26294112   0.93706273     1.175266  -0.26294112    1.2000038   518400 
 1542000   0.79987503  -0.26178886  -0.26178886   0.93802137    1.1790533  -0.26178886    1.1998102   518400 
 1543000   0.80038409  -0.26330227  -0.26330227   0.93727156    1.1731073  -0.26330227    1.2005738   518400 
 1544000   0.80139837  -0.26332578  -0.26332578   0.93876947     1.173635  -0.26332578    1.2020952   518400 
 1545000   0.80109989  -0.26280949  -0.26280949   0.93883803    1.1771584  -0.26280949    1.2016475   518400 
 1546000   0.80043509  -0.26330183  -0.26330183    0.9373485    1.1728871  -0.26330183    1.2006503   518400 
 1547000    0.7998014  -0.26282196  -0.26282196   0.93687783    1.1743246  -0.26282196    1.1996998   518400 
 1548000   0.79777158  -0.26280965  -0.26280965   0.93384541    1.1737061  -0.26280965    1.1966551   518400 
 1549000   0.79942614   -0.2636114   -0.2636114    0.9355255    1.1730053   -0.2636114    1.1991369   518400 
 1550000   0.79995219  -0.26287391  -0.26287391   0.93705205    1.1766546  -0.26287391     1.199926   518400 
 1551000   0.79965039  -0.26322167  -0.26322167   0.93625159    1.1736092  -0.26322167    1.1994733   518400 
 1552000    0.8012133  -0.26424994  -0.26424994    0.9375677    1.1708647  -0.26424994    1.2018176   518400 
 1553000   0.80097383  -0.26268949  -0.26268949   0.93876893    1.1762765  -0.26268949    1.2014584   518400 
 1554000   0.80054706  -0.26318208  -0.26318208    0.9376362    1.1735618  -0.26318208    1.2008183   518400 
 1555000   0.80064661  -0.26288845  -0.26288845   0.93807915    1.1744589  -0.26288845    1.2009676   518400 
 1556000   0.80050704  -0.26292429  -0.26292429   0.93783395    1.1748804  -0.26292429    1.2007582   518400 
 1557000   0.80007247  -0.26345273  -0.26345273   0.93665366    1.1729099  -0.26345273    1.2001064   518400 
 1558000   0.80140889  -0.26454936  -0.26454936   0.93756166    1.1697368  -0.26454936     1.202111   518400 
 1559000    0.8011712  -0.26259286  -0.26259286   0.93916162    1.1777725  -0.26259286    1.2017545   518400 
 1560000   0.80088565  -0.26325431  -0.26325431   0.93807185    1.1743032  -0.26325431    1.2013262   518400 
 1561000   0.79956597  -0.26433581  -0.26433581   0.93501083    1.1698576  -0.26433581    1.1993466   518400 
 1562000     0.798773  -0.26309326  -0.26309326   0.93506393    1.1733722  -0.26309326    1.1981572   518400 
 1563000   0.79952885   -0.2635285   -0.2635285   0.93576246    1.1712888   -0.2635285     1.199291   518400 
 1564000   0.79787846  -0.26442779  -0.26442779   0.93238759    1.1674207  -0.26442779    1.1968154   518400 
 1565000   0.80015883  -0.26363622  -0.26363622   0.93659971    1.1738337  -0.26363622    1.2002359   518400 
 1566000   0.80060995  -0.26494023  -0.26494023   0.93597238    1.1690036  -0.26494023    1.2009126   518400 
 1567000   0.80104081  -0.26361191  -0.26361191   0.93794698     1.172494  -0.26361191    1.2015589   518400 
 1568000   0.80033263  -0.26202145  -0.26202145   0.93847518    1.1784864  -0.26202145    1.2004966   518400 
 1569000    0.7989188  -0.26243738  -0.26243738   0.93593851    1.1769094  -0.26243738    1.1983759   518400 
 1570000   0.79945697  -0.26307923  -0.26307923    0.9361039    1.1736211  -0.26307923    1.1991831   518400 
 1571000   0.80000783  -0.26442727  -0.26442727   0.93558216    1.1691848  -0.26442727    1.2000094   518400 
 1572000   0.79982851  -0.26353605  -0.26353605   0.93620439    1.1720159  -0.26353605    1.1997404   518400 
 1573000   0.79987283   -0.2635719   -0.2635719   0.93623504    1.1714482   -0.2635719    1.1998069   518400 
 1574000   0.79860534   -0.2638676   -0.2638676    0.9340381     1.170643   -0.2638676    1.1979057   518400 
 1575000   0.79952698  -0.26332802  -0.26332802   0.93596014    1.1725763  -0.26332802    1.1992882   518400 
 1576000    0.7995429  -0.26285183  -0.26285183    0.9364602    1.1759996  -0.26285183     1.199312   518400 
 1577000   0.80142145   -0.2639159   -0.2639159   0.93821395    1.1736583   -0.2639159    1.2021299   518400 
 1578000   0.80080896  -0.26318788  -0.26318788   0.93802324    1.1739649  -0.26318788    1.2012111   518400 
 1579000   0.80064179  -0.26367421  -0.26367421   0.93728616     1.173191  -0.26367421    1.2009604   518400 
 1580000   0.79884606  -0.26275561  -0.26275561   0.93551117    1.1757462  -0.26275561    1.1982668   518400 
 1581000   0.80000322  -0.26413217  -0.26413217   0.93587035    1.1715127  -0.26413217    1.2000025   518400 
 1582000   0.79947145  -0.26401802  -0.26401802   0.93518683    1.1705068  -0.26401802    1.1992049   518400 
 1583000   0.79981809  -0.26391898  -0.26391898   0.93580584    1.1719609  -0.26391898    1.1997248   518400 
 1584000   0.80032065  -0.26308709  -0.26308709   0.93739157    1.1765349  -0.26308709    1.2004787   518400 
 1585000   0.79954319   -0.2622708   -0.2622708   0.93704167    1.1764139   -0.2622708    1.1993125   518400 
 1586000   0.80094577  -0.26321648  -0.26321648   0.93819986    1.1728702  -0.26321648    1.2014163   518400 
 1587000   0.80092649  -0.26218632  -0.26218632    0.9392011    1.1778964  -0.26218632    1.2013874   518400 
 1588000   0.79875291   -0.2629286   -0.2629286   0.93519845    1.1740149   -0.2629286    1.1981271   518400 
 1589000   0.79952552  -0.26293257  -0.26293257   0.93635339    1.1721914  -0.26293257     1.199286   518400 
 1590000   0.79948323  -0.26323613  -0.26323613    0.9359864    1.1739083  -0.26323613    1.1992225   518400 
 1591000   0.79821035   -0.2629109   -0.2629109   0.93440232    1.1724538   -0.2629109    1.1973132   518400 
 1592000   0.80202075  -0.26332103  -0.26332103   0.93970778    1.1740532  -0.26332103    1.2030288   518400 
 1593000   0.80053551  -0.26302284  -0.26302284   0.93777811    1.1738684  -0.26302284    1.2008009   518400 
 1594000   0.79983108  -0.26226835  -0.26226835   0.93747595    1.1765996  -0.26226835    1.1997443   518400 
 1595000   0.79955041  -0.26342288  -0.26342288   0.93590042    1.1716532  -0.26342288    1.1993233   518400 
 1596000   0.79932682  -0.26318983  -0.26318983   0.93579809    1.1743026  -0.26318983    1.1989879   518400 
 1597000   0.79929394  -0.26379505  -0.26379505   0.93514354    1.1707757  -0.26379505    1.1989386   518400 
 1598000   0.79972078  -0.26221491  -0.26221491   0.93736395     1.175474  -0.26221491    1.1995789   518400 
 1599000   0.79911917  -0.26245356  -0.26245356   0.93622288    1.1771243  -0.26245356    1.1986764   518400 
 1600000   0.80101999  -0.26318151  -0.26318151   0.93834615    1.1737627  -0.26318151    1.2015277   518400 
 1601000   0.80007091  -0.26368166  -0.26368166   0.93642239    1.1718781  -0.26368166     1.200104   518400 
 1602000    0.8016094  -0.26204051  -0.26204051   0.94037127    1.1785822  -0.26204051    1.2024118   518400 
 1603000    0.8005577  -0.26385815  -0.26385815   0.93697608    1.1739714  -0.26385815    1.2008342   518400 
 1604000   0.80017951  -0.26348877  -0.26348877   0.93677817    1.1722594  -0.26348877    1.2002669   518400 
 1605000   0.80067725  -0.26369011  -0.26369011   0.93732344     1.171536  -0.26369011    1.2010136   518400 
 1606000   0.80027537  -0.26270494  -0.26270494    0.9377058    1.1748576  -0.26270494    1.2004107   518400 
 1607000   0.79915892  -0.26265525  -0.26265525   0.93608083    1.1762555  -0.26265525    1.1987361   518400 
 1608000   0.80117767  -0.26427062  -0.26427062   0.93749357    1.1706778  -0.26427062    1.2017642   518400 
 1609000    0.8002729  -0.26279599  -0.26279599   0.93761103     1.175505  -0.26279599     1.200407   518400 
 1610000   0.80062615   -0.2631644   -0.2631644   0.93777251    1.1744095   -0.2631644    1.2009369   518400 
 1611000   0.80235963   -0.2627736   -0.2627736   0.94076352    1.1757438   -0.2627736    1.2035371   518400 
 1612000   0.80027463  -0.26258531  -0.26258531   0.93782432    1.1760768  -0.26258531    1.2004096   518400 
 1613000   0.80093261  -0.26305344  -0.26305344   0.93834315    1.1755354  -0.26305344    1.2013966   518400 
 1614000   0.80069393  -0.26319565  -0.26319565   0.93784293      1.17348  -0.26319565    1.2010386   518400 
 1615000   0.79972126   -0.2627392   -0.2627392   0.93684038    1.1759677   -0.2627392    1.1995796   518400 
 1616000   0.79872894  -0.26403555  -0.26403555   0.93405555    1.1704042  -0.26403555    1.1980911   518400 
 1617000    0.7995331  -0.26297787  -0.26297787   0.93631946    1.1733123  -0.26297787    1.1992973   518400 
 1618000   0.79949279  -0.26297787  -0.26297787     0.936259    1.1748273  -0.26297787    1.1992369   518400 
 1619000   0.79950365  -0.26321317  -0.26321317   0.93603999    1.1723457  -0.26321317    1.1992532   518400 
 1620000   0.80009083  -0.26309821  -0.26309821   0.93703572     1.173628  -0.26309821    1.2001339   518400 
 1621000    0.8004592  -0.26308775  -0.26308775   0.93759873    1.1761305  -0.26308775    1.2006865   518400 
 1622000   0.80090759  -0.26220508  -0.26220508     0.939154    1.1791893  -0.26220508    1.2013591   518400 
 1623000   0.79969985   -0.2630954   -0.2630954   0.93645206    1.1750989   -0.2630954    1.1995475   518400 
 1624000   0.80030015  -0.26347254  -0.26347254   0.93697537    1.1749332  -0.26347254    1.2004479   518400 
 1625000   0.79983389   -0.2636776   -0.2636776   0.93607091    1.1721419   -0.2636776    1.1997485   518400 
 1626000   0.80020236  -0.26268977  -0.26268977   0.93761145    1.1746731  -0.26268977    1.2003012   518400 
 1627000   0.80125105  -0.26213678  -0.26213678   0.93973748    1.1786666  -0.26213678    1.2018743   518400 
 1628000   0.80126738  -0.26405234  -0.26405234   0.93784641    1.1718464  -0.26405234    1.2018988   518400 
 1629000   0.80099018   -0.2634514   -0.2634514   0.93803155     1.173202   -0.2634514     1.201483   518400 
 1630000   0.79975446  -0.26420991  -0.26420991   0.93541946    1.1690349  -0.26420991    1.1996294   518400 
 1631000   0.79973478  -0.26349083  -0.26349083   0.93610903    1.1750743  -0.26349083    1.1995999   518400 
 1632000   0.79989792  -0.26319555  -0.26319555   0.93664901    1.1747771  -0.26319555    1.1998446   518400 
 1633000   0.79920475  -0.26247253  -0.26247253   0.93633227    1.1763247  -0.26247253    1.1988048   518400 
 1634000   0.80069265  -0.26344329  -0.26344329   0.93759336    1.1723745  -0.26344329    1.2010367   518400 
 1635000   0.80047138  -0.26252842  -0.26252842   0.93817634    1.1776621  -0.26252842    1.2007048   518400 
 1636000   0.79963293  -0.26208779  -0.26208779   0.93735929    1.1765811  -0.26208779    1.1994471   518400 
 1637000   0.80161822  -0.26371629  -0.26371629   0.93870873    1.1746523  -0.26371629     1.202425   518400 
 1638000   0.79879046  -0.26301236  -0.26301236   0.93517103    1.1733506  -0.26301236    1.1981834   518400 
 1639000   0.79867628  -0.26281133  -0.26281133   0.93520079    1.1734978  -0.26281133    1.1980121   518400 
 1640000   0.79924568  -0.26329669  -0.26329669   0.93556952    1.1723997  -0.26329669    1.1988662   518400 
 1641000    0.7978424  -0.26293584  -0.26293584   0.93382545    1.1745891  -0.26293584    1.1967613   518400 
 1642000   0.79896871  -0.26300715  -0.26300715   0.93544361    1.1736578  -0.26300715    1.1984508   518400 
 1643000   0.79987583  -0.26327971  -0.26327971   0.93653171    1.1729998  -0.26327971    1.1998114   518400 
 1644000   0.80048615  -0.26337093  -0.26337093   0.93735597    1.1743669  -0.26337093    1.2007269   518400 
 1645000   0.79944861  -0.26348002  -0.26348002   0.93569059    1.1732903  -0.26348002    1.1991706   518400 
 1646000   0.79964537  -0.26443471  -0.26443471   0.93503103     1.167653  -0.26443471    1.1994657   518400 
 1647000   0.80015529  -0.26344899  -0.26344899   0.93678164     1.173505  -0.26344899    1.2002306   518400 
 1648000   0.80029849  -0.26377752  -0.26377752    0.9366679    1.1730289  -0.26377752    1.2004454   518400 
 1649000   0.80034084  -0.26293912  -0.26293912   0.93756983    1.1734236  -0.26293912    1.2005089   518400 
 1650000   0.80131597  -0.26360606  -0.26360606   0.93836557    1.1721311  -0.26360606    1.2019716   518400 
 1651000   0.80022086  -0.26233352  -0.26233352   0.93799545    1.1761846  -0.26233352     1.200329   518400 
 1652000   0.80125798  -0.26342499  -0.26342499   0.93845966    1.1736493  -0.26342499    1.2018847   518400 
 1653000   0.80033912  -0.26313007  -0.26313007   0.93737629    1.1731177  -0.26313007    1.2005064   518400 
 1654000   0.80057385  -0.26402621  -0.26402621   0.93683224    1.1704282  -0.26402621    1.2008585   518400 
 1655000   0.80029781    -0.263088    -0.263088   0.93735639     1.174514    -0.263088    1.2004444   518400 
 1656000    0.7997487  -0.26405002  -0.26405002   0.93557071    1.1698732  -0.26405002    1.1996207   518400 
 1657000   0.79769962  -0.26288121  -0.26288121   0.93366591    1.1740205  -0.26288121    1.1965471   518400 
 1658000   0.79921655  -0.26356793  -0.26356793   0.93525458    1.1740776  -0.26356793    1.1988225   518400 
 1659000   0.79901852  -0.26336724  -0.26336724   0.93515822    1.1723334  -0.26336724    1.1985255   518400 
 1660000   0.79864355  -0.26377725  -0.26377725   0.93418576    1.1721497  -0.26377725     1.197963   518400 
 1661000   0.79971343  -0.26291091  -0.26291091   0.93665692    1.1743345  -0.26291091    1.1995678   518400 
 1662000   0.79937164  -0.26238375  -0.26238375   0.93667139    1.1746988  -0.26238375    1.1990551   518400 
 1663000   0.79970987  -0.26305297  -0.26305297   0.93650953    1.1744619  -0.26305297    1.1995625   518400 
 1664000   0.79954931  -0.26239511  -0.26239511   0.93692654    1.1759318  -0.26239511    1.1993217   518400 
 1665000   0.79980659  -0.26434756  -0.26434756   0.93536001    1.1715714  -0.26434756    1.1997076   518400 
 1666000   0.80113946  -0.26305883  -0.26305883   0.93864805    1.1737949  -0.26305883    1.2017069   518400 
 1667000   0.80041889  -0.26307013  -0.26307013   0.93755589    1.1740262  -0.26307013     1.200626   518400 
 1668000   0.80062127  -0.26279577  -0.26279577   0.93813382    1.1778512  -0.26279577    1.2009296   518400 
 1669000   0.80044925  -0.26357946  -0.26357946   0.93709209    1.1721583  -0.26357946    1.2006716   518400 
 1670000   0.79926488  -0.26376067  -0.26376067   0.93513434    1.1722295  -0.26376067     1.198895   518400 
 1671000   0.79819736  -0.26371063  -0.26371063   0.93358309    1.1724346  -0.26371063    1.1972937   518400 
 1672000    0.7999939  -0.26390589  -0.26390589   0.93608264    1.1707049  -0.26390589    1.1999885   518400 
 1673000   0.79905161  -0.26337696  -0.26337696   0.93519814    1.1723661  -0.26337696    1.1985751   518400 
 1674000    0.7996438  -0.26329519  -0.26329519    0.9361682    1.1730935  -0.26329519    1.1994634   518400 
 1675000   0.79927404  -0.26332006  -0.26332006   0.93558868    1.1748028  -0.26332006    1.1989087   518400 
 1676000    0.7996697  -0.26346934  -0.26346934    0.9360329    1.1731258  -0.26346934    1.1995022   518400 
 1677000   0.79785621  -0.26352069  -0.26352069   0.93326131    1.1732301  -0.26352069     1.196782   518400 
 1678000    0.7998855  -0.26402607  -0.26402607   0.93579987    1.1711716  -0.26402607    1.1998259   518400 
 1679000   0.79903032  -0.26343806  -0.26343806   0.93510511    1.1725882  -0.26343806    1.1985432   518400 
 1680000   0.80023036  -0.26258131  -0.26258131   0.93776191    1.1771171  -0.26258131    1.2003432   518400 
 1681000   0.80118382  -0.26431377  -0.26431377   0.93745965     1.171132  -0.26431377    1.2017734   518400 
 1682000   0.80042066  -0.26291591  -0.26291591   0.93771277    1.1745302  -0.26291591    1.2006287   518400 
 1683000   0.80048126  -0.26316227  -0.26316227    0.9375573    1.1732263  -0.26316227    1.2007196   518400 
 1684000   0.80021985  -0.26278926  -0.26278926   0.93753821    1.1763285  -0.26278926    1.2003275   518400 
 1685000   0.80151544  -0.26315166  -0.26315166   0.93911918    1.1750182  -0.26315166    1.2022708   518400 
 1686000   0.80048643  -0.26360009  -0.26360009   0.93712724     1.170973  -0.26360009    1.2007273   518400 
 1687000   0.80090995   -0.2633069   -0.2633069   0.93805571    1.1730516   -0.2633069    1.2013626   518400 
 1688000   0.80018072   -0.2622902   -0.2622902   0.93797856    1.1763983   -0.2622902    1.2002688   518400 
 1689000   0.80085635  -0.26378749  -0.26378749   0.93749472    1.1733991  -0.26378749    1.2012822   518400 
 1690000   0.80080382   -0.2621119   -0.2621119   0.93909151    1.1777799   -0.2621119    1.2012034   518400 
 1691000   0.79997929  -0.26321195  -0.26321195   0.93675467    1.1723229  -0.26321195    1.1999666   518400 
 1692000    0.7999336  -0.26299196  -0.26299196   0.93690612    1.1740412  -0.26299196    1.1998981   518400 
 1693000   0.80010679  -0.26301668  -0.26301668   0.93714119    1.1729152  -0.26301668    1.2001579   518400 
 1694000    0.8006925  -0.26414074  -0.26414074   0.93689569    1.1712475  -0.26414074    1.2010364   518400 
 1695000   0.80098406  -0.26282591  -0.26282591   0.93864786    1.1770294  -0.26282591    1.2014738   518400 
 1696000   0.79982964  -0.26272105  -0.26272105    0.9370211    1.1761848  -0.26272105    1.1997421   518400 
 1697000   0.80145018  -0.26345786  -0.26345786    0.9387151    1.1757609  -0.26345786     1.202173   518400 
 1698000   0.79978845  -0.26246742  -0.26246742   0.93721293    1.1769507  -0.26246742    1.1996804   518400 
 1699000   0.79985941  -0.26209493  -0.26209493   0.93769186    1.1773618  -0.26209493    1.1997868   518400 
 1700000   0.79990361  -0.26289792  -0.26289792   0.93695519    1.1744771  -0.26289792    1.1998531   518400 
 1701000   0.79957977  -0.26243738  -0.26243738   0.93692997    1.1764079  -0.26243738    1.1993673   518400 
 1702000   0.80066572  -0.26326141  -0.26326141   0.93773484    1.1746142  -0.26326141    1.2009963   518400 
 1703000    0.8001698  -0.26285124  -0.26285124   0.93740115    1.1750563  -0.26285124    1.2002524   518400 
 1704000   0.80096475  -0.26260616  -0.26260616   0.93883864    1.1767697  -0.26260616    1.2014448   518400 
 1705000   0.80177425  -0.26363432  -0.26363432   0.93902474    1.1730353  -0.26363432    1.2026591   518400 
 1706000   0.80022568  -0.26302953  -0.26302953   0.93730667    1.1754302  -0.26302953    1.2003362   518400 
 1707000   0.79866473  -0.26323295  -0.26323295   0.93476184    1.1742955  -0.26323295    1.1979948   518400 
 1708000   0.79997889  -0.26357127  -0.26357127   0.93639475     1.172763  -0.26357127     1.199966   518400 
 1709000   0.80139449  -0.26260379  -0.26260379   0.93948563    1.1776477  -0.26260379    1.2020894   518400 
 1710000   0.80027077  -0.26364518  -0.26364518   0.93675866    1.1728116  -0.26364518    1.2004038   518400 
 1711000   0.80033497  -0.26334625  -0.26334625   0.93715389    1.1750706  -0.26334625    1.2005001   518400 
 1712000   0.80130567  -0.26141644  -0.26141644   0.94053974    1.1800997  -0.26141644    1.2019562   518400 
 1713000   0.80095405  -0.26415326  -0.26415326   0.93727551     1.170247  -0.26415326    1.2014288   518400 
 1714000     0.801237   -0.2645407   -0.2645407   0.93731249    1.1694307   -0.2645407    1.2018532   518400 
 1715000   0.79911223  -0.26225072  -0.26225072   0.93641531    1.1779033  -0.26225072     1.198666   518400 
 1716000    0.7996342  -0.26312758  -0.26312758   0.93632142    1.1727929  -0.26312758     1.199449   518400 
 1717000   0.80156547  -0.26375995  -0.26375995   0.93858594    1.1723801  -0.26375995    1.2023459   518400 
 1718000   0.79995282  -0.26221739  -0.26221739   0.93770952     1.178477  -0.26221739    1.1999269   518400 
 1719000   0.79958022  -0.26382917  -0.26382917   0.93553884    1.1722549  -0.26382917     1.199368   518400 
 1720000   0.79946368  -0.26350214  -0.26350214   0.93569106    1.1749512  -0.26350214    1.1991932   518400 
 1721000   0.80135361  -0.26283758  -0.26283758   0.93919052    1.1762291  -0.26283758    1.2020281   518400 
 1722000   0.79979622  -0.26296692  -0.26296692   0.93672509    1.1743742  -0.26296692     1.199692   518400 
 1723000   0.80017774  -0.26401031  -0.26401031   0.93625399     1.172109  -0.26401031    1.2002643   518400 
 1724000   0.79910136  -0.26335385  -0.26335385   0.93529588     1.173267  -0.26335385    1.1986497   518400 
 1725000   0.80003926  -0.26266261  -0.26266261   0.93739397    1.1762714  -0.26266261    1.2000566   518400 
 1726000   0.80021923  -0.26240671  -0.26240671   0.93791982    1.1781655  -0.26240671    1.2003265   518400 
 1727000   0.80111617  -0.26276035  -0.26276035   0.93891158    1.1751733  -0.26276035    1.2016719   518400 
 1728000   0.79898512  -0.26365077  -0.26365077    0.9348246    1.1709414  -0.26365077    1.1984754   518400 
 1729000   0.79990555  -0.26348611  -0.26348611    0.9363699    1.1737728  -0.26348611     1.199856   518400 
 1730000   0.79888015  -0.26326193  -0.26326193   0.93505598    1.1731583  -0.26326193    1.1983179   518400 
 1731000   0.79890158   -0.2644605   -0.2644605   0.93388956    1.1685593   -0.2644605    1.1983501   518400 
 1732000   0.79892911  -0.26358541  -0.26358541   0.93480594    1.1711188  -0.26358541    1.1983914   518400 
 1733000   0.79957885  -0.26322056  -0.26322056    0.9361454    1.1730714  -0.26322056     1.199366   518400 
 1734000   0.79916207  -0.26273354  -0.26273354   0.93600725    1.1771056  -0.26273354    1.1987408   518400 
 1735000   0.80016022  -0.26425416  -0.26425416   0.93598385    1.1698088  -0.26425416     1.200238   518400 
 1736000      0.79998  -0.26207673  -0.26207673   0.93789095    1.1772707  -0.26207673    1.1999677   518400 
 1737000    0.7999188  -0.26352779  -0.26352779    0.9363481    1.1728699  -0.26352779    1.1998759   518400 
 1738000   0.79978029   -0.2625215   -0.2625215   0.93714663    1.1759125   -0.2625215    1.1996681   518400 
 1739000   0.80069328  -0.26343398  -0.26343398   0.93760362    1.1722194  -0.26343398    1.2010376   518400 
 1740000   0.80106961  -0.26295624  -0.26295624   0.93864586    1.1762248  -0.26295624    1.2016021   518400 
 1741000   0.80275983  -0.26204403  -0.26204403   0.94209339    1.1805178  -0.26204403    1.2041374   518400 
 1742000    0.8010078  -0.26321182  -0.26321182   0.93829755    1.1746042  -0.26321182    1.2015094   518400 
 1743000   0.80137058  -0.26469636  -0.26469636   0.93735719    1.1699313  -0.26469636    1.2020536   518400 
 1744000   0.80087275  -0.26350725  -0.26350725   0.93779956    1.1732471  -0.26350725    1.2013068   518400 
 1745000   0.79939103  -0.26224623  -0.26224623     0.936838    1.1789188  -0.26224623    1.1990842   518400 
 1746000   0.80019788  -0.26263144  -0.26263144   0.93766306    1.1777895  -0.26263144    1.2002945   518400 
 1747000    0.8012996  -0.26315735  -0.26315735   0.93878973    1.1769348  -0.26315735    1.2019471   518400 
 1748000   0.80023654  -0.26353541  -0.26353541   0.93681708    1.1713975  -0.26353541    1.2003525   518400 
 1749000   0.79959311  -0.26385991  -0.26385991   0.93552745    1.1710588  -0.26385991    1.1993874   518400 
 1750000   0.80071402  -0.26411525  -0.26411525   0.93695345    1.1717157  -0.26411525    1.2010687   518400 
 1751000   0.80037643  -0.26380799  -0.26380799   0.93675435    1.1714833  -0.26380799    1.2005623   518400 
 1752000   0.79814028  -0.26339898  -0.26339898   0.93380912    1.1715746  -0.26339898    1.1972081   518400 
 1753000   0.79903426  -0.26315356  -0.26315356   0.93539552     1.173846  -0.26315356    1.1985491   518400 
 1754000   0.79920278  -0.26275579  -0.26275579   0.93604607    1.1727128  -0.26275579    1.1988019   518400 
 1755000   0.80001317  -0.26347999  -0.26347999   0.93653746     1.172347  -0.26347999    1.2000174   518400 
 1756000   0.79991457  -0.26252113  -0.26252113   0.93734841    1.1784349  -0.26252113    1.1998695   518400 
 1757000   0.79962806  -0.26287877  -0.26287877   0.93656101    1.1740292  -0.26287877    1.1994398   518400 
 1758000   0.79806035  -0.26280185  -0.26280185   0.93428636    1.1755901  -0.26280185    1.1970882   518400 
 1759000   0.80018712  -0.26352205  -0.26352205   0.93675631    1.1730245  -0.26352205    1.2002784   518400 
 1760000   0.80129862  -0.26244213  -0.26244213   0.93950348    1.1777746  -0.26244213    1.2019456   518400 
 1761000   0.80081353  -0.26445504  -0.26445504   0.93676294    1.1686174  -0.26445504     1.201218   518400 
 1762000   0.80039888   -0.2624591   -0.2624591   0.93813691    1.1775544   -0.2624591     1.200596   518400 
 1763000   0.80008369  -0.26225569  -0.26225569   0.93786753    1.1773781  -0.26225569    1.2001232   518400 
 1764000   0.79920875  -0.26327988  -0.26327988   0.93553093    1.1723305  -0.26327988    1.1988108   518400 
 1765000   0.79897761  -0.26288369  -0.26288369   0.93558042     1.174412  -0.26288369    1.1984641   518400 
 1766000   0.80064587  -0.26336645  -0.26336645   0.93760003    1.1729411  -0.26336645    1.2009665   518400 
 1767000    0.7992836  -0.26301821  -0.26301821   0.93590489    1.1766135  -0.26301821    1.1989231   518400 
 1768000   0.80004773  -0.26411056  -0.26411056   0.93595872    1.1714605  -0.26411056    1.2000693   518400 
 1769000    0.7998391  -0.26342358  -0.26342358   0.93633276    1.1737814  -0.26342358    1.1997563   518400 
 1770000     0.800034  -0.26351746  -0.26351746   0.93653122    1.1725366  -0.26351746    1.2000487   518400 
 1771000   0.80083266  -0.26302702  -0.26302702   0.93821965    1.1757738  -0.26302702    1.2012467   518400 
 1772000   0.80052024  -0.26271104  -0.26271104   0.93806701    1.1745251  -0.26271104    1.2007781   518400 
 1773000   0.80123678  -0.26293029  -0.26293029   0.93892256    1.1750869  -0.26293029    1.2018529   518400 
 1774000   0.79940733  -0.26323047  -0.26323047   0.93587822    1.1730596  -0.26323047    1.1991087   518400 
 1775000   0.79994251  -0.26371321  -0.26371321   0.93619825    1.1725905  -0.26371321    1.1999115   518400 
 1776000   0.80028846  -0.26295501  -0.26295501   0.93747537    1.1756209  -0.26295501    1.2004304   518400 
 1777000   0.80042859   -0.2645672   -0.2645672   0.93607337    1.1691671   -0.2645672    1.2006406   518400 
 1778000   0.79979876  -0.26339744  -0.26339744   0.93629839    1.1738387  -0.26339744    1.1996958   518400 
 1779000   0.79912234   -0.2631817   -0.2631817    0.9354995    1.1726326   -0.2631817    1.1986812   518400 
 1780000   0.80025655  -0.26298038  -0.26298038   0.93740213    1.1758687  -0.26298038    1.2003825   518400 
 1781000   0.79917728  -0.26265974  -0.26265974   0.93610387     1.174616  -0.26265974    1.1987636   518400 
 1782000    0.7991594  -0.26424333  -0.26424333   0.93449347    1.1699811  -0.26424333    1.1987368   518400 
 1783000   0.79946482  -0.26242695  -0.26242695   0.93676797    1.1754415  -0.26242695    1.1991949   518400 
 1784000   0.79961209  -0.26167335  -0.26167335   0.93774247    1.1782295  -0.26167335    1.1994158   518400 
 1785000   0.80043594  -0.26336472  -0.26336472   0.93728688     1.173426  -0.26336472    1.2006516   518400 
 1786000   0.79984792   -0.2635663   -0.2635663   0.93620326    1.1725586   -0.2635663    1.1997696   518400 
 1787000   0.79953581  -0.26319869  -0.26319869   0.93610271    1.1718182  -0.26319869    1.1993014   518400 
 1788000   0.79980211  -0.26259452  -0.26259452   0.93710633     1.176716  -0.26259452    1.1997008   518400 
 1789000   0.80105385  -0.26348997  -0.26348997   0.93808849    1.1734146  -0.26348997    1.2015785   518400 
 1790000   0.79959623  -0.26245648  -0.26245648   0.93693556     1.177221  -0.26245648     1.199392   518400 
 1791000   0.80058747  -0.26356153  -0.26356153   0.93731735    1.1721182  -0.26356153    1.2008789   518400 
 1792000   0.80082861  -0.26340483  -0.26340483   0.93783577    1.1753452  -0.26340483    1.2012406   518400 
 1793000   0.79888249  -0.26311577  -0.26311577   0.93520566     1.173909  -0.26311577    1.1983214   518400 
 1794000   0.80034765  -0.26356856  -0.26356856    0.9369506    1.1728092  -0.26356856    1.2005192   518400 
 1795000   0.79992223  -0.26264553  -0.26264553   0.93723551    1.1766761  -0.26264553     1.199881   518400 
 1796000    0.8003129  -0.26372232  -0.26372232   0.93674471    1.1712024  -0.26372232     1.200467   518400 
 1797000   0.79972674  -0.26284145  -0.26284145   0.93674634    1.1743049  -0.26284145    1.1995878   518400 
 1798000   0.80149758   -0.2642524   -0.2642524   0.93799164    1.1701079   -0.2642524     1.202244   518400 
 1799000   0.80028121  -0.26301776  -0.26301776   0.93740174      1.17526  -0.26301776    1.2004195   518400 
 1800000   0.79928628  -0.26358892  -0.26358892   0.93533819    1.1736958  -0.26358892    1.1989271   518400 
 1801000   0.80065017  -0.26434618  -0.26434618   0.93662677    1.1709619  -0.26434618    1.2009729   518400 
 1802000   0.79981637  -0.26262561  -0.26262561   0.93709663    1.1784969  -0.26262561    1.1997222   518400 
 1803000   0.79959944  -0.26363117  -0.26363117   0.93576568    1.1724668  -0.26363117    1.1993968   518400 
 1804000    0.8008936  -0.26309038  -0.26309038    0.9382477    1.1721804  -0.26309038    1.2013381   518400 
 1805000   0.79958047  -0.26412911  -0.26412911   0.93523928    1.1706329  -0.26412911    1.1993684   518400 
 1806000   0.79878873  -0.26232872  -0.26232872   0.93585207    1.1768029  -0.26232872    1.1981808   518400 
 1807000   0.79911045  -0.26362028  -0.26362028   0.93504307    1.1738146  -0.26362028    1.1986634   518400 
 1808000   0.80067042  -0.26287088  -0.26287088   0.93813243    1.1761993  -0.26287088    1.2010033   518400 
 1809000   0.79994281  -0.26306785  -0.26306785   0.93684405    1.1749274  -0.26306785    1.1999119   518400 
 1810000   0.80080355  -0.26275239  -0.26275239   0.93845062    1.1764541  -0.26275239     1.201203   518400 
 1811000    0.7980253  -0.26330807  -0.26330807   0.93372756    1.1729497  -0.26330807    1.1970356   518400 
 1812000   0.79972843  -0.26302897  -0.26302897   0.93656136    1.1734387  -0.26302897    1.1995903   518400 
 1813000    0.8002047   -0.2630773   -0.2630773   0.93722743     1.174643   -0.2630773    1.2003047   518400 
 1814000   0.80078872  -0.26298485  -0.26298485   0.93819591    1.1747627  -0.26298485    1.2011808   518400 
 1815000   0.80136454  -0.26339909  -0.26339909    0.9386454    1.1736693  -0.26339909    1.2020445   518400 
 1816000   0.80103916  -0.26236106  -0.26236106   0.93919536    1.1772774  -0.26236106    1.2015564   518400 
 1817000   0.80068048  -0.26349043  -0.26349043   0.93752797    1.1738522  -0.26349043    1.2010184   518400 
 1818000   0.79914656  -0.26163118  -0.26163118   0.93708635    1.1780332  -0.26163118    1.1987175   518400 
 1819000   0.80102496  -0.26300614  -0.26300614   0.93852898    1.1753508  -0.26300614    1.2015351   518400 
 1820000   0.80031905  -0.26270889  -0.26270889   0.93776737    1.1752131  -0.26270889    1.2004763   518400 
 1821000   0.80001959  -0.26298601  -0.26298601   0.93704106       1.1742  -0.26298601    1.2000271   518400 
 1822000   0.80062334  -0.26287247  -0.26287247   0.93806022    1.1737573  -0.26287247    1.2009327   518400 
 1823000   0.80122269  -0.26390812  -0.26390812   0.93792361    1.1728954  -0.26390812    1.2018317   518400 
 1824000   0.80090982  -0.26323919  -0.26323919   0.93812322    1.1753408  -0.26323919    1.2013624   518400 
 1825000   0.80114842  -0.26396239  -0.26396239   0.93775793    1.1713104  -0.26396239    1.2017203   518400 
 1826000   0.80042066  -0.26413403  -0.26413403   0.93649465    1.1722034  -0.26413403    1.2006287   518400 
 1827000   0.80016802  -0.26282809  -0.26282809   0.93742163    1.1753965  -0.26282809    1.2002497   518400 
 1828000   0.79985042  -0.26380881  -0.26380881   0.93596451    1.1711556  -0.26380881    1.1997733   518400 
 1829000   0.79973438  -0.26448665  -0.26448665   0.93511261    1.1684682  -0.26448665    1.1995993   518400 
 1830000   0.79869902  -0.26335765  -0.26335765   0.93468857    1.1730839  -0.26335765    1.1980462   518400 
 1831000   0.79957441  -0.26342632  -0.26342632   0.93593299    1.1750613  -0.26342632    1.1993593   518400 
 1832000   0.79941902  -0.26326758  -0.26326758   0.93585865     1.172916  -0.26326758    1.1991262   518400 
 1833000   0.79899362  -0.26253711  -0.26253711     0.935951    1.1762697  -0.26253711    1.1984881   518400 
 1834000   0.79928048  -0.26294025  -0.26294025   0.93597816    1.1738447  -0.26294025    1.1989184   518400 
 1835000   0.79930749  -0.26333676  -0.26333676   0.93562217    1.1727653  -0.26333676    1.1989589   518400 
 1836000   0.79994775  -0.26296577  -0.26296577   0.93695355    1.1731636  -0.26296577    1.1999193   518400 
 1837000   0.79981446  -0.26285726  -0.26285726   0.93686211    1.1754308  -0.26285726    1.1997194   518400 
 1838000   0.79987749  -0.26287836  -0.26287836   0.93693555    1.1741585  -0.26287836    1.1998139   518400 
 1839000   0.79971333  -0.26434928  -0.26434928    0.9352184    1.1694832  -0.26434928    1.1995677   518400 
 1840000   0.79994691  -0.26309946  -0.26309946    0.9368186    1.1751472  -0.26309946    1.1999181   518400 
 1841000   0.79920777  -0.26314843  -0.26314843   0.93566092    1.1734741  -0.26314843    1.1988093   518400 
 1842000   0.80078773  -0.26260753  -0.26260753   0.93857174    1.1773327  -0.26260753    1.2011793   518400 
 1843000   0.80066343  -0.26289848  -0.26289848   0.93809434    1.1765067  -0.26289848    1.2009928   518400 
 1844000   0.79887207  -0.26288017  -0.26288017   0.93542563    1.1739487  -0.26288017    1.1983058   518400 
 1845000   0.80000528  -0.26342475  -0.26342475   0.93658085    1.1730572  -0.26342475    1.2000056   518400 
 1846000   0.79975141  -0.26212877  -0.26212877   0.93749603    1.1785156  -0.26212877    1.1996248   518400 
 1847000   0.79997179  -0.26297217  -0.26297217    0.9369832    1.1727895  -0.26297217    1.1999554   518400 
 1848000   0.80050947   -0.2633216   -0.2633216   0.93744028    1.1747443   -0.2633216    1.2007619   518400 
 1849000   0.79838059  -0.26302461  -0.26302461   0.93454397    1.1732823  -0.26302461    1.1975686   518400 
 1850000   0.79993519   -0.2630855   -0.2630855   0.93681497     1.173094   -0.2630855    1.1999005   518400 
 1851000   0.80022378  -0.26364284  -0.26364284   0.93669052    1.1740933  -0.26364284    1.2003334   518400 
 1852000    0.8010472  -0.26368263  -0.26368263   0.93788585    1.1724763  -0.26368263    1.2015685   518400 
 1853000   0.80029666  -0.26289994  -0.26289994   0.93754273    1.1754328  -0.26289994    1.2004427   518400 
 1854000   0.79984873  -0.26487531  -0.26487531   0.93489547    1.1686617  -0.26487531    1.1997708   518400 
 1855000   0.79916895  -0.26445751  -0.26445751    0.9342936    1.1684686  -0.26445751    1.1987511   518400 
 1856000   0.80027084  -0.26310168  -0.26310168   0.93730227    1.1752287  -0.26310168    1.2004039   518400 
 1857000   0.79901455  -0.26272974  -0.26272974   0.93578976    1.1761251  -0.26272974    1.1985195   518400 
 1858000   0.80073557  -0.26335415  -0.26335415   0.93774688     1.174413  -0.26335415     1.201101   518400 
 1859000   0.79991791  -0.26283251  -0.26283251   0.93704204    1.1764142  -0.26283251    1.1998746   518400 
 1860000     0.801172  -0.26341284  -0.26341284   0.93834284    1.1760114  -0.26341284    1.2017557   518400 
 1861000   0.80003997   -0.2623896   -0.2623896   0.93766804    1.1771978   -0.2623896    1.2000576   518400 
 1862000   0.80151429  -0.26319219  -0.26319219   0.93907691    1.1764174  -0.26319219    1.2022691   518400 
 1863000   0.79991911  -0.26234128  -0.26234128   0.93753506     1.177253  -0.26234128    1.1998763   518400 
 1864000    0.7983422  -0.26371507  -0.26371507   0.93379593    1.1704062  -0.26371507     1.197511   518400 
 1865000   0.80008501  -0.26318395  -0.26318395   0.93694125    1.1757014  -0.26318395    1.2001252   518400 
 1866000   0.80147741  -0.26316653  -0.26316653   0.93904726    1.1765004  -0.26316653    1.2022138   518400 
 1867000   0.79980204  -0.26241632  -0.26241632   0.93728442     1.176365  -0.26241632    1.1997007   518400 
 1868000   0.79970732  -0.26348207  -0.26348207   0.93607659    1.1748742  -0.26348207    1.1995587   518400 
 1869000    0.8006235  -0.26253498  -0.26253498   0.93839796    1.1770348  -0.26253498    1.2009329   518400 
 1870000     0.800876  -0.26285078  -0.26285078    0.9384609    1.1758405  -0.26285078    1.2013117   518400 
 1871000   0.80005336  -0.26272413  -0.26272413    0.9373536     1.174892  -0.26272413    1.2000777   518400 
 1872000   0.80106174  -0.26298584  -0.26298584   0.93860445    1.1741747  -0.26298584    1.2015903   518400 
 1873000   0.79966464  -0.26304176  -0.26304176   0.93645288    1.1747243  -0.26304176    1.1994946   518400 
 1874000   0.80016543  -0.26404857  -0.26404857   0.93619727    1.1718182  -0.26404857    1.2002458   518400 
 1875000   0.80006579  -0.26343246  -0.26343246   0.93666391    1.1716511  -0.26343246    1.2000964   518400 
 1876000   0.79974766  -0.26256108  -0.26256108   0.93705809    1.1768103  -0.26256108    1.1996192   518400 
 1877000   0.80103928  -0.26242303  -0.26242303   0.93913357    1.1760709  -0.26242303    1.2015566   518400 
 1878000   0.80129843   -0.2627191   -0.2627191   0.93922623    1.1735194   -0.2627191    1.2019453   518400 
 1879000    0.7994025  -0.26367082  -0.26367082   0.93543061    1.1734107  -0.26367082    1.1991014   518400 
 1880000   0.80046799  -0.26342328  -0.26342328   0.93727639    1.1755672  -0.26342328    1.2006997   518400 
 1881000   0.79967119  -0.26201877  -0.26201877   0.93748569    1.1783965  -0.26201877    1.1995045   518400 
 1882000   0.80064313  -0.26342008  -0.26342008    0.9375423    1.1731642  -0.26342008    1.2009624   518400 
 1883000   0.80109271  -0.26254768  -0.26254768   0.93908907    1.1776522  -0.26254768    1.2016367   518400 
 1884000   0.80008812  -0.26408725  -0.26408725   0.93604262     1.171536  -0.26408725    1.2001299   518400 
 1885000   0.79971831  -0.26344657  -0.26344657   0.93612859    1.1731834  -0.26344657    1.1995752   518400 
 1886000   0.79925995  -0.26291407  -0.26291407   0.93597355    1.1756632  -0.26291407    1.1988876   518400 
 1887000   0.79957325  -0.26245384  -0.26245384   0.93690372    1.1775065  -0.26245384    1.1993576   518400 
 1888000    0.8009868   -0.2637501   -0.2637501   0.93772778    1.1727088   -0.2637501    1.2014779   518400 
 1889000   0.80108657  -0.26258539  -0.26258539   0.93904215    1.1772924  -0.26258539    1.2016275   518400 
 1890000   0.80047153  -0.26367979  -0.26367979   0.93702518    1.1730106  -0.26367979     1.200705   518400 
 1891000   0.79984739  -0.26225039  -0.26225039   0.93751838    1.1778218  -0.26225039    1.1997688   518400 
 1892000   0.80105631  -0.26199922  -0.26199922   0.93958293    1.1790552  -0.26199922    1.2015821   518400 
 1893000   0.80116568   -0.2622956   -0.2622956    0.9394506     1.176604   -0.2622956    1.2017462   518400 
 1894000   0.80111374  -0.26366402  -0.26366402   0.93800428    1.1732295  -0.26366402    1.2016683   518400 
 1895000   0.79994631  -0.26292653  -0.26292653   0.93699063    1.1758022  -0.26292653    1.1999172   518400 
 1896000   0.79851369  -0.26306715  -0.26306715   0.93470108    1.1737127  -0.26306715    1.1977682   518400 
 1897000   0.80004108  -0.26285477  -0.26285477   0.93720453    1.1750556  -0.26285477    1.2000593   518400 
 1898000    0.8019048  -0.26333647  -0.26333647   0.93951842    1.1763488  -0.26333647    1.2028549   518400 
 1899000   0.79959009  -0.26290734  -0.26290734   0.93647549    1.1742415  -0.26290734    1.1993828   518400 
 1900000   0.79900491  -0.26229015  -0.26229015    0.9362149    1.1767083  -0.26229015    1.1985051   518400 
 1901000   0.79913956  -0.26307494  -0.26307494    0.9356321    1.1728163  -0.26307494     1.198707   518400 
 1902000   0.80067772  -0.26364183  -0.26364183   0.93737243    1.1716004  -0.26364183    1.2010143   518400 
 1903000   0.80146611  -0.26325089  -0.26325089   0.93894595    1.1761222  -0.26325089    1.2021968   518400 
 1904000   0.80036989  -0.26301432  -0.26301432   0.93753821    1.1763497  -0.26301432    1.2005525   518400 
 1905000   0.80047059   -0.2637601   -0.2637601   0.93694347    1.1725286   -0.2637601    1.2007036   518400 
 1906000   0.80034375  -0.26259042  -0.26259042   0.93792288    1.1770495  -0.26259042    1.2005133   518400 
 1907000   0.80006252  -0.26448198  -0.26448198   0.93560948     1.169175  -0.26448198    1.2000915   518400 
 1908000   0.80065578  -0.26353955  -0.26353955    0.9374418    1.1720741  -0.26353955    1.2009814   518400 
 1909000   0.80014145  -0.26325463  -0.26325463   0.93695523    1.1713855  -0.26325463    1.2002099   518400 
 1910000   0.80121929     -0.26386     -0.26386   0.93796661    1.1732471     -0.26386    1.2018266   518400 
 1911000   0.79930268  -0.26315709  -0.26315709   0.93579462    1.1740891  -0.26315709    1.1989517   518400 
 1912000   0.79929185   -0.2633847   -0.2633847   0.93555076    1.1740817   -0.2633847    1.1989355   518400 
 1913000   0.79920078  -0.26313342  -0.26313342   0.93566544    1.1728616  -0.26313342    1.1987989   518400 
 1914000   0.79997652  -0.26531185  -0.26531185   0.93465062    1.1670811  -0.26531185    1.1999625   518400 
 1915000   0.80013048   -0.2645706   -0.2645706    0.9356228    1.1684304   -0.2645706    1.2001934   518400 
 1916000   0.79735998  -0.26312875  -0.26312875   0.93290892    1.1726409  -0.26312875    1.1960377   518400 
 1917000   0.79965593  -0.26317307  -0.26317307   0.93630851    1.1731623  -0.26317307    1.1994816   518400 
 1918000   0.79905117  -0.26366868  -0.26366868   0.93490575    1.1701985  -0.26366868    1.1985744   518400 
 1919000   0.79812505  -0.26257668  -0.26257668   0.93460858    1.1771403  -0.26257668    1.1971853   518400 
 1920000   0.79930943  -0.26258804  -0.26258804   0.93637379    1.1743166  -0.26258804    1.1989618   518400 
 1921000   0.79896225  -0.26262667  -0.26262667   0.93581439    1.1773585  -0.26262667    1.1984411   518400 
 1922000   0.79883514  -0.26331498  -0.26331498   0.93493542    1.1724398  -0.26331498    1.1982504   518400 
 1923000   0.79938715  -0.26353922  -0.26353922   0.93553919    1.1721424  -0.26353922    1.1990784   518400 
 1924000   0.79924856   -0.2635959   -0.2635959   0.93527462    1.1725981   -0.2635959    1.1988705   518400 
 1925000    0.7994736  -0.26431559  -0.26431559    0.9348925    1.1705487  -0.26431559    1.1992081   518400 
 1926000   0.80020598  -0.26355641  -0.26355641   0.93675024    1.1744916  -0.26355641    1.2003066   518400 
 1927000   0.80099764  -0.26390945  -0.26390945   0.93758469     1.172185  -0.26390945    1.2014941   518400 
 1928000   0.79991297  -0.26283948  -0.26283948   0.93702766    1.1746463  -0.26283948    1.1998671   518400 
 1929000   0.80010656  -0.26338057  -0.26338057   0.93677695    1.1733875  -0.26338057    1.2001575   518400 
 1930000   0.80066333  -0.26342619  -0.26342619   0.93756649    1.1754428  -0.26342619    1.2009927   518400 
 1931000   0.79897574  -0.26290673  -0.26290673   0.93555456    1.1741284  -0.26290673    1.1984613   518400 
 1932000   0.79870517  -0.26381369  -0.26381369   0.93424176    1.1721749  -0.26381369    1.1980554   518400 
 1933000   0.80023956  -0.26361777  -0.26361777   0.93673926    1.1724707  -0.26361777     1.200357   518400 
 1934000   0.79994632  -0.26267492  -0.26267492   0.93724224    1.1747721  -0.26267492    1.1999172   518400 
 1935000   0.80056636  -0.26363128  -0.26363128   0.93721594     1.174684  -0.26363128    1.2008472   518400 
 1936000   0.80090629   -0.2625849   -0.2625849   0.93877222    1.1751088   -0.2625849    1.2013571   518400 
 1937000    0.8002951   -0.2630326   -0.2630326   0.93740774    1.1775195   -0.2630326    1.2004403   518400 
 1938000   0.80088334  -0.26444473  -0.26444473   0.93687796    1.1720554  -0.26444473    1.2013227   518400 
 1939000   0.79769965  -0.26293249  -0.26293249   0.93361468    1.1751393  -0.26293249    1.1965472   518400 
 1940000   0.79928059  -0.26386107  -0.26386107   0.93505751    1.1717185  -0.26386107    1.1989186   518400 
 1941000   0.79900891  -0.26340346  -0.26340346   0.93510759    1.1733064  -0.26340346     1.198511   518400 
 1942000   0.79828868  -0.26333434  -0.26333434   0.93409637    1.1689317  -0.26333434    1.1974307   518400 
 1943000   0.79973523  -0.26361582  -0.26361582   0.93598471    1.1718936  -0.26361582    1.1996005   518400 
 1944000   0.79966783  -0.26264934  -0.26264934    0.9368501    1.1752511  -0.26264934    1.1994994   518400 
 1945000   0.79976201  -0.26338023  -0.26338023   0.93626047    1.1736029  -0.26338023    1.1996407   518400 
 1946000   0.79985913    -0.264237    -0.264237   0.93554938    1.1691447    -0.264237    1.1997864   518400 
 1947000   0.79986398  -0.26356323  -0.26356323   0.93623042    1.1722978  -0.26356323    1.1997937   518400 
 1948000   0.79898845  -0.26276253  -0.26276253   0.93571783    1.1738178  -0.26276253    1.1984804   518400 
 1949000   0.80093691  -0.26402319  -0.26402319   0.93737986    1.1715956  -0.26402319     1.201403   518400 
 1950000   0.80131167  -0.26368665  -0.26368665   0.93827853    1.1730532  -0.26368665    1.2019652   518400 
 1951000   0.80166231    -0.262721    -0.262721   0.93977014    1.1761063    -0.262721    1.2024911   518400 
 1952000   0.79946093  -0.26212252  -0.26212252   0.93706656    1.1770912  -0.26212252    1.1991891   518400 
 1953000    0.8009763  -0.26401484  -0.26401484   0.93744729    1.1719102  -0.26401484    1.2014621   518400 
 1954000   0.80049769  -0.26303066  -0.26303066   0.93771356    1.1766025  -0.26303066    1.2007442   518400 
 1955000   0.80015844  -0.26297717  -0.26297717   0.93725818    1.1772055  -0.26297717    1.2002353   518400 
 1956000   0.79884865  -0.26337777  -0.26337777    0.9348929     1.172052  -0.26337777    1.1982707   518400 
 1957000   0.79966718  -0.26372236  -0.26372236    0.9357761    1.1699643  -0.26372236    1.1994985   518400 
 1958000   0.79988126  -0.26400799  -0.26400799   0.93581159    1.1711234  -0.26400799    1.1998196   518400 
 1959000   0.79987325  -0.26289492  -0.26289492   0.93691264      1.17574  -0.26289492    1.1998076   518400 
 1960000   0.80155499  -0.26219675  -0.26219675   0.94013341    1.1789297  -0.26219675    1.2023302   518400 
 1961000   0.80028188  -0.26446281  -0.26446281   0.93595769    1.1708151  -0.26446281    1.2004205   518400 
 1962000   0.80060497  -0.26265969  -0.26265969   0.93824545    1.1757119  -0.26265969    1.2009051   518400 
 1963000   0.79961668  -0.26363061  -0.26363061   0.93579211    1.1728607  -0.26363061    1.1994227   518400 
 1964000   0.80019426  -0.26273066  -0.26273066    0.9375584    1.1744541  -0.26273066    1.2002891   518400 
 1965000   0.80005162  -0.26235305  -0.26235305   0.93772207    1.1767317  -0.26235305    1.2000751   518400 
 1966000    0.8002628  -0.26380005  -0.26380005   0.93659184    1.1730097  -0.26380005    1.2003919   518400 
 1967000   0.80067094  -0.26368713  -0.26368713   0.93731696    1.1728175  -0.26368713    1.2010041   518400 
 1968000   0.79756826   -0.2627285   -0.2627285   0.93362158    1.1747842   -0.2627285    1.1963501   518400 
 1969000    0.7993655  -0.26331342  -0.26331342   0.93573251    1.1753706  -0.26331342    1.1990459   518400 
 1970000   0.79881155  -0.26290095  -0.26290095   0.93531407    1.1741426  -0.26290095     1.198215   518400 
 1971000   0.80117598  -0.26207657  -0.26207657   0.93968509    1.1797103  -0.26207657    1.2017617   518400 
 1972000   0.80149632  -0.26390145  -0.26390145   0.93834072    1.1725606  -0.26390145    1.2022422   518400 
 1973000   0.80047636   -0.2632661   -0.2632661   0.93744613     1.174874   -0.2632661    1.2007122   518400 
 1974000   0.80000735  -0.26316473  -0.26316473   0.93684398    1.1745897  -0.26316473    1.2000087   518400 
 1975000    0.7998713  -0.26333645  -0.26333645   0.93646818    1.1735184  -0.26333645    1.1998046   518400 
 1976000   0.79996954  -0.26290462  -0.26290462   0.93704737     1.174494  -0.26290462     1.199952   518400 
 1977000   0.80051359  -0.26250019  -0.26250019   0.93826787    1.1766805  -0.26250019    1.2007681   518400 
 1978000   0.80102483  -0.26274155  -0.26274155   0.93879338    1.1769042  -0.26274155    1.2015349   518400 
 1979000   0.80027331  -0.26299555  -0.26299555    0.9374121     1.174696  -0.26299555    1.2004076   518400 
 1980000    0.8006001  -0.26420621  -0.26420621   0.93669162    1.1711676  -0.26420621    1.2008978   518400 
 1981000   0.80087059  -0.26288191  -0.26288191   0.93842166    1.1752531  -0.26288191    1.2013036   518400 
 1982000   0.80081052  -0.26343112  -0.26343112   0.93778234     1.173056  -0.26343112    1.2012135   518400 
 1983000   0.80000705  -0.26338195  -0.26338195   0.93662631    1.1730045  -0.26338195    1.2000083   518400 
 1984000   0.79929392  -0.26329268  -0.26329268   0.93564588    1.1740152  -0.26329268    1.1989386   518400 
 1985000   0.79968469  -0.26252645  -0.26252645   0.93699827    1.1767293  -0.26252645    1.1995247   518400 
 1986000   0.80108088  -0.26324006  -0.26324006   0.93837894    1.1732022  -0.26324006     1.201619   518400 
 1987000   0.80035198  -0.26361619  -0.26361619   0.93690946    1.1714973  -0.26361619    1.2005257   518400 
 1988000   0.79919472  -0.26435871  -0.26435871   0.93443105    1.1710664  -0.26435871    1.1987898   518400 
 1989000   0.79894916  -0.26296446  -0.26296446   0.93545697    1.1744908  -0.26296446    1.1984214   518400 
 1990000   0.79989771  -0.26307446  -0.26307446   0.93676979    1.1747748  -0.26307446    1.1998442   518400 
 1991000   0.79856584  -0.26210155  -0.26210155    0.9357449    1.1754358  -0.26210155    1.1978464   518400 
 1992000   0.80032114  -0.26378712  -0.26378712   0.93669227    1.1719167  -0.26378712    1.2004794   518400 
 1993000   0.79978834  -0.26342956  -0.26342956   0.93625064    1.1749948  -0.26342956    1.1996802   518400 
 1994000   0.80029455  -0.26263772  -0.26263772   0.93780178    1.1760214  -0.26263772    1.2004395   518400 
 1995000   0.80033014  -0.26223617  -0.26223617   0.93825673    1.1773352  -0.26223617    1.2004929   518400 
 1996000   0.80140051  -0.26408069  -0.26408069   0.93801775    1.1714465  -0.26408069    1.2020984   518400 
 1997000   0.80205948  -0.26322118  -0.26322118   0.93986571    1.1766304  -0.26322118    1.2030869   518400 
 1998000    0.8004889  -0.26230224  -0.26230224   0.93842879    1.1771053  -0.26230224     1.200731   518400 
 1999000   0.79991283  -0.26249998  -0.26249998   0.93736695    1.1761584  -0.26249998    1.1998669   518400 
 2000000   0.80104465    -0.263018    -0.263018   0.93854666    1.1750181    -0.263018    1.2015647   518400 
 2001000   0.80018378  -0.26331704  -0.26331704   0.93695631    1.1735981  -0.26331704    1.2002733   518400 
 2002000   0.79954075  -0.26261093  -0.26261093   0.93669788    1.1763946  -0.26261093    1.1993088   518400 
 2003000   0.80026357  -0.26309984  -0.26309984   0.93729321    1.1745125  -0.26309984     1.200393   518400 
 2004000   0.80232629  -0.26294468  -0.26294468   0.94054243    1.1758187  -0.26294468    1.2034871   518400 
 2005000   0.79995133  -0.26301083  -0.26301083   0.93691385    1.1758305  -0.26301083    1.1999247   518400 
 2006000   0.80047345  -0.26402274  -0.26402274   0.93668512    1.1729032  -0.26402274    1.2007079   518400 
 2007000   0.80002609  -0.26353959  -0.26353959   0.93649722    1.1724428  -0.26353959    1.2000368   518400 
 2008000   0.79811375  -0.26356471  -0.26356471   0.93360361      1.17063  -0.26356471    1.1971683   518400 
 2009000   0.80071489  -0.26435545  -0.26435545   0.93671456    1.1706452  -0.26435545      1.20107   518400 
 2010000   0.80011679  -0.26320018  -0.26320018   0.93697269    1.1730889  -0.26320018    1.2001729   518400 
 2011000   0.79917138  -0.26403668  -0.26403668   0.93471807    1.1724836  -0.26403668    1.1987548   518400 
 2012000   0.79960223  -0.26343081  -0.26343081   0.93597022    1.1732749  -0.26343081     1.199401   518400 
 2013000   0.79902585  -0.26387161  -0.26387161   0.93466486     1.172212  -0.26387161    1.1985365   518400 
 2014000   0.80070107  -0.26313959  -0.26313959    0.9379097    1.1761799  -0.26313959    1.2010493   518400 
 2015000   0.80191452   -0.2635892   -0.2635892   0.93928027    1.1739864   -0.2635892    1.2028695   518400 
 2016000   0.79952497  -0.26379671  -0.26379671   0.93548843    1.1725189  -0.26379671    1.1992851   518400 
 2017000    0.7988477  -0.26291343  -0.26291343   0.93535582    1.1746588  -0.26291343    1.1982692   518400 
 2018000   0.79824062  -0.26390651  -0.26390651   0.93345212    1.1719436  -0.26390651    1.1973586   518400 
 2019000   0.79999951  -0.26331653  -0.26331653   0.93668041    1.1722022  -0.26331653    1.1999969   518400 
 2020000   0.80104941  -0.26315635  -0.26315635   0.93841546    1.1756963  -0.26315635    1.2015718   518400 
 2021000   0.80093085  -0.26283456  -0.26283456    0.9385594    1.1757809  -0.26283456     1.201394   518400 
 2022000   0.80077216  -0.26331413  -0.26331413   0.93784178    1.1737999  -0.26331413    1.2011559   518400 
 2023000   0.80094131  -0.26370044  -0.26370044   0.93770921    1.1726072  -0.26370044    1.2014096   518400 
 2024000   0.79977606  -0.26367001  -0.26367001   0.93599176    1.1706007  -0.26367001    1.1996618   518400 
 2025000    0.7980001  -0.26385235  -0.26385235   0.93314549    1.1705892  -0.26385235    1.1969978   518400 
 2026000   0.79996901   -0.2638354   -0.2638354    0.9361158    1.1717389   -0.2638354    1.1999512   518400 
 2027000   0.79873005  -0.26383829  -0.26383829   0.93425448    1.1734537  -0.26383829    1.1980928   518400 
 2028000   0.79886862  -0.26333908  -0.26333908   0.93496154    1.1750801  -0.26333908    1.1983006   518400 
 2029000   0.79975291  -0.26353124  -0.26353124   0.93609582    1.1720593  -0.26353124    1.1996271   518400 
 2030000    0.8003184   -0.2634462   -0.2634462   0.93702908    1.1721565   -0.2634462    1.2004753   518400 
 2031000   0.79921726  -0.26281427  -0.26281427   0.93600931    1.1751198  -0.26281427    1.1988236   518400 
 2032000   0.79981268  -0.26232787  -0.26232787   0.93738884    1.1775826  -0.26232787    1.1997167   518400 
 2033000   0.80037442  -0.26361908  -0.26361908   0.93694023    1.1736025  -0.26361908    1.2005593   518400 
 2034000   0.80068572  -0.26277432  -0.26277432   0.93825195    1.1761197  -0.26277432    1.2010263   518400 
 2035000   0.80118148  -0.26265641  -0.26265641   0.93911349    1.1771503  -0.26265641    1.2017699   518400 
 2036000   0.80025672  -0.26332595  -0.26332595   0.93705682    1.1728683  -0.26332595    1.2003828   518400 
 2037000    0.8006443   -0.2637124   -0.2637124   0.93725174    1.1729306   -0.2637124    1.2009641   518400 
 2038000   0.80065956  -0.26370596  -0.26370596   0.93728106    1.1728115  -0.26370596     1.200987   518400 
 2039000   0.80028223  -0.26391733  -0.26391733   0.93650369    1.1712297  -0.26391733     1.200421   518400 
 2040000   0.79858122  -0.26412624  -0.26412624   0.93374328    1.1694176  -0.26412624    1.1978695   518400 
 2041000    0.7994071  -0.26390211  -0.26390211   0.93520622    1.1703607  -0.26390211    1.1991083   518400 
 2042000   0.80077229  -0.26325457  -0.26325457   0.93790155     1.174009  -0.26325457    1.2011561   518400 
 2043000   0.80013492  -0.26185692  -0.26185692   0.93834315    1.1790958  -0.26185692    1.2002001   518400 
 2044000   0.80133267  -0.26315827  -0.26315827   0.93883841    1.1754431  -0.26315827    1.2019967   518400 
 2045000   0.79962264  -0.26300683  -0.26300683   0.93642481    1.1746991  -0.26300683    1.1994316   518400 
 2046000   0.79974711  -0.26430087  -0.26430087   0.93531748    1.1683389  -0.26430087    1.1996184   518400 
 2047000   0.79852857   -0.2628398   -0.2628398   0.93495075    1.1743201   -0.2628398    1.1977905   518400 
 2048000   0.79764202  -0.26232503  -0.26232503    0.9341357    1.1744424  -0.26232503    1.1964607   518400 
 2049000     0.799351   -0.2630225   -0.2630225   0.93600169    1.1743954   -0.2630225    1.1990242   518400 
 2050000   0.79942857  -0.26379803  -0.26379803   0.93534252    1.1720493  -0.26379803    1.1991405   518400 
 2051000    0.7991821  -0.26269539  -0.26269539   0.93607544    1.1756981  -0.26269539    1.1987708   518400 
 2052000   0.79974241  -0.26426445  -0.26426445   0.93534685    1.1715995  -0.26426445    1.1996113   518400 
 2053000   0.79837887  -0.26315431  -0.26315431   0.93441169    1.1749497  -0.26315431     1.197566   518400 
 2054000   0.80001371  -0.26379386  -0.26379386    0.9362244     1.171988  -0.26379386    1.2000183   518400 
 2055000   0.79986482  -0.26279158  -0.26279158   0.93700334    1.1773732  -0.26279158    1.1997949   518400 
 2056000    0.7995951  -0.26363088  -0.26363088   0.93575946     1.172615  -0.26363088    1.1993903   518400 
 2057000   0.79996377  -0.26388619  -0.26388619   0.93605715    1.1701321  -0.26388619    1.1999433   518400 
 2058000   0.80026195  -0.26328256  -0.26328256   0.93710804    1.1760501  -0.26328256    1.2003906   518400 
 2059000   0.80021449  -0.26381862  -0.26381862    0.9365008     1.173535  -0.26381862    1.2003194   518400 
 2060000   0.79979184  -0.26294846  -0.26294846   0.93673698    1.1751524  -0.26294846    1.1996854   518400 
 2061000   0.80066967   -0.2637323   -0.2637323   0.93726989    1.1730347   -0.2637323    1.2010022   518400 
 2062000   0.79983797  -0.26318344  -0.26318344   0.93657119    1.1747835  -0.26318344    1.1997546   518400 
 2063000   0.79813683  -0.26257296  -0.26257296   0.93462997     1.174095  -0.26257296    1.1972029   518400 
 2064000   0.80009908  -0.26353687  -0.26353687   0.93660943    1.1738003  -0.26353687    1.2001463   518400 
 2065000   0.79973018  -0.26397581  -0.26397581   0.93561714    1.1709912  -0.26397581    1.1995929   518400 
 2066000   0.79864444  -0.26374862  -0.26374862   0.93421574     1.171281  -0.26374862    1.1979644   518400 
 2067000    0.7992422  -0.26349929  -0.26349929   0.93536169    1.1729903  -0.26349929     1.198861   518400 
 2068000   0.80016394  -0.26339723  -0.26339723   0.93684637    1.1733658  -0.26339723    1.2002436   518400 
 2069000   0.80097388  -0.26287507  -0.26287507   0.93858343    1.1745996  -0.26287507    1.2014585   518400 
 2070000   0.80018106  -0.26309764  -0.26309764   0.93717163    1.1750283  -0.26309764    1.2002693   518400 
 2071000   0.80016674  -0.26284062  -0.26284062   0.93740717    1.1754049  -0.26284062    1.2002478   518400 
 2072000   0.80075901  -0.26400072  -0.26400072   0.93713548    1.1728401  -0.26400072    1.2011362   518400 
 2073000   0.80005429  -0.26413928  -0.26413928   0.93593984    1.1707448  -0.26413928    1.2000791   518400 
 2074000   0.79941258    -0.263074    -0.263074   0.93604255     1.173776    -0.263074    1.1991166   518400 
 2075000   0.79990853  -0.26338305  -0.26338305   0.93647742    1.1719134  -0.26338305    1.1998605   518400 
 2076000   0.79769376  -0.26337263  -0.26337263   0.93316571    1.1729264  -0.26337263    1.1965383   518400 
 2077000   0.79915175  -0.26391864  -0.26391864   0.93480668    1.1709343  -0.26391864    1.1987253   518400 
 2078000   0.79857219  -0.26282666  -0.26282666   0.93502931    1.1754195  -0.26282666     1.197856   518400 
 2079000   0.79791846  -0.26266201  -0.26266201   0.93421337    1.1749213  -0.26266201    1.1968754   518400 
 2080000   0.79909152  -0.26426454  -0.26426454   0.93437043    1.1698435  -0.26426454     1.198635   518400 
 2081000   0.80074534  -0.26347134  -0.26347134   0.93764436    1.1741219  -0.26347134    1.2011157   518400 
 2082000   0.80171184  -0.26354036  -0.26354036   0.93902508    1.1724289  -0.26354036    1.2025654   518400 
 2083000   0.80054964  -0.26337602  -0.26337602   0.93744613    1.1741223  -0.26337602    1.2008221   518400 
 2084000    0.8001508  -0.26234418  -0.26234418    0.9378797    1.1784918  -0.26234418    1.2002239   518400 
 2085000   0.80112558  -0.26429152  -0.26429152   0.93739453    1.1700546  -0.26429152     1.201686   518400 
 2086000    0.8011796  -0.26331747  -0.26331747   0.93844961    1.1741416  -0.26331747    1.2017671   518400 
 2087000   0.80215136  -0.26211794  -0.26211794   0.94110677    1.1790424  -0.26211794    1.2032247   518400 
 2088000   0.80092689   -0.2634743   -0.2634743   0.93791371    1.1727464   -0.2634743     1.201388   518400 
 2089000   0.79958538  -0.26265673  -0.26265673   0.93671902    1.1774479  -0.26265673    1.1993758   518400 
 2090000   0.79985115  -0.26300073  -0.26300073   0.93677368    1.1744005  -0.26300073    1.1997744   518400 
 2091000   0.80005582  -0.26362805  -0.26362805   0.93645337    1.1728725  -0.26362805    1.2000814   518400 
 2092000   0.80008684  -0.26342678  -0.26342678   0.93670117    1.1743542  -0.26342678     1.200128   518400 
 2093000   0.79997935  -0.26305844  -0.26305844   0.93690827    1.1744532  -0.26305844    1.1999667   518400 
 2094000   0.80106899  -0.26295411  -0.26295411   0.93864706    1.1737811  -0.26295411    1.2016012   518400 
 2095000   0.80035091  -0.26275113  -0.26275113   0.93777292    1.1755039  -0.26275113    1.2005241   518400 
 2096000   0.79943875  -0.26236209  -0.26236209   0.93679372    1.1780483  -0.26236209    1.1991558   518400 
 2097000   0.80057788  -0.26344963  -0.26344963   0.93741487    1.1748238  -0.26344963    1.2008645   518400 
 2098000   0.80074365  -0.26246521  -0.26246521   0.93864795    1.1773698  -0.26246521    1.2011132   518400 
 2099000   0.80046993  -0.26296411  -0.26296411   0.93773847    1.1749178  -0.26296411    1.2007026   518400 
 2100000    0.8004067  -0.26297887  -0.26297887   0.93762887    1.1742477  -0.26297887    1.2006077   518400 
 2101000   0.79980223  -0.26351096  -0.26351096   0.93619007     1.174144  -0.26351096     1.199701   518400 
 2102000   0.79878318  -0.26411672  -0.26411672   0.93405575    1.1709477  -0.26411672    1.1981725   518400 
 2103000   0.79973438  -0.26368011  -0.26368011   0.93591914    1.1730063  -0.26368011    1.1995992   518400 
 2104000   0.80001138  -0.26461455  -0.26461455    0.9354002    1.1677946  -0.26461455    1.2000147   518400 
 2105000   0.80126834  -0.26271949  -0.26271949   0.93918071    1.1769593  -0.26271949    1.2019002   518400 
 2106000   0.80097267  -0.26300929  -0.26300929    0.9384474    1.1750005  -0.26300929    1.2014567   518400 
 2107000   0.80078505  -0.26375423  -0.26375423   0.93742102    1.1707657  -0.26375423    1.2011753   518400 
 2108000   0.80083753  -0.26209003  -0.26209003   0.93916395    1.1775116  -0.26209003     1.201254   518400 
 2109000   0.80013824   -0.2635894   -0.2635894   0.93661564    1.1738305   -0.2635894     1.200205   518400 
 2110000   0.79937824  -0.26216688  -0.26216688   0.93689816    1.1772159  -0.26216688     1.199065   518400 
 2111000   0.80013924  -0.26367946  -0.26367946   0.93652709    1.1735785  -0.26367946    1.2002065   518400 
 2112000   0.80014294  -0.26302265  -0.26302265   0.93718945    1.1744169  -0.26302265    1.2002121   518400 
 2113000    0.8000273  -0.26307678  -0.26307678   0.93696186    1.1773627  -0.26307678    1.2000386   518400 
 2114000   0.80050182  -0.26241003  -0.26241003   0.93834038    1.1770399  -0.26241003    1.2007504   518400 
 2115000   0.79992567  -0.26334828  -0.26334828    0.9365379    1.1725625  -0.26334828    1.1998862   518400 
 2116000   0.80010907  -0.26308411  -0.26308411   0.93707718    1.1740703  -0.26308411    1.2001613   518400 
 2117000   0.79816728  -0.26347785  -0.26347785   0.93377076      1.17274  -0.26347785    1.1972486   518400 
 2118000   0.79910745  -0.26257122  -0.26257122   0.93608764    1.1774108  -0.26257122    1.1986589   518400 
 2119000   0.79966948  -0.26326156  -0.26326156   0.93624034    1.1722143  -0.26326156    1.1995019   518400 
 2120000   0.79946082  -0.26375766  -0.26375766   0.93543126    1.1736419  -0.26375766    1.1991889   518400 
 2121000   0.79939622  -0.26378286  -0.26378286   0.93530917    1.1723816  -0.26378286     1.199092   518400 
 2122000   0.79906368   -0.2634269   -0.2634269   0.93516631    1.1724347   -0.2634269    1.1985932   518400 
 2123000   0.80074876  -0.26325584  -0.26325584   0.93786498    1.1758983  -0.26325584    1.2011208   518400 
 2124000   0.80039505   -0.2625532   -0.2625532   0.93803706    1.1759949   -0.2625532    1.2005903   518400 
 2125000   0.79894467  -0.26330922  -0.26330922   0.93510547     1.173532  -0.26330922    1.1984147   518400 
 2126000   0.79821997  -0.26293843  -0.26293843    0.9343892    1.1753029  -0.26293843    1.1973276   518400 
 2127000   0.79890878  -0.26205641  -0.26205641   0.93630445    1.1798636  -0.26205641    1.1983609   518400 
 2128000   0.79960807  -0.26318424  -0.26318424   0.93622555    1.1741878  -0.26318424    1.1994098   518400 
 2129000   0.79953038  -0.26439354  -0.26439354   0.93489972    1.1717496  -0.26439354    1.1992933   518400 
 2130000   0.79853853  -0.26320418  -0.26320418    0.9346013    1.1722438  -0.26320418    1.1978055   518400 
 2131000   0.79902727  -0.26376941  -0.26376941   0.93476919    1.1742141  -0.26376941    1.1985386   518400 
 2132000   0.79880012  -0.26356993  -0.26356993   0.93462794    1.1724896  -0.26356993    1.1981979   518400 
 2133000   0.79996201  -0.26316552  -0.26316552   0.93677519    1.1738051  -0.26316552    1.1999407   518400 
 2134000   0.80092374  -0.26319647  -0.26319647   0.93818682    1.1755624  -0.26319647    1.2013833   518400 
 2135000    0.8006706  -0.26309873  -0.26309873   0.93790485    1.1755328  -0.26309873    1.2010036   518400 
 2136000   0.79936312  -0.26244881  -0.26244881   0.93659356    1.1746967  -0.26244881    1.1990424   518400 
 2137000   0.79981976  -0.26186517  -0.26186517   0.93786216    1.1792202  -0.26186517    1.1997273   518400 
 2138000   0.79979832  -0.26228346  -0.26228346   0.93741171    1.1768439  -0.26228346    1.1996952   518400 
 2139000   0.80098837  -0.26291997  -0.26291997   0.93856027    1.1756272  -0.26291997    1.2014802   518400 
 2140000   0.80040742  -0.26352304  -0.26352304   0.93708578    1.1742319  -0.26352304    1.2006088   518400 
 2141000   0.80144477  -0.26354147  -0.26354147   0.93862336    1.1746415  -0.26354147    1.2021648   518400 
 2142000   0.79990981  -0.26308755  -0.26308755   0.93677486     1.173139  -0.26308755    1.1998624   518400 
 2143000   0.80004415  -0.26249295  -0.26249295   0.93757096    1.1772437  -0.26249295    1.2000639   518400 
 2144000   0.80054693   -0.2626234   -0.2626234   0.93819468    1.1763526   -0.2626234    1.2008181   518400 
 2145000   0.80062767  -0.26422565  -0.26422565   0.93671354    1.1701601  -0.26422565    1.2009392   518400 
 2146000   0.79906712  -0.26436616  -0.26436616    0.9342322    1.1713437  -0.26436616    1.1985984   518400 
 2147000   0.80069785  -0.26249797  -0.26249797   0.93854649    1.1759024  -0.26249797    1.2010445   518400 
 2148000   0.80018344  -0.26312373  -0.26312373    0.9371491    1.1747179  -0.26312373    1.2002728   518400 
 2149000   0.80144238  -0.26341144  -0.26341144   0.93874982    1.1747004  -0.26341144    1.2021613   518400 
 2150000   0.79936763  -0.26343398  -0.26343398   0.93561515    1.1734845  -0.26343398    1.1990491   518400 
 2151000   0.79891397  -0.26274938  -0.26274938   0.93561926    1.1748524  -0.26274938    1.1983686   518400 
 2152000   0.80145232  -0.26427525  -0.26427525   0.93790092      1.17206  -0.26427525    1.2021762   518400 
 2153000   0.80068234   -0.2635124   -0.2635124   0.93750878     1.173031   -0.2635124    1.2010212   518400 
 2154000   0.80019199  -0.26328825  -0.26328825   0.93699742    1.1730927  -0.26328825    1.2002857   518400 
 2155000   0.80141605  -0.26388258  -0.26388258   0.93823919    1.1732549  -0.26388258    1.2021218   518400 
 2156000   0.80004102  -0.26281381  -0.26281381   0.93724541    1.1738419  -0.26281381    1.2000592   518400 
 2157000   0.80027328  -0.26269999  -0.26269999   0.93770761    1.1759506  -0.26269999    1.2004076   518400 
 2158000   0.80080649  -0.26246463  -0.26246463   0.93874279    1.1760483  -0.26246463    1.2012074   518400 
 2159000   0.80018291  -0.26215212  -0.26215212   0.93811993    1.1777876  -0.26215212     1.200272   518400 
 2160000   0.80061729  -0.26371104  -0.26371104   0.93721257    1.1709372  -0.26371104    1.2009236   518400 
 2161000   0.80092343  -0.26387381  -0.26387381   0.93750902    1.1721252  -0.26387381    1.2013828   518400 
 2162000   0.80026383  -0.26346406  -0.26346406   0.93692938    1.1746511  -0.26346406    1.2003934   518400 
 2163000    0.8005294  -0.26352205  -0.26352205   0.93726973     1.173355  -0.26352205    1.2007918   518400 
 2164000   0.80053597  -0.26280623  -0.26280623    0.9379954    1.1768871  -0.26280623    1.2008016   518400 
 2165000   0.80029809  -0.26288222  -0.26288222    0.9375626     1.174984  -0.26288222    1.2004448   518400 
 2166000   0.79973275  -0.26218565  -0.26218565   0.93741116    1.1783429  -0.26218565    1.1995968   518400 
 2167000   0.80013724  -0.26311823  -0.26311823   0.93708532    1.1762158  -0.26311823    1.2002036   518400 
 2168000   0.80096127  -0.26396269  -0.26396269    0.9374769    1.1719416  -0.26396269    1.2014396   518400 
 2169000   0.80072824  -0.26371085  -0.26371085    0.9373792    1.1725222  -0.26371085      1.20109   518400 
 2170000   0.80030473  -0.26297622  -0.26297622   0.93747856    1.1761765  -0.26297622    1.2004548   518400 
 2171000   0.80029851  -0.26241013  -0.26241013   0.93803531    1.1774375  -0.26241013    1.2004454   518400 
 2172000   0.80148314  -0.26318926  -0.26318926   0.93903313    1.1747201  -0.26318926    1.2022224   518400 
 2173000   0.80032968  -0.26356108  -0.26356108   0.93693112    1.1737148  -0.26356108    1.2004922   518400 
 2174000   0.80115054   -0.2630642   -0.2630642   0.93865929    1.1737262   -0.2630642    1.2017235   518400 
 2175000   0.80074277  -0.26150383  -0.26150383     0.939608    1.1816597  -0.26150383    1.2011118   518400 
 2176000   0.80062629  -0.26399009  -0.26399009   0.93694703     1.172696  -0.26399009    1.2009371   518400 
 2177000   0.80046139  -0.26319925  -0.26319925   0.93749052    1.1755917  -0.26319925    1.2006898   518400 
 2178000   0.79825542  -0.26353862  -0.26353862    0.9338422    1.1733652  -0.26353862    1.1973808   518400 
 2179000   0.79893895  -0.26271998  -0.26271998   0.93568614    1.1755914  -0.26271998    1.1984061   518400 
 2180000   0.80117136  -0.26389262  -0.26389262    0.9378621    1.1732347  -0.26389262    1.2017547   518400 
 2181000   0.80128322  -0.26415238  -0.26415238   0.93777013     1.170833  -0.26415238    1.2019225   518400 
 2182000   0.80061068  -0.26309678  -0.26309678   0.93781692    1.1747409  -0.26309678    1.2009137   518400 
 2183000   0.80298913  -0.26360681  -0.26360681   0.94087457    1.1722597  -0.26360681    1.2044814   518400 
 2184000   0.79967583  -0.26189553  -0.26189553    0.9376159    1.1784834  -0.26189553    1.1995114   518400 
 2185000   0.80086605  -0.26331182  -0.26331182   0.93798495    1.1746843  -0.26331182    1.2012968   518400 
 2186000   0.80110836  -0.26252267  -0.26252267   0.93913754    1.1786002  -0.26252267    1.2016602   518400 
 2187000   0.79938796  -0.26319539  -0.26319539   0.93588425    1.1735423  -0.26319539    1.1990796   518400 
 2188000    0.7977165  -0.26329265  -0.26329265   0.93327979    1.1742677  -0.26329265    1.1965724   518400 
 2189000   0.79916899  -0.26299413  -0.26299413   0.93575703    1.1750004  -0.26299413    1.1987512   518400 
 2190000    0.7989376   -0.2641087   -0.2641087   0.93429539    1.1702023   -0.2641087    1.1984041   518400 
 2191000     0.798677   -0.2621159   -0.2621159   0.93589729    1.1765946   -0.2621159    1.1980132   518400 
 2192000   0.79894004  -0.26464112  -0.26464112   0.93376663    1.1703035  -0.26464112    1.1984078   518400 
 2193000   0.79873011  -0.26291883  -0.26291883   0.93517402     1.175427  -0.26291883    1.1980928   518400 
 2194000   0.79796679  -0.26282566  -0.26282566   0.93412221    1.1729874  -0.26282566    1.1969479   518400 
 2195000   0.79982957  -0.26313634  -0.26313634    0.9366057    1.1743188  -0.26313634     1.199742   518400 
 2196000   0.80013967  -0.26392344  -0.26392344   0.93628374    1.1726974  -0.26392344    1.2002072   518400 
 2197000   0.80084035   -0.2632056   -0.2632056    0.9380526    1.1722805   -0.2632056    1.2012582   518400 
 2198000   0.80027505  -0.26359029  -0.26359029   0.93681996    1.1729187  -0.26359029    1.2004103   518400 
 2199000   0.80076091  -0.26423048  -0.26423048   0.93690857    1.1714868  -0.26423048    1.2011391   518400 
 2200000   0.80017008   -0.2633218   -0.2633218   0.93693102    1.1763698   -0.2633218    1.2002528   518400 
 2201000   0.79980322  -0.26320596  -0.26320596   0.93649656    1.1733024  -0.26320596    1.1997025   518400 
 2202000   0.80060513  -0.26352831  -0.26352831   0.93737707    1.1738219  -0.26352831    1.2009054   518400 
 2203000   0.79983152  -0.26412137  -0.26412137    0.9356236    1.1721446  -0.26412137     1.199745   518400 
 2204000   0.79986405  -0.26377005  -0.26377005    0.9360237    1.1707295  -0.26377005    1.1997938   518400 
 2205000   0.79915338  -0.26350401  -0.26350401   0.93522374    1.1735028  -0.26350401    1.1987278   518400 
 2206000   0.79891278  -0.26396452  -0.26396452   0.93440234    1.1713694  -0.26396452    1.1983669   518400 
 2207000   0.80095121  -0.26327987  -0.26327987   0.93814462    1.1759283  -0.26327987    1.2014245   518400 
 2208000   0.80066874  -0.26323835  -0.26323835   0.93776244    1.1757007  -0.26323835    1.2010008   518400 
 2209000   0.80050378  -0.26206886  -0.26206886    0.9386845    1.1790576  -0.26206886    1.2007534   518400 
 2210000   0.80039744  -0.26274177  -0.26274177   0.93785208    1.1768084  -0.26274177    1.2005939   518400 
 2211000   0.80138908  -0.26287564  -0.26287564   0.93920566    1.1760579  -0.26287564    1.2020813   518400 
 2212000   0.80055176   -0.2626442   -0.2626442   0.93818112    1.1763996   -0.2626442    1.2008253   518400 
 2213000   0.80074763  -0.26343661  -0.26343661   0.93768252     1.172896  -0.26343661    1.2011191   518400 
 2214000   0.80063908  -0.26318795  -0.26318795   0.93776836    1.1739155  -0.26318795    1.2009563   518400 
 2215000   0.80061709   -0.2632565   -0.2632565   0.93766682    1.1748072   -0.2632565    1.2009233   518400 
 2216000   0.80103818  -0.26288401  -0.26288401   0.93867095    1.1756495  -0.26288401     1.201555   518400 
 2217000   0.80046032  -0.26319362  -0.26319362   0.93749454     1.174856  -0.26319362    1.2006882   518400 
 2218000   0.79967415  -0.26250217  -0.26250217   0.93700674    1.1747549  -0.26250217    1.1995089   518400 
 2219000   0.80064725  -0.26357295  -0.26357295   0.93739562    1.1715506  -0.26357295    1.2009686   518400 
 2220000   0.79994118  -0.26244475  -0.26244475    0.9374647    1.1770654  -0.26244475    1.1999095   518400 
 2221000   0.80020534  -0.26345297  -0.26345297   0.93685272    1.1736234  -0.26345297    1.2003057   518400 
 2222000   0.80109956  -0.26281582  -0.26281582    0.9388312    1.1762986  -0.26281582     1.201647   518400 
 2223000   0.80069594   -0.2628889   -0.2628889   0.93815269    1.1756709   -0.2628889    1.2010416   518400 
 2224000    0.8008137  -0.26366365  -0.26366365   0.93755458    1.1733303  -0.26366365    1.2012182   518400 
 2225000   0.79947072  -0.26454918  -0.26454918   0.93465458    1.1707368  -0.26454918    1.1992038   518400 
 2226000   0.80088913  -0.26391961  -0.26391961   0.93741176    1.1714322  -0.26391961    1.2013314   518400 
 2227000   0.79997226  -0.26336923  -0.26336923   0.93658684    1.1748541  -0.26336923    1.1999561   518400 
 2228000   0.80042019  -0.26383291  -0.26383291   0.93679505    1.1724107  -0.26383291     1.200628   518400 
 2229000   0.80040618  -0.26325085  -0.26325085   0.93735611    1.1757418  -0.26325085     1.200607   518400 
 2230000   0.80169682   -0.2635753   -0.2635753    0.9389676     1.175044   -0.2635753    1.2025429   518400 
 2231000   0.80093858   -0.2638568   -0.2638568   0.93754876    1.1718192   -0.2638568    1.2014056   518400 
 2232000     0.800233  -0.26191576  -0.26191576   0.93843142    1.1788922  -0.26191576    1.2003472   518400 
 2233000   0.80080652   -0.2637884   -0.2637884   0.93741907     1.174821   -0.2637884    1.2012075   518400 
 2234000   0.79972369  -0.26367707  -0.26367707   0.93590615    1.1712366  -0.26367707    1.1995832   518400 
 2235000   0.79896672  -0.26306115  -0.26306115   0.93538662    1.1741684  -0.26306115    1.1984478   518400 
 2236000   0.79993985  -0.26358423  -0.26358423   0.93632323    1.1739368  -0.26358423    1.1999075   518400 
 2237000   0.80069493  -0.26289814  -0.26289814   0.93814194    1.1753343  -0.26289814    1.2010401   518400 
 2238000   0.80136497  -0.26302922  -0.26302922   0.93901592    1.1754085  -0.26302922    1.2020451   518400 
 2239000   0.79985722  -0.26251601  -0.26251601    0.9372675    1.1753471  -0.26251601    1.1997835   518400 
 2240000   0.80129496   -0.2626952   -0.2626952   0.93924491    1.1769248   -0.2626952    1.2019401   518400 
 2241000   0.80013261   -0.2628611   -0.2628611   0.93733549    1.1743574   -0.2628611    1.2001966   518400 
 2242000   0.80003337  -0.26345672  -0.26345672   0.93659103    1.1732208  -0.26345672    1.2000477   518400 
 2243000   0.79933645  -0.26288577  -0.26288577   0.93611658    1.1735458  -0.26288577    1.1990024   518400 
 2244000   0.79984555  -0.26307498  -0.26307498   0.93669103    1.1744978  -0.26307498     1.199766   518400 
 2245000   0.80089216  -0.26443259  -0.26443259   0.93690333    1.1695855  -0.26443259    1.2013359   518400 
 2246000   0.80048026  -0.26332022  -0.26332022   0.93739786    1.1722004  -0.26332022    1.2007181   518400 
 2247000   0.79973868   -0.2623493   -0.2623493   0.93725641    1.1764954   -0.2623493    1.1996057   518400 
 2248000   0.80165295  -0.26362571  -0.26362571    0.9388514    1.1749128  -0.26362571    1.2024771   518400 
 2249000   0.80054997  -0.26280004  -0.26280004   0.93802261    1.1766259  -0.26280004    1.2008226   518400 
 2250000    0.8021986  -0.26319921  -0.26319921   0.94009636    1.1761365  -0.26319921    1.2032956   518400 
 2251000   0.80031235  -0.26233536  -0.26233536   0.93813085    1.1760904  -0.26233536    1.2004662   518400 
 2252000   0.80145911   -0.2642286   -0.2642286   0.93795775     1.172227   -0.2642286    1.2021863   518400 
 2253000   0.80135889  -0.26296526  -0.26296526   0.93907076    1.1754928  -0.26296526     1.202036   518400 
 2254000    0.8009897  -0.26346158  -0.26346158   0.93802065    1.1723817  -0.26346158    1.2014822   518400 
 2255000   0.80157339  -0.26322086  -0.26322086   0.93913691    1.1743936  -0.26322086    1.2023578   518400 
 2256000   0.79948864  -0.26325085  -0.26325085    0.9359798    1.1751028  -0.26325085    1.1992306   518400 
 2257000   0.80036814  -0.26456445  -0.26456445   0.93598544    1.1701877  -0.26456445    1.2005499   518400 
 2258000   0.79837648  -0.26363584  -0.26363584   0.93392657    1.1723353  -0.26363584    1.1975624   518400 
 2259000   0.80020586  -0.26464276  -0.26464276   0.93566372    1.1682407  -0.26464276    1.2003065   518400 
 2260000   0.79923021  -0.26295566  -0.26295566   0.93588735    1.1743474  -0.26295566     1.198843   518400 
 2261000   0.79876384  -0.26250133  -0.26250133   0.93564212      1.17594  -0.26250133    1.1981434   518400 
 2262000   0.80040243  -0.26322513  -0.26322513    0.9373762    1.1738653  -0.26322513    1.2006013   518400 
 2263000   0.80145136  -0.26264637  -0.26264637   0.93952835    1.1774341  -0.26264637    1.2021747   518400 
 2264000    0.8004358  -0.26342956  -0.26342956   0.93722181    1.1719093  -0.26342956    1.2006514   518400 
 2265000    0.7998601  -0.26286017  -0.26286017   0.93692767    1.1748136  -0.26286017    1.1997878   518400 
 2266000    0.8004798  -0.26366166  -0.26366166   0.93705572    1.1723961  -0.26366166    1.2007174   518400 
 2267000   0.79892987  -0.26300752  -0.26300752   0.93538498    1.1738903  -0.26300752    1.1983925   518400 
 2268000   0.79896814  -0.26273296  -0.26273296   0.93571693    1.1742484  -0.26273296    1.1984499   518400 
 2269000   0.79821479  -0.26258363  -0.26258363   0.93473625    1.1772118  -0.26258363    1.1973199   518400 
 2270000    0.7987872  -0.26257613  -0.26257613   0.93560236    1.1761536  -0.26257613    1.1981785   518400 
 2271000   0.79820654  -0.26377612  -0.26377612   0.93353138    1.1717865  -0.26377612    1.1973075   518400 
 2272000   0.79945078  -0.26345886  -0.26345886   0.93571499    1.1711992  -0.26345886    1.1991739   518400 
 2273000   0.79933551  -0.26419793  -0.26419793   0.93480302    1.1709996  -0.26419793    1.1990009   518400 
 2274000   0.79872765  -0.26259876  -0.26259876    0.9354904    1.1755295  -0.26259876    1.1980892   518400 
 2275000   0.80063853  -0.26325502  -0.26325502   0.93770046    1.1732659  -0.26325502    1.2009555   518400 
 2276000   0.79971848  -0.26308271  -0.26308271    0.9364927    1.1750939  -0.26308271    1.1995754   518400 
 2277000   0.80014525  -0.26368082  -0.26368082   0.93653474    1.1732084  -0.26368082    1.2002156   518400 
 2278000   0.80012868  -0.26408562  -0.26408562   0.93610509    1.1713085  -0.26408562    1.2001907   518400 
 2279000   0.80005723  -0.26461206  -0.26461206   0.93547147    1.1689352  -0.26461206    1.2000835   518400 
 2280000   0.79972513   -0.2637405   -0.2637405   0.93584489    1.1726773   -0.2637405    1.1995854   518400 
 2281000   0.80038526  -0.26393004  -0.26393004   0.93664553    1.1715608  -0.26393004    1.2005756   518400 
 2282000   0.79975203  -0.26236642  -0.26236642    0.9372593    1.1789273  -0.26236642    1.1996257   518400 
 2283000   0.80048752  -0.26328648  -0.26328648   0.93744249    1.1731397  -0.26328648     1.200729   518400 
 2284000   0.80052834  -0.26332768  -0.26332768   0.93746252    1.1760266  -0.26332768    1.2007902   518400 
 2285000   0.79986131  -0.26353129  -0.26353129   0.93625836    1.1704498  -0.26353129    1.1997897   518400 
 2286000   0.80017358  -0.26293858  -0.26293858   0.93731948    1.1764681  -0.26293858    1.2002581   518400 
 2287000    0.7993313  -0.26328231  -0.26328231   0.93571232    1.1735755  -0.26328231    1.1989946   518400 
 2288000   0.79987004  -0.26345725  -0.26345725    0.9363455    1.1731115  -0.26345725    1.1998027   518400 
 2289000   0.79839881  -0.26370693  -0.26370693   0.93388898     1.173676  -0.26370693    1.1975959   518400 
 2290000   0.80036313  -0.26414951  -0.26414951   0.93639287    1.1708379  -0.26414951    1.2005424   518400 
 2291000   0.79935853  -0.26395693  -0.26395693   0.93507855    1.1699213  -0.26395693    1.1990355   518400 
 2292000   0.79878196  -0.26330414  -0.26330414   0.93486648    1.1746211  -0.26330414    1.1981706   518400 
 2293000   0.79984206  -0.26370318  -0.26370318    0.9360576    1.1747988  -0.26370318    1.1997608   518400 
 2294000   0.79933165   -0.2628918   -0.2628918   0.93610336    1.1743172   -0.2628918    1.1989952   518400 
 2295000    0.8002283  -0.26254889  -0.26254889   0.93779124    1.1746835  -0.26254889    1.2003401   518400 
 2296000   0.80082702  -0.26368841  -0.26368841   0.93754979    1.1718798  -0.26368841    1.2012382   518400 
 2297000   0.80065171  -0.26314688  -0.26314688   0.93782836    1.1750752  -0.26314688    1.2009752   518400 
 2298000   0.80076463  -0.26214374  -0.26214374   0.93900088    1.1797225  -0.26214374    1.2011446   518400 
 2299000    0.8001629  -0.26266705  -0.26266705   0.93757498    1.1743063  -0.26266705     1.200242   518400 
 2300000   0.80044975  -0.26298208  -0.26298208   0.93769022    1.1766453  -0.26298208    1.2006723   518400 
 2301000    0.8008979  -0.26323427  -0.26323427   0.93811025    1.1757131  -0.26323427    1.2013445   518400 
 2302000   0.80067653  -0.26337537  -0.26337537   0.93763711    1.1736681  -0.26337537    1.2010125   518400 
 2303000   0.79876732  -0.26416818  -0.26416818   0.93398049    1.1690768  -0.26416818    1.1981487   518400 
 2304000   0.79909984  -0.26289703  -0.26289703   0.93575042    1.1750781  -0.26289703    1.1986475   518400 
 2305000   0.79937097  -0.26306487  -0.26306487   0.93598927    1.1757517  -0.26306487    1.1990541   518400 
 2306000   0.79869306  -0.26332973  -0.26332973   0.93470755    1.1738772  -0.26332973    1.1980373   518400 
 2307000   0.79919924  -0.26306991  -0.26306991   0.93572664     1.175179  -0.26306991    1.1987966   518400 
 2308000   0.79939398  -0.26423547  -0.26423547   0.93485319    1.1709801  -0.26423547    1.1990887   518400 
 2309000   0.79859025  -0.26473512  -0.26473512   0.93314795    1.1670057  -0.26473512    1.1978831   518400 
 2310000   0.79914401  -0.26241929  -0.26241929   0.93629441    1.1753463  -0.26241929    1.1987137   518400 
 2311000   0.79981687  -0.26298812  -0.26298812   0.93673487    1.1749449  -0.26298812     1.199723   518400 
 2312000   0.80017149  -0.26288778  -0.26288778   0.93736714    1.1759711  -0.26288778    1.2002549   518400 
 2313000   0.80315186  -0.26347191  -0.26347191   0.94125356    1.1745499  -0.26347191    1.2047255   518400 
 2314000   0.79984896  -0.26235623  -0.26235623    0.9374149    1.1767708  -0.26235623    1.1997711   518400 
 2315000   0.80064232  -0.26436849  -0.26436849   0.93659268    1.1720512  -0.26436849    1.2009612   518400 
 2316000   0.79992135  -0.26293478  -0.26293478   0.93694493    1.1740541  -0.26293478    1.1998797   518400 
 2317000   0.79964447  -0.26265622  -0.26265622   0.93680818    1.1771853  -0.26265622    1.1994644   518400 
 2318000   0.79889856   -0.2624899   -0.2624899   0.93585563    1.1758648   -0.2624899    1.1983455   518400 
 2319000   0.80017934  -0.26385369  -0.26385369     0.936413    1.1705183  -0.26385369    1.2002667   518400 
 2320000   0.80114559  -0.26239393  -0.26239393   0.93932214    1.1760292  -0.26239393    1.2017161   518400 
 2321000   0.79950144  -0.26247299  -0.26247299   0.93677686    1.1767567  -0.26247299    1.1992498   518400 
 2322000   0.79872548  -0.26356535  -0.26356535   0.93452056    1.1718407  -0.26356535    1.1980859   518400 
 2323000   0.79879312  -0.26283372  -0.26283372   0.93535365    1.1738332  -0.26283372    1.1981874   518400 
 2324000   0.79932517  -0.26497262  -0.26497262   0.93401282    1.1676116  -0.26497262    1.1989854   518400 
 2325000   0.79989582  -0.26406598  -0.26406598   0.93577544    1.1709996  -0.26406598    1.1998414   518400 
 2326000   0.80065691   -0.2624409   -0.2624409   0.93854215    1.1769108   -0.2624409     1.200983   518400 
 2327000   0.80149158  -0.26254867  -0.26254867   0.93968638    1.1770619  -0.26254867     1.202235   518400 
 2328000   0.80125807  -0.26403261  -0.26403261   0.93785217    1.1729421  -0.26403261    1.2018848   518400 
 2329000   0.79977639  -0.26223647  -0.26223647    0.9374258    1.1747345  -0.26223647    1.1996623   518400 
 2330000   0.79974755  -0.26244216  -0.26244216   0.93717685    1.1754914  -0.26244216     1.199619   518400 
 2331000   0.80034681   -0.2635766   -0.2635766    0.9369413    1.1726557   -0.2635766    1.2005179   518400 
 2332000   0.80191133   -0.2635913   -0.2635913   0.93927338    1.1731822   -0.2635913    1.2028647   518400 
 2333000   0.80024973  -0.26453258  -0.26453258    0.9358397    1.1682178  -0.26453258    1.2003723   518400 
 2334000   0.79920552  -0.26334046  -0.26334046   0.93546551    1.1729801  -0.26334046     1.198806   518400 
 2335000   0.79956371  -0.26404655  -0.26404655   0.93529669    1.1724562  -0.26404655    1.1993432   518400 
 2336000   0.80156512  -0.26335019  -0.26335019   0.93899517    1.1738765  -0.26335019    1.2023454   518400 
 2337000   0.79965606  -0.26269023  -0.26269023   0.93679154    1.1753408  -0.26269023    1.1994818   518400 
 2338000   0.80039934  -0.26211718  -0.26211718   0.93847951    1.1774376  -0.26211718    1.2005967   518400 
 2339000   0.79979251  -0.26377067  -0.26377067   0.93591577    1.1733293  -0.26377067    1.1996864   518400 
 2340000   0.79973768   -0.2640647   -0.2640647   0.93553951    1.1729025   -0.2640647    1.1996042   518400 
 2341000   0.79924326  -0.26374541  -0.26374541   0.93511717    1.1704951  -0.26374541    1.1988626   518400 
 2342000   0.79939302  -0.26362261  -0.26362261   0.93546461    1.1697417  -0.26362261    1.1990872   518400 
 2343000   0.80011919  -0.26384576  -0.26384576   0.93633071    1.1722227  -0.26384576    1.2001765   518400 
 2344000   0.79977855  -0.26348596  -0.26348596   0.93617956    1.1729906  -0.26348596    1.1996655   518400 
 2345000   0.79816335  -0.26351492  -0.26351492   0.93372779    1.1716719  -0.26351492    1.1972427   518400 
 2346000   0.79962818    -0.262856    -0.262856   0.93658395    1.1761219    -0.262856      1.19944   518400 
 2347000    0.7993926  -0.26318775  -0.26318775   0.93589884    1.1755885  -0.26318775    1.1990866   518400 
 2348000   0.79902249  -0.26165635  -0.26165635   0.93687507    1.1775844  -0.26165635    1.1985314   518400 
 2349000    0.8000312  -0.26298434  -0.26298434   0.93706014     1.176028  -0.26298434    1.2000445   518400 
 2350000   0.80031082  -0.26263711  -0.26263711   0.93782681      1.17911  -0.26263711    1.2004639   518400 
 2351000   0.80052791  -0.26330575  -0.26330575    0.9374838    1.1753773  -0.26330575    1.2007895   518400 
 2352000   0.79963764  -0.26322447  -0.26322447   0.93622969     1.174451  -0.26322447    1.1994542   518400 
 2353000   0.79924804  -0.26305809  -0.26305809   0.93581166    1.1750175  -0.26305809    1.1988697   518400 
 2354000   0.79940375  -0.26388351  -0.26388351    0.9352198    1.1731763  -0.26388351    1.1991033   518400 
 2355000    0.7996106  -0.26303189  -0.26303189    0.9363817    1.1755457  -0.26303189    1.1994136   518400 
 2356000   0.79971017  -0.26252458  -0.26252458   0.93703836    1.1747448  -0.26252458    1.1995629   518400 
 2357000   0.79983694  -0.26221814  -0.26221814   0.93753495    1.1766939  -0.26221814    1.1997531   518400 
 2358000   0.80014989  -0.26400308  -0.26400308   0.93621944    1.1706606  -0.26400308    1.2002225   518400 
 2359000   0.80048783  -0.26373364  -0.26373364   0.93699579    1.1726898  -0.26373364    1.2007294   518400 
 2360000   0.79944351   -0.2635939   -0.2635939   0.93556905    1.1729867   -0.2635939     1.199163   518400 
 2361000   0.79929152  -0.26307447  -0.26307447    0.9358605    1.1733412  -0.26307447     1.198935   518400 
 2362000   0.79882485  -0.26346141  -0.26346141   0.93477356     1.175199  -0.26346141     1.198235   518400 
 2363000   0.79881287  -0.26364165  -0.26364165   0.93457534    1.1721288  -0.26364165     1.198217   518400 
 2364000   0.80051493  -0.26270512  -0.26270512   0.93806497    1.1775744  -0.26270512    1.2007701   518400 
 2365000   0.79953291   -0.2629854   -0.2629854   0.93631165    1.1752429   -0.2629854    1.1992971   518400 
 2366000   0.80022608  -0.26327543  -0.26327543   0.93706138    1.1746084  -0.26327543    1.2003368   518400 
 2367000   0.80175727  -0.26376421  -0.26376421   0.93886936    1.1734374  -0.26376421    1.2026336   518400 
 2368000   0.80020077  -0.26358696  -0.26358696   0.93671188    1.1723936  -0.26358696    1.2002988   518400 
 2369000   0.79934694  -0.26311641  -0.26311641   0.93590169     1.175748  -0.26311641    1.1990181   518400 
 2370000   0.79916798  -0.26343728  -0.26343728   0.93531238    1.1735682  -0.26343728    1.1987497   518400 
 2371000   0.79978675  -0.26212293  -0.26212293   0.93755488    1.1768555  -0.26212293    1.1996778   518400 
 2372000   0.80071795  -0.26439011  -0.26439011    0.9366845    1.1718338  -0.26439011    1.2010746   518400 
 2373000   0.79975901  -0.26353012  -0.26353012   0.93610609     1.174241  -0.26353012    1.1996362   518400 
 2374000   0.79866394  -0.26372275  -0.26372275   0.93427085     1.171905  -0.26372275    1.1979936   518400 
 2375000   0.80027065  -0.26465659  -0.26465659   0.93574706    1.1682709  -0.26465659    1.2004037   518400 
 2376000   0.80057697  -0.26348631  -0.26348631   0.93737683    1.1740763  -0.26348631    1.2008631   518400 
 2377000   0.79844519  -0.26314943  -0.26314943   0.93451604    1.1729249  -0.26314943    1.1976655   518400 
 2378000   0.79938799  -0.26395333  -0.26395333   0.93512634    1.1730964  -0.26395333    1.1990797   518400 
 2379000   0.79825001  -0.26518305  -0.26518305   0.93218967    1.1682303  -0.26518305    1.1973727   518400 
 2380000   0.79979206  -0.26372627  -0.26372627   0.93595951    1.1741105  -0.26372627    1.1996858   518400 
 2381000   0.79923143  -0.26355181  -0.26355181   0.93529302    1.1727393  -0.26355181    1.1988448   518400 
 2382000   0.79852565  -0.26248849  -0.26248849   0.93529768    1.1754711  -0.26248849    1.1977862   518400 
 2383000   0.79964915  -0.26476051  -0.26476051   0.93471089    1.1704709  -0.26476051    1.1994714   518400 
 2384000   0.79816919  -0.26413568  -0.26413568    0.9331158    1.1704021  -0.26413568    1.1972515   518400 
 2385000   0.79954092  -0.26312562  -0.26312562   0.93618345    1.1742653  -0.26312562    1.1993091   518400 
 2386000   0.80090878  -0.26239471  -0.26239471   0.93896614    1.1752204  -0.26239471    1.2013609   518400 
 2387000   0.79974082    -0.262566    -0.262566   0.93704292    1.1762955    -0.262566    1.1996089   518400 
 2388000   0.80178375  -0.26274211  -0.26274211    0.9399312      1.17652  -0.26274211    1.2026733   518400 
 2389000   0.80091164  -0.26307589  -0.26307589   0.93828925    1.1764811  -0.26307589    1.2013651   518400 
 2390000    0.8011302  -0.26326993  -0.26326993   0.93842306    1.1748167  -0.26326993     1.201693   518400 
 2391000   0.80057051  -0.26320739  -0.26320739   0.93764606    1.1760634  -0.26320739    1.2008534   518400 
 2392000    0.8001629  -0.26234158  -0.26234158   0.93790045     1.178414  -0.26234158     1.200242   518400 
 2393000   0.80041534  -0.26407878  -0.26407878   0.93654191    1.1709551  -0.26407878    1.2006207   518400 
 2394000   0.79907758  -0.26331096  -0.26331096   0.93530309    1.1726203  -0.26331096    1.1986141   518400 
 2395000   0.79889271  -0.26350566  -0.26350566   0.93483109    1.1721934  -0.26350566    1.1983367   518400 
 2396000   0.79817475   -0.2614557   -0.2614557   0.93580411    1.1784913   -0.2614557    1.1972598   518400 
 2397000   0.79916824   -0.2638068   -0.2638068   0.93494325    1.1727318   -0.2638068    1.1987501   518400 
 2398000    0.8000749  -0.26348906  -0.26348906   0.93662097    1.1716956  -0.26348906      1.20011   518400 
 2399000   0.80015625  -0.26314658  -0.26314658   0.93708548     1.174051  -0.26314658    1.2002321   518400 
 2400000   0.79969963  -0.26341711  -0.26341711   0.93613002    1.1722506  -0.26341711    1.1995471   518400 
 2401000   0.79956251  -0.26290438  -0.26290438   0.93643707    1.1761729  -0.26290438    1.1993414   518400 
 2402000    0.8002209  -0.26177443  -0.26177443   0.93855462    1.1805684  -0.26177443     1.200329   518400 
 2403000   0.80000863   -0.2624828   -0.2624828   0.93752783    1.1764623   -0.2624828    1.2000106   518400 
 2404000   0.80095045  -0.26332684  -0.26332684   0.93809652     1.173719  -0.26332684    1.2014234   518400 
 2405000   0.80044478  -0.26285379  -0.26285379   0.93781106    1.1774607  -0.26285379    1.2006649   518400 
 2406000   0.80028055  -0.26267082  -0.26267082    0.9377477    1.1762353  -0.26267082    1.2004185   518400 
 2407000   0.79956837  -0.26420331  -0.26420331   0.93514692    1.1704782  -0.26420331    1.1993502   518400 
 2408000   0.79991646  -0.26272557  -0.26272557   0.93714681    1.1745473  -0.26272557    1.1998724   518400 
 2409000   0.80090182  -0.26325925  -0.26325925   0.93809115    1.1744237  -0.26325925    1.2013504   518400 
 2410000   0.79909736   -0.2624954   -0.2624954   0.93614833    1.1760415   -0.2624954    1.1986437   518400 
 2411000     0.799502  -0.26318195  -0.26318195   0.93606874    1.1717576  -0.26318195    1.1992507   518400 
 2412000   0.79882091  -0.26338982  -0.26338982   0.93483924    1.1744266  -0.26338982    1.1982291   518400 
 2413000   0.79972195  -0.26352487  -0.26352487   0.93605574    1.1734619  -0.26352487    1.1995806   518400 
 2414000   0.79911214   -0.2626141   -0.2626141    0.9360518    1.1759981   -0.2626141    1.1986659   518400 
 2415000   0.79971194  -0.26359991  -0.26359991   0.93596569    1.1743268  -0.26359991    1.1995656   518400 
 2416000   0.80045877  -0.26355101  -0.26355101   0.93713483    1.1704843  -0.26355101    1.2006858   518400 
 2417000   0.79965724  -0.26277297  -0.26277297   0.93671058     1.176695  -0.26277297    1.1994835   518400 
 2418000   0.80188189  -0.26306715  -0.26306715   0.93975336    1.1758467  -0.26306715    1.2028205   518400 
 2419000   0.80007909   -0.2632129   -0.2632129   0.93690342     1.173229   -0.2632129    1.2001163   518400 
 2420000    0.7980723  -0.26390964  -0.26390964    0.9331965    1.1693636  -0.26390964    1.1971061   518400 
 2421000   0.79913295  -0.26320939  -0.26320939   0.93548773    1.1739062  -0.26320939    1.1986971   518400 
 2422000   0.79958506   -0.2644082   -0.2644082   0.93496709    1.1709177   -0.2644082    1.1993753   518400 
 2423000   0.80044028  -0.26313384  -0.26313384   0.93752427    1.1740487  -0.26313384    1.2006581   518400 
 2424000   0.79845328  -0.26333296  -0.26333296   0.93434465    1.1726461  -0.26333296    1.1976776   518400 
 2425000   0.79995713  -0.26401391  -0.26401391   0.93591947    1.1711538  -0.26401391    1.1999334   518400 
 2426000   0.79862254  -0.26291188  -0.26291188   0.93501961    1.1757054  -0.26291188    1.1979315   518400 
 2427000    0.7976507  -0.26427226  -0.26427226   0.93220148    1.1699216  -0.26427226    1.1964737   518400 
 2428000   0.79919369  -0.26304115  -0.26304115   0.93574707    1.1722096  -0.26304115    1.1987882   518400 
 2429000   0.79912309   -0.2631143   -0.2631143   0.93556803    1.1729608   -0.2631143    1.1986823   518400 
 2430000   0.80188515  -0.26413905  -0.26413905   0.93868636    1.1730553  -0.26413905    1.2028254   518400 
 2431000   0.79980981  -0.26412632  -0.26412632   0.93558608    1.1716866  -0.26412632    1.1997124   518400 
 2432000   0.79960599  -0.26370934  -0.26370934   0.93569732    1.1725334  -0.26370934    1.1994067   518400 
 2433000   0.80081356  -0.26295064  -0.26295064   0.93826739    1.1759488  -0.26295064     1.201218   518400 
 2434000   0.79960626  -0.26363154  -0.26363154   0.93577554    1.1723653  -0.26363154    1.1994071   518400 
 2435000    0.7997264  -0.26333492  -0.26333492   0.93625236    1.1739405  -0.26333492    1.1995873   518400 
 2436000    0.7994885  -0.26189222  -0.26189222   0.93733821    1.1789386  -0.26189222    1.1992304   518400 
 2437000   0.79888352  -0.26355689  -0.26355689   0.93476608    1.1736881  -0.26355689     1.198323   518400 
 2438000   0.79978125  -0.26361525  -0.26361525   0.93605431    1.1722231  -0.26361525    1.1996696   518400 
 2439000   0.79910978  -0.26257321  -0.26257321   0.93608915    1.1765766  -0.26257321    1.1986624   518400 
 2440000   0.80070098  -0.26336013  -0.26336013   0.93768902    1.1734043  -0.26336013    1.2010492   518400 
 2441000   0.80107001  -0.26305633  -0.26305633   0.93854637    1.1744464  -0.26305633    1.2016027   518400 
 2442000   0.79956655  -0.26312793  -0.26312793   0.93621959    1.1724581  -0.26312793    1.1993475   518400 
 2443000   0.79961862  -0.26318436  -0.26318436   0.93624125     1.173941  -0.26318436    1.1994256   518400 
 2444000   0.79793945  -0.26424348  -0.26424348   0.93266339     1.169711  -0.26424348    1.1969069   518400 
 2445000   0.79958662  -0.26331493  -0.26331493   0.93606269    1.1727958  -0.26331493    1.1993776   518400 
 2446000   0.79853836  -0.26343057  -0.26343057   0.93437466    1.1716067  -0.26343057    1.1978052   518400 
 2447000    0.8000939   -0.2638802   -0.2638802   0.93625835    1.1723574   -0.2638802    1.2001385   518400 
 2448000   0.80044378  -0.26405523  -0.26405523   0.93660813    1.1708182  -0.26405523    1.2006634   518400 
 2449000   0.80039476  -0.26354129  -0.26354129   0.93704854    1.1740731  -0.26354129    1.2005898   518400 
 2450000    0.7999812   -0.2635241   -0.2635241   0.93644539    1.1728902   -0.2635241    1.1999695   518400 
 2451000   0.79939261  -0.26354734  -0.26354734   0.93553925    1.1723496  -0.26354734    1.1990866   518400 
 2452000   0.79901862  -0.26368648  -0.26368648   0.93483914    1.1732327  -0.26368648    1.1985256   518400 
 2453000   0.79987285  -0.26339301  -0.26339301   0.93641394    1.1736145  -0.26339301     1.199807   518400 
 2454000   0.79978441  -0.26212399  -0.26212399   0.93755031    1.1768219  -0.26212399    1.1996743   518400 
 2455000   0.80016747  -0.26367732  -0.26367732   0.93657156    1.1731042  -0.26367732    1.2002489   518400 
 2456000   0.79966826  -0.26372951  -0.26372951   0.93577057    1.1727524  -0.26372951    1.1995001   518400 
 2457000   0.80023387  -0.26358784  -0.26358784   0.93676065    1.1726194  -0.26358784    1.2003485   518400 
 2458000   0.79922743  -0.26215278  -0.26215278   0.93668606    1.1781883  -0.26215278    1.1988388   518400 
 2459000   0.79899097  -0.26328239  -0.26328239   0.93520175    1.1725195  -0.26328239    1.1984841   518400 
 2460000   0.80040678  -0.26302775  -0.26302775    0.9375801    1.1744778  -0.26302775    1.2006079   518400 
 2461000   0.80022846   -0.2626251   -0.2626251   0.93771527    1.1769164   -0.2626251    1.2003404   518400 
 2462000   0.80003383  -0.26204621  -0.26204621   0.93800222    1.1774796  -0.26204621    1.2000484   518400 
 2463000   0.80183999  -0.26224249  -0.26224249   0.94051517    1.1789364  -0.26224249    1.2027577   518400 
 2464000   0.80010915    -0.263181    -0.263181   0.93698041    1.1739439    -0.263181    1.2001614   518400 
 2465000   0.80070531  -0.26391004  -0.26391004   0.93714561    1.1714545  -0.26391004    1.2010556   518400 
 2466000   0.80040168  -0.26269997  -0.26269997   0.93790023    1.1757562  -0.26269997    1.2006002   518400 
 2467000   0.79978848  -0.26304266  -0.26304266   0.93663775    1.1751762  -0.26304266    1.1996804   518400 
 2468000   0.79961334  -0.26085893  -0.26085893   0.93855877    1.1829404  -0.26085893    1.1994177   518400 
 2469000   0.80071034  -0.26315002  -0.26315002   0.93791317     1.174947  -0.26315002    1.2010632   518400 
 2470000   0.80015305  -0.26378679  -0.26378679   0.93644046    1.1704544  -0.26378679    1.2002273   518400 
 2471000   0.79966658  -0.26287623  -0.26287623   0.93662132     1.175879  -0.26287623    1.1994976   518400 
 2472000   0.80023154  -0.26321523  -0.26321523   0.93712977     1.174454  -0.26321523     1.200345   518400 
 2473000   0.80010045  -0.26310895  -0.26310895   0.93703941    1.1726494  -0.26310895    1.2001484   518400 
 2474000   0.79870867  -0.26433892  -0.26433892   0.93372177    1.1694626  -0.26433892    1.1980607   518400 
 2475000    0.8005876  -0.26328686  -0.26328686   0.93759222     1.172922  -0.26328686    1.2008791   518400 
 2476000   0.80002622  -0.26283711  -0.26283711    0.9371999     1.175469  -0.26283711     1.200037   518400 
 2477000   0.79984816  -0.26267119  -0.26267119   0.93709873    1.1749618  -0.26267119    1.1997699   518400 
 2478000   0.80021756  -0.26391415  -0.26391415   0.93640986    1.1710608  -0.26391415     1.200324   518400 
 2479000   0.80138832  -0.26364788  -0.26364788   0.93843228    1.1731091  -0.26364788    1.2020802   518400 
 2480000   0.80082309  -0.26336987  -0.26336987   0.93786245    1.1746226  -0.26336987    1.2012323   518400 
 2481000   0.80062695  -0.26334642  -0.26334642   0.93759169    1.1745786  -0.26334642    1.2009381   518400 
 2482000   0.80137615  -0.26388235  -0.26388235   0.93817956    1.1716285  -0.26388235    1.2020619   518400 
 2483000   0.79991735  -0.26318204  -0.26318204   0.93669168    1.1748988  -0.26318204    1.1998737   518400 
 2484000   0.79911775  -0.26366309  -0.26366309   0.93501122    1.1721616  -0.26366309    1.1986743   518400 
 2485000   0.79836742  -0.26217555  -0.26217555   0.93537327    1.1776125  -0.26217555    1.1975488   518400 
 2486000   0.79871902   -0.2630522   -0.2630522   0.93502402    1.1727627   -0.2630522    1.1980762   518400 
 2487000   0.80038943   -0.2626234   -0.2626234   0.93795843     1.177542   -0.2626234    1.2005818   518400 
 2488000   0.80182957  -0.26360512  -0.26360512   0.93913691    1.1739921  -0.26360512     1.202742   518400 
 2489000   0.80000796  -0.26314623  -0.26314623   0.93686339    1.1728929  -0.26314623    1.2000096   518400 
 2490000   0.79997891  -0.26301772  -0.26301772   0.93694833    1.1729308  -0.26301772    1.1999661   518400 
 2491000   0.79953347  -0.26385503  -0.26385503   0.93544286    1.1724532  -0.26385503    1.1992979   518400 
 2492000   0.79998894  -0.26356376  -0.26356376   0.93641733    1.1731669  -0.26356376    1.1999811   518400 
 2493000    0.7990519  -0.26318075  -0.26318075   0.93539479      1.17262  -0.26318075    1.1985755   518400 
 2494000    0.8008241  -0.26304824  -0.26304824    0.9381856    1.1757136  -0.26304824    1.2012338   518400 
 2495000   0.79927784  -0.26325028  -0.26325028   0.93566416    1.1729634  -0.26325028    1.1989144   518400 
 2496000   0.79891728  -0.26281831  -0.26281831   0.93555531     1.174562  -0.26281831    1.1983736   518400 
 2497000   0.80033207  -0.26334182  -0.26334182   0.93715396    1.1746064  -0.26334182    1.2004958   518400 
 2498000   0.80048076  -0.26317946  -0.26317946   0.93753937    1.1747557  -0.26317946    1.2007188   518400 
 2499000   0.79986742  -0.26339581  -0.26339581     0.936403    1.1721835  -0.26339581    1.1997988   518400 
 2500000   0.80030045  -0.26339797  -0.26339797   0.93705039    1.1736745  -0.26339797    1.2004484   518400 
 2501000   0.80159426  -0.26282066  -0.26282066   0.93956841    1.1754921  -0.26282066    1.2023891   518400 
 2502000   0.80058932  -0.26363454  -0.26363454   0.93724712    1.1733037  -0.26363454    1.2008817   518400 
 2503000   0.80168673  -0.26298814  -0.26298814   0.93953963    1.1751844  -0.26298814    1.2025278   518400 
 2504000   0.80048801  -0.26245311  -0.26245311   0.93827658    1.1764605  -0.26245311    1.2007297   518400 
 2505000   0.80242779   -0.2633565   -0.2633565   0.94028286    1.1767758   -0.2633565    1.2036394   518400 
 2506000   0.79936267  -0.26201588  -0.26201588   0.93702581    1.1793953  -0.26201588    1.1990417   518400 
 2507000   0.80083547   -0.2643938   -0.2643938   0.93685709    1.1706359   -0.2643938    1.2012509   518400 
 2508000   0.79950078  -0.26241384  -0.26241384   0.93683501    1.1762799  -0.26241384    1.1992489   518400 
 2509000   0.79976002  -0.26258813  -0.26258813   0.93704959     1.176291  -0.26258813    1.1996377   518400 
 2510000      0.80032  -0.26323457  -0.26323457   0.93724312    1.1747034  -0.26323457    1.2004777   518400 
 2511000   0.79908173  -0.26408094  -0.26408094   0.93453935    1.1714011  -0.26408094    1.1986203   518400 
 2512000   0.79991814  -0.26347412  -0.26347412   0.93640078    1.1730016  -0.26347412    1.1998749   518400 
 2513000    0.7995358  -0.26351469  -0.26351469   0.93578669    1.1729927  -0.26351469    1.1993014   518400 
 2514000   0.79910709  -0.26348776  -0.26348776   0.93517057     1.173469  -0.26348776    1.1986583   518400 
 2515000   0.79809666  -0.26381516  -0.26381516   0.93332752    1.1719192  -0.26381516    1.1971427   518400 
 2516000    0.8000783  -0.26477498  -0.26477498   0.93534016    1.1698808  -0.26477498    1.2001151   518400 
 2517000    0.7993037  -0.26334348  -0.26334348   0.93560976    1.1733514  -0.26334348    1.1989532   518400 
 2518000   0.79893004  -0.26438966  -0.26438966    0.9340031    1.1695082  -0.26438966    1.1983928   518400 
 2519000   0.79921382  -0.26307679  -0.26307679   0.93574163    1.1754245  -0.26307679    1.1988184   518400 
 2520000   0.79988871  -0.26342895  -0.26342895    0.9364018    1.1738739  -0.26342895    1.1998308   518400 
 2521000   0.79927115  -0.26216257  -0.26216257   0.93674184    1.1767267  -0.26216257    1.1989044   518400 
 2522000   0.80028708  -0.26228437  -0.26228437   0.93814393    1.1778979  -0.26228437    1.2004283   518400 
 2523000   0.80094445  -0.26273925  -0.26273925   0.93867511    1.1758352  -0.26273925    1.2014144   518400 
 2524000   0.80002253  -0.26328258  -0.26328258    0.9367489    1.1757104  -0.26328258    1.2000315   518400 
 2525000   0.80039281  -0.26411275  -0.26411275   0.93647414    1.1718874  -0.26411275    1.2005869   518400 
 2526000   0.80018091  -0.26292839  -0.26292839   0.93734066    1.1751516  -0.26292839     1.200269   518400 
 2527000   0.79987151  -0.26206557  -0.26206557   0.93773938    1.1783011  -0.26206557    1.1998049   518400 
 2528000   0.80016601  -0.26354286  -0.26354286   0.93670384    1.1738507  -0.26354286    1.2002467   518400 
 2529000    0.7999945  -0.26380616  -0.26380616   0.93618328    1.1730063  -0.26380616    1.1999894   518400 
 2530000   0.79908851   -0.2638036   -0.2638036   0.93482686    1.1731011   -0.2638036    1.1986305   518400 
 2531000   0.79974433  -0.26337293  -0.26337293   0.93624124    1.1739131  -0.26337293    1.1996142   518400 
 2532000   0.79965243  -0.26365939  -0.26365939   0.93581694    1.1735628  -0.26365939    1.1994763   518400 
 2533000   0.79980928  -0.26224173  -0.26224173   0.93746988    1.1779754  -0.26224173    1.1997116   518400 
 2534000   0.80026176  -0.26269158  -0.26269158   0.93769875    1.1760004  -0.26269158    1.2003903   518400 
 2535000   0.80143373  -0.26423867  -0.26423867   0.93790961     1.172975  -0.26423867    1.2021483   518400 
 2536000   0.80033717  -0.26295703  -0.26295703   0.93754641    1.1738481  -0.26295703    1.2005034   518400 
 2537000   0.79797243  -0.26264469  -0.26264469   0.93431164    1.1752395  -0.26264469    1.1969563   518400 
 2538000   0.79979601   -0.2626829   -0.2626829   0.93700881    1.1760517   -0.2626829    1.1996917   518400 
 2539000   0.80068198  -0.26270139  -0.26270139   0.93831926    1.1756802  -0.26270139    1.2010207   518400 
 2540000   0.80003841   -0.2629145   -0.2629145    0.9371408    1.1747308   -0.2629145    1.2000553   518400 
 2541000   0.80057232  -0.26322017  -0.26322017     0.937636    1.1750011  -0.26322017    1.2008562   518400 
 2542000   0.80027951  -0.26357995  -0.26357995   0.93683701    1.1751136  -0.26357995     1.200417   518400 
 2543000   0.80145228  -0.26288092  -0.26288092   0.93929517    1.1753487  -0.26288092    1.2021761   518400 
 2544000   0.80026008   -0.2626413   -0.2626413   0.93774651    1.1758646   -0.2626413    1.2003878   518400 
 2545000   0.79969209   -0.2639121   -0.2639121   0.93562372    1.1722719   -0.2639121    1.1995358   518400 
 2546000   0.79883435  -0.26353171  -0.26353171   0.93471751    1.1734053  -0.26353171    1.1982492   518400 
 2547000    0.7998926  -0.26419881  -0.26419881   0.93563779    1.1723138  -0.26419881    1.1998366   518400 
 2548000   0.79791791  -0.26357279  -0.26357279   0.93330177    1.1724379  -0.26357279    1.1968746   518400 
 2549000   0.80042893  -0.26503037  -0.26503037   0.93561071    1.1667787  -0.26503037    1.2006411   518400 
 2550000    0.7990862  -0.26217152  -0.26217152   0.93645547    1.1757248  -0.26217152     1.198627   518400 
 2551000    0.7985518  -0.26389023  -0.26389023   0.93393517    1.1710185  -0.26389023    1.1978254   518400 
 2552000   0.79989161  -0.26387173  -0.26387173   0.93596338    1.1717587  -0.26387173    1.1998351   518400 
 2553000   0.79836788  -0.26250802  -0.26250802    0.9350415     1.176941  -0.26250802    1.1975495   518400 
 2554000   0.79945592  -0.26369898  -0.26369898   0.93548259    1.1724024  -0.26369898    1.1991816   518400 
 2555000   0.80085047  -0.26332364  -0.26332364   0.93794975    1.1756552  -0.26332364    1.2012734   518400 
 2556000   0.80094583  -0.26352419  -0.26352419   0.93789224    1.1737603  -0.26352419    1.2014164   518400 
 2557000   0.80076645  -0.26366753  -0.26366753   0.93747983    1.1745587  -0.26366753    1.2011474   518400 
 2558000   0.80019985  -0.26297562  -0.26297562   0.93732184    1.1756211  -0.26297562    1.2002975   518400 
 2559000   0.80017576  -0.26372539  -0.26372539   0.93653594    1.1733619  -0.26372539    1.2002613   518400 
 2560000   0.79978817  -0.26314937  -0.26314937   0.93653057    1.1735607  -0.26314937    1.1996799   518400 
 2561000   0.79947656  -0.26252452  -0.26252452   0.93668801    1.1767146  -0.26252452    1.1992125   518400 
 2562000   0.79956463  -0.26344535  -0.26344535   0.93589927    1.1731677  -0.26344535    1.1993446   518400 
 2563000   0.80038215  -0.26356757  -0.26356757   0.93700334     1.171481  -0.26356757    1.2005709   518400 
 2564000   0.79944344  -0.26248991  -0.26248991   0.93667293    1.1767856  -0.26248991    1.1991628   518400 
 2565000   0.79971061  -0.26334885  -0.26334885   0.93621475     1.173167  -0.26334885    1.1995636   518400 
 2566000   0.79890649  -0.26341034  -0.26341034   0.93494709    1.1725232  -0.26341034    1.1983574   518400 
 2567000   0.79854409  -0.26339575  -0.26339575   0.93441807    1.1745508  -0.26339575    1.1978138   518400 
 2568000   0.80090522  -0.26416958  -0.26416958   0.93718593    1.1732298  -0.26416958    1.2013555   518400 
 2569000   0.80089017  -0.26354695  -0.26354695   0.93778598    1.1746911  -0.26354695    1.2013329   518400 
 2570000   0.80041098  -0.26396398  -0.26396398   0.93665017    1.1712056  -0.26396398    1.2006141   518400 
 2571000    0.7994357  -0.26240446  -0.26240446   0.93674677    1.1759852  -0.26240446    1.1991512   518400 
 2572000   0.80088818  -0.26282493  -0.26282493   0.93850503    1.1775254  -0.26282493      1.20133   518400 
 2573000   0.80028136  -0.26277409  -0.26277409   0.93764563    1.1767464  -0.26277409    1.2004197   518400 
 2574000   0.80068187  -0.26265578  -0.26265578    0.9383647    1.1776867  -0.26265578    1.2010205   518400 
 2575000   0.80038386  -0.26326954  -0.26326954   0.93730393    1.1738019  -0.26326954    1.2005735   518400 
 2576000   0.80043802   -0.2635496   -0.2635496   0.93710511    1.1731444   -0.2635496    1.2006547   518400 
 2577000   0.80098898  -0.26230194  -0.26230194   0.93917921    1.1780003  -0.26230194    1.2014812   518400 
 2578000   0.80118501  -0.26259496  -0.26259496   0.93918024    1.1768417  -0.26259496    1.2017752   518400 
 2579000   0.80073098  -0.26347496  -0.26347496   0.93761919    1.1749531  -0.26347496    1.2010942   518400 
 2580000   0.80098302  -0.26215995  -0.26215995   0.93931226    1.1769764  -0.26215995    1.2014722   518400 
 2581000   0.80065625  -0.26361819  -0.26361819   0.93736388    1.1739348  -0.26361819    1.2009821   518400 
 2582000   0.80017513  -0.26329973  -0.26329973   0.93696064    1.1736076  -0.26329973    1.2002604   518400 
 2583000   0.80069377  -0.26356473  -0.26356473   0.93747362    1.1716795  -0.26356473    1.2010383   518400 
 2584000   0.80036244   -0.2632076   -0.2632076   0.93733374    1.1748119   -0.2632076    1.2005413   518400 
 2585000   0.80025194  -0.26380531  -0.26380531   0.93657028    1.1727582  -0.26380531    1.2003756   518400 
 2586000   0.79982862  -0.26298087  -0.26298087   0.93675975      1.17618  -0.26298087    1.1997406   518400 
 2587000   0.79908137  -0.26390847  -0.26390847   0.93471126    1.1709015  -0.26390847    1.1986197   518400 
 2588000   0.79945389  -0.26418766  -0.26418766   0.93499086    1.1708382  -0.26418766    1.1991785   518400 
 2589000   0.79917482  -0.26387276  -0.26387276   0.93488716    1.1729524  -0.26387276    1.1987599   518400 
 2590000   0.80009997  -0.26390518  -0.26390518   0.93624247    1.1694573  -0.26390518    1.2001476   518400 
 2591000   0.79853992  -0.26273875  -0.26273875   0.93506882    1.1740973  -0.26273875    1.1978076   518400 
 2592000    0.7997372  -0.26379928  -0.26379928   0.93580421    1.1715114  -0.26379928    1.1996035   518400 
 2593000   0.79999032  -0.26357099  -0.26357099   0.93641217    1.1735721  -0.26357099    1.1999832   518400 
 2594000   0.80125971  -0.26424874  -0.26424874   0.93763852    1.1741828  -0.26424874    1.2018873   518400 
 2595000   0.80168014  -0.26313833  -0.26313833   0.93937956    1.1752469  -0.26313833    1.2025179   518400 
 2596000   0.80084885  -0.26378592  -0.26378592   0.93748503    1.1705581  -0.26378592     1.201271   518400 
 2597000   0.79988966  -0.26293675  -0.26293675   0.93689543    1.1741656  -0.26293675    1.1998322   518400 
 2598000   0.80180636  -0.26381697  -0.26381697   0.93889025     1.172727  -0.26381697    1.2027072   518400 
 2599000    0.7989446  -0.26180494  -0.26180494   0.93660964    1.1774944  -0.26180494    1.1984146   518400 
 2600000    0.7996409  -0.26282243  -0.26282243   0.93663661    1.1751393  -0.26282243     1.199459   518400 
 2601000   0.79883206  -0.26331171  -0.26331171   0.93493407    1.1716816  -0.26331171    1.1982458   518400 
 2602000   0.79940489  -0.26380795  -0.26380795   0.93529707    1.1733075  -0.26380795     1.199105   518400 
 2603000   0.79998322  -0.26411926  -0.26411926   0.93585325    1.1725403  -0.26411926    1.1999725   518400 
 2604000   0.80050399  -0.26356305  -0.26356305   0.93719062    1.1718213  -0.26356305    1.2007537   518400 
 2605000   0.80033673  -0.26316137  -0.26316137   0.93734141     1.175486  -0.26316137    1.2005028   518400 
 2606000   0.80034572  -0.26386495  -0.26386495   0.93665132    1.1715959  -0.26386495    1.2005163   518400 
 2607000   0.79982699  -0.26264255  -0.26264255   0.93709563    1.1741462  -0.26264255    1.1997382   518400 
 2608000   0.80104996  -0.26310802  -0.26310802    0.9384646    1.1742876  -0.26310802    1.2015726   518400 
 2609000   0.80045006  -0.26294506  -0.26294506   0.93772771    1.1756509  -0.26294506    1.2006728   518400 
 2610000    0.8000082  -0.26340511  -0.26340511   0.93660488    1.1747641  -0.26340511      1.20001   518400 
 2611000   0.79908926  -0.26417971  -0.26417971   0.93445187    1.1715647  -0.26417971    1.1986316   518400 
 2612000   0.79889976  -0.26403645  -0.26403645   0.93431087      1.17142  -0.26403645    1.1983473   518400 
 2613000   0.79964526  -0.26325851  -0.26325851   0.93620707    1.1715586  -0.26325851    1.1994656   518400 
 2614000   0.79990878  -0.26406868  -0.26406868   0.93579218     1.170738  -0.26406868    1.1998609   518400 
 2615000   0.79867332  -0.26450328  -0.26450328   0.93350439    1.1711522  -0.26450328    1.1980077   518400 
 2616000   0.79915434  -0.26405382  -0.26405382   0.93467538    1.1716589  -0.26405382    1.1987292   518400 
 2617000   0.79882628  -0.26239788  -0.26239788   0.93583923    1.1762407  -0.26239788    1.1982371   518400 
 2618000   0.79853765  -0.26407449  -0.26407449   0.93372967    1.1701575  -0.26407449    1.1978042   518400 
 2619000   0.79942132  -0.26400516  -0.26400516   0.93512451    1.1706727  -0.26400516    1.1991297   518400 
 2620000   0.79905366  -0.26391151  -0.26391151   0.93466666    1.1705076  -0.26391151    1.1985782   518400 
 2621000   0.79985246   -0.2640604   -0.2640604   0.93571598    1.1720814   -0.2640604    1.1997764   518400 
 2622000   0.79919401  -0.26323034  -0.26323034   0.93555836    1.1739835  -0.26323034    1.1987887   518400 
 2623000    0.7992469  -0.26364687  -0.26364687   0.93522117    1.1716681  -0.26364687     1.198868   518400 
 2624000   0.79829057  -0.26359426  -0.26359426   0.93383928    1.1715874  -0.26359426    1.1974335   518400 
 2625000   0.79848044  -0.26305741  -0.26305741   0.93466094    1.1734052  -0.26305741    1.1977183   518400 
 2626000   0.79981927  -0.26278328  -0.26278328   0.93694332     1.174613  -0.26278328    1.1997266   518400 
 2627000   0.80155596  -0.26242999  -0.26242999   0.93990163    1.1788683  -0.26242999    1.2023316   518400 
 2628000   0.80069962   -0.2630372   -0.2630372   0.93800991    1.1743984   -0.2630372    1.2010471   518400 
 2629000   0.80138129  -0.26389524  -0.26389524   0.93817438    1.1705439  -0.26389524    1.2020696   518400 
 2630000   0.79982538  -0.26407806  -0.26407806    0.9356577    1.1725206  -0.26407806    1.1997358   518400 
 2631000   0.79869697   -0.2624296   -0.2624296   0.93561353    1.1777805   -0.2624296    1.1980431   518400 
 2632000   0.79847455  -0.26282969  -0.26282969   0.93487982    1.1770699  -0.26282969    1.1977095   518400 
 2633000   0.80102866  -0.26450447  -0.26450447    0.9370362    1.1689694  -0.26450447    1.2015407   518400 
 2634000   0.79894105  -0.26272116  -0.26272116   0.93568809    1.1744808  -0.26272116    1.1984093   518400 
 2635000   0.79934329  -0.26434064  -0.26434064   0.93467198    1.1696246  -0.26434064    1.1990126   518400 
 2636000   0.79791818  -0.26450083  -0.26450083   0.93237412    1.1682256  -0.26450083     1.196875   518400 
 2637000   0.79882094  -0.26207229  -0.26207229   0.93615681    1.1770266  -0.26207229    1.1982291   518400 
 2638000   0.79940102  -0.26393181  -0.26393181    0.9351674    1.1722088  -0.26393181    1.1990992   518400 
 2639000   0.80037336  -0.26274746  -0.26274746   0.93781026    1.1769898  -0.26274746    1.2005577   518400 
 2640000   0.79952328  -0.26286596  -0.26286596   0.93641665    1.1745958  -0.26286596    1.1992826   518400 
 2641000   0.80013669   -0.2634445   -0.2634445   0.93675823    1.1749564   -0.2634445    1.2002027   518400 
 2642000   0.80166882    -0.263061    -0.263061   0.93943991    1.1755677    -0.263061    1.2025009   518400 
 2643000   0.80039756  -0.26305558  -0.26305558   0.93753844    1.1768172  -0.26305558     1.200594   518400 
 2644000   0.80096549   -0.2631765   -0.2631765   0.93826942    1.1738598   -0.2631765    1.2014459   518400 
 2645000    0.8000397  -0.26247864  -0.26247864    0.9375786    1.1765738  -0.26247864    1.2000572   518400 
 2646000   0.80001401  -0.26320399  -0.26320399   0.93681471    1.1745833  -0.26320399    1.2000187   518400 
 2647000   0.80058516   -0.2637737   -0.2637737   0.93710172    1.1716444   -0.2637737    1.2008754   518400 
 2648000   0.80002592  -0.26279267  -0.26279267    0.9372439     1.175416  -0.26279267    1.2000366   518400 
 2649000   0.80118187  -0.26310026  -0.26310026   0.93867022    1.1756823  -0.26310026    1.2017705   518400 
 2650000   0.79934274   -0.2620637   -0.2620637    0.9369481      1.17814   -0.2620637    1.1990118   518400 
 2651000   0.79987386  -0.26312959  -0.26312959   0.93667888    1.1755219  -0.26312959    1.1998085   518400 
 2652000   0.79845845  -0.26339859  -0.26339859   0.93428678    1.1741536  -0.26339859    1.1976854   518400 
 2653000   0.79908942  -0.26388953  -0.26388953   0.93474229    1.1715891  -0.26388953    1.1986318   518400 
 2654000   0.79994259  -0.26403079  -0.26403079   0.93588078    1.1705335  -0.26403079    1.1999116   518400 
 2655000    0.7979757  -0.26399198  -0.26399198   0.93296926    1.1705247  -0.26399198    1.1969612   518400 
 2656000   0.79906191  -0.26390539  -0.26390539   0.93468516    1.1690691  -0.26390539    1.1985906   518400 
 2657000   0.79944677  -0.26340565  -0.26340565    0.9357622    1.1743586  -0.26340565    1.1991678   518400 
 2658000   0.80172887  -0.26355414  -0.26355414   0.93903685    1.1754253  -0.26355414     1.202591   518400 
 2659000   0.79997419  -0.26241103  -0.26241103   0.93754795    1.1792954  -0.26241103     1.199959   518400 
 2660000   0.80137957  -0.26230573  -0.26230573   0.93976131    1.1777133  -0.26230573     1.202067   518400 
 2661000   0.80009228  -0.26432474  -0.26432474   0.93581136    1.1720314  -0.26432474    1.2001361   518400 
 2662000   0.80001975  -0.26431978  -0.26431978   0.93570754    1.1707541  -0.26431978    1.2000273   518400 
 2663000   0.80026797  -0.26243163  -0.26243163   0.93796801     1.178289  -0.26243163    1.2003996   518400 
 2664000   0.80074872  -0.26279092  -0.26279092   0.93832985    1.1756059  -0.26279092    1.2011208   518400 
 2665000   0.79998405  -0.26250661  -0.26250661   0.93746715     1.175959  -0.26250661    1.1999738   518400 
 2666000    0.8016825  -0.26256474  -0.26256474   0.93995668    1.1758281  -0.26256474    1.2025214   518400 
 2667000   0.80136436  -0.26362733  -0.26362733   0.93841689    1.1726655  -0.26362733    1.2020442   518400 
 2668000   0.80031175  -0.26316859  -0.26316859   0.93729672    1.1750815  -0.26316859    1.2004653   518400 
 2669000   0.80095721   -0.2636017   -0.2636017    0.9378318    1.1735313   -0.2636017    1.2014335   518400 
 2670000   0.80104472  -0.26157712  -0.26157712   0.93998764    1.1809041  -0.26157712    1.2015648   518400 
 2671000    0.8013448  -0.26374522  -0.26374522   0.93826967    1.1722057  -0.26374522    1.2020149   518400 
 2672000   0.80158726  -0.26335547  -0.26335547   0.93902309    1.1747504  -0.26335547    1.2023786   518400 
 2673000   0.79996389  -0.26321339  -0.26321339   0.93673013    1.1740824  -0.26321339    1.1999435   518400 
 2674000   0.79926549  -0.26366091  -0.26366091   0.93523502    1.1729513  -0.26366091    1.1988959   518400 
 2675000   0.79921643  -0.26352782  -0.26352782   0.93529451    1.1744884  -0.26352782    1.1988223   518400 
 2676000    0.7997088  -0.26371396  -0.26371396   0.93584693    1.1717713  -0.26371396    1.1995609   518400 
 2677000   0.79989869  -0.26368507  -0.26368507   0.93616065    1.1723673  -0.26368507    1.1998457   518400 
 2678000   0.79842639  -0.26241776  -0.26241776   0.93521952    1.1747499  -0.26241776    1.1976373   518400 
 2679000   0.79974027   -0.2641142   -0.2641142   0.93549389    1.1698764   -0.2641142    1.1996081   518400 
 2680000   0.79883647  -0.26383214  -0.26383214   0.93442025    1.1723882  -0.26383214    1.1982524   518400 
 2681000   0.79937808  -0.26287489  -0.26287489   0.93618992    1.1744772  -0.26287489    1.1990648   518400 
 2682000   0.80090289   -0.2643951   -0.2643951   0.93695692    1.1704008   -0.2643951     1.201352   518400 
 2683000   0.80150313  -0.26434421  -0.26434421   0.93790817    1.1692125  -0.26434421    1.2022524   518400 
 2684000   0.80050953  -0.26250677  -0.26250677   0.93825521    1.1760628  -0.26250677     1.200762   518400 
 2685000   0.80046495  -0.26224903  -0.26224903   0.93844607    1.1767265  -0.26224903    1.2006951   518400 
 2686000   0.80204022  -0.26382502  -0.26382502     0.939233    1.1729899  -0.26382502     1.203058   518400 
 2687000   0.80071032  -0.26349211  -0.26349211   0.93757105     1.173248  -0.26349211    1.2010632   518400 
 2688000   0.80141762  -0.26401366  -0.26401366   0.93811045    1.1714135  -0.26401366    1.2021241   518400 
 2689000   0.79922684  -0.26320926  -0.26320926   0.93562869     1.173998  -0.26320926    1.1988379   518400 
 2690000   0.79945716  -0.26327732  -0.26327732   0.93590611    1.1724356  -0.26327732    1.1991834   518400 
 2691000   0.79920815   -0.2629879   -0.2629879   0.93582201    1.1752439   -0.2629879    1.1988099   518400 
 2692000   0.79998197   -0.2628983   -0.2628983   0.93707234    1.1752826   -0.2628983    1.1999706   518400 
 2693000   0.80064455   -0.2633714   -0.2633714   0.93759311    1.1738702   -0.2633714    1.2009645   518400 
 2694000   0.80060679  -0.26253962  -0.26253962   0.93836825    1.1774764  -0.26253962    1.2009079   518400 
 2695000   0.80010915  -0.26255155  -0.26255155   0.93760986    1.1754445  -0.26255155    1.2001614   518400 
 2696000   0.79916073  -0.26230068  -0.26230068    0.9364381    1.1755938  -0.26230068    1.1987388   518400 
 2697000   0.80049315  -0.26375076  -0.26375076   0.93698664    1.1732582  -0.26375076    1.2007374   518400 
 2698000   0.79954853  -0.26212486  -0.26212486   0.93719562    1.1768501  -0.26212486    1.1993205   518400 
 2699000   0.80038225  -0.26331369  -0.26331369   0.93725737     1.175319  -0.26331369    1.2005711   518400 
 2700000   0.80180017  -0.26343934  -0.26343934   0.93925859    1.1747698  -0.26343934    1.2026979   518400 
 2701000   0.80047629  -0.26241507  -0.26241507   0.93829705    1.1785213  -0.26241507    1.2007121   518400 
 2702000   0.80120513  -0.26229501  -0.26229501   0.93951037     1.178039  -0.26229501    1.2018054   518400 
 2703000   0.80029144  -0.26318199  -0.26318199   0.93725286    1.1748817  -0.26318199    1.2004349   518400 
 2704000     0.800407  -0.26359858  -0.26359858    0.9370096    1.1725114  -0.26359858    1.2006082   518400 
 2705000   0.79795814  -0.26268596  -0.26268596   0.93424895    1.1747253  -0.26268596    1.1969349   518400 
 2706000   0.80003404   -0.2639227   -0.2639227   0.93612605    1.1718059   -0.2639227    1.2000487   518400 
 2707000   0.79894007  -0.26379505  -0.26379505   0.93461275    1.1725297  -0.26379505    1.1984078   518400 
 2708000    0.8003033  -0.26316484  -0.26316484   0.93728779    1.1739673  -0.26316484    1.2004526   518400 
 2709000   0.79948107  -0.26245484  -0.26245484   0.93676445    1.1778323  -0.26245484    1.1992193   518400 
 2710000   0.80062941  -0.26378307  -0.26378307   0.93715872     1.172552  -0.26378307    1.2009418   518400 
 2711000   0.79989201  -0.26277144  -0.26277144   0.93706427    1.1755145  -0.26277144    1.1998357   518400 
 2712000    0.8012672  -0.26334696  -0.26334696   0.93855151    1.1741998  -0.26334696    1.2018985   518400 
 2713000   0.80145639  -0.26291155  -0.26291155   0.93927072    1.1754063  -0.26291155    1.2021823   518400 
 2714000   0.79947394  -0.26252202  -0.26252202   0.93668657    1.1742597  -0.26252202    1.1992086   518400 
 2715000   0.79988202  -0.26360716  -0.26360716   0.93621356    1.1703619  -0.26360716    1.1998207   518400 
 2716000   0.79898176  -0.26320524  -0.26320524   0.93526509     1.172603  -0.26320524    1.1984703   518400 
 2717000   0.80042666  -0.26378279  -0.26378279   0.93685488    1.1715605  -0.26378279    1.2006377   518400 
 2718000   0.79927424  -0.26255107  -0.26255107   0.93635798    1.1739365  -0.26255107    1.1989091   518400 
 2719000   0.79947183  -0.26336342  -0.26336342   0.93584202     1.174005  -0.26336342    1.1992054   518400 
 2720000   0.79986053  -0.26363585  -0.26363585   0.93615263    1.1746173  -0.26363585    1.1997885   518400 
 2721000    0.7999413  -0.26370649  -0.26370649   0.93620314    1.1709985  -0.26370649    1.1999096   518400 
 2722000   0.80067332  -0.26261733  -0.26261733   0.93839033    1.1777278  -0.26261733    1.2010077   518400 
 2723000   0.80003132  -0.26353473  -0.26353473   0.93650992    1.1729405  -0.26353473    1.2000447   518400 
 2724000   0.80096894   -0.2621265   -0.2621265    0.9393246    1.1786572   -0.2621265    1.2014511   518400 
 2725000   0.79989528  -0.26373315  -0.26373315   0.93610746    1.1728264  -0.26373315    1.1998406   518400 
 2726000   0.79900313  -0.26344967  -0.26344967   0.93505271    1.1728225  -0.26344967    1.1985024   518400 
 2727000   0.80076209  -0.26438182  -0.26438182     0.936759    1.1713661  -0.26438182    1.2011408   518400 
 2728000   0.80112585  -0.26239674  -0.26239674   0.93928972    1.1777803  -0.26239674    1.2016865   518400 
 2729000   0.80044963  -0.26322942  -0.26322942   0.93744271    1.1735035  -0.26322942    1.2006721   518400 
 2730000   0.80270373  -0.26299487  -0.26299487   0.94105841    1.1752999  -0.26299487    1.2040533   518400 
 2731000   0.80081433  -0.26282294  -0.26282294   0.93839624    1.1765007  -0.26282294    1.2012192   518400 
 2732000   0.80028969  -0.26292266  -0.26292266   0.93750957    1.1769033  -0.26292266    1.2004322   518400 
 2733000   0.80059879  -0.26194748  -0.26194748   0.93894839     1.179488  -0.26194748    1.2008959   518400 
 2734000   0.80049246  -0.26332973  -0.26332973   0.93740664    1.1736106  -0.26332973    1.2007364   518400 
 2735000   0.80020336   -0.2631346   -0.2631346   0.93716813    1.1727415   -0.2631346    1.2003027   518400 
 2736000   0.80005877  -0.26311604  -0.26311604    0.9369698    1.1744282  -0.26311604    1.2000858   518400 
 2737000   0.80012878  -0.26332289  -0.26332289   0.93686796    1.1740515  -0.26332289    1.2001909   518400 
 2738000    0.8013056  -0.26257492  -0.26257492   0.93938117    1.1760041  -0.26257492    1.2019561   518400 
 2739000   0.80045445  -0.26423863  -0.26423863   0.93644073      1.17126  -0.26423863    1.2006794   518400 
 2740000   0.79994276  -0.26449714  -0.26449714   0.93541469    1.1714149  -0.26449714    1.1999118   518400 
 2741000     0.798915   -0.2641765   -0.2641765   0.93419368    1.1698946   -0.2641765    1.1983702   518400 
 2742000   0.80035835  -0.26416548  -0.26416548   0.93636973    1.1710676  -0.26416548    1.2005352   518400 
 2743000     0.800139  -0.26379014  -0.26379014   0.93641605    1.1726055  -0.26379014    1.2002062   518400 
 2744000   0.80093048  -0.26327637  -0.26327637   0.93811703    1.1756735  -0.26327637    1.2013934   518400 
 2745000   0.80029709  -0.26274037  -0.26274037   0.93770295    1.1742474  -0.26274037    1.2004433   518400 
 2746000    0.7982114  -0.26400153  -0.26400153   0.93331326    1.1714014  -0.26400153    1.1973148   518400 
 2747000   0.80062884  -0.26353459  -0.26353459   0.93740635    1.1745087  -0.26353459    1.2009409   518400 
 2748000   0.80207839  -0.26386888  -0.26386888   0.93924638     1.173998  -0.26386888    1.2031153   518400 
 2749000   0.80066847  -0.26300758  -0.26300758   0.93799282    1.1757271  -0.26300758    1.2010004   518400 
 2750000   0.79988821  -0.26326646  -0.26326646   0.93656354    1.1733428  -0.26326646      1.19983   518400 
 2751000   0.80019549   -0.2638903   -0.2638903   0.93640062    1.1711728   -0.2638903    1.2002909   518400 
 2752000   0.79951894  -0.26327387  -0.26327387   0.93600223    1.1737215  -0.26327387    1.1992761   518400 
 2753000    0.7995109   -0.2634038   -0.2634038   0.93586024    1.1728501   -0.2634038     1.199264   518400 
 2754000   0.79876725  -0.26387395  -0.26387395   0.93427461    1.1696928  -0.26387395    1.1981486   518400 
 2755000    0.7987251  -0.26267778  -0.26267778   0.93540756    1.1749744  -0.26267778    1.1980853   518400 
 2756000   0.80066375  -0.26448952  -0.26448952   0.93650379    1.1695107  -0.26448952    1.2009933   518400 
 2757000   0.80058501  -0.26386638  -0.26386638   0.93700882      1.17108  -0.26386638    1.2008752   518400 
 2758000   0.80040302  -0.26267687  -0.26267687   0.93792534    1.1776381  -0.26267687    1.2006022   518400 
 2759000   0.80015897   -0.2630138   -0.2630138   0.93722233    1.1743036   -0.2630138    1.2002361   518400 
 2760000   0.80015322   -0.2621664   -0.2621664   0.93806111    1.1781952   -0.2621664    1.2002275   518400 
 2761000   0.80097236   -0.2635195   -0.2635195   0.93793673     1.173898   -0.2635195    1.2014562   518400 
 2762000   0.80101668   -0.2628724   -0.2628724    0.9386503    1.1747342   -0.2628724    1.2015227   518400 
 2763000   0.79970368  -0.26181523  -0.26181523   0.93773797    1.1792149  -0.26181523    1.1995532   518400 
 2764000   0.79951338  -0.26152898  -0.26152898   0.93773877     1.179791  -0.26152898    1.1992678   518400 
 2765000   0.80041057  -0.26328742  -0.26328742   0.93732613    1.1747805  -0.26328742    1.2006135   518400 
 2766000   0.80093828  -0.26219213  -0.26219213   0.93921297    1.1771593  -0.26219213    1.2014051   518400 
 2767000   0.80127667  -0.26436744  -0.26436744   0.93754524    1.1716925  -0.26436744    1.2019127   518400 
 2768000   0.80066026  -0.26428552  -0.26428552   0.93670255    1.1703677  -0.26428552    1.2009881   518400 
 2769000    0.7990714  -0.26477003  -0.26477003   0.93383476    1.1701064  -0.26477003    1.1986048   518400 
 2770000   0.79945945  -0.26236637  -0.26236637   0.93682049    1.1765018  -0.26236637    1.1991869   518400 
 2771000   0.79911058  -0.26248032  -0.26248032   0.93618323    1.1747388  -0.26248032    1.1986636   518400 
 2772000   0.80160997  -0.26346657  -0.26346657   0.93894607    1.1736754  -0.26346657    1.2024126   518400 
 2773000   0.80100863  -0.26274691  -0.26274691   0.93876371     1.176517  -0.26274691    1.2015106   518400 
 2774000   0.80053977  -0.26393037  -0.26393037   0.93687696    1.1725064  -0.26393037    1.2008073   518400 
 2775000   0.79972794  -0.26304284  -0.26304284   0.93654676    1.1751648  -0.26304284    1.1995896   518400 
 2776000   0.80095891  -0.26348582  -0.26348582   0.93795023     1.173549  -0.26348582     1.201436   518400 
 2777000   0.80089361  -0.26221499  -0.26221499    0.9391231    1.1779018  -0.26221499    1.2013381   518400 
 2778000   0.79972921  -0.26404942  -0.26404942   0.93554208    1.1713165  -0.26404942    1.1995915   518400 
 2779000   0.79759449  -0.26292473  -0.26292473   0.93346469    1.1721119  -0.26292473    1.1963894   518400 
 2780000   0.80007257  -0.26407225  -0.26407225   0.93603428      1.17007  -0.26407225    1.2001065   518400 
 2781000   0.80014568  -0.26288668  -0.26288668   0.93732952    1.1750952  -0.26288668    1.2002162   518400 
 2782000   0.79872208  -0.26454233  -0.26454233   0.93353847    1.1684292  -0.26454233    1.1980808   518400 
 2783000   0.79984533  -0.26317817  -0.26317817   0.93658751    1.1751741  -0.26317817    1.1997657   518400 
 2784000   0.79935816  -0.26288666  -0.26288666   0.93614826    1.1769757  -0.26288666    1.1990349   518400 
 2785000   0.80034043  -0.26396521  -0.26396521   0.93654312    1.1719926  -0.26396521    1.2005083   518400 
 2786000   0.79992611  -0.26348153  -0.26348153   0.93640533    1.1751537  -0.26348153    1.1998869   518400 
 2787000   0.80087675  -0.26438285  -0.26438285   0.93692996     1.170108  -0.26438285    1.2013128   518400 
 2788000   0.80020902  -0.26297234  -0.26297234   0.93733888    1.1762095  -0.26297234    1.2003112   518400 
 2789000    0.8009922  -0.26319796  -0.26319796   0.93828803    1.1755098  -0.26319796     1.201486   518400 
 2790000   0.80026546  -0.26302293  -0.26302293   0.93737294    1.1738953  -0.26302293    1.2003959   518400 
 2791000   0.80061552  -0.26296383  -0.26296383   0.93795713     1.174313  -0.26296383     1.200921   518400 
 2792000   0.79808161  -0.26277919  -0.26277919   0.93434092     1.174901  -0.26277919    1.1971201   518400 
 2793000   0.79995488  -0.26359156  -0.26359156   0.93633845    1.1726005  -0.26359156      1.19993   518400 
 2794000     0.798788     -0.26307     -0.26307   0.93510969    1.1736741     -0.26307    1.1981797   518400 
 2795000   0.79899448  -0.26431122  -0.26431122   0.93417818    1.1690924  -0.26431122    1.1984894   518400 
 2796000   0.79970808  -0.26423359  -0.26423359   0.93532621    1.1708996  -0.26423359    1.1995598   518400 
 2797000   0.79912375  -0.26385884  -0.26385884   0.93482448    1.1732822  -0.26385884    1.1986833   518400 
 2798000    0.7987186  -0.26468777  -0.26468777   0.93338781    1.1691015  -0.26468777    1.1980756   518400 
 2799000   0.79958824  -0.26298401  -0.26298401   0.93639603     1.175135  -0.26298401      1.19938   518400 
 2800000   0.79763626  -0.26363655  -0.26363655   0.93281554    1.1709686  -0.26363655    1.1964521   518400 
 2801000   0.79934531   -0.2639772   -0.2639772   0.93503846    1.1702186   -0.2639772    1.1990157   518400 
 2802000   0.79837793  -0.26167042  -0.26167042   0.93589417    1.1784022  -0.26167042    1.1975646   518400 
 2803000   0.79850717  -0.26384151  -0.26384151   0.93391693    1.1716365  -0.26384151    1.1977584   518400 
 2804000   0.80002125  -0.26390743  -0.26390743   0.93612212    1.1723803  -0.26390743    1.2000296   518400 
 2805000   0.79921599  -0.26406018  -0.26406018   0.93476149    1.1714165  -0.26406018    1.1988217   518400 
 2806000   0.79964798   -0.2636987   -0.2636987   0.93577096     1.170962   -0.2636987    1.1994697   518400 
 2807000   0.79900156  -0.26251873  -0.26251873   0.93598129    1.1758702  -0.26251873       1.1985   518400 
 2808000   0.80007087  -0.26297687  -0.26297687   0.93712712    1.1732576  -0.26297687     1.200104   518400 
 2809000   0.79889397  -0.26310764  -0.26310764     0.935231    1.1740938  -0.26310764    1.1983386   518400 
 2810000   0.79907669  -0.26282784  -0.26282784   0.93578488    1.1758809  -0.26282784    1.1986127   518400 
 2811000   0.79974381  -0.26414359  -0.26414359   0.93546981    1.1730794  -0.26414359    1.1996134   518400 
 2812000   0.79934554  -0.26359725  -0.26359725   0.93541875    1.1718319  -0.26359725     1.199016   518400 
 2813000   0.79877014  -0.26369097  -0.26369097   0.93446192    1.1743654  -0.26369097    1.1981529   518400 
 2814000   0.79883169  -0.26376917  -0.26376917   0.93447605    1.1708437  -0.26376917    1.1982452   518400 
 2815000   0.79919008  -0.26280588  -0.26280588   0.93597693    1.1728317  -0.26280588    1.1987828   518400 
 2816000    0.7985412  -0.26263191  -0.26263191   0.93517757    1.1778525  -0.26263191    1.1978095   518400 
 2817000   0.80051134  -0.26317738  -0.26317738   0.93758731    1.1752124  -0.26317738    1.2007647   518400 
 2818000   0.80047068   -0.2633723   -0.2633723   0.93733141    1.1735207   -0.2633723    1.2007037   518400 
 2819000   0.79970018  -0.26373385  -0.26373385    0.9358141     1.170956  -0.26373385    1.1995479   518400 
 2820000   0.79979671  -0.26369454  -0.26369454   0.93599822    1.1714578  -0.26369454    1.1996928   518400 
 2821000   0.79922277  -0.26229357  -0.26229357   0.93653827    1.1765086  -0.26229357    1.1988318   518400 
 2822000   0.80011199  -0.26343295  -0.26343295   0.93673271     1.174004  -0.26343295    1.2001657   518400 
 2823000    0.7982901   -0.2638514   -0.2638514   0.93358144    1.1727457   -0.2638514    1.1974328   518400 
 2824000   0.79968812  -0.26439094  -0.26439094   0.93513892    1.1706432  -0.26439094    1.1995299   518400 
 2825000   0.79945342  -0.26348681  -0.26348681     0.935691    1.1711947  -0.26348681    1.1991778   518400 
 2826000   0.79924062  -0.26224258  -0.26224258   0.93661604    1.1775557  -0.26224258    1.1988586   518400 
 2827000   0.80092729  -0.26275444  -0.26275444   0.93863418       1.1748  -0.26275444    1.2013886   518400 
 2828000   0.80038078  -0.26286675  -0.26286675    0.9377021    1.1778837  -0.26286675    1.2005688   518400 
 2829000   0.80133716  -0.26435162  -0.26435162    0.9376518    1.1706437  -0.26435162    1.2020034   518400 
 2830000   0.79978203  -0.26408659  -0.26408659   0.93558414    1.1720642  -0.26408659    1.1996707   518400 
 2831000   0.79995782  -0.26369588  -0.26369588   0.93623854    1.1729911  -0.26369588    1.1999344   518400 
 2832000   0.80012542  -0.26532683  -0.26532683   0.93485899    1.1663573  -0.26532683    1.2001858   518400 
 2833000   0.79864378   -0.2632057   -0.2632057   0.93475765    1.1749419   -0.2632057    1.1979634   518400 
 2834000   0.79971433  -0.26407093  -0.26407093   0.93549825    1.1713132  -0.26407093    1.1995692   518400 
 2835000   0.79904429  -0.26326307  -0.26326307   0.93530105    1.1750935  -0.26326307    1.1985641   518400 
 2836000   0.80084674  -0.26345227  -0.26345227   0.93781552    1.1730134  -0.26345227    1.2012678   518400 
 2837000   0.80022772  -0.26263245  -0.26263245   0.93770681    1.1746947  -0.26263245    1.2003393   518400 
 2838000   0.80082865  -0.26273396  -0.26273396    0.9385067    1.1768722  -0.26273396    1.2012407   518400 
 2839000   0.79972236  -0.26316945  -0.26316945   0.93641178    1.1747236  -0.26316945    1.1995812   518400 
 2840000   0.80034971  -0.26363151  -0.26363151   0.93689074     1.173314  -0.26363151    1.2005223   518400 
 2841000   0.79763483  -0.26398055  -0.26398055   0.93246938    1.1717071  -0.26398055    1.1964499   518400 
 2842000   0.79849734  -0.26328635  -0.26328635   0.93445735    1.1741812  -0.26328635    1.1977437   518400 
 2843000   0.79954557  -0.26290061  -0.26290061   0.93641543    1.1759233  -0.26290061     1.199316   518400 
 2844000    0.7996369  -0.26380665  -0.26380665    0.9356464    1.1723037  -0.26380665     1.199453   518400 
 2845000   0.80077165  -0.26424917  -0.26424917   0.93690598    1.1706974  -0.26424917    1.2011552   518400 
 2846000   0.80027284  -0.26351224  -0.26351224    0.9368947    1.1725494  -0.26351224    1.2004069   518400 
 2847000   0.80020355  -0.26375598  -0.26375598   0.93654702    1.1732508  -0.26375598     1.200303   518400 
 2848000   0.79921697  -0.26277993  -0.26277993   0.93604322    1.1746158  -0.26277993    1.1988231   518400 
 2849000   0.80005754  -0.26353225  -0.26353225   0.93655174    1.1726814  -0.26353225     1.200084   518400 
 2850000   0.79917612  -0.26288263  -0.26288263   0.93587924    1.1732785  -0.26288263    1.1987619   518400 
 2851000   0.80053125  -0.26256324  -0.26256324   0.93823131     1.176863  -0.26256324    1.2007946   518400 
 2852000   0.79991827  -0.26435524  -0.26435524   0.93551985    1.1699476  -0.26435524    1.1998751   518400 
 2853000   0.79977592  -0.26374609  -0.26374609   0.93591547    1.1708648  -0.26374609    1.1996616   518400 
 2854000   0.80190848  -0.26324456  -0.26324456   0.93961584    1.1744337  -0.26324456    1.2028604   518400 
 2855000   0.80042837  -0.26357127  -0.26357127   0.93706896    1.1731425  -0.26357127    1.2006402   518400 
 2856000   0.80047051  -0.26209562  -0.26209562   0.93860783    1.1780418  -0.26209562    1.2007034   518400 
 2857000   0.80039714  -0.26297704  -0.26297704   0.93761635    1.1754474  -0.26297704    1.2005934   518400 
 2858000   0.80099934  -0.26280379  -0.26280379    0.9386929     1.174695  -0.26280379    1.2014967   518400 
 2859000     0.799716   -0.2627676   -0.2627676   0.93680408    1.1750475   -0.2627676    1.1995717   518400 
 2860000   0.79971854  -0.26307769  -0.26307769   0.93649781    1.1754099  -0.26307769    1.1995755   518400 
 2861000   0.80082793  -0.26334462  -0.26334462   0.93789496    1.1747946  -0.26334462    1.2012396   518400 
 2862000   0.80105469  -0.26275424  -0.26275424   0.93882547    1.1752285  -0.26275424    1.2015797   518400 
 2863000   0.80041769  -0.26350682  -0.26350682    0.9371174     1.173727  -0.26350682    1.2006242   518400 
 2864000   0.79988702   -0.2624415   -0.2624415   0.93738672    1.1775642   -0.2624415    1.1998282   518400 
 2865000   0.80015228  -0.26312384  -0.26312384   0.93710226    1.1745544  -0.26312384    1.2002261   518400 
 2866000   0.80136159  -0.26278207  -0.26278207     0.939258    1.1776277  -0.26278207    1.2020401   518400 
 2867000    0.8007979  -0.26420686  -0.26420686   0.93698767    1.1727787  -0.26420686    1.2011945   518400 
 2868000   0.80061222  -0.26324492  -0.26324492    0.9376711    1.1752696  -0.26324492     1.200916   518400 
 2869000   0.80087435    -0.264106    -0.264106    0.9372032    1.1729821    -0.264106    1.2013092   518400 
 2870000   0.80071362  -0.26474412  -0.26474412     0.936324    1.1701961  -0.26474412    1.2010681   518400 
 2871000    0.7981836  -0.26280079  -0.26280079    0.9344723    1.1758284  -0.26280079    1.1972731   518400 
 2872000   0.79877123  -0.26336111  -0.26336111   0.93479342    1.1720902  -0.26336111    1.1981545   518400 
 2873000   0.79912021   -0.2628166   -0.2628166    0.9358614     1.174719   -0.2628166     1.198678   518400 
 2874000   0.79922216  -0.26307994  -0.26307994   0.93575099    1.1738502  -0.26307994    1.1988309   518400 
 2875000   0.79920266  -0.26423812  -0.26423812   0.93456356    1.1718153  -0.26423812    1.1988017   518400 
 2876000   0.79954315   -0.2645525   -0.2645525   0.93475991    1.1700485   -0.2645525    1.1993124   518400 
 2877000   0.79956052  -0.26337459  -0.26337459   0.93596387    1.1742533  -0.26337459    1.1993385   518400 
 2878000   0.79932746  -0.26345971  -0.26345971   0.93552917    1.1727736  -0.26345971    1.1989889   518400 
 2879000   0.79919047  -0.26348956  -0.26348956   0.93529384    1.1715384  -0.26348956    1.1987834   518400 
 2880000   0.80126899  -0.26322983  -0.26322983   0.93867133    1.1751609  -0.26322983    1.2019012   518400 
 2881000   0.80052149  -0.26352004  -0.26352004   0.93725987    1.1714933  -0.26352004    1.2007799   518400 
 2882000   0.80169879   -0.2637557   -0.2637557   0.93879017    1.1733526   -0.2637557    1.2025459   518400 
 2883000   0.80127901  -0.26327649  -0.26327649    0.9386397    1.1740914  -0.26327649    1.2019162   518400 
 2884000   0.79880581  -0.26178443  -0.26178443   0.93642197    1.1778474  -0.26178443    1.1982064   518400 
 2885000   0.80076472  -0.26336051  -0.26336051   0.93778425    1.1753072  -0.26336051    1.2011448   518400 
 2886000   0.80091914  -0.26302416  -0.26302416   0.93835224    1.1743441  -0.26302416    1.2013764   518400 
 2887000   0.80131898  -0.26278756  -0.26278756   0.93918858    1.1780948  -0.26278756    1.2019761   518400 
 2888000   0.80004085  -0.26274696  -0.26274696     0.937312    1.1759939  -0.26274696     1.200059   518400 
 2889000   0.79855972  -0.26370617  -0.26370617   0.93413109     1.171613  -0.26370617    1.1978373   518400 
 2890000   0.79894806  -0.26305484  -0.26305484   0.93536494    1.1746513  -0.26305484    1.1984198   518400 
 2891000   0.79889789  -0.26343978  -0.26343978   0.93490475    1.1732339  -0.26343978    1.1983445   518400 
 2892000   0.80098516  -0.26292344  -0.26292344   0.93855198    1.1754368  -0.26292344    1.2014754   518400 
 2893000   0.79960413   -0.2636042   -0.2636042   0.93579967    1.1742584   -0.2636042    1.1994039   518400 
 2894000   0.80125194  -0.26262886  -0.26262886   0.93924673    1.1773052  -0.26262886    1.2018756   518400 
 2895000   0.80070465  -0.26314964  -0.26314964   0.93790502     1.176928  -0.26314964    1.2010547   518400 
 2896000   0.80056742  -0.26272175  -0.26272175   0.93812706    1.1752784  -0.26272175    1.2008488   518400 
 2897000   0.80106129  -0.26265776  -0.26265776   0.93893185     1.176807  -0.26265776    1.2015896   518400 
 2898000   0.80009024  -0.26397516  -0.26397516   0.93615789    1.1715962  -0.26397516     1.200133   518400 
 2899000   0.79950156  -0.26299732  -0.26299732    0.9362527    1.1747035  -0.26299732      1.19925   518400 
 2900000   0.80004423  -0.26270452  -0.26270452   0.93735952    1.1757787  -0.26270452     1.200064   518400 
 2901000   0.79886751  -0.26269373  -0.26269373   0.93560523    1.1745317  -0.26269373     1.198299   518400 
 2902000   0.79910045  -0.26329831  -0.26329831   0.93535005    1.1734316  -0.26329831    1.1986484   518400 
 2903000   0.79836964  -0.26368583  -0.26368583   0.93386632     1.172001  -0.26368583    1.1975522   518400 
 2904000   0.79868925  -0.26179334  -0.26179334   0.93623823    1.1778884  -0.26179334    1.1980316   518400 
 2905000   0.79965768   -0.2634939   -0.2634939   0.93599031    1.1726166   -0.2634939    1.1994842   518400 
 2906000   0.79904855  -0.26235408  -0.26235408   0.93621644     1.175715  -0.26235408    1.1985705   518400 
 2907000   0.80106295  -0.26188209  -0.26188209      0.93971    1.1795464  -0.26188209    1.2015921   518400 
 2908000   0.80030974  -0.26276438  -0.26276438   0.93769792    1.1788078  -0.26276438    1.2004623   518400 
 2909000   0.80005477  -0.26262934  -0.26262934    0.9374505    1.1764479  -0.26262934    1.2000798   518400 
 2910000   0.80056241  -0.26279875  -0.26279875   0.93804256    1.1762701  -0.26279875    1.2008413   518400 
 2911000   0.80119665  -0.26313839  -0.26313839   0.93865427    1.1761482  -0.26313839    1.2017927   518400 
 2912000   0.80073084   -0.2627856   -0.2627856   0.93830835    1.1753289   -0.2627856    1.2010939   518400 
 2913000   0.80054596  -0.26321573  -0.26321573   0.93760089    1.1743316  -0.26321573    1.2008166   518400 
 2914000   0.80114288  -0.26426159  -0.26426159   0.93745041     1.171058  -0.26426159     1.201712   518400 
 2915000   0.80048488  -0.26440349  -0.26440349   0.93632151    1.1690835  -0.26440349     1.200725   518400 
 2916000    0.7990347  -0.26301259  -0.26301259   0.93553715    1.1745671  -0.26301259    1.1985497   518400 
 2917000   0.79986711  -0.26280217  -0.26280217   0.93699617    1.1742734  -0.26280217    1.1997983   518400 
 2918000   0.79996751  -0.26390489  -0.26390489   0.93604406     1.172749  -0.26390489     1.199949   518400 
 2919000   0.79972829  -0.26466919  -0.26466919   0.93492093    1.1706885  -0.26466919    1.1995901   518400 
 2920000    0.7998352  -0.26402889  -0.26402889   0.93572159    1.1707722  -0.26402889    1.1997505   518400 
 2921000   0.80019977  -0.26311372  -0.26311372   0.93718361    1.1747182  -0.26311372    1.2002973   518400 
 2922000   0.80039345  -0.26209494  -0.26209494   0.93849292    1.1766795  -0.26209494    1.2005879   518400 
 2923000   0.80062409  -0.26319986  -0.26319986   0.93773396    1.1747346  -0.26319986    1.2009338   518400 
 2924000   0.80197528  -0.26324133  -0.26324133   0.93971926    1.1744361  -0.26324133    1.2029606   518400 
 2925000   0.80048835  -0.26336181  -0.26336181    0.9373684    1.1722163  -0.26336181    1.2007302   518400 
 2926000   0.80098273  -0.26341658  -0.26341658   0.93805519    1.1724303  -0.26341658    1.2014718   518400 
 2927000   0.80066899  -0.26402742  -0.26402742   0.93697375    1.1704855  -0.26402742    1.2010012   518400 
 2928000   0.80019064  -0.26356111  -0.26356111   0.93672254     1.173968  -0.26356111    1.2002836   518400 
 2929000   0.79972796  -0.26455915  -0.26455915   0.93503048     1.170749  -0.26455915    1.1995896   518400 
 2930000   0.79920825  -0.26362453  -0.26362453   0.93518553    1.1726874  -0.26362453    1.1988101   518400 
 2931000   0.79953041  -0.26275985  -0.26275985   0.93653345    1.1765752  -0.26275985    1.1992933   518400 
 2932000   0.80129639  -0.26312176  -0.26312176   0.93882051    1.1749686  -0.26312176    1.2019423   518400 
 2933000   0.80055504  -0.26357695  -0.26357695   0.93725329    1.1741208  -0.26357695    1.2008302   518400 
 2934000   0.80105919  -0.26233397  -0.26233397   0.93925249    1.1770861  -0.26233397    1.2015865   518400 
 2935000    0.8013383  -0.26311982  -0.26311982   0.93888531     1.174249  -0.26311982    1.2020051   518400 
 2936000   0.80030231  -0.26277761  -0.26277761   0.93767354    1.1775582  -0.26277761    1.2004511   518400 
 2937000   0.80068023  -0.26245747  -0.26245747   0.93856057    1.1777968  -0.26245747     1.201018   518400 
 2938000   0.80069106  -0.26276031  -0.26276031   0.93827396    1.1761058  -0.26276031    1.2010343   518400 
 2939000   0.80117903  -0.26340414  -0.26340414   0.93836209    1.1731265  -0.26340414    1.2017662   518400 
 2940000   0.79995375  -0.26398939  -0.26398939   0.93593893    1.1719348  -0.26398939    1.1999283   518400 
 2941000   0.79864672  -0.26440391  -0.26440391   0.93356386      1.16998  -0.26440391    1.1979678   518400 
 2942000   0.79980404  -0.26268774  -0.26268774   0.93701601    1.1744409  -0.26268774    1.1997038   518400 
 2943000   0.80026105  -0.26327486  -0.26327486   0.93711441     1.175771  -0.26327486    1.2003893   518400 
 2944000   0.79861195  -0.26417668  -0.26417668   0.93373893    1.1692178  -0.26417668    1.1979156   518400 
 2945000   0.79953255  -0.26315465  -0.26315465   0.93614186    1.1749966  -0.26315465    1.1992965   518400 
 2946000   0.79919286  -0.26226494  -0.26226494   0.93652204    1.1765997  -0.26226494     1.198787   518400 
 2947000   0.79988661  -0.26401319  -0.26401319   0.93581441    1.1716606  -0.26401319    1.1998276   518400 
 2948000    0.7990877   -0.2637771   -0.2637771   0.93485213    1.1722008   -0.2637771    1.1986292   518400 
 2949000   0.79959481  -0.26451078  -0.26451078   0.93487913    1.1696373  -0.26451078    1.1993899   518400 
 2950000   0.79895639  -0.26352524  -0.26352524   0.93490703    1.1730204  -0.26352524    1.1984323   518400 
 2951000    0.8002707  -0.26428259  -0.26428259   0.93612115    1.1711811  -0.26428259    1.2004037   518400 
 2952000   0.80020758   -0.2637352   -0.2637352   0.93657386    1.1719173   -0.2637352    1.2003091   518400 
 2953000    0.8003425  -0.26268593  -0.26268593   0.93782551    1.1762022  -0.26268593    1.2005114   518400 
 2954000   0.80066803  -0.26253996  -0.26253996   0.93845977     1.175751  -0.26253996    1.2009997   518400 
 2955000   0.80009696  -0.26428472  -0.26428472    0.9358584    1.1697512  -0.26428472    1.2001431   518400 
 2956000   0.80050651  -0.26426836  -0.26426836   0.93648909    1.1711866  -0.26426836    1.2007574   518400 
 2957000   0.79991097  -0.26294082  -0.26294082   0.93692332    1.1751736  -0.26294082    1.1998641   518400 
 2958000    0.8000277  -0.26297276  -0.26297276   0.93706648    1.1747571  -0.26297276    1.2000392   518400 
 2959000   0.80156979  -0.26349376  -0.26349376    0.9388586    1.1733083  -0.26349376    1.2023524   518400 
 2960000   0.80130754  -0.26392332  -0.26392332   0.93803567    1.1718228  -0.26392332     1.201959   518400 
 2961000   0.80126204  -0.26179306  -0.26179306   0.94009767    1.1778674  -0.26179306    1.2018907   518400 
 2962000   0.80010953  -0.26380893  -0.26380893   0.93635304    1.1717485  -0.26380893     1.200162   518400 
 2963000   0.80066838  -0.26279004  -0.26279004   0.93821021    1.1755721  -0.26279004    1.2010002   518400 
 2964000   0.80055697  -0.26206836  -0.26206836   0.93876478    1.1775823  -0.26206836    1.2008331   518400 
 2965000   0.79949841   -0.2637416   -0.2637416    0.9355037    1.1723929   -0.2637416    1.1992453   518400 
 2966000   0.79954235  -0.26467223  -0.26467223   0.93463899    1.1686534  -0.26467223    1.1993112   518400 
 2967000   0.79823675  -0.26289142  -0.26289142   0.93446139    1.1738188  -0.26289142    1.1973528   518400 
 2968000   0.79975494  -0.26324545  -0.26324545   0.93638464    1.1757701  -0.26324545    1.1996301   518400 
 2969000    0.8003924  -0.26409086  -0.26409086   0.93649542    1.1704542  -0.26409086    1.2005863   518400 
 2970000   0.79956481  -0.26280448  -0.26280448   0.93654042    1.1750247  -0.26280448    1.1993449   518400 
 2971000    0.7987069  -0.26270039  -0.26270039   0.93535765    1.1761458  -0.26270039     1.198058   518400 
 2972000   0.79937052  -0.26250962  -0.26250962   0.93654385    1.1743446  -0.26250962    1.1990535   518400 
 2973000   0.79998242  -0.26325486  -0.26325486   0.93671646     1.176265  -0.26325486    1.1999713   518400 
 2974000   0.79953882  -0.26255137  -0.26255137   0.93675454    1.1765625  -0.26255137    1.1993059   518400 
 2975000   0.80216925  -0.26324626  -0.26324626    0.9400053    1.1741694  -0.26324626    1.2032516   518400 
 2976000    0.7995796  -0.26197962  -0.26197962   0.93738747    1.1775721  -0.26197962    1.1993671   518400 
 2977000   0.80100223  -0.26202055  -0.26202055   0.93948047     1.179262  -0.26202055     1.201501   518400 
 2978000   0.80068116  -0.26336188  -0.26336188   0.93765754    1.1745114  -0.26336188    1.2010194   518400 
 2979000   0.79926587  -0.26227195  -0.26227195   0.93662455    1.1777526  -0.26227195    1.1988965   518400 
 2980000   0.79900692  -0.26405786  -0.26405786   0.93445021    1.1692475  -0.26405786    1.1985081   518400 
 2981000   0.79942696  -0.26303694  -0.26303694   0.93610119    1.1737052  -0.26303694    1.1991381   518400 
 2982000    0.7994341  -0.26259023  -0.26259023   0.93655861    1.1763799  -0.26259023    1.1991488   518400 
 2983000   0.80154965  -0.26372072  -0.26372072   0.93860144    1.1722096  -0.26372072    1.2023222   518400 
 2984000   0.80016151  -0.26317366  -0.26317366   0.93706629      1.17649  -0.26317366    1.2002399   518400 
 2985000   0.80146927  -0.26294199  -0.26294199    0.9392596     1.175478  -0.26294199    1.2022016   518400 
 2986000   0.80025814  -0.26493996  -0.26493996   0.93544493    1.1702226  -0.26493996    1.2003849   518400 
 2987000   0.79888381  -0.26313241  -0.26313241     0.935191    1.1773078  -0.26313241    1.1983234   518400 
 2988000   0.80022096  -0.26275584  -0.26275584   0.93757329    1.1756515  -0.26275584    1.2003291   518400 
 2989000   0.80078283  -0.26313405  -0.26313405   0.93803788    1.1735714  -0.26313405    1.2011719   518400 
 2990000   0.80109631  -0.26259806  -0.26259806   0.93904409    1.1767134  -0.26259806    1.2016421   518400 
 2991000   0.80088815  -0.26337608  -0.26337608   0.93795383    1.1748916  -0.26337608    1.2013299   518400 
 2992000   0.80081046  -0.26314226  -0.26314226   0.93807112    1.1737031  -0.26314226    1.2012134   518400 
 2993000   0.79983823  -0.26213722  -0.26213722   0.93761781    1.1776793  -0.26213722     1.199755   518400 
 2994000    0.8004298  -0.26338605  -0.26338605   0.93725633    1.1744938  -0.26338605    1.2006424   518400 
 2995000   0.80000432  -0.26406457  -0.26406457   0.93593958    1.1712934  -0.26406457    1.2000042   518400 
 2996000   0.80000067  -0.26351155  -0.26351155   0.93648714    1.1728421  -0.26351155    1.1999987   518400 
 2997000   0.79952801   -0.2623361   -0.2623361    0.9369536    1.1765674   -0.2623361    1.1992897   518400 
 2998000   0.79982421   -0.2629683   -0.2629683    0.9367657    1.1751359   -0.2629683     1.199734   518400 
 2999000   0.79956355  -0.26306266  -0.26306266   0.93628035    1.1743463  -0.26306266     1.199343   518400 
 3000000   0.80053841  -0.26316535  -0.26316535   0.93763994    1.1747101  -0.26316535    1.2008053   518400 
Loop time of 8132.51 on 48 procs for 3000000 steps with 518400 atoms

Performance: 159360.377 tau/day, 368.890 timesteps/s
96.1% CPU use with 48 MPI tasks x 1 OpenMP threads

MPI task timing breakdown:
Section |  min time  |  avg time  |  max time  |%varavg|  %CPU | %total
-----------------------------------------------------------------------
Pair    | 3042.2     | 3367.5     | 3527.1     | 233.7 |  97.1 | 41.41
Bond    | 2.0367     | 2.2534     | 2.4578     |   7.3 | 100.0 |  0.03
Neigh   | 2114.9     | 2330.5     | 2437.1     | 194.3 |  99.5 | 28.66
Comm    | 987.99     | 1418.9     | 1908.3     | 659.2 |  92.5 | 17.45
Output  | 77.968     | 78.589     | 78.608     |   1.0 |  71.7 |  0.97
Modify  | 698.91     | 798.37     | 920.26     | 246.2 |  91.7 |  9.82
Other   |            | 136.5      |            |       |       |  1.68

Nlocal:        10800.0 ave       10914 max       10685 min
Histogram: 1 1 7 9 6 10 4 5 4 1
Nghost:        4968.06 ave        5379 max        3889 min
Histogram: 7 5 0 0 0 0 0 0 9 27
Neighs:        72434.4 ave       75645 max       66145 min
Histogram: 4 2 0 0 5 4 8 7 9 9

Total # of neighbors = 3476850
Ave neighs/atom = 6.7068866
Ave special neighs/atom = 0.0000000
Neighbor list builds = 299961
Dangerous builds = 296577
write_restart   restart_write.dat
System init for write_restart ...
write_data	data.write
System init for write_data ...

Total wall time: 2:15:34
