LAMMPS (24 Dec 2020)
OMP_NUM_THREADS environment is not set. Defaulting to 1 thread. (src/comm.cpp:94)
  using 1 OpenMP thread(s) per MPI task
#Read the equilibrated lj fluid and add nanocubes

units           lj
atom_style      full
atom_modify     map array first cubes
dimension       3
boundary        p p f
pair_style      lj/cut/opt 2.5

variable        sigma           equal 1.0
variable        epsilon         equal 1.0
read_restart	restart.dat.3000000
Reading restart file ...
  restart file = 24 Dec 2020, LAMMPS = 24 Dec 2020
WARNING: Restart file used different # of processors: 48 vs. 288 (src/read_restart.cpp:697)
  restoring atom style full from restart
  orthogonal box = (0.0000000 0.0000000 0.0000000) to (80.000000 80.000000 160.00000)
  6 by 4 by 12 MPI processor grid
  restoring pair style lj/cut/opt from restart
  518400 atoms
Finding 1-2 1-3 1-4 neighbors ...
  special bond factors lj:    0        0        0       
  special bond factors coul:  0        0        0       
     0 = max # of 1-2 neighbors
     0 = max # of 1-3 neighbors
     0 = max # of 1-4 neighbors
     1 = max # of special neighbors
  special bonds CPU = 2.353 seconds
  read_restart CPU = 2.662 seconds

group		solvent type 1
518400 atoms in group solvent

read_data	data_96.cubes group cubes add append
Reading data file ...
  orthogonal box = (0.0000000 0.0000000 0.0000000) to (80.000000 80.000000 160.00000)
  6 by 4 by 12 MPI processor grid
  reading atoms ...
  127776 atoms
  reading velocities ...
  127776 velocities
Finding 1-2 1-3 1-4 neighbors ...
  special bond factors lj:    0        0        0       
  special bond factors coul:  0        0        0       
     0 = max # of 1-2 neighbors
     0 = max # of 1-3 neighbors
     0 = max # of 1-4 neighbors
     1 = max # of special neighbors
  special bonds CPU = 0.050 seconds
  read_data CPU = 0.350 seconds

group 		hull  type 2
57792 atoms in group hull
group 		dummy type 3
69984 atoms in group dummy

neighbor      0.4 bin
neigh_modify  exclude molecule/intra cubes


pair_modify   shift yes

pair_coeff    1 1 1.0 1.0 #solvent
pair_coeff    2 2 1.0 1.0 1.12 #np
pair_coeff    3 3 0.0 0.0 0.0 #dummy
pair_coeff    2 3 0.0 0.0 0.0 #np dummy
pair_coeff    1 2 ${sol} 1.0 #np solvent
pair_coeff    1 2 1.0 1.0 
pair_coeff    1 3 0.0 0.0 2.5 #dummy solvent

# delete solvent where the cubes are
delete_atoms  overlap 1.0 solvent cubes
System init for delete_atoms ...
Neighbor list info ...
  update every 1 steps, delay 10 steps, check yes
  max neighbors/atom: 2000, page size: 100000
  master list distance cutoff = 2.9
  ghost atom cutoff = 2.9
  binsize = 1.45, bins = 56 56 111
  2 neighbor lists, perpetual/occasional/extra = 1 1 0
  (1) command delete_atoms, occasional
      attributes: full, newton on
      pair build: full/bin
      stencil: full/bin/3d
      bin: standard
  (2) pair lj/cut/opt, perpetual
      attributes: half, newton on
      pair build: half/bin/newton
      stencil: half/bin/3d/newton
      bin: standard
WARNING: Delete_atoms cutoff > minimum neighbor cutoff (src/delete_atoms.cpp:307)
WARNING: Ignoring 'compress yes' for molecular system (src/delete_atoms.cpp:125)
Deleted 82820 atoms, new total = 563356



pair_coeff    1 1 1.0 1.0 #solvent
pair_coeff    2 2 1.0 1.0 1.12 #np
pair_coeff    3 3 0.0 0.0 0.0 #dummy
pair_coeff    2 3 0.0 0.0 0.0 #np dummy
pair_coeff    1 2 ${sol} 1.0 #np solvent
pair_coeff    1 2 1.0 1.0 
pair_coeff    1 3 0.0 0.0 0.0 #dummy solvent


comm_modify   mode multi cutoff/multi 1 2.5 cutoff/multi 2 2.5 cutoff/multi 3 8.67

reset_timestep 	0

balance 	1.05 shift z 10 1.05
Balancing ...
Neighbor list info ...
  update every 1 steps, delay 10 steps, check yes
  max neighbors/atom: 2000, page size: 100000
  master list distance cutoff = 2.9
  ghost atom cutoff = 8.67
  binsize = 1.45, bins = 56 56 111
  1 neighbor lists, perpetual/occasional/extra = 1 0 0
  (1) pair lj/cut/opt, perpetual
      attributes: half, newton on
      pair build: half/bin/newton
      stencil: half/bin/3d/newton
      bin: standard
 rebalancing time: 0.004 seconds
  iteration count = 4
  initial/final maximal load/proc = 2573.0000 2836.0000
  initial/final imbalance factor  = 1.3153743 1.4498257
  x cuts: 0.0000000 0.16666667 0.33333333 0.50000000 0.66666667 0.83333333 1.0000000
  y cuts: 0.0000000 0.25000000 0.50000000 0.75000000 1.0000000
  z cuts: 0.0000000 0.078125000 0.15104167 0.24479167 0.33854167 0.41145833 0.48437500 0.55729167 0.61979167 0.70312500 0.77604167 0.85937500 1.0000000

####################### WALLS ###########################

variable       epsilonWall equal 2*${epsilon}
variable       epsilonWall equal 2*1
variable       repulsive   equal   0.7147*${sigma}
variable       repulsive   equal   0.7147*1
variable       full	   equal   3*${sigma}
variable       full	   equal   3*1
region         lowWall block EDGE EDGE EDGE EDGE EDGE 2

fix            topWall all wall/lj93 zhi EDGE 	       ${epsilonWall} ${sigma} ${repulsive} units box
fix            topWall all wall/lj93 zhi EDGE 	       2 ${sigma} ${repulsive} units box
fix            topWall all wall/lj93 zhi EDGE 	       2 1 ${repulsive} units box
fix            topWall all wall/lj93 zhi EDGE 	       2 1 0.7147 units box
fix            lowSol solvent wall/lj93 zlo EDGE                ${epsilonWall} ${sigma} ${full} units box
fix            lowSol solvent wall/lj93 zlo EDGE                2 ${sigma} ${full} units box
fix            lowSol solvent wall/lj93 zlo EDGE                2 1 ${full} units box
fix            lowSol solvent wall/lj93 zlo EDGE                2 1 3 units box
fix 	       lowCub cubes wall/lj93 zlo EDGE                ${epsilonWall} ${sigma} ${repulsive} units box
fix 	       lowCub cubes wall/lj93 zlo EDGE                2 ${sigma} ${repulsive} units box
fix 	       lowCub cubes wall/lj93 zlo EDGE                2 1 ${repulsive} units box
fix 	       lowCub cubes wall/lj93 zlo EDGE                2 1 0.7147 units box


###################### COMPUTES ##########################

compute        bin1 solvent chunk/atom bin/1d z lower 1.0 units box


######################  FIXES ############################


fix             peclet solvent ave/chunk 10 10 10000 bin1 density/number norm                  none ave one file density.profile

fix              temp solvent ave/chunk 10 10 10000 bin1 temp norm                  none ave one file temp.profile

fix             1 cubes rigid/nve/small molecule
  create bodies CPU = 0.004 seconds
  96 rigid bodies with 127776 atoms
  8.6602540 = max distance from body owner to body atom

fix             2 solvent nve# temp ${temp} ${temp} 10


## Thermostat
region          regthermo block EDGE EDGE EDGE EDGE 0 15
group           thermo dynamic solvent region regthermo every 1000
dynamic group thermo defined
fix             3 thermo langevin ${temp} ${temp} 10 156453
fix             3 thermo langevin 1.0 ${temp} 10 156453
fix             3 thermo langevin 1.0 1.0 10 156453


#### Load balancing

fix             bal all balance 1000 1.05 shift z 10 1.05

############### Diagnostics and computes ###################

compute        	com cubes          rigid/local   1 mol x y z
compute        	quat cubes         rigid/local   1 mol quatw quati quatj quatk

compute 	cc2 cubes 	   chunk/atom 	 molecule
compute 	msd cubes 	   msd/chunk 	 cc2

fix 		msd all ave/time  1 1 10000 c_msd[*] file dump.msd ave one mode vector

dump            1 all custom 500000 dump.lammpstrj id mol type x y z
dump		cubetrj hull custom 500000 cubes.lammpstrj id mol type x y z
dump            com cubes local 10000 dump.*.xyz c_com[*]
dump	        xyz hull xyz 100000 cubes.xyz
dump            quat cubes      local 10000 dump.*.quat c_quat[*]
#dump		mol cubes molfile 10000 mol.xyz xyz


dump            2 all image 10000 image.*.png type type zoom 2.0
dump_modify     2 pad 8
dump		image cubes image 10000 image_cubes.*.png type type zoom 2.0
dump_modify	image pad 8
dump            3 all movie 5000 movie.avi type type zoom 2.0
dump		4 cubes movie 5000 movie_cubes.avi type type zoom 2.0


thermo          1000
thermo_style    custom step temp epair evdwl etotal press pe ke atoms

restart         1000000 restart.dat
timestep        0.005
timer           full
New timer settings: style=full  mode=nosync  timeout=off

run 		4000000
Per MPI rank memory allocation (min/avg/max) = 14.88 | 19.73 | 23.53 Mbytes
Step Temp E_pair E_vdwl TotEng Press PotEng KinEng Atoms 
       0   0.98832473    -2.627768    -2.627768   -1.4810244  -0.14633353    -2.627768    1.1467436   563356 
    1000    1.0158563   -2.6623079   -2.6623079   -1.4836197  0.051209475   -2.6623079    1.1786882   563356 
    2000    1.0203895    -2.670559    -2.670559   -1.4866109  0.063664166    -2.670559    1.1839481   563356 
    3000    1.0212372   -2.6738252   -2.6738252   -1.4888936  0.060232031   -2.6738252    1.1849316   563356 
    4000    1.0232987   -2.6785715   -2.6785715    -1.491248  0.064604751   -2.6785715    1.1873235   563356 
    5000    1.0217966   -2.6795115   -2.6795115   -1.4939309  0.060229899   -2.6795115    1.1855806   563356 
    6000    1.0208249   -2.6801718   -2.6801718   -1.4957186  0.063546128   -2.6801718    1.1844532   563356 
    7000    1.0203887   -2.6821518   -2.6821518   -1.4982047  0.074021983   -2.6821518    1.1839471   563356 
    8000    1.0203861   -2.6835501   -2.6835501    -1.499606  0.069126917   -2.6835501    1.1839441   563356 
    9000    1.0194899   -2.6846128   -2.6846128   -1.5017085  0.060880617   -2.6846128    1.1829043   563356 
   10000    1.0171651   -2.6831982   -2.6831982   -1.5029913  0.060551348   -2.6831982    1.1802068   563356 
   11000    1.0171041   -2.6853057   -2.6853057   -1.5051696  0.061198683   -2.6853057     1.180136   563356 
   12000    1.0161825   -2.6858464   -2.6858464   -1.5067797  0.057971604   -2.6858464    1.1790667   563356 
   13000    1.0153836   -2.6863995   -2.6863995   -1.5082597  0.071132775   -2.6863995    1.1781398   563356 
   14000    1.0155776     -2.68739     -2.68739   -1.5090252  0.051572686     -2.68739    1.1783649   563356 
   15000    1.0148216   -2.6885668   -2.6885668   -1.5110791  0.067104233   -2.6885668    1.1774877   563356 
   16000    1.0161486   -2.6906584   -2.6906584    -1.511631  0.068746362   -2.6906584    1.1790274   563356 
   17000    1.0170467   -2.6917986   -2.6917986   -1.5117291  0.061792687   -2.6917986    1.1800694   563356 
   18000    1.0166198   -2.6926288   -2.6926288   -1.5130548   0.06530521   -2.6926288    1.1795741   563356 
   19000    1.0153768   -2.6919121   -2.6919121   -1.5137802  0.058959841   -2.6919121    1.1781319   563356 
   20000    1.0152379   -2.6930885   -2.6930885   -1.5151178  0.069848379   -2.6930885    1.1779707   563356 
   21000    1.0172614   -2.6966781   -2.6966781   -1.5163596  0.062384709   -2.6966781    1.1803185   563356 
   22000    1.0155714    -2.695768    -2.695768   -1.5174103  0.071674799    -2.695768    1.1783577   563356 
   23000    1.0161236   -2.6963329   -2.6963329   -1.5173346  0.066253918   -2.6963329    1.1789983   563356 
   24000    1.0152059   -2.6950659   -2.6950659   -1.5171324  0.071812196   -2.6950659    1.1779335   563356 
   25000    1.0157245   -2.6966997   -2.6966997   -1.5181644   0.05988754   -2.6966997    1.1785353   563356 
   26000    1.0147179   -2.6951104   -2.6951104    -1.517743  0.067855517   -2.6951104    1.1773673   563356 
   27000    1.0148299    -2.695764    -2.695764   -1.5182668   0.07003772    -2.695764    1.1774972   563356 
   28000    1.0152749   -2.6962751   -2.6962751   -1.5182614  0.060161732   -2.6962751    1.1780137   563356 
   29000    1.0146633   -2.6961954   -2.6961954   -1.5188915  0.058783704   -2.6961954    1.1773039   563356 
   30000    1.0119673   -2.6949834   -2.6949834   -1.5208076  0.056735769   -2.6949834    1.1741758   563356 
   31000    1.0127716   -2.6964677   -2.6964677   -1.5213586  0.061240142   -2.6964677     1.175109   563356 
   32000    1.0116148   -2.6960773   -2.6960773   -1.5223104  0.060966225   -2.6960773    1.1737669   563356 
   33000    1.0134969   -2.6985971   -2.6985971   -1.5226465  0.066258886   -2.6985971    1.1759506   563356 
   34000    1.0114629   -2.6966448   -2.6966448   -1.5230541  0.065110825   -2.6966448    1.1735906   563356 
   35000    1.0128935   -2.6987878   -2.6987878   -1.5235374  0.057628571   -2.6987878    1.1752505   563356 
   36000    1.0127249   -2.6999716   -2.6999716   -1.5249167  0.068769231   -2.6999716    1.1750548   563356 
   37000    1.0134656   -2.7006819   -2.7006819   -1.5247676  0.059476716   -2.7006819    1.1759143   563356 
   38000    1.0135361   -2.7015951   -2.7015951   -1.5255989  0.061047402   -2.7015951    1.1759961   563356 
   39000    1.0131182    -2.701252    -2.701252   -1.5257408   0.06400772    -2.701252    1.1755112   563356 
   40000    1.0125316   -2.7006521   -2.7006521   -1.5258215  0.063347468   -2.7006521    1.1748306   563356 
   41000     1.013608   -2.7021407   -2.7021407   -1.5260612  0.058832188   -2.7021407    1.1760795   563356 
   42000    1.0138439   -2.7027415   -2.7027415   -1.5263883  0.062288799   -2.7027415    1.1763532   563356 
   43000    1.0115138   -2.6994066   -2.6994066    -1.525757  0.065602739   -2.6994066    1.1736496   563356 
   44000     1.013436   -2.7013312   -2.7013312   -1.5254513  0.055828508   -2.7013312    1.1758799   563356 
   45000    1.0116908   -2.7002507   -2.7002507   -1.5263957  0.056446483   -2.7002507     1.173855   563356 
   46000    1.0122219   -2.7021021   -2.7021021   -1.5276309  0.059112678   -2.7021021    1.1744712   563356 
   47000    1.0117655   -2.7027276   -2.7027276   -1.5287859  0.065316283   -2.7027276    1.1739417   563356 
   48000    1.0136512   -2.7056845   -2.7056845   -1.5295548  0.057067574   -2.7056845    1.1761297   563356 
   49000    1.0138874   -2.7056158   -2.7056158   -1.5292121  0.064866531   -2.7056158    1.1764037   563356 
   50000     1.012478   -2.7030711   -2.7030711   -1.5283027  0.071988035   -2.7030711    1.1747684   563356 
   51000    1.0115936   -2.7026669   -2.7026669   -1.5289247  0.068776193   -2.7026669    1.1737423   563356 
   52000    1.0136065   -2.7048433   -2.7048433   -1.5287655  0.050016304   -2.7048433    1.1760778   563356 
   53000    1.0117104   -2.7026931   -2.7026931   -1.5288153  0.065896576   -2.7026931    1.1738778   563356 
   54000    1.0152413   -2.7065028   -2.7065028   -1.5285282  0.070350882   -2.7065028    1.1779746   563356 
   55000    1.0125911   -2.7045594   -2.7045594   -1.5296598  0.058937368   -2.7045594    1.1748996   563356 
   56000    1.0148157     -2.70763     -2.70763   -1.5301492  0.047500677     -2.70763    1.1774808   563356 
   57000    1.0149592   -2.7078255   -2.7078255   -1.5301782  0.068482885   -2.7078255    1.1776473   563356 
   58000    1.0125025   -2.7060382   -2.7060382   -1.5312414  0.069244641   -2.7060382    1.1747968   563356 
   59000    1.0156264   -2.7090001   -2.7090001   -1.5305786  0.058069731   -2.7090001    1.1784215   563356 
   60000    1.0126245   -2.7064839   -2.7064839   -1.5315455  0.058928492   -2.7064839    1.1749384   563356 
   61000    1.0117345   -2.7053852   -2.7053852   -1.5314794  0.058054876   -2.7053852    1.1739058   563356 
   62000    1.0125219   -2.7062198   -2.7062198   -1.5314004  0.057457788   -2.7062198    1.1748194   563356 
   63000    1.0137834   -2.7077759   -2.7077759   -1.5314929   0.05758589   -2.7077759     1.176283   563356 
   64000    1.0128987   -2.7070824   -2.7070824   -1.5318259  0.062914552   -2.7070824    1.1752565   563356 
   65000    1.0120094   -2.7055886   -2.7055886   -1.5313639  0.065878937   -2.7055886    1.1742247   563356 
   66000    1.0101792   -2.7043953   -2.7043953   -1.5322942  0.059486073   -2.7043953    1.1721012   563356 
   67000    1.0136668   -2.7072547   -2.7072547    -1.531107  0.048844577   -2.7072547    1.1761477   563356 
   68000    1.0124076   -2.7064266   -2.7064266   -1.5317399   0.05473185   -2.7064266    1.1746867   563356 
   69000    1.0132469   -2.7082643   -2.7082643   -1.5326037  0.066595024   -2.7082643    1.1756606   563356 
   70000    1.0124141   -2.7079334   -2.7079334   -1.5332392  0.055776028   -2.7079334    1.1746943   563356 
   71000    1.0126829   -2.7080593   -2.7080593   -1.5330531  0.061061415   -2.7080593    1.1750062   563356 
   72000    1.0129719   -2.7082875   -2.7082875    -1.532946  0.062359529   -2.7082875    1.1753415   563356 
   73000    1.0119428   -2.7060034   -2.7060034    -1.531856  0.066595222   -2.7060034    1.1741475   563356 
   74000    1.0147715   -2.7091424   -2.7091424    -1.531713  0.067057574   -2.7091424    1.1774295   563356 
   75000    1.0121931   -2.7062555   -2.7062555   -1.5318176  0.068696089   -2.7062555    1.1744379   563356 
   76000    1.0142355   -2.7078788   -2.7078788   -1.5310712  0.062381852   -2.7078788    1.1768076   563356 
   77000    1.0116124   -2.7058739   -2.7058739   -1.5321099  0.064783799   -2.7058739    1.1737641   563356 
   78000    1.0113224   -2.7053674   -2.7053674   -1.5319398   0.05984631   -2.7053674    1.1734275   563356 
   79000    1.0130624     -2.70763     -2.70763   -1.5321835  0.065367821     -2.70763    1.1754465   563356 
   80000    1.0127286   -2.7061968   -2.7061968   -1.5311376  0.069480522   -2.7061968    1.1750591   563356 
   81000     1.012761   -2.7062788   -2.7062788    -1.531182   0.06446598   -2.7062788    1.1750968   563356 
   82000    1.0134776   -2.7069533   -2.7069533   -1.5310251  0.065060513   -2.7069533    1.1759282   563356 
   83000    1.0142583   -2.7082232   -2.7082232   -1.5313891  0.064435086   -2.7082232    1.1768341   563356 
   84000    1.0152497   -2.7106305   -2.7106305   -1.5326461  0.067664493   -2.7106305    1.1779844   563356 
   85000    1.0143083   -2.7088306   -2.7088306   -1.5319385    0.0625554   -2.7088306    1.1768921   563356 
   86000    1.0128967   -2.7075798   -2.7075798   -1.5323256  0.069195666   -2.7075798    1.1752542   563356 
   87000    1.0135403   -2.7082507   -2.7082507   -1.5322497  0.067739511   -2.7082507     1.176001   563356 
   88000     1.012089   -2.7065529   -2.7065529   -1.5322359  0.058634665   -2.7065529     1.174317   563356 
   89000    1.0144237   -2.7086098   -2.7086098   -1.5315839  0.053640517   -2.7086098    1.1770259   563356 
   90000    1.0132234    -2.707452    -2.707452   -1.5318188  0.068897897    -2.707452    1.1756333   563356 
   91000    1.0130966   -2.7080012   -2.7080012   -1.5325151  0.061210726   -2.7080012    1.1754862   563356 
   92000    1.0122091   -2.7070891   -2.7070891   -1.5326328  0.069148486   -2.7070891    1.1744563   563356 
   93000    1.0122491   -2.7083124   -2.7083124   -1.5338096  0.049063861   -2.7083124    1.1745028   563356 
   94000    1.0102363    -2.705708    -2.705708   -1.5335406  0.054631257    -2.705708    1.1721674   563356 
   95000    1.0115379   -2.7078848   -2.7078848   -1.5342072  0.064226845   -2.7078848    1.1736776   563356 
   96000    1.0122018    -2.709314    -2.709314    -1.534866  0.065410902    -2.709314     1.174448   563356 
   97000    1.0115277   -2.7092578   -2.7092578    -1.535592  0.066932941   -2.7092578    1.1736658   563356 
   98000    1.0119447   -2.7098171   -2.7098171   -1.5356675  0.069126732   -2.7098171    1.1741496   563356 
   99000    1.0117758   -2.7097949   -2.7097949   -1.5358413  0.059632034   -2.7097949    1.1739537   563356 
  100000    1.0124518   -2.7102401   -2.7102401   -1.5355021  0.064811278   -2.7102401     1.174738   563356 
  101000    1.0106031   -2.7081224   -2.7081224   -1.5355295  0.066497096   -2.7081224    1.1725929   563356 
  102000     1.011381   -2.7100468   -2.7100468   -1.5365512  0.055601145   -2.7100468    1.1734956   563356 
  103000     1.011579   -2.7101041   -2.7101041   -1.5363788  0.065537991   -2.7101041    1.1737252   563356 
  104000    1.0106094   -2.7081389   -2.7081389   -1.5355387  0.061215613   -2.7081389    1.1726002   563356 
  105000    1.0101048   -2.7077018   -2.7077018   -1.5356869  0.060900512   -2.7077018    1.1720148   563356 
  106000    1.0113785   -2.7101023   -2.7101023   -1.5366096   0.06883761   -2.7101023    1.1734927   563356 
  107000    1.0113443   -2.7105725   -2.7105725   -1.5371196  0.060549801   -2.7105725     1.173453   563356 
  108000    1.0101838   -2.7098558   -2.7098558   -1.5377493  0.050410253   -2.7098558    1.1721065   563356 
  109000    1.0106357   -2.7095716   -2.7095716   -1.5369409  0.063127559   -2.7095716    1.1726308   563356 
  110000    1.0109878   -2.7104954   -2.7104954   -1.5374562  0.054249133   -2.7104954    1.1730393   563356 
  111000    1.0112863   -2.7124182   -2.7124182   -1.5390325  0.058657149   -2.7124182    1.1733857   563356 
  112000     1.011632   -2.7136499   -2.7136499   -1.5398631  0.061448255   -2.7136499    1.1737868   563356 
  113000    1.0127236   -2.7148202   -2.7148202   -1.5397669  0.065020933   -2.7148202    1.1750534   563356 
  114000    1.0126167   -2.7145723   -2.7145723   -1.5396429  0.060911696   -2.7145723    1.1749293   563356 
  115000    1.0123749   -2.7155604   -2.7155604   -1.5409117    0.0695888   -2.7155604    1.1746487   563356 
  116000    1.0110237   -2.7131682   -2.7131682   -1.5400871  0.065139772   -2.7131682     1.173081   563356 
  117000    1.0117894   -2.7148887   -2.7148887   -1.5409193  0.055389688   -2.7148887    1.1739695   563356 
  118000    1.0128811   -2.7162746   -2.7162746   -1.5410384  0.067137263   -2.7162746    1.1752361   563356 
  119000    1.0130398   -2.7165986   -2.7165986   -1.5411783  0.059180472   -2.7165986    1.1754203   563356 
  120000    1.0109827   -2.7144491   -2.7144491   -1.5414156  0.059154515   -2.7144491    1.1730334   563356 
  121000    1.0091904   -2.7123798   -2.7123798    -1.541426  0.065713611   -2.7123798    1.1709539   563356 
  122000    1.0104748   -2.7135538   -2.7135538   -1.5411097  0.064227061   -2.7135538    1.1724441   563356 
  123000    1.0106666   -2.7133311   -2.7133311   -1.5406644  0.065322254   -2.7133311    1.1726667   563356 
  124000    1.0093798   -2.7123584   -2.7123584   -1.5411848  0.066957268   -2.7123584    1.1711736   563356 
  125000    1.0113279   -2.7141304   -2.7141304   -1.5406965  0.055710643   -2.7141304    1.1734339   563356 
  126000    1.0123624   -2.7160018   -2.7160018   -1.5413676  0.053801925   -2.7160018    1.1746343   563356 
  127000    1.0121887   -2.7157341   -2.7157341   -1.5413013  0.061299508   -2.7157341    1.1744327   563356 
  128000    1.0129059   -2.7166327   -2.7166327   -1.5413679  0.065837983   -2.7166327    1.1752649   563356 
  129000    1.0113111   -2.7145298   -2.7145298   -1.5411153  0.060411796   -2.7145298    1.1734145   563356 
  130000     1.011775   -2.7156216   -2.7156216   -1.5416689  0.061154269   -2.7156216    1.1739527   563356 
  131000    1.0111496   -2.7158821   -2.7158821    -1.542655  0.068196929   -2.7158821    1.1732271   563356 
  132000    1.0097255   -2.7142921   -2.7142921   -1.5427174  0.062638852   -2.7142921    1.1715747   563356 
  133000    1.0110448   -2.7162294   -2.7162294   -1.5431239  0.075710028   -2.7162294    1.1731055   563356 
  134000    1.0111217   -2.7165195   -2.7165195   -1.5433248  0.066024643   -2.7165195    1.1731947   563356 
  135000    1.0125843   -2.7180115   -2.7180115   -1.5431197  0.059085779   -2.7180115    1.1748918   563356 
  136000    1.0124616   -2.7189293   -2.7189293   -1.5441799  0.054388155   -2.7189293    1.1747494   563356 
  137000    1.0111011   -2.7181105   -2.7181105   -1.5449397  0.062385315   -2.7181105    1.1731708   563356 
  138000    1.0106639   -2.7180965   -2.7180965    -1.545433  0.057068013   -2.7180965    1.1726635   563356 
  139000    1.0112469   -2.7182108   -2.7182108   -1.5448709  0.065578189   -2.7182108      1.17334   563356 
  140000    1.0082081   -2.7151875   -2.7151875   -1.5453734  0.069909253   -2.7151875    1.1698141   563356 
  141000    1.0104398   -2.7181606   -2.7181606   -1.5457571  0.069966222   -2.7181606    1.1724035   563356 
  142000    1.0112386   -2.7186134   -2.7186134    -1.545283  0.061919197   -2.7186134    1.1733304   563356 
  143000    1.0107855   -2.7180946   -2.7180946   -1.5452899  0.069376319   -2.7180946    1.1728047   563356 
  144000    1.0118403   -2.7201315   -2.7201315    -1.546103   0.05979609   -2.7201315    1.1740285   563356 
  145000    1.0103545   -2.7179985   -2.7179985   -1.5456939  0.070830096   -2.7179985    1.1723046   563356 
  146000     1.012488   -2.7196066   -2.7196066   -1.5448266  0.057026076   -2.7196066      1.17478   563356 
  147000    1.0107014   -2.7185132   -2.7185132   -1.5458062   0.06004276   -2.7185132     1.172707   563356 
  148000    1.0088392   -2.7165249   -2.7165249   -1.5459785  0.063568834   -2.7165249    1.1705464   563356 
  149000    1.0103069   -2.7171894   -2.7171894   -1.5449402  0.058955407   -2.7171894    1.1722493   563356 
  150000    1.0097642   -2.7167185   -2.7167185   -1.5450989  0.067984962   -2.7167185    1.1716196   563356 
  151000    1.0108147    -2.717745    -2.717745   -1.5449065  0.057090895    -2.717745    1.1728384   563356 
  152000    1.0091466   -2.7165678   -2.7165678   -1.5456648  0.064316834   -2.7165678     1.170903   563356 
  153000    1.0114488   -2.7198618   -2.7198618   -1.5462876  0.050405363   -2.7198618    1.1735742   563356 
  154000    1.0112161   -2.7204598   -2.7204598   -1.5471556  0.060269241   -2.7204598    1.1733042   563356 
  155000    1.0089178   -2.7178465   -2.7178465    -1.547209  0.054067082   -2.7178465    1.1706376   563356 
  156000     1.011457   -2.7217738   -2.7217738     -1.54819  0.063041491   -2.7217738    1.1735837   563356 
  157000    1.0110246   -2.7214808   -2.7214808   -1.5483987   0.06486433   -2.7214808     1.173082   563356 
  158000    1.0104562   -2.7198052   -2.7198052   -1.5473827  0.075170458   -2.7198052    1.1724226   563356 
  159000    1.0114084   -2.7211767   -2.7211767   -1.5476493   0.07265234   -2.7211767    1.1735273   563356 
  160000    1.0095395   -2.7186042   -2.7186042   -1.5472453  0.057890788   -2.7186042    1.1713589   563356 
  161000    1.0117587   -2.7217579   -2.7217579   -1.5478242  0.052350215   -2.7217579    1.1739338   563356 
  162000    1.0093695   -2.7205716   -2.7205716   -1.5494099  0.061752994   -2.7205716    1.1711617   563356 
  163000    1.0092343   -2.7196741   -2.7196741   -1.5486693  0.068705537   -2.7196741    1.1710047   563356 
  164000    1.0091651   -2.7196079   -2.7196079   -1.5486833  0.064571077   -2.7196079    1.1709245   563356 
  165000    1.0085464   -2.7194424   -2.7194424   -1.5492358  0.044608388   -2.7194424    1.1702067   563356 
  166000    1.0086897   -2.7188323   -2.7188323   -1.5484594  0.060074771   -2.7188323    1.1703729   563356 
  167000    1.0085105    -2.718081    -2.718081   -1.5479161  0.062613353    -2.718081     1.170165   563356 
  168000    1.0084373    -2.718437    -2.718437   -1.5483571  0.061077188    -2.718437      1.17008   563356 
  169000    1.0093893   -2.7196192   -2.7196192   -1.5484347  0.056189688   -2.7196192    1.1711846   563356 
  170000    1.0091587   -2.7188716   -2.7188716   -1.5479546  0.062738363   -2.7188716     1.170917   563356 
  171000    1.0087583   -2.7184446   -2.7184446   -1.5479921  0.060904915   -2.7184446    1.1704524   563356 
  172000    1.0103789   -2.7194994   -2.7194994   -1.5471665  0.061747536   -2.7194994    1.1723329   563356 
  173000    1.0120895   -2.7210866   -2.7210866    -1.546769  0.061960195   -2.7210866    1.1743176   563356 
  174000      1.01047   -2.7196875   -2.7196875   -1.5472489   0.06566613   -2.7196875    1.1724385   563356 
  175000    1.0110741   -2.7211629   -2.7211629   -1.5480234  0.056753245   -2.7211629    1.1731395   563356 
  176000    1.0109804   -2.7210488   -2.7210488    -1.548018  0.070668929   -2.7210488    1.1730308   563356 
  177000    1.0118086   -2.7230691   -2.7230691   -1.5490774  0.060632281   -2.7230691    1.1739917   563356 
  178000    1.0115973   -2.7231563   -2.7231563   -1.5494098  0.067476345   -2.7231563    1.1737466   563356 
  179000    1.0122605   -2.7236165   -2.7236165   -1.5491005  0.060643075   -2.7236165     1.174516   563356 
  180000    1.0108476    -2.723585    -2.723585   -1.5507083  0.069903584    -2.723585    1.1728767   563356 
  181000    1.0096416   -2.7227101   -2.7227101   -1.5512328  0.069653669   -2.7227101    1.1714773   563356 
  182000    1.0095387    -2.721834    -2.721834    -1.550476  0.066676934    -2.721834     1.171358   563356 
  183000    1.0101428    -2.723512    -2.723512   -1.5514531  0.067989265    -2.723512    1.1720589   563356 
  184000    1.0081207   -2.7199947   -2.7199947   -1.5502821  0.053893977   -2.7199947    1.1697126   563356 
  185000     1.009647   -2.7205606   -2.7205606   -1.5490771  0.071470177   -2.7205606    1.1714836   563356 
  186000    1.0103799   -2.7226147   -2.7226147   -1.5502808   0.05639973   -2.7226147    1.1723339   563356 
  187000    1.0116716   -2.7244774   -2.7244774   -1.5506447  0.060336161   -2.7244774    1.1738327   563356 
  188000    1.0090912   -2.7220713   -2.7220713   -1.5512325  0.063582063   -2.7220713    1.1708388   563356 
  189000    1.0101286   -2.7235063   -2.7235063   -1.5514639  0.058706107   -2.7235063    1.1720424   563356 
  190000    1.0109623   -2.7241231   -2.7241231   -1.5511133  0.063241026   -2.7241231    1.1730098   563356 
  191000    1.0103773   -2.7234725   -2.7234725   -1.5511415   0.06960977   -2.7234725     1.172331   563356 
  192000    1.0106036   -2.7231954   -2.7231954   -1.5506018  0.067373443   -2.7231954    1.1725936   563356 
  193000    1.0087768   -2.7219026   -2.7219026   -1.5514287  0.068293032   -2.7219026    1.1704739   563356 
  194000    1.0105949   -2.7233606   -2.7233606   -1.5507771  0.064647569   -2.7233606    1.1725835   563356 
  195000    1.0099378   -2.7233161   -2.7233161   -1.5514951   0.07135277   -2.7233161     1.171821   563356 
  196000    1.0121003   -2.7249875   -2.7249875   -1.5506573  0.065241485   -2.7249875    1.1743301   563356 
  197000    1.0112434   -2.7246424   -2.7246424   -1.5513065   0.06945896   -2.7246424    1.1733359   563356 
  198000     1.011957   -2.7264648   -2.7264648   -1.5523009  0.061913066   -2.7264648    1.1741638   563356 
  199000    1.0090859   -2.7224843   -2.7224843   -1.5516518  0.067654658   -2.7224843    1.1708326   563356 
  200000     1.011425   -2.7241668   -2.7241668   -1.5506202  0.067400454   -2.7241668    1.1735466   563356 
  201000    1.0104673   -2.7232128   -2.7232128   -1.5507774  0.056811373   -2.7232128    1.1724354   563356 
  202000    1.0121853   -2.7249274   -2.7249274   -1.5504986  0.064696358   -2.7249274    1.1744288   563356 
  203000    1.0107393   -2.7234141   -2.7234141   -1.5506632  0.073064693   -2.7234141     1.172751   563356 
  204000    1.0097071   -2.7223511   -2.7223511   -1.5507977  0.063636728   -2.7223511    1.1715533   563356 
  205000    1.0108922   -2.7244698   -2.7244698   -1.5515415  0.065579868   -2.7244698    1.1729284   563356 
  206000    1.0111417   -2.7240344   -2.7240344   -1.5508165  0.069656577   -2.7240344    1.1732179   563356 
  207000    1.0115755   -2.7250478   -2.7250478   -1.5513266  0.061052358   -2.7250478    1.1737212   563356 
  208000    1.0116002   -2.7253486   -2.7253486   -1.5515987   0.06009526   -2.7253486    1.1737499   563356 
  209000      1.01135   -2.7246941   -2.7246941   -1.5512346  0.064013114   -2.7246941    1.1734595   563356 
  210000    1.0101517    -2.723229    -2.723229   -1.5511598  0.062326248    -2.723229    1.1720692   563356 
  211000     1.010193   -2.7236416   -2.7236416   -1.5515245  0.054331426   -2.7236416    1.1721171   563356 
  212000    1.0111135    -2.724556    -2.724556   -1.5513708  0.060584263    -2.724556    1.1731852   563356 
  213000     1.011025   -2.7241669   -2.7241669   -1.5510844  0.051405611   -2.7241669    1.1730825   563356 
  214000    1.0105577   -2.7236137   -2.7236137   -1.5510735  0.068360902   -2.7236137    1.1725403   563356 
  215000    1.0115577   -2.7240175   -2.7240175    -1.550317  0.064704429   -2.7240175    1.1737005   563356 
  216000    1.0113186   -2.7235453   -2.7235453   -1.5501222  0.070698072   -2.7235453    1.1734231   563356 
  217000    1.0116646   -2.7245712   -2.7245712   -1.5507465  0.059538185   -2.7245712    1.1738246   563356 
  218000    1.0101501   -2.7240437   -2.7240437   -1.5519764  0.063700519   -2.7240437    1.1720673   563356 
  219000    1.0126843   -2.7273503   -2.7273503   -1.5523425   0.06015628   -2.7273503    1.1750078   563356 
  220000    1.0130503   -2.7279039   -2.7279039   -1.5524714  0.054744908   -2.7279039    1.1754324   563356 
  221000    1.0108974   -2.7261408   -2.7261408   -1.5532064  0.056764592   -2.7261408    1.1729344   563356 
  222000    1.0120371   -2.7264893   -2.7264893   -1.5522325  0.068270364   -2.7264893    1.1742568   563356 
  223000    1.0127052   -2.7279981   -2.7279981   -1.5529661  0.058650798   -2.7279981     1.175032   563356 
  224000    1.0134701   -2.7285645   -2.7285645   -1.5526449   0.07125036   -2.7285645    1.1759196   563356 
  225000    1.0135646   -2.7284041   -2.7284041    -1.552375  0.072486574   -2.7284041    1.1760291   563356 
  226000    1.0126979   -2.7269267   -2.7269267   -1.5519031   0.06005349   -2.7269267    1.1750236   563356 
  227000    1.0108838   -2.7252757   -2.7252757    -1.552357  0.071363407   -2.7252757    1.1729187   563356 
  228000    1.0091047    -2.724477    -2.724477   -1.5536225  0.065397348    -2.724477    1.1708544   563356 
  229000    1.0099053   -2.7250222   -2.7250222   -1.5532389  0.062251588   -2.7250222    1.1717833   563356 
  230000     1.008668   -2.7232575   -2.7232575   -1.5529098  0.069571218   -2.7232575    1.1703477   563356 
  231000     1.010297   -2.7251216   -2.7251216   -1.5528838  0.062359306   -2.7251216    1.1722378   563356 
  232000     1.009421   -2.7242319   -2.7242319   -1.5530105  0.065187375   -2.7242319    1.1712214   563356 
  233000    1.0110196   -2.7255888   -2.7255888   -1.5525125  0.055253615   -2.7255888    1.1730763   563356 
  234000     1.008919   -2.7251944   -2.7251944   -1.5545555  0.058621165   -2.7251944    1.1706389   563356 
  235000    1.0114935   -2.7285635   -2.7285635   -1.5549375  0.062909619   -2.7285635    1.1736261   563356 
  236000    1.0115171    -2.727783    -2.727783   -1.5541295  0.052061573    -2.727783    1.1736535   563356 
  237000    1.0124324   -2.7289541   -2.7289541   -1.5542386  0.068293253   -2.7289541    1.1747155   563356 
  238000    1.0103737   -2.7266111   -2.7266111   -1.5542843  0.063341483   -2.7266111    1.1723268   563356 
  239000    1.0095823   -2.7260554   -2.7260554   -1.5546468  0.069269841   -2.7260554    1.1714086   563356 
  240000    1.0097716   -2.7259178   -2.7259178   -1.5542896   0.06344674   -2.7259178    1.1716282   563356 
  241000    1.0117397    -2.727917    -2.727917   -1.5540052  0.052879778    -2.727917    1.1739118   563356 
  242000    1.0117693   -2.7275608   -2.7275608   -1.5536147  0.066173185   -2.7275608    1.1739461   563356 
  243000     1.011657   -2.7280936   -2.7280936   -1.5542778  0.060488016   -2.7280936    1.1738158   563356 
  244000    1.0106703   -2.7276767   -2.7276767   -1.5550057  0.060587806   -2.7276767    1.1726709   563356 
  245000    1.0108138   -2.7284072   -2.7284072   -1.5555697  0.051518323   -2.7284072    1.1728374   563356 
  246000    1.0107414   -2.7284559   -2.7284559   -1.5557024  0.063809844   -2.7284559    1.1727535   563356 
  247000    1.0097023   -2.7261321   -2.7261321   -1.5545843  0.061215842   -2.7261321    1.1715478   563356 
  248000    1.0110879   -2.7275285   -2.7275285   -1.5543731  0.061332372   -2.7275285    1.1731554   563356 
  249000    1.0105607    -2.727393    -2.727393   -1.5548492  0.072671534    -2.727393    1.1725438   563356 
  250000    1.0090706   -2.7256283   -2.7256283   -1.5548135  0.053271587   -2.7256283    1.1708148   563356 
  251000    1.0100168   -2.7267172   -2.7267172   -1.5548045  0.064447631   -2.7267172    1.1719127   563356 
  252000    1.0103467   -2.7270115   -2.7270115    -1.554716  0.064918223   -2.7270115    1.1722955   563356 
  253000    1.0113198   -2.7280139   -2.7280139   -1.5545894  0.060352277   -2.7280139    1.1734245   563356 
  254000    1.0104559   -2.7278772   -2.7278772    -1.555455  0.067048659   -2.7278772    1.1724222   563356 
  255000    1.0093252   -2.7258571   -2.7258571   -1.5547468  0.076989452   -2.7258571    1.1711103   563356 
  256000    1.0095394   -2.7267562   -2.7267562   -1.5553975  0.059208311   -2.7267562    1.1713587   563356 
  257000    1.0105787   -2.7275629   -2.7275629   -1.5549983  0.069316774   -2.7275629    1.1725646   563356 
  258000    1.0108614   -2.7287788   -2.7287788    -1.555886  0.066860714   -2.7287788    1.1728927   563356 
  259000    1.0103632   -2.7281139   -2.7281139   -1.5557993  0.065430887   -2.7281139    1.1723146   563356 
  260000    1.0093897   -2.7271136   -2.7271136   -1.5559285  0.060740944   -2.7271136    1.1711851   563356 
  261000    1.0091948    -2.726672    -2.726672   -1.5557131  0.064668637    -2.726672    1.1709589   563356 
  262000    1.0111779   -2.7299322   -2.7299322   -1.5566723  0.068282887   -2.7299322    1.1732599   563356 
  263000    1.0103543    -2.728407    -2.728407   -1.5561027  0.054184175    -2.728407    1.1723043   563356 
  264000     1.010307   -2.7281784   -2.7281784    -1.555929   0.06052725   -2.7281784    1.1722494   563356 
  265000     1.010854   -2.7302289   -2.7302289   -1.5573448  0.051160884   -2.7302289    1.1728841   563356 
  266000    1.0105015   -2.7296416   -2.7296416   -1.5571665  0.053215353   -2.7296416    1.1724751   563356 
  267000    1.0105135   -2.7284955   -2.7284955   -1.5560065  0.066152869   -2.7284955    1.1724891   563356 
  268000    1.0102397   -2.7282782   -2.7282782   -1.5561069   0.06757302   -2.7282782    1.1721713   563356 
  269000    1.0096375   -2.7280084   -2.7280084   -1.5565359  0.069200537   -2.7280084    1.1714726   563356 
  270000    1.0105187   -2.7293025   -2.7293025   -1.5568075  0.063628009   -2.7293025     1.172495   563356 
  271000    1.0112648    -2.729511    -2.729511   -1.5561503  0.066358294    -2.729511    1.1733607   563356 
  272000    1.0116282   -2.7302097   -2.7302097   -1.5564274   0.06627559   -2.7302097    1.1737824   563356 
  273000    1.0111956   -2.7290366   -2.7290366   -1.5557562  0.081317684   -2.7290366    1.1732804   563356 
  274000    1.0109529   -2.7289445   -2.7289445   -1.5559457  0.062824655   -2.7289445    1.1729988   563356 
  275000    1.0111917   -2.7284017   -2.7284017   -1.5551258   0.06516668   -2.7284017    1.1732759   563356 
  276000    1.0118823   -2.7296253   -2.7296253   -1.5555481  0.055589856   -2.7296253    1.1740772   563356 
  277000    1.0106867   -2.7287506   -2.7287506   -1.5560606  0.069732301   -2.7287506      1.17269   563356 
  278000    1.0106841   -2.7289378   -2.7289378   -1.5562509  0.061604174   -2.7289378     1.172687   563356 
  279000    1.0114412   -2.7294655   -2.7294655      -1.5559  0.059382907   -2.7294655    1.1735654   563356 
  280000    1.0107165    -2.729388    -2.729388   -1.5566634  0.064864199    -2.729388    1.1727246   563356 
  281000    1.0085127   -2.7275847   -2.7275847   -1.5574172  0.066867583   -2.7275847    1.1701674   563356 
  282000    1.0094495   -2.7273431   -2.7273431   -1.5560887  0.058146765   -2.7273431    1.1712544   563356 
  283000    1.0098823   -2.7281579   -2.7281579   -1.5564012  0.066652545   -2.7281579    1.1717566   563356 
  284000    1.0102751   -2.7288131   -2.7288131   -1.5566006  0.072690564   -2.7288131    1.1722124   563356 
  285000    1.0089487   -2.7277711   -2.7277711   -1.5570977  0.063245608   -2.7277711    1.1706734   563356 
  286000    1.0097249   -2.7291491   -2.7291491   -1.5575751  0.059105561   -2.7291491     1.171574   563356 
  287000    1.0088933   -2.7284553   -2.7284553   -1.5578462   0.06510506   -2.7284553    1.1706091   563356 
  288000    1.0090586    -2.728802    -2.728802   -1.5580011  0.067321044    -2.728802    1.1708009   563356 
  289000    1.0116139   -2.7320771   -2.7320771   -1.5583113   0.05371482   -2.7320771    1.1737658   563356 
  290000    1.0097554     -2.73018     -2.73018   -1.5585707  0.052687724     -2.73018    1.1716094   563356 
  291000    1.0113087   -2.7323227   -2.7323227    -1.558911  0.063818034   -2.7323227    1.1734117   563356 
  292000    1.0117894   -2.7324589   -2.7324589   -1.5584896  0.065240877   -2.7324589    1.1739694   563356 
  293000    1.0102468   -2.7305341   -2.7305341   -1.5583546  0.064603684   -2.7305341    1.1721795   563356 
  294000    1.0119165     -2.73157     -2.73157   -1.5574531  0.058842388     -2.73157    1.1741169   563356 
  295000    1.0104985   -2.7304639   -2.7304639   -1.5579923  0.063928564   -2.7304639    1.1724716   563356 
  296000    1.0103421   -2.7301799   -2.7301799   -1.5578898  0.059348038   -2.7301799    1.1722901   563356 
  297000    1.0104953   -2.7302293   -2.7302293   -1.5577614  0.056146598   -2.7302293    1.1724678   563356 
  298000    1.0094821   -2.7292554   -2.7292554   -1.5579631  0.050925442   -2.7292554    1.1712923   563356 
  299000     1.008565    -2.727509    -2.727509   -1.5572808  0.064345059    -2.727509    1.1702282   563356 
  300000    1.0095383   -2.7284073   -2.7284073   -1.5570498   0.07680639   -2.7284073    1.1713575   563356 
  301000    1.0087595   -2.7269412   -2.7269412   -1.5564873  0.071764918   -2.7269412    1.1704539   563356 
  302000    1.0094937   -2.7278681   -2.7278681   -1.5565624  0.058939821   -2.7278681    1.1713057   563356 
  303000    1.0101148   -2.7282882   -2.7282882   -1.5562618  0.059661776   -2.7282882    1.1720264   563356 
  304000    1.0101357    -2.728944    -2.728944   -1.5568934  0.063430694    -2.728944    1.1720506   563356 
  305000    1.0097191   -2.7297118   -2.7297118   -1.5581445  0.067600834   -2.7297118    1.1715673   563356 
  306000    1.0087933   -2.7294369   -2.7294369   -1.5589438  0.058790667   -2.7294369    1.1704931   563356 
  307000    1.0092162   -2.7300953   -2.7300953   -1.5591116  0.067135598   -2.7300953    1.1709837   563356 
  308000    1.0084503   -2.7300544   -2.7300544   -1.5599594  0.056220797   -2.7300544    1.1700951   563356 
  309000    1.0097075   -2.7316858   -2.7316858    -1.560132  0.067016883   -2.7316858    1.1715538   563356 
  310000    1.0109154    -2.732765    -2.732765   -1.5598096  0.065653972    -2.732765    1.1729554   563356 
  311000    1.0110538   -2.7329945   -2.7329945   -1.5598786  0.072757028   -2.7329945    1.1731159   563356 
  312000    1.0108818     -2.73294     -2.73294   -1.5600236  0.058753201     -2.73294    1.1729164   563356 
  313000    1.0115899   -2.7341613   -2.7341613   -1.5604234  0.063369964   -2.7341613    1.1737379   563356 
  314000    1.0107155   -2.7329625   -2.7329625   -1.5602391  0.066667247   -2.7329625    1.1727234   563356 
  315000    1.0101892   -2.7326667   -2.7326667    -1.560554  0.059503444   -2.7326667    1.1721127   563356 
  316000    1.0085546   -2.7300359   -2.7300359   -1.5598198   0.06029641   -2.7300359    1.1702161   563356 
  317000    1.0076309   -2.7283759   -2.7283759   -1.5592315  0.075069508   -2.7283759    1.1691443   563356 
  318000    1.0093457   -2.7307035   -2.7307035   -1.5595695   0.06168297   -2.7307035     1.171134   563356 
  319000    1.0094383   -2.7305634   -2.7305634    -1.559322  0.052166152   -2.7305634    1.1712415   563356 
  320000    1.0087957   -2.7297597   -2.7297597   -1.5592638  0.064211805   -2.7297597    1.1704959   563356 
  321000    1.0091201   -2.7309373   -2.7309373    -1.560065  0.061079326   -2.7309373    1.1708723   563356 
  322000    1.0095225    -2.730125    -2.730125   -1.5587859  0.053648871    -2.730125    1.1713391   563356 
  323000    1.0091585   -2.7302882   -2.7302882   -1.5593714  0.064819498   -2.7302882    1.1709168   563356 
  324000    1.0110078   -2.7324402   -2.7324402   -1.5593777  0.067113423   -2.7324402    1.1730625   563356 
  325000    1.0108825   -2.7325321   -2.7325321    -1.559615  0.052852826   -2.7325321    1.1729171   563356 
  326000    1.0112041   -2.7331033   -2.7331033    -1.559813  0.078593467   -2.7331033    1.1732903   563356 
  327000    1.0113534   -2.7334177   -2.7334177   -1.5599542  0.063066651   -2.7334177    1.1734636   563356 
  328000     1.008918   -2.7317309   -2.7317309   -1.5610931  0.061985041   -2.7317309    1.1706378   563356 
  329000    1.0112517   -2.7345132   -2.7345132   -1.5611676  0.073471753   -2.7345132    1.1733456   563356 
  330000    1.0105365   -2.7341471   -2.7341471   -1.5616314  0.060825444   -2.7341471    1.1725157   563356 
  331000    1.0105933    -2.733534    -2.733534   -1.5609523  0.054211135    -2.733534    1.1725816   563356 
  332000    1.0086318   -2.7318557   -2.7318557     -1.56155  0.060477882   -2.7318557    1.1703057   563356 
  333000    1.0091863   -2.7315959   -2.7315959   -1.5606469  0.047008231   -2.7315959    1.1709491   563356 
  334000    1.0081763   -2.7296216   -2.7296216   -1.5598444  0.062710942   -2.7296216    1.1697772   563356 
  335000    1.0082151   -2.7295775   -2.7295775   -1.5597553  0.062707457   -2.7295775    1.1698223   563356 
  336000    1.0089824   -2.7315106   -2.7315106   -1.5607981  0.049781504   -2.7315106    1.1707125   563356 
  337000     1.008056   -2.7305348   -2.7305348   -1.5608972   0.05792167   -2.7305348    1.1696376   563356 
  338000     1.010494   -2.7337452   -2.7337452   -1.5612788  0.064756982   -2.7337452    1.1724664   563356 
  339000     1.010629   -2.7340762   -2.7340762   -1.5614532  0.064240686   -2.7340762     1.172623   563356 
  340000    1.0112446   -2.7350147   -2.7350147   -1.5616774  0.065612016   -2.7350147    1.1733373   563356 
  341000     1.010692   -2.7344324   -2.7344324   -1.5617362  0.073085398   -2.7344324    1.1726962   563356 
  342000    1.0106589   -2.7352689   -2.7352689   -1.5626112  0.067866696   -2.7352689    1.1726577   563356 
  343000    1.0109911   -2.7362789   -2.7362789   -1.5632357  0.072531478   -2.7362789    1.1730432   563356 
  344000     1.010625   -2.7355803   -2.7355803   -1.5629619  0.066059617   -2.7355803    1.1726184   563356 
  345000    1.0098626     -2.73469     -2.73469   -1.5629563  0.061863142     -2.73469    1.1717337   563356 
  346000    1.0097172   -2.7342737   -2.7342737   -1.5627087  0.063863019   -2.7342737     1.171565   563356 
  347000    1.0093947   -2.7340795   -2.7340795   -1.5628886  0.070995755   -2.7340795    1.1711909   563356 
  348000    1.0075561    -2.731711    -2.731711   -1.5626535  0.074388832    -2.731711    1.1690575   563356 
  349000    1.0095984   -2.7354087   -2.7354087   -1.5639815  0.066596089   -2.7354087    1.1714273   563356 
  350000    1.0097434    -2.735962    -2.735962   -1.5643666  0.066082365    -2.735962    1.1715954   563356 
  351000    1.0091614   -2.7353535   -2.7353535   -1.5644334  0.064290622   -2.7353535    1.1709201   563356 
  352000     1.010008   -2.7360923   -2.7360923   -1.5641898  0.070209254   -2.7360923    1.1719025   563356 
  353000    1.0087037   -2.7353332   -2.7353332   -1.5649441  0.071587156   -2.7353332    1.1703891   563356 
  354000    1.0114229   -2.7377843   -2.7377843   -1.5642402  0.063715005   -2.7377843    1.1735441   563356 
  355000    1.0098083   -2.7365758   -2.7365758    -1.564905  0.075009676   -2.7365758    1.1716708   563356 
  356000    1.0092088   -2.7364676   -2.7364676   -1.5654924   0.06259647   -2.7364676    1.1709752   563356 
  357000    1.0090461   -2.7360016   -2.7360016   -1.5652152  0.058810608   -2.7360016    1.1707864   563356 
  358000    1.0092086   -2.7362627   -2.7362627   -1.5652878  0.064875503   -2.7362627    1.1709749   563356 
  359000    1.0106583   -2.7372961   -2.7372961    -1.564639  0.069773693   -2.7372961     1.172657   563356 
  360000     1.008102   -2.7348416   -2.7348416   -1.5651507  0.055370843   -2.7348416    1.1696909   563356 
  361000    1.0090105   -2.7362708   -2.7362708   -1.5655256  0.068189696   -2.7362708    1.1707451   563356 
  362000    1.0095596   -2.7365912   -2.7365912    -1.565209   0.06364947   -2.7365912    1.1713822   563356 
  363000    1.0096648   -2.7368247   -2.7368247   -1.5653203  0.068363613   -2.7368247    1.1715043   563356 
  364000    1.0094436   -2.7368558   -2.7368558   -1.5656082  0.062961529   -2.7368558    1.1712476   563356 
  365000    1.0091018   -2.7367967   -2.7367967   -1.5659457  0.050795248   -2.7367967    1.1708511   563356 
  366000     1.009174   -2.7374203   -2.7374203   -1.5664854  0.059900661   -2.7374203    1.1709348   563356 
  367000    1.0079539   -2.7355502   -2.7355502   -1.5660311  0.065153256   -2.7355502    1.1695191   563356 
  368000     1.010057   -2.7372571   -2.7372571   -1.5652977  0.068254981   -2.7372571    1.1719593   563356 
  369000    1.0089738    -2.736052    -2.736052   -1.5653495  0.049389494    -2.736052    1.1707025   563356 
  370000    1.0088632   -2.7362091   -2.7362091   -1.5656349  0.067091466   -2.7362091    1.1705742   563356 
  371000    1.0087898   -2.7351513   -2.7351513   -1.5646623  0.065764679   -2.7351513     1.170489   563356 
  372000    1.0095038   -2.7358775   -2.7358775   -1.5645601  0.078999502   -2.7358775    1.1713174   563356 
  373000    1.0076377   -2.7345195   -2.7345195   -1.5653673  0.059257197   -2.7345195    1.1691523   563356 
  374000    1.0077259   -2.7335458   -2.7335458   -1.5642912  0.060792296   -2.7335458    1.1692545   563356 
  375000    1.0087683   -2.7352536   -2.7352536   -1.5647896  0.058587651   -2.7352536    1.1704641   563356 
  376000    1.0084173   -2.7345219   -2.7345219    -1.564465  0.050624226   -2.7345219    1.1700568   563356 
  377000     1.009029   -2.7360243   -2.7360243   -1.5652577  0.056994641   -2.7360243    1.1707666   563356 
  378000     1.008757   -2.7368823   -2.7368823   -1.5664313  0.063174684   -2.7368823    1.1704509   563356 
  379000    1.0098865   -2.7388925   -2.7388925   -1.5671311  0.063269755   -2.7388925    1.1717615   563356 
  380000    1.0093287   -2.7381867   -2.7381867   -1.5670724  0.065295033   -2.7381867    1.1711143   563356 
  381000    1.0086321   -2.7366677   -2.7366677   -1.5663617  0.071090133   -2.7366677    1.1703061   563356 
  382000    1.0106196   -2.7388384   -2.7388384   -1.5662263  0.065802771   -2.7388384    1.1726121   563356 
  383000    1.0098173   -2.7391935   -2.7391935   -1.5675122  0.068461433   -2.7391935    1.1716812   563356 
  384000    1.0079972   -2.7372063   -2.7372063    -1.567637  0.061084911   -2.7372063    1.1695693   563356 
  385000    1.0082681   -2.7367701   -2.7367701   -1.5668865   0.06516791   -2.7367701    1.1698837   563356 
  386000    1.0093675   -2.7374707   -2.7374707   -1.5663114  0.055677542   -2.7374707    1.1711593   563356 
  387000    1.0092369    -2.737663    -2.737663   -1.5666551  0.062923348    -2.737663    1.1710078   563356 
  388000    1.0093946   -2.7377779   -2.7377779   -1.5665871  0.056940366   -2.7377779    1.1711908   563356 
  389000    1.0097406   -2.7390783   -2.7390783   -1.5674861  0.056726237   -2.7390783    1.1715922   563356 
  390000    1.0084482   -2.7375006   -2.7375006    -1.567408  0.074372834   -2.7375006    1.1700926   563356 
  391000    1.0081848   -2.7377181   -2.7377181   -1.5679311  0.062930533   -2.7377181     1.169787   563356 
  392000     1.009277   -2.7395487   -2.7395487   -1.5684944   0.05916503   -2.7395487    1.1710543   563356 
  393000    1.0065193   -2.7367035   -2.7367035   -1.5688489  0.057812129   -2.7367035    1.1678545   563356 
  394000    1.0061566    -2.736169    -2.736169   -1.5687352  0.065795424    -2.736169    1.1674338   563356 
  395000    1.0075955   -2.7388043   -2.7388043    -1.569701  0.064688412   -2.7388043    1.1691033   563356 
  396000    1.0067821   -2.7382876   -2.7382876   -1.5701281  0.071044105   -2.7382876    1.1681595   563356 
  397000    1.0076787   -2.7397105   -2.7397105   -1.5705108  0.056473358   -2.7397105    1.1691998   563356 
  398000    1.0089277   -2.7423486   -2.7423486   -1.5716996  0.063730334   -2.7423486     1.170649   563356 
  399000    1.0076649   -2.7405375   -2.7405375   -1.5713537   0.06709262   -2.7405375    1.1691838   563356 
  400000    1.0071405   -2.7402447   -2.7402447   -1.5716694  0.063687765   -2.7402447    1.1685753   563356 
  401000    1.0083297    -2.741014    -2.741014   -1.5710589  0.062358465    -2.741014    1.1699551   563356 
  402000    1.0084705   -2.7406038   -2.7406038   -1.5704852  0.067417838   -2.7406038    1.1701185   563356 
  403000    1.0071513   -2.7383884   -2.7383884   -1.5698006  0.072353844   -2.7383884    1.1685878   563356 
  404000    1.0080098   -2.7395421   -2.7395421   -1.5699582  0.051776695   -2.7395421     1.169584   563356 
  405000    1.0074888   -2.7396714   -2.7396714   -1.5706919  0.058408436   -2.7396714    1.1689795   563356 
  406000    1.0076827    -2.739087    -2.739087   -1.5698826  0.052593303    -2.739087    1.1692044   563356 
  407000    1.0088377   -2.7402257   -2.7402257   -1.5696812  0.067437994   -2.7402257    1.1705445   563356 
  408000    1.0095319   -2.7407999   -2.7407999   -1.5694499  0.063867892   -2.7407999      1.17135   563356 
  409000    1.0092966   -2.7413836   -2.7413836   -1.5703066  0.060705965   -2.7413836     1.171077   563356 
  410000    1.0079349   -2.7396911   -2.7396911   -1.5701941  0.060197588   -2.7396911    1.1694971   563356 
  411000    1.0092314   -2.7401162   -2.7401162   -1.5691147  0.056689073   -2.7401162    1.1710014   563356 
  412000    1.0082781   -2.7380898   -2.7380898   -1.5681945  0.052466904   -2.7380898    1.1698953   563356 
  413000    1.0088637   -2.7393115   -2.7393115   -1.5687368  0.073341738   -2.7393115    1.1705747   563356 
  414000    1.0079083   -2.7382131   -2.7382131   -1.5687469   0.06131005   -2.7382131    1.1694663   563356 
  415000    1.0081901   -2.7387642   -2.7387642   -1.5689711  0.061762953   -2.7387642    1.1697932   563356 
  416000    1.0083844   -2.7380336   -2.7380336   -1.5680149  0.071206978   -2.7380336    1.1700187   563356 
  417000    1.0104717   -2.7408177   -2.7408177   -1.5683772  0.061832907   -2.7408177    1.1724405   563356 
  418000      1.01117   -2.7417036   -2.7417036   -1.5684528  0.063696222   -2.7417036    1.1732508   563356 
  419000    1.0081343   -2.7384491   -2.7384491   -1.5687207  0.057857281   -2.7384491    1.1697284   563356 
  420000    1.0076076   -2.7384655   -2.7384655   -1.5693482   0.06375421   -2.7384655    1.1691173   563356 
  421000    1.0083698   -2.7389965   -2.7389965   -1.5689948  0.049322179   -2.7389965    1.1700016   563356 
  422000    1.0066841   -2.7377929   -2.7377929   -1.5697471  0.055509221   -2.7377929    1.1680458   563356 
  423000    1.0066399   -2.7386784   -2.7386784   -1.5706839  0.056590789   -2.7386784    1.1679945   563356 
  424000    1.0061608   -2.7379443   -2.7379443   -1.5705056  0.045533336   -2.7379443    1.1674386   563356 
  425000    1.0080292   -2.7408497   -2.7408497   -1.5712431  0.058894096   -2.7408497    1.1696065   563356 
  426000    1.0077404   -2.7405259   -2.7405259   -1.5712545  0.061186257   -2.7405259    1.1692714   563356 
  427000    1.0057524   -2.7383918   -2.7383918    -1.571427  0.062913256   -2.7383918    1.1669648   563356 
  428000    1.0066701   -2.7387235   -2.7387235    -1.570694  0.054300365   -2.7387235    1.1680295   563356 
  429000    1.0080308   -2.7407393   -2.7407393    -1.571131  0.067926253   -2.7407393    1.1696083   563356 
  430000    1.0090762   -2.7423271   -2.7423271   -1.5715058  0.067232086   -2.7423271    1.1708214   563356 
  431000     1.009928   -2.7439366   -2.7439366   -1.5721269  0.060379666   -2.7439366    1.1718097   563356 
  432000    1.0092153   -2.7433348   -2.7433348   -1.5723521  0.064909225   -2.7433348    1.1709827   563356 
  433000    1.0081006   -2.7420917   -2.7420917   -1.5724023  0.069657696   -2.7420917    1.1696894   563356 
  434000    1.0101097   -2.7437234   -2.7437234    -1.571703  0.060326125   -2.7437234    1.1720204   563356 
  435000    1.0089262   -2.7418852   -2.7418852    -1.571238  0.074076035   -2.7418852    1.1706473   563356 
  436000    1.0082995   -2.7418709   -2.7418709   -1.5719508  0.075717657   -2.7418709    1.1699201   563356 
  437000    1.0083911   -2.7417039   -2.7417039   -1.5716775  0.065298809   -2.7417039    1.1700264   563356 
  438000    1.0084345   -2.7416522   -2.7416522   -1.5715755  0.069330667   -2.7416522    1.1700767   563356 
  439000    1.0068706   -2.7392815   -2.7392815   -1.5710193  0.065668495   -2.7392815    1.1682622   563356 
  440000    1.0073758    -2.740412    -2.740412   -1.5715637  0.070478018    -2.740412    1.1688483   563356 
  441000    1.0075941   -2.7406439   -2.7406439   -1.5715422  0.060920952   -2.7406439    1.1691017   563356 
  442000    1.0088314   -2.7423851   -2.7423851   -1.5718478   0.05887577   -2.7423851    1.1705373   563356 
  443000    1.0066681   -2.7393901   -2.7393901   -1.5713629   0.06244855   -2.7393901    1.1680272   563356 
  444000    1.0057639   -2.7378722   -2.7378722   -1.5708941  0.052228398   -2.7378722    1.1669781   563356 
  445000     1.007856   -2.7399786   -2.7399786    -1.570573  0.054249765   -2.7399786    1.1694056   563356 
  446000    1.0094583   -2.7409325   -2.7409325   -1.5696679  0.075297687   -2.7409325    1.1712646   563356 
  447000    1.0089516   -2.7394404   -2.7394404   -1.5687637  0.068539282   -2.7394404    1.1706767   563356 
  448000    1.0089902   -2.7399864   -2.7399864   -1.5692649  0.063392256   -2.7399864    1.1707216   563356 
  449000    1.0104481   -2.7406551   -2.7406551    -1.568242  0.069815616   -2.7406551    1.1724132   563356 
  450000     1.010915   -2.7419462   -2.7419462   -1.5689913  0.064840685   -2.7419462    1.1729549   563356 
  451000    1.0122979   -2.7441357   -2.7441357   -1.5695762  0.067594831   -2.7441357    1.1745594   563356 
  452000    1.0099162   -2.7417353   -2.7417353   -1.5699393  0.059610604   -2.7417353    1.1717959   563356 
  453000    1.0093579    -2.740607    -2.740607   -1.5694588  0.062170817    -2.740607    1.1711482   563356 
  454000      1.01018   -2.7409669   -2.7409669   -1.5688648  0.068936802   -2.7409669     1.172102   563356 
  455000    1.0098334   -2.7409521   -2.7409521   -1.5692522  0.058925378   -2.7409521    1.1716999   563356 
  456000    1.0089914   -2.7411009   -2.7411009    -1.570378  0.057206436   -2.7411009    1.1707229   563356 
  457000    1.0056722   -2.7371041   -2.7371041   -1.5702324  0.057981809   -2.7371041    1.1668717   563356 
  458000    1.0080351   -2.7400031   -2.7400031   -1.5703898   0.07262468   -2.7400031    1.1696134   563356 
  459000    1.0068947   -2.7385081   -2.7385081   -1.5702179  0.067866856   -2.7385081    1.1682902   563356 
  460000    1.0067365   -2.7382481   -2.7382481   -1.5701415  0.055880158   -2.7382481    1.1681066   563356 
  461000    1.0061793   -2.7389653   -2.7389653   -1.5715052   0.06358216   -2.7389653    1.1674601   563356 
  462000    1.0068865   -2.7392108   -2.7392108   -1.5709302   0.06126726   -2.7392108    1.1682806   563356 
  463000    1.0053992   -2.7377474   -2.7377474   -1.5711925  0.064057265   -2.7377474    1.1665549   563356 
  464000    1.0061176   -2.7395364   -2.7395364    -1.572148  0.063539527   -2.7395364    1.1673884   563356 
  465000    1.0082318   -2.7417615   -2.7417615   -1.5719199  0.058826004   -2.7417615    1.1698416   563356 
  466000    1.0086778   -2.7423267   -2.7423267   -1.5719677  0.061998606   -2.7423267    1.1703591   563356 
  467000    1.0085409   -2.7425878   -2.7425878   -1.5723875  0.061911401   -2.7425878    1.1702003   563356 
  468000    1.0082359   -2.7422247   -2.7422247   -1.5723783  0.064745771   -2.7422247    1.1698463   563356 
  469000    1.0091319   -2.7434803   -2.7434803   -1.5725944  0.054841149   -2.7434803     1.170886   563356 
  470000    1.0093017   -2.7435033   -2.7435033   -1.5724204  0.063886079   -2.7435033    1.1710829   563356 
  471000     1.008146   -2.7424769   -2.7424769   -1.5727349  0.058129275   -2.7424769     1.169742   563356 
  472000     1.009622   -2.7438805   -2.7438805   -1.5724259  0.069304461   -2.7438805    1.1714546   563356 
  473000    1.0087331   -2.7423854   -2.7423854   -1.5719622  0.057930197   -2.7423854    1.1704232   563356 
  474000    1.0080468   -2.7412733   -2.7412733   -1.5716463  0.056724346   -2.7412733     1.169627   563356 
  475000    1.0077341   -2.7404402   -2.7404402   -1.5711761  0.059189042   -2.7404402    1.1692641   563356 
  476000    1.0110515   -2.7442649   -2.7442649   -1.5711517  0.055696146   -2.7442649    1.1731132   563356 
  477000    1.0120056   -2.7450881   -2.7450881   -1.5708678  0.052236907   -2.7450881    1.1742203   563356 
  478000    1.0087156   -2.7414687   -2.7414687   -1.5710658   0.05771956   -2.7414687    1.1704029   563356 
  479000    1.0079875   -2.7409441   -2.7409441    -1.571386  0.059049589   -2.7409441    1.1695581   563356 
  480000    1.0077598   -2.7413325   -2.7413325   -1.5720386  0.048038717   -2.7413325    1.1692939   563356 
  481000    1.0080024   -2.7410588   -2.7410588   -1.5714833  0.066316131   -2.7410588    1.1695754   563356 
  482000    1.0097857   -2.7433487   -2.7433487   -1.5717042  0.072304364   -2.7433487    1.1716445   563356 
  483000    1.0093893   -2.7434254   -2.7434254   -1.5722408  0.059836533   -2.7434254    1.1711846   563356 
  484000    1.0086119   -2.7428664   -2.7428664   -1.5725838  0.066101147   -2.7428664    1.1702826   563356 
  485000    1.0076772   -2.7421711   -2.7421711   -1.5729731  0.062040917   -2.7421711     1.169198   563356 
  486000    1.0094014   -2.7433656   -2.7433656    -1.572167  0.065440291   -2.7433656    1.1711986   563356 
  487000    1.0086018   -2.7432229   -2.7432229   -1.5729521  0.068641735   -2.7432229    1.1702708   563356 
  488000     1.007624   -2.7422996   -2.7422996   -1.5731632  0.057943359   -2.7422996    1.1691364   563356 
  489000    1.0071424   -2.7421667   -2.7421667   -1.5735891  0.067135346   -2.7421667    1.1685776   563356 
  490000    1.0080282   -2.7435393   -2.7435393   -1.5739339  0.053974229   -2.7435393    1.1696054   563356 
  491000    1.0089109   -2.7448574   -2.7448574   -1.5742279  0.068229313   -2.7448574    1.1706295   563356 
  492000    1.0088799   -2.7445191   -2.7445191   -1.5739256  0.069410615   -2.7445191    1.1705935   563356 
  493000    1.0091184   -2.7456335   -2.7456335   -1.5747632  0.065394145   -2.7456335    1.1708703   563356 
  494000     1.008582   -2.7449259   -2.7449259    -1.574678  0.049787817   -2.7449259    1.1702479   563356 
  495000    1.0065656   -2.7427531   -2.7427531   -1.5748448  0.059485989   -2.7427531    1.1679083   563356 
  496000    1.0075118   -2.7430829   -2.7430829   -1.5740767  0.065083412   -2.7430829    1.1690062   563356 
  497000    1.0080343    -2.744476    -2.744476   -1.5748636  0.058397156    -2.744476    1.1696124   563356 
  498000    1.0086993   -2.7452247   -2.7452247   -1.5748407  0.070038987   -2.7452247     1.170384   563356 
  499000    1.0081266   -2.7444252   -2.7444252   -1.5747057  0.060140721   -2.7444252    1.1697195   563356 
  500000    1.0083237   -2.7442299   -2.7442299   -1.5742817  0.057952922   -2.7442299    1.1699482   563356 
  501000    1.0067532    -2.743343    -2.743343   -1.5752171  0.062187958    -2.743343     1.168126   563356 
  502000    1.0062254    -2.742431    -2.742431   -1.5749174   0.06201751    -2.742431    1.1675136   563356 
  503000     1.007838   -2.7441636   -2.7441636    -1.574779  0.069766007   -2.7441636    1.1693847   563356 
  504000    1.0077765   -2.7433835   -2.7433835   -1.5740702  0.063071489   -2.7433835    1.1693133   563356 
  505000    1.0076539   -2.7441524   -2.7441524   -1.5749813  0.066882574   -2.7441524     1.169171   563356 
  506000    1.0074187   -2.7435837   -2.7435837   -1.5746856  0.059662455   -2.7435837    1.1688981   563356 
  507000    1.0070474   -2.7430365   -2.7430365   -1.5745691  0.066409555   -2.7430365    1.1684673   563356 
  508000    1.0086876   -2.7449454   -2.7449454   -1.5745749  0.073536064   -2.7449454    1.1703705   563356 
  509000    1.0082043   -2.7456373   -2.7456373   -1.5758277  0.058692811   -2.7456373    1.1698097   563356 
  510000    1.0089057   -2.7456442   -2.7456442   -1.5750208  0.065064575   -2.7456442    1.1706235   563356 
  511000    1.0090213   -2.7448208   -2.7448208   -1.5740632  0.055756249   -2.7448208    1.1707577   563356 
  512000    1.0085848   -2.7436324   -2.7436324   -1.5733813  0.064533161   -2.7436324    1.1702512   563356 
  513000    1.0065913   -2.7413436   -2.7413436   -1.5734055  0.069443405   -2.7413436    1.1679381   563356 
  514000    1.0086866   -2.7434628   -2.7434628   -1.5730935  0.067137618   -2.7434628    1.1703693   563356 
  515000    1.0084813   -2.7430848   -2.7430848   -1.5729537  0.051442302   -2.7430848    1.1701311   563356 
  516000    1.0067964   -2.7418693   -2.7418693   -1.5736932  0.063498678   -2.7418693     1.168176   563356 
  517000    1.0053086    -2.739747    -2.739747   -1.5732972  0.077727412    -2.739747    1.1664498   563356 
  518000    1.0060328   -2.7406388   -2.7406388   -1.5733487  0.075478213   -2.7406388    1.1672901   563356 
  519000    1.0069967   -2.7417027   -2.7417027   -1.5732941  0.062289508   -2.7417027    1.1684085   563356 
  520000    1.0075812   -2.7425258   -2.7425258   -1.5734391  0.059155604   -2.7425258    1.1690867   563356 
  521000    1.0077852   -2.7423988   -2.7423988   -1.5730754  0.057696762   -2.7423988    1.1693234   563356 
  522000    1.0089548   -2.7432531   -2.7432531   -1.5725727  0.074243712   -2.7432531    1.1706804   563356 
  523000    1.0095469   -2.7441528   -2.7441528   -1.5727854  0.062942179   -2.7441528    1.1713675   563356 
  524000    1.0092888   -2.7441848   -2.7441848   -1.5731168  0.068352308   -2.7441848    1.1710679   563356 
  525000    1.0095085   -2.7443183   -2.7443183   -1.5729954  0.054706704   -2.7443183    1.1713229   563356 
  526000     1.008215   -2.7436763   -2.7436763   -1.5738542  0.067635747   -2.7436763     1.169822   563356 
  527000    1.0106809   -2.7466934   -2.7466934   -1.5740101  0.065832389   -2.7466934    1.1726833   563356 
  528000    1.0075956   -2.7428271   -2.7428271   -1.5737237  0.065001924   -2.7428271    1.1691034   563356 
  529000    1.0099743    -2.745886    -2.745886   -1.5740227  0.064930075    -2.745886    1.1718634   563356 
  530000    1.0063715   -2.7421717   -2.7421717   -1.5744886  0.067047757   -2.7421717     1.167683   563356 
  531000     1.008224   -2.7440986   -2.7440986   -1.5742661  0.059488424   -2.7440986    1.1698326   563356 
  532000    1.0090392   -2.7440338   -2.7440338   -1.5732554   0.06517273   -2.7440338    1.1707784   563356 
  533000    1.0067208   -2.7422966   -2.7422966   -1.5742083  0.062152673   -2.7422966    1.1680883   563356 
  534000    1.0054531   -2.7420837   -2.7420837   -1.5754662  0.065532493   -2.7420837    1.1666175   563356 
  535000    1.0073839   -2.7438131   -2.7438131   -1.5749554  0.061218336   -2.7438131    1.1688577   563356 
  536000    1.0052015   -2.7413095   -2.7413095    -1.574984  0.067719647   -2.7413095    1.1663255   563356 
  537000    1.0071736   -2.7435814   -2.7435814   -1.5749676  0.052055999   -2.7435814    1.1686138   563356 
  538000     1.007651   -2.7448342   -2.7448342   -1.5756665  0.062341767   -2.7448342    1.1691677   563356 
  539000    1.0082434   -2.7455791   -2.7455791   -1.5757241  0.061438773   -2.7455791     1.169855   563356 
  540000    1.0080758   -2.7447081   -2.7447081   -1.5750474  0.063927954   -2.7447081    1.1696606   563356 
  541000    1.0062744   -2.7442987   -2.7442987   -1.5767283  0.068519185   -2.7442987    1.1675705   563356 
  542000    1.0086062   -2.7467362   -2.7467362   -1.5764602  0.068841749   -2.7467362     1.170276   563356 
  543000    1.0085662   -2.7465094   -2.7465094   -1.5762798  0.070792633   -2.7465094    1.1702296   563356 
  544000    1.0083445   -2.7468682   -2.7468682   -1.5768958  0.059104786   -2.7468682    1.1699723   563356 
  545000    1.0073836   -2.7450102   -2.7450102   -1.5761528  0.069593259   -2.7450102    1.1688575   563356 
  546000     1.006932   -2.7448665   -2.7448665   -1.5765331  0.070103911   -2.7448665    1.1683334   563356 
  547000      1.00755   -2.7455581   -2.7455581   -1.5765076  0.053880468   -2.7455581    1.1690505   563356 
  548000    1.0064708   -2.7437152   -2.7437152   -1.5759169  0.058865096   -2.7437152    1.1677982   563356 
  549000    1.0067134   -2.7446704   -2.7446704   -1.5765906  0.054066251   -2.7446704    1.1680798   563356 
  550000    1.0061139   -2.7430653   -2.7430653    -1.575681  0.068296569   -2.7430653    1.1673842   563356 
  551000    1.0061719   -2.7445691   -2.7445691   -1.5771177  0.063871724   -2.7445691    1.1674515   563356 
  552000    1.0062102   -2.7461315   -2.7461315   -1.5786355  0.060411713   -2.7461315     1.167496   563356 
  553000    1.0055598   -2.7453578   -2.7453578   -1.5786165  0.057863389   -2.7453578    1.1667413   563356 
  554000     1.005518   -2.7449985   -2.7449985   -1.5783058  0.073419004   -2.7449985    1.1666927   563356 
  555000    1.0068633   -2.7462908   -2.7462908   -1.5780371  0.069113113   -2.7462908    1.1682537   563356 
  556000    1.0079435   -2.7477219   -2.7477219   -1.5782148  0.061156091   -2.7477219    1.1695071   563356 
  557000    1.0082956   -2.7480238   -2.7480238   -1.5781082  0.058168033   -2.7480238    1.1699156   563356 
  558000    1.0069601    -2.746683    -2.746683    -1.578317  0.063701632    -2.746683     1.168366   563356 
  559000    1.0090332   -2.7492655   -2.7492655   -1.5784941  0.061505038   -2.7492655    1.1707714   563356 
  560000    1.0074804   -2.7467982   -2.7467982   -1.5778285   0.06602528   -2.7467982    1.1689697   563356 
  561000    1.0081825   -2.7479028   -2.7479028   -1.5781185  0.056783661   -2.7479028    1.1697843   563356 
  562000    1.0087809   -2.7485799   -2.7485799   -1.5781012  0.058720821   -2.7485799    1.1704787   563356 
  563000    1.0072328   -2.7466514   -2.7466514    -1.577969  0.073623209   -2.7466514    1.1686824   563356 
  564000    1.0081996    -2.747491    -2.747491   -1.5776867  0.054370051    -2.747491    1.1698043   563356 
  565000    1.0064855   -2.7460549   -2.7460549   -1.5782396  0.060710587   -2.7460549    1.1678153   563356 
  566000    1.0070954   -2.7466432   -2.7466432   -1.5781202  0.062627358   -2.7466432    1.1685231   563356 
  567000    1.0053765   -2.7457647   -2.7457647   -1.5792361   0.05742973   -2.7457647    1.1665286   563356 
  568000     1.006019   -2.7460664   -2.7460664   -1.5787923  0.057161253   -2.7460664     1.167274   563356 
  569000    1.0047579   -2.7446901   -2.7446901   -1.5788793  0.060009775   -2.7446901    1.1658109   563356 
  570000    1.0057271   -2.7467656   -2.7467656   -1.5798302  0.057228548   -2.7467656    1.1669354   563356 
  571000    1.0057933   -2.7467025   -2.7467025   -1.5796903  0.063951859   -2.7467025    1.1670122   563356 
  572000    1.0059518     -2.74687     -2.74687    -1.579674  0.053343757     -2.74687    1.1671961   563356 
  573000     1.006112     -2.74739     -2.74739    -1.580008  0.062997034     -2.74739     1.167382   563356 
  574000    1.0058697   -2.7472704   -2.7472704   -1.5801696  0.057763798   -2.7472704    1.1671008   563356 
  575000    1.0076839   -2.7485486   -2.7485486   -1.5793428  0.060798229   -2.7485486    1.1692058   563356 
  576000    1.0081556   -2.7494602   -2.7494602   -1.5797071  0.065699159   -2.7494602    1.1697532   563356 
  577000     1.007094   -2.7484478   -2.7484478   -1.5799265  0.071122159   -2.7484478    1.1685213   563356 
  578000     1.007665   -2.7489486   -2.7489486   -1.5797647  0.065773858   -2.7489486    1.1691839   563356 
  579000    1.0073954   -2.7476933   -2.7476933   -1.5788222  0.069692374   -2.7476933    1.1688711   563356 
  580000    1.0081149   -2.7486437   -2.7486437   -1.5789378  0.069009783   -2.7486437    1.1697059   563356 
  581000    1.0076818   -2.7470357   -2.7470357   -1.5778323  0.057066711   -2.7470357    1.1692034   563356 
  582000    1.0093674   -2.7485553   -2.7485553   -1.5773961   0.06795274   -2.7485553    1.1711592   563356 
  583000    1.0093581   -2.7487148   -2.7487148   -1.5775663  0.067039821   -2.7487148    1.1711484   563356 
  584000    1.0081907   -2.7478836   -2.7478836   -1.5780897  0.071127938   -2.7478836    1.1697939   563356 
  585000    1.0091383   -2.7489618   -2.7489618   -1.5780685  0.077910185   -2.7489618    1.1708933   563356 
  586000    1.0071722   -2.7473588   -2.7473588   -1.5787466  0.062557232   -2.7473588    1.1686121   563356 
  587000    1.0052094   -2.7456191   -2.7456191   -1.5792843  0.067177428   -2.7456191    1.1663347   563356 
  588000    1.0065818   -2.7464794   -2.7464794   -1.5785522  0.053160045   -2.7464794    1.1679271   563356 
  589000    1.0051886   -2.7454464   -2.7454464   -1.5791358  0.066315229   -2.7454464    1.1663106   563356 
  590000    1.0064525   -2.7463475   -2.7463475   -1.5785704  0.059743017   -2.7463475     1.167777   563356 
  591000    1.0066981   -2.7461127   -2.7461127   -1.5780507  0.067509109   -2.7461127     1.168062   563356 
  592000    1.0073687   -2.7468814   -2.7468814   -1.5780413  0.066147095   -2.7468814    1.1688401   563356 
  593000    1.0072492   -2.7474803   -2.7474803   -1.5787788  0.051161931   -2.7474803    1.1687015   563356 
  594000    1.0068944   -2.7473585   -2.7473585   -1.5790687  0.059633582   -2.7473585    1.1682898   563356 
  595000    1.0066403   -2.7470163   -2.7470163   -1.5790214  0.065337716   -2.7470163    1.1679949   563356 
  596000     1.008181   -2.7483905   -2.7483905   -1.5786079  0.065988174   -2.7483905    1.1697826   563356 
  597000    1.0086662   -2.7492116   -2.7492116    -1.578866  0.073179838   -2.7492116    1.1703456   563356 
  598000    1.0074795   -2.7475898   -2.7475898   -1.5786211  0.064282676   -2.7475898    1.1689687   563356 
  599000    1.0062857   -2.7465613   -2.7465613   -1.5789777  0.068485073   -2.7465613    1.1675835   563356 
  600000    1.0067428   -2.7470028   -2.7470028   -1.5788889  0.067241706   -2.7470028    1.1681139   563356 
  601000    1.0070844   -2.7482092   -2.7482092   -1.5796989  0.065795418   -2.7482092    1.1685103   563356 
  602000    1.0073396   -2.7482728   -2.7482728   -1.5794664  0.065781305   -2.7482728    1.1688064   563356 
  603000     1.005848   -2.7476472   -2.7476472   -1.5805715  0.072267397   -2.7476472    1.1670757   563356 
  604000    1.0069959   -2.7494446   -2.7494446   -1.5810371  0.073078729   -2.7494446    1.1684076   563356 
  605000    1.0061666   -2.7484183   -2.7484183   -1.5809729  0.056542437   -2.7484183    1.1674454   563356 
  606000    1.0062602   -2.7492849   -2.7492849   -1.5817309  0.064792909   -2.7492849     1.167554   563356 
  607000    1.0053571   -2.7476786   -2.7476786   -1.5811725   0.05540876   -2.7476786    1.1665061   563356 
  608000    1.0075292   -2.7503288   -2.7503288   -1.5813024  0.056854486   -2.7503288    1.1690264   563356 
  609000    1.0047977   -2.7479426   -2.7479426   -1.5820856  0.059883876   -2.7479426     1.165857   563356 
  610000    1.0042731   -2.7476042   -2.7476042   -1.5823559  0.070663846   -2.7476042    1.1652484   563356 
  611000    1.0071358   -2.7502528   -2.7502528   -1.5816829  0.065524605   -2.7502528    1.1685699   563356 
  612000    1.0081811   -2.7502238   -2.7502238    -1.580441   0.06330405   -2.7502238    1.1697828   563356 
  613000    1.0070044   -2.7499571   -2.7499571   -1.5815397  0.079976221   -2.7499571    1.1684175   563356 
  614000    1.0089409   -2.7527113   -2.7527113   -1.5820469  0.059943321   -2.7527113    1.1706643   563356 
  615000     1.007144   -2.7499591   -2.7499591   -1.5813797  0.064945202   -2.7499591    1.1685794   563356 
  616000    1.0067225   -2.7495675   -2.7495675   -1.5814772  0.065632867   -2.7495675    1.1680903   563356 
  617000     1.008116   -2.7494652   -2.7494652    -1.579758  0.075754609   -2.7494652    1.1697072   563356 
  618000    1.0082955   -2.7507689   -2.7507689   -1.5808534  0.066560171   -2.7507689    1.1699155   563356 
  619000    1.0066977   -2.7494349   -2.7494349   -1.5813734  0.067153496   -2.7494349    1.1680615   563356 
  620000    1.0061472   -2.7491138   -2.7491138    -1.581691  0.054933835   -2.7491138    1.1674229   563356 
  621000    1.0052369   -2.7484862   -2.7484862   -1.5821196  0.058676366   -2.7484862    1.1663666   563356 
  622000    1.0064445   -2.7497816   -2.7497816   -1.5820138  0.064345886   -2.7497816    1.1677678   563356 
  623000    1.0068017   -2.7491126   -2.7491126   -1.5809304  0.065083233   -2.7491126    1.1681822   563356 
  624000    1.0062213   -2.7495925   -2.7495925   -1.5820837  0.069211655   -2.7495925    1.1675088   563356 
  625000    1.0071858   -2.7510739   -2.7510739    -1.582446  0.071240183   -2.7510739    1.1686279   563356 
  626000    1.0065186   -2.7508645   -2.7508645   -1.5830107  0.067227934   -2.7508645    1.1678538   563356 
  627000    1.0070763   -2.7513747   -2.7513747   -1.5828739  0.060203591   -2.7513747    1.1685008   563356 
  628000    1.0062479   -2.7503841   -2.7503841   -1.5828444  0.071740044   -2.7503841    1.1675397   563356 
  629000    1.0082393   -2.7530245   -2.7530245   -1.5831742  0.063531653   -2.7530245    1.1698502   563356 
  630000    1.0062391   -2.7506493   -2.7506493   -1.5831198  0.075878526   -2.7506493    1.1675295   563356 
  631000    1.0070041   -2.7515567   -2.7515567   -1.5831396  0.060878272   -2.7515567    1.1684171   563356 
  632000    1.0066662   -2.7509415   -2.7509415   -1.5829165  0.060115605   -2.7509415     1.168025   563356 
  633000     1.005401   -2.7492759   -2.7492759   -1.5827188  0.061692283   -2.7492759     1.166557   563356 
  634000    1.0055949   -2.7496375   -2.7496375   -1.5828555  0.065008282   -2.7496375     1.166782   563356 
  635000    1.0062224   -2.7501095   -2.7501095   -1.5825994  0.062214738   -2.7501095    1.1675101   563356 
  636000    1.0061689   -2.7506749   -2.7506749   -1.5832268  0.064838777   -2.7506749     1.167448   563356 
  637000    1.0057565   -2.7505446   -2.7505446   -1.5835751  0.065086264   -2.7505446    1.1669696   563356 
  638000    1.0067506   -2.7512053   -2.7512053   -1.5830824  0.060598611   -2.7512053    1.1681229   563356 
  639000    1.0063782   -2.7510321   -2.7510321   -1.5833412  0.060302393   -2.7510321    1.1676909   563356 
  640000    1.0067921   -2.7514001   -2.7514001    -1.583229  0.064092149   -2.7514001    1.1681711   563356 
  641000    1.0053292   -2.7491284   -2.7491284   -1.5826547  0.060208315   -2.7491284    1.1664737   563356 
  642000    1.0060933    -2.751106    -2.751106   -1.5837457   0.06173592    -2.751106    1.1673603   563356 
  643000    1.0051934    -2.750513    -2.750513   -1.5841968  0.051558774    -2.750513    1.1663162   563356 
  644000    1.0066586   -2.7513097   -2.7513097   -1.5832935  0.062483764   -2.7513097    1.1680162   563356 
  645000    1.0066762   -2.7502043   -2.7502043   -1.5821676  0.065735614   -2.7502043    1.1680367   563356 
  646000    1.0061762   -2.7495135   -2.7495135    -1.582057  0.061797902   -2.7495135    1.1674565   563356 
  647000    1.0069522   -2.7506137   -2.7506137   -1.5822568  0.062326124   -2.7506137    1.1683569   563356 
  648000    1.0045876   -2.7480247   -2.7480247   -1.5824114  0.064142683   -2.7480247    1.1656133   563356 
  649000    1.0064602   -2.7501773   -2.7501773   -1.5823913  0.052567016   -2.7501773     1.167786   563356 
  650000     1.007611   -2.7506734   -2.7506734   -1.5815521  0.064161492   -2.7506734    1.1691213   563356 
  651000    1.0051898   -2.7490486   -2.7490486   -1.5827366  0.059631915   -2.7490486    1.1663119   563356 
  652000    1.0045681   -2.7479785   -2.7479785   -1.5823879  0.057275572   -2.7479785    1.1655906   563356 
  653000    1.0061835   -2.7492857   -2.7492857   -1.5818208  0.066478883   -2.7492857    1.1674649   563356 
  654000    1.0069774   -2.7503849   -2.7503849   -1.5819988  0.063178315   -2.7503849    1.1683861   563356 
  655000    1.0073948   -2.7507721   -2.7507721   -1.5819016  0.066787472   -2.7507721    1.1688704   563356 
  656000    1.0063072   -2.7500557   -2.7500557   -1.5824471  0.068235376   -2.7500557    1.1676085   563356 
  657000    1.0088756   -2.7523758   -2.7523758   -1.5817872  0.059443992   -2.7523758    1.1705886   563356 
  658000    1.0092596   -2.7536591   -2.7536591    -1.582625  0.061490451   -2.7536591    1.1710341   563356 
  659000     1.008432    -2.752762    -2.752762   -1.5826882  0.053063781    -2.752762    1.1700738   563356 
  660000    1.0065986    -2.751304    -2.751304   -1.5833574  0.058248328    -2.751304    1.1679466   563356 
  661000    1.0072195   -2.7517568   -2.7517568   -1.5830899  0.062078096   -2.7517568     1.168667   563356 
  662000    1.0069171   -2.7512887   -2.7512887   -1.5829725  0.068238859   -2.7512887    1.1683162   563356 
  663000    1.0057781   -2.7499159   -2.7499159   -1.5829213  0.066529081   -2.7499159    1.1669946   563356 
  664000    1.0069894   -2.7511944   -2.7511944   -1.5827943  0.050567118   -2.7511944       1.1684   563356 
  665000    1.0058311   -2.7500623   -2.7500623   -1.5830062  0.062586128   -2.7500623    1.1670561   563356 
  666000    1.0063126   -2.7511385   -2.7511385   -1.5835237  0.060847609   -2.7511385    1.1676148   563356 
  667000    1.0063745   -2.7514766   -2.7514766     -1.58379  0.061244967   -2.7514766    1.1676866   563356 
  668000    1.0067861   -2.7514704   -2.7514704   -1.5833063  0.068276383   -2.7514704    1.1681642   563356 
  669000    1.0070277   -2.7518295   -2.7518295   -1.5833851  0.073298754   -2.7518295    1.1684445   563356 
  670000    1.0057169   -2.7508662   -2.7508662   -1.5839426  0.059657209   -2.7508662    1.1669236   563356 
  671000    1.0077339   -2.7525764   -2.7525764   -1.5833125  0.063064934   -2.7525764    1.1692639   563356 
  672000    1.0071093   -2.7520055   -2.7520055   -1.5834663  0.066076708   -2.7520055    1.1685392   563356 
  673000    1.0078202   -2.7524768   -2.7524768   -1.5831129  0.056270885   -2.7524768    1.1693639   563356 
  674000    1.0055297   -2.7505854   -2.7505854    -1.583879  0.066959589   -2.7505854    1.1667063   563356 
  675000    1.0059841   -2.7507855   -2.7507855   -1.5835519  0.057243051   -2.7507855    1.1672336   563356 
  676000    1.0066548   -2.7510313   -2.7510313   -1.5830195   0.06381949   -2.7510313    1.1680118   563356 
  677000    1.0066147   -2.7503686   -2.7503686   -1.5824034  0.068976051   -2.7503686    1.1679652   563356 
  678000    1.0059934   -2.7502196   -2.7502196   -1.5829753  0.063134114   -2.7502196    1.1672443   563356 
  679000    1.0069316   -2.7510361   -2.7510361   -1.5827031  0.069402541   -2.7510361     1.168333   563356 
  680000     1.007763   -2.7515149   -2.7515149   -1.5822173  0.062920388   -2.7515149    1.1692976   563356 
  681000    1.0053462   -2.7490535   -2.7490535   -1.5825601  0.055405581   -2.7490535    1.1664934   563356 
  682000    1.0056138   -2.7500438   -2.7500438   -1.5832399  0.058300315   -2.7500438    1.1668039   563356 
  683000    1.0064053   -2.7508861   -2.7508861   -1.5831639  0.052657166   -2.7508861    1.1677223   563356 
  684000    1.0065171   -2.7504599   -2.7504599   -1.5826078  0.062374638   -2.7504599    1.1678521   563356 
  685000    1.0059861   -2.7496191   -2.7496191   -1.5823832  0.072838389   -2.7496191    1.1672359   563356 
  686000    1.0074991   -2.7508105   -2.7508105   -1.5818191  0.053712242   -2.7508105    1.1689915   563356 
  687000     1.007875   -2.7514204   -2.7514204   -1.5819928  0.060658485   -2.7514204    1.1694276   563356 
  688000      1.00765    -2.751974    -2.751974   -1.5828074  0.061377718    -2.751974    1.1691666   563356 
  689000    1.0064265   -2.7496122   -2.7496122   -1.5818653  0.059841046   -2.7496122    1.1677469   563356 
  690000      1.00768   -2.7511771   -2.7511771   -1.5819758  0.068058193   -2.7511771    1.1692013   563356 
  691000    1.0081931   -2.7514407   -2.7514407   -1.5816441  0.064462594   -2.7514407    1.1697966   563356 
  692000    1.0076276   -2.7509889   -2.7509889   -1.5818484   0.06141456   -2.7509889    1.1691405   563356 
  693000    1.0053414   -2.7488547   -2.7488547   -1.5823669  0.071276375   -2.7488547    1.1664878   563356 
  694000    1.0071078   -2.7510253   -2.7510253   -1.5824879  0.068673132   -2.7510253    1.1685374   563356 
  695000    1.0057791   -2.7488575   -2.7488575   -1.5818617   0.05548731   -2.7488575    1.1669958   563356 
  696000    1.0063006   -2.7490447   -2.7490447   -1.5814439  0.059437826   -2.7490447    1.1676008   563356 
  697000    1.0075868   -2.7503792   -2.7503792   -1.5812859   0.07197162   -2.7503792    1.1690932   563356 
  698000    1.0073523    -2.749529    -2.749529   -1.5807079   0.06792586    -2.749529    1.1688211   563356 
  699000    1.0066486   -2.7492732   -2.7492732   -1.5812686  0.053766785   -2.7492732    1.1680046   563356 
  700000    1.0087895   -2.7527085   -2.7527085   -1.5822199  0.065624741   -2.7527085    1.1704886   563356 
  701000    1.0084286   -2.7527499   -2.7527499   -1.5826799  0.057074524   -2.7527499      1.17007   563356 
  702000    1.0058324   -2.7502617   -2.7502617    -1.583204    0.0629939   -2.7502617    1.1670576   563356 
  703000    1.0072858   -2.7525484   -2.7525484   -1.5838045  0.067402161   -2.7525484    1.1687439   563356 
  704000    1.0070843   -2.7521578   -2.7521578   -1.5836477  0.058955543   -2.7521578    1.1685102   563356 
  705000    1.0064887   -2.7513472   -2.7513472   -1.5835281  0.059322009   -2.7513472    1.1678191   563356 
  706000    1.0068555   -2.7526287   -2.7526287    -1.584384   0.06840507   -2.7526287    1.1682446   563356 
  707000    1.0062438   -2.7519337   -2.7519337   -1.5843987  0.061805339   -2.7519337     1.167535   563356 
  708000    1.0063057   -2.7518956   -2.7518956   -1.5842889    0.0644252   -2.7518956    1.1676067   563356 
  709000    1.0061109   -2.7515831   -2.7515831   -1.5842023  0.058514711   -2.7515831    1.1673808   563356 
  710000     1.006951   -2.7526246   -2.7526246   -1.5842691  0.068580419   -2.7526246    1.1683555   563356 
  711000    1.0055914    -2.751261    -2.751261    -1.584483  0.065252785    -2.751261     1.166778   563356 
  712000    1.0075124   -2.7543651   -2.7543651   -1.5853582  0.059010367   -2.7543651    1.1690069   563356 
  713000    1.0056983   -2.7522631   -2.7522631   -1.5853611  0.063609809   -2.7522631     1.166902   563356 
  714000    1.0061077   -2.7526882   -2.7526882   -1.5853112  0.066934189   -2.7526882     1.167377   563356 
  715000    1.0056251   -2.7533223   -2.7533223   -1.5865053  0.059910382   -2.7533223    1.1668171   563356 
  716000    1.0055833   -2.7532923   -2.7532923   -1.5865238   0.06234067   -2.7532923    1.1667685   563356 
  717000    1.0054059   -2.7534871   -2.7534871   -1.5869244  0.063635176   -2.7534871    1.1665627   563356 
  718000    1.0056351   -2.7538836   -2.7538836   -1.5870549  0.067771149   -2.7538836    1.1668287   563356 
  719000    1.0069569   -2.7551201   -2.7551201   -1.5867578   0.06538765   -2.7551201    1.1683623   563356 
  720000    1.0068727   -2.7553291   -2.7553291   -1.5870645  0.058811709   -2.7553291    1.1682647   563356 
  721000    1.0062773   -2.7538256   -2.7538256   -1.5862518  0.059595944   -2.7538256    1.1675738   563356 
  722000    1.0069844   -2.7543559   -2.7543559   -1.5859617  0.064400615   -2.7543559    1.1683943   563356 
  723000    1.0064392   -2.7534353   -2.7534353   -1.5856736  0.066195822   -2.7534353    1.1677617   563356 
  724000    1.0054174   -2.7529058   -2.7529058   -1.5863296  0.071616182   -2.7529058    1.1665761   563356 
  725000    1.0072168   -2.7549276   -2.7549276   -1.5862638   0.05416443   -2.7549276    1.1686638   563356 
  726000    1.0073927    -2.755269    -2.755269    -1.586401  0.070452566    -2.755269     1.168868   563356 
  727000     1.007518   -2.7553577   -2.7553577   -1.5863443  0.068592559   -2.7553577    1.1690134   563356 
  728000    1.0070211    -2.754996    -2.754996   -1.5865591  0.070721651    -2.754996    1.1684368   563356 
  729000    1.0059271   -2.7538088   -2.7538088   -1.5866414  0.060618181   -2.7538088    1.1671674   563356 
  730000    1.0064537   -2.7543523   -2.7543523   -1.5865738  0.055360555   -2.7543523    1.1677785   563356 
  731000    1.0068533   -2.7540945   -2.7540945   -1.5858525     0.069906   -2.7540945    1.1682421   563356 
  732000    1.0064433   -2.7537127   -2.7537127   -1.5859462  0.071525704   -2.7537127    1.1677665   563356 
  733000    1.0073513   -2.7553876   -2.7553876   -1.5865677  0.064691811   -2.7553876    1.1688199   563356 
  734000    1.0077441   -2.7557917   -2.7557917    -1.586516  0.061596384   -2.7557917    1.1692757   563356 
  735000    1.0060369   -2.7538807   -2.7538807   -1.5865858  0.068714867   -2.7538807    1.1672949   563356 
  736000    1.0054302   -2.7520881   -2.7520881   -1.5854973   0.06474477   -2.7520881    1.1665908   563356 
  737000    1.0065456   -2.7531306   -2.7531306   -1.5852455  0.057045996   -2.7531306    1.1678851   563356 
  738000    1.0075497   -2.7540293   -2.7540293   -1.5849792  0.069752855   -2.7540293    1.1690501   563356 
  739000     1.003996   -2.7512974   -2.7512974   -1.5863706  0.053840956   -2.7512974    1.1649268   563356 
  740000    1.0067639   -2.7543537   -2.7543537   -1.5862153  0.067053989   -2.7543537    1.1681384   563356 
  741000    1.0061319   -2.7535163   -2.7535163   -1.5861112  0.059353669   -2.7535163    1.1674051   563356 
  742000    1.0066673   -2.7542037   -2.7542037   -1.5861774  0.066883601   -2.7542037    1.1680263   563356 
  743000    1.0078612   -2.7565385   -2.7565385    -1.587127  0.057760937   -2.7565385    1.1694116   563356 
  744000    1.0066782   -2.7552811   -2.7552811   -1.5872422  0.069038318   -2.7552811    1.1680389   563356 
  745000    1.0067439   -2.7562901   -2.7562901   -1.5881749  0.059796283   -2.7562901    1.1681152   563356 
  746000    1.0071483   -2.7576268   -2.7576268   -1.5890424  0.049706675   -2.7576268    1.1685844   563356 
  747000    1.0067368   -2.7560208   -2.7560208   -1.5879138  0.060682932   -2.7560208    1.1681069   563356 
  748000     1.005922   -2.7546116   -2.7546116   -1.5874501  0.063059036   -2.7546116    1.1671615   563356 
  749000    1.0053374   -2.7535294   -2.7535294   -1.5870462  0.051138444   -2.7535294    1.1664832   563356 
  750000    1.0064039   -2.7538804   -2.7538804   -1.5861598  0.053516889   -2.7538804    1.1677206   563356 
  751000    1.0066022   -2.7537007   -2.7537007   -1.5857499  0.069268795   -2.7537007    1.1679508   563356 
  752000    1.0068742   -2.7529816   -2.7529816   -1.5847152  0.068750853   -2.7529816    1.1682664   563356 
  753000    1.0072801    -2.752922    -2.752922   -1.5841847  0.057564886    -2.752922    1.1687373   563356 
  754000    1.0058287   -2.7525781   -2.7525781   -1.5855248  0.064534674   -2.7525781    1.1670533   563356 
  755000    1.0067614   -2.7535213   -2.7535213   -1.5853859   0.05721365   -2.7535213    1.1681354   563356 
  756000    1.0072109   -2.7540149   -2.7540149   -1.5853579  0.060341825   -2.7540149    1.1686571   563356 
  757000    1.0058574    -2.751361    -2.751361   -1.5842744  0.065071576    -2.751361    1.1670866   563356 
  758000    1.0056592    -2.752063    -2.752063   -1.5852064  0.068148305    -2.752063    1.1668566   563356 
  759000    1.0072244   -2.7534122   -2.7534122   -1.5847395  0.051185515   -2.7534122    1.1686727   563356 
  760000    1.0064806   -2.7514352   -2.7514352   -1.5836255   0.05950697   -2.7514352    1.1678096   563356 
  761000    1.0077237   -2.7532124   -2.7532124   -1.5839604  0.069559152   -2.7532124     1.169252   563356 
  762000    1.0061212    -2.751841    -2.751841   -1.5844483  0.069132488    -2.751841    1.1673927   563356 
  763000    1.0076739   -2.7535984   -2.7535984   -1.5844041   0.05150937   -2.7535984    1.1691943   563356 
  764000    1.0071877   -2.7524805   -2.7524805   -1.5838504   0.06838935   -2.7524805    1.1686301   563356 
  765000    1.0064705   -2.7523807   -2.7523807   -1.5845827   0.06183982   -2.7523807     1.167798   563356 
  766000    1.0067617   -2.7528384   -2.7528384   -1.5847025   0.06165494   -2.7528384    1.1681359   563356 
  767000    1.0080801   -2.7543802   -2.7543802   -1.5847146  0.058944664   -2.7543802    1.1696656   563356 
  768000    1.0075787   -2.7534581   -2.7534581   -1.5843743  0.062225231   -2.7534581    1.1690838   563356 
  769000    1.0087471   -2.7552463   -2.7552463   -1.5848068  0.069172831   -2.7552463    1.1704395   563356 
  770000    1.0069049   -2.7543664   -2.7543664   -1.5860644  0.060573645   -2.7543664     1.168302   563356 
  771000    1.0060425   -2.7526325   -2.7526325   -1.5853311  0.080654074   -2.7526325    1.1673014   563356 
  772000    1.0060068   -2.7528051   -2.7528051   -1.5855452  0.052305143   -2.7528051    1.1672599   563356 
  773000    1.0072326   -2.7536553   -2.7536553    -1.584973  0.060519415   -2.7536553    1.1686822   563356 
  774000    1.0071512   -2.7536481   -2.7536481   -1.5850603  0.056195876   -2.7536481    1.1685878   563356 
  775000    1.0064071   -2.7528396   -2.7528396   -1.5851151  0.063086856   -2.7528396    1.1677244   563356 
  776000    1.0070641   -2.7527654   -2.7527654   -1.5842787  0.067501258   -2.7527654    1.1684867   563356 
  777000    1.0078646   -2.7530655   -2.7530655     -1.58365  0.053816807   -2.7530655    1.1694155   563356 
  778000    1.0076585   -2.7530408   -2.7530408   -1.5838644  0.061911084   -2.7530408    1.1691764   563356 
  779000    1.0052485   -2.7503111   -2.7503111    -1.583931  0.068984429   -2.7503111      1.16638   563356 
  780000    1.0063135   -2.7525975   -2.7525975   -1.5849817  0.057317581   -2.7525975    1.1676158   563356 
  781000    1.0064278   -2.7521628   -2.7521628   -1.5844144  0.064996096   -2.7521628    1.1677484   563356 
  782000    1.0056424   -2.7515507   -2.7515507   -1.5847135  0.061341462   -2.7515507    1.1668372   563356 
  783000    1.0075433   -2.7542539   -2.7542539   -1.5852112  0.067794789   -2.7542539    1.1690427   563356 
  784000    1.0067968   -2.7539609   -2.7539609   -1.5857844  0.060294449   -2.7539609    1.1681766   563356 
  785000    1.0073448   -2.7544773   -2.7544773   -1.5856649  0.058930211   -2.7544773    1.1688124   563356 
  786000    1.0074666   -2.7540364   -2.7540364   -1.5850826  0.059601623   -2.7540364    1.1689538   563356 
  787000    1.0086385   -2.7559195   -2.7559195    -1.585606  0.064365279   -2.7559195    1.1703134   563356 
  788000    1.0072371   -2.7543367   -2.7543367   -1.5856493  0.066938566   -2.7543367    1.1686874   563356 
  789000     1.008189   -2.7544745   -2.7544745   -1.5846826  0.064609854   -2.7544745    1.1697919   563356 
  790000    1.0078469   -2.7543918   -2.7543918   -1.5849969  0.059784597   -2.7543918    1.1693949   563356 
  791000     1.006661   -2.7531641   -2.7531641   -1.5851451  0.072096195   -2.7531641    1.1680189   563356 
  792000    1.0080566   -2.7547159   -2.7547159   -1.5850776  0.070906048   -2.7547159    1.1696383   563356 
  793000    1.0080104   -2.7537772   -2.7537772   -1.5841925  0.059056413   -2.7537772    1.1695847   563356 
  794000    1.0051109   -2.7508648   -2.7508648   -1.5846444  0.067050189   -2.7508648    1.1662204   563356 
  795000    1.0071402   -2.7524151   -2.7524151   -1.5838401  0.066980487   -2.7524151     1.168575   563356 
  796000    1.0057107   -2.7513642   -2.7513642   -1.5844478  0.074049885   -2.7513642    1.1669163   563356 
  797000    1.0042379   -2.7497645   -2.7497645    -1.584557  0.060357269   -2.7497645    1.1652075   563356 
  798000    1.0068002   -2.7528348   -2.7528348   -1.5846543   0.06034652   -2.7528348    1.1681805   563356 
  799000    1.0063855   -2.7522274   -2.7522274   -1.5845281    0.0658911   -2.7522274    1.1676993   563356 
  800000    1.0072772   -2.7530282   -2.7530282   -1.5842943  0.056041463   -2.7530282     1.168734   563356 
  801000    1.0071785     -2.75453     -2.75453   -1.5859106  0.055775032     -2.75453    1.1686194   563356 
  802000    1.0069814   -2.7548954   -2.7548954   -1.5865046  0.054791262   -2.7548954    1.1683907   563356 
  803000     1.007123   -2.7548883   -2.7548883   -1.5863333  0.059960707   -2.7548883     1.168555   563356 
  804000    1.0068321   -2.7542468   -2.7542468   -1.5860293  0.062582054   -2.7542468    1.1682175   563356 
  805000    1.0074599   -2.7554634   -2.7554634   -1.5865174  0.062932294   -2.7554634     1.168946   563356 
  806000    1.0059532   -2.7534615   -2.7534615   -1.5862637   0.06862471   -2.7534615    1.1671978   563356 
  807000    1.0085288   -2.7567087   -2.7567087   -1.5865226  0.062970622   -2.7567087    1.1701862   563356 
  808000    1.0073237    -2.754916    -2.754916   -1.5861281  0.059457641    -2.754916    1.1687879   563356 
  809000    1.0066074   -2.7544038   -2.7544038   -1.5864471  0.074217277   -2.7544038    1.1679568   563356 
  810000    1.0059167   -2.7541262   -2.7541262   -1.5869708  0.056755942   -2.7541262    1.1671553   563356 
  811000    1.0040009   -2.7519079   -2.7519079   -1.5869754  0.061343142   -2.7519079    1.1649325   563356 
  812000    1.0077211   -2.7557023   -2.7557023   -1.5864533  0.061814721   -2.7557023     1.169249   563356 
  813000    1.0055614    -2.754447    -2.754447   -1.5877039  0.062274095    -2.754447    1.1667431   563356 
  814000    1.0053597   -2.7538235   -2.7538235   -1.5873145  0.063074166   -2.7538235    1.1665091   563356 
  815000    1.0070306   -2.7557511   -2.7557511   -1.5873032  0.054891133   -2.7557511    1.1684479   563356 
  816000    1.0067452   -2.7561997   -2.7561997    -1.588083  0.073103114   -2.7561997    1.1681167   563356 
  817000    1.0050178   -2.7541609   -2.7541609   -1.5880485  0.061953637   -2.7541609    1.1661124   563356 
  818000    1.0065931    -2.757516    -2.757516   -1.5895758  0.057003282    -2.757516    1.1679402   563356 
  819000     1.005695   -2.7559679   -2.7559679   -1.5890697  0.071805468   -2.7559679    1.1668982   563356 
  820000    1.0064593   -2.7566139   -2.7566139    -1.588829  0.062974718   -2.7566139     1.167785   563356 
  821000    1.0060057   -2.7563544   -2.7563544   -1.5890957  0.076083452   -2.7563544    1.1672587   563356 
  822000    1.0069237   -2.7579634   -2.7579634   -1.5896396  0.066788513   -2.7579634    1.1683238   563356 
  823000    1.0061095    -2.756766    -2.756766    -1.589387  0.058778512    -2.756766    1.1673791   563356 
  824000    1.0070404   -2.7574963   -2.7574963   -1.5890371  0.067804685   -2.7574963    1.1684592   563356 
  825000    1.0066622   -2.7574131   -2.7574131   -1.5893926  0.069209495   -2.7574131    1.1680204   563356 
  826000     1.005577   -2.7563868   -2.7563868   -1.5896255  0.057449843   -2.7563868    1.1667613   563356 
  827000    1.0080171   -2.7590234   -2.7590234    -1.589431  0.065215501   -2.7590234    1.1695925   563356 
  828000    1.0071764   -2.7580349   -2.7580349   -1.5894178  0.062433299   -2.7580349     1.168617   563356 
  829000    1.0061431   -2.7564779   -2.7564779   -1.5890599  0.067987806   -2.7564779     1.167418   563356 
  830000    1.0060629   -2.7571374   -2.7571374   -1.5898124   0.06434048   -2.7571374     1.167325   563356 
  831000    1.0072365   -2.7575376   -2.7575376   -1.5888508  0.068489087   -2.7575376    1.1686868   563356 
  832000    1.0063187   -2.7557595   -2.7557595   -1.5881377  0.058165224   -2.7557595    1.1676218   563356 
  833000    1.0076731   -2.7572407   -2.7572407   -1.5880473  0.062263502   -2.7572407    1.1691934   563356 
  834000    1.0064206   -2.7563457   -2.7563457   -1.5886056  0.057923291   -2.7563457      1.16774   563356 
  835000    1.0075591   -2.7577741   -2.7577741   -1.5887131   0.05992988   -2.7577741     1.169061   563356 
  836000    1.0069133   -2.7565061   -2.7565061   -1.5881943   0.05499475   -2.7565061    1.1683118   563356 
  837000    1.0057988   -2.7557455   -2.7557455    -1.588727  0.063588127   -2.7557455    1.1670185   563356 
  838000    1.0071842    -2.756712    -2.756712   -1.5880859   0.05612333    -2.756712    1.1686261   563356 
  839000    1.0051384   -2.7546083   -2.7546083    -1.588356  0.064961119   -2.7546083    1.1662523   563356 
  840000    1.0080021   -2.7579939   -2.7579939   -1.5884188  0.055965053   -2.7579939    1.1695751   563356 
  841000    1.0079832   -2.7584497   -2.7584497   -1.5888965  0.065564166   -2.7584497    1.1695532   563356 
  842000    1.0080576   -2.7587172   -2.7587172   -1.5890778  0.061272054   -2.7587172    1.1696394   563356 
  843000    1.0075399   -2.7589621   -2.7589621   -1.5899233  0.062594834   -2.7589621    1.1690388   563356 
  844000    1.0081213   -2.7591872   -2.7591872   -1.5894738  0.057680313   -2.7591872    1.1697134   563356 
  845000    1.0071824   -2.7582874   -2.7582874   -1.5896635  0.052026194   -2.7582874    1.1686239   563356 
  846000    1.0055772   -2.7564053   -2.7564053   -1.5896438  0.061780262   -2.7564053    1.1667615   563356 
  847000    1.0070987   -2.7578941   -2.7578941   -1.5893673  0.074338142   -2.7578941    1.1685269   563356 
  848000    1.0057361   -2.7572725   -2.7572725   -1.5903267  0.065753253   -2.7572725    1.1669459   563356 
  849000    1.0054103   -2.7574569   -2.7574569   -1.5908891  0.065225869   -2.7574569    1.1665678   563356 
  850000     1.006633   -2.7587379   -2.7587379   -1.5907514  0.058922594   -2.7587379    1.1679865   563356 
  851000    1.0068969   -2.7582682   -2.7582682   -1.5899755  0.067376915   -2.7582682    1.1682927   563356 
  852000    1.0057246   -2.7567419   -2.7567419   -1.5898095  0.069389695   -2.7567419    1.1669325   563356 
  853000    1.0082531   -2.7592677   -2.7592677   -1.5894014   0.06259709   -2.7592677    1.1698663   563356 
  854000    1.0085408   -2.7597079   -2.7597079   -1.5895078  0.059620263   -2.7597079    1.1702001   563356 
  855000    1.0075798   -2.7589458   -2.7589458   -1.5898608  0.060194431   -2.7589458    1.1690851   563356 
  856000    1.0069134   -2.7586609   -2.7586609   -1.5903491  0.069982628   -2.7586609    1.1683118   563356 
  857000     1.008943   -2.7612361   -2.7612361   -1.5905693  0.071775519   -2.7612361    1.1706668   563356 
  858000    1.0084281   -2.7610725   -2.7610725   -1.5910032   0.06256777   -2.7610725    1.1700693   563356 
  859000    1.0067527   -2.7593858   -2.7593858   -1.5912604  0.064497463   -2.7593858    1.1681253   563356 
  860000    1.0066839   -2.7590769   -2.7590769   -1.5910313  0.074928973   -2.7590769    1.1680456   563356 
  861000    1.0086737   -2.7616915   -2.7616915   -1.5913371  0.066011456   -2.7616915    1.1703544   563356 
  862000    1.0079596   -2.7599638   -2.7599638    -1.590438  0.064870046   -2.7599638    1.1695258   563356 
  863000    1.0071719   -2.7598692   -2.7598692   -1.5912575   0.05728284   -2.7598692    1.1686118   563356 
  864000    1.0063627    -2.759838    -2.759838   -1.5921651  0.053849374    -2.759838    1.1676728   563356 
  865000    1.0056901   -2.7595039   -2.7595039   -1.5926114  0.056025023   -2.7595039    1.1668925   563356 
  866000    1.0051807   -2.7585484   -2.7585484    -1.592247  0.067544078   -2.7585484    1.1663014   563356 
  867000    1.0050231   -2.7578108   -2.7578108   -1.5916922  0.073931126   -2.7578108    1.1661185   563356 
  868000     1.005678   -2.7572543   -2.7572543   -1.5903759   0.05133721   -2.7572543    1.1668784   563356 
  869000    1.0063726     -2.75771     -2.75771   -1.5900257  0.058321718     -2.75771    1.1676843   563356 
  870000    1.0070791   -2.7582394   -2.7582394   -1.5897353  0.055727916   -2.7582394    1.1685041   563356 
  871000    1.0074929   -2.7578905   -2.7578905   -1.5889063  0.065608718   -2.7578905    1.1689842   563356 
  872000    1.0073586   -2.7585942   -2.7585942   -1.5897659  0.059927552   -2.7585942    1.1688284   563356 
  873000    1.0087034   -2.7600702   -2.7600702   -1.5896814  0.061877908   -2.7600702    1.1703888   563356 
  874000    1.0071032   -2.7595369   -2.7595369   -1.5910048  0.060886219   -2.7595369    1.1685321   563356 
  875000    1.0067987   -2.7598353   -2.7598353   -1.5916566  0.070527139   -2.7598353    1.1681788   563356 
  876000    1.0070705   -2.7598263   -2.7598263   -1.5913321  0.067877113   -2.7598263    1.1684942   563356 
  877000    1.0080317   -2.7608421   -2.7608421   -1.5912326  0.052353802   -2.7608421    1.1696094   563356 
  878000     1.005629    -2.758406    -2.758406   -1.5915844  0.054781561    -2.758406    1.1668216   563356 
  879000    1.0040623   -2.7569817   -2.7569817   -1.5919779  0.065800074   -2.7569817    1.1650038   563356 
  880000    1.0041534   -2.7576329   -2.7576329   -1.5925235  0.064932728   -2.7576329    1.1651095   563356 
  881000    1.0043877   -2.7571563   -2.7571563   -1.5917749  0.065450296   -2.7571563    1.1653814   563356 
  882000    1.0064484   -2.7603182   -2.7603182   -1.5925459  0.057200518   -2.7603182    1.1677723   563356 
  883000    1.0062182   -2.7598837   -2.7598837   -1.5923785  0.077759403   -2.7598837    1.1675052   563356 
  884000    1.0069614   -2.7608538   -2.7608538   -1.5924862  0.067223729   -2.7608538    1.1683676   563356 
  885000    1.0064149   -2.7607688   -2.7607688   -1.5930354  0.062332891   -2.7607688    1.1677335   563356 
  886000    1.0071233   -2.7620539   -2.7620539   -1.5934984  0.051638347   -2.7620539    1.1685554   563356 
  887000    1.0073454    -2.761227    -2.761227   -1.5924139  0.068865883    -2.761227    1.1688131   563356 
  888000    1.0069112   -2.7612567   -2.7612567   -1.5929475  0.059253412   -2.7612567    1.1683093   563356 
  889000    1.0080937   -2.7624587   -2.7624587   -1.5927773  0.057795206   -2.7624587    1.1696814   563356 
  890000    1.0086422   -2.7624019   -2.7624019   -1.5920842  0.071958047   -2.7624019    1.1703177   563356 
  891000    1.0070373   -2.7609825   -2.7609825   -1.5925268  0.062328518   -2.7609825    1.1684557   563356 
  892000    1.0057681   -2.7580451   -2.7580451    -1.591062  0.067551409   -2.7580451     1.166983   563356 
  893000    1.0041787   -2.7564302   -2.7564302   -1.5912914  0.057774881   -2.7564302    1.1651388   563356 
  894000    1.0039536   -2.7564187   -2.7564187    -1.591541    0.0598619   -2.7564187    1.1648777   563356 
  895000    1.0039945   -2.7573547   -2.7573547   -1.5924297   0.06126644   -2.7573547    1.1649251   563356 
  896000    1.0054309   -2.7578071   -2.7578071   -1.5912154  0.065766953   -2.7578071    1.1665918   563356 
  897000     1.006443   -2.7592198   -2.7592198   -1.5914537  0.069502266   -2.7592198    1.1677661   563356 
  898000    1.0061451   -2.7591221   -2.7591221   -1.5917017  0.060498744   -2.7591221    1.1674204   563356 
  899000    1.0057078   -2.7588034   -2.7588034   -1.5918904  0.062265949   -2.7588034     1.166913   563356 
  900000    1.0062474   -2.7592015   -2.7592015   -1.5916624  0.059772813   -2.7592015    1.1675391   563356 
  901000    1.0065003   -2.7594788   -2.7594788   -1.5916463  0.070618442   -2.7594788    1.1678325   563356 
  902000    1.0064392   -2.7594884   -2.7594884   -1.5917267  0.061425065   -2.7594884    1.1677616   563356 
  903000    1.0057245   -2.7588072   -2.7588072   -1.5918748  0.069517999   -2.7588072    1.1669324   563356 
  904000    1.0055885   -2.7595363   -2.7595363   -1.5927618   0.06616279   -2.7595363    1.1667746   563356 
  905000     1.006772   -2.7603056   -2.7603056   -1.5921578  0.066297362   -2.7603056    1.1681478   563356 
  906000     1.006606   -2.7599655   -2.7599655   -1.5920104  0.064887597   -2.7599655    1.1679552   563356 
  907000    1.0055836    -2.759062    -2.759062   -1.5922931  0.062697383    -2.759062    1.1667689   563356 
  908000    1.0043078   -2.7578389   -2.7578389   -1.5925503  0.074478781   -2.7578389    1.1652886   563356 
  909000    1.0063264   -2.7599842   -2.7599842   -1.5923534  0.052039799   -2.7599842    1.1676307   563356 
  910000    1.0057851   -2.7605321   -2.7605321   -1.5935294  0.058464763   -2.7605321    1.1670027   563356 
  911000    1.0052138   -2.7603419   -2.7603419   -1.5940021  0.056338929   -2.7603419    1.1663398   563356 
  912000    1.0049795   -2.7595621   -2.7595621   -1.5934942  0.065044544   -2.7595621    1.1660679   563356 
  913000     1.006274   -2.7615482   -2.7615482   -1.5939783  0.071837563   -2.7615482    1.1675699   563356 
  914000    1.0068055   -2.7627836   -2.7627836    -1.594597  0.060856701   -2.7627836    1.1681867   563356 
  915000    1.0065926   -2.7623819   -2.7623819   -1.5944422  0.069060933   -2.7623819    1.1679397   563356 
  916000    1.0068178   -2.7618728   -2.7618728   -1.5936718  0.068288052   -2.7618728     1.168201   563356 
  917000    1.0068545   -2.7637601   -2.7637601   -1.5955167  0.062437074   -2.7637601    1.1682435   563356 
  918000    1.0059352   -2.7631473   -2.7631473   -1.5959704   0.06906407   -2.7631473    1.1671769   563356 
  919000     1.005068    -2.761662    -2.761662   -1.5954913  0.064561799    -2.761662    1.1661707   563356 
  920000    1.0055157   -2.7619661   -2.7619661   -1.5952761  0.057512092   -2.7619661    1.1666901   563356 
  921000    1.0054145   -2.7617243   -2.7617243   -1.5951516  0.066351872   -2.7617243    1.1665727   563356 
  922000    1.0057986   -2.7622295   -2.7622295   -1.5952112   0.06228181   -2.7622295    1.1670183   563356 
  923000    1.0070318   -2.7629194   -2.7629194   -1.5944702  0.063233619   -2.7629194    1.1684492   563356 
  924000    1.0066339   -2.7629386   -2.7629386   -1.5949511  0.064762827   -2.7629386    1.1679875   563356 
  925000    1.0050177   -2.7609631   -2.7609631   -1.5948508  0.066374834   -2.7609631    1.1661123   563356 
  926000    1.0064417   -2.7634273   -2.7634273   -1.5956627  0.071426911   -2.7634273    1.1677646   563356 
  927000    1.0047688   -2.7618882   -2.7618882   -1.5960647  0.056457229   -2.7618882    1.1658235   563356 
  928000     1.006692   -2.7639525   -2.7639525   -1.5958975  0.057453164   -2.7639525     1.168055   563356 
  929000    1.0060156   -2.7632786   -2.7632786   -1.5960085  0.057518986   -2.7632786    1.1672701   563356 
  930000    1.0052252   -2.7629112   -2.7629112   -1.5965581  0.059128313   -2.7629112     1.166353   563356 
  931000    1.0060704   -2.7642529   -2.7642529   -1.5969192   0.05943533   -2.7642529    1.1673338   563356 
  932000     1.005435   -2.7636698   -2.7636698   -1.5970733  0.067532893   -2.7636698    1.1665964   563356 
  933000    1.0052055    -2.763263    -2.763263   -1.5969328  0.055009583    -2.763263    1.1663302   563356 
  934000    1.0065351   -2.7643707   -2.7643707   -1.5964978  0.065960283   -2.7643707    1.1678729   563356 
  935000    1.0055605   -2.7631884   -2.7631884   -1.5964463  0.059489502   -2.7631884    1.1667421   563356 
  936000      1.00518   -2.7625123   -2.7625123   -1.5962118   0.05948718   -2.7625123    1.1663006   563356 
  937000     1.005012   -2.7622033   -2.7622033   -1.5960976  0.066010754   -2.7622033    1.1661057   563356 
  938000    1.0053714   -2.7623966   -2.7623966    -1.595874  0.046552883   -2.7623966    1.1665227   563356 
  939000    1.0036978   -2.7608613   -2.7608613   -1.5962805  0.053397412   -2.7608613    1.1645808   563356 
  940000    1.0046121   -2.7616873   -2.7616873   -1.5960457  0.050432756   -2.7616873    1.1656416   563356 
  941000    1.0048504   -2.7623627   -2.7623627   -1.5964446  0.053157806   -2.7623627    1.1659181   563356 
  942000    1.0057375   -2.7629599   -2.7629599   -1.5960125  0.063819961   -2.7629599    1.1669474   563356 
  943000    1.0052911   -2.7610746   -2.7610746   -1.5946451  0.052786794   -2.7610746    1.1664295   563356 
  944000    1.0054457   -2.7615141   -2.7615141   -1.5949052  0.064139749   -2.7615141    1.1666089   563356 
  945000    1.0067664    -2.763721    -2.763721   -1.5955797  0.070772285    -2.763721    1.1681413   563356 
  946000    1.0075955    -2.764648    -2.764648   -1.5955447  0.066733695    -2.764648    1.1691033   563356 
  947000    1.0083944    -2.765251    -2.765251   -1.5952208  0.065216389    -2.765251    1.1700302   563356 
  948000    1.0067088   -2.7633818   -2.7633818   -1.5953073  0.062284727   -2.7633818    1.1680745   563356 
  949000    1.0065008   -2.7625319   -2.7625319   -1.5946987  0.062296806   -2.7625319    1.1678332   563356 
  950000    1.0070592   -2.7640743   -2.7640743   -1.5955933  0.060048713   -2.7640743     1.168481   563356 
  951000    1.0070083   -2.7633872   -2.7633872   -1.5949652  0.057215137   -2.7633872     1.168422   563356 
  952000    1.0071401   -2.7642507   -2.7642507   -1.5956758  0.057792085   -2.7642507    1.1685749   563356 
  953000    1.0060531   -2.7625162   -2.7625162   -1.5952025  0.073286525   -2.7625162    1.1673137   563356 
  954000    1.0055427   -2.7631889   -2.7631889   -1.5964674  0.064616712   -2.7631889    1.1667215   563356 
  955000    1.0042418   -2.7621677   -2.7621677   -1.5969557  0.053477633   -2.7621677     1.165212   563356 
  956000    1.0036999   -2.7619064   -2.7619064   -1.5973232  0.062275502   -2.7619064    1.1645832   563356 
  957000    1.0050867   -2.7636874   -2.7636874   -1.5974951  0.050231508   -2.7636874    1.1661923   563356 
  958000    1.0050994   -2.7627641   -2.7627641   -1.5965571  0.057400841   -2.7627641    1.1662071   563356 
  959000    1.0059407   -2.7638584   -2.7638584   -1.5966752  0.056225072   -2.7638584    1.1671832   563356 
  960000    1.0066218   -2.7651719   -2.7651719   -1.5971983  0.065392575   -2.7651719    1.1679736   563356 
  961000    1.0073099   -2.7660574   -2.7660574   -1.5972855  0.057057595   -2.7660574    1.1687719   563356 
  962000    1.0070787    -2.766102    -2.766102   -1.5975983  0.053795588    -2.766102    1.1685037   563356 
  963000    1.0068072   -2.7650409   -2.7650409   -1.5968522  0.055441387   -2.7650409    1.1681886   563356 
  964000    1.0073034   -2.7663262   -2.7663262   -1.5975619  0.059541062   -2.7663262    1.1687643   563356 
  965000    1.0035951    -2.763364    -2.763364   -1.5989023  0.074386388    -2.763364    1.1644616   563356 
  966000    1.0043387   -2.7642459   -2.7642459   -1.5989214  0.063754897   -2.7642459    1.1653245   563356 
  967000    1.0060805   -2.7656676   -2.7656676   -1.5983221  0.057179952   -2.7656676    1.1673455   563356 
  968000    1.0042513   -2.7642614   -2.7642614   -1.5990383  0.059910774   -2.7642614    1.1652231   563356 
  969000    1.0043628   -2.7637644   -2.7637644    -1.598412  0.053037599   -2.7637644    1.1653524   563356 
  970000    1.0037894   -2.7630365   -2.7630365   -1.5983494  0.063827579   -2.7630365    1.1646871   563356 
  971000    1.0046795   -2.7633461   -2.7633461   -1.5976263  0.060770679   -2.7633461    1.1657198   563356 
  972000    1.0043057   -2.7629619   -2.7629619   -1.5976757  0.058956769   -2.7629619    1.1652862   563356 
  973000    1.0033819   -2.7627833   -2.7627833    -1.598569  0.067820124   -2.7627833    1.1642143   563356 
  974000    1.0050882   -2.7640756   -2.7640756   -1.5978815  0.069200809   -2.7640756    1.1661941   563356 
  975000    1.0063226   -2.7652535   -2.7652535   -1.5976272  0.059778749   -2.7652535    1.1676263   563356 
  976000    1.0057052   -2.7639905   -2.7639905   -1.5970805  0.062593261   -2.7639905      1.16691   563356 
  977000    1.0064289   -2.7654359   -2.7654359   -1.5976862  0.056755288   -2.7654359    1.1677497   563356 
  978000    1.0073891   -2.7654989   -2.7654989   -1.5966351  0.060345173   -2.7654989    1.1688638   563356 
  979000    1.0065723   -2.7642074   -2.7642074   -1.5962914  0.054720232   -2.7642074     1.167916   563356 
  980000    1.0059856   -2.7631482   -2.7631482   -1.5959128   0.06130525   -2.7631482    1.1672354   563356 
  981000    1.0063214   -2.7634574   -2.7634574   -1.5958325  0.069961595   -2.7634574    1.1676249   563356 
  982000    1.0048642     -2.76168     -2.76168   -1.5957458  0.063713345     -2.76168    1.1659342   563356 
  983000     1.005836   -2.7629754   -2.7629754   -1.5959137  0.058944391   -2.7629754    1.1670617   563356 
  984000    1.0063851   -2.7624415   -2.7624415   -1.5947427  0.053222212   -2.7624415    1.1676988   563356 
  985000    1.0047906   -2.7614663   -2.7614663   -1.5956175  0.062902802   -2.7614663    1.1658488   563356 
  986000    1.0061371   -2.7629852   -2.7629852   -1.5955741  0.066679085   -2.7629852    1.1674111   563356 
  987000    1.0047965   -2.7620417   -2.7620417   -1.5961861  0.064924666   -2.7620417    1.1658556   563356 
  988000     1.005602    -2.762223    -2.762223   -1.5954328  0.057191168    -2.762223    1.1667902   563356 
  989000    1.0058761    -2.763437    -2.763437   -1.5963287  0.053807708    -2.763437    1.1671083   563356 
  990000    1.0054415   -2.7621986   -2.7621986   -1.5955946  0.070550295   -2.7621986     1.166604   563356 
  991000    1.0064633    -2.764298    -2.764298   -1.5965084  0.060273764    -2.764298    1.1677896   563356 
  992000    1.0070285   -2.7650485   -2.7650485   -1.5966031  0.059569365   -2.7650485    1.1684454   563356 
  993000    1.0064831   -2.7646395   -2.7646395   -1.5968269  0.050948987   -2.7646395    1.1678125   563356 
  994000    1.0063631   -2.7646408   -2.7646408   -1.5969675  0.071375439   -2.7646408    1.1676733   563356 
  995000    1.0057757   -2.7646357   -2.7646357   -1.5976439  0.071889239   -2.7646357    1.1669918   563356 
  996000    1.0069986   -2.7655784   -2.7655784   -1.5971677   0.06247145   -2.7655784    1.1684107   563356 
  997000    1.0051813    -2.763128    -2.763128   -1.5968259  0.059523337    -2.763128    1.1663021   563356 
  998000    1.0041159   -2.7619649   -2.7619649    -1.596899  0.064774355   -2.7619649    1.1650659   563356 
  999000     1.004495   -2.7629139   -2.7629139   -1.5974082  0.055469533   -2.7629139    1.1655058   563356 
 1000000    1.0051015    -2.762739    -2.762739   -1.5965295  0.062888625    -2.762739    1.1662095   563356 
 1001000    1.0046731   -2.7622424   -2.7622424     -1.59653  0.057279522   -2.7622424    1.1657124   563356 
 1002000    1.0034822   -2.7616783   -2.7616783   -1.5973476    0.0559388   -2.7616783    1.1643307   563356 
 1003000    1.0036887   -2.7628759   -2.7628759   -1.5983057  0.054065956   -2.7628759    1.1645703   563356 
 1004000    1.0039916    -2.761995    -2.761995   -1.5970733  0.061263452    -2.761995    1.1649217   563356 
 1005000    1.0054535   -2.7638837   -2.7638837   -1.5972657  0.055579097   -2.7638837     1.166618   563356 
 1006000    1.0043654   -2.7616016   -2.7616016   -1.5962462  0.058047631   -2.7616016    1.1653554   563356 
 1007000      1.00609    -2.763666    -2.763666   -1.5963095  0.053585074    -2.763666    1.1673565   563356 
 1008000    1.0056973   -2.7625682   -2.7625682   -1.5956674   0.06428873   -2.7625682    1.1669008   563356 
 1009000    1.0048469   -2.7621881   -2.7621881   -1.5962739  0.054688863   -2.7621881    1.1659142   563356 
 1010000    1.0052703   -2.7624659   -2.7624659   -1.5960605  0.064773045   -2.7624659    1.1664054   563356 
 1011000    1.0041253   -2.7608264   -2.7608264   -1.5957496  0.060241135   -2.7608264    1.1650768   563356 
 1012000    1.0038605   -2.7600478   -2.7600478   -1.5952782  0.060638615   -2.7600478    1.1647696   563356 
 1013000    1.0059196   -2.7622616   -2.7622616   -1.5951028  0.062035792   -2.7622616    1.1671588   563356 
 1014000    1.0052263   -2.7618762   -2.7618762   -1.5955219  0.059712059   -2.7618762    1.1663543   563356 
 1015000    1.0056281   -2.7623695   -2.7623695    -1.595549  0.063936954   -2.7623695    1.1668205   563356 
 1016000    1.0049657   -2.7629341   -2.7629341   -1.5968821  0.059097072   -2.7629341    1.1660519   563356 
 1017000    1.0050127   -2.7633748   -2.7633748   -1.5972684   0.06314561   -2.7633748    1.1661065   563356 
 1018000    1.0048233   -2.7632571   -2.7632571   -1.5973704  0.067812681   -2.7632571    1.1658867   563356 
 1019000    1.0056413   -2.7642304   -2.7642304   -1.5973945  0.064734537   -2.7642304    1.1668359   563356 
 1020000    1.0065171   -2.7656693   -2.7656693   -1.5978173  0.064252867   -2.7656693     1.167852   563356 
 1021000    1.0065559   -2.7661935   -2.7661935   -1.5982964  0.056749116   -2.7661935    1.1678971   563356 
 1022000    1.0067237   -2.7659467   -2.7659467    -1.597855  0.057857072   -2.7659467    1.1680917   563356 
 1023000    1.0064457   -2.7661417   -2.7661417   -1.5983725  0.053914292   -2.7661417    1.1677691   563356 
 1024000    1.0058653   -2.7656123   -2.7656123   -1.5985165  0.055375427   -2.7656123    1.1670958   563356 
 1025000    1.0069189   -2.7659645   -2.7659645   -1.5976462  0.052923905   -2.7659645    1.1683183   563356 
 1026000    1.0072293   -2.7658125   -2.7658125   -1.5971342  0.063298628   -2.7658125    1.1686784   563356 
 1027000    1.0048481   -2.7632547   -2.7632547   -1.5973392  0.058465317   -2.7632547    1.1659156   563356 
 1028000    1.0061635   -2.7646558   -2.7646558   -1.5972141  0.061438455   -2.7646558    1.1674417   563356 
 1029000    1.0057104   -2.7644966   -2.7644966   -1.5975806  0.060898529   -2.7644966     1.166916   563356 
 1030000    1.0053481   -2.7635115   -2.7635115   -1.5970159  0.057695722   -2.7635115    1.1664956   563356 
 1031000    1.0036172   -2.7610547   -2.7610547   -1.5965674  0.069645586   -2.7610547    1.1644873   563356 
 1032000     1.006327   -2.7650033   -2.7650033   -1.5973718  0.064431836   -2.7650033    1.1676315   563356 
 1033000    1.0043403   -2.7635212   -2.7635212    -1.598195  0.072970305   -2.7635212    1.1653263   563356 
 1034000    1.0053711   -2.7640707   -2.7640707   -1.5975484  0.069690759   -2.7640707    1.1665223   563356 
 1035000    1.0068989   -2.7658095   -2.7658095   -1.5975145  0.066049033   -2.7658095     1.168295   563356 
 1036000    1.0040603    -2.763036    -2.763036   -1.5980346  0.068272011    -2.763036    1.1650014   563356 
 1037000    1.0054156   -2.7646202   -2.7646202   -1.5980463  0.057345249   -2.7646202     1.166574   563356 
 1038000    1.0039571   -2.7637061   -2.7637061   -1.5988245  0.062130839   -2.7637061    1.1648816   563356 
 1039000    1.0049661    -2.765247    -2.765247   -1.5991945  0.047003607    -2.765247    1.1660525   563356 
 1040000    1.0036692   -2.7640154   -2.7640154   -1.5994677  0.058866986   -2.7640154    1.1645477   563356 
 1041000    1.0034814   -2.7631814   -2.7631814   -1.5988517  0.062156718   -2.7631814    1.1643297   563356 
 1042000    1.0040138   -2.7639538   -2.7639538   -1.5990063  0.062480306   -2.7639538    1.1649475   563356 
 1043000    1.0061587   -2.7654231   -2.7654231   -1.5979868   0.04790449   -2.7654231    1.1674362   563356 
 1044000    1.0046667   -2.7641793   -2.7641793   -1.5984742  0.063677484   -2.7641793    1.1657051   563356 
 1045000    1.0051358   -2.7647395   -2.7647395   -1.5984902  0.054393235   -2.7647395    1.1662493   563356 
 1046000    1.0057917   -2.7656275   -2.7656275   -1.5986171  0.054956481   -2.7656275    1.1670104   563356 
 1047000    1.0065578   -2.7675254   -2.7675254   -1.5996261  0.071262011   -2.7675254    1.1678993   563356 
 1048000    1.0052283   -2.7659116   -2.7659116   -1.5995549  0.054323227   -2.7659116    1.1663567   563356 
 1049000    1.0038778   -2.7647774   -2.7647774   -1.5999878  0.064881602   -2.7647774    1.1647896   563356 
 1050000    1.0041945   -2.7657061   -2.7657061    -1.600549   0.06929672   -2.7657061    1.1651571   563356 
 1051000    1.0045777   -2.7655414   -2.7655414   -1.5999396  0.069528896   -2.7655414    1.1656018   563356 
 1052000    1.0046613   -2.7658145   -2.7658145   -1.6001157  0.054126283   -2.7658145    1.1656988   563356 
 1053000    1.0071931   -2.7686962   -2.7686962   -1.6000598  0.059679247   -2.7686962    1.1686363   563356 
 1054000    1.0050295    -2.767022    -2.767022   -1.6008961  0.064097718    -2.767022    1.1661259   563356 
 1055000    1.0039927   -2.7661925   -2.7661925   -1.6012695  0.055149607   -2.7661925     1.164923   563356 
 1056000    1.0059854   -2.7687695   -2.7687695   -1.6015344  0.060619627   -2.7687695    1.1672351   563356 
 1057000    1.0049885   -2.7681234   -2.7681234    -1.602045  0.059772621   -2.7681234    1.1660785   563356 
 1058000    1.0052215   -2.7686159   -2.7686159   -1.6022672   0.05907824   -2.7686159    1.1663487   563356 
 1059000    1.0045501   -2.7677673   -2.7677673   -1.6021976  0.067162088   -2.7677673    1.1655698   563356 
 1060000    1.0057544   -2.7689943   -2.7689943   -1.6020273  0.064253326   -2.7689943     1.166967   563356 
 1061000    1.0066424   -2.7697908   -2.7697908   -1.6017933  0.073759933   -2.7697908    1.1679974   563356 
 1062000    1.0063222   -2.7691268   -2.7691268    -1.601501  0.062528965   -2.7691268    1.1676258   563356 
 1063000    1.0064731   -2.7698058   -2.7698058   -1.6020048  0.058140712   -2.7698058    1.1678009   563356 
 1064000    1.0054993   -2.7672214   -2.7672214   -1.6005503   0.05666422   -2.7672214     1.166671   563356 
 1065000     1.005306   -2.7659801   -2.7659801   -1.5995334  0.063326646   -2.7659801    1.1664468   563356 
 1066000    1.0039674   -2.7646269   -2.7646269   -1.5997333  0.063690741   -2.7646269    1.1648936   563356 
 1067000    1.0051041   -2.7662601   -2.7662601   -1.6000476   0.04774942   -2.7662601    1.1662125   563356 
 1068000    1.0048644   -2.7653076   -2.7653076   -1.5993732  0.069634126   -2.7653076    1.1659344   563356 
 1069000    1.0047753   -2.7653606   -2.7653606   -1.5995296  0.075680177   -2.7653606     1.165831   563356 
 1070000    1.0053799   -2.7666888   -2.7666888   -1.6001563  0.058779236   -2.7666888    1.1665325   563356 
 1071000    1.0065672   -2.7688325   -2.7688325   -1.6009223  0.052528867   -2.7688325    1.1679102   563356 
 1072000    1.0070092    -2.769803    -2.769803     -1.60138  0.073061818    -2.769803     1.168423   563356 
 1073000    1.0048699   -2.7676782   -2.7676782   -1.6017374  0.070422173   -2.7676782    1.1659408   563356 
 1074000    1.0053339   -2.7693526   -2.7693526   -1.6028734  0.053987507   -2.7693526    1.1664792   563356 
 1075000     1.004766   -2.7693704   -2.7693704   -1.6035502  0.061327882   -2.7693704    1.1658202   563356 
 1076000    1.0055132   -2.7710771   -2.7710771     -1.60439  0.058155313   -2.7710771    1.1666872   563356 
 1077000    1.0053258   -2.7697249   -2.7697249   -1.6032551  0.061123514   -2.7697249    1.1664698   563356 
 1078000      1.00426   -2.7689375   -2.7689375   -1.6037045  0.061906625   -2.7689375    1.1652331   563356 
 1079000     1.005717   -2.7706325   -2.7706325   -1.6037088    0.0557111   -2.7706325    1.1669237   563356 
 1080000    1.0050691    -2.770798    -2.770798    -1.604626  0.058567261    -2.770798    1.1661719   563356 
 1081000    1.0058635   -2.7707541   -2.7707541   -1.6036604  0.060996274   -2.7707541    1.1670936   563356 
 1082000    1.0044551   -2.7704546   -2.7704546   -1.6049951  0.054950676   -2.7704546    1.1654595   563356 
 1083000    1.0044726   -2.7708677   -2.7708677   -1.6053879  0.052704434   -2.7708677    1.1654798   563356 
 1084000    1.0023069   -2.7692952   -2.7692952   -1.6063282  0.065673439   -2.7692952     1.162967   563356 
 1085000     1.004849   -2.7707186   -2.7707186    -1.604802  0.051699038   -2.7707186    1.1659166   563356 
 1086000    1.0031476   -2.7681283   -2.7681283   -1.6041859  0.065481845   -2.7681283    1.1639425   563356 
 1087000    1.0048606   -2.7709696   -2.7709696   -1.6050396  0.060712038   -2.7709696      1.16593   563356 
 1088000    1.0032816   -2.7692916   -2.7692916   -1.6051937  0.052850511   -2.7692916    1.1640979   563356 
 1089000    1.0033154   -2.7691303   -2.7691303   -1.6049932  0.060610604   -2.7691303    1.1641371   563356 
 1090000    1.0037509   -2.7703518   -2.7703518   -1.6057094  0.055176377   -2.7703518    1.1646424   563356 
 1091000    1.0029934     -2.76917     -2.76917   -1.6054065  0.051736219     -2.76917    1.1637635   563356 
 1092000     1.002393    -2.768253    -2.768253   -1.6051861  0.066434827    -2.768253    1.1630669   563356 
 1093000    1.0043766   -2.7709087   -2.7709087   -1.6055403  0.059675797   -2.7709087    1.1653684   563356 
 1094000    1.0049259   -2.7726058   -2.7726058   -1.6066001  0.046169828   -2.7726058    1.1660058   563356 
 1095000    1.0057536   -2.7719848   -2.7719848   -1.6050187  0.064656877   -2.7719848    1.1669661   563356 
 1096000    1.0056308   -2.7713146   -2.7713146    -1.604491   0.06049919   -2.7713146    1.1668236   563356 
 1097000    1.0055825   -2.7711533   -2.7711533   -1.6043857  0.054440609   -2.7711533    1.1667676   563356 
 1098000    1.0056695   -2.7716077   -2.7716077   -1.6047391  0.069711656   -2.7716077    1.1668686   563356 
 1099000    1.0061014   -2.7727807   -2.7727807    -1.605411  0.060568349   -2.7727807    1.1673696   563356 
 1100000    1.0052496    -2.771307    -2.771307   -1.6049257  0.060890743    -2.771307    1.1663813   563356 
 1101000    1.0053868   -2.7704871   -2.7704871   -1.6039466  0.056227675   -2.7704871    1.1665405   563356 
 1102000    1.0057713   -2.7711768   -2.7711768   -1.6041901  0.072851479   -2.7711768    1.1669867   563356 
 1103000    1.0051379   -2.7708456   -2.7708456   -1.6045938  0.072622621   -2.7708456    1.1662518   563356 
 1104000    1.0031801   -2.7694132   -2.7694132   -1.6054331  0.058545664   -2.7694132    1.1639801   563356 
 1105000    1.0030023   -2.7693742   -2.7693742   -1.6056004  0.050796762   -2.7693742    1.1637738   563356 
 1106000    1.0050434   -2.7718673   -2.7718673   -1.6057252  0.064812503   -2.7718673    1.1661421   563356 
 1107000    1.0033511   -2.7703557   -2.7703557   -1.6061771  0.051343437   -2.7703557    1.1641785   563356 
 1108000    1.0050975   -2.7721869   -2.7721869   -1.6059821  0.060055327   -2.7721869    1.1662048   563356 
 1109000    1.0033319    -2.770217    -2.770217   -1.6060606  0.055928897    -2.770217    1.1641563   563356 
 1110000    1.0038898   -2.7712158   -2.7712158   -1.6064122   0.05917002   -2.7712158    1.1648036   563356 
 1111000    1.0044082   -2.7725534   -2.7725534   -1.6071483  0.049789683   -2.7725534    1.1654051   563356 
 1112000    1.0059342   -2.7732379   -2.7732379   -1.6060622  0.064291905   -2.7732379    1.1671757   563356 
 1113000    1.0053634   -2.7725255   -2.7725255   -1.6060121  0.067109865   -2.7725255    1.1665134   563356 
 1114000    1.0048211   -2.7722699   -2.7722699   -1.6063858  0.072418007   -2.7722699    1.1658841   563356 
 1115000    1.0041553   -2.7708868   -2.7708868   -1.6057751  0.066767609   -2.7708868    1.1651117   563356 
 1116000    1.0055046   -2.7714517   -2.7714517   -1.6047745  0.069522801   -2.7714517    1.1666772   563356 
 1117000    1.0042386   -2.7708241   -2.7708241   -1.6056157  0.051366575   -2.7708241    1.1652083   563356 
 1118000    1.0038373   -2.7710039   -2.7710039   -1.6062612  0.052147644   -2.7710039    1.1647427   563356 
 1119000    1.0053182   -2.7721459   -2.7721459    -1.605685  0.057545789   -2.7721459    1.1664609   563356 
 1120000    1.0040619   -2.7708405   -2.7708405   -1.6058373  0.063920765   -2.7708405    1.1650032   563356 
 1121000    1.0034782    -2.770563    -2.770563    -1.606237  0.064636767    -2.770563     1.164326   563356 
 1122000    1.0042407    -2.772738    -2.772738   -1.6075274  0.069789648    -2.772738    1.1652107   563356 
 1123000    1.0049458   -2.7725355   -2.7725355   -1.6065066  0.061399378   -2.7725355    1.1660288   563356 
 1124000    1.0036797   -2.7723509   -2.7723509    -1.607791  0.064787164   -2.7723509    1.1645599   563356 
 1125000    1.0041579    -2.773149    -2.773149   -1.6080344  0.057800431    -2.773149    1.1651146   563356 
 1126000    1.0055015   -2.7746659   -2.7746659   -1.6079922  0.059517486   -2.7746659    1.1666736   563356 
 1127000    1.0044916   -2.7742196   -2.7742196   -1.6087178  0.058481482   -2.7742196    1.1655019   563356 
 1128000     1.004601   -2.7738816   -2.7738816   -1.6082527   0.06058053   -2.7738816    1.1656288   563356 
 1129000    1.0046207   -2.7735748   -2.7735748   -1.6079231  0.063206356   -2.7735748    1.1656517   563356 
 1130000    1.0039559   -2.7732415   -2.7732415   -1.6083613  0.066275984   -2.7732415    1.1648802   563356 
 1131000    1.0039304   -2.7734525   -2.7734525   -1.6086018  0.061855851   -2.7734525    1.1648507   563356 
 1132000    1.0045287    -2.774045    -2.774045   -1.6085001  0.055489197    -2.774045    1.1655449   563356 
 1133000    1.0043098   -2.7744841   -2.7744841   -1.6091932  0.060143391   -2.7744841    1.1652909   563356 
 1134000    1.0039613   -2.7741801   -2.7741801   -1.6092936  0.067408437   -2.7741801    1.1648865   563356 
 1135000     1.005659   -2.7760189   -2.7760189   -1.6091625   0.06222755   -2.7760189    1.1668564   563356 
 1136000       1.0053   -2.7759193   -2.7759193   -1.6094795  0.057455163   -2.7759193    1.1664398   563356 
 1137000    1.0042652   -2.7738884   -2.7738884   -1.6086492  0.061351302   -2.7738884    1.1652392   563356 
 1138000    1.0031469   -2.7726918   -2.7726918   -1.6087502  0.051340883   -2.7726918    1.1639416   563356 
 1139000    1.0036398    -2.773248    -2.773248   -1.6087344  0.052968788    -2.773248    1.1645135   563356 
 1140000    1.0033477   -2.7730832   -2.7730832   -1.6089085  0.062626836   -2.7730832    1.1641746   563356 
 1141000    1.0052771   -2.7749573   -2.7749573    -1.608544  0.062874097   -2.7749573    1.1664133   563356 
 1142000    1.0047305   -2.7740658   -2.7740658   -1.6082867   0.06810192   -2.7740658    1.1657791   563356 
 1143000    1.0059641   -2.7756374   -2.7756374    -1.608427  0.058932611   -2.7756374    1.1672104   563356 
 1144000    1.0045927   -2.7746278   -2.7746278   -1.6090086  0.063821726   -2.7746278    1.1656192   563356 
 1145000    1.0048022   -2.7739684   -2.7739684   -1.6081061  0.065707411   -2.7739684    1.1658623   563356 
 1146000    1.0028847   -2.7721422   -2.7721422   -1.6085049  0.058066285   -2.7721422    1.1636373   563356 
 1147000    1.0038337   -2.7742621   -2.7742621   -1.6095236  0.053414008   -2.7742621    1.1647385   563356 
 1148000    1.0020259   -2.7731759   -2.7731759    -1.610535  0.059103768   -2.7731759     1.162641   563356 
 1149000    1.0034985   -2.7740393   -2.7740393   -1.6096898  0.047510431   -2.7740393    1.1643496   563356 
 1150000    1.0020875    -2.771717    -2.771717   -1.6090046  0.059495493    -2.771717    1.1627124   563356 
 1151000    1.0049757   -2.7752699   -2.7752699   -1.6092064  0.056136802   -2.7752699    1.1660635   563356 
 1152000    1.0018247   -2.7720712   -2.7720712   -1.6096638  0.054223292   -2.7720712    1.1624075   563356 
 1153000    1.0044669   -2.7737606   -2.7737606   -1.6082875  0.050720617   -2.7737606    1.1654731   563356 
 1154000    1.0042126   -2.7733505   -2.7733505   -1.6081724  0.065950748   -2.7733505    1.1651781   563356 
 1155000    1.0032533   -2.7727204   -2.7727204   -1.6086553  0.060063368   -2.7727204    1.1640651   563356 
 1156000    1.0058268   -2.7754307   -2.7754307   -1.6083797  0.062451845   -2.7754307     1.167051   563356 
 1157000     1.005271   -2.7748519   -2.7748519   -1.6084457  0.051010131   -2.7748519    1.1664061   563356 
 1158000    1.0046563   -2.7750061   -2.7750061   -1.6093131  0.064730016   -2.7750061     1.165693   563356 
 1159000     1.004033    -2.774524    -2.774524   -1.6095543  0.065631492    -2.774524    1.1649697   563356 
 1160000    1.0050287   -2.7748203   -2.7748203   -1.6086952  0.065563318   -2.7748203    1.1661251   563356 
 1161000    1.0050612   -2.7752859   -2.7752859   -1.6091231   0.06962064   -2.7752859    1.1661627   563356 
 1162000    1.0037945   -2.7741243   -2.7741243   -1.6094313  0.068252064   -2.7741243     1.164693   563356 
 1163000    1.0049529   -2.7755829   -2.7755829   -1.6095459  0.058629252   -2.7755829    1.1660371   563356 
 1164000    1.0045177   -2.7756363   -2.7756363   -1.6101041  0.057546807   -2.7756363    1.1655322   563356 
 1165000    1.0048137   -2.7752214   -2.7752214   -1.6093457  0.061883083   -2.7752214    1.1658756   563356 
 1166000    1.0043236   -2.7750535   -2.7750535   -1.6097465   0.05028319   -2.7750535     1.165307   563356 
 1167000    1.0038027   -2.7738905   -2.7738905    -1.609188  0.063462269   -2.7738905    1.1647025   563356 
 1168000    1.0038117   -2.7743113   -2.7743113   -1.6095984  0.071936314   -2.7743113     1.164713   563356 
 1169000    1.0037372   -2.7740566   -2.7740566   -1.6094301  0.057774549   -2.7740566    1.1646265   563356 
 1170000    1.0047558   -2.7753346   -2.7753346   -1.6095262  0.057884112   -2.7753346    1.1658084   563356 
 1171000    1.0049515   -2.7749511   -2.7749511   -1.6089156  0.059350909   -2.7749511    1.1660354   563356 
 1172000    1.0046915   -2.7742546   -2.7742546   -1.6085209  0.051787304   -2.7742546    1.1657337   563356 
 1173000    1.0045397   -2.7754897   -2.7754897    -1.609932  0.048859977   -2.7754897    1.1655577   563356 
 1174000    1.0041109   -2.7756889   -2.7756889   -1.6106287  0.060629125   -2.7756889    1.1650602   563356 
 1175000    1.0047548   -2.7757604   -2.7757604   -1.6099531  0.063630258   -2.7757604    1.1658072   563356 
 1176000     1.003233   -2.7747244   -2.7747244   -1.6106829  0.073541374   -2.7747244    1.1640415   563356 
 1177000    1.0042141     -2.77499     -2.77499   -1.6098101  0.063159252     -2.77499    1.1651798   563356 
 1178000    1.0053391   -2.7763376   -2.7763376   -1.6098524  0.058527825   -2.7763376    1.1664852   563356 
 1179000    1.0039853   -2.7751747   -2.7751747   -1.6102603  0.056146196   -2.7751747    1.1649144   563356 
 1180000    1.0036424   -2.7738096   -2.7738096   -1.6092931  0.058606661   -2.7738096    1.1645165   563356 
 1181000    1.0049027   -2.7758144   -2.7758144   -1.6098355  0.055468985   -2.7758144    1.1659789   563356 
 1182000    1.0053146   -2.7757429   -2.7757429   -1.6092861  0.061571227   -2.7757429    1.1664568   563356 
 1183000    1.0057127   -2.7765485   -2.7765485   -1.6096298  0.053464178   -2.7765485    1.1669187   563356 
 1184000    1.0036545   -2.7736669   -2.7736669   -1.6091364  0.076059295   -2.7736669    1.1645306   563356 
 1185000    1.0061689   -2.7767035   -2.7767035   -1.6092555  0.060793214   -2.7767035    1.1674481   563356 
 1186000    1.0060193   -2.7763822   -2.7763822   -1.6091078  0.063387255   -2.7763822    1.1672744   563356 
 1187000    1.0043546   -2.7755683   -2.7755683   -1.6102255  0.050700377   -2.7755683    1.1653429   563356 
 1188000    1.0030891   -2.7747984   -2.7747984   -1.6109239  0.064006402   -2.7747984    1.1638746   563356 
 1189000    1.0034239   -2.7755489   -2.7755489   -1.6112858  0.056046751   -2.7755489    1.1642631   563356 
 1190000    1.0034104   -2.7761666   -2.7761666   -1.6119192  0.053834109   -2.7761666    1.1642474   563356 
 1191000    1.0051287   -2.7764673   -2.7764673   -1.6102262  0.064757886   -2.7764673    1.1662411   563356 
 1192000    1.0047853   -2.7762383   -2.7762383   -1.6103957  0.064699404   -2.7762383    1.1658426   563356 
 1193000    1.0040955   -2.7764813   -2.7764813   -1.6114391  0.052867576   -2.7764813    1.1650422   563356 
 1194000    1.0025043   -2.7754376   -2.7754376   -1.6122416   0.06808732   -2.7754376     1.163196   563356 
 1195000    1.0040106   -2.7777981   -2.7777981   -1.6128544  0.064535467   -2.7777981    1.1649437   563356 
 1196000    1.0056039   -2.7781568   -2.7781568   -1.6113644  0.072622651   -2.7781568    1.1667924   563356 
 1197000     1.005126   -2.7769837   -2.7769837   -1.6107457  0.067359217   -2.7769837    1.1662379   563356 
 1198000    1.0047102   -2.7777476   -2.7777476   -1.6119922  0.065058618   -2.7777476    1.1657554   563356 
 1199000      1.00458    -2.777349    -2.777349   -1.6117447  0.062786794    -2.777349    1.1656044   563356 
 1200000    1.0041993   -2.7777181   -2.7777181   -1.6125554  0.064919633   -2.7777181    1.1651627   563356 
 1201000    1.0039436   -2.7765923   -2.7765923   -1.6117263   0.06225442   -2.7765923     1.164866   563356 
 1202000    1.0057066   -2.7788877   -2.7788877   -1.6119761  0.054757445   -2.7788877    1.1669116   563356 
 1203000    1.0046524   -2.7769696   -2.7769696   -1.6112812  0.063485695   -2.7769696    1.1656884   563356 
 1204000    1.0065457   -2.7789832   -2.7789832    -1.611098  0.070284074   -2.7789832    1.1678852   563356 
 1205000    1.0039319   -2.7762616   -2.7762616   -1.6114092   0.06603487   -2.7762616    1.1648524   563356 
 1206000    1.0051593   -2.7785291   -2.7785291   -1.6122526  0.065904512   -2.7785291    1.1662765   563356 
 1207000    1.0051727   -2.7775535   -2.7775535   -1.6112614  0.069989571   -2.7775535    1.1662921   563356 
 1208000    1.0057805   -2.7779376   -2.7779376   -1.6109402  0.047604505   -2.7779376    1.1669974   563356 
 1209000    1.0040452   -2.7768813   -2.7768813   -1.6118973  0.052772473   -2.7768813    1.1649839   563356 
 1210000    1.0064256   -2.7781642   -2.7781642   -1.6104183  0.060945433   -2.7781642    1.1677459   563356 
 1211000    1.0047908   -2.7769176   -2.7769176   -1.6110685  0.067054319   -2.7769176    1.1658491   563356 
 1212000    1.0052154   -2.7779077   -2.7779077    -1.611566  0.047409587   -2.7779077    1.1663417   563356 
 1213000    1.0045768   -2.7780782   -2.7780782   -1.6124775  0.059356484   -2.7780782    1.1656007   563356 
 1214000    1.0036418   -2.7763347   -2.7763347   -1.6118189  0.064242012   -2.7763347    1.1645158   563356 
 1215000    1.0057728   -2.7779555   -2.7779555    -1.610967  0.067168766   -2.7779555    1.1669885   563356 
 1216000    1.0048893   -2.7778018   -2.7778018   -1.6118386  0.058959298   -2.7778018    1.1659633   563356 
 1217000    1.0041973   -2.7775687   -2.7775687   -1.6124084  0.063323597   -2.7775687    1.1651604   563356 
 1218000     1.004499   -2.7772101   -2.7772101   -1.6116996  0.066693464   -2.7772101    1.1655104   563356 
 1219000    1.0051697   -2.7783309   -2.7783309   -1.6120422  0.069360626   -2.7783309    1.1662887   563356 
 1220000    1.0057229   -2.7791721   -2.7791721   -1.6122416  0.061496089   -2.7791721    1.1669305   563356 
 1221000    1.0049252   -2.7785836   -2.7785836   -1.6125787  0.064126541   -2.7785836    1.1660049   563356 
 1222000    1.0049756   -2.7790693   -2.7790693   -1.6130058  0.068513799   -2.7790693    1.1660635   563356 
 1223000    1.0065143   -2.7804904   -2.7804904   -1.6126417  0.051862897   -2.7804904    1.1678487   563356 
 1224000    1.0035719   -2.7780353   -2.7780353   -1.6136005  0.058587206   -2.7780353    1.1644348   563356 
 1225000    1.0045133   -2.7790777   -2.7790777   -1.6135506  0.055035888   -2.7790777    1.1655271   563356 
 1226000    1.0041799    -2.779079    -2.779079   -1.6139388   0.06169049    -2.779079    1.1651402   563356 
 1227000    1.0029801   -2.7777481   -2.7777481   -1.6140001  0.053942496   -2.7777481    1.1637481   563356 
 1228000    1.0023454   -2.7775389   -2.7775389   -1.6145272  0.054412291   -2.7775389    1.1630116   563356 
 1229000    1.0041411    -2.778835    -2.778835   -1.6137398  0.057362813    -2.778835    1.1650951   563356 
 1230000    1.0032567   -2.7785584   -2.7785584   -1.6144894  0.065287409   -2.7785584     1.164069   563356 
 1231000    1.0035257   -2.7776691   -2.7776691   -1.6132879  0.058026568   -2.7776691    1.1643812   563356 
 1232000    1.0029141   -2.7769615   -2.7769615   -1.6132901  0.052749341   -2.7769615    1.1636714   563356 
 1233000     1.002534    -2.776859    -2.776859   -1.6136285  0.064588378    -2.776859    1.1632305   563356 
 1234000    1.0039085   -2.7782285   -2.7782285   -1.6134033   0.06573174   -2.7782285    1.1648252   563356 
 1235000    1.0040814   -2.7784021   -2.7784021   -1.6133762  0.067921779   -2.7784021    1.1650259   563356 
 1236000    1.0048138   -2.7795776   -2.7795776    -1.613702  0.050649901   -2.7795776    1.1658757   563356 
 1237000    1.0045901   -2.7794364   -2.7794364   -1.6138202  0.056130156   -2.7794364    1.1656162   563356 
 1238000     1.004732   -2.7788854   -2.7788854   -1.6131046  0.062502694   -2.7788854    1.1657807   563356 
 1239000     1.002607   -2.7773162   -2.7773162    -1.614001  0.058327131   -2.7773162    1.1633152   563356 
 1240000     1.003065    -2.777754    -2.777754   -1.6139074  0.073353619    -2.777754    1.1638466   563356 
 1241000    1.0038235   -2.7791127   -2.7791127    -1.614386  0.064500146   -2.7791127    1.1647267   563356 
 1242000     1.001181    -2.776251    -2.776251   -1.6145903  0.060748831    -2.776251    1.1616606   563356 
 1243000    1.0036326   -2.7797704   -2.7797704   -1.6152652  0.055536789   -2.7797704    1.1645052   563356 
 1244000    1.0023468   -2.7792014   -2.7792014   -1.6161881  0.052435773   -2.7792014    1.1630133   563356 
 1245000    1.0030193   -2.7799705   -2.7799705   -1.6161769  0.066211023   -2.7799705    1.1637936   563356 
 1246000    1.0036577   -2.7801748   -2.7801748   -1.6156405  0.068089078   -2.7801748    1.1645343   563356 
 1247000    1.0033383     -2.77967     -2.77967   -1.6155063  0.060867743     -2.77967    1.1641637   563356 
 1248000    1.0030954   -2.7804402   -2.7804402   -1.6165584  0.064315157   -2.7804402    1.1638818   563356 
 1249000    1.0043386   -2.7810228   -2.7810228   -1.6156985  0.060138411   -2.7810228    1.1653244   563356 
 1250000    1.0040497   -2.7810696   -2.7810696   -1.6160805  0.052139307   -2.7810696    1.1649891   563356 
 1251000    1.0044915   -2.7811915   -2.7811915   -1.6156898  0.078076829   -2.7811915    1.1655017   563356 
 1252000    1.0042057   -2.7815634   -2.7815634   -1.6163932  0.058737698   -2.7815634    1.1651701   563356 
 1253000    1.0062964   -2.7831642   -2.7831642   -1.6155682   0.05727648   -2.7831642     1.167596   563356 
 1254000    1.0065922    -2.783659    -2.783659   -1.6157198  0.072655565    -2.783659    1.1679392   563356 
 1255000    1.0046414   -2.7824456   -2.7824456   -1.6167699  0.064568903   -2.7824456    1.1656757   563356 
 1256000    1.0029686   -2.7811851   -2.7811851   -1.6174504  0.061781944   -2.7811851    1.1637347   563356 
 1257000    1.0054045   -2.7834014   -2.7834014   -1.6168403  0.061216014   -2.7834014    1.1665611   563356 
 1258000     1.004004    -2.781427    -2.781427   -1.6164909  0.058410385    -2.781427    1.1649361   563356 
 1259000    1.0027326   -2.7807515   -2.7807515   -1.6172907  0.070121656   -2.7807515    1.1634609   563356 
 1260000    1.0031898   -2.7821224   -2.7821224    -1.618131  0.069763726   -2.7821224    1.1639914   563356 
 1261000    1.0033455   -2.7826798   -2.7826798   -1.6185078  0.061765404   -2.7826798    1.1641721   563356 
 1262000    1.0008365   -2.7794331   -2.7794331   -1.6181721  0.062251627   -2.7794331    1.1612609   563356 
 1263000    1.0032544   -2.7812332   -2.7812332   -1.6171669  0.057753748   -2.7812332    1.1640663   563356 
 1264000     1.003733   -2.7824104   -2.7824104   -1.6177887  0.056415364   -2.7824104    1.1646217   563356 
 1265000    1.0057825   -2.7846503   -2.7846503   -1.6176506  0.064798577   -2.7846503    1.1669997   563356 
 1266000    1.0044109   -2.7830203   -2.7830203   -1.6176121  0.064180811   -2.7830203    1.1654082   563356 
 1267000    1.0055576   -2.7840162   -2.7840162   -1.6172775  0.064960628   -2.7840162    1.1667387   563356 
 1268000    1.0044886   -2.7829471   -2.7829471   -1.6174488  0.064184111   -2.7829471    1.1654983   563356 
 1269000     1.004927   -2.7838248   -2.7838248   -1.6178177  0.062800649   -2.7838248     1.166007   563356 
 1270000    1.0038762   -2.7820983   -2.7820983   -1.6173105  0.071562929   -2.7820983    1.1647878   563356 
 1271000    1.0034947   -2.7822878   -2.7822878   -1.6179426  0.063600758   -2.7822878    1.1643452   563356 
 1272000    1.0044889   -2.7832555   -2.7832555   -1.6177567   0.07135759   -2.7832555    1.1654988   563356 
 1273000    1.0056683   -2.7849864   -2.7849864   -1.6181193  0.061325724   -2.7849864    1.1668671   563356 
 1274000    1.0055632   -2.7843813   -2.7843813   -1.6176361  0.068118762   -2.7843813    1.1667452   563356 
 1275000    1.0032171   -2.7825961   -2.7825961    -1.618573  0.056108081   -2.7825961    1.1640231   563356 
 1276000    1.0031839   -2.7819182   -2.7819182   -1.6179336  0.065279745   -2.7819182    1.1639846   563356 
 1277000    1.0046129   -2.7841448   -2.7841448   -1.6185022   0.04462977   -2.7841448    1.1656426   563356 
 1278000    1.0038284   -2.7826246   -2.7826246   -1.6178922   0.06529196   -2.7826246    1.1647324   563356 
 1279000    1.0046354   -2.7826826   -2.7826826   -1.6170139  0.059321668   -2.7826826    1.1656687   563356 
 1280000    1.0034148   -2.7817323   -2.7817323   -1.6174799  0.052339482   -2.7817323    1.1642524   563356 
 1281000     1.004189   -2.7826364   -2.7826364   -1.6174856   0.06456272   -2.7826364    1.1651508   563356 
 1282000    1.0051052   -2.7834872   -2.7834872   -1.6172734   0.06272431   -2.7834872    1.1662138   563356 
 1283000    1.0061068   -2.7842963   -2.7842963   -1.6169203  0.062779816   -2.7842963    1.1673759   563356 
 1284000    1.0056073    -2.783543    -2.783543   -1.6167466  0.064920295    -2.783543    1.1667964   563356 
 1285000    1.0064645   -2.7841891   -2.7841891    -1.616398  0.056729627   -2.7841891     1.167791   563356 
 1286000    1.0058404   -2.7838649   -2.7838649    -1.616798  0.069964172   -2.7838649    1.1670669   563356 
 1287000    1.0061264   -2.7844014   -2.7844014   -1.6170027  0.065913801   -2.7844014    1.1673987   563356 
 1288000     1.005609   -2.7831089   -2.7831089   -1.6163105  0.060450884   -2.7831089    1.1667984   563356 
 1289000    1.0059117   -2.7835388   -2.7835388   -1.6163892  0.060279915   -2.7835388    1.1671496   563356 
 1290000    1.0056057   -2.7835427   -2.7835427   -1.6167481  0.065749713   -2.7835427    1.1667946   563356 
 1291000    1.0051777   -2.7834297   -2.7834297   -1.6171318  0.061928285   -2.7834297    1.1662979   563356 
 1292000    1.0046905   -2.7830163   -2.7830163   -1.6172837  0.067763053   -2.7830163    1.1657327   563356 
 1293000    1.0042392   -2.7822427   -2.7822427   -1.6170337  0.055422416   -2.7822427     1.165209   563356 
 1294000    1.0033966   -2.7813811   -2.7813811   -1.6171497  0.063391777   -2.7813811    1.1642314   563356 
 1295000    1.0042293   -2.7827023   -2.7827023   -1.6175047  0.067972815   -2.7827023    1.1651975   563356 
 1296000    1.0043412   -2.7831777   -2.7831777   -1.6178504  0.063762906   -2.7831777    1.1653273   563356 
 1297000    1.0055024   -2.7839063   -2.7839063   -1.6172316  0.053028605   -2.7839063    1.1666747   563356 
 1298000     1.005544   -2.7839605   -2.7839605   -1.6172376   0.06840708   -2.7839605     1.166723   563356 
 1299000    1.0074356     -2.78482     -2.78482   -1.6159022  0.065340607     -2.78482    1.1689178   563356 
 1300000    1.0051697   -2.7827408   -2.7827408   -1.6164522  0.065866554   -2.7827408    1.1662886   563356 
 1301000    1.0068379   -2.7846868   -2.7846868   -1.6164625  0.064324938   -2.7846868    1.1682242   563356 
 1302000    1.0064607   -2.7841357   -2.7841357   -1.6163491  0.061264266   -2.7841357    1.1677866   563356 
 1303000    1.0068728   -2.7836784   -2.7836784   -1.6154137  0.072958702   -2.7836784    1.1682647   563356 
 1304000    1.0061917   -2.7833773   -2.7833773   -1.6159028  0.061207041   -2.7833773    1.1674744   563356 
 1305000    1.0062312   -2.7852706   -2.7852706   -1.6177504  0.057754002   -2.7852706    1.1675202   563356 
 1306000    1.0038958   -2.7833828   -2.7833828   -1.6185722  0.066505173   -2.7833828    1.1648106   563356 
 1307000    1.0053152   -2.7843254   -2.7843254   -1.6178679  0.065535255   -2.7843254    1.1664575   563356 
 1308000    1.0059045   -2.7845444   -2.7845444   -1.6174031  0.062101555   -2.7845444    1.1671413   563356 
 1309000     1.004764   -2.7832339   -2.7832339    -1.617416  0.064179431   -2.7832339    1.1658179   563356 
 1310000     1.006215   -2.7844562   -2.7844562   -1.6169547  0.068700835   -2.7844562    1.1675015   563356 
 1311000    1.0051332   -2.7847998   -2.7847998   -1.6185535  0.059741363   -2.7847998    1.1662463   563356 
 1312000    1.0037925   -2.7833511   -2.7833511   -1.6186604  0.061679564   -2.7833511    1.1646907   563356 
 1313000    1.0041566   -2.7844417   -2.7844417   -1.6193286   0.06258059   -2.7844417    1.1651131   563356 
 1314000    1.0053107   -2.7859489   -2.7859489   -1.6194966  0.074962387   -2.7859489    1.1664522   563356 
 1315000    1.0041249   -2.7851797   -2.7851797   -1.6201033  0.066024582   -2.7851797    1.1650764   563356 
 1316000    1.0057615   -2.7855113   -2.7855113    -1.618536  0.058077176   -2.7855113    1.1669753   563356 
 1317000    1.0058549   -2.7857449   -2.7857449   -1.6186613  0.064698427   -2.7857449    1.1670836   563356 
 1318000    1.0044208   -2.7842587   -2.7842587    -1.618839  0.049998877   -2.7842587    1.1654197   563356 
 1319000    1.0035598   -2.7840193   -2.7840193   -1.6195986  0.053304322   -2.7840193    1.1644207   563356 
 1320000    1.0050599    -2.785811    -2.785811   -1.6196498  0.066113562    -2.785811    1.1661612   563356 
 1321000    1.0054246   -2.7855568   -2.7855568   -1.6189724  0.055735525   -2.7855568    1.1665843   563356 
 1322000     1.003508   -2.7830398   -2.7830398   -1.6186792  0.068257858   -2.7830398    1.1643606   563356 
 1323000     1.005075   -2.7848967   -2.7848967   -1.6187178  0.047347559   -2.7848967    1.1661788   563356 
 1324000    1.0044785   -2.7850055   -2.7850055   -1.6195188  0.067587537   -2.7850055    1.1654866   563356 
 1325000    1.0048182   -2.7855506   -2.7855506   -1.6196698  0.059629211   -2.7855506    1.1658808   563356 
 1326000    1.0038171   -2.7860082   -2.7860082    -1.621289  0.065454483   -2.7860082    1.1647192   563356 
 1327000    1.0051009   -2.7862321   -2.7862321   -1.6200233  0.062919786   -2.7862321    1.1662089   563356 
 1328000    1.0064078   -2.7884064   -2.7884064   -1.6206812  0.062549071   -2.7884064    1.1677252   563356 
 1329000    1.0074752   -2.7895516   -2.7895516    -1.620588  0.069045637   -2.7895516    1.1689637   563356 
 1330000    1.0066576   -2.7884073   -2.7884073   -1.6203922  0.055970979   -2.7884073    1.1680151   563356 
 1331000    1.0069951   -2.7892446   -2.7892446    -1.620838  0.064508815   -2.7892446    1.1684066   563356 
 1332000     1.006092   -2.7877412   -2.7877412   -1.6203824  0.071033206   -2.7877412    1.1673588   563356 
 1333000    1.0042139    -2.785657    -2.785657   -1.6204774  0.060502104    -2.785657    1.1651797   563356 
 1334000     1.006095   -2.7883302   -2.7883302   -1.6209679  0.057493791   -2.7883302    1.1673623   563356 
 1335000     1.005603   -2.7868674   -2.7868674   -1.6200759  0.056006763   -2.7868674    1.1667914   563356 
 1336000     1.004686   -2.7859193   -2.7859193   -1.6201918  0.068655076   -2.7859193    1.1657274   563356 
 1337000    1.0066323    -2.789285    -2.789285   -1.6212992  0.054245631    -2.789285    1.1679857   563356 
 1338000     1.006336   -2.7892628   -2.7892628   -1.6216209  0.065103791   -2.7892628    1.1676419   563356 
 1339000    1.0055954    -2.786936    -2.786936   -1.6201534  0.069033044    -2.786936    1.1667826   563356 
 1340000    1.0065169   -2.7884131   -2.7884131   -1.6205613  0.064563802   -2.7884131    1.1678518   563356 
 1341000    1.0065733    -2.788543    -2.788543   -1.6206257      0.05833    -2.788543    1.1679173   563356 
 1342000    1.0067316   -2.7874338   -2.7874338   -1.6193329  0.065036773   -2.7874338    1.1681009   563356 
 1343000    1.0065909   -2.7885737   -2.7885737   -1.6206361  0.059062045   -2.7885737    1.1679377   563356 
 1344000    1.0060525   -2.7878731   -2.7878731   -1.6205602  0.060836646   -2.7878731    1.1673129   563356 
 1345000     1.005686   -2.7880815   -2.7880815   -1.6211938  0.056317927   -2.7880815    1.1668877   563356 
 1346000    1.0044491   -2.7878811   -2.7878811   -1.6224286  0.066428651   -2.7878811    1.1654525   563356 
 1347000    1.0051325   -2.7882189   -2.7882189   -1.6219734  0.070037354   -2.7882189    1.1662455   563356 
 1348000    1.0045817   -2.7870296   -2.7870296   -1.6214232  0.065943185   -2.7870296    1.1656064   563356 
 1349000    1.0059695   -2.7895707   -2.7895707   -1.6223541  0.064667635   -2.7895707    1.1672166   563356 
 1350000    1.0056477   -2.7886227   -2.7886227   -1.6217794  0.068947456   -2.7886227    1.1668433   563356 
 1351000    1.0059333   -2.7897912   -2.7897912   -1.6226166  0.057537452   -2.7897912    1.1671746   563356 
 1352000    1.0041074   -2.7874325   -2.7874325   -1.6223764  0.055749145   -2.7874325    1.1650561   563356 
 1353000     1.005138   -2.7889115   -2.7889115   -1.6226597  0.038481028   -2.7889115    1.1662518   563356 
 1354000     1.003371   -2.7879163   -2.7879163   -1.6237146  0.048470885   -2.7879163    1.1642016   563356 
 1355000    1.0035598   -2.7869746   -2.7869746   -1.6225539  0.067790484   -2.7869746    1.1644207   563356 
 1356000    1.0056771   -2.7886913   -2.7886913    -1.621814  0.064196111   -2.7886913    1.1668773   563356 
 1357000    1.0054306   -2.7889808   -2.7889808   -1.6223894  0.062430235   -2.7889808    1.1665914   563356 
 1358000    1.0057239   -2.7893715   -2.7893715   -1.6224398  0.059509788   -2.7893715    1.1669316   563356 
 1359000    1.0032407   -2.7868286   -2.7868286   -1.6227781  0.058958861   -2.7868286    1.1640505   563356 
 1360000    1.0040555   -2.7878737   -2.7878737   -1.6228778  0.054231216   -2.7878737    1.1649958   563356 
 1361000    1.0036756   -2.7868116   -2.7868116   -1.6222566  0.060463791   -2.7868116     1.164555   563356 
 1362000    1.0055524   -2.7886301   -2.7886301   -1.6218974  0.063868478   -2.7886301    1.1667327   563356 
 1363000    1.0038462   -2.7874263   -2.7874263   -1.6226733  0.057110764   -2.7874263     1.164753   563356 
 1364000    1.0029322   -2.7857795   -2.7857795    -1.622087  0.051924912   -2.7857795    1.1636925   563356 
 1365000    1.0032936   -2.7860351   -2.7860351   -1.6219232  0.063266488   -2.7860351    1.1641118   563356 
 1366000    1.0034577   -2.7866726   -2.7866726   -1.6223704  0.058886924   -2.7866726    1.1643022   563356 
 1367000    1.0061171   -2.7892673   -2.7892673   -1.6218794  0.056062363   -2.7892673    1.1673879   563356 
 1368000    1.0045472   -2.7872812   -2.7872812   -1.6217148  0.066001649   -2.7872812    1.1655663   563356 
 1369000    1.0043642   -2.7864412   -2.7864412   -1.6210872  0.063721869   -2.7864412     1.165354   563356 
 1370000    1.0044417   -2.7868047   -2.7868047   -1.6213608  0.071980012   -2.7868047    1.1654439   563356 
 1371000    1.0037366   -2.7858769   -2.7858769    -1.621251  0.062564044   -2.7858769    1.1646258   563356 
 1372000    1.0049977   -2.7872448   -2.7872448   -1.6211557   0.06987626   -2.7872448    1.1660891   563356 
 1373000    1.0041746   -2.7864411   -2.7864411   -1.6213071  0.066949279   -2.7864411     1.165134   563356 
 1374000    1.0050227   -2.7882044   -2.7882044   -1.6220863  0.049409791   -2.7882044    1.1661181   563356 
 1375000    1.0055204   -2.7880613   -2.7880613   -1.6213658  0.061955512   -2.7880613    1.1666955   563356 
 1376000     1.004513   -2.7867804   -2.7867804   -1.6212538  0.059558789   -2.7867804    1.1655266   563356 
 1377000    1.0047759   -2.7873664   -2.7873664   -1.6215347   0.05708595   -2.7873664    1.1658317   563356 
 1378000    1.0039852   -2.7867376   -2.7867376   -1.6218233  0.062153549   -2.7867376    1.1649143   563356 
 1379000    1.0035541   -2.7869675   -2.7869675   -1.6225534  0.059534256   -2.7869675    1.1644141   563356 
 1380000    1.0022183   -2.7857866   -2.7857866   -1.6229225  0.065160793   -2.7857866    1.1628642   563356 
 1381000    1.0034176   -2.7862489   -2.7862489   -1.6219932  0.073318654   -2.7862489    1.1642557   563356 
 1382000    1.0040089   -2.7870593   -2.7870593   -1.6221176   0.05494627   -2.7870593    1.1649417   563356 
 1383000    1.0039028   -2.7870417   -2.7870417   -1.6222231  0.054337705   -2.7870417    1.1648186   563356 
 1384000    1.0040882   -2.7872852   -2.7872852   -1.6222514  0.063452347   -2.7872852    1.1650338   563356 
 1385000       1.0068    -2.789228    -2.789228   -1.6210478  0.071617809    -2.789228    1.1681802   563356 
 1386000    1.0049354   -2.7877983   -2.7877983   -1.6217815  0.059525472   -2.7877983    1.1660168   563356 
 1387000    1.0063527    -2.789754    -2.789754   -1.6220928  0.063643166    -2.789754    1.1676612   563356 
 1388000    1.0060521   -2.7902187   -2.7902187   -1.6229062  0.061347495   -2.7902187    1.1673125   563356 
 1389000    1.0050911   -2.7882032   -2.7882032   -1.6220057  0.068221802   -2.7882032    1.1661975   563356 
 1390000    1.0050705   -2.7887462   -2.7887462   -1.6225726  0.072683792   -2.7887462    1.1661736   563356 
 1391000    1.0056999   -2.7897785   -2.7897785   -1.6228747   0.06124365   -2.7897785    1.1669038   563356 
 1392000    1.0042125   -2.7886457   -2.7886457   -1.6234677  0.063099255   -2.7886457     1.165178   563356 
 1393000      1.00426   -2.7891005   -2.7891005   -1.6238674  0.071188727   -2.7891005    1.1652331   563356 
 1394000    1.0050681   -2.7893355   -2.7893355   -1.6231647  0.064110876   -2.7893355    1.1661708   563356 
 1395000    1.0040184   -2.7878864   -2.7878864   -1.6229337  0.065311498   -2.7878864    1.1649528   563356 
 1396000    1.0036344   -2.7891202   -2.7891202    -1.624613  0.065198634   -2.7891202    1.1645072   563356 
 1397000    1.0044223   -2.7900501   -2.7900501   -1.6246287   0.04999337   -2.7900501    1.1654214   563356 
 1398000    1.0042479   -2.7897113   -2.7897113   -1.6244923  0.055452756   -2.7897113    1.1652191   563356 
 1399000    1.0033826   -2.7880362   -2.7880362   -1.6238212  0.059300764   -2.7880362     1.164215   563356 
 1400000    1.0021673   -2.7874337   -2.7874337   -1.6246287  0.069122301   -2.7874337     1.162805   563356 
 1401000    1.0032771   -2.7882057   -2.7882057   -1.6241131  0.064173464   -2.7882057    1.1640926   563356 
 1402000    1.0042614   -2.7890664   -2.7890664   -1.6238316   0.05329659   -2.7890664    1.1652348   563356 
 1403000     1.004208   -2.7895636   -2.7895636   -1.6243909   0.06783695   -2.7895636    1.1651728   563356 
 1404000    1.0066957   -2.7922588   -2.7922588   -1.6241995  0.071460178   -2.7922588    1.1680593   563356 
 1405000    1.0047638   -2.7890681   -2.7890681   -1.6232504  0.057446009   -2.7890681    1.1658177   563356 
 1406000    1.0048306   -2.7898076   -2.7898076   -1.6239124  0.067861944   -2.7898076    1.1658952   563356 
 1407000    1.0050923   -2.7896525   -2.7896525   -1.6234537   0.06432603   -2.7896525    1.1661988   563356 
 1408000    1.0045238   -2.7893504   -2.7893504   -1.6238112  0.065668503   -2.7893504    1.1655392   563356 
 1409000    1.0039083   -2.7890765   -2.7890765   -1.6242514  0.055436052   -2.7890765    1.1648251   563356 
 1410000    1.0033968   -2.7887425   -2.7887425   -1.6245109  0.063409407   -2.7887425    1.1642316   563356 
 1411000    1.0035211   -2.7898239   -2.7898239   -1.6254481  0.060950563   -2.7898239    1.1643758   563356 
 1412000    1.0038363   -2.7895496   -2.7895496   -1.6248081  0.061416469   -2.7895496    1.1647415   563356 
 1413000    1.0033985   -2.7897143   -2.7897143   -1.6254807  0.058152764   -2.7897143    1.1642336   563356 
 1414000    1.0029242   -2.7887831   -2.7887831   -1.6250999  0.062631467   -2.7887831    1.1636832   563356 
 1415000    1.0021072   -2.7878496   -2.7878496   -1.6251144  0.052298462   -2.7878496    1.1627352   563356 
 1416000    1.0041974   -2.7890498   -2.7890498   -1.6238892  0.052971786   -2.7890498    1.1651606   563356 
 1417000    1.0048928   -2.7901738   -2.7901738   -1.6242065  0.057899885   -2.7901738    1.1659673   563356 
 1418000    1.0055636   -2.7914497   -2.7914497    -1.624704  0.057970571   -2.7914497    1.1667457   563356 
 1419000     1.003216   -2.7889957   -2.7889957   -1.6249739  0.061287311   -2.7889957    1.1640218   563356 
 1420000    1.0034407   -2.7893417   -2.7893417   -1.6250592  0.073251127   -2.7893417    1.1642825   563356 
 1421000    1.0042716   -2.7898992   -2.7898992   -1.6246526  0.067176247   -2.7898992    1.1652466   563356 
 1422000    1.0042922   -2.7899124   -2.7899124   -1.6246418  0.060677814   -2.7899124    1.1652705   563356 
 1423000    1.0035278   -2.7880343   -2.7880343   -1.6236507  0.064061398   -2.7880343    1.1643835   563356 
 1424000    1.0047215   -2.7895793   -2.7895793   -1.6238106  0.051666759   -2.7895793    1.1657687   563356 
 1425000    1.0044131   -2.7888165   -2.7888165   -1.6234058   0.06135551   -2.7888165    1.1654107   563356 
 1426000    1.0042807   -2.7889895   -2.7889895   -1.6237324  0.054991375   -2.7889895    1.1652572   563356 
 1427000    1.0041534   -2.7880752   -2.7880752   -1.6229657  0.069689066   -2.7880752    1.1651095   563356 
 1428000    1.0052998   -2.7886301   -2.7886301   -1.6221906  0.069114402   -2.7886301    1.1664395   563356 
 1429000    1.0058894   -2.7896672   -2.7896672   -1.6225434  0.062439986   -2.7896672    1.1671237   563356 
 1430000    1.0051545   -2.7888967   -2.7888967   -1.6226257  0.063714186   -2.7888967     1.166271   563356 
 1431000    1.0042682   -2.7885333   -2.7885333   -1.6232907  0.055421975   -2.7885333    1.1652426   563356 
 1432000    1.0043577   -2.7881077   -2.7881077   -1.6227612  0.072522386   -2.7881077    1.1653465   563356 
 1433000    1.0051398   -2.7899734   -2.7899734   -1.6237195  0.058088359   -2.7899734    1.1662539   563356 
 1434000     1.003947   -2.7884712   -2.7884712   -1.6236012  0.068160268   -2.7884712      1.16487   563356 
 1435000    1.0026924   -2.7874091   -2.7874091   -1.6239947  0.069160001   -2.7874091    1.1634143   563356 
 1436000    1.0023279    -2.788147    -2.788147   -1.6251556  0.063396805    -2.788147    1.1629914   563356 
 1437000    1.0037017   -2.7894276   -2.7894276   -1.6248423  0.056804612   -2.7894276    1.1645853   563356 
 1438000    1.0032842   -2.7892977   -2.7892977   -1.6251968  0.061386252   -2.7892977    1.1641009   563356 
 1439000    1.0026044   -2.7879882   -2.7879882   -1.6246761  0.054146828   -2.7879882    1.1633122   563356 
 1440000    1.0028883   -2.7877524   -2.7877524   -1.6241108  0.068168107   -2.7877524    1.1636416   563356 
 1441000    1.0038691   -2.7891703   -2.7891703   -1.6243907  0.050732072   -2.7891703    1.1647796   563356 
 1442000    1.0021919   -2.7860395   -2.7860395    -1.623206   0.05812454   -2.7860395    1.1628336   563356 
 1443000    1.0015095   -2.7863684   -2.7863684   -1.6243267  0.069054178   -2.7863684    1.1620418   563356 
 1444000    1.0021983   -2.7882707   -2.7882707   -1.6254297  0.059496794   -2.7882707     1.162841   563356 
 1445000    1.0043809   -2.7909644   -2.7909644    -1.625591  0.066689586   -2.7909644    1.1653734   563356 
 1446000    1.0036495   -2.7902328   -2.7902328    -1.625708  0.055541373   -2.7902328    1.1645248   563356 
 1447000    1.0035777   -2.7890224   -2.7890224   -1.6245809  0.053743693   -2.7890224    1.1644414   563356 
 1448000    1.0043426    -2.789962    -2.789962   -1.6246331  0.052966954    -2.789962     1.165329   563356 
 1449000    1.0053968   -2.7907375   -2.7907375   -1.6241854  0.067419482   -2.7907375    1.1665522   563356 
 1450000    1.0048301   -2.7906933   -2.7906933   -1.6247987  0.069120581   -2.7906933    1.1658946   563356 
 1451000    1.0041932   -2.7895438   -2.7895438   -1.6243881  0.079671768   -2.7895438    1.1651556   563356 
 1452000    1.0050277   -2.7903181   -2.7903181   -1.6241942  0.075074836   -2.7903181    1.1661239   563356 
 1453000    1.0051836   -2.7905566   -2.7905566   -1.6242518  0.059837785   -2.7905566    1.1663047   563356 
 1454000     1.006623   -2.7924768   -2.7924768   -1.6245019  0.062563141   -2.7924768    1.1679749   563356 
 1455000    1.0058035    -2.791746    -2.791746   -1.6247219  0.066955375    -2.791746     1.167024   563356 
 1456000    1.0049073   -2.7918016   -2.7918016   -1.6258174  0.059376908   -2.7918016    1.1659842   563356 
 1457000    1.0045349   -2.7915207   -2.7915207   -1.6259687  0.059095614   -2.7915207    1.1655521   563356 
 1458000     1.004492   -2.7897378   -2.7897378   -1.6242354  0.070603156   -2.7897378    1.1655023   563356 
 1459000    1.0050014   -2.7900187   -2.7900187   -1.6239253  0.073606999   -2.7900187    1.1660934   563356 
 1460000    1.0029859   -2.7889127   -2.7889127   -1.6251579  0.066729074   -2.7889127    1.1637548   563356 
 1461000    1.0036188   -2.7887036   -2.7887036   -1.6242144  0.072047177   -2.7887036    1.1644891   563356 
 1462000    1.0031523   -2.7882514   -2.7882514   -1.6243035  0.060482227   -2.7882514    1.1639479   563356 
 1463000    1.0035195   -2.7892778   -2.7892778   -1.6249039   0.06024373   -2.7892778    1.1643739   563356 
 1464000    1.0029125    -2.788257    -2.788257   -1.6245874  0.062210506    -2.788257    1.1636696   563356 
 1465000    1.0025633   -2.7883177   -2.7883177   -1.6250533   0.06510199   -2.7883177    1.1632644   563356 
 1466000    1.0026779   -2.7883463   -2.7883463   -1.6249489  0.055103672   -2.7883463    1.1633975   563356 
 1467000    1.0026874   -2.7892574   -2.7892574   -1.6258489  0.060786774   -2.7892574    1.1634084   563356 
 1468000    1.0036781   -2.7912655   -2.7912655   -1.6267075  0.062970252   -2.7912655     1.164558   563356 
 1469000    1.0039703   -2.7919572   -2.7919572   -1.6270603  0.061126135   -2.7919572     1.164897   563356 
 1470000    1.0027735   -2.7908355   -2.7908355   -1.6273271  0.062852922   -2.7908355    1.1635083   563356 
 1471000     1.002932   -2.7905893   -2.7905893    -1.626897  0.069512989   -2.7905893    1.1636922   563356 
 1472000    1.0039558   -2.7913568   -2.7913568   -1.6264766  0.062394511   -2.7913568    1.1648802   563356 
 1473000    1.0025096   -2.7889888   -2.7889888   -1.6257867  0.056366868   -2.7889888    1.1632022   563356 
 1474000    1.0026342   -2.7893485   -2.7893485   -1.6260019   0.05713679   -2.7893485    1.1633467   563356 
 1475000    1.0042085   -2.7905175   -2.7905175   -1.6253441  0.059495004   -2.7905175    1.1651734   563356 
 1476000    1.0036663   -2.7899347   -2.7899347   -1.6253904  0.058622895   -2.7899347    1.1645443   563356 
 1477000    1.0034694    -2.790174    -2.790174   -1.6258582  0.051678838    -2.790174    1.1643159   563356 
 1478000    1.0030926   -2.7897497   -2.7897497   -1.6258711  0.060341793   -2.7897497    1.1638786   563356 
 1479000     1.003866   -2.7907599   -2.7907599    -1.625984  0.048660183   -2.7907599    1.1647759   563356 
 1480000    1.0038609   -2.7901014   -2.7901014   -1.6253314  0.042083898   -2.7901014      1.16477   563356 
 1481000    1.0015617   -2.7881559   -2.7881559   -1.6260535  0.073728164   -2.7881559    1.1621024   563356 
 1482000    1.0035337   -2.7902055   -2.7902055   -1.6258152  0.057012147   -2.7902055    1.1643904   563356 
 1483000    1.0018275    -2.788319    -2.788319   -1.6259082  0.061477275    -2.788319    1.1624107   563356 
 1484000     1.002173   -2.7884364   -2.7884364   -1.6256248   0.04357169   -2.7884364    1.1628116   563356 
 1485000    1.0031443   -2.7899485   -2.7899485     -1.62601  0.059109332   -2.7899485    1.1639386   563356 
 1486000    1.0041918    -2.791352    -2.791352    -1.626198  0.055623716    -2.791352     1.165154   563356 
 1487000    1.0022689   -2.7884397   -2.7884397   -1.6255168  0.058881449   -2.7884397    1.1629229   563356 
 1488000      1.00334   -2.7898455   -2.7898455   -1.6256798  0.068147101   -2.7898455    1.1641657   563356 
 1489000    1.0047711    -2.791649    -2.791649   -1.6258229  0.061939258    -2.791649    1.1658261   563356 
 1490000     1.003492   -2.7908519   -2.7908519   -1.6265099  0.057181932   -2.7908519     1.164342   563356 
 1491000    1.0040411   -2.7912931   -2.7912931   -1.6263139  0.057193677   -2.7912931    1.1649792   563356 
 1492000    1.0042545    -2.792062    -2.792062   -1.6268353  0.056116546    -2.792062    1.1652268   563356 
 1493000    1.0032433   -2.7914261   -2.7914261   -1.6273726   0.06031996   -2.7914261    1.1640535   563356 
 1494000    1.0040729   -2.7918476   -2.7918476   -1.6268315  0.066327941   -2.7918476    1.1650161   563356 
 1495000    1.0044123   -2.7923017   -2.7923017   -1.6268919  0.064882233   -2.7923017    1.1654098   563356 
 1496000    1.0028502   -2.7903493   -2.7903493   -1.6267519   0.06226513   -2.7903493    1.1635974   563356 
 1497000    1.0018684   -2.7897915   -2.7897915   -1.6273333  0.069753859   -2.7897915    1.1624582   563356 
 1498000    1.0035472   -2.7913576   -2.7913576   -1.6269515  0.050669025   -2.7913576    1.1644061   563356 
 1499000    1.0034259   -2.7915485   -2.7915485   -1.6272832  0.068936998   -2.7915485    1.1642653   563356 
 1500000    1.0032015    -2.792561    -2.792561    -1.628556  0.075119157    -2.792561     1.164005   563356 
 1501000    1.0032158   -2.7933571   -2.7933571   -1.6293356  0.070198656   -2.7933571    1.1640215   563356 
 1502000    1.0029996   -2.7935467   -2.7935467    -1.629776  0.065881994   -2.7935467    1.1637707   563356 
 1503000    1.0034291   -2.7938599   -2.7938599   -1.6295908  0.053037039   -2.7938599    1.1642691   563356 
 1504000    1.0021115   -2.7927146   -2.7927146   -1.6299743  0.068799417   -2.7927146    1.1627403   563356 
 1505000    1.0036149   -2.7933918   -2.7933918   -1.6289072  0.057433556   -2.7933918    1.1644846   563356 
 1506000    1.0026242   -2.7925284   -2.7925284   -1.6291933  0.059583539   -2.7925284    1.1633351   563356 
 1507000    1.0048646   -2.7934017   -2.7934017   -1.6274671  0.054886126   -2.7934017    1.1659346   563356 
 1508000    1.0038827   -2.7929464   -2.7929464   -1.6281511   0.07121128   -2.7929464    1.1647954   563356 
 1509000    1.0041457   -2.7932437   -2.7932437   -1.6281431  0.064180377   -2.7932437    1.1651006   563356 
 1510000    1.0043034   -2.7940254   -2.7940254    -1.628742  0.060601126   -2.7940254    1.1652834   563356 
 1511000    1.0064213    -2.796461    -2.796461   -1.6287202  0.070127921    -2.796461    1.1677408   563356 
 1512000     1.005073   -2.7941534   -2.7941534    -1.627977  0.061366194   -2.7941534    1.1661764   563356 
 1513000    1.0069251   -2.7962616   -2.7962616   -1.6279362  0.059795899   -2.7962616    1.1683254   563356 
 1514000    1.0064015   -2.7951819   -2.7951819    -1.627464  0.068055255   -2.7951819    1.1677179   563356 
 1515000    1.0067991   -2.7954268   -2.7954268   -1.6272475  0.070405168   -2.7954268    1.1681793   563356 
 1516000      1.00531   -2.7948043   -2.7948043   -1.6283529   0.07075291   -2.7948043    1.1664515   563356 
 1517000    1.0047418   -2.7944162   -2.7944162    -1.628624  0.065478156   -2.7944162    1.1657922   563356 
 1518000    1.0059026   -2.7957666   -2.7957666   -1.6286276  0.066259084   -2.7957666     1.167139   563356 
 1519000    1.0052754    -2.795431    -2.795431   -1.6290197  0.045968684    -2.795431    1.1664113   563356 
 1520000    1.0044978   -2.7937211   -2.7937211   -1.6282121  0.071818677   -2.7937211     1.165509   563356 
 1521000    1.0047375    -2.794619    -2.794619   -1.6288318   0.06194616    -2.794619    1.1657872   563356 
 1522000    1.0049713   -2.7952962   -2.7952962   -1.6292378  0.067774406   -2.7952962    1.1660584   563356 
 1523000    1.0047509   -2.7951845   -2.7951845   -1.6293818  0.073095335   -2.7951845    1.1658027   563356 
 1524000    1.0042509   -2.7951033   -2.7951033   -1.6298808  0.067373419   -2.7951033    1.1652225   563356 
 1525000    1.0038986   -2.7943795   -2.7943795   -1.6295657  0.068517587   -2.7943795    1.1648138   563356 
 1526000    1.0049597    -2.795668    -2.795668    -1.629623  0.066568305    -2.795668     1.166045   563356 
 1527000     1.006028   -2.7957933   -2.7957933   -1.6285088  0.065053366   -2.7957933    1.1672845   563356 
 1528000    1.0046513   -2.7951357   -2.7951357   -1.6294486  0.069150884   -2.7951357    1.1656871   563356 
 1529000    1.0056312   -2.7955754   -2.7955754   -1.6287513  0.077636205   -2.7955754    1.1668241   563356 
 1530000    1.0047548    -2.794855    -2.794855   -1.6290478  0.071391702    -2.794855    1.1658072   563356 
 1531000    1.0036085   -2.7939977   -2.7939977   -1.6295205    0.0669559   -2.7939977    1.1644772   563356 
 1532000     1.004846   -2.7945626   -2.7945626   -1.6286495  0.067863374   -2.7945626    1.1659131   563356 
 1533000     1.005032   -2.7948246   -2.7948246   -1.6286958   0.07026945   -2.7948246    1.1661288   563356 
 1534000    1.0036557   -2.7936148   -2.7936148   -1.6290828  0.072824465   -2.7936148    1.1645319   563356 
 1535000    1.0034829   -2.7934767   -2.7934767   -1.6291453  0.061484323   -2.7934767    1.1643314   563356 
 1536000    1.0035731   -2.7933023   -2.7933023   -1.6288662   0.06360532   -2.7933023    1.1644361   563356 
 1537000    1.0033375   -2.7939685   -2.7939685   -1.6298058  0.066848087   -2.7939685    1.1641627   563356 
 1538000    1.0035903   -2.7933021   -2.7933021    -1.628846  0.059379445   -2.7933021    1.1644561   563356 
 1539000    1.0031005   -2.7926861   -2.7926861   -1.6287983  0.065559637   -2.7926861    1.1638878   563356 
 1540000    1.0031715    -2.792922    -2.792922   -1.6289518  0.053998379    -2.792922    1.1639701   563356 
 1541000    1.0030875   -2.7912894   -2.7912894   -1.6274167  0.064039477   -2.7912894    1.1638727   563356 
 1542000     1.003777   -2.7921469   -2.7921469   -1.6274742  0.070395916   -2.7921469    1.1646727   563356 
 1543000    1.0037751   -2.7929886   -2.7929886   -1.6283181  0.064150726   -2.7929886    1.1646705   563356 
 1544000    1.0037834   -2.7934892   -2.7934892   -1.6288091  0.066480875   -2.7934892    1.1646801   563356 
 1545000    1.0045001   -2.7929741   -2.7929741   -1.6274624  0.067506542   -2.7929741    1.1655117   563356 
 1546000    1.0040161   -2.7932519   -2.7932519   -1.6283018  0.063483579   -2.7932519    1.1649502   563356 
 1547000    1.0023478   -2.7924872   -2.7924872   -1.6294728  0.067917437   -2.7924872    1.1630145   563356 
 1548000    1.0038309   -2.7933902   -2.7933902   -1.6286549  0.058118771   -2.7933902    1.1647352   563356 
 1549000    1.0037305   -2.7929608   -2.7929608    -1.628342  0.060307265   -2.7929608    1.1646187   563356 
 1550000    1.0034186   -2.7930093   -2.7930093   -1.6287525  0.062213384   -2.7930093    1.1642568   563356 
 1551000    1.0035195   -2.7922099   -2.7922099    -1.627836  0.062296086   -2.7922099    1.1643739   563356 
 1552000    1.0043168   -2.7930966   -2.7930966   -1.6277975  0.070478552   -2.7930966    1.1652991   563356 
 1553000    1.0039428     -2.79257     -2.79257   -1.6277049  0.061711439     -2.79257    1.1648651   563356 
 1554000    1.0046475   -2.7934933   -2.7934933   -1.6278105  0.048709752   -2.7934933    1.1656828   563356 
 1555000    1.0036414   -2.7920969   -2.7920969   -1.6275815  0.069005667   -2.7920969    1.1645154   563356 
 1556000     1.002704   -2.7909217   -2.7909217   -1.6274939  0.067116037   -2.7909217    1.1634278   563356 
 1557000    1.0047829   -2.7931753   -2.7931753   -1.6273354  0.059685207   -2.7931753    1.1658399   563356 
 1558000    1.0046866   -2.7939596   -2.7939596   -1.6282315  0.059150559   -2.7939596    1.1657281   563356 
 1559000    1.0048353   -2.7935377   -2.7935377   -1.6276371  0.063900729   -2.7935377    1.1659006   563356 
 1560000    1.0048136   -2.7932061   -2.7932061   -1.6273306  0.067566935   -2.7932061    1.1658755   563356 
 1561000    1.0021095   -2.7906629   -2.7906629    -1.627925  0.063625481   -2.7906629    1.1627379   563356 
 1562000     1.003287   -2.7923267   -2.7923267   -1.6282226  0.054702329   -2.7923267    1.1641041   563356 
 1563000    1.0030917    -2.792734    -2.792734   -1.6288565  0.062075366    -2.792734    1.1638775   563356 
 1564000    1.0050406   -2.7944373   -2.7944373   -1.6282985  0.066621156   -2.7944373    1.1661388   563356 
 1565000    1.0046734   -2.7949955   -2.7949955   -1.6292826  0.062335328   -2.7949955    1.1657128   563356 
 1566000      1.00356    -2.794308    -2.794308   -1.6298871  0.056170411    -2.794308    1.1644209   563356 
 1567000    1.0036567   -2.7943975   -2.7943975   -1.6298643  0.076633335   -2.7943975    1.1645332   563356 
 1568000    1.0022078   -2.7929022   -2.7929022   -1.6300502  0.065329342   -2.7929022     1.162852   563356 
 1569000    1.0032522   -2.7944543   -2.7944543   -1.6303905   0.06604762   -2.7944543    1.1640638   563356 
 1570000    1.0040116   -2.7947067   -2.7947067   -1.6297618  0.060831537   -2.7947067     1.164945   563356 
 1571000     1.003896   -2.7938524   -2.7938524   -1.6290416  0.060584399   -2.7938524    1.1648108   563356 
 1572000    1.0047191   -2.7944243   -2.7944243   -1.6286585  0.060213586   -2.7944243    1.1657658   563356 
 1573000    1.0043778   -2.7944728   -2.7944728   -1.6291031  0.059520784   -2.7944728    1.1653698   563356 
 1574000    1.0038562   -2.7937099   -2.7937099   -1.6289454   0.07211933   -2.7937099    1.1647646   563356 
 1575000     1.003348   -2.7927373   -2.7927373   -1.6285624  0.069295693   -2.7927373    1.1641749   563356 
 1576000    1.0042991   -2.7934128   -2.7934128   -1.6281344   0.06589793   -2.7934128    1.1652785   563356 
 1577000    1.0037626   -2.7930413   -2.7930413   -1.6283852  0.069240643   -2.7930413     1.164656   563356 
 1578000    1.0046994   -2.7940453   -2.7940453   -1.6283024  0.062656559   -2.7940453    1.1657429   563356 
 1579000    1.0043296   -2.7921557   -2.7921557   -1.6268418  0.070280451   -2.7921557    1.1653139   563356 
 1580000    1.0048648   -2.7937363   -2.7937363   -1.6278015  0.064685116   -2.7937363    1.1659349   563356 
 1581000    1.0057089   -2.7945526   -2.7945526   -1.6276383  0.071225729   -2.7945526    1.1669143   563356 
 1582000    1.0039016    -2.793212    -2.793212   -1.6283947  0.067915503    -2.793212    1.1648173   563356 
 1583000    1.0041619   -2.7929017   -2.7929017   -1.6277825  0.064636908   -2.7929017    1.1651193   563356 
 1584000    1.0040997   -2.7924705   -2.7924705   -1.6274233  0.056172705   -2.7924705    1.1650472   563356 
 1585000    1.0049228   -2.7934369   -2.7934369   -1.6274347  0.078518912   -2.7934369    1.1660022   563356 
 1586000    1.0041177   -2.7930358   -2.7930358   -1.6279678  0.055948287   -2.7930358     1.165068   563356 
 1587000    1.0035956   -2.7911588   -2.7911588   -1.6266965  0.068583602   -2.7911588    1.1644622   563356 
 1588000    1.0050709   -2.7930175   -2.7930175   -1.6268434  0.062020999   -2.7930175     1.166174   563356 
 1589000    1.0052226   -2.7932948   -2.7932948   -1.6269447  0.070518411   -2.7932948    1.1663501   563356 
 1590000    1.0018404   -2.7896995   -2.7896995   -1.6272738  0.071602857   -2.7896995    1.1624257   563356 
 1591000    1.0029208   -2.7906789   -2.7906789   -1.6269996  0.071480438   -2.7906789    1.1636792   563356 
 1592000    1.0018302   -2.7898394   -2.7898394   -1.6274255  0.061515517   -2.7898394    1.1624139   563356 
 1593000    1.0021587   -2.7907842   -2.7907842   -1.6279892  0.063419531   -2.7907842     1.162795   563356 
 1594000    1.0022551   -2.7912447   -2.7912447   -1.6283378  0.059785246   -2.7912447    1.1629068   563356 
 1595000    1.0023989   -2.7918366   -2.7918366   -1.6287629  0.068062929   -2.7918366    1.1630737   563356 
 1596000    1.0015974   -2.7913078   -2.7913078   -1.6291641  0.070070291   -2.7913078    1.1621437   563356 
 1597000     1.003333   -2.7934748   -2.7934748   -1.6293172  0.069978197   -2.7934748    1.1641576   563356 
 1598000    1.0029377   -2.7932263   -2.7932263   -1.6295274  0.061245467   -2.7932263    1.1636989   563356 
 1599000    1.0025274   -2.7926697   -2.7926697   -1.6294469  0.059766026   -2.7926697    1.1632228   563356 
 1600000    1.0037515   -2.7934756   -2.7934756   -1.6288325  0.071532438   -2.7934756    1.1646431   563356 
 1601000    1.0058466   -2.7963728   -2.7963728   -1.6292987  0.060200136   -2.7963728    1.1670741   563356 
 1602000    1.0022713   -2.7933436   -2.7933436   -1.6304178  0.054615321   -2.7933436    1.1629257   563356 
 1603000    1.0025405   -2.7938918   -2.7938918   -1.6306538  0.071499788   -2.7938918     1.163238   563356 
 1604000    1.0030843   -2.7940876   -2.7940876   -1.6302186  0.057621275   -2.7940876     1.163869   563356 
 1605000    1.0046243   -2.7954985   -2.7954985   -1.6298426  0.058630395   -2.7954985    1.1656558   563356 
 1606000    1.0031064   -2.7938303   -2.7938303   -1.6299357  0.064716009   -2.7938303    1.1638946   563356 
 1607000    1.0047044   -2.7961042   -2.7961042   -1.6303554  0.055125978   -2.7961042    1.1657488   563356 
 1608000    1.0040474   -2.7953288   -2.7953288   -1.6303424  0.064558511   -2.7953288    1.1649864   563356 
 1609000    1.0034177   -2.7938333   -2.7938333   -1.6295774  0.062862306   -2.7938333    1.1642558   563356 
 1610000    1.0046843   -2.7955052   -2.7955052   -1.6297798  0.063155501   -2.7955052    1.1657254   563356 
 1611000    1.0042824   -2.7948247   -2.7948247   -1.6295656  0.079141024   -2.7948247    1.1652591   563356 
 1612000    1.0044061   -2.7958128   -2.7958128   -1.6304101  0.071057779   -2.7958128    1.1654027   563356 
 1613000    1.0040354   -2.7949001   -2.7949001   -1.6299276  0.072552039   -2.7949001    1.1649725   563356 
 1614000    1.0047995   -2.7958665   -2.7958665   -1.6300074  0.062035266   -2.7958665    1.1658592   563356 
 1615000    1.0036231   -2.7943609   -2.7943609   -1.6298667  0.059491326   -2.7943609    1.1644942   563356 
 1616000    1.0041076    -2.794633    -2.794633   -1.6295767  0.063457444    -2.794633    1.1650564   563356 
 1617000      1.00496   -2.7948288   -2.7948288   -1.6287836  0.061883255   -2.7948288    1.1660453   563356 
 1618000     1.004587   -2.7954235   -2.7954235   -1.6298109  0.066764064   -2.7954235    1.1656125   563356 
 1619000    1.0044284   -2.7950332   -2.7950332   -1.6296046  0.055521683   -2.7950332    1.1654286   563356 
 1620000    1.0024974   -2.7922306   -2.7922306   -1.6290426   0.05968761   -2.7922306     1.163188   563356 
 1621000    1.0027611   -2.7938141   -2.7938141     -1.63032  0.051155403   -2.7938141     1.163494   563356 
 1622000     1.002687   -2.7935267   -2.7935267   -1.6301187  0.064114201   -2.7935267     1.163408   563356 
 1623000    1.0025477   -2.7935987   -2.7935987   -1.6303524  0.056934218   -2.7935987    1.1632463   563356 
 1624000      1.00041   -2.7913697   -2.7913697   -1.6306037  0.061383559   -2.7913697     1.160766   563356 
 1625000    1.0007915   -2.7918797   -2.7918797    -1.630671  0.072502304   -2.7918797    1.1612087   563356 
 1626000     1.001593   -2.7919701   -2.7919701   -1.6298315   0.07219863   -2.7919701    1.1621386   563356 
 1627000    1.0018546   -2.7919893   -2.7919893   -1.6295471  0.063859226   -2.7919893    1.1624422   563356 
 1628000    1.0006567   -2.7915429   -2.7915429   -1.6304906  0.066550043   -2.7915429    1.1610523   563356 
 1629000    1.0030757   -2.7933909   -2.7933909    -1.629532  0.058958545   -2.7933909     1.163859   563356 
 1630000    1.0017279   -2.7923245   -2.7923245   -1.6300293  0.058684992   -2.7923245    1.1622952   563356 
 1631000    1.0047664    -2.793626    -2.793626   -1.6278053  0.066143255    -2.793626    1.1658207   563356 
 1632000    1.0030757   -2.7919497   -2.7919497   -1.6280907  0.058308709   -2.7919497     1.163859   563356 
 1633000    1.0028858   -2.7919138   -2.7919138   -1.6282751   0.05686372   -2.7919138    1.1636386   563356 
 1634000    1.0033893   -2.7930823   -2.7930823   -1.6288594  0.072770055   -2.7930823    1.1642229   563356 
 1635000    1.0042048   -2.7931334   -2.7931334   -1.6279644   0.06634271   -2.7931334     1.165169   563356 
 1636000    1.0025299   -2.7921017   -2.7921017   -1.6288759   0.06113957   -2.7921017    1.1632258   563356 
 1637000    1.0032565   -2.7927784   -2.7927784   -1.6287096  0.073353417   -2.7927784    1.1640688   563356 
 1638000     1.003644   -2.7924068   -2.7924068   -1.6278884  0.055035851   -2.7924068    1.1645183   563356 
 1639000    1.0029539    -2.791337    -2.791337   -1.6276193  0.069909092    -2.791337    1.1637177   563356 
 1640000    1.0054167   -2.7940922   -2.7940922   -1.6275169  0.054982761   -2.7940922    1.1665753   563356 
 1641000    1.0060378   -2.7950616   -2.7950616   -1.6277657   0.06191031   -2.7950616    1.1672959   563356 
 1642000    1.0047649   -2.7938917   -2.7938917   -1.6280727  0.058769428   -2.7938917     1.165819   563356 
 1643000     1.004646   -2.7942813   -2.7942813   -1.6286003  0.067624124   -2.7942813     1.165681   563356 
 1644000      1.00478   -2.7945222   -2.7945222   -1.6286857  0.070982198   -2.7945222    1.1658365   563356 
 1645000    1.0034506   -2.7933748   -2.7933748   -1.6290808  0.067181356   -2.7933748     1.164294   563356 
 1646000    1.0035798   -2.7939761   -2.7939761   -1.6295322  0.067928313   -2.7939761    1.1644439   563356 
 1647000    1.0027967   -2.7925699   -2.7925699   -1.6290346  0.067741805   -2.7925699    1.1635353   563356 
 1648000    1.0035761    -2.794126    -2.794126   -1.6296863  0.056157178    -2.794126    1.1644396   563356 
 1649000    1.0033822   -2.7941334   -2.7941334   -1.6299188   0.04621717   -2.7941334    1.1642146   563356 
 1650000    1.0039919   -2.7950782   -2.7950782   -1.6301562  0.058717142   -2.7950782     1.164922   563356 
 1651000    1.0034291   -2.7947067   -2.7947067   -1.6304377  0.053547157   -2.7947067    1.1642691   563356 
 1652000    1.0029656   -2.7940258   -2.7940258   -1.6302945  0.068403578   -2.7940258    1.1637313   563356 
 1653000    1.0026163   -2.7935344   -2.7935344   -1.6302084  0.061274617   -2.7935344     1.163326   563356 
 1654000    1.0047235    -2.795981    -2.795981   -1.6302102  0.062943799    -2.795981    1.1657709   563356 
 1655000     1.003832   -2.7952003   -2.7952003   -1.6304638  0.063795607   -2.7952003    1.1647365   563356 
 1656000    1.0025743   -2.7944011   -2.7944011   -1.6311238  0.062502558   -2.7944011    1.1632773   563356 
 1657000    1.0033905   -2.7942471   -2.7942471   -1.6300228  0.056169847   -2.7942471    1.1642243   563356 
 1658000    1.0025378    -2.793245    -2.793245   -1.6300101   0.07761895    -2.793245    1.1632349   563356 
 1659000    1.0031716   -2.7940451   -2.7940451   -1.6300748  0.060336756   -2.7940451    1.1639703   563356 
 1660000    1.0028646   -2.7940542   -2.7940542   -1.6304402  0.069206801   -2.7940542    1.1636141   563356 
 1661000    1.0029831   -2.7942544   -2.7942544   -1.6305028   0.06667087   -2.7942544    1.1637515   563356 
 1662000    1.0044364   -2.7969536   -2.7969536   -1.6315159  0.069372054   -2.7969536    1.1654378   563356 
 1663000    1.0025438   -2.7946889   -2.7946889   -1.6314471  0.068890952   -2.7946889    1.1632418   563356 
 1664000    1.0033112   -2.7947408   -2.7947408   -1.6306086  0.061897224   -2.7947408    1.1641322   563356 
 1665000    1.0045047    -2.794885    -2.794885    -1.629368  0.060716806    -2.794885     1.165517   563356 
 1666000    1.0046598   -2.7955818   -2.7955818   -1.6298848  0.059644947   -2.7955818     1.165697   563356 
 1667000     1.004618   -2.7944125   -2.7944125    -1.628764  0.076654067   -2.7944125    1.1656486   563356 
 1668000    1.0043764   -2.7942543   -2.7942543   -1.6288862   0.06409171   -2.7942543    1.1653681   563356 
 1669000    1.0034735    -2.793272    -2.793272   -1.6289514  0.061616732    -2.793272    1.1643206   563356 
 1670000    1.0027745   -2.7938985   -2.7938985   -1.6303889  0.057425734   -2.7938985    1.1635096   563356 
 1671000    1.0023846    -2.793703    -2.793703   -1.6306459  0.057297579    -2.793703    1.1630571   563356 
 1672000     1.003448   -2.7947554   -2.7947554   -1.6304644  0.051929476   -2.7947554     1.164291   563356 
 1673000    1.0026554   -2.7949867   -2.7949867   -1.6316154   0.05913298   -2.7949867    1.1633713   563356 
 1674000    1.0002907   -2.7929816   -2.7929816   -1.6323541  0.075365937   -2.7929816    1.1606276   563356 
 1675000    1.0016774   -2.7933441   -2.7933441   -1.6311075  0.057456577   -2.7933441    1.1622366   563356 
 1676000     1.000145   -2.7918324   -2.7918324   -1.6313739   0.06308631   -2.7918324    1.1604585   563356 
 1677000    1.0021404   -2.7936316   -2.7936316   -1.6308578   0.05737572   -2.7936316    1.1627738   563356 
 1678000    1.0038046   -2.7953986   -2.7953986   -1.6306939  0.060891557   -2.7953986    1.1647047   563356 
 1679000     1.003087   -2.7949326   -2.7949326   -1.6310604  0.062518702   -2.7949326    1.1638721   563356 
 1680000    1.0033355   -2.7949983   -2.7949983   -1.6308379  0.078609267   -2.7949983    1.1641604   563356 
 1681000    1.0043356   -2.7955668   -2.7955668    -1.630246  0.074774569   -2.7955668    1.1653209   563356 
 1682000    1.0056498   -2.7973915   -2.7973915   -1.6305459  0.076170688   -2.7973915    1.1668457   563356 
 1683000    1.0049194   -2.7966877   -2.7966877   -1.6306895  0.066748363   -2.7966877    1.1659982   563356 
 1684000    1.0055267   -2.7973154   -2.7973154   -1.6306126  0.062265674   -2.7973154    1.1667028   563356 
 1685000    1.0048456   -2.7964615   -2.7964615   -1.6305489  0.072747245   -2.7964615    1.1659126   563356 
 1686000     1.004677     -2.79661     -2.79661   -1.6308931   0.07672014     -2.79661    1.1657169   563356 
 1687000    1.0054224   -2.7967756   -2.7967756   -1.6301937  0.066864611   -2.7967756    1.1665819   563356 
 1688000      1.00311   -2.7950045   -2.7950045   -1.6311057  0.055361943   -2.7950045    1.1638988   563356 
 1689000    1.0029344   -2.7962253   -2.7962253   -1.6325302  0.070484567   -2.7962253    1.1636951   563356 
 1690000    1.0043392   -2.7978558   -2.7978558   -1.6325307  0.055935584   -2.7978558    1.1653251   563356 
 1691000    1.0038068   -2.7973155   -2.7973155   -1.6326082  0.058089577   -2.7973155    1.1647073   563356 
 1692000     1.002529   -2.7953005   -2.7953005   -1.6320758  0.070548939   -2.7953005    1.1632246   563356 
 1693000     1.004415   -2.7977921   -2.7977921   -1.6323792  0.061261852   -2.7977921    1.1654129   563356 
 1694000    1.0038398   -2.7980404   -2.7980404   -1.6332948  0.063238894   -2.7980404    1.1647456   563356 
 1695000    1.0030417   -2.7969451   -2.7969451   -1.6331255  0.057285806   -2.7969451    1.1638195   563356 
 1696000    1.0039224   -2.7966891   -2.7966891   -1.6318477   0.06822395   -2.7966891    1.1648414   563356 
 1697000    1.0042762   -2.7967039   -2.7967039    -1.631452  0.065778892   -2.7967039    1.1652519   563356 
 1698000    1.0040801   -2.7973634   -2.7973634    -1.632339  0.067022796   -2.7973634    1.1650244   563356 
 1699000    1.0039799   -2.7967442   -2.7967442   -1.6318361  0.068410672   -2.7967442    1.1649082   563356 
 1700000    1.0026596   -2.7944586   -2.7944586   -1.6310823  0.072440277   -2.7944586    1.1633762   563356 
 1701000    1.0034449   -2.7942574   -2.7942574     -1.62997  0.064450675   -2.7942574    1.1642874   563356 
 1702000    1.0032679   -2.7937442   -2.7937442   -1.6296622  0.068319125   -2.7937442    1.1640821   563356 
 1703000    1.0059682   -2.7972368   -2.7972368   -1.6300217  0.061728667   -2.7972368    1.1672151   563356 
 1704000    1.0036577   -2.7946336   -2.7946336   -1.6300993  0.063921752   -2.7946336    1.1645343   563356 
 1705000    1.0040615   -2.7945979   -2.7945979   -1.6295951  0.062075415   -2.7945979    1.1650028   563356 
 1706000    1.0047358   -2.7959153   -2.7959153   -1.6301301  0.056285202   -2.7959153    1.1657852   563356 
 1707000     1.002695   -2.7933459   -2.7933459   -1.6299286  0.065582841   -2.7933459    1.1634173   563356 
 1708000    1.0027911   -2.7940197   -2.7940197   -1.6304909  0.070427782   -2.7940197    1.1635288   563356 
 1709000     1.002421   -2.7932345   -2.7932345   -1.6301352  0.063519755   -2.7932345    1.1630993   563356 
 1710000    1.0025773   -2.7933849   -2.7933849   -1.6301042  0.071264973   -2.7933849    1.1632807   563356 
 1711000     1.004006   -2.7940187   -2.7940187   -1.6290802  0.066764378   -2.7940187    1.1649385   563356 
 1712000    1.0038198   -2.7940419   -2.7940419   -1.6293196  0.064027941   -2.7940419    1.1647223   563356 
 1713000    1.0038582   -2.7940879   -2.7940879    -1.629321  0.054225544   -2.7940879    1.1647669   563356 
 1714000    1.0012207   -2.7911574   -2.7911574   -1.6294507  0.068651704   -2.7911574    1.1617067   563356 
 1715000    1.0042888   -2.7938679   -2.7938679   -1.6286013  0.068409527   -2.7938679    1.1652666   563356 
 1716000    1.0030559   -2.7924841   -2.7924841   -1.6286481  0.060131115   -2.7924841     1.163836   563356 
 1717000    1.0050237   -2.7943205   -2.7943205   -1.6282012  0.072448321   -2.7943205    1.1661193   563356 
 1718000    1.0041597   -2.7936655   -2.7936655   -1.6285487  0.064597103   -2.7936655    1.1651168   563356 
 1719000    1.0046891   -2.7938811   -2.7938811   -1.6281501  0.057979694   -2.7938811     1.165731   563356 
 1720000    1.0036375   -2.7926949   -2.7926949   -1.6281841  0.074242116   -2.7926949    1.1645108   563356 
 1721000    1.0049177   -2.7954868   -2.7954868   -1.6294905  0.053632183   -2.7954868    1.1659963   563356 
 1722000    1.0045658   -2.7946648   -2.7946648   -1.6290769    0.0623196   -2.7946648    1.1655879   563356 
 1723000     1.005349   -2.7953953   -2.7953953   -1.6288986  0.057967266   -2.7953953    1.1664967   563356 
 1724000    1.0048937   -2.7950401   -2.7950401   -1.6290718  0.064501912   -2.7950401    1.1659684   563356 
 1725000    1.0049787      -2.7948      -2.7948    -1.628733  0.068297053      -2.7948     1.166067   563356 
 1726000    1.0045149   -2.7947203   -2.7947203   -1.6291915  0.063615668   -2.7947203    1.1655288   563356 
 1727000    1.0035232    -2.793048    -2.793048   -1.6286697  0.060436482    -2.793048    1.1643783   563356 
 1728000    1.0057893   -2.7953311   -2.7953311   -1.6283235  0.062436571   -2.7953311    1.1670075   563356 
 1729000    1.0037206   -2.7939386   -2.7939386   -1.6293313  0.062202683   -2.7939386    1.1646073   563356 
 1730000    1.0029882   -2.7924891   -2.7924891   -1.6287317   0.06898276   -2.7924891    1.1637574   563356 
 1731000     1.003847    -2.794153    -2.794153    -1.629399  0.065135421    -2.794153     1.164754   563356 
 1732000    1.0039221   -2.7942152   -2.7942152   -1.6293742  0.068882639   -2.7942152     1.164841   563356 
 1733000    1.0042601   -2.7945729   -2.7945729   -1.6293396  0.063089284   -2.7945729    1.1652333   563356 
 1734000    1.0039978   -2.7945236   -2.7945236   -1.6295947  0.061343616   -2.7945236    1.1649289   563356 
 1735000    1.0032198   -2.7943368   -2.7943368   -1.6303106  0.048659945   -2.7943368    1.1640262   563356 
 1736000     1.003454   -2.7941497   -2.7941497   -1.6298518   0.07226508   -2.7941497    1.1642979   563356 
 1737000    1.0034969   -2.7945459   -2.7945459   -1.6301982  0.064664577   -2.7945459    1.1643477   563356 
 1738000    1.0035656   -2.7943855   -2.7943855    -1.629958  0.064036572   -2.7943855    1.1644274   563356 
 1739000    1.0030442   -2.7945108   -2.7945108   -1.6306883      0.07025   -2.7945108    1.1638225   563356 
 1740000     1.004444   -2.7954456   -2.7954456    -1.629999  0.057762669   -2.7954456    1.1654466   563356 
 1741000    1.0014961   -2.7925947   -2.7925947   -1.6305685   0.06278501   -2.7925947    1.1620263   563356 
 1742000    1.0044349   -2.7955913   -2.7955913   -1.6301553  0.068934857   -2.7955913    1.1654361   563356 
 1743000    1.0034111   -2.7942867   -2.7942867   -1.6300386  0.061925913   -2.7942867    1.1642481   563356 
 1744000    1.0029602   -2.7934873   -2.7934873   -1.6297624  0.070446617   -2.7934873     1.163725   563356 
 1745000    1.0036887   -2.7939128   -2.7939128   -1.6293425  0.057450724   -2.7939128    1.1645703   563356 
 1746000    1.0033062    -2.794525    -2.794525   -1.6303986  0.061469161    -2.794525    1.1641264   563356 
 1747000    1.0058263   -2.7975543   -2.7975543   -1.6305037  0.070333908   -2.7975543    1.1670505   563356 
 1748000    1.0033992   -2.7948579   -2.7948579   -1.6306236   0.05971891   -2.7948579    1.1642343   563356 
 1749000    1.0036014   -2.7954615   -2.7954615   -1.6309926  0.068565358   -2.7954615    1.1644689   563356 
 1750000    1.0044908   -2.7956169   -2.7956169    -1.630116  0.071478587   -2.7956169    1.1655009   563356 
 1751000    1.0040952   -2.7953315   -2.7953315   -1.6302896  0.069943268   -2.7953315    1.1650419   563356 
 1752000    1.0044725   -2.7958878   -2.7958878   -1.6304081  0.065623045   -2.7958878    1.1654797   563356 
 1753000    1.0042645   -2.7956613   -2.7956613    -1.630423  0.075124045   -2.7956613    1.1652383   563356 
 1754000    1.0040242   -2.7959018   -2.7959018   -1.6309422  0.065898112   -2.7959018    1.1649596   563356 
 1755000    1.0046913   -2.7961375   -2.7961375   -1.6304039  0.068983548   -2.7961375    1.1657336   563356 
 1756000    1.0035233   -2.7955119   -2.7955119   -1.6311336  0.071065648   -2.7955119    1.1643783   563356 
 1757000     1.002849   -2.7948949   -2.7948949    -1.631299  0.056629501   -2.7948949    1.1635959   563356 
 1758000    1.0025247   -2.7937434   -2.7937434   -1.6305237  0.075656053   -2.7937434    1.1632196   563356 
 1759000    1.0024743   -2.7935657   -2.7935657   -1.6304045  0.063361751   -2.7935657    1.1631612   563356 
 1760000    1.0017108    -2.792989    -2.792989   -1.6307137  0.070986598    -2.792989    1.1622753   563356 
 1761000    1.0034289   -2.7938906   -2.7938906   -1.6296218  0.075997611   -2.7938906    1.1642688   563356 
 1762000    1.0042333    -2.793934    -2.793934   -1.6287318  0.068739886    -2.793934    1.1652021   563356 
 1763000    1.0038364   -2.7936196   -2.7936196    -1.628878  0.075058217   -2.7936196    1.1647416   563356 
 1764000    1.0049623   -2.7961533   -2.7961533   -1.6301052  0.072584414   -2.7961533    1.1660481   563356 
 1765000    1.0049816   -2.7955152   -2.7955152   -1.6294447  0.056785272   -2.7955152    1.1660704   563356 
 1766000    1.0056644   -2.7958653   -2.7958653   -1.6290027  0.077867165   -2.7958653    1.1668626   563356 
 1767000    1.0058816   -2.7951456   -2.7951456    -1.628031  0.069431447   -2.7951456    1.1671146   563356 
 1768000    1.0041037   -2.7931883   -2.7931883   -1.6281366  0.059381295   -2.7931883    1.1650518   563356 
 1769000    1.0040922   -2.7939652   -2.7939652   -1.6289267  0.063162844   -2.7939652    1.1650385   563356 
 1770000    1.0038371   -2.7931924   -2.7931924     -1.62845  0.064452461   -2.7931924    1.1647425   563356 
 1771000    1.0030278   -2.7917023   -2.7917023   -1.6278988  0.054324048   -2.7917023    1.1638035   563356 
 1772000    1.0042396   -2.7930761   -2.7930761   -1.6278667  0.055789382   -2.7930761    1.1652094   563356 
 1773000    1.0021977   -2.7912014   -2.7912014   -1.6283611   0.06424779   -2.7912014    1.1628403   563356 
 1774000     1.002666   -2.7918476   -2.7918476    -1.628464  0.070760046   -2.7918476    1.1633836   563356 
 1775000    1.0033309   -2.7931959   -2.7931959   -1.6290408  0.062094459   -2.7931959    1.1641551   563356 
 1776000    1.0039222   -2.7937444   -2.7937444   -1.6289032  0.061246047   -2.7937444    1.1648412   563356 
 1777000    1.0030584   -2.7932749   -2.7932749    -1.629436  0.067378919   -2.7932749    1.1638389   563356 
 1778000     1.003453   -2.7936474   -2.7936474   -1.6293507  0.065570572   -2.7936474    1.1642968   563356 
 1779000    1.0025134   -2.7933358   -2.7933358   -1.6301292  0.075957911   -2.7933358    1.1632066   563356 
 1780000    1.0031374   -2.7943265   -2.7943265   -1.6303959  0.063207368   -2.7943265    1.1639306   563356 
 1781000    1.0030023   -2.7938628   -2.7938628    -1.630089  0.062323252   -2.7938628    1.1637738   563356 
 1782000    1.0032381   -2.7931832   -2.7931832   -1.6291358  0.065045516   -2.7931832    1.1640474   563356 
 1783000    1.0041133   -2.7948054   -2.7948054   -1.6297425  0.066332442   -2.7948054     1.165063   563356 
 1784000    1.0047797   -2.7950679   -2.7950679   -1.6292318  0.069736569   -2.7950679    1.1658361   563356 
 1785000    1.0036039   -2.7934006   -2.7934006   -1.6289288  0.068039958   -2.7934006    1.1644718   563356 
 1786000    1.0037821   -2.7941656   -2.7941656   -1.6294869  0.076219947   -2.7941656    1.1646786   563356 
 1787000    1.0040153   -2.7949167   -2.7949167   -1.6299675   0.06371125   -2.7949167    1.1649492   563356 
 1788000    1.0031775   -2.7938297   -2.7938297   -1.6298526  0.068561099   -2.7938297    1.1639771   563356 
 1789000     1.005117   -2.7953779   -2.7953779   -1.6291504  0.070933555   -2.7953779    1.1662275   563356 
 1790000    1.0057701   -2.7961181   -2.7961181   -1.6291329  0.073650753   -2.7961181    1.1669852   563356 
 1791000    1.0057078   -2.7961886   -2.7961886   -1.6292756  0.066581016   -2.7961886     1.166913   563356 
 1792000    1.0060654   -2.7974681   -2.7974681   -1.6301401  0.056879485   -2.7974681     1.167328   563356 
 1793000     1.005648   -2.7967549   -2.7967549   -1.6299113  0.066602255   -2.7967549    1.1668436   563356 
 1794000    1.0038658   -2.7955967   -2.7955967    -1.630821  0.077926826   -2.7955967    1.1647757   563356 
 1795000    1.0036907   -2.7945008   -2.7945008   -1.6299283  0.067210444   -2.7945008    1.1645725   563356 
 1796000    1.0040654   -2.7953903   -2.7953903    -1.630383  0.062920925   -2.7953903    1.1650073   563356 
 1797000    1.0038492   -2.7952324   -2.7952324   -1.6304759  0.060719761   -2.7952324    1.1647565   563356 
 1798000    1.0054875   -2.7962203   -2.7962203   -1.6295629  0.072591688   -2.7962203    1.1666574   563356 
 1799000    1.0039382   -2.7950064   -2.7950064   -1.6301467  0.064233437   -2.7950064    1.1648597   563356 
 1800000    1.0052821   -2.7973822   -2.7973822   -1.6309631  0.070522675   -2.7973822    1.1664191   563356 
 1801000    1.0051587   -2.7975903   -2.7975903   -1.6313145  0.068149351   -2.7975903    1.1662758   563356 
 1802000    1.0044373   -2.7967777   -2.7967777   -1.6313389  0.070835288   -2.7967777    1.1654388   563356 
 1803000     1.004316   -2.7967727   -2.7967727   -1.6314747   0.06705942   -2.7967727    1.1652981   563356 
 1804000     1.006142   -2.7982895   -2.7982895   -1.6308727  0.068225533   -2.7982895    1.1674168   563356 
 1805000    1.0051591   -2.7970185   -2.7970185   -1.6307421  0.073029184   -2.7970185    1.1662764   563356 
 1806000    1.0068693   -2.7990987   -2.7990987    -1.630838  0.061567969   -2.7990987    1.1682607   563356 
 1807000    1.0060818     -2.79811     -2.79811    -1.630763  0.069503728     -2.79811     1.167347   563356 
 1808000    1.0075466   -2.7993378   -2.7993378   -1.6302912  0.062470758   -2.7993378    1.1690466   563356 
 1809000     1.007275   -2.7996986   -2.7996986   -1.6309671  0.069568466   -2.7996986    1.1687314   563356 
 1810000    1.0047028   -2.7974202   -2.7974202   -1.6316733  0.065916708   -2.7974202     1.165747   563356 
 1811000    1.0050445   -2.7974572   -2.7974572   -1.6313138   0.07389175   -2.7974572    1.1661433   563356 
 1812000    1.0054154   -2.7982188   -2.7982188    -1.631645  0.076666242   -2.7982188    1.1665737   563356 
 1813000    1.0032411   -2.7949634   -2.7949634   -1.6309125  0.073289449   -2.7949634    1.1640509   563356 
 1814000    1.0039624   -2.7962607   -2.7962607   -1.6313728  0.060248182   -2.7962607    1.1648878   563356 
 1815000    1.0032039   -2.7957383   -2.7957383   -1.6317305  0.074013613   -2.7957383    1.1640078   563356 
 1816000    1.0038915   -2.7960345   -2.7960345   -1.6312289  0.065611975   -2.7960345    1.1648056   563356 
 1817000    1.0044333   -2.7972435   -2.7972435   -1.6318092  0.055082565   -2.7972435    1.1654343   563356 
 1818000    1.0038335   -2.7961712   -2.7961712   -1.6314329  0.057147124   -2.7961712    1.1647383   563356 
 1819000    1.0024437   -2.7944004   -2.7944004   -1.6312747   0.06262409   -2.7944004    1.1631257   563356 
 1820000    1.0033277   -2.7951775   -2.7951775    -1.631026  0.053886841   -2.7951775    1.1641514   563356 
 1821000    1.0040336   -2.7947205   -2.7947205   -1.6297501  0.064136592   -2.7947205    1.1649704   563356 
 1822000    1.0031369   -2.7939777   -2.7939777   -1.6300477  0.065767737   -2.7939777      1.16393   563356 
 1823000    1.0030696   -2.7946906   -2.7946906   -1.6308387  0.054479315   -2.7946906    1.1638519   563356 
 1824000    1.0033836   -2.7944121   -2.7944121   -1.6301958  0.059435806   -2.7944121    1.1642163   563356 
 1825000    1.0039126   -2.7955692   -2.7955692   -1.6307392  0.063609723   -2.7955692      1.16483   563356 
 1826000    1.0033423   -2.7947285   -2.7947285   -1.6305602  0.070920262   -2.7947285    1.1641683   563356 
 1827000     1.002849   -2.7936736   -2.7936736   -1.6300776  0.053234923   -2.7936736     1.163596   563356 
 1828000    1.0029407   -2.7943366   -2.7943366   -1.6306343  0.067518532   -2.7943366    1.1637023   563356 
 1829000    1.0044608   -2.7953481   -2.7953481    -1.629882  0.055824391   -2.7953481    1.1654661   563356 
 1830000    1.0024194   -2.7936493   -2.7936493   -1.6305518  0.072040611   -2.7936493    1.1630975   563356 
 1831000    1.0030683   -2.7942382   -2.7942382   -1.6303879  0.060826111   -2.7942382    1.1638504   563356 
 1832000    1.0036095   -2.7950384   -2.7950384   -1.6305601  0.068549948   -2.7950384    1.1644783   563356 
 1833000    1.0062357    -2.798462    -2.798462   -1.6309365   0.06095873    -2.798462    1.1675255   563356 
 1834000    1.0046692   -2.7964915   -2.7964915   -1.6307836  0.069636335   -2.7964915    1.1657079   563356 
 1835000    1.0036684   -2.7956501   -2.7956501   -1.6311034  0.062544123   -2.7956501    1.1645467   563356 
 1836000    1.0045083   -2.7962902   -2.7962902    -1.630769  0.064503781   -2.7962902    1.1655212   563356 
 1837000    1.0053157   -2.7964545   -2.7964545   -1.6299965  0.073716088   -2.7964545     1.166458   563356 
 1838000    1.0043017   -2.7964257   -2.7964257   -1.6311442   0.06701908   -2.7964257    1.1652815   563356 
 1839000    1.0064948   -2.7985545   -2.7985545   -1.6307284  0.058537662   -2.7985545    1.1678262   563356 
 1840000      1.00337    -2.795914    -2.795914   -1.6317136  0.068762154    -2.795914    1.1642005   563356 
 1841000     1.003867   -2.7976535   -2.7976535   -1.6328763  0.059281946   -2.7976535    1.1647772   563356 
 1842000    1.0038169   -2.7970872   -2.7970872   -1.6323682  0.070543688   -2.7970872     1.164719   563356 
 1843000    1.0054178   -2.7987642   -2.7987642   -1.6321876  0.068026448   -2.7987642    1.1665766   563356 
 1844000    1.0022031    -2.794792    -2.794792   -1.6319455  0.073807023    -2.794792    1.1628465   563356 
 1845000    1.0046236   -2.7968169   -2.7968169   -1.6311619  0.061764749   -2.7968169     1.165655   563356 
 1846000    1.0028402   -2.7960744   -2.7960744   -1.6324887  0.056829267   -2.7960744    1.1635858   563356 
 1847000    1.0035926   -2.7963318   -2.7963318    -1.631873  0.063014147   -2.7963318    1.1644588   563356 
 1848000    1.0025754   -2.7949833   -2.7949833   -1.6317049  0.071614954   -2.7949833    1.1632785   563356 
 1849000    1.0031917   -2.7958865   -2.7958865    -1.631893  0.069164391   -2.7958865    1.1639936   563356 
 1850000    1.0018502   -2.7950527   -2.7950527   -1.6326156  0.069954657   -2.7950527    1.1624371   563356 
 1851000    1.0042553   -2.7956318   -2.7956318   -1.6304041  0.061234136   -2.7956318    1.1652277   563356 
 1852000    1.0029478   -2.7953428   -2.7953428   -1.6316322  0.079613627   -2.7953428    1.1637106   563356 
 1853000    1.0035664   -2.7964096   -2.7964096   -1.6319813  0.053200264   -2.7964096    1.1644283   563356 
 1854000    1.0042834   -2.7971071   -2.7971071   -1.6318468  0.062197002   -2.7971071    1.1652602   563356 
 1855000    1.0055701   -2.7973682   -2.7973682   -1.6306149  0.066842998   -2.7973682    1.1667532   563356 
 1856000    1.0051161   -2.7963438   -2.7963438   -1.6301173  0.066303782   -2.7963438    1.1662265   563356 
 1857000    1.0037565   -2.7962897   -2.7962897   -1.6316407  0.061304852   -2.7962897    1.1646489   563356 
 1858000    1.0032548   -2.7953788   -2.7953788   -1.6313121  0.068081046   -2.7953788    1.1640668   563356 
 1859000    1.0026229   -2.7946943   -2.7946943   -1.6313606  0.063187083   -2.7946943    1.1633336   563356 
 1860000    1.0032645    -2.795986    -2.795986    -1.631908  0.067682726    -2.795986    1.1640781   563356 
 1861000    1.0025861   -2.7958536   -2.7958536   -1.6325626  0.061099987   -2.7958536     1.163291   563356 
 1862000    1.0021971    -2.796116    -2.796116   -1.6332764  0.063692309    -2.796116    1.1628396   563356 
 1863000    1.0039939    -2.797755    -2.797755   -1.6328306  0.070011403    -2.797755    1.1649244   563356 
 1864000    1.0024199   -2.7954546   -2.7954546   -1.6323565  0.077771503   -2.7954546    1.1630981   563356 
 1865000    1.0038529   -2.7976206   -2.7976206   -1.6328598  0.056412786   -2.7976206    1.1647608   563356 
 1866000    1.0036709   -2.7975331   -2.7975331   -1.6329835  0.069050406   -2.7975331    1.1645496   563356 
 1867000     1.002866   -2.7965421   -2.7965421   -1.6329264  0.067423114   -2.7965421    1.1636157   563356 
 1868000     1.003105    -2.796268    -2.796268   -1.6323751  0.055615428    -2.796268     1.163893   563356 
 1869000    1.0036114   -2.7959687   -2.7959687   -1.6314881  0.071786124   -2.7959687    1.1644806   563356 
 1870000     1.003432   -2.7951815   -2.7951815   -1.6309091  0.061930863   -2.7951815    1.1642724   563356 
 1871000    1.0043759   -2.7967047   -2.7967047   -1.6313371  0.071631794   -2.7967047    1.1653677   563356 
 1872000    1.0041694   -2.7963264   -2.7963264   -1.6311984  0.071552254   -2.7963264     1.165128   563356 
 1873000    1.0052717   -2.7977191   -2.7977191    -1.631312  0.068864332   -2.7977191     1.166407   563356 
 1874000    1.0031245   -2.7949568   -2.7949568   -1.6310411  0.065681374   -2.7949568    1.1639156   563356 
 1875000    1.0041927   -2.7956264   -2.7956264   -1.6304714  0.072374143   -2.7956264     1.165155   563356 
 1876000    1.0030043   -2.7948859   -2.7948859   -1.6311097  0.070410309   -2.7948859    1.1637762   563356 
 1877000    1.0045083   -2.7961245   -2.7961245   -1.6306032  0.066446821   -2.7961245    1.1655213   563356 
 1878000    1.0048833   -2.7965815   -2.7965815   -1.6306252   0.07129097   -2.7965815    1.1659563   563356 
 1879000    1.0048515   -2.7966953   -2.7966953   -1.6307759  0.061459182   -2.7966953    1.1659194   563356 
 1880000     1.002834   -2.7948543   -2.7948543   -1.6312758  0.069075034   -2.7948543    1.1635786   563356 
 1881000     1.003511   -2.7959314   -2.7959314   -1.6315674  0.057558201   -2.7959314    1.1643641   563356 
 1882000    1.0039163   -2.7962337   -2.7962337   -1.6313994  0.068358417   -2.7962337    1.1648343   563356 
 1883000    1.0028681   -2.7954896   -2.7954896   -1.6318714  0.071555643   -2.7954896    1.1636182   563356 
 1884000    1.0034138   -2.7963971   -2.7963971   -1.6321458  0.050592604   -2.7963971    1.1642513   563356 
 1885000    1.0028596   -2.7962493   -2.7962493   -1.6326411  0.054286507   -2.7962493    1.1636083   563356 
 1886000    1.0017679   -2.7944105   -2.7944105    -1.632069  0.070873419   -2.7944105    1.1623415   563356 
 1887000    1.0026713   -2.7959002   -2.7959002   -1.6325105  0.063526329   -2.7959002    1.1633898   563356 
 1888000    1.0037624   -2.7962207   -2.7962207   -1.6315649   0.07101018   -2.7962207    1.1646558   563356 
 1889000    1.0045908    -2.797485    -2.797485    -1.631868  0.063489203    -2.797485     1.165617   563356 
 1890000    1.0041313   -2.7966241   -2.7966241   -1.6315403  0.056938958   -2.7966241    1.1650838   563356 
 1891000    1.0030874   -2.7957326   -2.7957326     -1.63186  0.057337639   -2.7957326    1.1638726   563356 
 1892000     1.002654   -2.7958472   -2.7958472   -1.6324775  0.068107638   -2.7958472    1.1633697   563356 
 1893000    1.0026186   -2.7947479   -2.7947479   -1.6314193  0.051319906   -2.7947479    1.1633287   563356 
 1894000    1.0021241   -2.7936146   -2.7936146   -1.6308597    0.0658775   -2.7936146    1.1627549   563356 
 1895000    1.0029132   -2.7945612   -2.7945612   -1.6308907  0.062180263   -2.7945612    1.1636705   563356 
 1896000    1.0037391   -2.7951545   -2.7951545   -1.6305257  0.067755217   -2.7951545    1.1646288   563356 
 1897000    1.0035297   -2.7954226   -2.7954226   -1.6310368  0.069700062   -2.7954226    1.1643858   563356 
 1898000    1.0035139   -2.7949549   -2.7949549   -1.6305874  0.062246522   -2.7949549    1.1643674   563356 
 1899000    1.0032687   -2.7940357   -2.7940357   -1.6299528  0.069263247   -2.7940357     1.164083   563356 
 1900000    1.0036738   -2.7942434   -2.7942434   -1.6296904  0.072892681   -2.7942434     1.164553   563356 
 1901000    1.0041582    -2.795304    -2.795304    -1.630189  0.061890825    -2.795304     1.165115   563356 
 1902000    1.0038287   -2.7951796   -2.7951796   -1.6304469  0.068423594   -2.7951796    1.1647327   563356 
 1903000    1.0032602   -2.7948564   -2.7948564   -1.6307833  0.062596948   -2.7948564     1.164073   563356 
 1904000    1.0039467   -2.7956839   -2.7956839   -1.6308144  0.066835036   -2.7956839    1.1648696   563356 
 1905000    1.0045881   -2.7963923   -2.7963923   -1.6307784   0.05413899   -2.7963923    1.1656139   563356 
 1906000    1.0040751   -2.7961111   -2.7961111   -1.6310925  0.061366755   -2.7961111    1.1650186   563356 
 1907000    1.0049851   -2.7968799   -2.7968799   -1.6308054  0.063801513   -2.7968799    1.1660745   563356 
 1908000    1.0037149   -2.7951069   -2.7951069   -1.6305063  0.056101969   -2.7951069    1.1646007   563356 
 1909000    1.0045434   -2.7966431   -2.7966431   -1.6310811  0.055339156   -2.7966431     1.165562   563356 
 1910000    1.0040608   -2.7961659   -2.7961659   -1.6311639   0.05800723   -2.7961659     1.165002   563356 
 1911000    1.0048866   -2.7961737   -2.7961737   -1.6302136  0.066044847   -2.7961737    1.1659601   563356 
 1912000    1.0033086   -2.7944206   -2.7944206   -1.6302913  0.068690635   -2.7944206    1.1641293   563356 
 1913000    1.0048932   -2.7947278   -2.7947278   -1.6287599  0.069111772   -2.7947278    1.1659678   563356 
 1914000    1.0061261   -2.7974422   -2.7974422   -1.6300439  0.070675578   -2.7974422    1.1673983   563356 
 1915000     1.003581   -2.7953917   -2.7953917   -1.6309464  0.077893752   -2.7953917    1.1644453   563356 
 1916000    1.0048416   -2.7963677   -2.7963677   -1.6304597  0.072346188   -2.7963677     1.165908   563356 
 1917000    1.0040677   -2.7962457   -2.7962457   -1.6312357  0.067288165   -2.7962457      1.16501   563356 
 1918000    1.0042613   -2.7967097   -2.7967097   -1.6314751  0.063077215   -2.7967097    1.1652346   563356 
 1919000    1.0047708   -2.7963469   -2.7963469    -1.630521  0.061432041   -2.7963469    1.1658259   563356 
 1920000    1.0044556   -2.7965449   -2.7965449   -1.6310849  0.056747535   -2.7965449    1.1654601   563356 
 1921000    1.0027063   -2.7944825   -2.7944825   -1.6310521  0.075117247   -2.7944825    1.1634304   563356 
 1922000    1.0046834   -2.7967741   -2.7967741   -1.6310496  0.060055779   -2.7967741    1.1657245   563356 
 1923000     1.004692   -2.7963174   -2.7963174   -1.6305831  0.056269406   -2.7963174    1.1657344   563356 
 1924000    1.0031115   -2.7947142   -2.7947142   -1.6308136     0.060157   -2.7947142    1.1639005   563356 
 1925000    1.0040572   -2.7950541   -2.7950541   -1.6300563  0.057100608   -2.7950541    1.1649978   563356 
 1926000    1.0023181   -2.7943256   -2.7943256   -1.6313456   0.05882883   -2.7943256      1.16298   563356 
 1927000    1.0028955   -2.7951154   -2.7951154   -1.6314655  0.066602486   -2.7951154    1.1636499   563356 
 1928000    1.0034007   -2.7960348   -2.7960348   -1.6317987  0.061960557   -2.7960348    1.1642361   563356 
 1929000    1.0043394    -2.796975    -2.796975   -1.6316497  0.054550517    -2.796975    1.1653252   563356 
 1930000     1.004066   -2.7966589   -2.7966589   -1.6316508  0.076345352   -2.7966589    1.1650081   563356 
 1931000    1.0036899   -2.7954892   -2.7954892   -1.6309175   0.07533441   -2.7954892    1.1645717   563356 
 1932000    1.0044476   -2.7959872   -2.7959872   -1.6305364   0.06162714   -2.7959872    1.1654508   563356 
 1933000    1.0034243   -2.7948648   -2.7948648   -1.6306013  0.070715533   -2.7948648    1.1642635   563356 
 1934000    1.0034082   -2.7948158   -2.7948158    -1.630571  0.059865357   -2.7948158    1.1642448   563356 
 1935000    1.0036836   -2.7945927   -2.7945927   -1.6300284  0.071110662   -2.7945927    1.1645644   563356 
 1936000    1.0034245   -2.7954693   -2.7954693   -1.6312055  0.068864951   -2.7954693    1.1642638   563356 
 1937000    1.0030166    -2.794837    -2.794837   -1.6310466   0.05419061    -2.794837    1.1637904   563356 
 1938000    1.0030336   -2.7947667   -2.7947667   -1.6309566  0.051971088   -2.7947667    1.1638102   563356 
 1939000    1.0028391   -2.7952794   -2.7952794   -1.6316949  0.067637622   -2.7952794    1.1635845   563356 
 1940000    1.0031118   -2.7951842   -2.7951842   -1.6312833    0.0711218   -2.7951842    1.1639009   563356 
 1941000    1.0040987   -2.7963974   -2.7963974   -1.6313514  0.066199902   -2.7963974    1.1650459   563356 
 1942000    1.0053319   -2.7971158   -2.7971158   -1.6306389  0.069429885   -2.7971158    1.1664769   563356 
 1943000    1.0046112    -2.795644    -2.795644   -1.6300034  0.066662694    -2.795644    1.1656406   563356 
 1944000    1.0049347   -2.7962952   -2.7962952   -1.6302792  0.065981023   -2.7962952     1.166016   563356 
 1945000    1.0044674   -2.7961941   -2.7961941   -1.6307204  0.070578569   -2.7961941    1.1654738   563356 
 1946000    1.0052383   -2.7966045   -2.7966045   -1.6302362  0.069850552   -2.7966045    1.1663683   563356 
 1947000    1.0067341   -2.7975466   -2.7975466   -1.6294428  0.075372001   -2.7975466    1.1681038   563356 
 1948000     1.005071   -2.7956282   -2.7956282   -1.6294541  0.065926445   -2.7956282    1.1661741   563356 
 1949000    1.0036205   -2.7945462   -2.7945462    -1.630055   0.06544397   -2.7945462    1.1644911   563356 
 1950000    1.0029723   -2.7938361   -2.7938361    -1.630097  0.071458188   -2.7938361    1.1637391   563356 
 1951000     1.002435   -2.7930529   -2.7930529   -1.6299374  0.065773115   -2.7930529    1.1631155   563356 
 1952000    1.0051374   -2.7960111   -2.7960111     -1.62976  0.057904466   -2.7960111    1.1662511   563356 
 1953000    1.0009901   -2.7914527   -2.7914527   -1.6300136  0.065287141   -2.7914527    1.1614391   563356 
 1954000    1.0020686    -2.793513    -2.793513   -1.6308226  0.062109948    -2.793513    1.1626905   563356 
 1955000    1.0016681   -2.7924132   -2.7924132   -1.6301874  0.069586558   -2.7924132    1.1622258   563356 
 1956000    1.0020763   -2.7934621   -2.7934621   -1.6307627  0.057751149   -2.7934621    1.1626994   563356 
 1957000    1.0042281   -2.7942797   -2.7942797   -1.6290836  0.066355874   -2.7942797    1.1651961   563356 
 1958000    1.0027675   -2.7932506   -2.7932506   -1.6297492  0.059921141   -2.7932506    1.1635014   563356 
 1959000     1.003566   -2.7932357   -2.7932357   -1.6288079  0.058889686   -2.7932357    1.1644279   563356 
 1960000    1.0038097    -2.793554    -2.793554   -1.6288434  0.058836455    -2.793554    1.1647106   563356 
 1961000    1.0029428   -2.7919285   -2.7919285   -1.6282238  0.060730043   -2.7919285    1.1637048   563356 
 1962000    1.0054282   -2.7950115   -2.7950115   -1.6284229  0.060474064   -2.7950115    1.1665886   563356 
 1963000    1.0027717   -2.7920824   -2.7920824   -1.6285761  0.061488814   -2.7920824    1.1635063   563356 
 1964000    1.0033592   -2.7926592   -2.7926592   -1.6284713  0.072995279   -2.7926592    1.1641879   563356 
 1965000    1.0033073   -2.7938261   -2.7938261   -1.6296983  0.070665948   -2.7938261    1.1641278   563356 
 1966000    1.0037965   -2.7943206   -2.7943206   -1.6296253  0.065958486   -2.7943206    1.1646953   563356 
 1967000    1.0031602   -2.7927771   -2.7927771     -1.62882  0.063614517   -2.7927771    1.1639571   563356 
 1968000    1.0046775   -2.7950318   -2.7950318   -1.6293143  0.070753665   -2.7950318    1.1657175   563356 
 1969000     1.002982   -2.7930879   -2.7930879   -1.6293376  0.057611739   -2.7930879    1.1637503   563356 
 1970000    1.0038018   -2.7942713   -2.7942713   -1.6295699  0.065726344   -2.7942713    1.1647014   563356 
 1971000      1.00214   -2.7932457   -2.7932457   -1.6304724  0.051304368   -2.7932457    1.1627733   563356 
 1972000    1.0036356   -2.7941169   -2.7941169   -1.6296083  0.063490353   -2.7941169    1.1645086   563356 
 1973000    1.0029722    -2.794465    -2.794465   -1.6307261  0.057978402    -2.794465    1.1637389   563356 
 1974000    1.0023004   -2.7937926   -2.7937926   -1.6308332  0.067464211   -2.7937926    1.1629594   563356 
 1975000    1.0037901   -2.7948958   -2.7948958   -1.6302079  0.069145725   -2.7948958    1.1646879   563356 
 1976000    1.0042196   -2.7958061   -2.7958061   -1.6306198  0.066199644   -2.7958061    1.1651863   563356 
 1977000    1.0031484   -2.7949808   -2.7949808   -1.6310375  0.069849425   -2.7949808    1.1639433   563356 
 1978000    1.0019294   -2.7932226   -2.7932226   -1.6306936  0.070371556   -2.7932226    1.1625289   563356 
 1979000    1.0040964   -2.7963551   -2.7963551   -1.6313119  0.072226008   -2.7963551    1.1650433   563356 
 1980000    1.0056975   -2.7967307   -2.7967307   -1.6298297  0.072742541   -2.7967307     1.166901   563356 
 1981000    1.0060608   -2.7966807   -2.7966807   -1.6293581  0.065993026   -2.7966807    1.1673226   563356 
 1982000    1.0046666   -2.7953936   -2.7953936   -1.6296886  0.068539929   -2.7953936     1.165705   563356 
 1983000     1.003923   -2.7949009   -2.7949009   -1.6300588  0.059003752   -2.7949009    1.1648421   563356 
 1984000    1.0045194   -2.7955352   -2.7955352   -1.6300011  0.070870678   -2.7955352    1.1655341   563356 
 1985000    1.0043219   -2.7953619   -2.7953619   -1.6300569  0.057077566   -2.7953619     1.165305   563356 
 1986000    1.0034308   -2.7932002   -2.7932002   -1.6289293  0.064780197   -2.7932002     1.164271   563356 
 1987000    1.0046687    -2.795246    -2.795246   -1.6295387  0.075603444    -2.795246    1.1657073   563356 
 1988000     1.005079   -2.7963501   -2.7963501   -1.6301666  0.074108401   -2.7963501    1.1661834   563356 
 1989000    1.0025317   -2.7947357   -2.7947357    -1.631508  0.071194512   -2.7947357    1.1632278   563356 
 1990000    1.0031337    -2.794328    -2.794328   -1.6304018  0.072308689    -2.794328    1.1639263   563356 
 1991000    1.0029957   -2.7936189   -2.7936189   -1.6298526  0.053396501   -2.7936189    1.1637662   563356 
 1992000    1.0031755   -2.7949239   -2.7949239   -1.6309491  0.064274538   -2.7949239    1.1639748   563356 
 1993000    1.0032237   -2.7953851   -2.7953851   -1.6313544  0.065190014   -2.7953851    1.1640307   563356 
 1994000    1.0033221   -2.7948424   -2.7948424   -1.6306976  0.069463118   -2.7948424    1.1641449   563356 
 1995000    1.0039636   -2.7957368   -2.7957368   -1.6308476  0.063707652   -2.7957368    1.1648892   563356 
 1996000     1.001403   -2.7925436   -2.7925436   -1.6306254  0.056559409   -2.7925436    1.1619182   563356 
 1997000    1.0027336   -2.7939309   -2.7939309   -1.6304688  0.069269251   -2.7939309    1.1634621   563356 
 1998000    1.0013859   -2.7926316   -2.7926316   -1.6307332  0.062545932   -2.7926316    1.1618984   563356 
 1999000    1.0021375   -2.7940361   -2.7940361   -1.6312656   0.06028323   -2.7940361    1.1627704   563356 
 2000000    1.0030116   -2.7947508   -2.7947508   -1.6309662  0.064224626   -2.7947508    1.1637846   563356 
 2001000    1.0020412   -2.7930916   -2.7930916   -1.6304329  0.063835649   -2.7930916    1.1626587   563356 
 2002000    1.0035455   -2.7943544   -2.7943544   -1.6299503  0.058808074   -2.7943544    1.1644041   563356 
 2003000    1.0041897   -2.7949254   -2.7949254   -1.6297739  0.065823022   -2.7949254    1.1651515   563356 
 2004000    1.0039254   -2.7938042   -2.7938042   -1.6289592  0.073290564   -2.7938042    1.1648449   563356 
 2005000    1.0038103   -2.7944616   -2.7944616   -1.6297503  0.072427015   -2.7944616    1.1647113   563356 
 2006000    1.0053361   -2.7955411   -2.7955411   -1.6290594  0.065524094   -2.7955411    1.1664817   563356 
 2007000    1.0068141   -2.7968252   -2.7968252   -1.6286286   0.07079665   -2.7968252    1.1681966   563356 
 2008000    1.0050887   -2.7957882   -2.7957882   -1.6295935  0.066527044   -2.7957882    1.1661947   563356 
 2009000    1.0037923   -2.7940781   -2.7940781   -1.6293876  0.064478163   -2.7940781    1.1646905   563356 
 2010000    1.0022603   -2.7931887   -2.7931887   -1.6302758  0.075650556   -2.7931887     1.162913   563356 
 2011000    1.0048769   -2.7960528   -2.7960528   -1.6301039  0.053494128   -2.7960528     1.165949   563356 
 2012000    1.0019574     -2.79396     -2.79396   -1.6313986  0.073687855     -2.79396    1.1625614   563356 
 2013000    1.0025708   -2.7937873   -2.7937873   -1.6305141   0.05121933   -2.7937873    1.1632731   563356 
 2014000    1.0025407   -2.7935326   -2.7935326   -1.6302943   0.06057955   -2.7935326    1.1632382   563356 
 2015000    1.0023354    -2.792956    -2.792956   -1.6299559  0.070215872    -2.792956        1.163   563356 
 2016000    1.0031579   -2.7943654   -2.7943654    -1.630411  0.061687597   -2.7943654    1.1639543   563356 
 2017000    1.0037313   -2.7945365   -2.7945365   -1.6299168  0.067111823   -2.7945365    1.1646197   563356 
 2018000    1.0049752   -2.7955018   -2.7955018   -1.6294388  0.060726704   -2.7955018     1.166063   563356 
 2019000    1.0028693   -2.7934763   -2.7934763   -1.6298568  0.062017307   -2.7934763    1.1636195   563356 
 2020000    1.0016071   -2.7922577   -2.7922577   -1.6301028  0.062473831   -2.7922577     1.162155   563356 
 2021000    1.0016354   -2.7920209   -2.7920209   -1.6298332   0.07180574   -2.7920209    1.1621878   563356 
 2022000    1.0022917   -2.7919521   -2.7919521   -1.6290028  0.073323421   -2.7919521    1.1629493   563356 
 2023000    1.0026708   -2.7931893   -2.7931893   -1.6298001  0.071176496   -2.7931893    1.1633892   563356 
 2024000    1.0040729   -2.7943338   -2.7943338   -1.6293177  0.064401818   -2.7943338    1.1650161   563356 
 2025000    1.0039306   -2.7933648   -2.7933648   -1.6285138  0.070464798   -2.7933648     1.164851   563356 
 2026000    1.0044706   -2.7938727   -2.7938727   -1.6283952  0.060324172   -2.7938727    1.1654775   563356 
 2027000    1.0051872   -2.7952587   -2.7952587   -1.6289498  0.061491386   -2.7952587    1.1663089   563356 
 2028000    1.0038443   -2.7941478   -2.7941478   -1.6293969  0.067886799   -2.7941478    1.1647508   563356 
 2029000    1.0048204   -2.7960815   -2.7960815   -1.6301981  0.067556367   -2.7960815    1.1658834   563356 
 2030000    1.0033554   -2.7940202   -2.7940202   -1.6298367  0.053215177   -2.7940202    1.1641835   563356 
 2031000    1.0043627   -2.7949373   -2.7949373    -1.629585  0.059854064   -2.7949373    1.1653523   563356 
 2032000    1.0041156   -2.7955803   -2.7955803   -1.6305148  0.064259754   -2.7955803    1.1650655   563356 
 2033000    1.0035067   -2.7948038   -2.7948038   -1.6304447  0.064992813   -2.7948038    1.1643591   563356 
 2034000    1.0034415    -2.795424    -2.795424   -1.6311405  0.056402612    -2.795424    1.1642835   563356 
 2035000    1.0039859   -2.7962845   -2.7962845   -1.6313694  0.060596013   -2.7962845    1.1649151   563356 
 2036000    1.0048029   -2.7957034   -2.7957034   -1.6298403  0.068634866   -2.7957034     1.165863   563356 
 2037000     1.005294   -2.7965251   -2.7965251   -1.6300922  0.069449209   -2.7965251    1.1664329   563356 
 2038000    1.0048512    -2.795653    -2.795653    -1.629734  0.064124193    -2.795653    1.1659191   563356 
 2039000    1.0051436   -2.7955487   -2.7955487   -1.6292904  0.070572075   -2.7955487    1.1662583   563356 
 2040000    1.0053494    -2.795207    -2.795207   -1.6287099  0.088621681    -2.795207    1.1664971   563356 
 2041000    1.0048318   -2.7952943   -2.7952943   -1.6293977  0.069443754   -2.7952943    1.1658966   563356 
 2042000    1.0053729   -2.7964294   -2.7964294   -1.6299049  0.061645651   -2.7964294    1.1665245   563356 
 2043000    1.0036108   -2.7954949   -2.7954949    -1.631015  0.067439654   -2.7954949    1.1644798   563356 
 2044000     1.003131    -2.795254    -2.795254   -1.6313308  0.071442905    -2.795254    1.1639232   563356 
 2045000    1.0036518   -2.7968654   -2.7968654    -1.632338  0.065412577   -2.7968654    1.1645274   563356 
 2046000    1.0029942   -2.7950737   -2.7950737   -1.6313093  0.060515803   -2.7950737    1.1637644   563356 
 2047000    1.0031188   -2.7953499   -2.7953499   -1.6314409  0.064199658   -2.7953499     1.163909   563356 
 2048000    1.0022788   -2.7936716   -2.7936716   -1.6307372  0.060319287   -2.7936716    1.1629344   563356 
 2049000    1.0022802   -2.7943598   -2.7943598   -1.6314238  0.056777071   -2.7943598     1.162936   563356 
 2050000    1.0028607   -2.7951617   -2.7951617   -1.6315521  0.066102642   -2.7951617    1.1636095   563356 
 2051000    1.0019445   -2.7940915   -2.7940915    -1.631545  0.061951519   -2.7940915    1.1625465   563356 
 2052000    1.0017226   -2.7938018   -2.7938018   -1.6315128  0.063916457   -2.7938018     1.162289   563356 
 2053000    1.0038542    -2.795265    -2.795265   -1.6305027   0.06588691    -2.795265    1.1647623   563356 
 2054000    1.0029078    -2.794834    -2.794834   -1.6311699   0.06975297    -2.794834    1.1636641   563356 
 2055000     1.001759   -2.7937972   -2.7937972   -1.6314659  0.071757563   -2.7937972    1.1623313   563356 
 2056000     1.004594   -2.7954976   -2.7954976   -1.6298769  0.072411862   -2.7954976    1.1656207   563356 
 2057000    1.0042451    -2.795735    -2.795735   -1.6305191  0.068431599    -2.795735    1.1652159   563356 
 2058000    1.0041532    -2.794793    -2.794793   -1.6296838  0.074093341    -2.794793    1.1651092   563356 
 2059000    1.0031472   -2.7941517   -2.7941517   -1.6302098  0.070015306   -2.7941517    1.1639419   563356 
 2060000    1.0012496   -2.7933381   -2.7933381    -1.631598  0.078022439   -2.7933381    1.1617401   563356 
 2061000    1.0017537   -2.7943276   -2.7943276   -1.6320025   0.06916288   -2.7943276     1.162325   563356 
 2062000      1.00339   -2.7959474   -2.7959474   -1.6317237  0.059948069   -2.7959474    1.1642237   563356 
 2063000    1.0015892   -2.7944812   -2.7944812   -1.6323469  0.055143007   -2.7944812    1.1621343   563356 
 2064000    1.0012412    -2.793967    -2.793967   -1.6322366  0.067845616    -2.793967    1.1617304   563356 
 2065000    1.0015217   -2.7945485   -2.7945485   -1.6324926  0.069884558   -2.7945485     1.162056   563356 
 2066000    1.0008753   -2.7935838   -2.7935838   -1.6322779  0.069052396   -2.7935838    1.1613059   563356 
 2067000    1.0028157   -2.7956925   -2.7956925   -1.6321351   0.06114681   -2.7956925    1.1635573   563356 
 2068000    1.0032476   -2.7954596   -2.7954596    -1.631401  0.059402441   -2.7954596    1.1640585   563356 
 2069000    1.0048423   -2.7966645   -2.7966645   -1.6307557   0.06469378   -2.7966645    1.1659088   563356 
 2070000    1.0054039   -2.7972109   -2.7972109   -1.6306506  0.070704939   -2.7972109    1.1665604   563356 
 2071000    1.0030155   -2.7947389   -2.7947389   -1.6309497  0.064986838   -2.7947389    1.1637892   563356 
 2072000    1.0035686   -2.7956019   -2.7956019    -1.631171    0.0684038   -2.7956019     1.164431   563356 
 2073000    1.0047304   -2.7973216   -2.7973216   -1.6315427  0.057591376   -2.7973216    1.1657789   563356 
 2074000    1.0039357   -2.7967884   -2.7967884   -1.6319316  0.056841642   -2.7967884    1.1648569   563356 
 2075000    1.0041132   -2.7966195   -2.7966195   -1.6315567  0.066407197   -2.7966195    1.1650627   563356 
 2076000    1.0037316   -2.7956817   -2.7956817   -1.6310616  0.061890151   -2.7956817      1.16462   563356 
 2077000    1.0046275   -2.7973725   -2.7973725   -1.6317129  0.072562097   -2.7973725    1.1656595   563356 
 2078000    1.0035458   -2.7966474   -2.7966474   -1.6322429   0.06526371   -2.7966474    1.1644045   563356 
 2079000    1.0028653   -2.7952863   -2.7952863   -1.6316715  0.075383336   -2.7952863    1.1636148   563356 
 2080000    1.0033566   -2.7969208   -2.7969208   -1.6327359  0.054408434   -2.7969208    1.1641849   563356 
 2081000    1.0029963   -2.7964895   -2.7964895   -1.6327227  0.058391036   -2.7964895    1.1637668   563356 
 2082000    1.0040869   -2.7979263   -2.7979263    -1.632894  0.061609174   -2.7979263    1.1650323   563356 
 2083000    1.0029916   -2.7971705   -2.7971705    -1.633409  0.067466029   -2.7971705    1.1637615   563356 
 2084000    1.0052897   -2.7994237   -2.7994237   -1.6329958  0.055225327   -2.7994237    1.1664278   563356 
 2085000    1.0035735   -2.7967337   -2.7967337   -1.6322971  0.064402684   -2.7967337    1.1644366   563356 
 2086000    1.0043125   -2.7971747   -2.7971747   -1.6318806  0.062789716   -2.7971747     1.165294   563356 
 2087000    1.0052933   -2.7985123   -2.7985123   -1.6320802  0.065570364   -2.7985123    1.1664321   563356 
 2088000    1.0055564   -2.7993035   -2.7993035   -1.6325662  0.063044622   -2.7993035    1.1667373   563356 
 2089000     1.004716   -2.7984228   -2.7984228   -1.6326606  0.058411937   -2.7984228    1.1657622   563356 
 2090000    1.0031421   -2.7962814   -2.7962814   -1.6323453  0.072941218   -2.7962814    1.1639361   563356 
 2091000    1.0032852   -2.7981457   -2.7981457   -1.6340437  0.067746923   -2.7981457    1.1641021   563356 
 2092000    1.0036057   -2.7984729   -2.7984729   -1.6339989  0.057593259   -2.7984729     1.164474   563356 
 2093000    1.0018172   -2.7970393   -2.7970393   -1.6346406  0.070806603   -2.7970393    1.1623988   563356 
 2094000    1.0020335   -2.7976029   -2.7976029   -1.6349532  0.065593451   -2.7976029    1.1626497   563356 
 2095000    1.0046238   -2.7993325   -2.7993325   -1.6336772  0.052534425   -2.7993325    1.1656552   563356 
 2096000    1.0030178   -2.7973231   -2.7973231   -1.6335313  0.074914429   -2.7973231    1.1637918   563356 
 2097000    1.0029894   -2.7971895   -2.7971895   -1.6334306  0.069153527   -2.7971895    1.1637589   563356 
 2098000    1.0034338   -2.7977927   -2.7977927   -1.6335181  0.066931326   -2.7977927    1.1642745   563356 
 2099000    1.0026561   -2.7982257   -2.7982257   -1.6348535  0.067548033   -2.7982257    1.1633722   563356 
 2100000    1.0044323   -2.7997465   -2.7997465   -1.6343135  0.058343744   -2.7997465     1.165433   563356 
 2101000     1.002985   -2.7976597   -2.7976597    -1.633906  0.073619412   -2.7976597    1.1637537   563356 
 2102000    1.0030652   -2.7974578   -2.7974578    -1.633611  0.080667556   -2.7974578    1.1638468   563356 
 2103000    1.0034634   -2.7976332   -2.7976332   -1.6333243  0.066261417   -2.7976332    1.1643089   563356 
 2104000    1.0029605   -2.7967827   -2.7967827   -1.6330574  0.066712874   -2.7967827    1.1637253   563356 
 2105000    1.0026342   -2.7965965   -2.7965965   -1.6332497  0.068578489   -2.7965965    1.1633468   563356 
 2106000    1.0026279   -2.7960104   -2.7960104    -1.632671  0.074377211   -2.7960104    1.1633394   563356 
 2107000    1.0032391   -2.7966474   -2.7966474   -1.6325989   0.06472621   -2.7966474    1.1640486   563356 
 2108000    1.0026525   -2.7960228   -2.7960228   -1.6326549  0.066197022   -2.7960228    1.1633679   563356 
 2109000    1.0019668   -2.7956326   -2.7956326   -1.6330603  0.069582939   -2.7956326    1.1625723   563356 
 2110000    1.0027728   -2.7964754   -2.7964754   -1.6329678  0.059812797   -2.7964754    1.1635076   563356 
 2111000    1.0032444   -2.7965238   -2.7965238    -1.632469  0.062722566   -2.7965238    1.1640548   563356 
 2112000    1.0024218   -2.7957221   -2.7957221   -1.6326218  0.066574878   -2.7957221    1.1631003   563356 
 2113000    1.0035455   -2.7971961   -2.7971961    -1.632792  0.064311192   -2.7971961    1.1644041   563356 
 2114000    1.0019245   -2.7950204   -2.7950204   -1.6324972  0.067580954   -2.7950204    1.1625233   563356 
 2115000    1.0027796   -2.7964773   -2.7964773   -1.6329618  0.058253469   -2.7964773    1.1635155   563356 
 2116000    1.0033384   -2.7975803   -2.7975803   -1.6334165  0.065681766   -2.7975803    1.1641638   563356 
 2117000    1.0021889   -2.7960186   -2.7960186   -1.6331885  0.072926614   -2.7960186    1.1628301   563356 
 2118000    1.0033364   -2.7979262   -2.7979262   -1.6337646  0.074178645   -2.7979262    1.1641615   563356 
 2119000    1.0043259    -2.798367    -2.798367   -1.6330575  0.067254543    -2.798367    1.1653096   563356 
 2120000    1.0028404   -2.7972703   -2.7972703   -1.6336843  0.065013869   -2.7972703     1.163586   563356 
 2121000    1.0033481   -2.7974932   -2.7974932   -1.6333182  0.053860336   -2.7974932     1.164175   563356 
 2122000     1.002967   -2.7970789   -2.7970789    -1.633346  0.068155605   -2.7970789    1.1637329   563356 
 2123000    1.0042595   -2.7975535   -2.7975535    -1.632321  0.073112924   -2.7975535    1.1652325   563356 
 2124000    1.0053288   -2.7990643   -2.7990643   -1.6325911  0.058303876   -2.7990643    1.1664733   563356 
 2125000     1.005447     -2.79922     -2.79922   -1.6326095  0.068882508     -2.79922    1.1666104   563356 
 2126000    1.0050513   -2.7982303   -2.7982303    -1.632079  0.081984121   -2.7982303    1.1661513   563356 
 2127000     1.004381   -2.7984274   -2.7984274   -1.6330539   0.06813323   -2.7984274    1.1653735   563356 
 2128000    1.0047491   -2.7992035   -2.7992035   -1.6334028  0.050408743   -2.7992035    1.1658006   563356 
 2129000    1.0042876   -2.7989805   -2.7989805   -1.6337153  0.058500919   -2.7989805    1.1652652   563356 
 2130000    1.0028275   -2.7979568   -2.7979568   -1.6343859  0.075443846   -2.7979568     1.163571   563356 
 2131000    1.0048069   -2.7996548   -2.7996548   -1.6337872   0.06410437   -2.7996548    1.1658676   563356 
 2132000    1.0042595   -2.7987531   -2.7987531   -1.6335205  0.067784409   -2.7987531    1.1652326   563356 
 2133000     1.001706    -2.796332    -2.796332   -1.6340623  0.077236118    -2.796332    1.1622697   563356 
 2134000    1.0018688   -2.7963101   -2.7963101   -1.6338514  0.064128456   -2.7963101    1.1624587   563356 
 2135000    1.0031697   -2.7968373   -2.7968373   -1.6328692  0.070153065   -2.7968373    1.1639681   563356 
 2136000     1.003069   -2.7965597   -2.7965597   -1.6327085  0.061618743   -2.7965597    1.1638512   563356 
 2137000    1.0029199    -2.796903    -2.796903   -1.6332248  0.057822495    -2.796903    1.1636782   563356 
 2138000    1.0029614   -2.7968385   -2.7968385   -1.6331122  0.067791028   -2.7968385    1.1637263   563356 
 2139000    1.0028972   -2.7961087   -2.7961087   -1.6324568  0.064189935   -2.7961087    1.1636518   563356 
 2140000    1.0038827   -2.7976803   -2.7976803   -1.6328849  0.067111291   -2.7976803    1.1647953   563356 
 2141000    1.0030957   -2.7968588   -2.7968588   -1.6329765  0.064500559   -2.7968588    1.1638822   563356 
 2142000    1.0026042    -2.795117    -2.795117    -1.631805  0.061932528    -2.795117     1.163312   563356 
 2143000    1.0053064   -2.7973731   -2.7973731   -1.6309258  0.059034007   -2.7973731    1.1664473   563356 
 2144000    1.0036271   -2.7958378   -2.7958378    -1.631339  0.062904158   -2.7958378    1.1644988   563356 
 2145000    1.0027782   -2.7944421   -2.7944421   -1.6309283  0.065114715   -2.7944421    1.1635138   563356 
 2146000    1.0030908   -2.7949784   -2.7949784   -1.6311019   0.06650229   -2.7949784    1.1638765   563356 
 2147000     1.004247   -2.7960528   -2.7960528   -1.6308348  0.059877497   -2.7960528    1.1652181   563356 
 2148000     1.002761   -2.7950763   -2.7950763   -1.6315825  0.056287597   -2.7950763    1.1634938   563356 
 2149000    1.0041544    -2.796084    -2.796084   -1.6309734  0.061102174    -2.796084    1.1651106   563356 
 2150000    1.0027885   -2.7958772   -2.7958772   -1.6323515  0.049038599   -2.7958772    1.1635257   563356 
 2151000    1.0018016   -2.7949189   -2.7949189   -1.6325383  0.058259954   -2.7949189    1.1623806   563356 
 2152000    1.0033376   -2.7972404   -2.7972404   -1.6330775   0.07493094   -2.7972404    1.1641629   563356 
 2153000    1.0039933   -2.7972299   -2.7972299   -1.6323062  0.056675212   -2.7972299    1.1649237   563356 
 2154000    1.0032585   -2.7960943   -2.7960943   -1.6320232  0.062348379   -2.7960943    1.1640711   563356 
 2155000    1.0033884   -2.7960832   -2.7960832   -1.6318613  0.058971256   -2.7960832    1.1642219   563356 
 2156000    1.0032567   -2.7955672   -2.7955672   -1.6314982  0.058319314   -2.7955672     1.164069   563356 
 2157000    1.0021126   -2.7946167   -2.7946167   -1.6318752  0.066023368   -2.7946167    1.1627415   563356 
 2158000    1.0029382   -2.7957101   -2.7957101   -1.6320107  0.071289804   -2.7957101    1.1636995   563356 
 2159000    1.0047677   -2.7980047   -2.7980047   -1.6321826  0.063652385   -2.7980047    1.1658222   563356 
 2160000    1.0030437   -2.7956984   -2.7956984   -1.6318766  0.067526726   -2.7956984    1.1638219   563356 
 2161000    1.0040089   -2.7970721   -2.7970721   -1.6321303  0.063850959   -2.7970721    1.1649418   563356 
 2162000    1.0050799   -2.7980307   -2.7980307   -1.6318463  0.061749344   -2.7980307    1.1661844   563356 
 2163000    1.0037966    -2.797381    -2.797381   -1.6326856  0.061298042    -2.797381    1.1646954   563356 
 2164000    1.0041773   -2.7975314   -2.7975314   -1.6323942  0.070408778   -2.7975314    1.1651372   563356 
 2165000    1.0042414   -2.7986328   -2.7986328   -1.6334212  0.066461995   -2.7986328    1.1652116   563356 
 2166000    1.0042565   -2.7984576   -2.7984576   -1.6332285  0.057406707   -2.7984576    1.1652291   563356 
 2167000    1.0053365   -2.7994841   -2.7994841   -1.6330019  0.064662823   -2.7994841    1.1664821   563356 
 2168000    1.0042691   -2.7985377   -2.7985377   -1.6332939  0.079672354   -2.7985377    1.1652437   563356 
 2169000    1.0043029   -2.7978384   -2.7978384   -1.6325555  0.069066532   -2.7978384    1.1652829   563356 
 2170000    1.0049147   -2.7991027   -2.7991027   -1.6331099  0.061397473   -2.7991027    1.1659928   563356 
 2171000    1.0053533   -2.8001704   -2.8001704   -1.6336687  0.068913699   -2.8001704    1.1665017   563356 
 2172000    1.0052437   -2.7992336   -2.7992336   -1.6328591  0.071909256   -2.7992336    1.1663745   563356 
 2173000    1.0042471   -2.7982989   -2.7982989   -1.6330807   0.06892352   -2.7982989    1.1652181   563356 
 2174000    1.0046671   -2.7994125   -2.7994125    -1.633707  0.065823851   -2.7994125    1.1657055   563356 
 2175000    1.0042061   -2.7995108   -2.7995108   -1.6343401  0.064138403   -2.7995108    1.1651706   563356 
 2176000    1.0035688   -2.8001457   -2.8001457   -1.6357146  0.065818911   -2.8001457    1.1644311   563356 
 2177000    1.0027128    -2.797883    -2.797883    -1.634445  0.061567241    -2.797883    1.1634379   563356 
 2178000    1.0001863   -2.7961221   -2.7961221   -1.6356157   0.06157323   -2.7961221    1.1605064   563356 
 2179000     1.002817   -2.7985214   -2.7985214   -1.6349626  0.068854108   -2.7985214    1.1635588   563356 
 2180000    1.0036682   -2.7975044   -2.7975044   -1.6329579  0.073682258   -2.7975044    1.1645465   563356 
 2181000    1.0034012   -2.7970892   -2.7970892   -1.6328525  0.062743753   -2.7970892    1.1642366   563356 
 2182000    1.0042122   -2.7991509   -2.7991509   -1.6339733   0.06103716   -2.7991509    1.1651776   563356 
 2183000    1.0044361   -2.7988949   -2.7988949   -1.6334574  0.072251923   -2.7988949    1.1654375   563356 
 2184000    1.0029727   -2.7976692   -2.7976692   -1.6339298  0.074004998   -2.7976692    1.1637395   563356 
 2185000    1.0035861   -2.7972105   -2.7972105   -1.6327594  0.061415752   -2.7972105    1.1644512   563356 
 2186000    1.0014411   -2.7947184   -2.7947184    -1.632756  0.068371042   -2.7947184    1.1619624   563356 
 2187000    1.0032282   -2.7968618   -2.7968618   -1.6328258  0.073931895   -2.7968618    1.1640359   563356 
 2188000    1.0033409   -2.7970155   -2.7970155   -1.6328487  0.071238273   -2.7970155    1.1641667   563356 
 2189000    1.0043736   -2.7978498   -2.7978498   -1.6324849  0.069029686   -2.7978498    1.1653649   563356 
 2190000    1.0036841   -2.7976128   -2.7976128   -1.6330479   0.06092485   -2.7976128    1.1645649   563356 
 2191000    1.0043985   -2.7975984   -2.7975984   -1.6322046  0.057248421   -2.7975984    1.1653938   563356 
 2192000    1.0041553   -2.7969951   -2.7969951   -1.6318835  0.067721293   -2.7969951    1.1651117   563356 
 2193000    1.0036709   -2.7965462   -2.7965462   -1.6319966  0.071868462   -2.7965462    1.1645497   563356 
 2194000    1.0018682   -2.7939011   -2.7939011   -1.6314431  0.068291617   -2.7939011     1.162458   563356 
 2195000    1.0021282    -2.793833    -2.793833   -1.6310735  0.071741932    -2.793833    1.1627596   563356 
 2196000    1.0027014   -2.7948844   -2.7948844   -1.6314597  0.063492036   -2.7948844    1.1634247   563356 
 2197000    1.0040453   -2.7957112   -2.7957112   -1.6307272  0.074764446   -2.7957112     1.164984   563356 
 2198000    1.0039692   -2.7951072   -2.7951072   -1.6302115  0.054339015   -2.7951072    1.1648958   563356 
 2199000     1.005125   -2.7969734   -2.7969734   -1.6307367  0.061078838   -2.7969734    1.1662368   563356 
 2200000    1.0036486   -2.7943144   -2.7943144   -1.6297907  0.068867569   -2.7943144    1.1645237   563356 
 2201000    1.0051424   -2.7967273   -2.7967273   -1.6304703  0.062810755   -2.7967273     1.166257   563356 
 2202000    1.0038569    -2.795872    -2.795872   -1.6311066  0.062241199    -2.795872    1.1647654   563356 
 2203000    1.0038261   -2.7950847   -2.7950847    -1.630355  0.059967582   -2.7950847    1.1647297   563356 
 2204000    1.0039332   -2.7953285   -2.7953285   -1.6304746  0.066582903   -2.7953285    1.1648539   563356 
 2205000    1.0029788   -2.7947464   -2.7947464   -1.6309998  0.055573183   -2.7947464    1.1637466   563356 
 2206000    1.0025366   -2.7942027   -2.7942027   -1.6309691  0.061559863   -2.7942027    1.1632335   563356 
 2207000    1.0040531   -2.7945857   -2.7945857   -1.6295927  0.067959481   -2.7945857    1.1649931   563356 
 2208000    1.0061722   -2.7963063   -2.7963063   -1.6288545  0.069137089   -2.7963063    1.1674518   563356 
 2209000     1.006326   -2.7968757   -2.7968757   -1.6292455  0.073748662   -2.7968757    1.1676302   563356 
 2210000    1.0049727   -2.7951026   -2.7951026   -1.6290425  0.079888721   -2.7951026      1.16606   563356 
 2211000     1.003292   -2.7932659   -2.7932659   -1.6291559  0.071385811   -2.7932659    1.1641099   563356 
 2212000    1.0035862   -2.7942894   -2.7942894    -1.629838  0.069110004   -2.7942894    1.1644513   563356 
 2213000    1.0019233   -2.7918557   -2.7918557   -1.6293338  0.065757539   -2.7918557    1.1625219   563356 
 2214000    1.0035039   -2.7937312   -2.7937312   -1.6293754  0.068569523   -2.7937312    1.1643558   563356 
 2215000    1.0040729   -2.7949146   -2.7949146   -1.6298986   0.06888851   -2.7949146    1.1650161   563356 
 2216000    1.0043746   -2.7946116   -2.7946116   -1.6292455  0.055419342   -2.7946116    1.1653661   563356 
 2217000    1.0033577   -2.7936141   -2.7936141   -1.6294279  0.052974399   -2.7936141    1.1641862   563356 
 2218000    1.0042291   -2.7942912   -2.7942912   -1.6290939  0.069115486   -2.7942912    1.1651973   563356 
 2219000    1.0027708   -2.7925795   -2.7925795   -1.6290742  0.073433692   -2.7925795    1.1635052   563356 
 2220000    1.0042811   -2.7949225   -2.7949225   -1.6296649   0.06118887   -2.7949225    1.1652576   563356 
 2221000    1.0032285   -2.7933772   -2.7933772   -1.6293409  0.056879792   -2.7933772    1.1640363   563356 
 2222000    1.0048089   -2.7949616   -2.7949616   -1.6290916  0.065113686   -2.7949616      1.16587   563356 
 2223000    1.0054129   -2.7948379   -2.7948379   -1.6282671  0.063701362   -2.7948379    1.1665708   563356 
 2224000    1.0041358   -2.7940907   -2.7940907   -1.6290017  0.070288078   -2.7940907    1.1650891   563356 
 2225000    1.0048458   -2.7953526   -2.7953526   -1.6294398  0.056856371   -2.7953526    1.1659128   563356 
 2226000    1.0050184   -2.7944424   -2.7944424   -1.6283293  0.075159979   -2.7944424    1.1661131   563356 
 2227000    1.0042613   -2.7930507   -2.7930507    -1.627816  0.066863781   -2.7930507    1.1652347   563356 
 2228000    1.0049823   -2.7947539   -2.7947539   -1.6286827  0.063030879   -2.7947539    1.1660712   563356 
 2229000    1.0055088   -2.7955489   -2.7955489   -1.6288669  0.066661552   -2.7955489    1.1666821   563356 
 2230000    1.0026878   -2.7925311   -2.7925311   -1.6291221  0.065924295   -2.7925311     1.163409   563356 
 2231000    1.0043483    -2.794768    -2.794768   -1.6294325  0.069315686    -2.794768    1.1653355   563356 
 2232000    1.0032001   -2.7930123   -2.7930123   -1.6290089  0.069676152   -2.7930123    1.1640033   563356 
 2233000    1.0029252    -2.792589    -2.792589   -1.6289047  0.056815318    -2.792589    1.1636844   563356 
 2234000    1.0029483   -2.7927823   -2.7927823   -1.6290712  0.056272674   -2.7927823    1.1637111   563356 
 2235000    1.0036349   -2.7928739   -2.7928739   -1.6283661  0.071338344   -2.7928739    1.1645079   563356 
 2236000    1.0032269   -2.7929291   -2.7929291   -1.6288947  0.060020228   -2.7929291    1.1640344   563356 
 2237000    1.0037446   -2.7934503   -2.7934503   -1.6288151  0.069467929   -2.7934503    1.1646351   563356 
 2238000    1.0037165   -2.7938932   -2.7938932   -1.6292906   0.06770222   -2.7938932    1.1646026   563356 
 2239000    1.0008595   -2.7893904   -2.7893904   -1.6281029  0.060097963   -2.7893904    1.1612875   563356 
 2240000    1.0024877   -2.7910594   -2.7910594   -1.6278827  0.060239486   -2.7910594    1.1631767   563356 
 2241000    1.0034546   -2.7926501   -2.7926501   -1.6283515  0.062560997   -2.7926501    1.1642986   563356 
 2242000    1.0046303   -2.7931014   -2.7931014   -1.6274386  0.063767075   -2.7931014    1.1656628   563356 
 2243000     1.002899   -2.7911053   -2.7911053   -1.6274512  0.070517209   -2.7911053     1.163654   563356 
 2244000    1.0048668   -2.7936239   -2.7936239   -1.6276866  0.062591915   -2.7936239    1.1659372   563356 
 2245000    1.0026936   -2.7908814   -2.7908814   -1.6274658  0.061622202   -2.7908814    1.1634157   563356 
 2246000    1.0036737   -2.7918064   -2.7918064   -1.6272535  0.061705803   -2.7918064    1.1645529   563356 
 2247000     1.004482   -2.7926367   -2.7926367    -1.627146  0.057493769   -2.7926367    1.1654907   563356 
 2248000     1.005286   -2.7931318   -2.7931318   -1.6267082  0.061991631   -2.7931318    1.1664236   563356 
 2249000    1.0044282   -2.7924749   -2.7924749   -1.6270465  0.060016147   -2.7924749    1.1654283   563356 
 2250000    1.0043637   -2.7920611   -2.7920611   -1.6267076  0.076677068   -2.7920611    1.1653535   563356 
 2251000    1.0053042   -2.7930034   -2.7930034   -1.6265586  0.054643205   -2.7930034    1.1664447   563356 
 2252000    1.0043847   -2.7917678   -2.7917678   -1.6263899  0.067675056   -2.7917678    1.1653778   563356 
 2253000    1.0055923   -2.7945245   -2.7945245   -1.6277455  0.076128419   -2.7945245     1.166779   563356 
 2254000    1.0056588   -2.7954179   -2.7954179   -1.6285617  0.063212265   -2.7954179    1.1668562   563356 
 2255000    1.0061305   -2.7957849   -2.7957849   -1.6283814  0.057857754   -2.7957849    1.1674035   563356 
 2256000    1.0030734   -2.7924229   -2.7924229   -1.6285666  0.070887145   -2.7924229    1.1638563   563356 
 2257000    1.0027975   -2.7929986   -2.7929986   -1.6294623  0.074053454   -2.7929986    1.1635363   563356 
 2258000     1.004865   -2.7948461   -2.7948461   -1.6289109  0.067435125   -2.7948461    1.1659351   563356 
 2259000    1.0055691   -2.7955201   -2.7955201    -1.628768  0.067656038   -2.7955201    1.1667521   563356 
 2260000    1.0048763   -2.7947305   -2.7947305   -1.6287823  0.074118078   -2.7947305    1.1659483   563356 
 2261000     1.004884   -2.7945581   -2.7945581   -1.6286009  0.066219183   -2.7945581    1.1659572   563356 
 2262000    1.0038937   -2.7939184   -2.7939184   -1.6291102  0.067207935   -2.7939184    1.1648082   563356 
 2263000    1.0039283    -2.794151    -2.794151   -1.6293027  0.071437433    -2.794151    1.1648483   563356 
 2264000     1.003274   -2.7934124   -2.7934124   -1.6293233  0.064087241   -2.7934124    1.1640891   563356 
 2265000    1.0052937   -2.7954582   -2.7954582   -1.6290257  0.062663911   -2.7954582    1.1664325   563356 
 2266000    1.0038294   -2.7952067   -2.7952067   -1.6304732  0.058413204   -2.7952067    1.1647335   563356 
 2267000    1.0033389   -2.7946341   -2.7946341   -1.6304697  0.062923119   -2.7946341    1.1641644   563356 
 2268000    1.0027894   -2.7943789   -2.7943789   -1.6308521  0.058824597   -2.7943789    1.1635268   563356 
 2269000    1.0038287   -2.7948622   -2.7948622   -1.6301295  0.057879737   -2.7948622    1.1647327   563356 
 2270000    1.0045912   -2.7962202   -2.7962202   -1.6306027  0.060142676   -2.7962202    1.1656175   563356 
 2271000    1.0034308   -2.7960489   -2.7960489   -1.6317779  0.067517364   -2.7960489     1.164271   563356 
 2272000     1.003597   -2.7965399   -2.7965399   -1.6320761  0.057289157   -2.7965399    1.1644638   563356 
 2273000    1.0051335   -2.7983051   -2.7983051   -1.6320585  0.064824096   -2.7983051    1.1662466   563356 
 2274000    1.0048688   -2.7982266   -2.7982266   -1.6322871  0.063515519   -2.7982266    1.1659395   563356 
 2275000    1.0053161   -2.7981733   -2.7981733   -1.6317148  0.067971292   -2.7981733    1.1664585   563356 
 2276000    1.0046825   -2.7972245   -2.7972245   -1.6315011  0.068590336   -2.7972245    1.1657234   563356 
 2277000    1.0045993   -2.7970644   -2.7970644   -1.6314376  0.074118407   -2.7970644    1.1656268   563356 
 2278000    1.0049107   -2.7973998   -2.7973998   -1.6314117  0.068639373   -2.7973998    1.1659881   563356 
 2279000    1.0046086   -2.7976011   -2.7976011   -1.6319635  0.068569741   -2.7976011    1.1656376   563356 
 2280000    1.0044566    -2.797188    -2.797188   -1.6317268  0.072897032    -2.797188    1.1654613   563356 
 2281000    1.0033143   -2.7963175   -2.7963175   -1.6321816  0.064236244   -2.7963175    1.1641359   563356 
 2282000    1.0026228   -2.7960675   -2.7960675    -1.632734  0.062763612   -2.7960675    1.1633335   563356 
 2283000     1.002227   -2.7960895   -2.7960895   -1.6332151  0.070842062   -2.7960895    1.1628743   563356 
 2284000    1.0024451   -2.7959347   -2.7959347   -1.6328074  0.067428028   -2.7959347    1.1631273   563356 
 2285000    1.0023526   -2.7960611   -2.7960611   -1.6330412  0.070205914   -2.7960611    1.1630199   563356 
 2286000    1.0027164   -2.7966424   -2.7966424   -1.6332004   0.06160797   -2.7966424    1.1634421   563356 
 2287000    1.0026654   -2.7971288   -2.7971288   -1.6337458  0.068747973   -2.7971288     1.163383   563356 
 2288000    1.0026422   -2.7962817   -2.7962817   -1.6329257  0.066996785   -2.7962817    1.1633561   563356 
 2289000    1.0020933   -2.7955429   -2.7955429   -1.6328238  0.054035399   -2.7955429    1.1627191   563356 
 2290000    1.0031655    -2.797264    -2.797264   -1.6333008  0.068947421    -2.797264    1.1639632   563356 
 2291000    1.0029346   -2.7953983   -2.7953983    -1.631703  0.066225144   -2.7953983    1.1636953   563356 
 2292000    1.0039868   -2.7964598   -2.7964598   -1.6315437  0.068292454   -2.7964598    1.1649161   563356 
 2293000    1.0047805   -2.7980148   -2.7980148   -1.6321778  0.070815709   -2.7980148    1.1658371   563356 
 2294000    1.0041859   -2.7965469   -2.7965469   -1.6313997  0.074375301   -2.7965469    1.1651472   563356 
 2295000    1.0045962    -2.797527    -2.797527   -1.6319038  0.080479593    -2.797527    1.1656232   563356 
 2296000    1.0051134   -2.7975092   -2.7975092   -1.6312859  0.070655678   -2.7975092    1.1662233   563356 
 2297000    1.0031058   -2.7964612   -2.7964612   -1.6325672  0.063810842   -2.7964612     1.163894   563356 
 2298000    1.0033586   -2.7977918   -2.7977918   -1.6336046  0.069970535   -2.7977918    1.1641872   563356 
 2299000    1.0034193   -2.7967411   -2.7967411   -1.6324834  0.077574193   -2.7967411    1.1642576   563356 
 2300000    1.0009144   -2.7943631   -2.7943631   -1.6330119  0.070629969   -2.7943631    1.1613512   563356 
 2301000    1.0025624   -2.7971616   -2.7971616   -1.6338982  0.055008708   -2.7971616    1.1632634   563356 
 2302000    1.0004164   -2.7945762   -2.7945762   -1.6338028  0.062998237   -2.7945762    1.1607734   563356 
 2303000    1.0023692   -2.7967978   -2.7967978   -1.6337586  0.066927955   -2.7967978    1.1630393   563356 
 2304000    1.0023703   -2.7970507   -2.7970507   -1.6340102  0.058228918   -2.7970507    1.1630405   563356 
 2305000    1.0015798    -2.795882    -2.795882   -1.6337587  0.071198072    -2.795882    1.1621234   563356 
 2306000    1.0025605   -2.7964108   -2.7964108   -1.6331496  0.062071454   -2.7964108    1.1632613   563356 
 2307000      1.00334   -2.7968662   -2.7968662   -1.6327005  0.071506456   -2.7968662    1.1641657   563356 
 2308000     1.004554   -2.7985173   -2.7985173    -1.632943  0.054640951   -2.7985173    1.1655743   563356 
 2309000    1.0050606   -2.7986213   -2.7986213   -1.6324592  0.073149961   -2.7986213     1.166162   563356 
 2310000    1.0055165   -2.7995246   -2.7995246   -1.6328335  0.067003758   -2.7995246    1.1666911   563356 
 2311000    1.0031841    -2.796176    -2.796176   -1.6321912  0.084825145    -2.796176    1.1639848   563356 
 2312000     1.006171   -2.7995094   -2.7995094   -1.6320589  0.064976609   -2.7995094    1.1674505   563356 
 2313000    1.0048464     -2.79777     -2.79777   -1.6318565  0.071501174     -2.79777    1.1659135   563356 
 2314000    1.0049554   -2.7971945   -2.7971945   -1.6311546  0.071944465   -2.7971945      1.16604   563356 
 2315000    1.0040901   -2.7964595   -2.7964595   -1.6314235  0.066930683   -2.7964595     1.165036   563356 
 2316000    1.0036417   -2.7957501   -2.7957501   -1.6312344  0.071443769   -2.7957501    1.1645157   563356 
 2317000    1.0031825   -2.7968538   -2.7968538   -1.6328709  0.058554606   -2.7968538     1.163983   563356 
 2318000    1.0034227   -2.7973867   -2.7973867   -1.6331251  0.058784874   -2.7973867    1.1642616   563356 
 2319000    1.0043841   -2.7978726   -2.7978726   -1.6324955  0.061913829   -2.7978726    1.1653771   563356 
 2320000    1.0033293   -2.7961603   -2.7961603    -1.632007  0.067453161   -2.7961603    1.1641532   563356 
 2321000     1.002662   -2.7967078   -2.7967078   -1.6333288  0.062656903   -2.7967078     1.163379   563356 
 2322000    1.0013059   -2.7953179   -2.7953179   -1.6335124  0.061850392   -2.7953179    1.1618055   563356 
 2323000    1.0022076   -2.7956637   -2.7956637    -1.632812  0.068699936   -2.7956637    1.1628517   563356 
 2324000    1.0037562   -2.7964056   -2.7964056   -1.6317571  0.062806241   -2.7964056    1.1646485   563356 
 2325000     1.003351   -2.7962887   -2.7962887   -1.6321103  0.083939464   -2.7962887    1.1641785   563356 
 2326000    1.0027704    -2.795352    -2.795352   -1.6318472  0.068118655    -2.795352    1.1635048   563356 
 2327000    1.0021666   -2.7946948   -2.7946948   -1.6318906  0.061081951   -2.7946948    1.1628042   563356 
 2328000    1.0041375   -2.7967663   -2.7967663   -1.6316754   0.06031706   -2.7967663     1.165091   563356 
 2329000    1.0042519   -2.7962977   -2.7962977    -1.631074  0.069309692   -2.7962977    1.1652237   563356 
 2330000    1.0048882   -2.7966071   -2.7966071    -1.630645  0.065907467   -2.7966071    1.1659621   563356 
 2331000     1.005038   -2.7962657   -2.7962657   -1.6301298  0.069809353   -2.7962657    1.1661359   563356 
 2332000    1.0043879    -2.796133    -2.796133   -1.6307515  0.057728329    -2.796133    1.1653815   563356 
 2333000    1.0046337   -2.7967506   -2.7967506   -1.6310839   0.06771536   -2.7967506    1.1656667   563356 
 2334000    1.0048651   -2.7962314   -2.7962314   -1.6302962  0.059495039   -2.7962314    1.1659352   563356 
 2335000    1.0036106   -2.7954575   -2.7954575   -1.6309779  0.078920232   -2.7954575    1.1644796   563356 
 2336000    1.0055355   -2.7978815   -2.7978815   -1.6311685  0.070088706   -2.7978815     1.166713   563356 
 2337000    1.0028292   -2.7950201   -2.7950201   -1.6314471  0.057897581   -2.7950201    1.1635729   563356 
 2338000    1.0032675   -2.7955115   -2.7955115     -1.63143  0.053872245   -2.7955115    1.1640815   563356 
 2339000    1.0032994   -2.7959785   -2.7959785   -1.6318599  0.074908648   -2.7959785    1.1641186   563356 
 2340000    1.0044064   -2.7975506   -2.7975506   -1.6321476  0.062988808   -2.7975506     1.165403   563356 
 2341000    1.0037638   -2.7965043   -2.7965043    -1.631847  0.061717946   -2.7965043    1.1646574   563356 
 2342000    1.0044426   -2.7966415   -2.7966415   -1.6311965  0.060450014   -2.7966415     1.165445   563356 
 2343000    1.0035945   -2.7961519   -2.7961519   -1.6316909  0.082338685   -2.7961519     1.164461   563356 
 2344000    1.0047817    -2.796608    -2.796608   -1.6307696  0.056273785    -2.796608    1.1658385   563356 
 2345000    1.0039211   -2.7965124   -2.7965124   -1.6316725  0.066256113   -2.7965124    1.1648399   563356 
 2346000    1.0048062    -2.796963    -2.796963   -1.6310961  0.060984341    -2.796963    1.1658669   563356 
 2347000     1.003306   -2.7952515   -2.7952515   -1.6311253  0.062118851   -2.7952515    1.1641262   563356 
 2348000    1.0041201   -2.7963459   -2.7963459   -1.6312751  0.062722951   -2.7963459    1.1650708   563356 
 2349000    1.0027568   -2.7941992   -2.7941992   -1.6307102   0.07432228   -2.7941992     1.163489   563356 
 2350000    1.0050499   -2.7964983   -2.7964983   -1.6303487  0.060758135   -2.7964983    1.1661496   563356 
 2351000    1.0037356   -2.7955548   -2.7955548   -1.6309301  0.077424164   -2.7955548    1.1646247   563356 
 2352000    1.0031432   -2.7953381   -2.7953381   -1.6314008  0.057449952   -2.7953381    1.1639373   563356 
 2353000     1.005551   -2.7970614   -2.7970614   -1.6303303  0.070517297   -2.7970614     1.166731   563356 
 2354000    1.0035389   -2.7947228   -2.7947228   -1.6303264  0.065845557   -2.7947228    1.1643965   563356 
 2355000    1.0047057   -2.7972587   -2.7972587   -1.6315084  0.066131443   -2.7972587    1.1657503   563356 
 2356000    1.0025716   -2.7944181   -2.7944181    -1.631144  0.071162287   -2.7944181     1.163274   563356 
 2357000    1.0032169    -2.795027    -2.795027   -1.6310042  0.067900303    -2.795027    1.1640228   563356 
 2358000    1.0052029   -2.7960333   -2.7960333   -1.6297062  0.067806417   -2.7960333    1.1663272   563356 
 2359000    1.0023217   -2.7940877   -2.7940877   -1.6311035  0.069868253   -2.7940877    1.1629842   563356 
 2360000    1.0027769   -2.7947678   -2.7947678   -1.6312555  0.071149391   -2.7947678    1.1635123   563356 
 2361000    1.0040145    -2.795587    -2.795587   -1.6306387  0.069006557    -2.795587    1.1649483   563356 
 2362000    1.0028354   -2.7943646   -2.7943646   -1.6307844  0.061749643   -2.7943646    1.1635802   563356 
 2363000    1.0036817   -2.7950007   -2.7950007   -1.6304385  0.070586228   -2.7950007    1.1645622   563356 
 2364000    1.0027736    -2.794117    -2.794117   -1.6306085  0.056601874    -2.794117    1.1635085   563356 
 2365000    1.0024174   -2.7938766   -2.7938766   -1.6307815   0.06830317   -2.7938766    1.1630951   563356 
 2366000     1.002919   -2.7936184   -2.7936184   -1.6299413  0.062602914   -2.7936184    1.1636772   563356 
 2367000     1.003285   -2.7932967   -2.7932967   -1.6291948    0.0661274   -2.7932967    1.1641019   563356 
 2368000    1.0022543   -2.7930529   -2.7930529    -1.630147  0.071452663   -2.7930529    1.1629059   563356 
 2369000    1.0043764    -2.795624    -2.795624   -1.6302558  0.064793376    -2.795624    1.1653682   563356 
 2370000    1.0045123   -2.7946074   -2.7946074   -1.6290815  0.063460148   -2.7946074    1.1655259   563356 
 2371000    1.0038806   -2.7944752   -2.7944752   -1.6296823  0.067424592   -2.7944752    1.1647929   563356 
 2372000     1.003206   -2.7935165   -2.7935165   -1.6295064  0.057444148   -2.7935165    1.1640101   563356 
 2373000    1.0032927   -2.7932983   -2.7932983   -1.6291876  0.078958357   -2.7932983    1.1641107   563356 
 2374000    1.0039349   -2.7940407   -2.7940407   -1.6291847  0.065563145   -2.7940407    1.1648559   563356 
 2375000    1.0048862   -2.7947552   -2.7947552   -1.6287955  0.063268175   -2.7947552    1.1659597   563356 
 2376000    1.0042416   -2.7944017   -2.7944017   -1.6291899  0.059452583   -2.7944017    1.1652118   563356 
 2377000    1.0036189   -2.7939425   -2.7939425   -1.6294532  0.066075002   -2.7939425    1.1644892   563356 
 2378000     1.003278   -2.7941037   -2.7941037     -1.63001  0.062112716   -2.7941037    1.1640938   563356 
 2379000    1.0029504   -2.7935543   -2.7935543   -1.6298407  0.066844831   -2.7935543    1.1637136   563356 
 2380000    1.0043878   -2.7948465   -2.7948465   -1.6294652   0.06952607   -2.7948465    1.1653814   563356 
 2381000    1.0031859   -2.7933599   -2.7933599    -1.629373  0.059979778   -2.7933599    1.1639869   563356 
 2382000    1.0026772   -2.7928398   -2.7928398   -1.6294431  0.066919007   -2.7928398    1.1633966   563356 
 2383000    1.0030831   -2.7936078   -2.7936078   -1.6297403  0.071265503   -2.7936078    1.1638675   563356 
 2384000    1.0033389   -2.7951243   -2.7951243   -1.6309599  0.070987727   -2.7951243    1.1641644   563356 
 2385000     1.003675    -2.795268    -2.795268   -1.6307136  0.062764561    -2.795268    1.1645544   563356 
 2386000    1.0038459   -2.7957092   -2.7957092   -1.6309566  0.070065426   -2.7957092    1.1647526   563356 
 2387000    1.0025868   -2.7948529   -2.7948529   -1.6315612  0.064815898   -2.7948529    1.1632917   563356 
 2388000    1.0031427   -2.7954374   -2.7954374   -1.6315006  0.063388483   -2.7954374    1.1639368   563356 
 2389000    1.0039353   -2.7959498   -2.7959498   -1.6310935  0.068784121   -2.7959498    1.1648564   563356 
 2390000     1.004973   -2.7962773   -2.7962773   -1.6302169  0.066993693   -2.7962773    1.1660604   563356 
 2391000    1.0032252   -2.7947553   -2.7947553   -1.6307229  0.066132363   -2.7947553    1.1640324   563356 
 2392000    1.0050559   -2.7973719   -2.7973719   -1.6312153  0.074896577   -2.7973719    1.1661566   563356 
 2393000     1.003651   -2.7949142   -2.7949142   -1.6303876  0.067998616   -2.7949142    1.1645266   563356 
 2394000    1.0033151   -2.7954967   -2.7954967   -1.6313599  0.059832825   -2.7954967    1.1641367   563356 
 2395000    1.0036614   -2.7957272   -2.7957272   -1.6311885   0.05857781   -2.7957272    1.1645386   563356 
 2396000    1.0038707   -2.7954727   -2.7954727   -1.6306912  0.065585702   -2.7954727    1.1647815   563356 
 2397000    1.0053536   -2.7960857   -2.7960857   -1.6295838  0.057405721   -2.7960857     1.166502   563356 
 2398000    1.0045562    -2.795458    -2.795458   -1.6298812  0.051573932    -2.795458    1.1655768   563356 
 2399000    1.0047691   -2.7959053   -2.7959053   -1.6300815  0.063153488   -2.7959053    1.1658238   563356 
 2400000    1.0046314   -2.7958805   -2.7958805   -1.6302164  0.071559101   -2.7958805    1.1656641   563356 
 2401000    1.0058893   -2.7974596   -2.7974596    -1.630336  0.062672836   -2.7974596    1.1671236   563356 
 2402000    1.0037399   -2.7961944   -2.7961944   -1.6315647  0.062829609   -2.7961944    1.1646297   563356 
 2403000    1.0045891   -2.7965587   -2.7965587   -1.6309436  0.067022453   -2.7965587     1.165615   563356 
 2404000    1.0045282   -2.7954788   -2.7954788   -1.6299345  0.063447265   -2.7954788    1.1655443   563356 
 2405000    1.0023728   -2.7935902   -2.7935902   -1.6305468  0.068704543   -2.7935902    1.1630434   563356 
 2406000    1.0015512   -2.7921533   -2.7921533   -1.6300632  0.076968697   -2.7921533    1.1620901   563356 
 2407000    1.0031037   -2.7937312   -2.7937312   -1.6298397   0.06954553   -2.7937312    1.1638914   563356 
 2408000    1.0038037   -2.7947125   -2.7947125   -1.6300088  0.066067531   -2.7947125    1.1647036   563356 
 2409000    1.0054339   -2.7965185   -2.7965185   -1.6299233  0.065867745   -2.7965185    1.1665952   563356 
 2410000    1.0042616   -2.7954901   -2.7954901   -1.6302551  0.074258978   -2.7954901     1.165235   563356 
 2411000    1.0034149    -2.794563    -2.794563   -1.6303105  0.073811878    -2.794563    1.1642526   563356 
 2412000    1.0039698   -2.7956856   -2.7956856   -1.6307892  0.066559262   -2.7956856    1.1648964   563356 
 2413000     1.003198   -2.7955031   -2.7955031   -1.6315022   0.06049039   -2.7955031    1.1640009   563356 
 2414000     1.003458   -2.7953289   -2.7953289   -1.6310264  0.061602273   -2.7953289    1.1643026   563356 
 2415000    1.0032077   -2.7954426   -2.7954426   -1.6314304  0.057210468   -2.7954426    1.1640122   563356 
 2416000    1.0035274   -2.7954364   -2.7954364   -1.6310533  0.063780749   -2.7954364    1.1643831   563356 
 2417000      1.00458   -2.7965412   -2.7965412   -1.6309368  0.061025988   -2.7965412    1.1656044   563356 
 2418000      1.00395   -2.7954312   -2.7954312   -1.6305578  0.075173123   -2.7954312    1.1648734   563356 
 2419000    1.0039764   -2.7955754   -2.7955754   -1.6306714  0.057919888   -2.7955754    1.1649041   563356 
 2420000    1.0039287   -2.7954136   -2.7954136   -1.6305649  0.072573446   -2.7954136    1.1648487   563356 
 2421000    1.0050042   -2.7964024   -2.7964024   -1.6303058  0.059410399   -2.7964024    1.1660966   563356 
 2422000    1.0037337   -2.7963614   -2.7963614   -1.6317389  0.064723136   -2.7963614    1.1646225   563356 
 2423000    1.0055238   -2.7972318   -2.7972318   -1.6305323  0.069570262   -2.7972318    1.1666995   563356 
 2424000    1.0043053    -2.796635    -2.796635   -1.6313493  0.072253724    -2.796635    1.1652857   563356 
 2425000    1.0041949   -2.7971466   -2.7971466    -1.631989  0.061081465   -2.7971466    1.1651576   563356 
 2426000     1.003456   -2.7970396   -2.7970396   -1.6327394  0.073741989   -2.7970396    1.1643002   563356 
 2427000    1.0031424   -2.7959358   -2.7959358   -1.6319995  0.060411855   -2.7959358    1.1639364   563356 
 2428000    1.0037663   -2.7971987   -2.7971987   -1.6325384  0.054597724   -2.7971987    1.1646603   563356 
 2429000    1.0033311   -2.7975336   -2.7975336   -1.6333783  0.068277438   -2.7975336    1.1641553   563356 
 2430000    1.0051662   -2.7993766   -2.7993766    -1.633092  0.076599379   -2.7993766    1.1662846   563356 
 2431000    1.0043262   -2.7985501   -2.7985501   -1.6332401  0.075419508   -2.7985501      1.16531   563356 
 2432000    1.0054131   -2.7990243   -2.7990243   -1.6324533  0.061813063   -2.7990243    1.1665711   563356 
 2433000    1.0034233   -2.7965248   -2.7965248   -1.6322624  0.070115212   -2.7965248    1.1642623   563356 
 2434000    1.0040718   -2.7977735   -2.7977735   -1.6327587  0.060265227   -2.7977735    1.1650148   563356 
 2435000    1.0041507   -2.7981255   -2.7981255   -1.6330192  0.062758883   -2.7981255    1.1651063   563356 
 2436000    1.0042454    -2.798215    -2.798215   -1.6329988  0.080910586    -2.798215    1.1652162   563356 
 2437000    1.0037364   -2.7977928   -2.7977928   -1.6331672  0.069361834   -2.7977928    1.1646256   563356 
 2438000    1.0032561   -2.7983164   -2.7983164   -1.6342482  0.064865165   -2.7983164    1.1640683   563356 
 2439000      1.00513   -2.8003577   -2.8003577   -1.6341152  0.065099409   -2.8003577    1.1662426   563356 
 2440000    1.0027825   -2.7980588   -2.7980588   -1.6345399  0.074047157   -2.7980588    1.1635188   563356 
 2441000    1.0021026   -2.7971002   -2.7971002   -1.6343702  0.062765093   -2.7971002    1.1627299   563356 
 2442000    1.0028081   -2.7974329   -2.7974329   -1.6338843  0.056573094   -2.7974329    1.1635485   563356 
 2443000     1.002047   -2.7967959   -2.7967959   -1.6341305  0.069726856   -2.7967959    1.1626654   563356 
 2444000    1.0021856   -2.7953549   -2.7953549   -1.6325287  0.065921556   -2.7953549    1.1628262   563356 
 2445000    1.0016908   -2.7948608   -2.7948608   -1.6326087  0.061697629   -2.7948608    1.1622521   563356 
 2446000     1.003114    -2.797278    -2.797278   -1.6333745  0.062801815    -2.797278    1.1639035   563356 
 2447000    1.0025176   -2.7960819   -2.7960819   -1.6328704  0.064495686   -2.7960819    1.1632114   563356 
 2448000    1.0036485   -2.7976011   -2.7976011   -1.6330775  0.071575067   -2.7976011    1.1645236   563356 
 2449000    1.0033796   -2.7970799   -2.7970799   -1.6328683  0.068497431   -2.7970799    1.1642116   563356 
 2450000    1.0037987   -2.7975425   -2.7975425   -1.6328447  0.066570871   -2.7975425    1.1646978   563356 
 2451000    1.0035718   -2.7968172   -2.7968172   -1.6323826  0.072237753   -2.7968172    1.1644346   563356 
 2452000     1.003588   -2.7966252   -2.7966252   -1.6321717  0.061714992   -2.7966252    1.1644534   563356 
 2453000    1.0009622   -2.7943162   -2.7943162   -1.6329096  0.063599544   -2.7943162    1.1614067   563356 
 2454000    1.0044906   -2.7974796   -2.7974796   -1.6319789  0.070491504   -2.7974796    1.1655007   563356 
 2455000    1.0029916    -2.797103    -2.797103   -1.6333416  0.055699759    -2.797103    1.1637614   563356 
 2456000    1.0031911   -2.7966597   -2.7966597   -1.6326668  0.064561419   -2.7966597    1.1639929   563356 
 2457000    1.0027661   -2.7956362   -2.7956362   -1.6321364  0.066081736   -2.7956362    1.1634998   563356 
 2458000    1.0029059   -2.7954671   -2.7954671   -1.6318051  0.074933505   -2.7954671     1.163662   563356 
 2459000    1.0041045   -2.7962731   -2.7962731   -1.6312204  0.068620789   -2.7962731    1.1650527   563356 
 2460000    1.0045195   -2.7959514   -2.7959514   -1.6304172  0.077835123   -2.7959514    1.1655342   563356 
 2461000    1.0061855   -2.7969244   -2.7969244   -1.6294572  0.068789821   -2.7969244    1.1674672   563356 
 2462000    1.0044875   -2.7951509   -2.7951509   -1.6296538   0.06799375   -2.7951509    1.1654971   563356 
 2463000    1.0052913   -2.7958752   -2.7958752   -1.6294455  0.065165936   -2.7958752    1.1664297   563356 
 2464000     1.006619   -2.7978038   -2.7978038   -1.6298336  0.077184829   -2.7978038    1.1679702   563356 
 2465000    1.0057494   -2.7964996   -2.7964996   -1.6295384  0.067778896   -2.7964996    1.1669613   563356 
 2466000    1.0062885   -2.7971863   -2.7971863   -1.6295995  0.066085662   -2.7971863    1.1675868   563356 
 2467000    1.0056425   -2.7963932   -2.7963932    -1.629556  0.070683642   -2.7963932    1.1668372   563356 
 2468000    1.0067802   -2.7972688   -2.7972688   -1.6291116  0.070953444   -2.7972688    1.1681572   563356 
 2469000    1.0044656   -2.7961951   -2.7961951   -1.6307234  0.064592366   -2.7961951    1.1654717   563356 
 2470000    1.0036726   -2.7946662   -2.7946662   -1.6301147  0.063091105   -2.7946662    1.1645515   563356 
 2471000    1.0048003   -2.7966474   -2.7966474   -1.6307874  0.071135269   -2.7966474      1.16586   563356 
 2472000    1.0012261   -2.7936217   -2.7936217   -1.6319088   0.06937408   -2.7936217    1.1617129   563356 
 2473000    1.0029204   -2.7953762   -2.7953762   -1.6316974  0.065308038   -2.7953762    1.1636789   563356 
 2474000    1.0026438   -2.7948105   -2.7948105   -1.6314526  0.058504886   -2.7948105    1.1633579   563356 
 2475000    1.0026899   -2.7947181   -2.7947181   -1.6313067  0.062526565   -2.7947181    1.1634114   563356 
 2476000     1.002241   -2.7945472   -2.7945472   -1.6316567  0.052968084   -2.7945472    1.1628906   563356 
 2477000    1.0020668   -2.7948163   -2.7948163   -1.6321279  0.050860933   -2.7948163    1.1626884   563356 
 2478000    1.0026847   -2.7958495   -2.7958495   -1.6324442  0.056882102   -2.7958495    1.1634053   563356 
 2479000    1.0019296   -2.7944197   -2.7944197   -1.6318905  0.062519447   -2.7944197    1.1625292   563356 
 2480000    1.0021613    -2.795087    -2.795087   -1.6322889  0.062224723    -2.795087     1.162798   563356 
 2481000    1.0027727   -2.7961087   -2.7961087   -1.6326012  0.065094716   -2.7961087    1.1635075   563356 
 2482000    1.0040078   -2.7960584   -2.7960584   -1.6311179  0.062827258   -2.7960584    1.1649405   563356 
 2483000    1.0057205   -2.7974102   -2.7974102   -1.6304824  0.066167715   -2.7974102    1.1669278   563356 
 2484000    1.0040134   -2.7967941   -2.7967941   -1.6318471  0.068466037   -2.7967941     1.164947   563356 
 2485000    1.0036152   -2.7965438   -2.7965438   -1.6320589    0.0675388   -2.7965438    1.1644849   563356 
 2486000    1.0034147   -2.7955768   -2.7955768   -1.6313244  0.068816165   -2.7955768    1.1642524   563356 
 2487000    1.0034186   -2.7960821   -2.7960821   -1.6318252   0.06341285   -2.7960821    1.1642569   563356 
 2488000    1.0034878   -2.7957443   -2.7957443   -1.6314072  0.071515439   -2.7957443    1.1643372   563356 
 2489000    1.0027623   -2.7949458   -2.7949458   -1.6314504  0.056855717   -2.7949458    1.1634953   563356 
 2490000    1.0030354    -2.795308    -2.795308   -1.6314958   0.07012473    -2.795308    1.1638122   563356 
 2491000    1.0033113   -2.7960461   -2.7960461   -1.6319137  0.065690923   -2.7960461    1.1641324   563356 
 2492000     1.002578   -2.7948368   -2.7948368   -1.6315553   0.07096145   -2.7948368    1.1632815   563356 
 2493000    1.0044281   -2.7973838   -2.7973838   -1.6319557  0.062177169   -2.7973838    1.1654281   563356 
 2494000    1.0047887   -2.7981128   -2.7981128   -1.6322663  0.071314347   -2.7981128    1.1658465   563356 
 2495000    1.0038485   -2.7974292   -2.7974292   -1.6326735  0.071394919   -2.7974292    1.1647557   563356 
 2496000     1.005683   -2.7983443   -2.7983443   -1.6314601  0.066428672   -2.7983443    1.1668842   563356 
 2497000    1.0044863   -2.7978621   -2.7978621   -1.6323665  0.066749555   -2.7978621    1.1654957   563356 
 2498000    1.0042215   -2.7967485   -2.7967485     -1.63156  0.069670557   -2.7967485    1.1651885   563356 
 2499000    1.0051335   -2.7981385   -2.7981385   -1.6318918  0.061219667   -2.7981385    1.1662467   563356 
 2500000    1.0041831     -2.79745     -2.79745    -1.632306  0.063071466     -2.79745    1.1651439   563356 
 2501000    1.0044619   -2.7975118   -2.7975118   -1.6320444  0.070328614   -2.7975118    1.1654674   563356 
 2502000    1.0036821   -2.7960421   -2.7960421   -1.6314794  0.078574002   -2.7960421    1.1645626   563356 
 2503000    1.0043784   -2.7970789   -2.7970789   -1.6317084  0.069403146   -2.7970789    1.1653705   563356 
 2504000    1.0030344   -2.7953852   -2.7953852   -1.6315741  0.056528578   -2.7953852    1.1638111   563356 
 2505000    1.0027726   -2.7947748   -2.7947748   -1.6312675   0.06665742   -2.7947748    1.1635073   563356 
 2506000    1.0051923   -2.7975015   -2.7975015   -1.6311866  0.063404769   -2.7975015    1.1663149   563356 
 2507000     1.003976   -2.7955107   -2.7955107   -1.6306071   0.06909017   -2.7955107    1.1649036   563356 
 2508000    1.0054239   -2.7969976   -2.7969976    -1.630414  0.062804102   -2.7969976    1.1665836   563356 
 2509000    1.0043373   -2.7962146   -2.7962146   -1.6308918  0.069445223   -2.7962146    1.1653228   563356 
 2510000    1.0039388   -2.7953379   -2.7953379   -1.6304774  0.067483843   -2.7953379    1.1648605   563356 
 2511000    1.0044355    -2.796221    -2.796221   -1.6307842  0.069556368    -2.796221    1.1654368   563356 
 2512000    1.0038177   -2.7952888   -2.7952888   -1.6305689  0.073843719   -2.7952888    1.1647199   563356 
 2513000    1.0051113   -2.7974686   -2.7974686   -1.6312477  0.058443371   -2.7974686    1.1662208   563356 
 2514000    1.0028317   -2.7946907   -2.7946907   -1.6311149  0.074983118   -2.7946907    1.1635759   563356 
 2515000     1.002452   -2.7942551   -2.7942551   -1.6311198  0.071237859   -2.7942551    1.1631353   563356 
 2516000    1.0036717   -2.7952679   -2.7952679   -1.6307173  0.065756339   -2.7952679    1.1645505   563356 
 2517000    1.0041537   -2.7956086   -2.7956086   -1.6304988  0.061895678   -2.7956086    1.1651098   563356 
 2518000    1.0025948   -2.7949569   -2.7949569   -1.6316558  0.068219447   -2.7949569    1.1633011   563356 
 2519000    1.0013732   -2.7938348   -2.7938348   -1.6319512  0.064226579   -2.7938348    1.1618836   563356 
 2520000    1.0021677   -2.7954079   -2.7954079   -1.6326024  0.059479468   -2.7954079    1.1628054   563356 
 2521000    1.0029646   -2.7961675   -2.7961675   -1.6324374  0.063902033   -2.7961675    1.1637301   563356 
 2522000    1.0052696   -2.7980891   -2.7980891   -1.6316845   0.05497953   -2.7980891    1.1664046   563356 
 2523000    1.0028978   -2.7952495   -2.7952495   -1.6315969  0.070644249   -2.7952495    1.1636526   563356 
 2524000    1.0046512   -2.7971921   -2.7971921   -1.6315051   0.06546115   -2.7971921     1.165687   563356 
 2525000    1.0027673   -2.7956832   -2.7956832    -1.632182  0.061667588   -2.7956832    1.1635012   563356 
 2526000    1.0017877   -2.7947593   -2.7947593   -1.6323947  0.067430315   -2.7947593    1.1623646   563356 
 2527000    1.0026694   -2.7959787   -2.7959787   -1.6325911  0.064020229   -2.7959787    1.1633876   563356 
 2528000    1.0036396   -2.7976553   -2.7976553    -1.633142  0.058234115   -2.7976553    1.1645133   563356 
 2529000    1.0039948   -2.7978473   -2.7978473   -1.6329218  0.068816775   -2.7978473    1.1649255   563356 
 2530000    1.0037805   -2.7975421   -2.7975421   -1.6328653  0.065768463   -2.7975421    1.1646768   563356 
 2531000    1.0038031   -2.7971453   -2.7971453   -1.6324424  0.057600063   -2.7971453     1.164703   563356 
 2532000    1.0030121   -2.7959534   -2.7959534   -1.6321682  0.072891597   -2.7959534    1.1637852   563356 
 2533000    1.0045177   -2.7977141   -2.7977141    -1.632182  0.062153506   -2.7977141    1.1655321   563356 
 2534000    1.0028393   -2.7957051   -2.7957051   -1.6321204  0.066568125   -2.7957051    1.1635847   563356 
 2535000    1.0044651   -2.7975771   -2.7975771    -1.632106  0.071184695   -2.7975771    1.1654711   563356 
 2536000    1.0032356   -2.7963812   -2.7963812   -1.6323366  0.065972925   -2.7963812    1.1640445   563356 
 2537000    1.0019286   -2.7956105   -2.7956105   -1.6330825   0.05968254   -2.7956105     1.162528   563356 
 2538000    1.0042398   -2.7986117   -2.7986117    -1.633402  0.078508882   -2.7986117    1.1652097   563356 
 2539000    1.0044442   -2.7977552   -2.7977552   -1.6323083   0.07394591   -2.7977552    1.1654469   563356 
 2540000    1.0042749   -2.7975273   -2.7975273   -1.6322768   0.07067854   -2.7975273    1.1652505   563356 
 2541000     1.005262   -2.7980876   -2.7980876   -1.6316919  0.069592799   -2.7980876    1.1663958   563356 
 2542000    1.0031022   -2.7958132   -2.7958132   -1.6319234  0.071255875   -2.7958132    1.1638898   563356 
 2543000    1.0041622   -2.7967378   -2.7967378   -1.6316181  0.064530897   -2.7967378    1.1651197   563356 
 2544000    1.0048908    -2.797546    -2.797546    -1.631581   0.07219283    -2.797546     1.165965   563356 
 2545000    1.0041612   -2.7969795   -2.7969795   -1.6318611  0.072790382   -2.7969795    1.1651185   563356 
 2546000    1.0033297   -2.7963945   -2.7963945   -1.6322408  0.058402948   -2.7963945    1.1641538   563356 
 2547000    1.0030302   -2.7946172   -2.7946172    -1.630811  0.074339615   -2.7946172    1.1638062   563356 
 2548000    1.0047296   -2.7970977   -2.7970977   -1.6313197  0.070010538   -2.7970977     1.165778   563356 
 2549000    1.0029505   -2.7947953   -2.7947953   -1.6310816  0.071049741   -2.7947953    1.1637137   563356 
 2550000    1.0044143   -2.7963326   -2.7963326   -1.6309204  0.071788438   -2.7963326    1.1654122   563356 
 2551000    1.0044311   -2.7961037   -2.7961037   -1.6306721  0.071581191   -2.7961037    1.1654316   563356 
 2552000    1.0042331   -2.7964079   -2.7964079   -1.6312061  0.067770032   -2.7964079    1.1652019   563356 
 2553000       1.0043   -2.7959409   -2.7959409   -1.6306613  0.060553173   -2.7959409    1.1652796   563356 
 2554000    1.0035669   -2.7950338   -2.7950338   -1.6306048  0.067007038   -2.7950338     1.164429   563356 
 2555000    1.0044553   -2.7948476   -2.7948476   -1.6293879   0.07323788   -2.7948476    1.1654597   563356 
 2556000    1.0064927   -2.7969805   -2.7969805   -1.6291569  0.075597054   -2.7969805    1.1678237   563356 
 2557000    1.0040168   -2.7944006   -2.7944006   -1.6294496  0.067589774   -2.7944006     1.164951   563356 
 2558000    1.0040841   -2.7939671   -2.7939671    -1.628938  0.059764404   -2.7939671    1.1650291   563356 
 2559000    1.0032837   -2.7933641   -2.7933641   -1.6292638  0.076619474   -2.7933641    1.1641004   563356 
 2560000    1.0051838   -2.7951575   -2.7951575   -1.6288524  0.063771827   -2.7951575     1.166305   563356 
 2561000    1.0038408   -2.7939212   -2.7939212   -1.6291745  0.063884754   -2.7939212    1.1647467   563356 
 2562000    1.0032999   -2.7923767   -2.7923767   -1.6282575  0.072912521   -2.7923767    1.1641192   563356 
 2563000    1.0048542   -2.7946015   -2.7946015   -1.6286789  0.072048675   -2.7946015    1.1659226   563356 
 2564000     1.005085   -2.7950908   -2.7950908   -1.6289005  0.067217559   -2.7950908    1.1661903   563356 
 2565000    1.0036483   -2.7944433   -2.7944433   -1.6299199  0.065335372   -2.7944433    1.1645234   563356 
 2566000    1.0036259   -2.7945931   -2.7945931   -1.6300957  0.055794978   -2.7945931    1.1644974   563356 
 2567000    1.0044931   -2.7950077   -2.7950077   -1.6295041   0.07130828   -2.7950077    1.1655036   563356 
 2568000    1.0037902   -2.7938005   -2.7938005   -1.6291124  0.051875993   -2.7938005    1.1646881   563356 
 2569000    1.0034785    -2.794414    -2.794414   -1.6300877  0.066787361    -2.794414    1.1643263   563356 
 2570000     1.003025   -2.7940069   -2.7940069   -1.6302067  0.073161646   -2.7940069    1.1638001   563356 
 2571000    1.0045574   -2.7953222   -2.7953222    -1.629744    0.0529278   -2.7953222    1.1655782   563356 
 2572000    1.0041583   -2.7944692   -2.7944692   -1.6293541  0.068574494   -2.7944692    1.1651151   563356 
 2573000    1.0064588    -2.797495    -2.797495   -1.6297106  0.064468544    -2.797495    1.1677844   563356 
 2574000    1.0055552   -2.7966299   -2.7966299    -1.629894  0.076554417   -2.7966299    1.1667359   563356 
 2575000    1.0055975   -2.7974853   -2.7974853   -1.6307002  0.058553268   -2.7974853    1.1667851   563356 
 2576000    1.0063044   -2.7977093   -2.7977093   -1.6301041  0.075099739   -2.7977093    1.1676052   563356 
 2577000    1.0043419   -2.7967727   -2.7967727   -1.6314446  0.074881954   -2.7967727    1.1653281   563356 
 2578000     1.004712   -2.7969379   -2.7969379   -1.6311803  0.071846209   -2.7969379    1.1657576   563356 
 2579000    1.0054841   -2.7979176   -2.7979176   -1.6312642  0.070288832   -2.7979176    1.1666534   563356 
 2580000    1.0037869   -2.7968809   -2.7968809   -1.6321967  0.064297163   -2.7968809    1.1646843   563356 
 2581000    1.0052756   -2.7983728   -2.7983728   -1.6319613  0.058928413   -2.7983728    1.1664116   563356 
 2582000    1.0041249   -2.7974899   -2.7974899   -1.6324135  0.072550418   -2.7974899    1.1650764   563356 
 2583000    1.0038657    -2.798225    -2.798225   -1.6334494  0.058228294    -2.798225    1.1647756   563356 
 2584000    1.0028992   -2.7966151   -2.7966151   -1.6329609    0.0748052   -2.7966151    1.1636542   563356 
 2585000    1.0034886   -2.7966906   -2.7966906   -1.6323525  0.068030146   -2.7966906    1.1643381   563356 
 2586000    1.0034167   -2.7980489   -2.7980489   -1.6337941  0.058050329   -2.7980489    1.1642547   563356 
 2587000    1.0023285   -2.7968391   -2.7968391   -1.6338471  0.067549432   -2.7968391     1.162992   563356 
 2588000    1.0063785   -2.8005931   -2.8005931   -1.6329019  0.063487416   -2.8005931    1.1676912   563356 
 2589000    1.0030847   -2.7966865   -2.7966865   -1.6328171  0.071607725   -2.7966865    1.1638694   563356 
 2590000    1.0041279   -2.7981362   -2.7981362   -1.6330563  0.075998699   -2.7981362    1.1650799   563356 
 2591000    1.0047909   -2.7982451   -2.7982451   -1.6323959  0.067481253   -2.7982451    1.1658492   563356 
 2592000    1.0046143   -2.7978662   -2.7978662    -1.632222  0.065128954   -2.7978662    1.1656442   563356 
 2593000    1.0051763   -2.7986109   -2.7986109   -1.6323146  0.069252041   -2.7986109    1.1662963   563356 
 2594000     1.003332   -2.7970724   -2.7970724   -1.6329159  0.071672001   -2.7970724    1.1641564   563356 
 2595000    1.0053129   -2.7997302   -2.7997302   -1.6332754  0.064064504   -2.7997302    1.1664548   563356 
 2596000    1.0040679   -2.7971861   -2.7971861    -1.632176  0.071740785   -2.7971861    1.1650102   563356 
 2597000    1.0061172   -2.8001695   -2.8001695   -1.6327815  0.068294232   -2.8001695    1.1673881   563356 
 2598000    1.0035563    -2.796654    -2.796654   -1.6322373  0.064772573    -2.796654    1.1644166   563356 
 2599000    1.0041587   -2.7973537   -2.7973537   -1.6322382  0.063936058   -2.7973537    1.1651156   563356 
 2600000      1.00281   -2.7957767   -2.7957767    -1.632226  0.053878225   -2.7957767    1.1635507   563356 
 2601000    1.0020114   -2.7956897   -2.7956897   -1.6330655  0.070090609   -2.7956897    1.1626241   563356 
 2602000    1.0020143   -2.7956327   -2.7956327   -1.6330052  0.061948675   -2.7956327    1.1626275   563356 
 2603000    1.0029192   -2.7966214   -2.7966214    -1.632944  0.056198108   -2.7966214    1.1636774   563356 
 2604000     1.004059   -2.7970707   -2.7970707   -1.6320708  0.056261528   -2.7970707    1.1649999   563356 
 2605000    1.0027197   -2.7948583   -2.7948583   -1.6314123  0.064160113   -2.7948583    1.1634459   563356 
 2606000    1.0033592   -2.7962198   -2.7962198   -1.6320318  0.076110295   -2.7962198    1.1641879   563356 
 2607000    1.0042531   -2.7976399   -2.7976399   -1.6324148  0.070016301   -2.7976399    1.1652251   563356 
 2608000    1.0035876   -2.7963612   -2.7963612   -1.6319082  0.071950004   -2.7963612     1.164453   563356 
 2609000    1.0025958   -2.7961272   -2.7961272    -1.632825  0.074268514   -2.7961272    1.1633022   563356 
 2610000    1.0028983   -2.7966403   -2.7966403   -1.6329871   0.07392712   -2.7966403    1.1636532   563356 
 2611000    1.0033299   -2.7967068   -2.7967068   -1.6325529  0.065131368   -2.7967068    1.1641539   563356 
 2612000     1.003564   -2.7971974   -2.7971974   -1.6327718  0.053478131   -2.7971974    1.1644256   563356 
 2613000    1.0035719   -2.7969909   -2.7969909   -1.6325561  0.063970122   -2.7969909    1.1644348   563356 
 2614000    1.0044291   -2.7978138   -2.7978138   -1.6323844   0.07671613   -2.7978138    1.1654294   563356 
 2615000    1.0043046   -2.7965786   -2.7965786   -1.6312937  0.053231046   -2.7965786    1.1652848   563356 
 2616000    1.0038169   -2.7974874   -2.7974874   -1.6327684  0.067752741   -2.7974874     1.164719   563356 
 2617000    1.0035645    -2.797298    -2.797298   -1.6328719  0.074764622    -2.797298    1.1644261   563356 
 2618000    1.0034246   -2.7972203   -2.7972203   -1.6329565  0.061831262   -2.7972203    1.1642638   563356 
 2619000    1.0033399    -2.797027    -2.797027   -1.6328615  0.065989877    -2.797027    1.1641655   563356 
 2620000      1.00327   -2.7960767   -2.7960767   -1.6319923  0.068828591   -2.7960767    1.1640845   563356 
 2621000     1.003815   -2.7970957   -2.7970957   -1.6323789  0.066402422   -2.7970957    1.1647168   563356 
 2622000    1.0042486   -2.7965177   -2.7965177   -1.6312977  0.067907899   -2.7965177    1.1652199   563356 
 2623000    1.0035142      -2.7959      -2.7959   -1.6315322  0.063672257      -2.7959    1.1643678   563356 
 2624000    1.0039349   -2.7967399   -2.7967399   -1.6318839   0.06471702   -2.7967399     1.164856   563356 
 2625000     1.004832   -2.7971926   -2.7971926   -1.6312959  0.055919893   -2.7971926    1.1658968   563356 
 2626000    1.0049063   -2.7967203   -2.7967203   -1.6307373  0.060389659   -2.7967203     1.165983   563356 
 2627000    1.0043669    -2.796122    -2.796122   -1.6307649  0.076036051    -2.796122    1.1653571   563356 
 2628000    1.0041941   -2.7962978   -2.7962978   -1.6311412  0.073902483   -2.7962978    1.1651566   563356 
 2629000    1.0056471    -2.797327    -2.797327   -1.6304844  0.061476765    -2.797327    1.1668426   563356 
 2630000    1.0039723   -2.7957433   -2.7957433    -1.630844  0.066912579   -2.7957433    1.1648994   563356 
 2631000    1.0037449   -2.7963432   -2.7963432   -1.6317078  0.067296132   -2.7963432    1.1646354   563356 
 2632000       1.0045   -2.7963381   -2.7963381   -1.6308265  0.081038112   -2.7963381    1.1655116   563356 
 2633000     1.003937   -2.7964405   -2.7964405   -1.6315821  0.064798484   -2.7964405    1.1648584   563356 
 2634000    1.0034553   -2.7945226   -2.7945226   -1.6302232  0.072381122   -2.7945226    1.1642994   563356 
 2635000    1.0037667   -2.7957297   -2.7957297   -1.6310689  0.065094673   -2.7957297    1.1646608   563356 
 2636000    1.0036112   -2.7959775   -2.7959775   -1.6314971   0.07464586   -2.7959775    1.1644804   563356 
 2637000    1.0038184   -2.7964003   -2.7964003   -1.6316796  0.066999678   -2.7964003    1.1647207   563356 
 2638000    1.0044569   -2.7970726   -2.7970726    -1.631611  0.069674807   -2.7970726    1.1654616   563356 
 2639000    1.0046687   -2.7973143   -2.7973143   -1.6316069  0.069087675   -2.7973143    1.1657074   563356 
 2640000    1.0041517   -2.7956868   -2.7956868   -1.6305793  0.064935099   -2.7956868    1.1651075   563356 
 2641000    1.0061409   -2.7980702   -2.7980702   -1.6306546  0.065539079   -2.7980702    1.1674155   563356 
 2642000     1.006345   -2.7969708   -2.7969708   -1.6293185  0.064488363   -2.7969708    1.1676523   563356 
 2643000    1.0056598   -2.7966046   -2.7966046   -1.6297473  0.071520785   -2.7966046    1.1668573   563356 
 2644000     1.005106   -2.7956397   -2.7956397    -1.629425  0.064485576   -2.7956397    1.1662147   563356 
 2645000    1.0054509   -2.7953894   -2.7953894   -1.6287744  0.068706488   -2.7953894     1.166615   563356 
 2646000    1.0057766   -2.7961524   -2.7961524   -1.6291596  0.067547562   -2.7961524    1.1669929   563356 
 2647000    1.0058112   -2.7959449   -2.7959449   -1.6289119  0.059633012   -2.7959449     1.167033   563356 
 2648000    1.0061591   -2.7960679   -2.7960679   -1.6286312  0.066341457   -2.7960679    1.1674367   563356 
 2649000    1.0048649   -2.7945216   -2.7945216   -1.6285866  0.064780771   -2.7945216     1.165935   563356 
 2650000    1.0045962   -2.7937364   -2.7937364   -1.6281131   0.07178213   -2.7937364    1.1656233   563356 
 2651000    1.0034281   -2.7932649   -2.7932649    -1.628997  0.066667095   -2.7932649    1.1642679   563356 
 2652000    1.0033194   -2.7935885   -2.7935885   -1.6294467  0.063760998   -2.7935885    1.1641417   563356 
 2653000    1.0027468   -2.7927028   -2.7927028   -1.6292254   0.07039258   -2.7927028    1.1634774   563356 
 2654000    1.0029555   -2.7932299   -2.7932299   -1.6295104  0.067773913   -2.7932299    1.1637196   563356 
 2655000    1.0028724   -2.7934808   -2.7934808   -1.6298577  0.062298088   -2.7934808    1.1636231   563356 
 2656000    1.0037503   -2.7946839   -2.7946839   -1.6300422  0.067541291   -2.7946839    1.1646417   563356 
 2657000    1.0026804   -2.7932941   -2.7932941   -1.6298938  0.064702389   -2.7932941    1.1634003   563356 
 2658000    1.0028411   -2.7941356   -2.7941356   -1.6305488  0.059998527   -2.7941356    1.1635868   563356 
 2659000    1.0033743   -2.7942549   -2.7942549   -1.6300494  0.067830985   -2.7942549    1.1642055   563356 
 2660000    1.0037953    -2.794386    -2.794386    -1.629692   0.06521575    -2.794386     1.164694   563356 
 2661000    1.0028235   -2.7935733   -2.7935733   -1.6300069   0.05993439   -2.7935733    1.1635663   563356 
 2662000     1.003239   -2.7937699   -2.7937699   -1.6297214  0.068950488   -2.7937699    1.1640485   563356 
 2663000    1.0039749   -2.7955091   -2.7955091   -1.6306068  0.070764026   -2.7955091    1.1649023   563356 
 2664000    1.0052085   -2.7967428   -2.7967428   -1.6304092  0.070205686   -2.7967428    1.1663337   563356 
 2665000    1.0040931   -2.7947575   -2.7947575    -1.629718  0.069779533   -2.7947575    1.1650395   563356 
 2666000    1.0052183   -2.7966133   -2.7966133   -1.6302683  0.072452913   -2.7966133     1.166345   563356 
 2667000    1.0042741   -2.7956245   -2.7956245   -1.6303751  0.073477119   -2.7956245    1.1652494   563356 
 2668000    1.0044543   -2.7958887   -2.7958887     -1.63043  0.067588153   -2.7958887    1.1654586   563356 
 2669000    1.0055059   -2.7973837   -2.7973837   -1.6307049  0.073557935   -2.7973837    1.1666787   563356 
 2670000    1.0045223   -2.7969865   -2.7969865    -1.631449  0.070435681   -2.7969865    1.1655375   563356 
 2671000    1.0046255   -2.7975022   -2.7975022    -1.631845  0.074633701   -2.7975022    1.1656572   563356 
 2672000    1.0040376   -2.7963531   -2.7963531   -1.6313781  0.075442471   -2.7963531     1.164975   563356 
 2673000    1.0051901   -2.7974687   -2.7974687   -1.6311564   0.06606628   -2.7974687    1.1663124   563356 
 2674000    1.0058543   -2.7980278   -2.7980278   -1.6309449  0.069742423   -2.7980278    1.1670829   563356 
 2675000    1.0051428   -2.7975738   -2.7975738   -1.6313164  0.073011815   -2.7975738    1.1662574   563356 
 2676000     1.004041   -2.7969893   -2.7969893   -1.6320103  0.066633188   -2.7969893     1.164979   563356 
 2677000    1.0037919    -2.796096    -2.796096    -1.631406  0.072370779    -2.796096      1.16469   563356 
 2678000    1.0050121   -2.7980893   -2.7980893   -1.6319835  0.081568857   -2.7980893    1.1661058   563356 
 2679000    1.0035873   -2.7976452   -2.7976452   -1.6331927  0.050995306   -2.7976452    1.1644526   563356 
 2680000    1.0048484   -2.7988777   -2.7988777   -1.6329619  0.056893538   -2.7988777    1.1659158   563356 
 2681000    1.0036238   -2.7988229   -2.7988229    -1.634328  0.069866799   -2.7988229     1.164495   563356 
 2682000    1.0023416   -2.7975395   -2.7975395   -1.6345323  0.065547652   -2.7975395    1.1630073   563356 
 2683000    1.0012007   -2.7966439   -2.7966439   -1.6349604  0.066031203   -2.7966439    1.1616835   563356 
 2684000    1.0033255    -2.798549    -2.798549   -1.6344002  0.058474755    -2.798549    1.1641488   563356 
 2685000    1.0029526   -2.7971395   -2.7971395   -1.6334234  0.066095357   -2.7971395    1.1637162   563356 
 2686000    1.0025205   -2.7970051   -2.7970051   -1.6337903  0.058301397   -2.7970051    1.1632148   563356 
 2687000     1.002297   -2.7975444   -2.7975444   -1.6345889  0.067722726   -2.7975444    1.1629554   563356 
 2688000     1.002944    -2.797734    -2.797734   -1.6340278  0.065601002    -2.797734    1.1637062   563356 
 2689000    1.0020934   -2.7964087   -2.7964087   -1.6336895  0.077202024   -2.7964087    1.1627192   563356 
 2690000    1.0037235   -2.7978219   -2.7978219   -1.6332113  0.070336433   -2.7978219    1.1646106   563356 
 2691000    1.0050669    -2.799144    -2.799144   -1.6329746  0.067010652    -2.799144    1.1661693   563356 
 2692000    1.0052607   -2.7998214   -2.7998214   -1.6334272  0.075212752   -2.7998214    1.1663942   563356 
 2693000    1.0031435    -2.798005    -2.798005   -1.6340673  0.070662101    -2.798005    1.1639377   563356 
 2694000    1.0049601   -2.7996964   -2.7996964    -1.633651  0.068841902   -2.7996964    1.1660454   563356 
 2695000    1.0041514   -2.7985164   -2.7985164   -1.6334092  0.066246598   -2.7985164    1.1651071   563356 
 2696000    1.0038908     -2.79732     -2.79732   -1.6325152  0.070618251     -2.79732    1.1648048   563356 
 2697000    1.0016837   -2.7951634   -2.7951634   -1.6329196  0.069132192   -2.7951634    1.1622438   563356 
 2698000    1.0034064   -2.7971393   -2.7971393   -1.6328966  0.064331886   -2.7971393    1.1642427   563356 
 2699000    1.0040335    -2.797633    -2.797633   -1.6326627  0.064312422    -2.797633    1.1649703   563356 
 2700000    1.0034709   -2.7966131   -2.7966131   -1.6322955  0.070007764   -2.7966131    1.1643176   563356 
 2701000    1.0046774   -2.7978879   -2.7978879   -1.6321705   0.06513886   -2.7978879    1.1657174   563356 
 2702000    1.0041453   -2.7962391   -2.7962391   -1.6311391  0.061818775   -2.7962391       1.1651   563356 
 2703000    1.0053957   -2.7980592   -2.7980592   -1.6315083  0.066722591   -2.7980592    1.1665509   563356 
 2704000    1.0056505   -2.7978988   -2.7978988   -1.6310523  0.072239406   -2.7978988    1.1668465   563356 
 2705000    1.0056754   -2.7979023   -2.7979023   -1.6310269  0.061514431   -2.7979023    1.1668754   563356 
 2706000    1.0060774   -2.7974545   -2.7974545   -1.6301126  0.074774313   -2.7974545    1.1673418   563356 
 2707000    1.0072754   -2.7988048   -2.7988048   -1.6300729  0.066837655   -2.7988048    1.1687319   563356 
 2708000    1.0051482   -2.7964933   -2.7964933   -1.6302296  0.068092367   -2.7964933    1.1662637   563356 
 2709000     1.004746   -2.7959055   -2.7959055   -1.6301084   0.05788869   -2.7959055     1.165797   563356 
 2710000     1.005214   -2.7961878   -2.7961878   -1.6298478  0.071017072   -2.7961878      1.16634   563356 
 2711000    1.0028646   -2.7930596   -2.7930596   -1.6294455  0.070595998   -2.7930596    1.1636141   563356 
 2712000    1.0041585   -2.7954621   -2.7954621   -1.6303468  0.060748777   -2.7954621    1.1651153   563356 
 2713000    1.0034294   -2.7942313   -2.7942313   -1.6299619  0.062454736   -2.7942313    1.1642694   563356 
 2714000    1.0032979    -2.794851    -2.794851   -1.6307342  0.054341762    -2.794851    1.1641169   563356 
 2715000    1.0038449   -2.7951151   -2.7951151   -1.6303636  0.070386634   -2.7951151    1.1647515   563356 
 2716000    1.0027694    -2.793879    -2.793879   -1.6303754  0.065858504    -2.793879    1.1635036   563356 
 2717000    1.0040193   -2.7951197   -2.7951197   -1.6301659  0.054069728   -2.7951197    1.1649538   563356 
 2718000    1.0024936   -2.7930239   -2.7930239   -1.6298403  0.072228165   -2.7930239    1.1631836   563356 
 2719000    1.0041174    -2.794347    -2.794347   -1.6292794  0.065175913    -2.794347    1.1650677   563356 
 2720000    1.0054449   -2.7957398   -2.7957398   -1.6291317  0.068542324   -2.7957398     1.166608   563356 
 2721000    1.0039385   -2.7938981   -2.7938981   -1.6290381  0.070121024   -2.7938981      1.16486   563356 
 2722000    1.0041649   -2.7940526   -2.7940526   -1.6289298  0.076465699   -2.7940526    1.1651228   563356 
 2723000    1.0052104    -2.794997    -2.794997   -1.6286611   0.05843196    -2.794997    1.1663359   563356 
 2724000    1.0044882   -2.7944066   -2.7944066   -1.6289087  0.061210126   -2.7944066    1.1654979   563356 
 2725000     1.004372   -2.7941942   -2.7941942   -1.6288311  0.059339604   -2.7941942    1.1653631   563356 
 2726000    1.0032591   -2.7931516   -2.7931516   -1.6290797  0.064274364   -2.7931516    1.1640718   563356 
 2727000    1.0040175   -2.7939721   -2.7939721   -1.6290203  0.065412514   -2.7939721    1.1649518   563356 
 2728000    1.0034008   -2.7935274   -2.7935274   -1.6292912  0.067915965   -2.7935274    1.1642362   563356 
 2729000    1.0035188   -2.7947536   -2.7947536   -1.6303804  0.063960839   -2.7947536    1.1643732   563356 
 2730000     1.004926   -2.7961472   -2.7961472   -1.6301413  0.056997169   -2.7961472    1.1660059   563356 
 2731000    1.0039398   -2.7945318   -2.7945318   -1.6296702  0.072209581   -2.7945318    1.1648616   563356 
 2732000    1.0043492   -2.7948256   -2.7948256    -1.629489  0.062265158   -2.7948256    1.1653366   563356 
 2733000    1.0053994   -2.7953121   -2.7953121   -1.6287569  0.069029557   -2.7953121    1.1665551   563356 
 2734000    1.0059031   -2.7954808   -2.7954808   -1.6283412   0.07214331   -2.7954808    1.1671396   563356 
 2735000    1.0059952   -2.7962849   -2.7962849   -1.6290384  0.067864254   -2.7962849    1.1672465   563356 
 2736000    1.0048706   -2.7954253   -2.7954253   -1.6294837  0.078128519   -2.7954253    1.1659416   563356 
 2737000    1.0043067   -2.7947335   -2.7947335   -1.6294463  0.075249379   -2.7947335    1.1652873   563356 
 2738000    1.0053716   -2.7961057   -2.7961057   -1.6295828  0.062507149   -2.7961057    1.1665229   563356 
 2739000    1.0054553   -2.7957109   -2.7957109   -1.6290909  0.072358799   -2.7957109      1.16662   563356 
 2740000    1.0063546   -2.7960285   -2.7960285    -1.628365  0.068787342   -2.7960285    1.1676635   563356 
 2741000    1.0058091   -2.7958324   -2.7958324   -1.6288018  0.078539419   -2.7958324    1.1670306   563356 
 2742000    1.0066665   -2.7962966   -2.7962966   -1.6282712  0.069892115   -2.7962966    1.1680253   563356 
 2743000    1.0065833   -2.7963465   -2.7963465   -1.6284177  0.057962959   -2.7963465    1.1679288   563356 
 2744000    1.0046297   -2.7943096   -2.7943096   -1.6286475  0.065030508   -2.7943096    1.1656621   563356 
 2745000    1.0052568   -2.7956717   -2.7956717    -1.629282  0.068737748   -2.7956717    1.1663898   563356 
 2746000    1.0036524    -2.794574    -2.794574   -1.6300459  0.067750244    -2.794574    1.1645282   563356 
 2747000    1.0044595   -2.7949361   -2.7949361   -1.6294715  0.072736994   -2.7949361    1.1654646   563356 
 2748000     1.005345   -2.7956161   -2.7956161    -1.629124   0.06381315   -2.7956161     1.166492   563356 
 2749000    1.0052255   -2.7952993   -2.7952993   -1.6289459  0.070362191   -2.7952993    1.1663534   563356 
 2750000    1.0039126   -2.7933426   -2.7933426   -1.6285126  0.084166358   -2.7933426      1.16483   563356 
 2751000    1.0047626   -2.7944142   -2.7944142    -1.628598  0.074947238   -2.7944142    1.1658163   563356 
 2752000    1.0041918   -2.7935986   -2.7935986   -1.6284446  0.074605104   -2.7935986     1.165154   563356 
 2753000    1.0041015   -2.7948096   -2.7948096   -1.6297603  0.054715064   -2.7948096    1.1650493   563356 
 2754000    1.0036655   -2.7941609   -2.7941609   -1.6296176  0.059844933   -2.7941609    1.1645433   563356 
 2755000    1.0032577   -2.7930154   -2.7930154   -1.6289452  0.066020177   -2.7930154    1.1640702   563356 
 2756000    1.0037921   -2.7943099   -2.7943099   -1.6296196  0.064415875   -2.7943099    1.1646903   563356 
 2757000    1.0031186    -2.794036    -2.794036   -1.6301272  0.063826566    -2.794036    1.1639087   563356 
 2758000    1.0047852   -2.7962691   -2.7962691   -1.6304266  0.061655297   -2.7962691    1.1658426   563356 
 2759000    1.0023228   -2.7935729   -2.7935729   -1.6305876  0.070873731   -2.7935729    1.1629854   563356 
 2760000    1.0036659   -2.7960402   -2.7960402   -1.6314964  0.064122772   -2.7960402    1.1645438   563356 
 2761000    1.0027983    -2.794899    -2.794899   -1.6313619  0.058745831    -2.794899    1.1635372   563356 
 2762000    1.0037502   -2.7960171   -2.7960171   -1.6313755  0.064243379   -2.7960171    1.1646416   563356 
 2763000    1.0026473   -2.7948577   -2.7948577   -1.6314958  0.063794402   -2.7948577     1.163362   563356 
 2764000    1.0049563   -2.7971484   -2.7971484   -1.6311074  0.064861367   -2.7971484     1.166041   563356 
 2765000    1.0041791   -2.7967331   -2.7967331   -1.6315938   0.07074976   -2.7967331    1.1651393   563356 
 2766000    1.0038191   -2.7967614   -2.7967614   -1.6320398  0.062366824   -2.7967614    1.1647216   563356 
 2767000    1.0044767   -2.7977163   -2.7977163   -1.6322318  0.066311681   -2.7977163    1.1654845   563356 
 2768000    1.0053775   -2.7985441   -2.7985441   -1.6320144  0.077620274   -2.7985441    1.1665298   563356 
 2769000    1.0045402   -2.7968139   -2.7968139   -1.6312557  0.072194667   -2.7968139    1.1655582   563356 
 2770000    1.0052696   -2.7987982   -2.7987982   -1.6323936   0.06370399   -2.7987982    1.1664046   563356 
 2771000    1.0061311   -2.7998712   -2.7998712    -1.632467  0.061322207   -2.7998712    1.1674042   563356 
 2772000    1.0055633   -2.7991082   -2.7991082   -1.6323629  0.069292593   -2.7991082    1.1667453   563356 
 2773000    1.0056566   -2.7985768   -2.7985768   -1.6317231  0.059554798   -2.7985768    1.1668536   563356 
 2774000    1.0044317    -2.797755    -2.797755   -1.6323227   0.06551472    -2.797755    1.1654323   563356 
 2775000    1.0031465   -2.7961843   -2.7961843   -1.6322431  0.076246735   -2.7961843    1.1639412   563356 
 2776000    1.0050844   -2.7978003   -2.7978003   -1.6316106  0.075757203   -2.7978003    1.1661897   563356 
 2777000    1.0025632   -2.7948305   -2.7948305   -1.6315661  0.080180535   -2.7948305    1.1632643   563356 
 2778000    1.0054916   -2.7973145   -2.7973145   -1.6306524  0.074461526   -2.7973145    1.1666621   563356 
 2779000    1.0040575   -2.7956052   -2.7956052    -1.630607  0.069137853   -2.7956052    1.1649982   563356 
 2780000    1.0044582   -2.7960501   -2.7960501   -1.6305869  0.062622604   -2.7960501    1.1654631   563356 
 2781000    1.0064124   -2.7983876   -2.7983876   -1.6306571   0.05696532   -2.7983876    1.1677306   563356 
 2782000    1.0039742   -2.7958825   -2.7958825    -1.630981  0.063818126   -2.7958825    1.1649015   563356 
 2783000    1.0034456   -2.7947693   -2.7947693   -1.6304811   0.06394174   -2.7947693    1.1642882   563356 
 2784000    1.0028427   -2.7945409   -2.7945409   -1.6309523  0.063119066   -2.7945409    1.1635886   563356 
 2785000    1.0049625   -2.7976957   -2.7976957   -1.6316474  0.059564668   -2.7976957    1.1660483   563356 
 2786000    1.0040551   -2.7960805   -2.7960805   -1.6310851  0.053956848   -2.7960805    1.1649954   563356 
 2787000    1.0047238   -2.7971384   -2.7971384   -1.6313672  0.074443347   -2.7971384    1.1657713   563356 
 2788000    1.0023366   -2.7937846   -2.7937846   -1.6307832  0.075076364   -2.7937846    1.1630015   563356 
 2789000    1.0036355    -2.795762    -2.795762   -1.6312534  0.071032349    -2.795762    1.1645086   563356 
 2790000    1.0009838   -2.7928354   -2.7928354   -1.6314036  0.070425474   -2.7928354    1.1614318   563356 
 2791000    1.0013429   -2.7932405   -2.7932405    -1.631392  0.071728796   -2.7932405    1.1618485   563356 
 2792000    1.0025096   -2.7945048   -2.7945048   -1.6313027  0.061830621   -2.7945048    1.1632021   563356 
 2793000     1.002087   -2.7935349   -2.7935349   -1.6308231   0.06441908   -2.7935349    1.1627118   563356 
 2794000    1.0034791    -2.795229    -2.795229   -1.6309019  0.068529354    -2.795229    1.1643271   563356 
 2795000    1.0035236   -2.7954821   -2.7954821   -1.6311034  0.066157038   -2.7954821    1.1643787   563356 
 2796000    1.0015414   -2.7935192   -2.7935192   -1.6314404  0.073545948   -2.7935192    1.1620788   563356 
 2797000     1.003051   -2.7958783   -2.7958783    -1.632048  0.062582476   -2.7958783    1.1638303   563356 
 2798000    1.0036113   -2.7962744   -2.7962744   -1.6317939  0.066352367   -2.7962744    1.1644804   563356 
 2799000    1.0028697   -2.7946503   -2.7946503   -1.6310302  0.065401016   -2.7946503      1.16362   563356 
 2800000    1.0032642    -2.795615    -2.795615   -1.6315373  0.067708308    -2.795615    1.1640777   563356 
 2801000    1.0058169   -2.7983255   -2.7983255   -1.6312859  0.064852456   -2.7983255    1.1670396   563356 
 2802000    1.0040749   -2.7967115   -2.7967115   -1.6316931  0.070180869   -2.7967115    1.1650184   563356 
 2803000    1.0045456   -2.7973733   -2.7973733   -1.6318088   0.07539277   -2.7973733    1.1655645   563356 
 2804000    1.0027019   -2.7951713   -2.7951713    -1.631746  0.071703971   -2.7951713    1.1634253   563356 
 2805000    1.0032243   -2.7951035   -2.7951035    -1.631072  0.065445663   -2.7951035    1.1640315   563356 
 2806000    1.0044756   -2.7975825   -2.7975825   -1.6320992  0.075836081   -2.7975825    1.1654833   563356 
 2807000    1.0049767   -2.7974686   -2.7974686   -1.6314039  0.070396552   -2.7974686    1.1660647   563356 
 2808000    1.0058837   -2.7980706   -2.7980706   -1.6309535   0.07855157   -2.7980706    1.1671171   563356 
 2809000    1.0045487   -2.7965812   -2.7965812   -1.6310132  0.066655995   -2.7965812    1.1655681   563356 
 2810000    1.0060817    -2.797697    -2.797697   -1.6303501  0.068317657    -2.797697    1.1673468   563356 
 2811000    1.0052417   -2.7970471   -2.7970471   -1.6306749  0.071261447   -2.7970471    1.1663722   563356 
 2812000    1.0042085   -2.7966775   -2.7966775   -1.6315041  0.070871756   -2.7966775    1.1651734   563356 
 2813000    1.0044287   -2.7960832   -2.7960832   -1.6306543  0.063678575   -2.7960832    1.1654289   563356 
 2814000    1.0051582   -2.7973846   -2.7973846   -1.6311093  0.077427781   -2.7973846    1.1662753   563356 
 2815000     1.006218   -2.7971475   -2.7971475   -1.6296426   0.07996627   -2.7971475     1.167505   563356 
 2816000    1.0050404   -2.7961105   -2.7961105   -1.6299719  0.060222945   -2.7961105    1.1661386   563356 
 2817000    1.0057486   -2.7960488   -2.7960488   -1.6290885  0.066697384   -2.7960488    1.1669603   563356 
 2818000    1.0062021   -2.7969091   -2.7969091   -1.6294226   0.05786103   -2.7969091    1.1674866   563356 
 2819000    1.0042161   -2.7951399   -2.7951399   -1.6299577  0.061114932   -2.7951399    1.1651822   563356 
 2820000    1.0023369   -2.7940953   -2.7940953   -1.6310935  0.054233565   -2.7940953    1.1630018   563356 
 2821000    1.0025041   -2.7940522   -2.7940522   -1.6308565  0.064836542   -2.7940522    1.1631958   563356 
 2822000     1.003993   -2.7952049   -2.7952049   -1.6302815  0.069264658   -2.7952049    1.1649234   563356 
 2823000    1.0032112   -2.7939308   -2.7939308   -1.6299145  0.062283646   -2.7939308    1.1640163   563356 
 2824000    1.0022937   -2.7935661   -2.7935661   -1.6306144   0.06203271   -2.7935661    1.1629517   563356 
 2825000    1.0034202   -2.7938067   -2.7938067   -1.6295479  0.067746874   -2.7938067    1.1642587   563356 
 2826000    1.0040063   -2.7946674   -2.7946674   -1.6297286  0.077715103   -2.7946674    1.1649388   563356 
 2827000    1.0018074   -2.7926348   -2.7926348   -1.6302474  0.062363943   -2.7926348    1.1623875   563356 
 2828000    1.0040631   -2.7941797   -2.7941797   -1.6291751  0.072191924   -2.7941797    1.1650046   563356 
 2829000    1.0044627   -2.7953775   -2.7953775   -1.6299092  0.071166879   -2.7953775    1.1654683   563356 
 2830000    1.0051857    -2.795722    -2.795722   -1.6294148  0.055374415    -2.795722    1.1663072   563356 
 2831000    1.0040684   -2.7943794   -2.7943794   -1.6293686  0.060339292   -2.7943794    1.1650108   563356 
 2832000    1.0041381   -2.7945875   -2.7945875   -1.6294958  0.078814155   -2.7945875    1.1650917   563356 
 2833000    1.0044426   -2.7950627   -2.7950627   -1.6296177  0.065206365   -2.7950627     1.165445   563356 
 2834000    1.0022994   -2.7920599   -2.7920599   -1.6291016   0.07309606   -2.7920599    1.1629583   563356 
 2835000    1.0040083    -2.794491    -2.794491   -1.6295498  0.072522174    -2.794491    1.1649411   563356 
 2836000    1.0042845   -2.7950434   -2.7950434   -1.6297819   0.05842327   -2.7950434    1.1652615   563356 
 2837000    1.0047713   -2.7958951   -2.7958951   -1.6300687  0.066090533   -2.7958951    1.1658264   563356 
 2838000     1.003665   -2.7951545   -2.7951545   -1.6306118  0.066866825   -2.7951545    1.1645428   563356 
 2839000    1.0040303   -2.7962057   -2.7962057    -1.631239  0.059438221   -2.7962057    1.1649666   563356 
 2840000    1.0037613   -2.7951265   -2.7951265   -1.6304721  0.072793279   -2.7951265    1.1646545   563356 
 2841000    1.0041352   -2.7955461   -2.7955461   -1.6304577  0.066035437   -2.7955461    1.1650884   563356 
 2842000    1.0041016   -2.7955425   -2.7955425   -1.6304932  0.073693044   -2.7955425    1.1650493   563356 
 2843000    1.0030394   -2.7942168   -2.7942168   -1.6303999  0.075124716   -2.7942168    1.1638169   563356 
 2844000    1.0050859    -2.795947    -2.795947   -1.6297555  0.068705625    -2.795947    1.1661914   563356 
 2845000    1.0054271   -2.7954213   -2.7954213    -1.628834  0.059809943   -2.7954213    1.1665873   563356 
 2846000    1.0054878   -2.7956966   -2.7956966   -1.6290389   0.07806596   -2.7956966    1.1666578   563356 
 2847000    1.0061706   -2.7970954   -2.7970954   -1.6296453  0.062993569   -2.7970954      1.16745   563356 
 2848000    1.0045044   -2.7954902   -2.7954902   -1.6299735  0.061234463   -2.7954902    1.1655167   563356 
 2849000    1.0049689   -2.7955257   -2.7955257   -1.6294701   0.05958723   -2.7955257    1.1660556   563356 
 2850000    1.0045825   -2.7951171   -2.7951171   -1.6295097  0.069808631   -2.7951171    1.1656074   563356 
 2851000    1.0048805   -2.7952952   -2.7952952   -1.6293421   0.07380612   -2.7952952    1.1659531   563356 
 2852000    1.0045975    -2.795983    -2.795983   -1.6303583  0.070405582    -2.795983    1.1656247   563356 
 2853000     1.005064    -2.796219    -2.796219    -1.630053  0.069253431    -2.796219     1.166166   563356 
 2854000      1.00373   -2.7946882   -2.7946882     -1.63007  0.063805701   -2.7946882    1.1646182   563356 
 2855000    1.0052273   -2.7954634   -2.7954634   -1.6291079  0.070396356   -2.7954634    1.1663555   563356 
 2856000    1.0045778   -2.7936806   -2.7936806   -1.6280787  0.068962944   -2.7936806    1.1656019   563356 
 2857000    1.0057099   -2.7956808   -2.7956808   -1.6287653  0.056852606   -2.7956808    1.1669154   563356 
 2858000     1.004595   -2.7951453   -2.7951453   -1.6295235  0.063030752   -2.7951453    1.1656218   563356 
 2859000    1.0037371   -2.7942789   -2.7942789   -1.6296525  0.070112235   -2.7942789    1.1646264   563356 
 2860000    1.0044845   -2.7935618   -2.7935618   -1.6280682  0.077169604   -2.7935618    1.1654936   563356 
 2861000    1.0045682   -2.7942095   -2.7942095   -1.6286188  0.066609695   -2.7942095    1.1655907   563356 
 2862000    1.0063281   -2.7958312   -2.7958312   -1.6281984  0.071309237   -2.7958312    1.1676328   563356 
 2863000    1.0054223   -2.7953802   -2.7953802   -1.6287985  0.065281499   -2.7953802    1.1665817   563356 
 2864000    1.0062065   -2.7954677   -2.7954677    -1.627976  0.064909118   -2.7954677    1.1674917   563356 
 2865000    1.0036903   -2.7921677   -2.7921677   -1.6275956    0.0615289   -2.7921677    1.1645722   563356 
 2866000     1.004106   -2.7920927   -2.7920927   -1.6270382  0.071664961   -2.7920927    1.1650545   563356 
 2867000    1.0040915   -2.7927828   -2.7927828   -1.6277452    0.0601461   -2.7927828    1.1650376   563356 
 2868000    1.0033194   -2.7921341   -2.7921341   -1.6279924  0.071806964   -2.7921341    1.1641417   563356 
 2869000    1.0045625   -2.7943174   -2.7943174   -1.6287332  0.060618159   -2.7943174    1.1655842   563356 
 2870000    1.0035215   -2.7934248   -2.7934248   -1.6290486  0.065951463   -2.7934248    1.1643762   563356 
 2871000    1.0038603   -2.7949224   -2.7949224   -1.6301531  0.064733785   -2.7949224    1.1647693   563356 
 2872000    1.0035189   -2.7944881   -2.7944881   -1.6301149  0.060915217   -2.7944881    1.1643733   563356 
 2873000    1.0011047   -2.7911939   -2.7911939   -1.6296218   0.06515715   -2.7911939     1.161572   563356 
 2874000    1.0026019   -2.7926025   -2.7926025   -1.6292932   0.06609215   -2.7926025    1.1633093   563356 
 2875000     1.002149   -2.7917534   -2.7917534   -1.6289696  0.053337326   -2.7917534    1.1627838   563356 
 2876000    1.0038886   -2.7938245   -2.7938245   -1.6290223  0.066213423   -2.7938245    1.1648022   563356 
 2877000     1.002356    -2.792563    -2.792563    -1.629539  0.049181178    -2.792563     1.163024   563356 
 2878000    1.0018032   -2.7922155   -2.7922155    -1.629833  0.065180728   -2.7922155    1.1623826   563356 
 2879000    1.0034739   -2.7943719   -2.7943719   -1.6300508  0.067197919   -2.7943719     1.164321   563356 
 2880000    1.0041865   -2.7949425   -2.7949425   -1.6297946  0.068338168   -2.7949425    1.1651479   563356 
 2881000    1.0036283   -2.7942366   -2.7942366   -1.6297365  0.064996874   -2.7942366    1.1645002   563356 
 2882000    1.0040776   -2.7942483   -2.7942483   -1.6292269   0.05653363   -2.7942483    1.1650215   563356 
 2883000    1.0043268   -2.7950883   -2.7950883   -1.6297777  0.066671907   -2.7950883    1.1653106   563356 
 2884000    1.0045429   -2.7956743   -2.7956743   -1.6301129  0.051242916   -2.7956743    1.1655614   563356 
 2885000    1.0041813   -2.7949903   -2.7949903   -1.6298485  0.054932921   -2.7949903    1.1651418   563356 
 2886000    1.0048923   -2.7960555   -2.7960555   -1.6300887  0.067334874   -2.7960555    1.1659668   563356 
 2887000    1.0039562   -2.7951591   -2.7951591   -1.6302784  0.068241022   -2.7951591    1.1648807   563356 
 2888000      1.00386   -2.7959939   -2.7959939   -1.6312249  0.074477266   -2.7959939     1.164769   563356 
 2889000     1.004468   -2.7952405   -2.7952405    -1.629766     0.074491   -2.7952405    1.1654745   563356 
 2890000    1.0049726   -2.7976759   -2.7976759    -1.631616  0.060484526   -2.7976759    1.1660599   563356 
 2891000     1.005755   -2.7986464   -2.7986464   -1.6316786  0.050590899   -2.7986464    1.1669678   563356 
 2892000    1.0043242   -2.7976062   -2.7976062   -1.6322986  0.064565136   -2.7976062    1.1653077   563356 
 2893000    1.0039734    -2.797535    -2.797535   -1.6326344  0.064096833    -2.797535    1.1649006   563356 
 2894000    1.0047727   -2.7985992   -2.7985992   -1.6327712  0.081353561   -2.7985992     1.165828   563356 
 2895000    1.0043506   -2.7980049   -2.7980049   -1.6326667  0.069832217   -2.7980049    1.1653382   563356 
 2896000    1.0053621   -2.7986598   -2.7986598   -1.6321479  0.065123423   -2.7986598    1.1665119   563356 
 2897000    1.0042077   -2.7980238   -2.7980238   -1.6328514  0.061864308   -2.7980238    1.1651724   563356 
 2898000    1.0031224   -2.7969363   -2.7969363   -1.6330231  0.066093194   -2.7969363    1.1639132   563356 
 2899000    1.0024263   -2.7963564   -2.7963564    -1.633251  0.072482594   -2.7963564    1.1631055   563356 
 2900000    1.0039796   -2.7973481   -2.7973481   -1.6324403  0.070242359   -2.7973481    1.1649078   563356 
 2901000    1.0029432   -2.7958434   -2.7958434   -1.6321381  0.069432868   -2.7958434    1.1637053   563356 
 2902000    1.0036066   -2.7962034   -2.7962034   -1.6317285  0.065059583   -2.7962034    1.1644749   563356 
 2903000    1.0039092   -2.7971313   -2.7971313   -1.6323052  0.073837065   -2.7971313    1.1648261   563356 
 2904000    1.0025325   -2.7963474   -2.7963474   -1.6331187  0.064060993   -2.7963474    1.1632287   563356 
 2905000    1.0027107   -2.7962236   -2.7962236   -1.6327881  0.064936272   -2.7962236    1.1634355   563356 
 2906000    1.0038242   -2.7965631   -2.7965631   -1.6318357  0.067146133   -2.7965631    1.1647275   563356 
 2907000    1.0034608   -2.7960572   -2.7960572   -1.6317514  0.080149838   -2.7960572    1.1643058   563356 
 2908000    1.0051662   -2.7982454   -2.7982454   -1.6319608  0.059054745   -2.7982454    1.1662845   563356 
 2909000    1.0045657   -2.7965814   -2.7965814   -1.6309935  0.072558046   -2.7965814    1.1655879   563356 
 2910000    1.0047449   -2.7968287   -2.7968287    -1.631033  0.058574952   -2.7968287    1.1657957   563356 
 2911000    1.0036982   -2.7965127   -2.7965127   -1.6319315  0.073200052   -2.7965127    1.1645812   563356 
 2912000    1.0048813   -2.7974203   -2.7974203   -1.6314662  0.076069991   -2.7974203     1.165954   563356 
 2913000    1.0047493   -2.7971281   -2.7971281   -1.6313273  0.060262261   -2.7971281    1.1658009   563356 
 2914000    1.0060189   -2.7977635   -2.7977635   -1.6304895  0.077581634   -2.7977635     1.167274   563356 
 2915000    1.0046769   -2.7962603   -2.7962603   -1.6305434  0.072300843   -2.7962603    1.1657169   563356 
 2916000    1.0028238   -2.7941901   -2.7941901   -1.6306234  0.068519102   -2.7941901    1.1635667   563356 
 2917000    1.0032445   -2.7947932   -2.7947932   -1.6307383   0.06254152   -2.7947932    1.1640549   563356 
 2918000    1.0039444   -2.7963233   -2.7963233   -1.6314564   0.06569658   -2.7963233     1.164867   563356 
 2919000    1.0030574   -2.7954649   -2.7954649   -1.6316271  0.068647576   -2.7954649    1.1638378   563356 
 2920000    1.0036922   -2.7967186   -2.7967186   -1.6321443  0.064222722   -2.7967186    1.1645743   563356 
 2921000    1.0009609   -2.7946776   -2.7946776   -1.6332724   0.06682977   -2.7946776    1.1614052   563356 
 2922000    1.0017164   -2.7950251   -2.7950251   -1.6327433   0.06087594   -2.7950251    1.1622818   563356 
 2923000    1.0036388   -2.7972286   -2.7972286   -1.6327162  0.073569546   -2.7972286    1.1645124   563356 
 2924000    1.0024291   -2.7949485   -2.7949485   -1.6318397  0.073650145   -2.7949485    1.1631088   563356 
 2925000    1.0035378   -2.7964874   -2.7964874   -1.6320923  0.064875252   -2.7964874    1.1643951   563356 
 2926000    1.0033546   -2.7965266   -2.7965266    -1.632344  0.062308855   -2.7965266    1.1641826   563356 
 2927000    1.0050858   -2.7977388   -2.7977388   -1.6315475  0.053597276   -2.7977388    1.1661913   563356 
 2928000    1.0031721   -2.7952441   -2.7952441   -1.6312733  0.068125047   -2.7952441    1.1639708   563356 
 2929000    1.0048729   -2.7967205   -2.7967205   -1.6307763  0.069748367   -2.7967205    1.1659442   563356 
 2930000    1.0052598   -2.7969255   -2.7969255   -1.6305323  0.071879042   -2.7969255    1.1663932   563356 
 2931000    1.0047274   -2.7963877   -2.7963877   -1.6306123  0.062206096   -2.7963877    1.1657754   563356 
 2932000    1.0038697   -2.7959082   -2.7959082   -1.6311279  0.067861602   -2.7959082    1.1647803   563356 
 2933000    1.0031255   -2.7951025   -2.7951025   -1.6311857  0.068315119   -2.7951025    1.1639168   563356 
 2934000    1.0041038   -2.7964707   -2.7964707   -1.6314188  0.071836235   -2.7964707    1.1650519   563356 
 2935000    1.0028879   -2.7954239   -2.7954239   -1.6317828  0.058736497   -2.7954239    1.1636411   563356 
 2936000    1.0040666   -2.7969037   -2.7969037   -1.6318949   0.06602774   -2.7969037    1.1650087   563356 
 2937000    1.0042957   -2.7966434   -2.7966434   -1.6313688  0.070691347   -2.7966434    1.1652746   563356 
 2938000    1.0051019    -2.797471    -2.797471   -1.6312609  0.060035756    -2.797471      1.16621   563356 
 2939000    1.0041048   -2.7968846   -2.7968846   -1.6318316  0.071046642   -2.7968846     1.165053   563356 
 2940000    1.0047042   -2.7974043   -2.7974043   -1.6316558  0.072175872   -2.7974043    1.1657485   563356 
 2941000    1.0041081   -2.7970698   -2.7970698   -1.6320129  0.067978343   -2.7970698    1.1650569   563356 
 2942000    1.0052857   -2.7986132   -2.7986132   -1.6321899  0.067104674   -2.7986132    1.1664233   563356 
 2943000    1.0050906    -2.797746    -2.797746    -1.631549  0.068029982    -2.797746    1.1661969   563356 
 2944000    1.0061525   -2.7985592   -2.7985592   -1.6311303  0.060977675   -2.7985592     1.167429   563356 
 2945000    1.0043487   -2.7971113   -2.7971113   -1.6317752  0.066718423   -2.7971113    1.1653361   563356 
 2946000    1.0059514   -2.7985126   -2.7985126   -1.6313171  0.059780268   -2.7985126    1.1671956   563356 
 2947000    1.0055082   -2.7988019   -2.7988019   -1.6321205  0.065348935   -2.7988019    1.1666814   563356 
 2948000    1.0052861    -2.797826    -2.797826   -1.6314023  0.069613766    -2.797826    1.1664237   563356 
 2949000    1.0051546    -2.796922    -2.796922   -1.6306508  0.066020267    -2.796922    1.1662712   563356 
 2950000    1.0048776   -2.7966657   -2.7966657    -1.630716  0.074200096   -2.7966657    1.1659497   563356 
 2951000     1.004645   -2.7965049   -2.7965049   -1.6308251  0.071676009   -2.7965049    1.1656798   563356 
 2952000    1.0061869   -2.7988828   -2.7988828   -1.6314139  0.065635841   -2.7988828    1.1674689   563356 
 2953000    1.0061963   -2.7980183   -2.7980183   -1.6305385  0.057257218   -2.7980183    1.1674798   563356 
 2954000    1.0054256   -2.7980076   -2.7980076    -1.631422  0.065786348   -2.7980076    1.1665856   563356 
 2955000    1.0034244   -2.7957097   -2.7957097   -1.6314461  0.068976138   -2.7957097    1.1642636   563356 
 2956000    1.0032786    -2.795291    -2.795291   -1.6311966  0.072168434    -2.795291    1.1640944   563356 
 2957000    1.0035137   -2.7962492   -2.7962492    -1.631882   0.07588204   -2.7962492    1.1643672   563356 
 2958000    1.0041675   -2.7968777   -2.7968777    -1.631752   0.06927523   -2.7968777    1.1651258   563356 
 2959000    1.0035688   -2.7952424   -2.7952424   -1.6308113  0.064432399   -2.7952424    1.1644311   563356 
 2960000    1.0036049   -2.7947156   -2.7947156   -1.6302425  0.067538585   -2.7947156     1.164473   563356 
 2961000    1.0048394   -2.7952142   -2.7952142   -1.6293088  0.072436895   -2.7952142    1.1659054   563356 
 2962000    1.0051783   -2.7954076   -2.7954076    -1.629109  0.063840699   -2.7954076    1.1662987   563356 
 2963000    1.0051355   -2.7954216   -2.7954216   -1.6291726  0.067964821   -2.7954216     1.166249   563356 
 2964000    1.0038765   -2.7938439   -2.7938439   -1.6290558   0.06451608   -2.7938439    1.1647881   563356 
 2965000    1.0035807   -2.7927666   -2.7927666   -1.6283216  0.071667848   -2.7927666     1.164445   563356 
 2966000    1.0041336   -2.7933548   -2.7933548   -1.6282683  0.076759956   -2.7933548    1.1650865   563356 
 2967000    1.0035985   -2.7929627   -2.7929627   -1.6284971  0.070325033   -2.7929627    1.1644657   563356 
 2968000    1.0034748   -2.7929576   -2.7929576   -1.6286355  0.059549735   -2.7929576    1.1643221   563356 
 2969000    1.0026442   -2.7923796   -2.7923796   -1.6290213  0.067014941   -2.7923796    1.1633583   563356 
 2970000     1.003843   -2.7938572   -2.7938572   -1.6291079  0.058570839   -2.7938572    1.1647493   563356 
 2971000    1.0032797   -2.7935555   -2.7935555   -1.6294598  0.067511828   -2.7935555    1.1640957   563356 
 2972000    1.0030384   -2.7925718   -2.7925718    -1.628756  0.081335423   -2.7925718    1.1638158   563356 
 2973000    1.0035165   -2.7932416   -2.7932416   -1.6288711  0.053788878   -2.7932416    1.1643705   563356 
 2974000    1.0022227   -2.7925169   -2.7925169   -1.6296477  0.066966596   -2.7925169    1.1628692   563356 
 2975000    1.0024051    -2.793146    -2.793146   -1.6300651  0.051619615    -2.793146    1.1630809   563356 
 2976000    1.0021996   -2.7929932   -2.7929932   -1.6301507  0.063225377   -2.7929932    1.1628425   563356 
 2977000    1.0032609   -2.7934871   -2.7934871   -1.6294132  0.049589017   -2.7934871    1.1640738   563356 
 2978000    1.0014149   -2.7911587   -2.7911587   -1.6292267  0.070705826   -2.7911587    1.1619319   563356 
 2979000    1.0016668   -2.7908886   -2.7908886   -1.6286644  0.061901452   -2.7908886    1.1622242   563356 
 2980000    1.0028629   -2.7924017   -2.7924017   -1.6287896  0.073313952   -2.7924017    1.1636121   563356 
 2981000    1.0041729   -2.7938583   -2.7938583   -1.6287262  0.068078264   -2.7938583    1.1651321   563356 
 2982000     1.004636   -2.7941105   -2.7941105   -1.6284411  0.072143686   -2.7941105    1.1656694   563356 
 2983000    1.0040709   -2.7953166   -2.7953166   -1.6303029  0.058724027   -2.7953166    1.1650138   563356 
 2984000    1.0041284   -2.7960374   -2.7960374   -1.6309569  0.074183198   -2.7960374    1.1650805   563356 
 2985000    1.0047663   -2.7959802   -2.7959802   -1.6301596  0.069844859   -2.7959802    1.1658206   563356 
 2986000    1.0045269   -2.7962978   -2.7962978    -1.630755  0.068714645   -2.7962978    1.1655428   563356 
 2987000    1.0038443   -2.7952566   -2.7952566   -1.6305058  0.060763471   -2.7952566    1.1647508   563356 
 2988000    1.0044348   -2.7958664   -2.7958664   -1.6304304  0.065768886   -2.7958664     1.165436   563356 
 2989000     1.003996   -2.7954288   -2.7954288    -1.630502   0.06768576   -2.7954288    1.1649268   563356 
 2990000    1.0052474   -2.7967964   -2.7967964   -1.6304176   0.06565808   -2.7967964    1.1663788   563356 
 2991000    1.0023391   -2.7948415   -2.7948415   -1.6318372   0.06490406   -2.7948415    1.1630044   563356 
 2992000      1.00361   -2.7980215   -2.7980215   -1.6335425  0.070131103   -2.7980215    1.1644789   563356 
 2993000    1.0040578   -2.7968844   -2.7968844   -1.6318859  0.065210394   -2.7968844    1.1649985   563356 
 2994000    1.0043862   -2.7987913   -2.7987913   -1.6334118  0.059796598   -2.7987913    1.1653795   563356 
 2995000    1.0028393   -2.7974772   -2.7974772   -1.6338926  0.061097501   -2.7974772    1.1635847   563356 
 2996000    1.0049106   -2.7982871   -2.7982871   -1.6322991  0.062683121   -2.7982871     1.165988   563356 
 2997000    1.0045068   -2.7986113   -2.7986113   -1.6330918  0.072764162   -2.7986113    1.1655194   563356 
 2998000    1.0036722   -2.7971202   -2.7971202    -1.632569  0.076260287   -2.7971202    1.1645512   563356 
 2999000    1.0029293   -2.7957714   -2.7957714   -1.6320823  0.067513779   -2.7957714    1.1636891   563356 
 3000000     1.003226    -2.795583    -2.795583   -1.6315496   0.07047887    -2.795583    1.1640334   563356 
 3001000    1.0038491   -2.7970817   -2.7970817   -1.6323254  0.063757058   -2.7970817    1.1647563   563356 
 3002000    1.0037539   -2.7968992   -2.7968992   -1.6322532  0.059569518   -2.7968992     1.164646   563356 
 3003000     1.004403   -2.7968316   -2.7968316   -1.6314325  0.071515211   -2.7968316    1.1653991   563356 
 3004000    1.0050296   -2.7971913   -2.7971913   -1.6310651  0.070741716   -2.7971913    1.1661261   563356 
 3005000    1.0060513   -2.7992157   -2.7992157   -1.6319041  0.058467114   -2.7992157    1.1673115   563356 
 3006000    1.0030158   -2.7958392   -2.7958392   -1.6320498  0.068081815   -2.7958392    1.1637895   563356 
 3007000    1.0032909   -2.7958288   -2.7958288   -1.6317201  0.060915844   -2.7958288    1.1641087   563356 
 3008000    1.0030579   -2.7951927   -2.7951927   -1.6313544  0.065566377   -2.7951927    1.1638384   563356 
 3009000    1.0030408   -2.7949128   -2.7949128   -1.6310943  0.068226323   -2.7949128    1.1638185   563356 
 3010000    1.0036235   -2.7957046   -2.7957046     -1.63121  0.068125605   -2.7957046    1.1644946   563356 
 3011000    1.0033715   -2.7951994   -2.7951994   -1.6309973  0.058138407   -2.7951994    1.1642022   563356 
 3012000    1.0044418   -2.7962301   -2.7962301    -1.630786  0.064751058   -2.7962301    1.1654441   563356 
 3013000    1.0017263   -2.7939939   -2.7939939   -1.6317005  0.062998428   -2.7939939    1.1622934   563356 
 3014000    1.0039491   -2.7954666   -2.7954666   -1.6305942  0.067734517   -2.7954666    1.1648725   563356 
 3015000    1.0034072   -2.7945508   -2.7945508   -1.6303071  0.069593343   -2.7945508    1.1642437   563356 
 3016000    1.0050406   -2.7966852   -2.7966852   -1.6305464   0.05742347   -2.7966852    1.1661388   563356 
 3017000    1.0050185   -2.7964181   -2.7964181   -1.6303048   0.05756659   -2.7964181    1.1661133   563356 
 3018000    1.0039812   -2.7949966   -2.7949966    -1.630087  0.063306459   -2.7949966    1.1649096   563356 
 3019000    1.0047381   -2.7950396   -2.7950396   -1.6292517  0.071379117   -2.7950396    1.1657879   563356 
 3020000    1.0048388   -2.7946565   -2.7946565   -1.6287518  0.072025151   -2.7946565    1.1659047   563356 
 3021000    1.0044592   -2.7945876   -2.7945876   -1.6291233  0.070736893   -2.7945876    1.1654643   563356 
 3022000    1.0036846   -2.7941753   -2.7941753   -1.6296097  0.069592153   -2.7941753    1.1645655   563356 
 3023000    1.0058893   -2.7966335   -2.7966335   -1.6295099     0.069531   -2.7966335    1.1671236   563356 
 3024000    1.0035795   -2.7934162   -2.7934162   -1.6289727  0.069811814   -2.7934162    1.1644435   563356 
 3025000    1.0050211   -2.7955563   -2.7955563   -1.6294401  0.066721291   -2.7955563    1.1661162   563356 
 3026000    1.0041269   -2.7949275   -2.7949275   -1.6298487  0.067929634   -2.7949275    1.1650788   563356 
 3027000     1.003362   -2.7940558   -2.7940558   -1.6298646  0.060935707   -2.7940558    1.1641912   563356 
 3028000    1.0046683   -2.7949033   -2.7949033   -1.6291964  0.074854252   -2.7949033    1.1657069   563356 
 3029000    1.0045792   -2.7943844   -2.7943844   -1.6287809   0.05988554   -2.7943844    1.1656035   563356 
 3030000    1.0037201    -2.794736    -2.794736   -1.6301293  0.067055715    -2.794736    1.1646066   563356 
 3031000    1.0035151   -2.7944695   -2.7944695   -1.6301007  0.064953005   -2.7944695    1.1643688   563356 
 3032000    1.0024461   -2.7935027   -2.7935027   -1.6303742  0.067516297   -2.7935027    1.1631285   563356 
 3033000    1.0031225    -2.794202    -2.794202   -1.6302887  0.066795982    -2.794202    1.1639133   563356 
 3034000    1.0044352   -2.7953473   -2.7953473   -1.6299109  0.064485339   -2.7953473    1.1654365   563356 
 3035000    1.0042822   -2.7937037   -2.7937037   -1.6284447   0.06956385   -2.7937037    1.1652589   563356 
 3036000    1.0044218   -2.7933895   -2.7933895   -1.6279686  0.072563979   -2.7933895    1.1654209   563356 
 3037000    1.0051018   -2.7944507   -2.7944507   -1.6282408  0.066170974   -2.7944507    1.1662099   563356 
 3038000    1.0053321   -2.7946575   -2.7946575   -1.6281804  0.061020455   -2.7946575    1.1664771   563356 
 3039000    1.0057466   -2.7953801   -2.7953801   -1.6284221  0.064754654   -2.7953801     1.166958   563356 
 3040000    1.0035198   -2.7930875   -2.7930875   -1.6287132  0.062496967   -2.7930875    1.1643743   563356 
 3041000    1.0048033   -2.7947848   -2.7947848   -1.6289214  0.064054416   -2.7947848    1.1658635   563356 
 3042000    1.0056853   -2.7954266   -2.7954266   -1.6285398  0.071524548   -2.7954266    1.1668869   563356 
 3043000    1.0030975   -2.7927437   -2.7927437   -1.6288594  0.067673191   -2.7927437    1.1638843   563356 
 3044000    1.0062762   -2.7966641   -2.7966641   -1.6290916  0.066492133   -2.7966641    1.1675726   563356 
 3045000    1.0052645   -2.7952798   -2.7952798   -1.6288811  0.068060249   -2.7952798    1.1663987   563356 
 3046000    1.0053668   -2.7945744   -2.7945744   -1.6280571  0.060910443   -2.7945744    1.1665174   563356 
 3047000    1.0043723   -2.7927095   -2.7927095    -1.627346  0.073800632   -2.7927095    1.1653635   563356 
 3048000    1.0068678   -2.7956196   -2.7956196   -1.6273606  0.065010841   -2.7956196     1.168259   563356 
 3049000    1.0058608   -2.7944529   -2.7944529   -1.6273624  0.074504258   -2.7944529    1.1670905   563356 
 3050000    1.0052227   -2.7936205   -2.7936205   -1.6272704  0.074966689   -2.7936205    1.1663501   563356 
 3051000    1.0047694   -2.7936185   -2.7936185   -1.6277943  0.056069507   -2.7936185    1.1658242   563356 
 3052000    1.0039824   -2.7926285   -2.7926285   -1.6277175  0.058175697   -2.7926285     1.164911   563356 
 3053000    1.0053053   -2.7943165   -2.7943165   -1.6278705  0.068604649   -2.7943165     1.166446   563356 
 3054000    1.0044254   -2.7917235   -2.7917235   -1.6262984  0.068999561   -2.7917235    1.1654251   563356 
 3055000      1.00493    -2.791967    -2.791967   -1.6259564  0.076341094    -2.791967    1.1660106   563356 
 3056000    1.0053677   -2.7921399   -2.7921399   -1.6256215  0.064403268   -2.7921399    1.1665184   563356 
 3057000    1.0040035   -2.7916118   -2.7916118   -1.6266763   0.06153104   -2.7916118    1.1649355   563356 
 3058000    1.0027552   -2.7899456   -2.7899456   -1.6264585  0.068724333   -2.7899456    1.1634871   563356 
 3059000    1.0058323   -2.7925716   -2.7925716   -1.6255142   0.06952138   -2.7925716    1.1670574   563356 
 3060000     1.005167   -2.7920571   -2.7920571   -1.6257715  0.064131642   -2.7920571    1.1662855   563356 
 3061000    1.0041606   -2.7901945   -2.7901945   -1.6250767   0.06569506   -2.7901945    1.1651179   563356 
 3062000    1.0043898   -2.7917986   -2.7917986   -1.6264148  0.065358851   -2.7917986    1.1653838   563356 
 3063000    1.0033635   -2.7903709   -2.7903709    -1.626178  0.069296097   -2.7903709    1.1641929   563356 
 3064000    1.0042898   -2.7911997   -2.7911997    -1.625932  0.069370246   -2.7911997    1.1652677   563356 
 3065000    1.0046299   -2.7924235   -2.7924235   -1.6267612   0.06496051   -2.7924235    1.1656623   563356 
 3066000    1.0039735   -2.7919568   -2.7919568   -1.6270561   0.06239242   -2.7919568    1.1649007   563356 
 3067000    1.0031333   -2.7913134   -2.7913134   -1.6273876  0.057755959   -2.7913134    1.1639258   563356 
 3068000     1.003245   -2.7904091   -2.7904091   -1.6263537  0.068159831   -2.7904091    1.1640554   563356 
 3069000    1.0025612   -2.7908397   -2.7908397   -1.6275777  0.076770363   -2.7908397     1.163262   563356 
 3070000    1.0029107    -2.791762    -2.791762   -1.6280944  0.064063549    -2.791762    1.1636675   563356 
 3071000    1.0022461   -2.7911207   -2.7911207   -1.6282244  0.061044922   -2.7911207    1.1628964   563356 
 3072000    1.0031466   -2.7924058   -2.7924058   -1.6284645  0.051222634   -2.7924058    1.1639413   563356 
 3073000     1.002993   -2.7920675   -2.7920675   -1.6283045  0.067733937   -2.7920675     1.163763   563356 
 3074000    1.0045242   -2.7932737   -2.7932737    -1.627734  0.062852944   -2.7932737    1.1655397   563356 
 3075000    1.0052314   -2.7942664   -2.7942664   -1.6279062  0.070329761   -2.7942664    1.1663602   563356 
 3076000    1.0050287   -2.7941128   -2.7941128   -1.6279877  0.051949524   -2.7941128     1.166125   563356 
 3077000    1.0048124   -2.7928923   -2.7928923   -1.6270183  0.074667168   -2.7928923    1.1658741   563356 
 3078000     1.008264     -2.79609     -2.79609   -1.6262111  0.074000772     -2.79609    1.1698789   563356 
 3079000    1.0061045   -2.7944279   -2.7944279   -1.6270546  0.067346834   -2.7944279    1.1673733   563356 
 3080000    1.0058531   -2.7946132   -2.7946132   -1.6275315  0.080324774   -2.7946132    1.1670816   563356 
 3081000    1.0058078   -2.7957946   -2.7957946   -1.6287656   0.06985845   -2.7957946     1.167029   563356 
 3082000    1.0047664   -2.7950237   -2.7950237    -1.629203  0.078406642   -2.7950237    1.1658207   563356 
 3083000    1.0057882   -2.7954588   -2.7954588   -1.6284525  0.074048224   -2.7954588    1.1670063   563356 
 3084000    1.0050824   -2.7953021   -2.7953021   -1.6291147  0.071685043   -2.7953021    1.1661874   563356 
 3085000    1.0049934   -2.7956554   -2.7956554   -1.6295713  0.065223559   -2.7956554    1.1660841   563356 
 3086000    1.0048462    -2.794871    -2.794871   -1.6289577  0.056064165    -2.794871    1.1659133   563356 
 3087000    1.0041411   -2.7942078   -2.7942078   -1.6291125  0.064631219   -2.7942078    1.1650952   563356 
 3088000    1.0061803   -2.7962623   -2.7962623    -1.628801  0.064776998   -2.7962623    1.1674613   563356 
 3089000    1.0063996   -2.7958811   -2.7958811   -1.6281654  0.061040882   -2.7958811    1.1677157   563356 
 3090000    1.0061007    -2.795154    -2.795154   -1.6277851  0.074803796    -2.795154    1.1673689   563356 
 3091000    1.0053067    -2.793099    -2.793099   -1.6266513  0.074065466    -2.793099    1.1664476   563356 
 3092000    1.0064108   -2.7939018   -2.7939018   -1.6261731  0.078965833   -2.7939018    1.1677287   563356 
 3093000    1.0058756   -2.7940606   -2.7940606   -1.6269529  0.075026593   -2.7940606    1.1671077   563356 
 3094000    1.0077247   -2.7950727   -2.7950727   -1.6258195  0.059642847   -2.7950727    1.1692532   563356 
 3095000    1.0060238   -2.7946622   -2.7946622   -1.6273826   0.07412606   -2.7946622    1.1672796   563356 
 3096000    1.0057345   -2.7941622   -2.7941622   -1.6272182  0.069305196   -2.7941622    1.1669439   563356 
 3097000    1.0043351   -2.7921668   -2.7921668   -1.6268465  0.077715062   -2.7921668    1.1653202   563356 
 3098000    1.0050054    -2.792509    -2.792509    -1.626411  0.070649942    -2.792509     1.166098   563356 
 3099000    1.0043029   -2.7918749   -2.7918749    -1.626592  0.081752369   -2.7918749    1.1652829   563356 
 3100000    1.0059783   -2.7937631   -2.7937631   -1.6265362  0.059755035   -2.7937631    1.1672269   563356 
 3101000    1.0042217   -2.7916583   -2.7916583   -1.6264696  0.061607606   -2.7916583    1.1651887   563356 
 3102000    1.0029387   -2.7910952   -2.7910952   -1.6273951  0.051898933   -2.7910952       1.1637   563356 
 3103000    1.0015352   -2.7883077   -2.7883077   -1.6262361  0.071674086   -2.7883077    1.1620715   563356 
 3104000    1.0041906   -2.7908672   -2.7908672   -1.6257146  0.070565222   -2.7908672    1.1651526   563356 
 3105000     1.005287   -2.7916652   -2.7916652   -1.6252404  0.066143225   -2.7916652    1.1664248   563356 
 3106000    1.0040885   -2.7907498   -2.7907498   -1.6257157  0.068139742   -2.7907498    1.1650342   563356 
 3107000    1.0046853   -2.7913144   -2.7913144   -1.6255877  0.071615344   -2.7913144    1.1657266   563356 
 3108000    1.0050917   -2.7920395   -2.7920395   -1.6258413  0.065724369   -2.7920395    1.1661982   563356 
 3109000    1.0051274   -2.7917876   -2.7917876    -1.625548  0.066030895   -2.7917876    1.1662396   563356 
 3110000    1.0055577   -2.7926556   -2.7926556   -1.6259168  0.071361014   -2.7926556    1.1667388   563356 
 3111000    1.0046296   -2.7915236   -2.7915236   -1.6258616  0.062935415   -2.7915236     1.165662   563356 
 3112000    1.0062959   -2.7929369   -2.7929369   -1.6253415  0.073280448   -2.7929369    1.1675953   563356 
 3113000     1.004583   -2.7924914   -2.7924914   -1.6268836    0.0672098   -2.7924914    1.1656079   563356 
 3114000    1.0042613   -2.7918304   -2.7918304   -1.6265958  0.064267803   -2.7918304    1.1652346   563356 
 3115000    1.0051175   -2.7923073   -2.7923073   -1.6260792  0.063231024   -2.7923073    1.1662281   563356 
 3116000    1.0046081   -2.7920623   -2.7920623   -1.6264252  0.067493243   -2.7920623     1.165637   563356 
 3117000    1.0051558   -2.7938129   -2.7938129   -1.6275404  0.063415577   -2.7938129    1.1662726   563356 
 3118000    1.0043477    -2.794085    -2.794085   -1.6287501  0.061795836    -2.794085    1.1653349   563356 
 3119000    1.0048111   -2.7941891   -2.7941891   -1.6283166  0.064243909   -2.7941891    1.1658726   563356 
 3120000    1.0031225   -2.7932367   -2.7932367   -1.6293234  0.063989784   -2.7932367    1.1639133   563356 
 3121000    1.0031135   -2.7934342   -2.7934342   -1.6295314  0.066023262   -2.7934342    1.1639028   563356 
 3122000    1.0045127   -2.7950407   -2.7950407   -1.6295143  0.058070969   -2.7950407    1.1655263   563356 
 3123000    1.0047542   -2.7947266   -2.7947266   -1.6289201  0.073093256   -2.7947266    1.1658065   563356 
 3124000    1.0038901    -2.793809    -2.793809    -1.629005   0.06118229    -2.793809     1.164804   563356 
 3125000    1.0048729   -2.7952129   -2.7952129   -1.6292687  0.068642435   -2.7952129    1.1659442   563356 
 3126000    1.0038595   -2.7933949   -2.7933949   -1.6286264  0.071139265   -2.7933949    1.1647685   563356 
 3127000    1.0047372   -2.7952629   -2.7952629   -1.6294761  0.073852288   -2.7952629    1.1657868   563356 
 3128000    1.0056641   -2.7952868   -2.7952868   -1.6284244  0.072486876   -2.7952868    1.1668623   563356 
 3129000    1.0044368   -2.7941233   -2.7941233    -1.628685  0.076809121   -2.7941233    1.1654383   563356 
 3130000    1.0058568   -2.7958845   -2.7958845   -1.6287986  0.063864426   -2.7958845    1.1670859   563356 
 3131000    1.0053986   -2.7957447   -2.7957447   -1.6291905  0.065484708   -2.7957447    1.1665543   563356 
 3132000     1.004301   -2.7949012   -2.7949012   -1.6296204  0.062543354   -2.7949012    1.1652808   563356 
 3133000    1.0023254   -2.7941679   -2.7941679   -1.6311795  0.064402808   -2.7941679    1.1629884   563356 
 3134000    1.0042801   -2.7957008   -2.7957008   -1.6304444  0.054862473   -2.7957008    1.1652564   563356 
 3135000    1.0040939   -2.7946427   -2.7946427   -1.6296023  0.067643272   -2.7946427    1.1650404   563356 
 3136000    1.0029878   -2.7942489   -2.7942489   -1.6304919  0.065131366   -2.7942489     1.163757   563356 
 3137000    1.0025127   -2.7937017   -2.7937017    -1.630496  0.069278852   -2.7937017    1.1632057   563356 
 3138000    1.0041591   -2.7960381   -2.7960381   -1.6309221  0.072437885   -2.7960381     1.165116   563356 
 3139000    1.0033169   -2.7964964   -2.7964964   -1.6323575  0.066279566   -2.7964964    1.1641389   563356 
 3140000    1.0027895   -2.7948094   -2.7948094   -1.6312825  0.067397917   -2.7948094     1.163527   563356 
 3141000    1.0035685   -2.7955676   -2.7955676   -1.6311368  0.059477116   -2.7955676    1.1644308   563356 
 3142000    1.0025323   -2.7943463   -2.7943463   -1.6311177  0.068539037   -2.7943463    1.1632285   563356 
 3143000    1.0044178   -2.7955327   -2.7955327   -1.6301165  0.064949642   -2.7955327    1.1654162   563356 
 3144000    1.0055836   -2.7967849   -2.7967849    -1.630016   0.06301351   -2.7967849    1.1667689   563356 
 3145000    1.0046761   -2.7950905   -2.7950905   -1.6293745  0.065128352   -2.7950905     1.165716   563356 
 3146000    1.0042138   -2.7943505   -2.7943505   -1.6291709  0.069923166   -2.7943505    1.1651796   563356 
 3147000    1.0056448   -2.7952044   -2.7952044   -1.6283645  0.065964055   -2.7952044    1.1668399   563356 
 3148000     1.004666   -2.7952217   -2.7952217   -1.6295175  0.071796321   -2.7952217    1.1657043   563356 
 3149000    1.0043429   -2.7952831   -2.7952831   -1.6299538  0.078025885   -2.7952831    1.1653293   563356 
 3150000    1.0042978   -2.7948599   -2.7948599   -1.6295828  0.076007044   -2.7948599     1.165277   563356 
 3151000    1.0046967   -2.7958365   -2.7958365   -1.6300966   0.06076027   -2.7958365    1.1657399   563356 
 3152000    1.0024967   -2.7940615   -2.7940615   -1.6308742  0.078915645   -2.7940615    1.1631872   563356 
 3153000    1.0026785   -2.7945748   -2.7945748   -1.6311767  0.062770297   -2.7945748    1.1633981   563356 
 3154000    1.0028429   -2.7944701   -2.7944701   -1.6308813  0.053821761   -2.7944701    1.1635889   563356 
 3155000     1.001267   -2.7922341   -2.7922341   -1.6304737  0.076702752   -2.7922341    1.1617604   563356 
 3156000    1.0036215   -2.7939996   -2.7939996   -1.6295073  0.071834223   -2.7939996    1.1644923   563356 
 3157000    1.0028786   -2.7931365   -2.7931365   -1.6295062  0.065314936   -2.7931365    1.1636303   563356 
 3158000    1.0032305   -2.7930334   -2.7930334   -1.6289948   0.06756392   -2.7930334    1.1640386   563356 
 3159000    1.0039883   -2.7944378   -2.7944378   -1.6295199  0.063010779   -2.7944378    1.1649179   563356 
 3160000    1.0038173   -2.7946888   -2.7946888   -1.6299693  0.072865933   -2.7946888    1.1647195   563356 
 3161000    1.0036851   -2.7949756   -2.7949756   -1.6304094  0.064001721   -2.7949756    1.1645661   563356 
 3162000    1.0043858   -2.7952991   -2.7952991   -1.6299201  0.069764298   -2.7952991     1.165379   563356 
 3163000    1.0038341   -2.7949685   -2.7949685   -1.6302295  0.066660805   -2.7949685    1.1647389   563356 
 3164000    1.0043435    -2.795723    -2.795723    -1.630393  0.075513405    -2.795723      1.16533   563356 
 3165000    1.0032502   -2.7935352   -2.7935352   -1.6294737  0.070592203   -2.7935352    1.1640615   563356 
 3166000    1.0025806   -2.7930175   -2.7930175   -1.6297329  0.067283486   -2.7930175    1.1632846   563356 
 3167000     1.004478   -2.7938104   -2.7938104   -1.6283243  0.072814299   -2.7938104    1.1654861   563356 
 3168000    1.0042023   -2.7947072   -2.7947072    -1.629541  0.057117409   -2.7947072    1.1651662   563356 
 3169000    1.0034893   -2.7927087   -2.7927087   -1.6283698  0.080121407   -2.7927087    1.1643388   563356 
 3170000    1.0041321   -2.7943554   -2.7943554   -1.6292707  0.072833199   -2.7943554    1.1650847   563356 
 3171000    1.0046209   -2.7939612   -2.7939612   -1.6283093  0.069179531   -2.7939612    1.1656519   563356 
 3172000    1.0028873   -2.7929857   -2.7929857   -1.6293453  0.066741932   -2.7929857    1.1636404   563356 
 3173000    1.0033964   -2.7940845   -2.7940845   -1.6298534  0.067799306   -2.7940845    1.1642311   563356 
 3174000     1.004235   -2.7958167   -2.7958167   -1.6306126  0.057618088   -2.7958167    1.1652041   563356 
 3175000    1.0047205   -2.7947837   -2.7947837   -1.6290163  0.074079491   -2.7947837    1.1657674   563356 
 3176000    1.0028319   -2.7940055   -2.7940055   -1.6304293  0.066362311   -2.7940055    1.1635762   563356 
 3177000    1.0046025   -2.7965509   -2.7965509   -1.6309204  0.053545111   -2.7965509    1.1656305   563356 
 3178000    1.0051345   -2.7964804   -2.7964804   -1.6302326  0.068083502   -2.7964804    1.1662479   563356 
 3179000    1.0048119   -2.7960283   -2.7960283   -1.6301548  0.065561733   -2.7960283    1.1658735   563356 
 3180000    1.0043269    -2.795676    -2.795676   -1.6303653  0.071946674    -2.795676    1.1653107   563356 
 3181000    1.0044655   -2.7955147   -2.7955147   -1.6300431  0.062388898   -2.7955147    1.1654716   563356 
 3182000    1.0029061   -2.7943762   -2.7943762    -1.630714  0.078823066   -2.7943762    1.1636622   563356 
 3183000    1.0027439   -2.7933125   -2.7933125   -1.6298385   0.06949366   -2.7933125     1.163474   563356 
 3184000    1.0049999   -2.7960291   -2.7960291   -1.6299374  0.064699822   -2.7960291    1.1660917   563356 
 3185000    1.0046618    -2.795668    -2.795668   -1.6299686  0.062100955    -2.795668    1.1656994   563356 
 3186000    1.0045881    -2.795679    -2.795679   -1.6300651  0.073425507    -2.795679    1.1656138   563356 
 3187000    1.0035131   -2.7950862   -2.7950862   -1.6307197  0.072299673   -2.7950862    1.1643665   563356 
 3188000    1.0048149   -2.7968128   -2.7968128   -1.6309359  0.067009649   -2.7968128     1.165877   563356 
 3189000    1.0042324   -2.7951748   -2.7951748   -1.6299737  0.060694699   -2.7951748    1.1652012   563356 
 3190000    1.0038553   -2.7948544   -2.7948544   -1.6300908  0.066687079   -2.7948544    1.1647636   563356 
 3191000    1.0050138   -2.7966016   -2.7966016   -1.6304939  0.061254419   -2.7966016    1.1661077   563356 
 3192000    1.0049378   -2.7966672   -2.7966672   -1.6306476  0.064256135   -2.7966672    1.1660196   563356 
 3193000    1.0046276   -2.7959308   -2.7959308   -1.6302712   0.07360607   -2.7959308    1.1656597   563356 
 3194000    1.0026852   -2.7944106   -2.7944106   -1.6310047  0.062940716   -2.7944106    1.1634059   563356 
 3195000    1.0051364   -2.7967143   -2.7967143   -1.6304643  0.062670478   -2.7967143      1.16625   563356 
 3196000    1.0032231   -2.7945414   -2.7945414   -1.6305114  0.067120664   -2.7945414    1.1640301   563356 
 3197000    1.0033236   -2.7942661   -2.7942661   -1.6301195  0.073482258   -2.7942661    1.1641466   563356 
 3198000    1.0035663   -2.7959087   -2.7959087   -1.6314804  0.056658349   -2.7959087    1.1644283   563356 
 3199000    1.0033115   -2.7956435   -2.7956435   -1.6315109  0.063112372   -2.7956435    1.1641326   563356 
 3200000    1.0030438   -2.7953281   -2.7953281   -1.6315062  0.067444561   -2.7953281     1.163822   563356 
 3201000    1.0047118   -2.7964343   -2.7964343   -1.6306769  0.068577958   -2.7964343    1.1657574   563356 
 3202000     1.005257   -2.7964784   -2.7964784   -1.6300884  0.065690084   -2.7964784      1.16639   563356 
 3203000    1.0052567   -2.7965515   -2.7965515   -1.6301619  0.061263494   -2.7965515    1.1663896   563356 
 3204000    1.0046935   -2.7957382   -2.7957382   -1.6300021  0.071862666   -2.7957382    1.1657362   563356 
 3205000    1.0037047   -2.7952203   -2.7952203   -1.6306314  0.070610876   -2.7952203    1.1645889   563356 
 3206000    1.0043956   -2.7962036   -2.7962036   -1.6308132  0.066485941   -2.7962036    1.1653904   563356 
 3207000    1.0032902   -2.7955516   -2.7955516   -1.6314437  0.081109634   -2.7955516    1.1641079   563356 
 3208000    1.0045151   -2.7967054   -2.7967054   -1.6311762  0.066873625   -2.7967054    1.1655292   563356 
 3209000    1.0026229   -2.7944947   -2.7944947   -1.6311611  0.072633844   -2.7944947    1.1633336   563356 
 3210000    1.0027072   -2.7936446   -2.7936446   -1.6302133  0.072288766   -2.7936446    1.1634314   563356 
 3211000    1.0017593   -2.7942478   -2.7942478   -1.6319161  0.062480883   -2.7942478    1.1623316   563356 
 3212000    1.0024105   -2.7949281   -2.7949281    -1.631841  0.059224999   -2.7949281    1.1630871   563356 
 3213000     1.001854   -2.7942825   -2.7942825   -1.6318411  0.063552204   -2.7942825    1.1624414   563356 
 3214000    1.0033631   -2.7961594   -2.7961594    -1.631967  0.065174288   -2.7961594    1.1641924   563356 
 3215000    1.0039965   -2.7963001   -2.7963001   -1.6313727  0.075164737   -2.7963001    1.1649274   563356 
 3216000    1.0051963   -2.7967177   -2.7967177   -1.6303982   0.06635398   -2.7967177    1.1663195   563356 
 3217000    1.0036662   -2.7949981   -2.7949981   -1.6304539  0.070732777   -2.7949981    1.1645442   563356 
 3218000     1.004017   -2.7954024   -2.7954024   -1.6304513  0.068265969   -2.7954024    1.1649511   563356 
 3219000    1.0042721   -2.7956476   -2.7956476   -1.6304005  0.056437785   -2.7956476    1.1652472   563356 
 3220000    1.0044881   -2.7953511   -2.7953511   -1.6298532  0.054438684   -2.7953511    1.1654978   563356 
 3221000    1.0049909     -2.79552     -2.79552   -1.6294389  0.073683215     -2.79552    1.1660811   563356 
 3222000    1.0063155   -2.7971814   -2.7971814   -1.6295633  0.071116379   -2.7971814    1.1676181   563356 
 3223000    1.0026248   -2.7925935   -2.7925935   -1.6292577  0.077319777   -2.7925935    1.1633358   563356 
 3224000    1.0038172   -2.7940165   -2.7940165   -1.6292972  0.073761586   -2.7940165    1.1647193   563356 
 3225000    1.0042371   -2.7959484   -2.7959484   -1.6307418  0.067114165   -2.7959484    1.1652066   563356 
 3226000    1.0037032   -2.7946781   -2.7946781   -1.6300909   0.07019276   -2.7946781    1.1645871   563356 
 3227000    1.0039407   -2.7948961   -2.7948961   -1.6300334  0.066977664   -2.7948961    1.1648627   563356 
 3228000    1.0031515   -2.7944702   -2.7944702   -1.6305232  0.060256753   -2.7944702    1.1639469   563356 
 3229000     1.003298   -2.7947455   -2.7947455   -1.6306285  0.069998232   -2.7947455     1.164117   563356 
 3230000    1.0018425   -2.7934133   -2.7934133   -1.6309851  0.069866941   -2.7934133    1.1624282   563356 
 3231000    1.0026188   -2.7942024   -2.7942024   -1.6308735  0.068071149   -2.7942024    1.1633288   563356 
 3232000    1.0013144   -2.7929552   -2.7929552   -1.6311398  0.065599061   -2.7929552    1.1618154   563356 
 3233000    1.0009677    -2.791923    -2.791923   -1.6305098  0.065963391    -2.791923    1.1614131   563356 
 3234000     1.003143   -2.7955591   -2.7955591    -1.631622  0.052731278   -2.7955591    1.1639371   563356 
 3235000     1.002884   -2.7944128   -2.7944128   -1.6307762  0.064594503   -2.7944128    1.1636366   563356 
 3236000    1.0023315   -2.7943603   -2.7943603   -1.6313648  0.060429586   -2.7943603    1.1629955   563356 
 3237000    1.0028856   -2.7947104   -2.7947104   -1.6310719  0.062770944   -2.7947104    1.1636385   563356 
 3238000     1.003462   -2.7961309   -2.7961309   -1.6318236  0.075733996   -2.7961309    1.1643073   563356 
 3239000    1.0031347   -2.7955697   -2.7955697   -1.6316422  0.065468846   -2.7955697    1.1639275   563356 
 3240000    1.0035746   -2.7959344   -2.7959344   -1.6314965  0.066024418   -2.7959344    1.1644379   563356 
 3241000    1.0046592   -2.7972018   -2.7972018   -1.6315055   0.05928797   -2.7972018    1.1656964   563356 
 3242000    1.0030212   -2.7950982   -2.7950982   -1.6313024  0.077570828   -2.7950982    1.1637958   563356 
 3243000    1.0049661   -2.7963395   -2.7963395   -1.6302872   0.07050374   -2.7963395    1.1660524   563356 
 3244000     1.004791   -2.7960528   -2.7960528   -1.6302036   0.07164794   -2.7960528    1.1658493   563356 
 3245000    1.0033231   -2.7946692   -2.7946692   -1.6305232  0.067761009   -2.7946692     1.164146   563356 
 3246000    1.0046774    -2.796099    -2.796099   -1.6303816  0.063400295    -2.796099    1.1657174   563356 
 3247000    1.0042011   -2.7956579   -2.7956579   -1.6304931   0.07214036   -2.7956579    1.1651648   563356 
 3248000    1.0053978   -2.7969325   -2.7969325   -1.6303793  0.072442743   -2.7969325    1.1665533   563356 
 3249000    1.0044763   -2.7953932   -2.7953932   -1.6299091   0.07167275   -2.7953932    1.1654841   563356 
 3250000    1.0037391   -2.7937142   -2.7937142   -1.6290855  0.073984483   -2.7937142    1.1646287   563356 
 3251000    1.0040183   -2.7943812   -2.7943812   -1.6294285  0.073886538   -2.7943812    1.1649527   563356 
 3252000    1.0043567    -2.795284    -2.795284   -1.6299387  0.080193709    -2.795284    1.1653453   563356 
 3253000    1.0036156   -2.7959298   -2.7959298   -1.6314444  0.066788587   -2.7959298    1.1644855   563356 
 3254000    1.0031963   -2.7949668   -2.7949668   -1.6309679  0.071510109   -2.7949668    1.1639989   563356 
 3255000    1.0023022   -2.7945217   -2.7945217   -1.6315603   0.05930497   -2.7945217    1.1629615   563356 
 3256000    1.0041818   -2.7952266   -2.7952266   -1.6300842  0.060110043   -2.7952266    1.1651424   563356 
 3257000    1.0043007    -2.794922    -2.794922   -1.6296417  0.062067746    -2.794922    1.1652803   563356 
 3258000    1.0052539   -2.7952572   -2.7952572   -1.6288708  0.068922524   -2.7952572    1.1663864   563356 
 3259000    1.0030007   -2.7940781   -2.7940781   -1.6303061  0.067870909   -2.7940781     1.163772   563356 
 3260000    1.0045993   -2.7943036   -2.7943036   -1.6286769  0.060130248   -2.7943036    1.1656268   563356 
 3261000    1.0059639   -2.7961018   -2.7961018   -1.6288916  0.074772958   -2.7961018    1.1672102   563356 
 3262000    1.0050711   -2.7953171   -2.7953171   -1.6291428  0.071941338   -2.7953171    1.1661743   563356 
 3263000    1.0050036   -2.7947775   -2.7947775   -1.6286816   0.06634725   -2.7947775    1.1660959   563356 
 3264000      1.00395   -2.7933446   -2.7933446   -1.6284712  0.073747306   -2.7933446    1.1648735   563356 
 3265000    1.0037577   -2.7934369   -2.7934369   -1.6287866  0.062939884   -2.7934369    1.1646503   563356 
 3266000    1.0061588    -2.794632    -2.794632   -1.6271957  0.064391425    -2.794632    1.1674363   563356 
 3267000    1.0044578   -2.7939019   -2.7939019   -1.6284393  0.072060744   -2.7939019    1.1654626   563356 
 3268000    1.0039571   -2.7925885   -2.7925885   -1.6277069  0.064246625   -2.7925885    1.1648817   563356 
 3269000    1.0034945   -2.7922437   -2.7922437   -1.6278989  0.064500813   -2.7922437    1.1643449   563356 
 3270000    1.0028367   -2.7918968   -2.7918968   -1.6283151  0.071502957   -2.7918968    1.1635817   563356 
 3271000    1.0023525   -2.7910522   -2.7910522   -1.6280324  0.068338327   -2.7910522    1.1630199   563356 
 3272000    1.0040178   -2.7927128   -2.7927128   -1.6277606  0.075593857   -2.7927128    1.1649521   563356 
 3273000    1.0051902   -2.7938743   -2.7938743   -1.6275618   0.06664556   -2.7938743    1.1663125   563356 
 3274000    1.0042483   -2.7925177   -2.7925177   -1.6272981  0.079318743   -2.7925177    1.1652195   563356 
 3275000    1.0074931    -2.795394    -2.795394   -1.6264095  0.067135237    -2.795394    1.1689845   563356 
 3276000    1.0061165   -2.7933949   -2.7933949   -1.6260077  0.066639831   -2.7933949    1.1673873   563356 
 3277000    1.0059906   -2.7931642   -2.7931642    -1.625923  0.066867251   -2.7931642    1.1672412   563356 
 3278000    1.0047844   -2.7924897   -2.7924897   -1.6266481  0.074588106   -2.7924897    1.1658416   563356 
 3279000    1.0048101   -2.7910902   -2.7910902   -1.6252188  0.074229486   -2.7910902    1.1658714   563356 
 3280000    1.0042552   -2.7912333   -2.7912333   -1.6260057  0.068444015   -2.7912333    1.1652276   563356 
 3281000    1.0062522   -2.7930013   -2.7930013   -1.6254567  0.062794626   -2.7930013    1.1675446   563356 
 3282000    1.0061945   -2.7929292   -2.7929292   -1.6254515  0.061719708   -2.7929292    1.1674777   563356 
 3283000    1.0054634   -2.7911742   -2.7911742   -1.6245448  0.057419346   -2.7911742    1.1666294   563356 
 3284000    1.0051051   -2.7914285   -2.7914285   -1.6252148   0.06902022   -2.7914285    1.1662137   563356 
 3285000     1.005257   -2.7916778   -2.7916778   -1.6252879  0.075973177   -2.7916778    1.1663899   563356 
 3286000    1.0058167   -2.7926079   -2.7926079   -1.6255686  0.059335454   -2.7926079    1.1670393   563356 
 3287000     1.005052   -2.7918129   -2.7918129   -1.6256608  0.074882465   -2.7918129    1.1661521   563356 
 3288000    1.0058382   -2.7919761   -2.7919761   -1.6249118  0.058060561   -2.7919761    1.1670643   563356 
 3289000    1.0050394      -2.7915      -2.7915   -1.6253625  0.069118111      -2.7915    1.1661375   563356 
 3290000    1.0056243   -2.7931145   -2.7931145   -1.6262983  0.060681052   -2.7931145    1.1668162   563356 
 3291000    1.0056466   -2.7935676   -2.7935676   -1.6267256   0.07482245   -2.7935676     1.166842   563356 
 3292000    1.0048565   -2.7923989   -2.7923989   -1.6264737  0.063414517   -2.7923989    1.1659252   563356 
 3293000    1.0053302    -2.793257    -2.793257   -1.6267821  0.065804924    -2.793257    1.1664749   563356 
 3294000    1.0055197   -2.7936269   -2.7936269   -1.6269321  0.066014046   -2.7936269    1.1666948   563356 
 3295000    1.0051977   -2.7935557   -2.7935557   -1.6272345  0.073055547   -2.7935557    1.1663211   563356 
 3296000    1.0057984   -2.7941547   -2.7941547   -1.6271366  0.073976368   -2.7941547    1.1670181   563356 
 3297000    1.0025228   -2.7908391   -2.7908391   -1.6276216  0.077778423   -2.7908391    1.1632175   563356 
 3298000    1.0048656   -2.7941172   -2.7941172   -1.6281815  0.064900693   -2.7941172    1.1659358   563356 
 3299000    1.0051329   -2.7943196   -2.7943196   -1.6280737   0.07262722   -2.7943196    1.1662459   563356 
 3300000    1.0062081   -2.7953682   -2.7953682   -1.6278747  0.059985192   -2.7953682    1.1674935   563356 
 3301000    1.0049588   -2.7942642   -2.7942642   -1.6282203   0.07246758   -2.7942642    1.1660439   563356 
 3302000     1.003721   -2.7927547   -2.7927547   -1.6281469  0.072432765   -2.7927547    1.1646078   563356 
 3303000    1.0042764   -2.7943648   -2.7943648   -1.6291127  0.049019764   -2.7943648    1.1652521   563356 
 3304000    1.0039655   -2.7937164   -2.7937164   -1.6288251  0.064244417   -2.7937164    1.1648914   563356 
 3305000    1.0044398   -2.7936785   -2.7936785   -1.6282367  0.075067376   -2.7936785    1.1654418   563356 
 3306000    1.0052867   -2.7951096   -2.7951096   -1.6286852  0.067737379   -2.7951096    1.1664244   563356 
 3307000    1.0050577   -2.7953981   -2.7953981   -1.6292394  0.076726164   -2.7953981    1.1661587   563356 
 3308000    1.0037787   -2.7948412   -2.7948412   -1.6301665  0.060982064   -2.7948412    1.1646747   563356 
 3309000     1.002406   -2.7939311   -2.7939311   -1.6308492  0.076080108   -2.7939311    1.1630819   563356 
 3310000     1.003609    -2.794843    -2.794843   -1.6303652  0.067215821    -2.794843    1.1644778   563356 
 3311000    1.0052343   -2.7963821   -2.7963821   -1.6300186  0.058840346   -2.7963821    1.1663636   563356 
 3312000    1.0048102   -2.7952069   -2.7952069   -1.6293354  0.064197747   -2.7952069    1.1658715   563356 
 3313000    1.0030165   -2.7940089   -2.7940089   -1.6302186  0.066954233   -2.7940089    1.1637903   563356 
 3314000    1.0030725   -2.7940476   -2.7940476   -1.6301923  0.064395832   -2.7940476    1.1638553   563356 
 3315000    1.0045434     -2.79564     -2.79564    -1.630078  0.065875224     -2.79564     1.165562   563356 
 3316000     1.003587    -2.794407    -2.794407   -1.6299547  0.065477936    -2.794407    1.1644523   563356 
 3317000    1.0052589   -2.7955467   -2.7955467   -1.6291546  0.053541765   -2.7955467    1.1663922   563356 
 3318000    1.0038104   -2.7944599   -2.7944599   -1.6297485  0.072859793   -2.7944599    1.1647114   563356 
 3319000    1.0052583    -2.795699    -2.795699   -1.6293076  0.076028405    -2.795699    1.1663914   563356 
 3320000    1.0056046   -2.7955378   -2.7955378   -1.6287445  0.065127424   -2.7955378    1.1667933   563356 
 3321000    1.0053446   -2.7958825   -2.7958825    -1.629391  0.063081754   -2.7958825    1.1664915   563356 
 3322000    1.0047692    -2.794837    -2.794837   -1.6290131  0.062810844    -2.794837     1.165824   563356 
 3323000    1.0056781   -2.7950082   -2.7950082   -1.6281296  0.077783825   -2.7950082    1.1668786   563356 
 3324000    1.0056468   -2.7952308   -2.7952308   -1.6283886  0.072673829   -2.7952308    1.1668422   563356 
 3325000    1.0063708   -2.7960941   -2.7960941   -1.6284119  0.072331768   -2.7960941    1.1676822   563356 
 3326000    1.0062559   -2.7953439   -2.7953439   -1.6277949  0.067710933   -2.7953439     1.167549   563356 
 3327000    1.0051761   -2.7938693   -2.7938693   -1.6275732  0.063342859   -2.7938693    1.1662961   563356 
 3328000    1.0060178   -2.7959536   -2.7959536   -1.6286809  0.071843236   -2.7959536    1.1672727   563356 
 3329000    1.0045809   -2.7938389   -2.7938389   -1.6282335  0.069174267   -2.7938389    1.1656054   563356 
 3330000    1.0062962   -2.7955661   -2.7955661   -1.6279704  0.072150547   -2.7955661    1.1675957   563356 
 3331000    1.0047217   -2.7946258   -2.7946258    -1.628857  0.068335405   -2.7946258    1.1657688   563356 
 3332000    1.0040248    -2.793137    -2.793137   -1.6281768  0.067513417    -2.793137    1.1649602   563356 
 3333000    1.0045658   -2.7944605   -2.7944605   -1.6288725  0.059950715   -2.7944605    1.1655879   563356 
 3334000     1.003521    -2.792903    -2.792903   -1.6285274  0.069313495    -2.792903    1.1643757   563356 
 3335000    1.0041093   -2.7930147   -2.7930147   -1.6279564  0.061437858   -2.7930147    1.1650583   563356 
 3336000    1.0058237   -2.7948869   -2.7948869   -1.6278395  0.065360688   -2.7948869    1.1670475   563356 
 3337000    1.0036675   -2.7923701   -2.7923701   -1.6278244  0.061884209   -2.7923701    1.1645457   563356 
 3338000    1.0034494   -2.7920054   -2.7920054   -1.6277128  0.076091581   -2.7920054    1.1642926   563356 
 3339000    1.0049395   -2.7939185   -2.7939185    -1.627897   0.07052179   -2.7939185    1.1660215   563356 
 3340000    1.0054587   -2.7934469   -2.7934469   -1.6268229  0.071074741   -2.7934469     1.166624   563356 
 3341000    1.0044395    -2.792202    -2.792202   -1.6267606  0.077071829    -2.792202    1.1654414   563356 
 3342000    1.0038153   -2.7921216   -2.7921216   -1.6274044  0.061264084   -2.7921216    1.1647172   563356 
 3343000    1.0050444   -2.7937716   -2.7937716   -1.6276284  0.069884216   -2.7937716    1.1661433   563356 
 3344000    1.0055102   -2.7933075   -2.7933075   -1.6266237  0.072362552   -2.7933075    1.1666837   563356 
 3345000    1.0038072   -2.7911684   -2.7911684   -1.6264606  0.077453299   -2.7911684    1.1647078   563356 
 3346000    1.0050045   -2.7923508   -2.7923508   -1.6262539  0.067953283   -2.7923508    1.1660969   563356 
 3347000    1.0049152   -2.7930284   -2.7930284   -1.6270351  0.058992497   -2.7930284    1.1659934   563356 
 3348000     1.005523   -2.7938159   -2.7938159   -1.6271174  0.071270066   -2.7938159    1.1666985   563356 
 3349000    1.0029197    -2.790791    -2.790791   -1.6271129  0.063031887    -2.790791     1.163678   563356 
 3350000    1.0040611   -2.7916307   -2.7916307   -1.6266283  0.063823846   -2.7916307    1.1650024   563356 
 3351000    1.0051843   -2.7940378   -2.7940378   -1.6277322  0.060456046   -2.7940378    1.1663056   563356 
 3352000    1.0056287   -2.7939102   -2.7939102    -1.627089  0.056720019   -2.7939102    1.1668212   563356 
 3353000    1.0054364   -2.7942121   -2.7942121   -1.6276141  0.065475311   -2.7942121     1.166598   563356 
 3354000    1.0042444   -2.7923108   -2.7923108   -1.6270957  0.070664884   -2.7923108    1.1652151   563356 
 3355000    1.0041754   -2.7915608   -2.7915608   -1.6264258  0.081370204   -2.7915608    1.1651349   563356 
 3356000    1.0042295   -2.7915055   -2.7915055   -1.6263078  0.069238839   -2.7915055    1.1651978   563356 
 3357000    1.0038467   -2.7918031   -2.7918031   -1.6270495   0.06330728   -2.7918031    1.1647536   563356 
 3358000    1.0044961   -2.7938052   -2.7938052   -1.6282981  0.073910212   -2.7938052     1.165507   563356 
 3359000    1.0047053   -2.7939634   -2.7939634   -1.6282136  0.070442014   -2.7939634    1.1657498   563356 
 3360000    1.0038049   -2.7932185   -2.7932185   -1.6285134  0.070810009   -2.7932185    1.1647051   563356 
 3361000    1.0052318   -2.7947125   -2.7947125   -1.6283518  0.073538775   -2.7947125    1.1663607   563356 
 3362000    1.0030924   -2.7924234   -2.7924234    -1.628545  0.082069646   -2.7924234    1.1638784   563356 
 3363000    1.0046856   -2.7941625   -2.7941625   -1.6284356  0.059678749   -2.7941625     1.165727   563356 
 3364000    1.0042978    -2.792952    -2.792952    -1.627675  0.068503014    -2.792952     1.165277   563356 
 3365000    1.0035598   -2.7927228   -2.7927228   -1.6283022  0.062782044   -2.7927228    1.1644207   563356 
 3366000    1.0063844   -2.7948869   -2.7948869   -1.6271889  0.074604935   -2.7948869     1.167698   563356 
 3367000    1.0061702   -2.7949134   -2.7949134   -1.6274639   0.06939891   -2.7949134    1.1674496   563356 
 3368000    1.0054666    -2.794953    -2.794953   -1.6283199  0.066809979    -2.794953    1.1666331   563356 
 3369000    1.0061234   -2.7958661   -2.7958661   -1.6284709  0.080471644   -2.7958661    1.1673952   563356 
 3370000    1.0068798   -2.7964762   -2.7964762   -1.6282033   0.05808888   -2.7964762    1.1682729   563356 
 3371000    1.0054085   -2.7952165   -2.7952165   -1.6286508  0.065419801   -2.7952165    1.1665657   563356 
 3372000    1.0056046   -2.7954478   -2.7954478   -1.6286546  0.072486334   -2.7954478    1.1667933   563356 
 3373000    1.0067392   -2.7968503   -2.7968503   -1.6287406  0.067496834   -2.7968503    1.1681097   563356 
 3374000    1.0050068   -2.7945707   -2.7945707   -1.6284712  0.077384532   -2.7945707    1.1660996   563356 
 3375000    1.0055673   -2.7950609   -2.7950609   -1.6283109    0.0626211   -2.7950609      1.16675   563356 
 3376000    1.0057624   -2.7962864   -2.7962864   -1.6293101  0.064736224   -2.7962864    1.1669763   563356 
 3377000    1.0043313   -2.7935554   -2.7935554   -1.6282395  0.053777882   -2.7935554    1.1653158   563356 
 3378000    1.0051456   -2.7949407   -2.7949407     -1.62868  0.054387443   -2.7949407    1.1662607   563356 
 3379000    1.0032173   -2.7929555   -2.7929555   -1.6289322  0.079902074   -2.7929555    1.1640233   563356 
 3380000    1.0044217   -2.7940197   -2.7940197    -1.628599  0.062716099   -2.7940197    1.1654207   563356 
 3381000    1.0026912    -2.791785    -2.791785   -1.6283721  0.061204327    -2.791785    1.1634129   563356 
 3382000    1.0021982   -2.7920129   -2.7920129   -1.6291721   0.06517938   -2.7920129    1.1628408   563356 
 3383000    1.0038494   -2.7935132   -2.7935132   -1.6287564  0.064067468   -2.7935132    1.1647567   563356 
 3384000    1.0043639   -2.7938354   -2.7938354   -1.6284816  0.078796667   -2.7938354    1.1653537   563356 
 3385000    1.0050599   -2.7942204   -2.7942204   -1.6280592  0.068846332   -2.7942204    1.1661612   563356 
 3386000    1.0053467   -2.7954382   -2.7954382   -1.6289442  0.065841072   -2.7954382     1.166494   563356 
 3387000    1.0035062   -2.7930832   -2.7930832   -1.6287247  0.064935312   -2.7930832    1.1643585   563356 
 3388000    1.0022921   -2.7907397   -2.7907397   -1.6277899  0.061886061   -2.7907397    1.1629498   563356 
 3389000    1.0028419   -2.7913257   -2.7913257   -1.6277379  0.063789487   -2.7913257    1.1635878   563356 
 3390000     1.004374   -2.7926676   -2.7926676   -1.6273023  0.078137419   -2.7926676    1.1653653   563356 
 3391000    1.0034286   -2.7916707   -2.7916707   -1.6274022  0.059021704   -2.7916707    1.1642685   563356 
 3392000    1.0036401   -2.7918517   -2.7918517   -1.6273378  0.062939925   -2.7918517    1.1645139   563356 
 3393000    1.0046089   -2.7922943   -2.7922943   -1.6266564  0.071590337   -2.7922943     1.165638   563356 
 3394000     1.003669    -2.792413    -2.792413   -1.6278656  0.062359516    -2.792413    1.1645474   563356 
 3395000    1.0029588   -2.7918236   -2.7918236   -1.6281003  0.059221677   -2.7918236    1.1637233   563356 
 3396000    1.0036825   -2.7937492   -2.7937492   -1.6291861  0.064315801   -2.7937492    1.1645631   563356 
 3397000    1.0039452   -2.7940235   -2.7940235   -1.6291557  0.073091391   -2.7940235    1.1648678   563356 
 3398000    1.0038182   -2.7929381   -2.7929381   -1.6282175   0.06975067   -2.7929381    1.1647205   563356 
 3399000    1.0049327   -2.7942083   -2.7942083   -1.6281947  0.056007504   -2.7942083    1.1660136   563356 
 3400000    1.0050916   -2.7944541   -2.7944541   -1.6282561  0.060706688   -2.7944541     1.166198   563356 
 3401000    1.0049936   -2.7945063   -2.7945063    -1.628422   0.06090168   -2.7945063    1.1660843   563356 
 3402000    1.0044063   -2.7933907   -2.7933907   -1.6279879  0.067679957   -2.7933907    1.1654028   563356 
 3403000    1.0056846   -2.7940132   -2.7940132   -1.6271271  0.069357569   -2.7940132    1.1668861   563356 
 3404000     1.004449   -2.7929714   -2.7929714    -1.627519  0.066231562   -2.7929714    1.1654525   563356 
 3405000    1.0052031   -2.7934942   -2.7934942   -1.6271668  0.070779964   -2.7934942    1.1663274   563356 
 3406000    1.0055583   -2.7934557   -2.7934557   -1.6267161  0.078718489   -2.7934557    1.1667396   563356 
 3407000    1.0057328   -2.7942895   -2.7942895   -1.6273474    0.0619015   -2.7942895     1.166942   563356 
 3408000    1.0057739   -2.7946686   -2.7946686   -1.6276789  0.056066957   -2.7946686    1.1669897   563356 
 3409000    1.0056707   -2.7944605   -2.7944605   -1.6275904  0.070308641   -2.7944605      1.16687   563356 
 3410000    1.0054148   -2.7945566   -2.7945566   -1.6279836  0.072536107   -2.7945566     1.166573   563356 
 3411000    1.0057527   -2.7940845   -2.7940845   -1.6271193  0.072655035   -2.7940845    1.1669651   563356 
 3412000    1.0055018   -2.7938618   -2.7938618   -1.6271879  0.064315859   -2.7938618     1.166674   563356 
 3413000    1.0064932   -2.7940369   -2.7940369   -1.6262127  0.073845273   -2.7940369    1.1678242   563356 
 3414000     1.005267   -2.7934965   -2.7934965   -1.6270949   0.06365007   -2.7934965    1.1664015   563356 
 3415000    1.0068972   -2.7934929   -2.7934929   -1.6251999  0.075710682   -2.7934929     1.168293   563356 
 3416000    1.0067818   -2.7942952   -2.7942952    -1.626136  0.063606715   -2.7942952    1.1681592   563356 
 3417000    1.0066635   -2.7941839   -2.7941839    -1.626162  0.067398585   -2.7941839    1.1680219   563356 
 3418000    1.0059063   -2.7933327   -2.7933327   -1.6261894   0.07464764   -2.7933327    1.1671433   563356 
 3419000      1.00619   -2.7947259   -2.7947259   -1.6272534  0.069695505   -2.7947259    1.1674725   563356 
 3420000    1.0050137   -2.7940944   -2.7940944   -1.6279868  0.064324977   -2.7940944    1.1661076   563356 
 3421000    1.0050895   -2.7948717   -2.7948717    -1.628676  0.066394111   -2.7948717    1.1661956   563356 
 3422000    1.0042456     -2.79392     -2.79392   -1.6287036  0.058659637     -2.79392    1.1652165   563356 
 3423000     1.003002   -2.7922914   -2.7922914    -1.628518  0.064949949   -2.7922914    1.1637734   563356 
 3424000    1.0046459   -2.7937724   -2.7937724   -1.6280915  0.061433545   -2.7937724    1.1656809   563356 
 3425000    1.0031369   -2.7918184   -2.7918184   -1.6278883  0.058949218   -2.7918184      1.16393   563356 
 3426000    1.0037803    -2.792119    -2.792119   -1.6274424  0.064075457    -2.792119    1.1646765   563356 
 3427000     1.003465   -2.7927362   -2.7927362   -1.6284255  0.068737435   -2.7927362    1.1643107   563356 
 3428000    1.0029287   -2.7920136   -2.7920136   -1.6283252  0.068676828   -2.7920136    1.1636884   563356 
 3429000    1.0033432   -2.7927166   -2.7927166   -1.6285472  0.067929095   -2.7927166    1.1641694   563356 
 3430000    1.0032411   -2.7922678   -2.7922678   -1.6282169  0.058724536   -2.7922678    1.1640509   563356 
 3431000    1.0043075   -2.7938633   -2.7938633    -1.628575   0.06600129   -2.7938633    1.1652883   563356 
 3432000    1.0046922   -2.7929077   -2.7929077   -1.6271731  0.061726349   -2.7929077    1.1657346   563356 
 3433000    1.0059766   -2.7936182   -2.7936182   -1.6263933  0.063400398   -2.7936182    1.1672249   563356 
 3434000    1.0034961   -2.7914295   -2.7914295   -1.6270827  0.076282112   -2.7914295    1.1643467   563356 
 3435000    1.0042185    -2.792387    -2.792387    -1.627202   0.06928669    -2.792387     1.165185   563356 
 3436000    1.0051586   -2.7927614   -2.7927614   -1.6264856   0.06179067   -2.7927614    1.1662758   563356 
 3437000    1.0053892    -2.793058    -2.793058   -1.6265147  0.064783644    -2.793058    1.1665434   563356 
 3438000    1.0061026   -2.7945095   -2.7945095   -1.6271384  0.065766167   -2.7945095    1.1673711   563356 
 3439000    1.0046273   -2.7933163   -2.7933163    -1.627657  0.067043383   -2.7933163    1.1656593   563356 
 3440000    1.0043004   -2.7935193   -2.7935193   -1.6282393  0.072248207   -2.7935193    1.1652801   563356 
 3441000    1.0056004   -2.7948815   -2.7948815    -1.628093  0.067503264   -2.7948815    1.1667884   563356 
 3442000    1.0049551   -2.7948586   -2.7948586   -1.6288189  0.070878073   -2.7948586    1.1660396   563356 
 3443000    1.0046341   -2.7940484   -2.7940484   -1.6283812   0.07024539   -2.7940484    1.1656672   563356 
 3444000    1.0047054   -2.7927995   -2.7927995   -1.6270495  0.077166275   -2.7927995      1.16575   563356 
 3445000    1.0049992    -2.791791    -2.791791   -1.6257002  0.077735329    -2.791791    1.1660908   563356 
 3446000    1.0052246   -2.7924051   -2.7924051   -1.6260528  0.063499971   -2.7924051    1.1663524   563356 
 3447000    1.0043338   -2.7919826   -2.7919826   -1.6266638  0.069410828   -2.7919826    1.1653188   563356 
 3448000    1.0048498   -2.7932826   -2.7932826   -1.6273651  0.056448076   -2.7932826    1.1659175   563356 
 3449000    1.0046709   -2.7929955   -2.7929955   -1.6272856  0.068228916   -2.7929955    1.1657099   563356 
 3450000    1.0053201   -2.7934573   -2.7934573   -1.6269941  0.062286865   -2.7934573    1.1664632   563356 
 3451000    1.0051503   -2.7928177   -2.7928177   -1.6265516  0.061064103   -2.7928177    1.1662661   563356 
 3452000    1.0036639   -2.7912119   -2.7912119   -1.6266704  0.057116508   -2.7912119    1.1645415   563356 
 3453000    1.0034495   -2.7913601   -2.7913601   -1.6270674  0.073103332   -2.7913601    1.1642927   563356 
 3454000    1.0051383   -2.7924061   -2.7924061   -1.6261539  0.062672811   -2.7924061    1.1662522   563356 
 3455000    1.0042644   -2.7907452   -2.7907452    -1.625507  0.074405931   -2.7907452    1.1652382   563356 
 3456000    1.0037379   -2.7908996   -2.7908996   -1.6262722  0.062474071   -2.7908996    1.1646274   563356 
 3457000     1.004205   -2.7910398   -2.7910398   -1.6258705  0.061059122   -2.7910398    1.1651693   563356 
 3458000     1.003232   -2.7908313   -2.7908313   -1.6267909  0.064186957   -2.7908313    1.1640403   563356 
 3459000    1.0058976   -2.7939113   -2.7939113   -1.6267781  0.066765174   -2.7939113    1.1671333   563356 
 3460000    1.0044361   -2.7925626   -2.7925626   -1.6271251  0.064938002   -2.7925626    1.1654375   563356 
 3461000    1.0048256   -2.7922992   -2.7922992   -1.6264098  0.059579384   -2.7922992    1.1658894   563356 
 3462000    1.0065985   -2.7940478   -2.7940478   -1.6261014  0.071192375   -2.7940478    1.1679464   563356 
 3463000    1.0056271   -2.7932397   -2.7932397   -1.6264203  0.064521927   -2.7932397    1.1668194   563356 
 3464000    1.0059786   -2.7923043   -2.7923043   -1.6250771  0.071284322   -2.7923043    1.1672272   563356 
 3465000    1.0041786   -2.7911854   -2.7911854   -1.6260467  0.077684624   -2.7911854    1.1651386   563356 
 3466000    1.0043903   -2.7926589   -2.7926589   -1.6272746  0.071133907   -2.7926589    1.1653843   563356 
 3467000    1.0038672   -2.7920045   -2.7920045   -1.6272271  0.072980608   -2.7920045    1.1647774   563356 
 3468000    1.0046936   -2.7922524   -2.7922524   -1.6265163  0.065778539   -2.7922524    1.1657362   563356 
 3469000    1.0045287   -2.7921402   -2.7921402   -1.6265953  0.072317101   -2.7921402    1.1655449   563356 
 3470000    1.0054279   -2.7926694   -2.7926694   -1.6260811  0.068032109   -2.7926694    1.1665883   563356 
 3471000    1.0064696   -2.7932742   -2.7932742   -1.6254774  0.058320383   -2.7932742    1.1677969   563356 
 3472000    1.0052546   -2.7929234   -2.7929234   -1.6265362  0.073204268   -2.7929234    1.1663871   563356 
 3473000    1.0048281   -2.7911142   -2.7911142    -1.625222  0.067926481   -2.7911142    1.1658923   563356 
 3474000    1.0074413   -2.7949136   -2.7949136   -1.6259892  0.061479564   -2.7949136    1.1689244   563356 
 3475000    1.0044703   -2.7927065   -2.7927065   -1.6272293  0.076197148   -2.7927065    1.1654772   563356 
 3476000    1.0031247   -2.7920155   -2.7920155   -1.6280997  0.071653437   -2.7920155    1.1639158   563356 
 3477000    1.0048653   -2.7936622   -2.7936622   -1.6277268   0.06357404   -2.7936622    1.1659354   563356 
 3478000    1.0049545   -2.7935462   -2.7935462   -1.6275073   0.05723795   -2.7935462    1.1660389   563356 
 3479000    1.0043901    -2.792683    -2.792683   -1.6272989  0.063244419    -2.792683     1.165384   563356 
 3480000    1.0042621   -2.7920955   -2.7920955   -1.6268599  0.063935181   -2.7920955    1.1652356   563356 
 3481000    1.0026938   -2.7903145   -2.7903145   -1.6268986  0.073352443   -2.7903145    1.1634159   563356 
 3482000     1.003811   -2.7915342   -2.7915342   -1.6268221  0.066805208   -2.7915342    1.1647122   563356 
 3483000     1.004478   -2.7928814   -2.7928814   -1.6273953  0.061179894   -2.7928814    1.1654861   563356 
 3484000    1.0053005   -2.7937282   -2.7937282   -1.6272877  0.066504677   -2.7937282    1.1664405   563356 
 3485000      1.00469    -2.792063    -2.792063   -1.6263309  0.065207093    -2.792063    1.1657321   563356 
 3486000     1.006873   -2.7944976   -2.7944976   -1.6262327  0.062973702   -2.7944976     1.168265   563356 
 3487000    1.0050199   -2.7931531   -2.7931531   -1.6270382  0.076099348   -2.7931531    1.1661148   563356 
 3488000    1.0041943   -2.7926694   -2.7926694   -1.6275124  0.066355425   -2.7926694    1.1651569   563356 
 3489000     1.003256   -2.7925809   -2.7925809   -1.6285127  0.066859741   -2.7925809    1.1640681   563356 
 3490000    1.0041369   -2.7931659   -2.7931659   -1.6280756  0.072680111   -2.7931659    1.1650903   563356 
 3491000    1.0036072   -2.7924905   -2.7924905   -1.6280149  0.055813664   -2.7924905    1.1644757   563356 
 3492000    1.0027428   -2.7917886   -2.7917886   -1.6283158  0.070561614   -2.7917886    1.1634728   563356 
 3493000    1.0038522   -2.7934238   -2.7934238   -1.6286638  0.056118944   -2.7934238      1.16476   563356 
 3494000     1.004263   -2.7931724   -2.7931724   -1.6279359  0.065026961   -2.7931724    1.1652366   563356 
 3495000    1.0041354   -2.7940452   -2.7940452   -1.6289566  0.052335061   -2.7940452    1.1650886   563356 
 3496000     1.003668   -2.7932658   -2.7932658   -1.6287195  0.066434605   -2.7932658    1.1645463   563356 
 3497000    1.0041348   -2.7951214   -2.7951214   -1.6300335   0.06194807   -2.7951214    1.1650879   563356 
 3498000    1.0042604   -2.7945138   -2.7945138   -1.6292802  0.059292783   -2.7945138    1.1652336   563356 
 3499000    1.0037048   -2.7936665   -2.7936665   -1.6290776   0.06990604   -2.7936665    1.1645889   563356 
 3500000       1.0054   -2.7948104   -2.7948104   -1.6282545  0.057398375   -2.7948104    1.1665559   563356 
 3501000    1.0056657   -2.7951822   -2.7951822   -1.6283181  0.072726878   -2.7951822    1.1668641   563356 
 3502000    1.0050639   -2.7948587   -2.7948587   -1.6286928  0.062941898   -2.7948587    1.1661659   563356 
 3503000    1.0066201   -2.7972653   -2.7972653   -1.6292938  0.071283027   -2.7972653    1.1679715   563356 
 3504000    1.0074953    -2.798243    -2.798243    -1.629256  0.059652391    -2.798243     1.168987   563356 
 3505000    1.0064948    -2.797355    -2.797355   -1.6295289  0.063382394    -2.797355    1.1678261   563356 
 3506000     1.006791   -2.7971356   -2.7971356   -1.6289659  0.069136909   -2.7971356    1.1681698   563356 
 3507000    1.0066921   -2.7968199   -2.7968199   -1.6287648  0.077400157   -2.7968199    1.1680551   563356 
 3508000    1.0062345   -2.7959887   -2.7959887   -1.6284646  0.073404571   -2.7959887    1.1675241   563356 
 3509000    1.0063723   -2.7960737   -2.7960737   -1.6283897  0.062072892   -2.7960737     1.167684   563356 
 3510000    1.0067882   -2.7967459   -2.7967459   -1.6285793  0.075136065   -2.7967459    1.1681665   563356 
 3511000    1.0054885   -2.7960605   -2.7960605   -1.6294019  0.066932944   -2.7960605    1.1666585   563356 
 3512000    1.0053767   -2.7956097   -2.7956097   -1.6290808  0.073095939   -2.7956097    1.1665288   563356 
 3513000    1.0065997   -2.7969071   -2.7969071   -1.6289592  0.072482005   -2.7969071    1.1679478   563356 
 3514000    1.0054219   -2.7952091   -2.7952091   -1.6286278  0.077499684   -2.7952091    1.1665812   563356 
 3515000    1.0057308   -2.7958445   -2.7958445   -1.6289048  0.073772629   -2.7958445    1.1669396   563356 
 3516000    1.0045437    -2.794936    -2.794936   -1.6293736   0.06926002    -2.794936    1.1655623   563356 
 3517000    1.0039608   -2.7942229   -2.7942229    -1.629337  0.059775055   -2.7942229     1.164886   563356 
 3518000    1.0033904   -2.7943876   -2.7943876   -1.6301634  0.063112187   -2.7943876    1.1642242   563356 
 3519000    1.0025124   -2.7931931   -2.7931931   -1.6299878  0.066878285   -2.7931931    1.1632054   563356 
 3520000    1.0034383   -2.7933927   -2.7933927    -1.629113  0.080246093   -2.7933927    1.1642797   563356 
 3521000    1.0054487   -2.7946808   -2.7946808   -1.6280684  0.060356032   -2.7946808    1.1666124   563356 
 3522000    1.0049037   -2.7941787   -2.7941787   -1.6281986  0.071351834   -2.7941787      1.16598   563356 
 3523000    1.0065473   -2.7951436   -2.7951436   -1.6272565  0.066276993   -2.7951436    1.1678871   563356 
 3524000    1.0067963   -2.7949924   -2.7949924   -1.6268164  0.078900188   -2.7949924     1.168176   563356 
 3525000    1.0073563   -2.7953475   -2.7953475   -1.6265218  0.064047769   -2.7953475    1.1688257   563356 
 3526000     1.005099   -2.7931205   -2.7931205   -1.6269139  0.065302163   -2.7931205    1.1662066   563356 
 3527000    1.0042008   -2.7927084   -2.7927084   -1.6275439   0.07233112   -2.7927084    1.1651644   563356 
 3528000    1.0054725   -2.7930937   -2.7930937   -1.6264536   0.08367245   -2.7930937      1.16664   563356 
 3529000    1.0050208   -2.7925443   -2.7925443   -1.6264284  0.057039115   -2.7925443    1.1661159   563356 
 3530000    1.0043958   -2.7912451   -2.7912451   -1.6258543  0.067458645   -2.7912451    1.1653908   563356 
 3531000    1.0046209   -2.7917088   -2.7917088   -1.6260569  0.057701872   -2.7917088    1.1656519   563356 
 3532000    1.0059885    -2.793844    -2.793844   -1.6266053  0.055437648    -2.793844    1.1672387   563356 
 3533000    1.0044674   -2.7918655   -2.7918655   -1.6263917  0.073526051   -2.7918655    1.1654738   563356 
 3534000     1.004227   -2.7919576   -2.7919576   -1.6267629  0.065494903   -2.7919576    1.1651948   563356 
 3535000    1.0059174   -2.7932646   -2.7932646   -1.6261085  0.071270001   -2.7932646    1.1671561   563356 
 3536000    1.0071329   -2.7944122   -2.7944122   -1.6258456  0.067762575   -2.7944122    1.1685666   563356 
 3537000    1.0056372   -2.7930305   -2.7930305   -1.6261995  0.062586469   -2.7930305    1.1668311   563356 
 3538000    1.0055327   -2.7929098   -2.7929098      -1.6262  0.069274861   -2.7929098    1.1667098   563356 
 3539000    1.0052584   -2.7923478   -2.7923478   -1.6259563    0.0733848   -2.7923478    1.1663915   563356 
 3540000     1.004929   -2.7923594   -2.7923594   -1.6263501  0.081343873   -2.7923594    1.1660093   563356 
 3541000    1.0050826   -2.7916575   -2.7916575   -1.6254699  0.070365795   -2.7916575    1.1661876   563356 
 3542000    1.0042858   -2.7904037   -2.7904037   -1.6251406  0.060602763   -2.7904037    1.1652631   563356 
 3543000    1.0059517   -2.7919653   -2.7919653   -1.6247692  0.079155863   -2.7919653     1.167196   563356 
 3544000    1.0051531   -2.7911556   -2.7911556   -1.6248861  0.068679059   -2.7911556    1.1662694   563356 
 3545000    1.0076125   -2.7934051   -2.7934051   -1.6242821  0.056956506   -2.7934051    1.1691229   563356 
 3546000    1.0058649   -2.7910471   -2.7910471   -1.6239518  0.081921134   -2.7910471    1.1670953   563356 
 3547000    1.0058383    -2.791105    -2.791105   -1.6240405  0.074476313    -2.791105    1.1670644   563356 
 3548000    1.0059032   -2.7926746   -2.7926746    -1.625535   0.06564087   -2.7926746    1.1671397   563356 
 3549000    1.0064767   -2.7921572   -2.7921572    -1.624352  0.058722328   -2.7921572    1.1678051   563356 
 3550000    1.0062392   -2.7917663   -2.7917663   -1.6242368  0.071794765   -2.7917663    1.1675295   563356 
 3551000     1.005217   -2.7915974   -2.7915974   -1.6252538  0.065747478   -2.7915974    1.1663436   563356 
 3552000    1.0053434   -2.7910524   -2.7910524   -1.6245622  0.061014418   -2.7910524    1.1664902   563356 
 3553000    1.0059681   -2.7913254   -2.7913254   -1.6241103  0.064728325   -2.7913254    1.1672151   563356 
 3554000    1.0048116   -2.7905274   -2.7905274   -1.6246542   0.06652899   -2.7905274    1.1658732   563356 
 3555000    1.0036283   -2.7908029   -2.7908029   -1.6263027  0.062655006   -2.7908029    1.1645002   563356 
 3556000    1.0030228   -2.7895894   -2.7895894   -1.6257917  0.068850346   -2.7895894    1.1637976   563356 
 3557000    1.0037662    -2.789375    -2.789375   -1.6247148  0.068649463    -2.789375    1.1646602   563356 
 3558000    1.0049343   -2.7909105   -2.7909105   -1.6248949  0.070127348   -2.7909105    1.1660156   563356 
 3559000    1.0044428   -2.7919323   -2.7919323    -1.626487  0.070079595   -2.7919323    1.1654453   563356 
 3560000    1.0039405   -2.7915586   -2.7915586   -1.6266962  0.051924277   -2.7915586    1.1648624   563356 
 3561000    1.0054251   -2.7929013   -2.7929013   -1.6263164  0.063530842   -2.7929013     1.166585   563356 
 3562000    1.0049215   -2.7929312   -2.7929312   -1.6269305  0.069607997   -2.7929312    1.1660007   563356 
 3563000    1.0044654   -2.7922872   -2.7922872   -1.6268158  0.067965387   -2.7922872    1.1654715   563356 
 3564000    1.0050665   -2.7927149   -2.7927149   -1.6265459  0.072353051   -2.7927149    1.1661689   563356 
 3565000    1.0052484   -2.7940151   -2.7940151   -1.6276351  0.063859284   -2.7940151    1.1663799   563356 
 3566000    1.0048535   -2.7933875   -2.7933875   -1.6274657  0.068475903   -2.7933875    1.1659218   563356 
 3567000    1.0046885   -2.7932642   -2.7932642   -1.6275339  0.063733818   -2.7932642    1.1657303   563356 
 3568000    1.0055828   -2.7934015   -2.7934015   -1.6266335  0.069996747   -2.7934015     1.166768   563356 
 3569000    1.0054325   -2.7929871   -2.7929871   -1.6263935   0.07951354   -2.7929871    1.1665936   563356 
 3570000    1.0062567   -2.7941258   -2.7941258   -1.6265759   0.07077102   -2.7941258    1.1675499   563356 
 3571000     1.005932   -2.7935508   -2.7935508   -1.6263777  0.079341404   -2.7935508    1.1671731   563356 
 3572000    1.0069115   -2.7944867   -2.7944867   -1.6261771  0.078362781   -2.7944867    1.1683096   563356 
 3573000    1.0050777   -2.7932367   -2.7932367   -1.6270547  0.073040428   -2.7932367     1.166182   563356 
 3574000     1.005144   -2.7936253   -2.7936253   -1.6273664   0.07398912   -2.7936253    1.1662589   563356 
 3575000    1.0057717   -2.7933139   -2.7933139   -1.6263267   0.07629176   -2.7933139    1.1669871   563356 
 3576000    1.0078569   -2.7950513   -2.7950513   -1.6256446  0.070554116   -2.7950513    1.1694066   563356 
 3577000    1.0071191   -2.7951707   -2.7951707   -1.6266202  0.066465646   -2.7951707    1.1685505   563356 
 3578000    1.0061575   -2.7940481   -2.7940481   -1.6266133  0.075432213   -2.7940481    1.1674348   563356 
 3579000    1.0068488   -2.7943521   -2.7943521   -1.6261153  0.072643695   -2.7943521    1.1682369   563356 
 3580000      1.00441   -2.7926967   -2.7926967   -1.6272895  0.069168829   -2.7926967    1.1654072   563356 
 3581000    1.0057617   -2.7940319   -2.7940319   -1.6270564  0.060943764   -2.7940319    1.1669755   563356 
 3582000    1.0048872   -2.7926124   -2.7926124   -1.6266516  0.064052069   -2.7926124    1.1659609   563356 
 3583000    1.0050176   -2.7925451   -2.7925451   -1.6264329  0.072048842   -2.7925451    1.1661122   563356 
 3584000    1.0050072   -2.7925458   -2.7925458   -1.6264457  0.066118277   -2.7925458    1.1661001   563356 
 3585000    1.0041885   -2.7911842   -2.7911842    -1.626034   0.06171021   -2.7911842    1.1651502   563356 
 3586000     1.004226   -2.7909705   -2.7909705   -1.6257768  0.070005483   -2.7909705    1.1651937   563356 
 3587000    1.0041336   -2.7913431   -2.7913431   -1.6262566  0.064445675   -2.7913431    1.1650865   563356 
 3588000    1.0037735   -2.7907637   -2.7907637    -1.626095  0.060725786   -2.7907637    1.1646687   563356 
 3589000    1.0042279   -2.7915239   -2.7915239    -1.626328  0.050609153   -2.7915239    1.1651959   563356 
 3590000     1.003022   -2.7901753   -2.7901753   -1.6263787  0.070137919   -2.7901753    1.1637967   563356 
 3591000    1.0050521   -2.7930689   -2.7930689   -1.6269167  0.059097781   -2.7930689    1.1661522   563356 
 3592000     1.004313   -2.7905452   -2.7905452   -1.6252506  0.078985635   -2.7905452    1.1652946   563356 
 3593000    1.0043236   -2.7899179   -2.7899179   -1.6246109  0.066038272   -2.7899179     1.165307   563356 
 3594000     1.004162   -2.7892402   -2.7892402   -1.6241207  0.085818849   -2.7892402    1.1651195   563356 
 3595000    1.0057411   -2.7910429   -2.7910429   -1.6240913  0.068888232   -2.7910429    1.1669516   563356 
 3596000     1.005636   -2.7914169   -2.7914169   -1.6245872  0.061537544   -2.7914169    1.1668297   563356 
 3597000    1.0066569   -2.7931418   -2.7931418   -1.6251276  0.065832975   -2.7931418    1.1680142   563356 
 3598000    1.0059077   -2.7910221   -2.7910221   -1.6238771   0.07448495   -2.7910221     1.167145   563356 
 3599000    1.0062497   -2.7912803   -2.7912803   -1.6237385   0.07321803   -2.7912803    1.1675418   563356 
 3600000    1.0072433   -2.7929947   -2.7929947      -1.6243  0.068604248   -2.7929947    1.1686946   563356 
 3601000    1.0062358   -2.7927551   -2.7927551   -1.6252295   0.06636302   -2.7927551    1.1675257   563356 
 3602000    1.0067332   -2.7932617   -2.7932617    -1.625159  0.062241183   -2.7932617    1.1681027   563356 
 3603000    1.0057547   -2.7914381   -2.7914381   -1.6244706  0.062982958   -2.7914381    1.1669675   563356 
 3604000    1.0050309   -2.7907981   -2.7907981   -1.6246704  0.073790199   -2.7907981    1.1661276   563356 
 3605000    1.0055947    -2.792116    -2.792116   -1.6253343  0.053433784    -2.792116    1.1667817   563356 
 3606000    1.0064128   -2.7931429   -2.7931429   -1.6254119  0.053786635   -2.7931429     1.167731   563356 
 3607000    1.0056807    -2.792436    -2.792436   -1.6255544  0.072851956    -2.792436    1.1668815   563356 
 3608000    1.0050299   -2.7924001   -2.7924001   -1.6262737  0.066816565   -2.7924001    1.1661264   563356 
 3609000    1.0061292   -2.7933437   -2.7933437   -1.6259417  0.065459004   -2.7933437     1.167402   563356 
 3610000    1.0050537   -2.7927099   -2.7927099   -1.6265558  0.056730807   -2.7927099    1.1661541   563356 
 3611000     1.006076   -2.7933639   -2.7933639   -1.6260238  0.062880881   -2.7933639    1.1673402   563356 
 3612000    1.0033573   -2.7905166   -2.7905166   -1.6263309  0.065469976   -2.7905166    1.1641857   563356 
 3613000    1.0049832   -2.7920273   -2.7920273   -1.6259551  0.074505621   -2.7920273    1.1660722   563356 
 3614000    1.0067465   -2.7939434   -2.7939434   -1.6258253  0.066951331   -2.7939434    1.1681182   563356 
 3615000    1.0051041   -2.7924235   -2.7924235    -1.626211  0.074841501   -2.7924235    1.1662125   563356 
 3616000    1.0059404   -2.7937177   -2.7937177   -1.6265348  0.059838199   -2.7937177    1.1671829   563356 
 3617000    1.0063749   -2.7943452   -2.7943452   -1.6266582  0.064654386   -2.7943452     1.167687   563356 
 3618000    1.0050423   -2.7927778   -2.7927778    -1.626637  0.071061485   -2.7927778    1.1661408   563356 
 3619000     1.004529   -2.7926614   -2.7926614   -1.6271161  0.074138374   -2.7926614    1.1655453   563356 
 3620000    1.0047696   -2.7933633   -2.7933633   -1.6275389  0.070287969   -2.7933633    1.1658244   563356 
 3621000    1.0039134   -2.7915404   -2.7915404   -1.6267095  0.062786746   -2.7915404    1.1648309   563356 
 3622000    1.0051057   -2.7932942   -2.7932942   -1.6270798  0.068083047   -2.7932942    1.1662144   563356 
 3623000    1.0041107    -2.792272    -2.792272   -1.6272121  0.053747518    -2.792272    1.1650599   563356 
 3624000    1.0048943   -2.7931381   -2.7931381    -1.627169  0.077001495   -2.7931381    1.1659691   563356 
 3625000    1.0047739   -2.7928552   -2.7928552   -1.6270258  0.060102904   -2.7928552    1.1658294   563356 
 3626000    1.0049775   -2.7926539   -2.7926539   -1.6265883  0.071484408   -2.7926539    1.1660657   563356 
 3627000    1.0048589   -2.7925108   -2.7925108   -1.6265828  0.076413066   -2.7925108     1.165928   563356 
 3628000    1.0055893   -2.7930836   -2.7930836   -1.6263081  0.066423371   -2.7930836    1.1667755   563356 
 3629000    1.0037169   -2.7913421   -2.7913421   -1.6267391  0.066632878   -2.7913421     1.164603   563356 
 3630000    1.0071351   -2.7956439   -2.7956439   -1.6270749  0.066229774   -2.7956439     1.168569   563356 
 3631000    1.0054494    -2.793742    -2.793742   -1.6271288  0.073828638    -2.793742    1.1666132   563356 
 3632000    1.0044526   -2.7920968   -2.7920968   -1.6266401   0.06920336   -2.7920968    1.1654566   563356 
 3633000    1.0049656   -2.7928925   -2.7928925   -1.6268406   0.06809743   -2.7928925    1.1660519   563356 
 3634000    1.0059379    -2.793652    -2.793652   -1.6264721  0.065225131    -2.793652      1.16718   563356 
 3635000    1.0048468   -2.7929057   -2.7929057   -1.6269918  0.063863861   -2.7929057     1.165914   563356 
 3636000    1.0048624   -2.7926503   -2.7926503   -1.6267182  0.077207799   -2.7926503    1.1659321   563356 
 3637000    1.0034542   -2.7916588   -2.7916588   -1.6273607  0.055136587   -2.7916588    1.1642981   563356 
 3638000    1.0054926    -2.793772    -2.793772   -1.6271086  0.059577246    -2.793772    1.1666633   563356 
 3639000    1.0056412   -2.7935073   -2.7935073   -1.6266716  0.068657713   -2.7935073    1.1668357   563356 
 3640000    1.0040088   -2.7914027   -2.7914027    -1.626461  0.066481119   -2.7914027    1.1649417   563356 
 3641000    1.0044055   -2.7924185   -2.7924185   -1.6270166  0.073736861   -2.7924185     1.165402   563356 
 3642000    1.0050625   -2.7926017   -2.7926017   -1.6264375   0.06770749   -2.7926017    1.1661642   563356 
 3643000     1.004348   -2.7921314   -2.7921314   -1.6267961  0.060795459   -2.7921314    1.1653352   563356 
 3644000    1.0048097   -2.7922784   -2.7922784   -1.6264074  0.074567756   -2.7922784     1.165871   563356 
 3645000     1.004475   -2.7922681   -2.7922681   -1.6267855  0.068189256   -2.7922681    1.1654826   563356 
 3646000    1.0044634     -2.79216     -2.79216   -1.6266908  0.067390752     -2.79216    1.1654692   563356 
 3647000    1.0055884   -2.7944883   -2.7944883   -1.6277138  0.058764573   -2.7944883    1.1667745   563356 
 3648000    1.0049339   -2.7939994   -2.7939994   -1.6279844  0.073113735   -2.7939994     1.166015   563356 
 3649000    1.0052952   -2.7947233   -2.7947233   -1.6282889  0.071034618   -2.7947233    1.1664343   563356 
 3650000    1.0047449   -2.7951157   -2.7951157     -1.62932  0.070301887   -2.7951157    1.1657958   563356 
 3651000    1.0035095   -2.7930039   -2.7930039   -1.6286415  0.066049498   -2.7930039    1.1643624   563356 
 3652000     1.004446    -2.792489    -2.792489     -1.62704  0.063560118    -2.792489     1.165449   563356 
 3653000    1.0037324    -2.792435    -2.792435    -1.627814  0.061343401    -2.792435    1.1646209   563356 
 3654000     1.005384   -2.7951627   -2.7951627   -1.6286254  0.066862599   -2.7951627    1.1665373   563356 
 3655000    1.0038309   -2.7936189   -2.7936189   -1.6288837  0.070713249   -2.7936189    1.1647352   563356 
 3656000    1.0057197   -2.7961315   -2.7961315   -1.6292047  0.076807547   -2.7961315    1.1669268   563356 
 3657000    1.0049607   -2.7954653   -2.7954653   -1.6294192  0.074741994   -2.7954653    1.1660461   563356 
 3658000    1.0052328    -2.796378    -2.796378   -1.6300161  0.060169376    -2.796378    1.1663618   563356 
 3659000    1.0058582   -2.7970224   -2.7970224   -1.6299349    0.0618093   -2.7970224    1.1670875   563356 
 3660000    1.0055042   -2.7958285   -2.7958285   -1.6291518   0.06049738   -2.7958285    1.1666767   563356 
 3661000    1.0053359   -2.7956738   -2.7956738   -1.6291924  0.066009749   -2.7956738    1.1664814   563356 
 3662000    1.0038075   -2.7941713   -2.7941713   -1.6294632   0.07093113   -2.7941713    1.1647081   563356 
 3663000    1.0057607   -2.7959112   -2.7959112   -1.6289368  0.067350561   -2.7959112    1.1669744   563356 
 3664000    1.0049271   -2.7949297   -2.7949297   -1.6289225  0.074478585   -2.7949297    1.1660071   563356 
 3665000    1.0052084   -2.7953607   -2.7953607   -1.6290271  0.065737468   -2.7953607    1.1663335   563356 
 3666000    1.0046549   -2.7945259   -2.7945259   -1.6288345  0.067011605   -2.7945259    1.1656913   563356 
 3667000    1.0069999   -2.7979973   -2.7979973   -1.6295851  0.068810751   -2.7979973    1.1684122   563356 
 3668000    1.0048379   -2.7958057   -2.7958057    -1.629902  0.070495061   -2.7958057    1.1659037   563356 
 3669000    1.0054807   -2.7963847   -2.7963847   -1.6297352  0.067237474   -2.7963847    1.1666495   563356 
 3670000    1.0042189   -2.7960175   -2.7960175   -1.6308321  0.060071544   -2.7960175    1.1651854   563356 
 3671000     1.003845   -2.7956703   -2.7956703   -1.6309186  0.072517772   -2.7956703    1.1647517   563356 
 3672000    1.0038645   -2.7946833   -2.7946833   -1.6299091  0.062999699   -2.7946833    1.1647742   563356 
 3673000    1.0030473   -2.7948711   -2.7948711    -1.631045  0.065199159   -2.7948711    1.1638261   563356 
 3674000    1.0028445   -2.7939339   -2.7939339   -1.6303431  0.065616216   -2.7939339    1.1635908   563356 
 3675000      1.00307     -2.79348     -2.79348   -1.6296277  0.067665616     -2.79348    1.1638524   563356 
 3676000     1.003085   -2.7933602   -2.7933602   -1.6294904  0.074045019   -2.7933602    1.1638698   563356 
 3677000    1.0036189   -2.7927277   -2.7927277   -1.6282384  0.073463285   -2.7927277    1.1644893   563356 
 3678000    1.0053792   -2.7947493   -2.7947493   -1.6282175   0.06932161   -2.7947493    1.1665318   563356 
 3679000    1.0062075   -2.7956963   -2.7956963   -1.6282035  0.067621762   -2.7956963    1.1674927   563356 
 3680000    1.0049079   -2.7938737   -2.7938737   -1.6278888  0.071188088   -2.7938737    1.1659849   563356 
 3681000    1.0069614    -2.795547    -2.795547   -1.6271795  0.070326007    -2.795547    1.1683676   563356 
 3682000    1.0080135   -2.7968775   -2.7968775   -1.6272892  0.072642508   -2.7968775    1.1695883   563356 
 3683000    1.0052874   -2.7941823   -2.7941823   -1.6277571  0.079675124   -2.7941823    1.1664252   563356 
 3684000    1.0054149   -2.7936545   -2.7936545   -1.6270814  0.076218649   -2.7936545    1.1665732   563356 
 3685000    1.0053292   -2.7935525   -2.7935525   -1.6270788   0.07094386   -2.7935525    1.1664737   563356 
 3686000    1.0045315   -2.7929175   -2.7929175   -1.6273693  0.062805251   -2.7929175    1.1655481   563356 
 3687000    1.0047758   -2.7933503   -2.7933503   -1.6275187  0.053760828   -2.7933503    1.1658316   563356 
 3688000    1.0041918   -2.7923239   -2.7923239   -1.6271699  0.064113791   -2.7923239     1.165154   563356 
 3689000    1.0027965    -2.790729    -2.790729    -1.627194  0.062279732    -2.790729     1.163535   563356 
 3690000    1.0040967   -2.7928082   -2.7928082   -1.6277645  0.063172282   -2.7928082    1.1650437   563356 
 3691000    1.0048213   -2.7938937   -2.7938937   -1.6280094  0.056675722   -2.7938937    1.1658844   563356 
 3692000    1.0031121   -2.7917419   -2.7917419   -1.6278407  0.069293416   -2.7917419    1.1639012   563356 
 3693000    1.0025676   -2.7907233   -2.7907233   -1.6274538  0.077708897   -2.7907233    1.1632695   563356 
 3694000    1.0050648    -2.794248    -2.794248    -1.628081  0.069101688    -2.794248     1.166167   563356 
 3695000     1.003112    -2.791948    -2.791948   -1.6280469  0.063521265    -2.791948    1.1639011   563356 
 3696000    1.0053423   -2.7945488   -2.7945488   -1.6280599  0.060997657   -2.7945488    1.1664889   563356 
 3697000    1.0052062   -2.7934123   -2.7934123   -1.6270812  0.058689238   -2.7934123     1.166331   563356 
 3698000    1.0042036   -2.7912818   -2.7912818   -1.6261141  0.076745446   -2.7912818    1.1651677   563356 
 3699000    1.0046753   -2.7929553   -2.7929553   -1.6272402  0.064522325   -2.7929553     1.165715   563356 
 3700000    1.0055347   -2.7926393   -2.7926393   -1.6259271   0.06816097   -2.7926393    1.1667122   563356 
 3701000    1.0044393   -2.7918716   -2.7918716   -1.6264304  0.065473234   -2.7918716    1.1654411   563356 
 3702000    1.0044229   -2.7913821   -2.7913821   -1.6259599  0.068759602   -2.7913821    1.1654222   563356 
 3703000    1.0040942   -2.7904327   -2.7904327   -1.6253919  0.068596904   -2.7904327    1.1650408   563356 
 3704000    1.0042606   -2.7910479   -2.7910479   -1.6258141  0.067627889   -2.7910479    1.1652338   563356 
 3705000    1.0028507   -2.7901137   -2.7901137   -1.6265158  0.066548794   -2.7901137    1.1635979   563356 
 3706000    1.0035406   -2.7915066   -2.7915066   -1.6271082  0.067756281   -2.7915066    1.1643984   563356 
 3707000    1.0046343   -2.7924692   -2.7924692   -1.6268018  0.060874439   -2.7924692    1.1656674   563356 
 3708000    1.0041534   -2.7921548   -2.7921548   -1.6270454  0.068832146   -2.7921548    1.1651094   563356 
 3709000    1.0042247   -2.7933329   -2.7933329   -1.6281407  0.063980466   -2.7933329    1.1651921   563356 
 3710000    1.0046443   -2.7942881   -2.7942881   -1.6286091  0.064864942   -2.7942881     1.165679   563356 
 3711000    1.0061513   -2.7946766   -2.7946766    -1.627249   0.07749509   -2.7946766    1.1674276   563356 
 3712000    1.0047215   -2.7931977   -2.7931977    -1.627429  0.069577445   -2.7931977    1.1657687   563356 
 3713000    1.0049943   -2.7932214   -2.7932214   -1.6271363  0.066619434   -2.7932214    1.1660851   563356 
 3714000    1.0043896    -2.792694    -2.792694   -1.6273105  0.065997212    -2.792694    1.1653835   563356 
 3715000    1.0050213   -2.7942242   -2.7942242   -1.6281078  0.078402126   -2.7942242    1.1661164   563356 
 3716000    1.0045205   -2.7931253   -2.7931253   -1.6275899  0.072448699   -2.7931253    1.1655354   563356 
 3717000    1.0066696   -2.7952462   -2.7952462   -1.6272172  0.066613395   -2.7952462     1.168029   563356 
 3718000    1.0055485   -2.7947945   -2.7947945   -1.6280664  0.074298589   -2.7947945    1.1667282   563356 
 3719000    1.0059359   -2.7954272   -2.7954272   -1.6282496  0.073361578   -2.7954272    1.1671776   563356 
 3720000    1.0068814   -2.7956192   -2.7956192   -1.6273446  0.065840283   -2.7956192    1.1682747   563356 
 3721000    1.0059524   -2.7947444   -2.7947444   -1.6275475  0.074327662   -2.7947444    1.1671969   563356 
 3722000    1.0063617   -2.7951247   -2.7951247    -1.627453  0.080226097   -2.7951247    1.1676717   563356 
 3723000    1.0050403   -2.7946405   -2.7946405    -1.628502  0.075280799   -2.7946405    1.1661385   563356 
 3724000    1.0050828   -2.7947154   -2.7947154   -1.6285276  0.069805702   -2.7947154    1.1661879   563356 
 3725000    1.0046989    -2.794661    -2.794661   -1.6289186  0.058861631    -2.794661    1.1657424   563356 
 3726000    1.0051647   -2.7938809   -2.7938809   -1.6275981   0.07147927   -2.7938809    1.1662828   563356 
 3727000    1.0052542   -2.7946364   -2.7946364   -1.6282497  0.076850047   -2.7946364    1.1663867   563356 
 3728000     1.004914   -2.7944861   -2.7944861   -1.6284941  0.069685597   -2.7944861     1.165992   563356 
 3729000    1.0063611   -2.7953011   -2.7953011     -1.62763   0.06647106   -2.7953011    1.1676711   563356 
 3730000    1.0062111   -2.7959119   -2.7959119    -1.628415  0.061682944   -2.7959119    1.1674969   563356 
 3731000    1.0050013   -2.7944935   -2.7944935   -1.6284003  0.063405556   -2.7944935    1.1660932   563356 
 3732000    1.0061819   -2.7953578   -2.7953578   -1.6278948   0.06945674   -2.7953578     1.167463   563356 
 3733000    1.0044798   -2.7936447   -2.7936447   -1.6281565  0.064185155   -2.7936447    1.1654882   563356 
 3734000    1.0059524   -2.7945578   -2.7945578    -1.627361  0.066014974   -2.7945578    1.1671968   563356 
 3735000    1.0057425   -2.7935617   -2.7935617   -1.6266084   0.06540091   -2.7935617    1.1669533   563356 
 3736000     1.005251   -2.7941383   -2.7941383   -1.6277554  0.064799227   -2.7941383    1.1663829   563356 
 3737000    1.0056025   -2.7940038   -2.7940038    -1.627213  0.066107502   -2.7940038    1.1667908   563356 
 3738000    1.0063559   -2.7956235   -2.7956235   -1.6279586  0.070636979   -2.7956235     1.167665   563356 
 3739000    1.0048405    -2.794311    -2.794311   -1.6284043  0.063876709    -2.794311    1.1659067   563356 
 3740000    1.0055132   -2.7951895   -2.7951895   -1.6285024  0.062493757   -2.7951895    1.1666872   563356 
 3741000    1.0054352   -2.7944191   -2.7944191   -1.6278224  0.058735407   -2.7944191    1.1665967   563356 
 3742000    1.0047893   -2.7927185   -2.7927185   -1.6268712  0.075832576   -2.7927185    1.1658473   563356 
 3743000    1.0074114   -2.7954463   -2.7954463   -1.6265566  0.070720511   -2.7954463    1.1688897   563356 
 3744000    1.0064351   -2.7939824   -2.7939824   -1.6262255   0.06538559   -2.7939824    1.1677569   563356 
 3745000    1.0070369   -2.7945466   -2.7945466   -1.6260915    0.0616492   -2.7945466    1.1684552   563356 
 3746000    1.0061716   -2.7937778   -2.7937778   -1.6263267  0.073843851   -2.7937778    1.1674511   563356 
 3747000    1.0069591   -2.7945849   -2.7945849     -1.62622  0.067767181   -2.7945849    1.1683649   563356 
 3748000    1.0061582   -2.7947261   -2.7947261   -1.6272905  0.062314764   -2.7947261    1.1674356   563356 
 3749000     1.004305   -2.7926608   -2.7926608   -1.6273754  0.064685934   -2.7926608    1.1652854   563356 
 3750000    1.0047899   -2.7930365   -2.7930365   -1.6271885  0.075149153   -2.7930365     1.165848   563356 
 3751000    1.0044625   -2.7925176   -2.7925176   -1.6270495  0.065389308   -2.7925176    1.1654681   563356 
 3752000    1.0060948   -2.7939114   -2.7939114   -1.6265494   0.05572064   -2.7939114     1.167362   563356 
 3753000     1.004824   -2.7929241   -2.7929241   -1.6270366  0.057118385   -2.7929241    1.1658875   563356 
 3754000    1.0051617   -2.7933086   -2.7933086   -1.6270292  0.068522801   -2.7933086    1.1662794   563356 
 3755000    1.0050824    -2.793086    -2.793086   -1.6268986  0.063092476    -2.793086    1.1661874   563356 
 3756000    1.0052031   -2.7937788   -2.7937788   -1.6274514  0.056950677   -2.7937788    1.1663274   563356 
 3757000    1.0031832   -2.7924902   -2.7924902   -1.6285065  0.071533393   -2.7924902    1.1639837   563356 
 3758000    1.0045465   -2.7927606   -2.7927606    -1.627195  0.072963592   -2.7927606    1.1655656   563356 
 3759000    1.0047734   -2.7917867   -2.7917867   -1.6259579  0.065157593   -2.7917867    1.1658288   563356 
 3760000    1.0060774   -2.7933116   -2.7933116   -1.6259698  0.067126651   -2.7933116    1.1673418   563356 
 3761000    1.0053489   -2.7920323   -2.7920323   -1.6255357  0.071581911   -2.7920323    1.1664966   563356 
 3762000    1.0076243   -2.7940542   -2.7940542   -1.6249175  0.068518751   -2.7940542    1.1691367   563356 
 3763000    1.0075648    -2.794438    -2.794438   -1.6253704  0.056378391    -2.794438    1.1690677   563356 
 3764000    1.0068879   -2.7933334   -2.7933334    -1.625051  0.074914238   -2.7933334    1.1682823   563356 
 3765000    1.0073295   -2.7937057   -2.7937057   -1.6249111    0.0749477   -2.7937057    1.1687946   563356 
 3766000    1.0073639   -2.7939315   -2.7939315   -1.6250969  0.079785316   -2.7939315    1.1688346   563356 
 3767000     1.005854   -2.7928367   -2.7928367   -1.6257541  0.069881913   -2.7928367    1.1670826   563356 
 3768000    1.0087871   -2.7962913   -2.7962913   -1.6258053  0.071483924   -2.7962913    1.1704859   563356 
 3769000    1.0047124   -2.7933082   -2.7933082   -1.6275501  0.066889608   -2.7933082    1.1657581   563356 
 3770000    1.0052581   -2.7944001   -2.7944001    -1.628009  0.057699447   -2.7944001    1.1663912   563356 
 3771000     1.004357   -2.7932469   -2.7932469   -1.6279012  0.078008006   -2.7932469    1.1653457   563356 
 3772000    1.0036815   -2.7918656   -2.7918656   -1.6273037  0.068398533   -2.7918656    1.1645619   563356 
 3773000    1.0041805   -2.7922677   -2.7922677   -1.6271268  0.065900783   -2.7922677    1.1651409   563356 
 3774000    1.0037973   -2.7926278   -2.7926278   -1.6279316  0.058425288   -2.7926278    1.1646963   563356 
 3775000     1.003365   -2.7929367   -2.7929367   -1.6287421  0.063655799   -2.7929367    1.1641947   563356 
 3776000    1.0032517    -2.792703    -2.792703   -1.6286398  0.071040186    -2.792703    1.1640632   563356 
 3777000    1.0038795    -2.793307    -2.793307   -1.6285153  0.055964453    -2.793307    1.1647917   563356 
 3778000    1.0049062   -2.7943705   -2.7943705   -1.6283876  0.066372395   -2.7943705    1.1659829   563356 
 3779000    1.0037821   -2.7941633   -2.7941633   -1.6294847  0.077294149   -2.7941633    1.1646786   563356 
 3780000    1.0034307    -2.794547    -2.794547   -1.6302761  0.061883784    -2.794547    1.1642709   563356 
 3781000    1.0044458   -2.7957402   -2.7957402   -1.6302915  0.067528727   -2.7957402    1.1654487   563356 
 3782000    1.0040298   -2.7940305   -2.7940305   -1.6290645  0.078364391   -2.7940305    1.1649661   563356 
 3783000    1.0034885   -2.7942289   -2.7942289   -1.6298909  0.066697024   -2.7942289     1.164338   563356 
 3784000    1.0027299   -2.7935597   -2.7935597   -1.6301019  0.070166487   -2.7935597    1.1634578   563356 
 3785000    1.0043776   -2.7950206   -2.7950206   -1.6296511  0.065967146   -2.7950206    1.1653695   563356 
 3786000    1.0034975   -2.7924553   -2.7924553   -1.6281069  0.068597212   -2.7924553    1.1643484   563356 
 3787000    1.0053666   -2.7936931   -2.7936931   -1.6271759  0.068507036   -2.7936931    1.1665171   563356 
 3788000    1.0067879   -2.7943744   -2.7943744   -1.6262081  0.067958243   -2.7943744    1.1681662   563356 
 3789000    1.0070086   -2.7946992   -2.7946992   -1.6262769  0.078101944   -2.7946992    1.1684223   563356 
 3790000     1.007702   -2.7953334   -2.7953334   -1.6261066  0.070935812   -2.7953334    1.1692268   563356 
 3791000       1.0065   -2.7939884   -2.7939884   -1.6261562   0.08198124   -2.7939884    1.1678322   563356 
 3792000    1.0085135   -2.7964241   -2.7964241   -1.6262557  0.075946967   -2.7964241    1.1701684   563356 
 3793000    1.0069044   -2.7950744   -2.7950744   -1.6267729  0.066795999   -2.7950744    1.1683014   563356 
 3794000    1.0075113   -2.7951104   -2.7951104   -1.6261049   0.06815839   -2.7951104    1.1690056   563356 
 3795000    1.0086009   -2.7964334   -2.7964334   -1.6261636  0.074700748   -2.7964334    1.1702698   563356 
 3796000    1.0080053   -2.7956945   -2.7956945   -1.6261157  0.067164609   -2.7956945    1.1695788   563356 
 3797000    1.0066826   -2.7939907   -2.7939907   -1.6259467  0.068685179   -2.7939907     1.168044   563356 
 3798000    1.0062587   -2.7932306   -2.7932306   -1.6256783  0.064167805   -2.7932306    1.1675523   563356 
 3799000    1.0053876   -2.7922258   -2.7922258   -1.6256843  0.067142243   -2.7922258    1.1665415   563356 
 3800000    1.0064308   -2.7941329   -2.7941329    -1.626381  0.069398774   -2.7941329    1.1677519   563356 
 3801000    1.0057787   -2.7936019   -2.7936019   -1.6266066  0.070212589   -2.7936019    1.1669953   563356 
 3802000    1.0048877    -2.793822    -2.793822   -1.6278606  0.067083105    -2.793822    1.1659614   563356 
 3803000    1.0043731   -2.7942498   -2.7942498   -1.6288855  0.064979247   -2.7942498    1.1653644   563356 
 3804000    1.0051563   -2.7938288   -2.7938288   -1.6275556  0.064086371   -2.7938288    1.1662731   563356 
 3805000    1.0030356   -2.7913684   -2.7913684   -1.6275559  0.068056723   -2.7913684    1.1638125   563356 
 3806000    1.0046965   -2.7921716   -2.7921716   -1.6264321  0.058472429   -2.7921716    1.1657396   563356 
 3807000    1.0058582   -2.7929481   -2.7929481   -1.6258605    0.0680647   -2.7929481    1.1670876   563356 
 3808000    1.0035821   -2.7914557   -2.7914557   -1.6270091  0.061860995   -2.7914557    1.1644466   563356 
 3809000    1.0042761   -2.7925286   -2.7925286   -1.6272769  0.057284938   -2.7925286    1.1652518   563356 
 3810000    1.0037492   -2.7916348   -2.7916348   -1.6269943  0.062315786   -2.7916348    1.1646405   563356 
 3811000      1.00299   -2.7897662   -2.7897662   -1.6260067  0.060576693   -2.7897662    1.1637596   563356 
 3812000     1.003955   -2.7911749   -2.7911749   -1.6262956  0.064276106   -2.7911749    1.1648793   563356 
 3813000    1.0056295    -2.793269    -2.793269   -1.6264469  0.063374354    -2.793269    1.1668221   563356 
 3814000    1.0045373   -2.7917568   -2.7917568    -1.626202  0.080936924   -2.7917568    1.1655549   563356 
 3815000    1.0042779   -2.7908849   -2.7908849   -1.6256309  0.061427962   -2.7908849    1.1652539   563356 
 3816000    1.0067704   -2.7943278   -2.7943278    -1.626182  0.062493657   -2.7943278    1.1681459   563356 
 3817000    1.0066202   -2.7935111   -2.7935111   -1.6255394  0.067080944   -2.7935111    1.1679717   563356 
 3818000    1.0066185   -2.7933618   -2.7933618   -1.6253921  0.059948502   -2.7933618    1.1679697   563356 
 3819000    1.0055997   -2.7924197   -2.7924197   -1.6256321  0.067261384   -2.7924197    1.1667876   563356 
 3820000    1.0050838   -2.7926333   -2.7926333   -1.6264444  0.073070578   -2.7926333    1.1661889   563356 
 3821000    1.0066177   -2.7938759   -2.7938759   -1.6259071   0.07253956   -2.7938759    1.1679687   563356 
 3822000    1.0050371   -2.7921232   -2.7921232   -1.6259884   0.06458501   -2.7921232    1.1661348   563356 
 3823000    1.0045446   -2.7922104   -2.7922104   -1.6266471  0.058016731   -2.7922104    1.1655633   563356 
 3824000    1.0053275   -2.7928189   -2.7928189   -1.6263472  0.067380676   -2.7928189    1.1664718   563356 
 3825000    1.0057221   -2.7932208   -2.7932208   -1.6262912  0.065668407   -2.7932208    1.1669296   563356 
 3826000    1.0064884   -2.7934323   -2.7934323   -1.6256137  0.063946754   -2.7934323    1.1678187   563356 
 3827000    1.0063975   -2.7935682   -2.7935682   -1.6258549  0.062936409   -2.7935682    1.1677132   563356 
 3828000    1.0067413   -2.7929049   -2.7929049   -1.6247927  0.068853158   -2.7929049    1.1681122   563356 
 3829000    1.0064973   -2.7920801   -2.7920801   -1.6242511   0.07268301   -2.7920801     1.167829   563356 
 3830000    1.0066602   -2.7916029   -2.7916029   -1.6235848  0.081341571   -2.7916029    1.1680181   563356 
 3831000    1.0065868   -2.7926743   -2.7926743   -1.6247415  0.067350165   -2.7926743    1.1679329   563356 
 3832000     1.006917   -2.7930363   -2.7930363   -1.6247203  0.070614088   -2.7930363     1.168316   563356 
 3833000    1.0053713   -2.7912356   -2.7912356    -1.624713  0.073144867   -2.7912356    1.1665226   563356 
 3834000    1.0057235   -2.7924293   -2.7924293   -1.6254981  0.070365351   -2.7924293    1.1669312   563356 
 3835000    1.0057706    -2.792022    -2.792022   -1.6250361   0.06758612    -2.792022    1.1669858   563356 
 3836000    1.0042297   -2.7913754   -2.7913754   -1.6261775  0.069396234   -2.7913754    1.1651979   563356 
 3837000    1.0031266   -2.7900843   -2.7900843   -1.6261663  0.068599796   -2.7900843    1.1639181   563356 
 3838000    1.0048106   -2.7904803   -2.7904803   -1.6246083  0.066190469   -2.7904803     1.165872   563356 
 3839000    1.0035919   -2.7903987   -2.7903987   -1.6259408  0.059295881   -2.7903987    1.1644579   563356 
 3840000    1.0030377   -2.7901827   -2.7901827   -1.6263678   0.06705854   -2.7901827    1.1638149   563356 
 3841000    1.0030145   -2.7903106   -2.7903106   -1.6265227  0.067114247   -2.7903106     1.163788   563356 
 3842000     1.005138   -2.7920908   -2.7920908    -1.625839  0.057184413   -2.7920908    1.1662518   563356 
 3843000    1.0040074   -2.7921814   -2.7921814   -1.6272414  0.065544764   -2.7921814      1.16494   563356 
 3844000    1.0035563   -2.7922791   -2.7922791   -1.6278624  0.063813138   -2.7922791    1.1644166   563356 
 3845000    1.0025311   -2.7904129   -2.7904129   -1.6271857  0.059106961   -2.7904129    1.1632271   563356 
 3846000    1.0031256   -2.7906235   -2.7906235   -1.6267066  0.060686902   -2.7906235    1.1639169   563356 
 3847000     1.003946   -2.7921612   -2.7921612   -1.6272924  0.066989093   -2.7921612    1.1648688   563356 
 3848000    1.0050174   -2.7929657   -2.7929657   -1.6268537  0.070854174   -2.7929657     1.166112   563356 
 3849000    1.0042208    -2.792013    -2.792013   -1.6268253  0.066415098    -2.792013    1.1651877   563356 
 3850000    1.0038024   -2.7923546   -2.7923546   -1.6276524  0.064958924   -2.7923546    1.1647022   563356 
 3851000    1.0042175   -2.7929395   -2.7929395   -1.6277556  0.065211188   -2.7929395    1.1651839   563356 
 3852000    1.0046129   -2.7933381   -2.7933381   -1.6276955  0.062555119   -2.7933381    1.1656426   563356 
 3853000    1.0054834   -2.7945681   -2.7945681   -1.6279155  0.066972547   -2.7945681    1.1666526   563356 
 3854000    1.0064422   -2.7953638   -2.7953638   -1.6275987  0.052136004   -2.7953638    1.1677651   563356 
 3855000    1.0067869   -2.7958592   -2.7958592   -1.6276941   0.05703847   -2.7958592     1.168165   563356 
 3856000    1.0047336   -2.7939151   -2.7939151   -1.6281325  0.065750916   -2.7939151    1.1657827   563356 
 3857000    1.0063574   -2.7955737   -2.7955737   -1.6279069  0.059179942   -2.7955737    1.1676668   563356 
 3858000    1.0063955   -2.7955481   -2.7955481   -1.6278371  0.064556625   -2.7955481     1.167711   563356 
 3859000    1.0066341   -2.7949769   -2.7949769   -1.6269891  0.067412572   -2.7949769    1.1679878   563356 
 3860000    1.0078786   -2.7965652   -2.7965652   -1.6271334  0.066581491   -2.7965652    1.1694317   563356 
 3861000    1.0059439   -2.7947631   -2.7947631   -1.6275762  0.079110568   -2.7947631     1.167187   563356 
 3862000    1.0079096   -2.7961287   -2.7961287   -1.6266609  0.064004623   -2.7961287    1.1694677   563356 
 3863000    1.0075073   -2.7954244   -2.7954244   -1.6264235  0.070244627   -2.7954244    1.1690009   563356 
 3864000     1.006836   -2.7944997   -2.7944997   -1.6262776  0.078645956   -2.7944997    1.1682221   563356 
 3865000    1.0044488    -2.792072    -2.792072   -1.6266198  0.062493625    -2.792072    1.1654522   563356 
 3866000    1.0058329   -2.7936273   -2.7936273   -1.6265691  0.062862996   -2.7936273    1.1670582   563356 
 3867000    1.0052672    -2.793443    -2.793443   -1.6270413  0.063832669    -2.793443    1.1664017   563356 
 3868000    1.0029611   -2.7906233   -2.7906233   -1.6268973  0.065587424   -2.7906233     1.163726   563356 
 3869000    1.0051795   -2.7928044   -2.7928044   -1.6265044  0.064167288   -2.7928044    1.1663001   563356 
 3870000    1.0038111   -2.7916321   -2.7916321   -1.6269198  0.078692314   -2.7916321    1.1647123   563356 
 3871000    1.0033651   -2.7909286   -2.7909286   -1.6267338  0.063008737   -2.7909286    1.1641948   563356 
 3872000     1.003477   -2.7903556   -2.7903556   -1.6260309  0.058368748   -2.7903556    1.1643247   563356 
 3873000    1.0054661   -2.7928013   -2.7928013   -1.6261688  0.056426596   -2.7928013    1.1666326   563356 
 3874000    1.0038654   -2.7912965   -2.7912965   -1.6265212  0.070130516   -2.7912965    1.1647753   563356 
 3875000    1.0044386   -2.7913522   -2.7913522   -1.6259118  0.068679427   -2.7913522    1.1654404   563356 
 3876000    1.0058163   -2.7926325   -2.7926325   -1.6255937   0.07702383   -2.7926325    1.1670388   563356 
 3877000     1.004344   -2.7913761   -2.7913761   -1.6260454  0.066288993   -2.7913761    1.1653307   563356 
 3878000    1.0039127    -2.790962    -2.790962   -1.6261319  0.058337654    -2.790962    1.1648301   563356 
 3879000    1.0016372   -2.7883118   -2.7883118   -1.6261219  0.081009158   -2.7883118    1.1621899   563356 
 3880000    1.0038573   -2.7905803   -2.7905803   -1.6258145  0.056388033   -2.7905803    1.1647658   563356 
 3881000    1.0039487   -2.7902287   -2.7902287   -1.6253568   0.06199799   -2.7902287    1.1648719   563356 
 3882000    1.0051099   -2.7919897   -2.7919897   -1.6257704  0.063170307   -2.7919897    1.1662193   563356 
 3883000    1.0037593   -2.7903148   -2.7903148   -1.6256626  0.070771424   -2.7903148    1.1646522   563356 
 3884000     1.004962   -2.7920143   -2.7920143   -1.6259666  0.056393365   -2.7920143    1.1660477   563356 
 3885000    1.0050791   -2.7917854   -2.7917854   -1.6256019  0.067813833   -2.7917854    1.1661835   563356 
 3886000    1.0037199   -2.7902061   -2.7902061   -1.6255996  0.063452973   -2.7902061    1.1646065   563356 
 3887000    1.0058045   -2.7927084   -2.7927084   -1.6256832  0.070217459   -2.7927084    1.1670251   563356 
 3888000    1.0048967   -2.7912162   -2.7912162   -1.6252442   0.06753681   -2.7912162    1.1659719   563356 
 3889000    1.0056655   -2.7925026   -2.7925026   -1.6256387   0.06925605   -2.7925026     1.166864   563356 
 3890000    1.0062439   -2.7923599   -2.7923599   -1.6248249   0.06707218   -2.7923599     1.167535   563356 
 3891000    1.0058896   -2.7925179   -2.7925179    -1.625394  0.071419135   -2.7925179    1.1671239   563356 
 3892000    1.0056699   -2.7918314   -2.7918314   -1.6249624  0.073573489   -2.7918314     1.166869   563356 
 3893000    1.0071045   -2.7939999   -2.7939999   -1.6254663  0.062272288   -2.7939999    1.1685336   563356 
 3894000    1.0049409   -2.7910477   -2.7910477   -1.6250245  0.070370308   -2.7910477    1.1660232   563356 
 3895000    1.0055345    -2.791503    -2.791503    -1.624791  0.067292035    -2.791503     1.166712   563356 
 3896000    1.0044788   -2.7916744   -2.7916744   -1.6261873  0.072145299   -2.7916744    1.1654871   563356 
 3897000    1.0034657    -2.790937    -2.790937   -1.6266255   0.06688794    -2.790937    1.1643115   563356 
 3898000    1.0036263   -2.7913908   -2.7913908    -1.626893  0.067006187   -2.7913908    1.1644979   563356 
 3899000    1.0033429   -2.7908068   -2.7908068   -1.6266378  0.064499166   -2.7908068     1.164169   563356 
 3900000    1.0052609   -2.7928058   -2.7928058   -1.6264114  0.069021663   -2.7928058    1.1663945   563356 
 3901000    1.0032245   -2.7922182   -2.7922182   -1.6281865  0.065774185   -2.7922182    1.1640317   563356 
 3902000    1.0026887   -2.7910803   -2.7910803   -1.6276703  0.080781875   -2.7910803    1.1634099   563356 
 3903000     1.003446   -2.7926061   -2.7926061   -1.6283175  0.045755647   -2.7926061    1.1642886   563356 
 3904000    1.0049052   -2.7936001   -2.7936001   -1.6276184  0.068417458   -2.7936001    1.1659817   563356 
 3905000     1.005033   -2.7932901   -2.7932901     -1.62716  0.066535329   -2.7932901      1.16613   563356 
 3906000    1.0047278   -2.7915799   -2.7915799   -1.6258039  0.072847678   -2.7915799     1.165776   563356 
 3907000    1.0056629   -2.7919282   -2.7919282   -1.6250674   0.06695741   -2.7919282    1.1668608   563356 
 3908000    1.0058582   -2.7934088   -2.7934088   -1.6263212  0.074054327   -2.7934088    1.1670876   563356 
 3909000    1.0068306   -2.7943504   -2.7943504   -1.6261346  0.067830432   -2.7943504    1.1682157   563356 
 3910000    1.0045924   -2.7924193   -2.7924193   -1.6268005  0.071586891   -2.7924193    1.1656188   563356 
 3911000    1.0054352   -2.7930287   -2.7930287   -1.6264319  0.068101248   -2.7930287    1.1665968   563356 
 3912000    1.0065668   -2.7944597   -2.7944597     -1.62655  0.068483241   -2.7944597    1.1679097   563356 
 3913000    1.0075035   -2.7948413   -2.7948413   -1.6258448  0.066992823   -2.7948413    1.1689965   563356 
 3914000    1.0055019   -2.7924057   -2.7924057   -1.6257316  0.074296936   -2.7924057    1.1666741   563356 
 3915000    1.0056098   -2.7924218   -2.7924218   -1.6256225  0.067826033   -2.7924218    1.1667993   563356 
 3916000    1.0053163   -2.7921427   -2.7921427   -1.6256839  0.073417121   -2.7921427    1.1664588   563356 
 3917000    1.0062152   -2.7925611   -2.7925611   -1.6250593  0.072338648   -2.7925611    1.1675017   563356 
 3918000      1.00637   -2.7937706   -2.7937706   -1.6260892  0.069785649   -2.7937706    1.1676814   563356 
 3919000    1.0033727   -2.7904979   -2.7904979   -1.6262944  0.073762127   -2.7904979    1.1642036   563356 
 3920000    1.0048313   -2.7919674   -2.7919674   -1.6260714  0.076178818   -2.7919674     1.165896   563356 
 3921000    1.0076079   -2.7945166   -2.7945166   -1.6253989  0.065720011   -2.7945166    1.1691177   563356 
 3922000    1.0073706   -2.7948132   -2.7948132   -1.6259709  0.070577163   -2.7948132    1.1688423   563356 
 3923000    1.0076688   -2.7945394   -2.7945394   -1.6253512  0.068550998   -2.7945394    1.1691883   563356 
 3924000    1.0083698   -2.7953643   -2.7953643   -1.6253626  0.072177395   -2.7953643    1.1700017   563356 
 3925000    1.0060003   -2.7942291   -2.7942291   -1.6269766  0.071437061   -2.7942291    1.1672524   563356 
 3926000    1.0058833   -2.7934308   -2.7934308   -1.6263142  0.062997346   -2.7934308    1.1671166   563356 
 3927000    1.0058564   -2.7932549   -2.7932549   -1.6261695  0.059481426   -2.7932549    1.1670854   563356 
 3928000    1.0056941   -2.7934562   -2.7934562    -1.626559  0.057666838   -2.7934562    1.1668971   563356 
 3929000    1.0055669   -2.7922251   -2.7922251   -1.6254756  0.058006663   -2.7922251    1.1667495   563356 
 3930000    1.0049259   -2.7920502   -2.7920502   -1.6260445   0.06867305   -2.7920502    1.1660057   563356 
 3931000    1.0036802   -2.7914276   -2.7914276   -1.6268673  0.069928836   -2.7914276    1.1645603   563356 
 3932000    1.0056941   -2.7931523   -2.7931523   -1.6262552  0.071068685   -2.7931523    1.1668971   563356 
 3933000    1.0038426    -2.791775    -2.791775   -1.6270261  0.072277213    -2.791775    1.1647489   563356 
 3934000    1.0046574   -2.7903769   -2.7903769   -1.6246827  0.075667042   -2.7903769    1.1656942   563356 
 3935000    1.0058262   -2.7922878   -2.7922878   -1.6252375  0.059813178   -2.7922878    1.1670504   563356 
 3936000    1.0042408    -2.789446    -2.789446   -1.6242352  0.073816525    -2.789446    1.1652108   563356 
 3937000    1.0053997   -2.7909917   -2.7909917   -1.6244362  0.067867114   -2.7909917    1.1665555   563356 
 3938000    1.0048394   -2.7902442   -2.7902442   -1.6243387  0.066157784   -2.7902442    1.1659055   563356 
 3939000    1.0065442   -2.7921003   -2.7921003   -1.6242169  0.063970956   -2.7921003    1.1678834   563356 
 3940000    1.0050428   -2.7908136   -2.7908136   -1.6246722  0.068582233   -2.7908136    1.1661414   563356 
 3941000    1.0051913   -2.7906511   -2.7906511   -1.6243374  0.070439362   -2.7906511    1.1663137   563356 
 3942000    1.0058456   -2.7908842   -2.7908842   -1.6238113  0.077181734   -2.7908842    1.1670729   563356 
 3943000    1.0043936   -2.7906528   -2.7906528   -1.6252647  0.054208234   -2.7906528    1.1653881   563356 
 3944000    1.0050359    -2.790462    -2.790462   -1.6243287  0.062813236    -2.790462    1.1661334   563356 
 3945000    1.0059215   -2.7917366   -2.7917366   -1.6245757  0.070019471   -2.7917366    1.1671609   563356 
 3946000    1.0049654   -2.7906829   -2.7906829   -1.6246313  0.076923404   -2.7906829    1.1660516   563356 
 3947000    1.0047506   -2.7908905   -2.7908905   -1.6250881  0.062947241   -2.7908905    1.1658024   563356 
 3948000    1.0056525   -2.7910641   -2.7910641   -1.6242154  0.065363125   -2.7910641    1.1668488   563356 
 3949000    1.0056237   -2.7905213   -2.7905213   -1.6237059  0.061522613   -2.7905213    1.1668154   563356 
 3950000     1.006021   -2.7905268   -2.7905268   -1.6232504  0.067173154   -2.7905268    1.1672764   563356 
 3951000    1.0059591   -2.7908626   -2.7908626   -1.6236581  0.071583853   -2.7908626    1.1672045   563356 
 3952000    1.0059274   -2.7908891   -2.7908891   -1.6237214  0.076630157   -2.7908891    1.1671677   563356 
 3953000    1.0065303   -2.7918635   -2.7918635   -1.6239962  0.069475329   -2.7918635    1.1678674   563356 
 3954000    1.0051686   -2.7916133   -2.7916133   -1.6253259  0.059889299   -2.7916133    1.1662874   563356 
 3955000    1.0037979   -2.7896914   -2.7896914   -1.6249945  0.065492908   -2.7896914     1.164697   563356 
 3956000    1.0027971   -2.7894036   -2.7894036   -1.6258679  0.063457834   -2.7894036    1.1635357   563356 
 3957000    1.0043413   -2.7904823   -2.7904823   -1.6251548  0.066790599   -2.7904823    1.1653275   563356 
 3958000    1.0049099   -2.7910366   -2.7910366   -1.6250494  0.061694715   -2.7910366    1.1659872   563356 
 3959000    1.0036779   -2.7902403   -2.7902403   -1.6256826   0.07785425   -2.7902403    1.1645577   563356 
 3960000       1.0055   -2.7921762   -2.7921762   -1.6255043  0.065869227   -2.7921762    1.1666719   563356 
 3961000    1.0056838   -2.7929751   -2.7929751   -1.6260899  0.071005562   -2.7929751    1.1668851   563356 
 3962000      1.00522   -2.7918754   -2.7918754   -1.6255284  0.067924909   -2.7918754     1.166347   563356 
 3963000     1.005013   -2.7910818   -2.7910818   -1.6249749  0.073630283   -2.7910818    1.1661069   563356 
 3964000     1.005186   -2.7908237   -2.7908237   -1.6245161  0.075682771   -2.7908237    1.1663076   563356 
 3965000    1.0054999   -2.7914572   -2.7914572   -1.6247854  0.070294023   -2.7914572    1.1666718   563356 
 3966000    1.0051173   -2.7911643   -2.7911643   -1.6249364  0.069333295   -2.7911643    1.1662279   563356 
 3967000    1.0039046   -2.7906325   -2.7906325   -1.6258118  0.065842457   -2.7906325    1.1648207   563356 
 3968000     1.005226   -2.7927759   -2.7927759   -1.6264219   0.06616044   -2.7927759     1.166354   563356 
 3969000    1.0049049   -2.7927512   -2.7927512   -1.6267698  0.065627402   -2.7927512    1.1659814   563356 
 3970000    1.0049861   -2.7924526   -2.7924526   -1.6263769  0.058479936   -2.7924526    1.1660757   563356 
 3971000    1.0036785   -2.7914653   -2.7914653   -1.6269068  0.076054753   -2.7914653    1.1645585   563356 
 3972000    1.0031899   -2.7919249   -2.7919249   -1.6279333  0.067839016   -2.7919249    1.1639915   563356 
 3973000    1.0059427   -2.7945174   -2.7945174   -1.6273318  0.062597896   -2.7945174    1.1671856   563356 
 3974000    1.0053856   -2.7941383   -2.7941383   -1.6275992  0.060422361   -2.7941383    1.1665391   563356 
 3975000    1.0029712   -2.7918102   -2.7918102   -1.6280724  0.056671099   -2.7918102    1.1637378   563356 
 3976000    1.0031131   -2.7921193   -2.7921193   -1.6282169  0.060043605   -2.7921193    1.1639023   563356 
 3977000    1.0054938   -2.7941236   -2.7941236   -1.6274588  0.072456403   -2.7941236    1.1666648   563356 
 3978000    1.0042641   -2.7924284   -2.7924284   -1.6271905  0.076591212   -2.7924284    1.1652379   563356 
 3979000     1.004151   -2.7930533   -2.7930533   -1.6279466  0.062917548   -2.7930533    1.1651067   563356 
 3980000    1.0065843   -2.7948308   -2.7948308   -1.6269008  0.074148344   -2.7948308      1.16793   563356 
 3981000    1.0062008   -2.7946718   -2.7946718   -1.6271867   0.06866099   -2.7946718    1.1674851   563356 
 3982000    1.0064135   -2.7944757   -2.7944757   -1.6267439   0.06728135   -2.7944757    1.1677318   563356 
 3983000    1.0060531   -2.7948372   -2.7948372   -1.6275235  0.072149869   -2.7948372    1.1673136   563356 
 3984000    1.0061092   -2.7957079   -2.7957079   -1.6283291  0.071486605   -2.7957079    1.1673788   563356 
 3985000    1.0054706   -2.7950917   -2.7950917   -1.6284539  0.065163136   -2.7950917    1.1666378   563356 
 3986000    1.0056982   -2.7962249   -2.7962249   -1.6293231  0.065555255   -2.7962249    1.1669018   563356 
 3987000    1.0041472   -2.7952175   -2.7952175   -1.6301153  0.067681058   -2.7952175    1.1651022   563356 
 3988000    1.0046653   -2.7949975   -2.7949975   -1.6292941  0.069133492   -2.7949975    1.1657034   563356 
 3989000     1.005379   -2.7950589   -2.7950589   -1.6285273  0.075544184   -2.7950589    1.1665316   563356 
 3990000    1.0048616   -2.7940882   -2.7940882    -1.628157  0.066324703   -2.7940882    1.1659311   563356 
 3991000    1.0052152   -2.7947522   -2.7947522   -1.6284107  0.060328614   -2.7947522    1.1663414   563356 
 3992000    1.0049715   -2.7939869   -2.7939869   -1.6279282   0.05995469   -2.7939869    1.1660587   563356 
 3993000    1.0037533   -2.7915479   -2.7915479   -1.6269027  0.069274012   -2.7915479    1.1646452   563356 
 3994000    1.0049284   -2.7924269   -2.7924269   -1.6264183  0.066507783   -2.7924269    1.1660087   563356 
 3995000    1.0054313   -2.7936362   -2.7936362    -1.627044  0.074373112   -2.7936362    1.1665922   563356 
 3996000     1.005519   -2.7926896   -2.7926896   -1.6259957  0.070904475   -2.7926896    1.1666939   563356 
 3997000     1.005731   -2.7936774   -2.7936774   -1.6267376   0.06668239   -2.7936774    1.1669399   563356 
 3998000    1.0053691   -2.7922292   -2.7922292   -1.6257092  0.068405805   -2.7922292      1.16652   563356 
 3999000    1.0059013   -2.7918581   -2.7918581   -1.6247206   0.06542315   -2.7918581    1.1671375   563356 
 4000000    1.0074898    -2.793302    -2.793302   -1.6243214  0.070904441    -2.793302    1.1689806   563356 
Loop time of 7955.71 on 288 procs for 4000000 steps with 563356 atoms

Performance: 217202.396 tau/day, 502.783 timesteps/s
98.5% CPU use with 288 MPI tasks x 1 OpenMP threads

MPI task timing breakdown:
Section |  min time  |  avg time  |  max time  |%varavg|  %CPU | %total
-----------------------------------------------------------------------
Pair    | 1364.9     | 1931.4     | 2416.4     | 656.2 |  98.6 | 24.28
Bond    | 2.6359     | 2.7997     | 2.9548     |   3.6 | 100.0 |  0.04
Neigh   | 1011.4     | 1572.6     | 2455.2     | 686.5 |  99.5 | 19.77
Comm    | 1474       | 2644.7     | 3750.8     | 910.3 |  98.2 | 33.24
Output  | 226.77     | 228.29     | 231.41     |  11.0 |  97.4 |  2.87
Modify  | 837.38     | 1483.8     | 2300.7     | 978.3 |  98.3 | 18.65
Other   |            | 91.99      |            |       |       |  1.16

Nlocal:        1956.10 ave        2636 max        1445 min
Histogram: 2 23 43 71 67 29 25 18 8 2
Nghost:        5474.45 ave       10604 max        2267 min
Histogram: 26 53 33 36 43 40 32 18 6 1
Neighs:        45999.9 ave       59449 max       24659 min
Histogram: 4 12 14 25 39 35 38 50 47 24

Total # of neighbors = 13247974
Ave neighs/atom = 23.516167
Ave special neighs/atom = 0.0000000
Neighbor list builds = 400000
Dangerous builds = 396000

Total wall time: 2:12:40
