LAMMPS (24 Dec 2020)
OMP_NUM_THREADS environment is not set. Defaulting to 1 thread. (src/comm.cpp:94)
  using 1 OpenMP thread(s) per MPI task
# Simple rigid body system
# needed variables: startTemp, temp

units		lj
atom_style	full
dimension 	3
boundary	p p f
pair_style	lj/cut/opt 2.5

variable 	gcmcdisplace	equal 0
variable 	sigma		equal 1.0
variable 	epsilon 	equal 1.0


read_restart	restart.dat.3000000
Reading restart file ...
  restart file = 24 Dec 2020, LAMMPS = 24 Dec 2020
WARNING: Restart file used different # of processors: 48 vs. 192 (src/read_restart.cpp:697)
  restoring atom style full from restart
  orthogonal box = (0.0000000 0.0000000 0.0000000) to (80.000000 80.000000 160.00000)
  6 by 4 by 8 MPI processor grid
  restoring pair style lj/cut/opt from restart
  439061 atoms
Finding 1-2 1-3 1-4 neighbors ...
  special bond factors lj:    0        0        0       
  special bond factors coul:  0        0        0       
     0 = max # of 1-2 neighbors
     0 = max # of 1-3 neighbors
     0 = max # of 1-4 neighbors
     1 = max # of special neighbors
  special bonds CPU = 1.414 seconds
  read_restart CPU = 1.718 seconds

mass		1 1.0
mass		2 1.0
mass		3 1.0


group		solvent type 1
439061 atoms in group solvent


neighbor 	0.4 bin

pair_coeff	1 1 1.0 1.0
pair_coeff	2 2 0.0 0.0
pair_coeff	3 3 0.0 0.0
pair_coeff	2 3 0.0 0.0
pair_coeff	1 2*3 0.0 0.0

pair_modify 	shift yes


balance 	1.05 shift z 10 1.05
Balancing ...
Neighbor list info ...
  update every 1 steps, delay 10 steps, check yes
  max neighbors/atom: 2000, page size: 100000
  master list distance cutoff = 2.9
  ghost atom cutoff = 2.9
  binsize = 1.45, bins = 56 56 111
  1 neighbor lists, perpetual/occasional/extra = 1 0 0
  (1) pair lj/cut/opt, perpetual
      attributes: half, newton on
      pair build: half/bin/newton
      stencil: half/bin/3d/newton
      bin: standard
 rebalancing time: 0.025 seconds
  iteration count = 5
  initial/final maximal load/proc = 3162.0000 2575.0000
  initial/final imbalance factor  = 1.3827327 1.1260394
  x cuts: 0.0000000 0.16666667 0.33333333 0.50000000 0.66666667 0.83333333 1.0000000
  y cuts: 0.0000000 0.25000000 0.50000000 0.75000000 1.0000000
  z cuts: 0.0000000 0.097656250 0.18359375 0.27734375 0.37890625 0.47656250 0.57031250 0.67968750 1.0000000


####################### WALLS ###########################


variable       epsilonWall equal 2*${epsilon}
variable       epsilonWall equal 2*1

variable       cutoffTop   equal   0.7147*${sigma}
variable       cutoffTop   equal   0.7147*1

variable       cutoffLow   equal   3*${sigma}
variable       cutoffLow   equal   3*1


fix            topWall all wall/lj93 zhi EDGE                ${epsilonWall} ${sigma} ${cutoffTop} units box
fix            topWall all wall/lj93 zhi EDGE                2 ${sigma} ${cutoffTop} units box
fix            topWall all wall/lj93 zhi EDGE                2 1 ${cutoffTop} units box
fix            topWall all wall/lj93 zhi EDGE                2 1 0.7147 units box

fix            lowWall all wall/lj93 zlo EDGE                ${epsilonWall} ${sigma} ${cutoffLow} units box
fix            lowWall all wall/lj93 zlo EDGE                2 ${sigma} ${cutoffLow} units box
fix            lowWall all wall/lj93 zlo EDGE                2 1 ${cutoffLow} units box
fix            lowWall all wall/lj93 zlo EDGE                2 1 3 units box


###################### COMPUTES ##########################

compute        bin1 solvent chunk/atom bin/1d z upper 1.0



######################	FIXES ############################


fix 		peclet solvent ave/chunk 1000 1 1000 bin1 density/number norm 		 none ave one file density.profile

fix 		 temp solvent ave/chunk 1000 1 1000 bin1 temp norm none ave one file temp.profile

fix 		2 solvent nve

## Thermostat


region		regthermo block EDGE EDGE EDGE EDGE 0 20

group 		thermo dynamic solvent region regthermo every 1000
dynamic group thermo defined

fix 		3 thermo langevin ${startTemp} ${temp} 10 156453
fix 		3 thermo langevin 1.0 ${temp} 10 156453
fix 		3 thermo langevin 1.0 1.0 10 156453


## Evaporation

region		regevap block EDGE EDGE EDGE EDGE 140 158
fix 		gcmc solvent gcmc 100 100 0 1 780493 ${temp} ${mu} ${gcmcdisplace} region regevap
fix 		gcmc solvent gcmc 100 100 0 1 780493 1.0 ${mu} ${gcmcdisplace} region regevap
fix 		gcmc solvent gcmc 100 100 0 1 780493 1.0 -2.5 ${gcmcdisplace} region regevap
fix 		gcmc solvent gcmc 100 100 0 1 780493 1.0 -2.5 0 region regevap


#### Load balancing

fix 		bal all balance 1000 1.05 shift z 10 1.05

############### Diagnostics and computes ###################
#compute 	com cube	  rigid/local	1 mol x y z
#compute 	quat cube	  rigid/local	1 mol quatw quati quatj quatk

thermo 		1000
thermo_style 	custom step temp epair etotal press pe ke atoms

dump		1 all custom 100000 dump.lammpstrj id mol type x y z
dump 		2 all image 10000 image.*.png type type
dump 		3 all movie 1000 movie.avi type type
#dump 		com cube local 1000 dump.*.xyz c_com[*]
#dump		quat cube      local 1000 dump.*.quat c_quat[*]


restart 	1000000 restart.dat
timestep 	0.005
timer 		full
New timer settings: style=full  mode=nosync  timeout=off


run		5000000
Per MPI rank memory allocation (min/avg/max) = 9.923 | 9.986 | 10.01 Mbytes
Step Temp E_pair TotEng Press PotEng KinEng Atoms 
 3000000     1.016004   -3.1352716   -1.6112691  0.079025997   -3.1352716    1.5240025   439061 
 3001000    1.0155141   -3.1342178    -1.611401  0.073797462   -3.1342178    1.5228168   439191 
 3002000    1.0164841   -3.1356474    -1.611782   0.07626741   -3.1356474    1.5238654   439308 
 3003000    1.0169914   -3.1350211   -1.6107284  0.075269314   -3.1350211    1.5242928   439404 
 3004000    1.0165568   -3.1324943   -1.6093693  0.074971452   -3.1324943     1.523125   439553 
 3005000     1.017708   -3.1348445   -1.6104629  0.077161367   -3.1348445    1.5243816   439688 
 3006000    1.0172461   -3.1333421   -1.6100576   0.07346905   -3.1333421    1.5232844   439805 
 3007000    1.0159443   -3.1309041   -1.6098424  0.079162647   -3.1309041    1.5210618   439884 
 3008000    1.0160914   -3.1317897   -1.6108223  0.075980512   -3.1317897    1.5209673   439975 
 3009000    1.0160597   -3.1303178   -1.6097746  0.073254571   -3.1303178    1.5205432   440084 
 3010000    1.0176853   -3.1322017   -1.6096098  0.077828965   -3.1322017     1.522592   440195 
 3011000    1.0199072   -3.1342877   -1.6087458  0.073066579   -3.1342877    1.5255419   440303 
 3012000    1.0193867   -3.1322419   -1.6078351  0.073122602   -3.1322419    1.5244068   440406 
 3013000    1.0203383   -3.1313851   -1.6059502  0.079582751   -3.1313851    1.5254349   440520 
 3014000    1.0208389   -3.1295144   -1.6038782  0.079042595   -3.1295144    1.5256362   440678 
 3015000    1.0220771   -3.1324941   -1.6054787  0.079448298   -3.1324941    1.5270154   440814 
 3016000    1.0223263   -3.1334007   -1.6062312  0.075179016   -3.1334007    1.5271694   440877 
 3017000    1.0221609   -3.1326659   -1.6060968  0.078461695   -3.1326659    1.5265691   440979 
 3018000    1.0236403   -3.1336855   -1.6053956  0.076612732   -3.1336855    1.5282899   441120 
 3019000    1.0239118   -3.1314527   -1.6032632  0.084676887   -3.1314527    1.5281894   441266 
 3020000    1.0247912   -3.1333758   -1.6042724  0.075171992   -3.1333758    1.5291034   441381 
 3021000    1.0244141   -3.1327154   -1.6044377   0.07935412   -3.1327154    1.5282777   441457 
 3022000    1.0247503   -3.1318978   -1.6033782  0.085060758   -3.1318978    1.5285196   441532 
 3023000    1.0243079   -3.1297186   -1.6021842  0.085451769   -3.1297186    1.5275344   441626 
 3024000    1.0263819   -3.1330317   -1.6027577  0.077881856   -3.1330317     1.530274   441728 
 3025000    1.0256439   -3.1310605   -1.6023021  0.079769342   -3.1310605    1.5287584   441848 
 3026000     1.026425    -3.131196   -1.6015331  0.083312128    -3.131196    1.5296629   441923 
 3027000    1.0288519   -3.1333936     -1.60044  0.083732412   -3.1333936    1.5329536   442017 
 3028000    1.0271006   -3.1299445   -1.6000224  0.083487039   -3.1299445     1.529922   442139 
 3029000    1.0293905   -3.1330415   -1.6000656  0.085628922   -3.1330415    1.5329759   442242 
 3030000    1.0280401   -3.1302435   -1.5997286  0.081473641   -3.1302435    1.5305149   442372 
 3031000    1.0294791   -3.1307272   -1.5984198  0.084435705   -3.1307272    1.5323074   442473 
 3032000    1.0290497   -3.1287698   -1.5975411  0.080684847   -3.1287698    1.5312287   442600 
 3033000    1.0294526   -3.1283107   -1.5968596  0.081416854   -3.1283107    1.5314511   442709 
 3034000    1.0283992   -3.1279804    -1.598435  0.083267449   -3.1279804    1.5295454   442807 
 3035000    1.0287856    -3.128279   -1.5985804  0.082381768    -3.128279    1.5296986   442929 
 3036000    1.0299462   -3.1283655   -1.5973248  0.081905322   -3.1283655    1.5310407   443040 
 3037000      1.02921    -3.126593   -1.5968297  0.084914066    -3.126593    1.5297633   443093 
 3038000    1.0279463   -3.1235892   -1.5960523  0.076828708   -3.1235892    1.5275369   443194 
 3039000    1.0290016   -3.1238373   -1.5950668  0.077529466   -3.1238373    1.5287704   443291 
 3040000    1.0302442   -3.1238177   -1.5936706  0.083081097   -3.1238177     1.530147   443427 
 3041000    1.0297549   -3.1233154   -1.5942329  0.076536328   -3.1233154    1.5290825   443525 
 3042000     1.029268   -3.1221124   -1.5942145  0.083441234   -3.1221124    1.5278979   443659 
 3043000    1.0294162   -3.1220829   -1.5943681  0.082102829   -3.1220829    1.5277149   443776 
 3044000     1.030686   -3.1242568   -1.5950089  0.075279473   -3.1242568     1.529248   443878 
 3045000    1.0301287    -3.122873   -1.5947721  0.083583554    -3.122873    1.5281008   443971 
 3046000    1.0316095   -3.1253738   -1.5953796  0.077419665   -3.1253738    1.5299941   444059 
 3047000    1.0310226    -3.123922   -1.5951872  0.076504091    -3.123922    1.5287348   444172 
 3048000    1.0324521   -3.1234292   -1.5929676  0.080572949   -3.1234292    1.5304616   444286 
 3049000    1.0325026   -3.1223921   -1.5924205  0.086112298   -3.1223921    1.5299716   444450 
 3050000     1.034758   -3.1246473   -1.5916716  0.084690683   -3.1246473    1.5329757   444548 
 3051000     1.034592    -3.124802   -1.5924446  0.081671473    -3.124802    1.5323574   444656 
 3052000    1.0340444   -3.1236111   -1.5923677   0.08549696   -3.1236111    1.5312434   444744 
 3053000    1.0349284   -3.1256476   -1.5933709  0.081806107   -3.1256476    1.5322767   444824 
 3054000    1.0346603   -3.1230222   -1.5915452  0.084908909   -3.1230222     1.531477   444941 
 3055000    1.0361237   -3.1246003   -1.5912777  0.084557265   -3.1246003    1.5333226   445034 
 3056000    1.0350675   -3.1220357   -1.5906752  0.084878522   -3.1220357    1.5313605   445150 
 3057000    1.0359804   -3.1248591   -1.5924888  0.082999626   -3.1248591    1.5323702   445249 
 3058000    1.0359487    -3.123772   -1.5919062  0.083804379    -3.123772    1.5318658   445382 
 3059000    1.0357374   -3.1236272   -1.5923868  0.083339695   -3.1236272    1.5312405   445473 
 3060000    1.0378471   -3.1273193   -1.5934109  0.076012301   -3.1273193    1.5339084   445604 
 3061000    1.0364851   -3.1234888   -1.5918855  0.086183111   -3.1234888    1.5316033   445689 
 3062000    1.0368497    -3.123343   -1.5915447  0.079963688    -3.123343    1.5317983   445789 
 3063000    1.0374176   -3.1233077   -1.5910072  0.090329642   -3.1233077    1.5323005   445887 
 3064000    1.0381026   -3.1250678    -1.592206  0.089019552   -3.1250678    1.5328619   446018 
 3065000     1.038545   -3.1257637   -1.5924169  0.085183454   -3.1257637    1.5333467   446067 
 3066000    1.0385617   -3.1255611    -1.592561  0.082988945   -3.1255611    1.5330001   446175 
 3067000    1.0382338   -3.1233029   -1.5912229  0.087596387   -3.1233029    1.5320801   446302 
 3068000    1.0402528   -3.1270967   -1.5923639  0.082955672   -3.1270967    1.5347327   446397 
 3069000    1.0406198   -3.1274677   -1.5924033   0.08184664   -3.1274677    1.5350644   446458 
 3070000    1.0396165   -3.1254255   -1.5920987  0.085850908   -3.1254255    1.5333269   446533 
 3071000    1.0393157   -3.1242616   -1.5916942  0.086957045   -3.1242616    1.5325674   446625 
 3072000    1.0397941   -3.1232887   -1.5904174  0.092357922   -3.1232887    1.5328713   446742 
 3073000    1.0396162   -3.1237608   -1.5914125  0.086639514   -3.1237608    1.5323484   446818 
 3074000    1.0406356   -3.1251035   -1.5915375  0.089320793   -3.1251035     1.533566   446901 
 3075000    1.0409323   -3.1249419   -1.5913743  0.089165846   -3.1249419    1.5335676   447028 
 3076000    1.0413297   -3.1248293   -1.5910264  0.083469154   -3.1248293    1.5338029   447130 
 3077000    1.0418738   -3.1256281   -1.5913703  0.090613621   -3.1256281    1.5342579   447231 
 3078000    1.0427477   -3.1254087    -1.590166  0.082095835   -3.1254087    1.5352427   447319 
 3079000    1.0426353   -3.1242729   -1.5894738  0.082872217   -3.1242729    1.5347992   447400 
 3080000    1.0441425   -3.1245443    -1.587887  0.081590513   -3.1245443    1.5366573   447505 
 3081000    1.0433631   -3.1238827   -1.5887498   0.08345933   -3.1238827    1.5351329   447615 
 3082000    1.0440451   -3.1233761    -1.587576  0.082862092   -3.1233761    1.5358001   447713 
 3083000    1.0428643    -3.122574   -1.5888158  0.086224385    -3.122574    1.5337582   447802 
 3084000    1.0435177   -3.1229205   -1.5884412  0.085032511   -3.1229205    1.5344793   447872 
 3085000     1.043927   -3.1225445   -1.5877923  0.084497446   -3.1225445    1.5347522   447968 
 3086000    1.0445116   -3.1227043   -1.5874901  0.085697623   -3.1227043    1.5352142   448084 
 3087000    1.0454164   -3.1228175    -1.586541  0.080697585   -3.1228175    1.5362766   448162 
 3088000    1.0459075   -3.1218827   -1.5852855  0.086646484   -3.1218827    1.5365972   448279 
 3089000    1.0452917   -3.1203369   -1.5849458  0.084515641   -3.1203369    1.5353911   448367 
 3090000    1.0450861   -3.1183449   -1.5836119  0.090412676   -3.1183449     1.534733   448471 
 3091000    1.0457883   -3.1190933   -1.5836373  0.089769323   -3.1190933     1.535456   448561 
 3092000    1.0450682   -3.1176878   -1.5836446   0.08583967   -3.1176878    1.5340432   448665 
 3093000    1.0478548   -3.1209444   -1.5831091  0.085365758   -3.1209444    1.5378353   448752 
 3094000    1.0471175   -3.1191725   -1.5828299  0.089996724   -3.1191725    1.5363425   448872 
 3095000    1.0467907   -3.1185128   -1.5828961  0.089414262   -3.1185128    1.5356166   448944 
 3096000    1.0466716   -3.1180825   -1.5828559  0.087535037   -3.1180825    1.5352265   449007 
 3097000    1.0464846   -3.1176159   -1.5829474  0.090676697   -3.1176159    1.5346685   449090 
 3098000     1.045412   -3.1154991   -1.5826767  0.084763213   -3.1154991    1.5328225   449170 
 3099000    1.0473502    -3.116264   -1.5809245  0.084266645    -3.116264    1.5353396   449265 
 3100000    1.0473279   -3.1146266   -1.5798321  0.093593743   -3.1146266    1.5347945   449415 
 3101000    1.0480058    -3.114507   -1.5789378   0.08667786    -3.114507    1.5355692   449479 
 3102000    1.0473215   -3.1142772   -1.5800144  0.081043855   -3.1142772    1.5342628   449568 
 3103000    1.0483554   -3.1141229   -1.5787041  0.089192963   -3.1141229    1.5354188   449673 
 3104000    1.0474367   -3.1137699   -1.5798501  0.081452891   -3.1137699    1.5339198   449718 
 3105000    1.0467703   -3.1113822   -1.5785848  0.091592437   -3.1113822    1.5327974   449761 
 3106000     1.048335   -3.1136289   -1.5787826  0.087943309   -3.1136289    1.5348463   449832 
 3107000    1.0505242   -3.1157474   -1.5779832  0.086547695   -3.1157474    1.5377642   449916 
 3108000    1.0483777   -3.1140443   -1.5797666  0.089585346   -3.1140443    1.5342777   450017 
 3109000    1.0498933   -3.1167916   -1.5805859  0.085118262   -3.1167916    1.5362057   450102 
 3110000    1.0494973   -3.1161116   -1.5807787  0.085184838   -3.1161116    1.5353328   450188 
 3111000    1.0502468   -3.1157262   -1.5796415  0.086786698   -3.1157262    1.5360847   450289 
 3112000    1.0518071   -3.1171311   -1.5791196  0.085274924   -3.1171311    1.5380115   450393 
 3113000    1.0521443     -3.11661   -1.5784708  0.088960674     -3.11661    1.5381392   450500 
 3114000    1.0514203   -3.1170716   -1.5802023  0.085006251   -3.1170716    1.5368692   450562 
 3115000    1.0514669   -3.1160453   -1.5793978  0.085067645   -3.1160453    1.5366475   450647 
 3116000    1.0526237   -3.1169112   -1.5788667   0.08351707   -3.1169112    1.5380445   450733 
 3117000    1.0521896   -3.1162426    -1.579112  0.088536248   -3.1162426    1.5371306   450815 
 3118000    1.0530685   -3.1176749   -1.5795129  0.088782969   -3.1176749    1.5381621   450889 
 3119000    1.0530958   -3.1172743   -1.5793998  0.087632239   -3.1172743    1.5378745   450985 
 3120000    1.0532448   -3.1159196   -1.5782229  0.086183639   -3.1159196    1.5376967   451101 
 3121000    1.0541927   -3.1169694   -1.5782334  0.092585883   -3.1169694     1.538736   451202 
 3122000    1.0546549   -3.1157207   -1.5765419  0.088658976   -3.1157207    1.5391788   451270 
 3123000    1.0540345   -3.1146614   -1.5767255  0.087143385   -3.1146614    1.5379359   451369 
 3124000    1.0560165   -3.1161709   -1.5756093  0.084321042   -3.1161709    1.5405616   451447 
 3125000    1.0551078   -3.1153815   -1.5764217  0.089604333   -3.1153815    1.5389598   451528 
 3126000    1.0545694   -3.1138311   -1.5760108  0.088982463   -3.1138311    1.5378203   451632 
 3127000    1.0552266   -3.1147219   -1.5761408  0.088429744   -3.1147219    1.5385811   451690 
 3128000    1.0546643   -3.1141317   -1.5765202  0.088911406   -3.1141317    1.5376115   451734 
 3129000    1.0539279   -3.1130255   -1.5766713  0.093634559   -3.1130255    1.5363542   451788 
 3130000    1.0571622    -3.115607   -1.5748995  0.091792636    -3.115607    1.5407075   451894 
 3131000    1.0557338   -3.1142318   -1.5759465  0.086828517   -3.1142318    1.5382853   451994 
 3132000    1.0555931   -3.1139301   -1.5760063   0.08744674   -3.1139301    1.5379238   452040 
 3133000    1.0550988   -3.1117248   -1.5748306  0.089425326   -3.1117248    1.5368942   452131 
 3134000    1.0552144   -3.1129794   -1.5762022  0.083383875   -3.1129794    1.5367771   452215 
 3135000    1.0550681   -3.1130168   -1.5767347  0.086791758   -3.1130168    1.5362821   452298 
 3136000    1.0536732   -3.1116174   -1.5776242  0.086203659   -3.1116174    1.5339932   452374 
 3137000    1.0547114    -3.113694   -1.5785252  0.079444141    -3.113694    1.5351687   452473 
 3138000    1.0557241    -3.112746   -1.5763613  0.087448475    -3.112746    1.5363847   452549 
 3139000      1.05616   -3.1121817   -1.5753427  0.089912649   -3.1121817    1.5368391   452602 
 3140000    1.0557557   -3.1117929   -1.5756304  0.087493847   -3.1117929    1.5361625   452628 
 3141000    1.0552489   -3.1102312   -1.5751113  0.088667924   -3.1102312    1.5351199   452718 
 3142000    1.0584971   -3.1131233   -1.5736182  0.085894165   -3.1131233    1.5395051   452818 
 3143000    1.0564671   -3.1102174   -1.5739667  0.091433452   -3.1102174    1.5362506   452907 
 3144000     1.058535   -3.1125997   -1.5737361  0.083012849   -3.1125997    1.5388636   453023 
 3145000    1.0586364    -3.113067    -1.574304  0.084469646    -3.113067     1.538763   453096 
 3146000    1.0567487   -3.1098257   -1.5741557  0.086017058   -3.1098257    1.5356701   453199 
 3147000    1.0581062   -3.1113234   -1.5740672  0.082068029   -3.1113234    1.5372561   453313 
 3148000    1.0590505   -3.1132919   -1.5749184  0.088514336   -3.1132919    1.5383735   453388 
 3149000    1.0583276    -3.112326   -1.5753213  0.086854662    -3.112326    1.5370047   453482 
 3150000    1.0583588   -3.1130157   -1.5762843  0.085184438   -3.1130157    1.5367314   453576 
 3151000    1.0596193   -3.1149006   -1.5766339  0.085812147   -3.1149006    1.5382667   453663 
 3152000     1.058509   -3.1115846   -1.5752413  0.090653328   -3.1115846    1.5363433   453755 
 3153000    1.0592481   -3.1118168   -1.5747327  0.084964596   -3.1118168    1.5370841   453853 
 3154000    1.0590016   -3.1116511   -1.5751753  0.082769419   -3.1116511    1.5364758   453927 
 3155000    1.0599662   -3.1117168   -1.5741937  0.091240243   -3.1117168     1.537523   454031 
 3156000    1.0604117   -3.1116277   -1.5737938  0.087977816   -3.1116277    1.5378339   454130 
 3157000     1.061415   -3.1124488   -1.5735564   0.08776826   -3.1124488    1.5388925   454247 
 3158000    1.0610915   -3.1116712   -1.5735626  0.089203848   -3.1116712    1.5381086   454340 
 3159000    1.0631707   -3.1143262   -1.5734411  0.090376097   -3.1143262    1.5408851   454410 
 3160000    1.0619688   -3.1124797   -1.5736041  0.092855677   -3.1124797    1.5388756   454489 
 3161000    1.0621285   -3.1136462    -1.574854  0.089172532   -3.1136462    1.5387922   454582 
 3162000    1.0619662   -3.1138389   -1.5755661  0.088636152   -3.1138389    1.5382728   454666 
 3163000    1.0625638    -3.113559   -1.5747015  0.090808176    -3.113559    1.5388575   454749 
 3164000    1.0632949   -3.1135412   -1.5738586  0.090011767   -3.1135412    1.5396827   454818 
 3165000    1.0635881   -3.1124533    -1.572512  0.093819067   -3.1124533    1.5399413   454867 
 3166000    1.0639231   -3.1132037   -1.5730009   0.09197464   -3.1132037    1.5402029   454933 
 3167000    1.0641692   -3.1147488   -1.5744369  0.087890354   -3.1147488     1.540312   455006 
 3168000    1.0636886   -3.1138323   -1.5744495  0.090387587   -3.1138323    1.5393829   455075 
 3169000    1.0639539   -3.1129951   -1.5735361   0.09119214   -3.1129951     1.539459   455166 
 3170000    1.0642211   -3.1123655   -1.5727735  0.095354721   -3.1123655     1.539592   455241 
 3171000    1.0645066   -3.1150226   -1.5752983  0.096493023   -3.1150226    1.5397243   455324 
 3172000    1.0647889   -3.1151342   -1.5753972  0.087776482   -3.1151342     1.539737   455441 
 3173000    1.0644434   -3.1130119   -1.5741024  0.088043364   -3.1130119    1.5389095   455538 
 3174000    1.0637228   -3.1100595   -1.5725529   0.08670022   -3.1100595    1.5375066   455645 
 3175000    1.0653063   -3.1130118    -1.573453   0.09166457   -3.1130118    1.5395588   455715 
 3176000    1.0649489   -3.1104329   -1.5717349  0.092060409   -3.1104329     1.538698   455817 
 3177000    1.0646306   -3.1100005   -1.5721302  0.091655311   -3.1100005    1.5378703   455926 
 3178000    1.0665881   -3.1099827   -1.5695686   0.08946137   -3.1099827    1.5404141   456010 
 3179000    1.0663663   -3.1098551   -1.5700484  0.087406485   -3.1098551    1.5398068   456095 
 3180000    1.0670451   -3.1106888   -1.5701181   0.08644386   -3.1106888    1.5405707   456159 
 3181000    1.0665589   -3.1102826   -1.5706366  0.086824176   -3.1102826     1.539646   456225 
 3182000     1.065954   -3.1085886   -1.5702102  0.090888384   -3.1085886    1.5383784   456342 
 3183000    1.0678307    -3.108798    -1.567988  0.093112509    -3.108798      1.54081   456424 
 3184000    1.0677516   -3.1088023   -1.5684002  0.090395748   -3.1088023    1.5404021   456511 
 3185000    1.0688565   -3.1100752   -1.5683763  0.090698513   -3.1100752     1.541699   456599 
 3186000    1.0673591      -3.1066   -1.5673104  0.093009515      -3.1066    1.5392897   456673 
 3187000    1.0672846   -3.1075139    -1.568645  0.089491694   -3.1075139    1.5388689   456766 
 3188000    1.0689576   -3.1100649   -1.5691178  0.088150696   -3.1100649    1.5409471   456865 
 3189000    1.0670891   -3.1076882     -1.56964  0.088945696   -3.1076882    1.5380482   456926 
 3190000    1.0688374   -3.1087647   -1.5684023  0.088236807   -3.1087647    1.5403624   456987 
 3191000    1.0678531   -3.1068144   -1.5681903  0.088842985   -3.1068144    1.5386241   457082 
 3192000    1.0679708   -3.1062831   -1.5677251  0.091286916   -3.1062831    1.5385581   457152 
 3193000    1.0702998   -3.1096204   -1.5679904  0.085920847   -3.1096204    1.5416301   457236 
 3194000    1.0690677   -3.1071702    -1.567665  0.087270963   -3.1071702    1.5395052   457340 
 3195000    1.0691891   -3.1060139   -1.5665965  0.089849474   -3.1060139    1.5394174   457418 
 3196000    1.0715704   -3.1090653   -1.5664756  0.091118649   -3.1090653    1.5425898   457494 
 3197000    1.0720138   -3.1085269   -1.5656867  0.090403891   -3.1085269    1.5428402   457609 
 3198000    1.0721969   -3.1066223   -1.5637916  0.093527385   -3.1066223    1.5428307   457690 
 3199000    1.0714526   -3.1053879   -1.5638405  0.094294488   -3.1053879    1.5415474   457753 
 3200000    1.0712024    -3.104559   -1.5636004  0.093529763    -3.104559    1.5409586   457821 
 3201000     1.072855   -3.1075649   -1.5644548  0.090243696   -3.1075649    1.5431101   457888 
 3202000    1.0730987   -3.1075043   -1.5643806  0.095030336   -3.1075043    1.5431236   457988 
 3203000    1.0733125   -3.1075267   -1.5644259  0.089743466   -3.1075267    1.5431008   458086 
 3204000    1.0722827   -3.1063901   -1.5651636  0.094257341   -3.1063901    1.5412266   458203 
 3205000    1.0726864   -3.1080285   -1.5665546  0.086897948   -3.1080285    1.5414739   458302 
 3206000    1.0726548   -3.1074104   -1.5662073  0.088209931   -3.1074104    1.5412032   458369 
 3207000    1.0706545   -3.1037609    -1.565764  0.097005568   -3.1037609    1.5379969   458468 
 3208000    1.0707847   -3.1055203   -1.5676417   0.08888186   -3.1055203    1.5378786   458559 
 3209000    1.0708047   -3.1066416   -1.5690528   0.08848428   -3.1066416    1.5375888   458654 
 3210000    1.0706855   -3.1054859   -1.5682156   0.09158121   -3.1054859    1.5372703   458698 
 3211000     1.072637    -3.107539   -1.5676951  0.088392054    -3.107539    1.5398439   458766 
 3212000    1.0716882   -3.1063706   -1.5680296   0.09467362   -3.1063706     1.538341   458808 
 3213000    1.0724989   -3.1074632   -1.5683443  0.089463354   -3.1074632    1.5391188   458923 
 3214000    1.0724765    -3.108199   -1.5694174  0.090410852    -3.108199    1.5387816   459014 
 3215000    1.0758371   -3.1108195   -1.5674414  0.088689825   -3.1108195    1.5433782   459081 
 3216000    1.0738643   -3.1082946   -1.5680117  0.089352251   -3.1082946    1.5402829   459160 
 3217000    1.0761604   -3.1102436   -1.5669228  0.090262161   -3.1102436    1.5433209   459236 
 3218000    1.0757861   -3.1095616   -1.5670462   0.09325572   -3.1095616    1.5425154   459316 
 3219000    1.0755826   -3.1097559   -1.5678177  0.089808253   -3.1097559    1.5419381   459401 
 3220000    1.0748925   -3.1092497   -1.5685591   0.09536663   -3.1092497    1.5406906   459478 
 3221000    1.0735857   -3.1080263   -1.5694833   0.09159004   -3.1080263     1.538543   459560 
 3222000    1.0754665   -3.1100935   -1.5691636  0.093253161   -3.1100935    1.5409299   459652 
 3223000    1.0749332   -3.1091174   -1.5691594  0.089818794   -3.1091174     1.539958   459714 
 3224000     1.076336   -3.1103092   -1.5686065   0.08886747   -3.1103092    1.5417028   459793 
 3225000    1.0759145    -3.110071   -1.5692166  0.089628682    -3.110071    1.5408543   459866 
 3226000     1.076641   -3.1105639   -1.5689473  0.087754744   -3.1105639    1.5416165   459949 
 3227000     1.075548   -3.1078565   -1.5680863  0.090446507   -3.1078565    1.5397703   460033 
 3228000    1.0787062   -3.1122657   -1.5683063  0.093601479   -3.1122657    1.5439594   460132 
 3229000    1.0794698   -3.1113699   -1.5664955  0.094993643   -3.1113699    1.5448743   460185 
 3230000    1.0787683   -3.1103865   -1.5668146  0.093400861   -3.1103865    1.5435719   460274 
 3231000    1.0762082   -3.1090954   -1.5694609  0.091149381   -3.1090954    1.5396345   460356 
 3232000    1.0774025    -3.109843   -1.5688682  0.093914187    -3.109843    1.5409749   460466 
 3233000    1.0785684    -3.111975   -1.5696274   0.08959167    -3.111975    1.5423476   460554 
 3234000    1.0783983   -3.1099498   -1.5681634   0.09303221   -3.1099498    1.5417863   460649 
 3235000    1.0789951   -3.1101331    -1.567758  0.091923478   -3.1101331    1.5423751   460728 
 3236000    1.0788303   -3.1098842   -1.5680259  0.091105725   -3.1098842    1.5418583   460812 
 3237000     1.080476   -3.1114668   -1.5675747  0.091064443   -3.1114668    1.5438921   460907 
 3238000    1.0794749   -3.1098674   -1.5678038  0.092120726   -3.1098674    1.5420636   461026 
 3239000    1.0777282   -3.1069598   -1.5676719  0.091141945   -3.1069598    1.5392879   461110 
 3240000    1.0806787   -3.1105023   -1.5672346  0.090131747   -3.1105023    1.5432677   461180 
 3241000    1.0801826   -3.1102537   -1.5678985  0.094343621   -3.1102537    1.5423552   461241 
 3242000      1.08048   -3.1097683   -1.5672393  0.088307946   -3.1097683     1.542529   461316 
 3243000    1.0814256   -3.1099156   -1.5662674  0.098424407   -3.1099156    1.5436481   461385 
 3244000    1.0828542   -3.1106469   -1.5653214  0.090327033   -3.1106469    1.5453255   461493 
 3245000    1.0818601   -3.1079706   -1.5644951  0.098353865   -3.1079706    1.5434755   461622 
 3246000    1.0814975   -3.1073339   -1.5645996  0.096859664   -3.1073339    1.5427342   461689 
 3247000    1.0832501    -3.109031   -1.5640878  0.088417354    -3.109031    1.5449432   461776 
 3248000    1.0837367   -3.1084327   -1.5630933  0.090266845   -3.1084327    1.5453394   461865 
 3249000    1.0837482   -3.1082575   -1.5631193  0.086293426   -3.1082575    1.5451383   461930 
 3250000    1.0827692   -3.1065595   -1.5631177  0.092907811   -3.1065595    1.5434418   462020 
 3251000    1.0830416   -3.1077341   -1.5641012   0.08869752   -3.1077341    1.5436329   462079 
 3252000    1.0845848   -3.1075923   -1.5621378  0.093028005   -3.1075923    1.5454544   462192 
 3253000    1.0835069   -3.1050914   -1.5613732  0.095798768   -3.1050914    1.5437182   462252 
 3254000    1.0838468   -3.1054703    -1.561565  0.098857753   -3.1054703    1.5439052   462341 
 3255000    1.0839539   -3.1049746   -1.5611339   0.09610871   -3.1049746    1.5438407   462406 
 3256000    1.0822078   -3.1029802   -1.5619397    0.0941344   -3.1029802    1.5410405   462500 
 3257000    1.0838372   -3.1051325   -1.5620687  0.095623397   -3.1051325    1.5430638   462589 
 3258000    1.0842265   -3.1061683   -1.5626938   0.09049095   -3.1061683    1.5434746   462632 
 3259000    1.0824236   -3.1027883   -1.5621301  0.093713056   -3.1027883    1.5406582   462707 
 3260000    1.0853312   -3.1066421   -1.5620991  0.085367424   -3.1066421     1.544543   462783 
 3261000    1.0852374   -3.1061711   -1.5620318  0.096167147   -3.1061711    1.5441393   462864 
 3262000    1.0846328   -3.1060336   -1.5629946  0.091242866   -3.1060336    1.5430391   462936 
 3263000    1.0833294   -3.1051804   -1.5642252  0.086535636   -3.1051804    1.5409551   463005 
 3264000    1.0850442   -3.1057417   -1.5625608  0.093309217   -3.1057417    1.5431809   463069 
 3265000    1.0859882   -3.1063886   -1.5619751  0.094313359   -3.1063886    1.5444135   463102 
 3266000    1.0863614   -3.1072553   -1.5624812   0.09292798   -3.1072553    1.5447741   463153 
 3267000    1.0848864   -3.1047787   -1.5624316  0.095242843   -3.1047787     1.542347   463252 
 3268000    1.0863829   -3.1069648   -1.5626403  0.093650485   -3.1069648    1.5443245   463297 
 3269000    1.0862126   -3.1084007   -1.5644949  0.092160987   -3.1084007    1.5439058   463350 
 3270000    1.0889002   -3.1101393   -1.5627307  0.099498886   -3.1101393    1.5474086   463445 
 3271000    1.0877528    -3.109663    -1.564135  0.091955226    -3.109663     1.545528   463520 
 3272000    1.0881504   -3.1108614   -1.5649953   0.08918902   -3.1108614    1.5458661   463588 
 3273000    1.0875546   -3.1101657   -1.5653393  0.096792288   -3.1101657    1.5448264   463646 
 3274000     1.087312   -3.1088921   -1.5645669  0.092673801   -3.1088921    1.5443252   463693 
 3275000    1.0868393   -3.1076343   -1.5642168  0.096771896   -3.1076343    1.5434175   463764 
 3276000    1.0872975   -3.1085338   -1.5647319  0.097994946   -3.1085338    1.5438019   463844 
 3277000     1.088229   -3.1081537   -1.5633089   0.09441639   -3.1081537    1.5448448   463928 
 3278000    1.0875179    -3.106705   -1.5631326  0.094572419    -3.106705    1.5435724   464007 
 3279000    1.0888825   -3.1086552   -1.5633957  0.093360482   -3.1086552    1.5452595   464082 
 3280000    1.0915491   -3.1108379   -1.5620044  0.097319025   -3.1108379    1.5488334   464145 
 3281000    1.0901133   -3.1079752   -1.5614223  0.096874891   -3.1079752    1.5465529   464218 
 3282000    1.0911228   -3.1098867   -1.5622217  0.091252696   -3.1098867    1.5476651   464314 
 3283000    1.0882164   -3.1050764   -1.5617465  0.097510906   -3.1050764    1.5433299   464378 
 3284000    1.0904545   -3.1079339   -1.5615398  0.091905404   -3.1079339    1.5463941   464411 
 3285000     1.091182   -3.1085639   -1.5613913   0.09143666   -3.1085639    1.5471726   464487 
 3286000     1.090567   -3.1070014   -1.5609804  0.095900161   -3.1070014     1.546021   464571 
 3287000    1.0896378   -3.1064771   -1.5619861  0.095905151   -3.1064771     1.544491   464635 
 3288000    1.0886995    -3.105626    -1.562631  0.093348599    -3.105626     1.542995   464685 
 3289000    1.0895678   -3.1058403   -1.5618307  0.096882022   -3.1058403    1.5440096   464750 
 3290000    1.0908587   -3.1064338   -1.5609042  0.092965611   -3.1064338    1.5455296   464843 
 3291000    1.0911462   -3.1062304   -1.5605129  0.099176788   -3.1062304    1.5457175   464909 
 3292000    1.0899384    -3.105326    -1.561449  0.093980805    -3.105326    1.5438771   464948 
 3293000    1.0907518   -3.1046515   -1.5598549  0.092708357   -3.1046515    1.5447966   465018 
 3294000    1.0895856   -3.1036723    -1.560796  0.090259099   -3.1036723    1.5428762   465099 
 3295000    1.0899721   -3.1046757   -1.5613915  0.093198657   -3.1046757    1.5432842   465141 
 3296000    1.0916815    -3.106627   -1.5610454  0.087725594    -3.106627    1.5455816   465178 
 3297000    1.0904925   -3.1043154   -1.5606827  0.096797156   -3.1043154    1.5436326   465258 
 3298000    1.0919369   -3.1049649   -1.5595633  0.086710856   -3.1049649    1.5454015   465341 
 3299000    1.0916022   -3.1045111   -1.5599517  0.090553149   -3.1045111    1.5445594   465452 
 3300000    1.0913146   -3.1043397   -1.5604526  0.095636235   -3.1043397    1.5438871   465532 
 3301000     1.092264   -3.1056508   -1.5606296  0.095204198   -3.1056508    1.5450212   465595 
 3302000    1.0943119   -3.1078682   -1.5601696  0.088889262   -3.1078682    1.5476986   465661 
 3303000    1.0928591   -3.1049795   -1.5595447  0.096238515   -3.1049795    1.5454348   465724 
 3304000    1.0919451   -3.1035081   -1.5597603   0.09357978   -3.1035081    1.5437478   465843 
 3305000    1.0917447   -3.1033509   -1.5601316  0.096075043   -3.1033509    1.5432193   465917 
 3306000    1.0946281   -3.1064033   -1.5593439   0.09666703   -3.1064033    1.5470594   465988 
 3307000    1.0950016   -3.1072865   -1.5599251   0.08770346   -3.1072865    1.5473614   466056 
 3308000    1.0946457   -3.1066722   -1.5600857  0.097210982   -3.1066722    1.5465865   466138 
 3309000    1.0945427   -3.1047876   -1.5587115  0.096856409   -3.1047876    1.5460761   466248 
 3310000    1.0946641   -3.1048259   -1.5588138  0.095662683   -3.1048259    1.5460121   466319 
 3311000    1.0967871    -3.108531   -1.5597132  0.099084523    -3.108531    1.5488178   466377 
 3312000    1.0965308   -3.1071093   -1.5588824  0.098179269   -3.1071093    1.5482269   466446 
 3313000    1.0950242   -3.1047162   -1.5587888  0.093228597   -3.1047162    1.5459273   466498 
 3314000    1.0952335   -3.1046671   -1.5588518   0.10096332   -3.1046671    1.5458152   466621 
 3315000    1.0947863   -3.1048714   -1.5598397  0.095789475   -3.1048714    1.5450317   466667 
 3316000    1.0969769   -3.1065791   -1.5587013  0.094025274   -3.1065791    1.5478778   466741 
 3317000     1.098734    -3.109559   -1.5593712  0.091212693    -3.109559    1.5501877   466792 
 3318000    1.0950192   -3.1053817   -1.5606734  0.088771485   -3.1053817    1.5447082   466864 
 3319000    1.0970998   -3.1070901   -1.5596854   0.09629631   -3.1070901    1.5474047   466936 
 3320000    1.0976754   -3.1072594   -1.5592716  0.097722883   -3.1072594    1.5479877   467005 
 3321000    1.0967908   -3.1055714   -1.5590531   0.10144255   -3.1055714    1.5465184   467072 
 3322000    1.0978908   -3.1071084   -1.5592577  0.096197036   -3.1071084    1.5478507   467138 
 3323000    1.0973784   -3.1062155   -1.5591668  0.099690067   -3.1062155    1.5470488   467162 
 3324000    1.0960318   -3.1039982    -1.559152  0.097667153   -3.1039982    1.5448462   467254 
 3325000    1.0972091   -3.1059064   -1.5597648  0.092228057   -3.1059064    1.5461416   467364 
 3326000    1.0969991    -3.106028   -1.5604568  0.092756947    -3.106028    1.5455712   467447 
 3327000    1.0974345   -3.1055295   -1.5596226   0.09320557   -3.1055295    1.5459069   467531 
 3328000    1.0973009    -3.106658   -1.5612202  0.092916644    -3.106658    1.5454378   467616 
 3329000    1.0985398   -3.1080288   -1.5610877   0.09505748   -3.1080288    1.5469411   467689 
 3330000    1.0983469   -3.1065545   -1.5600901  0.091707264   -3.1065545    1.5464644   467751 
 3331000    1.0990383   -3.1064278   -1.5591817   0.09394592   -3.1064278     1.547246   467809 
 3332000    1.0990649   -3.1070498   -1.5600805  0.096053768   -3.1070498    1.5469693   467904 
 3333000    1.1000606   -3.1067308   -1.5586544   0.10346171   -3.1067308    1.5480763   467993 
 3334000    1.0987211   -3.1052417   -1.5593245  0.097167421   -3.1052417    1.5459171   468076 
 3335000    1.0996957   -3.1053362   -1.5582031  0.092454618   -3.1053362    1.5471331   468123 
 3336000    1.1005401   -3.1054299    -1.557499  0.092344605   -3.1054299    1.5479309   468241 
 3337000    1.1003661    -3.105499   -1.5579583  0.091988451    -3.105499    1.5475407   468285 
 3338000    1.1019832   -3.1060954   -1.5565318  0.097387309   -3.1060954    1.5495636   468361 
 3339000    1.0998005   -3.1039161   -1.5576166  0.094714976   -3.1039161    1.5462995   468420 
 3340000    1.1006241   -3.1052013   -1.5580179  0.094880506   -3.1052013    1.5471834   468503 
 3341000    1.0994955   -3.1028266   -1.5574705  0.093991393   -3.1028266    1.5453561   468576 
 3342000    1.1002838   -3.1043634   -1.5582129   0.09876088   -3.1043634    1.5461505   468671 
 3343000    1.1020116   -3.1053666   -1.5568707  0.095997554   -3.1053666    1.5484959   468696 
 3344000    1.1031761   -3.1068723   -1.5569847  0.093047789   -3.1068723    1.5498875   468770 
 3345000    1.1016787    -3.104026   -1.5564734  0.094659761    -3.104026    1.5475527   468840 
 3346000    1.1005366   -3.1040662   -1.5583092  0.096955235   -3.1040662     1.545757   468898 
 3347000    1.1008729   -3.1049513   -1.5589527  0.097028959   -3.1049513    1.5459986   468968 
 3348000    1.1021508   -3.1063745   -1.5588354  0.099500006   -3.1063745    1.5475391   469045 
 3349000    1.1028889   -3.1060767   -1.5578279  0.096195152   -3.1060767    1.5482487   469144 
 3350000    1.1033914   -3.1072026   -1.5584531  0.097401495   -3.1072026    1.5487495   469206 
 3351000    1.1034274   -3.1076754   -1.5591196  0.096237351   -3.1076754    1.5485558   469280 
 3352000    1.1045447   -3.1083776   -1.5583859   0.10189431   -3.1083776    1.5499917   469320 
 3353000    1.1043908   -3.1078857   -1.5582156  0.093704731   -3.1078857    1.5496701   469352 
 3354000    1.1029423    -3.107064    -1.559588  0.098841912    -3.107064     1.547476   469401 
 3355000    1.1040232   -3.1086929   -1.5600138  0.089862598   -3.1086929    1.5486792   469496 
 3356000    1.1033064   -3.1062076   -1.5588669   0.10041523   -3.1062076    1.5473407   469597 
 3357000    1.1045514     -3.10881   -1.5598618  0.097486954     -3.10881    1.5489483   469639 
 3358000    1.1044292   -3.1079517   -1.5593793   0.10059841   -3.1079517    1.5485724   469701 
 3359000    1.1052794   -3.1085384   -1.5589816   0.10158565   -3.1085384    1.5495568   469764 
 3360000    1.1051657    -3.109851   -1.5606812  0.098751439    -3.109851    1.5491698   469833 
 3361000    1.1049962    -3.108462   -1.5597374  0.097828666    -3.108462    1.5487245   469896 
 3362000    1.1067651    -3.110491   -1.5596174  0.096754438    -3.110491    1.5508737   469996 
 3363000     1.105869   -3.1084246   -1.5590077  0.096564055   -3.1084246    1.5494169   470057 
 3364000    1.1062733   -3.1083006   -1.5585249  0.098738768   -3.1083006    1.5497757   470120 
 3365000     1.106541   -3.1099459   -1.5600293  0.098701401   -3.1099459    1.5499167   470191 
 3366000     1.106945   -3.1111128   -1.5609666  0.094336902   -3.1111128    1.5501463   470293 
 3367000    1.1061134    -3.109957   -1.5612553  0.098616089    -3.109957    1.5487017   470378 
 3368000    1.1060137   -3.1087563   -1.5604674  0.097297041   -3.1087563     1.548289   470461 
 3369000    1.1073572   -3.1102688   -1.5603593  0.096212115   -3.1102688    1.5499094   470540 
 3370000    1.1071776   -3.1090072   -1.5595139  0.097739585   -3.1090072    1.5494934   470590 
 3371000     1.106468   -3.1069334   -1.5587259  0.098749284   -3.1069334    1.5482075   470679 
 3372000    1.1070278   -3.1074075   -1.5586174  0.098923165   -3.1074075    1.5487901   470740 
 3373000    1.1077528   -3.1066452   -1.5571633   0.10193505   -3.1066452    1.5494818   470838 
 3374000    1.1106813   -3.1103246   -1.5571027  0.094831774   -3.1103246    1.5532218   470946 
 3375000    1.1081336   -3.1059553   -1.5565957  0.098590297   -3.1059553    1.5493596   471037 
 3376000      1.10874   -3.1065859   -1.5565002  0.098732632   -3.1065859    1.5500856   471074 
 3377000    1.1097136    -3.107835   -1.5565923  0.095037341    -3.107835    1.5512427   471136 
 3378000    1.1071823   -3.1059036   -1.5584325   0.09695382   -3.1059036    1.5474711   471207 
 3379000    1.1078625   -3.1061385   -1.5579304  0.094455612   -3.1061385    1.5482081   471272 
 3380000    1.1070659   -3.1043929   -1.5576328  0.096434304   -3.1043929    1.5467601   471374 
 3381000    1.1092497     -3.10753   -1.5579818  0.096591163     -3.10753    1.5495483   471454 
 3382000    1.1111719   -3.1098718   -1.5579016  0.093298794   -3.1098718    1.5519702   471534 
 3383000    1.1094835   -3.1058697     -1.55656  0.097365841   -3.1058697    1.5493097   471626 
 3384000    1.1103434   -3.1057926   -1.5556272  0.097954198   -3.1057926    1.5501654   471731 
 3385000    1.1111246   -3.1062669   -1.5552147  0.098152461   -3.1062669    1.5510522   471793 
 3386000    1.1121108   -3.1066468   -1.5544023  0.097679063   -3.1066468    1.5522445   471849 
 3387000    1.1123692   -3.1071912    -1.554767  0.093963994   -3.1071912    1.5524243   471904 
 3388000    1.1125716   -3.1074113    -1.554925  0.096481937   -3.1074113    1.5524863   471971 
 3389000    1.1114126   -3.1051946   -1.5545949   0.10426358   -3.1051946    1.5505997   472053 
 3390000    1.1129659   -3.1065066   -1.5539207  0.097796619   -3.1065066    1.5525859   472108 
 3391000    1.1144594   -3.1076263   -1.5531578   0.10232987   -3.1076263    1.5544685   472169 
 3392000    1.1150255   -3.1072375   -1.5521508   0.10396774   -3.1072375    1.5550867   472221 
 3393000    1.1134095   -3.1047121    -1.552119  0.097896987   -3.1047121     1.552593   472294 
 3394000    1.1143388   -3.1075828   -1.5539111  0.099977023   -3.1075828    1.5536717   472360 
 3395000    1.1138936   -3.1076701   -1.5547801    0.1050717   -3.1076701      1.55289   472409 
 3396000    1.1146394   -3.1079337   -1.5541554   0.10259142   -3.1079337    1.5537784   472455 
 3397000    1.1144554    -3.108191   -1.5549683   0.10197154    -3.108191    1.5532227   472546 
 3398000    1.1123469   -3.1058901   -1.5557733  0.096988652   -3.1058901    1.5501168   472597 
 3399000    1.1130839   -3.1082197   -1.5572137  0.096763253   -3.1082197     1.551006   472639 
 3400000    1.1133878   -3.1074433    -1.556283  0.093786825   -3.1074433    1.5511603   472721 
 3401000     1.112678   -3.1051864   -1.5552544   0.10175288   -3.1051864    1.5499321   472794 
 3402000    1.1145589   -3.1085574   -1.5561595  0.093331779   -3.1085574    1.5523978   472841 
 3403000    1.1150275   -3.1093505   -1.5564445  0.096649672   -3.1093505     1.552906   472885 
 3404000    1.1134747     -3.10749   -1.5569662  0.095472689     -3.10749    1.5505238   472952 
 3405000    1.1143913   -3.1098171   -1.5583024  0.094141618   -3.1098171    1.5515147   473039 
 3406000    1.1142332   -3.1094868    -1.558343  0.091499891   -3.1094868    1.5511438   473085 
 3407000    1.1161575    -3.110727   -1.5571178  0.098353565    -3.110727    1.5536092   473150 
 3408000    1.1142995   -3.1071131   -1.5562672  0.096649031   -3.1071131    1.5508459   473204 
 3409000    1.1153742    -3.109312   -1.5571803  0.099464725    -3.109312    1.5521317   473268 
 3410000    1.1153003   -3.1096355      -1.5578   0.09605668   -3.1096355    1.5518354   473327 
 3411000     1.114434   -3.1087964   -1.5584742   0.10442262   -3.1087964    1.5503223   473421 
 3412000    1.1150416   -3.1089388   -1.5580105    0.1000892   -3.1089388    1.5509283   473494 
 3413000     1.113987   -3.1087189   -1.5595028   0.10195551   -3.1087189    1.5492161   473569 
 3414000    1.1166363   -3.1101596   -1.5575771   0.10218416   -3.1101596    1.5525824   473666 
 3415000     1.116602   -3.1088216   -1.5565392  0.099455044   -3.1088216    1.5522824   473743 
 3416000    1.1160621   -3.1081002   -1.5568467   0.10451643   -3.1081002    1.5512536   473828 
 3417000    1.1154736   -3.1066256   -1.5564191   0.10396156   -3.1066256    1.5502065   473898 
 3418000    1.1168747   -3.1086663   -1.5566797   0.10339112   -3.1086663    1.5519866   473949 
 3419000    1.1171749   -3.1096245   -1.5573844  0.097517143   -3.1096245    1.5522401   473999 
 3420000    1.1162683   -3.1076427   -1.5568423  0.098807486   -3.1076427    1.5508005   474054 
 3421000    1.1166538   -3.1086553   -1.5576596   0.10073732   -3.1086553    1.5509958   474158 
 3422000    1.1186286   -3.1115528   -1.5581713  0.096186553   -3.1115528    1.5533815   474267 
 3423000    1.1189463   -3.1111612   -1.5575809  0.097025446   -3.1111612    1.5535803   474341 
 3424000    1.1189051   -3.1115594   -1.5583342  0.092391413   -3.1115594    1.5532251   474432 
 3425000    1.1174425   -3.1080675   -1.5570851   0.10287625   -3.1080675    1.5509823   474497 
 3426000    1.1165766   -3.1071059   -1.5575344  0.096713559   -3.1071059    1.5495714   474561 
 3427000    1.1189362   -3.1088279   -1.5561782   0.09718031   -3.1088279    1.5526497   474621 
 3428000    1.1176286   -3.1082879   -1.5576682  0.095691597   -3.1082879    1.5506198   474687 
 3429000    1.1184701   -3.1078745   -1.5562736  0.099032659   -3.1078745    1.5516009   474744 
 3430000    1.1178909   -3.1080862     -1.55755   0.10105537   -3.1080862    1.5505361   474824 
 3431000    1.1186038    -3.107836   -1.5565789  0.098219353    -3.107836     1.551257   474906 
 3432000    1.1177628   -3.1066766   -1.5567687    0.1000563   -3.1066766    1.5499079   474962 
 3433000    1.1178976   -3.1068736   -1.5569223   0.10332497   -3.1068736    1.5499513   475006 
 3434000    1.1196578    -3.108107   -1.5559831   0.10062916    -3.108107    1.5521239   475088 
 3435000    1.1214847   -3.1091218   -1.5545472  0.099080201   -3.1091218    1.5545746   475113 
 3436000    1.1205469   -3.1079211   -1.5548034  0.098463049   -3.1079211    1.5531177   475161 
 3437000     1.120369   -3.1073643   -1.5547643   0.10123776   -3.1073643       1.5526   475244 
 3438000    1.1225093   -3.1102844   -1.5549442  0.097381563   -3.1102844    1.5553402   475313 
 3439000    1.1202099   -3.1067919   -1.5548664  0.096003357   -3.1067919    1.5519255   475383 
 3440000    1.1214554   -3.1079752   -1.5544941  0.099525257   -3.1079752    1.5534812   475435 
 3441000    1.1210528   -3.1078328   -1.5551314   0.10072723   -3.1078328    1.5527014   475503 
 3442000    1.1219812   -3.1075702   -1.5538541  0.096695889   -3.1075702    1.5537161   475586 
 3443000     1.123003   -3.1080341   -1.5531515  0.098761388   -3.1080341    1.5548826   475662 
 3444000    1.1226797   -3.1073062   -1.5530216  0.098033385   -3.1073062    1.5542846   475708 
 3445000    1.1237954   -3.1086368   -1.5530201   0.10015597   -3.1086368    1.5556166   475773 
 3446000    1.1222722   -3.1063715    -1.553043   0.10271717   -3.1063715    1.5533286   475828 
 3447000    1.1229672   -3.1074745     -1.55337   0.10242118   -3.1074745    1.5541044   475885 
 3448000    1.1220417   -3.1077937    -1.555254  0.097376087   -3.1077937    1.5525397   475972 
 3449000    1.1219616   -3.1067403    -1.554507  0.099418366   -3.1067403    1.5522333   476032 
 3450000    1.1211243   -3.1056192    -1.554831   0.10176067   -3.1056192    1.5507881   476120 
 3451000    1.1220796   -3.1076897   -1.5556844  0.095659742   -3.1076897    1.5520053   476152 
 3452000    1.1213615   -3.1064238   -1.5556267  0.095229735   -3.1064238     1.550797   476218 
 3453000    1.1212477   -3.1062182   -1.5558519   0.10331504   -3.1062182    1.5503663   476302 
 3454000     1.122938   -3.1096629   -1.5571486  0.098029848   -3.1096629    1.5525143   476360 
 3455000    1.1222023   -3.1076368   -1.5563025  0.098077216   -3.1076368    1.5513344   476410 
 3456000    1.1219697   -3.1067752   -1.5560163  0.093958767   -3.1067752    1.5507589   476488 
 3457000    1.1219264   -3.1067175   -1.5561843  0.095187137   -3.1067175    1.5505332   476539 
 3458000    1.1226717   -3.1080687    -1.556639  0.098883998   -3.1080687    1.5514297   476580 
 3459000    1.1208796   -3.1063438   -1.5575336  0.098885462   -3.1063438    1.5488102   476624 
 3460000    1.1202775   -3.1052364   -1.5575213  0.098532787   -3.1052364    1.5477151   476705 
 3461000    1.1230767   -3.1063375   -1.5548788   0.10031445   -3.1063375    1.5514587   476743 
 3462000    1.1242343    -3.107908   -1.5550814  0.094437355    -3.107908    1.5528267   476814 
 3463000    1.1249373   -3.1083635     -1.55482  0.092597196   -3.1083635    1.5535435   476892 
 3464000    1.1235556   -3.1069909   -1.5555572  0.098604599   -3.1069909    1.5514337   476954 
 3465000    1.1254267   -3.1078378   -1.5540648   0.09468539   -3.1078378     1.553773   477029 
 3466000    1.1237455   -3.1062967   -1.5551049   0.10408478   -3.1062967    1.5511918   477109 
 3467000    1.1247092   -3.1078071   -1.5554347  0.093235401   -3.1078071    1.5523723   477155 
 3468000    1.1243678   -3.1067412   -1.5550514   0.10137423   -3.1067412    1.5516898   477220 
 3469000    1.1249127   -3.1089477   -1.5566556  0.098548017   -3.1089477    1.5522921   477266 
 3470000    1.1255393   -3.1077792    -1.554798  0.098496257   -3.1077792    1.5529811   477320 
 3471000    1.1266466   -3.1085078   -1.5543147  0.099321257   -3.1085078    1.5541931   477417 
 3472000    1.1239978   -3.1045719   -1.5543769   0.10297066   -3.1045719    1.5501949   477523 
 3473000    1.1257261   -3.1070156   -1.5546255   0.10162119   -3.1070156      1.55239   477581 
 3474000    1.1256082   -3.1083153   -1.5562894  0.098635347   -3.1083153    1.5520259   477643 
 3475000    1.1263517   -3.1082144   -1.5554072  0.093608505   -3.1082144    1.5528072   477718 
 3476000    1.1256506    -3.107832   -1.5562446  0.098670386    -3.107832    1.5515874   477796 
 3477000    1.1259792    -3.108184   -1.5563451  0.099896606    -3.108184    1.5518389   477858 
 3478000    1.1279428   -3.1089175    -1.554548   0.10319097   -3.1089175    1.5543695   477912 
 3479000     1.127854   -3.1091585   -1.5550414  0.099645765   -3.1091585    1.5541171   477952 
 3480000    1.1272535   -3.1094837   -1.5564021  0.098296744   -3.1094837    1.5530817   478016 
 3481000     1.128145   -3.1098794   -1.5558652   0.10009182   -3.1098794    1.5540141   478107 
 3482000    1.1277845   -3.1093446    -1.556048  0.097994376   -3.1093446    1.5532966   478175 
 3483000     1.129057   -3.1104385   -1.5555908    0.1002885   -3.1104385    1.5548476   478237 
 3484000    1.1288401   -3.1101679   -1.5559018  0.098460992   -3.1101679    1.5542661   478324 
 3485000    1.1283267   -3.1094866   -1.5562261  0.098586829   -3.1094866    1.5532604   478416 
 3486000    1.1275111    -3.109453   -1.5574807  0.098049186    -3.109453    1.5519723   478467 
 3487000    1.1276668   -3.1094374   -1.5574714  0.096805258   -3.1094374    1.5519661   478535 
 3488000    1.1291718   -3.1108362   -1.5569482   0.10223064   -3.1108362     1.553888   478581 
 3489000    1.1283774   -3.1108069   -1.5581809   0.10376125   -3.1108069     1.552626   478633 
 3490000    1.1284728   -3.1115617   -1.5589828  0.099504624   -3.1115617    1.5525789   478688 
 3491000    1.1286642   -3.1123537   -1.5596704    0.1014858   -3.1123537    1.5526833   478737 
 3492000    1.1265119   -3.1093496    -1.559831   0.10072149   -3.1093496    1.5495186   478800 
 3493000    1.1283299   -3.1113225   -1.5594005   0.10269683   -3.1113225     1.551922   478830 
 3494000    1.1310215   -3.1133671   -1.5579088  0.099262291   -3.1133671    1.5554583   478881 
 3495000    1.1301008   -3.1118601   -1.5578724  0.098099805   -3.1118601    1.5539877   478944 
 3496000    1.1302986   -3.1112553   -1.5571124   0.10627363   -3.1112553    1.5541429   478980 
 3497000    1.1313235   -3.1120981   -1.5568154   0.10292532   -3.1120981    1.5552826   479063 
 3498000    1.1294563   -3.1102732   -1.5578102    0.0997888   -3.1102732    1.5524629   479141 
 3499000     1.130482   -3.1116189   -1.5578272   0.10188753   -3.1116189    1.5537917   479166 
 3500000    1.1317994   -3.1121976   -1.5568354  0.096014177   -3.1121976    1.5553622   479240 
 3501000     1.131954   -3.1138798      -1.5585   0.10018526   -3.1138798    1.5553799   479300 
 3502000     1.132354   -3.1132549   -1.5575591   0.10436025   -3.1132549    1.5556958   479372 
 3503000    1.1318595   -3.1133473   -1.5585384   0.10171777   -3.1133473    1.5548089   479436 
 3504000    1.1325752   -3.1136006   -1.5580357   0.10201097   -3.1136006    1.5555649   479506 
 3505000    1.1309484   -3.1125852   -1.5595203  0.095698524   -3.1125852    1.5530649   479588 
 3506000    1.1328657   -3.1132672   -1.5578223   0.10583949   -3.1132672    1.5554449   479666 
 3507000    1.1316673   -3.1111365   -1.5575346  0.099409428   -3.1111365    1.5536019   479727 
 3508000    1.1326232   -3.1104322   -1.5557416   0.10042056   -3.1104322    1.5546906   479796 
 3509000    1.1312753   -3.1091373   -1.5565266   0.10520985   -3.1091373    1.5526107   479867 
 3510000    1.1326231   -3.1111126   -1.5567849  0.098157589   -3.1111126    1.5543277   479908 
 3511000    1.1321378   -3.1117085   -1.5583026  0.094907956   -3.1117085    1.5534059   479987 
 3512000    1.1293742   -3.1088301   -1.5594776   0.10023977   -3.1088301    1.5493525   480068 
 3513000    1.1314211   -3.1106944   -1.5587149    0.1018997   -3.1106944    1.5519795   480124 
 3514000    1.1336248   -3.1126991   -1.5579622  0.097833742   -3.1126991    1.5547369   480206 
 3515000    1.1331787   -3.1108063   -1.5569207   0.09790316   -3.1108063    1.5538856   480280 
 3516000    1.1339343    -3.110967   -1.5562686    0.1006166    -3.110967    1.5546984   480349 
 3517000    1.1334018    -3.109655   -1.5559584  0.098730778    -3.109655    1.5536965   480433 
 3518000    1.1343851   -3.1116058    -1.556736   0.10238929   -3.1116058    1.5548697   480487 
 3519000    1.1325605   -3.1083873   -1.5562672   0.10383182   -3.1083873    1.5521201   480564 
 3520000    1.1346178    -3.111218   -1.5564629   0.10169746    -3.111218    1.5547551   480621 
 3521000    1.1341183   -3.1103406   -1.5565415  0.099215244   -3.1103406    1.5537991   480705 
 3522000    1.1343949   -3.1103131   -1.5563129   0.10339709   -3.1103131    1.5540002   480760 
 3523000    1.1356959   -3.1123078   -1.5568424  0.099698813   -3.1123078    1.5554654   480858 
 3524000    1.1369394    -3.112579   -1.5556825  0.098749798    -3.112579    1.5568966   480942 
 3525000    1.1355039   -3.1100681   -1.5553183   0.10251961   -3.1100681    1.5547497   480998 
 3526000    1.1354317   -3.1092812   -1.5547952   0.10853494   -3.1092812     1.554486   481049 
 3527000    1.1377998   -3.1128639   -1.5553786   0.10346509   -3.1128639    1.5574853   481124 
 3528000    1.1374096   -3.1105878   -1.5538955   0.10271646   -3.1105878    1.5566924   481204 
 3529000    1.1384148   -3.1120183   -1.5542901   0.10646356   -3.1120183    1.5577282   481309 
 3530000    1.1374944   -3.1115733   -1.5552014   0.10184412   -3.1115733    1.5563718   481339 
 3531000    1.1368984    -3.111136   -1.5557639   0.10010933    -3.111136    1.5553721   481396 
 3532000    1.1373371     -3.11114   -1.5553261   0.10241173     -3.11114    1.5558139   481445 
 3533000    1.1372407    -3.110944   -1.5555042  0.097546308    -3.110944    1.5554398   481520 
 3534000    1.1371091   -3.1116898   -1.5565882   0.10408893   -3.1116898    1.5551015   481569 
 3535000    1.1381774   -3.1146247    -1.558269   0.10155597   -3.1146247    1.5563557   481633 
 3536000    1.1370644   -3.1142962   -1.5595916   0.10265059   -3.1142962    1.5547046   481673 
 3537000    1.1347233   -3.1115665   -1.5603302  0.097311451   -3.1115665    1.5512363   481756 
 3538000    1.1384894   -3.1143994   -1.5581858  0.098415723   -3.1143994    1.5562136   481809 
 3539000    1.1382443   -3.1133938   -1.5577187  0.098567088   -3.1133938    1.5556752   481872 
 3540000    1.1385659   -3.1152229   -1.5593471  0.098048377   -3.1152229    1.5558758   481946 
 3541000    1.1379272   -3.1143875   -1.5595588   0.10176046   -3.1143875    1.5548287   482000 
 3542000     1.136425   -3.1121807   -1.5596364   0.10511253   -3.1121807    1.5525443   482072 
 3543000    1.1372758   -3.1129128    -1.559335   0.10142103   -3.1129128    1.5535777   482112 
 3544000    1.1376289   -3.1140248   -1.5601871   0.10444303   -3.1140248    1.5538377   482181 
 3545000    1.1380542   -3.1147178   -1.5605732   0.10042037   -3.1147178    1.5541446   482266 
 3546000    1.1368995   -3.1124354   -1.5600511   0.10090957   -3.1124354    1.5523843   482323 
 3547000    1.1380353   -3.1139514   -1.5601258   0.10104853   -3.1139514    1.5538256   482357 
 3548000    1.1396791   -3.1149815   -1.5591373   0.10588646   -3.1149815    1.5558442   482427 
 3549000    1.1387029   -3.1142821   -1.5599349   0.10327387   -3.1142821    1.5543472   482478 
 3550000    1.1379571   -3.1137856   -1.5606238   0.10593093   -3.1137856    1.5531618   482530 
 3551000    1.1393754   -3.1146548    -1.559815   0.10445171   -3.1146548    1.5548398   482610 
 3552000    1.1408311   -3.1157514   -1.5591057   0.10492498   -3.1157514    1.5566457   482666 
 3553000    1.1405463   -3.1142191   -1.5582424    0.1008498   -3.1142191    1.5559767   482753 
 3554000    1.1416792   -3.1161208   -1.5588083   0.10588897   -3.1161208    1.5573125   482818 
 3555000     1.140911   -3.1144811    -1.558326   0.10504245   -3.1144811    1.5561551   482852 
 3556000    1.1413816   -3.1158996   -1.5592414   0.10068085   -3.1158996    1.5566583   482895 
 3557000     1.140735   -3.1144832   -1.5587776   0.10262927   -3.1144832    1.5557055   482917 
 3558000    1.1408874   -3.1141462   -1.5585099   0.10193987   -3.1141462    1.5556364   483003 
 3559000    1.1401688   -3.1135389   -1.5591013   0.10438523   -3.1135389    1.5544376   483071 
 3560000     1.140305   -3.1144834   -1.5600498   0.10026515   -3.1144834    1.5544335   483130 
 3561000    1.1397228   -3.1147915   -1.5613252   0.10384559   -3.1147915    1.5534663   483184 
 3562000    1.1405303   -3.1146428     -1.56024  0.099967939   -3.1146428    1.5544029   483235 
 3563000    1.1402254   -3.1133162   -1.5595089   0.09911403   -3.1133162    1.5538072   483291 
 3564000    1.1400821    -3.111934   -1.5585277   0.10288767    -3.111934    1.5534063   483355 
 3565000    1.1422173   -3.1131121   -1.5570156  0.099363258   -3.1131121    1.5560966   483423 
 3566000    1.1424412   -3.1129502   -1.5567545   0.10030546   -3.1129502    1.5561956   483487 
 3567000    1.1433572   -3.1122666   -1.5550261   0.10170984   -3.1122666    1.5572405   483550 
 3568000    1.1429993   -3.1127921   -1.5562066   0.10361297   -3.1127921    1.5565856   483602 
 3569000    1.1429544   -3.1123586    -1.556024   0.10212253   -3.1123586    1.5563346   483661 
 3570000    1.1426309   -3.1118592   -1.5561162   0.10644524   -3.1118592     1.555743   483708 
 3571000     1.143484   -3.1122811   -1.5554989   0.09773798   -3.1122811    1.5567822   483746 
 3572000    1.1434494   -3.1127837   -1.5562289  0.099974651   -3.1127837    1.5565548   483802 
 3573000    1.1450838   -3.1133613   -1.5547846   0.10256168   -3.1133613    1.5585768   483865 
 3574000    1.1434993   -3.1108565   -1.5547388   0.10679102   -3.1108565    1.5561178   483959 
 3575000    1.1439752   -3.1114881   -1.5549317   0.10038678   -3.1114881    1.5565564   484024 
 3576000    1.1444657   -3.1111704   -1.5542168   0.10376785   -3.1111704    1.5569536   484108 
 3577000    1.1445692   -3.1125355   -1.5556566   0.10349437   -3.1125355    1.5568789   484175 
 3578000    1.1449335   -3.1135312   -1.5563176   0.10479469   -3.1135312    1.5572136   484225 
 3579000    1.1437128   -3.1135177    -1.558125  0.096431567   -3.1135177    1.5553927   484275 
 3580000    1.1436012    -3.113348   -1.5582869  0.098191125    -3.113348    1.5550611   484331 
 3581000    1.1439078   -3.1142066   -1.5589341  0.097851932   -3.1142066    1.5552725   484395 
 3582000    1.1440325   -3.1134317    -1.558163   0.10122323   -3.1134317    1.5552687   484449 
 3583000    1.1443758   -3.1124949   -1.5569939   0.10266197   -3.1124949     1.555501   484522 
 3584000    1.1444125   -3.1131739   -1.5577963   0.10281161   -3.1131739    1.5553776   484576 
 3585000    1.1445035   -3.1122114   -1.5568932   0.10270598   -3.1122114    1.5553182   484633 
 3586000    1.1441024   -3.1127699   -1.5580544   0.10391136   -3.1127699    1.5547155   484651 
 3587000    1.1465158   -3.1161086   -1.5581972  0.098805815   -3.1161086    1.5579115   484677 
 3588000    1.1468011   -3.1162193   -1.5580873   0.10380639   -3.1162193     1.558132   484729 
 3589000    1.1466619   -3.1156963    -1.558033    0.1039347   -3.1156963    1.5576633   484816 
 3590000    1.1449429   -3.1135021   -1.5583633   0.10232685   -3.1135021    1.5551388   484875 
 3591000    1.1447481   -3.1152601   -1.5605077   0.10233727   -3.1152601    1.5547524   484913 
 3592000    1.1445282   -3.1138771   -1.5596637   0.10489454   -3.1138771    1.5542134   484988 
 3593000    1.1443561   -3.1140668    -1.560273   0.10186014   -3.1140668    1.5537938   485046 
 3594000    1.1457959   -3.1156492   -1.5599678   0.10136498   -3.1156492    1.5556815   485067 
 3595000    1.1444897   -3.1129961   -1.5594468   0.10275784   -3.1129961    1.5535492   485179 
 3596000    1.1453448   -3.1149484   -1.5604243   0.10227378   -3.1149484    1.5545241   485237 
 3597000    1.1447388    -3.114128   -1.5606377  0.098563286    -3.114128    1.5534903   485303 
 3598000    1.1453499   -3.1139763    -1.559932   0.10248354   -3.1139763    1.5540443   485389 
 3599000    1.1463723    -3.115236   -1.5599647  0.097390034    -3.115236    1.5552713   485439 
 3600000    1.1455321   -3.1135523   -1.5596802   0.10430938   -3.1135523    1.5538721   485520 
 3601000     1.147789   -3.1156714   -1.5590584  0.094073616   -3.1156714     1.556613   485620 
 3602000    1.1483435   -3.1163408   -1.5591779   0.10305107   -3.1163408    1.5571629   485683 
 3603000    1.1481978   -3.1153857   -1.5586192   0.10099295   -3.1153857    1.5567666   485745 
 3604000    1.1471266   -3.1156735   -1.5605194   0.10250448   -3.1156735    1.5551542   485795 
 3605000    1.1472505   -3.1144313   -1.5593013  0.093939811   -3.1144313      1.55513   485855 
 3606000    1.1473182   -3.1147287   -1.5597629   0.10225201   -3.1147287    1.5549658   485935 
 3607000    1.1491653    -3.116189   -1.5588449   0.10256063    -3.116189    1.5573442   485974 
 3608000    1.1473961    -3.114266   -1.5595467   0.10687076    -3.114266    1.5547194   486045 
 3609000    1.1479694   -3.1143611   -1.5590472   0.10164058   -3.1143611    1.5553139   486102 
 3610000    1.1486013   -3.1155924   -1.5596689   0.10031969   -3.1155924    1.5559235   486179 
 3611000    1.1483964   -3.1149598   -1.5595282   0.10258717   -3.1149598    1.5554316   486246 
 3612000    1.1491441   -3.1151711   -1.5589733   0.10436429   -3.1151711    1.5561979   486323 
 3613000    1.1502117   -3.1158924   -1.5585273  0.097678832   -3.1158924    1.5573651   486410 
 3614000    1.1498458   -3.1146599   -1.5580047   0.10810254   -3.1146599    1.5566552   486477 
 3615000    1.1507962   -3.1163017   -1.5586481   0.10411946   -3.1163017    1.5576536   486567 
 3616000    1.1522088   -3.1178773   -1.5584686  0.098944527   -3.1178773    1.5594087   486616 
 3617000    1.1511992   -3.1163166   -1.5584345   0.10150576   -3.1163166    1.5578822   486666 
 3618000    1.1515322   -3.1170741   -1.5589527     0.106229   -3.1170741    1.5581215   486732 
 3619000    1.1526967   -3.1163481   -1.5568047   0.10170783   -3.1163481    1.5595433   486780 
 3620000     1.152541   -3.1159316   -1.5568135   0.10686547   -3.1159316    1.5591182   486847 
 3621000    1.1547403   -3.1176521   -1.5556872   0.10294031   -3.1176521    1.5619649   486887 
 3622000    1.1509745   -3.1124871   -1.5558942   0.10492152   -3.1124871    1.5565929   486974 
 3623000    1.1522369   -3.1166811   -1.5585793   0.10691046   -3.1166811    1.5581018   487036 
 3624000     1.151273   -3.1152493   -1.5585723   0.10758515   -3.1152493     1.556677   487074 
 3625000     1.151776   -3.1154772   -1.5584621   0.10392556   -3.1154772    1.5570151   487181 
 3626000    1.1530088   -3.1161043   -1.5576466  0.099981297   -3.1161043    1.5584577   487251 
 3627000    1.1536787   -3.1169314   -1.5576995  0.099561467   -3.1169314    1.5592319   487292 
 3628000    1.1512351   -3.1145379   -1.5588192   0.10463234   -3.1145379    1.5557187   487358 
 3629000    1.1526231    -3.116049    -1.558624  0.099427177    -3.116049    1.5574249   487411 
 3630000    1.1526934   -3.1148429   -1.5574699  0.098427897   -3.1148429     1.557373   487457 
 3631000     1.152965   -3.1157874   -1.5583511   0.10497404   -3.1157874    1.5574363   487552 
 3632000    1.1534598   -3.1166003    -1.558748   0.10040288   -3.1166003    1.5578523   487631 
 3633000    1.1526198   -3.1161826   -1.5596659   0.10198353   -3.1161826    1.5565167   487694 
 3634000    1.1519036   -3.1151592   -1.5598009  0.098050639   -3.1151592    1.5553582   487754 
 3635000    1.1533525   -3.1151943   -1.5581191   0.10461613   -3.1151943    1.5570752   487829 
 3636000    1.1515262   -3.1139758   -1.5595032   0.10108545   -3.1139758    1.5544726   487872 
 3637000    1.1547003   -3.1177123   -1.5591306  0.099502086   -3.1177123    1.5585817   487927 
 3638000    1.1523994   -3.1141127   -1.5587387   0.10725873   -3.1141127     1.555374   487959 
 3639000    1.1544653   -3.1174764    -1.559461  0.099419289   -3.1174764    1.5580154   488005 
 3640000    1.1535104   -3.1156338   -1.5591081   0.10564705   -3.1156338    1.5565257   488068 
 3641000    1.1550035   -3.1166002   -1.5582225   0.10573783   -3.1166002    1.5583777   488119 
 3642000    1.1549981    -3.117195    -1.558949   0.10013764    -3.117195     1.558246   488158 
 3643000    1.1565247   -3.1187728   -1.5586846   0.10283312   -3.1187728    1.5600882   488226 
 3644000    1.1543131   -3.1159027   -1.5590753    0.1009636   -3.1159027    1.5568274   488313 
 3645000     1.153494   -3.1152626   -1.5597088   0.10011186   -3.1152626    1.5555538   488366 
 3646000      1.15421   -3.1161865   -1.5598902  0.099859742   -3.1161865    1.5562963   488436 
 3647000    1.1552252   -3.1156283   -1.5582947   0.10443848   -3.1156283    1.5573336   488540 
 3648000    1.1568182   -3.1170546   -1.5577043   0.10209297   -3.1170546    1.5593502   488581 
 3649000     1.156975   -3.1177551     -1.55842   0.10236565   -3.1177551     1.559335   488652 
 3650000    1.1581935   -3.1187559   -1.5579608   0.10480111   -3.1187559    1.5607951   488709 
 3651000    1.1568011   -3.1181558   -1.5593838   0.10046901   -3.1181558     1.558772   488755 
 3652000    1.1553325   -3.1156534   -1.5590036   0.10338859   -3.1156534    1.5566498   488800 
 3653000    1.1569428   -3.1171891    -1.558596   0.10858757   -3.1171891    1.5585931   488871 
 3654000    1.1568165   -3.1168273   -1.5586625   0.10832299   -3.1168273    1.5581648   488952 
 3655000    1.1588953   -3.1176172   -1.5569078    0.1059367   -3.1176172    1.5607094   489032 
 3656000    1.1577584   -3.1173218   -1.5582647   0.10520551   -3.1173218    1.5590571   489070 
 3657000     1.157519   -3.1168282   -1.5582941   0.11011899   -3.1168282    1.5585341   489133 
 3658000    1.1575815   -3.1165725   -1.5581996   0.10755246   -3.1165725    1.5583728   489210 
 3659000    1.1600589    -3.119106   -1.5576405  0.097461921    -3.119106    1.5614654   489286 
 3660000    1.1586769   -3.1166794   -1.5573579   0.10498729   -3.1166794    1.5593216   489375 
 3661000     1.157898   -3.1167209   -1.5585972   0.10261342   -3.1167209    1.5581237   489422 
 3662000    1.1577251    -3.116895   -1.5591885    0.1081064    -3.116895    1.5577065   489480 
 3663000    1.1591277   -3.1198765   -1.5605409   0.10324519   -3.1198765    1.5593356   489561 
 3664000    1.1592803   -3.1200147   -1.5606649   0.10705788   -3.1200147    1.5593498   489621 
 3665000    1.1606126   -3.1204035   -1.5595548   0.10198984   -3.1204035    1.5608487   489713 
 3666000    1.1596821   -3.1182977   -1.5589138   0.10102012   -3.1182977    1.5593839   489780 
 3667000    1.1590535   -3.1171209   -1.5588368   0.10777305   -3.1171209    1.5582841   489860 
 3668000    1.1598406   -3.1183234    -1.559207   0.10615761   -3.1183234    1.5591163   489931 
 3669000    1.1587137   -3.1159836   -1.5586206   0.10417464   -3.1159836    1.5573631   490006 
 3670000    1.1589112   -3.1161433     -1.55868   0.10661938   -3.1161433    1.5574633   490058 
 3671000     1.160759   -3.1166726   -1.5569488   0.10112706   -3.1166726    1.5597238   490128 
 3672000    1.1609942   -3.1171563   -1.5573457   0.10544018   -3.1171563    1.5598106   490200 
 3673000    1.1603592   -3.1164087   -1.5576675   0.10272117   -3.1164087    1.5587413   490268 
 3674000    1.1602208   -3.1174392   -1.5589887   0.10155051   -3.1174392    1.5584505   490301 
 3675000    1.1599303   -3.1159688   -1.5581119   0.10387374   -3.1159688    1.5578569   490365 
 3676000     1.159597   -3.1157157    -1.558424   0.10139279   -3.1157157    1.5572917   490402 
 3677000    1.1615994   -3.1184904   -1.5587353   0.10145777   -3.1184904    1.5597551   490473 
 3678000    1.1599675   -3.1155722   -1.5581227   0.10195896   -3.1155722    1.5574495   490509 
 3679000     1.163579   -3.1188018   -1.5568026  0.099612384   -3.1188018    1.5619992   490603 
 3680000    1.1626044     -3.11721   -1.5567736   0.10487279     -3.11721    1.5604364   490683 
 3681000    1.1626775   -3.1183213   -1.5579521   0.10354393   -3.1183213    1.5603692   490735 
 3682000    1.1622899   -3.1179595   -1.5583679   0.10271523   -3.1179595    1.5595916   490816 
 3683000    1.1621563   -3.1172177   -1.5580246   0.10377786   -3.1172177    1.5591932   490885 
 3684000    1.1612929    -3.116937   -1.5590609   0.10131556    -3.116937    1.5578761   490935 
 3685000    1.1614034    -3.116305   -1.5584742    0.1047651    -3.116305    1.5578308   490996 
 3686000    1.1627144    -3.119136   -1.5596452   0.10088808    -3.119136    1.5594908   491027 
 3687000    1.1617112   -3.1176932   -1.5597098   0.10129531   -3.1176932    1.5579834   491078 
 3688000     1.162762   -3.1179634   -1.5588121   0.10319484   -3.1179634    1.5591513   491154 
 3689000    1.1636729   -3.1190107   -1.5589269   0.10252997   -3.1190107    1.5600838   491245 
 3690000    1.1632894   -3.1181497   -1.5588498   0.10565764   -3.1181497    1.5592998   491330 
 3691000    1.1637012   -3.1180715   -1.5584452   0.10173069   -3.1180715    1.5596263   491401 
 3692000    1.1634496   -3.1177971   -1.5586411   0.10465312   -3.1177971     1.559156   491443 
 3693000    1.1629277    -3.117907   -1.5596122   0.10616424    -3.117907    1.5582948   491494 
 3694000    1.1628408    -3.118388   -1.5604474   0.10309865    -3.118388    1.5579406   491569 
 3695000    1.1624849   -3.1180384   -1.5607678   0.10320611   -3.1180384    1.5572706   491630 
 3696000    1.1636687   -3.1190017   -1.5602658   0.10899524   -3.1190017    1.5587359   491668 
 3697000    1.1632918   -3.1188991   -1.5608424  0.098812506   -3.1188991    1.5580567   491723 
 3698000    1.1626353   -3.1194831   -1.5624386   0.10199103   -3.1194831    1.5570445   491765 
 3699000    1.1633756    -3.121475   -1.5636514   0.10624836    -3.121475    1.5578236   491832 
 3700000    1.1646016    -3.121675   -1.5624411  0.097043229    -3.121675    1.5592339   491905 
 3701000    1.1633882   -3.1201494   -1.5627173   0.10239042   -3.1201494    1.5574321   491961 
 3702000    1.1623611   -3.1190988   -1.5632284   0.10233611   -3.1190988    1.5558705   492020 
 3703000    1.1648315   -3.1215362   -1.5625585   0.10178981   -3.1215362    1.5589777   492083 
 3704000    1.1631021   -3.1195112   -1.5629873   0.10894277   -3.1195112    1.5565239   492127 
 3705000    1.1662895   -3.1228298    -1.562199   0.10671895   -3.1228298    1.5606308   492177 
 3706000    1.1656238   -3.1222908   -1.5627599    0.1029374   -3.1222908    1.5595309   492243 
 3707000    1.1657231   -3.1220791   -1.5626276    0.1020401   -3.1220791    1.5594516   492310 
 3708000     1.165715   -3.1221729   -1.5629444   0.10562341   -3.1221729    1.5592285   492377 
 3709000    1.1649489   -3.1213061    -1.563327   0.10441566   -3.1213061    1.5579791   492448 
 3710000    1.1672763   -3.1237439   -1.5628424   0.10740955   -3.1237439    1.5609015   492508 
 3711000    1.1690599   -3.1248041    -1.561727    0.1040088   -3.1248041    1.5630771   492574 
 3712000     1.166565   -3.1216737   -1.5620653   0.10636364   -3.1216737    1.5596084   492616 
 3713000    1.1671514   -3.1218276   -1.5615999   0.10516853   -3.1218276    1.5602277   492668 
 3714000    1.1675297   -3.1227193   -1.5621349    0.1046865   -3.1227193    1.5605844   492715 
 3715000    1.1668162   -3.1220459   -1.5626208   0.10613644   -3.1220459    1.5594251   492780 
 3716000    1.1683513   -3.1236073    -1.562403   0.10318835   -3.1236073    1.5612043   492866 
 3717000    1.1665148   -3.1212482   -1.5626751    0.1054909   -3.1212482    1.5585732   492922 
 3718000    1.1692331   -3.1242597   -1.5622195  0.096938195   -3.1242597    1.5620402   492974 
 3719000    1.1687225   -3.1226981   -1.5615489   0.10572041   -3.1226981    1.5611492   493040 
 3720000    1.1702434   -3.1226152    -1.559666   0.10107882   -3.1226152    1.5629492   493113 
 3721000    1.1686632   -3.1220035   -1.5613451  0.099975525   -3.1220035    1.5606583   493170 
 3722000    1.1686223   -3.1212403   -1.5607441   0.10343408   -3.1212403    1.5604962   493204 
 3723000    1.1678222   -3.1192583    -1.559976   0.10498722   -3.1192583    1.5592823   493250 
 3724000     1.168437   -3.1211492   -1.5612578   0.10396523   -3.1211492    1.5598914   493317 
 3725000    1.1687314   -3.1208822   -1.5607844   0.10132442   -3.1208822    1.5600979   493376 
 3726000    1.1686866   -3.1218533   -1.5619164   0.10728209   -3.1218533    1.5599369   493408 
 3727000    1.1676958   -3.1219527   -1.5635342   0.10206881   -3.1219527    1.5584185   493470 
 3728000    1.1691637   -3.1237909   -1.5635619   0.10328627   -3.1237909     1.560229   493517 
 3729000    1.1670347   -3.1205233   -1.5633121   0.10299875   -3.1205233    1.5572112   493573 
 3730000    1.1690498   -3.1221052   -1.5624802   0.10413378   -3.1221052     1.559625   493660 
 3731000    1.1678545   -3.1208261   -1.5630228   0.10614647   -3.1208261    1.5578032   493732 
 3732000     1.169082   -3.1233797   -1.5641128  0.098574384   -3.1233797    1.5592669   493787 
 3733000    1.1687956    -3.121263   -1.5625013   0.10504088    -3.121263    1.5587618   493826 
 3734000     1.167991   -3.1217466   -1.5641746   0.10135745   -3.1217466     1.557572   493863 
 3735000    1.1688092   -3.1223206   -1.5638941  0.098643003   -3.1223206    1.5584265   493938 
 3736000    1.1683862   -3.1218372   -1.5641703   0.10649299   -3.1218372    1.5576669   494000 
 3737000    1.1687148   -3.1221943    -1.564247   0.10048095   -3.1221943    1.5579473   494050 
 3738000    1.1691099   -3.1226137    -1.564269   0.10209468   -3.1226137    1.5583447   494091 
 3739000    1.1709903   -3.1244699    -1.563723   0.10652759   -3.1244699    1.5607469   494124 
 3740000    1.1691389   -3.1232279   -1.5651031  0.098775019   -3.1232279    1.5581248   494173 
 3741000    1.1714798   -3.1248872   -1.5638006   0.10547365   -3.1248872    1.5610866   494223 
 3742000    1.1717154   -3.1255203   -1.5643535   0.10227361   -3.1255203    1.5611667   494297 
 3743000    1.1705119   -3.1242045   -1.5649062    0.1044566   -3.1242045    1.5592983   494381 
 3744000    1.1702386   -3.1236364   -1.5648945   0.10866337   -3.1236364    1.5587419   494442 
 3745000    1.1710631   -3.1246066   -1.5649021   0.10257761   -3.1246066    1.5597045   494485 
 3746000    1.1723418    -3.127047   -1.5658194   0.10410676    -3.127047    1.5612276   494542 
 3747000    1.1713328   -3.1252454   -1.5655414   0.11040099   -3.1252454     1.559704   494599 
 3748000    1.1713441   -3.1255651    -1.566073   0.10960211   -3.1255651    1.5594921   494671 
 3749000     1.171052    -3.125329   -1.5663834   0.10833704    -3.125329    1.5589457   494721 
 3750000    1.1719471   -3.1256154   -1.5657682   0.10576654   -3.1256154    1.5598472   494813 
 3751000     1.171143   -3.1252411   -1.5665776   0.10728605   -3.1252411    1.5586634   494849 
 3752000    1.1714979   -3.1258522   -1.5670408   0.10422868   -3.1258522    1.5588114   494952 
 3753000    1.1731833   -3.1272645   -1.5663461   0.10611502   -3.1272645    1.5609184   494995 
 3754000    1.1719148   -3.1268905   -1.5677953   0.10982875   -3.1268905    1.5590952   495038 
 3755000    1.1718794   -3.1264405   -1.5675908   0.10855964   -3.1264405    1.5588498   495101 
 3756000    1.1711007   -3.1253426   -1.5678055   0.10939348   -3.1253426    1.5575371   495189 
 3757000     1.174448   -3.1285534   -1.5667696   0.10042907   -3.1285534    1.5617838   495254 
 3758000    1.1737084   -3.1284095    -1.567792   0.10525834   -3.1284095    1.5606176   495312 
 3759000    1.1730246   -3.1273335   -1.5678455   0.10623038   -3.1273335     1.559488   495382 
 3760000    1.1724016   -3.1251207   -1.5666151   0.10687448   -3.1251207    1.5585056   495431 
 3761000    1.1744492   -3.1275235   -1.5665543   0.10249667   -3.1275235    1.5609691   495513 
 3762000    1.1733629   -3.1264047   -1.5670242   0.10748465   -3.1264047    1.5593805   495559 
 3763000    1.1749655    -3.127596   -1.5662306    0.1061851    -3.127596    1.5613655   495605 
 3764000    1.1749221   -3.1265205   -1.5653734   0.11149065   -3.1265205    1.5611471   495656 
 3765000    1.1738999   -3.1246182   -1.5650244   0.10764849   -3.1246182    1.5595938   495718 
 3766000    1.1730071   -3.1253478   -1.5670721   0.10319589   -3.1253478    1.5582757   495760 
 3767000    1.1731582   -3.1254877   -1.5671779    0.1054933   -3.1254877    1.5583098   495813 
 3768000    1.1747597   -3.1261221   -1.5659682   0.10098713   -3.1261221    1.5601539   495903 
 3769000    1.1728418   -3.1241089   -1.5666748   0.10380401   -3.1241089    1.5574341   495958 
 3770000    1.1735815   -3.1236908   -1.5654599   0.10180094   -3.1236908    1.5582309   496017 
 3771000     1.174312   -3.1247756   -1.5657445   0.10960733   -3.1247756    1.5590311   496071 
 3772000    1.1745996   -3.1257505   -1.5665638   0.10276695   -3.1257505    1.5591866   496143 
 3773000    1.1746266    -3.125434    -1.566334   0.10279801    -3.125434    1.5590999   496182 
 3774000     1.175012   -3.1258553   -1.5663664  0.099181718   -3.1258553    1.5594889   496221 
 3775000    1.1744669   -3.1251343   -1.5665321   0.10452695   -3.1251343    1.5586022   496273 
 3776000    1.1762047   -3.1274384   -1.5667126  0.097011889   -3.1274384    1.5607259   496331 
 3777000      1.17439   -3.1251597   -1.5670614   0.10031271   -3.1251597    1.5580983   496401 
 3778000    1.1742106   -3.1237856   -1.5661199   0.10299145   -3.1237856    1.5576657   496463 
 3779000    1.1764098   -3.1246476   -1.5642437   0.10499541   -3.1246476    1.5604039   496520 
 3780000    1.1757743   -3.1252901   -1.5659176   0.10532466   -3.1252901    1.5593725   496580 
 3781000    1.1749662   -3.1252315   -1.5671158   0.10840415   -3.1252315    1.5581156   496639 
 3782000    1.1753795    -3.125221   -1.5667613   0.10533956    -3.125221    1.5584597   496704 
 3783000    1.1757879   -3.1263788   -1.5675157   0.10103302   -3.1263788    1.5588631   496748 
 3784000    1.1750209   -3.1244282   -1.5667199   0.10278463   -3.1244282    1.5577083   496792 
 3785000    1.1755983    -3.125509    -1.567258   0.10154263    -3.125509     1.558251   496863 
 3786000    1.1767737   -3.1279408    -1.568317   0.10509547   -3.1279408    1.5596238   496922 
 3787000    1.1776868   -3.1279836   -1.5672595   0.10588494   -3.1279836    1.5607241   496957 
 3788000    1.1757679   -3.1266078   -1.5686054   0.10488373   -3.1266078    1.5580024   497014 
 3789000    1.1766799    -3.126961    -1.567838   0.10795337    -3.126961     1.559123   497042 
 3790000    1.1771013   -3.1273779   -1.5678126    0.1087551   -3.1273779    1.5595653   497079 
 3791000     1.177692   -3.1280929   -1.5679301   0.10754834   -3.1280929    1.5601627   497138 
 3792000    1.1771598   -3.1274017   -1.5681636   0.10574515   -3.1274017    1.5592381   497208 
 3793000    1.1795068   -3.1312525   -1.5691223   0.10383891   -3.1312525    1.5621302   497277 
 3794000    1.1774634   -3.1276695   -1.5684181   0.10702926   -3.1276695    1.5592514   497332 
 3795000    1.1788096   -3.1303206   -1.5694308   0.10481845   -3.1303206    1.5608898   497378 
 3796000    1.1791879   -3.1307434   -1.5695192   0.10369634   -3.1307434    1.5612242   497431 
 3797000    1.1778835   -3.1290636   -1.5696635   0.11035209   -3.1290636    1.5594001   497462 
 3798000    1.1798844    -3.130202   -1.5683508    0.1070337    -3.130202    1.5618512   497525 
 3799000     1.180514   -3.1302902   -1.5677217    0.1022625   -3.1302902    1.5625685   497562 
 3800000    1.1799399   -3.1314539   -1.5698995   0.11024894   -3.1314539    1.5615544   497643 
 3801000    1.1810324   -3.1313602   -1.5685232   0.10455851   -3.1313602     1.562837   497695 
 3802000    1.1796624   -3.1298735   -1.5690251   0.11102687   -3.1298735    1.5608484   497751 
 3803000    1.1818304   -3.1332842    -1.569718   0.10698837   -3.1332842    1.5635662   497799 
 3804000    1.1799912   -3.1302208   -1.5692353   0.10701065   -3.1302208    1.5609855   497846 
 3805000    1.1803584   -3.1309867   -1.5696816   0.10758606   -3.1309867    1.5613051   497899 
 3806000    1.1795225   -3.1307464   -1.5708008   0.10894287   -3.1307464    1.5599456   497980 
 3807000    1.1793259   -3.1313199   -1.5717471    0.1047255   -3.1313199    1.5595728   498016 
 3808000    1.1806314   -3.1326302   -1.5715126   0.10328408   -3.1326302    1.5611175   498074 
 3809000    1.1822753   -3.1348193   -1.5716882   0.10217289   -3.1348193    1.5631312   498125 
 3810000    1.1805123   -3.1321262   -1.5715296   0.10552387   -3.1321262    1.5605965   498190 
 3811000    1.1812575   -3.1323012   -1.5708542   0.10361393   -3.1323012     1.561447   498233 
 3812000    1.1801641   -3.1318565   -1.5720302  0.099756338   -3.1318565    1.5598263   498289 
 3813000    1.1801889    -3.130357   -1.5706764   0.10816961    -3.130357    1.5596806   498346 
 3814000    1.1813815   -3.1322375    -1.571128   0.10574765   -3.1322375    1.5611095   498393 
 3815000    1.1821691   -3.1311915   -1.5693108   0.11048893   -3.1311915    1.5618808   498479 
 3816000     1.180812   -3.1298507   -1.5699976    0.1065094   -3.1298507    1.5598531   498554 
 3817000    1.1824047   -3.1321037   -1.5703723   0.10849578   -3.1321037    1.5617314   498626 
 3818000    1.1831919    -3.132394   -1.5697889   0.10269736    -3.132394    1.5626051   498679 
 3819000    1.1809225   -3.1298588   -1.5704572    0.1072854   -3.1298588    1.5594016   498745 
 3820000     1.182021   -3.1306457   -1.5698999   0.11196893   -3.1306457    1.5607458   498779 
 3821000    1.1836549   -3.1325242   -1.5697808   0.10616347   -3.1325242    1.5627434   498830 
 3822000    1.1843357   -3.1325944   -1.5691684   0.10628614   -3.1325944     1.563426   498899 
 3823000      1.18399   -3.1320136   -1.5691913   0.10586019   -3.1320136    1.5628223   498946 
 3824000     1.184893   -3.1336395   -1.5698446    0.1053979   -3.1336395    1.5637949   499016 
 3825000    1.1832962    -3.131956    -1.570425   0.11411912    -3.131956     1.561531   499066 
 3826000    1.1835658    -3.131659   -1.5699442   0.10727651    -3.131659    1.5617148   499121 
 3827000    1.1830724   -3.1314147   -1.5704698   0.11041673   -3.1314147    1.5609448   499159 
 3828000      1.18341   -3.1316291   -1.5703358   0.11007375   -3.1316291    1.5612933   499190 
 3829000    1.1841365   -3.1325106   -1.5704622   0.10124751   -3.1325106    1.5620484   499255 
 3830000    1.1840057   -3.1317994   -1.5700111   0.10749492   -3.1317994    1.5617883   499283 
 3831000    1.1856391   -3.1334153   -1.5696886   0.10824281   -3.1334153    1.5637267   499352 
 3832000    1.1824887     -3.12903   -1.5695709   0.10743747     -3.12903    1.5594592   499388 
 3833000    1.1846772   -3.1317852   -1.5696651   0.10922254   -3.1317852    1.5621202   499460 
 3834000    1.1846355   -3.1313637     -1.56963   0.10479453   -3.1313637    1.5617337   499566 
 3835000    1.1852029   -3.1304217    -1.568165   0.11030797   -3.1304217    1.5622567   499638 
 3836000    1.1857341   -3.1322417   -1.5694882    0.1098229   -3.1322417    1.5627535   499703 
 3837000    1.1859109   -3.1318544   -1.5691149   0.10547571   -3.1318544    1.5627394   499782 
 3838000    1.1860724    -3.132556     -1.56976   0.10407829    -3.132556     1.562796   499832 
 3839000    1.1852248   -3.1312941   -1.5698304   0.10663862   -3.1312941    1.5614636   499901 
 3840000    1.1867369   -3.1338498   -1.5705911    0.1029848   -3.1338498    1.5632587   499964 
 3841000    1.1860019   -3.1321126   -1.5698971   0.10408443   -3.1321126    1.5622155   499988 
 3842000    1.1858657   -3.1322066    -1.570233   0.10392243   -3.1322066    1.5619735   500008 
 3843000    1.1852639   -3.1313424   -1.5703862   0.10277134   -3.1313424    1.5609562   500080 
 3844000    1.1864202   -3.1330379    -1.570734   0.10613485   -3.1330379     1.562304   500136 
 3845000    1.1866847   -3.1335881   -1.5710701   0.10421161   -3.1335881     1.562518   500179 
 3846000    1.1861831   -3.1316206   -1.5700129    0.1031835   -3.1316206    1.5616077   500259 
 3847000    1.1890048   -3.1347953   -1.5696793   0.10694714   -3.1347953     1.565116   500325 
 3848000    1.1877535   -3.1328146   -1.5694863    0.1076833   -3.1328146    1.5633283   500370 
 3849000    1.1876115   -3.1325189   -1.5695367   0.10669303   -3.1325189    1.5629821   500421 
 3850000    1.1872648   -3.1321364    -1.569798   0.10794794   -3.1321364    1.5623384   500481 
 3851000    1.1864567   -3.1314857   -1.5703509   0.10362928   -3.1314857    1.5611348   500526 
 3852000    1.1875759   -3.1325968   -1.5700487   0.10592112   -3.1325968    1.5625481   500545 
 3853000    1.1887224   -3.1342434   -1.5703837    0.1070445   -3.1342434    1.5638597   500608 
 3854000    1.1865122   -3.1323039   -1.5714423   0.10798143   -3.1323039    1.5608615   500637 
 3855000    1.1881794   -3.1338368   -1.5710442   0.10566614   -3.1338368    1.5627926   500721 
 3856000    1.1877421   -3.1342825   -1.5721867   0.10578975   -3.1342825    1.5620958   500760 
 3857000    1.1872798   -3.1348634   -1.5735783   0.10656955   -3.1348634    1.5612851   500825 
 3858000    1.1872416   -3.1343091    -1.573227   0.10402416   -3.1343091    1.5610821   500874 
 3859000     1.186052   -3.1334836   -1.5741307   0.10638156   -3.1334836    1.5593529   500927 
 3860000    1.1874723   -3.1347848   -1.5737453   0.10834595   -3.1347848    1.5610396   500985 
 3861000    1.1872528   -3.1345581   -1.5740127   0.10795159   -3.1345581    1.5605454   501051 
 3862000    1.1882947   -3.1352571   -1.5735511   0.10241466   -3.1352571     1.561706   501118 
 3863000    1.1890169   -3.1354274   -1.5729936   0.10595839   -3.1354274    1.5624338   501189 
 3864000    1.1887608    -3.134152   -1.5721295   0.10212098    -3.134152    1.5620225   501213 
 3865000    1.1888009   -3.1333596   -1.5714371   0.10508445   -3.1333596    1.5619225   501262 
 3866000     1.189514   -3.1344852   -1.5718283   0.10944484   -3.1344852    1.5626568   501327 
 3867000    1.1894257   -3.1341639   -1.5717727   0.10698734   -3.1341639    1.5623912   501375 
 3868000     1.191232   -3.1359755    -1.571427   0.10563048   -3.1359755    1.5645485   501444 
 3869000    1.1897984   -3.1344647   -1.5719517   0.10683885   -3.1344647    1.5625129   501493 
 3870000    1.1886728    -3.134872   -1.5740769   0.10732677    -3.134872    1.5607951   501570 
 3871000    1.1900874   -3.1359046   -1.5732832   0.10164326   -3.1359046    1.5626214   501580 
 3872000    1.1903268   -3.1352673   -1.5725465   0.10465598   -3.1352673    1.5627208   501649 
 3873000    1.1908301    -3.135514   -1.5721886   0.10642691    -3.135514    1.5633254   501667 
 3874000    1.1903622   -3.1354931   -1.5729875   0.10291171   -3.1354931    1.5625057   501733 
 3875000    1.1901551   -3.1360445   -1.5739882   0.10960181   -3.1360445    1.5620563   501790 
 3876000    1.1909375   -3.1363607   -1.5734706   0.10513895   -3.1363607    1.5628901   501852 
 3877000    1.1911943   -3.1363444   -1.5733882   0.10392448   -3.1363444    1.5629562   501939 
 3878000    1.1907631   -3.1349847   -1.5727281   0.10695645   -3.1349847    1.5622566   501982 
 3879000    1.1909067   -3.1356569   -1.5733115   0.10737329   -3.1356569    1.5623454   502014 
 3880000    1.1899768   -3.1338917   -1.5729187   0.10894577   -3.1338917     1.560973   502063 
 3881000    1.1900353   -3.1334479   -1.5725441   0.10291746   -3.1334479    1.5609037   502110 
 3882000    1.1924743   -3.1382057   -1.5742898   0.10372922   -3.1382057    1.5639159   502170 
 3883000    1.1906984   -3.1357486   -1.5743949   0.10544657   -3.1357486    1.5613536   502245 
 3884000    1.1917121   -3.1369517   -1.5744275   0.10497359   -3.1369517    1.5625242   502296 
 3885000    1.1907499   -3.1364384   -1.5753622   0.10498904   -3.1364384    1.5610762   502356 
 3886000    1.1914251   -3.1361968   -1.5743101    0.1032696   -3.1361968    1.5618868   502380 
 3887000    1.1904901   -3.1361041    -1.575589  0.097686684   -3.1361041    1.5605151   502427 
 3888000    1.1909126   -3.1366642   -1.5757786   0.10357177   -3.1366642    1.5608855   502486 
 3889000    1.1899432   -3.1352546   -1.5757265   0.10304197   -3.1352546    1.5595281   502514 
 3890000    1.1912801   -3.1369391   -1.5757986   0.10710747   -3.1369391    1.5611405   502559 
 3891000    1.1922074   -3.1383054   -1.5761145   0.10153734   -3.1383054    1.5621909   502612 
 3892000    1.1902458   -3.1349885     -1.57552   0.10666133   -3.1349885    1.5594685   502661 
 3893000    1.1920428   -3.1363517    -1.574737   0.10639313   -3.1363517    1.5616147   502728 
 3894000    1.1910469    -3.135809   -1.5756292   0.10782518    -3.135809    1.5601798   502770 
 3895000    1.1928809   -3.1368952   -1.5745244   0.10493964   -3.1368952    1.5623708   502838 
 3896000    1.1932154    -3.136381   -1.5736777   0.10647208    -3.136381    1.5627033   502872 
 3897000    1.1933851   -3.1361802   -1.5734069   0.10323748   -3.1361802    1.5627733   502921 
 3898000     1.193209   -3.1349741   -1.5725899   0.10710472   -3.1349741    1.5623842   502972 
 3899000    1.1957665   -3.1381653   -1.5725257   0.10894197   -3.1381653    1.5656396   503002 
 3900000    1.1959608   -3.1384329   -1.5727069   0.10678251   -3.1384329     1.565726   503056 
 3901000    1.1949918   -3.1371428   -1.5728845   0.10875366   -3.1371428    1.5642584   503120 
 3902000    1.1936976   -3.1365873   -1.5741566   0.10935275   -3.1365873    1.5624307   503163 
 3903000    1.1941043   -3.1370484   -1.5743463   0.10706636   -3.1370484    1.5627021   503247 
 3904000    1.1937314   -3.1357285   -1.5736292   0.11391947   -3.1357285    1.5620992   503284 
 3905000    1.1945946   -3.1375999   -1.5745108   0.10302778   -3.1375999     1.563089   503329 
 3906000    1.1965097   -3.1395849   -1.5741331   0.10674732   -3.1395849    1.5654518   503375 
 3907000    1.1941241   -3.1361157   -1.5739527   0.10507542   -3.1361157    1.5621631   503429 
 3908000    1.1934732   -3.1359297   -1.5748476   0.10798852   -3.1359297    1.5610821   503503 
 3909000    1.1955838     -3.13833   -1.5746704   0.10636467     -3.13833    1.5636596   503562 
 3910000    1.1948677   -3.1390595   -1.5765413   0.10425731   -3.1390595    1.5625181   503628 
 3911000    1.1949755   -3.1397444   -1.5771907   0.10387324   -3.1397444    1.5625537   503662 
 3912000    1.1955143    -3.140748   -1.5776108    0.1063197    -3.140748    1.5631372   503701 
 3913000     1.194761   -3.1373926   -1.5754575   0.10972603   -3.1373926    1.5619351   503771 
 3914000    1.1939678   -3.1363231   -1.5756263    0.1089803   -3.1363231    1.5606968   503836 
 3915000    1.1955108    -3.138174   -1.5756339   0.10388035    -3.138174    1.5625402   503892 
 3916000    1.1955786   -3.1379143   -1.5755274   0.11186134   -3.1379143    1.5623869   503970 
 3917000    1.1968353   -3.1384473   -1.5745423   0.10926721   -3.1384473     1.563905   504010 
 3918000    1.1977333   -3.1401546   -1.5752222   0.10740031   -3.1401546    1.5649325   504057 
 3919000    1.1979898   -3.1406607   -1.5755514   0.11222874   -3.1406607    1.5651093   504108 
 3920000    1.1959714   -3.1373655    -1.575045   0.10921228   -3.1373655    1.5623205   504157 
 3921000    1.1970079   -3.1390493   -1.5755454   0.10983537   -3.1390493    1.5635039   504212 
 3922000    1.1986127   -3.1411399   -1.5757417   0.10792797   -3.1411399    1.5653982   504277 
 3923000     1.198621   -3.1393885   -1.5742278   0.11302755   -3.1393885    1.5651608   504357 
 3924000    1.2002813   -3.1417727    -1.574593   0.10557923   -3.1417727    1.5671797   504405 
 3925000    1.1981351   -3.1405233   -1.5763909   0.10651952   -3.1405233    1.5641324   504484 
 3926000    1.1999414   -3.1416775   -1.5754167   0.10851127   -3.1416775    1.5662608   504558 
 3927000    1.2006687   -3.1416247   -1.5745481   0.11598664   -3.1416247    1.5670766   504601 
 3928000    1.1995963   -3.1409404   -1.5754496   0.11004221   -3.1409404    1.5654908   504661 
 3929000    1.1985523   -3.1398421    -1.575906   0.11064625   -3.1398421    1.5639361   504723 
 3930000    1.1997444   -3.1420398    -1.576666   0.10620537   -3.1420398    1.5653738   504761 
 3931000     1.198262   -3.1387015   -1.5754508   0.11174892   -3.1387015    1.5632508   504822 
 3932000    1.1985221    -3.140527   -1.5770639    0.1115636    -3.140527    1.5634631   504863 
 3933000    1.1991036   -3.1414628   -1.5773403   0.10771046   -3.1414628    1.5641226   504895 
 3934000     1.197422   -3.1401525   -1.5783194   0.10739796   -3.1401525    1.5618331   504926 
 3935000    1.1988984   -3.1407033   -1.5770838   0.10689568   -3.1407033    1.5636194   504971 
 3936000    1.2007007   -3.1426071   -1.5768262   0.10483736   -3.1426071    1.5657809   505032 
 3937000    1.2001878   -3.1409227   -1.5760027   0.11222825   -3.1409227      1.56492   505094 
 3938000     1.199939    -3.141527   -1.5770925   0.11167523    -3.141527    1.5644345   505146 
 3939000    1.1994637   -3.1410684   -1.5775105   0.11094239   -3.1410684    1.5635579   505229 
 3940000    1.1980874    -3.139421   -1.5778086    0.1119212    -3.139421    1.5616124   505278 
 3941000    1.2009524   -3.1426353   -1.5774497   0.10424876   -3.1426353    1.5651856   505330 
 3942000    1.1993556   -3.1398977   -1.5770437   0.10546103   -3.1398977     1.562854   505411 
 3943000    1.1996024   -3.1410332   -1.5780369   0.10259543   -3.1410332    1.5629963   505469 
 3944000    1.1987156   -3.1405298    -1.578794    0.1093358   -3.1405298    1.5617358   505503 
 3945000    1.1996017    -3.141924   -1.5791852   0.10072948    -3.141924    1.5627388   505552 
 3946000    1.2000184   -3.1420195   -1.5789296   0.10948205   -3.1420195    1.5630899   505614 
 3947000    1.1981943    -3.140619   -1.5801366   0.10598965    -3.140619    1.5604824   505689 
 3948000     1.200069   -3.1417005   -1.5789898   0.10361628   -3.1417005    1.5627107   505758 
 3949000    1.2002237   -3.1421779    -1.579411   0.10423781   -3.1421779    1.5627669   505805 
 3950000     1.199273   -3.1411388   -1.5797702   0.10672196   -3.1411388    1.5613686   505857 
 3951000    1.2011518   -3.1419584   -1.5782829   0.10943042   -3.1419584    1.5636755   505902 
 3952000    1.2010418   -3.1422706   -1.5788835   0.11217272   -3.1422706    1.5633871   505949 
 3953000    1.2021948   -3.1449143   -1.5801749   0.10493747   -3.1449143    1.5647394   505997 
 3954000    1.2035978   -3.1454073   -1.5790151   0.10202546   -3.1454073    1.5663922   506053 
 3955000    1.2034782     -3.14576   -1.5796658   0.10988617     -3.14576    1.5660942   506099 
 3956000     1.203882   -3.1456721   -1.5791856   0.10273121   -3.1456721    1.5664865   506142 
 3957000    1.2023862   -3.1434727   -1.5790591   0.10804861   -3.1434727    1.5644135   506183 
 3958000    1.2034948   -3.1445692    -1.578837   0.11058876   -3.1445692    1.5657322   506223 
 3959000    1.2037347   -3.1449112   -1.5789473   0.11797103   -3.1449112    1.5659639   506249 
 3960000    1.2059699   -3.1475724   -1.5787844   0.11101665   -3.1475724     1.568788   506276 
 3961000    1.2046323   -3.1449244   -1.5780745    0.1088086   -3.1449244      1.56685   506340 
 3962000    1.2044328   -3.1450354   -1.5785687   0.11176748   -3.1450354    1.5664667   506380 
 3963000    1.2050514   -3.1461557   -1.5790733   0.10444875   -3.1461557    1.5670824   506441 
 3964000    1.2053045   -3.1463401   -1.5791978    0.1122237   -3.1463401    1.5671423   506528 
 3965000    1.2045139   -3.1457694   -1.5797632   0.11236078   -3.1457694    1.5660062   506563 
 3966000    1.2044075   -3.1460556   -1.5804226   0.11203636   -3.1460556    1.5656329   506639 
 3967000    1.2048449   -3.1450534   -1.5789817    0.1106225   -3.1450534    1.5660717   506681 
 3968000    1.2061806   -3.1458574   -1.5782382   0.11265742   -3.1458574    1.5676192   506742 
 3969000     1.203231   -3.1446194   -1.5809633   0.10451687   -3.1446194    1.5636561   506784 
 3970000     1.204882   -3.1457422   -1.5801753   0.10447943   -3.1457422    1.5655669   506860 
 3971000    1.2042894   -3.1437624   -1.5791291   0.10938071   -3.1437624    1.5646333   506913 
 3972000    1.2069829   -3.1452564   -1.5772906   0.10909236   -3.1452564    1.5679657   506967 
 3973000    1.2063292   -3.1441378   -1.5772067   0.10828973   -3.1441378    1.5669311   507027 
 3974000    1.2064155    -3.144209   -1.5773451    0.1089892    -3.144209     1.566864   507085 
 3975000    1.2059676   -3.1421167   -1.5759704   0.10687576   -3.1421167    1.5661463   507129 
 3976000    1.2066796   -3.1432296   -1.5762575   0.10951953   -3.1432296    1.5669721   507161 
 3977000    1.2080324   -3.1442515   -1.5756588   0.11004426   -3.1442515    1.5685927   507205 
 3978000    1.2058436   -3.1415973   -1.5759671   0.11290916   -3.1415973    1.5656303   507244 
 3979000    1.2056444   -3.1410178   -1.5757944     0.110478   -3.1410178    1.5652234   507292 
 3980000    1.2056235   -3.1399729    -1.574903   0.11118274   -3.1399729    1.5650699   507333 
 3981000    1.2071243   -3.1419819   -1.5750997   0.10907521   -3.1419819    1.5668822   507377 
 3982000    1.2046629    -3.139925   -1.5763457   0.10607483    -3.139925    1.5635794   507412 
 3983000    1.2050585    -3.139979   -1.5760834   0.10541587    -3.139979    1.5638956   507476 
 3984000     1.205569   -3.1416261   -1.5772221   0.11091756   -3.1416261     1.564404   507526 
 3985000    1.2061798   -3.1421768   -1.5772546    0.1045171   -3.1421768    1.5649222   507615 
 3986000    1.2051335   -3.1417952    -1.578403   0.10865958   -3.1417952    1.5633922   507671 
 3987000    1.2055853   -3.1418266   -1.5779562   0.10740042   -3.1418266    1.5638704   507706 
 3988000    1.2059654    -3.141445   -1.5772139   0.11385739    -3.141445     1.564231   507749 
 3989000    1.2058938   -3.1416724    -1.577605   0.10670477   -3.1416724    1.5640674   507772 
 3990000    1.2074402   -3.1429972   -1.5771955   0.10723091   -3.1429972    1.5658017   507860 
 3991000    1.2080858   -3.1430696    -1.576625   0.10194284   -3.1430696    1.5664446   507923 
 3992000     1.208753    -3.142854   -1.5757201   0.11333735    -3.142854    1.5671338   507980 
 3993000    1.2073924   -3.1430451    -1.577817   0.11407957   -3.1430451     1.565228   508026 
 3994000    1.2078872    -3.144415   -1.5786996   0.10872064    -3.144415    1.5657154   508076 
 3995000    1.2096623    -3.145574   -1.5777212   0.10691654    -3.145574    1.5678528   508129 
 3996000     1.208241   -3.1436445    -1.577828   0.10772712   -3.1436445    1.5658165   508192 
 3997000    1.2111401   -3.1469794   -1.5776373   0.11261999   -3.1469794     1.569342   508267 
 3998000    1.2076179   -3.1436138   -1.5790265   0.10655593   -3.1436138    1.5645872   508329 
 3999000     1.210187   -3.1453531   -1.5775947   0.11487833   -3.1453531    1.5677584   508380 
 4000000    1.2097426   -3.1464973   -1.5795211   0.10898014   -3.1464973    1.5669762   508447 
 4001000    1.2088989   -3.1455066   -1.5798048   0.11326077   -3.1455066    1.5657018   508506 
 4002000    1.2111544   -3.1478712   -1.5793161   0.10907482   -3.1478712    1.5685551   508528 
 4003000    1.2097106    -3.147524   -1.5809189   0.10983195    -3.147524    1.5666051   508554 
 4004000    1.2097365   -3.1479525    -1.581474   0.11023685   -3.1479525    1.5664785   508606 
 4005000    1.2093506   -3.1473745   -1.5815589   0.10560444   -3.1473745    1.5658157   508659 
 4006000       1.2104   -3.1483038   -1.5812434    0.1136238   -3.1483038    1.5670604   508696 
 4007000    1.2089086   -3.1471188   -1.5821523   0.11032051   -3.1471188    1.5649665   508749 
 4008000    1.2112939   -3.1490228   -1.5811473   0.10456887   -3.1490228    1.5678755   508807 
 4009000    1.2110784   -3.1500831   -1.5825851    0.1043277   -3.1500831    1.5674981   508839 
 4010000      1.21013   -3.1485798   -1.5824109   0.11164977   -3.1485798    1.5661689   508872 
 4011000    1.2104213   -3.1507841   -1.5843522   0.10112229   -3.1507841     1.566432   508909 
 4012000    1.2110645   -3.1499919   -1.5829184   0.11333728   -3.1499919    1.5670735   508971 
 4013000    1.2113665   -3.1503891    -1.583045   0.11216605   -3.1503891    1.5673441   509010 
 4014000     1.210918    -3.149933   -1.5832952    0.1127527    -3.149933    1.5666378   509051 
 4015000    1.2100468    -3.148566     -1.58328   0.10880091    -3.148566     1.565286   509124 
 4016000    1.2122281   -3.1517103   -1.5836611   0.10703962   -3.1517103    1.5680493   509143 
 4017000    1.2100208   -3.1481561   -1.5831281    0.1134119   -3.1481561     1.565028   509197 
 4018000    1.2111047   -3.1486707   -1.5823669   0.11314723   -3.1486707    1.5663038   509238 
 4019000    1.2112144   -3.1493622   -1.5830519   0.10756798   -3.1493622    1.5663103   509282 
 4020000    1.2100235   -3.1487945   -1.5841686   0.11265703   -3.1487945    1.5646259   509329 
 4021000    1.2106794   -3.1487701   -1.5833974   0.11027446   -3.1487701    1.5653727   509362 
 4022000    1.2097628   -3.1483009   -1.5842516   0.10895163   -3.1483009    1.5640493   509407 
 4023000    1.2105382   -3.1489945   -1.5839919   0.11126103   -3.1489945    1.5650027   509423 
 4024000    1.2127675   -3.1508156   -1.5830601   0.10981511   -3.1508156    1.5677555   509465 
 4025000    1.2123569     -3.14985   -1.5827975   0.10543662     -3.14985    1.5670525   509521 
 4026000    1.2115056   -3.1489558   -1.5831451   0.11088057   -3.1489558    1.5658107   509567 
 4027000    1.2111692   -3.1490099   -1.5837629    0.1104129   -3.1490099     1.565247   509609 
 4028000    1.2121861    -3.151075   -1.5846154   0.10345452    -3.151075    1.5664596   509642 
 4029000    1.2112573   -3.1481856   -1.5831165   0.11425225   -3.1481856    1.5650691   509704 
 4030000    1.2138344   -3.1499089   -1.5816699   0.10795574   -3.1499089     1.568239   509756 
 4031000    1.2126448   -3.1480061     -1.58151    0.1114117   -3.1480061    1.5664961   509823 
 4032000    1.2126859    -3.148622   -1.5821926   0.11317734    -3.148622    1.5664294   509862 
 4033000    1.2126953   -3.1473922   -1.5811319   0.11055274   -3.1473922    1.5662602   509921 
 4034000    1.2122658    -3.147612   -1.5820385   0.11090981    -3.147612    1.5655735   509964 
 4035000    1.2126588   -3.1478185   -1.5818419    0.1078196   -3.1478185    1.5659766   509998 
 4036000    1.2139272   -3.1502385   -1.5829097   0.11041256   -3.1502385    1.5673288   510091 
 4037000    1.2113141    -3.147406   -1.5836136    0.1091685    -3.147406    1.5637924   510144 
 4038000    1.2114996   -3.1469415   -1.5831487   0.10791433   -3.1469415    1.5637929   510222 
 4039000    1.2128093   -3.1491612    -1.583871   0.10895471   -3.1491612    1.5652902   510285 
 4040000    1.2129435   -3.1495479   -1.5842901   0.10328719   -3.1495479    1.5652578   510352 
 4041000    1.2139276   -3.1495185   -1.5831594    0.1079615   -3.1495185     1.566359   510407 
 4042000    1.2141135   -3.1501291   -1.5837113   0.10895121   -3.1501291    1.5664178   510466 
 4043000    1.2143836   -3.1499721   -1.5834176   0.10698419   -3.1499721    1.5665545   510535 
 4044000    1.2130911   -3.1485367   -1.5837446   0.10705291   -3.1485367    1.5647921   510566 
 4045000    1.2142591   -3.1497777   -1.5836937   0.10701418   -3.1497777     1.566084   510636 
 4046000    1.2147605   -3.1501535   -1.5834596   0.10834764   -3.1501535    1.5666939   510648 
 4047000    1.2143278   -3.1501468   -1.5842041   0.10964271   -3.1501468    1.5659427   510711 
 4048000    1.2158067   -3.1513154   -1.5836529   0.10809177   -3.1513154    1.5676625   510772 
 4049000     1.215325   -3.1516292    -1.584692   0.10922171   -3.1516292    1.5669371   510806 
 4050000    1.2146379   -3.1502425   -1.5843261   0.11177799   -3.1502425    1.5659164   510850 
 4051000    1.2143053   -3.1491318   -1.5838434   0.11366983   -3.1491318    1.5652885   510915 
 4052000    1.2171035   -3.1515453   -1.5828617   0.10235682   -3.1515453    1.5686835   510984 
 4053000    1.2158612   -3.1518165   -1.5848568   0.11164301   -3.1518165    1.5669597   511024 
 4054000    1.2148311   -3.1500277   -1.5845885   0.10738546   -3.1500277    1.5654392   511087 
 4055000    1.2155463   -3.1509617   -1.5847726   0.10413657   -3.1509617    1.5661892   511143 
 4056000    1.2177251   -3.1534903   -1.5845858   0.10939915   -3.1534903    1.5689045   511173 
 4057000    1.2179132   -3.1534957   -1.5845209   0.10692475   -3.1534957    1.5689748   511229 
 4058000    1.2155192   -3.1522319   -1.5864759   0.11137683   -3.1522319     1.565756   511273 
 4059000    1.2158072   -3.1519109   -1.5858451   0.11280111   -3.1519109    1.5660658   511293 
 4060000    1.2164693   -3.1530239   -1.5862769   0.11163017   -3.1530239     1.566747   511349 
 4061000    1.2135435   -3.1504419   -1.5876924   0.11768564   -3.1504419    1.5627495   511424 
 4062000    1.2154881   -3.1535576   -1.5884937   0.10683059   -3.1535576    1.5650639   511486 
 4063000     1.216937   -3.1542865   -1.5875652    0.1110278   -3.1542865    1.5667213   511554 
 4064000    1.2155531   -3.1535186   -1.5886677   0.10976092   -3.1535186    1.5648509   511583 
 4065000    1.2162907   -3.1543612   -1.5886403   0.10867957   -3.1543612    1.5657209   511609 
 4066000    1.2166625   -3.1549171    -1.588892   0.11137942   -3.1549171    1.5660251   511666 
 4067000    1.2163841   -3.1538116   -1.5883193   0.11238641   -3.1538116    1.5654923   511723 
 4068000     1.216701   -3.1549507   -1.5892128   0.10748446   -3.1549507    1.5657379   511776 
 4069000    1.2176659   -3.1552582   -1.5884194   0.11300113   -3.1552582    1.5668389   511822 
 4070000    1.2201442   -3.1558976   -1.5859771   0.10709012   -3.1558976    1.5699204   511857 
 4071000    1.2177951   -3.1545459   -1.5877275   0.11979854   -3.1545459    1.5668184   511883 
 4072000    1.2181487    -3.154898   -1.5877503    0.1137437    -3.154898    1.5671477   511924 
 4073000    1.2184649   -3.1556843   -1.5882553   0.11473864   -3.1556843     1.567429   511965 
 4074000    1.2177186   -3.1555439   -1.5891911   0.11549011   -3.1555439    1.5663528   512003 
 4075000    1.2215272   -3.1587154   -1.5876447   0.11169007   -3.1587154    1.5710707   512062 
 4076000    1.2207358   -3.1571332   -1.5872827   0.11578833   -3.1571332    1.5698505   512128 
 4077000    1.2195125   -3.1556633   -1.5874381   0.11088012   -3.1556633    1.5682252   512145 
 4078000    1.2198427   -3.1561592   -1.5876532   0.11536626   -3.1561592    1.5685059   512192 
 4079000    1.2193763    -3.155933   -1.5881493   0.11498799    -3.155933    1.5677838   512232 
 4080000    1.2202449   -3.1564604   -1.5877251   0.11580907   -3.1564604    1.5687353   512286 
 4081000    1.2191134   -3.1549575   -1.5878391   0.11446128   -3.1549575    1.5671184   512339 
 4082000    1.2187818   -3.1548206   -1.5882324   0.11799707   -3.1548206    1.5665882   512373 
 4083000     1.218288   -3.1552602   -1.5894167   0.11152313   -3.1552602    1.5658435   512409 
 4084000    1.2194119   -3.1574264   -1.5902241   0.10755904   -3.1574264    1.5672023   512437 
 4085000    1.2179493   -3.1543778   -1.5891407   0.11195016   -3.1543778    1.5652371   512465 
 4086000    1.2185129   -3.1554253   -1.5895495   0.11380969   -3.1554253    1.5658758   512493 
 4087000    1.2177227   -3.1556241   -1.5908675   0.11138516   -3.1556241    1.5647566   512527 
 4088000    1.2192097   -3.1561224   -1.5896506   0.10691945   -3.1561224    1.5664718   512591 
 4089000    1.2192555   -3.1546898   -1.5884005   0.11454568   -3.1546898    1.5662892   512670 
 4090000    1.2189678   -3.1547597   -1.5889104   0.10934157   -3.1547597    1.5658493   512693 
 4091000    1.2187556   -3.1548418   -1.5894086   0.10792857   -3.1548418    1.5654332   512740 
 4092000    1.2200257   -3.1575554   -1.5906466   0.10687866   -3.1575554    1.5669088   512791 
 4093000    1.2186823   -3.1549323    -1.589935    0.1133172   -3.1549323    1.5649973   512852 
 4094000    1.2196833   -3.1563902   -1.5902816   0.10862584   -3.1563902    1.5661086   512909 
 4095000     1.219782   -3.1566876   -1.5906537   0.10389012   -3.1566876    1.5660339   512975 
 4096000    1.2194125   -3.1548679   -1.5894671   0.11111469   -3.1548679    1.5654008   513027 
 4097000    1.2190171    -3.155192   -1.5904909   0.11590395    -3.155192    1.5647011   513090 
 4098000    1.2211554   -3.1571407   -1.5898324   0.11102852   -3.1571407    1.5673082   513135 
 4099000    1.2227379   -3.1591865   -1.5900276   0.10978445   -3.1591865    1.5691589   513194 
 4100000    1.2232945   -3.1590278   -1.5893441    0.1106244   -3.1590278    1.5696837   513256 
 4101000    1.2232498    -3.157057   -1.5875928   0.11100275    -3.157057    1.5694642   513309 
 4102000    1.2239058   -3.1574631   -1.5873317   0.11380627   -3.1574631    1.5701315   513366 
 4103000    1.2223007   -3.1563809   -1.5884827   0.11544547   -3.1563809    1.5678982   513423 
 4104000    1.2228212   -3.1577355   -1.5894018   0.11193164   -3.1577355    1.5683337   513499 
 4105000    1.2229913   -3.1572409   -1.5888966   0.10602419   -3.1572409    1.5683443   513567 
 4106000    1.2229887   -3.1576834   -1.5895073   0.11534604   -3.1576834     1.568176   513621 
 4107000    1.2229624   -3.1585321   -1.5905821   0.11395545   -3.1585321      1.56795   513684 
 4108000    1.2224679   -3.1576636   -1.5905337   0.11422235   -3.1576636    1.5671299   513745 
 4109000    1.2225364   -3.1581697   -1.5911228   0.11363241   -3.1581697    1.5670469   513801 
 4110000    1.2227493   -3.1582708   -1.5909968   0.11216368   -3.1582708     1.567274   513816 
 4111000    1.2235821   -3.1588458   -1.5906998   0.11805652   -3.1588458    1.5681461   513880 
 4112000    1.2226037   -3.1578649   -1.5911068   0.11347587   -3.1578649    1.5667581   513924 
 4113000    1.2223101   -3.1572571    -1.591046   0.11319385   -3.1572571    1.5662112   513980 
 4114000    1.2253087   -3.1605717   -1.5906282   0.10944921   -3.1605717    1.5699435   514016 
 4115000    1.2237217   -3.1578041   -1.5900526   0.11468018   -3.1578041    1.5677515   514068 
 4116000    1.2237775   -3.1588439   -1.5911245   0.11526518   -3.1588439    1.5677194   514102 
 4117000    1.2243155   -3.1587198    -1.590473    0.1124131   -3.1587198    1.5682468   514155 
 4118000    1.2250121   -3.1588284   -1.5898296   0.11450633   -3.1588284    1.5689987   514201 
 4119000    1.2228979   -3.1552732   -1.5891376     0.117705   -3.1552732    1.5661356   514252 
 4120000    1.2241058   -3.1574277   -1.5898579   0.10584132   -3.1574277    1.5675697   514289 
 4121000    1.2243604   -3.1586571   -1.5908864    0.1044822   -3.1586571    1.5677707   514330 
 4122000    1.2241308   -3.1589471   -1.5916745   0.11199173   -3.1589471    1.5672726   514397 
 4123000    1.2241756   -3.1581225   -1.5909723   0.11078094   -3.1581225    1.5671502   514456 
 4124000     1.224027   -3.1583434   -1.5915723   0.10865858   -3.1583434    1.5667711   514518 
 4125000    1.2235658    -3.158132   -1.5921187   0.11172384    -3.158132    1.5660134   514573 
 4126000    1.2252518    -3.159452   -1.5914209   0.10769585    -3.159452    1.5680311   514619 
 4127000    1.2247527   -3.1587692    -1.591526   0.10703705   -3.1587692    1.5672431   514668 
 4128000    1.2260254   -3.1604761   -1.5917355   0.10363773   -3.1604761    1.5687406   514711 
 4129000    1.2252302    -3.158695   -1.5911698   0.10931129    -3.158695    1.5675252   514776 
 4130000    1.2248389   -3.1584508   -1.5915662   0.11512538   -3.1584508    1.5668845   514822 
 4131000    1.2260197   -3.1592687   -1.5910259   0.11626993   -3.1592687    1.5682429   514872 
 4132000    1.2268913   -3.1616294   -1.5924515    0.1138321   -3.1616294    1.5691779   514931 
 4133000    1.2263512   -3.1618061   -1.5934255   0.10238025   -3.1618061    1.5683805   514966 
 4134000    1.2252576   -3.1599363   -1.5931004    0.1094823   -3.1599363    1.5668359   515014 
 4135000    1.2254161   -3.1610324   -1.5940607   0.11091387   -3.1610324    1.5669717   515036 
 4136000    1.2257448   -3.1618487   -1.5946425   0.11334538   -3.1618487    1.5672063   515097 
 4137000    1.2266878   -3.1626889     -1.59449   0.10452882   -3.1626889    1.5681989   515167 
 4138000    1.2255156   -3.1616024   -1.5950481   0.11050222   -3.1616024    1.5665543   515215 
 4139000    1.2252655   -3.1615852   -1.5954813    0.1055088   -3.1615852     1.566104   515258 
 4140000    1.2268067   -3.1631941   -1.5952876   0.10787192   -3.1631941    1.5679065   515313 
 4141000    1.2262317   -3.1632995    -1.596286   0.11122059   -3.1632995    1.5670135   515365 
 4142000    1.2256042   -3.1609395   -1.5948829   0.11442757   -3.1609395    1.5660566   515416 
 4143000    1.2273448   -3.1629884   -1.5948019   0.11729673   -3.1629884    1.5681864   515447 
 4144000    1.2263354   -3.1625281   -1.5957711   0.10942675   -3.1625281    1.5667569   515493 
 4145000    1.2284729   -3.1643752   -1.5950914   0.10798407   -3.1643752    1.5692838   515560 
 4146000    1.2272344   -3.1622388   -1.5946891   0.11122247   -3.1622388    1.5675497   515610 
 4147000    1.2275321   -3.1632354    -1.595497   0.11136419   -3.1632354    1.5677384   515673 
 4148000    1.2283024   -3.1636058   -1.5950418   0.11035074   -3.1636058     1.568564   515725 
 4149000    1.2281622   -3.1628514   -1.5946246   0.11292101   -3.1628514    1.5682268   515777 
 4150000    1.2270248   -3.1634556   -1.5968482   0.11196094   -3.1634556    1.5666074   515832 
 4151000    1.2291218   -3.1651371   -1.5960348   0.10464405   -3.1651371    1.5691023   515892 
 4152000    1.2276045   -3.1625186   -1.5954839   0.11066394   -3.1625186    1.5670346   515935 
 4153000    1.2283014    -3.163347   -1.5956051    0.1089867    -3.163347     1.567742   515995 
 4154000    1.2290766   -3.1647752    -1.596211   0.11102434   -3.1647752    1.5685642   516050 
 4155000    1.2298922   -3.1656298   -1.5961768   0.11136614   -3.1656298     1.569453   516100 
 4156000    1.2280862   -3.1634839   -1.5964509   0.11408933   -3.1634839     1.567033   516138 
 4157000    1.2298707    -3.166824   -1.5976508   0.11178883    -3.166824    1.5691732   516183 
 4158000    1.2287349   -3.1649181   -1.5972821   0.10588672   -3.1649181     1.567636   516212 
 4159000    1.2288805   -3.1644851   -1.5967666   0.10844764   -3.1644851    1.5677185   516246 
 4160000    1.2290267   -3.1642157   -1.5964169   0.10847441   -3.1642157    1.5677988   516281 
 4161000    1.2265219   -3.1607087   -1.5962082   0.10805365   -3.1607087    1.5645005   516315 
 4162000    1.2283907   -3.1634826   -1.5967562   0.11778844   -3.1634826    1.5667264   516367 
 4163000     1.229856   -3.1646448   -1.5962013   0.11425295   -3.1646448    1.5684435   516417 
 4164000    1.2293851   -3.1639098   -1.5961974   0.11217801   -3.1639098    1.5677124   516460 
 4165000     1.230709   -3.1658018   -1.5964468    0.1131484   -3.1658018     1.569355   516475 
 4166000    1.2295759    -3.165351   -1.5975198   0.11402285    -3.165351    1.5678312   516501 
 4167000    1.2284198   -3.1635185   -1.5972493   0.11194734   -3.1635185    1.5662692   516530 
 4168000    1.2278122   -3.1630217   -1.5976636   0.11107235   -3.1630217    1.5653581   516575 
 4169000    1.2300568   -3.1644807   -1.5964371   0.10404521   -3.1644807    1.5680436   516633 
 4170000    1.2304034   -3.1640471   -1.5956405   0.10685851   -3.1640471    1.5684066   516659 
 4171000    1.2311412   -3.1665532   -1.5972791   0.10757867   -3.1665532    1.5692741   516683 
 4172000    1.2290053   -3.1644236    -1.597966   0.11353501   -3.1644236    1.5664576   516714 
 4173000    1.2299649   -3.1651898   -1.5976456    0.1049103   -3.1651898    1.5675442   516759 
 4174000    1.2304505   -3.1653399   -1.5973043   0.11460539   -3.1653399    1.5680356   516801 
 4175000    1.2307353   -3.1660507   -1.5977764   0.11097411   -3.1660507    1.5682742   516842 
 4176000    1.2317103   -3.1660696   -1.5966776   0.10977382   -3.1660696     1.569392   516883 
 4177000    1.2324166    -3.167256   -1.5971249   0.11250228    -3.167256    1.5701311   516936 
 4178000    1.2325871   -3.1680052   -1.5977966   0.10958209   -3.1680052    1.5702086   516982 
 4179000    1.2298014   -3.1645292   -1.5981179   0.11786943   -3.1645292    1.5664113   517064 
 4180000    1.2334368   -3.1685437   -1.5976417   0.10528589   -3.1685437     1.570902   517110 
 4181000    1.2324444    -3.168597   -1.5990499   0.10926311    -3.168597    1.5695471   517140 
 4182000    1.2315763   -3.1674967   -1.5991675   0.10867499   -3.1674967    1.5683292   517177 
 4183000    1.2308015   -3.1656738   -1.5985251   0.11566423   -3.1656738    1.5671487   517241 
 4184000    1.2321345   -3.1666389   -1.5979567   0.11032143   -3.1666389    1.5686822   517295 
 4185000    1.2323181    -3.167081   -1.5982803   0.11566646    -3.167081    1.5688007   517333 
 4186000    1.2322972   -3.1662841   -1.5975675   0.11520752   -3.1662841    1.5687165   517352 
 4187000    1.2320487   -3.1673753   -1.5991601   0.10723306   -3.1673753    1.5682152   517413 
 4188000    1.2327935   -3.1679994   -1.5989968   0.11370822   -3.1679994    1.5690026   517466 
 4189000    1.2323953   -3.1675724    -1.599201   0.11889943   -3.1675724    1.5683715   517507 
 4190000    1.2318336   -3.1674663   -1.5999247   0.11380255   -3.1674663    1.5675416   517545 
 4191000    1.2330951   -3.1690737   -1.6000694   0.10916939   -3.1690737    1.5690043   517592 
 4192000    1.2325762   -3.1686097   -1.6004262   0.11497027   -3.1686097    1.5681835   517645 
 4193000    1.2325709   -3.1680923   -1.5999822   0.11002286   -3.1680923    1.5681101   517667 
 4194000    1.2335091   -3.1691975   -1.6000484   0.11317966   -3.1691975    1.5691491   517718 
 4195000    1.2335525     -3.16983   -1.6006832   0.11532239     -3.16983    1.5691468   517737 
 4196000    1.2320728   -3.1680956   -1.6009794    0.1142437   -3.1680956    1.5671162   517786 
 4197000     1.232552   -3.1683267   -1.6006676   0.11487129   -3.1683267    1.5676591   517808 
 4198000    1.2332455   -3.1685861   -1.6002691   0.11041427   -3.1685861     1.568317   517882 
 4199000    1.2341257   -3.1700718   -1.6007778   0.10910089   -3.1700718     1.569294   517929 
 4200000    1.2323664   -3.1682309    -1.601286   0.11325862   -3.1682309    1.5669449   517966 
 4201000    1.2328009    -3.168772   -1.6013866   0.10426914    -3.168772    1.5673854   518003 
 4202000     1.231932   -3.1682317   -1.6021051   0.11157027   -3.1682317    1.5661265   518054 
 4203000    1.2305809   -3.1664927   -1.6022379   0.11560462   -3.1664927    1.5642548   518105 
 4204000     1.231746   -3.1681415   -1.6024449   0.10911731   -3.1681415    1.5656966   518118 
 4205000    1.2304787   -3.1670395   -1.6029931   0.11266945   -3.1670395    1.5640464   518131 
 4206000    1.2336526   -3.1696219   -1.6016349   0.10819574   -3.1696219     1.567987   518162 
 4207000     1.231602   -3.1682796   -1.6030862   0.11153006   -3.1682796    1.5651934   518224 
 4208000    1.2332812   -3.1700267   -1.6029019   0.11228116   -3.1700267    1.5671247   518291 
 4209000    1.2332314   -3.1692309   -1.6023145   0.10950487   -3.1692309    1.5669164   518339 
 4210000    1.2328421   -3.1690676    -1.602791    0.1114744   -3.1690676    1.5662766   518387 
 4211000    1.2344888   -3.1709497   -1.6027443   0.10431154   -3.1709497    1.5682054   518441 
 4212000    1.2325592   -3.1685571   -1.6028875    0.1059911   -3.1685571    1.5656696   518469 
 4213000    1.2333668   -3.1698587   -1.6033144   0.10925065   -3.1698587    1.5665444   518519 
 4214000    1.2336415    -3.169905   -1.6031144   0.11269015    -3.169905    1.5667906   518553 
 4215000    1.2337683   -3.1703507   -1.6034626   0.10944251   -3.1703507    1.5668882   518574 
 4216000    1.2333446   -3.1684237   -1.6021643   0.11046893   -3.1684237    1.5662594   518604 
 4217000    1.2342411   -3.1708984   -1.6036486   0.11412984   -3.1708984    1.5672499   518653 
 4218000     1.232698   -3.1689237   -1.6037419   0.11398507   -3.1689237    1.5651818   518689 
 4219000    1.2332499   -3.1698965   -1.6041317   0.11444613   -3.1698965    1.5657648   518728 
 4220000    1.2339908    -3.170784   -1.6041541   0.11519086    -3.170784    1.5666299   518753 
 4221000    1.2359286   -3.1733706   -1.6044135   0.11115632   -3.1733706    1.5689571   518797 
 4222000    1.2344469   -3.1730442   -1.6060134   0.11271906   -3.1730442    1.5670308   518812 
 4223000    1.2323748   -3.1710875   -1.6067836    0.1107481   -3.1710875    1.5643039   518844 
 4224000    1.2351564   -3.1736693   -1.6059011   0.11122022   -3.1736693    1.5677682   518866 
 4225000    1.2354671   -3.1747836    -1.606748   0.11459621   -3.1747836    1.5680357   518908 
 4226000    1.2341215   -3.1730573    -1.606808   0.10967745   -3.1730573    1.5662494   518934 
 4227000    1.2352701     -3.17443   -1.6068014   0.11554108     -3.17443    1.5676286   518960 
 4228000    1.2347606   -3.1736126   -1.6067332   0.11398698   -3.1736126    1.5668794   518994 
 4229000    1.2342257   -3.1727811   -1.6066861   0.11319616   -3.1727811     1.566095   519029 
 4230000    1.2336612   -3.1734325   -1.6081594   0.11133287   -3.1734325    1.5652731   519064 
 4231000    1.2336471   -3.1733896    -1.608282   0.11321053   -3.1733896    1.5651075   519113 
 4232000    1.2329367   -3.1726908   -1.6085871   0.11260513   -3.1726908    1.5641037   519147 
 4233000    1.2343404   -3.1744235   -1.6086205   0.10808026   -3.1744235     1.565803   519174 
 4234000    1.2343774   -3.1748825   -1.6091984   0.11608609   -3.1748825    1.5656841   519229 
 4235000    1.2353435   -3.1765284   -1.6097667   0.10782386   -3.1765284    1.5667617   519278 
 4236000    1.2334488   -3.1735743   -1.6092849   0.11443854   -3.1735743    1.5642894   519301 
 4237000    1.2363424   -3.1769738   -1.6091626   0.11176182   -3.1769738    1.5678112   519350 
 4238000    1.2343066   -3.1734832   -1.6084193   0.10930962   -3.1734832    1.5650639   519405 
 4239000     1.235163   -3.1738613   -1.6078834   0.11436494   -3.1738613    1.5659779   519462 
 4240000     1.234172   -3.1729941   -1.6084142   0.11283212   -3.1729941    1.5645799   519509 
 4241000    1.2362419    -3.174511   -1.6074067   0.11366014    -3.174511    1.5671043   519542 
 4242000    1.2367381   -3.1753425   -1.6077419   0.11131492   -3.1753425    1.5676006   519586 
 4243000    1.2355941   -3.1733319    -1.607329   0.11515112   -3.1733319    1.5660029   519635 
 4244000    1.2356378   -3.1743658   -1.6084159   0.11070151   -3.1743658    1.5659498   519671 
 4245000    1.2351658   -3.1720309   -1.6068962   0.10990974   -3.1720309    1.5651348   519743 
 4246000    1.2374256   -3.1745458   -1.6066199   0.11151573   -3.1745458    1.5679259   519767 
 4247000    1.2370133   -3.1751635   -1.6078746   0.10920263   -3.1751635    1.5672889   519805 
 4248000    1.2354319   -3.1732419   -1.6081372   0.10994612   -3.1732419    1.5651046   519865 
 4249000    1.2376508   -3.1745592   -1.6068125    0.1055231   -3.1745592    1.5677467   519921 
 4250000    1.2352315   -3.1724427   -1.6078869   0.11081094   -3.1724427    1.5645558   519963 
 4251000    1.2370905   -3.1741865   -1.6073363   0.10806927   -3.1741865    1.5668502   519983 
 4252000    1.2372309   -3.1729609   -1.6060173   0.10904626   -3.1729609    1.5669436   520011 
 4253000    1.2376787   -3.1741021   -1.6066427   0.11273546   -3.1741021    1.5674594   520028 
 4254000    1.2366753   -3.1727256   -1.6066002   0.11503962   -3.1727256    1.5661254   520049 
 4255000    1.2380075   -3.1737401   -1.6060089   0.11062669   -3.1737401    1.5677312   520076 
 4256000     1.237399   -3.1730749   -1.6062589   0.11367085   -3.1730749     1.566816   520124 
 4257000    1.2388681   -3.1754238   -1.6068742    0.1053908   -3.1754238    1.5685496   520166 
 4258000    1.2395668   -3.1765296   -1.6071889   0.11213246   -3.1765296    1.5693407   520197 
 4259000    1.2383821    -3.173572   -1.6058789   0.10671796    -3.173572    1.5676931   520246 
 4260000     1.238669   -3.1750222    -1.606987   0.11466775   -3.1750222    1.5680352   520253 
 4261000    1.2376866   -3.1747657   -1.6080734    0.1065805   -3.1747657    1.5666922   520286 
 4262000    1.2381573   -3.1760861   -1.6089095   0.10782474   -3.1760861    1.5671766   520323 
 4263000    1.2371319   -3.1749504    -1.609177   0.11741025   -3.1749504    1.5657734   520358 
 4264000    1.2371476   -3.1759868   -1.6102959   0.10872076   -3.1759868     1.565691   520392 
 4265000    1.2384268   -3.1765659   -1.6093133   0.11102259   -3.1765659    1.5672526   520411 
 4266000    1.2379601   -3.1763667   -1.6098612   0.10866121   -3.1763667    1.5665055   520463 
 4267000    1.2377477   -3.1758673    -1.609733   0.10727234   -3.1758673    1.5661344   520497 
 4268000    1.2405802   -3.1788839   -1.6092619   0.10557891   -3.1788839    1.5696219   520529 
 4269000    1.2395672   -3.1772734   -1.6090387     0.112257   -3.1772734    1.5682347   520564 
 4270000    1.2389549   -3.1755205   -1.6081808   0.11179091   -3.1755205    1.5673397   520604 
 4271000    1.2393235   -3.1761071   -1.6083886   0.11403889   -3.1761071    1.5677186   520633 
 4272000    1.2386762    -3.174859   -1.6081548   0.12219754    -3.174859    1.5667042   520698 
 4273000     1.240622   -3.1762505   -1.6072208   0.11193027   -3.1762505    1.5690298   520743 
 4274000    1.2396145   -3.1748887   -1.6072867   0.11413113   -3.1748887     1.567602   520794 
 4275000    1.2387745   -3.1740777   -1.6076283   0.11442739   -3.1740777    1.5664495   520824 
 4276000    1.2394085   -3.1751094   -1.6079725   0.11295741   -3.1751094    1.5671369   520862 
 4277000     1.238929   -3.1738339   -1.6075078   0.11859877   -3.1738339    1.5663262   520930 
 4278000    1.2388528   -3.1749111   -1.6088016   0.11336992   -3.1749111    1.5661095   520970 
 4279000    1.2376344   -3.1733392   -1.6088481   0.11314025   -3.1733392    1.5644911   520996 
 4280000    1.2394459   -3.1759534   -1.6093918   0.11175396   -3.1759534    1.5665616   521069 
 4281000    1.2393606   -3.1757799   -1.6094524   0.11040609   -3.1757799    1.5663275   521111 
 4282000    1.2397008   -3.1753938   -1.6086965   0.11458778   -3.1753938    1.5666973   521131 
 4283000    1.2390302    -3.173491   -1.6077553   0.11484246    -3.173491    1.5657357   521169 
 4284000    1.2410729   -3.1761783   -1.6079455   0.10913843   -3.1761783    1.5682328   521197 
 4285000    1.2413039   -3.1769133   -1.6085211   0.11134904   -3.1769133    1.5683922   521241 
 4286000    1.2420716   -3.1776348   -1.6083629    0.1153725   -3.1776348    1.5692719   521271 
 4287000    1.2393365   -3.1752445   -1.6095243   0.10416877   -3.1752445    1.5657202   521303 
 4288000    1.2382038   -3.1747276   -1.6105134   0.11330182   -3.1747276    1.5642142   521328 
 4289000    1.2386185   -3.1738681   -1.6092112   0.11066243   -3.1738681     1.564657   521355 
 4290000    1.2398732   -3.1756141   -1.6095374   0.11078857   -3.1756141    1.5660767   521410 
 4291000    1.2392176   -3.1750148   -1.6099372   0.11175087   -3.1750148    1.5650776   521467 
 4292000    1.2401824   -3.1752467   -1.6090587   0.11280055   -3.1752467     1.566188   521503 
 4293000    1.2409067   -3.1758987   -1.6089342   0.11259065   -3.1758987    1.5669645   521549 
 4294000     1.241078   -3.1763274   -1.6093179   0.11358158   -3.1763274    1.5670096   521606 
 4295000    1.2406431   -3.1769454   -1.6106442   0.10741449   -3.1769454    1.5663012   521659 
 4296000    1.2413539   -3.1786266   -1.6115752   0.10524872   -3.1786266    1.5670514   521708 
 4297000     1.240402   -3.1762327   -1.6105331   0.11066796   -3.1762327    1.5656997   521758 
 4298000    1.2411802   -3.1769066   -1.6102877   0.11853913   -3.1769066    1.5666189   521779 
 4299000    1.2420271   -3.1788953   -1.6113606    0.1143153   -3.1788953    1.5675347   521830 
 4300000    1.2439204   -3.1805685   -1.6107978   0.11043227   -3.1805685    1.5697707   521881 
 4301000    1.2424318   -3.1789524   -1.6112254   0.11654735   -3.1789524     1.567727   521936 
 4302000    1.2435987   -3.1796257   -1.6105856   0.11560885   -3.1796257    1.5690401   521989 
 4303000    1.2441496   -3.1816272   -1.6119913    0.1105116   -3.1816272    1.5696359   522022 
 4304000    1.2410977   -3.1790551   -1.6133715   0.11214502   -3.1790551    1.5656836   522056 
 4305000    1.2422877   -3.1808931   -1.6138433   0.10883402   -3.1808931    1.5670498   522101 
 4306000    1.2426122   -3.1812852   -1.6139072   0.11194264   -3.1812852     1.567378   522128 
 4307000    1.2426408   -3.1824719   -1.6151989   0.11311326   -3.1824719     1.567273   522175 
 4308000    1.2430802   -3.1833512   -1.6156321   0.11553969   -3.1833512    1.5677191   522211 
 4309000    1.2424653   -3.1828666   -1.6159679    0.1147684   -3.1828666    1.5668987   522226 
 4310000    1.2432611   -3.1842289   -1.6164467      0.11642   -3.1842289    1.5677822   522266 
 4311000    1.2424279   -3.1823995   -1.6158119   0.11341432   -3.1823995    1.5665876   522314 
 4312000    1.2425043   -3.1829046   -1.6163257   0.11664305   -3.1829046    1.5665789   522349 
 4313000    1.2428024   -3.1830453   -1.6162286   0.11004203   -3.1830453    1.5668167   522395 
 4314000    1.2431154   -3.1831605   -1.6160812   0.11145231   -3.1831605    1.5670793   522439 
 4315000    1.2424011   -3.1825378   -1.6164938   0.11455482   -3.1825378     1.566044   522484 
 4316000    1.2438187   -3.1839596   -1.6163267    0.1081157   -3.1839596    1.5676329   522550 
 4317000    1.2413985   -3.1806704   -1.6161895   0.11466505   -3.1806704    1.5644809   522584 
 4318000    1.2451722   -3.1842887   -1.6151811   0.11111159   -3.1842887    1.5691076   522627 
 4319000    1.2427922   -3.1819033   -1.6158968   0.11493201   -3.1819033    1.5660065   522661 
 4320000     1.244834   -3.1835611   -1.6150508   0.10464788   -3.1835611    1.5685103   522684 
 4321000    1.2436037   -3.1843707   -1.6175006   0.11602927   -3.1843707    1.5668701   522714 
 4322000     1.242791   -3.1826325   -1.6169241   0.11403175   -3.1826325    1.5657084   522760 
 4323000    1.2423575   -3.1821498   -1.6171223   0.11121775   -3.1821498    1.5650275   522805 
 4324000    1.2418857   -3.1811084   -1.6168458   0.11231644   -3.1811084    1.5642627   522862 
 4325000    1.2428046   -3.1819198   -1.6166134   0.11059898   -3.1819198    1.5653063   522900 
 4326000    1.2427235   -3.1811964   -1.6161389   0.11531988   -3.1811964    1.5650575   522949 
 4327000    1.2425909   -3.1814963   -1.6166956   0.11304751   -3.1814963    1.5648007   522979 
 4328000     1.243271   -3.1816591   -1.6160976   0.11000747   -3.1816591    1.5655615   523011 
 4329000    1.2437082   -3.1828435   -1.6168273   0.10720298   -3.1828435    1.5660162   523043 
 4330000    1.2431564   -3.1825518   -1.6173351   0.11451061   -3.1825518    1.5652167   523078 
 4331000    1.2434635   -3.1831458   -1.6176683   0.10297765   -3.1831458    1.5654775   523120 
 4332000     1.243362   -3.1824213   -1.6171792   0.11103462   -3.1824213    1.5652421   523156 
 4333000    1.2427012   -3.1811394   -1.6168249    0.1156585   -3.1811394    1.5643145   523188 
 4334000    1.2443576   -3.1832547   -1.6169179   0.11238529   -3.1832547    1.5663368   523209 
 4335000    1.2428755    -3.181489   -1.6171465    0.1185085    -3.181489    1.5643426   523252 
 4336000    1.2419295   -3.1811393    -1.618095   0.11624924   -3.1811393    1.5630443   523288 
 4337000    1.2465894   -3.1867091   -1.6179379   0.10376026   -3.1867091    1.5687713   523334 
 4338000    1.2426969   -3.1834748   -1.6197007    0.1100808   -3.1834748    1.5637741   523367 
 4339000    1.2436935   -3.1847613   -1.6198617   0.11067171   -3.1847613    1.5648996   523410 
 4340000    1.2436054   -3.1851267   -1.6204485   0.11227078   -3.1851267    1.5646782   523447 
 4341000    1.2446076   -3.1866075   -1.6207312   0.11136711   -3.1866075    1.5658762   523468 
 4342000    1.2444446   -3.1849616    -1.619428    0.1116537   -3.1849616    1.5655337   523514 
 4343000    1.2448826   -3.1853699    -1.619381   0.10970686   -3.1853699    1.5659889   523546 
 4344000    1.2444006   -3.1856515   -1.6204603   0.10994102   -3.1856515    1.5651912   523610 
 4345000    1.2445889   -3.1856672   -1.6203377   0.11304663   -3.1856672    1.5653294   523643 
 4346000    1.2452468   -3.1862015   -1.6202061   0.11266722   -3.1862015    1.5659954   523697 
 4347000    1.2466931   -3.1891831   -1.6214886   0.11484965   -3.1891831    1.5676945   523737 
 4348000    1.2460885   -3.1874884   -1.6207188   0.11236788   -3.1874884    1.5667697   523792 
 4349000    1.2464263   -3.1884691   -1.6213913   0.11255933   -3.1884691    1.5670778   523831 
 4350000     1.246805   -3.1887007   -1.6212427   0.11064365   -3.1887007    1.5674581   523863 
 4351000    1.2463023   -3.1875067   -1.6207913   0.11917932   -3.1875067    1.5667154   523900 
 4352000    1.2477729   -3.1880825   -1.6196111   0.11408452   -3.1880825    1.5684713   523931 
 4353000    1.2460364   -3.1858566   -1.6196279   0.12108014   -3.1858566    1.5662287   523951 
 4354000    1.2475365   -3.1882779   -1.6203283   0.11182801   -3.1882779    1.5679497   524006 
 4355000    1.2480827   -3.1881943   -1.6196689   0.11451137   -3.1881943    1.5685254   524043 
 4356000    1.2487278    -3.190678   -1.6213747   0.11536373    -3.190678    1.5693033   524054 
 4357000    1.2466804   -3.1885647   -1.6218973   0.11159421   -3.1885647    1.5666675   524075 
 4358000    1.2464488   -3.1878902   -1.6216243   0.11670951   -3.1878902    1.5662658   524112 
 4359000    1.2463937   -3.1877686   -1.6216616   0.11006667   -3.1877686     1.566107   524142 
 4360000    1.2470425   -3.1877164   -1.6208331   0.10918675   -3.1877164    1.5668833   524155 
 4361000    1.2469247   -3.1882839   -1.6216592   0.11090603   -3.1882839    1.5666247   524192 
 4362000    1.2460518   -3.1878681   -1.6224327   0.10836464   -3.1878681    1.5654354   524223 
 4363000    1.2457544    -3.188297   -1.6232651   0.11252678    -3.188297    1.5650319   524233 
 4364000    1.2451175   -3.1877123   -1.6235761   0.10814241   -3.1877123    1.5641363   524265 
 4365000    1.2436767   -3.1864033   -1.6241723   0.11276779   -3.1864033     1.562231   524297 
 4366000    1.2447293    -3.187072   -1.6235993   0.11195591    -3.187072    1.5634727   524324 
 4367000    1.2453677   -3.1876271   -1.6234181   0.10868706   -3.1876271     1.564209   524346 
 4368000    1.2458398   -3.1885945    -1.623888   0.10650685   -3.1885945    1.5647065   524378 
 4369000    1.2468794   -3.1896333    -1.623663    0.1077145   -3.1896333    1.5659703   524392 
 4370000    1.2455219   -3.1877052   -1.6234816   0.11288422   -3.1877052    1.5642237   524406 
 4371000    1.2455644   -3.1877699   -1.6236241   0.10724053   -3.1877699    1.5641458   524450 
 4372000    1.2435572   -3.1848985   -1.6233656   0.11229817   -3.1848985    1.5615329   524481 
 4373000    1.2457738   -3.1873244   -1.6230767   0.11088749   -3.1873244    1.5642477   524504 
 4374000    1.2476429   -3.1895198   -1.6230446   0.10833606   -3.1895198    1.5664752   524544 
 4375000    1.2472585   -3.1897586   -1.6238526   0.11006031   -3.1897586     1.565906   524573 
 4376000    1.2445798   -3.1885739   -1.6261025   0.11716383   -3.1885739    1.5624714   524597 
 4377000    1.2454822   -3.1892726   -1.6257666   0.11784068   -3.1892726     1.563506   524630 
 4378000     1.247728   -3.1917281   -1.6255372   0.11129169   -3.1917281    1.5661909   524675 
 4379000    1.2483608   -3.1929891   -1.6261443   0.11702634   -3.1929891    1.5668448   524722 
 4380000    1.2486613   -3.1924331   -1.6252947   0.11000218   -3.1924331    1.5671383   524750 
 4381000    1.2494551   -3.1934564   -1.6254682   0.10973606   -3.1934564    1.5679882   524799 
 4382000    1.2470816   -3.1909149   -1.6259411   0.11091399   -3.1909149    1.5649738   524811 
 4383000    1.2485201   -3.1946293   -1.6279756   0.10978371   -3.1946293    1.5666536   524853 
 4384000    1.2467082    -3.191298   -1.6269925   0.11489745    -3.191298    1.5643056   524878 
 4385000    1.2469601    -3.191394   -1.6268708   0.10608613    -3.191394    1.5645232   524911 
 4386000    1.2466342   -3.1907699   -1.6267747   0.10802939   -3.1907699    1.5639952   524951 
 4387000    1.2474591   -3.1915071   -1.6264771   0.10984949   -3.1915071    1.5650301   524951 
 4388000     1.246946   -3.1916306   -1.6274053   0.11301352   -3.1916306    1.5642254   525005 
 4389000    1.2479196   -3.1923149   -1.6269636   0.11103228   -3.1923149    1.5653513   525037 
 4390000    1.2475499   -3.1918522   -1.6270659    0.1075135   -3.1918522    1.5647862   525071 
 4391000    1.2479372   -3.1914173   -1.6262675   0.11454116   -3.1914173    1.5651498   525112 
 4392000    1.2486032   -3.1936386   -1.6277727   0.10665361   -3.1936386    1.5658659   525152 
 4393000    1.2490738   -3.1933559   -1.6269745    0.1069368   -3.1933559    1.5663814   525177 
 4394000     1.249755   -3.1924055   -1.6253339   0.11061851   -3.1924055    1.5670716   525232 
 4395000     1.247968   -3.1909349   -1.6262083   0.11161032   -3.1909349    1.5647266   525267 
 4396000    1.2491543   -3.1913104    -1.625156    0.1129085   -3.1913104    1.5661544   525287 
 4397000    1.2487661   -3.1907828   -1.6252135   0.11444675   -3.1907828    1.5655693   525320 
 4398000    1.2498547   -3.1912814   -1.6244904   0.11201743   -3.1912814    1.5667909   525368 
 4399000    1.2491899   -3.1898364   -1.6240011   0.11250796   -3.1898364    1.5658353   525409 
 4400000    1.2475618   -3.1895673   -1.6259454   0.11607487   -3.1895673    1.5636219   525467 
 4401000    1.2483285   -3.1916786    -1.627194   0.11081871   -3.1916786    1.5644846   525500 
 4402000    1.2482895   -3.1912852    -1.627034   0.10823854   -3.1912852    1.5642512   525562 
 4403000    1.2481843   -3.1910883   -1.6271267   0.11034503   -3.1910883    1.5639616   525615 
 4404000    1.2473552   -3.1913187   -1.6285624   0.11469045   -3.1913187    1.5627563   525671 
 4405000    1.2483228   -3.1910026   -1.6271204   0.10962038   -3.1910026    1.5638823   525700 
 4406000    1.2500644   -3.1943753   -1.6284928   0.10327267   -3.1943753    1.5658825   525761 
 4407000    1.2476897    -3.190037   -1.6272423   0.11009536    -3.190037    1.5627948   525799 
 4408000     1.249649   -3.1916803   -1.6266099   0.10718582   -3.1916803    1.5650704   525859 
 4409000    1.2491666   -3.1902947   -1.6259504   0.11219002   -3.1902947    1.5643443   525900 
 4410000    1.2507416   -3.1926868   -1.6264982   0.11180486   -3.1926868    1.5661886   525943 
 4411000    1.2494362   -3.1912912   -1.6268711   0.10807136   -3.1912912    1.5644201   525988 
 4412000    1.2496748   -3.1916445   -1.6270356   0.10934191   -3.1916445    1.5646088   526025 
 4413000     1.250139    -3.194186   -1.6291151   0.10901113    -3.194186    1.5650709   526065 
 4414000    1.2497847   -3.1919894   -1.6274781   0.11594054   -3.1919894    1.5645114   526104 
 4415000    1.2528639   -3.1948088   -1.6265561   0.11230187   -3.1948088    1.5682527   526142 
 4416000     1.251025   -3.1942905   -1.6284973    0.1127582   -3.1942905    1.5657932   526195 
 4417000    1.2506528   -3.1939703   -1.6287351   0.11460162   -3.1939703    1.5652352   526226 
 4418000    1.2514061   -3.1938939   -1.6278231   0.11942475   -3.1938939    1.5660708   526262 
 4419000    1.2527626   -3.1964258   -1.6288331   0.10813375   -3.1964258    1.5675927   526321 
 4420000    1.2521468   -3.1942597   -1.6275358   0.11249937   -3.1942597    1.5667238   526354 
 4421000     1.252211   -3.1945234    -1.627746   0.11283942   -3.1945234    1.5667774   526363 
 4422000    1.2521072   -3.1955792   -1.6291014   0.11353077   -3.1955792    1.5664779   526420 
 4423000    1.2521646    -3.194051   -1.6276204    0.1101747    -3.194051    1.5664306   526460 
 4424000    1.2540411   -3.1966047   -1.6279785   0.11409169   -3.1966047    1.5686262   526511 
 4425000    1.2506185   -3.1934903   -1.6292255   0.11611884   -3.1934903    1.5642647   526538 
 4426000    1.2510854   -3.1948905   -1.6301487   0.11123258   -3.1948905    1.5647418   526574 
 4427000    1.2518795   -3.1955086   -1.6298302   0.10571701   -3.1955086    1.5656784   526593 
 4428000    1.2517579   -3.1952975   -1.6298871   0.11130347   -3.1952975    1.5654104   526632 
 4429000    1.2516824   -3.1949975     -1.62983   0.10714394   -3.1949975    1.5651674   526682 
 4430000    1.2500144   -3.1927767    -1.629799   0.11549548   -3.1927767    1.5629778   526717 
 4431000    1.2507538    -3.193418   -1.6296255   0.10897443    -3.193418    1.5637925   526754 
 4432000    1.2521983   -3.1943962   -1.6288809   0.11254296   -3.1943962    1.5655153   526782 
 4433000    1.2527152   -3.1946733   -1.6286336    0.1129315   -3.1946733    1.5660397   526823 
 4434000    1.2515607   -3.1927545   -1.6282888   0.11357054   -3.1927545    1.5644658   526867 
 4435000    1.2525862   -3.1934459   -1.6277578   0.11402638   -3.1934459    1.5656882   526887 
 4436000    1.2526739   -3.1936932   -1.6279935   0.11185495   -3.1936932    1.5656998   526920 
 4437000     1.252226   -3.1943871   -1.6293481   0.11260864   -3.1943871     1.565039   526954 
 4438000     1.249996   -3.1918227   -1.6296746   0.11158659   -3.1918227    1.5621481   526989 
 4439000    1.2529436   -3.1945654   -1.6288495   0.10758575   -3.1945654    1.5657159   527028 
 4440000    1.2513818   -3.1931879   -1.6295513   0.10788142   -3.1931879    1.5636366   527071 
 4441000    1.2513449   -3.1940455   -1.6305617   0.11045831   -3.1940455    1.5634837   527107 
 4442000    1.2522672   -3.1937371   -1.6292552   0.10837617   -3.1937371    1.5644818   527159 
 4443000    1.2515124   -3.1934527   -1.6300503     0.112649   -3.1934527    1.5634024   527205 
 4444000    1.2520548   -3.1945097   -1.6305128   0.11008534   -3.1945097    1.5639968   527233 
 4445000    1.2534318    -3.195992   -1.6303611   0.10806921    -3.195992    1.5656309   527262 
 4446000    1.2538825   -3.1963856   -1.6303136   0.11005718   -3.1963856     1.566072   527303 
 4447000     1.253257   -3.1963699   -1.6312067   0.11538929   -3.1963699    1.5651632   527346 
 4448000    1.2521673   -3.1956461   -1.6319417   0.11150618   -3.1956461    1.5637044   527379 
 4449000    1.2555433   -3.1986622   -1.6308281   0.11444881   -3.1986622    1.5678341   527408 
 4450000    1.2539207    -3.196315   -1.6306525   0.11366096    -3.196315    1.5656624   527457 
 4451000    1.2540883   -3.1962052   -1.6304967   0.11017727   -3.1962052    1.5657085   527512 
 4452000    1.2554603    -3.198396   -1.6311202   0.11373221    -3.198396    1.5672758   527561 
 4453000    1.2544082   -3.1981826   -1.6322855   0.11165729   -3.1981826    1.5658971   527583 
 4454000    1.2556022   -3.1997151   -1.6324522   0.11526422   -3.1997151    1.5672629   527625 
 4455000    1.2526673   -3.1966142   -1.6331718   0.11670051   -3.1966142    1.5634424   527678 
 4456000    1.2551663   -3.2006287   -1.6342039   0.11389655   -3.2006287    1.5664248   527724 
 4457000    1.2544094   -3.1990046   -1.6336163   0.11257504   -3.1990046    1.5653883   527755 
 4458000    1.2560246   -3.2005743   -1.6332564   0.11016647   -3.2005743    1.5673178   527784 
 4459000    1.2550654   -3.1989484   -1.6328958   0.11124335   -3.1989484    1.5660526   527807 
 4460000    1.2551336   -3.1984216   -1.6323344   0.10743604   -3.1984216    1.5660873   527824 
 4461000    1.2558686   -3.2007424   -1.6338301   0.11083672   -3.2007424    1.5669123   527855 
 4462000    1.2557345   -3.2000778   -1.6334426   0.11215493   -3.2000778    1.5666352   527892 
 4463000    1.2547614   -3.1979989    -1.632643    0.1109599   -3.1979989    1.5653559   527914 
 4464000    1.2556434   -3.1988012   -1.6324489   0.11097149   -3.1988012    1.5663523   527949 
 4465000    1.2554652   -3.1979636   -1.6319432   0.11667856   -3.1979636    1.5660204   527986 
 4466000    1.2558956   -3.1992788   -1.6328135   0.11586276   -3.1992788    1.5664653   528017 
 4467000    1.2571849   -3.2001149   -1.6321127   0.10979595   -3.2001149    1.5680021   528041 
 4468000     1.256692   -3.1987219   -1.6313493   0.11281938   -3.1987219    1.5673726   528046 
 4469000    1.2564204   -3.1988632   -1.6319006   0.11213227   -3.1988632    1.5669626   528070 
 4470000    1.2551031   -3.1972216   -1.6320146   0.11380329   -3.1972216    1.5652071   528108 
 4471000    1.2537655   -3.1967314   -1.6332754   0.10471946   -3.1967314     1.563456   528136 
 4472000    1.2555353   -3.1989339   -1.6333687   0.11300878   -3.1989339    1.5655652   528169 
 4473000    1.2531908   -3.1960711   -1.6335596   0.11441358   -3.1960711    1.5625115   528213 
 4474000     1.255022   -3.1982178   -1.6335475   0.11376035   -3.1982178    1.5646704   528255 
 4475000    1.2554186   -3.1978737   -1.6327977   0.10832101   -3.1978737     1.565076   528285 
 4476000    1.2568277   -3.1996633   -1.6329226   0.11195149   -3.1996633    1.5667407   528316 
 4477000    1.2539813   -3.1983778   -1.6353274   0.11043625   -3.1983778    1.5630504   528364 
 4478000    1.2531083   -3.1967317   -1.6348937   0.11272076   -3.1967317     1.561838   528406 
 4479000    1.2542404   -3.1978111   -1.6346626   0.11361497   -3.1978111    1.5631485   528440 
 4480000    1.2539844   -3.1982183   -1.6354036   0.11328828   -3.1982183    1.5628147   528445 
 4481000    1.2553371   -3.2002146      -1.6358   0.10884408   -3.2002146    1.5644146   528474 
 4482000    1.2559404   -3.2004805   -1.6353732   0.11066761   -3.2004805    1.5651073   528494 
 4483000    1.2551826    -3.198942   -1.6348797    0.1164883    -3.198942    1.5640623   528528 
 4484000    1.2551792   -3.1999995    -1.636045   0.10971113   -3.1999995    1.5639544   528563 
 4485000    1.2564417   -3.2024683   -1.6370089   0.11159864   -3.2024683    1.5654594   528586 
 4486000    1.2565356    -3.201501   -1.6360253   0.10892752    -3.201501    1.5654757   528620 
 4487000    1.2566991   -3.2022986   -1.6367495   0.11544835   -3.2022986    1.5655491   528664 
 4488000    1.2547181   -3.1997835   -1.6367792   0.11321996   -3.1997835    1.5630044   528690 
 4489000    1.2570421   -3.2021258   -1.6363685    0.1082194   -3.2021258    1.5657573   528738 
 4490000    1.2567847   -3.2027613   -1.6374668   0.11049049   -3.2027613    1.5652945   528786 
 4491000    1.2567862   -3.2016689   -1.6364584   0.11138937   -3.2016689    1.5652106   528815 
 4492000    1.2567735   -3.2015168   -1.6364346   0.11550375   -3.2015168    1.5650822   528853 
 4493000    1.2560394   -3.2011543   -1.6371312   0.11882381   -3.2011543    1.5640231   528902 
 4494000    1.2569862   -3.2017472   -1.6366604   0.11804811   -3.2017472    1.5650867   528941 
 4495000    1.2585504   -3.2043336   -1.6373645   0.11280672   -3.2043336    1.5669691   528963 
 4496000    1.2568872   -3.2013538   -1.6365915   0.11344532   -3.2013538    1.5647623   529009 
 4497000    1.2572656   -3.2018667   -1.6367576   0.11661592   -3.2018667    1.5651092   529051 
 4498000    1.2585335   -3.2034496   -1.6368451   0.11353485   -3.2034496    1.5666046   529079 
 4499000    1.2596741   -3.2049307   -1.6370338   0.10954513   -3.2049307    1.5678969   529122 
 4500000    1.2592652     -3.20487   -1.6375916    0.1126135     -3.20487    1.5672784   529159 
 4501000    1.2598631   -3.2054645   -1.6375427   0.11665409   -3.2054645    1.5679218   529193 
 4502000    1.2580548   -3.2029192   -1.6373485   0.11765255   -3.2029192    1.5655707   529227 
 4503000    1.2587734   -3.2044063   -1.6380597   0.11210996   -3.2044063    1.5663466   529267 
 4504000    1.2575418   -3.2029898   -1.6382852   0.11952583   -3.2029898    1.5647047   529304 
 4505000    1.2574486   -3.2037336   -1.6392484   0.11309152   -3.2037336    1.5644853   529339 
 4506000    1.2578197   -3.2035613    -1.638706   0.12077347   -3.2035613    1.5648554   529370 
 4507000    1.2572917   -3.2031267   -1.6390346   0.11658743   -3.2031267    1.5640921   529406 
 4508000    1.2579954   -3.2032983   -1.6384756   0.11285664   -3.2032983    1.5648226   529455 
 4509000    1.2597043   -3.2054935   -1.6386132   0.11041565   -3.2054935    1.5668803   529478 
 4510000    1.2575422   -3.2043462   -1.6402438   0.10937693   -3.2043462    1.5641024   529508 
 4511000    1.2573231   -3.2030792   -1.6393468   0.11052586   -3.2030792    1.5637324   529541 
 4512000    1.2573164   -3.2031518    -1.639596   0.11460764   -3.2031518    1.5635558   529598 
 4513000    1.2572055   -3.2032254     -1.63984   0.11349506   -3.2032254    1.5633854   529609 
 4514000    1.2579656   -3.2030029   -1.6387964   0.11995657   -3.2030029    1.5642065   529651 
 4515000    1.2579651   -3.2035645   -1.6394265   0.11205741   -3.2035645    1.5641381   529674 
 4516000    1.2590195   -3.2056801   -1.6403226   0.11495635   -3.2056801    1.5653575   529705 
 4517000     1.259384   -3.2063398   -1.6406267   0.11304381   -3.2063398    1.5657131   529738 
 4518000    1.2594859   -3.2057265   -1.6400168   0.11364801   -3.2057265    1.5657097   529782 
 4519000    1.2581839   -3.2048294   -1.6408741    0.1168575   -3.2048294    1.5639553   529828 
 4520000    1.2595517   -3.2060081   -1.6404472   0.11423084   -3.2060081    1.5655609   529860 
 4521000    1.2579256   -3.2043924   -1.6409558   0.11216144   -3.2043924    1.5634366   529895 
 4522000    1.2588769   -3.2055323   -1.6410375   0.11092988   -3.2055323    1.5644949   529937 
 4523000    1.2588635   -3.2059595   -1.6415935   0.11876552   -3.2059595     1.564366   529975 
 4524000    1.2596357   -3.2057671   -1.6404975   0.11290679   -3.2057671    1.5652696   529994 
 4525000    1.2609762   -3.2060703   -1.6392531     0.113419   -3.2060703    1.5668171   530034 
 4526000    1.2608732   -3.2064154   -1.6397233   0.11541958   -3.2064154    1.5666921   530033 
 4527000    1.2588665   -3.2043893   -1.6403471   0.11052608   -3.2043893    1.5640422   530086 
 4528000    1.2598474   -3.2047649   -1.6396517     0.113572   -3.2047649    1.5651132   530136 
 4529000    1.2606654   -3.2054652   -1.6395661   0.11620384   -3.2054652    1.5658992   530214 
 4530000      1.26125   -3.2062343   -1.6397036   0.10996062   -3.2062343    1.5665307   530246 
 4531000    1.2615468   -3.2076177     -1.64094   0.10969074   -3.2076177    1.5666777   530321 
 4532000    1.2613859   -3.2062882   -1.6398487   0.11079936   -3.2062882    1.5664395   530334 
 4533000    1.2607099     -3.20548   -1.6399951   0.11114365     -3.20548    1.5654849   530373 
 4534000    1.2606142   -3.2063347   -1.6410542    0.1126313   -3.2063347    1.5652805   530402 
 4535000    1.2588749   -3.2040175   -1.6410705   0.11646862   -3.2040175     1.562947   530461 
 4536000    1.2618439   -3.2071419   -1.6406299   0.10956401   -3.2071419     1.566512   530502 
 4537000    1.2609963   -3.2046592   -1.6392821   0.11559676   -3.2046592    1.5653771   530530 
 4538000    1.2628105   -3.2060028   -1.6384977   0.11415564   -3.2060028    1.5675051   530572 
 4539000     1.261553   -3.2048417   -1.6390007   0.11031424   -3.2048417     1.565841   530607 
 4540000    1.2616944   -3.2054759   -1.6395568   0.11385753   -3.2054759    1.5659191   530640 
 4541000    1.2620037   -3.2053231   -1.6391293   0.11550864   -3.2053231    1.5661937   530677 
 4542000     1.262618   -3.2049516   -1.6381402   0.10204864   -3.2049516    1.5668114   530726 
 4543000    1.2622162   -3.2034393   -1.6372769   0.11513435   -3.2034393    1.5661624   530777 
 4544000    1.2634441   -3.2055091   -1.6379442   0.11796648   -3.2055091    1.5675649   530818 
 4545000    1.2612439   -3.2031691   -1.6384431   0.11550002   -3.2031691     1.564726   530855 
 4546000    1.2614731   -3.2047745   -1.6398437   0.11090109   -3.2047745    1.5649308   530882 
 4547000    1.2605918   -3.2031749   -1.6393757   0.10832513   -3.2031749    1.5637992   530895 
 4548000    1.2617688   -3.2046265   -1.6394734   0.11775811   -3.2046265    1.5651531   530931 
 4549000    1.2627575   -3.2060103   -1.6397311   0.10690573   -3.2060103    1.5662793   530965 
 4550000    1.2601285    -3.203981   -1.6410745   0.11159465    -3.203981    1.5629065   531003 
 4551000     1.261971   -3.2067055   -1.6416406   0.10932195   -3.2067055    1.5650649   531046 
 4552000    1.2618714   -3.2068383    -1.641997   0.10978925   -3.2068383    1.5648412   531080 
 4553000     1.262121   -3.2068889    -1.641806   0.11534917   -3.2068889     1.565083   531103 
 4554000    1.2631263   -3.2084424   -1.6422603   0.11339657   -3.2084424    1.5661822   531153 
 4555000    1.2633372   -3.2076437   -1.6413505   0.10858484   -3.2076437    1.5662932   531204 
 4556000    1.2633526   -3.2080973   -1.6418203   0.11310072   -3.2080973     1.566277   531216 
 4557000    1.2619437   -3.2065371   -1.6420981   0.11356115   -3.2065371     1.564439   531247 
 4558000    1.2622579   -3.2084098   -1.6436992   0.10934831   -3.2084098    1.5647106   531287 
 4559000     1.263298   -3.2082033   -1.6423065   0.11089417   -3.2082033    1.5658968   531322 
 4560000     1.263758    -3.208413   -1.6420815   0.11129389    -3.208413    1.5663315   531368 
 4561000    1.2633921   -3.2084831   -1.6427318   0.11111036   -3.2084831    1.5657512   531411 
 4562000    1.2635377   -3.2092341    -1.643382   0.11946222   -3.2092341     1.565852   531438 
 4563000    1.2650899   -3.2112974   -1.6435926    0.1175619   -3.2112974    1.5677048   531462 
 4564000    1.2626922   -3.2098219   -1.6451266   0.11182081   -3.2098219    1.5646953   531475 
 4565000    1.2635806    -3.210263   -1.6445611   0.11248907    -3.210263    1.5657019   531507 
 4566000    1.2641186   -3.2118148    -1.645573   0.11533591   -3.2118148    1.5662419   531550 
 4567000    1.2624975   -3.2102285   -1.6460923   0.11473524   -3.2102285    1.5641362   531583 
 4568000    1.2642301   -3.2107475   -1.6445502   0.11117392   -3.2107475    1.5661973   531612 
 4569000    1.2657916    -3.212848   -1.6448135   0.11162632    -3.212848    1.5680345   531645 
 4570000    1.2649883    -3.210842   -1.6438735   0.11169101    -3.210842    1.5669686   531669 
 4571000    1.2660909   -3.2123151   -1.6441605   0.11208042   -3.2123151    1.5681545   531730 
 4572000    1.2637242    -3.209992   -1.6448541    0.1170225    -3.209992    1.5651378   531759 
 4573000     1.262898   -3.2098506   -1.6458391   0.11904759   -3.2098506    1.5640116   531794 
 4574000    1.2656272   -3.2124922   -1.6452362   0.10969337   -3.2124922     1.567256   531840 
 4575000    1.2632989   -3.2098896   -1.6456021   0.11192667   -3.2098896    1.5642875   531869 
 4576000    1.2639512   -3.2108294   -1.6459078   0.11133967   -3.2108294    1.5649216   531928 
 4577000    1.2650447   -3.2119095   -1.6456988   0.10829584   -3.2119095    1.5662107   531950 
 4578000    1.2628825   -3.2095652   -1.6460491   0.11708639   -3.2095652    1.5635161   531956 
 4579000    1.2611309   -3.2082521   -1.6469838   0.11695976   -3.2082521    1.5612683   531983 
 4580000    1.2630224   -3.2104229   -1.6469334   0.10949003   -3.2104229    1.5634895   532024 
 4581000     1.263984   -3.2109981   -1.6464183   0.11023655   -3.2109981    1.5645798   532058 
 4582000     1.263133   -3.2101922   -1.6467774   0.11065041   -3.2101922    1.5634148   532096 
 4583000    1.2644583   -3.2103366   -1.6453755    0.1089485   -3.2103366    1.5649611   532128 
 4584000    1.2643956   -3.2101442    -1.645349   0.10704174   -3.2101442    1.5647952   532158 
 4585000    1.2645037   -3.2108634   -1.6459785   0.10341193   -3.2108634    1.5648849   532173 
 4586000    1.2658092   -3.2099559   -1.6435879    0.1078475   -3.2099559     1.566368   532218 
 4587000    1.2642603   -3.2089591   -1.6445989   0.11488245   -3.2089591    1.5643602   532249 
 4588000    1.2651278   -3.2096646   -1.6443485   0.11108145   -3.2096646    1.5653161   532289 
 4589000    1.2653372   -3.2091829   -1.6437078   0.11190154   -3.2091829    1.5654751   532323 
 4590000    1.2657536   -3.2102319   -1.6443034   0.11265422   -3.2102319    1.5659286   532344 
 4591000    1.2663084   -3.2113701   -1.6447758   0.10940669   -3.2113701    1.5665943   532351 
 4592000    1.2643655   -3.2095459   -1.6454962   0.10914192   -3.2095459    1.5640497   532399 
 4593000    1.2639841   -3.2090185   -1.6455287    0.1117185   -3.2090185    1.5634898   532429 
 4594000    1.2621695   -3.2070511   -1.6459232   0.12009409   -3.2070511    1.5611279   532469 
 4595000    1.2640904   -3.2080699   -1.6446512   0.11381429   -3.2080699    1.5634186   532498 
 4596000    1.2669154   -3.2121222   -1.6452656   0.10963009   -3.2121222    1.5668566   532517 
 4597000    1.2657318   -3.2097672   -1.6444684    0.1112207   -3.2097672    1.5652987   532549 
 4598000     1.265529   -3.2096721   -1.6447505   0.11104742   -3.2096721    1.5649216   532592 
 4599000    1.2679316   -3.2133141   -1.6455569   0.10524966   -3.2133141    1.5677572   532638 
 4600000    1.2673519   -3.2124405      -1.6455   0.10854751   -3.2124405    1.5669404   532672 
 4601000    1.2669024   -3.2127659   -1.6465017   0.11087831   -3.2127659    1.5662641   532713 
 4602000    1.2665623   -3.2127558   -1.6470179   0.10992072   -3.2127558    1.5657379   532749 
 4603000    1.2663749   -3.2124824   -1.6470732   0.11587133   -3.2124824    1.5654092   532782 
 4604000     1.266549   -3.2141262   -1.6486428   0.11117363   -3.2141262    1.5654833   532830 
 4605000    1.2663857    -3.214367      -1.6492   0.11103087    -3.214367     1.565167   532869 
 4606000    1.2655618   -3.2136095   -1.6495459   0.11113045   -3.2136095    1.5640635   532898 
 4607000    1.2659936   -3.2119417   -1.6475059   0.11427261   -3.2119417    1.5644357   532953 
 4608000    1.2674802   -3.2159227   -1.6496969   0.11226235   -3.2159227    1.5662258   532969 
 4609000    1.2676241   -3.2155373   -1.6492865   0.10412483   -3.2155373    1.5662508   533021 
 4610000    1.2672793   -3.2153294   -1.6495546   0.10933791   -3.2153294    1.5657748   533038 
 4611000    1.2649735    -3.212596   -1.6497639   0.11550803    -3.212596    1.5628321   533070 
 4612000    1.2662015   -3.2146047   -1.6503024   0.10905747   -3.2146047    1.5643023   533086 
 4613000    1.2679516    -3.216392   -1.6499981   0.10972596    -3.216392    1.5663939   533110 
 4614000    1.2662614   -3.2150184   -1.6508621   0.11756413   -3.2150184    1.5641563   533161 
 4615000     1.267144   -3.2152593   -1.6501008   0.11393039   -3.2152593    1.5651585   533191 
 4616000    1.2679746   -3.2174046   -1.6513318   0.11052402   -3.2174046    1.5660727   533229 
 4617000    1.2665725   -3.2164373    -1.652155   0.11015033   -3.2164373    1.5642823   533249 
 4618000    1.2675767   -3.2160043   -1.6505728   0.11003095   -3.2160043    1.5654316   533280 
 4619000    1.2661524   -3.2147417   -1.6510926   0.11213157   -3.2147417    1.5636491   533288 
 4620000    1.2664066   -3.2148012   -1.6509026   0.11085831   -3.2148012    1.5638986   533310 
 4621000    1.2664523   -3.2152576   -1.6513613   0.11474024   -3.2152576    1.5638963   533330 
 4622000    1.2663795    -3.216599   -1.6528483   0.10918282    -3.216599    1.5637507   533349 
 4623000    1.2671168   -3.2169918   -1.6524539   0.10920772   -3.2169918    1.5645379   533391 
 4624000    1.2671408   -3.2157067   -1.6512331   0.11309566   -3.2157067    1.5644737   533423 
 4625000    1.2671258   -3.2161819   -1.6519115   0.10975656   -3.2161819    1.5642704   533486 
 4626000    1.2680408   -3.2181307   -1.6528275    0.1062675   -3.2181307    1.5653032   533519 
 4627000    1.2681832   -3.2181482   -1.6527104   0.10921928   -3.2181482    1.5654378   533533 
 4628000    1.2658309   -3.2149544   -1.6525081    0.1177948   -3.2149544    1.5624463   533563 
 4629000    1.2668717    -3.214785   -1.6511067    0.1114785    -3.214785    1.5636783   533581 
 4630000    1.2692076   -3.2181419   -1.6516303   0.10767889   -3.2181419    1.5665116   533598 
 4631000    1.2684893   -3.2171246   -1.6515788   0.11883152   -3.2171246    1.5655458   533625 
 4632000    1.2680215   -3.2174084    -1.652487    0.1124414   -3.2174084    1.5649215   533641 
 4633000    1.2689813   -3.2174597   -1.6514359   0.11187976   -3.2174597    1.5660238   533669 
 4634000    1.2673007   -3.2165099   -1.6526832   0.10825118   -3.2165099    1.5638268   533711 
 4635000    1.2691764   -3.2188988   -1.6528484   0.10670354   -3.2188988    1.5660505   533742 
 4636000    1.2681986   -3.2166286   -1.6519107   0.11172002   -3.2166286    1.5647179   533785 
 4637000    1.2680883   -3.2172743   -1.6527277   0.10711179   -3.2172743    1.5645466   533797 
 4638000    1.2684257    -3.216688   -1.6518336    0.1119726    -3.216688    1.5648544   533834 
 4639000    1.2684398   -3.2170929   -1.6523119   0.11161835   -3.2170929     1.564781   533865 
 4640000    1.2677831   -3.2174908   -1.6536225   0.11097301   -3.2174908    1.5638683   533900 
 4641000    1.2692363   -3.2183191   -1.6527492   0.10894678   -3.2183191    1.5655699   533931 
 4642000    1.2687937   -3.2180026   -1.6530518   0.10642687   -3.2180026    1.5649508   533956 
 4643000    1.2683236   -3.2175672   -1.6533076   0.11235724   -3.2175672    1.5642596   533994 
 4644000    1.2672369   -3.2157441   -1.6528628   0.11479376   -3.2157441    1.5628813   534007 
 4645000    1.2678723   -3.2171338   -1.6535041     0.112157   -3.2171338    1.5636297   534019 
 4646000    1.2672706   -3.2172075   -1.6544046   0.11013773   -3.2172075    1.5628029   534048 
 4647000    1.2678663    -3.218617    -1.655223    0.1068644    -3.218617     1.563394   534097 
 4648000    1.2693157   -3.2197966   -1.6546738   0.11535248   -3.2197966    1.5651227   534117 
 4649000    1.2674218   -3.2170044   -1.6543281   0.11290165   -3.2170044    1.5626763   534155 
 4650000     1.266892   -3.2176124   -1.6557181   0.11233817   -3.2176124    1.5618943   534199 
 4651000    1.2691277   -3.2186286   -1.6540482   0.11453661   -3.2186286    1.5645804   534223 
 4652000    1.2688183   -3.2188625    -1.654728   0.11416042   -3.2188625    1.5641345   534245 
 4653000     1.269742   -3.2194828    -1.654318   0.11407616   -3.2194828    1.5651649   534282 
 4654000      1.27108   -3.2213534   -1.6546537   0.10651012   -3.2213534    1.5666997   534321 
 4655000    1.2701491   -3.2194763   -1.6539797   0.11128443   -3.2194763    1.5654967   534340 
 4656000     1.268366   -3.2159134   -1.6526875   0.11752285   -3.2159134    1.5632258   534365 
 4657000    1.2701374   -3.2198615   -1.6545491    0.1120019   -3.2198615    1.5653124   534398 
 4658000    1.2701828   -3.2204211   -1.6551142   0.10626187   -3.2204211    1.5653068   534419 
 4659000    1.2677447   -3.2179425   -1.6557192   0.11102326   -3.2179425    1.5622233   534446 
 4660000    1.2694314    -3.219151   -1.6549311   0.11346636    -3.219151    1.5642199   534474 
 4661000    1.2695319   -3.2187613   -1.6544879   0.12015488   -3.2187613    1.5642735   534498 
 4662000     1.270545   -3.2199628   -1.6545758    0.1061368   -3.2199628     1.565387   534544 
 4663000    1.2679172   -3.2176094   -1.6555857   0.11432343   -3.2176094    1.5620237   534587 
 4664000      1.27073   -3.2204801   -1.6551082   0.11321529   -3.2204801    1.5653719   534627 
 4665000    1.2705636   -3.2210639   -1.6559644   0.10889303   -3.2210639    1.5650995   534650 
 4666000    1.2706144   -3.2211593   -1.6561552    0.1106488   -3.2211593    1.5650041   534704 
 4667000    1.2687473   -3.2180202   -1.6553625   0.11429117   -3.2180202    1.5626577   534720 
 4668000    1.2690096   -3.2181657   -1.6552726   0.11288501   -3.2181657     1.562893   534750 
 4669000    1.2695745   -3.2190373   -1.6555714   0.11454408   -3.2190373    1.5634659   534792 
 4670000    1.2698664   -3.2195573   -1.6558138   0.10892758   -3.2195573    1.5637435   534820 
 4671000    1.2704304   -3.2202079   -1.6558868   0.11831842   -3.2202079    1.5643211   534860 
 4672000    1.2713564   -3.2200075    -1.654634   0.10751839   -3.2200075    1.5653734   534890 
 4673000     1.273223   -3.2213412   -1.6537778   0.10645339   -3.2213412    1.5675633   534927 
 4674000    1.2726474   -3.2211252   -1.6543526   0.11188804   -3.2211252    1.5667726   534955 
 4675000    1.2719256   -3.2210855   -1.6552483   0.11384971   -3.2210855    1.5658372   534971 
 4676000    1.2714853   -3.2213104   -1.6560358   0.11146392   -3.2213104    1.5652746   534978 
 4677000    1.2706076   -3.2203791   -1.6562755   0.10736434   -3.2203791    1.5641036   535009 
 4678000    1.2702024   -3.2207204   -1.6571945   0.11095509   -3.2207204    1.5635258   535036 
 4679000    1.2708574   -3.2202347   -1.6559436   0.10983752   -3.2202347    1.5642911   535050 
 4680000    1.2716631   -3.2221713   -1.6569674   0.11317549   -3.2221713    1.5652039   535077 
 4681000    1.2724379   -3.2223964   -1.6563208   0.11151821   -3.2223964    1.5660756   535105 
 4682000    1.2723977    -3.222821   -1.6568622   0.10951287    -3.222821    1.5659588   535128 
 4683000    1.2715993   -3.2223727   -1.6575252   0.11537902   -3.2223727    1.5648475   535172 
 4684000    1.2746646   -3.2254895   -1.6569841   0.11129184   -3.2254895    1.5685054   535211 
 4685000    1.2711817   -3.2215282   -1.6574458    0.1119864   -3.2215282    1.5640823   535258 
 4686000    1.2724752   -3.2228808   -1.6573035   0.10993669   -3.2228808    1.5655773   535291 
 4687000    1.2712674   -3.2217117   -1.6576964   0.10890572   -3.2217117    1.5640153   535317 
 4688000    1.2720783   -3.2228409    -1.657942   0.10953132   -3.2228409     1.564899   535356 
 4689000     1.272009   -3.2214788   -1.6567586   0.11311518   -3.2214788    1.5647202   535388 
 4690000    1.2716215   -3.2211951   -1.6570596    0.1136737   -3.2211951    1.5641354   535425 
 4691000    1.2724688   -3.2226198      -1.6576   0.11235137   -3.2226198    1.5650198   535479 
 4692000    1.2736613    -3.222831   -1.6564061   0.11325425    -3.222831     1.566425   535500 
 4693000    1.2730859    -3.222428    -1.656775   0.11879057    -3.222428     1.565653   535522 
 4694000    1.2746683    -3.224109   -1.6566475   0.11297289    -3.224109    1.5674616   535569 
 4695000    1.2720958   -3.2220388   -1.6578108   0.11598224   -3.2220388     1.564228   535593 
 4696000    1.2726147   -3.2238143   -1.6591089   0.11157589   -3.2238143    1.5647054   535648 
 4697000    1.2754712   -3.2268596   -1.6587387   0.11054687   -3.2268596    1.5681209   535681 
 4698000    1.2716269   -3.2226146   -1.6593163   0.11050149   -3.2226146    1.5632983   535714 
 4699000    1.2714462   -3.2238168   -1.6608399   0.11140698   -3.2238168    1.5629769   535748 
 4700000     1.270833   -3.2230293   -1.6608966   0.11315805   -3.2230293    1.5621327   535779 
 4701000    1.2699123   -3.2217144   -1.6608358     0.112906   -3.2217144    1.5608786   535821 
 4702000     1.270527   -3.2226496    -1.661097   0.10552995   -3.2226496    1.5615526   535849 
 4703000    1.2707306   -3.2222819   -1.6605433   0.11754251   -3.2222819    1.5617386   535871 
 4704000     1.271724    -3.223888   -1.6610597   0.11458999    -3.223888    1.5628283   535916 
 4705000    1.2716229   -3.2233804   -1.6607171   0.10942491   -3.2233804    1.5626632   535930 
 4706000    1.2704312   -3.2218346   -1.6607261    0.1162375   -3.2218346    1.5611085   535961 
 4707000    1.2728027   -3.2239076   -1.6599842   0.10774782   -3.2239076    1.5639234   535995 
 4708000    1.2722714   -3.2229223   -1.6597509   0.11537062   -3.2229223    1.5631714   536029 
 4709000    1.2737261   -3.2259152   -1.6610966   0.11256024   -3.2259152    1.5648186   536077 
 4710000    1.2740952   -3.2248721   -1.6596789   0.10349237   -3.2248721    1.5651932   536104 
 4711000    1.2725292   -3.2234614   -1.6602561   0.11168589   -3.2234614    1.5632053   536126 
 4712000    1.2746145   -3.2257448   -1.6601852   0.10668746   -3.2257448    1.5655596   536197 
 4713000    1.2737333   -3.2249809   -1.6606203   0.11466454   -3.2249809    1.5643605   536237 
 4714000    1.2747956   -3.2253085   -1.6597455   0.11129965   -3.2253085     1.565563   536272 
 4715000    1.2746823   -3.2248888    -1.659567   0.11209982   -3.2248888    1.5653218   536307 
 4716000    1.2747519   -3.2250608   -1.6598286     0.113514   -3.2250608    1.5652322   536367 
 4717000    1.2744164   -3.2250147   -1.6603054   0.11386762   -3.2250147    1.5647093   536405 
 4718000    1.2739419   -3.2261547   -1.6620747   0.11300397   -3.2261547      1.56408   536421 
 4719000    1.2730175   -3.2249561   -1.6620576    0.1100972   -3.2249561    1.5628985   536437 
 4720000     1.272857   -3.2252038   -1.6625519    0.1080387   -3.2252038    1.5626519   536454 
 4721000    1.2737515   -3.2262347   -1.6625662   0.11369863   -3.2262347    1.5636685   536482 
 4722000    1.2738742   -3.2265995   -1.6628357   0.11177371   -3.2265995    1.5637638   536501 
 4723000     1.273441   -3.2261444   -1.6630056   0.11192363   -3.2261444    1.5631387   536533 
 4724000    1.2759722   -3.2293341   -1.6632546   0.10889527   -3.2293341    1.5660794   536590 
 4725000    1.2755193   -3.2294813    -1.664054   0.10674715   -3.2294813    1.5654273   536623 
 4726000    1.2739081   -3.2282401   -1.6648748   0.11031188   -3.2282401    1.5633653   536652 
 4727000    1.2740059   -3.2288361   -1.6654061    0.1122486   -3.2288361      1.56343   536671 
 4728000     1.276847   -3.2319973    -1.665218   0.10874944   -3.2319973    1.5667794   536718 
 4729000    1.2744351   -3.2294538   -1.6657476    0.1129513   -3.2294538    1.5637062   536757 
 4730000     1.273723   -3.2292211   -1.6664614   0.11106515   -3.2292211    1.5627596   536782 
 4731000    1.2725837   -3.2270998   -1.6658485   0.11612553   -3.2270998    1.5612512   536820 
 4732000    1.2739759   -3.2290184   -1.6661669   0.11163042   -3.2290184    1.5628515   536857 
 4733000    1.2750292   -3.2311749   -1.6671244   0.11114576   -3.2311749    1.5640505   536889 
 4734000     1.274767   -3.2309467   -1.6672995   0.11649174   -3.2309467    1.5636472   536917 
 4735000    1.2747501   -3.2308136   -1.6672918   0.11266694   -3.2308136    1.5635217   536953 
 4736000    1.2749178   -3.2307053   -1.6670565   0.11442901   -3.2307053    1.5636487   536980 
 4737000    1.2757664   -3.2317182   -1.6671044   0.11594089   -3.2317182    1.5646138   537006 
 4738000     1.275938   -3.2331199   -1.6683655   0.10885637   -3.2331199    1.5647544   537030 
 4739000    1.2746822   -3.2319963   -1.6688548   0.11545211   -3.2319963    1.5631415   537055 
 4740000    1.2724541   -3.2308756    -1.670603   0.11614326   -3.2308756    1.5602727   537102 
 4741000    1.2746432    -3.232216    -1.669326   0.11098891    -3.232216    1.5628899   537125 
 4742000    1.2742912   -3.2315505   -1.6691562   0.11153536   -3.2315505    1.5623943   537147 
 4743000    1.2732457   -3.2304647   -1.6694219   0.11778924   -3.2304647    1.5610428   537171 
 4744000     1.274639   -3.2322332   -1.6695404   0.11776562   -3.2322332    1.5626927   537191 
 4745000    1.2748613   -3.2323983   -1.6694563   0.11170369   -3.2323983     1.562942   537199 
 4746000    1.2737691   -3.2308659   -1.6693443   0.10948265   -3.2308659    1.5615216   537227 
 4747000    1.2753501   -3.2320991    -1.668712   0.11185003   -3.2320991    1.5633871   537252 
 4748000    1.2758754   -3.2326035   -1.6686133   0.10976228   -3.2326035    1.5639903   537266 
 4749000    1.2737554   -3.2301869   -1.6688449   0.11557012   -3.2301869    1.5613421   537283 
 4750000    1.2750253   -3.2313645   -1.6686024    0.1087301   -3.2313645    1.5627621   537330 
 4751000    1.2752059   -3.2310166   -1.6681409   0.10956998   -3.2310166    1.5628758   537367 
 4752000    1.2755241    -3.232167   -1.6690205   0.10924067    -3.232167    1.5631464   537408 
 4753000    1.2753711   -3.2323544   -1.6694565    0.1059997   -3.2323544    1.5628978   537429 
 4754000    1.2759619   -3.2326708   -1.6691245   0.11069304   -3.2326708    1.5635463   537455 
 4755000    1.2752387   -3.2310611   -1.6685086   0.11531759   -3.2310611    1.5625525   537492 
 4756000    1.2738774   -3.2299723   -1.6692126   0.10952986   -3.2299723    1.5607597   537535 
 4757000    1.2742248   -3.2309299   -1.6698464    0.1086191   -3.2309299    1.5610835   537570 
 4758000    1.2738846   -3.2310509   -1.6704422   0.11004354   -3.2310509    1.5606087   537590 
 4759000    1.2739706   -3.2317766   -1.6711438   0.11404128   -3.2317766    1.5606328   537618 
 4760000    1.2729961   -3.2307091   -1.6713977   0.11037615   -3.2307091    1.5593114   537662 
 4761000     1.274138   -3.2316895   -1.6710403   0.11511657   -3.2316895    1.5606492   537683 
 4762000    1.2763346   -3.2326841   -1.6694519   0.11219104   -3.2326841    1.5632322   537720 
 4763000    1.2770509   -3.2338667    -1.669891   0.11128074   -3.2338667    1.5639757   537766 
 4764000    1.2753385   -3.2320783   -1.6702897   0.11123713   -3.2320783    1.5617886   537797 
 4765000    1.2758717    -3.232047   -1.6697101   0.11184232    -3.232047    1.5623369   537833 
 4766000    1.2757525   -3.2329684   -1.6708589   0.11103595   -3.2329684    1.5621096   537861 
 4767000    1.2763505   -3.2329909   -1.6702421    0.1113308   -3.2329909    1.5627488   537893 
 4768000    1.2780366   -3.2349062   -1.6702499   0.11085567   -3.2349062    1.5646563   537947 
 4769000    1.2739314   -3.2317577   -1.6721998   0.11700131   -3.2317577    1.5595579   537972 
 4770000    1.2749652   -3.2324693   -1.6717763    0.1096352   -3.2324693    1.5606929   538017 
 4771000    1.2757593   -3.2328699   -1.6713007   0.11241956   -3.2328699    1.5615692   538050 
 4772000    1.2761373    -3.233632   -1.6716582   0.11214633    -3.233632    1.5619738   538070 
 4773000    1.2768445   -3.2354095   -1.6725992    0.1155253   -3.2354095    1.5628103   538080 
 4774000    1.2786294   -3.2381975   -1.6733274   0.11535927   -3.2381975      1.56487   538123 
 4775000    1.2750312   -3.2345251   -1.6741748   0.10897546   -3.2345251    1.5603503   538163 
 4776000    1.2757059   -3.2341578   -1.6731094   0.11362276   -3.2341578    1.5610484   538207 
 4777000    1.2763776   -3.2347306   -1.6729415    0.1171487   -3.2347306    1.5617891   538235 
 4778000    1.2769426   -3.2369233   -1.6745561   0.10982653   -3.2369233    1.5623672   538274 
 4779000    1.2746305   -3.2349851   -1.6755279    0.1109316   -3.2349851    1.5594572   538302 
 4780000    1.2761513   -3.2366755   -1.6755057   0.11089568   -3.2366755    1.5611698   538353 
 4781000    1.2762977    -3.236592   -1.6753764   0.11072339    -3.236592    1.5612156   538399 
 4782000    1.2763291   -3.2363519   -1.6751559    0.1077722   -3.2363519     1.561196   538419 
 4783000    1.2777126   -3.2371636   -1.6743334   0.10846854   -3.2371636    1.5628302   538439 
 4784000    1.2761947   -3.2364935   -1.6755633    0.1119999   -3.2364935    1.5609302   538454 
 4785000    1.2767285   -3.2366441   -1.6751422   0.11328444   -3.2366441    1.5615019   538482 
 4786000    1.2749343   -3.2354972   -1.6762999   0.10983414   -3.2354972    1.5591974   538520 
 4787000    1.2760134   -3.2364893   -1.6760881    0.1113038   -3.2364893    1.5604012   538560 
 4788000    1.2766626   -3.2372882   -1.6761975   0.10854711   -3.2372882    1.5610907   538596 
 4789000     1.277257   -3.2371012   -1.6753387     0.112278   -3.2371012    1.5617625   538615 
 4790000    1.2767756   -3.2377282    -1.676679   0.10361372   -3.2377282    1.5610492   538658 
 4791000    1.2782337    -3.239345   -1.6766088   0.10772053    -3.239345    1.5627363   538691 
 4792000    1.2771932   -3.2380246   -1.6765924   0.10851724   -3.2380246    1.5614322   538702 
 4793000    1.2779979   -3.2388904   -1.6766165   0.11142182   -3.2388904    1.5622739   538751 
 4794000    1.2777504   -3.2381791   -1.6763353   0.11017579   -3.2381791    1.5618439   538795 
 4795000    1.2779056   -3.2376376   -1.6756969   0.11167869   -3.2376376    1.5619407   538827 
 4796000    1.2780358   -3.2382366   -1.6762381   0.11248269   -3.2382366    1.5619985   538862 
 4797000    1.2770874   -3.2368918   -1.6761307   0.11314033   -3.2368918    1.5607611   538889 
 4798000     1.277897   -3.2377665   -1.6761204    0.1024522   -3.2377665    1.5616462   538925 
 4799000    1.2780622   -3.2392735   -1.6775152   0.11289405   -3.2392735    1.5617583   538956 
 4800000    1.2782199   -3.2393579   -1.6774562   0.11129399   -3.2393579    1.5619016   538973 
 4801000    1.2788476   -3.2391971   -1.6766153   0.11022958   -3.2391971    1.5625818   539003 
 4802000     1.276876   -3.2371883   -1.6770996   0.10933107   -3.2371883    1.5600887   539032 
 4803000    1.2776939   -3.2376908   -1.6767706   0.11156307   -3.2376908    1.5609202   539090 
 4804000    1.2792235   -3.2398897   -1.6771965   0.11103737   -3.2398897    1.5626932   539123 
 4805000    1.2781511   -3.2379102   -1.6765503   0.11124581   -3.2379102    1.5613599   539131 
 4806000    1.2789579   -3.2390213   -1.6768787   0.11629489   -3.2390213    1.5621426   539201 
 4807000    1.2776431   -3.2370805    -1.676616   0.11434843   -3.2370805    1.5604644   539226 
 4808000      1.27912   -3.2393224   -1.6770948   0.10641113   -3.2393224    1.5622276   539240 
 4809000    1.2778996    -3.239069   -1.6784013   0.10943748    -3.239069    1.5606677   539264 
 4810000     1.277893   -3.2401242   -1.6795659   0.11154564   -3.2401242    1.5605583   539299 
 4811000    1.2762125   -3.2383653   -1.6799343     0.108816   -3.2383653     1.558431   539325 
 4812000    1.2773869    -3.238915   -1.6791251   0.10963881    -3.238915    1.5597899   539351 
 4813000    1.2785824   -3.2410117   -1.6798836   0.10714925   -3.2410117    1.5611281   539393 
 4814000    1.2771295   -3.2389273   -1.6796222   0.11085417   -3.2389273    1.5593051   539410 
 4815000    1.2782598   -3.2395661   -1.6789765   0.11215544   -3.2395661    1.5605896   539443 
 4816000    1.2784785   -3.2405418   -1.6797691   0.11045807   -3.2405418    1.5607727   539472 
 4817000    1.2773289   -3.2397573   -1.6805009   0.11217131   -3.2397573    1.5592565   539511 
 4818000     1.277977   -3.2415295   -1.6815367    0.1096782   -3.2415295    1.5599928   539530 
 4819000    1.2779757     -3.24151   -1.6815623   0.11270264     -3.24151    1.5599477   539545 
 4820000    1.2771079   -3.2410178   -1.6821958   0.11033857   -3.2410178     1.558822   539568 
 4821000    1.2768789   -3.2408057    -1.682321   0.10991909   -3.2408057    1.5584848   539588 
 4822000    1.2782668   -3.2412637   -1.6811861   0.11181184   -3.2412637    1.5600776   539623 
 4823000    1.2787018   -3.2418341   -1.6813152   0.11223952   -3.2418341    1.5605189   539654 
 4824000    1.2782188    -3.241068   -1.6812976   0.11326651    -3.241068    1.5597704   539709 
 4825000    1.2788024   -3.2420849   -1.6816862   0.10713473   -3.2420849    1.5603988   539738 
 4826000    1.2792457   -3.2420568   -1.6812214   0.10645187   -3.2420568    1.5608355   539774 
 4827000    1.2804141   -3.2428851   -1.6806675   0.11859361   -3.2428851    1.5622176   539789 
 4828000    1.2777964   -3.2402513    -1.681314   0.11857217   -3.2402513    1.5589373   539819 
 4829000    1.2793355    -3.242797   -1.6820629   0.12194168    -3.242797     1.560734   539847 
 4830000    1.2787818   -3.2420073   -1.6820673   0.11242363   -3.2420073      1.55994   539888 
 4831000    1.2793509   -3.2442818   -1.6837949    0.1095084   -3.2442818    1.5604869   539939 
 4832000    1.2787301   -3.2438011   -1.6841234   0.10959338   -3.2438011    1.5596777   539957 
 4833000    1.2799808   -3.2440972    -1.682978    0.1041478   -3.2440972    1.5611192   539986 
 4834000    1.2785121    -3.242638   -1.6833505   0.11289722    -3.242638    1.5592875   540000 
 4835000    1.2794998   -3.2438754   -1.6834699   0.10793441   -3.2438754    1.5604054   540030 
 4836000    1.2790347   -3.2427972   -1.6830802   0.10852119   -3.2427972     1.559717   540072 
 4837000      1.28035   -3.2449598   -1.6837371    0.1068829   -3.2449598    1.5612227   540106 
 4838000     1.279138   -3.2433721   -1.6837226   0.11084812   -3.2433721    1.5596495   540139 
 4839000    1.2796099   -3.2449305   -1.6847721   0.10779191   -3.2449305    1.5601584   540162 
 4840000    1.2790851   -3.2431589   -1.6837097   0.11235675   -3.2431589    1.5594492   540186 
 4841000    1.2786973   -3.2438026   -1.6849243   0.10654994   -3.2438026    1.5588783   540220 
 4842000    1.2783707   -3.2435328   -1.6851362   0.11075823   -3.2435328    1.5583966   540249 
 4843000    1.2780207   -3.2427494   -1.6848286   0.10676234   -3.2427494    1.5579208   540266 
 4844000    1.2788257   -3.2432947   -1.6845542   0.10790266   -3.2432947    1.5587405   540322 
 4845000    1.2793562   -3.2428258   -1.6835051   0.11412662   -3.2428258    1.5593208   540345 
 4846000    1.2800656   -3.2438029   -1.6837358   0.11184853   -3.2438029    1.5600671   540386 
 4847000    1.2795169   -3.2444955   -1.6851376   0.10536894   -3.2444955    1.5593579   540400 
 4848000    1.2772958   -3.2418154   -1.6852709   0.10959938   -3.2418154    1.5565445   540437 
 4849000    1.2793478   -3.2428986   -1.6839486   0.11184214   -3.2428986    1.5589499   540470 
 4850000    1.2796385   -3.2427933    -1.683596   0.11232312   -3.2427933    1.5591974   540507 
 4851000    1.2791813   -3.2428043   -1.6842418   0.11174855   -3.2428043    1.5585625   540534 
 4852000    1.2803045   -3.2442915   -1.6844009   0.10885301   -3.2442915    1.5598906   540548 
 4853000    1.2815643   -3.2465044   -1.6851337   0.10644642   -3.2465044    1.5613707   540567 
 4854000    1.2806583   -3.2446973   -1.6845431   0.10956528   -3.2446973    1.5601542   540606 
 4855000    1.2800993   -3.2440066    -1.684568   0.11063031   -3.2440066    1.5594386   540618 
 4856000    1.2799793   -3.2427437   -1.6835637   0.11582754   -3.2427437      1.55918   540657 
 4857000    1.2824372   -3.2460085   -1.6838952   0.10845034   -3.2460085    1.5621133   540678 
 4858000    1.2801799   -3.2437485   -1.6844885   0.10760395   -3.2437485      1.55926   540714 
 4859000    1.2793928   -3.2428043   -1.6845664   0.11425065   -3.2428043    1.5582378   540736 
 4860000    1.2809743   -3.2450888   -1.6850488   0.10780985   -3.2450888      1.56004   540779 
 4861000    1.2802939   -3.2437685   -1.6846119   0.10899821   -3.2437685    1.5591566   540798 
 4862000    1.2797341   -3.2437596   -1.6853625   0.10763365   -3.2437596    1.5583971   540825 
 4863000    1.2809585   -3.2452479   -1.6854521      0.11036   -3.2452479    1.5597958   540857 
 4864000    1.2789378   -3.2428643   -1.6855808   0.11042233   -3.2428643    1.5572834   540875 
 4865000    1.2795972    -3.243327   -1.6853243   0.10693197    -3.243327    1.5580027   540904 
 4866000    1.2808266   -3.2452221   -1.6857341   0.10814505   -3.2452221     1.559488   540908 
 4867000    1.2807327   -3.2448803   -1.6856305   0.11099926   -3.2448803    1.5592498   540951 
 4868000    1.2812218   -3.2455391   -1.6857687   0.10336554   -3.2455391    1.5597704   540977 
 4869000     1.280065   -3.2436298   -1.6853397    0.1106439   -3.2436298      1.55829   541002 
 4870000    1.2820907   -3.2457208   -1.6850398   0.10654787   -3.2457208     1.560681   541028 
 4871000    1.2806075   -3.2449493   -1.6861199   0.10819106   -3.2449493    1.5588294   541044 
 4872000    1.2808054   -3.2453014   -1.6863377   0.11072514   -3.2453014    1.5589637   541081 
 4873000    1.2793766   -3.2428166   -1.6857013   0.10965194   -3.2428166    1.5571153   541119 
 4874000    1.2815083   -3.2457018   -1.6860699   0.11141318   -3.2457018    1.5596319   541146 
 4875000    1.2815579   -3.2447066   -1.6851066   0.10983452   -3.2447066       1.5596   541178 
 4876000    1.2810826   -3.2444929   -1.6855664   0.11183261   -3.2444929    1.5589265   541211 
 4877000    1.2827948   -3.2460208   -1.6850886   0.10967317   -3.2460208    1.5609322   541238 
 4878000    1.2820172   -3.2453477   -1.6854395   0.11046816   -3.2453477    1.5599082   541265 
 4879000    1.2839302   -3.2477271   -1.6855836   0.10486155   -3.2477271    1.5621435   541297 
 4880000    1.2815721   -3.2459651   -1.6867742   0.11326086   -3.2459651    1.5591909   541326 
 4881000    1.2822827   -3.2471289   -1.6871427   0.11194486   -3.2471289    1.5599862   541350 
 4882000    1.2819132   -3.2456038   -1.6861391   0.11116289   -3.2456038    1.5594647   541375 
 4883000    1.2817017   -3.2454648   -1.6863812   0.11176642   -3.2454648    1.5590836   541418 
 4884000    1.2820832   -3.2465293   -1.6870998   0.11034751   -3.2465293    1.5594296   541459 
 4885000    1.2820216   -3.2464898   -1.6871985   0.11103253   -3.2464898    1.5592912   541481 
 4886000     1.283119   -3.2483287   -1.6877286    0.1122731   -3.2483287    1.5606001   541490 
 4887000    1.2816187   -3.2461641   -1.6874808   0.10799635   -3.2461641    1.5586832   541522 
 4888000    1.2853159   -3.2498333   -1.6867286    0.1100026   -3.2498333    1.5631046   541548 
 4889000    1.2828465   -3.2474882   -1.6874471   0.11643108   -3.2474882    1.5600411   541569 
 4890000    1.2815864   -3.2467396   -1.6883202   0.11612874   -3.2467396    1.5584195   541600 
 4891000    1.2838557   -3.2501687   -1.6890963   0.10725573   -3.2501687    1.5610723   541637 
 4892000    1.2829253    -3.247324   -1.6875155   0.11666048    -3.247324    1.5598085   541683 
 4893000    1.2827502   -3.2480683   -1.6885993   0.11355389   -3.2480683    1.5594689   541727 
 4894000    1.2818889   -3.2479285   -1.6895871   0.10842705   -3.2479285    1.5583414   541755 
 4895000    1.2824498   -3.2476783   -1.6888048   0.11085707   -3.2476783    1.5588735   541807 
 4896000    1.2827299   -3.2477007   -1.6885874    0.1099339   -3.2477007    1.5591133   541842 
 4897000    1.2854284    -3.251939   -1.6896467   0.10809049    -3.251939    1.5622924   541877 
 4898000     1.283656   -3.2503267   -1.6902604   0.10864048   -3.2503267    1.5600663   541902 
 4899000    1.2853951   -3.2520586   -1.6899538   0.10583607   -3.2520586    1.5621048   541928 
 4900000    1.2826416   -3.2498638   -1.6911656   0.10883365   -3.2498638    1.5586983   541949 
 4901000    1.2817154   -3.2495684   -1.6921022   0.10687438   -3.2495684    1.5574663   541986 
 4902000    1.2843739   -3.2512256   -1.6905836   0.10813761   -3.2512256    1.5606421   542005 
 4903000    1.2820359    -3.248631   -1.6908758   0.11325743    -3.248631    1.5577552   542021 
 4904000    1.2833628   -3.2502296     -1.69096   0.11017385   -3.2502296    1.5592696   542055 
 4905000    1.2834577   -3.2503521    -1.691088   0.11356616   -3.2503521    1.5592641   542097 
 4906000    1.2823071   -3.2490258     -1.69126   0.11500129   -3.2490258    1.5577657   542132 
 4907000    1.2855297   -3.2528886   -1.6912714   0.10786178   -3.2528886    1.5616172   542154 
 4908000    1.2834208   -3.2502465   -1.6912602   0.11177414   -3.2502465    1.5589863   542178 
 4909000    1.2827286   -3.2498779   -1.6917697   0.11475651   -3.2498779    1.5581082   542191 
 4910000     1.282327   -3.2504667   -1.6929411   0.11013494   -3.2504667    1.5575256   542224 
 4911000    1.2837463    -3.250981   -1.6918408   0.10780252    -3.250981    1.5591402   542262 
 4912000    1.2831827   -3.2510726   -1.6926916   0.10890241   -3.2510726     1.558381   542288 
 4913000    1.2841098   -3.2513183   -1.6919063   0.10775949   -3.2513183     1.559412   542321 
 4914000    1.2833325   -3.2503446   -1.6919599   0.11108793   -3.2503446    1.5583847   542350 
 4915000    1.2842631   -3.2523472   -1.6929245   0.11421521   -3.2523472    1.5594227   542382 
 4916000    1.2834571   -3.2528749   -1.6945113   0.10818113   -3.2528749    1.5583637   542410 
 4917000    1.2822671   -3.2515076   -1.6946923   0.11187634   -3.2515076    1.5568154   542446 
 4918000    1.2814322   -3.2516136   -1.6958807   0.10825901   -3.2516136    1.5557329   542470 
 4919000    1.2840507   -3.2544507   -1.6956163   0.11025613   -3.2544507    1.5588344   542497 
 4920000    1.2838527   -3.2525111   -1.6939803   0.11347352   -3.2525111    1.5585308   542519 
 4921000    1.2833297   -3.2527078   -1.6948779   0.10960897   -3.2527078    1.5578299   542542 
 4922000    1.2827439   -3.2527103   -1.6957207   0.10215477   -3.2527103    1.5569896   542587 
 4923000    1.2847865   -3.2542247   -1.6948823   0.11144702   -3.2542247    1.5593424   542631 
 4924000      1.28368    -3.253116   -1.6952112   0.10767962    -3.253116    1.5579048   542664 
 4925000    1.2837835   -3.2529948   -1.6950362   0.11263554   -3.2529948    1.5579586   542689 
 4926000    1.2855714    -3.254386   -1.6942835   0.11432851    -3.254386    1.5601025   542698 
 4927000    1.2844859   -3.2532505   -1.6945228   0.11497583   -3.2532505    1.5587277   542718 
 4928000     1.285414   -3.2532929    -1.693531   0.11348684   -3.2532929    1.5597619   542750 
 4929000     1.286108   -3.2543743    -1.693799   0.11696792   -3.2543743    1.5605753   542760 
 4930000    1.2854714    -3.254392   -1.6946552   0.11064924    -3.254392    1.5597368   542783 
 4931000    1.2844288   -3.2534382    -1.695044   0.11274237   -3.2534382    1.5583942   542810 
 4932000    1.2849234   -3.2543829   -1.6954518   0.11323509   -3.2543829    1.5589311   542832 
 4933000    1.2842396   -3.2536225   -1.6956071   0.11017126   -3.2536225    1.5580154   542862 
 4934000    1.2857656    -3.255395   -1.6955829   0.11400517    -3.255395    1.5598121   542881 
 4935000     1.283795   -3.2519592    -1.694684    0.1155314   -3.2519592    1.5572753   542932 
 4936000    1.2839912    -3.252648   -1.6952581    0.1146831    -3.252648    1.5573898   542975 
 4937000    1.2839019   -3.2541932   -1.6969403   0.10960074   -3.2541932    1.5572529   542985 
 4938000    1.2838896   -3.2539342   -1.6967536   0.10862393   -3.2539342    1.5571806   543005 
 4939000    1.2843951   -3.2533139   -1.6955489   0.10499388   -3.2533139     1.557765   543015 
 4940000    1.2841023   -3.2542517   -1.6969106   0.11258445   -3.2542517    1.5573411   543039 
 4941000    1.2845041   -3.2542427    -1.696509   0.10924627   -3.2542427    1.5577337   543072 
 4942000    1.2849156   -3.2551301   -1.6969462   0.11123659   -3.2551301    1.5581839   543089 
 4943000    1.2840135   -3.2547803    -1.697762   0.11501785   -3.2547803    1.5570184   543114 
 4944000    1.2848184   -3.2564648    -1.698545   0.10862899   -3.2564648    1.5579198   543140 
 4945000    1.2841488   -3.2556221   -1.6985916    0.1050714   -3.2556221    1.5570304   543167 
 4946000    1.2849647    -3.256431   -1.6984887    0.1045851    -3.256431    1.5579423   543194 
 4947000    1.2841363   -3.2547444   -1.6979183  0.099567698   -3.2547444    1.5568261   543233 
 4948000    1.2842847   -3.2548067   -1.6978637   0.10767237   -3.2548067    1.5569429   543255 
 4949000    1.2836022   -3.2557542   -1.6997303    0.1062029   -3.2557542    1.5560239   543287 
 4950000    1.2835145   -3.2551379   -1.6993434   0.10703699   -3.2551379    1.5557945   543330 
 4951000    1.2851956   -3.2568391   -1.6990814   0.10764776   -3.2568391    1.5577577   543356 
 4952000    1.2853681   -3.2568032   -1.6988652   0.10819055   -3.2568032    1.5579381   543366 
 4953000      1.28414   -3.2559087   -1.6995508   0.11003982   -3.2559087    1.5563578   543398 
 4954000    1.2860173   -3.2572927   -1.6987686   0.10606907   -3.2572927    1.5585241   543436 
 4955000    1.2845254   -3.2560259   -1.6993756   0.10875886   -3.2560259    1.5566502   543459 
 4956000    1.2838865   -3.2553848   -1.6995546   0.10888671   -3.2553848    1.5558302   543475 
 4957000    1.2862236   -3.2581208   -1.6995502   0.11081935   -3.2581208    1.5585706   543507 
 4958000    1.2865639   -3.2584553   -1.6995527   0.10941322   -3.2584553    1.5589026   543535 
 4959000    1.2863941   -3.2576873   -1.6990593   0.11765705   -3.2576873     1.558628   543559 
 4960000    1.2876563   -3.2595818   -1.6995048   0.11014106   -3.2595818     1.560077   543587 
 4961000    1.2866692   -3.2571901   -1.6984008   0.11028453   -3.2571901    1.5587893   543619 
 4962000    1.2860613   -3.2569753   -1.6990314   0.11644596   -3.2569753     1.557944   543657 
 4963000    1.2875577   -3.2585403   -1.6988267   0.10504481   -3.2585403    1.5597136   543672 
 4964000    1.2870458   -3.2574321    -1.698459   0.11013461   -3.2574321    1.5589731   543714 
 4965000    1.2863586   -3.2563407   -1.6982602   0.11408484   -3.2563407    1.5580805   543735 
 4966000    1.2867344   -3.2565209   -1.6980396   0.11200956   -3.2565209    1.5584812   543754 
 4967000    1.2881952   -3.2576836   -1.6975306   0.11325342   -3.2576836     1.560153   543788 
 4968000    1.2889514   -3.2593252   -1.6983339   0.11079938   -3.2593252    1.5609914   543815 
 4969000    1.2875038    -3.258046   -1.6988967   0.11258494    -3.258046    1.5591493   543846 
 4970000    1.2868655   -3.2586157    -1.700331   0.10972849   -3.2586157    1.5582847   543878 
 4971000    1.2856009   -3.2575101   -1.7008941   0.11384453   -3.2575101    1.5566159   543926 
 4972000     1.287161    -3.259333   -1.7008968   0.10448886    -3.259333    1.5584362   543950 
 4973000    1.2874193   -3.2583842   -1.6996869   0.10972533   -3.2583842    1.5586973   543968 
 4974000    1.2857531   -3.2558318   -1.6992433   0.10660064   -3.2558318    1.5565885   544000 
 4975000    1.2876904   -3.2588427   -1.7000321   0.10823073   -3.2588427    1.5588106   544043 
 4976000    1.2861199   -3.2577596   -1.7009388   0.10613319   -3.2577596    1.5568208   544074 
 4977000    1.2864905   -3.2587302    -1.701518   0.11018871   -3.2587302    1.5572122   544094 
 4978000    1.2865286   -3.2583198   -1.7011875   0.10579615   -3.2583198    1.5571323   544138 
 4979000    1.2856359   -3.2577439   -1.7017778   0.10714884   -3.2577439    1.5559661   544168 
 4980000    1.2846543    -3.256766   -1.7020679   0.11254032    -3.256766    1.5546981   544196 
 4981000    1.2859684   -3.2576432    -1.701432   0.10906058   -3.2576432    1.5562112   544223 
 4982000     1.285882   -3.2576539   -1.7016359   0.10474815   -3.2576539     1.556018   544254 
 4983000     1.286822   -3.2593004   -1.7021964   0.10470009   -3.2593004    1.5571039   544272 
 4984000    1.2855494    -3.258976   -1.7034805   0.11317476    -3.258976    1.5554955   544296 
 4985000    1.2844862   -3.2577964    -1.703693   0.11125728   -3.2577964    1.5541034   544333 
 4986000    1.2882155    -3.261595    -1.703074   0.10915942    -3.261595    1.5585211   544366 
 4987000    1.2882557    -3.261876   -1.7033378   0.10890805    -3.261876    1.5585381   544377 
 4988000      1.28817   -3.2620855   -1.7037541   0.11414146   -3.2620855    1.5583314   544413 
 4989000    1.2884534   -3.2634141   -1.7048572   0.10668305   -3.2634141    1.5585569   544454 
 4990000    1.2893484   -3.2636134    -1.704034   0.10703325   -3.2636134    1.5595794   544475 
 4991000    1.2878139   -3.2618327    -1.704221    0.1114488   -3.2618327    1.5576117   544514 
 4992000    1.2873209   -3.2614315   -1.7044991    0.1160562   -3.2614315    1.5569324   544543 
 4993000    1.2882692    -3.263532    -1.705507   0.11486206    -3.263532     1.558025   544562 
 4994000    1.2898069   -3.2637175   -1.7039188   0.11317778   -3.2637175    1.5597987   544592 
 4995000    1.2878362   -3.2624799   -1.7051415    0.1098363   -3.2624799    1.5573384   544619 
 4996000    1.2887387   -3.2631181   -1.7048029   0.11509868   -3.2631181    1.5583152   544659 
 4997000    1.2889237   -3.2628725   -1.7043536   0.11479665   -3.2628725    1.5585189   544666 
 4998000    1.2899344   -3.2645233   -1.7048511   0.10644569   -3.2645233    1.5596723   544690 
 4999000    1.2894927   -3.2642369   -1.7051674   0.11218469   -3.2642369    1.5590696   544714 
 5000000    1.2896048   -3.2643187   -1.7051994   0.10988095   -3.2643187    1.5591192   544744 
 5001000    1.2891816   -3.2627964   -1.7042861   0.11673462   -3.2627964    1.5585103   544778 
 5002000    1.2892401   -3.2630031   -1.7044593   0.11539327   -3.2630031    1.5585438   544791 
 5003000    1.2900742   -3.2640343   -1.7045681   0.10841725   -3.2640343    1.5594663   544821 
 5004000    1.2905389   -3.2646824    -1.704706   0.11227598   -3.2646824    1.5599764   544839 
 5005000    1.2889753    -3.263583   -1.7055509   0.10317828    -3.263583     1.558032   544858 
 5006000    1.2895914    -3.264017   -1.7053375   0.10915745    -3.264017    1.5586795   544892 
 5007000    1.2898212   -3.2635496   -1.7046782   0.11257757   -3.2635496    1.5588715   544922 
 5008000    1.2908204    -3.263183   -1.7031412   0.10957019    -3.263183    1.5600418   544935 
 5009000    1.2887787   -3.2621581   -1.7047267   0.10829384   -3.2621581    1.5574315   544985 
 5010000    1.2897427   -3.2639536   -1.7054887   0.10578485   -3.2639536    1.5584648   545031 
 5011000    1.2888684   -3.2628895   -1.7055526   0.11016763   -3.2628895    1.5573369   545056 
 5012000    1.2875324    -3.261029   -1.7053491   0.11156331    -3.261029    1.5556799   545071 
 5013000    1.2893095   -3.2630625   -1.7053098   0.11174479   -3.2630625    1.5577527   545097 
 5014000    1.2895083   -3.2629785   -1.7051342   0.11074665   -3.2629785    1.5578443   545149 
 5015000    1.2895896   -3.2629712    -1.705123   0.10867509   -3.2629712    1.5578482   545182 
 5016000    1.2894713    -3.262781   -1.7051757   0.11020223    -3.262781    1.5576053   545217 
 5017000    1.2896103   -3.2623443   -1.7046711    0.1127425   -3.2623443    1.5576732   545252 
 5018000    1.2906356   -3.2651893   -1.7063463   0.10987222   -3.2651893     1.558843   545276 
 5019000    1.2900809   -3.2632556   -1.7052082   0.11417531   -3.2632556    1.5580473   545320 
 5020000    1.2896701   -3.2632389   -1.7057734   0.11188996   -3.2632389    1.5574656   545350 
 5021000     1.289168   -3.2630651   -1.7062373   0.10935718   -3.2630651    1.5568277   545361 
 5022000    1.2894074   -3.2618322   -1.7047838   0.10823093   -3.2618322    1.5570484   545385 
 5023000    1.2899613   -3.2625211   -1.7049153   0.10920337   -3.2625211    1.5576058   545424 
 5024000    1.2921999   -3.2651407   -1.7048633   0.11411121   -3.2651407    1.5602775   545435 
 5025000    1.2913861    -3.263995   -1.7047459   0.11161024    -3.263995    1.5592491   545451 
 5026000    1.2924361   -3.2658625   -1.7054143   0.10817091   -3.2658625    1.5604482   545475 
 5027000    1.2934186   -3.2666987   -1.7051616   0.11047733   -3.2666987    1.5615371   545509 
 5028000    1.2925868   -3.2659988   -1.7055059   0.11060993   -3.2659988    1.5604929   545523 
 5029000    1.2918889   -3.2661045   -1.7065714   0.10997657   -3.2661045    1.5595331   545564 
 5030000     1.292413    -3.264977   -1.7049028   0.10797205    -3.264977    1.5600743   545596 
 5031000    1.2929559   -3.2654865   -1.7048141   0.11277047   -3.2654865    1.5606724   545616 
 5032000    1.2921019    -3.264696   -1.7051088   0.11382856    -3.264696    1.5595872   545635 
 5033000     1.291382   -3.2638157   -1.7051888   0.10854734   -3.2638157    1.5586269   545667 
 5034000    1.2917407   -3.2649619   -1.7060506   0.11495534   -3.2649619    1.5589113   545719 
 5035000    1.2920923   -3.2657261   -1.7064819   0.11179452   -3.2657261    1.5592442   545751 
 5036000    1.2902406   -3.2648975    -1.708022   0.10717654   -3.2648975    1.5568755   545798 
 5037000     1.290635   -3.2645887   -1.7073143   0.11171323   -3.2645887    1.5572745   545825 
 5038000    1.2897413   -3.2633517   -1.7072326   0.11474852   -3.2633517    1.5561191   545852 
 5039000    1.2923085   -3.2672208   -1.7080557   0.10934253   -3.2672208    1.5591651   545870 
 5040000    1.2904925   -3.2655526   -1.7086584   0.11070204   -3.2655526    1.5568942   545898 
 5041000    1.2923858   -3.2664291   -1.7073106   0.11380072   -3.2664291    1.5591185   545919 
 5042000    1.2922118   -3.2657912   -1.7069655   0.11887304   -3.2657912    1.5588257   545948 
 5043000    1.2935686   -3.2674608   -1.7070898   0.10945984   -3.2674608     1.560371   545980 
 5044000    1.2929911   -3.2664907    -1.706882   0.11919959   -3.2664907    1.5596086   546003 
 5045000    1.2918098   -3.2659546   -1.7078364   0.10957564   -3.2659546    1.5581182   546026 
 5046000    1.2936424   -3.2677216   -1.7074788   0.11472851   -3.2677216    1.5602428   546056 
 5047000    1.2915461   -3.2663251   -1.7086192   0.10988974   -3.2663251    1.5577059   546059 
 5048000     1.294088   -3.2672871   -1.7065353    0.1112003   -3.2672871    1.5607517   546066 
 5049000    1.2938104   -3.2667373   -1.7064147   0.11353268   -3.2667373    1.5603226   546099 
 5050000    1.2919547   -3.2653002   -1.7072698   0.11263054   -3.2653002    1.5580304   546118 
 5051000    1.2906073   -3.2642085   -1.7078742   0.11421284   -3.2642085    1.5563343   546143 
 5052000    1.2910335   -3.2655064   -1.7088093   0.11008777   -3.2655064    1.5566971   546196 
 5053000    1.2903599   -3.2644837   -1.7086615   0.11642978   -3.2644837    1.5558222   546218 
 5054000    1.2926923   -3.2662841   -1.7077381    0.1093291   -3.2662841     1.558546   546249 
 5055000    1.2925974    -3.268381   -1.7099921   0.10920391    -3.268381    1.5583889   546264 
 5056000    1.2893026   -3.2654911   -1.7111399   0.10600448   -3.2654911    1.5543511   546287 
 5057000    1.2908806   -3.2673255   -1.7111261   0.10495612   -3.2673255    1.5561994   546306 
 5058000    1.2919617    -3.267681   -1.7102381   0.10918243    -3.267681    1.5574429   546327 
 5059000    1.2915902   -3.2671041   -1.7101775   0.11117772   -3.2671041    1.5569266   546351 
 5060000    1.2929092   -3.2676436   -1.7091784   0.11050655   -3.2676436    1.5584652   546369 
 5061000    1.2919597    -3.267948   -1.7107357   0.11137879    -3.267948    1.5572123   546407 
 5062000    1.2930045   -3.2676806    -1.709306   0.10506268   -3.2676806    1.5583747   546441 
 5063000    1.2922656   -3.2668284   -1.7094097   0.10802808   -3.2668284    1.5574187   546464 
 5064000    1.2932514   -3.2674516   -1.7089277   0.10805196   -3.2674516    1.5585239   546493 
 5065000    1.2928659   -3.2668887   -1.7089034   0.10984544   -3.2668887    1.5579853   546519 
 5066000    1.2926658   -3.2663541   -1.7087467   0.11626486   -3.2663541    1.5576073   546567 
 5067000    1.2926001   -3.2675305   -1.7101106   0.11059845   -3.2675305    1.5574199   546605 
 5068000    1.2935531   -3.2686238   -1.7101298   0.11295321   -3.2686238     1.558494   546631 
 5069000    1.2942138   -3.2682902   -1.7090287   0.11309009   -3.2682902    1.5592615   546641 
 5070000      1.29362   -3.2683437   -1.7098546   0.10922938   -3.2683437    1.5584891   546661 
 5071000    1.2939852   -3.2693975   -1.7105198    0.1165846   -3.2693975    1.5588777   546679 
 5072000    1.2932348    -3.269045   -1.7111225   0.11007254    -3.269045    1.5579224   546697 
 5073000    1.2942017    -3.270382   -1.7113632   0.10838456    -3.270382    1.5590188   546721 
 5074000    1.2924048   -3.2697641   -1.7129924    0.1130079   -3.2697641    1.5567717   546750 
 5075000    1.2926857   -3.2700365   -1.7129835   0.10796845   -3.2700365     1.557053   546770 
 5076000    1.2907673   -3.2671205    -1.712438    0.1182148   -3.2671205    1.5546826   546791 
 5077000    1.2917112   -3.2691479   -1.7133341   0.12092916   -3.2691479    1.5558137   546793 
 5078000    1.2926742   -3.2696358   -1.7127618   0.11389252   -3.2696358     1.556874   546828 
 5079000    1.2932968   -3.2702232    -1.712662     0.112232   -3.2702232    1.5575612   546850 
 5080000    1.2929812   -3.2701206   -1.7129907   0.10883166   -3.2701206    1.5571299   546868 
 5081000    1.2941854    -3.270962   -1.7124817   0.10928602    -3.270962    1.5584803   546903 
 5082000    1.2925385   -3.2694775   -1.7130431   0.11318841   -3.2694775    1.5564345   546925 
 5083000    1.2954957   -3.2714489   -1.7115561   0.11398939   -3.2714489    1.5598927   546961 
 5084000    1.2941742   -3.2703662   -1.7121586   0.11832034   -3.2703662    1.5582076   546994 
 5085000    1.2921665   -3.2686526   -1.7129818   0.10976254   -3.2686526    1.5556708   547036 
 5086000    1.2937628   -3.2712645   -1.7137403   0.11051788   -3.2712645    1.5575243   547060 
 5087000    1.2943834   -3.2710888   -1.7129171   0.10837855   -3.2710888    1.5581717   547095 
 5088000    1.2948863   -3.2710073   -1.7122786   0.11665234   -3.2710073    1.5587287   547112 
 5089000    1.2939362   -3.2702525   -1.7127358   0.11176879   -3.2702525    1.5575167   547136 
 5090000    1.2933874   -3.2695721   -1.7127701   0.11519392   -3.2695721    1.5568021   547155 
 5091000     1.294373   -3.2706771   -1.7127827   0.10665734   -3.2706771    1.5578944   547188 
 5092000    1.2926377   -3.2693708   -1.7136445   0.10750203   -3.2693708    1.5557262   547216 
 5093000    1.2935901   -3.2700569   -1.7132953   0.10856476   -3.2700569    1.5567615   547255 
 5094000    1.2921092   -3.2694165   -1.7145366   0.11184117   -3.2694165    1.5548799   547290 
 5095000    1.2940575   -3.2702632   -1.7131356   0.11059433   -3.2702632    1.5571277   547324 
 5096000    1.2938598   -3.2708436   -1.7140534   0.10913309   -3.2708436    1.5567902   547359 
 5097000    1.2939721   -3.2721461   -1.7152578   0.10962568   -3.2721461    1.5568883   547372 
 5098000    1.2941599   -3.2711628   -1.7141168   0.10873009   -3.2711628    1.5570461   547396 
 5099000     1.292997   -3.2706791   -1.7151231   0.10931524   -3.2706791     1.555556   547428 
 5100000    1.2947453   -3.2723591   -1.7147881   0.10577422   -3.2723591     1.557571   547459 
 5101000    1.2936274   -3.2711364    -1.714913   0.10924493   -3.2711364    1.5562234   547460 
 5102000    1.2941681   -3.2720399   -1.7152797   0.11176524   -3.2720399    1.5567602   547500 
 5103000    1.2944361   -3.2715595   -1.7145935   0.11101145   -3.2715595     1.556966   547541 
 5104000    1.2958803   -3.2737752   -1.7151548   0.11244385   -3.2737752    1.5586205   547570 
 5105000    1.2946306   -3.2714357    -1.714415   0.11673536   -3.2714357    1.5570207   547604 
 5106000    1.2943869   -3.2723125   -1.7156588   0.11558059   -3.2723125    1.5566537   547630 
 5107000    1.2946515   -3.2725835   -1.7156485   0.11293753   -3.2725835    1.5569349   547643 
 5108000     1.295393   -3.2736311   -1.7158613   0.10343246   -3.2736311    1.5577698   547663 
 5109000    1.2951196   -3.2741303    -1.716749    0.1076884   -3.2741303    1.5573813   547684 
 5110000    1.2965812   -3.2762814   -1.7172705    0.1092789   -3.2762814    1.5590108   547729 
 5111000    1.2957907   -3.2756378   -1.7176628   0.11284703   -3.2756378     1.557975   547759 
 5112000     1.294233   -3.2739641   -1.7178905   0.11123144   -3.2739641    1.5560736   547769 
 5113000    1.2941645    -3.273711   -1.7177992   0.10663805    -3.273711    1.5559118   547797 
 5114000    1.2947912   -3.2753383   -1.7187526   0.11087752   -3.2753383    1.5565856   547825 
 5115000    1.2949267   -3.2755519   -1.7188658   0.10792601   -3.2755519     1.556686   547847 
 5116000    1.2951409    -3.275075   -1.7181854   0.11199815    -3.275075    1.5568896   547866 
 5117000    1.2952368   -3.2755751   -1.7186271   0.10996262   -3.2755751     1.556948   547886 
 5118000     1.295855   -3.2765222   -1.7188964   0.11433468   -3.2765222    1.5576257   547909 
 5119000    1.2957895   -3.2756669   -1.7182024   0.10730344   -3.2756669    1.5574645   547938 
 5120000    1.2939082   -3.2736666   -1.7185343   0.10964235   -3.2736666    1.5551323   547963 
 5121000    1.2956495   -3.2756577   -1.7184978   0.10618274   -3.2756577    1.5571599   547986 
 5122000    1.2976407   -3.2774718   -1.7180128   0.10794093   -3.2774718     1.559459   548019 
 5123000    1.2958523   -3.2758445   -1.7186369   0.11033721   -3.2758445    1.5572075   548055 
 5124000    1.2963702   -3.2764741   -1.7187579   0.11080406   -3.2764741    1.5577162   548095 
 5125000    1.2966568   -3.2769547   -1.7189652   0.11402708   -3.2769547    1.5579895   548120 
 5126000    1.2949322   -3.2734108   -1.7176013   0.11136356   -3.2734108    1.5558095   548158 
 5127000    1.2966184   -3.2767168   -1.7189184   0.11398488   -3.2767168    1.5577984   548171 
 5128000    1.2958291   -3.2756138   -1.7188091    0.1132863   -3.2756138    1.5568047   548187 
 5129000    1.2972249   -3.2769962   -1.7185829   0.11325564   -3.2769962    1.5584133   548211 
 5130000    1.2967435   -3.2773873   -1.7195977   0.11171949   -3.2773873    1.5577895   548227 
 5131000    1.2965342   -3.2767073   -1.7192147   0.11360441   -3.2767073    1.5574926   548243 
 5132000    1.2945982    -3.274835   -1.7197701   0.11847543    -3.274835    1.5550649   548279 
 5133000    1.2952045   -3.2756302   -1.7198768    0.1141732   -3.2756302    1.5557534   548293 
 5134000    1.2952644    -3.275939   -1.7202186   0.11442698    -3.275939    1.5557204   548330 
 5135000    1.2964906   -3.2788057   -1.7216949   0.10933745   -3.2788057    1.5571108   548359 
 5136000    1.2955082    -3.277173   -1.7213016   0.11026159    -3.277173    1.5558714   548380 
 5137000     1.296188   -3.2780476   -1.7214705   0.10790101   -3.2780476    1.5565771   548419 
 5138000    1.2960641   -3.2774037   -1.7210294   0.11474317   -3.2774037    1.5563743   548438 
 5139000    1.2950954   -3.2762747   -1.7212026   0.11542502   -3.2762747    1.5550722   548487 
 5140000    1.2949158   -3.2767198   -1.7219851   0.11560027   -3.2767198    1.5547346   548530 
 5141000    1.2970502   -3.2780952   -1.7209087   0.10890192   -3.2780952    1.5571865   548569 
 5142000    1.2968619   -3.2780862   -1.7212363   0.11057566   -3.2780862    1.5568499   548608 
 5143000    1.2961396   -3.2765228   -1.7206138   0.11324952   -3.2765228     1.555909   548634 
 5144000     1.296765   -3.2776141   -1.7210565   0.10981505   -3.2776141    1.5565576   548670 
 5145000    1.2971338   -3.2772672    -1.720369   0.11368376   -3.2772672    1.5568982   548706 
 5146000    1.2975734   -3.2782564   -1.7209499    0.1122536   -3.2782564    1.5573066   548748 
 5147000    1.2977985   -3.2781944      -1.7207   0.11294395   -3.2781944    1.5574944   548777 
 5148000    1.2978839   -3.2789105   -1.7214299   0.11473771   -3.2789105    1.5574806   548818 
 5149000      1.29671   -3.2780558   -1.7220549   0.11377121   -3.2780558    1.5560009   548843 
 5150000    1.2972698   -3.2788116    -1.722241   0.11528508   -3.2788116    1.5565705   548879 
 5151000    1.2986861   -3.2820143   -1.7237812   0.10622156   -3.2820143    1.5582331   548892 
 5152000    1.2961242   -3.2774562   -1.7224273   0.11680015   -3.2774562    1.5550289   548938 
 5153000     1.298324   -3.2807064   -1.7231349   0.10874883   -3.2807064    1.5575716   548972 
 5154000    1.2961924   -3.2776667   -1.7227429   0.11340974   -3.2776667    1.5549237   549004 
 5155000    1.2966815   -3.2793286   -1.7238946   0.11205957   -3.2793286     1.555434   549031 
 5156000    1.2957367   -3.2779886   -1.7237644   0.11277933   -3.2779886    1.5542242   549058 
 5157000    1.2967438   -3.2788104   -1.7234178    0.1115334   -3.2788104    1.5553926   549072 
 5158000    1.2965492   -3.2797992   -1.7247364   0.11026942   -3.2797992    1.5550628   549106 
 5159000    1.2968161   -3.2809761   -1.7256753   0.10630816   -3.2809761    1.5553008   549135 
 5160000    1.2967156   -3.2810989   -1.7259894   0.10641514   -3.2810989    1.5551095   549160 
 5161000    1.2952222   -3.2795066   -1.7262616   0.10902303   -3.2795066     1.553245   549186 
 5162000    1.2977376   -3.2819543   -1.7257665   0.10515484   -3.2819543    1.5561878   549212 
 5163000    1.2971655   -3.2805024   -1.7250941   0.11028172   -3.2805024    1.5554083   549245 
 5164000    1.2965324   -3.2800403   -1.7254562   0.10917171   -3.2800403    1.5545841   549268 
 5165000    1.2973877   -3.2809085   -1.7253924   0.11083771   -3.2809085    1.5555162   549301 
 5166000    1.2987883   -3.2825152   -1.7253907   0.11327747   -3.2825152    1.5571245   549326 
 5167000    1.2970816   -3.2805522   -1.7255786   0.11090348   -3.2805522    1.5549736   549363 
 5168000    1.2980845   -3.2822372   -1.7261604    0.1134625   -3.2822372    1.5560768   549398 
 5169000    1.2983405   -3.2823228   -1.7259816   0.11094314   -3.2823228    1.5563412   549413 
 5170000    1.2992137   -3.2826595   -1.7252603   0.10621115   -3.2826595    1.5573992   549409 
 5171000     1.298378   -3.2826143   -1.7262961   0.10716822   -3.2826143    1.5563181   549437 
 5172000    1.2968994   -3.2805907   -1.7261327   0.11068711   -3.2805907     1.554458   549468 
 5173000    1.2980883   -3.2813243   -1.7255601   0.11572714   -3.2813243    1.5557642   549510 
 5174000    1.2971334   -3.2810547   -1.7264972    0.1087196   -3.2810547    1.5545574   549532 
 5175000    1.2974749     -3.28046   -1.7255271   0.11128037     -3.28046    1.5549329   549544 
 5176000    1.2990644   -3.2822456   -1.7254758   0.10843429   -3.2822456    1.5567698   549568 
 5177000    1.2991764   -3.2819739   -1.7251153    0.1119929   -3.2819739    1.5568587   549584 
 5178000    1.2982423   -3.2809231    -1.725249   0.11250608   -3.2809231    1.5556742   549607 
 5179000     1.298531   -3.2815037   -1.7255629   0.10778363   -3.2815037    1.5559408   549635 
 5180000     1.299902   -3.2825477   -1.7250605     0.111446   -3.2825477    1.5574872   549669 
 5181000    1.2986386   -3.2786575   -1.7227208   0.11172777   -3.2786575    1.5559367   549682 
 5182000    1.3012174   -3.2822618   -1.7233034   0.10324331   -3.2822618    1.5589584   549706 
 5183000     1.299798   -3.2809844   -1.7237804   0.11304011   -3.2809844     1.557204   549725 
 5184000    1.2992936    -3.281304    -1.724761   0.11330255    -3.281304     1.556543   549745 
 5185000    1.2976174   -3.2803509   -1.7259064   0.11035985   -3.2803509    1.5544445   549777 
 5186000    1.2978939   -3.2801649   -1.7255023   0.10605865   -3.2801649    1.5546626   549817 
 5187000    1.2987066   -3.2804928   -1.7249302   0.10875952   -3.2804928    1.5555626   549843 
 5188000    1.3013217   -3.2836118   -1.7250019   0.10864532   -3.2836118    1.5586098   549873 
 5189000    1.2999223   -3.2805682   -1.7237222   0.11190565   -3.2805682     1.556846   549904 
 5190000    1.3006335   -3.2808481   -1.7231872   0.10991418   -3.2808481    1.5576609   549917 
 5191000    1.2993096   -3.2798558   -1.7238256   0.11071627   -3.2798558    1.5560302   549933 
 5192000    1.2980095   -3.2792646   -1.7248678    0.1135551   -3.2792646    1.5543968   549960 
 5193000    1.2976344   -3.2799753   -1.7261067   0.10722355   -3.2799753    1.5538686   549988 
 5194000    1.2981584   -3.2808053   -1.7264196   0.10982779   -3.2808053    1.5543858   550027 
 5195000    1.2994209    -3.282197   -1.7263617   0.11132441    -3.282197    1.5558352   550049 
 5196000    1.2992905   -3.2821898   -1.7265418   0.10654309   -3.2821898     1.555648   550060 
 5197000    1.2988417   -3.2823511   -1.7273648   0.11203231   -3.2823511    1.5549862   550104 
 5198000    1.2988427   -3.2821665   -1.7273147   0.10845181   -3.2821665    1.5548518   550152 
 5199000    1.2989232   -3.2821002   -1.7271804   0.11192951   -3.2821002    1.5549198   550162 
 5200000    1.3003085   -3.2842387   -1.7277425   0.11452972   -3.2842387    1.5564962   550191 
 5201000    1.2988233   -3.2826865   -1.7280219    0.1093679   -3.2826865    1.5546647   550210 
 5202000    1.3000471   -3.2832765   -1.7272488   0.11425355   -3.2832765    1.5560277   550246 
 5203000    1.3007114   -3.2845809   -1.7277723   0.11524364   -3.2845809    1.5568086   550251 
 5204000    1.2997889   -3.2834436   -1.7277872     0.112474   -3.2834436    1.5556564   550268 
 5205000    1.3013756   -3.2844137   -1.7268979   0.11498288   -3.2844137    1.5575158   550282 
 5206000    1.3011008   -3.2850719   -1.7279811   0.11018604   -3.2850719    1.5570908   550316 
 5207000    1.3015202   -3.2855103   -1.7279855   0.10721623   -3.2855103    1.5575248   550340 
 5208000    1.3012479   -3.2860816   -1.7289139   0.11289824   -3.2860816    1.5571677   550351 
 5209000    1.2994415   -3.2850497   -1.7301086   0.11637833   -3.2850497    1.5549411   550374 
 5210000    1.2999138   -3.2859192   -1.7305259   0.11466863   -3.2859192    1.5553933   550414 
 5211000    1.2993249    -3.286423   -1.7317795   0.11564968    -3.286423    1.5546435   550430 
 5212000    1.3004858   -3.2873861   -1.7314385   0.10749127   -3.2873861    1.5559476   550460 
 5213000    1.3005108   -3.2872771   -1.7313363   0.11382432   -3.2872771    1.5559408   550473 
 5214000    1.3010145    -3.287075   -1.7306531   0.11460942    -3.287075    1.5564219   550516 
 5215000    1.2999837    -3.286465    -1.731378   0.11372004    -3.286465     1.555087   550552 
 5216000    1.3007317   -3.2871316   -1.7312092   0.11676729   -3.2871316    1.5559224   550573 
 5217000    1.3015724   -3.2890352   -1.7321778   0.10533296   -3.2890352    1.5568574   550598 
 5218000    1.3009479   -3.2878476    -1.731822   0.11757442   -3.2878476    1.5560256   550628 
 5219000    1.3017796   -3.2889514   -1.7320413    0.1136494   -3.2889514    1.5569101   550667 
 5220000     1.301221   -3.2889383   -1.7327556   0.11216635   -3.2889383    1.5561827   550688 
 5221000    1.3024902   -3.2898271   -1.7321972   0.11340493   -3.2898271    1.5576299   550713 
 5222000    1.3019393   -3.2882945   -1.7313629   0.11577427   -3.2882945    1.5569315   550727 
 5223000    1.3012328    -3.287178   -1.7311395    0.1191231    -3.287178    1.5560386   550744 
 5224000    1.3013235   -3.2874122   -1.7313386   0.11608589   -3.2874122    1.5560736   550770 
 5225000    1.3018516   -3.2879708    -1.731359   0.11446484   -3.2879708    1.5566118   550803 
 5226000    1.3024272   -3.2888802   -1.7316762   0.11131459   -3.2888802    1.5572039   550837 
 5227000    1.3002377   -3.2872594   -1.7327044   0.11390556   -3.2872594     1.554555   550848 
 5228000     1.300001    -3.286479   -1.7323113   0.10625763    -3.286479    1.5541676   550885 
 5229000    1.3008352   -3.2859669   -1.7308866   0.11551941   -3.2859669    1.5550802   550915 
 5230000      1.30293   -3.2881994   -1.7306828   0.10687176   -3.2881994    1.5575166   550939 
 5231000    1.3000765   -3.2845086   -1.7304961   0.11226744   -3.2845086    1.5540125   550972 
 5232000     1.303149   -3.2870653   -1.7294706   0.11267507   -3.2870653    1.5575947   551004 
 5233000    1.3023266   -3.2854276   -1.7288893   0.11274737   -3.2854276    1.5565383   551030 
 5234000    1.3029745   -3.2857381   -1.7284792   0.11598681   -3.2857381    1.5572589   551049 
 5235000     1.302048   -3.2857439   -1.7296346   0.11012327   -3.2857439    1.5561093   551064 
 5236000    1.3014651   -3.2847059   -1.7293413   0.11391819   -3.2847059    1.5553646   551081 
 5237000    1.3032125   -3.2865956   -1.7292076    0.1058336   -3.2865956     1.557388   551104 
 5238000    1.3045893    -3.287836   -1.7288763   0.11261205    -3.287836    1.5589598   551130 
 5239000    1.3017359   -3.2847179   -1.7292102   0.11590723   -3.2847179    1.5555076   551145 
 5240000    1.3032257   -3.2859098   -1.7286785   0.11006931   -3.2859098    1.5572314   551165 
 5241000    1.3034273   -3.2863692   -1.7289591   0.11306504   -3.2863692    1.5574101   551187 
 5242000    1.3003236   -3.2830511   -1.7293947   0.11846279   -3.2830511    1.5536565   551203 
 5243000    1.3012462   -3.2851036   -1.7303787   0.10679642   -3.2851036    1.5547249   551215 
 5244000    1.3035783   -3.2873489   -1.7299365    0.1084008   -3.2873489    1.5574125   551250 
 5245000    1.3038949    -3.287212   -1.7294806   0.11617158    -3.287212    1.5577313   551271 
 5246000    1.3033282   -3.2865017   -1.7295406   0.11872614   -3.2865017    1.5569611   551304 
 5247000     1.304274   -3.2871516   -1.7291058   0.10703102   -3.2871516    1.5580458   551320 
 5248000    1.3030819   -3.2856733   -1.7291673   0.11203008   -3.2856733     1.556506   551361 
 5249000    1.3050242   -3.2888595    -1.730073   0.10899758   -3.2888595    1.5587865   551375 
 5250000    1.3049043   -3.2880966   -1.7295268    0.1158185   -3.2880966    1.5585698   551401 
 5251000    1.3034076   -3.2876171   -1.7309281   0.11717279   -3.2876171    1.5566889   551434 
 5252000    1.3028976   -3.2866014   -1.7306063   0.11560258   -3.2866014    1.5559951   551464 
 5253000    1.3046573    -3.288068   -1.7300674   0.11948374    -3.288068    1.5580007   551498 
 5254000    1.3049007   -3.2884944   -1.7302567   0.11483955   -3.2884944    1.5582377   551517 
 5255000    1.3051235   -3.2897223   -1.7313175    0.1126062   -3.2897223    1.5584048   551552 
 5256000    1.3048644   -3.2895157    -1.731474   0.11182764   -3.2895157    1.5580417   551571 
 5257000    1.3058358   -3.2893861   -1.7302778   0.11077881   -3.2893861    1.5591083   551604 
 5258000     1.304347    -3.287124   -1.7298724    0.1164337    -3.287124    1.5572517   551632 
 5259000    1.3047476    -3.288403   -1.7307775   0.11238856    -3.288403    1.5576255   551669 
 5260000    1.3038292   -3.2883837   -1.7319449   0.11128655   -3.2883837    1.5564388   551701 
 5261000    1.3047443    -3.288207   -1.7307774   0.11796137    -3.288207    1.5574296   551737 
 5262000    1.3043353   -3.2886889   -1.7318179   0.11146032   -3.2886889    1.5568709   551762 
 5263000    1.3044673   -3.2891715   -1.7322249   0.11476444   -3.2891715    1.5569466   551791 
 5264000     1.303227   -3.2882236   -1.7328392    0.1193422   -3.2882236    1.5553845   551820 
 5265000    1.3044038   -3.2894449   -1.7327546   0.11627187   -3.2894449    1.5566902   551855 
 5266000    1.3049451   -3.2900092   -1.7327153   0.11327031   -3.2900092    1.5572939   551870 
 5267000    1.3034408   -3.2891859   -1.7337745    0.1116109   -3.2891859    1.5554114   551901 
 5268000    1.3049461   -3.2911941   -1.7341275   0.11153375   -3.2911941    1.5570666   551951 
 5269000    1.3047654   -3.2907001   -1.7339479   0.11255495   -3.2907001    1.5567522   551986 
 5270000    1.3058952   -3.2931468   -1.7351369   0.11313476   -3.2931468    1.5580099   552018 
 5271000    1.3038421   -3.2912628   -1.7357982   0.11353796   -3.2912628    1.5554646   552052 
 5272000    1.3061806   -3.2932169   -1.7350358   0.11031086   -3.2932169    1.5581811   552078 
 5273000    1.3028034   -3.2891266   -1.7350841   0.11033771   -3.2891266    1.5540425   552117 
 5274000    1.3056973   -3.2909014   -1.7335226   0.11332264   -3.2909014    1.5573788   552158 
 5275000     1.305802   -3.2916569   -1.7341927   0.11573025   -3.2916569    1.5574642   552172 
 5276000    1.3054354   -3.2919102   -1.7349058   0.11108942   -3.2919102    1.5570044   552180 
 5277000    1.3070173   -3.2940526   -1.7352405   0.11535594   -3.2940526    1.5588121   552208 
 5278000    1.3053927   -3.2924301   -1.7356768   0.11238479   -3.2924301    1.5567533   552251 
 5279000    1.3052732   -3.2918565   -1.7352598   0.11737867   -3.2918565    1.5565967   552256 
 5280000    1.3063114   -3.2939447   -1.7361438   0.11133718   -3.2939447    1.5578009   552268 
 5281000    1.3058252    -3.292471   -1.7353316   0.11376742    -3.292471    1.5571393   552297 
 5282000    1.3067956   -3.2923246    -1.734076   0.11140984   -3.2923246    1.5582486   552314 
 5283000    1.3059504   -3.2917942   -1.7345647    0.1187615   -3.2917942    1.5572295   552318 
 5284000    1.3063028   -3.2927212   -1.7351928    0.1219956   -3.2927212    1.5575284   552361 
 5285000    1.3081361   -3.2940087   -1.7343396   0.11751668   -3.2940087    1.5596692   552377 
 5286000     1.306539   -3.2912782   -1.7336091   0.11153873   -3.2912782    1.5576691   552411 
 5287000    1.3045219   -3.2903133   -1.7350548   0.11555532   -3.2903133    1.5552586   552413 
 5288000    1.3041129    -3.292014    -1.737333   0.11372877    -3.292014     1.554681   552445 
 5289000    1.3047924    -3.291714   -1.7362539   0.10967692    -3.291714      1.55546   552456 
 5290000    1.3059374   -3.2925854   -1.7358055   0.11810234   -3.2925854      1.55678   552472 
 5291000    1.3059778   -3.2925064   -1.7357347   0.11512507   -3.2925064    1.5567717   552492 
 5292000    1.3063047   -3.2931387   -1.7360027   0.11228832   -3.2931387     1.557136   552501 
 5293000    1.3053524   -3.2926382   -1.7367021    0.1099092   -3.2926382    1.5559361   552524 
 5294000    1.3051792   -3.2921524   -1.7364847   0.11185726   -3.2921524    1.5556677   552546 
 5295000    1.3055175   -3.2928012   -1.7367696   0.11715957   -3.2928012    1.5560316   552560 
 5296000    1.3060116   -3.2934236   -1.7368708   0.11403291   -3.2934236    1.5565528   552584 
 5297000    1.3056961   -3.2927535   -1.7366358   0.11507615   -3.2927535    1.5561177   552605 
 5298000    1.3059219   -3.2932272   -1.7368601    0.1134615   -3.2932272     1.556367   552612 
 5299000    1.3055676   -3.2919725   -1.7361149   0.11669353   -3.2919725    1.5558575   552643 
 5300000     1.306678   -3.2937631   -1.7366245    0.1116326   -3.2937631    1.5571386   552658 
 5301000    1.3067843   -3.2929959   -1.7358264   0.11804233   -3.2929959    1.5571695   552692 
 5302000    1.3077885   -3.2945066   -1.7362223   0.10827776   -3.2945066    1.5582843   552721 
 5303000    1.3061406   -3.2925394   -1.7362947   0.11306458   -3.2925394    1.5562447   552748 
 5304000    1.3075604   -3.2940408   -1.7361834   0.11643477   -3.2940408    1.5578574   552776 
 5305000    1.3069237   -3.2930964   -1.7360313   0.12034476   -3.2930964    1.5570651   552788 
 5306000    1.3077214   -3.2936759   -1.7356971   0.11529285   -3.2936759    1.5579788   552801 
 5307000    1.3075501   -3.2946055     -1.73689   0.11045847   -3.2946055    1.5577155   552822 
 5308000    1.3045515   -3.2913241    -1.737223   0.11808847   -3.2913241    1.5541011   552837 
 5309000    1.3069489   -3.2930269   -1.7361065    0.1115256   -3.2930269    1.5569204   552850 
 5310000     1.306436   -3.2923847   -1.7361484   0.11209605   -3.2923847    1.5562363   552876 
 5311000    1.3061425   -3.2926658   -1.7368298   0.11170039   -3.2926658     1.555836   552894 
 5312000    1.3060001   -3.2924444   -1.7368287   0.11650459   -3.2924444    1.5556157   552912 
 5313000    1.3070865   -3.2932783   -1.7363967    0.1142562   -3.2932783    1.5568816   552922 
 5314000    1.3066846   -3.2919686   -1.7356501   0.11175574   -3.2919686    1.5563185   552952 
 5315000    1.3080422   -3.2938997   -1.7360375   0.11251501   -3.2938997    1.5578622   552978 
 5316000    1.3093766   -3.2959951   -1.7365776   0.10866381   -3.2959951    1.5594175   552990 
 5317000    1.3069667   -3.2929527   -1.7364615   0.11430832   -3.2929527    1.5564912   553010 
 5318000    1.3064955   -3.2932869   -1.7374526   0.10893848   -3.2932869    1.5558344   553044 
 5319000    1.3072737   -3.2928861   -1.7361953   0.11717126   -3.2928861    1.5566908   553069 
 5320000    1.3070844   -3.2930953   -1.7367087   0.11609396   -3.2930953    1.5563865   553097 
 5321000    1.3078397    -3.293476   -1.7362745   0.11696309    -3.293476    1.5572015   553127 
 5322000    1.3079986   -3.2939462   -1.7366485   0.11470438   -3.2939462    1.5572978   553160 
 5323000    1.3073505   -3.2930369   -1.7365586    0.1159148   -3.2930369    1.5564782   553177 
 5324000    1.3063874   -3.2937152   -1.7384482   0.11534875   -3.2937152     1.555267   553200 
 5325000     1.308051   -3.2954504   -1.7382677   0.11356507   -3.2954504    1.5571827   553223 
 5326000    1.3074468   -3.2952951   -1.7389414   0.11535058   -3.2952951    1.5563538   553262 
 5327000    1.3072311   -3.2955312   -1.7394455   0.10755378   -3.2955312    1.5560857   553266 
 5328000    1.3070558   -3.2951809   -1.7393628   0.11595204   -3.2951809    1.5558181   553287 
 5329000    1.3063344   -3.2943272   -1.7394635   0.11332434   -3.2943272    1.5548638   553321 
 5330000    1.3068057   -3.2961993    -1.740842   0.10518738   -3.2961993    1.5553573   553345 
 5331000    1.3070213   -3.2957883   -1.7402166   0.11686266   -3.2957883    1.5555717   553360 
 5332000    1.3070394    -3.296917   -1.7413856   0.11754954    -3.296917    1.5555314   553382 
 5333000    1.3073608   -3.2970921   -1.7412428   0.11258107   -3.2970921    1.5558492   553405 
 5334000    1.3052476   -3.2950124   -1.7417818   0.11166859   -3.2950124    1.5532306   553442 
 5335000    1.3066782   -3.2961729    -1.741372   0.11842047   -3.2961729    1.5548009   553489 
 5336000     1.308117   -3.2982173   -1.7417382    0.1106447   -3.2982173    1.5564791   553501 
 5337000    1.3092216   -3.2990563   -1.7413416   0.11590588   -3.2990563    1.5577147   553529 
 5338000    1.3064869   -3.2959776    -1.741556   0.11498382   -3.2959776    1.5544216   553543 
 5339000     1.307666   -3.2991519   -1.7433781   0.11384465   -3.2991519    1.5557738   553561 
 5340000    1.3061693   -3.2976608   -1.7437939   0.10729988   -3.2976608    1.5538669   553606 
 5341000    1.3068081   -3.2980973   -1.7434901   0.11438734   -3.2980973    1.5546072   553613 
 5342000    1.3082043   -3.2984257   -1.7422784   0.10879185   -3.2984257    1.5561473   553656 
 5343000    1.3075949   -3.2989866   -1.7436401   0.11478673   -3.2989866    1.5553466   553683 
 5344000    1.3065604    -3.296645   -1.7426105   0.12158303    -3.296645    1.5540346   553712 
 5345000    1.3089157   -3.3001643   -1.7433846   0.11166952   -3.3001643    1.5567798   553732 
 5346000    1.3074868   -3.2974014   -1.7423408   0.11428083   -3.2974014    1.5550606   553739 
 5347000    1.3088024   -3.2988289   -1.7422738   0.11773362   -3.2988289    1.5565551   553764 
 5348000    1.3071969   -3.2961903   -1.7416401   0.11958271   -3.2961903    1.5545502   553798 
 5349000    1.3075288   -3.2977362   -1.7428474    0.1145755   -3.2977362    1.5548888   553818 
 5350000    1.3081909   -3.2990172   -1.7434169   0.11614191   -3.2990172    1.5556003   553845 
 5351000    1.3071247   -3.2974551   -1.7431704   0.11561249   -3.2974551    1.5542847   553862 
 5352000    1.3065333   -3.2967501   -1.7432303   0.11780313   -3.2967501    1.5535198   553884 
 5353000    1.3081759    -3.298863   -1.7435304   0.10522323    -3.298863    1.5553326   553934 
 5354000     1.307631   -3.2980821   -1.7434619   0.11594558   -3.2980821    1.5546201   553957 
 5355000    1.3105899   -3.3014314   -1.7433272   0.10874636   -3.3014314    1.5581042   553969 
 5356000     1.307298   -3.2986853    -1.744579   0.10936345   -3.2986853    1.5541064   553999 
 5357000     1.306979   -3.2990007    -1.745338   0.11373633   -3.2990007    1.5536627   554022 
 5358000    1.3078201     -3.30013   -1.7455096   0.11614879     -3.30013    1.5546204   554037 
 5359000    1.3068265   -3.2996133   -1.7462945   0.11153242   -3.2996133    1.5533188   554080 
 5360000    1.3087669    -3.301366   -1.7458222    0.1105471    -3.301366    1.5555438   554109 
 5361000    1.3073895   -3.3012272   -1.7474328   0.10962669   -3.3012272    1.5537944   554149 
 5362000    1.3082497   -3.3015046   -1.7467467   0.11140253   -3.3015046    1.5547579   554170 
 5363000    1.3074035   -3.3008124   -1.7471472   0.11525194   -3.3008124    1.5536653   554201 
 5364000    1.3075256   -3.3008588   -1.7471156   0.11495553   -3.3008588    1.5537432   554225 
 5365000    1.3075256   -3.3010967   -1.7474041   0.10810146   -3.3010967    1.5536926   554243 
 5366000     1.309173   -3.3016083   -1.7460339   0.11407449   -3.3016083    1.5555745   554270 
 5367000    1.3084459    -3.301093   -1.7464161   0.11978104    -3.301093    1.5546768   554282 
 5368000    1.3089653   -3.3022549   -1.7470563   0.11891211   -3.3022549    1.5551985   554316 
 5369000    1.3079333   -3.3025848   -1.7486741   0.11321226   -3.3025848    1.5539107   554338 
 5370000    1.3092924   -3.3040918   -1.7486561   0.10828236   -3.3040918    1.5554357   554370 
 5371000    1.3080667   -3.3015288   -1.7476137   0.11473608   -3.3015288     1.553915   554393 
 5372000    1.3086973   -3.3026754   -1.7480758    0.1144934   -3.3026754    1.5545997   554416 
 5373000     1.309637   -3.3049569   -1.7492633   0.11684089   -3.3049569    1.5556936   554424 
 5374000    1.3088753   -3.3033925   -1.7486093   0.11239072   -3.3033925    1.5547832   554426 
 5375000    1.3086885   -3.3026077   -1.7480857   0.11167552   -3.3026077    1.5545219   554440 
 5376000    1.3090188   -3.3031889   -1.7482437   0.11403222   -3.3031889    1.5549452   554429 
 5377000    1.3093779    -3.302227   -1.7469059    0.1185431    -3.302227    1.5553212   554447 
 5378000    1.3102872   -3.3030809   -1.7467807   0.11832009   -3.3030809    1.5563002   554483 
 5379000    1.3111224   -3.3049679   -1.7477261   0.11056172   -3.3049679    1.5572418   554501 
 5380000    1.3084216   -3.3017378   -1.7477515   0.10711947   -3.3017378    1.5539863   554518 
 5381000    1.3085549   -3.3018436   -1.7477158   0.11164522   -3.3018436    1.5541278   554524 
 5382000    1.3086677   -3.3007482   -1.7465509   0.10702619   -3.3007482    1.5541973   554547 
 5383000    1.3092485   -3.3008978    -1.746106   0.11787777   -3.3008978    1.5547918   554581 
 5384000    1.3091154   -3.3020206   -1.7474738   0.10794147   -3.3020206    1.5545468   554612 
 5385000    1.3079423   -3.3006226   -1.7475696   0.11674856   -3.3006226     1.553053   554648 
 5386000     1.310239   -3.3012019   -1.7454864   0.10787402   -3.3012019    1.5557155   554671 
 5387000    1.3114765   -3.3024382   -1.7453067   0.11536737   -3.3024382    1.5571315   554690 
 5388000    1.3122634   -3.3032816   -1.7452663   0.11091823   -3.3032816    1.5580153   554708 
 5389000    1.3104702    -3.302031   -1.7461952   0.12052663    -3.302031    1.5558358   554726 
 5390000    1.3103414   -3.3014751   -1.7458371   0.10980667   -3.3014751     1.555638   554742 
 5391000    1.3095302   -3.3003961   -1.7458277   0.11353123   -3.3003961    1.5545684   554780 
 5392000    1.3105885   -3.3011516   -1.7453884   0.11161892   -3.3011516    1.5557631   554802 
 5393000    1.3103159   -3.3003986   -1.7450712   0.11416538   -3.3003986    1.5553274   554842 
 5394000    1.3111294   -3.3006755   -1.7444134    0.1116592   -3.3006755    1.5562621   554853 
 5395000    1.3112701   -3.3014459   -1.7451009   0.11190985   -3.3014459     1.556345   554883 
 5396000    1.3106038   -3.3012518   -1.7457454   0.11144763   -3.3012518    1.5555064   554900 
 5397000    1.3104495   -3.3009777   -1.7457299   0.10993346   -3.3009777    1.5552477   554927 
 5398000     1.310149    -3.300555   -1.7456948   0.11762681    -3.300555    1.5548602   554938 
 5399000    1.3113255   -3.3010605   -1.7448965   0.12262845   -3.3010605     1.556164   554971 
 5400000    1.3118608   -3.3015644   -1.7448325   0.11806015   -3.3015644    1.5567319   554995 
 5401000    1.3114964   -3.3022023   -1.7460038   0.11689076   -3.3022023    1.5561985   555031 
 5402000    1.3116598   -3.3023741   -1.7460433   0.11254081   -3.3023741    1.5563307   555053 
 5403000    1.3116795   -3.3026689   -1.7463568   0.11190741   -3.3026689    1.5563121   555068 
 5404000     1.310843   -3.3023229    -1.747079   0.11954714   -3.3023229    1.5552438   555095 
 5405000    1.3096895   -3.3019906   -1.7481992   0.11974936   -3.3019906    1.5537913   555125 
 5406000    1.3106316   -3.3030159   -1.7481993   0.11428883   -3.3030159    1.5548166   555158 
 5407000    1.3112161   -3.3042865    -1.748841   0.11188156   -3.3042865    1.5554455   555181 
 5408000     1.310579   -3.3036911   -1.7490153   0.11180097   -3.3036911    1.5546758   555186 
 5409000    1.3117352   -3.3038753   -1.7479037   0.11226502   -3.3038753    1.5559717   555213 
 5410000    1.3124566   -3.3049803   -1.7482343   0.11865708   -3.3049803     1.556746   555242 
 5411000     1.311858   -3.3056457   -1.7496881   0.11804737   -3.3056457    1.5559576   555270 
 5412000    1.3101756   -3.3044619   -1.7505277   0.11791217   -3.3044619    1.5539342   555280 
 5413000    1.3121465   -3.3066244   -1.7504508    0.1118856   -3.3066244    1.5561737   555315 
 5414000    1.3124109   -3.3059022   -1.7494541   0.11418773   -3.3059022     1.556448   555329 
 5415000    1.3117491   -3.3045671   -1.7489321   0.11270986   -3.3045671    1.5556351   555339 
 5416000    1.3106344   -3.3034345   -1.7491354   0.11696856   -3.3034345    1.5542991   555344 
 5417000    1.3113603   -3.3036263   -1.7485503   0.11671753   -3.3036263     1.555076   555374 
 5418000    1.3123337   -3.3047701   -1.7485959   0.11990342   -3.3047701    1.5561742   555394 
 5419000    1.3116706   -3.3054761   -1.7501861   0.11770815   -3.3054761    1.5552899   555429 
 5420000     1.312363   -3.3068452   -1.7507876   0.11159574   -3.3068452    1.5560577   555448 
 5421000    1.3126595   -3.3072413   -1.7509216   0.11365614   -3.3072413    1.5563196   555480 
 5422000    1.3112079   -3.3059514   -1.7514172   0.11484232   -3.3059514    1.5545342   555503 
 5423000    1.3114666   -3.3065303   -1.7517706   0.11046877   -3.3065303    1.5547597   555532 
 5424000    1.3106305   -3.3057047   -1.7520425   0.11094333   -3.3057047    1.5536622   555570 
 5425000    1.3100177   -3.3049274   -1.7520531   0.11596594   -3.3049274    1.5528743   555592 
 5426000    1.3106391   -3.3057442   -1.7521781   0.10872896   -3.3057442    1.5535661   555608 
 5427000    1.3095614   -3.3042375    -1.752027   0.10684533   -3.3042375    1.5522105   555636 
 5428000    1.3112469   -3.3060113   -1.7518198   0.11242856   -3.3060113    1.5541915   555642 
 5429000    1.3102173   -3.3048481   -1.7519301   0.10696471   -3.3048481    1.5529181   555661 
 5430000    1.3109698   -3.3064466   -1.7526617   0.11498463   -3.3064466    1.5537848   555670 
 5431000    1.3103842    -3.306224   -1.7531752    0.1092956    -3.306224    1.5530488   555685 
 5432000    1.3110451   -3.3061539   -1.7523554   0.11012014   -3.3061539    1.5537985   555697 
 5433000    1.3103789   -3.3055228   -1.7525334   0.10754761   -3.3055228    1.5529894   555704 
 5434000    1.3098583   -3.3062384   -1.7538828   0.10864883   -3.3062384    1.5523556   555710 
 5435000    1.3109728   -3.3067704   -1.7531777   0.11541645   -3.3067704    1.5535926   555740 
 5436000    1.3116885   -3.3072447   -1.7528263   0.11086927   -3.3072447    1.5544185   555748 
 5437000    1.3111487   -3.3075268   -1.7538041   0.10789387   -3.3075268    1.5537228   555768 
 5438000    1.3121303   -3.3075589   -1.7527513   0.10941111   -3.3075589    1.5548076   555796 
 5439000    1.3112825   -3.3063656   -1.7526576   0.11147605   -3.3063656     1.553708   555830 
 5440000    1.3110343   -3.3073464    -1.754047   0.11101899   -3.3073464    1.5532994   555871 
 5441000    1.3118012    -3.307948   -1.7537792    0.1146088    -3.307948    1.5541688   555885 
 5442000    1.3117465   -3.3081795   -1.7541174   0.11633302   -3.3081795    1.5540621   555900 
 5443000    1.3105454   -3.3076747   -1.7551026   0.11143864   -3.3076747    1.5525721   555924 
 5444000    1.3110169   -3.3084473   -1.7554367   0.10854091   -3.3084473    1.5530106   555967 
 5445000    1.3106643   -3.3072946   -1.7547576   0.12025322   -3.3072946     1.552537   555987 
 5446000    1.3124784   -3.3085267   -1.7539107   0.11339848   -3.3085267     1.554616   556012 
 5447000    1.3115784   -3.3073892   -1.7539091    0.1170744   -3.3073892    1.5534801   556037 
 5448000    1.3115496   -3.3083908   -1.7550035   0.12142998   -3.3083908    1.5533873   556058 
 5449000    1.3117661   -3.3087614   -1.7551651   0.10881432   -3.3087614    1.5535963   556075 
 5450000    1.3117233   -3.3089483   -1.7554893   0.11426035   -3.3089483     1.553459   556106 
 5451000    1.3137536   -3.3104665   -1.7546534   0.11295283   -3.3104665    1.5558131   556124 
 5452000    1.3127412   -3.3095513   -1.7549848   0.11543457   -3.3095513    1.5545666   556141 
 5453000      1.31269   -3.3085521   -1.7540936   0.12039772   -3.3085521    1.5544584   556158 
 5454000    1.3136187   -3.3089015   -1.7533992   0.11698418   -3.3089015    1.5555023   556178 
 5455000    1.3120031   -3.3076909   -1.7541548   0.11604019   -3.3076909    1.5535361   556197 
 5456000    1.3133856   -3.3079668   -1.7528887   0.11469316   -3.3079668    1.5550781   556231 
 5457000    1.3142349     -3.30816   -1.7521351    0.1129986     -3.30816     1.556025   556252 
 5458000    1.3124841   -3.3063395    -1.752435   0.11495314   -3.3063395    1.5539044   556269 
 5459000     1.313256   -3.3062679   -1.7515222   0.11729833   -3.3062679    1.5547457   556295 
 5460000    1.3146873   -3.3080221   -1.7516658   0.12015921   -3.3080221    1.5563563   556325 
 5461000    1.3136858   -3.3080081   -1.7528933   0.11053447   -3.3080081    1.5551148   556345 
 5462000    1.3127388    -3.307272   -1.7533537   0.11017961    -3.307272    1.5539183   556372 
 5463000    1.3114593   -3.3059006    -1.753547   0.10951611   -3.3059006    1.5523536   556390 
 5464000    1.3119226   -3.3056996   -1.7528758   0.11173296   -3.3056996    1.5528238   556418 
 5465000    1.3144349   -3.3070973   -1.7513782   0.11399521   -3.3070973    1.5557191   556446 
 5466000    1.3130574   -3.3063667   -1.7523533   0.11581161   -3.3063667    1.5540134   556473 
 5467000    1.3142338   -3.3062823   -1.7509046   0.11154605   -3.3062823    1.5553777   556483 
 5468000     1.312593   -3.3049693   -1.7515921   0.11634311   -3.3049693    1.5533771   556504 
 5469000    1.3151834   -3.3084088   -1.7520387   0.11011768   -3.3084088    1.5563701   556530 
 5470000    1.3135379   -3.3072677   -1.7529314   0.11055652   -3.3072677    1.5543362   556561 
 5471000    1.3140362   -3.3078738   -1.7529563    0.1077936   -3.3078738    1.5549175   556564 
 5472000    1.3131329   -3.3065082   -1.7527517    0.1131272   -3.3065082    1.5537565   556597 
 5473000    1.3128114   -3.3054647    -1.752178   0.11158758   -3.3054647    1.5532867   556629 
 5474000    1.3144767   -3.3087033   -1.7535133   0.10832019   -3.3087033      1.55519   556653 
 5475000    1.3155679   -3.3100993   -1.7536881   0.11351449   -3.3100993    1.5564112   556678 
 5476000    1.3144309   -3.3089581   -1.7539535   0.11407216   -3.3089581    1.5550046   556700 
 5477000    1.3152744    -3.310079   -1.7541464   0.11576408    -3.310079    1.5559325   556725 
 5478000    1.3145043   -3.3102038   -1.7552269   0.11422455   -3.3102038    1.5549769   556741 
 5479000    1.3153055   -3.3099273   -1.7540557   0.11728356   -3.3099273    1.5558715   556760 
 5480000    1.3150837   -3.3112827   -1.7557322   0.10792328   -3.3112827    1.5555505   556781 
 5481000    1.3146741   -3.3108303   -1.7558062   0.11294816   -3.3108303    1.5550241   556796 
 5482000    1.3138736   -3.3108094   -1.7567768   0.11485629   -3.3108094    1.5540327   556812 
 5483000    1.3127873   -3.3108616   -1.7581333   0.11285255   -3.3108616    1.5527282   556819 
 5484000    1.3132753   -3.3113496   -1.7581056   0.11771106   -3.3113496     1.553244   556841 
 5485000    1.3150185   -3.3120861   -1.7567942   0.11076165   -3.3120861    1.5552918   556846 
 5486000    1.3128559   -3.3104309   -1.7577526   0.11503028   -3.3104309    1.5526783   556866 
 5487000    1.3141264   -3.3122936   -1.7581294   0.12036052   -3.3122936    1.5541642   556872 
 5488000    1.3162926   -3.3137315   -1.7570558    0.1124659   -3.3137315    1.5566757   556890 
 5489000    1.3138906   -3.3121519   -1.7583895   0.11510607   -3.3121519    1.5537625   556916 
 5490000    1.3139133   -3.3119661   -1.7582465    0.1131305   -3.3119661    1.5537196   556941 
 5491000    1.3135531   -3.3108217   -1.7576088   0.11824834   -3.3108217    1.5532129   556970 
 5492000    1.3148903   -3.3124851   -1.7577581   0.11969044   -3.3124851     1.554727   556994 
 5493000    1.3137917   -3.3125716   -1.7592495   0.11154879   -3.3125716    1.5533221   557032 
 5494000    1.3143724   -3.3121913   -1.7582608   0.11411177   -3.3121913    1.5539304   557060 
 5495000    1.3145982   -3.3122947    -1.758153   0.11154615   -3.3122947    1.5541417   557080 
 5496000     1.315431    -3.313351   -1.7582583   0.11445359    -3.313351    1.5550927   557092 
 5497000    1.3136782   -3.3107715   -1.7578095   0.11489516   -3.3107715     1.552962   557113 
 5498000    1.3152835   -3.3132429   -1.7584251   0.11578092   -3.3132429    1.5548178   557128 
 5499000    1.3128919   -3.3120308   -1.7600986   0.11597432   -3.3120308    1.5519322   557149 
 5500000    1.3142983   -3.3120063   -1.7584897   0.11910761   -3.3120063    1.5535166   557177 
 5501000    1.3131404   -3.3097496   -1.7577297   0.11393834   -3.3097496    1.5520198   557223 
 5502000    1.3142239    -3.311016   -1.7577602   0.10544023    -3.311016    1.5532558   557239 
 5503000    1.3148718   -3.3117477   -1.7577987   0.11610898   -3.3117477     1.553949   557265 
 5504000    1.3149093   -3.3117619   -1.7578298   0.11637295   -3.3117619    1.5539321   557287 
 5505000    1.3153767   -3.3122344   -1.7578644   0.11153395   -3.3122344      1.55437   557328 
 5506000    1.3166895   -3.3128525   -1.7570204   0.10883848   -3.3128525    1.5558321   557360 
 5507000     1.315275   -3.3111377   -1.7570412   0.11487422   -3.3111377    1.5540965   557383 
 5508000    1.3149974   -3.3122306   -1.7585541   0.11524957   -3.3122306    1.5536765   557416 
 5509000    1.3140687   -3.3110838   -1.7585909   0.11657337   -3.3110838    1.5524928   557447 
 5510000    1.3166408    -3.314251   -1.7588059   0.10794929    -3.314251    1.5554452   557478 
 5511000    1.3143804    -3.312712    -1.760004    0.1168456    -3.312712    1.5527079   557502 
 5512000     1.316465    -3.315258   -1.7601822   0.11085435    -3.315258    1.5550758   557536 
 5513000    1.3146608   -3.3132381   -1.7603688      0.11293   -3.3132381    1.5528693   557563 
 5514000     1.315106   -3.3140432   -1.7607372   0.11079655   -3.3140432     1.553306   557595 
 5515000      1.31695   -3.3154255    -1.760003    0.1110572   -3.3154255    1.5554226   557617 
 5516000    1.3166714   -3.3148684   -1.7598724   0.11320017   -3.3148684    1.5549959   557652 
 5517000    1.3168054   -3.3152306   -1.7601154   0.11108801   -3.3152306    1.5551152   557666 
 5518000    1.3145857   -3.3132215    -1.760775   0.11110249   -3.3132215    1.5524465   557683 
 5519000     1.313974   -3.3138735   -1.7622274   0.11728453   -3.3138735    1.5516462   557711 
 5520000    1.3151375   -3.3147658   -1.7617818   0.10602324   -3.3147658     1.552984   557724 
 5521000    1.3168774    -3.316913    -1.761947   0.11179542    -3.316913     1.554966   557750 
 5522000     1.314786   -3.3141215   -1.7616751   0.11225475   -3.3141215    1.5524464   557768 
 5523000    1.3164224   -3.3161873   -1.7619034   0.11101624   -3.3161873    1.5542838   557802 
 5524000    1.3160006   -3.3157412   -1.7620306   0.11128576   -3.3157412    1.5537106   557829 
 5525000    1.3176799   -3.3173245   -1.7617344   0.11473004   -3.3173245    1.5555901   557866 
 5526000    1.3166015    -3.316718   -1.7624873   0.11104971    -3.316718    1.5542306   557897 
 5527000    1.3155052    -3.315555   -1.7626993   0.11647634    -3.315555    1.5528557   557926 
 5528000    1.3178375   -3.3175481   -1.7620258   0.12017903   -3.3175481    1.5555223   557957 
 5529000    1.3175611   -3.3174419   -1.7622904   0.12220664   -3.3174419    1.5551515   557973 
 5530000    1.3166602   -3.3183617    -1.764346   0.11248444   -3.3183617    1.5540157   557999 
 5531000    1.3160593   -3.3181134   -1.7648236   0.11519827   -3.3181134    1.5532898   558005 
 5532000    1.3153118   -3.3165133   -1.7642003   0.11390649   -3.3165133     1.552313   558039 
 5533000    1.3153178   -3.3168118   -1.7645696   0.11294992   -3.3168118    1.5522422   558067 
 5534000    1.3159116   -3.3166074   -1.7637284   0.11171933   -3.3166074     1.552879   558090 
 5535000    1.3152693   -3.3172617   -1.7651879   0.11185456   -3.3172617    1.5520738   558107 
 5536000    1.3142649   -3.3172633   -1.7664471   0.10920007   -3.3172633    1.5508162   558133 
 5537000    1.3161433   -3.3180388   -1.7650729   0.10724357   -3.3180388    1.5529659   558157 
 5538000    1.3149017   -3.3176595   -1.7662252   0.11297747   -3.3176595    1.5514342   558181 
 5539000    1.3144742   -3.3167993   -1.7659195   0.10932752   -3.3167993    1.5508799   558199 
 5540000    1.3153388   -3.3174571   -1.7656406   0.11119469   -3.3174571    1.5518165   558229 
 5541000    1.3131371   -3.3158185   -1.7665995   0.11165783   -3.3158185     1.549219   558229 
 5542000    1.3165336   -3.3193521   -1.7661928   0.11145012   -3.3193521    1.5531593   558253 
 5543000    1.3160975   -3.3193695   -1.7668248   0.11184335   -3.3193695    1.5525448   558289 
 5544000    1.3168566   -3.3202854   -1.7669509   0.10560917   -3.3202854    1.5533345   558327 
 5545000    1.3169106   -3.3197596   -1.7663754   0.11174965   -3.3197596    1.5533843   558332 
 5546000    1.3159122   -3.3190019   -1.7668342   0.10884513   -3.3190019    1.5521677   558346 
 5547000    1.3175255   -3.3205951   -1.7665884   0.10923608   -3.3205951    1.5540066   558369 
 5548000    1.3154037   -3.3174188   -1.7659732   0.11626997   -3.3174188    1.5514456   558390 
 5549000    1.3175975   -3.3193739   -1.7653715   0.11581855   -3.3193739    1.5540024   558401 
 5550000     1.317708   -3.3183304   -1.7642421   0.12053956   -3.3183304    1.5540883   558417 
 5551000    1.3163333   -3.3174629   -1.7651071   0.11878028   -3.3174629    1.5523558   558457 
 5552000    1.3177006   -3.3190412   -1.7651592   0.11412645   -3.3190412     1.553882   558488 
 5553000    1.3181007   -3.3189815   -1.7646723      0.11192   -3.3189815    1.5543092   558504 
 5554000    1.3175538   -3.3189134   -1.7653214   0.11686299   -3.3189134     1.553592   558530 
 5555000    1.3167177   -3.3180907   -1.7655096   0.11763289   -3.3180907    1.5525811   558539 
 5556000    1.3168814   -3.3190125   -1.7662801   0.12198558   -3.3190125    1.5527324   558554 
 5557000     1.317766   -3.3209406   -1.7671902   0.11167025   -3.3209406    1.5537504   558563 
 5558000    1.3145597   -3.3168626   -1.7669676   0.11760585   -3.3168626     1.549895   558590 
 5559000    1.3161588    -3.319838   -1.7681659   0.11234258    -3.319838    1.5516721   558629 
 5560000    1.3163781   -3.3195803   -1.7676663   0.11234325   -3.3195803    1.5519139   558635 
 5561000    1.3175484   -3.3209084   -1.7676509    0.1122348   -3.3209084    1.5532575   558648 
 5562000    1.3163419   -3.3192257   -1.7674266   0.11273474   -3.3192257    1.5517991   558661 
 5563000    1.3167552   -3.3206333   -1.7684053   0.11355752   -3.3206333     1.552228   558682 
 5564000    1.3156073   -3.3202207   -1.7694153   0.11275352   -3.3202207    1.5508054   558707 
 5565000    1.3145718   -3.3189051   -1.7694451   0.10422738   -3.3189051      1.54946   558752 
 5566000    1.3158385   -3.3199274   -1.7690549   0.11238971   -3.3199274    1.5508724   558781 
 5567000    1.3156155   -3.3202058   -1.7696544   0.11184773   -3.3202058    1.5505513   558802 
 5568000    1.3147951   -3.3185941   -1.7690762   0.11393207   -3.3185941    1.5495179   558826 
 5569000     1.317367   -3.3216392   -1.7691208   0.10926621   -3.3216392    1.5525184   558837 
 5570000    1.3162942   -3.3201509   -1.7689939   0.10838117   -3.3201509    1.5511569   558872 
 5571000     1.316593   -3.3196596   -1.7682283   0.10743523   -3.3196596    1.5514313   558900 
 5572000    1.3172097   -3.3210338   -1.7689118   0.11467455   -3.3210338     1.552122   558913 
 5573000    1.3174472   -3.3206428   -1.7682993   0.11543314   -3.3206428    1.5523435   558934 
 5574000    1.3163678   -3.3192497   -1.7682668   0.11286841   -3.3192497    1.5509828   558966 
 5575000     1.317576   -3.3204373   -1.7681059   0.11449116   -3.3204373    1.5523313   558993 
 5576000    1.3181264   -3.3208311   -1.7679151   0.10957095   -3.3208311    1.5529159   559016 
 5577000    1.3161982   -3.3191594   -1.7685844   0.11197481   -3.3191594     1.550575   559041 
 5578000    1.3186278   -3.3217133   -1.7682927   0.11187793   -3.3217133    1.5534205   559047 
 5579000    1.3168158   -3.3203793   -1.7691351    0.1130775   -3.3203793    1.5512442   559062 
 5580000    1.3180223   -3.3220633    -1.769456   0.10795217   -3.3220633    1.5526073   559083 
 5581000    1.3191561    -3.322557   -1.7686864   0.10794408    -3.322557    1.5538706   559109 
 5582000    1.3181665   -3.3218211   -1.7691856   0.10703183   -3.3218211    1.5526354   559134 
 5583000    1.3166394   -3.3204729   -1.7696916    0.1152623   -3.3204729    1.5507813   559154 
 5584000    1.3170306   -3.3224308   -1.7712387   0.11170598   -3.3224308    1.5511921   559172 
 5585000    1.3180035   -3.3212361   -1.7690008   0.11057193   -3.3212361    1.5522353   559209 
 5586000    1.3163375   -3.3204585   -1.7702491    0.1165633   -3.3204585    1.5502095   559232 
 5587000    1.3182416   -3.3230193   -1.7706646   0.10942988   -3.3230193    1.5523547   559267 
 5588000    1.3164907   -3.3228038   -1.7725885   0.11120404   -3.3228038    1.5502153   559295 
 5589000    1.3173155   -3.3227267   -1.7716069    0.1153221   -3.3227267    1.5511198   559319 
 5590000    1.3171427   -3.3223986   -1.7715376   0.11208888   -3.3223986    1.5508609   559339 
 5591000    1.3168859   -3.3225946    -1.772072   0.11147469   -3.3225946    1.5505226   559352 
 5592000     1.317576   -3.3234311   -1.7721681   0.11397443   -3.3234311     1.551263   559378 
 5593000    1.3184271   -3.3242847   -1.7721113   0.11579524   -3.3242847    1.5521734   559411 
 5594000    1.3186189   -3.3247821   -1.7723773    0.1137429   -3.3247821    1.5524048   559409 
 5595000    1.3182001   -3.3247263   -1.7728479   0.11168665   -3.3247263    1.5518784   559421 
 5596000    1.3157826   -3.3219609   -1.7729424   0.11341617   -3.3219609    1.5490185   559426 
 5597000    1.3175596   -3.3249682   -1.7739381   0.11588629   -3.3249682    1.5510302   559455 
 5598000    1.3151539   -3.3225042   -1.7743919   0.11696243   -3.3225042    1.5481123   559486 
 5599000    1.3173639   -3.3252949   -1.7746559    0.1135872   -3.3252949     1.550639   559513 
 5600000    1.3174008   -3.3250589   -1.7744373   0.11469167   -3.3250589    1.5506215   559535 
 5601000     1.318705   -3.3261697   -1.7740519   0.11428595   -3.3261697    1.5521178   559549 
 5602000    1.3165298   -3.3246649   -1.7751905   0.11782061   -3.3246649    1.5494744   559579 
 5603000    1.3163111   -3.3245419   -1.7753526   0.11387018   -3.3245419    1.5491893   559589 
 5604000    1.3172956   -3.3255619   -1.7752831   0.11246594   -3.3255619    1.5502788   559614 
 5605000    1.3186815   -3.3259839   -1.7741323   0.11137622   -3.3259839    1.5518516   559635 
 5606000     1.318332   -3.3250118   -1.7736463   0.10919109   -3.3250118    1.5513655   559662 
 5607000    1.3186269    -3.325978   -1.7743376   0.11617615    -3.325978    1.5516404   559688 
 5608000    1.3170508   -3.3241234   -1.7744069   0.11334869   -3.3241234    1.5497165   559713 
 5609000    1.3178829   -3.3254036     -1.77478   0.10895849   -3.3254036    1.5506236   559739 
 5610000     1.318598   -3.3269096    -1.775489   0.11081445   -3.3269096    1.5514206   559755 
 5611000     1.317464    -3.325938    -1.775943   0.11593034    -3.325938     1.549995   559788 
 5612000    1.3163258   -3.3246624   -1.7760839   0.11837989   -3.3246624    1.5485785   559816 
 5613000    1.3177197   -3.3259541   -1.7758105    0.1123185   -3.3259541    1.5501436   559843 
 5614000    1.3177916   -3.3247891   -1.7746495   0.11516402   -3.3247891    1.5501396   559875 
 5615000    1.3202359   -3.3270727   -1.7741023   0.11491933   -3.3270727    1.5529704   559891 
 5616000    1.3211354   -3.3278574   -1.7738983   0.11367252   -3.3278574     1.553959   559916 
 5617000    1.3177236   -3.3255863   -1.7757317   0.11219564   -3.3255863    1.5498546   559949 
 5618000    1.3204232   -3.3278188   -1.7748805   0.11106584   -3.3278188    1.5529383   559982 
 5619000    1.3172517   -3.3251629   -1.7760376   0.11133606   -3.3251629    1.5491253   560012 
 5620000     1.319063     -3.32751   -1.7762877   0.11712929     -3.32751    1.5512223   560024 
 5621000    1.3202532   -3.3293186   -1.7767577   0.11324018   -3.3293186    1.5525609   560046 
 5622000    1.3208581   -3.3294379   -1.7762238    0.1116871   -3.3294379    1.5532141   560067 
 5623000    1.3192554   -3.3284088   -1.7771958    0.1130506   -3.3284088    1.5512131   560109 
 5624000    1.3196069   -3.3283319   -1.7767803   0.11711862   -3.3283319    1.5515516   560136 
 5625000    1.3181191   -3.3286346   -1.7789181    0.1148288   -3.3286346    1.5497165   560167 
 5626000    1.3181877   -3.3290068   -1.7792788   0.10589542   -3.3290068    1.5497281   560192 
 5627000    1.3191358    -3.328607   -1.7778336   0.11309479    -3.328607    1.5507734   560217 
 5628000    1.3208768   -3.3303714   -1.7776206   0.11068694   -3.3303714    1.5527508   560242 
 5629000    1.3212394   -3.3298307   -1.7766896   0.11311374   -3.3298307    1.5531411   560255 
 5630000     1.320301   -3.3297559   -1.7777956   0.11593507   -3.3297559    1.5519604   560283 
 5631000     1.318574   -3.3280918   -1.7782195   0.11544718   -3.3280918    1.5498724   560304 
 5632000    1.3197789   -3.3292185   -1.7779826   0.11269538   -3.3292185    1.5512359   560323 
 5633000    1.3199994   -3.3289434   -1.7774898   0.11090768   -3.3289434    1.5514536   560338 
 5634000    1.3189959   -3.3271704   -1.7769765   0.11369106   -3.3271704    1.5501939   560367 
 5635000    1.3207922   -3.3285278   -1.7762809     0.115557   -3.3285278    1.5522469   560388 
 5636000    1.3196727   -3.3275432   -1.7766867   0.12126393   -3.3275432    1.5508565   560415 
 5637000    1.3222984   -3.3312227   -1.7773775   0.11448165   -3.3312227    1.5538452   560450 
 5638000    1.3196154   -3.3279755   -1.7773358   0.11242631   -3.3279755    1.5506397   560469 
 5639000    1.3210498   -3.3289723   -1.7766858   0.11464526   -3.3289723    1.5522865   560483 
 5640000    1.3187615   -3.3256764   -1.7761534   0.11947387   -3.3256764     1.549523   560510 
 5641000    1.3196997   -3.3273754   -1.7768247   0.11511533   -3.3273754    1.5505507   560537 
 5642000    1.3187327   -3.3260582     -1.77671   0.11255569   -3.3260582    1.5493482   560561 
 5643000    1.3204985   -3.3279462    -1.776576   0.10971124   -3.3279462    1.5513702   560580 
 5644000    1.3199435   -3.3270323   -1.7763446    0.1126332   -3.3270323    1.5506877   560591 
 5645000    1.3208097   -3.3273089   -1.7756672   0.11118707   -3.3273089    1.5516417   560614 
 5646000      1.32114    -3.328436   -1.7764063   0.11742838    -3.328436    1.5520298   560614 
 5647000    1.3213694    -3.328624   -1.7763663   0.11173329    -3.328624    1.5522577   560629 
 5648000    1.3210916    -3.327627   -1.7757621   0.11588212    -3.327627     1.551865   560653 
 5649000    1.3193618   -3.3255033    -1.775709   0.11626953   -3.3255033    1.5497943   560667 
 5650000    1.3210296   -3.3271741   -1.7755093   0.11598247   -3.3271741    1.5516648   560699 
 5651000    1.3230406   -3.3285452   -1.7745765    0.1156414   -3.3285452    1.5539687   560720 
 5652000    1.3234685   -3.3285006   -1.7741291   0.11369212   -3.3285006    1.5543715   560756 
 5653000     1.323662   -3.3277357   -1.7731952   0.11797411   -3.3277357    1.5545405   560777 
 5654000     1.321446   -3.3258859   -1.7739618   0.11650105   -3.3258859    1.5519241   560782 
 5655000    1.3228095   -3.3279655   -1.7744955   0.11792609   -3.3279655    1.5534701   560802 
 5656000      1.32179    -3.326976   -1.7747807   0.12317557    -3.326976    1.5521953   560830 
 5657000    1.3225446   -3.3288055   -1.7758072   0.11984122   -3.3288055    1.5529984   560860 
 5658000    1.3229084   -3.3289513   -1.7756061   0.12152376   -3.3289513    1.5533452   560889 
 5659000    1.3231444   -3.3286606   -1.7750549   0.11408119   -3.3286606    1.5536057   560895 
 5660000    1.3214472   -3.3270587   -1.7754762   0.11842369   -3.3270587    1.5515824   560906 
 5661000    1.3234791   -3.3300245   -1.7761338   0.11844083   -3.3300245    1.5538907   560934 
 5662000    1.3228594   -3.3296307   -1.7765258   0.11805523   -3.3296307    1.5531049   560955 
 5663000     1.320801   -3.3283309   -1.7777145   0.11461894   -3.3283309    1.5506164   560981 
 5664000    1.3227167   -3.3297826   -1.7770141   0.11673353   -3.3297826    1.5527685   561016 
 5665000    1.3221343   -3.3290983   -1.7770715   0.11703285   -3.3290983    1.5520268   561037 
 5666000    1.3211233   -3.3285642    -1.777785   0.11475308   -3.3285642    1.5507792   561059 
 5667000    1.3207049   -3.3290159   -1.7787887   0.11391362   -3.3290159    1.5502272   561081 
 5668000    1.3201179   -3.3280074   -1.7784775   0.12028652   -3.3280074    1.5495299   561084 
 5669000    1.3221111   -3.3296041   -1.7777926   0.10974966   -3.3296041    1.5518115   561105 
 5670000    1.3227404   -3.3313687   -1.7788906   0.11292178   -3.3313687    1.5524781   561131 
 5671000    1.3209799   -3.3296036   -1.7792442   0.11144452   -3.3296036    1.5503593   561150 
 5672000    1.3236077   -3.3322285   -1.7788709   0.11321615   -3.3322285    1.5533576   561181 
 5673000    1.3238082   -3.3324175   -1.7788716   0.11157742   -3.3324175    1.5535459   561198 
 5674000    1.3221303    -3.330305   -1.7788195   0.11325015    -3.330305    1.5514855   561231 
 5675000    1.3230581   -3.3317668   -1.7792368   0.10875279   -3.3317668      1.55253   561247 
 5676000    1.3242136   -3.3329176    -1.779087   0.11058302   -3.3329176    1.5538306   561267 
 5677000    1.3224546   -3.3313205    -1.779565    0.1157369   -3.3313205    1.5517555   561271 
 5678000    1.3233299   -3.3327879   -1.7800579   0.11602582   -3.3327879      1.55273   561290 
 5679000    1.3234756   -3.3328762    -1.780061   0.11429386   -3.3328762    1.5528153   561321 
 5680000    1.3239349   -3.3321404   -1.7788748   0.11392927   -3.3321404    1.5532656   561353 
 5681000    1.3225736   -3.3311881   -1.7795887   0.11695931   -3.3311881    1.5515994   561378 
 5682000    1.3222971   -3.3311292    -1.779893   0.11700509   -3.3311292    1.5512363   561392 
 5683000    1.3226313   -3.3314324   -1.7798593   0.11503167   -3.3314324    1.5515731   561412 
 5684000    1.3219169   -3.3318507    -1.781171   0.11447323   -3.3318507    1.5506797   561432 
 5685000    1.3215278   -3.3312143   -1.7810047   0.11431859   -3.3312143    1.5502096   561437 
 5686000    1.3229646   -3.3337991   -1.7819677   0.10993987   -3.3337991    1.5518314   561460 
 5687000    1.3227631   -3.3323298     -1.78079   0.11641271   -3.3323298    1.5515398   561480 
 5688000    1.3246585   -3.3341517   -1.7804274   0.11278467   -3.3341517    1.5537242   561494 
 5689000    1.3242175   -3.3332394   -1.7801293    0.1116667   -3.3332394    1.5531101   561529 
 5690000    1.3222794   -3.3320877   -1.7813087   0.11512327   -3.3320877     1.550779   561550 
 5691000    1.3220437   -3.3317409   -1.7812879   0.11672911   -3.3317409    1.5504529   561568 
 5692000    1.3211877   -3.3305816   -1.7811436   0.12191853   -3.3305816     1.549438   561572 
 5693000    1.3212185   -3.3320545   -1.7826025   0.11148604   -3.3320545     1.549452   561580 
 5694000    1.3220076   -3.3324241   -1.7821101   0.11194492   -3.3324241    1.5503139   561603 
 5695000    1.3214667   -3.3320067   -1.7823905   0.11647618   -3.3320067    1.5496162   561626 
 5696000    1.3219323   -3.3327063    -1.782602   0.11438969   -3.3327063    1.5501042   561647 
 5697000    1.3230108   -3.3331071   -1.7818017   0.11436944   -3.3331071    1.5513054   561670 
 5698000    1.3230195   -3.3332956   -1.7820215   0.11356111   -3.3332956    1.5512741   561685 
 5699000    1.3219249   -3.3317268   -1.7818437   0.11235052   -3.3317268    1.5498831   561724 
 5700000    1.3207954   -3.3297491   -1.7812289   0.11555429   -3.3297491    1.5485202   561738 
 5701000    1.3242855   -3.3340786   -1.7815494   0.11070765   -3.3340786    1.5525291   561768 
 5702000    1.3238246    -3.334326   -1.7824366   0.11487195    -3.334326    1.5518894   561804 
 5703000    1.3227956   -3.3331908   -1.7825933   0.11467172   -3.3331908    1.5505975   561835 
 5704000    1.3226235    -3.332584   -1.7822573   0.12131315    -3.332584    1.5503268   561860 
 5705000    1.3225839   -3.3323801   -1.7821329    0.1147693   -3.3323801    1.5502473   561872 
 5706000    1.3225893   -3.3326652   -1.7824585   0.11245232   -3.3326652    1.5502067   561889 
 5707000    1.3239926   -3.3350994   -1.7833473   0.11331434   -3.3350994    1.5517521   561925 
 5708000    1.3224022   -3.3346887   -1.7848861   0.11654158   -3.3346887    1.5498026   561956 
 5709000    1.3221358   -3.3347557   -1.7853315   0.10858264   -3.3347557    1.5494242   561980 
 5710000    1.3208677   -3.3334518   -1.7856102   0.11191739   -3.3334518    1.5478417   562015 
 5711000    1.3226899   -3.3353689   -1.7854084   0.11581606   -3.3353689    1.5499605   562021 
 5712000     1.323434     -3.33604   -1.7852737   0.11126236     -3.33604    1.5507663   562045 
 5713000    1.3223585   -3.3342507   -1.7848109   0.11758196   -3.3342507    1.5494398   562069 
 5714000    1.3229843   -3.3350642    -1.784949    0.1122294   -3.3350642    1.5501151   562090 
 5715000    1.3228301   -3.3346569   -1.7847858   0.11011663   -3.3346569     1.549871   562113 
 5716000    1.3241092   -3.3353881   -1.7840681   0.11427275   -3.3353881      1.55132   562131 
 5717000    1.3233311   -3.3352318   -1.7848814   0.11418137   -3.3352318    1.5503505   562152 
 5718000    1.3238347   -3.3366855   -1.7858029   0.11236683   -3.3366855    1.5508826   562173 
 5719000     1.322849   -3.3359485   -1.7862951   0.11479647   -3.3359485    1.5496534   562200 
 5720000    1.3239128   -3.3369041   -1.7860872   0.11441324   -3.3369041    1.5508168   562230 
 5721000    1.3236137   -3.3365439   -1.7861271   0.12152158   -3.3365439    1.5504168   562248 
 5722000    1.3230256   -3.3362562   -1.7866385    0.1153024   -3.3362562    1.5496177   562288 
 5723000    1.3241979   -3.3371869   -1.7862265   0.12234108   -3.3371869    1.5509604   562299 
 5724000    1.3230027   -3.3365672   -1.7870231   0.11875698   -3.3365672     1.549544   562305 
 5725000     1.324323   -3.3388661   -1.7878999   0.11062382   -3.3388661    1.5509662   562350 
 5726000    1.3229706   -3.3372259   -1.7878628   0.12139226   -3.3372259    1.5493631   562357 
 5727000    1.3223975   -3.3363067   -1.7876781   0.11488448   -3.3363067    1.5486286   562380 
 5728000    1.3227868   -3.3372368   -1.7881964   0.11748617   -3.3372368    1.5490404   562396 
 5729000    1.3238192   -3.3396311   -1.7894423   0.11581032   -3.3396311    1.5501888   562418 
 5730000    1.3227842   -3.3387448    -1.789779   0.11708933   -3.3387448    1.5489658   562422 
 5731000     1.322425   -3.3385441   -1.7899989   0.11514595   -3.3385441    1.5485452   562422 
 5732000    1.3240082   -3.3399693   -1.7896308   0.10775925   -3.3399693    1.5503384   562444 
 5733000    1.3216344   -3.3373399   -1.7898663   0.11277444   -3.3373399    1.5474736   562475 
 5734000    1.3228678    -3.338366   -1.7895584   0.11237593    -3.338366    1.5488075   562515 
 5735000    1.3237796   -3.3390353   -1.7891822   0.11231554   -3.3390353    1.5498531   562523 
 5736000    1.3221143   -3.3389953   -1.7911249   0.11275619   -3.3389953    1.5478704   562535 
 5737000    1.3234782   -3.3389224   -1.7895159   0.11651006   -3.3389224    1.5494066   562557 
 5738000    1.3231452   -3.3393954   -1.7904118   0.11380074   -3.3393954    1.5489836   562569 
 5739000    1.3234164   -3.3387489   -1.7895084   0.10908819   -3.3387489    1.5492406   562591 
 5740000    1.3230651   -3.3390369   -1.7902764   0.11385181   -3.3390369    1.5487605   562616 
 5741000    1.3226091   -3.3398299   -1.7916418   0.11170589   -3.3398299    1.5481882   562630 
 5742000    1.3214868   -3.3383991   -1.7916208   0.11257078   -3.3383991    1.5467783   562665 
 5743000    1.3233502    -3.339894   -1.7910145    0.1117221    -3.339894    1.5488795   562694 
 5744000    1.3232609   -3.3408243   -1.7921016   0.11237172   -3.3408243    1.5487227   562713 
 5745000    1.3216137   -3.3390054   -1.7922435    0.1168318   -3.3390054    1.5467619   562725 
 5746000     1.322726   -3.3392683    -1.791268   0.11818289   -3.3392683    1.5480003   562748 
 5747000    1.3237636   -3.3400155   -1.7908531   0.11867357   -3.3400155    1.5491624   562767 
 5748000    1.3242658   -3.3402903   -1.7905925    0.1127762   -3.3402903    1.5496978   562786 
 5749000    1.3246792   -3.3401373   -1.7900136   0.11267588   -3.3401373    1.5501237   562807 
 5750000    1.3240115     -3.34025   -1.7909627   0.11115149     -3.34025    1.5492873   562827 
 5751000    1.3232775    -3.338593   -1.7902388   0.11753205    -3.338593    1.5483542   562854 
 5752000    1.3242773   -3.3389648   -1.7894794    0.1176172   -3.3389648    1.5494855   562868 
 5753000    1.3241697   -3.3403513   -1.7910798   0.11641842   -3.3403513    1.5492715   562900 
 5754000    1.3243822   -3.3394773   -1.7900178   0.11682252   -3.3394773    1.5494595   562922 
 5755000    1.3255808   -3.3398881   -1.7891199   0.11417602   -3.3398881    1.5507682   562956 
 5756000    1.3257037   -3.3401322   -1.7893001   0.11531766   -3.3401322    1.5508321   562985 
 5757000    1.3238582   -3.3387761    -1.790136   0.11913648   -3.3387761    1.5486401   562997 
 5758000    1.3244515   -3.3385951   -1.7893022   0.11260615   -3.3385951    1.5492929   563012 
 5759000    1.3255865   -3.3401047   -1.7895117   0.11271043   -3.3401047    1.5505931   563022 
 5760000    1.3247366   -3.3401078   -1.7905584   0.10877876   -3.3401078    1.5495494   563040 
 5761000    1.3253251   -3.3405788   -1.7903906   0.11068325   -3.3405788    1.5501882   563058 
 5762000    1.3217166   -3.3371776   -1.7913227   0.11425637   -3.3371776    1.5458549   563099 
 5763000    1.3253054   -3.3398617   -1.7898948   0.11275449   -3.3398617    1.5499669   563130 
 5764000    1.3250541   -3.3403977   -1.7907824   0.11195894   -3.3403977    1.5496152   563151 
 5765000    1.3252508   -3.3398935   -1.7900978   0.10805406   -3.3398935    1.5497957   563169 
 5766000    1.3226284   -3.3384392   -1.7917295   0.11311955   -3.3384392    1.5467098   563176 
 5767000    1.3230176   -3.3385183   -1.7914056   0.10696644   -3.3385183    1.5471127   563195 
 5768000     1.323474   -3.3390136   -1.7914111   0.11170522   -3.3390136    1.5476024   563211 
 5769000    1.3255003   -3.3411127   -1.7911958   0.11006914   -3.3411127    1.5499169   563231 
 5770000    1.3241473   -3.3399164   -1.7916834   0.11176427   -3.3399164    1.5482331   563268 
 5771000     1.325066   -3.3410415   -1.7917452   0.10819228   -3.3410415    1.5492963   563272 
 5772000     1.326402   -3.3417758    -1.790978   0.11213946   -3.3417758    1.5507978   563294 
 5773000    1.3256178   -3.3412207   -1.7913976   0.11233544   -3.3412207    1.5498231   563315 
 5774000    1.3248813   -3.3411262   -1.7922219   0.11111314   -3.3411262    1.5489043   563336 
 5775000    1.3253289   -3.3412535   -1.7918864   0.11138422   -3.3412535    1.5493671   563358 
 5776000    1.3247406   -3.3398223   -1.7911842   0.12361572   -3.3398223    1.5486381   563373 
 5777000    1.3264242   -3.3415262   -1.7909941   0.11684169   -3.3415262     1.550532   563400 
 5778000    1.3258179   -3.3412661   -1.7914621   0.11432707   -3.3412661     1.549804   563407 
 5779000    1.3265778   -3.3428716   -1.7921903   0.10710647   -3.3428716    1.5506813   563411 
 5780000    1.3243948   -3.3403023   -1.7922168   0.12422957   -3.3403023    1.5480855   563427 
 5781000    1.3251168   -3.3418023   -1.7929058    0.1098168   -3.3418023    1.5488965   563439 
 5782000     1.325738   -3.3421539   -1.7925561    0.1201383   -3.3421539    1.5495978   563448 
 5783000    1.3254149   -3.3422427   -1.7930556   0.10928861   -3.3422427    1.5491871   563460 
 5784000     1.327556   -3.3446972   -1.7930267   0.11241222   -3.3446972    1.5516705   563467 
 5785000    1.3263425   -3.3425015   -1.7922769   0.11864299   -3.3425015    1.5502246   563477 
 5786000      1.32622   -3.3430239   -1.7930113   0.11786758   -3.3430239    1.5500127   563502 
 5787000    1.3249231   -3.3425402   -1.7940873   0.11531798   -3.3425402    1.5484529   563518 
 5788000    1.3250161   -3.3425093   -1.7940384   0.11449718   -3.3425093    1.5484709   563551 
 5789000     1.325639   -3.3440381   -1.7948996   0.11346735   -3.3440381    1.5491384   563573 
 5790000    1.3269425   -3.3458196   -1.7951937   0.11298236   -3.3458196    1.5506259   563586 
 5791000    1.3254468   -3.3438234   -1.7949838   0.10906201   -3.3438234    1.5488396   563600 
 5792000    1.3261797   -3.3443774   -1.7947693   0.10686857   -3.3443774    1.5496081   563632 
 5793000    1.3263206   -3.3449571   -1.7952477   0.11540765   -3.3449571    1.5497094   563655 
 5794000    1.3249361   -3.3426834   -1.7946411    0.1106991   -3.3426834    1.5480423   563673 
 5795000    1.3233613   -3.3406547   -1.7945072   0.11333676   -3.3406547    1.5461475   563693 
 5796000    1.3257585   -3.3431606   -1.7942591   0.11388239   -3.3431606    1.5489016   563710 
 5797000    1.3250563   -3.3419672   -1.7939436   0.11120568   -3.3419672    1.5480235   563731 
 5798000     1.324392   -3.3418319   -1.7946257   0.11330029   -3.3418319    1.5472062   563746 
 5799000     1.325682   -3.3440675    -1.795431   0.10839369   -3.3440675    1.5486364   563774 
 5800000    1.3249837   -3.3431126   -1.7953551   0.11601368   -3.3431126    1.5477575   563797 
 5801000    1.3265552   -3.3432179   -1.7936632   0.11544523   -3.3432179    1.5495547   563811 
 5802000    1.3272368   -3.3440633   -1.7937399   0.11309843   -3.3440633    1.5503234   563821 
 5803000    1.3273044   -3.3441221   -1.7937968   0.11506232   -3.3441221    1.5503253   563849 
 5804000    1.3257228   -3.3434073   -1.7950062   0.11220568   -3.3434073    1.5484012   563877 
 5805000    1.3268746   -3.3443677     -1.79469   0.11781067   -3.3443677    1.5496777   563902 
 5806000     1.327139   -3.3432448   -1.7933463   0.11152642   -3.3432448    1.5498985   563934 
 5807000    1.3282083   -3.3449664   -1.7938852   0.11129877   -3.3449664    1.5510812   563958 
 5808000    1.3260534   -3.3422193   -1.7937012   0.11713519   -3.3422193    1.5485181   563975 
 5809000    1.3272601   -3.3438708   -1.7940206   0.11787058   -3.3438708    1.5498503   564003 
 5810000    1.3268053   -3.3437333   -1.7944992   0.11564261   -3.3437333    1.5492341   564034 
 5811000    1.3271919   -3.3436154   -1.7939492   0.11799294   -3.3436154    1.5496662   564041 
 5812000    1.3284173   -3.3449194   -1.7938965   0.11785224   -3.3449194    1.5510228   564068 
 5813000    1.3264303   -3.3434275   -1.7947741   0.11496853   -3.3434275    1.5486534   564086 
 5814000    1.3287252   -3.3454244   -1.7941493    0.1144139   -3.3454244    1.5512751   564107 
 5815000    1.3269508   -3.3435891   -1.7944432   0.11811054   -3.3435891    1.5491459   564128 
 5816000    1.3272827   -3.3446097   -1.7951093   0.11352125   -3.3446097    1.5495003   564140 
 5817000    1.3271365   -3.3438346   -1.7945791   0.12229985   -3.3438346    1.5492555   564167 
 5818000    1.3301053   -3.3464719   -1.7938416   0.11360129   -3.3464719    1.5526303   564200 
 5819000    1.3287158   -3.3452455   -1.7942811   0.11554147   -3.3452455    1.5509644   564216 
 5820000    1.3275026   -3.3447637   -1.7952923   0.11556808   -3.3447637    1.5494714   564244 
 5821000    1.3280652   -3.3451358   -1.7950324   0.11480442   -3.3451358    1.5501033   564253 
 5822000    1.3284889   -3.3455444   -1.7950427   0.11297416   -3.3455444    1.5505017   564288 
 5823000    1.3267446   -3.3436356   -1.7952301   0.11940501   -3.3436356    1.5484055   564310 
 5824000    1.3284895   -3.3457704   -1.7953751   0.11966865   -3.3457704    1.5503953   564327 
 5825000    1.3271175   -3.3443867   -1.7957024   0.10830116   -3.3443867    1.5486842   564367 
 5826000    1.3276966   -3.3448896   -1.7955871   0.11789699   -3.3448896    1.5493025   564388 
 5827000    1.3276133   -3.3452961   -1.7961238   0.11871223   -3.3452961    1.5491723   564400 
 5828000    1.3289742   -3.3457349   -1.7950158   0.10971382   -3.3457349    1.5507191   564415 
 5829000    1.3269333   -3.3434902   -1.7951855   0.11886292   -3.3434902    1.5483047   564427 
 5830000    1.3307116    -3.347556   -1.7948728   0.11436733    -3.347556    1.5526832   564438 
 5831000    1.3283754   -3.3448591   -1.7949733   0.12164586   -3.3448591    1.5498858   564464 
 5832000     1.329582   -3.3466653   -1.7954184   0.12003857   -3.3466653    1.5512469   564481 
 5833000    1.3272827   -3.3439345   -1.7954361   0.11403096   -3.3439345    1.5484984   564505 
 5834000    1.3282224   -3.3457244   -1.7961874   0.11230983   -3.3457244    1.5495371   564526 
 5835000    1.3286624   -3.3462523   -1.7962293   0.11647396   -3.3462523     1.550023   564536 
 5836000    1.3298363   -3.3465761   -1.7952084   0.11478594   -3.3465761    1.5513677   564545 
 5837000    1.3283601   -3.3441727     -1.79456   0.12033313   -3.3441727    1.5496126   564557 
 5838000      1.32895   -3.3456733   -1.7953999   0.11622366   -3.3456733    1.5502733   564567 
 5839000    1.3278508   -3.3445686   -1.7956078   0.11893013   -3.3445686    1.5489609   564578 
 5840000    1.3294652   -3.3462943   -1.7955106   0.11660224   -3.3462943    1.5507837   564600 
 5841000    1.3290271   -3.3452705   -1.7950362   0.11568314   -3.3452705    1.5502343   564614 
 5842000    1.3300147   -3.3469015   -1.7955592     0.110828   -3.3469015    1.5513423   564630 
 5843000    1.3277331   -3.3447406   -1.7961145   0.11809567   -3.3447406    1.5486261   564650 
 5844000    1.3273106   -3.3447469   -1.7965998   0.11498589   -3.3447469    1.5481471   564645 
 5845000    1.3282175   -3.3442056   -1.7950419   0.11858433   -3.3442056    1.5491637   564660 
 5846000    1.3296557   -3.3464631   -1.7956988   0.11355387   -3.3464631    1.5507642   564688 
 5847000    1.3273492    -3.344661     -1.79668   0.11465747    -3.344661     1.547981   564722 
 5848000    1.3279113   -3.3462443   -1.7976352   0.11521382   -3.3462443    1.5486091   564732 
 5849000     1.328714   -3.3461672   -1.7967236   0.11432681   -3.3461672    1.5494436   564769 
 5850000    1.3303437   -3.3480393   -1.7967391   0.11740525   -3.3480393    1.5513002   564785 
 5851000    1.3288485   -3.3460893   -1.7965985   0.11817993   -3.3460893    1.5494908   564809 
 5852000    1.3273297   -3.3457786   -1.7981465   0.11284444   -3.3457786    1.5476321   564841 
 5853000    1.3286154   -3.3471375   -1.7980556   0.11009341   -3.3471375    1.5490819   564859 
 5854000    1.3283887     -3.34688   -1.7981118   0.11590949     -3.34688    1.5487681   564877 
 5855000    1.3297791   -3.3478852   -1.7975948   0.11382274   -3.3478852    1.5502904   564913 
 5856000    1.3288143    -3.348595   -1.7994733   0.11390898    -3.348595    1.5491217   564929 
 5857000    1.3277735    -3.347687   -1.7998389   0.11712031    -3.347687    1.5478481   564951 
 5858000    1.3287382   -3.3492644   -1.8003685   0.10666403   -3.3492644     1.548896   564979 
 5859000    1.3295159   -3.3492107   -1.7994549   0.11668669   -3.3492107    1.5497559   564996 
 5860000    1.3287688   -3.3492624   -1.8003939   0.10862741   -3.3492624    1.5488685   565002 
 5861000    1.3296696   -3.3503104   -1.8003671   0.11132509   -3.3503104    1.5499433   564993 
 5862000    1.3284135   -3.3485091   -1.8001451   0.12000844   -3.3485091     1.548364   565035 
 5863000     1.327888   -3.3490465   -1.8013881   0.11377864   -3.3490465    1.5476584   565069 
 5864000     1.328929   -3.3501163   -1.8012994   0.12108559   -3.3501163    1.5488169   565089 
 5865000    1.3290917   -3.3489212   -1.7999284   0.11922196   -3.3489212    1.5489928   565094 
 5866000    1.3281655   -3.3492759   -1.8014201   0.11659737   -3.3492759    1.5478558   565115 
 5867000    1.3284026   -3.3497312   -1.8016209    0.1130375   -3.3497312    1.5481102   565123 
 5868000     1.328278     -3.34889   -1.8009744   0.11564464     -3.34889    1.5479156   565141 
 5869000    1.3275181   -3.3487056   -1.8017056   0.12022443   -3.3487056        1.547   565152 
 5870000    1.3296085   -3.3514238   -1.8020837   0.11293152   -3.3514238    1.5493401   565187 
 5871000    1.3288744   -3.3497399   -1.8012991   0.11530882   -3.3497399    1.5484408   565203 
 5872000    1.3278214   -3.3493609   -1.8021827   0.11914756   -3.3493609    1.5471782   565216 
 5873000     1.329064   -3.3502549   -1.8016562   0.12216188   -3.3502549    1.5485987   565226 
 5874000    1.3286996   -3.3514336   -1.8032705   0.11763433   -3.3514336    1.5481632   565230 
 5875000    1.3282928   -3.3504956   -1.8028366   0.11451469   -3.3504956     1.547659   565241 
 5876000    1.3292422   -3.3512748   -1.8025754   0.11932145   -3.3512748    1.5486995   565265 
 5877000    1.3299456   -3.3506627    -1.801204   0.11594199   -3.3506627    1.5494587   565287 
 5878000    1.3320182   -3.3521972   -1.8003568   0.11936455   -3.3521972    1.5518404   565299 
 5879000    1.3302672   -3.3509356   -1.8011954   0.12136386   -3.3509356    1.5497401   565321 
 5880000    1.3320567   -3.3527504   -1.8010023   0.11771862   -3.3527504    1.5517481   565349 
 5881000    1.3305233    -3.351107   -1.8012165   0.11743109    -3.351107    1.5498905   565375 
 5882000    1.3301359   -3.3509082   -1.8015183   0.12034784   -3.3509082    1.5493899   565393 
 5883000    1.3318447   -3.3522198   -1.8009191   0.11838507   -3.3522198    1.5513007   565422 
 5884000    1.3305413   -3.3503882    -1.800696   0.12087455   -3.3503882    1.5496922   565455 
 5885000    1.3315357   -3.3513965    -1.800601   0.11886453   -3.3513965    1.5507955   565475 
 5886000    1.3320439   -3.3527943   -1.8014288   0.11680126   -3.3527943    1.5513655   565483 
 5887000    1.3293575   -3.3500036    -1.801797   0.11834423   -3.3500036    1.5482066   565494 
 5888000    1.3306304   -3.3522944   -1.8026656   0.11501699   -3.3522944    1.5496288   565516 
 5889000    1.3291864   -3.3510915   -1.8031663   0.11409873   -3.3510915    1.5479252   565524 
 5890000    1.3297272   -3.3522021   -1.8036963   0.11402147   -3.3522021    1.5485058   565542 
 5891000    1.3297627   -3.3516436   -1.8031266   0.11769212   -3.3516436     1.548517   565553 
 5892000    1.3310347    -3.352542   -1.8025794   0.11307171    -3.352542    1.5499626   565566 
 5893000    1.3299233   -3.3532887   -1.8046559   0.11362272   -3.3532887    1.5486328   565579 
 5894000    1.3287054   -3.3516219    -1.804451   0.11084334   -3.3516219    1.5471709   565595 
 5895000     1.329909   -3.3540488   -1.8055038   0.11059163   -3.3540488    1.5485449   565605 
 5896000    1.3273871   -3.3516058    -1.806011   0.11472909   -3.3516058    1.5455947   565610 
 5897000    1.3281455   -3.3524501   -1.8060406   0.10875667   -3.3524501    1.5464095   565635 
 5898000    1.3271947    -3.351787   -1.8065338   0.11743414    -3.351787    1.5452533   565653 
 5899000    1.3306661   -3.3538751   -1.8046621   0.11245541   -3.3538751    1.5492129   565683 
 5900000    1.3304031   -3.3534977   -1.8046622   0.11931644   -3.3534977    1.5488355   565709 
 5901000    1.3297169   -3.3532108   -1.8052179   0.11625433   -3.3532108    1.5479929   565725 
 5902000    1.3295411   -3.3528109   -1.8050336    0.1161761   -3.3528109    1.5477773   565729 
 5903000     1.330193   -3.3527189   -1.8042293   0.11712248   -3.3527189    1.5484896   565746 
 5904000    1.3301289   -3.3522421    -1.803931   0.12134455   -3.3522421     1.548311   565784 
 5905000     1.331765    -3.354276   -1.8040989   0.11728736    -3.354276    1.5501771   565798 
 5906000    1.3306773   -3.3528694   -1.8040405   0.11805446   -3.3528694     1.548829   565828 
 5907000    1.3319495   -3.3544492    -1.804156   0.11433266   -3.3544492    1.5502932   565834 
 5908000    1.3317246   -3.3533619   -1.8033551   0.11495726   -3.3533619    1.5500068   565843 
 5909000    1.3325181   -3.3547654   -1.8039063   0.11880885   -3.3547654    1.5508591   565869 
 5910000    1.3311508   -3.3533654   -1.8041469   0.12452674   -3.3533654    1.5492185   565887 
 5911000    1.3308237   -3.3536075   -1.8048162    0.1175173   -3.3536075    1.5487913   565904 
 5912000    1.3306034    -3.353038   -1.8045278   0.11961276    -3.353038    1.5485102   565913 
 5913000    1.3311104   -3.3546856   -1.8056236   0.11613254   -3.3546856     1.549062   565927 
 5914000    1.3299837    -3.352478   -1.8047902   0.11510563    -3.352478    1.5476879   565950 
 5915000     1.329864   -3.3516002    -1.804109   0.11348633   -3.3516002    1.5474912   565971 
 5916000    1.3307051   -3.3531982   -1.8047721   0.11161425   -3.3531982    1.5484262   565987 
 5917000    1.3298549   -3.3535418   -1.8061596   0.11217674   -3.3535418    1.5473822   566007 
 5918000      1.33049   -3.3543604   -1.8062639   0.11264146   -3.3543604    1.5480965   566016 
 5919000     1.329642   -3.3523116   -1.8052235   0.12410742   -3.3523116     1.547088   566024 
 5920000    1.3301383   -3.3535685   -1.8059768    0.1130394   -3.3535685    1.5475917   566051 
 5921000    1.3289911   -3.3522477   -1.8060399   0.11627862   -3.3522477    1.5462077   566069 
 5922000     1.330253   -3.3538654   -1.8061978   0.11401059   -3.3538654    1.5476676   566072 
 5923000    1.3297938   -3.3542589   -1.8071774    0.1123733   -3.3542589    1.5470815   566091 
 5924000    1.3311081   -3.3541879   -1.8056567   0.11656677   -3.3541879    1.5485313   566120 
 5925000    1.3311182   -3.3541235   -1.8056298   0.11471917   -3.3541235    1.5484937   566138 
 5926000    1.3318609   -3.3550842   -1.8057977   0.11651254   -3.3550842    1.5492866   566164 
 5927000    1.3313814   -3.3551778   -1.8065256   0.11416459   -3.3551778    1.5486522   566192 
 5928000    1.3312737   -3.3546618   -1.8062032   0.11808453   -3.3546618    1.5484586   566217 
 5929000    1.3313679    -3.355154   -1.8066981   0.11479437    -3.355154     1.548456   566258 
 5930000    1.3309543   -3.3541639   -1.8062326   0.12167774   -3.3541639    1.5479312   566274 
 5931000     1.332712   -3.3567372   -1.8067782   0.11901417   -3.3567372    1.5499591   566280 
 5932000    1.3312508   -3.3556878   -1.8074555    0.1196276   -3.3556878    1.5482323   566290 
 5933000    1.3321213   -3.3560408   -1.8068536   0.11888178   -3.3560408    1.5491872   566311 
 5934000    1.3316058   -3.3557064   -1.8071678   0.11997717   -3.3557064    1.5485386   566329 
 5935000    1.3307019   -3.3559194   -1.8084812   0.12053744   -3.3559194    1.5474382   566347 
 5936000    1.3305551   -3.3560616   -1.8088678   0.12668425   -3.3560616    1.5471937   566374 
 5937000    1.3305269   -3.3565799   -1.8095145   0.11418763   -3.3565799    1.5470653   566409 
 5938000    1.3315054   -3.3568828   -1.8087344   0.11740913   -3.3568828    1.5481483   566429 
 5939000    1.3304181   -3.3559467    -1.809049   0.12305507   -3.3559467    1.5468978   566424 
 5940000    1.3297314   -3.3567672   -1.8107224   0.11306476   -3.3567672    1.5460448   566444 
 5941000    1.3291862   -3.3554415   -1.8100661   0.11538228   -3.3554415    1.5453754   566457 
 5942000     1.329812   -3.3554077   -1.8093593   0.11664168   -3.3554077    1.5460484   566477 
 5943000    1.3300832   -3.3556141   -1.8093459   0.11480029   -3.3556141    1.5462682   566512 
 5944000    1.3320357   -3.3574478   -1.8089535   0.11215915   -3.3574478    1.5484943   566528 
 5945000    1.3311681   -3.3564883   -1.8089916   0.11945682   -3.3564883    1.5474967   566524 
 5946000    1.3316136   -3.3571688    -1.809228      0.11573   -3.3571688    1.5479408   566551 
 5947000    1.3322237   -3.3578442   -1.8092762   0.11643339   -3.3578442     1.548568   566581 
 5948000    1.3315242   -3.3571633   -1.8094794   0.11380932   -3.3571633    1.5476839   566607 
 5949000    1.3321379   -3.3575532   -1.8092242   0.11520563   -3.3575532     1.548329   566632 
 5950000    1.3308392   -3.3548803   -1.8081372   0.11324302   -3.3548803     1.546743   566660 
 5951000    1.3322611   -3.3562453   -1.8079071   0.11606016   -3.3562453    1.5483382   566681 
 5952000    1.3324935   -3.3565104    -1.807995   0.11522728   -3.3565104    1.5485154   566715 
 5953000    1.3334945   -3.3580623   -1.8084382   0.11229809   -3.3580623     1.549624   566735 
 5954000    1.3327053   -3.3568068   -1.8081573   0.11352435   -3.3568068    1.5486495   566756 
 5955000    1.3324438   -3.3565808   -1.8082898   0.11617821   -3.3565808     1.548291   566776 
 5956000    1.3334615   -3.3580185    -1.808586   0.11622033   -3.3580185    1.5494325   566791 
 5957000    1.3316939   -3.3554557   -1.8081043   0.11704992   -3.3554557    1.5473513   566801 
 5958000    1.3325719   -3.3570455   -1.8086931   0.11403396   -3.3570455    1.5483523   566808 
 5959000    1.3335335   -3.3583315   -1.8089274   0.11305954   -3.3583315    1.5494041   566832 
 5960000    1.3316313   -3.3555604   -1.8084128   0.11633138   -3.3555604    1.5471476   566849 
 5961000    1.3332425   -3.3583696   -1.8094211   0.11608973   -3.3583696    1.5489484   566875 
 5962000    1.3327894   -3.3587351   -1.8103649   0.11392682   -3.3587351    1.5483702   566894 
 5963000    1.3323229   -3.3569535   -1.8091717   0.11478008   -3.3569535    1.5477818   566911 
 5964000    1.3337384   -3.3585115   -1.8091072   0.11326638   -3.3585115    1.5494043   566919 
 5965000    1.3341903   -3.3583757   -1.8084655   0.11591981   -3.3583757    1.5499102   566926 
 5966000    1.3338932   -3.3590016   -1.8095075   0.10903761   -3.3590016     1.549494   566952 
 5967000    1.3325703    -3.357824   -1.8099432   0.11801241    -3.357824    1.5478808   566980 
 5968000    1.3320175   -3.3573953   -1.8102057   0.11719963   -3.3573953    1.5471896   566998 
 5969000    1.3322072   -3.3582581   -1.8109218   0.11551982   -3.3582581    1.5473363   567025 
 5970000    1.3331741   -3.3580957   -1.8096855   0.12127578   -3.3580957    1.5484102   567043 
 5971000    1.3346769   -3.3595096   -1.8094114   0.11196105   -3.3595096    1.5500982   567064 
 5972000    1.3344784   -3.3607607   -1.8109231   0.11346778   -3.3607607    1.5498376   567075 
 5973000    1.3324953   -3.3586337   -1.8111729   0.11885036   -3.3586337    1.5474608   567102 
 5974000    1.3341091   -3.3597487   -1.8104848   0.11108362   -3.3597487    1.5492638   567128 
 5975000    1.3339788   -3.3605574   -1.8114913   0.11344159   -3.3605574    1.5490661   567145 
 5976000    1.3327097   -3.3598696   -1.8123454   0.11726888   -3.3598696    1.5475242   567170 
 5977000    1.3331342   -3.3600878   -1.8121417   0.11372769   -3.3600878    1.5479461   567196 
 5978000    1.3326053   -3.3598595   -1.8125684   0.11544285   -3.3598595    1.5472911   567211 
 5979000     1.331924   -3.3591611   -1.8126966   0.11817604   -3.3591611    1.5464645   567224 
 5980000    1.3322382   -3.3593545   -1.8125688    0.1204942   -3.3593545    1.5467858   567240 
 5981000    1.3325347    -3.361194   -1.8140967   0.11121302    -3.361194    1.5470973   567252 
 5982000    1.3323321   -3.3605509   -1.8137352   0.11342632   -3.3605509    1.5468158   567269 
 5983000    1.3323212   -3.3593859   -1.8126373    0.1159932   -3.3593859    1.5467486   567289 
 5984000    1.3334554     -3.36051   -1.8124747   0.11181034     -3.36051    1.5480352   567300 
 5985000    1.3339652   -3.3601753   -1.8115891   0.11813969   -3.3601753    1.5485861   567315 
 5986000     1.333177   -3.3591931   -1.8115793   0.11936304   -3.3591931    1.5476138   567336 
 5987000    1.3329955   -3.3601987   -1.8128229   0.12005337   -3.3601987    1.5473758   567346 
 5988000    1.3347699   -3.3612077   -1.8118267   0.11708409   -3.3612077    1.5493811   567366 
 5989000    1.3331935   -3.3590485   -1.8115356   0.12245489   -3.3590485    1.5475129   567380 
 5990000    1.3357727   -3.3618605   -1.8113701   0.11765068   -3.3618605    1.5504903   567386 
 5991000    1.3345301   -3.3606638   -1.8116677   0.11778425   -3.3606638    1.5489961   567405 
 5992000    1.3321201   -3.3579852   -1.8118735   0.11480847   -3.3579852    1.5461117   567437 
 5993000    1.3340758   -3.3604369   -1.8120826   0.11511377   -3.3604369    1.5483543   567447 
 5994000    1.3338055   -3.3599898   -1.8120174   0.12098172   -3.3599898    1.5479724   567472 
 5995000    1.3345319    -3.361348   -1.8125763   0.12109889    -3.361348    1.5487717   567488 
 5996000    1.3351234   -3.3608869   -1.8114888   0.11541334   -3.3608869    1.5493981   567510 
 5997000    1.3350588   -3.3608603      -1.8116   0.12083398   -3.3608603    1.5492603   567533 
 5998000    1.3349872    -3.360906   -1.8117424   0.11418567    -3.360906    1.5491636   567538 
 5999000    1.3330349   -3.3597378   -1.8129078   0.12073192   -3.3597378      1.54683   567563 
 6000000    1.3348471   -3.3622671   -1.8134243   0.11713878   -3.3622671    1.5488428   567596 
 6001000    1.3346939   -3.3617028   -1.8130788   0.11246962   -3.3617028     1.548624   567611 
 6002000    1.3352669   -3.3617767   -1.8125424   0.11589092   -3.3617767    1.5492343   567631 
 6003000    1.3353355   -3.3623032   -1.8130248   0.11690731   -3.3623032    1.5492784   567644 
 6004000    1.3343141   -3.3611495   -1.8130943   0.11644304   -3.3611495    1.5480553   567658 
 6005000    1.3355164   -3.3618108   -1.8124344   0.11950989   -3.3618108    1.5493764   567685 
 6006000    1.3364853   -3.3619551   -1.8114929   0.12259148   -3.3619551    1.5504622   567699 
 6007000    1.3363317   -3.3625721   -1.8123509   0.11837035   -3.3625721    1.5502212   567722 
 6008000    1.3360055   -3.3631581   -1.8133589    0.1166504   -3.3631581    1.5497991   567738 
 6009000    1.3340334   -3.3607721   -1.8132906   0.11670104   -3.3607721    1.5474814   567749 
 6010000    1.3356549   -3.3631201   -1.8137877   0.11557327   -3.3631201    1.5493324   567760 
 6011000    1.3347177   -3.3619515   -1.8137336   0.11631744   -3.3619515    1.5482179   567770 
 6012000    1.3361798   -3.3634213   -1.8135865   0.12025187   -3.3634213    1.5498348   567799 
 6013000    1.3360849   -3.3624365   -1.8127499   0.11813669   -3.3624365    1.5496866   567813 
 6014000    1.3354115    -3.363071    -1.814201   0.11247401    -3.363071      1.54887   567826 
 6015000    1.3344559   -3.3630473   -1.8153784   0.11805739   -3.3630473    1.5476689   567860 
 6016000    1.3325165   -3.3612599   -1.8158918   0.12223971   -3.3612599    1.5453681   567879 
 6017000    1.3332805   -3.3622232     -1.81601    0.1191431   -3.3622232    1.5462132   567894 
 6018000    1.3346266   -3.3630027   -1.8152856   0.11542908   -3.3630027    1.5477171   567915 
 6019000    1.3359456   -3.3649238   -1.8157044   0.11036871   -3.3649238    1.5492194   567925 
 6020000    1.3339904   -3.3626436   -1.8157106   0.11826328   -3.3626436    1.5469329   567932 
 6021000    1.3350859   -3.3628185   -1.8146533    0.1188485   -3.3628185    1.5481652   567946 
 6022000    1.3345159   -3.3626607   -1.8152218   0.11319097   -3.3626607    1.5474389   567970 
 6023000     1.334366   -3.3618057   -1.8146306   0.11970825   -3.3618057    1.5471751   568003 
 6024000     1.335572   -3.3631894   -1.8147005   0.12023474   -3.3631894    1.5484889   568034 
 6025000    1.3350797   -3.3630855   -1.8152382   0.11851674   -3.3630855    1.5478473   568060 
 6026000    1.3357373   -3.3630206   -1.8144982    0.1214492   -3.3630206    1.5485224   568092 
 6027000    1.3359779   -3.3636086   -1.8148835   0.11748303   -3.3636086    1.5487251   568120 
 6028000    1.3349746   -3.3634007   -1.8159258   0.11808318   -3.3634007    1.5474749   568152 
 6029000    1.3363519   -3.3642339   -1.8151734   0.11940369   -3.3642339    1.5490605   568156 
 6030000    1.3358907   -3.3640939   -1.8156362   0.11827748   -3.3640939    1.5484577   568181 
 6031000    1.3353415   -3.3637405   -1.8159466   0.11889387   -3.3637405    1.5477939   568191 
 6032000    1.3336014   -3.3630121   -1.8172516   0.11787868   -3.3630121    1.5457606   568197 
 6033000     1.337534   -3.3667031   -1.8164279   0.12029964   -3.3667031    1.5502752   568213 
 6034000    1.3365697   -3.3662813   -1.8171129   0.12045603   -3.3662813    1.5491684   568209 
 6035000    1.3352829   -3.3649343   -1.8172901   0.12462823   -3.3649343    1.5476442   568221 
 6036000    1.3342119   -3.3640785   -1.8177028    0.1170618   -3.3640785    1.5463757   568231 
 6037000     1.333143   -3.3639062   -1.8187966   0.11604811   -3.3639062    1.5451096   568241 
 6038000    1.3339918   -3.3660351    -1.819969   0.11258504   -3.3660351    1.5460661   568251 
 6039000     1.333151   -3.3644084   -1.8193901   0.11389138   -3.3644084    1.5450183   568278 
 6040000    1.3345273   -3.3652516   -1.8186736     0.115863   -3.3652516     1.546578   568291 
 6041000    1.3345166   -3.3661564   -1.8196535   0.11827971   -3.3661564    1.5465029   568314 
 6042000    1.3328283   -3.3644857   -1.8199746   0.11810428   -3.3644857    1.5445111   568327 
 6043000    1.3356274   -3.3669177   -1.8192147   0.11288778   -3.3669177    1.5477031   568346 
 6044000    1.3343301   -3.3649725   -1.8188381   0.11801997   -3.3649725    1.5461345   568370 
 6045000    1.3350784   -3.3658819   -1.8189021   0.11571267   -3.3658819    1.5469798   568378 
 6046000    1.3356373   -3.3657477   -1.8181965   0.11698446   -3.3657477    1.5475512   568406 
 6047000    1.3355542   -3.3671535   -1.8197584    0.1173551   -3.3671535     1.547395   568428 
 6048000    1.3348811   -3.3644896    -1.817888   0.12261108   -3.3644896    1.5466015   568433 
 6049000    1.3352553   -3.3647988   -1.8177937   0.11917511   -3.3647988    1.5470051   568444 
 6050000    1.3360239   -3.3654362   -1.8175788   0.11451235   -3.3654362    1.5478575   568458 
 6051000    1.3351642   -3.3643215   -1.8175117   0.11962346   -3.3643215    1.5468098   568477 
 6052000    1.3377919   -3.3678108   -1.8179949   0.11826183   -3.3678108    1.5498159   568491 
 6053000    1.3344352   -3.3649411   -1.8190602   0.11761577   -3.3649411    1.5458809   568508 
 6054000    1.3351378   -3.3663888   -1.8197211   0.11056177   -3.3663888    1.5466677   568518 
 6055000    1.3358419   -3.3654426   -1.8179865   0.11727165   -3.3654426    1.5474561   568528 
 6056000    1.3361945   -3.3653494   -1.8175312   0.12096475   -3.3653494    1.5478182   568545 
 6057000    1.3355472   -3.3657959   -1.8187547    0.1129672   -3.3657959    1.5470412   568555 
 6058000    1.3347854   -3.3652433   -1.8191579   0.11557246   -3.3652433    1.5460854   568582 
 6059000    1.3349665   -3.3659187   -1.8196888   0.11764129   -3.3659187    1.5462299   568606 
 6060000    1.3356898   -3.3650951   -1.8181417   0.12052996   -3.3650951    1.5469534   568648 
 6061000    1.3366233   -3.3659989   -1.8180161   0.11401588   -3.3659989    1.5479828   568667 
 6062000    1.3350442   -3.3654817   -1.8193821   0.11606921   -3.3654817    1.5460996   568687 
 6063000    1.3352218   -3.3651946   -1.8189492   0.12222051   -3.3651946    1.5462455   568709 
 6064000     1.335909   -3.3660427   -1.8190531   0.12211826   -3.3660427    1.5469896   568728 
 6065000    1.3360809    -3.365369   -1.8181966   0.11695875    -3.365369    1.5471724   568734 
 6066000    1.3378719   -3.3672462   -1.8180543   0.11628147   -3.3672462    1.5491919   568754 
 6067000    1.3373201    -3.365958   -1.8174487   0.12100513    -3.365958    1.5485093   568770 
 6068000    1.3358303    -3.365637   -1.8188908   0.12346965    -3.365637    1.5467462   568784 
 6069000     1.336554   -3.3662157   -1.8186615   0.11239692   -3.3662157    1.5475542   568795 
 6070000    1.3370938   -3.3671318   -1.8190098   0.11832352   -3.3671318     1.548122   568816 
 6071000    1.3356804   -3.3673011   -1.8208644    0.1196603   -3.3673011    1.5464366   568834 
 6072000    1.3360742   -3.3675424   -1.8207096   0.10849666   -3.3675424    1.5468328   568856 
 6073000    1.3370422   -3.3678306   -1.8199371   0.11738324   -3.3678306    1.5478936   568878 
 6074000    1.3356578   -3.3673067   -1.8210592   0.11684875   -3.3673067    1.5462474   568894 
 6075000     1.336803   -3.3679444   -1.8204556   0.12156578   -3.3679444    1.5474888   568925 
 6076000    1.3368523   -3.3679479   -1.8204754   0.11077774   -3.3679479    1.5474725   568952 
 6077000    1.3350356   -3.3669832   -1.8216571   0.11044272   -3.3669832    1.5453261   568968 
 6078000    1.3352692   -3.3687719   -1.8232189   0.11283142   -3.3687719     1.545553   568984 
 6079000    1.3346412   -3.3668028   -1.8220555   0.11897159   -3.3668028    1.5447474   569013 
 6080000    1.3350094     -3.36784    -1.822718   0.12046912     -3.36784     1.545122   569032 
 6081000    1.3371761    -3.368619   -1.8210437   0.12104669    -3.368619    1.5475753   569052 
 6082000    1.3360309    -3.367728   -1.8215405   0.12262165    -3.367728    1.5461874   569075 
 6083000    1.3367953   -3.3691827   -1.8221542    0.1186714   -3.3691827    1.5470285   569091 
 6084000    1.3389878   -3.3712943   -1.8218046   0.12090477   -3.3712943    1.5494896   569119 
 6085000    1.3381228   -3.3693219   -1.8208986   0.11914536   -3.3693219    1.5484233   569143 
 6086000    1.3369113   -3.3699636   -1.8230101   0.11541763   -3.3699636    1.5469534   569168 
 6087000    1.3371415   -3.3702228   -1.8230845   0.11328956   -3.3702228    1.5471383   569198 
 6088000    1.3360852   -3.3694797   -1.8236205   0.12303849   -3.3694797    1.5458591   569219 
 6089000    1.3363407   -3.3687238    -1.822618   0.12358926   -3.3687238    1.5461058   569237 
 6090000    1.3362676   -3.3700515    -1.824082   0.12398093   -3.3700515    1.5459696   569256 
 6091000    1.3372409   -3.3715872   -1.8245812   0.11111556   -3.3715872    1.5470059   569289 
 6092000    1.3356203   -3.3700509    -1.824955    0.1182032   -3.3700509    1.5450959   569302 
 6093000    1.3364232   -3.3707921   -1.8248381   0.11708464   -3.3707921    1.5459541   569328 
 6094000    1.3350765   -3.3708072   -1.8264462   0.11643647   -3.3708072    1.5443609   569341 
 6095000    1.3355559   -3.3721711   -1.8272855   0.11683432   -3.3721711    1.5448856   569352 
 6096000    1.3349071   -3.3710079   -1.8269432    0.1138671   -3.3710079    1.5440647   569378 
 6097000    1.3354719   -3.3714495   -1.8267749   0.11931839   -3.3714495    1.5446745   569394 
 6098000    1.3359885   -3.3729497   -1.8277563    0.1081465   -3.3729497    1.5451934   569423 
 6099000    1.3362858   -3.3711932   -1.8256994   0.11522473   -3.3711932    1.5454938   569439 
 6100000    1.3362167   -3.3713528   -1.8259715   0.11821231   -3.3713528    1.5453813   569451 
 6101000    1.3374869   -3.3723495   -1.8255263   0.11312677   -3.3723495    1.5468232   569461 
 6102000    1.3350263   -3.3699774   -1.8260948   0.11704476   -3.3699774    1.5438826   569496 
 6103000    1.3345523    -3.370734   -1.8274239   0.11943359    -3.370734    1.5433101   569505 
 6104000    1.3354853    -3.371405   -1.8270919   0.11617441    -3.371405    1.5443131   569533 
 6105000    1.3349273   -3.3703981   -1.8267573   0.11978642   -3.3703981    1.5436407   569543 
 6106000    1.3360053   -3.3711399   -1.8263231    0.1126397   -3.3711399    1.5448168   569569 
 6107000    1.3367858   -3.3712817   -1.8256113   0.11922014   -3.3712817    1.5456704   569587 
 6108000    1.3359054   -3.3695667   -1.8249929   0.12101175   -3.3695667    1.5445738   569616 
 6109000    1.3360364   -3.3710181   -1.8263606     0.117404   -3.3710181    1.5446574   569641 
 6110000    1.3363789   -3.3710415   -1.8260017   0.11223297   -3.3710415    1.5450398   569646 
 6111000    1.3366824   -3.3709276   -1.8255667   0.11297833   -3.3709276    1.5453609   569657 
 6112000    1.3358289   -3.3705553   -1.8262462   0.11986045   -3.3705553    1.5443091   569681 
 6113000    1.3356978   -3.3714434   -1.8273536   0.11191025   -3.3714434    1.5440898   569706 
 6114000    1.3363442   -3.3716058   -1.8267985   0.11880236   -3.3716058    1.5448072   569717 
 6115000    1.3362822   -3.3710889   -1.8263967   0.11188006   -3.3710889    1.5446921   569733 
 6116000    1.3372384   -3.3720753   -1.8263375   0.11738819   -3.3720753    1.5457378   569755 
 6117000    1.3378562   -3.3721165   -1.8257188   0.11496623   -3.3721165    1.5463977   569775 
 6118000    1.3366959   -3.3702026   -1.8252546   0.12331336   -3.3702026     1.544948   569815 
 6119000    1.3382269   -3.3725329   -1.8258533   0.11620373   -3.3725329    1.5466796   569829 
 6120000    1.3367451   -3.3699097   -1.8249726    0.1188792   -3.3699097    1.5449371   569840 
 6121000    1.3380669   -3.3706847    -1.824266   0.11799179   -3.3706847    1.5464186   569857 
 6122000    1.3376949   -3.3709634   -1.8250452   0.11532481   -3.3709634    1.5459181   569883 
 6123000    1.3361957    -3.369987   -1.8258582   0.11750297    -3.369987    1.5441287   569904 
 6124000    1.3377495   -3.3726037   -1.8266983   0.11644588   -3.3726037    1.5459054   569911 
 6125000    1.3374425   -3.3728898   -1.8273746   0.11976707   -3.3728898    1.5455153   569924 
 6126000     1.336538   -3.3727756   -1.8283949   0.12051394   -3.3727756    1.5443807   569957 
 6127000    1.3376001   -3.3735509   -1.8280189   0.11741153   -3.3735509     1.545532   569985 
 6128000    1.3369022   -3.3733708   -1.8287238    0.1160848   -3.3733708     1.544647   570014 
 6129000    1.3385989   -3.3741435   -1.8275632   0.11839018   -3.3741435    1.5465803   570024 
 6130000      1.33695   -3.3729581   -1.8283209   0.11950829   -3.3729581    1.5446372   570038 
 6131000    1.3374598   -3.3729021   -1.8277328   0.12010025   -3.3729021    1.5451693   570059 
 6132000    1.3371416   -3.3729161    -1.828166   0.12144164   -3.3729161    1.5447501   570078 
 6133000    1.3374725   -3.3731222   -1.8280142   0.11219168   -3.3731222     1.545108   570087 
 6134000    1.3358179   -3.3716369   -1.8284646   0.11583943   -3.3716369    1.5431723   570096 
 6135000    1.3380762   -3.3749433   -1.8291839   0.11885745   -3.3749433    1.5457594   570104 
 6136000    1.3366711   -3.3735781   -1.8295313   0.12190924   -3.3735781    1.5440469   570137 
 6137000    1.3382071   -3.3762412   -1.8304581    0.1125971   -3.3762412    1.5457832   570151 
 6138000    1.3374001   -3.3745685   -1.8297799   0.11426268   -3.3745685    1.5447886   570174 
 6139000     1.338314   -3.3762258   -1.8303977   0.11033993   -3.3762258     1.545828   570180 
 6140000    1.3371394   -3.3739552   -1.8295842   0.11372917   -3.3739552     1.544371   570217 
 6141000    1.3379762   -3.3750869   -1.8297981   0.11382242   -3.3750869    1.5452888   570235 
 6142000    1.3376345    -3.374569   -1.8297372   0.11674302    -3.374569    1.5448318   570258 
 6143000    1.3392605   -3.3754404   -1.8287659    0.1206768   -3.3754404    1.5466744   570271 
 6144000    1.3398554   -3.3768742   -1.8295779   0.11481207   -3.3768742    1.5472963   570295 
 6145000    1.3382738   -3.3744208   -1.8289672   0.11567157   -3.3744208    1.5454536   570301 
 6146000     1.336827   -3.3726369   -1.8289191   0.12060527   -3.3726369    1.5437179   570325 
 6147000    1.3389935   -3.3752632   -1.8290897   0.11306326   -3.3752632    1.5461735   570342 
 6148000    1.3377183   -3.3737537   -1.8291122   0.12181296   -3.3737537    1.5446415   570364 
 6149000    1.3390483   -3.3745379   -1.8284041    0.1176338   -3.3745379    1.5461338   570380 
 6150000    1.3388211   -3.3740694   -1.8282304   0.12101853   -3.3740694     1.545839   570392 
 6151000    1.3386194   -3.3743727   -1.8288317   0.11877048   -3.3743727    1.5455411   570416 
 6152000    1.3389754   -3.3746505   -1.8287363   0.11287404   -3.3746505    1.5459141   570430 
 6153000    1.3395395   -3.3754947   -1.8289645   0.11234001   -3.3754947    1.5465302   570443 
 6154000    1.3388159   -3.3742883    -1.828664   0.11401005   -3.3742883    1.5456244   570469 
 6155000    1.3383321   -3.3740593   -1.8289989   0.11542775   -3.3740593    1.5450603   570471 
 6156000    1.3372946    -3.373751     -1.82991   0.11647427    -3.373751     1.543841   570479 
 6157000    1.3376672   -3.3735056    -1.829267   0.11779547   -3.3735056    1.5442387   570491 
 6158000    1.3376466   -3.3744111   -1.8302395   0.11150072   -3.3744111    1.5441716   570507 
 6159000    1.3379036   -3.3739928   -1.8295652   0.11744951   -3.3739928    1.5444276   570522 
 6160000    1.3387913   -3.3753736   -1.8299673   0.11735205   -3.3753736    1.5454063   570539 
 6161000    1.3369589   -3.3740166   -1.8307904   0.11278908   -3.3740166    1.5432262   570563 
 6162000    1.3385213   -3.3749801   -1.8299803   0.11029414   -3.3749801    1.5449998   570574 
 6163000    1.3397193   -3.3759622   -1.8295876   0.11744468   -3.3759622    1.5463746   570577 
 6164000    1.3383518   -3.3739818    -1.829229   0.11877271   -3.3739818    1.5447528   570593 
 6165000    1.3400252   -3.3762478   -1.8295881   0.12165038   -3.3762478    1.5466598   570602 
 6166000    1.3399957   -3.3753344   -1.8287412   0.11969501   -3.3753344    1.5465933   570614 
 6167000    1.3398673   -3.3769146   -1.8305048   0.11589543   -3.3769146    1.5464098   570627 
 6168000    1.3391459   -3.3754262   -1.8298733   0.11814138   -3.3754262    1.5455529   570636 
 6169000    1.3404442   -3.3765509   -1.8295484   0.11553999   -3.3765509    1.5470025   570654 
 6170000    1.3398762   -3.3758212    -1.829523   0.11474269   -3.3758212    1.5462982   570672 
 6171000    1.3403291   -3.3767519   -1.8299744   0.11935428   -3.3767519    1.5467775   570688 
 6172000    1.3422586   -3.3784034   -1.8294345   0.11706088   -3.3784034    1.5489689   570701 
 6173000    1.3408103   -3.3775301   -1.8302814     0.119314   -3.3775301    1.5472487   570719 
 6174000    1.3396558   -3.3759459   -1.8300673   0.11673999   -3.3759459    1.5458786   570733 
 6175000    1.3383563   -3.3752697   -1.8309691   0.12067701   -3.3752697    1.5443006   570762 
 6176000    1.3388648   -3.3751442   -1.8302379   0.12507342   -3.3751442    1.5449063   570755 
 6177000    1.3398855   -3.3770074    -1.830945   0.11614502   -3.3770074    1.5460624   570763 
 6178000    1.3395769   -3.3765213   -1.8308881   0.12220623   -3.3765213    1.5456332   570790 
 6179000    1.3399511    -3.376829   -1.8308047   0.11912649    -3.376829    1.5460243   570805 
 6180000    1.3400324   -3.3768043   -1.8307161   0.12009552   -3.3768043    1.5460883   570816 
 6181000    1.3412515   -3.3783995   -1.8309886   0.12123168   -3.3783995    1.5474108   570847 
 6182000    1.3397868    -3.376884   -1.8312063   0.11577237    -3.376884    1.5456777   570863 
 6183000    1.3406262   -3.3782673   -1.8317242   0.11915357   -3.3782673    1.5465431   570901 
 6184000    1.3403273   -3.3781303     -1.83197   0.11862304   -3.3781303    1.5461603   570915 
 6185000    1.3397015   -3.3774201   -1.8320412   0.11791427   -3.3774201     1.545379   570937 
 6186000    1.3384647    -3.376697   -1.8327718   0.11327592    -3.376697    1.5439253   570947 
 6187000    1.3394339   -3.3783861   -1.8333618   0.11877156   -3.3783861    1.5450243   570954 
 6188000    1.3398987   -3.3777337   -1.8322464   0.11889074   -3.3777337    1.5454873   570981 
 6189000    1.3397246   -3.3769626   -1.8317464   0.11862126   -3.3769626    1.5452161   571007 
 6190000     1.338854   -3.3764789   -1.8323102   0.11550632   -3.3764789    1.5441687   571023 
 6191000    1.3408626   -3.3789059   -1.8324612   0.11467022   -3.3789059    1.5464447   571038 
 6192000     1.342207   -3.3806466   -1.8326731   0.11339942   -3.3806466    1.5479735   571046 
 6193000     1.340713   -3.3786459    -1.832482   0.12061824   -3.3786459    1.5461639   571078 
 6194000    1.3405546   -3.3776007   -1.8316574   0.12405042   -3.3776007    1.5459433   571092 
 6195000    1.3431732   -3.3792179   -1.8302901   0.11660803   -3.3792179    1.5489278   571105 
 6196000     1.342445   -3.3783316   -1.8302924    0.1174733   -3.3783316    1.5480393   571123 
 6197000    1.3410056   -3.3774007   -1.8310565   0.12273761   -3.3774007    1.5463442   571136 
 6198000    1.3406214   -3.3774258   -1.8315922   0.11945276   -3.3774258    1.5458336   571161 
 6199000    1.3418926    -3.378977   -1.8317562   0.12209301    -3.378977    1.5472208   571190 
 6200000     1.340637   -3.3785991   -1.8328585   0.12497069   -3.3785991    1.5457406   571202 
 6201000    1.3413002   -3.3783729    -1.831919   0.12203237   -3.3783729    1.5464538   571221 
 6202000    1.3420216   -3.3794962    -1.832262   0.11811314   -3.3794962    1.5472341   571240 
 6203000    1.3425186   -3.3800845   -1.8323343   0.12369813   -3.3800845    1.5477502   571261 
 6204000    1.3417884   -3.3801895    -1.833338   0.11203172   -3.3801895    1.5468515   571282 
 6205000    1.3419265   -3.3803304   -1.8333521   0.11353893   -3.3803304    1.5469782   571294 
 6206000    1.3405006   -3.3793217   -1.8340657   0.12271656   -3.3793217     1.545256   571323 
 6207000    1.3412435    -3.380007   -1.8339542   0.11538229    -3.380007    1.5460529   571345 
 6208000    1.3391342   -3.3772667    -1.833702   0.11826412   -3.3772667    1.5435647   571366 
 6209000    1.3396029   -3.3771258   -1.8330479   0.11968154   -3.3771258    1.5440779   571376 
 6210000    1.3414613   -3.3792263   -1.8330118   0.11371786   -3.3792263    1.5462145   571378 
 6211000    1.3412775   -3.3786157   -1.8326914   0.11560538   -3.3786157    1.5459243   571407 
 6212000    1.3416544   -3.3783293   -1.8320139   0.12515671   -3.3783293    1.5463154   571423 
 6213000    1.3433853   -3.3805869   -1.8323308   0.12601963   -3.3805869    1.5482561   571443 
 6214000    1.3438826   -3.3805377   -1.8317573    0.1132602   -3.3805377    1.5487804   571461 
 6215000    1.3398525   -3.3770012   -1.8329031    0.1179238   -3.3770012    1.5440981   571475 
 6216000     1.341012   -3.3784109   -1.8329902   0.11923826   -3.3784109    1.5454208   571480 
 6217000    1.3431188   -3.3807345   -1.8329508   0.11697443   -3.3807345    1.5477837   571504 
 6218000    1.3422737   -3.3801485   -1.8334036   0.11892434   -3.3801485    1.5467449   571528 
 6219000    1.3417539   -3.3799973   -1.8339135   0.11378893   -3.3799973    1.5460837   571551 
 6220000    1.3425303   -3.3818332   -1.8349008    0.1120475   -3.3818332    1.5469323   571568 
 6221000    1.3402362   -3.3781061   -1.8338739   0.11612854   -3.3781061    1.5442323   571589 
 6222000    1.3409452   -3.3797051   -1.8346911   0.11865719   -3.3797051     1.545014   571602 
 6223000    1.3409214    -3.379996   -1.8350391   0.11890872    -3.379996    1.5449569   571613 
 6224000    1.3416327   -3.3806496   -1.8349084    0.1122724   -3.3806496    1.5457412   571626 
 6225000    1.3404411   -3.3788813   -1.8346048   0.12104874   -3.3788813    1.5442765   571660 
 6226000    1.3421096   -3.3810318   -1.8348926   0.11731223   -3.3810318    1.5461392   571682 
 6227000    1.3417059   -3.3801993   -1.8345792    0.1139745   -3.3801993      1.54562   571702 
 6228000    1.3425493   -3.3799865   -1.8334083   0.12568942   -3.3799865    1.5465782   571707 
 6229000    1.3423576    -3.379956   -1.8336149   0.11851739    -3.379956    1.5463411   571713 
 6230000    1.3433587   -3.3826564   -1.8352325   0.12207066   -3.3826564    1.5474239   571739 
 6231000    1.3428366    -3.381894   -1.8351337   0.11831497    -3.381894    1.5467602   571762 
 6232000    1.3440732   -3.3829115   -1.8347782   0.11985694   -3.3829115    1.5481333   571781 
 6233000    1.3415091   -3.3814943   -1.8363712   0.11889694   -3.3814943    1.5451231   571802 
 6234000    1.3417647    -3.381927   -1.8365527   0.11475182    -3.381927    1.5453743   571818 
 6235000    1.3415066   -3.3813777   -1.8363385   0.12000967   -3.3813777    1.5450392   571832 
 6236000    1.3399824   -3.3809118   -1.8376848   0.11879899   -3.3809118     1.543227   571853 
 6237000    1.3424294   -3.3832058   -1.8372364   0.11361468   -3.3832058    1.5459695   571881 
 6238000    1.3413224   -3.3818316   -1.8371694   0.11268807   -3.3818316    1.5446622   571893 
 6239000    1.3406407   -3.3818967   -1.8380574   0.11250539   -3.3818967    1.5438393   571907 
 6240000    1.3421884   -3.3839852   -1.8384445   0.11262053   -3.3839852    1.5455406   571937 
 6241000    1.3407937   -3.3822947   -1.8384249   0.11854462   -3.3822947    1.5438698   571961 
 6242000    1.3404319   -3.3820441   -1.8386475   0.11932013   -3.3820441    1.5433966   571982 
 6243000    1.3422432   -3.3851188   -1.8397123   0.11485839   -3.3851188    1.5454065   572010 
 6244000    1.3401215   -3.3811187   -1.8381686   0.12645219   -3.3811187    1.5429501   572015 
 6245000    1.3414331    -3.383516   -1.8390829   0.11845339    -3.383516    1.5444332   572025 
 6246000    1.3412925   -3.3828177   -1.8385976     0.121715   -3.3828177    1.5442201   572044 
 6247000    1.3420901   -3.3840502   -1.8389713   0.11098307   -3.3840502     1.545079   572066 
 6248000    1.3421653   -3.3841171   -1.8389732   0.11684362   -3.3841171    1.5451439   572074 
 6249000    1.3409815   -3.3832028   -1.8394433   0.11852324   -3.3832028    1.5437595   572082 
 6250000    1.3417036   -3.3837208   -1.8391813   0.12089769   -3.3837208    1.5445395   572101 
 6251000    1.3436692    -3.385693   -1.8389287   0.10877756    -3.385693    1.5467644   572115 
 6252000    1.3416427   -3.3835252   -1.8391422   0.12041282   -3.3835252     1.544383   572133 
 6253000    1.3416933   -3.3847296   -1.8403289    0.1245448   -3.3847296    1.5444007   572148 
 6254000    1.3435712   -3.3862707    -1.839784   0.11885119   -3.3862707    1.5464867   572176 
 6255000     1.342615   -3.3848646   -1.8395271   0.11978438   -3.3848646    1.5453375   572194 
 6256000    1.3415979   -3.3837989   -1.8396916    0.1226932   -3.3837989    1.5441074   572216 
 6257000     1.341042   -3.3832843    -1.839841   0.12297647   -3.3832843    1.5434433   572225 
 6258000    1.3435235   -3.3865893   -1.8402926   0.11471064   -3.3865893    1.5462966   572226 
 6259000    1.3396973   -3.3823031   -1.8404721    0.1271006   -3.3823031     1.541831   572249 
 6260000    1.3412821    -3.382949   -1.8393238   0.11756662    -3.382949    1.5436252   572260 
 6261000    1.3423507   -3.3845266   -1.8396985   0.11435601   -3.3845266     1.544828   572270 
 6262000    1.3435768   -3.3855075   -1.8393279   0.11216657   -3.3855075    1.5461796   572292 
 6263000    1.3427545   -3.3856487   -1.8404505   0.11816438   -3.3856487    1.5451982   572305 
 6264000    1.3402704   -3.3831977   -1.8409201   0.11493648   -3.3831977    1.5422776   572328 
 6265000    1.3419477   -3.3846495   -1.8404903   0.11637412   -3.3846495    1.5441592   572346 
 6266000     1.341586   -3.3840754   -1.8403594   0.12309878   -3.3840754     1.543716   572356 
 6267000    1.3420389   -3.3840185   -1.8398299   0.11971079   -3.3840185    1.5441886   572374 
 6268000    1.3405254   -3.3825368   -1.8401678   0.11452631   -3.3825368     1.542369   572403 
 6269000    1.3418081   -3.3843912   -1.8406139   0.12474653   -3.3843912    1.5437773   572428 
 6270000     1.342558    -3.384981   -1.8403975   0.11336694    -3.384981    1.5445835   572449 
 6271000    1.3419539   -3.3841722   -1.8403376   0.11774489   -3.3841722    1.5438346   572469 
 6272000    1.3426611   -3.3848326   -1.8402492   0.11522278   -3.3848326    1.5445834   572493 
 6273000    1.3446889   -3.3880157   -1.8411455    0.1121485   -3.3880157    1.5468702   572510 
 6274000    1.3420785   -3.3851676   -1.8413893   0.11585843   -3.3851676    1.5437783   572543 
 6275000      1.34092   -3.3851003   -1.8426762    0.1236394   -3.3851003    1.5424241   572551 
 6276000    1.3402824    -3.385935   -1.8443465   0.11440078    -3.385935    1.5415885   572589 
 6277000    1.3426409   -3.3870389   -1.8427971   0.11456154   -3.3870389    1.5442418   572611 
 6278000    1.3418492   -3.3862088   -1.8429396   0.12120553   -3.3862088    1.5432692   572634 
 6279000    1.3432663   -3.3869983    -1.842137   0.11752122   -3.3869983    1.5448613   572648 
 6280000    1.3435188   -3.3872402   -1.8421425   0.11885677   -3.3872402    1.5450978   572668 
 6281000    1.3409263   -3.3848826   -1.8428148   0.12216076   -3.3848826    1.5420678   572686 
 6282000    1.3424797   -3.3875294   -1.8437049   0.11888067   -3.3875294    1.5438246   572697 
 6283000    1.3431393   -3.3889495   -1.8443881   0.11632716   -3.3889495    1.5445615   572705 
 6284000    1.3420363   -3.3876699   -1.8444333   0.11706284   -3.3876699    1.5432365   572726 
 6285000    1.3444313   -3.3889345    -1.842979   0.12245477   -3.3889345    1.5459555   572739 
 6286000    1.3439574    -3.388954   -1.8436082     0.125218    -3.388954    1.5453458   572763 
 6287000    1.3436373     -3.38886    -1.843947   0.12511672     -3.38886    1.5449131   572787 
 6288000    1.3441753   -3.3900074   -1.8445352   0.12029673   -3.3900074    1.5454723   572809 
 6289000    1.3439382   -3.3894354   -1.8442682    0.1165473   -3.3894354    1.5451673   572821 
 6290000    1.3414321   -3.3877029   -1.8454439   0.12074171   -3.3877029     1.542259   572831 
 6291000    1.3419938   -3.3889748   -1.8461239   0.11926111   -3.3889748    1.5428509   572851 
 6292000    1.3428707   -3.3892049   -1.8453621   0.11737649   -3.3892049    1.5438429   572857 
 6293000    1.3432433    -3.389534   -1.8453328   0.11716107    -3.389534    1.5442012   572883 
 6294000    1.3431796   -3.3904523   -1.8463837   0.11925881   -3.3904523    1.5440686   572905 
 6295000     1.343333   -3.3893617   -1.8451869   0.11713754   -3.3893617    1.5441749   572931 
 6296000    1.3418717    -3.388749   -1.8463293   0.12074994    -3.388749    1.5424198   572959 
 6297000    1.3423978   -3.3892292   -1.8462424   0.11369035   -3.3892292    1.5429868   572973 
 6298000    1.3402415   -3.3866903   -1.8462331   0.11468872   -3.3866903    1.5404572   572992 
 6299000    1.3428446   -3.3892746   -1.8458927   0.11585654   -3.3892746    1.5433819   573017 
 6300000     1.345354   -3.3897654   -1.8435291   0.11667423   -3.3897654    1.5462363   573028 
 6301000    1.3432803   -3.3882192   -1.8444067   0.12113531   -3.3882192    1.5438125   573043 
 6302000    1.3434079    -3.388187   -1.8443005    0.1146901    -3.388187    1.5438865   573070 
 6303000    1.3447782   -3.3889834   -1.8435249   0.11470255   -3.3889834    1.5454585   573071 
 6304000    1.3440516   -3.3885889   -1.8440274    0.1173091   -3.3885889    1.5445615   573094 
 6305000    1.3440093     -3.38799   -1.8435633    0.1214347     -3.38799    1.5444266   573126 
 6306000    1.3441199   -3.3896669   -1.8451994   0.11634015   -3.3896669    1.5444676   573158 
 6307000    1.3440179   -3.3891236   -1.8448675   0.12371953   -3.3891236     1.544256   573193 
 6308000    1.3435609   -3.3881927   -1.8444941   0.11787525   -3.3881927    1.5436986   573205 
 6309000    1.3434084   -3.3884261   -1.8449458   0.12133844   -3.3884261    1.5434804   573221 
 6310000     1.344136   -3.3881963   -1.8439366   0.11880977   -3.3881963    1.5442597   573242 
 6311000    1.3452293    -3.389198   -1.8437496   0.12601057    -3.389198    1.5454484   573267 
 6312000    1.3447166    -3.388219   -1.8433785   0.11517638    -3.388219    1.5448405   573274 
 6313000    1.3432323   -3.3872442   -1.8441439   0.12732722   -3.3872442    1.5431003   573287 
 6314000    1.3447811   -3.3879466   -1.8431398   0.11509336   -3.3879466    1.5448069   573314 
 6315000    1.3446007   -3.3888576   -1.8442903   0.11903672   -3.3888576    1.5445673   573326 
 6316000    1.3441153   -3.3891043   -1.8451189   0.12156307   -3.3891043    1.5439854   573335 
 6317000    1.3439478   -3.3892522    -1.845505   0.11694337   -3.3892522    1.5437472   573352 
 6318000    1.3440384   -3.3885968   -1.8447617   0.11993775   -3.3885968    1.5438352   573358 
 6319000    1.3438048   -3.3883608   -1.8448665   0.12222623   -3.3883608    1.5434942   573385 
 6320000     1.345511   -3.3893744   -1.8439367   0.11952971   -3.3893744    1.5454377   573391 
 6321000    1.3446088   -3.3879497   -1.8436048    0.1213149   -3.3879497    1.5443449   573412 
 6322000    1.3451782   -3.3890595   -1.8441414    0.1213106   -3.3890595    1.5449181   573442 
 6323000    1.3442975   -3.3892021   -1.8453331   0.11903093   -3.3892021     1.543869   573456 
 6324000      1.34453   -3.3883664   -1.8442169   0.11587173   -3.3883664    1.5441494   573451 
 6325000    1.3461545   -3.3906764   -1.8447072   0.11984153   -3.3906764    1.5459692   573468 
 6326000     1.346303   -3.3905436   -1.8444226   0.11735037   -3.3905436    1.5461209   573475 
 6327000    1.3457269   -3.3913456   -1.8459402   0.11760235   -3.3913456    1.5454054   573495 
 6328000     1.344973   -3.3901668   -1.8456514   0.11718801   -3.3901668    1.5445154   573504 
 6329000    1.3440754   -3.3890069   -1.8455465   0.12369843   -3.3890069    1.5434604   573513 
 6330000    1.3436511   -3.3891618    -1.846202   0.12080971   -3.3891618    1.5429598   573518 
 6331000    1.3435176    -3.391054   -1.8482529   0.11291686    -3.391054    1.5428011   573520 
 6332000    1.3429117   -3.3898142   -1.8477305   0.12219822   -3.3898142    1.5420838   573528 
 6333000    1.3436258   -3.3904474   -1.8475678   0.11484553   -3.3904474    1.5428796   573537 
 6334000    1.3442904   -3.3908919   -1.8473218   0.11889653   -3.3908919    1.5435701   573564 
 6335000    1.3431325   -3.3896299   -1.8474378   0.12299771   -3.3896299    1.5421922   573582 
 6336000    1.3443377   -3.3910421    -1.847528   0.11768356   -3.3910421    1.5435141   573605 
 6337000     1.343803   -3.3912967   -1.8484395   0.12182982   -3.3912967    1.5428571   573621 
 6338000    1.3428904   -3.3911292   -1.8493952   0.11716013   -3.3911292     1.541734   573649 
 6339000    1.3437856   -3.3912681   -1.8485305   0.11525819   -3.3912681    1.5427376   573658 
 6340000    1.3432303   -3.3906898   -1.8486408    0.1217786   -3.3906898     1.542049   573677 
 6341000    1.3439335   -3.3918493   -1.8490603   0.11666862   -3.3918493     1.542789   573702 
 6342000    1.3442636   -3.3926296   -1.8494992   0.12149196   -3.3926296    1.5431304   573716 
 6343000     1.345118   -3.3941366     -1.85009   0.11548349   -3.3941366    1.5440466   573740 
 6344000    1.3446554   -3.3928655   -1.8493877   0.12115975   -3.3928655    1.5434779   573754 
 6345000    1.3448973   -3.3934813   -1.8497607   0.12627271   -3.3934813    1.5437206   573767 
 6346000    1.3437612      -3.3921   -1.8497023    0.1191574      -3.3921    1.5423977   573774 
 6347000     1.344129   -3.3937286   -1.8509409   0.11958553   -3.3937286    1.5427876   573786 
 6348000    1.3443419   -3.3941687   -1.8511771   0.12105626   -3.3941687    1.5429916   573801 
 6349000    1.3445831   -3.3941822   -1.8509621   0.11698748   -3.3941822    1.5432201   573819 
 6350000    1.3451212   -3.3944018   -1.8506396   0.11251036   -3.3944018    1.5437623   573847 
 6351000    1.3447812   -3.3932391   -1.8498967   0.12042016   -3.3932391    1.5433425   573858 
 6352000    1.3427577   -3.3921549   -1.8511642   0.11688536   -3.3921549    1.5409908   573869 
 6353000    1.3444153   -3.3950248   -1.8521748   0.11694134   -3.3950248    1.5428501   573885 
 6354000    1.3433312   -3.3931648   -1.8515884   0.10937688   -3.3931648    1.5415764   573896 
 6355000    1.3443099   -3.3933369   -1.8506912    0.1139263   -3.3933369    1.5426457   573916 
 6356000    1.3449751   -3.3940578   -1.8506756   0.11801775   -3.3940578    1.5433822   573926 
 6357000    1.3438079   -3.3932101   -1.8512131   0.11870272   -3.3932101    1.5419971   573943 
 6358000    1.3438457   -3.3933658   -1.8514436   0.11817576   -3.3933658    1.5419223   573987 
 6359000    1.3432784   -3.3919213   -1.8506902   0.11825598   -3.3919213    1.5412311   574002 
 6360000    1.3444483   -3.3927846   -1.8502919   0.11551611   -3.3927846    1.5424927   574032 
 6361000    1.3443854   -3.3918071   -1.8493999   0.12840617   -3.3918071    1.5424071   574037 
 6362000    1.3442492   -3.3924186   -1.8502455   0.12226666   -3.3924186     1.542173   574066 
 6363000    1.3440149   -3.3930963    -1.851235   0.11404093   -3.3930963    1.5418613   574082 
 6364000    1.3445038   -3.3933322   -1.8509424   0.11238988   -3.3933322    1.5423898   574094 
 6365000    1.3444063   -3.3926448   -1.8504447   0.12569662   -3.3926448    1.5422001   574123 
 6366000    1.3461444   -3.3951989   -1.8510614    0.1093627   -3.3951989    1.5441375   574144 
 6367000     1.344448   -3.3923229   -1.8502012    0.1185253   -3.3923229    1.5421217   574170 
 6368000    1.3459362    -3.394333   -1.8505447   0.11456789    -3.394333    1.5437883   574185 
 6369000    1.3441812   -3.3921838   -1.8504621   0.11853573   -3.3921838    1.5417217   574205 
 6370000    1.3475392   -3.3947921    -1.849262   0.11791787   -3.3947921    1.5455301   574221 
 6371000    1.3461402   -3.3939524   -1.8500968   0.11817064   -3.3939524    1.5438556   574247 
 6372000    1.3446784   -3.3922382   -1.8501208    0.1211088   -3.3922382    1.5421174   574270 
 6373000    1.3452017   -3.3931202   -1.8504349   0.11936368   -3.3931202    1.5426853   574282 
 6374000     1.347789   -3.3939715   -1.8483513   0.11721305   -3.3939715    1.5456202   574294 
 6375000    1.3456672   -3.3932558   -1.8501147    0.1188685   -3.3932558    1.5431411   574311 
 6376000    1.3452898   -3.3925216   -1.8498535   0.12070243   -3.3925216    1.5426681   574326 
 6377000    1.3464124   -3.3940567   -1.8501255   0.11902582   -3.3940567    1.5439313   574335 
 6378000    1.3448963   -3.3932636    -1.851138   0.12352243   -3.3932636    1.5421256   574360 
 6379000     1.345225   -3.3939318    -1.851475   0.12404173   -3.3939318    1.5424569   574377 
 6380000     1.345459   -3.3944701   -1.8517718   0.11585079   -3.3944701    1.5426983   574387 
 6381000     1.346132   -3.3946079   -1.8511891   0.12020025   -3.3946079    1.5434189   574406 
 6382000    1.3460904    -3.395433   -1.8521048   0.11497327    -3.395433    1.5433282   574422 
 6383000    1.3460235   -3.3943317   -1.8511339   0.11648102   -3.3943317    1.5431978   574442 
 6384000    1.3472104   -3.3964237   -1.8519054   0.11814626   -3.3964237    1.5445182   574457 
 6385000     1.345794   -3.3946345   -1.8517804   0.11967388   -3.3946345    1.5428541   574472 
 6386000    1.3459829   -3.3954422   -1.8524173   0.12124628   -3.3954422     1.543025   574489 
 6387000    1.3457767   -3.3951908   -1.8524479    0.1199594   -3.3951908    1.5427429   574506 
 6388000    1.3451902   -3.3948724   -1.8528742   0.11849141   -3.3948724    1.5419982   574533 
 6389000    1.3450036   -3.3953054   -1.8535614   0.12072802   -3.3953054     1.541744   574548 
 6390000    1.3444403   -3.3954688   -1.8544402   0.11611292   -3.3954688    1.5410286   574574 
 6391000    1.3450365   -3.3968871   -1.8552343   0.11612574   -3.3968871    1.5416529   574596 
 6392000    1.3451362   -3.3971502   -1.8554072   0.11268051   -3.3971502     1.541743   574605 
 6393000    1.3456648   -3.3967109   -1.8544398   0.11519527   -3.3967109    1.5422711   574634 
 6394000     1.345804   -3.3965487   -1.8541718   0.12277996   -3.3965487    1.5423769   574654 
 6395000     1.345672   -3.3968364    -1.854635   0.11755869   -3.3968364    1.5422014   574663 
 6396000    1.3474147   -3.3987187   -1.8546087   0.12095052   -3.3987187      1.54411   574696 
 6397000    1.3460848   -3.3962689   -1.8537447   0.12467205   -3.3962689    1.5425242   574719 
 6398000    1.3471239   -3.3990453   -1.8553813   0.12074833   -3.3990453    1.5436639   574738 
 6399000    1.3458797   -3.3965844   -1.8544079   0.11844977   -3.3965844    1.5421766   574761 
 6400000    1.3469474   -3.3982125   -1.8548609    0.1113282   -3.3982125    1.5433516   574779 
 6401000    1.3464147   -3.3984305   -1.8557134   0.11474236   -3.3984305    1.5427171   574788 
 6402000     1.347615   -3.3987444   -1.8547058   0.11469413   -3.3987444    1.5440386   574808 
 6403000    1.3448566   -3.3958826   -1.8550447   0.11767162   -3.3958826     1.540838   574823 
 6404000     1.345651   -3.3979521   -1.8562415     0.115972   -3.3979521    1.5417106   574837 
 6405000    1.3441379   -3.3968285   -1.8569104   0.12412735   -3.3968285    1.5399182   574859 
 6406000    1.3441783   -3.3973228   -1.8574414    0.1157212   -3.3973228    1.5398814   574890 
 6407000     1.345207   -3.3973629   -1.8563326   0.11900378   -3.3973629    1.5410303   574901 
 6408000    1.3444111   -3.3965865    -1.856492   0.12398314   -3.3965865    1.5400945   574910 
 6409000    1.3445846   -3.3970626   -1.8567801   0.11843051   -3.3970626    1.5402825   574914 
 6410000    1.3437685   -3.3959058    -1.856593   0.11703265   -3.3959058    1.5393128   574927 
 6411000    1.3444223   -3.3949908   -1.8549933   0.12407813   -3.3949908    1.5399975   574951 
 6412000    1.3443888   -3.3953753   -1.8554644    0.1213126   -3.3953753    1.5399109   574969 
 6413000    1.3470402   -3.3975904   -1.8546747   0.11791203   -3.3975904    1.5429157   574981 
 6414000    1.3447933   -3.3951547   -1.8548474   0.12165613   -3.3951547    1.5403073   574994 
 6415000    1.3455242   -3.3961033   -1.8549911   0.12218512   -3.3961033    1.5411122   575006 
 6416000    1.3448687   -3.3960457   -1.8557245   0.11684935   -3.3960457    1.5403213   575021 
 6417000    1.3468706    -3.398517   -1.8559458   0.12038257    -3.398517    1.5425712   575037 
 6418000    1.3467005   -3.3988045   -1.8565032   0.11631231   -3.3988045    1.5423012   575065 
 6419000    1.3459188   -3.3980546   -1.8566726   0.12092985   -3.3980546    1.5413819   575074 
 6420000    1.3448956   -3.3974606   -1.8572827   0.11662629   -3.3974606     1.540178   575086 
 6421000    1.3450865    -3.397103   -1.8567145   0.11897315    -3.397103    1.5403885   575089 
 6422000    1.3466259   -3.3991966   -1.8570826   0.11745704   -3.3991966     1.542114   575103 
 6423000    1.3458772   -3.3982969   -1.8570752   0.11767881   -3.3982969    1.5412217   575116 
 6424000    1.3461672   -3.3983534   -1.8568291   0.11723287   -3.3983534    1.5415243   575127 
 6425000    1.3456123   -3.3980135    -1.857213   0.12032145   -3.3980135    1.5408005   575160 
 6426000    1.3464637   -3.3979145   -1.8561659   0.12158518   -3.3979145    1.5417486   575170 
 6427000    1.3476012   -3.3986835   -1.8556324   0.12002051   -3.3986835    1.5430511   575170 
 6428000    1.3473934   -3.3984155   -1.8556588   0.11988748   -3.3984155    1.5427568   575191 
 6429000    1.3463028   -3.3974421   -1.8559824   0.12524093   -3.3974421    1.5414598   575209 
 6430000    1.3473506   -3.3990151   -1.8564279   0.11971758   -3.3990151    1.5425871   575236 
 6431000    1.3469387   -3.3989043    -1.856813    0.1156992   -3.3989043    1.5420913   575245 
 6432000    1.3466263   -3.3989163   -1.8571932   0.12032048   -3.3989163     1.541723   575249 
 6433000    1.3471866   -3.3987595   -1.8564084    0.1105329   -3.3987595    1.5423511   575254 
 6434000    1.3472577     -3.39907   -1.8566831   0.11858443     -3.39907    1.5423869   575271 
 6435000    1.3492126   -3.4014592   -1.8568504   0.11853601   -3.4014592    1.5446088   575277 
 6436000    1.3477039   -3.3994595   -1.8566181   0.12361682   -3.3994595    1.5428414   575292 
 6437000    1.3474763   -3.3989901   -1.8564522   0.11503655   -3.3989901     1.542538   575308 
 6438000    1.3457043   -3.3982456   -1.8578005   0.11566082   -3.3982456    1.5404451   575332 
 6439000    1.3469233   -3.3991692   -1.8573501   0.11643187   -3.3991692    1.5418191   575340 
 6440000    1.3466123   -3.4000577   -1.8586294   0.12049588   -3.4000577    1.5414283   575353 
 6441000    1.3474701   -3.4009578   -1.8585986   0.12395553   -3.4009578    1.5423593   575372 
 6442000    1.3495022   -3.4028426   -1.8581762   0.11741256   -3.4028426    1.5446664   575379 
 6443000    1.3487619   -3.4007451   -1.8569743    0.1211492   -3.4007451    1.5437708   575397 
 6444000    1.3487942   -3.4017237   -1.8579508   0.11576733   -3.4017237    1.5437729   575410 
 6445000     1.346441   -3.3996053   -1.8585526   0.12080734   -3.3996053    1.5410527   575420 
 6446000    1.3456943   -3.3988344   -1.8586497   0.11630619   -3.3988344    1.5401847   575425 
 6447000    1.3469288   -3.4001819   -1.8586297   0.12108964   -3.4001819    1.5415522   575442 
 6448000    1.3459303   -3.3997658   -1.8594314   0.12179946   -3.3997658    1.5403344   575470 
 6449000    1.3478866   -3.4007786   -1.8582482   0.11898695   -3.4007786    1.5425304   575486 
 6450000    1.3469378   -3.4019361   -1.8605558   0.12125785   -3.4019361    1.5413803   575510 
 6451000    1.3465695   -3.4014881   -1.8605533   0.11990778   -3.4014881    1.5409347   575519 
 6452000    1.3458653    -3.400828   -1.8607313   0.11949405    -3.400828    1.5400968   575531 
 6453000     1.346232   -3.4008475     -1.86039   0.12078639   -3.4008475    1.5404575   575553 
 6454000    1.3458151   -3.4003871   -1.8604467   0.11965658   -3.4003871    1.5399404   575568 
 6455000    1.3464719   -3.4010002   -1.8603485   0.12024794   -3.4010002    1.5406517   575583 
 6456000    1.3466654   -3.4023206   -1.8614876   0.12367169   -3.4023206     1.540833   575598 
 6457000    1.3466074   -3.4024986   -1.8617562   0.11890602   -3.4024986    1.5407425   575607 
 6458000    1.3453127   -3.4001928    -1.860953   0.12385935   -3.4001928    1.5392398   575615 
 6459000    1.3476804   -3.4027033      -1.8608   0.11245489   -3.4027033    1.5419033   575632 
 6460000    1.3467074   -3.4024783   -1.8617124   0.11665497   -3.4024783    1.5407659   575641 
 6461000     1.345865   -3.4005022   -1.8607481    0.1193755   -3.4005022     1.539754   575659 
 6462000     1.347703   -3.4025879   -1.8607714     0.117274   -3.4025879    1.5418165   575674 
 6463000    1.3473046    -3.402624   -1.8613168   0.11200224    -3.402624    1.5413073   575694 
 6464000    1.3468273   -3.4024866    -1.861771   0.12006858   -3.4024866    1.5407157   575711 
 6465000    1.3467937   -3.4019551   -1.8613313   0.11603721   -3.4019551    1.5406238   575731 
 6466000     1.347482   -3.4026547   -1.8612891   0.11608543   -3.4026547    1.5413656   575748 
 6467000    1.3471052   -3.4030681   -1.8621763   0.11681009   -3.4030681    1.5408918   575764 
 6468000    1.3445274   -3.4006002   -1.8626917    0.1159471   -3.4006002    1.5379085   575777 
 6469000    1.3458556   -3.4017959   -1.8624191    0.1205711   -3.4017959    1.5393768   575796 
 6470000    1.3464614   -3.4015034   -1.8614924   0.11599912   -3.4015034     1.540011   575818 
 6471000    1.3448138   -3.3996529   -1.8615318   0.12106348   -3.3996529    1.5381212   575820 
 6472000    1.3465929    -3.401172   -1.8610668   0.11357479    -3.401172    1.5401052   575839 
 6473000    1.3453865   -3.4009084   -1.8622257    0.1166352   -3.4009084    1.5386827   575855 
 6474000    1.3492551   -3.4053795   -1.8623474   0.11168223   -3.4053795    1.5430321   575883 
 6475000    1.3478213   -3.4033187   -1.8619746   0.11498242   -3.4033187    1.5413441   575901 
 6476000    1.3485876   -3.4036443   -1.8614211   0.11294209   -3.4036443    1.5422231   575900 
 6477000    1.3475477   -3.4032631   -1.8622827   0.11844047   -3.4032631    1.5409804   575920 
 6478000    1.3464762   -3.4024482   -1.8627065   0.11528136   -3.4024482    1.5397417   575925 
 6479000    1.3478547    -3.403415   -1.8621396   0.11816731    -3.403415    1.5412753   575941 
 6480000    1.3480258   -3.4025378   -1.8610856   0.12021883   -3.4025378    1.5414522   575948 
 6481000    1.3468091   -3.4017228   -1.8616913   0.12462187   -3.4017228    1.5400315   575959 
 6482000    1.3488803   -3.4036806   -1.8612994   0.12244642   -3.4036806    1.5423811   575966 
 6483000    1.3465113   -3.4013182   -1.8617127   0.11779497   -3.4013182    1.5396055   575991 
 6484000    1.3476986   -3.4026298   -1.8617177   0.12061441   -3.4026298    1.5409121   576010 
 6485000    1.3476187   -3.4022731   -1.8614898   0.12058848   -3.4022731    1.5407833   576024 
 6486000    1.3490967   -3.4030697   -1.8606633   0.11982925   -3.4030697    1.5424063   576049 
 6487000    1.3496164   -3.4046214   -1.8616638   0.11972402   -3.4046214    1.5429576   576065 
 6488000    1.3482604   -3.4030112     -1.86166   0.11619084   -3.4030112    1.5413512   576086 
 6489000    1.3472969   -3.4017468    -1.861564   0.11681449   -3.4017468    1.5401828   576111 
 6490000     1.347924   -3.4029582   -1.8620987   0.12100134   -3.4029582    1.5408596   576126 
 6491000    1.3494997   -3.4045565   -1.8619547   0.11866914   -3.4045565    1.5426019   576148 
 6492000    1.3503612     -3.40568   -1.8621523   0.11892671     -3.40568    1.5435277   576170 
 6493000     1.349619   -3.4042074   -1.8616003   0.11671559   -3.4042074    1.5426071   576197 
 6494000    1.3480462   -3.4036476   -1.8628917   0.12183433   -3.4036476    1.5407559   576217 
 6495000     1.349798   -3.4061048   -1.8633682    0.1155292   -3.4061048    1.5427367   576225 
 6496000    1.3480207   -3.4039685   -1.8633113   0.12165174   -3.4039685    1.5406573   576243 
 6497000    1.3490928   -3.4054647   -1.8636409    0.1206506   -3.4054647    1.5418237   576265 
 6498000     1.348338   -3.4053748   -1.8644539   0.11527102   -3.4053748    1.5409209   576280 
 6499000    1.3482787   -3.4062083   -1.8653765   0.11510174   -3.4062083    1.5408317   576288 
 6500000    1.3490906   -3.4067703   -1.8650401   0.11308076   -3.4067703    1.5417303   576299 
 6501000    1.3489053   -3.4058737   -1.8644301   0.11380035   -3.4058737    1.5414436   576327 
 6502000    1.3498882   -3.4073527   -1.8648475   0.11824311   -3.4073527    1.5425052   576350 
 6503000    1.3472429   -3.4044735   -1.8650311   0.12059282   -3.4044735    1.5394424   576365 
 6504000    1.3484892    -3.406509   -1.8656612   0.12052789    -3.406509    1.5408478   576372 
 6505000    1.3480397   -3.4068751   -1.8665624   0.12067749   -3.4068751    1.5403127   576380 
 6506000    1.3470036   -3.4055541   -1.8665106   0.11784989   -3.4055541    1.5390435   576412 
 6507000    1.3483695   -3.4071022   -1.8665489   0.11985859   -3.4071022    1.5405533   576431 
 6508000    1.3485073   -3.4072631   -1.8665897   0.11881073   -3.4072631    1.5406734   576445 
 6509000    1.3492868   -3.4078668   -1.8663618   0.11745584   -3.4078668     1.541505   576467 
 6510000    1.3469606    -3.404885   -1.8660696   0.11983001    -3.404885    1.5388154   576479 
 6511000    1.3486245   -3.4068451    -1.866201   0.11005364   -3.4068451    1.5406442   576506 
 6512000    1.3483173   -3.4064322   -1.8662004    0.1188073   -3.4064322    1.5402318   576529 
 6513000    1.3486445   -3.4075979    -1.867019   0.11846796   -3.4075979    1.5405789   576539 
 6514000    1.3488234   -3.4071939   -1.8664535   0.11772818   -3.4071939    1.5407404   576555 
 6515000    1.3476847    -3.406635     -1.86727   0.11786696    -3.406635    1.5393649   576583 
 6516000    1.3488145   -3.4078002   -1.8671956   0.11640364   -3.4078002    1.5406047   576602 
 6517000     1.349746   -3.4074235   -1.8658137   0.11832095   -3.4074235    1.5416098   576624 
 6518000    1.3478813   -3.4065042   -1.8670589   0.11876825   -3.4065042    1.5394453   576637 
 6519000    1.3491909   -3.4076977   -1.8667807   0.12179825   -3.4076977     1.540917   576646 
 6520000    1.3483526   -3.4058288   -1.8658959    0.1239858   -3.4058288    1.5399329   576656 
 6521000    1.3495262   -3.4065239   -1.8653121   0.12226473   -3.4065239    1.5412118   576679 
 6522000     1.350667   -3.4078388   -1.8653911    0.1205943   -3.4078388    1.5424477   576704 
 6523000    1.3498736   -3.4073195   -1.8657725   0.11618054   -3.4073195    1.5415471   576702 
 6524000    1.3495228   -3.4069604   -1.8658701   0.11964541   -3.4069604    1.5410903   576723 
 6525000    1.3511637   -3.4086896   -1.8657656   0.11642489   -3.4086896     1.542924   576738 
 6526000    1.3491649   -3.4063376   -1.8657682   0.12098593   -3.4063376    1.5405694   576765 
 6527000    1.3497563   -3.4072483   -1.8660463   0.11645562   -3.4072483    1.5412019   576781 
 6528000    1.3499904   -3.4076937   -1.8662779   0.11732401   -3.4076937    1.5414158   576801 
 6529000    1.3501822   -3.4072374   -1.8655999   0.12225658   -3.4072374    1.5416375   576800 
 6530000    1.3507352   -3.4075517    -1.865355    0.1186859   -3.4075517    1.5421967   576827 
 6531000    1.3502269   -3.4067379   -1.8651537   0.12159877   -3.4067379    1.5415842   576839 
 6532000    1.3515894   -3.4088564   -1.8657513    0.1188138   -3.4088564    1.5431051   576852 
 6533000    1.3506298    -3.407551   -1.8655388   0.12078602    -3.407551    1.5420122   576851 
 6534000    1.3485525   -3.4066119   -1.8669954   0.11960502   -3.4066119    1.5396165   576860 
 6535000    1.3499345    -3.407477   -1.8663468   0.11514816    -3.407477    1.5411302   576884 
 6536000    1.3496438   -3.4070843   -1.8663421   0.11719696   -3.4070843    1.5407423   576905 
 6537000       1.3505   -3.4096659   -1.8679676   0.11148252   -3.4096659    1.5416983   576913 
 6538000    1.3484223   -3.4074357   -1.8681626   0.11486636   -3.4074357    1.5392731   576933 
 6539000    1.3501959   -3.4077204   -1.8665001    0.1185575   -3.4077204    1.5412203   576962 
 6540000    1.3507611   -3.4090052   -1.8671825   0.12433635   -3.4090052    1.5418227   576978 
 6541000    1.3485825    -3.406665   -1.8673851   0.12230459    -3.406665    1.5392798   576999 
 6542000    1.3493417   -3.4068627   -1.8667777   0.11709318   -3.4068627    1.5400851   577022 
 6543000    1.3496249    -3.408094   -1.8677098   0.12231953    -3.408094    1.5403842   577031 
 6544000    1.3491084   -3.4076426   -1.8678532   0.12606183   -3.4076426    1.5397894   577033 
 6545000    1.3490528   -3.4074304   -1.8677311   0.12492937   -3.4074304    1.5396992   577043 
 6546000    1.3494585   -3.4073251   -1.8671975   0.12023296   -3.4073251    1.5401276   577056 
 6547000    1.3515576    -3.409476   -1.8669928   0.12078825    -3.409476    1.5424832   577071 
 6548000    1.3500948   -3.4079563   -1.8671772   0.12400798   -3.4079563    1.5407791   577084 
 6549000     1.350509    -3.408991   -1.8677767    0.1195353    -3.408991    1.5412143   577098 
 6550000    1.3510935   -3.4094017    -1.867539   0.11621249   -3.4094017    1.5418627   577105 
 6551000    1.3504015   -3.4086578   -1.8676329   0.12121813   -3.4086578    1.5410249   577123 
 6552000    1.3506828   -3.4078934   -1.8666089   0.12393821   -3.4078934    1.5412846   577146 
 6553000    1.3515507   -3.4107074   -1.8684886   0.11661486   -3.4107074    1.5422188   577167 
 6554000    1.3492525   -3.4082708   -1.8687251   0.11885119   -3.4082708    1.5395457   577186 
 6555000    1.3516336   -3.4097582   -1.8675464   0.12458239   -3.4097582    1.5422118   577205 
 6556000    1.3498151   -3.4084831   -1.8683995   0.11563211   -3.4084831    1.5400836   577225 
 6557000    1.3496229   -3.4080422   -1.8682366   0.11965342   -3.4080422    1.5398056   577247 
 6558000    1.3503405   -3.4090945   -1.8684756   0.11451132   -3.4090945     1.540619   577249 
 6559000    1.3496632   -3.4083833   -1.8685477   0.11991811   -3.4083833    1.5398356   577253 
 6560000    1.3494466   -3.4086808   -1.8691403   0.11539778   -3.4086808    1.5395405   577271 
 6561000    1.3507235   -3.4101278   -1.8691573   0.11778803   -3.4101278    1.5409705   577281 
 6562000    1.3494094   -3.4096197   -1.8701804   0.12258183   -3.4096197    1.5394393   577293 
 6563000    1.3508816   -3.4107703   -1.8697262   0.11502928   -3.4107703    1.5410441   577321 
 6564000    1.3501789   -3.4107661    -1.870593   0.11834411   -3.4107661    1.5401731   577347 
 6565000    1.3509018    -3.410869   -1.8699193   0.11816577    -3.410869    1.5409496   577365 
 6566000    1.3513477   -3.4113431   -1.8699248   0.12367754   -3.4113431    1.5414183   577380 
 6567000    1.3503044   -3.4108364   -1.8706135   0.11662687   -3.4108364    1.5402229   577382 
 6568000    1.3492587   -3.4088461   -1.8698666    0.1178334   -3.4088461    1.5389795   577401 
 6569000    1.3511822   -3.4118374   -1.8706933   0.12260201   -3.4118374    1.5411441   577412 
 6570000    1.3510822   -3.4112609   -1.8702843   0.11736198   -3.4112609    1.5409767   577432 
 6571000    1.3507557   -3.4114024   -1.8708381   0.11720988   -3.4114024    1.5405642   577447 
 6572000    1.3498744   -3.4099855   -1.8704957   0.11505898   -3.4099855    1.5394898   577473 
 6573000     1.349476     -3.40844   -1.8694446   0.12138396     -3.40844    1.5389955   577488 
 6574000     1.349247   -3.4082313    -1.869457   0.12022239   -3.4082313    1.5387742   577473 
 6575000    1.3511303   -3.4109651   -1.8700911   0.11672516   -3.4109651     1.540874   577491 
 6576000    1.3503432   -3.4093933   -1.8695048   0.11992778   -3.4093933    1.5398885   577524 
 6577000    1.3502659   -3.4088933   -1.8691437   0.12324591   -3.4088933    1.5397496   577543 
 6578000    1.3512337   -3.4101601   -1.8693575   0.11948621   -3.4101601    1.5408026   577562 
 6579000    1.3519767   -3.4108204   -1.8692267    0.1182921   -3.4108204    1.5415937   577583 
 6580000    1.3527316   -3.4101742   -1.8677518   0.11936256   -3.4101742    1.5424224   577595 
 6581000     1.352403   -3.4098779   -1.8678701    0.1240315   -3.4098779    1.5420078   577610 
 6582000    1.3538122   -3.4108724   -1.8673114   0.11903337   -3.4108724     1.543561   577630 
 6583000    1.3531935   -3.4099282   -1.8671126   0.12147719   -3.4099282    1.5428156   577645 
 6584000    1.3533423   -3.4099632   -1.8670287    0.1201483   -3.4099632    1.5429345   577664 
 6585000    1.3528662   -3.4090304   -1.8666921   0.12656655   -3.4090304    1.5423383   577684 
 6586000    1.3548666   -3.4113427   -1.8667719   0.11666138   -3.4113427    1.5445708   577702 
 6587000    1.3518496   -3.4087018   -1.8675919    0.1233125   -3.4087018    1.5411099   577710 
 6588000    1.3527147   -3.4098544    -1.867809   0.11717071   -3.4098544    1.5420454   577729 
 6589000    1.3506743   -3.4086905   -1.8690243   0.12237392   -3.4086905    1.5396662   577749 
 6590000    1.3534858    -3.410801   -1.8679753   0.11829007    -3.410801    1.5428257   577766 
 6591000    1.3503802   -3.4081359   -1.8688609    0.1241515   -3.4081359     1.539275   577770 
 6592000    1.3537569   -3.4121653   -1.8690947   0.11657248   -3.4121653    1.5430706   577790 
 6593000    1.3508916   -3.4089552   -1.8691613    0.1186945   -3.4089552    1.5397939   577794 
 6594000    1.3543096   -3.4128618   -1.8692067   0.11379152   -3.4128618    1.5436551   577807 
 6595000    1.3518317    -3.410551   -1.8697842   0.12189412    -3.410551    1.5407668   577831 
 6596000    1.3510972   -3.4100257    -1.870096   0.12406213   -3.4100257    1.5399296   577831 
 6597000    1.3520885   -3.4106022   -1.8696014   0.12009939   -3.4106022    1.5410008   577853 
 6598000    1.3545547    -3.411395   -1.8676315   0.11841181    -3.411395    1.5437635   577871 
 6599000     1.352239    -3.409823   -1.8687493    0.1251099    -3.409823    1.5410737   577890 
 6600000    1.3525901   -3.4115985   -1.8701647   0.11884058   -3.4115985    1.5414339   577905 
 6601000    1.3533876   -3.4124439   -1.8701253   0.11848125   -3.4124439    1.5423186   577914 
 6602000    1.3529289   -3.4125647   -1.8708275   0.12030653   -3.4125647    1.5417372   577936 
 6603000    1.3530953   -3.4129473   -1.8710445   0.11675445   -3.4129473    1.5419028   577945 
 6604000    1.3535613   -3.4135647   -1.8711549   0.12034632   -3.4135647    1.5424098   577954 
 6605000    1.3531727   -3.4126462   -1.8707005   0.12226631   -3.4126462    1.5419457   577962 
 6606000    1.3530044   -3.4125038   -1.8707819   0.11684745   -3.4125038    1.5417219   577974 
 6607000    1.3522807   -3.4120793    -1.871198   0.11736058   -3.4120793    1.5408813   577980 
 6608000    1.3528767   -3.4132235   -1.8716765   0.11522135   -3.4132235     1.541547   577985 
 6609000    1.3523257   -3.4127665   -1.8718767   0.11921096   -3.4127665    1.5408898   577996 
 6610000    1.3527587   -3.4125809   -1.8712669   0.11658227   -3.4125809     1.541314   578022 
 6611000    1.3512814   -3.4111859   -1.8716005   0.12407703   -3.4111859    1.5395854   578039 
 6612000     1.354198   -3.4153504    -1.872506   0.12235738   -3.4153504    1.5428444   578063 
 6613000    1.3526875   -3.4135884   -1.8725156   0.12026436   -3.4135884    1.5410728   578082 
 6614000    1.3522782   -3.4128456    -1.872279   0.12217873   -3.4128456    1.5405666   578097 
 6615000    1.3512014   -3.4115003   -1.8721845   0.11860296   -3.4115003    1.5393158   578106 
 6616000    1.3510233   -3.4108606   -1.8717556     0.116186   -3.4108606     1.539105   578109 
 6617000    1.3510446   -3.4114424   -1.8723185   0.12653748   -3.4114424    1.5391239   578111 
 6618000    1.3527749   -3.4126324     -1.87158   0.12133926   -3.4126324    1.5410524   578127 
 6619000    1.3535219   -3.4132758   -1.8713777   0.11464986   -3.4132758    1.5418981   578129 
 6620000    1.3530882   -3.4129928   -1.8716234   0.11620109   -3.4129928    1.5413694   578142 
 6621000    1.3512169   -3.4121809   -1.8729884   0.11967764   -3.4121809    1.5391924   578159 
 6622000    1.3521492   -3.4130761    -1.872859   0.11752649   -3.4130761    1.5402171   578173 
 6623000    1.3518454   -3.4127882   -1.8729438   0.12140148   -3.4127882    1.5398444   578183 
 6624000    1.3530556   -3.4121755   -1.8710005   0.11946127   -3.4121755     1.541175   578201 
 6625000    1.3526825   -3.4124742   -1.8717322   0.12055671   -3.4124742     1.540742   578204 
 6626000    1.3512848   -3.4120794   -1.8729588   0.12407557   -3.4120794    1.5391206   578215 
 6627000      1.35417   -3.4148403   -1.8724414   0.11191549   -3.4148403    1.5423989   578218 
 6628000    1.3526259   -3.4135033   -1.8729164    0.1197436   -3.4135033    1.5405869   578238 
 6629000    1.3522701   -3.4124845   -1.8723401   0.12302432   -3.4124845    1.5401444   578252 
 6630000    1.3538694   -3.4150462   -1.8731097   0.11309935   -3.4150462    1.5419365   578263 
 6631000    1.3541975   -3.4146799   -1.8724257   0.11836375   -3.4146799    1.5422542   578284 
 6632000    1.3536132   -3.4139754   -1.8724079   0.12056525   -3.4139754    1.5415675   578292 
 6633000    1.3542836   -3.4139187   -1.8716518   0.12566712   -3.4139187     1.542267   578316 
 6634000    1.3552004   -3.4132341   -1.8699579   0.12361718   -3.4132341    1.5432763   578329 
 6635000     1.354041   -3.4132474   -1.8713287   0.11877541   -3.4132474    1.5419187   578343 
 6636000    1.3537942   -3.4131181   -1.8715124   0.12765224   -3.4131181    1.5416056   578355 
 6637000    1.3560284   -3.4156258   -1.8715161   0.11664066   -3.4156258    1.5441097   578370 
 6638000    1.3541514   -3.4140876   -1.8721525   0.12531412   -3.4140876    1.5419351   578384 
 6639000    1.3549057     -3.41583   -1.8731215   0.12327227     -3.41583    1.5427086   578416 
 6640000    1.3535215   -3.4145916    -1.873515   0.12229113   -3.4145916    1.5410766   578437 
 6641000    1.3527791   -3.4145053   -1.8743192   0.12601667   -3.4145053    1.5401861   578454 
 6642000    1.3546717   -3.4160407   -1.8737319   0.12451377   -3.4160407    1.5423088   578466 
 6643000    1.3555817    -3.417051   -1.8737621   0.11582566    -3.417051    1.5432889   578487 
 6644000    1.3547345   -3.4158125   -1.8735361   0.12551487   -3.4158125    1.5422764   578505 
 6645000    1.3543113   -3.4147774   -1.8729749   0.12662576   -3.4147774    1.5418025   578502 
 6646000    1.3541571   -3.4134529   -1.8718551   0.12648198   -3.4134529    1.5415978   578513 
 6647000    1.3536466   -3.4135986   -1.8725873   0.12243252   -3.4135986    1.5410113   578515 
 6648000    1.3540482   -3.4150255   -1.8735944   0.11987686   -3.4150255    1.5414311   578529 
 6649000    1.3536444   -3.4152964   -1.8743836   0.11917259   -3.4152964    1.5409128   578551 
 6650000    1.3547256   -3.4157797   -1.8736787   0.12280699   -3.4157797    1.5421009   578567 
 6651000    1.3536468    -3.415096   -1.8742471   0.11789821    -3.415096    1.5408489   578576 
 6652000    1.3541074   -3.4146385   -1.8732811   0.12134654   -3.4146385    1.5413573   578582 
 6653000    1.3540807    -3.414281    -1.873002    0.1292927    -3.414281     1.541279   578600 
 6654000    1.3548886   -3.4155167   -1.8733608   0.11352931   -3.4155167    1.5421559   578616 
 6655000    1.3545479   -3.4143626   -1.8726318   0.12284604   -3.4143626    1.5417308   578630 
 6656000    1.3542531   -3.4139864   -1.8726257   0.12434955   -3.4139864    1.5413607   578643 
 6657000    1.3546399   -3.4147452   -1.8729817   0.12141875   -3.4147452    1.5417635   578657 
 6658000    1.3552369   -3.4149545   -1.8725487   0.12006861   -3.4149545    1.5424057   578671 
 6659000    1.3534194   -3.4129552   -1.8726685   0.12899319   -3.4129552    1.5402866   578690 
 6660000    1.3538496   -3.4131035   -1.8723645   0.11856882   -3.4131035     1.540739   578704 
 6661000    1.3556502   -3.4152828   -1.8725453   0.11708124   -3.4152828    1.5427375   578723 
 6662000    1.3550574   -3.4155147   -1.8734732   0.12208407   -3.4155147    1.5420416   578731 
 6663000    1.3556568   -3.4152733   -1.8725923   0.12189569   -3.4152733     1.542681   578747 
 6664000    1.3561331   -3.4159874    -1.872831   0.12165548   -3.4159874    1.5431563   578772 
 6665000    1.3552172   -3.4159487   -1.8738586   0.12059451   -3.4159487    1.5420901   578781 
 6666000    1.3558642    -3.417153   -1.8743319   0.12152492    -3.417153    1.5428211   578783 
 6667000    1.3537019   -3.4154262   -1.8751561   0.12204386   -3.4154262    1.5402701   578817 
 6668000     1.355009   -3.4170075   -1.8753087   0.11493385   -3.4170075    1.5416988   578839 
 6669000     1.353687   -3.4153814   -1.8752373   0.12206727   -3.4153814    1.5401441   578858 
 6670000    1.3531796   -3.4143945   -1.8748915   0.12474756   -3.4143945    1.5395029   578882 
 6671000     1.354456   -3.4152861   -1.8744029    0.1243756   -3.4152861    1.5408832   578909 
 6672000    1.3532407   -3.4153686   -1.8759238   0.12183627   -3.4153686    1.5394448   578930 
 6673000    1.3548655   -3.4168357   -1.8755957   0.11886324   -3.4168357    1.5412399   578950 
 6674000    1.3541155   -3.4172236   -1.8769139   0.12415494   -3.4172236    1.5403096   578979 
 6675000    1.3560047   -3.4177087   -1.8752502   0.12242115   -3.4177087    1.5424585   578979 
 6676000    1.3534344   -3.4159189   -1.8763921   0.12184462   -3.4159189    1.5395268   578982 
 6677000    1.3549462   -3.4174071   -1.8762164   0.12407244   -3.4174071    1.5411907   579003 
 6678000    1.3555711   -3.4182553    -1.876383   0.12104254   -3.4182553    1.5418722   579014 
 6679000    1.3542373   -3.4167743   -1.8764352   0.12643036   -3.4167743     1.540339   579020 
 6680000    1.3528703    -3.416494   -1.8777549   0.12568053    -3.416494    1.5387391   579037 
 6681000    1.3550896   -3.4166727   -1.8754281   0.12155424   -3.4166727    1.5412447   579044 
 6682000    1.3563973   -3.4179189   -1.8752749   0.12065474   -3.4179189    1.5426441   579077 
 6683000    1.3553099   -3.4179669   -1.8766315   0.12146886   -3.4179669    1.5413354   579104 
 6684000    1.3555897   -3.4183397    -1.876726   0.12067818   -3.4183397    1.5416137   579119 
 6685000    1.3558237   -3.4187198   -1.8768773   0.11921694   -3.4187198    1.5418425   579133 
 6686000      1.35537   -3.4179767   -1.8766713   0.11650472   -3.4179767    1.5413054   579141 
 6687000    1.3557766   -3.4176686   -1.8759567   0.12048624   -3.4176686    1.5417119   579162 
 6688000    1.3556894   -3.4175398   -1.8759804   0.12172793   -3.4175398    1.5415594   579182 
 6689000    1.3568837   -3.4196535    -1.876752   0.12312123   -3.4196535    1.5429015   579188 
 6690000    1.3543098   -3.4169697   -1.8770428   0.12668579   -3.4169697    1.5399269   579206 
 6691000      1.35497   -3.4180081   -1.8773519   0.12251834   -3.4180081    1.5406562   579214 
 6692000    1.3551983   -3.4174071   -1.8765206   0.12311067   -3.4174071    1.5408866   579225 
 6693000    1.3552628    -3.417476   -1.8765426   0.12383998    -3.417476    1.5409334   579235 
 6694000    1.3541716   -3.4171776   -1.8775222   0.12199656   -3.4171776    1.5396555   579249 
 6695000    1.3523697   -3.4165407   -1.8789526   0.12326278   -3.4165407    1.5375882   579256 
 6696000    1.3519565   -3.4167041   -1.8796122   0.12339099   -3.4167041    1.5370918   579266 
 6697000    1.3528887   -3.4179711   -1.8798592    0.1214212   -3.4179711    1.5381118   579281 
 6698000    1.3547017   -3.4194071   -1.8792448   0.12205233   -3.4194071    1.5401624   579285 
 6699000    1.3543023   -3.4195178   -1.8798148   0.11972156   -3.4195178     1.539703   579287 
 6700000    1.3545593   -3.4204127   -1.8804601   0.12275771   -3.4204127    1.5399526   579303 
 6701000    1.3558907   -3.4211935   -1.8797617   0.12333842   -3.4211935    1.5414318   579316 
 6702000    1.3536028   -3.4198296   -1.8810334   0.12000105   -3.4198296    1.5387962   579329 
 6703000    1.3535766   -3.4204482   -1.8817189   0.12720425   -3.4204482    1.5387293   579343 
 6704000     1.355102   -3.4216522   -1.8812501   0.12163448   -3.4216522    1.5404021   579366 
 6705000    1.3542602   -3.4213077   -1.8818997   0.11906368   -3.4213077    1.5394081   579380 
 6706000    1.3554149   -3.4208948   -1.8801848   0.12030169   -3.4208948      1.54071   579384 
 6707000    1.3541969    -3.419976   -1.8807462     0.126081    -3.419976    1.5392299   579420 
 6708000    1.3549237   -3.4214109   -1.8813975   0.12114715   -3.4214109    1.5400134   579436 
 6709000    1.3548753   -3.4204807   -1.8805091    0.1230626   -3.4204807    1.5399716   579431 
 6710000    1.3548062   -3.4201632   -1.8802967   0.12013652   -3.4201632    1.5398665   579441 
 6711000    1.3557036   -3.4209023   -1.8800663   0.12357008   -3.4209023     1.540836   579460 
 6712000     1.354363   -3.4199143   -1.8806551   0.12648125   -3.4199143    1.5392592   579480 
 6713000     1.356156   -3.4217118   -1.8804281   0.11766563   -3.4217118    1.5412836   579485 
 6714000    1.3551869   -3.4215025   -1.8813627   0.11764717   -3.4215025    1.5401398   579501 
 6715000    1.3546697   -3.4216422   -1.8821088   0.12700552   -3.4216422    1.5395334   579508 
 6716000    1.3543146   -3.4202002   -1.8810916   0.12203847   -3.4202002    1.5391085   579516 
 6717000     1.354703   -3.4203686   -1.8808691    0.1249992   -3.4203686    1.5394995   579535 
 6718000    1.3555736   -3.4218966   -1.8814343   0.11530521   -3.4218966    1.5404623   579545 
 6719000    1.3561193    -3.421418   -1.8803834   0.11793602    -3.421418    1.5410346   579563 
 6720000    1.3543055   -3.4189202   -1.8799599   0.11827382   -3.4189202    1.5389602   579568 
 6721000    1.3562532   -3.4212784   -1.8801555   0.12431213   -3.4212784    1.5411229   579587 
 6722000    1.3549915   -3.4204669   -1.8807936   0.12026793   -3.4204669    1.5396733   579593 
 6723000    1.3551446   -3.4203322   -1.8805354   0.12698883   -3.4203322    1.5397967   579612 
 6724000    1.3547386   -3.4196362   -1.8803141   0.12187056   -3.4196362    1.5393222   579617 
 6725000    1.3551944   -3.4215774   -1.8817613    0.1161215   -3.4215774    1.5398162   579626 
 6726000    1.3556367   -3.4204496    -1.880184   0.11999597   -3.4204496    1.5402656   579646 
 6727000     1.355607   -3.4207868   -1.8805788   0.12462702   -3.4207868     1.540208   579655 
 6728000    1.3548295   -3.4196073   -1.8803013   0.12276143   -3.4196073     1.539306   579662 
 6729000    1.3552958   -3.4199709    -1.880159   0.12484545   -3.4199709    1.5398118   579671 
 6730000    1.3563375   -3.4214054   -1.8804526   0.11399114   -3.4214054    1.5409528   579687 
 6731000    1.3552625   -3.4199601   -1.8802392   0.12114977   -3.4199601    1.5397209   579691 
 6732000    1.3557361   -3.4209362   -1.8807065    0.1218642   -3.4209362    1.5402297   579702 
 6733000    1.3538045   -3.4187868   -1.8807755   0.12499263   -3.4187868    1.5380113   579711 
 6734000    1.3560537   -3.4213436    -1.880793   0.12052801   -3.4213436    1.5405507   579717 
 6735000    1.3565352   -3.4219449   -1.8808738   0.12619134   -3.4219449    1.5410711   579727 
 6736000    1.3554958   -3.4207137   -1.8808712   0.12436752   -3.4207137    1.5398425   579745 
 6737000    1.3541812   -3.4198006   -1.8815046   0.12563454   -3.4198006     1.538296   579765 
 6738000    1.3544368   -3.4189407   -1.8803808   0.11946169   -3.4189407    1.5385598   579775 
 6739000    1.3562686   -3.4219854    -1.881382   0.12304161   -3.4219854    1.5406034   579789 
 6740000    1.3564884   -3.4220658   -1.8812472   0.12393553   -3.4220658    1.5408186   579802 
 6741000    1.3560121    -3.422074   -1.8818045   0.12421216    -3.422074    1.5402696   579805 
 6742000    1.3558173   -3.4209015   -1.8808877   0.12059635   -3.4209015    1.5400138   579818 
 6743000    1.3565556   -3.4220559   -1.8812274   0.11856258   -3.4220559    1.5408284   579827 
 6744000    1.3545519   -3.4191126   -1.8805919   0.12599376   -3.4191126    1.5385208   579839 
 6745000    1.3555743   -3.4213726    -1.881757   0.12295416   -3.4213726    1.5396157   579864 
 6746000    1.3551247   -3.4205222   -1.8814224   0.11755805   -3.4205222    1.5390997   579866 
 6747000    1.3554466   -3.4213853   -1.8819758   0.12203234   -3.4213853    1.5394096   579887 
 6748000    1.3554226   -3.4208805   -1.8815487   0.11467508   -3.4208805    1.5393318   579906 
 6749000    1.3551339   -3.4198706   -1.8808957   0.12676764   -3.4198706    1.5389748   579917 
 6750000    1.3557382   -3.4213566   -1.8817327   0.12552661   -3.4213566    1.5396239   579931 
 6751000    1.3554668   -3.4217061   -1.8824063   0.11746299   -3.4217061    1.5392998   579937 
 6752000    1.3549362   -3.4203654   -1.8817107   0.12430015   -3.4203654    1.5386547   579953 
 6753000    1.3560569   -3.4226612   -1.8827684   0.12014425   -3.4226612    1.5398929   579966 
 6754000    1.3546653   -3.4207549   -1.8824636   0.11985045   -3.4207549    1.5382914   579974 
 6755000    1.3557598   -3.4219212   -1.8824241   0.11585757   -3.4219212    1.5394971   579988 
 6756000    1.3554474   -3.4223775   -1.8832643   0.11962553   -3.4223775    1.5391132   579999 
 6757000    1.3548092   -3.4227697   -1.8844555   0.12024899   -3.4227697    1.5383142   580027 
 6758000    1.3541297   -3.4212602   -1.8837573   0.12239258   -3.4212602     1.537503   580042 
 6759000    1.3562104   -3.4235947   -1.8837293   0.11282456   -3.4235947    1.5398654   580042 
 6760000    1.3559528   -3.4235779   -1.8840395   0.11933379   -3.4235779    1.5395384   580055 
 6761000    1.3571633   -3.4235124   -1.8826501   0.12463111   -3.4235124    1.5408623   580074 
 6762000    1.3556506   -3.4228868   -1.8837712   0.12474634   -3.4228868    1.5391156   580085 
 6763000    1.3574798   -3.4243508   -1.8831982   0.11769373   -3.4243508    1.5411526   580100 
 6764000    1.3574123   -3.4248669   -1.8838334   0.12108821   -3.4248669    1.5410334   580116 
 6765000    1.3566426   -3.4232179   -1.8830874   0.12549025   -3.4232179    1.5401305   580127 
 6766000    1.3557045   -3.4232384    -1.884226   0.12178162   -3.4232384    1.5390124   580147 
 6767000    1.3566619   -3.4246189    -1.884594   0.11859018   -3.4246189     1.540025   580175 
 6768000    1.3565503   -3.4250915   -1.8851959   0.12194833   -3.4250915    1.5398956   580176 
 6769000    1.3564538   -3.4254296   -1.8856701   0.11099341   -3.4254296    1.5397595   580186 
 6770000     1.355618   -3.4238568   -1.8851097   0.12388177   -3.4238568    1.5387471   580210 
 6771000    1.3566161   -3.4248709   -1.8850308   0.11809575   -3.4248709    1.5398402   580225 
 6772000    1.3551257   -3.4226973   -1.8845805   0.11956398   -3.4226973    1.5381168   580237 
 6773000    1.3559415   -3.4240059   -1.8849817   0.12423996   -3.4240059    1.5390242   580244 
 6774000    1.3547943   -3.4224714   -1.8847759   0.12279256   -3.4224714    1.5376955   580254 
 6775000    1.3558078   -3.4233605   -1.8845173   0.12204441   -3.4233605    1.5388432   580255 
 6776000    1.3563088   -3.4241888   -1.8848008   0.11991581   -3.4241888     1.539388   580264 
 6777000    1.3561207   -3.4241535    -1.885024   0.11731196   -3.4241535    1.5391294   580281 
 6778000    1.3552299   -3.4243059   -1.8862247   0.12069407   -3.4243059    1.5380812   580295 
 6779000    1.3557559   -3.4242847   -1.8856462    0.1215584   -3.4242847    1.5386385   580310 
 6780000     1.355879   -3.4254864     -1.88674   0.12277487   -3.4254864    1.5387463   580322 
 6781000    1.3585628   -3.4261606   -1.8843977   0.12434801   -3.4261606    1.5417629   580333 
 6782000    1.3572153   -3.4253068   -1.8850918   0.12098324   -3.4253068    1.5402151   580340 
 6783000    1.3560465   -3.4244735    -1.885614    0.1251727   -3.4244735    1.5388595   580351 
 6784000    1.3549631   -3.4229657    -1.885386   0.12458587   -3.4229657    1.5375797   580370 
 6785000     1.357732   -3.4251015   -1.8843902   0.12019429   -3.4251015    1.5407112   580374 
 6786000     1.357167   -3.4252055   -1.8851514    0.1204365   -3.4252055    1.5400541   580380 
 6787000    1.3547781   -3.4228115   -1.8854894   0.12427526   -3.4228115    1.5373221   580388 
 6788000    1.3565031   -3.4258918   -1.8866335   0.11734771   -3.4258918    1.5392583   580396 
 6789000     1.356919   -3.4260354   -1.8863211   0.11761449   -3.4260354    1.5397143   580402 
 6790000    1.3555923   -3.4256927   -1.8875156   0.12191817   -3.4256927    1.5381772   580414 
 6791000    1.3550753   -3.4240923   -1.8865654   0.12497496   -3.4240923    1.5375269   580438 
 6792000    1.3565291   -3.4257178   -1.8865838   0.12018592   -3.4257178     1.539134   580454 
 6793000    1.3567783    -3.426554   -1.8871797   0.11781717    -3.426554    1.5393743   580470 
 6794000    1.3544754   -3.4248664   -1.8881393   0.11725196   -3.4248664    1.5367271   580483 
 6795000    1.3556313    -3.425942    -1.887938   0.12224164    -3.425942     1.538004   580496 
 6796000    1.3570941   -3.4271447   -1.8875527   0.12262166   -3.4271447     1.539592   580523 
 6797000    1.3552676   -3.4259743   -1.8885233   0.11836018   -3.4259743     1.537451   580549 
 6798000    1.3568688   -3.4268231   -1.8876165   0.12198083   -3.4268231    1.5392066   580572 
 6799000    1.3564075   -3.4259179   -1.8872849   0.12011133   -3.4259179     1.538633   580591 
 6800000    1.3555035   -3.4256734   -1.8881163   0.12097356   -3.4256734    1.5375571   580610 
 6801000     1.355665   -3.4248875   -1.8871286   0.12185736   -3.4248875    1.5377589   580603 
 6802000    1.3557013   -3.4256221   -1.8878115   0.12005218   -3.4256221    1.5378107   580599 
 6803000    1.3552899   -3.4263482   -1.8890492   0.11931565   -3.4263482     1.537299   580616 
 6804000    1.3557667   -3.4279294   -1.8901372    0.1210716   -3.4279294    1.5377922   580634 
 6805000    1.3551213   -3.4272045    -1.890147   0.12664587   -3.4272045    1.5370575   580635 
 6806000    1.3567287   -3.4286536   -1.8898234   0.11648464   -3.4286536    1.5388303   580654 
 6807000    1.3548644    -3.426218   -1.8895287   0.11630901    -3.426218    1.5366893   580664 
 6808000    1.3551782   -3.4264995   -1.8894569   0.11752546   -3.4264995    1.5370426   580665 
 6809000    1.3536553   -3.4252221   -1.8899438   0.11999738   -3.4252221    1.5352783   580679 
 6810000    1.3567087   -3.4280117   -1.8893128   0.11987087   -3.4280117    1.5386989   580695 
 6811000    1.3561029   -3.4275505   -1.8895546   0.11819961   -3.4275505     1.537996   580701 
 6812000    1.3561767   -3.4268713   -1.8888075   0.11738196   -3.4268713    1.5380638   580707 
 6813000    1.3569482   -3.4284412    -1.889513   0.11673976   -3.4284412    1.5389282   580711 
 6814000    1.3555601   -3.4272167   -1.8898839    0.1212921   -3.4272167    1.5373328   580719 
 6815000    1.3560426   -3.4282067   -1.8903691   0.12474278   -3.4282067    1.5378375   580735 
 6816000    1.3553918   -3.4271702   -1.8900892   0.12189872   -3.4271702     1.537081   580742 
 6817000    1.3562367   -3.4285528   -1.8905323   0.12330334   -3.4285528    1.5380206   580749 
 6818000    1.3584246   -3.4300369   -1.8895775   0.12189582   -3.4300369    1.5404593   580765 
 6819000    1.3556193   -3.4272964   -1.8900845   0.12627227   -3.4272964    1.5372119   580790 
 6820000    1.3556757   -3.4275069   -1.8902866   0.12800877   -3.4275069    1.5372203   580811 
 6821000    1.3558002   -3.4268742   -1.8895472   0.12142283   -3.4268742     1.537327   580824 
 6822000    1.3567019   -3.4273185   -1.8890087   0.11765419   -3.4273185    1.5383098   580839 
 6823000     1.356733   -3.4276027   -1.8893292   0.12255968   -3.4276027    1.5382736   580866 
 6824000    1.3572391   -3.4279239   -1.8891136   0.12595707   -3.4279239    1.5388103   580880 
 6825000     1.357621   -3.4274065   -1.8881712   0.12287264   -3.4274065    1.5392353   580883 
 6826000    1.3583316   -3.4290497   -1.8890167   0.12077229   -3.4290497     1.540033   580886 
 6827000    1.3570423   -3.4278617   -1.8892879   0.11700749   -3.4278617    1.5385738   580885 
 6828000    1.3571772   -3.4276936   -1.8890436   0.11676949   -3.4276936      1.53865   580914 
 6829000    1.3572642   -3.4279598   -1.8892721   0.11606176   -3.4279598    1.5386877   580937 
 6830000     1.356255   -3.4265436   -1.8890847   0.12005129   -3.4265436     1.537459   580969 
 6831000     1.357823   -3.4285895    -1.889422    0.1219977   -3.4285895    1.5391675   580995 
 6832000    1.3585546   -3.4295595   -1.8896131    0.1210953   -3.4295595    1.5399464   581014 
 6833000    1.3573164   -3.4284121    -1.889885   0.11921916   -3.4284121    1.5385271   581020 
 6834000    1.3576335    -3.427581   -1.8887369   0.12515212    -3.427581    1.5388442   581036 
 6835000    1.3586449   -3.4279775   -1.8879976   0.12473504   -3.4279775    1.5399799   581040 
 6836000    1.3571281   -3.4277253   -1.8895122   0.12218781   -3.4277253    1.5382131   581058 
 6837000    1.3574145   -3.4283075   -1.8898201   0.12283338   -3.4283075    1.5384874   581077 
 6838000    1.3572287   -3.4282355   -1.8899586   0.12623328   -3.4282355    1.5382768   581077 
 6839000    1.3583149   -3.4287559   -1.8892692     0.121017   -3.4287559    1.5394867   581085 
 6840000    1.3581099   -3.4293629   -1.8901801   0.11945205   -3.4293629    1.5391828   581112 
 6841000    1.3587201   -3.4299712   -1.8901392   0.12254517   -3.4299712     1.539832   581128 
 6842000    1.3588703   -3.4305435   -1.8905652    0.1198635   -3.4305435    1.5399783   581137 
 6843000    1.3583674   -3.4299843   -1.8905944   0.12495408   -3.4299843    1.5393899   581144 
 6844000    1.3575205   -3.4305579   -1.8921807   0.12204874   -3.4305579    1.5383772   581164 
 6845000    1.3579041   -3.4305875   -1.8918127   0.12184577   -3.4305875    1.5387748   581178 
 6846000    1.3566603   -3.4292707   -1.8918894   0.12021315   -3.4292707    1.5373812   581172 
 6847000    1.3583261   -3.4311564   -1.8919167   0.12076447   -3.4311564    1.5392397   581183 
 6848000    1.3587386    -3.429648   -1.8899938   0.11938406    -3.429648    1.5396542   581203 
 6849000    1.3581493   -3.4296341   -1.8906635   0.12188937   -3.4296341    1.5389706   581209 
 6850000    1.3562041   -3.4292182   -1.8924756   0.12089743   -3.4292182    1.5367426   581218 
 6851000    1.3565346   -3.4278388    -1.890756   0.12199977   -3.4278388    1.5370828   581231 
 6852000    1.3588556   -3.4299249   -1.8902519   0.12438421   -3.4299249    1.5396729   581246 
 6853000    1.3597757   -3.4305036   -1.8898305   0.12359117   -3.4305036     1.540673   581262 
 6854000     1.358869    -3.429842   -1.8902386   0.12243448    -3.429842    1.5396034   581278 
 6855000    1.3581627   -3.4286377   -1.8898849   0.12173924   -3.4286377    1.5387528   581297 
 6856000    1.3591739   -3.4300848   -1.8902182   0.11881868   -3.4300848    1.5398666   581309 
 6857000      1.35858    -3.429008   -1.8898327   0.12113644    -3.429008    1.5391753   581316 
 6858000    1.3582526   -3.4294496   -1.8906849   0.11719591   -3.4294496    1.5387647   581331 
 6859000    1.3561179   -3.4270412   -1.8907532   0.12352647   -3.4270412    1.5362881   581353 
 6860000    1.3561477      -3.4279   -1.8916469    0.1218195      -3.4279    1.5362531   581379 
 6861000    1.3563282   -3.4281287   -1.8917108   0.12110677   -3.4281287    1.5364179   581394 
 6862000    1.3570856   -3.4276038   -1.8903886   0.12549188   -3.4276038    1.5372151   581417 
 6863000    1.3594344   -3.4297601   -1.8899374   0.12234134   -3.4297601    1.5398227   581437 
 6864000    1.3575426    -3.427363   -1.8897254   0.11928637    -3.427363    1.5376376   581453 
 6865000    1.3591717   -3.4290168   -1.8895446   0.12294462   -3.4290168    1.5394722   581457 
 6866000    1.3581639   -3.4281857   -1.8899026   0.12470629   -3.4281857    1.5382831   581475 
 6867000    1.3602452    -3.429845   -1.8892443   0.12017077    -3.429845    1.5406007   581490 
 6868000    1.3603246    -3.430639   -1.8899749    0.1211653    -3.430639    1.5406641   581500 
 6869000    1.3591476   -3.4301444   -1.8908291   0.12543473   -3.4301444    1.5393152   581506 
 6870000    1.3605744   -3.4313244   -1.8904462   0.12664009   -3.4313244    1.5408781   581526 
 6871000    1.3604642   -3.4311343   -1.8904074   0.12284786   -3.4311343    1.5407269   581536 
 6872000    1.3619733   -3.4325172   -1.8901821   0.12520327   -3.4325172    1.5423351   581574 
 6873000    1.3590026   -3.4302704   -1.8913682   0.12317346   -3.4302704    1.5389022   581600 
 6874000    1.3599051   -3.4318506   -1.8919873   0.12479592   -3.4318506    1.5398633   581623 
 6875000    1.3591477    -3.431923   -1.8929412   0.12346845    -3.431923    1.5389819   581632 
 6876000    1.3593207   -3.4325461   -1.8934293    0.1189283   -3.4325461    1.5391168   581655 
 6877000    1.3591557   -3.4329167   -1.8940184   0.12139782   -3.4329167    1.5388983   581667 
 6878000    1.3581937    -3.431619   -1.8938469   0.12146157    -3.431619    1.5377721   581681 
 6879000    1.3571705   -3.4314027   -1.8948631   0.11902865   -3.4314027    1.5365396   581709 
 6880000    1.3583206   -3.4320925   -1.8942746   0.12308945   -3.4320925     1.537818   581718 
 6881000    1.3588375    -3.432169   -1.8938003   0.12009771    -3.432169    1.5383687   581731 
 6882000    1.3594795   -3.4331233   -1.8940435   0.12265276   -3.4331233    1.5390797   581737 
 6883000    1.3579246   -3.4317543   -1.8944561   0.12821359   -3.4317543    1.5372982   581745 
 6884000    1.3588624   -3.4325816   -1.8942719   0.12509378   -3.4325816    1.5383097   581764 
 6885000    1.3573603   -3.4316237   -1.8950673   0.12756827   -3.4316237    1.5365564   581784 
 6886000    1.3589983   -3.4324757    -1.894118   0.12532056   -3.4324757    1.5383577   581804 
 6887000    1.3579595   -3.4326964   -1.8955779    0.1268865   -3.4326964    1.5371184   581828 
 6888000    1.3580651    -3.432192   -1.8949725   0.12427889    -3.432192    1.5372194   581835 
 6889000    1.3565216   -3.4305631   -1.8951197   0.12911034   -3.4305631    1.5354434   581846 
 6890000    1.3599815    -3.433945   -1.8946383   0.12662996    -3.433945    1.5393067   581866 
 6891000    1.3596118   -3.4335802   -1.8947448   0.12135682   -3.4335802    1.5388353   581886 
 6892000    1.3590782   -3.4326493   -1.8944496   0.11873769   -3.4326493    1.5381997   581898 
 6893000    1.3590252   -3.4330253   -1.8949437   0.12887463   -3.4330253    1.5380816   581920 
 6894000    1.3583001   -3.4317185   -1.8945051   0.12204656   -3.4317185    1.5372134   581938 
 6895000    1.3582694   -3.4312323   -1.8940827   0.12344004   -3.4312323    1.5371496   581949 
 6896000    1.3600774   -3.4330552   -1.8939204   0.12204695   -3.4330552    1.5391349   581972 
 6897000    1.3590723   -3.4325672   -1.8946226   0.12110092   -3.4325672    1.5379446   581992 
 6898000    1.3580258   -3.4313852    -1.894654   0.12541104   -3.4313852    1.5367312   582003 
 6899000    1.3586211    -3.432132   -1.8947773   0.12381371    -3.432132    1.5373547   582022 
 6900000    1.3583222    -3.432165   -1.8951933   0.12144076    -3.432165    1.5369717   582039 
 6901000    1.3582341   -3.4325155   -1.8956673   0.12541889   -3.4325155    1.5368482   582048 
 6902000    1.3601499   -3.4338764   -1.8949029   0.12675747   -3.4338764    1.5389735   582064 
 6903000    1.3596673   -3.4332498   -1.8949095   0.12381093   -3.4332498    1.5383403   582097 
 6904000    1.3596689   -3.4327983   -1.8945222   0.12278283   -3.4327983    1.5382761   582122 
 6905000    1.3608162   -3.4335724   -1.8940618   0.12591247   -3.4335724    1.5395106   582146 
 6906000    1.3605624   -3.4342354   -1.8950674    0.1194247   -3.4342354     1.539168   582167 
 6907000    1.3599991     -3.43408   -1.8955968   0.12746458     -3.43408    1.5384832   582185 
 6908000    1.3595755   -3.4334538   -1.8954921   0.12419842   -3.4334538    1.5379617   582201 
 6909000    1.3580082   -3.4325874   -1.8964198   0.12493099   -3.4325874    1.5361676   582209 
 6910000    1.3593745   -3.4333062   -1.8956168   0.12661795   -3.4333062    1.5376894   582218 
 6911000    1.3592324   -3.4337903   -1.8962827   0.12428385   -3.4337903    1.5375076   582226 
 6912000    1.3606566   -3.4349436   -1.8958409   0.11688811   -3.4349436    1.5391027   582232 
 6913000    1.3606283   -3.4357982   -1.8967302    0.1201925   -3.4357982     1.539068   582233 
 6914000    1.3599388   -3.4354147    -1.897161   0.11878213   -3.4354147    1.5382537   582246 
 6915000    1.3600501   -3.4360739   -1.8977656   0.11803113   -3.4360739    1.5383083   582273 
 6916000    1.3590628   -3.4344861   -1.8973262   0.12428607   -3.4344861      1.53716   582285 
 6917000    1.3597124   -3.4346257   -1.8967971    0.1265022   -3.4346257    1.5378286   582310 
 6918000    1.3593051   -3.4332361   -1.8959157    0.1283483   -3.4332361    1.5373204   582328 
 6919000    1.3620373   -3.4357599   -1.8954261   0.12193886   -3.4357599    1.5403338   582357 
 6920000     1.361295   -3.4354933   -1.8960228   0.12453377   -3.4354933    1.5394705   582366 
 6921000    1.3607445    -3.434302   -1.8955254   0.12308404    -3.434302    1.5387766   582393 
 6922000    1.3601088   -3.4351319   -1.8971086   0.12540887   -3.4351319    1.5380234   582406 
 6923000    1.3605663   -3.4358651   -1.8973454   0.12254722   -3.4358651    1.5385196   582414 
 6924000    1.3593432   -3.4349551   -1.8978107   0.12303025   -3.4349551    1.5371444   582411 
 6925000     1.360345   -3.4347917   -1.8965725    0.1235554   -3.4347917    1.5382192   582433 
 6926000    1.3610959   -3.4355264   -1.8964819   0.12126895   -3.4355264    1.5390445   582442 
 6927000    1.3608719   -3.4353197   -1.8965787   0.12094793   -3.4353197     1.538741   582461 
 6928000    1.3617874   -3.4350721   -1.8953119   0.11708809   -3.4350721    1.5397602   582467 
 6929000    1.3617264   -3.4346551   -1.8950061    0.1222552   -3.4346551    1.5396491   582483 
 6930000    1.3606031   -3.4349209      -1.8966   0.11909361   -3.4349209    1.5383209   582505 
 6931000    1.3615296   -3.4362366   -1.8969052   0.11846798   -3.4362366    1.5393314   582519 
 6932000    1.3600277   -3.4358466   -1.8982581   0.12163449   -3.4358466    1.5375885   582536 
 6933000    1.3596821   -3.4364418   -1.8992783   0.12101728   -3.4364418    1.5371635   582549 
 6934000    1.3602189   -3.4364172   -1.8986626   0.11559919   -3.4364172    1.5377545   582555 
 6935000    1.3617032   -3.4371101   -1.8977252    0.1224212   -3.4371101    1.5393849   582573 
 6936000    1.3604653   -3.4349313   -1.8969855   0.12635219   -3.4349313    1.5379459   582588 
 6937000     1.359848   -3.4353052   -1.8980992   0.13035923   -3.4353052    1.5372059   582604 
 6938000    1.3602981   -3.4347627   -1.8970824   0.12143968   -3.4347627    1.5376803   582617 
 6939000    1.3641491   -3.4386058   -1.8965987   0.11925316   -3.4386058    1.5420071   582627 
 6940000    1.3614753   -3.4353858   -1.8964328   0.12322188   -3.4353858    1.5389529   582639 
 6941000    1.3612246   -3.4351018   -1.8964877    0.1311057   -3.4351018    1.5386141   582660 
 6942000    1.3607805   -3.4355917   -1.8975244      0.12291   -3.4355917    1.5380673   582677 
 6943000     1.360105   -3.4345836   -1.8973353   0.13237252   -3.4345836    1.5372483   582698 
 6944000    1.3607991   -3.4368445   -1.8988776   0.11929079   -3.4368445    1.5379669   582723 
 6945000    1.3601158   -3.4365739   -1.8994004   0.12854055   -3.4365739    1.5371735   582731 
 6946000    1.3579142    -3.434679   -1.9000331   0.12252888    -3.434679    1.5346459   582746 
 6947000    1.3597172   -3.4367265   -1.9000984   0.11845039   -3.4367265    1.5366281   582767 
 6948000    1.3602196   -3.4368667   -1.8996919   0.12427462   -3.4368667    1.5371748   582775 
 6949000    1.3601459   -3.4369322   -1.8998697   0.12115937   -3.4369322    1.5370624   582786 
 6950000    1.3593187   -3.4363698   -1.9003081   0.12339239   -3.4363698    1.5360617   582811 
 6951000    1.3592364   -3.4356592   -1.8997195   0.12170148   -3.4356592    1.5359398   582822 
 6952000    1.3613568   -3.4378465   -1.8995159   0.12556472   -3.4378465    1.5383306   582824 
 6953000    1.3589403    -3.435822   -1.9002669   0.12480757    -3.435822    1.5355551   582841 
 6954000    1.3608644   -3.4374839   -1.8998074   0.12245832   -3.4374839    1.5376765   582861 
 6955000    1.3607823   -3.4377294   -1.9001879   0.12174982   -3.4377294    1.5375415   582877 
 6956000    1.3611391   -3.4366088   -1.8987169   0.12140818   -3.4366088    1.5378919   582897 
 6957000    1.3614972   -3.4378734   -1.8995874   0.12107251   -3.4378734     1.538286   582901 
 6958000    1.3607198   -3.4374581    -1.900098   0.12605215   -3.4374581    1.5373601   582919 
 6959000    1.3612697   -3.4387872   -1.9008269   0.12091392   -3.4387872    1.5379603   582927 
 6960000     1.360797   -3.4373064   -1.8998854   0.12737268   -3.4373064     1.537421   582929 
 6961000    1.3607328   -3.4374803   -1.9001661   0.12306562   -3.4374803    1.5373142   582942 
 6962000    1.3606079   -3.4371911   -1.9000654    0.1249722   -3.4371911    1.5371257   582960 
 6963000    1.3598292   -3.4382574   -1.9020668   0.12133102   -3.4382574    1.5361906   582981 
 6964000    1.3598707   -3.4390521   -1.9028094   0.12038631   -3.4390521    1.5362427   582979 
 6965000    1.3603308   -3.4389693   -1.9022647   0.12039712   -3.4389693    1.5367045   583001 
 6966000    1.3609683   -3.4390136   -1.9016602   0.12508957   -3.4390136    1.5373534   583028 
 6967000    1.3611004   -3.4393715   -1.9019083   0.11961393   -3.4393715    1.5374631   583043 
 6968000    1.3594069   -3.4374068   -1.9018935   0.12487605   -3.4374068    1.5355133   583057 
 6969000    1.3614153   -3.4401418   -1.9023889    0.1207872   -3.4401418    1.5377529   583068 
 6970000    1.3621976   -3.4396287   -1.9010396    0.1197943   -3.4396287    1.5385891   583086 
 6971000    1.3599557   -3.4379812   -1.9019613   0.12573697   -3.4379812      1.53602   583100 
 6972000    1.3609616   -3.4397206   -1.9026568   0.12455162   -3.4397206    1.5370638   583135 
 6973000    1.3622493    -3.441016   -1.9025453   0.11897041    -3.441016    1.5384706   583153 
 6974000    1.3622864   -3.4401021   -1.9016238   0.11816158   -3.4401021    1.5384782   583166 
 6975000    1.3620649   -3.4397647   -1.9015498   0.12447321   -3.4397647    1.5382149   583171 
 6976000    1.3608258   -3.4393316   -1.9025766   0.12907751   -3.4393316     1.536755   583194 
 6977000    1.3600116   -3.4388579   -1.9030408   0.12620906   -3.4388579    1.5358171   583201 
 6978000    1.3615588   -3.4404006   -1.9028495    0.1231339   -3.4404006    1.5375511   583206 
 6979000     1.360812   -3.4387839   -1.9021262   0.12315972   -3.4387839    1.5366577   583225 
 6980000    1.3614385   -3.4388898   -1.9015879    0.1221672   -3.4388898    1.5373019   583249 
 6981000    1.3599609   -3.4380871   -1.9024932    0.1233728   -3.4380871    1.5355939   583264 
 6982000    1.3618985    -3.440033   -1.9022724   0.12016369    -3.440033    1.5377607   583272 
 6983000    1.3602229   -3.4370222   -1.9011719   0.12673016   -3.4370222    1.5358503   583279 
 6984000    1.3614386   -3.4387848   -1.9015804   0.12000065   -3.4387848    1.5372044   583286 
 6985000    1.3620255    -3.439493   -1.9016522    0.1218409    -3.439493    1.5378408   583296 
 6986000    1.3618477   -3.4387622   -1.9011406   0.12421126   -3.4387622    1.5376216   583303 
 6987000    1.3647638   -3.4422007   -1.9013105    0.1238511   -3.4422007    1.5408902   583312 
 6988000    1.3599491   -3.4366872   -1.9012829   0.12240474   -3.4366872    1.5354043   583331 
 6989000    1.3622505   -3.4394016    -1.901407   0.12428096   -3.4394016    1.5379946   583334 
 6990000    1.3615811   -3.4388847   -1.9016775   0.11769054   -3.4388847    1.5372072   583346 
 6991000    1.3611749   -3.4375495   -1.9008325   0.12233718   -3.4375495    1.5367171   583358 
 6992000    1.3611282    -3.439055   -1.9024091   0.12332476    -3.439055    1.5366459   583365 
 6993000    1.3619393   -3.4401608   -1.9026677    0.1277064   -3.4401608     1.537493   583391 
 6994000    1.3623174   -3.4409095   -1.9030502   0.12185528   -3.4409095    1.5378593   583414 
 6995000    1.3620551   -3.4410896   -1.9035739   0.12077269   -3.4410896    1.5375157   583432 
 6996000    1.3617561   -3.4409612   -1.9038594   0.12547958   -3.4409612    1.5371018   583461 
 6997000    1.3620841     -3.44005   -1.9025964   0.12016078     -3.44005    1.5374536   583468 
 6998000     1.362083   -3.4421916   -1.9047867   0.11839777   -3.4421916     1.537405   583486 
 6999000    1.3611945   -3.4405305    -1.904189   0.12352261   -3.4405305    1.5363415   583509 
 7000000    1.3621778   -3.4405204   -1.9031245   0.12005581   -3.4405204     1.537396   583530 
 7001000     1.362661   -3.4416958   -1.9037782   0.12151466   -3.4416958    1.5379176   583539 
 7002000    1.3622349   -3.4415219   -1.9041116   0.12534031   -3.4415219    1.5374104   583549 
 7003000    1.3624308   -3.4417479   -1.9042087   0.12476571   -3.4417479    1.5375393   583584 
 7004000    1.3619737   -3.4414429   -1.9044721   0.12710055   -3.4414429    1.5369707   583604 
 7005000    1.3639823   -3.4433611   -1.9041579   0.12464521   -3.4433611    1.5392031   583617 
 7006000    1.3627417   -3.4421865   -1.9044044   0.12475969   -3.4421865    1.5377821   583625 
 7007000    1.3631549   -3.4436582   -1.9054679   0.12737802   -3.4436582    1.5381903   583647 
 7008000    1.3646603   -3.4439151   -1.9040497   0.12233289   -3.4439151    1.5398653   583656 
 7009000    1.3642482   -3.4434999   -1.9041234   0.12600393   -3.4434999    1.5393765   583665 
 7010000    1.3625927   -3.4419244   -1.9044395    0.1247282   -3.4419244    1.5374848   583674 
 7011000    1.3647047   -3.4441496    -1.904316   0.12392352   -3.4441496    1.5398336   583687 
 7012000    1.3633311   -3.4421405     -1.90392    0.1219254   -3.4421405    1.5382205   583711 
 7013000    1.3639947   -3.4422201   -1.9033141   0.12125917   -3.4422201     1.538906   583735 
 7014000     1.362483   -3.4414222   -1.9042428   0.12165809   -3.4414222    1.5371793   583743 
 7015000    1.3636545   -3.4416487   -1.9032003   0.12493096   -3.4416487    1.5384484   583763 
 7016000    1.3623326   -3.4414609   -1.9045408   0.12602787   -3.4414609    1.5369201   583777 
 7017000    1.3611879   -3.4402575    -1.904634   0.12496482   -3.4402575    1.5356235   583779 
 7018000    1.3621797   -3.4407004   -1.9039791   0.12521788   -3.4407004    1.5367213   583787 
 7019000    1.3629583   -3.4402352   -1.9026909    0.1259746   -3.4402352    1.5375443   583808 
 7020000    1.3619923   -3.4394966   -1.9030656    0.1237424   -3.4394966     1.536431   583817 
 7021000    1.3633615    -3.441257   -1.9033132   0.12299093    -3.441257    1.5379439   583829 
 7022000    1.3639777   -3.4425873   -1.9040037   0.11788985   -3.4425873    1.5385836   583850 
 7023000    1.3629521   -3.4405473   -1.9031758   0.12998972   -3.4405473    1.5373715   583871 
 7024000    1.3628914     -3.44113   -1.9038797   0.12621256     -3.44113    1.5372503   583891 
 7025000    1.3642652   -3.4430402   -1.9042587   0.12412498   -3.4430402    1.5387815   583898 
 7026000    1.3630919   -3.4412437   -1.9038198   0.12957907   -3.4412437    1.5374239   583911 
 7027000    1.3637668   -3.4428588   -1.9047027   0.12787496   -3.4428588    1.5381561   583922 
 7028000    1.3629408   -3.4420859   -1.9048851   0.12357083   -3.4420859    1.5372007   583931 
 7029000    1.3644019   -3.4430311   -1.9042141    0.1274193   -3.4430311     1.538817   583943 
 7030000       1.3638   -3.4420164   -1.9039678   0.13008717   -3.4420164    1.5380486   583977 
 7031000     1.365563   -3.4435797   -1.9035903   0.12226459   -3.4435797    1.5399894   583995 
 7032000    1.3652602    -3.442584   -1.9029782   0.12684148    -3.442584    1.5396058   584011 
 7033000    1.3664412   -3.4443899   -1.9034919    0.1237105   -3.4443899     1.540898   584026 
 7034000    1.3668082   -3.4445341   -1.9032565   0.12719266   -3.4445341    1.5412776   584039 
 7035000    1.3656038   -3.4446078   -1.9047437   0.12347512   -3.4446078    1.5398641   584060 
 7036000    1.3630176   -3.4424221     -1.90549   0.12918181   -3.4424221     1.536932   584066 
 7037000    1.3624453   -3.4433735   -1.9070999   0.12417095   -3.4433735    1.5362736   584071 
 7038000    1.3623092     -3.44212   -1.9060394   0.12562866     -3.44212    1.5360807   584086 
 7039000    1.3638321   -3.4434434   -1.9057351   0.12238611   -3.4434434    1.5377083   584120 
 7040000    1.3634706   -3.4434592   -1.9062007   0.12652351   -3.4434592    1.5372586   584136 
 7041000     1.362668   -3.4429835   -1.9067008   0.13291011   -3.4429835    1.5362827   584163 
 7042000    1.3638448   -3.4453839    -1.907806   0.11648691   -3.4453839    1.5375779   584175 
 7043000    1.3636048   -3.4436071   -1.9062972   0.12153251   -3.4436071    1.5373099   584174 
 7044000    1.3623275   -3.4420176   -1.9061714   0.12306587   -3.4420176    1.5358462   584183 
 7045000    1.3646603   -3.4448426   -1.9063822   0.12366119   -3.4448426    1.5384604   584189 
 7046000    1.3615293   -3.4417506   -1.9068542   0.12123255   -3.4417506    1.5348964   584202 
 7047000    1.3639326   -3.4437388   -1.9061804   0.12085029   -3.4437388    1.5375584   584220 
 7048000    1.3623235   -3.4433924   -1.9076873   0.12548919   -3.4433924    1.5357051   584235 
 7049000    1.3637685   -3.4449225   -1.9076254   0.11716579   -3.4449225    1.5372971   584249 
 7050000    1.3634596   -3.4435296   -1.9066307   0.11944098   -3.4435296     1.536899   584268 
 7051000    1.3645188    -3.443435   -1.9053684   0.11877819    -3.443435    1.5380665   584278 
 7052000    1.3640685   -3.4443203   -1.9068035   0.12512775   -3.4443203    1.5375168   584294 
 7053000    1.3637724    -3.443351    -1.906189   0.12228971    -3.443351     1.537162   584302 
 7054000    1.3651892   -3.4453462   -1.9066161   0.11814705   -3.4453462    1.5387301   584313 
 7055000    1.3643435   -3.4434748   -1.9057638   0.12443653   -3.4434748    1.5377111   584338 
 7056000    1.3634999   -3.4421919   -1.9054422   0.12489595   -3.4421919    1.5367497   584342 
 7057000    1.3640637   -3.4425633   -1.9052255   0.12400094   -3.4425633    1.5373378   584360 
 7058000    1.3646337   -3.4439024    -1.905959   0.12416682   -3.4439024    1.5379434   584374 
 7059000    1.3639336   -3.4441539   -1.9070523   0.12318112   -3.4441539    1.5371017   584394 
 7060000    1.3652388   -3.4450332   -1.9064868   0.11951203   -3.4450332    1.5385464   584404 
 7061000    1.3643808   -3.4437919   -1.9062572   0.12816396   -3.4437919    1.5375347   584421 
 7062000    1.3643389   -3.4434097   -1.9059643    0.1185904   -3.4434097    1.5374454   584437 
 7063000    1.3658912   -3.4457592   -1.9066173   0.13101164   -3.4457592    1.5391419   584457 
 7064000    1.3659558   -3.4456622   -1.9064817   0.11944394   -3.4456622    1.5391805   584470 
 7065000    1.3648196   -3.4444132   -1.9065735   0.12308857   -3.4444132    1.5378397   584493 
 7066000      1.36576   -3.4450271   -1.9061752   0.13144685   -3.4450271    1.5388519   584511 
 7067000     1.366647   -3.4465855   -1.9067737   0.12126764   -3.4465855    1.5398118   584526 
 7068000    1.3645737   -3.4449595   -1.9075389   0.13109098   -3.4449595    1.5374206   584547 
 7069000    1.3664594   -3.4467476   -1.9072683   0.12675064   -3.4467476    1.5394793   584572 
 7070000    1.3660576   -3.4457822    -1.906824   0.12527604   -3.4457822    1.5389581   584598 
 7071000    1.3658765   -3.4452779   -1.9065738    0.1285844   -3.4452779    1.5387041   584617 
 7072000    1.3652864   -3.4451858   -1.9071912   0.12551506   -3.4451858    1.5379946   584634 
 7073000    1.3671237   -3.4469004   -1.9068623   0.12267627   -3.4469004     1.540038   584644 
 7074000    1.3655677   -3.4463612   -1.9081365   0.12595624   -3.4463612    1.5382247   584667 
 7075000    1.3644936   -3.4451719   -1.9082255   0.12798713   -3.4451719    1.5369465   584693 
 7076000    1.3643044   -3.4455852   -1.9089044    0.1302914   -3.4455852    1.5366807   584713 
 7077000    1.3646085   -3.4461051   -1.9091081   0.11878478   -3.4461051     1.536997   584723 
 7078000    1.3643364   -3.4456584   -1.9089678    0.1238747   -3.4456584    1.5366906   584723 
 7079000    1.3663162   -3.4456873   -1.9068142   0.12656338   -3.4456873    1.5388731   584741 
 7080000    1.3658867   -3.4451954   -1.9068561   0.12592726   -3.4451954    1.5383393   584760 
 7081000    1.3671377   -3.4458433   -1.9061345   0.12411095   -3.4458433    1.5397088   584775 
 7082000    1.3659528   -3.4455158   -1.9071757    0.1266237   -3.4455158    1.5383401   584788 
 7083000    1.3685463   -3.4482046   -1.9069779   0.12518759   -3.4482046    1.5412267   584801 
 7084000    1.3664436   -3.4462935   -1.9074901    0.1291661   -3.4462935    1.5388034   584822 
 7085000    1.3675638   -3.4465255   -1.9065107   0.13144613   -3.4465255    1.5400149   584841 
 7086000    1.3670578   -3.4456603   -1.9062547   0.13113312   -3.4456603    1.5394055   584856 
 7087000    1.3660422   -3.4457975   -1.9075618   0.12992231   -3.4457975    1.5382357   584866 
 7088000    1.3668428   -3.4467019   -1.9076016   0.12339832   -3.4467019    1.5391004   584880 
 7089000    1.3674501     -3.44785   -1.9081185   0.12125778     -3.44785    1.5397315   584900 
 7090000    1.3664623   -3.4468682   -1.9082725   0.12612417   -3.4468682    1.5385956   584909 
 7091000    1.3655986   -3.4457189   -1.9081247   0.12737544   -3.4457189    1.5375942   584920 
 7092000    1.3655386   -3.4462279   -1.9087381   0.12687886   -3.4462279    1.5374898   584934 
 7093000    1.3658551   -3.4460763   -1.9082696   0.12361534   -3.4460763    1.5378067   584949 
 7094000    1.3667056   -3.4469492   -1.9082507   0.12412989   -3.4469492    1.5386985   584974 
 7095000    1.3659598   -3.4470797   -1.9092603   0.12564272   -3.4470797    1.5378195   584989 
 7096000    1.3652496   -3.4470184   -1.9100248    0.1265874   -3.4470184    1.5369937   584999 
 7097000    1.3638834   -3.4454569   -1.9100224   0.13089379   -3.4454569    1.5354345   585007 
 7098000    1.3661844   -3.4473221   -1.9093312   0.12474126   -3.4473221    1.5379909   585020 
 7099000    1.3660583   -3.4474898   -1.9096514   0.12420097   -3.4474898    1.5378383   585024 
 7100000    1.3656741   -3.4468403   -1.9094371   0.12929242   -3.4468403    1.5374032   585025 
 7101000    1.3659474   -3.4475423   -1.9099076   0.12061334   -3.4475423    1.5376347   585054 
 7102000    1.3654797   -3.4478756   -1.9107938   0.12253192   -3.4478756    1.5370819   585064 
 7103000    1.3669609   -3.4488059   -1.9100488    0.1220707   -3.4488059    1.5387571   585061 
 7104000    1.3651232   -3.4469252   -1.9102603   0.13217148   -3.4469252    1.5366649   585070 
 7105000    1.3667972   -3.4485989   -1.9100708   0.12892913   -3.4485989    1.5385281   585078 
 7106000    1.3651458   -3.4471857   -1.9105795   0.12724676   -3.4471857    1.5366062   585102 
 7107000    1.3660025   -3.4480799   -1.9105357   0.12558781   -3.4480799    1.5375442   585112 
 7108000    1.3667581   -3.4488259   -1.9104733   0.13447469   -3.4488259    1.5383526   585128 
 7109000    1.3665456   -3.4499547   -1.9118754   0.12589447   -3.4499547    1.5380793   585141 
 7110000     1.364952   -3.4481609   -1.9119015   0.12634045   -3.4481609    1.5362594   585151 
 7111000     1.366713   -3.4504956   -1.9122989   0.12639624   -3.4504956    1.5381967   585168 
 7112000    1.3653814    -3.448155   -1.9114937   0.13102555    -3.448155    1.5366613   585182 
 7113000    1.3662926    -3.449198   -1.9115426    0.1277753    -3.449198    1.5376553   585194 
 7114000    1.3665889   -3.4499745   -1.9120384     0.124079   -3.4499745    1.5379362   585214 
 7115000    1.3650726   -3.4483224   -1.9121426   0.12866524   -3.4483224    1.5361799   585233 
 7116000    1.3656807   -3.4485928   -1.9117208   0.12768904   -3.4485928    1.5368721   585230 
 7117000    1.3653577   -3.4480221   -1.9116081   0.12139434   -3.4480221     1.536414   585266 
 7118000    1.3665776   -3.4491071   -1.9113702   0.12339641   -3.4491071    1.5377369   585285 
 7119000    1.3662416   -3.4492276   -1.9119029   0.12522655   -3.4492276    1.5373247   585298 
 7120000    1.3645092   -3.4479311   -1.9125794    0.1288011   -3.4479311    1.5353517   585307 
 7121000    1.3649742   -3.4487609   -1.9129095   0.12656679   -3.4487609    1.5358514   585316 
 7122000    1.3638928    -3.447887   -1.9132866   0.12624527    -3.447887    1.5346004   585329 
 7123000    1.3634596   -3.4477423   -1.9137026   0.12561164   -3.4477423    1.5340397   585357 
 7124000    1.3660638    -3.450253   -1.9133175   0.12184366    -3.450253    1.5369355   585370 
 7125000     1.366295   -3.4497928   -1.9126366   0.12109025   -3.4497928    1.5371562   585385 
 7126000    1.3659618   -3.4498821   -1.9131217   0.12298721   -3.4498821    1.5367604   585393 
 7127000     1.365064     -3.44875   -1.9130207   0.12791387     -3.44875    1.5357293   585401 
 7128000    1.3661691    -3.450518   -1.9135559    0.1177688    -3.450518    1.5369621   585405 
 7129000    1.3642989    -3.447966   -1.9131368   0.12251939    -3.447966    1.5348292   585416 
 7130000    1.3656239   -3.4490173   -1.9127236   0.12682364   -3.4490173    1.5362937   585426 
 7131000    1.3658318   -3.4497292   -1.9132305   0.12856514   -3.4497292    1.5364986   585437 
 7132000    1.3671013   -3.4500884   -1.9121984   0.12793514   -3.4500884      1.53789   585451 
 7133000     1.366357    -3.449625   -1.9126248   0.12369107    -3.449625    1.5370003   585471 
 7134000    1.3669528   -3.4494708   -1.9118371   0.12783469   -3.4494708    1.5376337   585485 
 7135000    1.3663608   -3.4502357   -1.9132653   0.12561941   -3.4502357    1.5369704   585484 
 7136000    1.3655337   -3.4491792    -1.913176   0.12433161   -3.4491792    1.5360033   585498 
 7137000     1.366022   -3.4501188   -1.9135978   0.12652575   -3.4501188     1.536521   585510 
 7138000    1.3646207   -3.4490467     -1.91417   0.13044839   -3.4490467    1.5348766   585536 
 7139000    1.3665124   -3.4502431   -1.9132597   0.13157841   -3.4502431    1.5369834   585544 
 7140000    1.3662962   -3.4510246   -1.9142818   0.12481017   -3.4510246    1.5367429   585543 
 7141000    1.3660077   -3.4512469   -1.9148364   0.12517136   -3.4512469    1.5364105   585546 
 7142000    1.3664559   -3.4516462   -1.9147919   0.12363374   -3.4516462    1.5368542   585569 
 7143000    1.3663382   -3.4511016   -1.9144191   0.13010625   -3.4511016    1.5366825   585584 
 7144000    1.3666985   -3.4513338    -1.914317   0.12267374   -3.4513338    1.5370168   585611 
 7145000    1.3678551   -3.4520891     -1.91379   0.12554904   -3.4520891    1.5382991   585618 
 7146000    1.3660678   -3.4505275   -1.9142331   0.12154371   -3.4505275    1.5362944   585616 
 7147000    1.3673659    -3.450976   -1.9132322   0.12807947    -3.450976    1.5377438   585620 
 7148000    1.3661714   -3.4500145   -1.9136376   0.13113977   -3.4500145    1.5363769   585629 
 7149000    1.3678116    -3.451274   -1.9131157   0.12594742    -3.451274    1.5381583   585653 
 7150000    1.3657311   -3.4499355   -1.9141771   0.12806899   -3.4499355    1.5357584   585676 
 7151000    1.3671257   -3.4511554   -1.9138655   0.12711635   -3.4511554    1.5372899   585690 
 7152000    1.3670616   -3.4517915   -1.9146078   0.12363782   -3.4517915    1.5371837   585703 
 7153000    1.3666931   -3.4504469   -1.9137222   0.12906656   -3.4504469    1.5367247   585720 
 7154000    1.3663573    -3.449581   -1.9132181   0.13099894    -3.449581    1.5363629   585714 
 7155000    1.3675411   -3.4508187   -1.9131379   0.12761265   -3.4508187    1.5376808   585719 
 7156000    1.3680668   -3.4510131   -1.9127701   0.12516897   -3.4510131    1.5382431   585730 
 7157000    1.3668283   -3.4504988   -1.9137007    0.1282758   -3.4504988     1.536798   585750 
 7158000    1.3671046   -3.4504081   -1.9133754   0.12601281   -3.4504081    1.5370326   585779 
 7159000    1.3683419   -3.4522381   -1.9138327   0.12274759   -3.4522381    1.5384054   585786 
 7160000    1.3678932   -3.4518316   -1.9139937   0.12723529   -3.4518316    1.5378379   585810 
 7161000    1.3667632   -3.4506736   -1.9141297   0.13401741   -3.4506736    1.5365438   585819 
 7162000    1.3681214   -3.4510736   -1.9130291   0.13469685   -3.4510736    1.5380445   585829 
 7163000     1.368377   -3.4517276   -1.9134482   0.12695594   -3.4517276    1.5382794   585849 
 7164000     1.367785   -3.4520656   -1.9144753   0.12550874   -3.4520656    1.5375902   585858 
 7165000    1.3695321   -3.4538981   -1.9143885   0.12338572   -3.4538981    1.5395096   585875 
 7166000    1.3671683   -3.4510087   -1.9141984   0.13342711   -3.4510087    1.5368104   585891 
 7167000    1.3676643   -3.4506383   -1.9132914   0.13206064   -3.4506383    1.5373469   585899 
 7168000    1.3676719   -3.4507717   -1.9134714   0.13150109   -3.4507717    1.5373003   585920 
 7169000    1.3688373   -3.4526421   -1.9140763   0.12421251   -3.4526421    1.5385657   585937 
 7170000    1.3685068   -3.4524752   -1.9142993   0.12478762   -3.4524752    1.5381759   585944 
 7171000    1.3674326   -3.4506827   -1.9137484   0.13527445   -3.4506827    1.5369343   585957 
 7172000    1.3680139   -3.4520001   -1.9144623   0.12704644   -3.4520001    1.5375378   585976 
 7173000    1.3680397   -3.4518229   -1.9143033    0.1305213   -3.4518229    1.5375196   585994 
 7174000    1.3694834    -3.453335    -1.914206   0.12794196    -3.453335     1.539129   585999 
 7175000    1.3703841   -3.4535571    -1.913471   0.12477824   -3.4535571    1.5400861   586020 
 7176000    1.3702258    -3.454112   -1.9142379   0.12388599    -3.454112    1.5398741   586033 
 7177000    1.3694034   -3.4534981   -1.9145929   0.12780179   -3.4534981    1.5389052   586050 
 7178000    1.3683162    -3.451689   -1.9140004   0.12524117    -3.451689    1.5376886   586048 
 7179000    1.3701637   -3.4543336   -1.9145688   0.12561409   -3.4543336    1.5397648   586048 
 7180000    1.3685707   -3.4528694   -1.9149184   0.12608465   -3.4528694     1.537951   586057 
 7181000    1.3673772   -3.4511252   -1.9145259   0.12762352   -3.4511252    1.5365994   586061 
 7182000    1.3687948   -3.4525113   -1.9143531   0.12579823   -3.4525113    1.5381582   586074 
 7183000    1.3683909    -3.452735   -1.9150779   0.12416462    -3.452735    1.5376571   586092 
 7184000    1.3681134   -3.4525547   -1.9152514   0.12535776   -3.4525547    1.5373033   586108 
 7185000    1.3689122   -3.4529239   -1.9147361    0.1270044   -3.4529239    1.5381878   586113 
 7186000    1.3675095   -3.4518256   -1.9152559    0.1320835   -3.4518256    1.5365697   586129 
 7187000    1.3680858   -3.4530094   -1.9158472   0.13189237   -3.4530094    1.5371622   586150 
 7188000    1.3679591   -3.4514516   -1.9144396   0.13179874   -3.4514516     1.537012   586153 
 7189000    1.3709601   -3.4550415   -1.9146787   0.12884551   -3.4550415    1.5403628   586161 
 7190000    1.3683398   -3.4539227    -1.916525   0.12676938   -3.4539227    1.5373977   586169 
 7191000    1.3672983   -3.4520809   -1.9158795   0.12355421   -3.4520809    1.5362013   586179 
 7192000    1.3672956    -3.452438   -1.9162606   0.12556587    -3.452438    1.5361774   586187 
 7193000     1.368491   -3.4529545   -1.9154944   0.12408498   -3.4529545    1.5374602   586210 
 7194000    1.3686548   -3.4538933   -1.9162885   0.12550215   -3.4538933    1.5376047   586225 
 7195000    1.3680884   -3.4538486   -1.9169273   0.12911141   -3.4538486    1.5369213   586243 
 7196000     1.365955   -3.4525889   -1.9181036   0.12454904   -3.4525889    1.5344853   586258 
 7197000    1.3665498   -3.4535344   -1.9184019   0.12553294   -3.4535344    1.5351326   586266 
 7198000     1.365988   -3.4538973    -1.919422   0.12006251   -3.4538973    1.5344753   586276 
 7199000    1.3658339   -3.4537109   -1.9194454   0.12022742   -3.4537109    1.5342655   586290 
 7200000      1.36569   -3.4547314   -1.9206563   0.12507181   -3.4547314    1.5340751   586301 
 7201000    1.3662813   -3.4547328    -1.920038   0.12338067   -3.4547328    1.5346948   586318 
 7202000    1.3658221   -3.4544768    -1.920358   0.12967379   -3.4544768    1.5341188   586341 
 7203000    1.3653973   -3.4533457   -1.9197354    0.1224227   -3.4533457    1.5336103   586353 
 7204000    1.3667029   -3.4538291   -1.9187995    0.1260478   -3.4538291    1.5350296   586371 
 7205000    1.3677483   -3.4559058   -1.9197492   0.12572158   -3.4559058    1.5361566   586389 
 7206000    1.3677055   -3.4560236   -1.9199517   0.12764622   -3.4560236    1.5360719   586403 
 7207000    1.3665654   -3.4568041   -1.9220388   0.12130735   -3.4568041    1.5347653   586413 
 7208000    1.3661201   -3.4559429   -1.9217013   0.12563263   -3.4559429    1.5342416   586422 
 7209000    1.3667313   -3.4570374   -1.9221252   0.12607957   -3.4570374    1.5349123   586428 
 7210000    1.3672556   -3.4567455   -1.9212889   0.12911467   -3.4567455    1.5354566   586445 
 7211000    1.3680973   -3.4573957   -1.9209964    0.1203995   -3.4573957    1.5363993   586446 
 7212000     1.366556   -3.4546151    -1.919965   0.13602717   -3.4546151    1.5346501   586453 
 7213000    1.3656243   -3.4545557   -1.9210356   0.12518637   -3.4545557    1.5335201   586485 
 7214000    1.3684145   -3.4575328   -1.9209057   0.12908876   -3.4575328    1.5366271   586495 
 7215000    1.3685647   -3.4585274   -1.9217761   0.12173848   -3.4585274    1.5367512   586512 
 7216000    1.3666497   -3.4558359   -1.9212664   0.12666127   -3.4558359    1.5345695   586524 
 7217000    1.3670027   -3.4575219   -1.9225823   0.12714486   -3.4575219    1.5349396   586534 
 7218000    1.3669783   -3.4566881   -1.9218361   0.13132767   -3.4566881    1.5348521   586557 
 7219000    1.3668532    -3.457306   -1.9225996   0.12400405    -3.457306    1.5347064   586559 
 7220000    1.3669765   -3.4569098   -1.9220676   0.12409863   -3.4569098    1.5348422   586560 
 7221000    1.3653978   -3.4545305   -1.9215523   0.12883747   -3.4545305    1.5329782   586595 
 7222000    1.3672247   -3.4571732   -1.9221648   0.12017877   -3.4571732    1.5350084   586603 
 7223000    1.3673812   -3.4568758    -1.921731   0.12156496   -3.4568758    1.5351448   586618 
 7224000    1.3681863   -3.4570822   -1.9210387   0.12591539   -3.4570822    1.5360435   586620 
 7225000    1.3657896   -3.4547916   -1.9214963   0.12985898   -3.4547916    1.5332952   586642 
 7226000    1.3671746   -3.4563858   -1.9215671   0.12736557   -3.4563858    1.5348187   586654 
 7227000    1.3682748   -3.4558814   -1.9198591   0.12680841   -3.4558814    1.5360224   586666 
 7228000    1.3686341   -3.4563947   -1.9200005   0.12924181   -3.4563947    1.5363943   586678 
 7229000    1.3674379   -3.4545902   -1.9195544   0.13159111   -3.4545902    1.5350357   586684 
 7230000    1.3685086   -3.4552785    -1.919088   0.12881022   -3.4552785    1.5361906   586702 
 7231000     1.368298   -3.4540365   -1.9181137   0.12254308   -3.4540365    1.5359227   586714 
 7232000    1.3702656   -3.4555791   -1.9175028   0.12989372   -3.4555791    1.5380764   586735 
 7233000    1.3685752   -3.4539778   -1.9178278   0.13409878   -3.4539778    1.5361501   586746 
 7234000    1.3689787   -3.4545796   -1.9180132   0.13154468   -3.4545796    1.5365664   586760 
 7235000    1.3694116   -3.4563229   -1.9193257   0.12522046   -3.4563229    1.5369972   586781 
 7236000    1.3688071   -3.4560207   -1.9197569   0.13223564   -3.4560207    1.5362638   586802 
 7237000    1.3686865   -3.4565029   -1.9204268    0.1269205   -3.4565029    1.5360761   586822 
 7238000    1.3697631   -3.4573337   -1.9200652    0.1282963   -3.4573337    1.5372686   586828 
 7239000    1.3698817   -3.4569919   -1.9196504   0.12410581   -3.4569919    1.5373414   586851 
 7240000    1.3686696   -3.4561214    -1.920156   0.13069629   -3.4561214    1.5359655   586857 
 7241000    1.3701933   -3.4581275   -1.9204913   0.12275776   -3.4581275    1.5376362   586872 
 7242000    1.3685912   -3.4564389   -1.9206085   0.12559717   -3.4564389    1.5358304   586875 
 7243000    1.3697804   -3.4566811   -1.9195476   0.12894662   -3.4566811    1.5371336   586887 
 7244000    1.3697992   -3.4577187   -1.9206007   0.12480655   -3.4577187    1.5371179   586901 
 7245000     1.368297   -3.4572713   -1.9218914   0.12480929   -3.4572713    1.5353799   586921 
 7246000    1.3709273   -3.4604143   -1.9221537   0.12185458   -3.4604143    1.5382606   586948 
 7247000    1.3697124   -3.4583063    -1.921456   0.12881136   -3.4583063    1.5368504   586966 
 7248000    1.3707745   -3.4585173   -1.9205146   0.12615852   -3.4585173    1.5380027   586981 
 7249000    1.3710588   -3.4600641   -1.9217686   0.12269619   -3.4600641    1.5382955   586991 
 7250000    1.3697295   -3.4582105   -1.9214195   0.12969823   -3.4582105     1.536791   586996 
 7251000    1.3700567   -3.4585919   -1.9214757   0.12567592   -3.4585919    1.5371162   587012 
 7252000    1.3708266    -3.460044    -1.922127   0.12365462    -3.460044    1.5379171   587036 
 7253000    1.3697683   -3.4593389   -1.9226458   0.13136738   -3.4593389    1.5366931   587050 
 7254000    1.3703111   -3.4595531   -1.9222981   0.12631299   -3.4595531     1.537255   587068 
 7255000    1.3680917   -3.4569365   -1.9222315   0.13038118   -3.4569365    1.5347051   587091 
 7256000    1.3684775   -3.4575734   -1.9224747   0.12607782   -3.4575734    1.5350987   587106 
 7257000    1.3689062   -3.4593473    -1.923794   0.12667428   -3.4593473    1.5355533   587116 
 7258000    1.3692912   -3.4584173   -1.9224949   0.12625986   -3.4584173    1.5359224   587140 
 7259000    1.3690721   -3.4585459   -1.9228954   0.12576251   -3.4585459    1.5356505   587150 
 7260000    1.3706047   -3.4595427   -1.9222176   0.12080181   -3.4595427    1.5373251   587167 
 7261000    1.3686373    -3.456476   -1.9213969   0.13443774    -3.456476    1.5350791   587182 
 7262000     1.370087   -3.4593243   -1.9226401   0.12805195   -3.4593243    1.5366842   587190 
 7263000    1.3707476   -3.4587908   -1.9214102   0.12978701   -3.4587908    1.5373806   587207 
 7264000    1.3707567   -3.4576607   -1.9203092   0.12813926   -3.4576607    1.5373516   587222 
 7265000    1.3716129   -3.4590648   -1.9207818   0.12713799   -3.4590648     1.538283   587233 
 7266000    1.3707822   -3.4589286   -1.9216008   0.12908435   -3.4589286    1.5373278   587242 
 7267000    1.3705753   -3.4589508   -1.9218996   0.12763983   -3.4589508    1.5370512   587259 
 7268000      1.37027   -3.4599145   -1.9232397   0.12482161   -3.4599145    1.5366749   587272 
 7269000    1.3704294   -3.4596065   -1.9228078   0.11982081   -3.4596065    1.5367987   587293 
 7270000    1.3690957   -3.4580039   -1.9227714   0.13077599   -3.4580039    1.5352325   587320 
 7271000    1.3717017   -3.4601605   -1.9220661   0.12372201   -3.4601605    1.5380944   587343 
 7272000    1.3712705   -3.4607424   -1.9231681   0.12643528   -3.4607424    1.5375743   587357 
 7273000    1.3698133     -3.45863   -1.9227288   0.12938485     -3.45863    1.5359012   587372 
 7274000    1.3698176   -3.4591306   -1.9232168   0.12014989   -3.4591306    1.5359139   587369 
 7275000    1.3684473     -3.45883   -1.9245048   0.12741747     -3.45883    1.5343252   587389 
 7276000    1.3688807   -3.4593252   -1.9245507   0.12592145   -3.4593252    1.5347745   587403 
 7277000    1.3695097   -3.4596741   -1.9242466   0.12872984   -3.4596741    1.5354275   587423 
 7278000    1.3704429   -3.4589211   -1.9225024   0.12971861   -3.4589211    1.5364188   587444 
 7279000     1.370799   -3.4598396   -1.9231079     0.125778   -3.4598396    1.5367317   587477 
 7280000    1.3707489   -3.4593203   -1.9226761   0.13136493   -3.4593203    1.5366441   587489 
 7281000    1.3722424   -3.4602508   -1.9219822   0.12851899   -3.4602508    1.5382686   587508 
 7282000    1.3706173   -3.4598533   -1.9234404   0.13372729   -3.4598533    1.5364129   587521 
 7283000    1.3710823   -3.4604616   -1.9235562   0.12620593   -3.4604616    1.5369054   587532 
 7284000    1.3698015   -3.4590757   -1.9236348   0.13235136   -3.4590757    1.5354409   587543 
 7285000    1.3708521   -3.4604706   -1.9238704   0.12698407   -3.4604706    1.5366003   587550 
 7286000    1.3716915   -3.4613988   -1.9238811   0.12508971   -3.4613988    1.5375176   587559 
 7287000    1.3714212   -3.4606406   -1.9234861   0.12689536   -3.4606406    1.5371545   587582 
 7288000    1.3716793   -3.4606837   -1.9232504   0.12858316   -3.4606837    1.5374333   587586 
 7289000    1.3705806   -3.4594397   -1.9232693    0.1317419   -3.4594397    1.5361704   587598 
 7290000     1.369681   -3.4601482   -1.9250122   0.11981481   -3.4601482     1.535136   587608 
 7291000    1.3696071   -3.4598306   -1.9248166   0.13013752   -3.4598306     1.535014   587623 
 7292000     1.368791   -3.4597484   -1.9256647   0.12613309   -3.4597484    1.5340837   587629 
 7293000    1.3700529   -3.4598684   -1.9243809   0.13118907   -3.4598684    1.5354875   587633 
 7294000    1.3707656   -3.4614355   -1.9251519   0.12233866   -3.4614355    1.5362836   587634 
 7295000    1.3710808   -3.4608327   -1.9242245   0.12624888   -3.4608327    1.5366082   587645 
 7296000    1.3708109   -3.4599212   -1.9236861   0.12132917   -3.4599212    1.5362351   587672 
 7297000    1.3719375   -3.4615888   -1.9241252   0.12461572   -3.4615888    1.5374637   587685 
 7298000     1.371017   -3.4608283   -1.9244119   0.12970453   -3.4608283    1.5364164   587691 
 7299000    1.3720533   -3.4606061   -1.9230938   0.12993281   -3.4606061    1.5375123   587716 
 7300000    1.3718933   -3.4605205   -1.9232425    0.1265916   -3.4605205     1.537278   587737 
 7301000    1.3701514   -3.4598276   -1.9245562   0.13122266   -3.4598276    1.5352714   587758 
 7302000    1.3724865   -3.4628755   -1.9249981   0.12538965   -3.4628755    1.5378774   587762 
 7303000    1.3714271   -3.4615837   -1.9249117   0.12536682   -3.4615837     1.536672   587769 
 7304000    1.3732401   -3.4627207   -1.9240512    0.1263737   -3.4627207    1.5386694   587782 
 7305000    1.3709195   -3.4604573   -1.9244089   0.13015309   -3.4604573    1.5360483   587790 
 7306000    1.3731221   -3.4619315   -1.9234807   0.12692544   -3.4619315    1.5384508   587815 
 7307000    1.3720636   -3.4605553   -1.9233244   0.13037661   -3.4605553    1.5372309   587828 
 7308000    1.3705729   -3.4595561   -1.9240423   0.12887653   -3.4595561    1.5355137   587846 
 7309000    1.3712525   -3.4610244   -1.9247624   0.13346241   -3.4610244     1.536262   587851 
 7310000     1.369929   -3.4609016   -1.9261641   0.13140885   -3.4609016    1.5347375   587867 
 7311000    1.3715477     -3.46166     -1.92513   0.12790048     -3.46166      1.53653   587875 
 7312000     1.372136   -3.4621599   -1.9250518   0.12433401   -3.4621599    1.5371081   587906 
 7313000    1.3717235   -3.4627057   -1.9260703   0.13160085   -3.4627057    1.5366355   587910 
 7314000    1.3709909   -3.4621333   -1.9263525   0.12806053   -3.4621333    1.5357808   587923 
 7315000     1.373049   -3.4635596   -1.9255413   0.12836787   -3.4635596    1.5380183   587949 
 7316000    1.3714532   -3.4615477   -1.9253586    0.1321534   -3.4615477     1.536189   587965 
 7317000    1.3702141   -3.4608211   -1.9260618   0.12892137   -3.4608211    1.5347593   587981 
 7318000    1.3700582   -3.4612634   -1.9266969   0.13551975   -3.4612634    1.5345664   587988 
 7319000    1.3711134   -3.4622709    -1.926554   0.12825455   -3.4622709    1.5357169   588000 
 7320000     1.372234   -3.4636827   -1.9267263   0.12207797   -3.4636827    1.5369564   588006 
 7321000    1.3719988   -3.4637905   -1.9271106   0.12775887   -3.4637905    1.5366799   588011 
 7322000     1.372318    -3.463966   -1.9269704   0.12853389    -3.463966    1.5369956   588027 
 7323000    1.3709693    -3.461726   -1.9263089   0.12914047    -3.461726    1.5354171   588053 
 7324000    1.3727986   -3.4626856   -1.9252458   0.12918624   -3.4626856    1.5374398   588063 
 7325000    1.3721909   -3.4622609   -1.9255539   0.13350117   -3.4622609    1.5367069   588083 
 7326000    1.3714395   -3.4623407   -1.9265301   0.13253685   -3.4623407    1.5358106   588104 
 7327000    1.3737688    -3.465081   -1.9266672   0.12740639    -3.465081    1.5384138   588106 
 7328000    1.3726603   -3.4647067   -1.9275786   0.13353918   -3.4647067     1.537128   588123 
 7329000    1.3718005   -3.4632816   -1.9271895   0.12934657   -3.4632816    1.5360921   588151 
 7330000    1.3719382   -3.4630469   -1.9268084   0.12893537   -3.4630469    1.5362385   588154 
 7331000    1.3714802    -3.463763   -1.9280713   0.13032777    -3.463763    1.5356917   588167 
 7332000     1.374101   -3.4670159    -1.928421   0.12782801   -3.4670159    1.5385949   588179 
 7333000    1.3721103   -3.4645145   -1.9281774   0.13025219   -3.4645145    1.5363371   588190 
 7334000    1.3712822   -3.4628561   -1.9274749   0.12996485   -3.4628561    1.5353812   588201 
 7335000    1.3717466   -3.4634748   -1.9276259   0.12922352   -3.4634748    1.5358489   588221 
 7336000    1.3739097   -3.4639631   -1.9257263   0.13401409   -3.4639631    1.5382368   588234 
 7337000    1.3709071    -3.462736    -1.927887   0.12990451    -3.462736    1.5348489   588244 
 7338000    1.3715365   -3.4636078    -1.928109   0.13155211   -3.4636078    1.5354988   588265 
 7339000    1.3723845   -3.4637202   -1.9273164   0.12598144   -3.4637202    1.5364038   588282 
 7340000    1.3723467   -3.4635996   -1.9272512   0.12874027   -3.4635996    1.5363485   588287 
 7341000    1.3737013   -3.4661754   -1.9283653   0.12892478   -3.4661754      1.53781   588308 
 7342000    1.3744142   -3.4653046   -1.9267148    0.1291891   -3.4653046    1.5385898   588315 
 7343000      1.37398   -3.4645708   -1.9264906   0.13083435   -3.4645708    1.5380802   588324 
 7344000    1.3737926   -3.4635612   -1.9256803   0.13369072   -3.4635612    1.5378809   588320 
 7345000    1.3727918   -3.4622618   -1.9255353   0.13407339   -3.4622618    1.5367266   588333 
 7346000    1.3750357   -3.4653089   -1.9261228   0.12837659   -3.4653089    1.5391861   588353 
 7347000    1.3738837    -3.463698   -1.9258119   0.13065106    -3.463698    1.5378861   588357 
 7348000    1.3739785   -3.4643386   -1.9263803   0.12367043   -3.4643386    1.5379582   588370 
 7349000    1.3735589   -3.4639952   -1.9264804   0.12826836   -3.4639952    1.5375147   588360 
 7350000    1.3738007      -3.4645   -1.9267643   0.12744461      -3.4645    1.5377357   588379 
 7351000     1.374243   -3.4649031   -1.9266802    0.1332471   -3.4649031    1.5382229   588382 
 7352000    1.3737225   -3.4634067   -1.9258212   0.13570067   -3.4634067    1.5375855   588403 
 7353000    1.3756662     -3.46637   -1.9266456   0.12781844     -3.46637    1.5397244   588417 
 7354000    1.3748724   -3.4652543   -1.9264471   0.12958401   -3.4652543    1.5388072   588428 
 7355000    1.3728024   -3.4632182    -1.926767   0.13264293   -3.4632182    1.5364512   588443 
 7356000     1.372338   -3.4639025   -1.9280233   0.12830909   -3.4639025    1.5358792   588463 
 7357000    1.3724197   -3.4639807   -1.9280544   0.12753787   -3.4639807    1.5359263   588480 
 7358000    1.3733165   -3.4649388   -1.9280298   0.12543037   -3.4649388     1.536909   588488 
 7359000    1.3726983   -3.4637625   -1.9275923   0.13179237   -3.4637625    1.5361702   588506 
 7360000    1.3722867   -3.4637972   -1.9281137    0.1276694   -3.4637972    1.5356835   588516 
 7361000    1.3711033    -3.463034   -1.9287087   0.13136257    -3.463034    1.5343252   588529 
 7362000    1.3723899   -3.4637186   -1.9279875   0.13727613   -3.4637186    1.5357311   588542 
 7363000    1.3750825   -3.4655631   -1.9268555   0.13535655   -3.4655631    1.5387076   588556 
 7364000    1.3734673   -3.4637853     -1.92694    0.1314085   -3.4637853    1.5368453   588577 
 7365000    1.3746169   -3.4651147   -1.9269934   0.13080513   -3.4651147    1.5381213   588581 
 7366000    1.3740284   -3.4656962   -1.9282831   0.13030985   -3.4656962    1.5374131   588600 
 7367000    1.3749365   -3.4674735   -1.9290757   0.12327611   -3.4674735    1.5383978   588612 
 7368000    1.3731881   -3.4661665   -1.9297693   0.12572317   -3.4661665    1.5363972   588629 
 7369000    1.3734446   -3.4652741   -1.9286448   0.13179839   -3.4652741    1.5366293   588650 
 7370000      1.37491   -3.4664297   -1.9282156   0.12975005   -3.4664297     1.538214   588671 
 7371000     1.373529   -3.4653621    -1.928727   0.13714489   -3.4653621    1.5366351   588684 
 7372000    1.3741591   -3.4671582   -1.9298496   0.13246133   -3.4671582    1.5373086   588696 
 7373000    1.3721298   -3.4648267   -1.9298196   0.13027454   -3.4648267    1.5350071   588708 
 7374000    1.3728278   -3.4652606   -1.9295039   0.13075357   -3.4652606    1.5357566   588720 
 7375000    1.3730139   -3.4658593   -1.9299336   0.13397173   -3.4658593    1.5359257   588735 
 7376000     1.373156   -3.4661071   -1.9300798   0.13425196   -3.4661071    1.5360273   588757 
 7377000    1.3720258   -3.4656469   -1.9309361   0.12892571   -3.4656469    1.5347109   588777 
 7378000    1.3730167     -3.46695   -1.9311542   0.13058815     -3.46695    1.5357958   588786 
 7379000    1.3724518   -3.4670437   -1.9319111   0.12820473   -3.4670437    1.5351327   588798 
 7380000    1.3720086    -3.465638   -1.9310349    0.1361129    -3.465638     1.534603   588811 
 7381000    1.3714985   -3.4648989   -1.9308769   0.13150852   -3.4648989     1.534022   588815 
 7382000    1.3745757   -3.4680185    -1.930599   0.13232783   -3.4680185    1.5374195   588832 
 7383000    1.3738295   -3.4677874    -1.931226   0.12302074   -3.4677874    1.5365615   588841 
 7384000    1.3723959   -3.4665081   -1.9315761   0.13081044   -3.4665081     1.534932   588851 
 7385000     1.374214   -3.4686928   -1.9317301   0.12764862   -3.4686928    1.5369628   588852 
 7386000     1.373279   -3.4675468   -1.9316871   0.13063734   -3.4675468    1.5358597   588874 
 7387000    1.3721855   -3.4673823   -1.9327664   0.12804151   -3.4673823    1.5346159   588882 
 7388000    1.3716702   -3.4667317   -1.9327078   0.12605325   -3.4667317    1.5340239   588888 
 7389000    1.3733698   -3.4671354   -1.9312576   0.12522684   -3.4671354    1.5358777   588906 
 7390000    1.3721891   -3.4654511   -1.9309536   0.13553189   -3.4654511    1.5344974   588929 
 7391000    1.3745066   -3.4687539    -1.931691   0.12449595   -3.4687539    1.5370629   588939 
 7392000    1.3728285   -3.4674245   -1.9322668   0.12450612   -3.4674245    1.5351577   588950 
 7393000      1.37346   -3.4677601   -1.9319067   0.13308994   -3.4677601    1.5358534   588954 
 7394000    1.3726634    -3.467279   -1.9323632   0.12607619    -3.467279    1.5349158   588972 
 7395000      1.37319   -3.4675691   -1.9320984    0.1266244   -3.4675691    1.5354707   588985 
 7396000    1.3739598   -3.4695599   -1.9332675    0.1269928   -3.4695599    1.5362924   589000 
 7397000    1.3723577   -3.4673154   -1.9328484   0.12932389   -3.4673154     1.534467   589013 
 7398000    1.3728057   -3.4670731   -1.9321547   0.12978401   -3.4670731    1.5349185   589032 
 7399000    1.3735557   -3.4682287   -1.9325081   0.12979303   -3.4682287    1.5357206   589046 
 7400000    1.3743404   -3.4693873   -1.9328233   0.12834377   -3.4693873     1.536564   589059 
 7401000    1.3729317   -3.4682623   -1.9333254   0.13155535   -3.4682623    1.5349369   589079 
 7402000    1.3729624   -3.4677547   -1.9328017   0.12609532   -3.4677547     1.534953   589086 
 7403000    1.3742357   -3.4690062   -1.9326583   0.13044042   -3.4690062    1.5363478   589097 
 7404000    1.3740646   -3.4695625   -1.9334451   0.12817793   -3.4695625    1.5361174   589112 
 7405000    1.3735322   -3.4689201   -1.9334344   0.12929158   -3.4689201    1.5354857   589126 
 7406000    1.3739403   -3.4691273   -1.9332428   0.12683398   -3.4691273    1.5358846   589148 
 7407000    1.3729322   -3.4684556   -1.9337656   0.12677448   -3.4684556      1.53469   589174 
 7408000    1.3734648    -3.468372   -1.9331519   0.13337078    -3.468372    1.5352201   589199 
 7409000    1.3764923   -3.4722047   -1.9336084   0.12785837   -3.4722047    1.5385964   589202 
 7410000    1.3751805   -3.4691927   -1.9320677   0.12878986   -3.4691927    1.5371249   589204 
 7411000    1.3744748   -3.4687829   -1.9324912   0.12297599   -3.4687829    1.5362917   589221 
 7412000    1.3744845   -3.4689253   -1.9326619   0.12631346   -3.4689253    1.5362635   589236 
 7413000    1.3770755   -3.4714234   -1.9323189   0.12863927   -3.4714234    1.5391045   589257 
 7414000    1.3761165   -3.4696596   -1.9316504   0.13128764   -3.4696596    1.5380093   589266 
 7415000    1.3739025   -3.4688982   -1.9333895   0.12972217   -3.4688982    1.5355087   589276 
 7416000    1.3738158   -3.4693473   -1.9339615   0.13235321   -3.4693473    1.5353857   589286 
 7417000    1.3750527   -3.4702024   -1.9334498   0.13020015   -3.4702024    1.5367526   589292 
 7418000    1.3743414    -3.470041   -1.9340991   0.12870047    -3.470041    1.5359419   589298 
 7419000    1.3721118    -3.467146   -1.9337167   0.13701752    -3.467146    1.5334293   589306 
 7420000    1.3743261   -3.4694272   -1.9335596   0.13004035   -3.4694272    1.5358675   589320 
 7421000    1.3732407   -3.4687417   -1.9341133   0.12633487   -3.4687417    1.5346284   589330 
 7422000    1.3743955   -3.4698848   -1.9340101   0.13397486   -3.4698848    1.5358747   589347 
 7423000    1.3726433   -3.4687544   -1.9348456   0.13579138   -3.4687544    1.5339088   589350 
 7424000    1.3739289   -3.4704218   -1.9350972   0.12685083   -3.4704218    1.5353246   589358 
 7425000    1.3739698   -3.4697417    -1.934447    0.1293753   -3.4697417    1.5352947   589387 
 7426000    1.3742861   -3.4695793   -1.9339598   0.13192697   -3.4695793    1.5356195   589398 
 7427000    1.3739107   -3.4693318   -1.9341604   0.12883859   -3.4693318    1.5351714   589409 
 7428000    1.3746598   -3.4698849    -1.933939   0.13030405   -3.4698849    1.5359459   589433 
 7429000    1.3743687   -3.4694161   -1.9338241   0.12901771   -3.4694161     1.535592   589444 
 7430000    1.3754215   -3.4707084   -1.9339897   0.12636058   -3.4707084    1.5367187   589463 
 7431000     1.374216   -3.4695741   -1.9342282   0.13112611   -3.4695741    1.5353459   589473 
 7432000    1.3739953   -3.4696832   -1.9346126    0.1292449   -3.4696832    1.5350706   589484 
 7433000    1.3737068   -3.4689752   -1.9342607   0.13338647   -3.4689752    1.5347145   589497 
 7434000     1.374086   -3.4692823   -1.9341728   0.12968614   -3.4692823    1.5351094   589508 
 7435000    1.3732476   -3.4678739   -1.9337219   0.13358092   -3.4678739     1.534152   589516 
 7436000    1.3742711   -3.4700644   -1.9347924   0.12750396   -3.4700644     1.535272   589525 
 7437000    1.3753125   -3.4704696   -1.9340812    0.1265324   -3.4704696    1.5363884   589543 
 7438000     1.376142   -3.4717109   -1.9344297   0.13594675   -3.4717109    1.5372812   589556 
 7439000    1.3758228   -3.4709547    -1.934077   0.13334308   -3.4709547    1.5368777   589574 
 7440000    1.3767811   -3.4720104   -1.9340831   0.13166456   -3.4720104    1.5379273   589582 
 7441000    1.3754882   -3.4704559   -1.9340197   0.13157355   -3.4704559    1.5364361   589600 
 7442000    1.3761163   -3.4712173   -1.9341213   0.13024307   -3.4712173     1.537096   589616 
 7443000    1.3758269   -3.4703423   -1.9336033   0.13654064   -3.4703423    1.5367389   589629 
 7444000    1.3750695    -3.469999   -1.9341477   0.13115819    -3.469999    1.5358513   589645 
 7445000    1.3775984    -3.473166   -1.9344745   0.12795984    -3.473166    1.5386915   589639 
 7446000    1.3767059   -3.4724404   -1.9347614   0.12848074   -3.4724404     1.537679   589645 
 7447000      1.37438   -3.4697855     -1.93472   0.12663109   -3.4697855    1.5350655   589651 
 7448000    1.3736005   -3.4685721   -1.9343953   0.13895701   -3.4685721    1.5341767   589658 
 7449000    1.3731867   -3.4684534   -1.9347726   0.13011937   -3.4684534    1.5336807   589671 
 7450000    1.3754872   -3.4712196   -1.9349903   0.12489685   -3.4712196    1.5362293   589679 
 7451000    1.3763214   -3.4719995   -1.9348933   0.13018963   -3.4719995    1.5371062   589700 
 7452000    1.3754601    -3.470805   -1.9347077   0.13361465    -3.470805    1.5360973   589718 
 7453000    1.3748961   -3.4709119   -1.9354965   0.13141611   -3.4709119    1.5354154   589738 
 7454000    1.3750602   -3.4712223   -1.9356627   0.12272879   -3.4712223    1.5355596   589753 
 7455000     1.373812   -3.4700604   -1.9359129   0.13401278   -3.4700604    1.5341475   589760 
 7456000    1.3742832   -3.4700343    -1.935371    0.1275975   -3.4700343    1.5346633   589764 
 7457000    1.3721201    -3.468097    -1.935857   0.14006172    -3.468097      1.53224   589767 
 7458000     1.376912   -3.4722991   -1.9347315   0.12952623   -3.4722991    1.5375676   589776 
 7459000     1.375865   -3.4697981   -1.9334335   0.12907471   -3.4697981    1.5363646   589789 
 7460000    1.3769542   -3.4713439    -1.933797   0.12732491   -3.4713439    1.5375469   589802 
 7461000    1.3742581   -3.4681332   -1.9336176     0.133614   -3.4681332    1.5345156   589810 
 7462000    1.3767292   -3.4715094   -1.9342788   0.12855063   -3.4715094    1.5372306   589827 
 7463000    1.3771567   -3.4716092   -1.9339351   0.12761631   -3.4716092    1.5376741   589840 
 7464000    1.3770427   -3.4712433   -1.9337566   0.13025785   -3.4712433    1.5374868   589863 
 7465000    1.3759926   -3.4709303   -1.9346238    0.1321366   -3.4709303    1.5363065   589866 
 7466000    1.3770144   -3.4707692   -1.9333662   0.13277562   -3.4707692    1.5374031   589883 
 7467000    1.3756896   -3.4693728   -1.9334775   0.12579748   -3.4693728    1.5358953   589894 
 7468000    1.3769414   -3.4714274   -1.9341711    0.1304322   -3.4714274    1.5372564   589908 
 7469000    1.3761782   -3.4700317    -1.933656   0.13366333   -3.4700317    1.5363757   589919 
 7470000    1.3769868   -3.4704443   -1.9331815   0.13021311   -3.4704443    1.5372628   589925 
 7471000    1.3757231   -3.4698636   -1.9340428   0.12813279   -3.4698636    1.5358208   589937 
 7472000     1.375803   -3.4711058   -1.9352116   0.13325579   -3.4711058    1.5358943   589943 
 7473000    1.3774951   -3.4728699   -1.9350971   0.12884629   -3.4728699    1.5377729   589947 
 7474000    1.3781176   -3.4724837   -1.9340707   0.13021285   -3.4724837     1.538413   589968 
 7475000    1.3767681   -3.4714763   -1.9346036   0.12878935   -3.4714763    1.5368727   589981 
 7476000    1.3758615   -3.4713957   -1.9355506    0.1321237   -3.4713957    1.5358451   589987 
 7477000    1.3769315    -3.473117    -1.936127    0.1298356    -3.473117      1.53699   590006 
 7478000    1.3761508   -3.4716597   -1.9355802   0.13397766   -3.4716597    1.5360795   590021 
 7479000    1.3774723   -3.4743112   -1.9367853   0.12776407   -3.4743112    1.5375259   590032 
 7480000    1.3763354    -3.472628   -1.9364205   0.13360489    -3.472628    1.5362075   590051 
 7481000    1.3759968   -3.4724832   -1.9366875   0.12780186   -3.4724832    1.5357957   590064 
 7482000    1.3773558   -3.4737824   -1.9364803   0.13413001   -3.4737824    1.5373021   590068 
 7483000    1.3751651   -3.4720923   -1.9373108     0.130126   -3.4720923    1.5347815   590097 
 7484000    1.3754648   -3.4726954   -1.9376028   0.13033124   -3.4726954    1.5350927   590106 
 7485000    1.3757024   -3.4721358   -1.9367988   0.12665208   -3.4721358    1.5353369   590114 
 7486000    1.3756879   -3.4719878    -1.936719   0.13957646   -3.4719878    1.5352688   590134 
 7487000    1.3764117    -3.473007   -1.9369773   0.13630129    -3.473007    1.5360296   590152 
 7488000    1.3773783   -3.4734884   -1.9364399   0.13680171   -3.4734884    1.5370485   590175 
 7489000     1.377525   -3.4743596   -1.9371996   0.12899501   -3.4743596      1.53716   590195 
 7490000    1.3748196    -3.472415   -1.9383024   0.13504653    -3.472415    1.5341126   590206 
 7491000    1.3750525   -3.4729958   -1.9386624   0.12998096   -3.4729958    1.5343334   590221 
 7492000    1.3747921   -3.4723581   -1.9383022   0.13143962   -3.4723581    1.5340559   590216 
 7493000    1.3762699   -3.4747181   -1.9390315   0.12992023   -3.4747181    1.5356867   590223 
 7494000    1.3769931   -3.4741558   -1.9376726   0.13063491   -3.4741558    1.5364832   590227 
 7495000    1.3768175   -3.4744334   -1.9381722   0.13024473   -3.4744334    1.5362612   590237 
 7496000     1.377861   -3.4763866   -1.9389584   0.12220653   -3.4763866    1.5374282   590236 
 7497000    1.3753385   -3.4730093   -1.9384269   0.13106919   -3.4730093    1.5345823   590248 
 7498000    1.3758443   -3.4737721   -1.9386617   0.13557644   -3.4737721    1.5351103   590262 
 7499000    1.3764139    -3.475306   -1.9395706   0.12811298    -3.475306    1.5357354   590266 
 7500000    1.3759208   -3.4740974   -1.9389329   0.12815812   -3.4740974    1.5351645   590274 
 7501000    1.3781361   -3.4757793   -1.9381718   0.12266396   -3.4757793    1.5376075   590285 
 7502000    1.3782669   -3.4755741   -1.9378624   0.12537821   -3.4755741    1.5377117   590301 
 7503000    1.3763654   -3.4733751    -1.937803   0.13028925   -3.4733751    1.5355721   590308 
 7504000    1.3777257   -3.4742127   -1.9371178   0.13045558   -3.4742127     1.537095   590306 
 7505000    1.3756038   -3.4727144   -1.9380076   0.13096749   -3.4727144    1.5347068   590314 
 7506000     1.375838   -3.4732848    -1.938335   0.13148192   -3.4732848    1.5349498   590321 
 7507000    1.3782551   -3.4761475   -1.9385479   0.12914174   -3.4761475    1.5375996   590339 
 7508000    1.3758215   -3.4745023   -1.9396306   0.13022015   -3.4745023    1.5348717   590344 
 7509000    1.3742777   -3.4737079   -1.9405793   0.12723909   -3.4737079    1.5331287   590352 
 7510000    1.3754728    -3.473961   -1.9395303   0.12876308    -3.473961    1.5344307   590364 
 7511000    1.3770043   -3.4758265   -1.9397107    0.1282572   -3.4758265    1.5361158   590373 
 7512000    1.3736978     -3.47193   -1.9395079   0.13553104     -3.47193     1.532422   590375 
 7513000    1.3757658   -3.4740253   -1.9393276   0.12650038   -3.4740253    1.5346977   590387 
 7514000    1.3752987   -3.4744385   -1.9402774   0.12988515   -3.4744385    1.5341611   590393 
 7515000    1.3760077   -3.4753827   -1.9404515   0.13294196   -3.4753827    1.5349312   590401 
 7516000    1.3743481   -3.4738782   -1.9408295    0.1323223   -3.4738782    1.5330487   590413 
 7517000    1.3763308   -3.4757946    -1.940568    0.1316274   -3.4757946    1.5352266   590426 
 7518000    1.3765597   -3.4760124   -1.9405382   0.13212654   -3.4760124    1.5354742   590429 
 7519000     1.376747   -3.4775176   -1.9418554   0.13193016   -3.4775176    1.5356622   590437 
 7520000    1.3749409   -3.4754852   -1.9418246   0.12918095   -3.4754852    1.5336606   590432 
 7521000    1.3743262   -3.4747755   -1.9418317   0.12972876   -3.4747755    1.5329438   590444 
 7522000     1.376535   -3.4766118   -1.9412042   0.13405873   -3.4766118    1.5354076   590444 
 7523000    1.3762958   -3.4758824    -1.940778   0.12298112   -3.4758824    1.5351044   590458 
 7524000    1.3768957   -3.4765109   -1.9407531   0.13214667   -3.4765109    1.5357578   590464 
 7525000    1.3758869    -3.477057   -1.9424373   0.12931014    -3.477057    1.5346197   590469 
 7526000    1.3755386   -3.4771733   -1.9429629   0.12831651   -3.4771733    1.5342104   590477 
 7527000    1.3753002   -3.4766516   -1.9427642   0.12564813   -3.4766516    1.5338874   590499 
 7528000    1.3753244   -3.4759163   -1.9420123   0.12885277   -3.4759163    1.5339039   590503 
 7529000    1.3749278   -3.4755325   -1.9421124   0.13079915   -3.4755325    1.5334201   590519 
 7530000    1.3755436   -3.4759962    -1.941892   0.12729832   -3.4759962    1.5341043   590520 
 7531000    1.3773343   -3.4775131   -1.9414611   0.12846221   -3.4775131     1.536052   590539 
 7532000    1.3769548   -3.4769178   -1.9413463   0.13053023   -3.4769178    1.5355716   590561 
 7533000    1.3763016   -3.4769174   -1.9421184   0.12716587   -3.4769174    1.5347989   590578 
 7534000    1.3763066   -3.4760399   -1.9412641   0.13189179   -3.4760399    1.5347759   590589 
 7535000    1.3753369   -3.4754552   -1.9418049   0.12768003   -3.4754552    1.5336504   590606 
 7536000    1.3772218   -3.4777327    -1.941983   0.12971861   -3.4777327    1.5357497   590607 
 7537000    1.3766831   -3.4766089   -1.9414781   0.13339318   -3.4766089    1.5351308   590614 
 7538000    1.3763223   -3.4773497   -1.9426368   0.12602583   -3.4773497    1.5347128   590620 
 7539000    1.3765253   -3.4778947   -1.9429997   0.12847974   -3.4778947     1.534895   590637 
 7540000     1.375514   -3.4777682   -1.9440449   0.12390459   -3.4777682    1.5337232   590654 
 7541000    1.3744702    -3.475649   -1.9431415   0.12903253    -3.475649    1.5325075   590674 
 7542000     1.376232   -3.4769267    -1.942486   0.12906872   -3.4769267    1.5344407   590686 
 7543000    1.3760617   -3.4771305   -1.9428901   0.12796319   -3.4771305    1.5342404   590690 
 7544000    1.3761452   -3.4773292    -1.943045   0.12971879   -3.4773292    1.5342842   590709 
 7545000    1.3763888   -3.4772024   -1.9426596   0.13212868   -3.4772024    1.5345428   590714 
 7546000    1.3767553    -3.478284   -1.9433482   0.12933668    -3.478284    1.5349358   590720 
 7547000    1.3758881   -3.4768947   -1.9429699   0.13362867   -3.4768947    1.5339248   590737 
 7548000    1.3765417   -3.4791454   -1.9445179   0.12875601   -3.4791454    1.5346275   590747 
 7549000      1.37632   -3.4793044   -1.9449552   0.12820346   -3.4793044    1.5343492   590759 
 7550000    1.3766072    -3.478714   -1.9441044   0.13054705    -3.478714    1.5346096   590782 
 7551000    1.3764466   -3.4791868   -1.9447796   0.13168992   -3.4791868    1.5344072   590791 
 7552000    1.3763182    -3.478375     -1.94415    0.1336172    -3.478375    1.5342251   590806 
 7553000    1.3764631   -3.4778405   -1.9434824   0.13458505   -3.4778405    1.5343581   590817 
 7554000    1.3777777   -3.4785281   -1.9427202   0.13316548   -3.4785281    1.5358079   590823 
 7555000    1.3780038    -3.479452   -1.9434234   0.12866925    -3.479452    1.5360287   590835 
 7556000    1.3750377   -3.4776241   -1.9449354   0.13786483   -3.4776241    1.5326887   590848 
 7557000    1.3740377   -3.4759076    -1.944362   0.13048826   -3.4759076    1.5315456   590859 
 7558000    1.3763581   -3.4780896   -1.9439888   0.12796991   -3.4780896    1.5341009   590871 
 7559000    1.3762337   -3.4780634    -1.944122   0.12996424   -3.4780634    1.5339414   590879 
 7560000    1.3753404   -3.4776417   -1.9447245   0.12996527   -3.4776417    1.5329172   590890 
 7561000    1.3760709   -3.4765902   -1.9429003   0.13001069   -3.4765902    1.5336899   590906 
 7562000    1.3741122   -3.4747864   -1.9433055   0.13428623   -3.4747864    1.5314809   590916 
 7563000    1.3770514   -3.4782528   -1.9435428   0.12980777   -3.4782528      1.53471   590934 
 7564000    1.3777415    -3.478626   -1.9431885   0.12477026    -3.478626    1.5354374   590950 
 7565000     1.377197   -3.4785765   -1.9437848   0.12720242   -3.4785765    1.5347917   590965 
 7566000    1.3765055    -3.478707   -1.9447041   0.13138171    -3.478707    1.5340028   590972 
 7567000    1.3766495   -3.4784192      -1.9443   0.12878943   -3.4784192    1.5341192   590989 
 7568000    1.3765021   -3.4781363   -1.9441839   0.13634041   -3.4781363    1.5339524   590990 
 7569000    1.3764719   -3.4779581   -1.9440679   0.12948787   -3.4779581    1.5338902   591001 
 7570000    1.3753985   -3.4770074   -1.9443626   0.13083647   -3.4770074    1.5326448   591020 
 7571000     1.377733   -3.4792321   -1.9440068   0.12768439   -3.4792321    1.5352254   591028 
 7572000      1.37817    -3.478358   -1.9426846    0.1295635    -3.478358    1.5356734   591043 
 7573000    1.3761993   -3.4767835   -1.9433632    0.1286108   -3.4767835    1.5334203   591065 
 7574000    1.3763347   -3.4764181   -1.9428833   0.13697264   -3.4764181    1.5335348   591079 
 7575000    1.3771381   -3.4786885   -1.9442896   0.12531337   -3.4786885    1.5343989   591091 
 7576000     1.377631    -3.478992   -1.9440751   0.12963171    -3.478992    1.5349169   591103 
 7577000    1.3782812   -3.4792607   -1.9436921   0.13329265   -3.4792607    1.5355686   591131 
 7578000    1.3766784   -3.4786002   -1.9448484   0.13362336   -3.4786002    1.5337518   591143 
 7579000     1.377789   -3.4794648   -1.9445198   0.13178323   -3.4794648     1.534945   591160 
 7580000    1.3774712   -3.4789069    -1.944329   0.13528268   -3.4789069    1.5345779   591165 
 7581000    1.3760749   -3.4784861   -1.9454819   0.13382857   -3.4784861    1.5330043   591172 
 7582000    1.3774165   -3.4804789   -1.9459905   0.13179413   -3.4804789    1.5344884   591176 
 7583000    1.3773351   -3.4804291   -1.9460963   0.12856149   -3.4804291    1.5343328   591201 
 7584000    1.3764196   -3.4799264   -1.9466549   0.13256736   -3.4799264    1.5332715   591217 
 7585000    1.3770819   -3.4810957   -1.9471383   0.12996922   -3.4810957    1.5339574   591237 
 7586000    1.3785359   -3.4818695   -1.9463522   0.13061268   -3.4818695    1.5355173   591260 
 7587000    1.3752526   -3.4786013   -1.9468008   0.13085894   -3.4786013    1.5318005   591283 
 7588000    1.3754403   -3.4799999   -1.9480085   0.13478944   -3.4799999    1.5319914   591290 
 7589000    1.3766659    -3.481335   -1.9480174     0.128792    -3.481335    1.5333176   591305 
 7590000    1.3775331   -3.4816251   -1.9474116   0.12707049   -3.4816251    1.5342135   591332 
 7591000    1.3776623   -3.4819273   -1.9475829   0.12908216   -3.4819273    1.5343444   591337 
 7592000    1.3764014   -3.4807352   -1.9478314   0.12677184   -3.4807352    1.5329038   591351 
 7593000    1.3766897   -3.4817882   -1.9485737   0.13044442   -3.4817882    1.5332145   591355 
 7594000    1.3761177   -3.4812732    -1.948719   0.13793231   -3.4812732    1.5325541   591364 
 7595000    1.3776637   -3.4814256   -1.9471834    0.1276419   -3.4814256    1.5342422   591377 
 7596000    1.3766841   -3.4812444   -1.9481139   0.14013658   -3.4812444    1.5331305   591385 
 7597000     1.377503   -3.4819767   -1.9479446   0.13035693   -3.4819767    1.5340321   591389 
 7598000    1.3760141   -3.4803917   -1.9480618    0.1332028   -3.4803917    1.5323299   591406 
 7599000     1.376091   -3.4808148   -1.9484019   0.13287554   -3.4808148     1.532413   591407 
 7600000    1.3767074   -3.4812585   -1.9482031   0.12655361   -3.4812585    1.5330554   591424 
 7601000    1.3765672   -3.4799827    -1.947112   0.13420909   -3.4799827    1.5328707   591435 
 7602000    1.3776118   -3.4810549   -1.9470624   0.12982735   -3.4810549    1.5339925   591451 
 7603000    1.3760883   -3.4800351   -1.9477883   0.13094059   -3.4800351    1.5322468   591470 
 7604000    1.3759266   -3.4799043   -1.9478894    0.1296895   -3.4799043    1.5320149   591490 
 7605000    1.3772422   -3.4809941   -1.9475766   0.12888466   -3.4809941    1.5334176   591514 
 7606000    1.3769348    -3.480761    -1.947709   0.13160821    -3.480761     1.533052   591523 
 7607000    1.3782144   -3.4821844   -1.9477441   0.13302322   -3.4821844    1.5344403   591537 
 7608000    1.3788738   -3.4824465   -1.9472954   0.13011215   -3.4824465    1.5351511   591546 
 7609000    1.3771186   -3.4816308   -1.9484546   0.13245283   -3.4816308    1.5331762   591554 
 7610000    1.3772815   -3.4810595   -1.9477408   0.12975661   -3.4810595    1.5333188   591569 
 7611000    1.3772546   -3.4808442   -1.9475891   0.13128208   -3.4808442    1.5332551   591582 
 7612000    1.3774474   -3.4815675   -1.9481445   0.13492867   -3.4815675     1.533423   591600 
 7613000    1.3778469   -3.4824087   -1.9485875   0.13124131   -3.4824087    1.5338212   591618 
 7614000    1.3765333   -3.4808576   -1.9485195   0.13210185   -3.4808576    1.5323381   591626 
 7615000    1.3789907   -3.4840526   -1.9489842   0.12881902   -3.4840526    1.5350685   591628 
 7616000    1.3800166   -3.4848685   -1.9486736   0.13013472   -3.4848685    1.5361949   591634 
 7617000    1.3777254    -3.482004   -1.9483467   0.12831383    -3.482004    1.5336573   591629 
 7618000    1.3776414   -3.4817244   -1.9481994   0.12713836   -3.4817244     1.533525   591644 
 7619000      1.37743   -3.4811717   -1.9478976   0.13589488   -3.4811717    1.5332741   591650 
 7620000    1.3773895   -3.4821972   -1.9490045   0.13145139   -3.4821972    1.5331928   591664 
 7621000     1.375746   -3.4807526   -1.9493711   0.13069851   -3.4807526    1.5313815   591657 
 7622000      1.37698   -3.4821459   -1.9494142   0.13012722   -3.4821459    1.5327317   591666 
 7623000     1.378732   -3.4838601   -1.9492093   0.13548934   -3.4838601    1.5346508   591678 
 7624000    1.3763922   -3.4819297   -1.9499118    0.1333566   -3.4819297    1.5320179   591689 
 7625000     1.377928   -3.4824589   -1.9487394   0.13227444   -3.4824589    1.5337195   591692 
 7626000    1.3783207   -3.4830469   -1.9489343   0.12924837   -3.4830469    1.5341126   591709 
 7627000    1.3800028   -3.4846963   -1.9487608   0.13673144   -3.4846963    1.5359355   591728 
 7628000    1.3792662   -3.4838329    -1.948725   0.13096243   -3.4838329    1.5351079   591731 
 7629000    1.3790222    -3.484145   -1.9493191   0.13420612    -3.484145    1.5348259   591735 
 7630000    1.3794403   -3.4847646   -1.9495226   0.12669031   -3.4847646     1.535242   591754 
 7631000    1.3788498   -3.4834395   -1.9488754   0.13242833   -3.4834395    1.5345641   591762 
 7632000    1.3795707   -3.4836407   -1.9482796   0.13095065   -3.4836407    1.5353611   591764 
 7633000    1.3781314   -3.4828043   -1.9490657   0.13703962   -3.4828043    1.5337386   591772 
 7634000    1.3778582     -3.48255   -1.9491413   0.13596003     -3.48255    1.5334087   591782 
 7635000    1.3774923   -3.4818807   -1.9489156    0.1273082   -3.4818807    1.5329651   591796 
 7636000    1.3782537    -3.482831   -1.9490444   0.13049961    -3.482831    1.5337866   591806 
 7637000    1.3765808   -3.4810403   -1.9491361   0.13317215   -3.4810403    1.5319042   591814 
 7638000    1.3781774   -3.4821334   -1.9484913   0.13002999   -3.4821334    1.5336421   591829 
 7639000    1.3790977   -3.4821642   -1.9475446   0.13157973   -3.4821642    1.5346195   591847 
 7640000    1.3776405   -3.4809133   -1.9479568   0.13847681   -3.4809133    1.5329565   591863 
 7641000    1.3785666   -3.4817723    -1.947806   0.13200308   -3.4817723    1.5339663   591871 
 7642000    1.3781904   -3.4822058   -1.9487047   0.13174336   -3.4822058    1.5335011   591889 
 7643000    1.3778512   -3.4821652   -1.9490596   0.12892879   -3.4821652    1.5331055   591896 
 7644000    1.3789529   -3.4822473   -1.9479729   0.13049166   -3.4822473    1.5342744   591918 
 7645000    1.3780657    -3.481813   -1.9485725   0.13080182    -3.481813    1.5332406   591936 
 7646000    1.3777481   -3.4816702    -1.948809   0.13358158   -3.4816702    1.5328613   591946 
 7647000    1.3793949   -3.4840328   -1.9493446   0.13253117   -3.4840328    1.5346883   591948 
 7648000    1.3775871   -3.4831041   -1.9504582   0.13691413   -3.4831041    1.5326459   591960 
 7649000    1.3777867   -3.4836442   -1.9507762   0.12858529   -3.4836442     1.532868   591960 
 7650000    1.3781621   -3.4847212    -1.951464   0.12665557   -3.4847212    1.5332571   591971 
 7651000    1.3776709   -3.4837232   -1.9510488   0.13455457   -3.4837232    1.5326744   591985 
 7652000    1.3768257   -3.4832293   -1.9515314   0.12818666   -3.4832293    1.5316979   591999 
 7653000    1.3788256   -3.4853192   -1.9514535   0.12834165   -3.4853192    1.5338658   592021 
 7654000    1.3775956   -3.4838629   -1.9514197   0.13316968   -3.4838629    1.5324432   592042 
 7655000    1.3790066   -3.4863406   -1.9523693   0.12742948   -3.4863406    1.5339713   592058 
 7656000    1.3775839   -3.4845923   -1.9522476   0.13376433   -3.4845923    1.5323447   592075 
 7657000     1.380619   -3.4880323   -1.9523479   0.13209561   -3.4880323    1.5356844   592089 
 7658000    1.3793063   -3.4861917   -1.9520166   0.13492803   -3.4861917    1.5341751   592108 
 7659000    1.3785696    -3.487327   -1.9539946   0.13186981    -3.487327    1.5333324   592117 
 7660000    1.3784782   -3.4862665   -1.9530928   0.13501591   -3.4862665    1.5331738   592139 
 7661000    1.3770661   -3.4865624   -1.9549902   0.13032258   -3.4865624    1.5315721   592151 
 7662000    1.3773125   -3.4862477   -1.9544532   0.13210872   -3.4862477    1.5317945   592171 
 7663000    1.3776341    -3.487376   -1.9552446   0.13044398    -3.487376    1.5321314   592179 
 7664000     1.377974    -3.487691    -1.955179   0.12705852    -3.487691     1.532512   592178 
 7665000    1.3758957   -3.4849332   -1.9547739   0.12835903   -3.4849332    1.5301592   592194 
 7666000    1.3782685   -3.4880045   -1.9552426   0.12729482   -3.4880045    1.5327619   592208 
 7667000    1.3761311   -3.4857094   -1.9553865   0.12345703   -3.4857094    1.5303229   592232 
 7668000    1.3768387   -3.4863239   -1.9552244   0.12632677   -3.4863239    1.5310995   592236 
 7669000    1.3780199   -3.4867989    -1.954417   0.13078218   -3.4867989    1.5323819   592248 
 7670000    1.3794904   -3.4873152   -1.9533188   0.13146544   -3.4873152    1.5339964   592256 
 7671000    1.3781129   -3.4870357   -1.9545891   0.12800312   -3.4870357    1.5324466   592263 
 7672000    1.3783291   -3.4877597   -1.9551064   0.13032614   -3.4877597    1.5326533   592276 
 7673000     1.377606    -3.486246   -1.9544148   0.13034019    -3.486246    1.5318311   592283 
 7674000     1.378539   -3.4875276   -1.9546874   0.12889409   -3.4875276    1.5328402   592294 
 7675000    1.3774423   -3.4869022   -1.9553152   0.13371861   -3.4869022    1.5315871   592307 
 7676000    1.3776228    -3.485378   -1.9535876    0.1336027    -3.485378    1.5317903   592306 
 7677000     1.377806   -3.4858879   -1.9539559    0.1309381   -3.4858879     1.531932   592330 
 7678000    1.3785123   -3.4864389   -1.9537682   0.12774188   -3.4864389    1.5326707   592348 
 7679000     1.377523   -3.4870779   -1.9555227   0.12650768   -3.4870779    1.5315552   592354 
 7680000    1.3761886   -3.4858891   -1.9558691    0.1363208   -3.4858891    1.5300199   592374 
 7681000    1.3781868   -3.4874302   -1.9552326   0.13577627   -3.4874302    1.5321975   592391 
 7682000    1.3772424   -3.4867881   -1.9556534   0.12839442   -3.4867881    1.5311347   592396 
 7683000    1.3773375    -3.487339   -1.9561166   0.12803068    -3.487339    1.5312224   592403 
 7684000    1.3769371    -3.486604   -1.9558708   0.13225581    -3.486604    1.5307333   592420 
 7685000    1.3771461   -3.4866505   -1.9557081   0.13085475   -3.4866505    1.5309423   592429 
 7686000    1.3780968   -3.4871911   -1.9552642    0.1307745   -3.4871911    1.5319269   592457 
 7687000    1.3799975   -3.4897099   -1.9557272   0.12939615   -3.4897099    1.5339827   592479 
 7688000    1.3800384   -3.4881264   -1.9541396   0.12936723   -3.4881264    1.5339868   592495 
 7689000    1.3789438   -3.4869524   -1.9541875   0.14070523   -3.4869524    1.5327649   592497 
 7690000    1.3806682   -3.4883203   -1.9536439   0.12509479   -3.4883203    1.5346764   592499 
 7691000    1.3794774   -3.4870079   -1.9536731   0.13546261   -3.4870079    1.5333347   592506 
 7692000    1.3786713   -3.4861432   -1.9537278    0.1312627   -3.4861432    1.5324154   592515 
 7693000    1.3777233   -3.4844093   -1.9530863   0.13570033   -3.4844093    1.5313229   592530 
 7694000    1.3804475   -3.4877614   -1.9534494   0.13284175   -3.4877614     1.534312   592545 
 7695000     1.379888   -3.4871895   -1.9535588   0.12468244   -3.4871895    1.5336307   592568 
 7696000    1.3788155   -3.4858284   -1.9534182   0.12791983   -3.4858284    1.5324102   592579 
 7697000     1.379005   -3.4874732   -1.9548395   0.13189131   -3.4874732    1.5326338   592574 
 7698000    1.3789809   -3.4865049    -1.953898   0.13519657   -3.4865049    1.5326069   592574 
 7699000    1.3794935   -3.4863427   -1.9531996   0.13599725   -3.4863427    1.5331431   592587 
 7700000    1.3792644   -3.4860302   -1.9531625   0.13481915   -3.4860302    1.5328677   592595 
 7701000    1.3788549   -3.4861053   -1.9537263   0.13169975   -3.4861053     1.532379   592608 
 7702000    1.3784015   -3.4860777   -1.9542543    0.1335726   -3.4860777    1.5318234   592628 
 7703000    1.3786224   -3.4868726   -1.9548321   0.13687853   -3.4868726    1.5320405   592639 
 7704000    1.3789554    -3.486854   -1.9544771   0.13572274    -3.486854    1.5323769   592652 
 7705000    1.3795022   -3.4868746   -1.9539314   0.13247905   -3.4868746    1.5329432   592668 
 7706000    1.3791082   -3.4872766   -1.9547764   0.12902908   -3.4872766    1.5325001   592670 
 7707000    1.3786412   -3.4870199   -1.9550749   0.13062232   -3.4870199     1.531945   592684 
 7708000    1.3806112   -3.4892756     -1.95517    0.1325763   -3.4892756    1.5341056   592695 
 7709000    1.3806944   -3.4894488    -1.955274   0.13266992   -3.4894488    1.5341748   592704 
 7710000    1.3794256   -3.4885697   -1.9558229    0.1341562   -3.4885697    1.5327468   592711 
 7711000    1.3808372   -3.4897014   -1.9554172   0.13067425   -3.4897014    1.5342843   592723 
 7712000    1.3803761   -3.4895948   -1.9558306   0.13430255   -3.4895948    1.5337642   592726 
 7713000    1.3808007   -3.4897611   -1.9555691   0.13044675   -3.4897611     1.534192   592743 
 7714000    1.3793044   -3.4888886   -1.9563876   0.13578611   -3.4888886     1.532501   592754 
 7715000    1.3809451   -3.4893846   -1.9551513    0.1371655   -3.4893846    1.5342333   592789 
 7716000    1.3810052   -3.4898979   -1.9556392    0.1388968   -3.4898979    1.5342587   592805 
 7717000    1.3812076   -3.4904894   -1.9560472   0.12662236   -3.4904894    1.5344421   592821 
 7718000    1.3796764   -3.4883769   -1.9556694   0.13569582   -3.4883769    1.5327075   592834 
 7719000    1.3802084   -3.4888076   -1.9555118   0.13435806   -3.4888076    1.5332958   592835 
 7720000    1.3806046   -3.4888049   -1.9551362   0.13291847   -3.4888049    1.5336688   592861 
 7721000    1.3802487   -3.4889126   -1.9556547   0.13484816   -3.4889126    1.5332578   592867 
 7722000      1.37978   -3.4886831   -1.9559977   0.13194088   -3.4886831    1.5326854   592887 
 7723000    1.3806852   -3.4894072   -1.9557498   0.13700197   -3.4894072    1.5336574   592900 
 7724000    1.3820644   -3.4910784   -1.9559252   0.12994785   -3.4910784    1.5351532   592914 
 7725000    1.3816341   -3.4900027      -1.9554   0.13314772   -3.4900027    1.5346027   592942 
 7726000    1.3807795   -3.4896326   -1.9560231   0.13250026   -3.4896326    1.5336095   592959 
 7727000    1.3793944   -3.4871335   -1.9550985   0.13533019   -3.4871335     1.532035   592973 
 7728000    1.3810109    -3.489245   -1.9554457   0.13418776    -3.489245    1.5337993   592985 
 7729000    1.3815137   -3.4896301   -1.9553319   0.13416569   -3.4896301    1.5342982   593008 
 7730000    1.3808324   -3.4885091   -1.9549883   0.13190425   -3.4885091    1.5335208   593016 
 7731000    1.3812042   -3.4899589   -1.9560484   0.12829436   -3.4899589    1.5339105   593025 
 7732000    1.3798106    -3.487342   -1.9550282   0.13838104    -3.487342    1.5323138   593044 
 7733000    1.3803355   -3.4872754   -1.9544227   0.13258174   -3.4872754    1.5328527   593061 
 7734000    1.3808343   -3.4885826   -1.9551915   0.13304807   -3.4885826    1.5333911   593067 
 7735000    1.3808786    -3.488614   -1.9552306   0.13410454    -3.488614    1.5333834   593089 
 7736000    1.3806606   -3.4889873   -1.9558795   0.13413726   -3.4889873    1.5331078   593102 
 7737000    1.3796867   -3.4880248   -1.9560244   0.13343949   -3.4880248    1.5320004   593112 
 7738000    1.3804616   -3.4881828   -1.9553606   0.12978835   -3.4881828    1.5328222   593127 
 7739000    1.3817334   -3.4899723   -1.9557639   0.14009198   -3.4899723    1.5342084   593137 
 7740000    1.3815964   -3.4888253      -1.9548   0.13540374   -3.4888253    1.5340253   593149 
 7741000    1.3812283   -3.4900549   -1.9564875   0.13160159   -3.4900549    1.5335674   593168 
 7742000    1.3806084   -3.4894462   -1.9565877   0.13425913   -3.4894462    1.5328585   593176 
 7743000    1.3798376   -3.4886392   -1.9566597   0.13751853   -3.4886392    1.5319795   593185 
 7744000    1.3818497   -3.4906146   -1.9564296   0.13337176   -3.4906146     1.534185   593196 
 7745000     1.381577   -3.4906292   -1.9567677   0.13265879   -3.4906292    1.5338615   593204 
 7746000    1.3821436   -3.4906625   -1.9562004   0.13394075   -3.4906625    1.5344621   593215 
 7747000    1.3819391   -3.4912914   -1.9570874   0.13538171   -3.4912914     1.534204   593227 
 7748000    1.3805901     -3.49031   -1.9576501   0.13299143     -3.49031    1.5326599   593245 
 7749000    1.3802559   -3.4896774   -1.9574246   0.13641589   -3.4896774    1.5322528   593259 
 7750000    1.3802977   -3.4895322   -1.9572563   0.13629984   -3.4895322    1.5322759   593268 
 7751000    1.3805188   -3.4907002   -1.9582047   0.13004397   -3.4907002    1.5324955   593278 
 7752000    1.3795343   -3.4907374   -1.9593554   0.13417174   -3.4907374     1.531382   593286 
 7753000    1.3812392   -3.4933722   -1.9601235   0.13166285   -3.4933722    1.5332487   593296 
 7754000    1.3801745   -3.4918285   -1.9598108    0.1300515   -3.4918285    1.5320177   593315 
 7755000    1.3788151   -3.4904244     -1.95998   0.13248067   -3.4904244    1.5304444   593340 
 7756000    1.3807134   -3.4926833   -1.9601371   0.13007224   -3.4926833    1.5325462   593342 
 7757000    1.3799681   -3.4920397   -1.9603517   0.13340502   -3.4920397     1.531688   593354 
 7758000    1.3802628   -3.4923707   -1.9603944   0.12892691   -3.4923707    1.5319763   593369 
 7759000    1.3804096    -3.491319   -1.9592391   0.13427987    -3.491319    1.5320799   593392 
 7760000    1.3817131   -3.4923832   -1.9588876     0.135249   -3.4923832    1.5334956   593404 
 7761000    1.3824608   -3.4924516   -1.9581417   0.13582787   -3.4924516    1.5343099   593410 
 7762000    1.3819346   -3.4924572   -1.9587597   0.12710453   -3.4924572    1.5336975   593421 
 7763000    1.3830525   -3.4931011   -1.9581914   0.12763072   -3.4931011    1.5349097   593432 
 7764000    1.3816003   -3.4914447   -1.9581827   0.13617554   -3.4914447    1.5332619   593446 
 7765000      1.38137   -3.4906375   -1.9576544   0.13877335   -3.4906375    1.5329831   593455 
 7766000    1.3833223   -3.4925278   -1.9574247   0.13150909   -3.4925278    1.5351031   593473 
 7767000    1.3820643   -3.4909909   -1.9572812   0.13549065   -3.4909909    1.5337097   593472 
 7768000    1.3820414   -3.4910058   -1.9573164   0.13673283   -3.4910058    1.5336894   593470 
 7769000    1.3832176   -3.4912405   -1.9562846   0.13620969   -3.4912405    1.5349559   593485 
 7770000    1.3815082   -3.4895153   -1.9564951   0.13446097   -3.4895153    1.5330202   593500 
 7771000    1.3829384   -3.4908811   -1.9562919   0.13410534   -3.4908811    1.5345892   593507 
 7772000    1.3818883   -3.4910025   -1.9576251   0.13116361   -3.4910025    1.5333774   593525 
 7773000    1.3819801   -3.4915115   -1.9580452    0.1285973   -3.4915115    1.5334663   593530 
 7774000    1.3806867   -3.4891117   -1.9571193   0.14044561   -3.4891117    1.5319924   593545 
 7775000    1.3813854   -3.4900261   -1.9572429    0.1381733   -3.4900261    1.5327832   593539 
 7776000     1.383192   -3.4917072   -1.9569608   0.13028997   -3.4917072    1.5347465   593555 
 7777000    1.3816812   -3.4910261   -1.9579896   0.13411943   -3.4910261    1.5330365   593568 
 7778000    1.3817216   -3.4918495    -1.958763   0.13140514   -3.4918495    1.5330865   593566 
 7779000    1.3829572   -3.4917113   -1.9573055   0.13265771   -3.4917113    1.5344058   593586 
 7780000    1.3823362   -3.4908401   -1.9571802   0.14287286   -3.4908401    1.5336599   593608 
 7781000     1.382257   -3.4911274   -1.9575424   0.13702412   -3.4911274     1.533585   593603 
 7782000    1.3814969   -3.4896383   -1.9569301   0.13610915   -3.4896383    1.5327081   593616 
 7783000    1.3827167   -3.4915425   -1.9575664    0.1350751   -3.4915425    1.5339761   593649 
 7784000    1.3831767   -3.4911228   -1.9566518   0.13576932   -3.4911228    1.5344709   593655 
 7785000    1.3833708   -3.4915031   -1.9568452   0.13538832   -3.4915031    1.5346579   593666 
 7786000       1.3845    -3.493384   -1.9575098   0.13885349    -3.493384    1.5358743   593680 
 7787000    1.3818911    -3.491386   -1.9584343   0.14121008    -3.491386    1.5329517   593691 
 7788000    1.3805049   -3.4912567   -1.9599046   0.13764397   -3.4912567    1.5313521   593715 
 7789000     1.381354   -3.4924473   -1.9601482   0.12838418   -3.4924473    1.5322991   593713 
 7790000     1.381987   -3.4936125   -1.9606499   0.13054366   -3.4936125    1.5329626   593728 
 7791000    1.3825462   -3.4946755   -1.9611391   0.12826895   -3.4946755    1.5335364   593746 
 7792000    1.3806748   -3.4924856   -1.9610456   0.13748437   -3.4924856      1.53144   593754 
 7793000    1.3832402   -3.4952274   -1.9609471   0.13637524   -3.4952274    1.5342803   593756 
 7794000    1.3818322   -3.4937267   -1.9610391   0.13654727   -3.4937267    1.5326877   593768 
 7795000     1.380979   -3.4930209   -1.9612977   0.13375776   -3.4930209    1.5317232   593775 
 7796000    1.3821644   -3.4942911   -1.9612685   0.13489902   -3.4942911    1.5330226   593781 
 7797000    1.3804895    -3.493421   -1.9622458   0.13143591    -3.493421    1.5311752   593777 
 7798000    1.3832876   -3.4955133   -1.9612605   0.12899413   -3.4955133    1.5342528   593787 
 7799000    1.3837104   -3.4954974   -1.9608144    0.1279627   -3.4954974     1.534683   593802 
 7800000    1.3827935   -3.4939021   -1.9602696   0.13049282   -3.4939021    1.5336325   593815 
 7801000    1.3820961   -3.4932067   -1.9603864   0.13172291   -3.4932067    1.5328202   593830 
 7802000    1.3832459   -3.4945344   -1.9604905   0.13384662   -3.4945344    1.5340438   593850 
 7803000     1.383118   -3.4937101    -1.959803   0.13575075   -3.4937101    1.5339071   593848 
 7804000    1.3829247   -3.4933785   -1.9596935   0.13547513   -3.4933785     1.533685   593851 
 7805000    1.3829422   -3.4937696   -1.9600806    0.1342334   -3.4937696     1.533689   593857 
 7806000    1.3830759   -3.4936768   -1.9598784   0.13429656   -3.4936768    1.5337984   593872 
 7807000    1.3829081   -3.4924621   -1.9588884    0.1381166   -3.4924621    1.5335737   593887 
 7808000    1.3831203   -3.4934371   -1.9596566   0.13456734   -3.4934371    1.5337805   593898 
 7809000    1.3838623   -3.4940744   -1.9594944   0.13053773   -3.4940744    1.5345801   593907 
 7810000    1.3813044   -3.4918696    -1.960157   0.13491539   -3.4918696    1.5317126   593919 
 7811000    1.3843423   -3.4945733     -1.95951   0.13274304   -3.4945733    1.5350633   593926 
 7812000    1.3840182   -3.4933458    -1.958673   0.13605508   -3.4933458    1.5346729   593938 
 7813000    1.3818003   -3.4923051   -1.9600864   0.13200455   -3.4923051    1.5322188   593936 
 7814000    1.3820534   -3.4921176   -1.9596337   0.13128183   -3.4921176    1.5324839   593942 
 7815000    1.3832515   -3.4927963   -1.9589994   0.13275139   -3.4927963    1.5337969   593948 
 7816000     1.383085   -3.4939758   -1.9604229   0.13198144   -3.4939758    1.5335529   593971 
 7817000    1.3841748   -3.4944954   -1.9597626    0.1407114   -3.4944954    1.5347328   593982 
 7818000    1.3845168   -3.4940562   -1.9589544   0.13525645   -3.4940562    1.5351018   593986 
 7819000    1.3826997   -3.4928169   -1.9597532   0.13511297   -3.4928169    1.5330637   593995 
 7820000    1.3826201   -3.4937696   -1.9608302   0.13494226   -3.4937696    1.5329394   594009 
 7821000     1.384354   -3.4954589   -1.9606152   0.13397304   -3.4954589    1.5348437   594016 
 7822000    1.3814052   -3.4931751   -1.9616163   0.13525944   -3.4931751    1.5315588   594022 
 7823000    1.3811488   -3.4928773   -1.9616543   0.13421541   -3.4928773     1.531223   594042 
 7824000    1.3806365   -3.4929638   -1.9623628   0.13712931   -3.4929638     1.530601   594063 
 7825000    1.3819733   -3.4926696   -1.9606124   0.14076854   -3.4926696    1.5320572   594073 
 7826000    1.3842161   -3.4947384   -1.9602206   0.13697034   -3.4947384    1.5345177   594083 
 7827000    1.3840997   -3.4949341   -1.9605841   0.13761514   -3.4949341      1.53435   594098 
 7828000    1.3831579   -3.4941063   -1.9608211    0.1326103   -3.4941063    1.5332852   594106 
 7829000    1.3839006   -3.4957022   -1.9616298   0.13113212   -3.4957022    1.5340724   594120 
 7830000    1.3817867   -3.4937403    -1.962037   0.13598037   -3.4937403    1.5317033   594130 
 7831000    1.3809351   -3.4933068   -1.9625965   0.14034401   -3.4933068    1.5307103   594149 
 7832000    1.3825585   -3.4948771   -1.9624162   0.12949034   -3.4948771    1.5324608   594168 
 7833000    1.3828534    -3.495017    -1.962268    0.1339709    -3.495017    1.5327491   594183 
 7834000    1.3836716   -3.4964503   -1.9628151   0.12866632   -3.4964503    1.5336352   594191 
 7835000    1.3846654     -3.49734   -1.9626472    0.1310899     -3.49734    1.5346928   594208 
 7836000    1.3823236   -3.4947987   -1.9627039   0.14506879   -3.4947987    1.5320948   594209 
 7837000    1.3841072   -3.4973697   -1.9633109   0.13115319   -3.4973697    1.5340587   594214 
 7838000    1.3823055   -3.4960575   -1.9639983     0.136366   -3.4960575    1.5320592   594215 
 7839000    1.3821857   -3.4957186   -1.9638179   0.13164411   -3.4957186    1.5319006   594225 
 7840000    1.3828642   -3.4961442   -1.9635122   0.13449787   -3.4961442     1.532632   594233 
 7841000    1.3831863   -3.4964069   -1.9634334   0.13380735   -3.4964069    1.5329735   594239 
 7842000    1.3834874   -3.4960269   -1.9627378   0.13439481   -3.4960269    1.5332891   594246 
 7843000    1.3849631    -3.497705   -1.9628062   0.12844697    -3.497705    1.5348989   594256 
 7844000    1.3829729   -3.4954474   -1.9627723   0.13633294   -3.4954474    1.5326751   594263 
 7845000    1.3845418   -3.4966953   -1.9623149   0.14204323   -3.4966953    1.5343803   594276 
 7846000    1.3842279    -3.497558   -1.9635489    0.1270345    -3.497558    1.5340092   594285 
 7847000    1.3825716   -3.4953746   -1.9632113   0.13300707   -3.4953746    1.5321634   594289 
 7848000    1.3827384    -3.495158    -1.962864   0.13767624    -3.495158    1.5322941   594310 
 7849000    1.3837098   -3.4962707   -1.9629364   0.13565852   -3.4962707    1.5333344   594324 
 7850000    1.3827874   -3.4958009    -1.963517   0.13062268   -3.4958009    1.5322839   594335 
 7851000    1.3829965   -3.4966692   -1.9641716   0.13326428   -3.4966692    1.5324975   594342 
 7852000    1.3865874   -3.4986328   -1.9621871   0.13138706   -3.4986328    1.5364457   594354 
 7853000    1.3838433   -3.4968066   -1.9634584   0.13255985   -3.4968066    1.5333482   594376 
 7854000    1.3836923   -3.4973939   -1.9642569     0.129937   -3.4973939     1.533137   594393 
 7855000    1.3822563   -3.4950282   -1.9635003   0.13611222   -3.4950282    1.5315279   594400 
 7856000    1.3840466   -3.4972304   -1.9637369   0.12612962   -3.4972304    1.5334934   594407 
 7857000    1.3838241   -3.4959586   -1.9627477    0.1337988   -3.4959586    1.5332108   594421 
 7858000    1.3830829   -3.4947968   -1.9624355   0.13644051   -3.4947968    1.5323613   594432 
 7859000    1.3846317   -3.4967061   -1.9626598   0.13043629   -3.4967061    1.5340462   594444 
 7860000    1.3835515   -3.4951595   -1.9623332   0.13451295   -3.4951595    1.5328263   594453 
 7861000    1.3825028   -3.4947981   -1.9631672   0.13549755   -3.4947981    1.5316309   594466 
 7862000    1.3831789   -3.4953224   -1.9629527   0.13274936   -3.4953224    1.5323697   594470 
 7863000    1.3825507   -3.4955193   -1.9638997   0.13565376   -3.4955193    1.5316196   594491 
 7864000      1.38296   -3.4952581   -1.9631747   0.13566331   -3.4952581    1.5320834   594487 
 7865000    1.3836805   -3.4953502   -1.9624971   0.13530173   -3.4953502    1.5328532   594498 
 7866000    1.3823387   -3.4946626   -1.9633217   0.13404445   -3.4946626     1.531341   594508 
 7867000    1.3835192   -3.4960628     -1.96344   0.13596261   -3.4960628    1.5326229   594518 
 7868000    1.3834486   -3.4967164    -1.964231   0.13148748   -3.4967164    1.5324854   594541 
 7869000    1.3834285   -3.4956493   -1.9632196   0.13489694   -3.4956493    1.5324297   594554 
 7870000    1.3843377   -3.4960841   -1.9626989   0.13648386   -3.4960841    1.5333852   594574 
 7871000    1.3847045   -3.4967238   -1.9629272   0.13547971   -3.4967238    1.5337967   594572 
 7872000    1.3847887   -3.4954514   -1.9615796    0.1336577   -3.4954514    1.5338718   594579 
 7873000    1.3853401   -3.4966707   -1.9622036   0.14040982   -3.4966707    1.5344671   594585 
 7874000    1.3856347   -3.4967482   -1.9620038   0.13716015   -3.4967482    1.5347444   594604 
 7875000      1.38612   -3.4981682    -1.962925   0.13559722   -3.4981682    1.5352432   594619 
 7876000    1.3840407   -3.4968675   -1.9639196   0.13421592   -3.4968675    1.5329479   594616 
 7877000     1.383572   -3.4961376   -1.9637216   0.13514665   -3.4961376     1.532416   594621 
 7878000    1.3848281   -3.4975947   -1.9638031   0.13760743   -3.4975947    1.5337916   594627 
 7879000    1.3857516   -3.4973355   -1.9625494   0.13827708   -3.4973355    1.5347861   594638 
 7880000     1.384092   -3.4964902   -1.9635654   0.13296441   -3.4964902    1.5329248   594647 
 7881000    1.3860225   -3.4985254   -1.9634651   0.13077051   -3.4985254    1.5350603   594648 
 7882000    1.3838676   -3.4966047    -1.963949   0.14180759   -3.4966047    1.5326557   594655 
 7883000    1.3836467   -3.4962333   -1.9638455   0.14064583   -3.4962333    1.5323878   594664 
 7884000    1.3856547   -3.4988475   -1.9642565   0.13343178   -3.4988475     1.534591   594672 
 7885000    1.3857589   -3.4999081   -1.9652197   0.13063088   -3.4999081    1.5346884   594679 
 7886000    1.3854248   -3.4988282   -1.9644995   0.13711765   -3.4988282    1.5343287   594675 
 7887000    1.3841643   -3.4980843   -1.9652057   0.14005218   -3.4980843    1.5328786   594696 
 7888000    1.3867823   -3.5002519   -1.9645386   0.13311814   -3.5002519    1.5357133   594721 
 7889000     1.385475   -3.4983996   -1.9641598   0.13649644   -3.4983996    1.5342398   594731 
 7890000    1.3853377   -3.4980892   -1.9640195   0.14182147   -3.4980892    1.5340698   594738 
 7891000    1.3835221   -3.4961584    -1.964143   0.14116688   -3.4961584    1.5320154   594755 
 7892000    1.3828693   -3.4955419   -1.9642828   0.14444557   -3.4955419     1.531259   594768 
 7893000    1.3824059   -3.4950166   -1.9643041   0.13288498   -3.4950166    1.5307125   594781 
 7894000    1.3850417   -3.4983742    -1.964738   0.13110154   -3.4983742    1.5336362   594779 
 7895000    1.3832419   -3.4970835   -1.9654505   0.13971846   -3.4970835     1.531633   594783 
 7896000    1.3841702   -3.4984802   -1.9658373   0.13142713   -3.4984802    1.5326429   594790 
 7897000    1.3841528   -3.4971597   -1.9645542     0.137198   -3.4971597    1.5326055   594797 
 7898000    1.3844721   -3.4968256   -1.9638794   0.14120238   -3.4968256    1.5329462   594802 
 7899000    1.3841289   -3.4965492   -1.9640268   0.14041259   -3.4965492    1.5325224   594819 
 7900000    1.3854918   -3.4989124   -1.9648913   0.13314538   -3.4989124    1.5340211   594823 
 7901000    1.3856683   -3.4977227   -1.9635114    0.1376719   -3.4977227    1.5342114   594825 
 7902000    1.3878847   -3.5001342   -1.9634947   0.13117093   -3.5001342    1.5366396   594835 
 7903000     1.386952   -3.4999663   -1.9643956   0.13170584   -3.4999663    1.5355707   594849 
 7904000    1.3858688   -3.4987944   -1.9644693   0.13475171   -3.4987944    1.5343251   594867 
 7905000    1.3850626    -3.498151   -1.9647443   0.13733428    -3.498151    1.5334067   594877 
 7906000    1.3842343   -3.4971266   -1.9646807   0.14112698   -3.4971266    1.5324459   594894 
 7907000    1.3858216    -3.498956   -1.9647813   0.13519477    -3.498956    1.5341748   594905 
 7908000    1.3857139   -3.4987016   -1.9646692   0.13746955   -3.4987016    1.5340323   594914 
 7909000    1.3862431   -3.4999368   -1.9653599   0.13647127   -3.4999368    1.5345769   594930 
 7910000    1.3838174   -3.4970664   -1.9652159   0.13788367   -3.4970664    1.5318505   594946 
 7911000    1.3842437   -3.4993514   -1.9670599   0.13114808   -3.4993514    1.5322915   594958 
 7912000    1.3838509   -3.4995643   -1.9677514   0.13147566   -3.4995643    1.5318129   594975 
 7913000    1.3847027   -3.4991064   -1.9663867   0.13439101   -3.4991064    1.5327197   594989 
 7914000    1.3842625   -3.4992529    -1.967041   0.13321122   -3.4992529    1.5322119   594997 
 7915000    1.3821081   -3.4972469   -1.9674583   0.13621054   -3.4972469    1.5297886   595012 
 7916000    1.3843199   -3.4996048   -1.9674041   0.13549211   -3.4996048    1.5322007   595026 
 7917000    1.3853068   -3.5001218   -1.9669036   0.13638776   -3.5001218    1.5332182   595055 
 7918000    1.3856867   -3.4995005   -1.9658901   0.13145644   -3.4995005    1.5336104   595066 
 7919000    1.3848834   -3.4986029   -1.9659409   0.13826136   -3.4986029    1.5326621   595089 
 7920000    1.3850849   -3.4986753   -1.9658263   0.13833629   -3.4986753     1.532849   595103 
 7921000     1.384831   -3.4981421   -1.9656307   0.14149637   -3.4981421    1.5325114   595125 
 7922000    1.3857829   -3.4994054   -1.9658509   0.13647907   -3.4994054    1.5335545   595129 
 7923000     1.384858   -3.4986556   -1.9661529   0.13918672   -3.4986556    1.5325027   595140 
 7924000    1.3867162   -3.4992863   -1.9647789    0.1324436   -3.4992863    1.5345074   595160 
 7925000    1.3858772   -3.4994216    -1.965889   0.13786838   -3.4994216    1.5335326   595178 
 7926000    1.3851292   -3.4999355   -1.9672538   0.14238527   -3.4999355    1.5326818   595187 
 7927000    1.3842624   -3.4994284   -1.9677213   0.13589746   -3.4994284    1.5317071   595193 
 7928000    1.3853502   -3.4995079   -1.9666125   0.14081914   -3.4995079    1.5328954   595199 
 7929000    1.3869391    -3.500785   -1.9661856   0.14048202    -3.500785    1.5345993   595220 
 7930000    1.3871113   -3.5004567   -1.9657364      0.13966   -3.5004567    1.5347203   595247 
 7931000    1.3872011   -3.4997606   -1.9649617   0.14571226   -3.4997606     1.534799   595255 
 7932000    1.3858345   -3.4990989   -1.9658763   0.13743395   -3.4990989    1.5332226   595280 
 7933000    1.3877836   -3.5011342   -1.9657732   0.14234904   -3.5011342     1.535361   595287 
 7934000    1.3855345   -3.4994057   -1.9665356   0.13666443   -3.4994057    1.5328701   595288 
 7935000    1.3855491    -3.499729   -1.9668737   0.13711704    -3.499729    1.5328554   595300 
 7936000    1.3856049   -3.4991723   -1.9662707   0.13541621   -3.4991723    1.5329016   595306 
 7937000    1.3865783   -3.5010678   -1.9671383   0.13187086   -3.5010678    1.5339295   595325 
 7938000    1.3861306   -3.5007455   -1.9673782   0.13180505   -3.5007455    1.5333672   595351 
 7939000    1.3861316   -3.4996938    -1.966359   0.13871331   -3.4996938    1.5333349   595364 
 7940000    1.3862485   -3.5007106   -1.9672773   0.13414709   -3.5007106    1.5334333   595376 
 7941000    1.3854204   -3.5004767   -1.9679723   0.13394007   -3.5004767    1.5325044   595381 
 7942000     1.386746   -3.5014075    -1.967447   0.13514518   -3.5014075    1.5339605   595385 
 7943000     1.386387   -3.5012702   -1.9677146   0.13668866   -3.5012702    1.5335556   595388 
 7944000     1.387028   -3.5008955   -1.9666695   0.13555621   -3.5008955     1.534226   595403 
 7945000     1.388539   -3.5020999   -1.9662515   0.13578111   -3.5020999    1.5358483   595422 
 7946000    1.3869813   -3.5014134   -1.9672751   0.13367662   -3.5014134    1.5341383   595417 
 7947000    1.3870059   -3.5010203   -1.9668908   0.13941538   -3.5010203    1.5341294   595431 
 7948000    1.3863217   -3.4993059   -1.9659719   0.14566985   -3.4993059     1.533334   595446 
 7949000    1.3868607   -3.5012572    -1.967358   0.13574806   -3.5012572    1.5338993   595458 
 7950000    1.3873669    -3.501345   -1.9669219   0.13296402    -3.501345     1.534423   595472 
 7951000    1.3847685   -3.4990091   -1.9674857   0.14329897   -3.4990091    1.5315235   595482 
 7952000     1.386263   -3.5004598    -1.967304   0.13610132   -3.5004598    1.5331558   595490 
 7953000    1.3866664   -3.5019304   -1.9683671   0.13506792   -3.5019304    1.5335634   595505 
 7954000    1.3860101   -3.5007198   -1.9679054   0.13898336   -3.5007198    1.5328144   595514 
 7955000    1.3856538   -3.4999136   -1.9674984   0.13737032   -3.4999136    1.5324151   595516 
 7956000    1.3863627   -3.5017502   -1.9685974   0.13682082   -3.5017502    1.5331528   595534 
 7957000    1.3884392    -3.503385   -1.9679591   0.14228248    -3.503385     1.535426   595543 
 7958000    1.3860232   -3.5012905   -1.9685877   0.13372675   -3.5012905    1.5327028   595563 
 7959000    1.3869664   -3.5024304   -1.9687362   0.13439922   -3.5024304    1.5336942   595583 
 7960000    1.3864817   -3.5008588    -1.967698   0.13880447   -3.5008588    1.5331608   595582 
 7961000    1.3880514    -3.502993   -1.9681144    0.1363615    -3.502993    1.5348785   595589 
 7962000    1.3869184   -3.5019233   -1.9683105   0.14399349   -3.5019233    1.5336128   595594 
 7963000    1.3865652   -3.5020082   -1.9687937   0.12833347   -3.5020082    1.5332146   595597 
 7964000    1.3860463   -3.5012499   -1.9686271   0.13956863   -3.5012499    1.5326227   595604 
 7965000    1.3856978   -3.5014412    -1.969232   0.12924551   -3.5014412    1.5322091   595615 
 7966000    1.3864082   -3.5021686     -1.96921   0.13638745   -3.5021686    1.5329586   595629 
 7967000    1.3856515   -3.5015066   -1.9694182   0.13687643   -3.5015066    1.5320884   595642 
 7968000    1.3852668     -3.50259   -1.9709758   0.14187167     -3.50259    1.5316142   595661 
 7969000    1.3859344   -3.5031589   -1.9708297   0.13414327   -3.5031589    1.5323292   595670 
 7970000    1.3864101   -3.5043747    -1.971535   0.13443106   -3.5043747    1.5328397   595676 
 7971000    1.3859944   -3.5035547    -1.971226   0.13772454   -3.5035547    1.5323287   595696 
 7972000    1.3865475   -3.5023925   -1.9694884   0.13732111   -3.5023925    1.5329041   595710 
 7973000    1.3871992    -3.503192   -1.9696137   0.13196244    -3.503192    1.5335783   595728 
 7974000    1.3852927    -3.501972   -1.9705605   0.13335138    -3.501972    1.5314114   595751 
 7975000    1.3858921   -3.5031516   -1.9710954   0.13110471   -3.5031516    1.5320561   595758 
 7976000    1.3847508   -3.5022644   -1.9714854   0.14039974   -3.5022644     1.530779   595764 
 7977000    1.3857595   -3.5035238   -1.9716399   0.13811564   -3.5035238    1.5318838   595768 
 7978000    1.3840765   -3.5023818   -1.9724149   0.13865124   -3.5023818    1.5299668   595790 
 7979000    1.3856094   -3.5037712    -1.972151   0.13326119   -3.5037712    1.5316202   595806 
 7980000    1.3846879   -3.5034751    -1.972871   0.13521597   -3.5034751    1.5306041   595805 
 7981000    1.3851819   -3.5039317   -1.9728328   0.13550131   -3.5039317    1.5310988   595825 
 7982000    1.3870413   -3.5052712   -1.9721428   0.13217198   -3.5052712    1.5331283   595835 
 7983000    1.3861258   -3.5031986   -1.9711336   0.14359239   -3.5031986     1.532065   595855 
 7984000    1.3876983   -3.5045585   -1.9707528   0.13495784   -3.5045585    1.5338057   595854 
 7985000    1.3862421    -3.503774    -1.971601   0.13249417    -3.503774     1.532173   595863 
 7986000    1.3882237   -3.5058986   -1.9715509   0.13885795   -3.5058986    1.5343477   595869 
 7987000    1.3856829   -3.5030617   -1.9715352   0.13245451   -3.5030617    1.5315266   595874 
 7988000    1.3876337   -3.5044102   -1.9707686   0.13660655   -3.5044102    1.5336416   595890 
 7989000    1.3875731   -3.5051318   -1.9715933   0.14024795   -3.5051318    1.5335386   595904 
 7990000    1.3872271   -3.5042547   -1.9711319   0.13136371   -3.5042547    1.5331227   595917 
 7991000    1.3866806   -3.5040604    -1.971575   0.14618365   -3.5040604    1.5324853   595930 
 7992000    1.3857567   -3.5028244   -1.9713987   0.13674436   -3.5028244    1.5314257   595945 
 7993000    1.3872856   -3.5054498   -1.9724168   0.13854513   -3.5054498     1.533033   595977 
 7994000    1.3840046   -3.5024774   -1.9730752   0.13680112   -3.5024774    1.5294022   595979 
 7995000    1.3870305   -3.5053354   -1.9726203   0.13221635   -3.5053354    1.5327151   595991 
 7996000    1.3867688   -3.5033759   -1.9709783   0.13263352   -3.5033759    1.5323977   596002 
 7997000     1.385178    -3.501207   -1.9705826   0.13762071    -3.501207    1.5306244   596008 
 7998000    1.3879169   -3.5047732   -1.9711506   0.13215222   -3.5047732    1.5336225   596019 
 7999000    1.3838958    -3.499132   -1.9699656   0.14983543    -3.499132    1.5291665   596024 
 8000000    1.3874282   -3.5036685   -1.9706399   0.13504684   -3.5036685    1.5330286   596040 
Loop time of 10190.7 on 192 procs for 5000000 steps with 596040 atoms

Performance: 211958.779 tau/day, 490.645 timesteps/s
99.1% CPU use with 192 MPI tasks x 1 OpenMP threads

MPI task timing breakdown:
Section |  min time  |  avg time  |  max time  |%varavg|  %CPU | %total
-----------------------------------------------------------------------
Pair    | 3256.7     | 4078.3     | 4522.7     | 533.8 |  99.1 | 40.02
Bond    | 3.3373     | 3.4746     | 3.639      |   3.3 | 100.0 |  0.03
Neigh   | 1725.8     | 1983.4     | 2109.9     | 222.1 |  99.5 | 19.46
Comm    | 1235.7     | 2196.8     | 3202.9     | 978.0 |  99.0 | 21.56
Output  | 277.91     | 281.7      | 281.73     |   1.6 |  98.3 |  2.76
Modify  | 1351.5     | 1448.6     | 1976.6     | 502.7 |  99.1 | 14.21
Other   |            | 198.3      |            |       |       |  1.95

Nlocal:        3104.38 ave        3227 max        2959 min
Histogram: 1 2 7 24 40 50 38 22 7 1
Nghost:        4137.12 ave        4514 max        3401 min
Histogram: 29 19 0 0 0 0 0 22 100 22
Neighs:        91771.9 ave      101168 max       77446 min
Histogram: 2 6 9 6 17 35 60 38 17 2

Total # of neighbors = 17620198
Ave neighs/atom = 29.562107
Ave special neighs/atom = 0.0000000
Neighbor list builds = 505000
Dangerous builds = 450000

write_restart   restart_write.dat
System init for write_restart ...
write_data	data.write
System init for write_data ...
WARNING: Not all mixed pair coeffs generated from mixing. Use write_data with 'pair ij' option to store all pair coeffs. (src/write_data.cpp:312)

Total wall time: 2:49:54
