LAMMPS (29 Oct 2020)
  using 1 OpenMP thread(s) per MPI task
# Simple rigid body system
# needed variables:

#variable	startTemp equal 0.5
#variable 	temp 	  equal 0.8

units		lj
atom_style	full
dimension 	3
boundary	p p f
pair_style	lj/cut/opt 2.5


variable 	sigma		equal 1.0
variable 	epsilon 	equal 1.0

region		box block 0 100 0 100 0 200
create_box 	3 box
Created orthogonal box = (0.0000000 0.0000000 0.0000000) to (100.00000 100.00000 200.00000)
  4 by 5 by 12 MPI processor grid
lattice 	sc 1.0
Lattice spacing in x,y,z = 1.0000000 1.0000000 1.0000000

region		create block EDGE EDGE EDGE EDGE 2 102
create_atoms 	1 region create
Created 1010000 atoms
  create_atoms CPU = 0.131 seconds

mass		1 1.0
mass		2 1.0
mass		3 1.0

group		solvent type 1
1010000 atoms in group solvent

velocity 	solvent create ${startTemp} 563435 loop geom
velocity 	solvent create 0.8 563435 loop geom


neighbor 	0.4 bin

pair_coeff	1 1 1.0 1.0
pair_coeff	2 2 0.0 0.0
pair_coeff	3 3 0.0 0.0
pair_coeff	2 3 0.0 0.0
pair_coeff	1 2*3 0.0 0.0

pair_modify 	shift yes


balance 	1.05 shift z 10 1.05
Balancing ...
Neighbor list info ...
  update every 1 steps, delay 10 steps, check yes
  max neighbors/atom: 2000, page size: 100000
  master list distance cutoff = 2.9
  ghost atom cutoff = 2.9
  binsize = 1.45, bins = 69 69 138
  1 neighbor lists, perpetual/occasional/extra = 1 0 0
  (1) pair lj/cut/opt, perpetual
      attributes: half, newton on
      pair build: half/bin/newton
      stencil: half/bin/3d/newton
      bin: standard
 rebalancing time: 0.855 seconds
  iteration count = 5
  initial/final maximal load/proc = 8925.0000 5775.0000
  initial/final imbalance factor  = 2.1207921 1.3722772
  x cuts: 0.0000000 0.25 0.5 0.75 1.0000000
  y cuts: 0.0000000 0.2 0.4 0.6 0.8 1.0000000
  z cuts: 0.0000000 0.049479167 0.091145833 0.13020833 0.171875 0.22135417 0.2578125 0.30208333 0.34375 0.37239583 0.4296875 0.46354167 1.0000000


####################### WALLS ###########################


variable       epsilonWall equal 2*${epsilon}
variable       epsilonWall equal 2*1

variable       cutoffTop   equal   0.7147*${sigma}
variable       cutoffTop   equal   0.7147*1

variable       cutoffLow   equal   3*${sigma}
variable       cutoffLow   equal   3*1


fix            topWall all wall/lj93 zhi EDGE                ${epsilonWall} ${sigma} ${cutoffTop} units box
fix            topWall all wall/lj93 zhi EDGE                2 ${sigma} ${cutoffTop} units box
fix            topWall all wall/lj93 zhi EDGE                2 1 ${cutoffTop} units box
fix            topWall all wall/lj93 zhi EDGE                2 1 0.7147 units box

fix            lowWall all wall/lj93 zlo EDGE                ${epsilonWall} ${sigma} ${cutoffLow} units box
fix            lowWall all wall/lj93 zlo EDGE                2 ${sigma} ${cutoffLow} units box
fix            lowWall all wall/lj93 zlo EDGE                2 1 ${cutoffLow} units box
fix            lowWall all wall/lj93 zlo EDGE                2 1 3 units box


###################### COMPUTES ##########################

compute        bin1 solvent chunk/atom bin/1d z upper 1.0


######################	FIXES ############################


fix 		peclet solvent ave/chunk 1000 1 1000 bin1 density/number norm 		 none ave one file density.profile

fix 		 temp solvent ave/chunk 1000 1 1000 bin1 temp norm 		 none ave one file temp.profile

fix 		2 solvent nvt temp 0.7 0.7 $(100*dt)
fix 		2 solvent nvt temp 0.7 0.7 0.5


## Thermostat


#region		regthermo block EDGE EDGE EDGE EDGE 0 20

#group 		thermo dynamic solvent region regthermo every 1000

#fix 		3 thermo langevin ${startTemp} ${temp} 10 156453



#### Load balancing


fix 		bal all balance 1000 1.05 shift z 10 1.05


############### Diagnostics and computes ###################
#compute 	com cube	  rigid/local	1 mol x y z
#compute 	quat cube	  rigid/local	1 mol quatw quati quatj quatk

thermo 		1000
thermo_style 	custom step temp epair evdwl etotal press pe ke atoms

dump		1 all custom 100000 dump.lammpstrj id mol type x y z
dump 		2 all image 10000 image.*.png type type
dump 		3 all movie 1000 movie.avi type type

#dump 		com cube local 1000 dump.*.xyz c_com[*]
#dump		quat cube      local 1000 dump.*.quat c_quat[*]


restart 	1000000 restart.dat
timestep 	0.005
timer 		full
New timer settings: style=full  mode=nosync  timeout=off

run		3000000
Per MPI rank memory allocation (min/avg/max) = 9.581 | 9.852 | 10.35 Mbytes
Step Temp E_pair E_vdwl TotEng Press PotEng KinEng Atoms 
       0          0.8   -3.3050748   -3.3050748    -2.105076    8.8982699   -3.3050748    1.1999988  1010000 
    1000   0.82106971   -5.4634418   -5.4634418   -4.2318384    1.9947156   -5.4634418    1.2316033  1010000 
    2000   0.69604595   -5.6138862   -5.6138862   -4.5698183   0.76540334   -5.6138862    1.0440679  1010000 
    3000   0.70139194    -5.575181    -5.575181   -4.5230941    0.1185171    -5.575181    1.0520869  1010000 
    4000   0.70077768   -5.4311867   -5.4311867   -4.3800212 -0.005994845   -5.4311867    1.0511655  1010000 
    5000   0.70010834    -5.341503    -5.341503   -4.2913416  -0.19513612    -5.341503    1.0501615  1010000 
    6000   0.69963942   -5.2775261   -5.2775261   -4.2280681   -0.3082373   -5.2775261    1.0494581  1010000 
    7000   0.69987249   -5.2472026   -5.2472026    -4.197395   -0.3055653   -5.2472026    1.0498077  1010000 
    8000   0.70063766   -5.2765424   -5.2765424    -4.225587  -0.29869505   -5.2765424    1.0509554  1010000 
    9000   0.70076649   -5.3683915   -5.3683915   -4.3172428  -0.12776559   -5.3683915    1.0511487  1010000 
   10000   0.69993612   -5.4779511   -5.4779511    -4.428048   0.12496596   -5.4779511    1.0499031  1010000 
   11000   0.69933478   -5.5487101   -5.5487101   -4.4997089   0.39187667   -5.5487101    1.0490011  1010000 
   12000   0.70024688   -5.5840569   -5.5840569   -4.5336876    0.5244684   -5.5840569    1.0503693  1010000 
   13000   0.70005312   -5.5512548   -5.5512548   -4.5011762   0.37321176   -5.5512548    1.0500786  1010000 
   14000   0.69881395   -5.4773008   -5.4773008   -4.4290809  0.098573455   -5.4773008    1.0482199  1010000 
   15000   0.70023055   -5.3848515   -5.3848515   -4.3345067  -0.10256474   -5.3848515    1.0503448  1010000 
   16000   0.70027866   -5.3087856   -5.3087856   -4.2583687  -0.23380811   -5.3087856    1.0504169  1010000 
   17000   0.70013359   -5.2840874   -5.2840874    -4.233888  -0.25967764   -5.2840874    1.0501993  1010000 
   18000   0.69995527   -5.3154678   -5.3154678    -4.265536  -0.19922156   -5.3154678    1.0499319  1010000 
   19000   0.70005258   -5.3846879   -5.3846879     -4.33461 -0.077035161   -5.3846879    1.0500778  1010000 
   20000   0.70047912   -5.4683567   -5.4683567    -4.417639   0.13223632   -5.4683567    1.0507176  1010000 
   21000   0.69929239   -5.5304581   -5.5304581   -4.4815206   0.33771035   -5.5304581    1.0489375  1010000 
   22000   0.70066612     -5.54915     -5.54915   -4.4981518   0.41285983     -5.54915    1.0509981  1010000 
   23000    0.6991949   -5.5252804   -5.5252804   -4.4764891   0.29694224   -5.5252804    1.0487913  1010000 
   24000   0.69973099   -5.4634726   -5.4634726   -4.4138771  0.099493341   -5.4634726    1.0495954  1010000 
   25000   0.69955653   -5.3900198   -5.3900198    -4.340686 -0.076212732   -5.3900198    1.0493338  1010000 
   26000   0.69999059   -5.3330597   -5.3330597   -4.2830748  -0.16861609   -5.3330597    1.0499849  1010000 
   27000   0.69985332   -5.3175682   -5.3175682   -4.2677892   -0.1784796   -5.3175682    1.0497789  1010000 
   28000   0.69971561   -5.3918325   -5.3918325   -4.3422601   0.27604105   -5.3918325    1.0495724  1010000 
   29000   0.69998994   -5.5079433   -5.5079433   -4.4579594   0.76929013   -5.5079433    1.0499839  1010000 
   30000   0.70041905   -5.5813662   -5.5813662   -4.5307386     1.428109   -5.5813662    1.0506275  1010000 
   31000   0.70039867   -5.5824075   -5.5824075   -4.5318105    1.6493478   -5.5824075     1.050597  1010000 
   32000   0.69994581    -5.517958    -5.517958   -4.4680403    1.3960446    -5.517958    1.0499177  1010000 
   33000   0.70018601   -5.5150459   -5.5150459   -4.4647679   0.90973677   -5.5150459     1.050278  1010000 
   34000   0.69956445   -5.4870533   -5.4870533   -4.4377077   0.48196578   -5.4870533    1.0493456  1010000 
   35000   0.69975167   -5.3992218   -5.3992218   -4.3495953    0.1961908   -5.3992218    1.0496265  1010000 
   36000   0.69976266   -5.2953234   -5.2953234   -4.2456805 -0.048911447   -5.2953234     1.049643  1010000 
   37000   0.69991362   -5.1863765   -5.1863765   -4.1365071  -0.20206902   -5.1863765    1.0498694  1010000 
   38000    0.7004935   -5.1144339   -5.1144339   -4.0636947  -0.28816707   -5.1144339    1.0507392  1010000 
   39000   0.70019204   -5.1008066   -5.1008066   -4.0505196  -0.29751846   -5.1008066     1.050287  1010000 
   40000   0.69998597   -5.1469924   -5.1469924   -4.0970145  -0.23297374   -5.1469924    1.0499779  1010000 
   41000   0.70015746   -5.2293263   -5.2293263   -4.1790912    -0.123737   -5.2293263    1.0502351  1010000 
   42000   0.70033065   -5.3298747   -5.3298747   -4.2793798  0.077383599   -5.3298747    1.0504949  1010000 
   43000   0.69967337   -5.4169208   -5.4169208   -4.3674118   0.31428299   -5.4169208     1.049509  1010000 
   44000   0.70025249   -5.4525136   -5.4525136   -4.4021359   0.44054766   -5.4525136    1.0503777  1010000 
   45000   0.69940264     -5.44075     -5.44075    -4.391647    0.3758586     -5.44075    1.0491029  1010000 
   46000   0.69950354   -5.3802195   -5.3802195   -4.3309652   0.18013333   -5.3802195    1.0492543  1010000 
   47000   0.69973638   -5.2877349   -5.2877349   -4.2381314 -0.024675183   -5.2877349    1.0496035  1010000 
   48000   0.69940734   -5.2030793   -5.2030793   -4.1539694  -0.16028141   -5.2030793      1.04911  1010000 
   49000   0.69991494   -5.1498287   -5.1498287   -4.0999574  -0.22574853   -5.1498287    1.0498714  1010000 
   50000   0.70015723   -5.1396129   -5.1396129    -4.089378  -0.23101663   -5.1396129    1.0502348  1010000 
   51000   0.70077044   -5.1770001   -5.1770001   -4.1258455  -0.18074553   -5.1770001    1.0511546  1010000 
   52000   0.70040919   -5.2485465   -5.2485465   -4.1979338 -0.063330676   -5.2485465    1.0506127  1010000 
   53000    0.7002587   -5.3321813   -5.3321813   -4.2817943  0.097097747   -5.3321813     1.050387  1010000 
   54000   0.70080895   -5.3971953   -5.3971953   -4.3459829   0.27370832   -5.3971953    1.0512124  1010000 
   55000   0.70016822   -5.4243101   -5.4243101   -4.3740588   0.36793367   -5.4243101    1.0502513  1010000 
   56000   0.69961276   -5.4097511   -5.4097511    -4.360333   0.30812887   -5.4097511    1.0494181  1010000 
   57000   0.69938862   -5.3585298   -5.3585298   -4.3094479   0.14940421   -5.3585298    1.0490819  1010000 
   58000   0.69964364   -5.2861812   -5.2861812   -4.2367167 -0.013022385   -5.2861812    1.0494644  1010000 
   59000   0.69967656   -5.2167356   -5.2167356   -4.1672218  -0.12388371   -5.2167356    1.0495138  1010000 
   60000   0.69947921   -5.1740835   -5.1740835   -4.1248657  -0.17412935   -5.1740835    1.0492178  1010000 
   61000   0.69998775    -5.171556    -5.171556   -4.1215754  -0.18011135    -5.171556    1.0499806  1010000 
   62000   0.70055864   -5.2431286   -5.2431286   -4.1922917  0.055547863   -5.2431286    1.0508369  1010000 
   63000   0.70008276   -5.3617982   -5.3617982   -4.3116751   0.39908479   -5.3617982    1.0501231  1010000 
   64000   0.70036392   -5.4715026   -5.4715026   -4.4209577   0.84382028   -5.4715026    1.0505448  1010000 
   65000   0.69969466   -5.5331657   -5.5331657   -4.4836248    1.3398079   -5.5331657     1.049541  1010000 
   66000   0.70018692   -5.4994434   -5.4994434    -4.449164    1.2826783   -5.4994434    1.0502793  1010000 
   67000   0.70041501   -5.4544766   -5.4544766   -4.4038551    1.1058923   -5.4544766    1.0506215  1010000 
   68000   0.70048918   -5.4523333   -5.4523333   -4.4016005   0.74682861   -5.4523333    1.0507327  1010000 
   69000   0.69918108    -5.401126    -5.401126   -4.3523554   0.45625439    -5.401126    1.0487706  1010000 
   70000   0.69954518   -5.2887283   -5.2887283   -4.2394116   0.15192214   -5.2887283    1.0493167  1010000 
   71000   0.69812767   -5.1243335   -5.1243335   -4.0771431  -0.14441665   -5.1243335    1.0471905  1010000 
   72000    0.6985998   -4.9428116   -4.9428116   -3.8949129    -0.330974   -4.9428116    1.0478987  1010000 
   73000   0.69946487   -4.7782223   -4.7782223    -3.729026  -0.41739351   -4.7782223    1.0491963  1010000 
   74000    0.7001683   -4.6526395   -4.6526395   -3.6023881  -0.43758178   -4.6526395    1.0502514  1010000 
   75000   0.70133854   -4.6006824   -4.6006824   -3.5486756  -0.39508853   -4.6006824    1.0520068  1010000 
   76000   0.70093666   -4.6695722   -4.6695722   -3.6181683  -0.28873219   -4.6695722     1.051404  1010000 
   77000   0.70043794   -4.7808185   -4.7808185   -3.7301626   -0.1536324   -4.7808185    1.0506559  1010000 
   78000   0.69963643   -4.8622191   -4.8622191   -3.8127655 -0.037634989   -4.8622191    1.0494536  1010000 
   79000   0.69985132   -4.8838158   -4.8838158   -3.8340399 -0.0093050034   -4.8838158    1.0497759  1010000 
   80000   0.70038026   -4.8647372   -4.8647372   -3.8141679 -0.048127876   -4.8647372    1.0505694  1010000 
   81000   0.69979622   -4.8463686   -4.8463686   -3.7966754 -0.075194326   -4.8463686    1.0496933  1010000 
   82000   0.69916587   -4.8529351   -4.8529351   -3.8041874 -0.072595538   -4.8529351    1.0487478  1010000 
   83000   0.70014789    -4.876023    -4.876023   -3.8258023 -0.038260669    -4.876023    1.0502208  1010000 
   84000   0.70009727   -4.9023316   -4.9023316   -3.8521867 -0.012194703   -4.9023316    1.0501449  1010000 
   85000   0.69971291   -4.9124216   -4.9124216   -3.8628533 -0.0012703387   -4.9124216    1.0495683  1010000 
   86000   0.69994324   -4.9128058   -4.9128058    -3.862892   -0.0128602   -4.9128058    1.0499138  1010000 
   87000   0.70083614   -4.9081044   -4.9081044   -3.8568512 -0.021336543   -4.9081044    1.0512532  1010000 
   88000   0.70056445   -4.9096093   -4.9096093   -3.8587637 -0.023061524   -4.9096093    1.0508456  1010000 
   89000   0.69977174   -4.9169649   -4.9169649   -3.8673083 -0.017556812   -4.9169649    1.0496566  1010000 
   90000   0.70028403   -4.9256189   -4.9256189   -3.8751939 -0.0037897722   -4.9256189     1.050425  1010000 
   91000   0.69970508   -4.9358502   -4.9358502   -3.8862936 0.00091057497   -4.9358502    1.0495566  1010000 
   92000   0.69982414   -4.9427276   -4.9427276   -3.8929925 0.0050656552   -4.9427276    1.0497352  1010000 
   93000   0.69890019   -4.9455627   -4.9455627   -3.8972135 0.0077666873   -4.9455627    1.0483492  1010000 
   94000   0.70025713    -4.949225    -4.949225   -3.8988403 0.0064587971    -4.949225    1.0503847  1010000 
   95000   0.70073687   -4.9537982   -4.9537982   -3.9026939  0.013506729   -4.9537982    1.0511043  1010000 
   96000   0.69994253   -4.9602969   -4.9602969   -3.9103842    0.0172867   -4.9602969    1.0499128  1010000 
   97000   0.69977635   -4.9669946   -4.9669946   -3.9173311   0.02132664   -4.9669946    1.0496635  1010000 
   98000   0.69922314   -4.9723113   -4.9723113   -3.9234776  0.022231948   -4.9723113    1.0488337  1010000 
   99000   0.69996067   -4.9724461   -4.9724461   -3.9225062   0.03021832   -4.9724461      1.04994  1010000 
  100000   0.70004532   -4.9733642   -4.9733642   -3.9232973  0.025422689   -4.9733642    1.0500669  1010000 
  101000    0.7001527   -4.9747545   -4.9747545   -3.9245265  0.024611645   -4.9747545     1.050228  1010000 
  102000   0.70039533   -4.9797394   -4.9797394   -3.9291474  0.025570893   -4.9797394     1.050592  1010000 
  103000   0.69933433    -4.983311    -4.983311   -3.9343106  0.032321542    -4.983311    1.0490005  1010000 
  104000   0.69999804   -4.9881504   -4.9881504   -3.9381544  0.034877066   -4.9881504     1.049996  1010000 
  105000   0.69995537   -4.9889566   -4.9889566   -3.9390246  0.043681931   -4.9889566     1.049932  1010000 
  106000   0.70106748   -4.9941089   -4.9941089   -3.9425087  0.043672526   -4.9941089    1.0516002  1010000 
  107000   0.70067649   -4.9985806   -4.9985806   -3.9475669  0.049137036   -4.9985806    1.0510137  1010000 
  108000    0.7002708   -5.0027966   -5.0027966   -3.9523914  0.059633104   -5.0027966    1.0504052  1010000 
  109000   0.70006359   -5.0032538   -5.0032538   -3.9531595  0.055704186   -5.0032538    1.0500943  1010000 
  110000   0.69959516   -4.9953379   -4.9953379   -3.9459462  0.047219111   -4.9953379    1.0493917  1010000 
  111000   0.70024607   -4.9833397   -4.9833397   -3.9329716  0.028615029   -4.9833397    1.0503681  1010000 
  112000   0.69978455   -4.9717249   -4.9717249   -3.9220491  0.010405462   -4.9717249    1.0496758  1010000 
  113000    0.7012196    -4.970259    -4.970259   -3.9184307  0.023516262    -4.970259    1.0518284  1010000 
  114000   0.70071973   -5.0073821   -5.0073821   -3.9563036   0.13809747   -5.0073821    1.0510785  1010000 
  115000   0.69977994   -5.0654375   -5.0654375   -4.0157686   0.26083772   -5.0654375    1.0496689  1010000 
  116000   0.70092688   -5.1360162   -5.1360162   -4.0846269   0.37226478   -5.1360162    1.0513893  1010000 
  117000   0.70089542    -5.204648    -5.204648   -4.1533059   0.52049825    -5.204648    1.0513421  1010000 
  118000   0.69991591   -5.2098837   -5.2098837   -4.1600109    0.5434098   -5.2098837    1.0498728  1010000 
  119000   0.69952406   -5.1738816   -5.1738816   -4.1245965   0.46940903   -5.1738816     1.049285  1010000 
  120000   0.70051003   -5.1301778   -5.1301778   -4.0794138   0.39850573   -5.1301778     1.050764  1010000 
  121000   0.69943633   -5.0944113   -5.0944113   -4.0452578   0.29879022   -5.0944113    1.0491535  1010000 
  122000   0.69994398   -5.0670995   -5.0670995   -4.0171846   0.20355818   -5.0670995    1.0499149  1010000 
  123000   0.70049682    -5.037918    -5.037918   -3.9871739   0.14721809    -5.037918    1.0507442  1010000 
  124000   0.69972276   -5.0015527   -5.0015527   -3.9519696  0.088502575   -5.0015527    1.0495831  1010000 
  125000     0.699341    -4.948856    -4.948856   -3.8998455 0.0098671052    -4.948856    1.0490105  1010000 
  126000   0.70010577   -4.8921597   -4.8921597   -3.8420021 -0.050016505   -4.8921597    1.0501576  1010000 
  127000   0.69932071   -4.8478986   -4.8478986   -3.7989186  -0.09088211   -4.8478986      1.04898  1010000 
  128000   0.70035444   -4.8202854   -4.8202854   -3.7697548  -0.11772164   -4.8202854    1.0505306  1010000 
  129000   0.70040627   -4.8107985   -4.8107985   -3.7601901  -0.13138533   -4.8107985    1.0506084  1010000 
  130000   0.69951726   -4.8183812   -4.8183812   -3.7691063   -0.1166607   -4.8183812    1.0492748  1010000 
  131000   0.70001955   -4.8498832   -4.8498832   -3.7998549 -0.081684361   -4.8498832    1.0500283  1010000 
  132000   0.69932021   -4.8924552   -4.8924552    -3.843476 -0.028050753   -4.8924552    1.0489793  1010000 
  133000   0.70090586   -4.9416716   -4.9416716   -3.8903139  0.016096929   -4.9416716    1.0513578  1010000 
  134000   0.69992476   -4.9854755   -4.9854755   -3.9355894  0.083239322   -4.9854755    1.0498861  1010000 
  135000   0.69984628   -5.0179319   -5.0179319   -3.9681635   0.13195513   -5.0179319    1.0497684  1010000 
  136000   0.69996477   -5.0305045   -5.0305045   -3.9805584   0.14908103   -5.0305045    1.0499461  1010000 
  137000   0.69987974   -5.0201756   -5.0201756    -3.970357   0.13241489   -5.0201756    1.0498186  1010000 
  138000   0.70002516   -4.9924762   -4.9924762   -3.9424396  0.089407844   -4.9924762    1.0500367  1010000 
  139000   0.69874908   -4.9529422   -4.9529422   -3.9048197  0.028091534   -4.9529422    1.0481226  1010000 
  140000   0.69943027   -4.9101705   -4.9101705   -3.8610261 -0.030983467   -4.9101705    1.0491444  1010000 
  141000   0.69955617   -4.8709039   -4.8709039   -3.8215707  -0.06642839   -4.8709039    1.0493332  1010000 
  142000   0.70014743   -4.8445573   -4.8445573   -3.7943372 -0.090095162   -4.8445573    1.0502201  1010000 
  143000   0.70035254   -4.8319239   -4.8319239   -3.7813962 -0.099307739   -4.8319239    1.0505278  1010000 
  144000   0.69981804   -4.8374323   -4.8374323   -3.7877063 -0.091958214   -4.8374323     1.049726  1010000 
  145000   0.70156561   -4.8585737   -4.8585737   -3.8062263 -0.066676039   -4.8585737    1.0523474  1010000 
  146000   0.70159131   -4.8900038   -4.8900038   -3.8376179 -0.029644191   -4.8900038    1.0523859  1010000 
  147000    0.7014109   -4.9268467   -4.9268467   -3.8747314  0.016615072   -4.9268467    1.0521153  1010000 
  148000   0.70103651   -4.9632024   -4.9632024   -3.9116487  0.061431064   -4.9632024    1.0515537  1010000 
  149000   0.70026626    -4.989955    -4.989955   -3.9395567   0.10129133    -4.989955    1.0503983  1010000 
  150000   0.70025169    -5.002436    -5.002436   -3.9520595   0.11562235    -5.002436    1.0503765  1010000 
  151000   0.69994422   -4.9995121   -4.9995121   -3.9495969   0.10650004   -4.9995121    1.0499153  1010000 
  152000   0.69913629   -4.9818041   -4.9818041   -3.9331007   0.07824271   -4.9818041    1.0487034  1010000 
  153000   0.69852674   -4.9532465   -4.9532465   -3.9054574  0.036090577   -4.9532465    1.0477891  1010000 
  154000   0.69971242   -4.9213627   -4.9213627   -3.8717951 -0.0089141003   -4.9213627    1.0495676  1010000 
  155000    0.6992265   -4.8908843   -4.8908843   -3.8420456 -0.043069034   -4.8908843    1.0488387  1010000 
  156000   0.69937932   -4.8675367   -4.8675367   -3.8184687   -0.0616497   -4.8675367    1.0490679  1010000 
  157000   0.70001286   -4.8555626   -4.8555626   -3.8055443 -0.069104891   -4.8555626    1.0500183  1010000 
  158000   0.69963534   -4.8571043   -4.8571043   -3.8076523 -0.065883889   -4.8571043     1.049452  1010000 
  159000   0.70130267   -4.8719969   -4.8719969   -3.8200439 -0.052118482   -4.8719969     1.051953  1010000 
  160000   0.70064387   -4.8928532   -4.8928532   -3.8418885 -0.022387334   -4.8928532    1.0509648  1010000 
  161000   0.70127246   -4.9203521   -4.9203521   -3.8684445 0.0076169233   -4.9203521    1.0519077  1010000 
  162000   0.70068332    -4.947814    -4.947814     -3.89679  0.043095101    -4.947814    1.0510239  1010000 
  163000   0.70038247   -4.9682691   -4.9682691   -3.9176964  0.072289363   -4.9682691    1.0505727  1010000 
  164000     0.699582   -4.9812398   -4.9812398   -3.9318678  0.084774517   -4.9812398     1.049372  1010000 
  165000    0.7000466   -4.9810885   -4.9810885   -3.9310196  0.078886163   -4.9810885    1.0500689  1010000 
  166000     0.699376   -4.9708337   -4.9708337   -3.9217708  0.062257894   -4.9708337     1.049063  1010000 
  167000   0.69866285   -4.9507983   -4.9507983   -3.9028051  0.038239146   -4.9507983    1.0479932  1010000 
  168000   0.69891719    -4.927418    -4.927418   -3.8790433 0.0078611122    -4.927418    1.0483747  1010000 
  169000   0.69977698   -4.9050525   -4.9050525   -3.8553881 -0.022437558   -4.9050525    1.0496644  1010000 
  170000   0.69953743   -4.8866959   -4.8866959   -3.8373908 -0.038014328   -4.8866959    1.0493051  1010000 
  171000   0.69997939   -4.8762274   -4.8762274   -3.8262593 -0.048092733   -4.8762274    1.0499681  1010000 
  172000     0.700247   -4.8757765   -4.8757765    -3.825407 -0.049522527   -4.8757765    1.0503695  1010000 
  173000   0.70009017    -4.884697    -4.884697   -3.8345628 -0.038775109    -4.884697    1.0501342  1010000 
  174000   0.70110475   -4.9007835   -4.9007835   -3.8491275 -0.020716694   -4.9007835    1.0516561  1010000 
  175000   0.70104122   -4.9213774   -4.9213774   -3.8698166 0.0035703387   -4.9213774    1.0515608  1010000 
  176000   0.70045155   -4.9414145   -4.9414145   -3.8907382  0.027794097   -4.9414145    1.0506763  1010000 
  177000   0.70076374   -4.9603017   -4.9603017   -3.9091572  0.046555772   -4.9603017    1.0511446  1010000 
  178000   0.70057609   -4.9744571   -4.9744571    -3.923594  0.066289628   -4.9744571    1.0508631  1010000 
  179000   0.70124508   -4.9970393   -4.9970393   -3.9451727   0.10378166   -4.9970393    1.0518666  1010000 
  180000   0.70144785   -5.0324888   -5.0324888   -3.9803181   0.17903393   -5.0324888    1.0521707  1010000 
  181000   0.70182682   -5.0760509   -5.0760509   -4.0233118   0.26336331   -5.0760509    1.0527392  1010000 
  182000   0.70115109   -5.1213365   -5.1213365   -4.0696109     0.355664   -5.1213365    1.0517256  1010000 
  183000   0.70023804   -5.1589982   -5.1589982   -4.1086422   0.42530757   -5.1589982     1.050356  1010000 
  184000   0.69976678   -5.1560677   -5.1560677   -4.1064185    0.4187681   -5.1560677    1.0496491  1010000 
  185000   0.69826761   -5.1321206   -5.1321206   -4.0847202   0.36100213   -5.1321206    1.0474004  1010000 
  186000   0.69850504   -5.1010929   -5.1010929   -4.0533364   0.29905651   -5.1010929    1.0477565  1010000 
  187000   0.69847388   -5.0690373   -5.0690373   -4.0213275   0.22997413   -5.0690373    1.0477098  1010000 
  188000   0.69869747   -5.0369564   -5.0369564   -3.9889113   0.16205642   -5.0369564    1.0480452  1010000 
  189000   0.69812837   -4.9951332   -4.9951332   -3.9479417   0.10277548   -4.9951332    1.0471915  1010000 
  190000   0.69706829   -4.9408306   -4.9408306   -3.8952292  0.030251329   -4.9408306    1.0456014  1010000 
  191000   0.69657208   -4.8731577   -4.8731577   -3.8283006 -0.053222302   -4.8731577    1.0448571  1010000 
  192000    0.6978356   -4.8015266   -4.8015266   -3.7547743  -0.12245257   -4.8015266    1.0467524  1010000 
  193000   0.69866067   -4.7372315   -4.7372315   -3.6892416   -0.1651437   -4.7372315      1.04799  1010000 
  194000   0.69917106   -4.6850533   -4.6850533   -3.6362977  -0.19096905   -4.6850533    1.0487555  1010000 
  195000   0.69860994   -4.6438357   -4.6438357   -3.5959218  -0.20547666   -4.6438357    1.0479139  1010000 
  196000    0.6998651   -4.6158025   -4.6158025   -3.5660059  -0.21376086   -4.6158025    1.0497966  1010000 
  197000   0.70003484   -4.5953248   -4.5953248   -3.5452736  -0.20920406   -4.5953248    1.0500512  1010000 
  198000   0.70035331   -4.5883796   -4.5883796   -3.5378506  -0.20663495   -4.5883796    1.0505289  1010000 
  199000   0.69940981   -4.5940568   -4.5940568   -3.5449432  -0.20324659   -4.5940568    1.0491137  1010000 
  200000   0.70054067    -4.612913    -4.612913   -3.5621031  -0.18414212    -4.612913      1.05081  1010000 
  201000   0.70086199   -4.6415969   -4.6415969   -3.5903049  -0.16699695   -4.6415969    1.0512919  1010000 
  202000   0.70211863    -4.681748    -4.681748   -3.6285711  -0.13434015    -4.681748    1.0531769  1010000 
  203000   0.70220818   -4.7306348   -4.7306348   -3.6773236 -0.089558314   -4.7306348    1.0533112  1010000 
  204000    0.7013572   -4.7867354   -4.7867354   -3.7347007  -0.02651806   -4.7867354    1.0520348  1010000 
  205000   0.70119422    -4.840904    -4.840904   -3.7891137  0.021806737    -4.840904    1.0517903  1010000 
  206000   0.69939891   -4.8772836   -4.8772836   -3.8281862  0.066773035   -4.8772836    1.0490973  1010000 
  207000   0.70087069   -4.8995649   -4.8995649   -3.8482599  0.085490261   -4.8995649     1.051305  1010000 
  208000   0.70045863   -4.9003346   -4.9003346   -3.8496476  0.084112268   -4.9003346    1.0506869  1010000 
  209000   0.69923759   -4.8833652   -4.8833652   -3.8345099  0.056766956   -4.8833652    1.0488554  1010000 
  210000    0.6988672   -4.8535294   -4.8535294   -3.8052296   0.01656034   -4.8535294    1.0482998  1010000 
  211000    0.6992603   -4.8208935   -4.8208935   -3.7720041 -0.020375303   -4.8208935    1.0488894  1010000 
  212000   0.69948787    -4.789819    -4.789819   -3.7405882 -0.053087262    -4.789819    1.0492308  1010000 
  213000   0.69909239   -4.7645116   -4.7645116    -3.715874 -0.069792725   -4.7645116    1.0486375  1010000 
  214000   0.69945615   -4.7507466   -4.7507466   -3.7015634 -0.080007266   -4.7507466    1.0491832  1010000 
  215000    0.7002158   -4.7490968   -4.7490968   -3.6987741 -0.083061555   -4.7490968    1.0503227  1010000 
  216000   0.70045066   -4.7579754   -4.7579754   -3.7073005 -0.072466427   -4.7579754    1.0506749  1010000 
  217000   0.70058231   -4.7767909   -4.7767909   -3.7259185 -0.052946481   -4.7767909    1.0508724  1010000 
  218000   0.70061192    -4.800683    -4.800683   -3.7497662 -0.032372787    -4.800683    1.0509168  1010000 
  219000   0.69990644   -4.8241509   -4.8241509   -3.7742923 -0.0018395649   -4.8241509    1.0498586  1010000 
  220000   0.70125153     -4.84724     -4.84724   -3.7953637  0.016356507     -4.84724    1.0518762  1010000 
  221000   0.70013391   -4.8624385   -4.8624385   -3.8122387  0.036486121   -4.8624385    1.0501998  1010000 
  222000   0.70001732   -4.8706917   -4.8706917   -3.8206668  0.041406101   -4.8706917    1.0500249  1010000 
  223000   0.69922446   -4.8697094   -4.8697094   -3.8208738  0.040308608   -4.8697094    1.0488356  1010000 
  224000   0.69950556   -4.8619987   -4.8619987   -3.8127414  0.028434576   -4.8619987    1.0492573  1010000 
  225000   0.69960656   -4.8501871   -4.8501871   -3.8007783  0.012937588   -4.8501871    1.0494088  1010000 
  226000   0.69967699   -4.8350805   -4.8350805   -3.7855661 -0.0062978299   -4.8350805    1.0495144  1010000 
  227000    0.6992703    -4.821239    -4.821239   -3.7723346 -0.018915263    -4.821239    1.0489044  1010000 
  228000   0.69998771   -4.8109355   -4.8109355    -3.760955 -0.034890869   -4.8109355    1.0499805  1010000 
  229000   0.70073812    -4.805822    -4.805822   -3.7547158 -0.035456859    -4.805822    1.0511061  1010000 
  230000   0.69965004   -4.8029449   -4.8029449   -3.7534709 -0.031023755   -4.8029449     1.049474  1010000 
  231000   0.70110617   -4.8078079   -4.8078079   -3.7561497 -0.029912369   -4.8078079    1.0516582  1010000 
  232000   0.70047422   -4.8138911   -4.8138911   -3.7631808 -0.020073635   -4.8138911    1.0507103  1010000 
  233000   0.69978215   -4.8239322   -4.8239322     -3.77426 -0.013826573   -4.8239322    1.0496722  1010000 
  234000   0.69988242   -4.8334877   -4.8334877   -3.7836652 -0.0015561276   -4.8334877    1.0498226  1010000 
  235000   0.70019057   -4.8443259   -4.8443259   -3.7940411 0.0035776602   -4.8443259    1.0502848  1010000 
  236000   0.69986954   -4.8494975   -4.8494975   -3.7996942  0.011847159   -4.8494975    1.0498033  1010000 
  237000   0.69966674    -4.855057    -4.855057   -3.8055579  0.020015932    -4.855057    1.0494991  1010000 
  238000   0.70012502   -4.8594375   -4.8594375    -3.809251  0.018863713   -4.8594375    1.0501865  1010000 
  239000   0.69994707   -4.8597806   -4.8597806    -3.809861  0.020626654   -4.8597806    1.0499196  1010000 
  240000    0.7001902    -4.859423    -4.859423   -3.8091387  0.017504946    -4.859423    1.0502843  1010000 
  241000   0.70065533   -4.8571583   -4.8571583   -3.8061764  0.016139528   -4.8571583     1.050982  1010000 
  242000   0.70004689   -4.8552088   -4.8552088   -3.8051395  0.014396069   -4.8552088    1.0500693  1010000 
  243000   0.69979578   -4.8545632   -4.8545632   -3.8048706  0.010381982   -4.8545632    1.0496926  1010000 
  244000   0.69982795    -4.854008    -4.854008   -3.8042671  0.010208046    -4.854008    1.0497409  1010000 
  245000   0.70054166   -4.8551497   -4.8551497   -3.8043383  0.010471483   -4.8551497    1.0508114  1010000 
  246000   0.70020991   -4.8571819   -4.8571819   -3.8068681  0.015824336   -4.8571819    1.0503138  1010000 
  247000   0.70011299   -4.8623762   -4.8623762   -3.8122078  0.019727718   -4.8623762    1.0501684  1010000 
  248000   0.70016975   -4.8683891   -4.8683891   -3.8181355  0.027132824   -4.8683891    1.0502536  1010000 
  249000   0.70045157     -4.87612     -4.87612   -3.8254437  0.038184106     -4.87612    1.0506763  1010000 
  250000   0.70020598   -4.8835825   -4.8835825   -3.8332746  0.042199585   -4.8835825    1.0503079  1010000 
  251000   0.69979946   -4.8887619   -4.8887619   -3.8390638  0.051527408   -4.8887619    1.0496981  1010000 
  252000   0.69971167    -4.893112    -4.893112   -3.8435456  0.053803847    -4.893112    1.0495665  1010000 
  253000   0.70004449   -4.8916909   -4.8916909   -3.8416252  0.052846785   -4.8916909    1.0500657  1010000 
  254000    0.6995433   -4.8882077   -4.8882077   -3.8388938  0.045297935   -4.8882077    1.0493139  1010000 
  255000   0.70072276   -4.8862487   -4.8862487   -3.8351656  0.040575414   -4.8862487    1.0510831  1010000 
  256000   0.69975898   -4.8796218   -4.8796218   -3.8299844   0.04356857   -4.8796218    1.0496374  1010000 
  257000    0.6998617   -4.8755659   -4.8755659   -3.8257744  0.033674077   -4.8755659    1.0497915  1010000 
  258000   0.69895849   -4.8705454   -4.8705454   -3.8221087  0.029296656   -4.8705454    1.0484367  1010000 
  259000    0.7006329   -4.8641414   -4.8641414   -3.8131931  0.020249414   -4.8641414    1.0509483  1010000 
  260000   0.69965785   -4.8533163   -4.8533163   -3.8038305  0.010097581   -4.8533163    1.0494857  1010000 
  261000   0.70031954   -4.8463884   -4.8463884   -3.7959101 -0.0072123675   -4.8463884    1.0504783  1010000 
  262000    0.6996469   -4.8346829   -4.8346829   -3.7852136 -0.0087640378   -4.8346829    1.0494693  1010000 
  263000   0.69978861   -4.8267886   -4.8267886   -3.7771068 -0.020173111   -4.8267886    1.0496819  1010000 
  264000   0.70015388   -4.8196603   -4.8196603   -3.7694305  -0.02719486   -4.8196603    1.0502298  1010000 
  265000   0.70047003   -4.8135944   -4.8135944   -3.7628904 -0.026275261   -4.8135944     1.050704  1010000 
  266000   0.70000984   -4.8098116   -4.8098116   -3.7597979 -0.030128136   -4.8098116    1.0500137  1010000 
  267000   0.70012992   -4.8055565   -4.8055565   -3.7553626 -0.032594908   -4.8055565    1.0501938  1010000 
  268000   0.70038182   -4.8031141   -4.8031141   -3.7525424  -0.03642184   -4.8031141    1.0505717  1010000 
  269000   0.69958644   -4.8013294   -4.8013294   -3.7519508 -0.041048919   -4.8013294    1.0493786  1010000 
  270000    0.6989323   -4.8013633   -4.8013633   -3.7529659 -0.042273367   -4.8013633    1.0483974  1010000 
  271000   0.69949678   -4.8028831   -4.8028831   -3.7536389  -0.03474974   -4.8028831    1.0492441  1010000 
  272000   0.70051992   -4.8073103   -4.8073103   -3.7565315 -0.032832482   -4.8073103    1.0507788  1010000 
  273000   0.70022917   -4.8141243   -4.8141243   -3.7637816 -0.030635576   -4.8141243    1.0503427  1010000 
  274000    0.7000454   -4.8210556   -4.8210556   -3.7709885 -0.022970244   -4.8210556    1.0500671  1010000 
  275000   0.69952768   -4.8265802   -4.8265802   -3.7772897 -0.014893894   -4.8265802    1.0492905  1010000 
  276000   0.70078013    -4.833632    -4.833632   -3.7824628 -0.0083784068    -4.833632    1.0511692  1010000 
  277000    0.7003935   -4.8413918   -4.8413918   -3.7908025 -0.0003328457   -4.8413918    1.0505892  1010000 
  278000   0.70007717   -4.8482561   -4.8482561   -3.7981414 0.0055631859   -4.8482561    1.0501147  1010000 
  279000   0.69983902   -4.8569827   -4.8569827   -3.8072252  0.014298294   -4.8569827    1.0497575  1010000 
  280000   0.70053662   -4.8641691   -4.8641691   -3.8133652  0.029073887   -4.8641691    1.0508039  1010000 
  281000   0.70111999   -4.8717041   -4.8717041   -3.8200252  0.035558147   -4.8717041    1.0516789  1010000 
  282000   0.70115373      -4.8778      -4.8778   -3.8260705  0.040288445      -4.8778    1.0517295  1010000 
  283000   0.69944718   -4.8808159   -4.8808159   -3.8316461  0.046354855   -4.8808159    1.0491697  1010000 
  284000    0.6997787   -4.8831137   -4.8831137   -3.8334467  0.047641062   -4.8831137     1.049667  1010000 
  285000   0.70103798   -4.8831422   -4.8831422   -3.8315862  0.047120438   -4.8831422    1.0515559  1010000 
  286000   0.70019968   -4.8826947   -4.8826947   -3.8323962   0.04291198   -4.8826947    1.0502985  1010000 
  287000   0.70070741   -4.8806029   -4.8806029   -3.8295428   0.04083068   -4.8806029    1.0510601  1010000 
  288000   0.70081539   -4.8784924   -4.8784924   -3.8272704  0.039404891   -4.8784924     1.051222  1010000 
  289000   0.69959857    -4.875359    -4.875359   -3.8259622  0.031600701    -4.875359    1.0493968  1010000 
  290000   0.70010611   -4.8690169   -4.8690169   -3.8188588  0.025477148   -4.8690169    1.0501581  1010000 
  291000   0.70009571   -4.8603009   -4.8603009   -3.8101584  0.017082732   -4.8603009    1.0501425  1010000 
  292000   0.70003224   -4.8530068   -4.8530068   -3.8029594 0.0069779855   -4.8530068    1.0500473  1010000 
  293000    0.6989526   -4.8452906   -4.8452906   -3.7968627 -0.0040440789   -4.8452906    1.0484279  1010000 
  294000   0.69960054   -4.8361891   -4.8361891   -3.7867893 -0.0032780825   -4.8361891    1.0493998  1010000 
  295000   0.69990981   -4.8321039   -4.8321039   -3.7822402 -0.016921136   -4.8321039    1.0498637  1010000 
  296000   0.70225283   -4.8233397   -4.8233397   -3.7699615 -0.012910645   -4.8233397    1.0533782  1010000 
  297000   0.69976605   -4.8188111   -4.8188111    -3.769163 -0.023864832   -4.8188111     1.049648  1010000 
  298000   0.69996771   -4.8135852   -4.8135852   -3.7636347 -0.028216829   -4.8135852    1.0499505  1010000 
  299000   0.69928358   -4.8091064   -4.8091064   -3.7601821 -0.033174749   -4.8091064    1.0489243  1010000 
  300000   0.69964809   -4.8056639   -4.8056639   -3.7561927  -0.03913125   -4.8056639    1.0494711  1010000 
  301000    0.7003107   -4.8039489   -4.8039489   -3.7534839  -0.03740991   -4.8039489     1.050465  1010000 
  302000   0.70036742   -4.8046417   -4.8046417   -3.7540916 -0.036009632   -4.8046417    1.0505501  1010000 
  303000   0.69910291   -4.8089483   -4.8089483    -3.760295 -0.033898788   -4.8089483    1.0486533  1010000 
  304000   0.70048455   -4.8113833   -4.8113833   -3.7606575 -0.030156203   -4.8113833    1.0507258  1010000 
  305000   0.69951534   -4.8154797   -4.8154797   -3.7662078 -0.025450429   -4.8154797     1.049272  1010000 
  306000   0.70003199   -4.8200601   -4.8200601   -3.7700131  -0.02006405   -4.8200601    1.0500469  1010000 
  307000   0.70084151   -4.8248753   -4.8248753    -3.773614 -0.012774036   -4.8248753    1.0512612  1010000 
  308000   0.70125169   -4.8319624   -4.8319624   -3.7800859 -0.0066754139   -4.8319624    1.0518765  1010000 
  309000   0.70005508    -4.838804    -4.838804   -3.7887224 0.0014047472    -4.838804    1.0500816  1010000 
  310000   0.70012009   -4.8482424   -4.8482424   -3.7980633 0.0069567973   -4.8482424    1.0501791  1010000 
  311000   0.70025553   -4.8545839   -4.8545839   -3.8042017  0.018929499   -4.8545839    1.0503823  1010000 
  312000   0.70054206   -4.8607425   -4.8607425   -3.8099305  0.026801069   -4.8607425     1.050812  1010000 
  313000   0.70005783    -4.867263    -4.867263   -3.8171773  0.028888645    -4.867263    1.0500857  1010000 
  314000    0.6990909   -4.8711366   -4.8711366   -3.8225013  0.035252324   -4.8711366    1.0486353  1010000 
  315000   0.70002726   -4.8770496   -4.8770496   -3.8270098  0.033566848   -4.8770496    1.0500399  1010000 
  316000   0.69918732   -4.8780178   -4.8780178   -3.8292379  0.040196858   -4.8780178    1.0487799  1010000 
  317000   0.69934466   -4.8790634   -4.8790634   -3.8300474  0.043926394   -4.8790634     1.049016  1010000 
  318000   0.70038826   -4.8788907   -4.8788907   -3.8283094  0.045770457   -4.8788907    1.0505813  1010000 
  319000   0.69920388   -4.8780212   -4.8780212   -3.8292164   0.03901529   -4.8780212    1.0488048  1010000 
  320000     0.699546   -4.8768569   -4.8768569   -3.8275389  0.033277833   -4.8768569     1.049318  1010000 
  321000    0.6996419   -4.8714518   -4.8714518     -3.82199   0.03084928   -4.8714518    1.0494618  1010000 
  322000   0.69985734   -4.8643128   -4.8643128   -3.8145278  0.025383913   -4.8643128     1.049785  1010000 
  323000   0.69980625   -4.8583287   -4.8583287   -3.8086204  0.017942815   -4.8583287    1.0497083  1010000 
  324000   0.70061429   -4.8526309   -4.8526309   -3.8017105 0.0069092212   -4.8526309    1.0509204  1010000 
  325000   0.69959252   -4.8439745   -4.8439745   -3.7945868 0.0058919034   -4.8439745    1.0493877  1010000 
  326000   0.69991049   -4.8389545   -4.8389545   -3.7890898 -0.0023056437   -4.8389545    1.0498647  1010000 
  327000   0.70014964   -4.8324974   -4.8324974    -3.782274 -0.010918674   -4.8324974    1.0502234  1010000 
  328000   0.69971763   -4.8249923   -4.8249923   -3.7754169 -0.014574405   -4.8249923    1.0495754  1010000 
  329000   0.70046785   -4.8199575   -4.8199575   -3.7692568 -0.023083163   -4.8199575    1.0507007  1010000 
  330000    0.7003717   -4.8152606   -4.8152606   -3.7647041 -0.026546445   -4.8152606    1.0505565  1010000 
  331000   0.70005197   -4.8115781   -4.8115781   -3.7615012   -0.0306218   -4.8115781    1.0500769  1010000 
  332000   0.69930965    -4.809532    -4.809532   -3.7605685 -0.032707847    -4.809532    1.0489634  1010000 
  333000   0.70039959    -4.808488    -4.808488   -3.7578897 -0.032306954    -4.808488    1.0505983  1010000 
  334000    0.6997373   -4.8084011   -4.8084011   -3.7587962 -0.027993141   -4.8084011    1.0496049  1010000 
  335000   0.69836923   -4.8102121   -4.8102121   -3.7626593 -0.029124388   -4.8102121    1.0475528  1010000 
  336000   0.69914299   -4.8135868   -4.8135868   -3.7648734  -0.02827168   -4.8135868    1.0487134  1010000 
  337000   0.70023564   -4.8185729   -4.8185729   -3.7682205 -0.027108766   -4.8185729    1.0503524  1010000 
  338000   0.69963424   -4.8218215   -4.8218215   -3.7723712 -0.020217619   -4.8218215    1.0494503  1010000 
  339000   0.70007717   -4.8278232   -4.8278232   -3.7777085 -0.015428324   -4.8278232    1.0501147  1010000 
  340000   0.69984836   -4.8334377   -4.8334377   -3.7836662 -0.0075413841   -4.8334377    1.0497715  1010000 
  341000   0.69925493   -4.8404404   -4.8404404    -3.791559 -0.0020350348   -4.8404404    1.0488814  1010000 
  342000   0.70005249   -4.8445466   -4.8445466   -3.7944689   0.01304937   -4.8445466    1.0500777  1010000 
  343000   0.69980515   -4.8537838   -4.8537838   -3.8040771  0.012547103   -4.8537838    1.0497067  1010000 
  344000   0.69990726   -4.8602445   -4.8602445   -3.8103846  0.019571858   -4.8602445    1.0498599  1010000 
  345000   0.70053057   -4.8645749   -4.8645749   -3.8137801    0.0252723   -4.8645749    1.0507948  1010000 
  346000    0.6995273    -4.868954    -4.868954   -3.8196641   0.02979035    -4.868954    1.0492899  1010000 
  347000   0.69991404    -4.873627    -4.873627    -3.823757  0.029899776    -4.873627      1.04987  1010000 
  348000   0.69985036    -4.874572    -4.874572   -3.8247975  0.037587635    -4.874572    1.0497745  1010000 
  349000   0.70020629    -4.876848    -4.876848   -3.8265396  0.034941172    -4.876848    1.0503084  1010000 
  350000   0.70077485   -4.8771055   -4.8771055   -3.8259443  0.034400958   -4.8771055    1.0511612  1010000 
  351000   0.70104388   -4.8750741   -4.8750741   -3.8235094  0.034051495   -4.8750741    1.0515648  1010000 
  352000   0.69972158   -4.8712456   -4.8712456   -3.8216643  0.034298886   -4.8712456    1.0495813  1010000 
  353000   0.69986716   -4.8677168   -4.8677168   -3.8179171  0.026061627   -4.8677168    1.0497997  1010000 
  354000   0.69907472    -4.862437    -4.862437    -3.813826  0.020571936    -4.862437     1.048611  1010000 
  355000   0.69977275   -4.8587247   -4.8587247   -3.8090666  0.014062626   -4.8587247    1.0496581  1010000 
  356000   0.70004648   -4.8521146   -4.8521146   -3.8020459 0.0083216163   -4.8521146    1.0500687  1010000 
  357000   0.69991123   -4.8447779   -4.8447779   -3.7949121  0.005442858   -4.8447779    1.0498658  1010000 
  358000   0.69909581   -4.8379012   -4.8379012   -3.7892585 -0.00061525476   -4.8379012    1.0486427  1010000 
  359000   0.69915035   -4.8335706   -4.8335706   -3.7848461 -0.0091018098   -4.8335706    1.0487245  1010000 
  360000   0.69991014    -4.829305    -4.829305   -3.7794408 -0.016943868    -4.829305    1.0498642  1010000 
  361000    0.7006037   -4.8229508   -4.8229508   -3.7720463  -0.02034688   -4.8229508    1.0509045  1010000 
  362000   0.69982046   -4.8205478   -4.8205478   -3.7708181 -0.028298455   -4.8205478    1.0497297  1010000 
  363000   0.69994723   -4.8161301   -4.8161301   -3.7662103 -0.022290104   -4.8161301    1.0499198  1010000 
  364000   0.69928266   -4.8150572   -4.8150572   -3.7661342 -0.029999574   -4.8150572    1.0489229  1010000 
  365000   0.69937767   -4.8141099   -4.8141099   -3.7650445 -0.030452077   -4.8141099    1.0490655  1010000 
  366000   0.69998471     -4.81298     -4.81298    -3.763004 -0.023698065     -4.81298     1.049976  1010000 
  367000    0.7008409   -4.8136306   -4.8136306   -3.7623703 -0.022242091   -4.8136306    1.0512603  1010000 
  368000   0.70112346   -4.8177766   -4.8177766   -3.7660925 -0.027148493   -4.8177766    1.0516842  1010000 
  369000   0.69922827   -4.8202891   -4.8202891   -3.7714478 -0.019735038   -4.8202891    1.0488414  1010000 
  370000   0.70014402   -4.8246977   -4.8246977   -3.7744827 -0.016851968   -4.8246977     1.050215  1010000 
  371000   0.70001028   -4.8303812   -4.8303812   -3.7803668 -0.013564882   -4.8303812    1.0500144  1010000 
  372000   0.70060201   -4.8346646   -4.8346646   -3.7837626 -0.0049280735   -4.8346646     1.050902  1010000 
  373000   0.69997065   -4.8398545   -4.8398545   -3.7898995 0.0023234515   -4.8398545    1.0499549  1010000 
  374000   0.69916317   -4.8460931   -4.8460931   -3.7973494 0.0058162536   -4.8460931    1.0487437  1010000 
  375000   0.70022356   -4.8519283   -4.8519283    -3.801594 0.0082876947   -4.8519283    1.0503343  1010000 
  376000   0.70058993   -4.8561865   -4.8561865   -3.8053026  0.018793832   -4.8561865    1.0508839  1010000 
  377000   0.70060654   -4.8594916   -4.8594916   -3.8085828  0.028404243   -4.8594916    1.0509088  1010000 
  378000   0.70063401   -4.8657367   -4.8657367   -3.8147867  0.024364347   -4.8657367      1.05095  1010000 
  379000   0.69985992   -4.8689215   -4.8689215   -3.8191327  0.031338299   -4.8689215    1.0497888  1010000 
  380000   0.69928732    -4.870435    -4.870435    -3.821505  0.029586939    -4.870435    1.0489299  1010000 
  381000   0.70033106   -4.8707811   -4.8707811   -3.8202855  0.033478369   -4.8707811    1.0504955  1010000 
  382000   0.69983972   -4.8719271   -4.8719271   -3.8221686  0.026854467   -4.8719271    1.0497585  1010000 
  383000   0.69942387   -4.8689505   -4.8689505   -3.8198158   0.02836122   -4.8689505    1.0491348  1010000 
  384000   0.69970423   -4.8663277   -4.8663277   -3.8167724  0.027180319   -4.8663277    1.0495553  1010000 
  385000   0.70065302    -4.863403    -4.863403   -3.8124245  0.027975546    -4.863403    1.0509785  1010000 
  386000   0.70040074   -4.8587648   -4.8587648   -3.8081647  0.025186261   -4.8587648    1.0506001  1010000 
  387000   0.70080054   -4.8546567   -4.8546567    -3.803457  0.015753965   -4.8546567    1.0511998  1010000 
  388000   0.69999708   -4.8496803   -4.8496803   -3.7996857  0.011143824   -4.8496803    1.0499946  1010000 
  389000   0.69980207   -4.8432453   -4.8432453   -3.7935433 0.0069653011   -4.8432453    1.0497021  1010000 
  390000   0.70017942   -4.8384833   -4.8384833   -3.7882152 -0.0030023722   -4.8384833    1.0502681  1010000 
  391000   0.69986319   -4.8334614   -4.8334614   -3.7836677 -0.0061213217   -4.8334614    1.0497937  1010000 
  392000   0.70014773    -4.829489    -4.829489   -3.7792684 -0.013841673    -4.829489    1.0502205  1010000 
  393000   0.69952887   -4.8250808   -4.8250808   -3.7757885 -0.016180311   -4.8250808    1.0492923  1010000 
  394000   0.69972913   -4.8209172   -4.8209172   -3.7713246 -0.017711253   -4.8209172    1.0495927  1010000 
  395000   0.70037066   -4.8185687   -4.8185687   -3.7680138 -0.020865198   -4.8185687     1.050555  1010000 
  396000   0.70027972    -4.817902    -4.817902   -3.7674835 -0.022226461    -4.817902    1.0504185  1010000 
  397000   0.70003422   -4.8160338   -4.8160338   -3.7659835 -0.019893182   -4.8160338    1.0500503  1010000 
  398000    0.6998673    -4.816904    -4.816904   -3.7671041 -0.020352256    -4.816904    1.0497999  1010000 
  399000   0.70146972   -4.8185954   -4.8185954   -3.7663919 -0.022626923   -4.8185954    1.0522035  1010000 
  400000   0.70019805   -4.8209217   -4.8209217   -3.7706256 -0.020809869   -4.8209217     1.050296  1010000 
  401000   0.69945971   -4.8235765   -4.8235765    -3.774388 -0.016053901   -4.8235765    1.0491885  1010000 
  402000   0.70110446      -4.8278      -4.8278   -3.7761443 -0.010191375      -4.8278    1.0516556  1010000 
  403000   0.69934447    -4.830563    -4.830563   -3.7815473 -0.006387433    -4.830563    1.0490157  1010000 
  404000   0.69982189   -4.8356132   -4.8356132   -3.7858814 0.00054514137   -4.8356132    1.0497318  1010000 
  405000   0.70014297   -4.8406778   -4.8406778   -3.7904644 0.0062098685   -4.8406778    1.0502134  1010000 
  406000   0.69919361   -4.8462564   -4.8462564   -3.7974671 0.0059654491   -4.8462564    1.0487894  1010000 
  407000   0.69989862   -4.8513058   -4.8513058   -3.8014589  0.013309167   -4.8513058    1.0498469  1010000 
  408000   0.69940891    -4.855317    -4.855317   -3.8062046  0.015912478    -4.855317    1.0491123  1010000 
  409000   0.69934029   -4.8576109   -4.8576109   -3.8086015  0.023522311   -4.8576109    1.0490094  1010000 
  410000    0.7001386   -4.8612407   -4.8612407   -3.8110339  0.027641247   -4.8612407    1.0502069  1010000 
  411000   0.70069909   -4.8635967   -4.8635967   -3.8125492  0.030572006   -4.8635967    1.0510476  1010000 
  412000   0.69970325   -4.8663855   -4.8663855   -3.8168317  0.026193036   -4.8663855    1.0495538  1010000 
  413000   0.70010582   -4.8669031   -4.8669031   -3.8167454   0.02565896   -4.8669031    1.0501577  1010000 
  414000   0.69971852   -4.8647725   -4.8647725   -3.8151958  0.029828605   -4.8647725    1.0495767  1010000 
  415000   0.69984937   -4.8644675   -4.8644675   -3.8146944  0.028086368   -4.8644675     1.049773  1010000 
  416000   0.69937113   -4.8624316   -4.8624316   -3.8133759  0.021787896   -4.8624316    1.0490557  1010000 
  417000    0.7002954   -4.8592168   -4.8592168   -3.8087748  0.023161244   -4.8592168    1.0504421  1010000 
  418000   0.69952472   -4.8555387   -4.8555387   -3.8062526  0.015858743   -4.8555387     1.049286  1010000 
  419000   0.69985607   -4.8525195   -4.8525195   -3.8027364  0.011623748   -4.8525195    1.0497831  1010000 
  420000   0.70152221   -4.8491152   -4.8491152   -3.7968329  0.002416508   -4.8491152    1.0522823  1010000 
  421000   0.70021752   -4.8420297   -4.8420297   -3.7917045 0.0043041083   -4.8420297    1.0503252  1010000 
  422000   0.70010628   -4.8380881   -4.8380881   -3.7879297 0.00037303734   -4.8380881    1.0501584  1010000 
  423000   0.69987025   -4.8342057   -4.8342057   -3.7844013 -0.004689508   -4.8342057    1.0498043  1010000 
  424000   0.69987337   -4.8309878   -4.8309878   -3.7811788 -0.010523156   -4.8309878     1.049809  1010000 
  425000   0.70035775   -4.8271353   -4.8271353   -3.7765997 -0.013482153   -4.8271353    1.0505356  1010000 
  426000    0.7003805   -4.8231761   -4.8231761   -3.7726064 -0.011603107   -4.8231761    1.0505697  1010000 
  427000    0.6994632   -4.8224858   -4.8224858   -3.7732921 -0.018614834   -4.8224858    1.0491938  1010000 
  428000   0.69994056   -4.8225481   -4.8225481   -3.7726383 -0.019569066   -4.8225481    1.0499098  1010000 
  429000   0.69984394   -4.8220482   -4.8220482   -3.7722833 -0.017729519   -4.8220482    1.0497649  1010000 
  430000   0.69962114   -4.8204293   -4.8204293   -3.7709987 -0.019359481   -4.8204293    1.0494307  1010000 
  431000   0.69993373    -4.822171    -4.822171   -3.7722714 -0.013593194    -4.822171    1.0498996  1010000 
  432000   0.70000767   -4.8258636   -4.8258636   -3.7758532 -0.016153345   -4.8258636    1.0500105  1010000 
  433000     0.700462   -4.8277136   -4.8277136   -3.7770217 -0.011297179   -4.8277136     1.050692  1010000 
  434000   0.70038466   -4.8313662   -4.8313662   -3.7807903 -0.0075348102   -4.8313662    1.0505759  1010000 
  435000   0.69973894   -4.8348744   -4.8348744    -3.785267 -0.0049570103   -4.8348744    1.0496074  1010000 
  436000   0.70021029     -4.83841     -4.83841   -3.7880956 -0.0019088414     -4.83841    1.0503144  1010000 
  437000   0.69994892   -4.8424243   -4.8424243    -3.792502 0.0045170649   -4.8424243    1.0499223  1010000 
  438000   0.69976203   -4.8467094   -4.8467094   -3.7970674  0.008374454   -4.8467094     1.049642  1010000 
  439000    0.6995445   -4.8501705   -4.8501705   -3.8008548   0.01143081   -4.8501705    1.0493157  1010000 
  440000   0.69997541   -4.8548393   -4.8548393   -3.8048773  0.013153983   -4.8548393    1.0499621  1010000 
  441000    0.7009933   -4.8575988   -4.8575988   -3.8061099   0.02227233   -4.8575988    1.0514889  1010000 
  442000   0.69897018   -4.8594824   -4.8594824   -3.8110281  0.024919711   -4.8594824    1.0484542  1010000 
  443000   0.70006849    -4.860244    -4.860244   -3.8101423  0.026895794    -4.860244    1.0501017  1010000 
  444000   0.69958999   -4.8618541   -4.8618541   -3.8124702  0.022517514   -4.8618541    1.0493839  1010000 
  445000   0.70046735   -4.8610575   -4.8610575   -3.8103575  0.027009824   -4.8610575       1.0507  1010000 
  446000   0.69993001   -4.8625648   -4.8625648   -3.8126708  0.025164069   -4.8625648     1.049894  1010000 
  447000   0.70124542   -4.8609913   -4.8609913   -3.8091242  0.020048478   -4.8609913    1.0518671  1010000 
  448000   0.69949944   -4.8588455   -4.8588455   -3.8095974   0.01827479   -4.8588455    1.0492481  1010000 
  449000   0.70020966   -4.8572657   -4.8572657   -3.8069522   0.01507093   -4.8572657    1.0503134  1010000 
  450000   0.70091288   -4.8540382   -4.8540382   -3.8026699  0.011543908   -4.8540382    1.0513683  1010000 
  451000   0.69976764   -4.8481172   -4.8481172   -3.7984668  0.012837331   -4.8481172    1.0496504  1010000 
  452000   0.70018378   -4.8441335   -4.8441335   -3.7938588  0.008813952   -4.8441335    1.0502746  1010000 
  453000   0.70059555   -4.8412581   -4.8412581   -3.7903658 -0.00053833272   -4.8412581    1.0508923  1010000 
  454000   0.69998243   -4.8371029   -4.8371029   -3.7871303 -0.0022175966   -4.8371029    1.0499726  1010000 
  455000   0.69948384   -4.8336041   -4.8336041   -3.7843794 -0.0038703001   -4.8336041    1.0492247  1010000 
  456000   0.70084608   -4.8319791   -4.8319791    -3.780711 -0.0090238168   -4.8319791    1.0512681  1010000 
  457000   0.70001523   -4.8279318   -4.8279318     -3.77791 -0.0070976185   -4.8279318    1.0500218  1010000 
  458000   0.70023834   -4.8271457   -4.8271457   -3.7767893 -0.015172274   -4.8271457    1.0503565  1010000 
  459000   0.70013222   -4.8245869   -4.8245869   -3.7743896 -0.011727535   -4.8245869    1.0501973  1010000 
  460000   0.69952879   -4.8231241   -4.8231241   -3.7738319 -0.014340829   -4.8231241    1.0492921  1010000 
  461000   0.70056956   -4.8232698   -4.8232698   -3.7724166 -0.013665888   -4.8232698    1.0508533  1010000 
  462000   0.70024316   -4.8248874   -4.8248874   -3.7745237 -0.017495372   -4.8248874    1.0503637  1010000 
  463000   0.69928734   -4.8243742   -4.8243742   -3.7754442 -0.012187315   -4.8243742      1.04893  1010000 
  464000   0.69968908   -4.8283044   -4.8283044   -3.7787718 -0.011572765   -4.8283044    1.0495326  1010000 
  465000   0.70016867   -4.8296502   -4.8296502   -3.7793982 -0.0039809706   -4.8296502     1.050252  1010000 
  466000   0.69915738   -4.8328355   -4.8328355   -3.7841005 -0.0038610834   -4.8328355     1.048735  1010000 
  467000   0.70026896   -4.8365216   -4.8365216   -3.7861192 -0.0010748962   -4.8365216    1.0504024  1010000 
  468000   0.69960265   -4.8388136   -4.8388136   -3.7894107 0.0023063481   -4.8388136    1.0494029  1010000 
  469000   0.70006328   -4.8435718   -4.8435718    -3.793478 0.0035273342   -4.8435718    1.0500939  1010000 
  470000   0.70050877   -4.8468651   -4.8468651    -3.796103 0.0062384653   -4.8468651    1.0507621  1010000 
  471000   0.70020561   -4.8497975   -4.8497975   -3.7994902  0.013869248   -4.8497975    1.0503074  1010000 
  472000   0.70080636   -4.8543302   -4.8543302   -3.8031217  0.015174201   -4.8543302    1.0512085  1010000 
  473000   0.69996746   -4.8571991   -4.8571991    -3.807249  0.019478124   -4.8571991    1.0499501  1010000 
  474000   0.69984975   -4.8573581   -4.8573581   -3.8075845  0.023781978   -4.8573581    1.0497736  1010000 
  475000    0.6991238   -4.8592827   -4.8592827   -3.8105981  0.021292092   -4.8592827    1.0486847  1010000 
  476000   0.69935155   -4.8586088   -4.8586088   -3.8095825  0.023234667   -4.8586088    1.0490263  1010000 
  477000   0.69985361   -4.8592116   -4.8592116   -3.8094323  0.022510832   -4.8592116    1.0497794  1010000 
  478000     0.699966   -4.8584443   -4.8584443   -3.8084964  0.022289512   -4.8584443     1.049948  1010000 
  479000   0.69986941   -4.8580684   -4.8580684   -3.8082653  0.015691496   -4.8580684    1.0498031  1010000 
  480000   0.69964339   -4.8561643   -4.8561643   -3.8067003  0.016500329   -4.8561643     1.049464  1010000 
  481000   0.69936566   -4.8556836   -4.8556836   -3.8066362  0.012788877   -4.8556836    1.0490475  1010000 
  482000   0.69986573   -4.8511416   -4.8511416    -3.801344  0.014063154   -4.8511416    1.0497976  1010000 
  483000    0.7005956   -4.8475021   -4.8475021   -3.7966097  0.006332705   -4.8475021    1.0508924  1010000 
  484000   0.70108008   -4.8429641   -4.8429641   -3.7913451 0.0056310597   -4.8429641    1.0516191  1010000 
  485000   0.69978132   -4.8402387   -4.8402387   -3.7905678 0.00024106311   -4.8402387    1.0496709  1010000 
  486000   0.69945978   -4.8381397   -4.8381397   -3.7889511 -0.0036881338   -4.8381397    1.0491886  1010000 
  487000   0.69899438   -4.8353745   -4.8353745    -3.786884 -0.0067559594   -4.8353745    1.0484905  1010000 
  488000   0.69930673   -4.8319216   -4.8319216   -3.7829625 -0.0090238098   -4.8319216    1.0489591  1010000 
  489000   0.70023215   -4.8298599   -4.8298599   -3.7795127 -0.011655854   -4.8298599    1.0503472  1010000 
  490000   0.70032951   -4.8291505   -4.8291505   -3.7786573 -0.015746514   -4.8291505    1.0504932  1010000 
  491000    0.6995944   -4.8280366   -4.8280366    -3.778646 -0.015932564   -4.8280366    1.0493906  1010000 
  492000   0.69898728   -4.8256218   -4.8256218    -3.777142 -0.012248835   -4.8256218    1.0484799  1010000 
  493000   0.70049887    -4.826792    -4.826792   -3.7760447 -0.011234203    -4.826792    1.0507473  1010000 
  494000    0.7012065   -4.8268855   -4.8268855   -3.7750768 -0.0087550249   -4.8268855    1.0518087  1010000 
  495000   0.69984354    -4.829433    -4.829433   -3.7796687 -0.011791034    -4.829433    1.0497643  1010000 
  496000   0.69925488   -4.8300919   -4.8300919   -3.7812107 -0.011615468   -4.8300919    1.0488813  1010000 
  497000   0.70075288   -4.8321598   -4.8321598   -3.7810315 -0.007059369   -4.8321598    1.0511283  1010000 
  498000   0.70022509   -4.8349003   -4.8349003   -3.7845637 -0.0053160464   -4.8349003    1.0503366  1010000 
  499000   0.70032465   -4.8384039   -4.8384039   -3.7879179 -0.0004515843   -4.8384039    1.0504859  1010000 
  500000   0.69986001    -4.841064    -4.841064   -3.7912751 0.0026234643    -4.841064     1.049789  1010000 
  501000   0.69970432   -4.8438272   -4.8438272   -3.7942717  0.006859869   -4.8438272    1.0495554  1010000 
  502000   0.69996074   -4.8457198   -4.8457198   -3.7957797  0.010677826   -4.8457198    1.0499401  1010000 
  503000   0.70032997   -4.8505303   -4.8505303   -3.8000364 0.0095183204   -4.8505303    1.0504939  1010000 
  504000   0.70067216   -4.8537051   -4.8537051   -3.8026979 0.0092057326   -4.8537051    1.0510072  1010000 
  505000   0.69911524   -4.8537196   -4.8537196   -3.8050477  0.017318441   -4.8537196    1.0486718  1010000 
  506000   0.69855411   -4.8550491   -4.8550491   -3.8072189  0.017295671   -4.8550491    1.0478301  1010000 
  507000   0.70014307   -4.8571632   -4.8571632   -3.8069496   0.01649317   -4.8571632    1.0502136  1010000 
  508000   0.70098587   -4.8565595   -4.8565595   -3.8050818  0.024012216   -4.8565595    1.0514778  1010000 
  509000    0.7000248   -4.8561463   -4.8561463   -3.8061101  0.021095991   -4.8561463    1.0500362  1010000 
  510000   0.69896761   -4.8555132   -4.8555132   -3.8070628  0.018207715   -4.8555132    1.0484504  1010000 
  511000   0.69943764   -4.8557284   -4.8557284    -3.806573  0.016979186   -4.8557284    1.0491554  1010000 
  512000   0.69927459   -4.8524309   -4.8524309   -3.8035201  0.014130975   -4.8524309    1.0489108  1010000 
  513000   0.69932795   -4.8503307   -4.8503307   -3.8013398  0.011724435   -4.8503307    1.0489909  1010000 
  514000   0.70014245   -4.8486808   -4.8486808   -3.7984681 0.0093768076   -4.8486808    1.0502126  1010000 
  515000   0.70011272   -4.8452765   -4.8452765   -3.7951084 0.0081613994   -4.8452765     1.050168  1010000 
  516000   0.70070759   -4.8426394   -4.8426394    -3.791579 0.0071674083   -4.8426394    1.0510603  1010000 
  517000   0.70053621   -4.8401771   -4.8401771   -3.7893738  0.002596181   -4.8401771    1.0508033  1010000 
  518000   0.69937434   -4.8390342   -4.8390342   -3.7899737 -0.0051606381   -4.8390342    1.0490605  1010000 
  519000   0.69911397   -4.8355805   -4.8355805   -3.7869106 -0.0046090098   -4.8355805    1.0486699  1010000 
  520000   0.69983356   -4.8323832   -4.8323832   -3.7826339 -0.0052326362   -4.8323832    1.0497493  1010000 
  521000   0.69991644    -4.830931    -4.830931   -3.7810574 -0.0095711306    -4.830931    1.0498736  1010000 
  522000   0.70105705   -4.8301469   -4.8301469   -3.7785624 -0.011405623   -4.8301469    1.0515845  1010000 
  523000   0.70039956   -4.8272761   -4.8272761   -3.7766778 -0.0076161301   -4.8272761    1.0505983  1010000 
  524000   0.70042209   -4.8286215   -4.8286215   -3.7779894 -0.012010462   -4.8286215    1.0506321  1010000 
  525000   0.69992387   -4.8289216   -4.8289216   -3.7790368 -0.013632341   -4.8289216    1.0498848  1010000 
  526000   0.69982526   -4.8288992   -4.8288992   -3.7791623 -0.0063516335   -4.8288992    1.0497369  1010000 
  527000    0.6998619   -4.8292019   -4.8292019     -3.77941 -0.0034746637   -4.8292019    1.0497918  1010000 
  528000   0.70084963   -4.8305876   -4.8305876   -3.7793142 -0.0035465123   -4.8305876    1.0512734  1010000 
  529000   0.70029791   -4.8327213   -4.8327213   -3.7822755 -0.0046467532   -4.8327213    1.0504458  1010000 
  530000   0.70048929    -4.834807    -4.834807   -3.7840741 0.00021707624    -4.834807    1.0507329  1010000 
  531000   0.69980408   -4.8374862   -4.8374862   -3.7877811 0.0022020659   -4.8374862    1.0497051  1010000 
  532000   0.69990663   -4.8406366   -4.8406366   -3.7907777 0.0032054954   -4.8406366    1.0498589  1010000 
  533000   0.70041492   -4.8436344   -4.8436344    -3.793013 0.0046136239   -4.8436344    1.0506213  1010000 
  534000   0.69912707   -4.8463448   -4.8463448   -3.7976552 0.0081466788   -4.8463448    1.0486896  1010000 
  535000   0.70011558   -4.8472406   -4.8472406   -3.7970683  0.012149117   -4.8472406    1.0501723  1010000 
  536000   0.69901578   -4.8503061   -4.8503061   -3.8017835  0.010490706   -4.8503061    1.0485226  1010000 
  537000   0.69970807     -4.85072     -4.85072   -3.8011589  0.015225441     -4.85072    1.0495611  1010000 
  538000   0.70006594   -4.8531325   -4.8531325   -3.8030346  0.012850586   -4.8531325    1.0500979  1010000 
  539000   0.69991403   -4.8533158   -4.8533158   -3.8034458  0.012038968   -4.8533158      1.04987  1010000 
  540000   0.69873362   -4.8552481   -4.8552481   -3.8071487  0.014089544   -4.8552481    1.0480994  1010000 
  541000   0.69987055   -4.8535622   -4.8535622   -3.8037574  0.017843731   -4.8535622    1.0498048  1010000 
  542000   0.69969445   -4.8527702   -4.8527702   -3.8032295  0.019575053   -4.8527702    1.0495406  1010000 
  543000   0.69977315   -4.8525677   -4.8525677    -3.802909  0.012604261   -4.8525677    1.0496587  1010000 
  544000   0.70084893   -4.8499325   -4.8499325   -3.7986601  0.012846559   -4.8499325    1.0512723  1010000 
  545000   0.69908646   -4.8483151   -4.8483151   -3.7996865 0.0085069367   -4.8483151    1.0486287  1010000 
  546000   0.69933278    -4.846169    -4.846169   -3.7971708 0.0087763835    -4.846169    1.0489981  1010000 
  547000   0.69970519   -4.8432123   -4.8432123   -3.7936555 0.0060521484   -4.8432123    1.0495568  1010000 
  548000   0.69994128   -4.8405861   -4.8405861   -3.7906752  0.004653018   -4.8405861    1.0499109  1010000 
  549000   0.70040747   -4.8398349   -4.8398349   -3.7892247 0.0016249969   -4.8398349    1.0506102  1010000 
  550000   0.69894716   -4.8369215   -4.8369215   -3.7885018 -0.0022876043   -4.8369215    1.0484197  1010000 
  551000   0.70020824   -4.8347032   -4.8347032   -3.7843919 -0.0030316152   -4.8347032    1.0503113  1010000 
  552000   0.70002223   -4.8322125   -4.8322125   -3.7821802 -0.0039262108   -4.8322125    1.0500323  1010000 
  553000   0.69898552   -4.8322108   -4.8322108   -3.7837335 -0.010549447   -4.8322108    1.0484772  1010000 
  554000   0.70025377   -4.8297455   -4.8297455   -3.7793659 -0.0078073036   -4.8297455    1.0503796  1010000 
  555000   0.69992385   -4.8298296   -4.8298296   -3.7799449 -0.0078971542   -4.8298296    1.0498847  1010000 
  556000    0.7009414   -4.8278802   -4.8278802   -3.7764691 -0.004555922   -4.8278802    1.0514111  1010000 
  557000   0.70000697   -4.8307963   -4.8307963   -3.7807869 -0.0098360896   -4.8307963    1.0500094  1010000 
  558000   0.70044349   -4.8310223   -4.8310223   -3.7803581 -0.0033812333   -4.8310223    1.0506642  1010000 
  559000   0.69938468   -4.8305945   -4.8305945   -3.7815185 -0.00043428234   -4.8305945     1.049076  1010000 
  560000   0.70045318   -4.8323114   -4.8323114   -3.7816327 -0.002987213   -4.8323114    1.0506787  1010000 
  561000   0.70005265   -4.8352758   -4.8352758   -3.7851979 -0.0065115998   -4.8352758    1.0500779  1010000 
  562000   0.69987637   -4.8368922   -4.8368922   -3.7870787 -0.00041416004   -4.8368922    1.0498135  1010000 
  563000   0.70028575   -4.8384827   -4.8384827   -3.7880552 0.0040918567   -4.8384827    1.0504276  1010000 
  564000   0.69963024   -4.8411415   -4.8411415   -3.7916972  0.010671541   -4.8411415    1.0494443  1010000 
  565000   0.69996236   -4.8430298   -4.8430298   -3.7930873 0.0094863494   -4.8430298    1.0499425  1010000 
  566000   0.70052579   -4.8460542   -4.8460542   -3.7952666 0.0092757906   -4.8460542    1.0507876  1010000 
  567000   0.70041172   -4.8476091   -4.8476091   -3.7969925  0.010367468   -4.8476091    1.0506165  1010000 
  568000   0.69983342   -4.8480233   -4.8480233   -3.7982742  0.014648982   -4.8480233    1.0497491  1010000 
  569000   0.69931636   -4.8498864   -4.8498864   -3.8009129  0.015821842   -4.8498864    1.0489735  1010000 
  570000   0.70065257   -4.8516669   -4.8516669   -3.8006891  0.015404279   -4.8516669    1.0509778  1010000 
  571000   0.69899272   -4.8521658   -4.8521658   -3.8036778  0.016949006   -4.8521658     1.048488  1010000 
  572000   0.69969013   -4.8530055   -4.8530055   -3.8034713  0.016386023   -4.8530055    1.0495342  1010000 
  573000   0.70020425   -4.8529668   -4.8529668   -3.8026615  0.012189261   -4.8529668    1.0503053  1010000 
  574000   0.70007631   -4.8513401   -4.8513401   -3.8012267  0.016077108   -4.8513401    1.0501134  1010000 
  575000   0.70026246   -4.8505137   -4.8505137   -3.8001211  0.011690002   -4.8505137    1.0503927  1010000 
  576000   0.69970094    -4.847329    -4.847329   -3.7977786  0.013954057    -4.847329    1.0495504  1010000 
  577000    0.7003361   -4.8464154   -4.8464154   -3.7959123  0.011799951   -4.8464154    1.0505031  1010000 
  578000   0.69931245   -4.8442925   -4.8442925   -3.7953249  0.012566843   -4.8442925    1.0489676  1010000 
  579000   0.70021575    -4.843648    -4.843648   -3.7933254 0.0037759823    -4.843648    1.0503226  1010000 
  580000   0.69957558   -4.8404927   -4.8404927   -3.7911303 0.0050391268   -4.8404927    1.0493623  1010000 
  581000    0.6999478   -4.8387916   -4.8387916   -3.7888709 0.0021210517   -4.8387916    1.0499207  1010000 
  582000   0.69875154   -4.8372695   -4.8372695   -3.7891432 -0.00042111552   -4.8372695    1.0481263  1010000 
  583000   0.69991411   -4.8343818   -4.8343818   -3.7845117 0.0022029406   -4.8343818    1.0498701  1010000 
  584000   0.69934279   -4.8341284   -4.8341284   -3.7851153 -0.0060382093   -4.8341284    1.0490131  1010000 
  585000   0.69907566   -4.8313548   -4.8313548   -3.7827423 -0.0043953799   -4.8313548    1.0486124  1010000 
  586000   0.69976121   -4.8314205   -4.8314205   -3.7817797 -0.0034678669   -4.8314205    1.0496408  1010000 
  587000   0.69971053   -4.8316333   -4.8316333   -3.7820685 -0.0052575966   -4.8316333    1.0495648  1010000 
  588000   0.70070528   -4.8316606   -4.8316606   -3.7806037 -0.0083558261   -4.8316606    1.0510569  1010000 
  589000   0.69981402   -4.8307612   -4.8307612   -3.7810412 -0.0047357735   -4.8307612      1.04972  1010000 
  590000   0.69881482    -4.831041    -4.831041   -3.7828198 -0.0050348111    -4.831041    1.0482212  1010000 
  591000   0.69920794    -4.832214    -4.832214   -3.7834031 -0.0066176617    -4.832214    1.0488109  1010000 
  592000    0.7003954   -4.8334037   -4.8334037   -3.7828116 -0.0010642656   -4.8334037    1.0505921  1010000 
  593000   0.69904437   -4.8345104   -4.8345104   -3.7859449 0.0039242325   -4.8345104    1.0485655  1010000 
  594000   0.69993874   -4.8377666   -4.8377666   -3.7878596 0.0021296082   -4.8377666    1.0499071  1010000 
  595000   0.69981749   -4.8388464   -4.8388464   -3.7891212 0.0034665196   -4.8388464    1.0497252  1010000 
  596000   0.70005309   -4.8411435   -4.8411435    -3.791065 0.0039479436   -4.8411435    1.0500786  1010000 
  597000    0.7007274   -4.8429178   -4.8429178   -3.7918278 0.0066697316   -4.8429178    1.0510901  1010000 
  598000   0.69964325   -4.8449725   -4.8449725   -3.7955086 0.0053397823   -4.8449725    1.0494638  1010000 
  599000   0.69959213   -4.8462097   -4.8462097   -3.7968225 0.0075079379   -4.8462097    1.0493872  1010000 
  600000   0.70060816   -4.8484679   -4.8484679   -3.7975567  0.010151903   -4.8484679    1.0509112  1010000 
  601000   0.69987415   -4.8490936   -4.8490936   -3.7992834  0.014611824   -4.8490936    1.0498102  1010000 
  602000   0.69970216   -4.8492792   -4.8492792    -3.799727  0.013329602   -4.8492792    1.0495522  1010000 
  603000   0.70065477     -4.84833     -4.84833   -3.7973489    0.0185021     -4.84833    1.0509811  1010000 
  604000    0.6989599   -4.8494291   -4.8494291   -3.8009903  0.014384658   -4.8494291    1.0484388  1010000 
  605000   0.69994765   -4.8495228   -4.8495228   -3.7996024  0.010823637   -4.8495228    1.0499204  1010000 
  606000   0.70069724   -4.8482076   -4.8482076   -3.7971628  0.013432206   -4.8482076    1.0510448  1010000 
  607000   0.69966077   -4.8466773   -4.8466773   -3.7971872   0.01302058   -4.8466773    1.0494901  1010000 
  608000   0.70101692   -4.8462083   -4.8462083   -3.7946839 0.0082871113   -4.8462083    1.0515243  1010000 
  609000   0.69990738   -4.8450672   -4.8450672   -3.7952071  0.008926189   -4.8450672      1.04986  1010000 
  610000   0.69921014    -4.842246    -4.842246   -3.7934319 0.0072867178    -4.842246    1.0488142  1010000 
  611000   0.69981043   -4.8412932   -4.8412932   -3.7915786 0.0029401377   -4.8412932    1.0497146  1010000 
  612000   0.70000951   -4.8378318   -4.8378318   -3.7878185 0.0055447802   -4.8378318    1.0500132  1010000 
  613000   0.69936174   -4.8371882   -4.8371882   -3.7881466 -0.0011759899   -4.8371882    1.0490416  1010000 
  614000   0.69988301   -4.8365411   -4.8365411   -3.7867176 -0.0015450908   -4.8365411    1.0498235  1010000 
  615000   0.69937232    -4.834295    -4.834295   -3.7852375 -0.0042659553    -4.834295    1.0490574  1010000 
  616000   0.69995723   -4.8324404   -4.8324404   -3.7825056 -0.004527029   -4.8324404    1.0499348  1010000 
  617000    0.6997953   -4.8332811   -4.8332811   -3.7835892 -0.0089131284   -4.8332811    1.0496919  1010000 
  618000   0.70020938   -4.8321117   -4.8321117   -3.7817987 -0.0068715053   -4.8321117     1.050313  1010000 
  619000   0.70027965   -4.8316963   -4.8316963   -3.7812778 -0.0038832817   -4.8316963    1.0504184  1010000 
  620000   0.70012706   -4.8312484   -4.8312484   -3.7810588 -0.0050226131   -4.8312484    1.0501895  1010000 
  621000   0.69906442   -4.8332905   -4.8332905   -3.7846949 -0.0064712483   -4.8332905    1.0485956  1010000 
  622000   0.69976121   -4.8331809   -4.8331809   -3.7835402 -0.0041588351   -4.8331809    1.0496408  1010000 
  623000   0.70058642   -4.8352938   -4.8352938   -3.7844152 -0.0062011901   -4.8352938    1.0508786  1010000 
  624000   0.69933337    -4.836236    -4.836236    -3.787237 -0.0013252892    -4.836236     1.048999  1010000 
  625000   0.70076115   -4.8388128   -4.8388128   -3.7876722 -0.0015525049   -4.8388128    1.0511407  1010000 
  626000   0.69931426   -4.8393672   -4.8393672   -3.7903968 0.0015141052   -4.8393672    1.0489703  1010000 
  627000   0.70081703   -4.8403686   -4.8403686   -3.7891441 0.0070668698   -4.8403686    1.0512245  1010000 
  628000   0.70060391   -4.8427515   -4.8427515   -3.7918467    0.0081172   -4.8427515    1.0509048  1010000 
  629000   0.70037917   -4.8433768   -4.8433768    -3.792809 0.0081380937   -4.8433768    1.0505677  1010000 
  630000   0.69965758   -4.8456374   -4.8456374   -3.7961521 0.0052806815   -4.8456374    1.0494853  1010000 
  631000   0.69933783   -4.8460711   -4.8460711   -3.7970654   0.01047467   -4.8460711    1.0490057  1010000 
  632000   0.69941105   -4.8480315   -4.8480315    -3.798916  0.010390717   -4.8480315    1.0491155  1010000 
  633000   0.69977398   -4.8476441   -4.8476441   -3.7979842  0.015147733   -4.8476441    1.0496599  1010000 
  634000   0.70116839   -4.8496917   -4.8496917   -3.7979401  0.012016324   -4.8496917    1.0517515  1010000 
  635000   0.70016595   -4.8502976   -4.8502976   -3.8000497   0.01006685   -4.8502976    1.0502479  1010000 
  636000    0.7002325    -4.848262    -4.848262   -3.7979143  0.015602021    -4.848262    1.0503477  1010000 
  637000   0.69979902   -4.8479126   -4.8479126   -3.7982151  0.009951261   -4.8479126    1.0496975  1010000 
  638000   0.70050649   -4.8486493   -4.8486493   -3.7978906 0.0054602053   -4.8486493    1.0507587  1010000 
  639000   0.69895892   -4.8452981   -4.8452981   -3.7968608 0.0089128148   -4.8452981    1.0484373  1010000 
  640000   0.70038635   -4.8445078   -4.8445078   -3.7939293 0.0078334822   -4.8445078    1.0505785  1010000 
  641000   0.70008386    -4.843133    -4.843133   -3.7930083 0.0065454131    -4.843133    1.0501247  1010000 
  642000    0.6996509   -4.8420782   -4.8420782   -3.7926028 0.0064572672   -4.8420782    1.0494753  1010000 
  643000   0.70014683   -4.8400336   -4.8400336   -3.7898144 0.00081300824   -4.8400336    1.0502192  1010000 
  644000   0.69947356    -4.838387    -4.838387   -3.7891777 -0.0017586679    -4.838387    1.0492093  1010000 
  645000   0.69951291   -4.8385418   -4.8385418   -3.7892734 -0.0051580928   -4.8385418    1.0492683  1010000 
  646000    0.6998486   -4.8361777   -4.8361777   -3.7864059 -0.0028062645   -4.8361777    1.0497719  1010000 
  647000   0.69980477   -4.8353744   -4.8353744   -3.7856683 -0.0054804927   -4.8353744    1.0497061  1010000 
  648000   0.70042329   -4.8336902   -4.8336902   -3.7830563 -0.00044431347   -4.8336902    1.0506339  1010000 
  649000   0.70031632   -4.8346466   -4.8346466   -3.7841732   -0.0055249   -4.8346466    1.0504734  1010000 
  650000    0.6992845   -4.8325181   -4.8325181   -3.7835924 -0.0042333006   -4.8325181    1.0489257  1010000 
  651000   0.69992816   -4.8330986   -4.8330986   -3.7832074 -0.0051826523   -4.8330986    1.0498912  1010000 
  652000   0.70039817    -4.833723    -4.833723   -3.7831268 -0.0017635092    -4.833723    1.0505962  1010000 
  653000   0.70032082   -4.8364441   -4.8364441   -3.7859639 -0.0074738966   -4.8364441    1.0504802  1010000 
  654000   0.70043183   -4.8352189   -4.8352189   -3.7845722 -0.0031938582   -4.8352189    1.0506467  1010000 
  655000   0.70054333   -4.8369885   -4.8369885   -3.7861745 -0.0019648998   -4.8369885     1.050814  1010000 
  656000   0.69949009    -4.837866    -4.837866   -3.7886319 0.00052865585    -4.837866    1.0492341  1010000 
  657000    0.6992572   -4.8385349   -4.8385349   -3.7896501 0.0030006672   -4.8385349    1.0488848  1010000 
  658000   0.69975966   -4.8401964   -4.8401964    -3.790558 0.0062409089   -4.8401964    1.0496385  1010000 
  659000   0.69977406   -4.8410935   -4.8410935   -3.7914334  0.008656489   -4.8410935      1.04966  1010000 
  660000   0.70006968   -4.8425374   -4.8425374    -3.792434 0.0071049006   -4.8425374    1.0501035  1010000 
  661000   0.69977239    -4.843616    -4.843616   -3.7939585 0.0097276183    -4.843616    1.0496576  1010000 
  662000   0.69867942   -4.8448776   -4.8448776   -3.7968595  0.010245459   -4.8448776    1.0480181  1010000 
  663000   0.70052218   -4.8442462   -4.8442462    -3.793464  0.014973842   -4.8442462    1.0507822  1010000 
  664000   0.70018166   -4.8455717   -4.8455717   -3.7953002  0.008780736   -4.8455717    1.0502714  1010000 
  665000   0.69927605   -4.8462457   -4.8462457   -3.7973327  0.011544254   -4.8462457     1.048913  1010000 
  666000   0.70020286    -4.847468    -4.847468   -3.7971647 0.0075116108    -4.847468    1.0503033  1010000 
  667000   0.70007214   -4.8467273   -4.8467273   -3.7966201 0.0099130666   -4.8467273    1.0501072  1010000 
  668000   0.69942833   -4.8448544   -4.8448544   -3.7957129  0.010771424   -4.8448544    1.0491415  1010000 
  669000   0.69940999   -4.8443762   -4.8443762   -3.7952622  0.013303729   -4.8443762     1.049114  1010000 
  670000   0.70068678   -4.8439275   -4.8439275   -3.7928983 0.0066223054   -4.8439275    1.0510291  1010000 
  671000   0.70041142   -4.8432146   -4.8432146   -3.7925985 0.0076216527   -4.8432146    1.0506161  1010000 
  672000   0.70056897   -4.8414985   -4.8414985   -3.7906461 0.0067712563   -4.8414985    1.0508524  1010000 
  673000   0.69978271   -4.8407739   -4.8407739   -3.7911008 0.0046050003   -4.8407739     1.049673  1010000 
  674000   0.70031389   -4.8391382   -4.8391382   -3.7886684 0.0047139982   -4.8391382    1.0504698  1010000 
  675000    0.7001796   -4.8388632   -4.8388632   -3.7885949 0.0016127868   -4.8388632    1.0502684  1010000 
  676000   0.70063298   -4.8376113   -4.8376113   -3.7866629 0.0022305524   -4.8376113    1.0509484  1010000 
  677000    0.7000076   -4.8350602   -4.8350602   -3.7850499 0.0031442988   -4.8350602    1.0500104  1010000 
  678000   0.70046697   -4.8356608   -4.8356608   -3.7849613 -0.0007684344   -4.8356608    1.0506994  1010000 
  679000   0.69976351   -4.8367044   -4.8367044   -3.7870602 -0.0080255657   -4.8367044    1.0496442  1010000 
  680000   0.69981708   -4.8355676   -4.8355676    -3.785843 -0.0033077602   -4.8355676    1.0497246  1010000 
  681000   0.70115958   -4.8340474   -4.8340474    -3.782309 0.0013117956   -4.8340474    1.0517383  1010000 
  682000   0.69976752   -4.8350434   -4.8350434   -3.7853932 -0.004396463   -4.8350434    1.0496502  1010000 
  683000   0.70090961   -4.8324739   -4.8324739   -3.7811106 0.0065675397   -4.8324739    1.0513634  1010000 
  684000   0.70004365    -4.835597    -4.835597   -3.7855326 -0.00047340128    -4.835597    1.0500644  1010000 
  685000   0.70044874   -4.8361324   -4.8361324   -3.7854604 0.0016817964   -4.8361324    1.0506721  1010000 
  686000   0.70005755   -4.8363658   -4.8363658   -3.7862805 -0.0014672761   -4.8363658    1.0500853  1010000 
  687000   0.70022268   -4.8384862   -4.8384862   -3.7881532 0.0031591615   -4.8384862     1.050333  1010000 
  688000   0.70037803   -4.8393089   -4.8393089   -3.7887429 0.0029646688   -4.8393089     1.050566  1010000 
  689000   0.69859532   -4.8402165   -4.8402165   -3.7923246 0.0027410657   -4.8402165    1.0478919  1010000 
  690000   0.69948366    -4.840862    -4.840862   -3.7916375 0.0071173288    -4.840862    1.0492245  1010000 
  691000   0.69966005   -4.8435425   -4.8435425   -3.7940535 0.0046883633   -4.8435425     1.049489  1010000 
  692000   0.69974918   -4.8428136   -4.8428136   -3.7931909  0.011109161   -4.8428136    1.0496227  1010000 
  693000   0.69996626   -4.8445503   -4.8445503   -3.7946019 0.0058383055   -4.8445503    1.0499483  1010000 
  694000   0.69963148   -4.8448021   -4.8448021   -3.7953559  0.011395657   -4.8448021    1.0494462  1010000 
  695000   0.69931528   -4.8445855   -4.8445855   -3.7956136 0.0088643267   -4.8445855    1.0489719  1010000 
  696000    0.6989065   -4.8457795   -4.8457795   -3.7974208 0.0073386535   -4.8457795    1.0483587  1010000 
  697000   0.70076706   -4.8458053   -4.8458053   -3.7946557  0.010944708   -4.8458053    1.0511495  1010000 
  698000   0.70012038   -4.8451545   -4.8451545   -3.7949749 0.0087571075   -4.8451545    1.0501795  1010000 
  699000    0.6998225   -4.8447943   -4.8447943   -3.7950616 0.0099438181   -4.8447943    1.0497327  1010000 
  700000    0.7000987   -4.8454614   -4.8454614   -3.7953144 0.0052972291   -4.8454614     1.050147  1010000 
  701000   0.70013356   -4.8439905   -4.8439905   -3.7937912 0.0056198048   -4.8439905    1.0501993  1010000 
  702000   0.69988047   -4.8424396   -4.8424396     -3.79262 0.0059110853   -4.8424396    1.0498197  1010000 
  703000    0.7000034   -4.8410659   -4.8410659   -3.7910618  0.005073525   -4.8410659    1.0500041  1010000 
  704000   0.69944349   -4.8406583   -4.8406583   -3.7914941 0.0025049706   -4.8406583    1.0491642  1010000 
  705000   0.69972477   -4.8390737   -4.8390737   -3.7894876 0.0023013339   -4.8390737    1.0495861  1010000 
  706000   0.69937618   -4.8385918   -4.8385918   -3.7895286 0.0013940465   -4.8385918    1.0490632  1010000 
  707000   0.70019829   -4.8370816   -4.8370816   -3.7867852 0.0040605185   -4.8370816    1.0502964  1010000 
  708000   0.69992335   -4.8375109   -4.8375109   -3.7876269 -0.0042446767   -4.8375109     1.049884  1010000 
  709000   0.69972423   -4.8352701   -4.8352701   -3.7856848 -0.00015254284   -4.8352701    1.0495853  1010000 
  710000   0.69927224    -4.836077    -4.836077   -3.7871697 -0.0053918795    -4.836077    1.0489073  1010000 
  711000   0.70053346   -4.8348069   -4.8348069   -3.7840078 -0.0019522304   -4.8348069    1.0507991  1010000 
  712000   0.70048215   -4.8336939   -4.8336939   -3.7829717 0.0008308445   -4.8336939    1.0507222  1010000 
  713000   0.70023423   -4.8352093   -4.8352093    -3.784859 -0.0015852306   -4.8352093    1.0503503  1010000 
  714000   0.69876951   -4.8342638   -4.8342638   -3.7861105 0.0006785016   -4.8342638    1.0481532  1010000 
  715000   0.69906068   -4.8357197   -4.8357197   -3.7871297 -0.000317086   -4.8357197      1.04859  1010000 
  716000   0.69915575   -4.8360689   -4.8360689   -3.7873363 -0.0021573481   -4.8360689    1.0487326  1010000 
  717000    0.6981673   -4.8369109   -4.8369109    -3.789661 0.00096429163   -4.8369109    1.0472499  1010000 
  718000    0.6999918   -4.8372015   -4.8372015   -3.7872148 0.0027554778   -4.8372015    1.0499867  1010000 
  719000   0.70019635   -4.8396029   -4.8396029   -3.7893094 0.0015757503   -4.8396029    1.0502935  1010000 
  720000   0.69959272   -4.8399237   -4.8399237   -3.7905357 0.0050596877   -4.8399237     1.049388  1010000 
  721000   0.69994531     -4.84188     -4.84188   -3.7919631 0.0051887768     -4.84188    1.0499169  1010000 
  722000   0.69913272   -4.8415188   -4.8415188   -3.7928207 0.0057494913   -4.8415188     1.048698  1010000 
  723000   0.69991838    -4.841393    -4.841393   -3.7915165  0.010368726    -4.841393    1.0498765  1010000 
  724000   0.70021703   -4.8429235   -4.8429235    -3.792599  0.010786976   -4.8429235    1.0503245  1010000 
  725000   0.70046702   -4.8434574   -4.8434574    -3.792758  0.012101508   -4.8434574    1.0506995  1010000 
  726000   0.69985778    -4.845373    -4.845373   -3.7955874 0.0054483202    -4.845373    1.0497856  1010000 
  727000    0.7005416   -4.8453499   -4.8453499   -3.7945386 0.0089828183   -4.8453499    1.0508114  1010000 
  728000   0.69993181   -4.8452691   -4.8452691   -3.7953724 0.0082829058   -4.8452691    1.0498967  1010000 
  729000    0.7005851   -4.8438688   -4.8438688   -3.7929922  0.010378231   -4.8438688    1.0508766  1010000 
  730000   0.69999252   -4.8439859   -4.8439859   -3.7939982 0.0079757397   -4.8439859    1.0499877  1010000 
  731000   0.70008395   -4.8425928   -4.8425928   -3.7924679 0.0075980702   -4.8425928    1.0501249  1010000 
  732000   0.70000473   -4.8416187   -4.8416187   -3.7916126 0.0077495436   -4.8416187     1.050006  1010000 
  733000   0.70053018   -4.8417141   -4.8417141   -3.7909199 0.0052735608   -4.8417141    1.0507942  1010000 
  734000   0.70065343   -4.8415107   -4.8415107   -3.7905316 0.0034925651   -4.8415107    1.0509791  1010000 
  735000   0.69998945   -4.8390408   -4.8390408   -3.7890577 0.0069601678   -4.8390408    1.0499831  1010000 
  736000    0.6998633   -4.8406476   -4.8406476   -3.7908536 0.0018042012   -4.8406476    1.0497939  1010000 
  737000   0.69982914   -4.8379875   -4.8379875   -3.7882448 0.0025417657   -4.8379875    1.0497427  1010000 
  738000   0.69972911   -4.8375547   -4.8375547   -3.7879621 0.0012371111   -4.8375547    1.0495926  1010000 
  739000   0.69964715   -4.8360853   -4.8360853   -3.7866156 0.0030434937   -4.8360853    1.0494697  1010000 
  740000   0.69990428   -4.8368471   -4.8368471   -3.7869917 -0.00078182301   -4.8368471    1.0498554  1010000 
  741000   0.69965538   -4.8371217   -4.8371217   -3.7876397 -0.0036560547   -4.8371217     1.049482  1010000 
  742000   0.70056385   -4.8361765   -4.8361765   -3.7853318 -0.0016434621   -4.8361765    1.0508447  1010000 
  743000   0.70099108   -4.8369484   -4.8369484   -3.7854628 -0.00097490335   -4.8369484    1.0514856  1010000 
  744000   0.70015578   -4.8370378   -4.8370378   -3.7868051 -0.0019159683   -4.8370378    1.0502326  1010000 
  745000   0.69922231   -4.8366986   -4.8366986   -3.7878662 -0.0018522321   -4.8366986    1.0488324  1010000 
  746000   0.70009866   -4.8360344   -4.8360344   -3.7858875 0.0032315068   -4.8360344     1.050147  1010000 
  747000   0.69977311   -4.8370393   -4.8370393   -3.7873807 0.00095523701   -4.8370393    1.0496586  1010000 
  748000   0.69946493   -4.8376989   -4.8376989   -3.7885025 0.0044181744   -4.8376989    1.0491964  1010000 
  749000   0.69955426    -4.838835    -4.838835   -3.7895047  0.003830139    -4.838835    1.0493303  1010000 
  750000   0.70026936    -4.839487    -4.839487    -3.789084 0.0054959384    -4.839487     1.050403  1010000 
  751000   0.69982092    -4.839581    -4.839581   -3.7898506 0.0050090813    -4.839581    1.0497303  1010000 
  752000   0.70009774   -4.8404712   -4.8404712   -3.7903256 0.0072329362   -4.8404712    1.0501456  1010000 
  753000   0.69908852   -4.8422829   -4.8422829   -3.7936512 0.0066148325   -4.8422829    1.0486317  1010000 
  754000   0.70013674   -4.8417202   -4.8417202   -3.7915161 0.0070689205   -4.8417202    1.0502041  1010000 
  755000   0.69921089   -4.8449728   -4.8449728   -3.7961575 0.0033519522   -4.8449728    1.0488153  1010000 
  756000   0.69961532   -4.8427823   -4.8427823   -3.7933603  0.010572733   -4.8427823    1.0494219  1010000 
  757000   0.70045349   -4.8439203   -4.8439203   -3.7932411 0.0094550638   -4.8439203    1.0506792  1010000 
  758000   0.69964104   -4.8444056   -4.8444056   -3.7949451 0.0090354073   -4.8444056    1.0494605  1010000 
  759000   0.69978161   -4.8443666   -4.8443666   -3.7946952 0.0053213472   -4.8443666    1.0496714  1010000 
  760000   0.69975786   -4.8435596   -4.8435596   -3.7939238 0.0073165381   -4.8435596    1.0496358  1010000 
  761000   0.70099647   -4.8425745   -4.8425745   -3.7910809 0.0086159181   -4.8425745    1.0514937  1010000 
  762000   0.70000227   -4.8424935   -4.8424935   -3.7924912 0.0097038443   -4.8424935    1.0500024  1010000 
  763000   0.70106702   -4.8429378   -4.8429378   -3.7913383 0.0087518016   -4.8429378    1.0515995  1010000 
  764000   0.70046033   -4.8417093   -4.8417093   -3.7910198 0.0057089128   -4.8417093    1.0506895  1010000 
  765000   0.70148642   -4.8414699   -4.8414699   -3.7892413 0.0043901303   -4.8414699    1.0522286  1010000 
  766000   0.69966556   -4.8398554   -4.8398554   -3.7903581 0.0045470962   -4.8398554    1.0494973  1010000 
  767000   0.69934518   -4.8403427   -4.8403427   -3.7913259 -0.0009797967   -4.8403427    1.0490167  1010000 
  768000   0.70085906   -4.8383688   -4.8383688   -3.7870813 0.0019862367   -4.8383688    1.0512875  1010000 
  769000   0.70062637   -4.8371441   -4.8371441   -3.7862056  0.003908933   -4.8371441    1.0509385  1010000 
  770000    0.6998585   -4.8380783   -4.8380783   -3.7882915 -0.00071372286   -4.8380783    1.0497867  1010000 
  771000   0.70006187   -4.8373311   -4.8373311   -3.7872393 -0.00014979732   -4.8373311    1.0500918  1010000 
  772000   0.69898397   -4.8368133   -4.8368133   -3.7883384 -0.0026287482   -4.8368133    1.0484749  1010000 
  773000   0.70015576   -4.8350309   -4.8350309   -3.7847983 0.0043210128   -4.8350309    1.0502326  1010000 
  774000   0.69949225   -4.8354195   -4.8354195   -3.7861822 -0.00088438376   -4.8354195    1.0492373  1010000 
  775000   0.69955242   -4.8356312   -4.8356312   -3.7863036 -0.00037495907   -4.8356312    1.0493276  1010000 
  776000   0.69924745   -4.8365916   -4.8365916   -3.7877215 0.0027424711   -4.8365916    1.0488701  1010000 
  777000   0.70004026   -4.8368488   -4.8368488   -3.7867894 -0.00041050147   -4.8368488    1.0500594  1010000 
  778000   0.70011386   -4.8366961   -4.8366961   -3.7865264 1.4579975e-05   -4.8366961    1.0501697  1010000 
  779000   0.70048238   -4.8369987   -4.8369987   -3.7862762  0.002182598   -4.8369987    1.0507225  1010000 
  780000    0.6995248   -4.8363055   -4.8363055   -3.7870193 0.0073051632   -4.8363055    1.0492862  1010000 
  781000   0.69970895   -4.8375618   -4.8375618   -3.7879994 0.0053717849   -4.8375618    1.0495624  1010000 
  782000   0.69953496   -4.8385331   -4.8385331   -3.7892317 0.0048506861   -4.8385331    1.0493014  1010000 
  783000   0.69976841   -4.8398433   -4.8398433   -3.7901917 0.0059690376   -4.8398433    1.0496516  1010000 
  784000   0.70021694    -4.842319    -4.842319   -3.7919947 0.0048779217    -4.842319    1.0503244  1010000 
  785000   0.70017836   -4.8432099   -4.8432099   -3.7929433 0.0045894901   -4.8432099    1.0502665  1010000 
  786000   0.69942242   -4.8414453   -4.8414453   -3.7923127  0.004540985   -4.8414453    1.0491326  1010000 
  787000   0.70012412   -4.8412531   -4.8412531    -3.791068 0.0062640925   -4.8412531    1.0501851  1010000 
  788000    0.7001102   -4.8431121   -4.8431121   -3.7929479  0.004491242   -4.8431121    1.0501643  1010000 
  789000    0.6996743   -4.8429424   -4.8429424    -3.793432 0.0051750907   -4.8429424    1.0495104  1010000 
  790000   0.70004348   -4.8408761   -4.8408761   -3.7908119  0.014369408   -4.8408761    1.0500642  1010000 
  791000    0.6999469   -4.8429762   -4.8429762   -3.7930569 0.0072773417   -4.8429762    1.0499193  1010000 
  792000   0.69970993   -4.8416829   -4.8416829    -3.792119 0.0096200038   -4.8416829    1.0495639  1010000 
  793000     0.699584   -4.8409973   -4.8409973   -3.7916223  0.010462948   -4.8409973     1.049375  1010000 
  794000   0.70034638   -4.8428587   -4.8428587   -3.7923402 0.0022753662   -4.8428587    1.0505185  1010000 
  795000   0.70009466   -4.8409163   -4.8409163   -3.7907754 0.0032972498   -4.8409163     1.050141  1010000 
  796000   0.70072837   -4.8399983   -4.8399983   -3.7889067 0.0061910973   -4.8399983    1.0510915  1010000 
  797000    0.6996296   -4.8398801   -4.8398801   -3.7904368 0.0035640827   -4.8398801    1.0494434  1010000 
  798000   0.69985233   -4.8402875   -4.8402875     -3.79051 0.00052003516   -4.8402875    1.0497775  1010000 
  799000   0.69978996   -4.8376658   -4.8376658   -3.7879819 0.0083576665   -4.8376658    1.0496839  1010000 
  800000   0.69891403   -4.8388935   -4.8388935   -3.7905235 0.0017093759   -4.8388935      1.04837  1010000 
  801000   0.69971987   -4.8371798   -4.8371798   -3.7876011  0.004502146   -4.8371798    1.0495788  1010000 
  802000   0.69959963   -4.8373165   -4.8373165   -3.7879181 0.0014490149   -4.8373165    1.0493984  1010000 
  803000   0.69976002   -4.8382328   -4.8382328   -3.7885938 -0.0020561322   -4.8382328     1.049639  1010000 
  804000   0.69982806   -4.8357036   -4.8357036   -3.7859625 0.00091203722   -4.8357036    1.0497411  1010000 
  805000   0.70000138   -4.8360231   -4.8360231   -3.7860221 -0.0013841005   -4.8360231     1.050001  1010000 
  806000   0.70082109   -4.8356886   -4.8356886    -3.784458 0.0056283884   -4.8356886    1.0512306  1010000 
  807000    0.7009101   -4.8378299   -4.8378299   -3.7864658 0.00074398073   -4.8378299    1.0513641  1010000 
  808000   0.70067663    -4.836619    -4.836619   -3.7856051 0.0017990416    -4.836619    1.0510139  1010000 
  809000   0.70075122   -4.8363801   -4.8363801   -3.7852543 0.0050653569   -4.8363801    1.0511258  1010000 
  810000   0.69941051   -4.8368656   -4.8368656   -3.7877509 0.0035607072   -4.8368656    1.0491147  1010000 
  811000   0.70029339   -4.8386328   -4.8386328   -3.7881938 -0.00036227552   -4.8386328     1.050439  1010000 
  812000   0.69990598   -4.8389534   -4.8389534   -3.7890954 0.00087889096   -4.8389534    1.0498579  1010000 
  813000   0.69939318    -4.840469    -4.840469   -3.7913803 0.00026948124    -4.840469    1.0490887  1010000 
  814000   0.69994631   -4.8402769   -4.8402769   -3.7903585 0.0061172911   -4.8402769    1.0499184  1010000 
  815000   0.70005371   -4.8411908   -4.8411908   -3.7911113 0.0079763681   -4.8411908    1.0500795  1010000 
  816000   0.70090328   -4.8408119   -4.8408119   -3.7894581 0.0078116322   -4.8408119    1.0513539  1010000 
  817000   0.70026351    -4.842007    -4.842007   -3.7916127 0.0043986373    -4.842007    1.0503942  1010000 
  818000   0.69992671   -4.8411748   -4.8411748   -3.7912858 0.0091169004   -4.8411748     1.049889  1010000 
  819000   0.69898452   -4.8406626   -4.8406626   -3.7921869 0.0077530128   -4.8406626    1.0484757  1010000 
  820000   0.69996902   -4.8414225   -4.8414225     -3.79147 0.0051530239   -4.8414225    1.0499525  1010000 
  821000   0.70011498    -4.841985    -4.841985   -3.7918136 0.0074885947    -4.841985    1.0501714  1010000 
  822000   0.69998136   -4.8427585   -4.8427585   -3.7927875  0.005778411   -4.8427585     1.049971  1010000 
  823000   0.70027357   -4.8417129   -4.8417129   -3.7913036 0.0055338518   -4.8417129    1.0504093  1010000 
  824000   0.70074081   -4.8408405   -4.8408405   -3.7897303 0.0093879867   -4.8408405    1.0511102  1010000 
  825000   0.69983393   -4.8414299   -4.8414299     -3.79168 0.0034509744   -4.8414299    1.0497499  1010000 
  826000   0.69959782   -4.8397769   -4.8397769   -3.7903812 0.0039763864   -4.8397769    1.0493957  1010000 
  827000   0.69968982   -4.8402348   -4.8402348   -3.7907011 0.0010740715   -4.8402348    1.0495337  1010000 
  828000   0.70001929    -4.839335    -4.839335   -3.7893071 0.0047035384    -4.839335    1.0500279  1010000 
  829000   0.70005026   -4.8385632   -4.8385632   -3.7884888 0.0038946435   -4.8385632    1.0500744  1010000 
  830000   0.70067151   -4.8391408   -4.8391408   -3.7881345 0.00080746463   -4.8391408    1.0510062  1010000 
  831000   0.70011135   -4.8366781   -4.8366781   -3.7865121  0.004877254   -4.8366781     1.050166  1010000 
  832000    0.7007274   -4.8376317   -4.8376317   -3.7865416 0.0046622803   -4.8376317    1.0510901  1010000 
  833000   0.70080124   -4.8361847   -4.8361847   -3.7849839 0.0048290701   -4.8361847    1.0512008  1010000 
  834000   0.69966176   -4.8374809   -4.8374809   -3.7879893 0.00011215139   -4.8374809    1.0494916  1010000 
  835000    0.6998286   -4.8370894   -4.8370894   -3.7873475 0.0010472786   -4.8370894    1.0497419  1010000 
  836000    0.6990464   -4.8362762   -4.8362762   -3.7877076 0.0018461266   -4.8362762    1.0485686  1010000 
  837000   0.69858402   -4.8369639   -4.8369639   -3.7890889 0.0034818207   -4.8369639     1.047875  1010000 
  838000    0.6999366   -4.8376687   -4.8376687   -3.7877648 0.0052769416   -4.8376687    1.0499039  1010000 
  839000   0.70202742   -4.8378479   -4.8378479   -3.7848078 0.0065105467   -4.8378479    1.0530401  1010000 
  840000   0.70009792   -4.8385559   -4.8385559   -3.7884101 0.0033151891   -4.8385559    1.0501458  1010000 
  841000   0.70017701   -4.8397547   -4.8397547   -3.7894902 0.0025358114   -4.8397547    1.0502645  1010000 
  842000   0.69983179   -4.8382932   -4.8382932   -3.7885465 0.0072664288   -4.8382932    1.0497466  1010000 
  843000   0.70022076   -4.8381689   -4.8381689   -3.7878388 0.0082257176   -4.8381689    1.0503301  1010000 
  844000   0.70010376   -4.8402202   -4.8402202   -3.7900656 0.0067242892   -4.8402202    1.0501546  1010000 
  845000   0.70063252   -4.8402855   -4.8402855   -3.7893377  0.006889442   -4.8402855    1.0509477  1010000 
  846000   0.70033916   -4.8405979   -4.8405979   -3.7900902 0.0073033924   -4.8405979    1.0505077  1010000 
  847000   0.69958276   -4.8408785   -4.8408785   -3.7915054 0.0073826106   -4.8408785    1.0493731  1010000 
  848000   0.69944722   -4.8424326   -4.8424326   -3.7932628 0.0044553633   -4.8424326    1.0491698  1010000 
  849000   0.70013573   -4.8420401   -4.8420401   -3.7918376 0.0037561197   -4.8420401    1.0502026  1010000 
  850000   0.70086893   -4.8396857   -4.8396857   -3.7883834 0.0094066599   -4.8396857    1.0513024  1010000 
  851000   0.70178791   -4.8423861   -4.8423861   -3.7897053 0.0062283101   -4.8423861    1.0526808  1010000 
  852000   0.70055155   -4.8407066   -4.8407066   -3.7898803 0.0075765997   -4.8407066    1.0508263  1010000 
  853000   0.69989406   -4.8406285   -4.8406285   -3.7907884 0.0078538229   -4.8406285      1.04984  1010000 
  854000   0.69967506   -4.8404537   -4.8404537   -3.7909421 0.0042185409   -4.8404537    1.0495115  1010000 
  855000   0.70013025   -4.8392074   -4.8392074    -3.789013 0.0064313852   -4.8392074    1.0501943  1010000 
  856000   0.70011507   -4.8391574   -4.8391574   -3.7889859 0.0077703024   -4.8391574    1.0501716  1010000 
  857000   0.69986518   -4.8396024   -4.8396024   -3.7898057 0.0074062503   -4.8396024    1.0497967  1010000 
  858000   0.69959304   -4.8406513   -4.8406513   -3.7912627 0.0051615029   -4.8406513    1.0493885  1010000 
  859000   0.69998609   -4.8396234   -4.8396234   -3.7896453 0.0032890905   -4.8396234    1.0499781  1010000 
  860000   0.69936551   -4.8399479   -4.8399479   -3.7909007 -0.0013483327   -4.8399479    1.0490472  1010000 
  861000   0.70061286   -4.8383982   -4.8383982   -3.7874799 0.0023478143   -4.8383982    1.0509182  1010000 
  862000   0.70045195   -4.8378063   -4.8378063   -3.7871294 0.0043234711   -4.8378063    1.0506769  1010000 
  863000   0.70013683   -4.8389622   -4.8389622    -3.788758 0.0018679424   -4.8389622    1.0502042  1010000 
  864000   0.69950778   -4.8384198   -4.8384198   -3.7891592 -0.00072888065   -4.8384198    1.0492606  1010000 
  865000   0.70000428    -4.837421    -4.837421   -3.7874156 0.0044536127    -4.837421    1.0500054  1010000 
  866000   0.70026037   -4.8375662   -4.8375662   -3.7871767 0.0041443197   -4.8375662    1.0503895  1010000 
  867000   0.69932883   -4.8379163   -4.8379163    -3.788924 0.0043031089   -4.8379163    1.0489922  1010000 
  868000   0.70048937   -4.8378178   -4.8378178   -3.7870848 0.0023095027   -4.8378178     1.050733  1010000 
  869000   0.70136639   -4.8373925   -4.8373925    -3.785344 0.0055953439   -4.8373925    1.0520485  1010000 
  870000   0.70064762   -4.8390337   -4.8390337   -3.7880633 0.0023823409   -4.8390337    1.0509704  1010000 
  871000   0.69994301   -4.8390345   -4.8390345    -3.789121 0.0049467958   -4.8390345    1.0499135  1010000 
  872000   0.69972289    -4.838664    -4.838664   -3.7890807 0.0019755962    -4.838664    1.0495833  1010000 
  873000    0.6994335   -4.8394591   -4.8394591   -3.7903099 0.0033101355   -4.8394591    1.0491492  1010000 
  874000   0.70043946   -4.8392051   -4.8392051   -3.7885469 0.0022854525   -4.8392051    1.0506581  1010000 
  875000   0.70010267   -4.8400016   -4.8400016   -3.7898486 0.0042245723   -4.8400016     1.050153  1010000 
  876000   0.70047333   -4.8398319   -4.8398319   -3.7891229  0.004998389   -4.8398319    1.0507089  1010000 
  877000   0.70025591    -4.839458    -4.839458   -3.7890752 0.0075969608    -4.839458    1.0503828  1010000 
  878000   0.70055034   -4.8410251   -4.8410251   -3.7902007  0.003987623   -4.8410251    1.0508245  1010000 
  879000   0.69809984   -4.8406383   -4.8406383   -3.7934896  0.005168212   -4.8406383    1.0471487  1010000 
  880000   0.69988636   -4.8402032   -4.8402032   -3.7903747 0.0043405851   -4.8402032    1.0498285  1010000 
  881000   0.70031684   -4.8409159   -4.8409159   -3.7904416 0.0046551486   -4.8409159    1.0504742  1010000 
  882000   0.70031781   -4.8408592   -4.8408592   -3.7903836 0.0052242291   -4.8408592    1.0504757  1010000 
  883000   0.70022669   -4.8397909   -4.8397909   -3.7894519 0.0076982785   -4.8397909     1.050339  1010000 
  884000    0.7004626   -4.8411807   -4.8411807   -3.7904878 0.0043535339   -4.8411807    1.0506929  1010000 
  885000   0.69986932   -4.8401542   -4.8401542   -3.7903512 0.0049977491   -4.8401542    1.0498029  1010000 
  886000   0.70035943   -4.8390308   -4.8390308   -3.7884927 0.0072506079   -4.8390308    1.0505381  1010000 
  887000    0.7002414   -4.8393604   -4.8393604   -3.7889994 0.0052265801   -4.8393604    1.0503611  1010000 
  888000   0.70039177   -4.8400368   -4.8400368   -3.7894502 0.0027863692   -4.8400368    1.0505866  1010000 
  889000   0.69872515    -4.840059    -4.840059   -3.7919723 0.00057155045    -4.840059    1.0480867  1010000 
  890000   0.69969428   -4.8389819   -4.8389819   -3.7894416 0.0048842517   -4.8389819    1.0495404  1010000 
  891000   0.69893922   -4.8387704   -4.8387704   -3.7903626 0.0041919493   -4.8387704    1.0484078  1010000 
  892000   0.70070571    -4.839027    -4.839027   -3.7879695 0.0046898277    -4.839027    1.0510575  1010000 
  893000   0.69947944   -4.8369451   -4.8369451    -3.787727 0.0053796689   -4.8369451    1.0492181  1010000 
  894000   0.70093317   -4.8373782   -4.8373782   -3.7859795 0.0043536534   -4.8373782    1.0513987  1010000 
  895000   0.70103927   -4.8385638   -4.8385638   -3.7870059 0.0028076527   -4.8385638    1.0515579  1010000 
  896000   0.70021966    -4.838824    -4.838824   -3.7884955 -0.0011958522    -4.838824    1.0503284  1010000 
  897000   0.69985266   -4.8371767   -4.8371767   -3.7873988 0.0042834218   -4.8371767    1.0497779  1010000 
  898000   0.69984515   -4.8360854   -4.8360854   -3.7863187 0.0059127266   -4.8360854    1.0497667  1010000 
  899000   0.70008898   -4.8377841   -4.8377841   -3.7876517 0.0050033447   -4.8377841    1.0501324  1010000 
  900000   0.70033406   -4.8384819   -4.8384819   -3.7879819 0.0027508846   -4.8384819    1.0505001  1010000 
  901000   0.69891022   -4.8380373   -4.8380373    -3.789673 0.0030922128   -4.8380373    1.0483643  1010000 
  902000   0.69939329   -4.8374267   -4.8374267   -3.7883378 0.0047468329   -4.8374267    1.0490889  1010000 
  903000    0.6999288   -4.8380219   -4.8380219   -3.7881298 0.0036713333   -4.8380219    1.0498922  1010000 
  904000   0.70077032   -4.8389996   -4.8389996   -3.7878451 0.0050875035   -4.8389996    1.0511544  1010000 
  905000   0.70031412   -4.8396853   -4.8396853   -3.7892151 0.0050627523   -4.8396853    1.0504701  1010000 
  906000   0.69961218    -4.839302    -4.839302   -3.7898848 0.0053054009    -4.839302    1.0494172  1010000 
  907000   0.70056823   -4.8398759   -4.8398759   -3.7890246 0.0064739635   -4.8398759    1.0508513  1010000 
  908000   0.69931354   -4.8407295   -4.8407295   -3.7917602 0.0063052951   -4.8407295    1.0489693  1010000 
  909000   0.69980614   -4.8393107   -4.8393107   -3.7896025 0.0097882041   -4.8393107    1.0497082  1010000 
  910000   0.69903937   -4.8398352   -4.8398352   -3.7912772  0.008848763   -4.8398352     1.048558  1010000 
  911000   0.69983319   -4.8400515   -4.8400515   -3.7903027 0.0076427411   -4.8400515    1.0497487  1010000 
  912000   0.70151147   -4.8407591   -4.8407591   -3.7884929 0.0076804894   -4.8407591    1.0522662  1010000 
  913000   0.70018193   -4.8405613   -4.8405613   -3.7902894 0.0064759555   -4.8405613    1.0502718  1010000 
  914000    0.6997582   -4.8422085   -4.8422085   -3.7925722 0.0030656107   -4.8422085    1.0496363  1010000 
  915000   0.70050099   -4.8421044   -4.8421044   -3.7913539 0.0044900145   -4.8421044    1.0507504  1010000 
  916000     0.701024    -4.840715    -4.840715   -3.7891801 0.0068592549    -4.840715     1.051535  1010000 
  917000     0.699981   -4.8394281   -4.8394281   -3.7894577 0.0061722071   -4.8394281    1.0499705  1010000 
  918000   0.70033258   -4.8388307   -4.8388307   -3.7883329 0.0050304868   -4.8388307    1.0504978  1010000 
  919000    0.6992552   -4.8385736   -4.8385736   -3.7896918 0.0065474924   -4.8385736    1.0488818  1010000 
  920000   0.69935164   -4.8389698   -4.8389698   -3.7899433 0.0048056889   -4.8389698    1.0490264  1010000 
  921000   0.70002702   -4.8391498   -4.8391498   -3.7891103  0.004957852   -4.8391498    1.0500395  1010000 
  922000   0.69965293   -4.8374069   -4.8374069   -3.7879285 0.0079773641   -4.8374069    1.0494784  1010000 
  923000   0.70050846   -4.8389336   -4.8389336   -3.7881719 0.0013804859   -4.8389336    1.0507617  1010000 
  924000   0.69977376   -4.8392447   -4.8392447   -3.7895851 0.00036508333   -4.8392447    1.0496596  1010000 
  925000   0.69957234   -4.8382061   -4.8382061   -3.7888486 0.00099942474   -4.8382061    1.0493575  1010000 
  926000   0.70036218   -4.8372549   -4.8372549   -3.7867126 0.0012204901   -4.8372549    1.0505422  1010000 
  927000   0.70056681   -4.8364894   -4.8364894   -3.7856402 0.0051782565   -4.8364894    1.0508492  1010000 
  928000   0.70103664   -4.8380168   -4.8380168   -3.7864629 0.0031334253   -4.8380168    1.0515539  1010000 
  929000   0.70012148   -4.8370421   -4.8370421   -3.7868609 0.0053228643   -4.8370421    1.0501812  1010000 
  930000   0.69943129   -4.8363896   -4.8363896   -3.7872437 0.0075410361   -4.8363896    1.0491459  1010000 
  931000   0.69988687   -4.8386298   -4.8386298   -3.7888005 0.0012644375   -4.8386298    1.0498293  1010000 
  932000   0.69988604   -4.8382674   -4.8382674   -3.7884394 0.00073101193   -4.8382674     1.049828  1010000 
  933000   0.70013294   -4.8381033   -4.8381033   -3.7879049 0.0063173246   -4.8381033    1.0501984  1010000 
  934000   0.70114128   -4.8382454   -4.8382454   -3.7865345 0.0081782182   -4.8382454    1.0517109  1010000 
  935000    0.6998164   -4.8394015   -4.8394015   -3.7896779 0.0052983852   -4.8394015    1.0497236  1010000 
  936000   0.69997764   -4.8413148   -4.8413148   -3.7913493 0.00066081226   -4.8413148    1.0499654  1010000 
  937000   0.70054916   -4.8413195   -4.8413195   -3.7904968 0.0044343771   -4.8413195    1.0508227  1010000 
  938000   0.70102263   -4.8417019   -4.8417019    -3.790169 0.0040601802   -4.8417019    1.0515329  1010000 
  939000   0.69980752   -4.8412053   -4.8412053   -3.7914951 0.0046358261   -4.8412053    1.0497102  1010000 
  940000    0.6997619   -4.8407644   -4.8407644   -3.7911226  0.007549945   -4.8407644    1.0496418  1010000 
  941000   0.69973598   -4.8417371   -4.8417371   -3.7921342 0.0054224601   -4.8417371    1.0496029  1010000 
  942000   0.69954247   -4.8412715   -4.8412715   -3.7919588 0.0083036645   -4.8412715    1.0493127  1010000 
  943000    0.6995646   -4.8421203   -4.8421203   -3.7927745 0.0027449251   -4.8421203    1.0493459  1010000 
  944000   0.69912194   -4.8414291   -4.8414291   -3.7927472 0.0069052338   -4.8414291    1.0486819  1010000 
  945000   0.70057778   -4.8411753   -4.8411753   -3.7903097 0.0064344048   -4.8411753    1.0508656  1010000 
  946000   0.69912453    -4.842274    -4.842274   -3.7935883 0.0011406364    -4.842274    1.0486858  1010000 
  947000   0.69907665   -4.8415306   -4.8415306   -3.7929167 0.0052844791   -4.8415306    1.0486139  1010000 
  948000   0.70001719   -4.8402815   -4.8402815   -3.7902568 0.0075363273   -4.8402815    1.0500247  1010000 
  949000   0.70056527    -4.839743    -4.839743   -3.7888962 0.0089116586    -4.839743    1.0508469  1010000 
  950000   0.69884658   -4.8407002   -4.8407002   -3.7924314 -0.00042750123   -4.8407002    1.0482688  1010000 
  951000   0.69999386   -4.8401088   -4.8401088    -3.790119 0.0033399404   -4.8401088    1.0499898  1010000 
  952000    0.7008554   -4.8383557   -4.8383557   -3.7870737 0.0077096849   -4.8383557    1.0512821  1010000 
  953000   0.70027232   -4.8394829   -4.8394829   -3.7890755 0.0046953911   -4.8394829    1.0504074  1010000 
  954000   0.70008836    -4.838439    -4.838439   -3.7883075 0.0048732454    -4.838439    1.0501315  1010000 
  955000   0.69971676   -4.8392187   -4.8392187   -3.7896446  0.001083861   -4.8392187    1.0495741  1010000 
  956000   0.70046848   -4.8389502   -4.8389502   -3.7882485 0.0015443843   -4.8389502    1.0507017  1010000 
  957000   0.69981488   -4.8382425   -4.8382425   -3.7885212 0.0027586227   -4.8382425    1.0497213  1010000 
  958000    0.7007758   -4.8378088   -4.8378088   -3.7866462 0.0046163525   -4.8378088    1.0511627  1010000 
  959000   0.70085683   -4.8380197   -4.8380197   -3.7867355 0.0036971585   -4.8380197    1.0512842  1010000 
  960000   0.69964089   -4.8376046   -4.8376046   -3.7881443 -9.1229193e-05   -4.8376046    1.0494603  1010000 
  961000   0.69983557   -4.8378732   -4.8378732   -3.7881209 0.0027405006   -4.8378732    1.0497523  1010000 
  962000   0.69934882   -4.8379437   -4.8379437   -3.7889215 0.0011816959   -4.8379437    1.0490222  1010000 
  963000   0.70028846    -4.837257    -4.837257   -3.7868254 0.0039114211    -4.837257    1.0504317  1010000 
  964000   0.70044491   -4.8373802   -4.8373802   -3.7867139 0.0034529049   -4.8373802    1.0506663  1010000 
  965000   0.69938814   -4.8396995   -4.8396995   -3.7906183 0.00046369452   -4.8396995    1.0490812  1010000 
  966000   0.70020433   -4.8390408   -4.8390408   -3.7887354 0.0021942605   -4.8390408    1.0503054  1010000 
  967000   0.69929715   -4.8379427   -4.8379427    -3.788998 0.0079588386   -4.8379427    1.0489447  1010000 
  968000   0.70098361   -4.8381946   -4.8381946   -3.7867202 0.0054478954   -4.8381946    1.0514744  1010000 
  969000   0.70116149   -4.8389355   -4.8389355   -3.7871943 0.0063840985   -4.8389355    1.0517412  1010000 
  970000   0.70029923   -4.8387552   -4.8387552   -3.7883074  0.007340632   -4.8387552    1.0504478  1010000 
  971000   0.70092794   -4.8386054   -4.8386054   -3.7872146 0.0089588518   -4.8386054    1.0513909  1010000 
  972000   0.70017141   -4.8396261   -4.8396261   -3.7893701  0.006673867   -4.8396261    1.0502561  1010000 
  973000   0.69951414   -4.8395008   -4.8395008   -3.7902307 0.0066432274   -4.8395008    1.0492702  1010000 
  974000   0.70081578   -4.8415391   -4.8415391   -3.7903165 0.0055928757   -4.8415391    1.0512226  1010000 
  975000   0.69976981   -4.8394092   -4.8394092   -3.7897555 0.0055472664   -4.8394092    1.0496537  1010000 
  976000   0.70040769   -4.8382248   -4.8382248   -3.7876143 0.0087817279   -4.8382248    1.0506105  1010000 
  977000   0.69961116   -4.8379282   -4.8379282   -3.7885125  0.005846099   -4.8379282    1.0494157  1010000 
  978000    0.7004831     -4.83935     -4.83935   -3.7886264 0.0067374734     -4.83935    1.0507236  1010000 
  979000   0.70065764   -4.8403738   -4.8403738   -3.7893884 0.0041140202   -4.8403738    1.0509854  1010000 
  980000   0.69949136   -4.8400201   -4.8400201   -3.7907841 0.0046147738   -4.8400201     1.049236  1010000 
  981000    0.6994681   -4.8404567   -4.8404567   -3.7912556 0.0044017397   -4.8404567    1.0492011  1010000 
  982000   0.69997938   -4.8402151   -4.8402151    -3.790247 0.00084387018   -4.8402151     1.049968  1010000 
  983000   0.69957414   -4.8389747   -4.8389747   -3.7896145 0.0032811046   -4.8389747    1.0493602  1010000 
  984000   0.69953096   -4.8399776   -4.8399776   -3.7906822 0.00014534071   -4.8399776    1.0492954  1010000 
  985000   0.69962772   -4.8384405   -4.8384405       -3.789 0.0024646339   -4.8384405    1.0494405  1010000 
  986000   0.69912504    -4.838319    -4.838319   -3.7896325 0.0044335594    -4.838319    1.0486865  1010000 
  987000   0.69929467   -4.8381286   -4.8381286   -3.7891876 0.0047322564   -4.8381286     1.048941  1010000 
  988000   0.69931892   -4.8377057   -4.8377057   -3.7887284 0.0098650197   -4.8377057    1.0489773  1010000 
  989000    0.7007441   -4.8373578   -4.8373578   -3.7862427  0.006765819   -4.8373578    1.0511151  1010000 
  990000   0.70042562   -4.8381748   -4.8381748   -3.7875374 0.0058759898   -4.8381748    1.0506374  1010000 
  991000   0.70024532   -4.8374946   -4.8374946   -3.7871277 0.0029844037   -4.8374946    1.0503669  1010000 
  992000   0.70057742   -4.8393268   -4.8393268   -3.7884617 -0.0017283573   -4.8393268    1.0508651  1010000 
  993000   0.69983074   -4.8387563   -4.8387563   -3.7890112 0.0018239567   -4.8387563    1.0497451  1010000 
  994000   0.70004814   -4.8370648   -4.8370648   -3.7869937  0.007289681   -4.8370648    1.0500712  1010000 
  995000   0.69945582     -4.83899     -4.83899   -3.7898073 0.0032687633     -4.83899    1.0491827  1010000 
  996000   0.69988147   -4.8390795   -4.8390795   -3.7892583 0.0043439967   -4.8390795    1.0498212  1010000 
  997000   0.70089531   -4.8390165   -4.8390165   -3.7876745 0.00058208453   -4.8390165    1.0513419  1010000 
  998000   0.69997812   -4.8389282   -4.8389282   -3.7889621 0.0026806266   -4.8389282    1.0499661  1010000 
  999000   0.70014423   -4.8389334   -4.8389334   -3.7887181  0.001609693   -4.8389334    1.0502153  1010000 
 1000000   0.69855283   -4.8385712   -4.8385712    -3.790743  0.004375517   -4.8385712    1.0478282  1010000 
 1001000   0.70071256   -4.8411425   -4.8411425   -3.7900747 0.0016437484   -4.8411425    1.0510678  1010000 
 1002000   0.70031111    -4.840591    -4.840591   -3.7901254 0.0051487233    -4.840591    1.0504656  1010000 
 1003000   0.69990309   -4.8395765   -4.8395765   -3.7897229 0.0064507197   -4.8395765    1.0498536  1010000 
 1004000   0.69965586    -4.839196    -4.839196   -3.7897132 0.0053097633    -4.839196    1.0494827  1010000 
 1005000   0.70129648   -4.8395668   -4.8395668   -3.7876231 0.0073534241   -4.8395668    1.0519437  1010000 
 1006000    0.7002078   -4.8389606   -4.8389606   -3.7886499 0.0064213145   -4.8389606    1.0503107  1010000 
 1007000   0.69957945   -4.8390792   -4.8390792    -3.789711 0.0060365521   -4.8390792    1.0493681  1010000 
 1008000   0.69976982   -4.8377808   -4.8377808   -3.7881271  0.010670634   -4.8377808    1.0496537  1010000 
 1009000   0.69984321   -4.8405914   -4.8405914   -3.7908276 0.0071646519   -4.8405914    1.0497638  1010000 
 1010000   0.69906822   -4.8388737   -4.8388737   -3.7902724 0.0047245139   -4.8388737    1.0486013  1010000 
 1011000   0.69930271   -4.8403332   -4.8403332   -3.7913802  0.001048663   -4.8403332     1.048953  1010000 
 1012000   0.70112954   -4.8400013   -4.8400013   -3.7883081 0.0047028935   -4.8400013    1.0516933  1010000 
 1013000    0.6993525   -4.8393952   -4.8393952   -3.7903675 0.00053928984   -4.8393952    1.0490277  1010000 
 1014000   0.69866004   -4.8380147   -4.8380147   -3.7900256 0.0060182459   -4.8380147     1.047989  1010000 
 1015000   0.69896285   -4.8383861   -4.8383861   -3.7899429 0.0056733851   -4.8383861    1.0484432  1010000 
 1016000   0.69990369   -4.8380079   -4.8380079   -3.7881534 0.0070199868   -4.8380079    1.0498545  1010000 
 1017000   0.69999357   -4.8382319   -4.8382319   -3.7882426 0.0079360355   -4.8382319    1.0499893  1010000 
 1018000   0.69967336   -4.8402156   -4.8402156   -3.7907066 0.0022462119   -4.8402156     1.049509  1010000 
 1019000   0.69968829   -4.8394736   -4.8394736   -3.7899422 0.0018559529   -4.8394736    1.0495314  1010000 
 1020000   0.70000975   -4.8395616   -4.8395616    -3.789548 0.0003152677   -4.8395616    1.0500136  1010000 
 1021000   0.70107281   -4.8394604   -4.8394604   -3.7878522  0.005546137   -4.8394604    1.0516082  1010000 
 1022000    0.7001138   -4.8386115   -4.8386115   -3.7884418 0.0048712707   -4.8386115    1.0501697  1010000 
 1023000   0.70008758   -4.8394267   -4.8394267   -3.7892964 0.0043419227   -4.8394267    1.0501303  1010000 
 1024000   0.70021374   -4.8395528   -4.8395528   -3.7892333 0.0065773954   -4.8395528    1.0503196  1010000 
 1025000    0.7005113   -4.8401728   -4.8401728   -3.7894069 0.0047911959   -4.8401728    1.0507659  1010000 
 1026000   0.69921477   -4.8391486   -4.8391486   -3.7903275  0.004736878   -4.8391486    1.0488211  1010000 
 1027000   0.70066709   -4.8398767   -4.8398767   -3.7888771  0.002899264   -4.8398767    1.0509996  1010000 
 1028000   0.69929603   -4.8389936   -4.8389936   -3.7900506 0.0031490072   -4.8389936     1.048943  1010000 
 1029000   0.70026449   -4.8396726   -4.8396726   -3.7892769 -0.0005446162   -4.8396726    1.0503957  1010000 
 1030000   0.70029597   -4.8398809   -4.8398809    -3.789438 7.516608e-05   -4.8398809    1.0504429  1010000 
 1031000   0.69949204   -4.8397705   -4.8397705   -3.7905335 0.0015717604   -4.8397705     1.049237  1010000 
 1032000   0.69971534   -4.8386588   -4.8386588   -3.7890868 0.0031428545   -4.8386588     1.049572  1010000 
 1033000   0.70010453   -4.8392204   -4.8392204   -3.7890646 0.0062972366   -4.8392204    1.0501558  1010000 
 1034000   0.70048467   -4.8386061   -4.8386061   -3.7878802   0.00571789   -4.8386061     1.050726  1010000 
 1035000   0.69971385   -4.8392674   -4.8392674   -3.7896976 0.0029029556   -4.8392674    1.0495697  1010000 
 1036000   0.69995105   -4.8394501   -4.8394501   -3.7895246 0.0046446016   -4.8394501    1.0499255  1010000 
 1037000   0.70046983   -4.8398337   -4.8398337     -3.78913 0.0034547646   -4.8398337    1.0507037  1010000 
 1038000   0.69941046   -4.8384198   -4.8384198   -3.7893052 0.0059997985   -4.8384198    1.0491147  1010000 
 1039000   0.69988724   -4.8396639   -4.8396639    -3.789834 0.0053674751   -4.8396639    1.0498298  1010000 
 1040000   0.69962436   -4.8391614   -4.8391614   -3.7897259 0.0056257673   -4.8391614    1.0494355  1010000 
 1041000   0.69971631   -4.8393498   -4.8393498   -3.7897764  0.002939805   -4.8393498    1.0495734  1010000 
 1042000    0.6992993   -4.8386195   -4.8386195   -3.7896715 0.0045694447   -4.8386195    1.0489479  1010000 
 1043000   0.69979503   -4.8386507   -4.8386507   -3.7889592 0.0077720266   -4.8386507    1.0496915  1010000 
 1044000   0.70040555   -4.8386126   -4.8386126   -3.7880053 0.0047451285   -4.8386126    1.0506073  1010000 
 1045000   0.70064453    -4.840056    -4.840056   -3.7890902 0.0038933577    -4.840056    1.0509657  1010000 
 1046000   0.69964037   -4.8400864   -4.8400864   -3.7906269 0.0033614539   -4.8400864    1.0494595  1010000 
 1047000     0.699422    -4.838739    -4.838739    -3.789607 0.0052421736    -4.838739     1.049132  1010000 
 1048000   0.69978662   -4.8396698   -4.8396698   -3.7899909 0.0037214796   -4.8396698    1.0496789  1010000 
 1049000   0.70108638   -4.8389583   -4.8389583   -3.7873297 0.0093495443   -4.8389583    1.0516285  1010000 
 1050000   0.70019205   -4.8388266   -4.8388266   -3.7885396 0.0046057078   -4.8388266     1.050287  1010000 
 1051000   0.70044509   -4.8391974   -4.8391974   -3.7885308 0.0056755483   -4.8391974    1.0506666  1010000 
 1052000   0.70069111   -4.8388139   -4.8388139   -3.7877783   0.00738956   -4.8388139    1.0510356  1010000 
 1053000   0.70107737   -4.8393874   -4.8393874   -3.7877724 0.0063222588   -4.8393874     1.051615  1010000 
 1054000   0.69945061   -4.8386046   -4.8386046   -3.7894297 0.0046251245   -4.8386046    1.0491749  1010000 
 1055000   0.69862033   -4.8387313   -4.8387313   -3.7908019 0.0033634254   -4.8387313    1.0479295  1010000 
 1056000   0.70002246   -4.8396477   -4.8396477    -3.789615 0.0034369628   -4.8396477    1.0500327  1010000 
 1057000   0.70003538   -4.8388354   -4.8388354   -3.7887834 0.0036930923   -4.8388354     1.050052  1010000 
 1058000   0.70012465   -4.8389476   -4.8389476   -3.7887617 0.0044360222   -4.8389476    1.0501859  1010000 
 1059000   0.70082807   -4.8388652   -4.8388652   -3.7876241 0.0071888577   -4.8388652    1.0512411  1010000 
 1060000   0.70029604   -4.8396592   -4.8396592   -3.7892162 0.0051785945   -4.8396592     1.050443  1010000 
 1061000   0.70030039   -4.8394198   -4.8394198   -3.7889703 0.0039477679   -4.8394198    1.0504495  1010000 
 1062000   0.70056592   -4.8405258   -4.8405258   -3.7896779 0.0021779598   -4.8405258    1.0508478  1010000 
 1063000   0.70030805   -4.8380375   -4.8380375   -3.7875764 0.0070867517   -4.8380375     1.050461  1010000 
 1064000   0.69945725   -4.8407039   -4.8407039   -3.7915191 0.00089173681   -4.8407039    1.0491848  1010000 
 1065000   0.69948252   -4.8385107   -4.8385107    -3.789288  0.008132387   -4.8385107    1.0492227  1010000 
 1066000   0.70015534   -4.8403613   -4.8403613   -3.7901293 -0.00013327329   -4.8403613     1.050232  1010000 
 1067000   0.70073924   -4.8391372   -4.8391372   -3.7880293 0.0051939843   -4.8391372    1.0511078  1010000 
 1068000   0.70053054   -4.8383095   -4.8383095   -3.7875147 0.0047158872   -4.8383095    1.0507948  1010000 
 1069000   0.70035998   -4.8383608   -4.8383608   -3.7878219 0.0051859587   -4.8383608    1.0505389  1010000 
 1070000   0.70039279   -4.8386482   -4.8386482   -3.7880601 0.0026938992   -4.8386482    1.0505881  1010000 
 1071000   0.70085805   -4.8362536   -4.8362536   -3.7849676 0.0077473139   -4.8362536     1.051286  1010000 
 1072000   0.69922066   -4.8370922   -4.8370922   -3.7882623 0.0046190537   -4.8370922    1.0488299  1010000 
 1073000   0.69996209   -4.8369999   -4.8369999   -3.7870578  0.005532439   -4.8369999    1.0499421  1010000 
 1074000   0.69999557   -4.8364684   -4.8364684   -3.7864761 0.0075940459   -4.8364684    1.0499923  1010000 
 1075000   0.69995881   -4.8385732   -4.8385732    -3.788636 0.0023743758   -4.8385732    1.0499372  1010000 
 1076000   0.70014136   -4.8386188   -4.8386188   -3.7884078 0.0019183368   -4.8386188     1.050211  1010000 
 1077000   0.70009372   -4.8374336   -4.8374336   -3.7872941 0.0030549873   -4.8374336    1.0501395  1010000 
 1078000   0.69979576   -4.8360803   -4.8360803   -3.7863877 0.0052807603   -4.8360803    1.0496926  1010000 
 1079000   0.70000858   -4.8364023   -4.8364023   -3.7863905 0.0028504015   -4.8364023    1.0500118  1010000 
 1080000   0.70072608   -4.8370946   -4.8370946   -3.7860065 0.0057055674   -4.8370946    1.0510881  1010000 
 1081000   0.70055312   -4.8363778   -4.8363778   -3.7855492 0.0066772167   -4.8363778    1.0508286  1010000 
 1082000   0.70015857   -4.8379802   -4.8379802   -3.7877434 0.0037252039   -4.8379802    1.0502368  1010000 
 1083000   0.70006522   -4.8394516   -4.8394516   -3.7893548 0.0037108615   -4.8394516    1.0500968  1010000 
 1084000   0.70028472   -4.8390276   -4.8390276   -3.7886016 0.0037798596   -4.8390276     1.050426  1010000 
 1085000   0.69963381   -4.8374924   -4.8374924   -3.7880427  0.005352958   -4.8374924    1.0494497  1010000 
 1086000    0.7009104   -4.8375811   -4.8375811   -3.7862165  0.004571034   -4.8375811    1.0513646  1010000 
 1087000   0.69935747   -4.8379503   -4.8379503   -3.7889151 0.0079758208   -4.8379503    1.0490352  1010000 
 1088000   0.69966263   -4.8384377   -4.8384377   -3.7889448 0.0053585954   -4.8384377    1.0494929  1010000 
 1089000   0.69968837     -4.83986     -4.83986   -3.7903285 0.0031196904     -4.83986    1.0495315  1010000 
 1090000   0.69983613   -4.8393819   -4.8393819   -3.7896288 0.0077991595   -4.8393819    1.0497532  1010000 
 1091000   0.70048566   -4.8403899   -4.8403899   -3.7896625 0.0038329787   -4.8403899    1.0507274  1010000 
 1092000   0.70036208   -4.8404463   -4.8404463   -3.7899042 0.0045405928   -4.8404463    1.0505421  1010000 
 1093000   0.70044355   -4.8393943   -4.8393943     -3.78873 0.0076077318   -4.8393943    1.0506643  1010000 
 1094000    0.6996335   -4.8389187   -4.8389187   -3.7894695 0.0084046641   -4.8389187    1.0494492  1010000 
 1095000   0.69961594   -4.8393428   -4.8393428   -3.7899199 0.0067319445   -4.8393428    1.0494229  1010000 
 1096000    0.6992387   -4.8394767   -4.8394767   -3.7906197   0.01012665   -4.8394767     1.048857  1010000 
 1097000   0.69963124   -4.8408022   -4.8408022   -3.7913564 0.0055736208   -4.8408022    1.0494458  1010000 
 1098000   0.70093644   -4.8401553   -4.8401553   -3.7887517 0.0056946259   -4.8401553    1.0514036  1010000 
 1099000   0.70027597   -4.8395055   -4.8395055   -3.7890925 0.0038375474   -4.8395055    1.0504129  1010000 
 1100000   0.69938903    -4.838822    -4.838822   -3.7897395 0.0027891428    -4.838822    1.0490825  1010000 
 1101000    0.7001505   -4.8387425   -4.8387425   -3.7885178 0.0073124866   -4.8387425    1.0502247  1010000 
 1102000   0.69980567   -4.8381621   -4.8381621   -3.7884546 0.0043616396   -4.8381621    1.0497075  1010000 
 1103000   0.69979825    -4.837613    -4.837613   -3.7879166 0.0056371764    -4.837613    1.0496963  1010000 
 1104000   0.69968971   -4.8381115   -4.8381115   -3.7885779 0.0028633313   -4.8381115    1.0495335  1010000 
 1105000   0.69859047   -4.8372641   -4.8372641   -3.7893794 0.0075430244   -4.8372641    1.0478847  1010000 
 1106000   0.70040292   -4.8395627   -4.8395627   -3.7889593 0.00066051565   -4.8395627    1.0506033  1010000 
 1107000   0.70065653   -4.8369792   -4.8369792   -3.7859955 0.0053548339   -4.8369792    1.0509837  1010000 
 1108000   0.70015802   -4.8367878   -4.8367878   -3.7865518 0.0022544047   -4.8367878     1.050236  1010000 
 1109000   0.70054571   -4.8363129   -4.8363129   -3.7854953 0.00080280064   -4.8363129    1.0508175  1010000 
 1110000   0.70027174   -4.8391076   -4.8391076   -3.7887011 -0.0011055937   -4.8391076    1.0504066  1010000 
 1111000   0.69969506   -4.8392396   -4.8392396   -3.7896981 -0.0031628812   -4.8392396    1.0495415  1010000 
 1112000   0.69956455   -4.8383255   -4.8383255   -3.7889797 0.0010788325   -4.8383255    1.0493458  1010000 
 1113000    0.7001949   -4.8377204   -4.8377204   -3.7874291 0.0053835291   -4.8377204    1.0502913  1010000 
 1114000   0.70074395   -4.8379928   -4.8379928   -3.7868779 0.0046537274   -4.8379928    1.0511149  1010000 
 1115000   0.69991899   -4.8378058   -4.8378058   -3.7879283 0.0041556323   -4.8378058    1.0498774  1010000 
 1116000   0.69989722   -4.8381018   -4.8381018    -3.788257 0.0041790505   -4.8381018    1.0498448  1010000 
 1117000   0.70032188   -4.8380797   -4.8380797   -3.7875979 0.0032684415   -4.8380797    1.0504818  1010000 
 1118000   0.70003658   -4.8381307   -4.8381307   -3.7880768 0.0057514377   -4.8381307    1.0500538  1010000 
 1119000   0.69995666   -4.8396172   -4.8396172   -3.7896832 0.0023405696   -4.8396172    1.0499339  1010000 
 1120000   0.69987763   -4.8393165   -4.8393165   -3.7895011 0.0018684872   -4.8393165    1.0498154  1010000 
 1121000   0.69986975   -4.8395834   -4.8395834   -3.7897798 0.0022207292   -4.8395834    1.0498036  1010000 
 1122000   0.69920976   -4.8379219   -4.8379219   -3.7891083 0.0067068746   -4.8379219    1.0488136  1010000 
 1123000   0.69972079   -4.8389613   -4.8389613   -3.7893811 0.0021913667   -4.8389613    1.0495801  1010000 
 1124000   0.70090647    -4.839031    -4.839031   -3.7876723 0.0054921417    -4.839031    1.0513587  1010000 
 1125000   0.69999474    -4.840127    -4.840127   -3.7901359 0.0050692432    -4.840127    1.0499911  1010000 
 1126000   0.70013573   -4.8400698   -4.8400698   -3.7898673 0.0042292542   -4.8400698    1.0502026  1010000 
 1127000   0.70001336   -4.8416052   -4.8416052   -3.7915862 0.0021939316   -4.8416052     1.050019  1010000 
 1128000    0.7005246   -4.8395898   -4.8395898    -3.788804  0.010867539   -4.8395898    1.0507859  1010000 
 1129000   0.69975534    -4.841006    -4.841006    -3.791374 0.0070491303    -4.841006     1.049632  1010000 
 1130000   0.69893012   -4.8399186   -4.8399186   -3.7915245 0.0020215876   -4.8399186    1.0483941  1010000 
 1131000   0.69944858   -4.8395151   -4.8395151   -3.7903433 0.0014894002   -4.8395151    1.0491718  1010000 
 1132000   0.69946794   -4.8386936   -4.8386936   -3.7894928 0.0065674523   -4.8386936    1.0492009  1010000 
 1133000   0.70072281   -4.8400551   -4.8400551   -3.7889719 0.0054034178   -4.8400551    1.0510832  1010000 
 1134000   0.69926305   -4.8413331   -4.8413331   -3.7924395 0.0030252096   -4.8413331    1.0488935  1010000 
 1135000    0.6985341   -4.8393772   -4.8393772   -3.7915771 0.0099047927   -4.8393772    1.0478001  1010000 
 1136000   0.69998433   -4.8404451   -4.8404451   -3.7904696 0.0040118653   -4.8404451    1.0499755  1010000 
 1137000   0.69921818   -4.8375994   -4.8375994   -3.7887732 0.0091588772   -4.8375994    1.0488262  1010000 
 1138000   0.70034051   -4.8376671   -4.8376671   -3.7871573 0.0053790949   -4.8376671    1.0505097  1010000 
 1139000   0.70046955   -4.8389428   -4.8389428   -3.7882395  0.003628121   -4.8389428    1.0507033  1010000 
 1140000    0.6996459   -4.8377193   -4.8377193   -3.7882515 0.0040595005   -4.8377193    1.0494678  1010000 
 1141000   0.69985082   -4.8392872   -4.8392872   -3.7895121 0.0023001513   -4.8392872    1.0497752  1010000 
 1142000     0.700635    -4.839268    -4.839268   -3.7883165 0.0053548427    -4.839268    1.0509515  1010000 
 1143000   0.70088676   -4.8384709   -4.8384709   -3.7871418 0.0054665018   -4.8384709    1.0513291  1010000 
 1144000   0.69951342   -4.8382439   -4.8382439   -3.7889748 -0.00066274115   -4.8382439    1.0492691  1010000 
 1145000   0.69981407   -4.8377654   -4.8377654   -3.7880453 0.0003068991   -4.8377654    1.0497201  1010000 
 1146000   0.69984372   -4.8381721   -4.8381721   -3.7884076 -0.00090067328   -4.8381721    1.0497645  1010000 
 1147000   0.70114281   -4.8385743   -4.8385743   -3.7868612 -0.0019323276   -4.8385743    1.0517132  1010000 
 1148000   0.69954848   -4.8379417   -4.8379417     -3.78862 0.0049666171   -4.8379417    1.0493217  1010000 
 1149000   0.69902025    -4.839519    -4.839519   -3.7909897 0.0017774049    -4.839519    1.0485293  1010000 
 1150000   0.69974073   -4.8376785   -4.8376785   -3.7880685 0.0050984747   -4.8376785    1.0496101  1010000 
 1151000   0.69986974   -4.8385729   -4.8385729   -3.7887693 0.0044702981   -4.8385729    1.0498036  1010000 
 1152000   0.70029946   -4.8370427   -4.8370427   -3.7865945 0.0078064381   -4.8370427    1.0504482  1010000 
 1153000   0.69976313   -4.8386697   -4.8386697   -3.7890261 0.0032346066   -4.8386697    1.0496437  1010000 
 1154000   0.69943555   -4.8384625   -4.8384625   -3.7893102 0.0059002041   -4.8384625    1.0491523  1010000 
 1155000   0.70022997   -4.8387856   -4.8387856   -3.7884417 0.0049185557   -4.8387856    1.0503439  1010000 
 1156000   0.70050622   -4.8380274   -4.8380274   -3.7872691 0.0082575627   -4.8380274    1.0507583  1010000 
 1157000   0.69932362   -4.8397447   -4.8397447   -3.7907603 0.0051618336   -4.8397447    1.0489844  1010000 
 1158000   0.70043284   -4.8415624   -4.8415624   -3.7909142 0.00014677053   -4.8415624    1.0506482  1010000 
 1159000   0.69954971   -4.8389201   -4.8389201   -3.7895966 0.0092717238   -4.8389201    1.0493235  1010000 
 1160000   0.69957831   -4.8384325   -4.8384325   -3.7890661  0.010062312   -4.8384325    1.0493664  1010000 
 1161000   0.69902548    -4.839491    -4.839491   -3.7909538 0.0069437256    -4.839491    1.0485372  1010000 
 1162000   0.69957341   -4.8397052   -4.8397052   -3.7903461 0.0063846661   -4.8397052    1.0493591  1010000 
 1163000   0.69880713   -4.8396451   -4.8396451   -3.7914355 0.0047466388   -4.8396451    1.0482097  1010000 
 1164000   0.69900514   -4.8394412   -4.8394412   -3.7909346 0.0074231734   -4.8394412    1.0485067  1010000 
 1165000    0.6994137   -4.8397142   -4.8397142   -3.7905947  0.007165622   -4.8397142    1.0491195  1010000 
 1166000   0.70064869   -4.8389159   -4.8389159   -3.7879439 0.0073570957   -4.8389159     1.050972  1010000 
 1167000   0.69967137   -4.8400003   -4.8400003   -3.7904943 0.0022925399   -4.8400003     1.049506  1010000 
 1168000   0.69913632   -4.8386245   -4.8386245    -3.789921 0.0062933874   -4.8386245    1.0487034  1010000 
 1169000   0.69927319   -4.8388343   -4.8388343   -3.7899255 0.0040739663   -4.8388343    1.0489087  1010000 
 1170000   0.69950859   -4.8378569   -4.8378569   -3.7885951 0.0069433918   -4.8378569    1.0492618  1010000 
 1171000   0.70048983   -4.8396246   -4.8396246   -3.7888909 0.0061509676   -4.8396246    1.0507337  1010000 
 1172000   0.69932284   -4.8393634   -4.8393634   -3.7903802 0.0043602683   -4.8393634    1.0489832  1010000 
 1173000   0.69936487    -4.838801    -4.838801   -3.7897547 0.0051365328    -4.838801    1.0490463  1010000 
 1174000   0.70032343   -4.8397396   -4.8397396   -3.7892555 -2.6048429e-05   -4.8397396    1.0504841  1010000 
 1175000   0.69948491   -4.8374898   -4.8374898   -3.7882635 0.0030501707   -4.8374898    1.0492263  1010000 
 1176000   0.69915729   -4.8374322   -4.8374322   -3.7886973 0.0031907913   -4.8374322    1.0487349  1010000 
 1177000     0.700777   -4.8380842   -4.8380842   -3.7869197 0.0017888108   -4.8380842    1.0511645  1010000 
 1178000   0.70094826   -4.8379811   -4.8379811   -3.7865598 0.0023818707   -4.8379811    1.0514213  1010000 
 1179000   0.69954412    -4.837971    -4.837971   -3.7886558 0.0067414058    -4.837971    1.0493151  1010000 
 1180000   0.70036729   -4.8388179   -4.8388179    -3.788268 -2.3947682e-05   -4.8388179    1.0505499  1010000 
 1181000    0.7004625   -4.8388182   -4.8388182   -3.7881255 0.0029389859   -4.8388182    1.0506927  1010000 
 1182000   0.69975007   -4.8361737   -4.8361737   -3.7865496 0.0061851546   -4.8361737    1.0496241  1010000 
 1183000   0.70070993   -4.8360615   -4.8360615   -3.7849977 0.0071349137   -4.8360615    1.0510639  1010000 
 1184000   0.70036999   -4.8376509   -4.8376509   -3.7870969 0.0020736585   -4.8376509    1.0505539  1010000 
 1185000   0.69965657   -4.8377571   -4.8377571   -3.7882733 0.0023343417   -4.8377571    1.0494838  1010000 
 1186000   0.69908366   -4.8389574   -4.8389574   -3.7903329 -0.00088869693   -4.8389574    1.0486244  1010000 
 1187000   0.70007252   -4.8387756   -4.8387756   -3.7886678 0.0028693591   -4.8387756    1.0501077  1010000 
 1188000   0.70035587   -4.8380288   -4.8380288    -3.787496 0.0061310857   -4.8380288    1.0505328  1010000 
 1189000   0.70042491   -4.8380041   -4.8380041   -3.7873677 0.0057372764   -4.8380041    1.0506363  1010000 
 1190000   0.69994047    -4.838592    -4.838592   -3.7886824 0.0059599999    -4.838592    1.0499097  1010000 
 1191000   0.69923495   -4.8394905   -4.8394905   -3.7906391 0.0029353804   -4.8394905    1.0488514  1010000 
 1192000   0.69985389   -4.8392266   -4.8392266   -3.7894468  0.008418603   -4.8392266    1.0497798  1010000 
 1193000   0.70041356   -4.8404884   -4.8404884   -3.7898691  0.005017007   -4.8404884    1.0506193  1010000 
 1194000   0.70015302   -4.8395106   -4.8395106   -3.7892821 0.0088033214   -4.8395106    1.0502285  1010000 
 1195000   0.69926802   -4.8401757   -4.8401757   -3.7912747 0.0060373254   -4.8401757     1.048901  1010000 
 1196000   0.69898154   -4.8406869   -4.8406869   -3.7922157 0.0055484056   -4.8406869    1.0484713  1010000 
 1197000    0.6997065   -4.8392983   -4.8392983   -3.7897396 0.0058324839   -4.8392983    1.0495587  1010000 
 1198000   0.70048277   -4.8388974   -4.8388974   -3.7881743 0.0066346388   -4.8388974    1.0507231  1010000 
 1199000   0.70014806   -4.8397403   -4.8397403   -3.7895192 0.0028527862   -4.8397403    1.0502211  1010000 
 1200000   0.70025331    -4.839899    -4.839899   -3.7895201 0.0057278192    -4.839899    1.0503789  1010000 
 1201000   0.70021402   -4.8395657   -4.8395657   -3.7892457 0.0060248828   -4.8395657      1.05032  1010000 
 1202000   0.69974509   -4.8384872   -4.8384872   -3.7888706 0.0081423403   -4.8384872    1.0496166  1010000 
 1203000   0.70051811   -4.8382364   -4.8382364   -3.7874603 0.0057869746   -4.8382364    1.0507761  1010000 
 1204000   0.69931287   -4.8387067   -4.8387067   -3.7897384 0.0029106929   -4.8387067    1.0489683  1010000 
 1205000    0.6996875   -4.8381365   -4.8381365   -3.7886063 0.00015462379   -4.8381365    1.0495302  1010000 
 1206000   0.70051432   -4.8374845   -4.8374845   -3.7867141 0.0048679933   -4.8374845    1.0507704  1010000 
 1207000   0.69947375   -4.8376387   -4.8376387   -3.7884291 0.0042232782   -4.8376387    1.0492096  1010000 
 1208000    0.6994316   -4.8373886   -4.8373886   -3.7882422 0.0043863546   -4.8373886    1.0491464  1010000 
 1209000   0.70008974   -4.8391132   -4.8391132   -3.7889796 -0.0010624126   -4.8391132    1.0501336  1010000 
 1210000    0.7003883   -4.8373826   -4.8373826   -3.7868012 0.00093776491   -4.8373826    1.0505814  1010000 
 1211000   0.70058293   -4.8374714   -4.8374714    -3.786598 0.0016422241   -4.8374714    1.0508734  1010000 
 1212000   0.70091818   -4.8356291   -4.8356291   -3.7842528 0.0065299863   -4.8356291    1.0513762  1010000 
 1213000   0.69982972    -4.837482    -4.837482   -3.7877385 0.0050258949    -4.837482    1.0497435  1010000 
 1214000   0.69910737   -4.8389822   -4.8389822   -3.7903222 0.0007143948   -4.8389822      1.04866  1010000 
 1215000   0.69997649   -4.8375201   -4.8375201   -3.7875564 0.0056296107   -4.8375201    1.0499637  1010000 
 1216000   0.69982461   -4.8387393   -4.8387393   -3.7890035   0.00509829   -4.8387393    1.0497359  1010000 
 1217000   0.70027821   -4.8384571   -4.8384571   -3.7880408 0.0036173566   -4.8384571    1.0504163  1010000 
 1218000   0.70102231   -4.8380115   -4.8380115   -3.7864791 0.0071285251   -4.8380115    1.0515324  1010000 
 1219000   0.70001797   -4.8379682   -4.8379682   -3.7879423 0.0067883922   -4.8379682    1.0500259  1010000 
 1220000   0.69988417   -4.8391223   -4.8391223   -3.7892971 0.0050233893   -4.8391223    1.0498252  1010000 
 1221000   0.69903655   -4.8404807   -4.8404807   -3.7919269 0.0050462628   -4.8404807    1.0485538  1010000 
 1222000   0.69911648   -4.8411195   -4.8411195   -3.7924458 0.0043143747   -4.8411195    1.0486737  1010000 
 1223000   0.69978273   -4.8403664   -4.8403664   -3.7906934 0.0080784532   -4.8403664    1.0496731  1010000 
 1224000   0.70010758    -4.839172    -4.839172   -3.7890116  0.011091455    -4.839172    1.0501603  1010000 
 1225000   0.69994209   -4.8408583   -4.8408583   -3.7909462 0.0072703295   -4.8408583    1.0499121  1010000 
 1226000   0.69975129   -4.8411431   -4.8411431   -3.7915172 0.0051834485   -4.8411431    1.0496259  1010000 
 1227000   0.69946082   -4.8398931   -4.8398931   -3.7907029 0.0073570091   -4.8398931    1.0491902  1010000 
 1228000   0.69977076   -4.8393135   -4.8393135   -3.7896584 0.0095993979   -4.8393135    1.0496551  1010000 
 1229000    0.7004015   -4.8396037   -4.8396037   -3.7890025 0.0085561397   -4.8396037    1.0506012  1010000 
 1230000   0.69926176   -4.8400336   -4.8400336    -3.791142 0.0055561093   -4.8400336    1.0488916  1010000 
 1231000   0.69934706   -4.8412715   -4.8412715   -3.7922519  0.001064023   -4.8412715    1.0490195  1010000 
 1232000   0.70011928   -4.8399643   -4.8399643   -3.7897864 0.0034249705   -4.8399643    1.0501779  1010000 
 1233000   0.70027557   -4.8394748   -4.8394748   -3.7890625 0.0046310549   -4.8394748    1.0504123  1010000 
 1234000    0.7001491   -4.8381618   -4.8381618   -3.7879392 0.0066228096   -4.8381618    1.0502226  1010000 
 1235000    0.7003147   -4.8383226   -4.8383226   -3.7878516 0.0046625786   -4.8383226     1.050471  1010000 
 1236000   0.69970777   -4.8389439   -4.8389439   -3.7893833 -0.0012243182   -4.8389439    1.0495606  1010000 
 1237000   0.69987477   -4.8386593   -4.8386593   -3.7888482 0.0017287369   -4.8386593    1.0498111  1010000 
 1238000    0.6994946   -4.8387405   -4.8387405   -3.7894996 0.0023924738   -4.8387405    1.0492409  1010000 
 1239000   0.70012728   -4.8389189   -4.8389189    -3.788729 -0.0004081782   -4.8389189    1.0501899  1010000 
 1240000   0.69900758    -4.837574    -4.837574   -3.7890637  0.001244492    -4.837574    1.0485103  1010000 
 1241000   0.69989084   -4.8364311   -4.8364311   -3.7865958 0.0058280948   -4.8364311    1.0498352  1010000 
 1242000   0.69995894   -4.8357338   -4.8357338   -3.7857964 0.0034467392   -4.8357338    1.0499374  1010000 
 1243000   0.70049303   -4.8365917   -4.8365917   -3.7858532 0.0070055291   -4.8365917    1.0507385  1010000 
 1244000   0.69997528   -4.8373847   -4.8373847   -3.7874228   0.00435904   -4.8373847    1.0499619  1010000 
 1245000   0.69996152   -4.8385849   -4.8385849   -3.7886437 0.00096856278   -4.8385849    1.0499412  1010000 
 1246000    0.6990983    -4.838704    -4.838704   -3.7900576 0.0060300422    -4.838704    1.0486464  1010000 
 1247000   0.70010612    -4.838739    -4.838739   -3.7885809  0.003723488    -4.838739    1.0501581  1010000 
 1248000   0.69965328   -4.8385049   -4.8385049    -3.789026 0.0049950461   -4.8385049    1.0494789  1010000 
 1249000   0.70003763    -4.838521    -4.838521   -3.7884656 0.0027534272    -4.838521    1.0500554  1010000 
 1250000   0.70030788    -4.839018    -4.839018   -3.7885572 0.0045011847    -4.839018    1.0504608  1010000 
 1251000   0.70031273   -4.8392828   -4.8392828   -3.7888147 0.0052236337   -4.8392828    1.0504681  1010000 
 1252000   0.69986318   -4.8407606   -4.8407606   -3.7909668 0.0027061742   -4.8407606    1.0497937  1010000 
 1253000   0.69942673   -4.8404072   -4.8404072   -3.7912681 0.0047525751   -4.8404072    1.0491391  1010000 
 1254000   0.70007058   -4.8414544   -4.8414544   -3.7913496 0.0025546261   -4.8414544    1.0501048  1010000 
 1255000   0.70006141   -4.8392916   -4.8392916   -3.7892005  0.008955203   -4.8392916    1.0500911  1010000 
 1256000   0.70120686   -4.8393997   -4.8393997   -3.7875905  0.008893717   -4.8393997    1.0518092  1010000 
 1257000   0.70000255   -4.8395147   -4.8395147    -3.789512 0.0050371824   -4.8395147    1.0500028  1010000 
 1258000   0.69954349   -4.8396931   -4.8396931   -3.7903789 0.0069468378   -4.8396931    1.0493142  1010000 
 1259000   0.70003864   -4.8407153   -4.8407153   -3.7906584 0.0046946865   -4.8407153    1.0500569  1010000 
 1260000   0.69965877   -4.8409144   -4.8409144   -3.7914273 0.0037392825   -4.8409144    1.0494871  1010000 
 1261000   0.70071122   -4.8405186   -4.8405186   -3.7894528 0.0067247293   -4.8405186    1.0510658  1010000 
 1262000   0.70018224    -4.839011    -4.839011   -3.7887387   0.01113681    -4.839011    1.0502723  1010000 
 1263000   0.70041124   -4.8396153   -4.8396153   -3.7889994 0.0046745455   -4.8396153    1.0506158  1010000 
 1264000    0.7001907    -4.838078    -4.838078    -3.787793 0.0069489858    -4.838078     1.050285  1010000 
 1265000   0.69918876   -4.8384673   -4.8384673   -3.7896852   0.00428656   -4.8384673    1.0487821  1010000 
 1266000   0.69963986   -4.8394069   -4.8394069   -3.7899481 -0.00017894566   -4.8394069    1.0494588  1010000 
 1267000   0.70001298   -4.8385595   -4.8385595   -3.7885411 0.0076849423   -4.8385595    1.0500184  1010000 
 1268000   0.69970381   -4.8366685   -4.8366685   -3.7871138  0.012091575   -4.8366685    1.0495547  1010000 
 1269000   0.69893647   -4.8379739   -4.8379739   -3.7895702  0.004758246   -4.8379739    1.0484037  1010000 
 1270000   0.69992102   -4.8380918   -4.8380918   -3.7882113 0.0050134831   -4.8380918    1.0498805  1010000 
 1271000   0.69987491   -4.8384724   -4.8384724   -3.7886611 0.0036520771   -4.8384724    1.0498113  1010000 
 1272000   0.70055566   -4.8368613   -4.8368613   -3.7860288   0.00567601   -4.8368613    1.0508325  1010000 
 1273000   0.70019404   -4.8368455   -4.8368455   -3.7865555 0.0054536924   -4.8368455      1.05029  1010000 
 1274000   0.70009778   -4.8374467   -4.8374467   -3.7873011 0.0033222548   -4.8374467    1.0501456  1010000 
 1275000    0.7006175   -4.8380355   -4.8380355   -3.7871103 0.0027023262   -4.8380355    1.0509252  1010000 
 1276000   0.70001743    -4.838219    -4.838219    -3.788194 0.0048972993    -4.838219    1.0500251  1010000 
 1277000   0.70038219   -4.8387169   -4.8387169   -3.7881447 0.0023159745   -4.8387169    1.0505723  1010000 
 1278000   0.69981724    -4.835769    -4.835769   -3.7860442 0.0093024367    -4.835769    1.0497248  1010000 
 1279000   0.70040638   -4.8377462   -4.8377462   -3.7871376 0.0036054105   -4.8377462    1.0506085  1010000 
 1280000   0.70000953     -4.83859     -4.83859   -3.7885768 0.0066128776     -4.83859    1.0500133  1010000 
 1281000   0.70066205   -4.8389053   -4.8389053   -3.7879132 0.0036230777   -4.8389053     1.050992  1010000 
 1282000    0.7004288   -4.8373292   -4.8373292    -3.786687 0.0080347175   -4.8373292    1.0506422  1010000 
 1283000   0.69962439    -4.838246    -4.838246   -3.7888104 0.0076094583    -4.838246    1.0494355  1010000 
 1284000   0.69985828   -4.8388128   -4.8388128   -3.7890265 0.0038666036   -4.8388128    1.0497864  1010000 
 1285000   0.69871377   -4.8387464   -4.8387464   -3.7906768 0.0048224527   -4.8387464    1.0480696  1010000 
 1286000   0.69959769   -4.8387676   -4.8387676   -3.7893721 0.0056576815   -4.8387676    1.0493955  1010000 
 1287000   0.69943672   -4.8386889   -4.8386889   -3.7895348 0.0039821818   -4.8386889     1.049154  1010000 
 1288000    0.7001077   -4.8392753   -4.8392753   -3.7891148 0.0059019988   -4.8392753    1.0501605  1010000 
 1289000   0.69943363   -4.8397015   -4.8397015   -3.7905521 0.0044256677   -4.8397015    1.0491494  1010000 
 1290000   0.69981763     -4.83961     -4.83961   -3.7898846 0.0050348009     -4.83961    1.0497254  1010000 
 1291000     0.699628   -4.8374736   -4.8374736   -3.7880326   0.00689978   -4.8374736     1.049441  1010000 
 1292000   0.69996898   -4.8380949   -4.8380949   -3.7881424 0.0084407947   -4.8380949    1.0499524  1010000 
 1293000   0.69853727   -4.8388187   -4.8388187   -3.7910139 0.0043209818   -4.8388187    1.0478049  1010000 
 1294000   0.69963139   -4.8383575   -4.8383575   -3.7889114 0.0052705777   -4.8383575     1.049446  1010000 
 1295000   0.70027702   -4.8384604   -4.8384604    -3.788046 0.0029369499   -4.8384604    1.0504145  1010000 
 1296000   0.70049218   -4.8397636   -4.8397636   -3.7890263 -0.00057415888   -4.8397636    1.0507372  1010000 
 1297000   0.70045966    -4.838959    -4.838959   -3.7882706 0.0047881477    -4.838959    1.0506884  1010000 
 1298000   0.69937675   -4.8389189   -4.8389189   -3.7898548 0.0052624386   -4.8389189    1.0490641  1010000 
 1299000   0.70101901   -4.8396481   -4.8396481   -3.7881207 0.00015154033   -4.8396481    1.0515275  1010000 
 1300000   0.70105195   -4.8369946   -4.8369946   -3.7854177 0.0079030003   -4.8369946    1.0515769  1010000 
 1301000   0.69971641   -4.8373261   -4.8373261   -3.7877525 0.0049202756   -4.8373261    1.0495736  1010000 
 1302000   0.69984314   -4.8384622   -4.8384622   -3.7886985 0.0026521136   -4.8384622    1.0497637  1010000 
 1303000   0.69934372   -4.8378949   -4.8378949   -3.7888803 0.0036955428   -4.8378949    1.0490145  1010000 
 1304000   0.69976892   -4.8372176   -4.8372176   -3.7875652  0.002205282   -4.8372176    1.0496523  1010000 
 1305000   0.69961467   -4.8373227   -4.8373227   -3.7879018 0.0045117343   -4.8373227     1.049421  1010000 
 1306000   0.69920889    -4.838963    -4.838963   -3.7901508 0.0032052473    -4.838963    1.0488123  1010000 
 1307000   0.69879814   -4.8371903   -4.8371903   -3.7889941 0.0059369523   -4.8371903    1.0481962  1010000 
 1308000   0.70024283   -4.8389972   -4.8389972    -3.788634 -0.001422205   -4.8389972    1.0503632  1010000 
 1309000   0.70005946   -4.8357955   -4.8357955   -3.7857073 0.0081706865   -4.8357955    1.0500881  1010000 
 1310000   0.70026477   -4.8374853   -4.8374853   -3.7870892 0.0046781333   -4.8374853    1.0503961  1010000 
 1311000    0.7001832   -4.8381784   -4.8381784   -3.7879047 0.0021619792   -4.8381784    1.0502738  1010000 
 1312000   0.70095421   -4.8375021   -4.8375021   -3.7860718 0.0080711049   -4.8375021    1.0514303  1010000 
 1313000   0.70056868   -4.8388029   -4.8388029   -3.7879509 0.0022841466   -4.8388029     1.050852  1010000 
 1314000   0.69935655   -4.8392341   -4.8392341   -3.7902003 0.0055619348   -4.8392341    1.0490338  1010000 
 1315000   0.69929308   -4.8384864   -4.8384864   -3.7895478  0.004408228   -4.8384864    1.0489386  1010000 
 1316000   0.69976235   -4.8383186   -4.8383186   -3.7886762 0.0052149275   -4.8383186    1.0496425  1010000 
 1317000    0.7004028   -4.8398564   -4.8398564   -3.7892532 0.0044024598   -4.8398564    1.0506032  1010000 
 1318000   0.69917064   -4.8393614   -4.8393614   -3.7906065 0.0047992752   -4.8393614    1.0487549  1010000 
 1319000   0.70023573    -4.840477    -4.840477   -3.7901244 0.0018714239    -4.840477    1.0503526  1010000 
 1320000   0.69978041   -4.8381239   -4.8381239   -3.7884544 0.0068289695   -4.8381239    1.0496696  1010000 
 1321000   0.69937068   -4.8399854   -4.8399854   -3.7909304 0.0043031823   -4.8399854     1.049055  1010000 
 1322000    0.6995896   -4.8400912   -4.8400912   -3.7907078 0.0035393834   -4.8400912    1.0493834  1010000 
 1323000   0.69935819   -4.8395747   -4.8395747   -3.7905385 0.0029209127   -4.8395747    1.0490362  1010000 
 1324000   0.69975135   -4.8388353   -4.8388353   -3.7892093  0.007173108   -4.8388353     1.049626  1010000 
 1325000    0.7005763    -4.839031    -4.839031   -3.7881676 0.0053186214    -4.839031    1.0508634  1010000 
 1326000    0.6991387   -4.8398838   -4.8398838   -3.7911768  0.005438788   -4.8398838     1.048707  1010000 
 1327000   0.69952405   -4.8386516   -4.8386516   -3.7893666 0.0075101202   -4.8386516     1.049285  1010000 
 1328000   0.70076594   -4.8393832   -4.8393832   -3.7882354 0.0044961539   -4.8393832    1.0511479  1010000 
 1329000   0.69955452   -4.8382629   -4.8382629   -3.7889322 0.0089329631   -4.8382629    1.0493307  1010000 
 1330000   0.70142403   -4.8386948   -4.8386948   -3.7865598 0.0067941256   -4.8386948     1.052135  1010000 
 1331000   0.69999441   -4.8387819   -4.8387819   -3.7887913 0.0026830314   -4.8387819    1.0499906  1010000 
 1332000   0.69979435   -4.8386577   -4.8386577   -3.7889672 0.0030806675   -4.8386577    1.0496905  1010000 
 1333000    0.6998605   -4.8376129   -4.8376129   -3.7878232 0.0055973044   -4.8376129    1.0497897  1010000 
 1334000   0.69992795   -4.8378576   -4.8378576   -3.7879667 0.0061531497   -4.8378576    1.0498909  1010000 
 1335000   0.70088367   -4.8388133   -4.8388133   -3.7874888 0.00065762868   -4.8388133    1.0513245  1010000 
 1336000   0.70018646   -4.8390147   -4.8390147    -3.788736  0.001432651   -4.8390147    1.0502786  1010000 
 1337000   0.70005962   -4.8373967   -4.8373967   -3.7873083 0.0047890523   -4.8373967    1.0500884  1010000 
 1338000   0.69994346   -4.8384306   -4.8384306   -3.7885164 0.0033709098   -4.8384306    1.0499141  1010000 
 1339000   0.69890035   -4.8379382   -4.8379382   -3.7895887  0.004250058   -4.8379382    1.0483495  1010000 
 1340000   0.69966579   -4.8371296   -4.8371296    -3.787632 0.0068295999   -4.8371296    1.0494976  1010000 
 1341000   0.70057274   -4.8385324   -4.8385324   -3.7876743 0.0031221556   -4.8385324    1.0508581  1010000 
 1342000   0.69984843   -4.8361577   -4.8361577   -3.7863861  0.010070327   -4.8361577    1.0497716  1010000 
 1343000   0.70043065   -4.8388859   -4.8388859    -3.788241 0.0039743882   -4.8388859    1.0506449  1010000 
 1344000   0.69934389   -4.8392896   -4.8392896   -3.7902748  0.004310122   -4.8392896    1.0490148  1010000 
 1345000   0.69891991   -4.8380624   -4.8380624   -3.7896836 0.0050885001   -4.8380624    1.0483788  1010000 
 1346000   0.70002153   -4.8392723   -4.8392723    -3.789241  0.004387706   -4.8392723    1.0500313  1010000 
 1347000   0.69968729   -4.8374492   -4.8374492   -3.7879193  0.011543267   -4.8374492    1.0495299  1010000 
 1348000   0.69957408   -4.8386424   -4.8386424   -3.7892823 0.0066305174   -4.8386424    1.0493601  1010000 
 1349000   0.70005553   -4.8414105   -4.8414105   -3.7913283 0.00010559222   -4.8414105    1.0500823  1010000 
 1350000   0.69967781    -4.840216    -4.840216   -3.7907003 0.0053716804    -4.840216    1.0495157  1010000 
 1351000   0.70022631   -4.8399281   -4.8399281   -3.7895896 0.0036415909   -4.8399281    1.0503384  1010000 
 1352000    0.7001758   -4.8393909   -4.8393909   -3.7891283 0.0067030414   -4.8393909    1.0502627  1010000 
 1353000   0.69940387   -4.8387831   -4.8387831   -3.7896783 0.0053786203   -4.8387831    1.0491048  1010000 
 1354000   0.70061683   -4.8391806   -4.8391806   -3.7882564 0.0029613747   -4.8391806    1.0509242  1010000 
 1355000   0.70015354   -4.8387698   -4.8387698   -3.7885406 0.0019193305   -4.8387698    1.0502293  1010000 
 1356000   0.70001354   -4.8391727   -4.8391727   -3.7891534 0.0053035407   -4.8391727    1.0500193  1010000 
 1357000   0.69981812   -4.8385232   -4.8385232    -3.788797 0.0015289244   -4.8385232    1.0497261  1010000 
 1358000   0.70039603   -4.8383963   -4.8383963   -3.7878033 0.0025617539   -4.8383963     1.050593  1010000 
 1359000    0.7006425   -4.8376679   -4.8376679   -3.7867052 0.0047841284   -4.8376679    1.0509627  1010000 
 1360000   0.69977801    -4.836897    -4.836897    -3.787231 0.0029224717    -4.836897     1.049666  1010000 
 1361000   0.69930403   -4.8371013   -4.8371013   -3.7881463 0.0026244893   -4.8371013     1.048955  1010000 
 1362000   0.70023204   -4.8380015   -4.8380015   -3.7876545 -0.0016317328   -4.8380015     1.050347  1010000 
 1363000    0.6994053   -4.8360084   -4.8360084   -3.7869015 0.0026214925   -4.8360084    1.0491069  1010000 
 1364000   0.69928686    -4.836443    -4.836443   -3.7875138 -0.00042156249    -4.836443    1.0489292  1010000 
 1365000   0.70024442   -4.8371775   -4.8371775   -3.7868119 -2.3818452e-05   -4.8371775    1.0503656  1010000 
 1366000   0.70095575   -4.8368755   -4.8368755   -3.7854429 0.0020873086   -4.8368755    1.0514326  1010000 
 1367000   0.70045828   -4.8361342   -4.8361342   -3.7854478  0.006326945   -4.8361342    1.0506864  1010000 
 1368000   0.69963948   -4.8366142   -4.8366142    -3.787156 0.0015740629   -4.8366142    1.0494582  1010000 
 1369000   0.69955294   -4.8371785   -4.8371785   -3.7878501 0.0033112487   -4.8371785    1.0493284  1010000 
 1370000   0.70102831   -4.8372925   -4.8372925    -3.785751  0.008838198   -4.8372925    1.0515414  1010000 
 1371000   0.69909097   -4.8384346   -4.8384346   -3.7897991 0.0029337719   -4.8384346    1.0486354  1010000 
 1372000   0.70046765   -4.8380637   -4.8380637   -3.7873633   0.00129713   -4.8380637    1.0507004  1010000 
 1373000    0.6995137    -4.836642    -4.836642   -3.7873725 0.0066174339    -4.836642    1.0492695  1010000 
 1374000   0.69886897   -4.8383054   -4.8383054    -3.790003 0.0072440659   -4.8383054    1.0483024  1010000 
 1375000   0.70070354   -4.8401768   -4.8401768   -3.7891226 0.0085804093   -4.8401768    1.0510543  1010000 
 1376000   0.70021905   -4.8394037   -4.8394037   -3.7890761 0.0083353403   -4.8394037    1.0503275  1010000 
 1377000   0.70012075   -4.8396898   -4.8396898   -3.7895097   0.00662164   -4.8396898    1.0501801  1010000 
 1378000   0.70053202   -4.8399884   -4.8399884   -3.7891914 0.0098319606   -4.8399884     1.050797  1010000 
 1379000   0.69960481   -4.8413747   -4.8413747   -3.7919685 0.0046710505   -4.8413747    1.0494062  1010000 
 1380000   0.69977531   -4.8404086   -4.8404086   -3.7907467  0.004126142   -4.8404086    1.0496619  1010000 
 1381000   0.69993386   -4.8400927   -4.8400927    -3.790193 0.0062603589   -4.8400927    1.0498998  1010000 
 1382000   0.69973137   -4.8410982   -4.8410982   -3.7915022 0.0069333736   -4.8410982     1.049596  1010000 
 1383000   0.70067796   -4.8400919   -4.8400919    -3.789076  0.011242687   -4.8400919    1.0510159  1010000 
 1384000   0.69918644   -4.8406515   -4.8406515   -3.7918729  0.008537872   -4.8406515    1.0487786  1010000 
 1385000   0.69909053   -4.8400585   -4.8400585   -3.7914238 0.0042340075   -4.8400585    1.0486348  1010000 
 1386000   0.70028188    -4.838766    -4.838766   -3.7883442 0.0059887533    -4.838766    1.0504218  1010000 
 1387000    0.7009484   -4.8382712   -4.8382712   -3.7868497 0.0044469417   -4.8382712    1.0514216  1010000 
 1388000   0.70111411   -4.8378056   -4.8378056   -3.7861355 0.0057856022   -4.8378056    1.0516701  1010000 
 1389000   0.69973263   -4.8374728   -4.8374728   -3.7878749 0.0040142635   -4.8374728    1.0495979  1010000 
 1390000   0.69893746   -4.8384798   -4.8384798   -3.7900747 0.0010023771   -4.8384798    1.0484052  1010000 
 1391000   0.70042675   -4.8371966   -4.8371966   -3.7865575 0.0055199276   -4.8371966    1.0506391  1010000 
 1392000   0.70044656   -4.8371534   -4.8371534   -3.7864846 0.0026657085   -4.8371534    1.0506688  1010000 
 1393000      0.70031   -4.8364748   -4.8364748   -3.7860109 0.00080014135   -4.8364748     1.050464  1010000 
 1394000   0.69961034   -4.8350996   -4.8350996   -3.7856852 0.0033401282   -4.8350996    1.0494145  1010000 
 1395000   0.70015665   -4.8354273   -4.8354273   -3.7851934 0.0038673074   -4.8354273    1.0502339  1010000 
 1396000    0.7005027    -4.834402    -4.834402    -3.783649 0.0049667084    -4.834402     1.050753  1010000 
 1397000   0.70001445    -4.835512    -4.835512   -3.7854913 0.0055041726    -4.835512    1.0500206  1010000 
 1398000   0.70029341   -4.8360658   -4.8360658   -3.7856267 0.0041178854   -4.8360658    1.0504391  1010000 
 1399000   0.70004817   -4.8364265   -4.8364265   -3.7863553 0.0016406123   -4.8364265    1.0500712  1010000 
 1400000   0.70011197   -4.8371314   -4.8371314   -3.7869645 0.00014548918   -4.8371314    1.0501669  1010000 
 1401000   0.69990071   -4.8373768   -4.8373768   -3.7875268 0.0014427904   -4.8373768      1.04985  1010000 
 1402000   0.70042517   -4.8369051   -4.8369051   -3.7862684 0.0052501909   -4.8369051    1.0506367  1010000 
 1403000   0.70021397   -4.8365381   -4.8365381   -3.7862182   0.00974555   -4.8365381    1.0503199  1010000 
 1404000   0.70034521   -4.8401421   -4.8401421   -3.7896253 0.0023335495   -4.8401421    1.0505168  1010000 
 1405000   0.70104702   -4.8388875   -4.8388875    -3.787318 0.0071875716   -4.8388875    1.0515695  1010000 
 1406000   0.69950727   -4.8378478   -4.8378478   -3.7885879 0.0096308456   -4.8378478    1.0492599  1010000 
 1407000    0.7004704   -4.8385403   -4.8385403   -3.7878357 0.0069298236   -4.8385403    1.0507046  1010000 
 1408000     0.699974   -4.8387084   -4.8387084   -3.7887484  0.009787905   -4.8387084      1.04996  1010000 
 1409000   0.70021289   -4.8400694   -4.8400694   -3.7897511 0.0093354838   -4.8400694    1.0503183  1010000 
 1410000   0.70051182   -4.8402005   -4.8402005   -3.7894338 0.0080666372   -4.8402005    1.0507667  1010000 
 1411000   0.69971387   -4.8414359   -4.8414359   -3.7918661  0.007458191   -4.8414359    1.0495698  1010000 
 1412000   0.69952832   -4.8401856   -4.8401856   -3.7908942  0.011948308   -4.8401856    1.0492914  1010000 
 1413000   0.70081029   -4.8405294   -4.8405294    -3.789315   0.01083474   -4.8405294    1.0512144  1010000 
 1414000   0.69980688   -4.8408913   -4.8408913   -3.7911821 0.0057706017   -4.8408913    1.0497093  1010000 
 1415000   0.70047353   -4.8420089   -4.8420089   -3.7912996 0.0023748655   -4.8420089    1.0507092  1010000 
 1416000   0.70025601   -4.8400488   -4.8400488   -3.7896658 0.0039964254   -4.8400488     1.050383  1010000 
 1417000   0.70012083    -4.838314    -4.838314   -3.7881338 0.0047040727    -4.838314    1.0501802  1010000 
 1418000   0.70045845    -4.838078    -4.838078   -3.7873914 0.0063734396    -4.838078    1.0506866  1010000 
 1419000   0.70055388   -4.8404359   -4.8404359   -3.7896061 0.0020854116   -4.8404359    1.0508298  1010000 
 1420000   0.69996931   -4.8370456   -4.8370456   -3.7870927 0.0069722665   -4.8370456    1.0499529  1010000 
 1421000   0.69933469   -4.8366152   -4.8366152   -3.7876142 0.0085585496   -4.8366152     1.049001  1010000 
 1422000   0.70008595    -4.835491    -4.835491   -3.7853631 0.0059062803    -4.835491    1.0501279  1010000 
 1423000   0.69994864   -4.8338163   -4.8338163   -3.7838943 0.0075208671   -4.8338163    1.0499219  1010000 
 1424000   0.70015482   -4.8363616   -4.8363616   -3.7861304 -0.00036578717   -4.8363616    1.0502312  1010000 
 1425000   0.70058343   -4.8353246   -4.8353246   -3.7844505 0.0051878121   -4.8353246    1.0508741  1010000 
 1426000   0.70000608   -4.8358733   -4.8358733   -3.7858652 7.2695094e-06   -4.8358733    1.0500081  1010000 
 1427000   0.69978283   -4.8360561   -4.8360561   -3.7863829 0.0025408412   -4.8360561    1.0496732  1010000 
 1428000    0.6996109   -4.8356065   -4.8356065   -3.7861912 0.0033487442   -4.8356065    1.0494153  1010000 
 1429000    0.7005653   -4.8352088   -4.8352088   -3.7843619 0.0010825415   -4.8352088    1.0508469  1010000 
 1430000   0.70011516    -4.833992    -4.833992   -3.7838203 0.0055822445    -4.833992    1.0501717  1010000 
 1431000   0.69947727   -4.8361315   -4.8361315   -3.7869166 0.0020352104   -4.8361315    1.0492149  1010000 
 1432000   0.69984587   -4.8367675   -4.8367675   -3.7869998  0.001945412   -4.8367675    1.0497678  1010000 
 1433000   0.69997162   -4.8380188   -4.8380188   -3.7880624 -0.0018046164   -4.8380188    1.0499564  1010000 
 1434000   0.70025648   -4.8378133   -4.8378133   -3.7874296 0.0060520744   -4.8378133    1.0503837  1010000 
 1435000   0.70045368   -4.8371939   -4.8371939   -3.7865144 0.0088416779   -4.8371939    1.0506795  1010000 
 1436000   0.70022582   -4.8383827   -4.8383827   -3.7880451 0.0065253006   -4.8383827    1.0503377  1010000 
 1437000   0.70086594   -4.8388807   -4.8388807   -3.7875828 0.0050385789   -4.8388807    1.0512979  1010000 
 1438000   0.69991227   -4.8377365   -4.8377365   -3.7878691  0.007161022   -4.8377365    1.0498674  1010000 
 1439000   0.69945782   -4.8394303   -4.8394303   -3.7902446 0.0069362611   -4.8394303    1.0491857  1010000 
 1440000   0.70009261   -4.8392459   -4.8392459   -3.7891081 0.0048623501   -4.8392459    1.0501379  1010000 
 1441000   0.70064235   -4.8386573   -4.8386573   -3.7876948  0.010661063   -4.8386573    1.0509625  1010000 
 1442000   0.70034419   -4.8402978   -4.8402978   -3.7897826  0.011166009   -4.8402978    1.0505152  1010000 
 1443000   0.70026074    -4.839959    -4.839959    -3.789569   0.00702533    -4.839959    1.0503901  1010000 
 1444000   0.69970583   -4.8402477   -4.8402477     -3.79069 0.0033052467   -4.8402477    1.0495577  1010000 
 1445000   0.70007119   -4.8387944   -4.8387944   -3.7886886 0.0059393542   -4.8387944    1.0501058  1010000 
 1446000   0.70045952   -4.8391272   -4.8391272    -3.788439 0.0049587697   -4.8391272    1.0506882  1010000 
 1447000   0.69956513   -4.8386625   -4.8386625   -3.7893158 0.0054776053   -4.8386625    1.0493467  1010000 
 1448000   0.69954944   -4.8374147   -4.8374147   -3.7880916 0.0069222292   -4.8374147    1.0493231  1010000 
 1449000   0.70030406   -4.8380626   -4.8380626   -3.7876075 0.0091524013   -4.8380626     1.050455  1010000 
 1450000   0.69939416   -4.8364389   -4.8364389   -3.7873487 0.0073288612   -4.8364389    1.0490902  1010000 
 1451000   0.70039725    -4.837255    -4.837255   -3.7866602 0.0060435519    -4.837255    1.0505948  1010000 
 1452000   0.70029966   -4.8363818   -4.8363818   -3.7859333 0.0053399481   -4.8363818    1.0504484  1010000 
 1453000   0.70038888   -4.8387179   -4.8387179   -3.7881356 -0.0018265379   -4.8387179    1.0505823  1010000 
 1454000   0.70022258   -4.8365132   -4.8365132   -3.7861804 0.00057836428   -4.8365132    1.0503328  1010000 
 1455000   0.70011326   -4.8359193   -4.8359193   -3.7857505 0.0060517044   -4.8359193    1.0501688  1010000 
 1456000   0.69950676   -4.8371504   -4.8371504   -3.7878913 0.0044924165   -4.8371504    1.0492591  1010000 
 1457000   0.70002484   -4.8372757   -4.8372757   -3.7872395  0.002531477   -4.8372757    1.0500362  1010000 
 1458000   0.69960152   -4.8369979   -4.8369979   -3.7875967 0.0011940155   -4.8369979    1.0494012  1010000 
 1459000   0.70043638   -4.8367186   -4.8367186    -3.786065 0.0018208403   -4.8367186    1.0506535  1010000 
 1460000   0.70020802   -4.8358182   -4.8358182   -3.7855072 0.0020936854   -4.8358182     1.050311  1010000 
 1461000   0.70094479   -4.8365323   -4.8365323   -3.7851161 0.0028884193   -4.8365323    1.0514161  1010000 
 1462000   0.70048214   -4.8362823   -4.8362823   -3.7855602 0.0025737487   -4.8362823    1.0507222  1010000 
 1463000   0.70034279   -4.8373612   -4.8373612    -3.786848 0.0030518382   -4.8373612    1.0505131  1010000 
 1464000   0.69954865   -4.8384785   -4.8384785   -3.7891565 0.0019464479   -4.8384785    1.0493219  1010000 
 1465000   0.69946673   -4.8388063   -4.8388063   -3.7896073 0.0033750983   -4.8388063    1.0491991  1010000 
 1466000   0.69931282   -4.8384929   -4.8384929   -3.7895247 0.0018691861   -4.8384929    1.0489682  1010000 
 1467000   0.69966069   -4.8373431   -4.8373431   -3.7878531 0.0065389012   -4.8373431      1.04949  1010000 
 1468000   0.70023852   -4.8380182   -4.8380182   -3.7876615 0.0060360593   -4.8380182    1.0503567  1010000 
 1469000    0.7007824   -4.8386977   -4.8386977   -3.7875252  0.008125733   -4.8386977    1.0511726  1010000 
 1470000   0.69972436   -4.8392725   -4.8392725    -3.789687 0.0058528821   -4.8392725    1.0495855  1010000 
 1471000   0.69974778   -4.8390591   -4.8390591   -3.7894385 0.0060924108   -4.8390591    1.0496206  1010000 
 1472000   0.70053507   -4.8402316   -4.8402316   -3.7894301 0.0078131563   -4.8402316    1.0508016  1010000 
 1473000   0.69995831   -4.8395295   -4.8395295   -3.7895931  0.010815274   -4.8395295    1.0499364  1010000 
 1474000   0.70034081    -4.840408    -4.840408   -3.7898979 0.0064154649    -4.840408    1.0505102  1010000 
 1475000   0.70004643   -4.8408185   -4.8408185   -3.7907499 0.0029978236   -4.8408185    1.0500686  1010000 
 1476000   0.69935749   -4.8414697   -4.8414697   -3.7924345 -0.0016008946   -4.8414697    1.0490352  1010000 
 1477000   0.69932228   -4.8389137   -4.8389137   -3.7899313 0.0079178623   -4.8389137    1.0489824  1010000 
 1478000   0.70022468   -4.8384095   -4.8384095   -3.7880736 0.0085354138   -4.8384095     1.050336  1010000 
 1479000   0.70001305   -4.8394815   -4.8394815    -3.789463 0.0063263057   -4.8394815    1.0500185  1010000 
 1480000   0.70055286   -4.8394049   -4.8394049   -3.7885766  0.006459443   -4.8394049    1.0508283  1010000 
 1481000   0.69942477    -4.839179    -4.839179   -3.7900428 0.0023298792    -4.839179    1.0491361  1010000 
 1482000     0.700246   -4.8362115   -4.8362115   -3.7858436 0.0061766343   -4.8362115     1.050368  1010000 
 1483000    0.7000181   -4.8383585   -4.8383585   -3.7883324 0.0010964012   -4.8383585    1.0500261  1010000 
 1484000   0.69967622   -4.8374367   -4.8374367   -3.7879234 0.0024041395   -4.8374367    1.0495133  1010000 
 1485000   0.70016647   -4.8356206   -4.8356206    -3.785372 0.0051679717   -4.8356206    1.0502487  1010000 
 1486000   0.70058171   -4.8374333   -4.8374333   -3.7865617 0.0022411364   -4.8374333    1.0508715  1010000 
 1487000    0.7005221   -4.8362742   -4.8362742   -3.7854921  0.007289542   -4.8362742    1.0507821  1010000 
 1488000   0.70092796   -4.8363608   -4.8363608   -3.7849699 0.0039678531   -4.8363608    1.0513909  1010000 
 1489000   0.69951459    -4.836026    -4.836026   -3.7867551 0.0034836747    -4.836026    1.0492708  1010000 
 1490000   0.69982959    -4.835149    -4.835149   -3.7854057 0.0063361816    -4.835149    1.0497434  1010000 
 1491000   0.70042398   -4.8362063   -4.8362063   -3.7855714 0.0016838424   -4.8362063    1.0506349  1010000 
 1492000   0.70024805   -4.8374687   -4.8374687   -3.7870977 -7.3170593e-05   -4.8374687     1.050371  1010000 
 1493000   0.69926556   -4.8369095   -4.8369095   -3.7880122 0.0072116445   -4.8369095    1.0488973  1010000 
 1494000    0.7005819   -4.8387682   -4.8387682   -3.7878964  0.002141636   -4.8387682    1.0508718  1010000 
 1495000   0.70008021   -4.8372346   -4.8372346   -3.7871153 0.0080190549   -4.8372346    1.0501193  1010000 
 1496000   0.69882481   -4.8390999   -4.8390999   -3.7908637 0.00073608706   -4.8390999    1.0482362  1010000 
 1497000   0.69967677   -4.8388008   -4.8388008   -3.7892867 0.0042118842   -4.8388008    1.0495141  1010000 
 1498000    0.7004074   -4.8377631   -4.8377631   -3.7871531 0.0075347799   -4.8377631    1.0506101  1010000 
 1499000   0.69920287   -4.8388769   -4.8388769   -3.7900737  0.006020911   -4.8388769    1.0488033  1010000 
 1500000   0.70068996   -4.8387336   -4.8387336   -3.7876998 0.0073794895   -4.8387336    1.0510339  1010000 
 1501000   0.69981025   -4.8411562   -4.8411562   -3.7914418 0.0023322806   -4.8411562    1.0497143  1010000 
 1502000    0.6990448    -4.840813    -4.840813   -3.7922469  0.006004212    -4.840813    1.0485662  1010000 
 1503000   0.69959143   -4.8400316   -4.8400316   -3.7906455 0.0066108028   -4.8400316    1.0493861  1010000 
 1504000   0.70008962   -4.8392863   -4.8392863    -3.789153 0.0066584777   -4.8392863    1.0501334  1010000 
 1505000   0.70018268     -4.83868     -4.83868    -3.788407 0.0062243901     -4.83868     1.050273  1010000 
 1506000   0.69951492   -4.8394366   -4.8394366   -3.7901653 0.0043457731   -4.8394366    1.0492713  1010000 
 1507000   0.69985889   -4.8401582   -4.8401582   -3.7903709 0.0036005797   -4.8401582    1.0497873  1010000 
 1508000   0.69927172   -4.8388028   -4.8388028   -3.7898963 0.0078295791   -4.8388028    1.0489065  1010000 
 1509000   0.70020507   -4.8395787   -4.8395787   -3.7892721 0.0023722992   -4.8395787    1.0503066  1010000 
 1510000   0.70090593   -4.8378769   -4.8378769    -3.786519 0.0080424209   -4.8378769    1.0513579  1010000 
 1511000   0.70056674   -4.8382997   -4.8382997   -3.7874506 0.0033829579   -4.8382997    1.0508491  1010000 
 1512000   0.70000024   -4.8368619   -4.8368619   -3.7868626 0.0024797264   -4.8368619    1.0499993  1010000 
 1513000   0.70059163   -4.8352279   -4.8352279   -3.7843415  0.005425087   -4.8352279    1.0508864  1010000 
 1514000   0.70036135   -4.8364702   -4.8364702   -3.7859292 0.0021537087   -4.8364702     1.050541  1010000 
 1515000   0.70011916   -4.8375782   -4.8375782   -3.7874005 0.00050790116   -4.8375782    1.0501777  1010000 
 1516000    0.6993909   -4.8377227   -4.8377227   -3.7886374 0.0016085346   -4.8377227    1.0490853  1010000 
 1517000   0.70000545   -4.8373469   -4.8373469   -3.7873397 -0.00034599297   -4.8373469    1.0500071  1010000 
 1518000   0.69991121   -4.8363625   -4.8363625   -3.7864967 0.0027042569   -4.8363625    1.0498658  1010000 
 1519000   0.70038249    -4.836156    -4.836156   -3.7855833 -0.00057959732    -4.836156    1.0505727  1010000 
 1520000   0.69967761   -4.8364688   -4.8364688   -3.7869534   0.00370963   -4.8364688    1.0495154  1010000 
 1521000   0.69974296   -4.8372817   -4.8372817   -3.7876683 0.0011840828   -4.8372817    1.0496134  1010000 
 1522000   0.70040884   -4.8367662   -4.8367662    -3.786154 0.0040900921   -4.8367662    1.0506122  1010000 
 1523000   0.69975384   -4.8366552   -4.8366552   -3.7870255 0.0068669411   -4.8366552    1.0496297  1010000 
 1524000   0.70084433   -4.8388846   -4.8388846   -3.7876191 0.0047231306   -4.8388846    1.0512654  1010000 
 1525000   0.69926611    -4.839683    -4.839683   -3.7907848 0.0051575384    -4.839683    1.0488981  1010000 
 1526000    0.6986819   -4.8377355   -4.8377355   -3.7897137 0.0076460843   -4.8377355    1.0480218  1010000 
 1527000   0.69942293   -4.8385819   -4.8385819   -3.7894485 0.0034980742   -4.8385819    1.0491334  1010000 
 1528000   0.70010209   -4.8394996   -4.8394996   -3.7893475 0.0069389609   -4.8394996    1.0501521  1010000 
 1529000   0.69969619   -4.8398938   -4.8398938   -3.7903505  0.005083021   -4.8398938    1.0495433  1010000 
 1530000   0.69990086    -4.838828    -4.838828   -3.7889777 0.0063620993    -4.838828    1.0498503  1010000 
 1531000   0.70070244   -4.8404978   -4.8404978   -3.7894451   0.00616204   -4.8404978    1.0510526  1010000 
 1532000   0.70020832   -4.8389569   -4.8389569   -3.7886455   0.01035563   -4.8389569    1.0503114  1010000 
 1533000   0.69926607   -4.8381128   -4.8381128   -3.7892147 0.0086828022   -4.8381128    1.0488981  1010000 
 1534000   0.69946906   -4.8386886   -4.8386886    -3.789486  0.010183086   -4.8386886    1.0492026  1010000 
 1535000   0.69931975   -4.8387968   -4.8387968   -3.7898182 0.0078525404   -4.8387968    1.0489786  1010000 
 1536000   0.69968846   -4.8386087   -4.8386087   -3.7890771 0.0038584228   -4.8386087    1.0495316  1010000 
 1537000   0.70043568   -4.8376741   -4.8376741   -3.7870216 0.0073869376   -4.8376741    1.0506525  1010000 
 1538000   0.69984029   -4.8383631   -4.8383631   -3.7886037 0.0062501572   -4.8383631    1.0497594  1010000 
 1539000   0.70053762   -4.8390519   -4.8390519   -3.7882465 0.0031534423   -4.8390519    1.0508054  1010000 
 1540000   0.70021182   -4.8376966   -4.8376966   -3.7873799 0.0054171562   -4.8376966    1.0503167  1010000 
 1541000   0.69959409   -4.8383801   -4.8383801     -3.78899 0.0042960487   -4.8383801    1.0493901  1010000 
 1542000   0.70031446   -4.8377202   -4.8377202   -3.7872496 0.0017502999   -4.8377202    1.0504707  1010000 
 1543000   0.70008541   -4.8359118   -4.8359118   -3.7857848 0.0056980242   -4.8359118    1.0501271  1010000 
 1544000    0.6998534   -4.8365116   -4.8365116   -3.7867325 0.0041888308   -4.8365116    1.0497791  1010000 
 1545000   0.69966958   -4.8365305   -4.8365305   -3.7870271 0.0052046635   -4.8365305    1.0495033  1010000 
 1546000   0.70006137   -4.8371654   -4.8371654   -3.7870744 -0.00044017358   -4.8371654     1.050091  1010000 
 1547000   0.69923784   -4.8369843   -4.8369843   -3.7881286 0.0017929644   -4.8369843    1.0488557  1010000 
 1548000   0.70018644   -4.8376819   -4.8376819   -3.7874033 0.00096776191   -4.8376819    1.0502786  1010000 
 1549000   0.70027613   -4.8364386   -4.8364386   -3.7860254 0.0068931109   -4.8364386    1.0504131  1010000 
 1550000   0.69971275   -4.8369803   -4.8369803   -3.7874122 0.0028376398   -4.8369803    1.0495681  1010000 
 1551000   0.69998331   -4.8358158   -4.8358158   -3.7858419 0.0012579816   -4.8358158    1.0499739  1010000 
 1552000   0.69899952   -4.8340651   -4.8340651   -3.7855669 0.0093438631   -4.8340651    1.0484982  1010000 
 1553000   0.70014908   -4.8353448   -4.8353448   -3.7851222 0.0086718095   -4.8353448    1.0502226  1010000 
 1554000   0.69958114    -4.836891    -4.836891   -3.7875203 0.0075940354    -4.836891    1.0493707  1010000 
 1555000   0.69935704   -4.8367976   -4.8367976   -3.7877631 0.0066734806   -4.8367976    1.0490345  1010000 
 1556000   0.70070962   -4.8365201   -4.8365201   -3.7854567 0.0095408651   -4.8365201    1.0510634  1010000 
 1557000    0.7007588   -4.8384098   -4.8384098   -3.7872726 0.0022860946   -4.8384098    1.0511372  1010000 
 1558000   0.70053965   -4.8375192   -4.8375192   -3.7867108 0.0048770553   -4.8375192    1.0508084  1010000 
 1559000   0.69969054   -4.8386006   -4.8386006   -3.7890658 0.0045184223   -4.8386006    1.0495348  1010000 
 1560000   0.69990699   -4.8384792   -4.8384792   -3.7886198 0.0027859162   -4.8384792    1.0498594  1010000 
 1561000   0.69961584   -4.8393083   -4.8393083   -3.7898856 0.0060340461   -4.8393083    1.0494227  1010000 
 1562000   0.70106344   -4.8389006   -4.8389006   -3.7873065 0.0085648824   -4.8389006    1.0515941  1010000 
 1563000   0.70053778   -4.8392751   -4.8392751   -3.7884694  0.006444156   -4.8392751    1.0508056  1010000 
 1564000    0.7008741    -4.839245    -4.839245   -3.7879349 0.0024496902    -4.839245    1.0513101  1010000 
 1565000   0.69914292   -4.8394015   -4.8394015   -3.7906882 0.0025425312   -4.8394015    1.0487133  1010000 
 1566000   0.69981706   -4.8384734   -4.8384734   -3.7887489 0.0066475738   -4.8384734    1.0497246  1010000 
 1567000   0.70017768   -4.8376651   -4.8376651   -3.7873996 0.0078067525   -4.8376651    1.0502655  1010000 
 1568000   0.69986916   -4.8396489   -4.8396489   -3.7898461 0.0025706246   -4.8396489    1.0498027  1010000 
 1569000   0.69956192   -4.8391342   -4.8391342   -3.7897924 0.0053133054   -4.8391342    1.0493418  1010000 
 1570000   0.70113969    -4.838692    -4.838692   -3.7869835 0.0063018398    -4.838692    1.0517085  1010000 
 1571000   0.70012804   -4.8390921   -4.8390921   -3.7889011 0.0043565835   -4.8390921     1.050191  1010000 
 1572000   0.69980751   -4.8376847   -4.8376847   -3.7879745 0.0048644927   -4.8376847    1.0497102  1010000 
 1573000   0.70034963   -4.8385177   -4.8385177   -3.7879943 0.0045789731   -4.8385177    1.0505234  1010000 
 1574000   0.70007752   -4.8381951   -4.8381951   -3.7880799 0.0015865866   -4.8381951    1.0501152  1010000 
 1575000   0.69968269   -4.8385611   -4.8385611   -3.7890381 0.0034506776   -4.8385611     1.049523  1010000 
 1576000   0.69940407   -4.8377764   -4.8377764   -3.7886713 0.0076691169   -4.8377764    1.0491051  1010000 
 1577000   0.69966064   -4.8375154   -4.8375154   -3.7880255 0.0053093289   -4.8375154    1.0494899  1010000 
 1578000   0.70167861   -4.8384449   -4.8384449    -3.785928 0.0050373647   -4.8384449    1.0525169  1010000 
 1579000   0.70034572   -4.8383563   -4.8383563   -3.7878387 0.0043776945   -4.8383563    1.0505175  1010000 
 1580000   0.69970418   -4.8385341   -4.8385341   -3.7889789 -0.001532596   -4.8385341    1.0495552  1010000 
 1581000   0.70018427   -4.8377865   -4.8377865   -3.7875112 0.0035875574   -4.8377865    1.0502754  1010000 
 1582000   0.70025089   -4.8374009   -4.8374009   -3.7870256 0.0036082106   -4.8374009    1.0503753  1010000 
 1583000   0.70014793   -4.8382084   -4.8382084   -3.7879875 0.0054418743   -4.8382084    1.0502208  1010000 
 1584000   0.69993998    -4.837408    -4.837408   -3.7874991 0.0055492886    -4.837408    1.0499089  1010000 
 1585000   0.70096849   -4.8382186   -4.8382186   -3.7867669  0.006280948   -4.8382186    1.0514517  1010000 
 1586000   0.70020066   -4.8385371   -4.8385371   -3.7882371 0.0034529564   -4.8385371       1.0503  1010000 
 1587000   0.69951786   -4.8384302   -4.8384302   -3.7891545 0.0031329323   -4.8384302    1.0492757  1010000 
 1588000   0.70094235   -4.8360818   -4.8360818   -3.7846693 0.0075242986   -4.8360818    1.0514125  1010000 
 1589000   0.69981091   -4.8369907   -4.8369907   -3.7872754 0.0045083166   -4.8369907    1.0497153  1010000 
 1590000   0.70031139   -4.8370035   -4.8370035   -3.7865374  0.006425824   -4.8370035     1.050466  1010000 
 1591000   0.69967672   -4.8377162   -4.8377162   -3.7882022 0.0085270703   -4.8377162     1.049514  1010000 
 1592000   0.70014813   -4.8393133   -4.8393133   -3.7890922  0.006889346   -4.8393133    1.0502211  1010000 
 1593000   0.70069571   -4.8402582   -4.8402582   -3.7892157 0.0037130723   -4.8402582    1.0510425  1010000 
 1594000   0.70023426    -4.837486    -4.837486   -3.7871356 0.0080479622    -4.837486    1.0503503  1010000 
 1595000   0.70051046   -4.8369967   -4.8369967   -3.7862321 0.0080721661   -4.8369967    1.0507647  1010000 
 1596000   0.69985821   -4.8389816   -4.8389816   -3.7891953 0.0038124241   -4.8389816    1.0497863  1010000 
 1597000   0.69956371   -4.8385057   -4.8385057   -3.7891611 0.0054023908   -4.8385057    1.0493445  1010000 
 1598000   0.69994418   -4.8390553   -4.8390553   -3.7891401 0.0037296265   -4.8390553    1.0499152  1010000 
 1599000   0.70030933   -4.8394843   -4.8394843   -3.7890213 0.0092559477   -4.8394843     1.050463  1010000 
 1600000   0.70078402   -4.8391494   -4.8391494   -3.7879744 0.0080691403   -4.8391494     1.051175  1010000 
 1601000   0.69966436   -4.8384201   -4.8384201   -3.7889246 0.0090342635   -4.8384201    1.0494955  1010000 
 1602000   0.69915241     -4.83917     -4.83917   -3.7904424 0.0036014086     -4.83917    1.0487276  1010000 
 1603000   0.69910923   -4.8377294   -4.8377294   -3.7890666 0.0057324452   -4.8377294    1.0486628  1010000 
 1604000   0.70057475   -4.8375231   -4.8375231    -3.786662 0.0066543115   -4.8375231    1.0508611  1010000 
 1605000    0.6998104   -4.8372977   -4.8372977   -3.7875831 0.0045418283   -4.8372977    1.0497146  1010000 
 1606000   0.70040175   -4.8389984   -4.8389984   -3.7883968 0.0032533144   -4.8389984    1.0506016  1010000 
 1607000     0.698898   -4.8368388   -4.8368388   -3.7884929 0.0074929546   -4.8368388     1.048346  1010000 
 1608000   0.69963712   -4.8392398   -4.8392398   -3.7897851 0.0052452807   -4.8392398    1.0494546  1010000 
 1609000   0.70047077   -4.8383738   -4.8383738   -3.7876687 0.0010862414   -4.8383738    1.0507051  1010000 
 1610000   0.70104557   -4.8357792   -4.8357792   -3.7842119 0.0068254873   -4.8357792    1.0515673  1010000 
 1611000   0.70022281   -4.8376267   -4.8376267   -3.7872935 -0.00032386876   -4.8376267    1.0503332  1010000 
 1612000   0.70010872   -4.8355726   -4.8355726   -3.7854106 0.0026494908   -4.8355726     1.050162  1010000 
 1613000    0.7008393    -4.836558    -4.836558   -3.7853001  0.004823295    -4.836558    1.0512579  1010000 
 1614000   0.69920075   -4.8379148   -4.8379148   -3.7891147 0.0028518782   -4.8379148    1.0488001  1010000 
 1615000   0.69994576   -4.8379998   -4.8379998   -3.7880822 0.0024366088   -4.8379998    1.0499176  1010000 
 1616000    0.6998166   -4.8360017   -4.8360017   -3.7862779 0.0073040903   -4.8360017    1.0497239  1010000 
 1617000   0.70091098   -4.8367225   -4.8367225   -3.7853571 0.0022875312   -4.8367225    1.0513654  1010000 
 1618000   0.70060101   -4.8358229   -4.8358229   -3.7849224 0.0073412658   -4.8358229    1.0509005  1010000 
 1619000   0.70074717   -4.8370818   -4.8370818   -3.7859621 0.0065096637   -4.8370818    1.0511197  1010000 
 1620000   0.70040972   -4.8368879   -4.8368879   -3.7862743 0.0068909651   -4.8368879    1.0506135  1010000 
 1621000   0.70003251   -4.8382691   -4.8382691   -3.7882214 0.0045890391   -4.8382691    1.0500477  1010000 
 1622000   0.69922248   -4.8376363   -4.8376363   -3.7888036  0.002956651   -4.8376363    1.0488327  1010000 
 1623000   0.69925235   -4.8383851   -4.8383851   -3.7895076 0.0015096542   -4.8383851    1.0488775  1010000 
 1624000   0.69906127   -4.8377487   -4.8377487   -3.7891578 0.0033275396   -4.8377487    1.0485909  1010000 
 1625000   0.70003064   -4.8373876   -4.8373876   -3.7873426 0.0039348678   -4.8373876    1.0500449  1010000 
 1626000   0.70017116   -4.8376599   -4.8376599   -3.7874042  0.003963082   -4.8376599    1.0502557  1010000 
 1627000   0.70058607   -4.8382508   -4.8382508   -3.7873728 0.0051351963   -4.8382508    1.0508781  1010000 
 1628000   0.70058516   -4.8388796   -4.8388796   -3.7880029  0.004383916   -4.8388796    1.0508767  1010000 
 1629000   0.69948783   -4.8387284   -4.8387284   -3.7894977 0.0033224118   -4.8387284    1.0492307  1010000 
 1630000   0.70004557   -4.8391354   -4.8391354    -3.789068 0.0039733784   -4.8391354    1.0500673  1010000 
 1631000    0.7004867    -4.838278    -4.838278    -3.787549 0.0058682899    -4.838278     1.050729  1010000 
 1632000   0.69962348   -4.8390573   -4.8390573   -3.7896231 0.0031913839   -4.8390573    1.0494342  1010000 
 1633000   0.69956697   -4.8400035   -4.8400035   -3.7906541 0.0034856109   -4.8400035    1.0493494  1010000 
 1634000   0.69971138   -4.8371582   -4.8371582   -3.7875922  0.010406793   -4.8371582     1.049566  1010000 
 1635000   0.69915297   -4.8388405   -4.8388405   -3.7901121 0.0048958673   -4.8388405    1.0487284  1010000 
 1636000   0.70020595   -4.8386759   -4.8386759   -3.7883681 0.0074656324   -4.8386759    1.0503079  1010000 
 1637000   0.70016614   -4.8397925   -4.8397925   -3.7895443 0.0046112687   -4.8397925    1.0502482  1010000 
 1638000   0.69994202   -4.8387071   -4.8387071   -3.7887951  0.002725637   -4.8387071     1.049912  1010000 
 1639000   0.69980368   -4.8395346   -4.8395346   -3.7898301 0.0025240727   -4.8395346    1.0497045  1010000 
 1640000    0.7001261   -4.8384848   -4.8384848   -3.7882967 0.0072008278   -4.8384848    1.0501881  1010000 
 1641000   0.70028694   -4.8386463   -4.8386463    -3.788217 0.0050441783   -4.8386463    1.0504294  1010000 
 1642000    0.6995103   -4.8392895   -4.8392895   -3.7900251 0.0023907441   -4.8392895    1.0492644  1010000 
 1643000   0.70071327   -4.8388624   -4.8388624   -3.7877935   0.00509173   -4.8388624    1.0510689  1010000 
 1644000   0.69972065   -4.8386097   -4.8386097   -3.7890298 0.0061569658   -4.8386097    1.0495799  1010000 
 1645000   0.70003221   -4.8384868   -4.8384868   -3.7884395 0.0057347155   -4.8384868    1.0500473  1010000 
 1646000   0.70057466   -4.8375394   -4.8375394   -3.7866785 0.0084944547   -4.8375394     1.050861  1010000 
 1647000   0.70059702   -4.8378345   -4.8378345     -3.78694 0.0039364051   -4.8378345    1.0508945  1010000 
 1648000   0.70045551   -4.8376338   -4.8376338   -3.7869516 0.0064166057   -4.8376338    1.0506822  1010000 
 1649000   0.69874764   -4.8381309   -4.8381309   -3.7900105 0.0058195403   -4.8381309    1.0481204  1010000 
 1650000   0.69889486   -4.8374989   -4.8374989   -3.7891576 0.0050532413   -4.8374989    1.0483413  1010000 
 1651000   0.70021503     -4.83828     -4.83828   -3.7879585 0.0049843445     -4.83828    1.0503215  1010000 
 1652000   0.70004652   -4.8396927   -4.8396927   -3.7896239 0.0024385988   -4.8396927    1.0500687  1010000 
 1653000    0.6999144   -4.8389209   -4.8389209   -3.7890503 0.0031895864   -4.8389209    1.0498706  1010000 
 1654000   0.70052344    -4.837663    -4.837663   -3.7868789  0.001523544    -4.837663    1.0507841  1010000 
 1655000   0.70049696   -4.8364401   -4.8364401   -3.7856957 0.0034687774   -4.8364401    1.0507444  1010000 
 1656000   0.70059173   -4.8372415   -4.8372415   -3.7863549 0.0049070154   -4.8372415    1.0508866  1010000 
 1657000    0.7005272   -4.8393004   -4.8393004   -3.7885106 0.0024007106   -4.8393004    1.0507898  1010000 
 1658000   0.70033548   -4.8384786   -4.8384786   -3.7879764 0.0034387162   -4.8384786    1.0505022  1010000 
 1659000   0.70066332   -4.8389121   -4.8389121   -3.7879182 0.0030540182   -4.8389121    1.0509939  1010000 
 1660000   0.70044479   -4.8388867   -4.8388867   -3.7882205 0.0039318521   -4.8388867    1.0506661  1010000 
 1661000   0.70000213   -4.8387414   -4.8387414   -3.7887392 0.0045276386   -4.8387414    1.0500022  1010000 
 1662000   0.69852273   -4.8392169   -4.8392169   -3.7914339 0.00092687371   -4.8392169    1.0477831  1010000 
 1663000   0.69942129   -4.8370045   -4.8370045   -3.7878736 0.0069752096   -4.8370045    1.0491309  1010000 
 1664000   0.69955545   -4.8374583   -4.8374583   -3.7881262 0.0065633414   -4.8374583    1.0493321  1010000 
 1665000   0.69980969   -4.8395133   -4.8395133   -3.7897998 0.0055680827   -4.8395133    1.0497135  1010000 
 1666000   0.70007162   -4.8403016   -4.8403016   -3.7901952 0.0054266502   -4.8403016    1.0501064  1010000 
 1667000   0.70046814   -4.8397238   -4.8397238   -3.7890227 0.0057904201   -4.8397238    1.0507012  1010000 
 1668000   0.69898453   -4.8385797   -4.8385797   -3.7901039 0.0057719252   -4.8385797    1.0484758  1010000 
 1669000   0.69926191   -4.8402129   -4.8402129   -3.7913211 0.0015300604   -4.8402129    1.0488918  1010000 
 1670000   0.69972903    -4.839524    -4.839524   -3.7899315 0.0040570586    -4.839524    1.0495925  1010000 
 1671000   0.69995469   -4.8384113   -4.8384113   -3.7884803 0.0050685462   -4.8384113     1.049931  1010000 
 1672000   0.70057138    -4.837844    -4.837844   -3.7869879  0.010761356    -4.837844     1.050856  1010000 
 1673000    0.6997507   -4.8383519   -4.8383519   -3.7887269  0.006326905   -4.8383519     1.049625  1010000 
 1674000   0.69996456   -4.8398383   -4.8398383   -3.7898925 0.0047465913   -4.8398383    1.0499458  1010000 
 1675000   0.69927111   -4.8389428   -4.8389428   -3.7900372 0.0019334581   -4.8389428    1.0489056  1010000 
 1676000   0.69930538   -4.8365015   -4.8365015   -3.7875445 0.0085444249   -4.8365015     1.048957  1010000 
 1677000   0.70041344   -4.8379424   -4.8379424   -3.7873233  0.004335315   -4.8379424    1.0506191  1010000 
 1678000   0.70057278   -4.8378754   -4.8378754   -3.7870173 0.0049206551   -4.8378754    1.0508581  1010000 
 1679000   0.69950935   -4.8383266   -4.8383266   -3.7890636 0.0041171576   -4.8383266     1.049263  1010000 
 1680000   0.69981256   -4.8377108   -4.8377108    -3.787993 0.0020782089   -4.8377108    1.0497178  1010000 
 1681000   0.70023528   -4.8371808   -4.8371808   -3.7868289 0.0027253952   -4.8371808    1.0503519  1010000 
 1682000   0.70074766    -4.837618    -4.837618   -3.7864975 0.0030767267    -4.837618    1.0511205  1010000 
 1683000   0.70128693    -4.836079    -4.836079   -3.7841496 0.0059384348    -4.836079    1.0519294  1010000 
 1684000   0.70017067   -4.8373147   -4.8373147   -3.7870597 0.0024038576   -4.8373147     1.050255  1010000 
 1685000   0.69935833   -4.8358616   -4.8358616   -3.7868251 0.0043528125   -4.8358616    1.0490365  1010000 
 1686000   0.70013464   -4.8363785   -4.8363785   -3.7861776  0.006590764   -4.8363785    1.0502009  1010000 
 1687000   0.70098882   -4.8371499   -4.8371499   -3.7856677 0.0042949468   -4.8371499    1.0514822  1010000 
 1688000   0.69928935   -4.8359807   -4.8359807   -3.7870477 0.0053500208   -4.8359807     1.048933  1010000 
 1689000   0.69918539    -4.836407    -4.836407     -3.78763 0.0067321517    -4.836407     1.048777  1010000 
 1690000   0.69975213   -4.8369021   -4.8369021    -3.787275 0.0046318966   -4.8369021    1.0496272  1010000 
 1691000    0.6998027   -4.8359223   -4.8359223   -3.7862193  0.008764887   -4.8359223     1.049703  1010000 
 1692000   0.70019606   -4.8378767   -4.8378767   -3.7875836 0.0023626183   -4.8378767    1.0502931  1010000 
 1693000   0.69967224   -4.8374023   -4.8374023   -3.7878949 0.0049695591   -4.8374023    1.0495073  1010000 
 1694000   0.69864565   -4.8378088   -4.8378088   -3.7898413 0.0019906908   -4.8378088    1.0479674  1010000 
 1695000     0.699823   -4.8382578   -4.8382578   -3.7885243 0.0038120379   -4.8382578    1.0497335  1010000 
 1696000   0.69988708    -4.839694    -4.839694   -3.7898645 0.00018049737    -4.839694    1.0498296  1010000 
 1697000   0.69941598   -4.8381432   -4.8381432   -3.7890203 0.0056748857   -4.8381432    1.0491229  1010000 
 1698000    0.6999791   -4.8382885   -4.8382885   -3.7883208  0.002597736   -4.8382885    1.0499676  1010000 
 1699000    0.6994559   -4.8372439   -4.8372439   -3.7880611 0.0055436405   -4.8372439    1.0491828  1010000 
 1700000   0.69995677    -4.837504    -4.837504   -3.7875699 0.0094384605    -4.837504    1.0499341  1010000 
 1701000   0.70034524   -4.8375042   -4.8375042   -3.7869873 0.0080382562   -4.8375042    1.0505168  1010000 
 1702000   0.69986769   -4.8386518   -4.8386518   -3.7888513 0.0065032091   -4.8386518    1.0498005  1010000 
 1703000   0.69934149    -4.839324    -4.839324   -3.7903128 0.0047884548    -4.839324    1.0490112  1010000 
 1704000   0.69981132   -4.8404218   -4.8404218   -3.7907059 -0.000690004   -4.8404218    1.0497159  1010000 
 1705000   0.70004746   -4.8381712   -4.8381712    -3.788101 0.0050239457   -4.8381712    1.0500701  1010000 
 1706000   0.70127189   -4.8383058   -4.8383058    -3.786399 0.0040270401   -4.8383058    1.0519068  1010000 
 1707000   0.70007494   -4.8375463   -4.8375463   -3.7874349 0.0055748105   -4.8375463    1.0501114  1010000 
 1708000   0.69990543    -4.835544    -4.835544   -3.7856869 0.0053205811    -4.835544    1.0498571  1010000 
 1709000   0.70003962   -4.8389839   -4.8389839   -3.7889255 0.0027164237   -4.8389839    1.0500584  1010000 
 1710000   0.69909762   -4.8371876   -4.8371876   -3.7885422 0.0053763225   -4.8371876    1.0486454  1010000 
 1711000   0.70042653   -4.8369265   -4.8369265   -3.7862877 0.0066793785   -4.8369265    1.0506388  1010000 
 1712000    0.7001463   -4.8363364   -4.8363364    -3.786118 0.0072846634   -4.8363364    1.0502184  1010000 
 1713000   0.69948827   -4.8384098   -4.8384098   -3.7891785 0.00053129753   -4.8384098    1.0492314  1010000 
 1714000   0.69918073   -4.8366421   -4.8366421    -3.787872 0.0044660895   -4.8366421    1.0487701  1010000 
 1715000   0.70036298   -4.8356917   -4.8356917   -3.7851483 0.0072718728   -4.8356917    1.0505434  1010000 
 1716000   0.70162838   -4.8376133   -4.8376133   -3.7851718 0.0022727253   -4.8376133    1.0524415  1010000 
 1717000    0.7000389   -4.8373327   -4.8373327   -3.7872754 0.0024231608   -4.8373327    1.0500573  1010000 
 1718000   0.70008311   -4.8384329   -4.8384329   -3.7883093 -0.0002222074   -4.8384329    1.0501236  1010000 
 1719000   0.70009506   -4.8384562   -4.8384562   -3.7883147 0.0026446978   -4.8384562    1.0501416  1010000 
 1720000   0.70062346    -4.836849    -4.836849   -3.7859148  0.004302203    -4.836849    1.0509342  1010000 
 1721000   0.69978065   -4.8379992   -4.8379992   -3.7883292 0.0034420218   -4.8379992    1.0496699  1010000 
 1722000   0.70055497   -4.8370466   -4.8370466   -3.7862152 0.0082486032   -4.8370466    1.0508314  1010000 
 1723000   0.70021809   -4.8382789   -4.8382789   -3.7879528 0.0034437326   -4.8382789    1.0503261  1010000 
 1724000   0.70021264   -4.8375003   -4.8375003   -3.7871824 0.0088115996   -4.8375003    1.0503179  1010000 
 1725000   0.69997745   -4.8387163   -4.8387163   -3.7887511 0.0041762178   -4.8387163    1.0499651  1010000 
 1726000   0.69939636   -4.8390885   -4.8390885    -3.789995 0.0027404221   -4.8390885    1.0490935  1010000 
 1727000   0.69948418   -4.8393336   -4.8393336   -3.7901084 0.0021266118   -4.8393336    1.0492252  1010000 
 1728000   0.70027625   -4.8389592   -4.8389592   -3.7885459 0.0054693478   -4.8389592    1.0504133  1010000 
 1729000   0.69980963   -4.8391697   -4.8391697   -3.7894563 0.0050867636   -4.8391697    1.0497134  1010000 
 1730000   0.69971117   -4.8403624   -4.8403624   -3.7907967 0.0033864546   -4.8403624    1.0495657  1010000 
 1731000   0.69991177   -4.8382798   -4.8382798   -3.7884131 0.0076583364   -4.8382798    1.0498666  1010000 
 1732000   0.70114181   -4.8398821   -4.8398821   -3.7881704 0.0043276415   -4.8398821    1.0517117  1010000 
 1733000   0.70056113   -4.8381978   -4.8381978   -3.7873571 0.0087385814   -4.8381978    1.0508407  1010000 
 1734000   0.69966216   -4.8375587   -4.8375587   -3.7880665 0.0060559115   -4.8375587    1.0494922  1010000 
 1735000   0.69902345   -4.8387252   -4.8387252   -3.7901911 0.0030183312   -4.8387252    1.0485341  1010000 
 1736000   0.69983653   -4.8392436   -4.8392436   -3.7894899 0.0044210096   -4.8392436    1.0497538  1010000 
 1737000   0.69939888   -4.8395481   -4.8395481   -3.7904508 0.0030326184   -4.8395481    1.0490973  1010000 
 1738000   0.69969465    -4.837877    -4.837877   -3.7883361 0.0054555935    -4.837877    1.0495409  1010000 
 1739000   0.70014246   -4.8379606   -4.8379606    -3.787748 0.0060807403   -4.8379606    1.0502126  1010000 
 1740000   0.69970779   -4.8377556   -4.8377556   -3.7881949 0.0041275003   -4.8377556    1.0495606  1010000 
 1741000   0.70007802   -4.8379674   -4.8379674   -3.7878515 0.0022698192   -4.8379674     1.050116  1010000 
 1742000   0.69985422   -4.8382876   -4.8382876   -3.7885073 0.00095332262   -4.8382876    1.0497803  1010000 
 1743000   0.69961911   -4.8382004   -4.8382004   -3.7887728 0.0006983586   -4.8382004    1.0494276  1010000 
 1744000   0.70011078   -4.8390312   -4.8390312   -3.7888661  0.002896272   -4.8390312    1.0501651  1010000 
 1745000   0.69855245   -4.8396898   -4.8396898   -3.7918622 0.0029615054   -4.8396898    1.0478276  1010000 
 1746000    0.7003063   -4.8388697   -4.8388697   -3.7884113  0.002386112   -4.8388697    1.0504584  1010000 
 1747000     0.700263   -4.8376287   -4.8376287   -3.7872352 0.0048106148   -4.8376287    1.0503935  1010000 
 1748000   0.69952694   -4.8394031   -4.8394031   -3.7901137 0.00076064598   -4.8394031    1.0492894  1010000 
 1749000   0.69948417   -4.8380769   -4.8380769   -3.7888517 0.0044466383   -4.8380769    1.0492252  1010000 
 1750000   0.69999541   -4.8401494   -4.8401494   -3.7901573 0.00021313334   -4.8401494    1.0499921  1010000 
 1751000   0.70024142   -4.8386927   -4.8386927   -3.7883316 0.0084041955   -4.8386927    1.0503611  1010000 
 1752000   0.70104722   -4.8398517   -4.8398517   -3.7882819  0.008195816   -4.8398517    1.0515698  1010000 
 1753000   0.70052413   -4.8403233   -4.8403233   -3.7895382 0.0049052306   -4.8403233    1.0507852  1010000 
 1754000   0.69962751    -4.839447    -4.839447   -3.7900068 0.0025064624    -4.839447    1.0494402  1010000 
 1755000   0.69963344   -4.8387521   -4.8387521   -3.7893029 0.0063577546   -4.8387521    1.0494491  1010000 
 1756000    0.6998409   -4.8392479   -4.8392479   -3.7894876 0.0053192004   -4.8392479    1.0497603  1010000 
 1757000    0.6992819   -4.8393527   -4.8393527   -3.7904309 0.0065977347   -4.8393527    1.0489218  1010000 
 1758000   0.70038373   -4.8399118   -4.8399118   -3.7893373 0.0062990499   -4.8399118    1.0505746  1010000 
 1759000   0.70025244   -4.8401283   -4.8401283   -3.7897507 0.0047317061   -4.8401283    1.0503776  1010000 
 1760000   0.69917616   -4.8395156   -4.8395156   -3.7907524 0.0043345423   -4.8395156    1.0487632  1010000 
 1761000    0.6986566   -4.8385898   -4.8385898    -3.790606 0.0047766705   -4.8385898    1.0479839  1010000 
 1762000   0.70071764   -4.8388713   -4.8388713   -3.7877959 0.0046870124   -4.8388713    1.0510754  1010000 
 1763000   0.69958306   -4.8383741   -4.8383741   -3.7890006 0.0058831551   -4.8383741    1.0493735  1010000 
 1764000    0.6997089   -4.8373055   -4.8373055   -3.7877431 0.0045482807   -4.8373055    1.0495623  1010000 
 1765000   0.70023879   -4.8375606   -4.8375606   -3.7872035 0.0078295327   -4.8375606    1.0503571  1010000 
 1766000    0.6999387   -4.8377227   -4.8377227   -3.7878157 0.0045682329   -4.8377227     1.049907  1010000 
 1767000   0.70027371   -4.8384164   -4.8384164   -3.7880069 0.0025333813   -4.8384164    1.0504095  1010000 
 1768000   0.69948096   -4.8375885   -4.8375885   -3.7883681 0.0051738752   -4.8375885    1.0492204  1010000 
 1769000   0.69973938   -4.8387605   -4.8387605   -3.7891524 0.0027469421   -4.8387605     1.049608  1010000 
 1770000   0.69874784   -4.8370516   -4.8370516   -3.7889308 0.0055481715   -4.8370516    1.0481207  1010000 
 1771000   0.69934337   -4.8380495   -4.8380495   -3.7890355 0.0043554958   -4.8380495     1.049014  1010000 
 1772000   0.69959586   -4.8380797   -4.8380797   -3.7886869 0.0033544008   -4.8380797    1.0493927  1010000 
 1773000   0.69971701   -4.8392338   -4.8392338   -3.7896593 0.0028363039   -4.8392338    1.0495745  1010000 
 1774000   0.70008975   -4.8389692   -4.8389692   -3.7888356 0.0020847514   -4.8389692    1.0501336  1010000 
 1775000   0.70095391   -4.8383542   -4.8383542   -3.7869244 0.0051272709   -4.8383542    1.0514298  1010000 
 1776000   0.70083692    -4.837861    -4.837861   -3.7866067  0.008282622    -4.837861    1.0512543  1010000 
 1777000   0.70051421   -4.8386742   -4.8386742   -3.7879039 0.0043491839   -4.8386742    1.0507703  1010000 
 1778000   0.69907456    -4.839458    -4.839458   -3.7908472 0.0049273191    -4.839458    1.0486108  1010000 
 1779000   0.69978475   -4.8385736   -4.8385736   -3.7888975 0.0060000371   -4.8385736    1.0496761  1010000 
 1780000   0.70010903   -4.8389567   -4.8389567   -3.7887942 0.0050077393   -4.8389567    1.0501625  1010000 
 1781000   0.70102974    -4.839206    -4.839206   -3.7876624 0.0053086353    -4.839206    1.0515436  1010000 
 1782000   0.70081292   -4.8392841   -4.8392841   -3.7880657 0.0053092666   -4.8392841    1.0512183  1010000 
 1783000   0.69969045   -4.8397974   -4.8397974   -3.7902628 0.0022733735   -4.8397974    1.0495346  1010000 
 1784000   0.69922414   -4.8396017   -4.8396017   -3.7907665 0.0037505402   -4.8396017    1.0488352  1010000 
 1785000   0.69932578   -4.8389163   -4.8389163   -3.7899287 0.0060278789   -4.8389163    1.0489876  1010000 
 1786000   0.70010719   -4.8376666   -4.8376666   -3.7875068 0.0083769198   -4.8376666    1.0501597  1010000 
 1787000   0.69956879   -4.8395151   -4.8395151    -3.790163 0.0041192405   -4.8395151    1.0493521  1010000 
 1788000    0.6999048   -4.8393762   -4.8393762   -3.7895201 0.0027401878   -4.8393762    1.0498562  1010000 
 1789000   0.69985456   -4.8377004   -4.8377004   -3.7879196  0.005951061   -4.8377004    1.0497808  1010000 
 1790000   0.70076491    -4.839246    -4.839246   -3.7880996 0.0046795877    -4.839246    1.0511463  1010000 
 1791000   0.70003874   -4.8384707   -4.8384707   -3.7884136 0.0081377634   -4.8384707    1.0500571  1010000 
 1792000   0.70014221   -4.8398815   -4.8398815   -3.7896692 0.0042589077   -4.8398815    1.0502123  1010000 
 1793000   0.70104055   -4.8394455   -4.8394455   -3.7878857 0.0055851427   -4.8394455    1.0515598  1010000 
 1794000   0.70046265   -4.8373254   -4.8373254   -3.7866325 0.0061313535   -4.8373254    1.0506929  1010000 
 1795000   0.69949981   -4.8393924   -4.8393924   -3.7901437 0.0018597837   -4.8393924    1.0492487  1010000 
 1796000   0.70023555   -4.8371679   -4.8371679   -3.7868156 0.0053344535   -4.8371679    1.0503523  1010000 
 1797000   0.69969275   -4.8371278   -4.8371278   -3.7875897 0.0062009606   -4.8371278    1.0495381  1010000 
 1798000   0.69935331    -4.839564    -4.839564    -3.790535 0.0036466403    -4.839564    1.0490289  1010000 
 1799000   0.69963354    -4.838304    -4.838304   -3.7888547  0.003178301    -4.838304    1.0494493  1010000 
 1800000   0.69982159   -4.8384473   -4.8384473   -3.7887159 0.0034906569   -4.8384473    1.0497313  1010000 
 1801000   0.70066018   -4.8386469   -4.8386469   -3.7876577 0.0044807936   -4.8386469    1.0509892  1010000 
 1802000   0.69946162    -4.838659    -4.838659   -3.7894676 0.00090538781    -4.838659    1.0491914  1010000 
 1803000   0.69988348   -4.8376951   -4.8376951    -3.787871 0.0019420999   -4.8376951    1.0498242  1010000 
 1804000   0.69957849   -4.8372942   -4.8372942   -3.7879275 0.0075898763   -4.8372942    1.0493667  1010000 
 1805000   0.69889682   -4.8387738   -4.8387738   -3.7904296 0.0017872896   -4.8387738    1.0483442  1010000 
 1806000    0.7001403   -4.8390687   -4.8390687   -3.7888593  0.004040117   -4.8390687    1.0502094  1010000 
 1807000   0.70074825   -4.8387474   -4.8387474    -3.787626 0.0043931049   -4.8387474    1.0511213  1010000 
 1808000   0.70120131   -4.8380997   -4.8380997   -3.7862988 0.0060822499   -4.8380997    1.0518009  1010000 
 1809000   0.70044122   -4.8385761   -4.8385761   -3.7879153 0.0043395092   -4.8385761    1.0506608  1010000 
 1810000   0.70041809   -4.8377394   -4.8377394   -3.7871133 0.0039905718   -4.8377394    1.0506261  1010000 
 1811000   0.69974479   -4.8392537   -4.8392537   -3.7896375 0.0019547332   -4.8392537    1.0496161  1010000 
 1812000   0.70000471   -4.8387606   -4.8387606   -3.7887545 0.0053409874   -4.8387606     1.050006  1010000 
 1813000   0.69991079   -4.8401034   -4.8401034   -3.7902382 0.0033153759   -4.8401034    1.0498651  1010000 
 1814000   0.69973085   -4.8394564   -4.8394564   -3.7898612 0.0052595231   -4.8394564    1.0495952  1010000 
 1815000   0.70005098    -4.839583    -4.839583   -3.7895076 0.0032560568    -4.839583    1.0500754  1010000 
 1816000   0.70040744   -4.8395311   -4.8395311    -3.788921 0.0049108161   -4.8395311    1.0506101  1010000 
 1817000   0.69965328   -4.8369314   -4.8369314   -3.7874525  0.008670438   -4.8369314    1.0494789  1010000 
 1818000   0.69992157   -4.8376226   -4.8376226   -3.7877412  0.003078869   -4.8376226    1.0498813  1010000 
 1819000    0.6997293   -4.8383599   -4.8383599    -3.788767 0.0035100464   -4.8383599    1.0495929  1010000 
 1820000   0.69902715   -4.8379276   -4.8379276   -3.7893879 0.0042022405   -4.8379276    1.0485397  1010000 
 1821000   0.69966694   -4.8388481   -4.8388481   -3.7893488 0.0068541995   -4.8388481    1.0494994  1010000 
 1822000   0.70066732   -4.8393459   -4.8393459    -3.788346  0.004194126   -4.8393459    1.0509999  1010000 
 1823000   0.70088371   -4.8393603   -4.8393603   -3.7880358 0.0061264592   -4.8393603    1.0513245  1010000 
 1824000    0.7010825   -4.8384266   -4.8384266   -3.7868039 0.0075156584   -4.8384266    1.0516227  1010000 
 1825000   0.69903065   -4.8382613   -4.8382613   -3.7897164 -7.8138027e-05   -4.8382613    1.0485449  1010000 
 1826000   0.69982343   -4.8378212   -4.8378212   -3.7880871 0.0032592624   -4.8378212    1.0497341  1010000 
 1827000   0.70045093   -4.8379031   -4.8379031   -3.7872277 0.0059454078   -4.8379031    1.0506754  1010000 
 1828000   0.70016509   -4.8386362   -4.8386362   -3.7883896 0.0033351317   -4.8386362    1.0502466  1010000 
 1829000   0.70029193   -4.8391876   -4.8391876   -3.7887508 0.0018464529   -4.8391876    1.0504369  1010000 
 1830000   0.69937712   -4.8394742   -4.8394742   -3.7904096 0.0063199724   -4.8394742    1.0490646  1010000 
 1831000   0.70084143   -4.8382597   -4.8382597   -3.7869986  0.011380775   -4.8382597    1.0512611  1010000 
 1832000   0.69969311   -4.8385607   -4.8385607   -3.7890221 0.0051461392   -4.8385607    1.0495386  1010000 
 1833000   0.69886288   -4.8394271   -4.8394271   -3.7911339 0.0022242265   -4.8394271    1.0482933  1010000 
 1834000   0.69969569   -4.8390014   -4.8390014   -3.7894589 0.0020917821   -4.8390014    1.0495425  1010000 
 1835000   0.69951093   -4.8377646   -4.8377646   -3.7884993 0.0056739239   -4.8377646    1.0492653  1010000 
 1836000   0.69872812   -4.8390037   -4.8390037   -3.7909125 0.0066212081   -4.8390037    1.0480911  1010000 
 1837000   0.70020869   -4.8381093   -4.8381093   -3.7877974 0.0061737636   -4.8381093     1.050312  1010000 
 1838000   0.70061703   -4.8391424   -4.8391424   -3.7882179 0.0034123023   -4.8391424    1.0509245  1010000 
 1839000   0.70021489   -4.8394763   -4.8394763    -3.789155 0.0049834891   -4.8394763    1.0503213  1010000 
 1840000   0.70069188   -4.8390865   -4.8390865   -3.7880497 0.0074962308   -4.8390865    1.0510368  1010000 
 1841000   0.69935953   -4.8385746   -4.8385746   -3.7895363  0.008781172   -4.8385746    1.0490383  1010000 
 1842000   0.70019608   -4.8390675   -4.8390675   -3.7887745 0.0039561829   -4.8390675    1.0502931  1010000 
 1843000   0.70051673   -4.8378924   -4.8378924   -3.7871184 0.0085172449   -4.8378924    1.0507741  1010000 
 1844000   0.70027658   -4.8388832   -4.8388832   -3.7884694 0.0039949304   -4.8388832    1.0504138  1010000 
 1845000   0.69868539   -4.8387313   -4.8387313   -3.7907042 0.0061555288   -4.8387313     1.048027  1010000 
 1846000   0.70051346   -4.8399466   -4.8399466   -3.7891774 0.0028240173   -4.8399466    1.0507692  1010000 
 1847000   0.70079861   -4.8384377   -4.8384377   -3.7872409 0.0079312345   -4.8384377    1.0511969  1010000 
 1848000   0.70042337   -4.8391882   -4.8391882   -3.7885542 0.0051712305   -4.8391882     1.050634  1010000 
 1849000   0.70056204   -4.8378701   -4.8378701   -3.7870281 0.0077343654   -4.8378701     1.050842  1010000 
 1850000   0.70039655   -4.8366471   -4.8366471   -3.7860533 0.0081430959   -4.8366471    1.0505938  1010000 
 1851000   0.69996804   -4.8369549   -4.8369549   -3.7870038 0.0065520575   -4.8369549     1.049951  1010000 
 1852000   0.69859308   -4.8380027   -4.8380027   -3.7901142 0.0039965201   -4.8380027    1.0478886  1010000 
 1853000   0.69982386   -4.8382167   -4.8382167    -3.788482  0.003857642   -4.8382167    1.0497348  1010000 
 1854000   0.69984483   -4.8378427   -4.8378427   -3.7880765 0.0063956171   -4.8378427    1.0497662  1010000 
 1855000   0.70142846   -4.8384611   -4.8384611   -3.7863195 0.0053275715   -4.8384611    1.0521416  1010000 
 1856000   0.70050374   -4.8386019   -4.8386019   -3.7878474 0.0037989895   -4.8386019    1.0507546  1010000 
 1857000   0.70043433   -4.8378184   -4.8378184   -3.7871679 0.00084599452   -4.8378184    1.0506505  1010000 
 1858000   0.69945812   -4.8370179   -4.8370179   -3.7878318 0.0047649239   -4.8370179    1.0491861  1010000 
 1859000   0.70035031   -4.8366249   -4.8366249   -3.7861005 0.0028016047   -4.8366249    1.0505244  1010000 
 1860000   0.69938507    -4.835296    -4.835296   -3.7862195 0.0086315177    -4.835296    1.0490766  1010000 
 1861000   0.70028996   -4.8367227   -4.8367227   -3.7862888 0.0064549224   -4.8367227    1.0504339  1010000 
 1862000   0.70034341   -4.8387397   -4.8387397   -3.7882257 0.0017770401   -4.8387397    1.0505141  1010000 
 1863000   0.69982487   -4.8367828   -4.8367828   -3.7870466 0.0079662753   -4.8367828    1.0497363  1010000 
 1864000   0.69993773   -4.8376443   -4.8376443   -3.7877388 0.0037963648   -4.8376443    1.0499056  1010000 
 1865000   0.70014748   -4.8358118   -4.8358118   -3.7855917 0.0077401613   -4.8358118    1.0502202  1010000 
 1866000   0.70062611   -4.8365809   -4.8365809   -3.7856428 0.0049908417   -4.8365809    1.0509381  1010000 
 1867000   0.70033614   -4.8371799   -4.8371799   -3.7866768 0.0025041571   -4.8371799    1.0505032  1010000 
 1868000   0.69943154   -4.8371429   -4.8371429   -3.7879967 0.0060646438   -4.8371429    1.0491463  1010000 
 1869000   0.69918903   -4.8371581   -4.8371581   -3.7883756 0.0054066861   -4.8371581    1.0487825  1010000 
 1870000   0.69979887   -4.8383597   -4.8383597   -3.7886624 0.0040475058   -4.8383597    1.0496973  1010000 
 1871000   0.70090594   -4.8371886   -4.8371886   -3.7858307 0.0083463902   -4.8371886    1.0513579  1010000 
 1872000   0.69965918    -4.838048    -4.838048   -3.7885603 0.0033998128    -4.838048    1.0494877  1010000 
 1873000   0.70017529   -4.8375385   -4.8375385   -3.7872766 0.0012546865   -4.8375385    1.0502619  1010000 
 1874000   0.70115264   -4.8381378   -4.8381378   -3.7864099  0.002622231   -4.8381378    1.0517279  1010000 
 1875000   0.69973418   -4.8382059   -4.8382059   -3.7886056 0.0021241016   -4.8382059    1.0496002  1010000 
 1876000   0.69908184    -4.838411    -4.838411   -3.7897893 0.0044128151    -4.838411    1.0486217  1010000 
 1877000   0.69953576    -4.838151    -4.838151   -3.7888484 0.0061167708    -4.838151    1.0493026  1010000 
 1878000   0.69953291   -4.8377524   -4.8377524   -3.7884541 0.0059251626   -4.8377524    1.0492983  1010000 
 1879000   0.69992677   -4.8376927   -4.8376927   -3.7878036 0.0060124445   -4.8376927    1.0498891  1010000 
 1880000   0.69956094   -4.8362125   -4.8362125   -3.7868721  0.009642389   -4.8362125    1.0493404  1010000 
 1881000   0.70004395   -4.8380414   -4.8380414   -3.7879765  0.000405888   -4.8380414    1.0500649  1010000 
 1882000    0.7003357   -4.8376691   -4.8376691   -3.7871666 0.0041134734   -4.8376691    1.0505025  1010000 
 1883000   0.70064354    -4.837685    -4.837685   -3.7867207 0.0058492751    -4.837685    1.0509643  1010000 
 1884000   0.70012908   -4.8372177   -4.8372177   -3.7870251 0.0045786072   -4.8372177    1.0501926  1010000 
 1885000   0.69970948   -4.8374953   -4.8374953   -3.7879321  0.005689774   -4.8374953    1.0495632  1010000 
 1886000   0.69967359   -4.8376233   -4.8376233   -3.7881139 0.0044559575   -4.8376233    1.0495093  1010000 
 1887000   0.69983714   -4.8371004   -4.8371004   -3.7873457 0.0042096553   -4.8371004    1.0497547  1010000 
 1888000   0.69996126   -4.8365178   -4.8365178   -3.7865769 0.0031108429   -4.8365178    1.0499409  1010000 
 1889000   0.69940019   -4.8369839   -4.8369839   -3.7878846 0.0033520466   -4.8369839    1.0490992  1010000 
 1890000    0.7003336   -4.8375185   -4.8375185   -3.7870191 0.0043804325   -4.8375185    1.0504994  1010000 
 1891000    0.6998734   -4.8373012   -4.8373012   -3.7874921 0.0047866126   -4.8373012    1.0498091  1010000 
 1892000   0.69854872   -4.8376765   -4.8376765   -3.7898545 0.0048772117   -4.8376765     1.047822  1010000 
 1893000   0.69990703   -4.8378403   -4.8378403   -3.7879808 0.0044894554   -4.8378403    1.0498595  1010000 
 1894000    0.7003633   -4.8384641   -4.8384641   -3.7879202 0.0018792234   -4.8384641    1.0505439  1010000 
 1895000   0.70039043   -4.8375296   -4.8375296    -3.786945  0.003862574   -4.8375296    1.0505846  1010000 
 1896000   0.69983283    -4.838018    -4.838018   -3.7882698 0.0019297212    -4.838018    1.0497482  1010000 
 1897000   0.69956905   -4.8369246   -4.8369246    -3.787572 0.0058715261   -4.8369246    1.0493525  1010000 
 1898000   0.70052333   -4.8389718   -4.8389718   -3.7881879 0.0027009944   -4.8389718     1.050784  1010000 
 1899000   0.69992094   -4.8382855   -4.8382855   -3.7884051 0.0043878252   -4.8382855    1.0498804  1010000 
 1900000   0.69923461   -4.8379733   -4.8379733   -3.7891225 0.0053506119   -4.8379733    1.0488509  1010000 
 1901000   0.69942639   -4.8393484   -4.8393484   -3.7902099 -7.7990319e-05   -4.8393484    1.0491385  1010000 
 1902000   0.69951993   -4.8382531   -4.8382531   -3.7889742  0.007064826   -4.8382531    1.0492789  1010000 
 1903000   0.70005237   -4.8375866   -4.8375866   -3.7875091 0.0057540339   -4.8375866    1.0500775  1010000 
 1904000   0.69956106   -4.8364063   -4.8364063   -3.7870658  0.006606231   -4.8364063    1.0493406  1010000 
 1905000   0.70022786    -4.839762    -4.839762   -3.7894213 -0.00082304097    -4.839762    1.0503408  1010000 
 1906000   0.69962424   -4.8379638   -4.8379638   -3.7885285  0.000203304   -4.8379638    1.0494353  1010000 
 1907000   0.70088746   -4.8388119   -4.8388119   -3.7874817 0.0061359042   -4.8388119    1.0513301  1010000 
 1908000   0.70010743   -4.8385778   -4.8385778   -3.7884177  0.004375327   -4.8385778    1.0501601  1010000 
 1909000   0.69961098   -4.8384609   -4.8384609   -3.7890455 0.0016458695   -4.8384609    1.0494154  1010000 
 1910000   0.70041071   -4.8389585   -4.8389585   -3.7883435 0.0044606501   -4.8389585     1.050615  1010000 
 1911000   0.69913465   -4.8373471   -4.8373471   -3.7886462 0.0058669229   -4.8373471    1.0487009  1010000 
 1912000   0.69958784   -4.8392355   -4.8392355   -3.7898548 0.0031302938   -4.8392355    1.0493807  1010000 
 1913000   0.69998135   -4.8399561   -4.8399561   -3.7899851 -0.0010232016   -4.8399561     1.049971  1010000 
 1914000   0.70103953   -4.8387312   -4.8387312    -3.787173 0.0054512392   -4.8387312    1.0515583  1010000 
 1915000   0.70062447   -4.8388958   -4.8388958   -3.7879602 0.0059697662   -4.8388958    1.0509357  1010000 
 1916000   0.69944156   -4.8402711   -4.8402711   -3.7911098 0.0043365922   -4.8402711    1.0491613  1010000 
 1917000   0.70049223   -4.8400071   -4.8400071   -3.7892698 0.0011845883   -4.8400071    1.0507373  1010000 
 1918000   0.70070129   -4.8391397   -4.8391397   -3.7880888 0.0049420886   -4.8391397    1.0510509  1010000 
 1919000   0.69995458   -4.8392973   -4.8392973   -3.7893664 0.0060461731   -4.8392973    1.0499308  1010000 
 1920000   0.70046732   -4.8395112   -4.8395112   -3.7888113 0.0051176531   -4.8395112    1.0506999  1010000 
 1921000   0.70048475   -4.8391141   -4.8391141    -3.788388 0.0047269787   -4.8391141    1.0507261  1010000 
 1922000   0.70008468   -4.8393334   -4.8393334   -3.7892075 0.0050385491   -4.8393334     1.050126  1010000 
 1923000   0.70020589   -4.8385983   -4.8385983   -3.7882905 0.0067569578   -4.8385983    1.0503078  1010000 
 1924000   0.70027432   -4.8387693   -4.8387693   -3.7883588 0.0053001302   -4.8387693    1.0504104  1010000 
 1925000   0.69910738   -4.8377884   -4.8377884   -3.7891284 0.0039846531   -4.8377884      1.04866  1010000 
 1926000   0.69925192   -4.8380225   -4.8380225   -3.7891457 0.0038534862   -4.8380225    1.0488768  1010000 
 1927000   0.70027166   -4.8374567   -4.8374567   -3.7870502 0.0052547088   -4.8374567    1.0504065  1010000 
 1928000   0.70010341   -4.8384923   -4.8384923   -3.7883382  0.003022988   -4.8384923    1.0501541  1010000 
 1929000     0.700809   -4.8387175   -4.8387175   -3.7875051 0.0038546653   -4.8387175    1.0512125  1010000 
 1930000   0.70048527   -4.8384517   -4.8384517   -3.7877249 0.0040630516   -4.8384517    1.0507269  1010000 
 1931000   0.69932582   -4.8375561   -4.8375561   -3.7885684 0.0025467662   -4.8375561    1.0489877  1010000 
 1932000   0.70026784   -4.8365315   -4.8365315   -3.7861307 0.0054988636   -4.8365315    1.0504007  1010000 
 1933000   0.69983025   -4.8384786   -4.8384786   -3.7887342 0.0010720396   -4.8384786    1.0497443  1010000 
 1934000   0.69999635   -4.8377572   -4.8377572   -3.7877637  0.005758471   -4.8377572    1.0499935  1010000 
 1935000   0.70016291   -4.8373012   -4.8373012   -3.7870579 0.0068542698   -4.8373012    1.0502433  1010000 
 1936000   0.69982095   -4.8368867   -4.8368867   -3.7871563 0.0089121229   -4.8368867    1.0497304  1010000 
 1937000   0.69993478   -4.8378773   -4.8378773   -3.7879762 0.0070510879   -4.8378773    1.0499011  1010000 
 1938000   0.69994065   -4.8372292   -4.8372292   -3.7873193 0.0089813337   -4.8372292    1.0499099  1010000 
 1939000   0.69952081   -4.8386657   -4.8386657   -3.7893855 0.0024915773   -4.8386657    1.0492802  1010000 
 1940000   0.69943211   -4.8383261   -4.8383261    -3.789179 0.0030283642   -4.8383261    1.0491471  1010000 
 1941000    0.7004584   -4.8390419   -4.8390419   -3.7883553 0.0035855145   -4.8390419    1.0506866  1010000 
 1942000   0.70055414   -4.8395292   -4.8395292   -3.7886991 0.0033859973   -4.8395292    1.0508302  1010000 
 1943000   0.70029255   -4.8381333   -4.8381333   -3.7876955 0.0087400436   -4.8381333    1.0504378  1010000 
 1944000   0.69948362   -4.8392294   -4.8392294    -3.790005 0.0061088304   -4.8392294    1.0492244  1010000 
 1945000   0.69949651   -4.8375974   -4.8375974   -3.7883536 0.0074145365   -4.8375974    1.0492437  1010000 
 1946000   0.69978576   -4.8369332   -4.8369332   -3.7872556 0.0081492179   -4.8369332    1.0496776  1010000 
 1947000    0.7008662   -4.8374247   -4.8374247   -3.7861265 0.0085786568   -4.8374247    1.0512983  1010000 
 1948000   0.69961275    -4.838866    -4.838866    -3.789448 0.00034545173    -4.838866    1.0494181  1010000 
 1949000   0.69972751   -4.8377192   -4.8377192    -3.788129 0.0054392381   -4.8377192    1.0495902  1010000 
 1950000   0.70001231   -4.8378803   -4.8378803   -3.7878629 0.0082961804   -4.8378803    1.0500174  1010000 
 1951000   0.69941636   -4.8380302   -4.8380302   -3.7889067 0.0061239553   -4.8380302    1.0491235  1010000 
 1952000   0.69997204   -4.8383311   -4.8383311    -3.788374 0.0032983267   -4.8383311     1.049957  1010000 
 1953000    0.6997537   -4.8384697   -4.8384697   -3.7888402 0.0038070074   -4.8384697    1.0496295  1010000 
 1954000   0.70011224   -4.8372628   -4.8372628   -3.7870955 0.0039030892   -4.8372628    1.0501673  1010000 
 1955000   0.69941036    -4.836924    -4.836924   -3.7878095 0.0074400605    -4.836924    1.0491145  1010000 
 1956000   0.69945437   -4.8387317   -4.8387317   -3.7895512 0.0008431302   -4.8387317    1.0491805  1010000 
 1957000   0.70027405   -4.8382206   -4.8382206   -3.7878106 0.0031380542   -4.8382206      1.05041  1010000 
 1958000   0.69972297   -4.8370051   -4.8370051   -3.7874217 0.0057925651   -4.8370051    1.0495834  1010000 
 1959000   0.69935253   -4.8391013   -4.8391013   -3.7900736 0.0045768987   -4.8391013    1.0490278  1010000 
 1960000   0.70016278   -4.8387717   -4.8387717   -3.7885286 0.0032260218   -4.8387717    1.0502431  1010000 
 1961000   0.70036912   -4.8384068   -4.8384068   -3.7878542 0.0020232186   -4.8384068    1.0505526  1010000 
 1962000   0.70013997   -4.8393273   -4.8393273   -3.7891184 0.00033627728   -4.8393273    1.0502089  1010000 
 1963000   0.69870165   -4.8388454   -4.8388454    -3.790794 0.0059588225   -4.8388454    1.0480514  1010000 
 1964000   0.69948498   -4.8384266   -4.8384266   -3.7892002 0.0051071343   -4.8384266    1.0492264  1010000 
 1965000   0.70063383     -4.83817     -4.83817   -3.7872203 0.0058854466     -4.83817    1.0509497  1010000 
 1966000   0.70003075   -4.8390994   -4.8390994   -3.7890543  0.005715029   -4.8390994    1.0500451  1010000 
 1967000   0.69906481   -4.8387616   -4.8387616   -3.7901654 0.0075494147   -4.8387616    1.0485962  1010000 
 1968000   0.70050646   -4.8373571   -4.8373571   -3.7865985  0.010014022   -4.8373571    1.0507587  1010000 
 1969000   0.70079436   -4.8386758   -4.8386758   -3.7874853 0.0045575854   -4.8386758    1.0511905  1010000 
 1970000   0.70009654    -4.838173    -4.838173   -3.7880292 0.0075201735    -4.838173    1.0501438  1010000 
 1971000   0.70128995   -4.8396389   -4.8396389   -3.7877051 0.0074661424   -4.8396389    1.0519339  1010000 
 1972000   0.69959069   -4.8394829   -4.8394829   -3.7900979 0.0058667904   -4.8394829     1.049385  1010000 
 1973000   0.69946735   -4.8394186   -4.8394186   -3.7902186 0.0031403809   -4.8394186       1.0492  1010000 
 1974000   0.70053862   -4.8389035   -4.8389035   -3.7880966 0.0022160219   -4.8389035    1.0508069  1010000 
 1975000   0.70141424   -4.8385716   -4.8385716   -3.7864513 0.0038809664   -4.8385716    1.0521203  1010000 
 1976000   0.69965832   -4.8382639   -4.8382639   -3.7887775 0.0023354596   -4.8382639    1.0494864  1010000 
 1977000   0.70119128   -4.8365538   -4.8365538   -3.7847679  0.005861637   -4.8365538    1.0517859  1010000 
 1978000   0.69984095   -4.8362979   -4.8362979   -3.7865375 0.0086020275   -4.8362979    1.0497604  1010000 
 1979000   0.70006014   -4.8380993   -4.8380993   -3.7880101 0.0030872981   -4.8380993    1.0500892  1010000 
 1980000   0.69934484   -4.8361603   -4.8361603   -3.7871441 0.0072513118   -4.8361603    1.0490162  1010000 
 1981000   0.70024296   -4.8388434   -4.8388434     -3.78848 0.0026525924   -4.8388434    1.0503634  1010000 
 1982000   0.70044673   -4.8356186   -4.8356186   -3.7849495 0.0083416406   -4.8356186    1.0506691  1010000 
 1983000   0.69944861    -4.837256    -4.837256   -3.7880841 0.0025376391    -4.837256    1.0491719  1010000 
 1984000   0.69966621   -4.8368307   -4.8368307   -3.7873324 0.0037783323   -4.8368307    1.0494983  1010000 
 1985000   0.69900505   -4.8371954   -4.8371954   -3.7886889 0.0011864857   -4.8371954    1.0485065  1010000 
 1986000   0.70107608   -4.8366522   -4.8366522   -3.7850392 0.0039626243   -4.8366522    1.0516131  1010000 
 1987000   0.69941751   -4.8366721   -4.8366721   -3.7875469 0.0032494531   -4.8366721    1.0491252  1010000 
 1988000   0.69925956   -4.8361164   -4.8361164   -3.7872281 0.0070214171   -4.8361164    1.0488883  1010000 
 1989000   0.69967568   -4.8374583   -4.8374583   -3.7879459 0.0030864549   -4.8374583    1.0495125  1010000 
 1990000    0.6987367   -4.8363641   -4.8363641   -3.7882601 0.0097977831   -4.8363641     1.048104  1010000 
 1991000   0.69892533   -4.8372087   -4.8372087   -3.7888217 0.0060273477   -4.8372087     1.048387  1010000 
 1992000   0.70020486   -4.8365839   -4.8365839   -3.7862777 0.0042818021   -4.8365839    1.0503062  1010000 
 1993000   0.70054965   -4.8372224   -4.8372224    -3.786399 0.0019017238   -4.8372224    1.0508234  1010000 
 1994000   0.70049318   -4.8377699   -4.8377699   -3.7870312 0.0052997313   -4.8377699    1.0507387  1010000 
 1995000   0.70112349   -4.8379576   -4.8379576   -3.7862734 0.0047090809   -4.8379576    1.0516842  1010000 
 1996000   0.69941497   -4.8377628   -4.8377628   -3.7886413 0.0047644505   -4.8377628    1.0491214  1010000 
 1997000   0.70004216   -4.8387441   -4.8387441   -3.7886819 0.0031998662   -4.8387441    1.0500622  1010000 
 1998000   0.69995913   -4.8383461   -4.8383461   -3.7884085 0.0083596336   -4.8383461    1.0499377  1010000 
 1999000   0.70006662   -4.8373743   -4.8373743   -3.7872754 0.0074741643   -4.8373743    1.0500989  1010000 
 2000000   0.69954485   -4.8391155   -4.8391155   -3.7897993  0.004725746   -4.8391155    1.0493162  1010000 
 2001000   0.70068462    -4.839015    -4.839015   -3.7879891 0.0049981603    -4.839015    1.0510259  1010000 
 2002000   0.70042458   -4.8376532   -4.8376532   -3.7870173 0.0053591366   -4.8376532    1.0506358  1010000 
 2003000    0.6989964   -4.8387317   -4.8387317   -3.7902381 0.0063327078   -4.8387317    1.0484936  1010000 
 2004000   0.70045333   -4.8383522   -4.8383522   -3.7876732 0.0093936502   -4.8383522     1.050679  1010000 
 2005000   0.70006292     -4.83966     -4.83966   -3.7895667 0.0044794017     -4.83966    1.0500933  1010000 
 2006000   0.69955491   -4.8389534   -4.8389534   -3.7896221 0.0061218963   -4.8389534    1.0493313  1010000 
 2007000   0.70005882    -4.837617    -4.837617   -3.7875298 0.0061535698    -4.837617    1.0500872  1010000 
 2008000   0.69968009   -4.8378498   -4.8378498   -3.7883307 0.0075956736   -4.8378498    1.0495191  1010000 
 2009000   0.70011857    -4.838849    -4.838849   -3.7886722 0.0037907092    -4.838849    1.0501768  1010000 
 2010000   0.70066375     -4.83772     -4.83772   -3.7867254 0.0048719116     -4.83772    1.0509946  1010000 
 2011000   0.69929705   -4.8375804   -4.8375804   -3.7886359  0.004574834   -4.8375804    1.0489445  1010000 
 2012000   0.69915816    -4.838572    -4.838572   -3.7898358 0.0011952398    -4.838572    1.0487362  1010000 
 2013000   0.70001615   -4.8371516   -4.8371516   -3.7871285 0.0064113314   -4.8371516    1.0500232  1010000 
 2014000    0.7000001   -4.8370852   -4.8370852   -3.7870861 0.0063051015   -4.8370852    1.0499991  1010000 
 2015000   0.69967571   -4.8373675   -4.8373675   -3.7878549 0.0040196954   -4.8373675    1.0495125  1010000 
 2016000   0.69995734   -4.8367152   -4.8367152   -3.7867802 0.0043108815   -4.8367152     1.049935  1010000 
 2017000   0.69930069   -4.8366841   -4.8366841   -3.7877341 0.0058072626   -4.8366841      1.04895  1010000 
 2018000   0.69983918   -4.8358776   -4.8358776   -3.7861199 0.0084075638   -4.8358776    1.0497577  1010000 
 2019000   0.69959291   -4.8379744   -4.8379744   -3.7885861 0.0031570112   -4.8379744    1.0493883  1010000 
 2020000   0.69938086   -4.8367727   -4.8367727   -3.7877025 0.0032396232   -4.8367727    1.0490702  1010000 
 2021000    0.6997778   -4.8380696   -4.8380696   -3.7884039 0.0029408151   -4.8380696    1.0496657  1010000 
 2022000   0.69908889   -4.8356608   -4.8356608   -3.7870285 0.0040748405   -4.8356608    1.0486323  1010000 
 2023000   0.70059999   -4.8367486   -4.8367486   -3.7858497 0.0043984948   -4.8367486     1.050899  1010000 
 2024000   0.69988022   -4.8374239   -4.8374239   -3.7876046 0.0053658569   -4.8374239    1.0498193  1010000 
 2025000    0.6998143   -4.8383214   -4.8383214    -3.788601 0.0037070558   -4.8383214    1.0497204  1010000 
 2026000    0.7003318   -4.8379361   -4.8379361   -3.7874394 0.0025586095   -4.8379361    1.0504967  1010000 
 2027000   0.70027315   -4.8368383   -4.8368383   -3.7864297 0.0078195471   -4.8368383    1.0504087  1010000 
 2028000    0.7009333    -4.838368    -4.838368   -3.7869691 0.0013359599    -4.838368    1.0513989  1010000 
 2029000   0.69976593   -4.8376535   -4.8376535   -3.7880057 0.0039228099   -4.8376535    1.0496478  1010000 
 2030000   0.70064398   -4.8379464   -4.8379464   -3.7869815 0.0036945067   -4.8379464    1.0509649  1010000 
 2031000   0.70015267      -4.8377      -4.8377   -3.7874721 0.0037538973      -4.8377     1.050228  1010000 
 2032000    0.7006107   -4.8368332   -4.8368332   -3.7859182 0.0076009941   -4.8368332     1.050915  1010000 
 2033000   0.70084368    -4.839623    -4.839623   -3.7883586 0.0022059571    -4.839623    1.0512645  1010000 
 2034000   0.69973339   -4.8387268   -4.8387268   -3.7891278 0.0029318289   -4.8387268     1.049599  1010000 
 2035000   0.69977103   -4.8380285   -4.8380285    -3.788373 0.0056715321   -4.8380285    1.0496555  1010000 
 2036000    0.7002035   -4.8373785   -4.8373785   -3.7870743 0.0064618267   -4.8373785    1.0503042  1010000 
 2037000   0.69951236   -4.8385417   -4.8385417   -3.7892742 0.0041424955   -4.8385417    1.0492675  1010000 
 2038000   0.69965942   -4.8390883   -4.8390883   -3.7896003 0.0049557595   -4.8390883    1.0494881  1010000 
 2039000   0.70072802   -4.8386988   -4.8386988   -3.7876078 0.0074302737   -4.8386988     1.051091  1010000 
 2040000   0.69966812   -4.8386337   -4.8386337   -3.7891326 0.0097696135   -4.8386337    1.0495011  1010000 
 2041000    0.6999133   -4.8391596   -4.8391596   -3.7892907 0.0083855844   -4.8391596    1.0498689  1010000 
 2042000   0.69974866   -4.8388762   -4.8388762   -3.7892542   0.00759753   -4.8388762    1.0496219  1010000 
 2043000   0.70019554    -4.839943    -4.839943   -3.7896507 0.0057724918    -4.839943    1.0502923  1010000 
 2044000   0.70082995   -4.8396321   -4.8396321   -3.7883883 0.0031262064   -4.8396321    1.0512439  1010000 
 2045000   0.70100361   -4.8389219   -4.8389219   -3.7874175 0.0060678087   -4.8389219    1.0515044  1010000 
 2046000    0.6993313   -4.8393216   -4.8393216   -3.7903257 0.0073923139   -4.8393216    1.0489959  1010000 
 2047000   0.69968118   -4.8390209   -4.8390209   -3.7895001 0.0048485083   -4.8390209    1.0495207  1010000 
 2048000   0.70014918   -4.8390292   -4.8390292   -3.7888065 0.0081802301   -4.8390292    1.0502227  1010000 
 2049000   0.69950651   -4.8381188   -4.8381188   -3.7888601 0.0031909191   -4.8381188    1.0492587  1010000 
 2050000   0.70062275   -4.8373533   -4.8373533   -3.7864202 0.0043357661   -4.8373533    1.0509331  1010000 
 2051000   0.69962678   -4.8368795   -4.8368795   -3.7874403 0.0034934252   -4.8368795    1.0494391  1010000 
 2052000   0.70125475   -4.8375158   -4.8375158   -3.7856347 0.0063947392   -4.8375158    1.0518811  1010000 
 2053000   0.69999136   -4.8357376   -4.8357376   -3.7857516 0.0057617787   -4.8357376     1.049986  1010000 
 2054000   0.69977363   -4.8367885   -4.8367885   -3.7871291 0.0058849952   -4.8367885    1.0496594  1010000 
 2055000   0.69942391   -4.8360117   -4.8360117   -3.7868769  0.005659257   -4.8360117    1.0491348  1010000 
 2056000   0.70037696   -4.8364264   -4.8364264    -3.785862 0.0038566611   -4.8364264    1.0505644  1010000 
 2057000   0.70118034   -4.8367192   -4.8367192   -3.7849498 0.0010409482   -4.8367192    1.0517695  1010000 
 2058000   0.70083016   -4.8374207   -4.8374207   -3.7861765 -0.00031626499   -4.8374207    1.0512442  1010000 
 2059000   0.69965201   -4.8358077   -4.8358077   -3.7863308 0.0026619456   -4.8358077     1.049477  1010000 
 2060000   0.70044487    -4.835982    -4.835982   -3.7853158 0.0018466154    -4.835982    1.0506663  1010000 
 2061000    0.7004242   -4.8359492   -4.8359492   -3.7853139 0.0043588852   -4.8359492    1.0506353  1010000 
 2062000   0.69976597   -4.8369234   -4.8369234   -3.7872755 0.0026577377   -4.8369234    1.0496479  1010000 
 2063000    0.6990706   -4.8369309   -4.8369309    -3.788326 0.0041471932   -4.8369309    1.0486049  1010000 
 2064000   0.69987006   -4.8355946   -4.8355946   -3.7857905 0.0092691465   -4.8355946    1.0498041  1010000 
 2065000   0.70073144   -4.8369749   -4.8369749   -3.7858788 0.0053356915   -4.8369749    1.0510961  1010000 
 2066000    0.7003018   -4.8385498   -4.8385498   -3.7880981 0.0038341925   -4.8385498    1.0504517  1010000 
 2067000   0.69937609    -4.838177    -4.838177   -3.7891139 0.0049992405    -4.838177    1.0490631  1010000 
 2068000   0.70035766   -4.8373927   -4.8373927   -3.7868572 0.0074871901   -4.8373927    1.0505355  1010000 
 2069000   0.69966103   -4.8377006   -4.8377006   -3.7882101 0.0096845194   -4.8377006    1.0494905  1010000 
 2070000   0.70044699   -4.8383797   -4.8383797   -3.7877102 0.0064175032   -4.8383797    1.0506694  1010000 
 2071000   0.69973357   -4.8395556   -4.8395556   -3.7899563 0.0049751291   -4.8395556    1.0495993  1010000 
 2072000   0.70009217   -4.8401698   -4.8401698   -3.7900326 0.0029592261   -4.8401698    1.0501372  1010000 
 2073000   0.69991956   -4.8398832   -4.8398832   -3.7900049 0.0059043021   -4.8398832    1.0498783  1010000 
 2074000   0.70141651   -4.8386017   -4.8386017   -3.7864779  0.012068655   -4.8386017    1.0521237  1010000 
 2075000   0.70042439   -4.8390445   -4.8390445   -3.7884089 0.0058426513   -4.8390445    1.0506356  1010000 
 2076000   0.69901636   -4.8394031   -4.8394031   -3.7908796 0.0051437213   -4.8394031    1.0485235  1010000 
 2077000   0.70041732   -4.8397384   -4.8397384   -3.7891135 0.0094130323   -4.8397384    1.0506249  1010000 
 2078000   0.69973606   -4.8392294   -4.8392294   -3.7896263 0.0072906291   -4.8392294    1.0496031  1010000 
 2079000   0.70076598   -4.8395793   -4.8395793   -3.7884314 0.0091636293   -4.8395793    1.0511479  1010000 
 2080000   0.70096038   -4.8397353   -4.8397353   -3.7882958 0.0053278893   -4.8397353    1.0514395  1010000 
 2081000   0.70054286   -4.8379024   -4.8379024   -3.7870891   0.00863529   -4.8379024    1.0508133  1010000 
 2082000   0.70042625   -4.8393365   -4.8393365   -3.7886981 0.0028984809   -4.8393365    1.0506383  1010000 
 2083000   0.69968597   -4.8381377   -4.8381377   -3.7886098 0.0056946598   -4.8381377    1.0495279  1010000 
 2084000   0.69990434   -4.8381937   -4.8381937   -3.7883383 0.0054533814   -4.8381937    1.0498555  1010000 
 2085000    0.6996593   -4.8376543   -4.8376543   -3.7881664 0.0066469331   -4.8376543    1.0494879  1010000 
 2086000   0.70063045   -4.8386041   -4.8386041   -3.7876594 0.0016578925   -4.8386041    1.0509446  1010000 
 2087000   0.69999198   -4.8370297   -4.8370297   -3.7870427 0.0048823646   -4.8370297    1.0499869  1010000 
 2088000    0.7004303   -4.8363421   -4.8363421   -3.7856977 0.0075148563   -4.8363421    1.0506444  1010000 
 2089000   0.70043254   -4.8375577   -4.8375577     -3.78691 0.0018518796   -4.8375577    1.0506478  1010000 
 2090000   0.69912959   -4.8370541   -4.8370541   -3.7883607 0.0014967959   -4.8370541    1.0486934  1010000 
 2091000   0.69993989   -4.8363458   -4.8363458    -3.786437 0.0050412452   -4.8363458    1.0499088  1010000 
 2092000   0.69989551   -4.8371089   -4.8371089   -3.7872667 0.0010855066   -4.8371089    1.0498422  1010000 
 2093000   0.69959064   -4.8375487   -4.8375487   -3.7881637 0.0014944094   -4.8375487    1.0493849  1010000 
 2094000    0.7004957   -4.8374141   -4.8374141   -3.7866716 0.0042571342   -4.8374141    1.0507425  1010000 
 2095000   0.70051677   -4.8370672   -4.8370672   -3.7862931  0.003428766   -4.8370672    1.0507741  1010000 
 2096000   0.70055981   -4.8369627   -4.8369627    -3.786124 0.0059556563   -4.8369627    1.0508387  1010000 
 2097000   0.70003765   -4.8374696   -4.8374696   -3.7874141 0.0045102508   -4.8374696    1.0500554  1010000 
 2098000    0.7004889   -4.8385202   -4.8385202   -3.7877879 0.0017183825   -4.8385202    1.0507323  1010000 
 2099000   0.70034198   -4.8380596   -4.8380596   -3.7875477 0.0051396024   -4.8380596    1.0505119  1010000 
 2100000    0.6995096   -4.8386482   -4.8386482   -3.7893848  0.005770287   -4.8386482    1.0492634  1010000 
 2101000   0.69972274   -4.8378993   -4.8378993   -3.7883162 0.0063968126   -4.8378993    1.0495831  1010000 
 2102000   0.70024783   -4.8382821   -4.8382821   -3.7879114 0.0068210238   -4.8382821    1.0503707  1010000 
 2103000    0.7010947   -4.8388066   -4.8388066   -3.7871655 0.0047220315   -4.8388066     1.051641  1010000 
 2104000   0.70082431   -4.8383455   -4.8383455     -3.78711 0.0069213626   -4.8383455    1.0512354  1010000 
 2105000     0.700137     -4.83898     -4.83898   -3.7887756 0.0041394726     -4.83898    1.0502045  1010000 
 2106000   0.70048281   -4.8378537   -4.8378537   -3.7871305 0.0053972581   -4.8378537    1.0507232  1010000 
 2107000   0.69855005   -4.8395959   -4.8395959   -3.7917719 0.00063760674   -4.8395959     1.047824  1010000 
 2108000   0.69956806   -4.8373748   -4.8373748   -3.7880238  0.010101198   -4.8373748     1.049351  1010000 
 2109000   0.69952783   -4.8389565   -4.8389565   -3.7896658   0.00498397   -4.8389565    1.0492907  1010000 
 2110000   0.69947836   -4.8381772   -4.8381772   -3.7889607 0.0052492004   -4.8381772    1.0492165  1010000 
 2111000     0.699391   -4.8398332   -4.8398332   -3.7907478 0.0017828908   -4.8398332    1.0490855  1010000 
 2112000   0.70000005   -4.8376615   -4.8376615   -3.7876625 0.0053252674   -4.8376615     1.049999  1010000 
 2113000   0.69987646   -4.8375297   -4.8375297    -3.787716 0.0077103905   -4.8375297    1.0498136  1010000 
 2114000    0.6999663   -4.8380066   -4.8380066   -3.7880582 0.0010391382   -4.8380066    1.0499484  1010000 
 2115000   0.69973534   -4.8378543   -4.8378543   -3.7882523 0.0054851619   -4.8378543     1.049602  1010000 
 2116000   0.69979887   -4.8368796   -4.8368796   -3.7871824 0.0031087858   -4.8368796    1.0496973  1010000 
 2117000   0.70035543   -4.8368681   -4.8368681    -3.786336 0.0070829129   -4.8368681    1.0505321  1010000 
 2118000   0.70013096   -4.8389017   -4.8389017   -3.7887063 0.00013713554   -4.8389017    1.0501954  1010000 
 2119000   0.69987374   -4.8365675   -4.8365675    -3.786758 0.0031405077   -4.8365675    1.0498096  1010000 
 2120000   0.70040741   -4.8363064   -4.8363064   -3.7856963 0.0062853955   -4.8363064    1.0506101  1010000 
 2121000   0.70017789   -4.8366621   -4.8366621   -3.7863963 0.0060869559   -4.8366621    1.0502658  1010000 
 2122000   0.70002522   -4.8375692   -4.8375692   -3.7875324 0.0040332629   -4.8375692    1.0500368  1010000 
 2123000    0.6992899   -4.8363262   -4.8363262   -3.7873924 0.0041934129   -4.8363262    1.0489338  1010000 
 2124000    0.6998024   -4.8364006   -4.8364006    -3.786698 0.0048113795   -4.8364006    1.0497026  1010000 
 2125000   0.69983293   -4.8381799   -4.8381799   -3.7884316 0.0011027188   -4.8381799    1.0497484  1010000 
 2126000   0.69955277   -4.8364698   -4.8364698   -3.7871417 0.0056636579   -4.8364698    1.0493281  1010000 
 2127000   0.70049128   -4.8381829   -4.8381829    -3.787447 0.0033897545   -4.8381829    1.0507359  1010000 
 2128000   0.69916796   -4.8391303   -4.8391303   -3.7903794  0.000568539   -4.8391303    1.0487509  1010000 
 2129000   0.70031087   -4.8381437   -4.8381437   -3.7876784 0.0026258269   -4.8381437    1.0504653  1010000 
 2130000   0.69997069    -4.838412    -4.838412    -3.788457 0.0051759655    -4.838412     1.049955  1010000 
 2131000   0.69964492   -4.8363358   -4.8363358   -3.7868695 0.0074144949   -4.8363358    1.0494663  1010000 
 2132000   0.69977943   -4.8379147   -4.8379147   -3.7882466 0.0011394643   -4.8379147    1.0496681  1010000 
 2133000   0.70007777   -4.8371393   -4.8371393   -3.7870236 0.0061563199   -4.8371393    1.0501156  1010000 
 2134000   0.69937921   -4.8388338   -4.8388338    -3.789766 0.0025799183   -4.8388338    1.0490678  1010000 
 2135000   0.69920352   -4.8365775   -4.8365775   -3.7877733  0.010288694   -4.8365775    1.0488042  1010000 
 2136000    0.6997803   -4.8395975   -4.8395975   -3.7899281 0.00080574559   -4.8395975    1.0496694  1010000 
 2137000   0.69997984   -4.8386842   -4.8386842   -3.7887155 0.0044518567   -4.8386842    1.0499687  1010000 
 2138000   0.70087125   -4.8380948   -4.8380948    -3.786789 0.0044010348   -4.8380948    1.0513058  1010000 
 2139000   0.70077334   -4.8375622   -4.8375622   -3.7864033 0.0041224507   -4.8375622     1.051159  1010000 
 2140000   0.70016123   -4.8401096   -4.8401096   -3.7898688 0.00028736201   -4.8401096    1.0502408  1010000 
 2141000    0.6997688   -4.8383235   -4.8383235   -3.7886714  0.004414732   -4.8383235    1.0496522  1010000 
 2142000   0.70084225   -4.8380878   -4.8380878   -3.7868255 0.0074455726   -4.8380878    1.0512623  1010000 
 2143000   0.69948927   -4.8379599   -4.8379599    -3.788727  0.009160491   -4.8379599    1.0492329  1010000 
 2144000   0.70045037   -4.8380407   -4.8380407   -3.7873661 0.0084171663   -4.8380407    1.0506745  1010000 
 2145000   0.69869576   -4.8394075   -4.8394075   -3.7913649 0.0017725192   -4.8394075    1.0480426  1010000 
 2146000   0.70023541   -4.8388555   -4.8388555   -3.7885034 0.0019182484   -4.8388555    1.0503521  1010000 
 2147000   0.70062613   -4.8376116   -4.8376116   -3.7866734 0.0092645498   -4.8376116    1.0509382  1010000 
 2148000   0.70023143   -4.8393649   -4.8393649   -3.7890188  0.005867588   -4.8393649    1.0503461  1010000 
 2149000   0.69925204   -4.8393133   -4.8393133   -3.7904362 0.0064978176   -4.8393133     1.048877  1010000 
 2150000   0.69992512   -4.8402232   -4.8402232   -3.7903366 0.0048799168   -4.8402232    1.0498866  1010000 
 2151000   0.70032163   -4.8386025   -4.8386025   -3.7881211  0.004187295   -4.8386025    1.0504814  1010000 
 2152000   0.70038308   -4.8374792   -4.8374792   -3.7869056 0.0073586759   -4.8374792    1.0505736  1010000 
 2153000   0.70079625   -4.8373952   -4.8373952   -3.7862018 0.0062285327   -4.8373952    1.0511933  1010000 
 2154000   0.70037307   -4.8379044   -4.8379044   -3.7873458 0.0032053016   -4.8379044    1.0505586  1010000 
 2155000   0.69981299   -4.8374476   -4.8374476   -3.7877291 0.0023115752   -4.8374476    1.0497184  1010000 
 2156000    0.6997221   -4.8367424   -4.8367424   -3.7871603 0.0048037263   -4.8367424    1.0495821  1010000 
 2157000   0.69996187   -4.8366514   -4.8366514   -3.7867096 0.0057446717   -4.8366514    1.0499418  1010000 
 2158000   0.69988779   -4.8363953   -4.8363953   -3.7865647  0.006276442   -4.8363953    1.0498307  1010000 
 2159000    0.6998338   -4.8361844   -4.8361844   -3.7864348 0.0029809894   -4.8361844    1.0497497  1010000 
 2160000   0.70053652   -4.8363978   -4.8363978   -3.7855941 0.0024918268   -4.8363978    1.0508037  1010000 
 2161000   0.70028354   -4.8364551   -4.8364551   -3.7860308  0.002771971   -4.8364551    1.0504243  1010000 
 2162000   0.70031634   -4.8356348   -4.8356348   -3.7851613 0.0016119039   -4.8356348    1.0504735  1010000 
 2163000   0.70017473   -4.8361346   -4.8361346   -3.7858736 0.0027954186   -4.8361346    1.0502611  1010000 
 2164000   0.70061917   -4.8367396   -4.8367396   -3.7858119 0.0019819149   -4.8367396    1.0509277  1010000 
 2165000   0.70050364   -4.8373035   -4.8373035   -3.7865491 0.0045436017   -4.8373035    1.0507544  1010000 
 2166000   0.69950604    -4.836823    -4.836823    -3.787565   0.00193235    -4.836823     1.049258  1010000 
 2167000   0.70035797   -4.8373435   -4.8373435   -3.7868076 0.0028120942   -4.8373435    1.0505359  1010000 
 2168000   0.69954579   -4.8376331   -4.8376331   -3.7883155 -0.00078511057   -4.8376331    1.0493177  1010000 
 2169000   0.70023911   -4.8371645   -4.8371645   -3.7868069 0.0024388951   -4.8371645    1.0503576  1010000 
 2170000   0.70066857   -4.8358956   -4.8358956   -3.7848938 0.0075207055   -4.8358956    1.0510018  1010000 
 2171000   0.69978285   -4.8370766   -4.8370766   -3.7874033 0.0053134248   -4.8370766    1.0496732  1010000 
 2172000   0.70004506   -4.8382901   -4.8382901   -3.7882235 0.0049893726   -4.8382901    1.0500666  1010000 
 2173000   0.69987056   -4.8383337   -4.8383337   -3.7885289 0.0051559143   -4.8383337    1.0498048  1010000 
 2174000   0.70088047   -4.8395265   -4.8395265   -3.7882069 0.0024080161   -4.8395265    1.0513197  1010000 
 2175000   0.69930546   -4.8379539   -4.8379539   -3.7889968 0.0073193532   -4.8379539    1.0489571  1010000 
 2176000   0.70034725   -4.8381987   -4.8381987   -3.7876789 0.0076992339   -4.8381987    1.0505198  1010000 
 2177000   0.70002269   -4.8384925   -4.8384925   -3.7884595   0.00902783   -4.8384925     1.050033  1010000 
 2178000   0.70031044   -4.8392384   -4.8392384   -3.7887738 0.0071145555   -4.8392384    1.0504646  1010000 
 2179000   0.70068411    -4.839093    -4.839093   -3.7880679 0.0086692053    -4.839093    1.0510251  1010000 
 2180000   0.70089674   -4.8395907   -4.8395907   -3.7882466 0.0067730911   -4.8395907    1.0513441  1010000 
 2181000   0.70017392    -4.840127    -4.840127   -3.7898671 0.0063038792    -4.840127    1.0502598  1010000 
 2182000   0.69930674   -4.8389675   -4.8389675   -3.7900084 0.0048803597   -4.8389675    1.0489591  1010000 
 2183000    0.7000494   -4.8387214   -4.8387214   -3.7886483 0.0043071383   -4.8387214    1.0500731  1010000 
 2184000   0.69976276    -4.838072    -4.838072   -3.7884289 0.0065404872    -4.838072    1.0496431  1010000 
 2185000   0.70028983   -4.8375565   -4.8375565   -3.7871228 0.0077558788   -4.8375565    1.0504337  1010000 
 2186000   0.70062751   -4.8370385   -4.8370385   -3.7860983  0.007277161   -4.8370385    1.0509402  1010000 
 2187000   0.70030008   -4.8368957   -4.8368957   -3.7864467 0.0095469283   -4.8368957    1.0504491  1010000 
 2188000   0.70032977    -4.838196    -4.838196   -3.7877024 0.0016499141    -4.838196    1.0504936  1010000 
 2189000   0.70065276   -4.8378258   -4.8378258   -3.7868477 0.0025846222   -4.8378258    1.0509781  1010000 
 2190000   0.69871323    -4.836687    -4.836687   -3.7886182 -0.0016734551    -4.836687    1.0480688  1010000 
 2191000   0.69988192   -4.8366448   -4.8366448   -3.7868229 0.0019043816   -4.8366448    1.0498218  1010000 
 2192000   0.69959046   -4.8354373   -4.8354373   -3.7860527 0.00090427022   -4.8354373    1.0493846  1010000 
 2193000   0.70048575   -4.8364199   -4.8364199   -3.7856923 -0.00016103833   -4.8364199    1.0507276  1010000 
 2194000    0.7003555   -4.8346621   -4.8346621   -3.7841299 0.0051832874   -4.8346621    1.0505322  1010000 
 2195000   0.70012451   -4.8363497   -4.8363497    -3.786164 0.0040343431   -4.8363497    1.0501857  1010000 
 2196000   0.69897553   -4.8352658   -4.8352658   -3.7868035 0.0040688196   -4.8352658    1.0484623  1010000 
 2197000   0.69995358   -4.8350748   -4.8350748   -3.7851454 0.0025251659   -4.8350748    1.0499293  1010000 
 2198000   0.69939223   -4.8365896   -4.8365896   -3.7875023 0.0010862869   -4.8365896    1.0490873  1010000 
 2199000   0.69948062   -4.8356979   -4.8356979    -3.786478 0.0048791521   -4.8356979    1.0492199  1010000 
 2200000   0.70033491   -4.8364408   -4.8364408   -3.7859395 0.0054742998   -4.8364408    1.0505013  1010000 
 2201000   0.70021254   -4.8371405   -4.8371405   -3.7868227  0.005333618   -4.8371405    1.0503178  1010000 
 2202000   0.70094206   -4.8373453   -4.8373453   -3.7859332 0.0084818081   -4.8373453     1.051412  1010000 
 2203000   0.69979104   -4.8390574   -4.8390574   -3.7893719 0.0035414951   -4.8390574    1.0496855  1010000 
 2204000   0.69999186   -4.8396637   -4.8396637   -3.7896769 0.0033786933   -4.8396637    1.0499867  1010000 
 2205000    0.6995126   -4.8387111   -4.8387111   -3.7894432 0.0089649262   -4.8387111    1.0492679  1010000 
 2206000   0.70020283    -4.840252    -4.840252   -3.7899488 0.0021706527    -4.840252    1.0503032  1010000 
 2207000   0.70062972   -4.8408246   -4.8408246   -3.7898811 0.0026503958   -4.8408246    1.0509435  1010000 
 2208000    0.6989983   -4.8399267   -4.8399267   -3.7914302 0.0078524622   -4.8399267    1.0484964  1010000 
 2209000   0.69949571    -4.840163    -4.840163   -3.7909204 0.0051741721    -4.840163    1.0492425  1010000 
 2210000   0.69939431    -4.839936    -4.839936   -3.7908456 0.0062815847    -4.839936    1.0490904  1010000 
 2211000    0.7005553   -4.8393921   -4.8393921   -3.7885602  0.010658783   -4.8393921    1.0508319  1010000 
 2212000    0.6995442   -4.8394258   -4.8394258   -3.7901106 0.0064384721   -4.8394258    1.0493153  1010000 
 2213000   0.70038406   -4.8389346   -4.8389346   -3.7883596 0.0067882529   -4.8389346     1.050575  1010000 
 2214000   0.69970411   -4.8391436   -4.8391436   -3.7895885 0.0081133693   -4.8391436    1.0495551  1010000 
 2215000   0.70043951   -4.8395202   -4.8395202    -3.788862  0.001725633   -4.8395202    1.0506582  1010000 
 2216000   0.70109087   -4.8387136   -4.8387136   -3.7870783 0.0063603232   -4.8387136    1.0516353  1010000 
 2217000   0.69924607   -4.8377191   -4.8377191    -3.788851 0.0046362232   -4.8377191    1.0488681  1010000 
 2218000   0.69927899   -4.8367837   -4.8367837   -3.7878663 0.0068623499   -4.8367837    1.0489175  1010000 
 2219000   0.69928879    -4.837107    -4.837107   -3.7881749 0.0044887122    -4.837107    1.0489321  1010000 
 2220000   0.70004963   -4.8374405   -4.8374405   -3.7873671  0.002993773   -4.8374405    1.0500734  1010000 
 2221000   0.69948098   -4.8358655   -4.8358655   -3.7866451 0.0045185012   -4.8358655    1.0492204  1010000 
 2222000   0.69942179   -4.8359793   -4.8359793   -3.7868477 0.0036536578   -4.8359793    1.0491316  1010000 
 2223000     0.701075   -4.8354825   -4.8354825    -3.783871 0.0029049206   -4.8354825    1.0516115  1010000 
 2224000    0.6999252   -4.8336668   -4.8336668   -3.7837801 0.0071158847   -4.8336668    1.0498868  1010000 
 2225000   0.70021907   -4.8342142   -4.8342142   -3.7838866 0.0069359447   -4.8342142    1.0503276  1010000 
 2226000   0.69879745   -4.8344522   -4.8344522    -3.786257 0.0031696589   -4.8344522    1.0481951  1010000 
 2227000   0.69991653   -4.8346388   -4.8346388    -3.784765 0.0015326734   -4.8346388    1.0498738  1010000 
 2228000   0.70072224   -4.8352298   -4.8352298   -3.7841475 0.0015542673   -4.8352298    1.0510823  1010000 
 2229000    0.6999907   -4.8359322   -4.8359322   -3.7859471 0.0009390998   -4.8359322     1.049985  1010000 
 2230000   0.70075695   -4.8360553   -4.8360553   -3.7849209 0.0013828307   -4.8360553    1.0511344  1010000 
 2231000    0.6994449    -4.835518    -4.835518   -3.7863517 0.0014508122    -4.835518    1.0491663  1010000 
 2232000    0.6998736   -4.8356546   -4.8356546   -3.7858452  0.004399484   -4.8356546    1.0498094  1010000 
 2233000    0.7005705   -4.8361159   -4.8361159   -3.7852612 0.0031730163   -4.8361159    1.0508547  1010000 
 2234000   0.70001006   -4.8357568   -4.8357568   -3.7857427 0.0067429095   -4.8357568    1.0500141  1010000 
 2235000   0.69947522   -4.8362971   -4.8362971   -3.7870853 0.0083946328   -4.8362971    1.0492118  1010000 
 2236000   0.69963012   -4.8390876   -4.8390876   -3.7896435 0.0037439537   -4.8390876    1.0494441  1010000 
 2237000   0.69925119   -4.8392281   -4.8392281   -3.7903523 0.0048614872   -4.8392281    1.0488758  1010000 
 2238000    0.7008061   -4.8403822   -4.8403822   -3.7891741 0.0047667154   -4.8403822    1.0512081  1010000 
 2239000   0.69893669   -4.8393084   -4.8393084   -3.7909044 0.0069547398   -4.8393084     1.048404  1010000 
 2240000   0.69918609   -4.8409329   -4.8409329   -3.7921548 0.0066947196   -4.8409329    1.0487781  1010000 
 2241000   0.69945451   -4.8393301   -4.8393301   -3.7901494  0.009065418   -4.8393301    1.0491807  1010000 
 2242000   0.70050422   -4.8396596   -4.8396596   -3.7889043  0.011026053   -4.8396596    1.0507553  1010000 
 2243000   0.70068224   -4.8405519   -4.8405519   -3.7895295   0.01070389   -4.8405519    1.0510223  1010000 
 2244000   0.70048562   -4.8399081   -4.8399081   -3.7891807  0.011166463   -4.8399081    1.0507274  1010000 
 2245000   0.69981101   -4.8405112   -4.8405112   -3.7907957 0.0096302608   -4.8405112    1.0497155  1010000 
 2246000   0.70011433   -4.8396536   -4.8396536   -3.7894831 0.0076286458   -4.8396536    1.0501705  1010000 
 2247000   0.70045649   -4.8398099   -4.8398099   -3.7891262 0.0032224708   -4.8398099    1.0506837  1010000 
 2248000   0.70015856   -4.8388591   -4.8388591   -3.7886223 0.0038065783   -4.8388591    1.0502368  1010000 
 2249000   0.70092491    -4.838496    -4.838496   -3.7871097 0.0070893907    -4.838496    1.0513863  1010000 
 2250000   0.70043756   -4.8378607   -4.8378607   -3.7872054 0.0065338852   -4.8378607    1.0506553  1010000 
 2251000   0.69939093   -4.8362508   -4.8362508   -3.7871654 0.0039403863   -4.8362508    1.0490854  1010000 
 2252000   0.69980126   -4.8368511   -4.8368511   -3.7871503  0.000850775   -4.8368511    1.0497009  1010000 
 2253000   0.69947409   -4.8347315   -4.8347315   -3.7855214 0.0020849823   -4.8347315    1.0492101  1010000 
 2254000   0.70087521   -4.8345576   -4.8345576   -3.7832458  0.003001666   -4.8345576    1.0513118  1010000 
 2255000   0.70079462   -4.8322665   -4.8322665   -3.7810756 0.0078237787   -4.8322665    1.0511909  1010000 
 2256000   0.69972734   -4.8318592   -4.8318592   -3.7822692 0.0021171347   -4.8318592      1.04959  1010000 
 2257000   0.69994783   -4.8335571   -4.8335571   -3.7836364 0.0021745582   -4.8335571    1.0499207  1010000 
 2258000   0.70083058   -4.8342684   -4.8342684   -3.7830236 0.00017483129   -4.8342684    1.0512448  1010000 
 2259000   0.70049344   -4.8342546   -4.8342546   -3.7835155 0.00021134866   -4.8342546    1.0507391  1010000 
 2260000   0.69929075   -4.8327745   -4.8327745   -3.7838394 0.00023312129   -4.8327745    1.0489351  1010000 
 2261000   0.70025898   -4.8346933   -4.8346933   -3.7843059 -0.0008952494   -4.8346933    1.0503874  1010000 
 2262000   0.69953126   -4.8339104   -4.8339104   -3.7846145 0.0034453217   -4.8339104    1.0492959  1010000 
 2263000   0.69936796   -4.8348055   -4.8348055   -3.7857546 0.0031897945   -4.8348055    1.0490509  1010000 
 2264000   0.70084776   -4.8343544   -4.8343544   -3.7830838 0.0087572874   -4.8343544    1.0512706  1010000 
 2265000   0.69973485   -4.8358308   -4.8358308   -3.7862295 0.0053691653   -4.8358308    1.0496012  1010000 
 2266000   0.70021729   -4.8366682   -4.8366682   -3.7863433 0.0044261735   -4.8366682    1.0503249  1010000 
 2267000   0.70003955   -4.8381365   -4.8381365   -3.7880782 0.0081019373   -4.8381365    1.0500583  1010000 
 2268000   0.69985935   -4.8389329   -4.8389329   -3.7891449 0.0074366254   -4.8389329     1.049788  1010000 
 2269000   0.69921688   -4.8393686   -4.8393686   -3.7905443 0.0042153584   -4.8393686    1.0488243  1010000 
 2270000   0.69997121    -4.840339    -4.840339   -3.7903832 0.0050501202    -4.840339    1.0499558  1010000 
 2271000    0.6996508   -4.8390704   -4.8390704   -3.7895952  0.012714732   -4.8390704    1.0494752  1010000 
 2272000   0.69969545   -4.8408277   -4.8408277   -3.7912855 0.0068289268   -4.8408277    1.0495421  1010000 
 2273000   0.70004383   -4.8412933   -4.8412933   -3.7912286  0.010541321   -4.8412933    1.0500647  1010000 
 2274000   0.69992558   -4.8417677   -4.8417677   -3.7918804 0.0055336549   -4.8417677    1.0498873  1010000 
 2275000   0.70012737   -4.8400948   -4.8400948   -3.7899048  0.010610781   -4.8400948      1.05019  1010000 
 2276000   0.70082207   -4.8400158   -4.8400158   -3.7887838 0.0089439184   -4.8400158    1.0512321  1010000 
 2277000   0.69988281   -4.8412351   -4.8412351   -3.7914119 0.0054818252   -4.8412351    1.0498232  1010000 
 2278000   0.69988829   -4.8398041   -4.8398041   -3.7899727   0.01064147   -4.8398041    1.0498314  1010000 
 2279000   0.69919029   -4.8382068   -4.8382068   -3.7894224 0.0059108387   -4.8382068    1.0487844  1010000 
 2280000   0.70043915   -4.8394626   -4.8394626   -3.7888049 0.0057608417   -4.8394626    1.0506577  1010000 
 2281000   0.69937568   -4.8395243   -4.8395243   -3.7904618 0.0014159622   -4.8395243    1.0490625  1010000 
 2282000   0.69972304   -4.8378153   -4.8378153   -3.7882317 0.0050056464   -4.8378153    1.0495835  1010000 
 2283000   0.69956964   -4.8356255   -4.8356255   -3.7862721 0.0048334779   -4.8356255    1.0493534  1010000 
 2284000   0.69985984   -4.8374504   -4.8374504   -3.7876616 0.0015400217   -4.8374504    1.0497887  1010000 
 2285000   0.70019259   -4.8365448   -4.8365448   -3.7862569 0.0016747096   -4.8365448    1.0502878  1010000 
 2286000    0.7000568   -4.8367515   -4.8367515   -3.7866673 -0.0036432695   -4.8367515    1.0500842  1010000 
 2287000   0.70028179   -4.8347641   -4.8347641   -3.7843424 0.0020802244   -4.8347641    1.0504216  1010000 
 2288000   0.70057798    -4.834265    -4.834265    -3.783399 0.0015829144    -4.834265    1.0508659  1010000 
 2289000   0.70002507   -4.8355712   -4.8355712   -3.7855346 -0.00015401365   -4.8355712    1.0500366  1010000 
 2290000   0.70011081   -4.8346397   -4.8346397   -3.7844745 0.0017983632   -4.8346397    1.0501652  1010000 
 2291000    0.7003061   -4.8346509   -4.8346509   -3.7841928 0.0020837412   -4.8346509    1.0504581  1010000 
 2292000   0.69986911   -4.8344722   -4.8344722   -3.7846696 0.0022520431   -4.8344722    1.0498026  1010000 
 2293000   0.69958838   -4.8359165   -4.8359165    -3.786535 0.00034152366   -4.8359165    1.0493815  1010000 
 2294000    0.7004438   -4.8357999   -4.8357999   -3.7851353 0.0030099129   -4.8357999    1.0506647  1010000 
 2295000    0.6986085   -4.8347342   -4.8347342   -3.7868225 0.0051126987   -4.8347342    1.0479117  1010000 
 2296000   0.69961528    -4.836234    -4.836234   -3.7868121 0.0019551546    -4.836234    1.0494219  1010000 
 2297000   0.70082643   -4.8383548   -4.8383548   -3.7871162 0.0046055556   -4.8383548    1.0512386  1010000 
 2298000   0.70032912   -4.8379584   -4.8379584   -3.7874658 0.0084304871   -4.8379584    1.0504926  1010000 
 2299000   0.69952685   -4.8379057   -4.8379057   -3.7886165  0.010384064   -4.8379057    1.0492892  1010000 
 2300000    0.7003157   -4.8400249   -4.8400249   -3.7895524  0.004245913   -4.8400249    1.0504725  1010000 
 2301000   0.70010183   -4.8396138   -4.8396138   -3.7894621 0.0044155898   -4.8396138    1.0501517  1010000 
 2302000   0.69994095   -4.8396209   -4.8396209   -3.7897105 0.0051961143   -4.8396209    1.0499104  1010000 
 2303000    0.7002949   -4.8390983   -4.8390983    -3.788657 0.0091986627   -4.8390983    1.0504413  1010000 
 2304000   0.69935366   -4.8390631   -4.8390631   -3.7900337  0.010326257   -4.8390631    1.0490295  1010000 
 2305000   0.70009705   -4.8387603   -4.8387603   -3.7886157    0.0100406   -4.8387603    1.0501445  1010000 
 2306000    0.7000964   -4.8408192   -4.8408192   -3.7906757 0.0070774044   -4.8408192    1.0501436  1010000 
 2307000   0.70059094   -4.8414351   -4.8414351   -3.7905497  0.009018204   -4.8414351    1.0508854  1010000 
 2308000   0.69932712    -4.839583    -4.839583   -3.7905934 0.0051446784    -4.839583    1.0489896  1010000 
 2309000   0.69961832   -4.8386191   -4.8386191   -3.7891926 0.0080257189   -4.8386191    1.0494264  1010000 
 2310000   0.69994548   -4.8394269   -4.8394269   -3.7895097 0.0039345659   -4.8394269    1.0499172  1010000 
 2311000   0.69922247   -4.8372729   -4.8372729   -3.7884402 0.0095355734   -4.8372729    1.0488327  1010000 
 2312000   0.69972653   -4.8389365   -4.8389365   -3.7893478 0.0044189743   -4.8389365    1.0495887  1010000 
 2313000    0.7000881   -4.8403883   -4.8403883   -3.7902572 2.2840135e-05   -4.8403883    1.0501311  1010000 
 2314000   0.70064865   -4.8379928   -4.8379928   -3.7870209 0.0044071766   -4.8379928    1.0509719  1010000 
 2315000   0.70028523   -4.8387071   -4.8387071   -3.7882803 -0.0022123169   -4.8387071    1.0504268  1010000 
 2316000   0.70051572   -4.8379812   -4.8379812   -3.7872087 0.00036433431   -4.8379812    1.0507725  1010000 
 2317000   0.70024029   -4.8365257   -4.8365257   -3.7861663 -4.8771315e-05   -4.8365257    1.0503594  1010000 
 2318000   0.69964033   -4.8361585   -4.8361585    -3.786699 -0.00033612604   -4.8361585    1.0494594  1010000 
 2319000      0.69874   -4.8367055   -4.8367055   -3.7885965 0.0013888663   -4.8367055     1.048109  1010000 
 2320000   0.70012793   -4.8362191   -4.8362191   -3.7860283  0.005332053   -4.8362191    1.0501908  1010000 
 2321000   0.70097714   -4.8365326   -4.8365326    -3.785068 0.0029309106   -4.8365326    1.0514647  1010000 
 2322000   0.70024328   -4.8360732   -4.8360732   -3.7857093 0.0052150362   -4.8360732    1.0503639  1010000 
 2323000   0.69963808    -4.835193    -4.835193    -3.785737 0.0063486082    -4.835193    1.0494561  1010000 
 2324000   0.69940351    -4.835974    -4.835974   -3.7868697  0.003421857    -4.835974    1.0491042  1010000 
 2325000   0.70042174   -4.8354416   -4.8354416   -3.7848101 0.0057358794   -4.8354416    1.0506316  1010000 
 2326000   0.70068826   -4.8355268   -4.8355268   -3.7844954 0.0086252965   -4.8355268    1.0510313  1010000 
 2327000   0.69935921   -4.8375435   -4.8375435   -3.7885057 0.0037176066   -4.8375435    1.0490378  1010000 
 2328000   0.69942098   -4.8387798   -4.8387798   -3.7896493 0.0042453196   -4.8387798    1.0491304  1010000 
 2329000   0.70077724   -4.8374645   -4.8374645   -3.7862997 0.0064403479   -4.8374645    1.0511648  1010000 
 2330000   0.70081551    -4.838436    -4.838436   -3.7872138 0.0048051284    -4.838436    1.0512222  1010000 
 2331000   0.69996555   -4.8367277   -4.8367277   -3.7867804 0.0054165949   -4.8367277    1.0499473  1010000 
 2332000   0.69897433   -4.8373567   -4.8373567   -3.7888963 0.0032363079   -4.8373567    1.0484605  1010000 
 2333000   0.69972134   -4.8361683   -4.8361683   -3.7865873 0.0074720206   -4.8361683     1.049581  1010000 
 2334000    0.7007268   -4.8380168   -4.8380168   -3.7869276 0.0063867447   -4.8380168    1.0510892  1010000 
 2335000   0.70110599    -4.839523    -4.839523   -3.7878651 0.0054703527    -4.839523    1.0516579  1010000 
 2336000   0.69969915   -4.8382947   -4.8382947    -3.788747 0.0087681811   -4.8382947    1.0495477  1010000 
 2337000   0.70027239   -4.8391969   -4.8391969   -3.7887893 0.0053501972   -4.8391969    1.0504075  1010000 
 2338000   0.69982176   -4.8371066   -4.8371066    -3.787375 0.0082427061   -4.8371066    1.0497316  1010000 
 2339000    0.7010875   -4.8368522   -4.8368522    -3.785222 0.0060041617   -4.8368522    1.0516302  1010000 
 2340000   0.70039691   -4.8369242   -4.8369242   -3.7863298 0.0064346577   -4.8369242    1.0505943  1010000 
 2341000   0.70006329   -4.8371672   -4.8371672   -3.7870733 0.0049067806   -4.8371672    1.0500939  1010000 
 2342000   0.69835656   -4.8384992   -4.8384992   -3.7909654 0.0045573346   -4.8384992    1.0475338  1010000 
 2343000   0.70063655   -4.8383246   -4.8383246   -3.7873708 0.0052545971   -4.8383246    1.0509538  1010000 
 2344000   0.70000539   -4.8367074   -4.8367074   -3.7867003 0.0078063805   -4.8367074     1.050007  1010000 
 2345000   0.70088704   -4.8374916   -4.8374916    -3.786162 0.0038811408   -4.8374916    1.0513295  1010000 
 2346000   0.70028943   -4.8369174   -4.8369174   -3.7864843 0.0019913095   -4.8369174    1.0504331  1010000 
 2347000   0.70037698   -4.8359375   -4.8359375   -3.7853731   0.00402101   -4.8359375    1.0505644  1010000 
 2348000   0.69978442   -4.8353286   -4.8353286    -3.785653 0.0046565294   -4.8353286    1.0496756  1010000 
 2349000   0.70046623   -4.8371696   -4.8371696   -3.7864713 0.0034662697   -4.8371696    1.0506983  1010000 
 2350000   0.70028869   -4.8377748   -4.8377748   -3.7873428 0.0013952003   -4.8377748     1.050432  1010000 
 2351000   0.69963026    -4.837058    -4.837058   -3.7876136 0.0060017276    -4.837058    1.0494444  1010000 
 2352000   0.69937845   -4.8384455   -4.8384455   -3.7893789 0.0010867098   -4.8384455    1.0490666  1010000 
 2353000   0.69955934   -4.8364064   -4.8364064   -3.7870684 0.0027533538   -4.8364064     1.049338  1010000 
 2354000   0.70036754   -4.8359674   -4.8359674   -3.7854171 0.0084802133   -4.8359674    1.0505503  1010000 
 2355000   0.70130276   -4.8377967   -4.8377967   -3.7858436 0.0015996143   -4.8377967    1.0519531  1010000 
 2356000   0.69951524   -4.8358027   -4.8358027   -3.7865309 0.0067213615   -4.8358027    1.0492718  1010000 
 2357000    0.7002296    -4.837903    -4.837903   -3.7875596 0.0042043191    -4.837903    1.0503434  1010000 
 2358000   0.69987104    -4.838908    -4.838908   -3.7891025 0.0042865999    -4.838908    1.0498055  1010000 
 2359000   0.70008452   -4.8396437   -4.8396437    -3.789518 0.0047222468   -4.8396437    1.0501257  1010000 
 2360000   0.69972904    -4.838133    -4.838133   -3.7885405 0.0077723362    -4.838133    1.0495925  1010000 
 2361000   0.69986836   -4.8384405   -4.8384405    -3.788639 0.0064107661   -4.8384405    1.0498015  1010000 
 2362000    0.7006989   -4.8378394   -4.8378394   -3.7867921 0.0092317153   -4.8378394    1.0510473  1010000 
 2363000   0.70056566   -4.8384729   -4.8384729   -3.7876255 0.0064568427   -4.8384729    1.0508475  1010000 
 2364000   0.70055546   -4.8374176   -4.8374176   -3.7865854  0.012141749   -4.8374176    1.0508321  1010000 
 2365000   0.70014776   -4.8390618   -4.8390618   -3.7888412 0.0054446254   -4.8390618    1.0502206  1010000 
 2366000   0.69948467   -4.8404256   -4.8404256   -3.7911996 0.0051463075   -4.8404256     1.049226  1010000 
 2367000    0.6998992   -4.8401991   -4.8401991   -3.7903514 0.0060629923   -4.8401991    1.0498478  1010000 
 2368000   0.70101541   -4.8391434   -4.8391434   -3.7876213 0.0068897724   -4.8391434    1.0515221  1010000 
 2369000   0.69951538   -4.8398134   -4.8398134   -3.7905414 0.0040533822   -4.8398134     1.049272  1010000 
 2370000   0.69960643   -4.8386551   -4.8386551   -3.7892465 0.0070046765   -4.8386551    1.0494086  1010000 
 2371000   0.69974309   -4.8381133   -4.8381133   -3.7884997 0.0089147987   -4.8381133    1.0496136  1010000 
 2372000    0.6998457   -4.8404334   -4.8404334   -3.7906658 0.00068202091   -4.8404334    1.0497675  1010000 
 2373000   0.69987713   -4.8388048   -4.8388048   -3.7889902 0.0062734818   -4.8388048    1.0498147  1010000 
 2374000   0.69977225   -4.8386874   -4.8386874     -3.78903 0.0036254474   -4.8386874    1.0496573  1010000 
 2375000   0.70037406   -4.8384744   -4.8384744   -3.7879143 0.0077916949   -4.8384744    1.0505601  1010000 
 2376000   0.69981422   -4.8376822   -4.8376822   -3.7879619 0.0096856051   -4.8376822    1.0497203  1010000 
 2377000   0.70001024   -4.8384722   -4.8384722   -3.7884578 0.0035138391   -4.8384722    1.0500143  1010000 
 2378000   0.70035979   -4.8376167   -4.8376167    -3.787078 0.0036819286   -4.8376167    1.0505386  1010000 
 2379000   0.70017233   -4.8377402   -4.8377402   -3.7874828 0.0064136546   -4.8377402    1.0502575  1010000 
 2380000   0.69982964   -4.8395151   -4.8395151   -3.7897717 -0.0012091529   -4.8395151    1.0497434  1010000 
 2381000   0.70020392   -4.8380844   -4.8380844   -3.7877796 0.0070137605   -4.8380844    1.0503048  1010000 
 2382000   0.69991535   -4.8380088   -4.8380088   -3.7881368 0.0066332045   -4.8380088     1.049872  1010000 
 2383000   0.70029806    -4.835721    -4.835721    -3.785275  0.006405496    -4.835721     1.050446  1010000 
 2384000   0.70130219   -4.8383706   -4.8383706   -3.7864184 0.0027698635   -4.8383706    1.0519522  1010000 
 2385000   0.69984018   -4.8368736   -4.8368736   -3.7871144 0.0038891394   -4.8368736    1.0497592  1010000 
 2386000   0.69947327   -4.8369694   -4.8369694   -3.7877605 0.0042575282   -4.8369694    1.0492089  1010000 
 2387000   0.69906726   -4.8391185   -4.8391185   -3.7905187 0.0026029007   -4.8391185    1.0485999  1010000 
 2388000   0.69962065   -4.8368279   -4.8368279    -3.787398 0.0083497092   -4.8368279    1.0494299  1010000 
 2389000   0.70022223   -4.8378675   -4.8378675   -3.7875352 0.0051142448   -4.8378675    1.0503323  1010000 
 2390000   0.70126089   -4.8382651   -4.8382651   -3.7863748 0.0059617637   -4.8382651    1.0518903  1010000 
 2391000    0.7004061   -4.8391851   -4.8391851    -3.788577 0.0012344542   -4.8391851    1.0506081  1010000 
 2392000   0.69942731   -4.8374621   -4.8374621   -3.7883222 0.0031182097   -4.8374621    1.0491399  1010000 
 2393000   0.70007834   -4.8371616   -4.8371616   -3.7870451 0.0049113087   -4.8371616    1.0501165  1010000 
 2394000   0.69991249   -4.8384604   -4.8384604   -3.7885927 0.0018742068   -4.8384604    1.0498677  1010000 
 2395000   0.70029051   -4.8390173   -4.8390173   -3.7885826 0.0029846189   -4.8390173    1.0504347  1010000 
 2396000   0.69985503   -4.8387205   -4.8387205    -3.788939 0.0050047551   -4.8387205    1.0497815  1010000 
 2397000    0.6997126   -4.8381923   -4.8381923   -3.7886245 0.0045725547   -4.8381923    1.0495679  1010000 
 2398000   0.69949114   -4.8384609   -4.8384609   -3.7892252 0.0021002859   -4.8384609    1.0492357  1010000 
 2399000   0.70007267   -4.8382874   -4.8382874   -3.7881794 0.0053107186   -4.8382874     1.050108  1010000 
 2400000   0.70084218   -4.8381832   -4.8381832    -3.786921 0.0054410463   -4.8381832    1.0512622  1010000 
 2401000   0.70016878   -4.8379944   -4.8379944   -3.7877423 0.0071820112   -4.8379944    1.0502521  1010000 
 2402000    0.6996954   -4.8393263   -4.8393263   -3.7897842 0.0039439545   -4.8393263    1.0495421  1010000 
 2403000   0.69984696   -4.8400238   -4.8400238   -3.7902543 0.0049715164   -4.8400238    1.0497694  1010000 
 2404000   0.69929036   -4.8397613   -4.8397613   -3.7908268 0.0033985434   -4.8397613    1.0489345  1010000 
 2405000   0.70038803    -4.838383    -4.838383    -3.787802 0.0051406927    -4.838383     1.050581  1010000 
 2406000    0.6990852   -4.8391939   -4.8391939   -3.7905671 0.0044366883   -4.8391939    1.0486268  1010000 
 2407000   0.69941678    -4.838553    -4.838553   -3.7894289 0.0074021054    -4.838553    1.0491241  1010000 
 2408000   0.70002147   -4.8379924   -4.8379924   -3.7879613 0.0086391765   -4.8379924    1.0500312  1010000 
 2409000   0.70098464   -4.8388343   -4.8388343   -3.7873584   0.00769054   -4.8388343    1.0514759  1010000 
 2410000    0.7010288   -4.8376486   -4.8376486   -3.7861065 0.0088650768   -4.8376486    1.0515422  1010000 
 2411000   0.69898031    -4.837779    -4.837779   -3.7893096 0.0067913574    -4.837779    1.0484694  1010000 
 2412000   0.70071077   -4.8381164   -4.8381164   -3.7870513 0.0043740772   -4.8381164    1.0510651  1010000 
 2413000   0.69994376   -4.8381897   -4.8381897   -3.7882751 -0.00020759495   -4.8381897    1.0499146  1010000 
 2414000   0.69979703   -4.8380399   -4.8380399   -3.7883453 0.0032952265   -4.8380399    1.0496945  1010000 
 2415000    0.7012075   -4.8371624   -4.8371624   -3.7853522 0.0068600602   -4.8371624    1.0518102  1010000 
 2416000   0.69922875   -4.8373046   -4.8373046   -3.7884625 -3.2732158e-05   -4.8373046    1.0488421  1010000 
 2417000   0.69952855    -4.836108    -4.836108   -3.7868162 0.0031135676    -4.836108    1.0492918  1010000 
 2418000   0.69889541    -4.837405    -4.837405    -3.789063 0.0011220748    -4.837405    1.0483421  1010000 
 2419000   0.69965879   -4.8373138   -4.8373138   -3.7878267 0.00038893964   -4.8373138    1.0494871  1010000 
 2420000   0.69998774   -4.8361319   -4.8361319   -3.7861513 0.0054806307   -4.8361319    1.0499806  1010000 
 2421000   0.69951768   -4.8366432   -4.8366432   -3.7873677  0.006934549   -4.8366432    1.0492755  1010000 
 2422000   0.69949261   -4.8356518   -4.8356518   -3.7864139 0.0068060661   -4.8356518    1.0492379  1010000 
 2423000   0.70094306   -4.8369181   -4.8369181   -3.7855046 0.0050376069   -4.8369181    1.0514135  1010000 
 2424000   0.69977609   -4.8362882   -4.8362882   -3.7866252 0.0034730005   -4.8362882    1.0496631  1010000 
 2425000   0.69963788   -4.8359325   -4.8359325   -3.7864767 0.0029160748   -4.8359325    1.0494558  1010000 
 2426000   0.70082554   -4.8355329   -4.8355329   -3.7842956 0.0043499733   -4.8355329    1.0512373  1010000 
 2427000   0.69979235   -4.8379577   -4.8379577   -3.7882702 0.00063522589   -4.8379577    1.0496875  1010000 
 2428000   0.70048978   -4.8374184   -4.8374184   -3.7866847 0.0042711757   -4.8374184    1.0507336  1010000 
 2429000   0.69832036   -4.8384659   -4.8384659   -3.7909864 -7.8822214e-05   -4.8384659    1.0474795  1010000 
 2430000   0.70119556   -4.8384064   -4.8384064   -3.7866141 0.0035977461   -4.8384064    1.0517923  1010000 
 2431000   0.70011432    -4.837013    -4.837013   -3.7868425 0.0061951322    -4.837013    1.0501704  1010000 
 2432000   0.69906277   -4.8381423   -4.8381423   -3.7895492 0.0040102682   -4.8381423    1.0485931  1010000 
 2433000   0.69943733   -4.8375669   -4.8375669    -3.788412 0.0056700388   -4.8375669     1.049155  1010000 
 2434000   0.69981353   -4.8389952   -4.8389952   -3.7892759 8.701592e-05   -4.8389952    1.0497193  1010000 
 2435000   0.70129387   -4.8395041   -4.8395041   -3.7875643 0.0042583226   -4.8395041    1.0519398  1010000 
 2436000   0.70032302   -4.8392492   -4.8392492   -3.7887657 0.0047324324   -4.8392492    1.0504835  1010000 
 2437000   0.70006385   -4.8375753   -4.8375753   -3.7874805 0.0048224839   -4.8375753    1.0500947  1010000 
 2438000   0.69982547   -4.8364032   -4.8364032   -3.7866661  0.010404341   -4.8364032    1.0497372  1010000 
 2439000   0.69859512   -4.8379301   -4.8379301   -3.7900384 0.0053274156   -4.8379301    1.0478916  1010000 
 2440000   0.69862637   -4.8366563   -4.8366563   -3.7887178 0.0062368185   -4.8366563    1.0479385  1010000 
 2441000   0.70001046   -4.8384198   -4.8384198   -3.7884052 0.0045507032   -4.8384198    1.0500147  1010000 
 2442000   0.69909916   -4.8397931   -4.8397931   -3.7911454 0.0021565158   -4.8397931    1.0486477  1010000 
 2443000   0.70043053   -4.8389049   -4.8389049   -3.7882601 0.0039338205   -4.8389049    1.0506448  1010000 
 2444000   0.69980851   -4.8370912   -4.8370912   -3.7873794  0.008447877   -4.8370912    1.0497117  1010000 
 2445000   0.69961168   -4.8383072   -4.8383072   -3.7888907 0.0021340928   -4.8383072    1.0494165  1010000 
 2446000   0.70024375   -4.8372408   -4.8372408   -3.7868762 0.0020991893   -4.8372408    1.0503646  1010000 
 2447000   0.70018063   -4.8364209   -4.8364209    -3.786151 0.0060191037   -4.8364209    1.0502699  1010000 
 2448000   0.70015721   -4.8374593   -4.8374593   -3.7872245 0.0036056736   -4.8374593    1.0502348  1010000 
 2449000    0.7007682    -4.837901    -4.837901   -3.7867497  0.002458707    -4.837901    1.0511513  1010000 
 2450000   0.70068256   -4.8378639   -4.8378639   -3.7868411 0.0063925944   -4.8378639    1.0510228  1010000 
 2451000   0.70062251   -4.8381944   -4.8381944   -3.7872617 0.0044495493   -4.8381944    1.0509327  1010000 
 2452000   0.70038045   -4.8385096   -4.8385096     -3.78794 0.0033814849   -4.8385096    1.0505696  1010000 
 2453000    0.7001781   -4.8357542   -4.8357542   -3.7854881 0.0077053891   -4.8357542    1.0502661  1010000 
 2454000   0.70089454   -4.8370183   -4.8370183   -3.7856775  0.002425283   -4.8370183    1.0513408  1010000 
 2455000   0.70015215   -4.8368679   -4.8368679   -3.7866407 0.0053930163   -4.8368679    1.0502272  1010000 
 2456000   0.69975397   -4.8382258   -4.8382258   -3.7885959 -7.2193812e-05   -4.8382258    1.0496299  1010000 
 2457000   0.69928215   -4.8376492   -4.8376492    -3.788727 0.0057113376   -4.8376492    1.0489222  1010000 
 2458000   0.70047449   -4.8391107   -4.8391107      -3.7884 0.0049621233   -4.8391107    1.0507107  1010000 
 2459000   0.69991486   -4.8387971   -4.8387971   -3.7889259 0.0036497507   -4.8387971    1.0498712  1010000 
 2460000   0.69983915   -4.8365045   -4.8365045   -3.7867468 0.0061997391   -4.8365045    1.0497577  1010000 
 2461000   0.69932941   -4.8364855   -4.8364855   -3.7874924 0.0053600509   -4.8364855    1.0489931  1010000 
 2462000   0.69952784   -4.8372687   -4.8372687    -3.787978 0.0069815401   -4.8372687    1.0492907  1010000 
 2463000   0.70059751   -4.8379112   -4.8379112    -3.787016 0.0037380134   -4.8379112    1.0508952  1010000 
 2464000   0.70109494   -4.8387648   -4.8387648   -3.7871234 0.0069444173   -4.8387648    1.0516414  1010000 
 2465000   0.69994764   -4.8379739   -4.8379739   -3.7880535 0.0037740459   -4.8379739    1.0499204  1010000 
 2466000   0.69985836   -4.8392838   -4.8392838   -3.7894973  0.001763018   -4.8392838    1.0497865  1010000 
 2467000   0.69946593   -4.8391882   -4.8391882   -3.7899903 -0.0014835202   -4.8391882    1.0491979  1010000 
 2468000   0.70034904   -4.8393585   -4.8393585    -3.788836 0.00052019706   -4.8393585    1.0505225  1010000 
 2469000   0.70019645   -4.8374675   -4.8374675   -3.7871739 0.0024734032   -4.8374675    1.0502936  1010000 
 2470000   0.69996401   -4.8378346   -4.8378346   -3.7878896 0.0038781978   -4.8378346     1.049945  1010000 
 2471000   0.69950156   -4.8378129   -4.8378129   -3.7885616 0.00074796433   -4.8378129    1.0492513  1010000 
 2472000   0.69912675   -4.8367159   -4.8367159   -3.7880268 0.0092638184   -4.8367159    1.0486891  1010000 
 2473000   0.70059378   -4.8378651   -4.8378651   -3.7869754 0.0047023244   -4.8378651    1.0508896  1010000 
 2474000    0.6990641   -4.8391574   -4.8391574   -3.7905623 -0.001742211   -4.8391574    1.0485951  1010000 
 2475000   0.69971035   -4.8377557   -4.8377557   -3.7881912 0.0020918297   -4.8377557    1.0495645  1010000 
 2476000   0.70053163   -4.8366922   -4.8366922   -3.7858958  0.007085811   -4.8366922    1.0507964  1010000 
 2477000   0.69964555    -4.837704    -4.837704   -3.7882367 0.0015629349    -4.837704    1.0494673  1010000 
 2478000   0.69983793   -4.8371622   -4.8371622   -3.7874064 0.0062650627   -4.8371622    1.0497559  1010000 
 2479000    0.6991549   -4.8387569   -4.8387569   -3.7900255 0.0022741488   -4.8387569    1.0487313  1010000 
 2480000   0.70010315   -4.8381198   -4.8381198   -3.7879661 0.0052292581   -4.8381198    1.0501537  1010000 
 2481000   0.70069166   -4.8377388   -4.8377388   -3.7867024 0.0096206617   -4.8377388    1.0510365  1010000 
 2482000   0.70075215   -4.8392489   -4.8392489   -3.7881217 0.0033725555   -4.8392489    1.0511272  1010000 
 2483000   0.70064963   -4.8387032   -4.8387032   -3.7877298 0.0039358567   -4.8387032    1.0509734  1010000 
 2484000   0.69944274   -4.8386453   -4.8386453   -3.7894822 0.0028675988   -4.8386453    1.0491631  1010000 
 2485000   0.69970084   -4.8372618   -4.8372618   -3.7877116 0.0073656336   -4.8372618    1.0495502  1010000 
 2486000   0.70070956   -4.8387888   -4.8387888   -3.7877255 0.0043189183   -4.8387888    1.0510633  1010000 
 2487000   0.70096421   -4.8385202   -4.8385202    -3.787075  0.006801592   -4.8385202    1.0514453  1010000 
 2488000   0.70032958   -4.8392135   -4.8392135   -3.7887202 0.0030870569   -4.8392135    1.0504933  1010000 
 2489000   0.70071732   -4.8390466   -4.8390466   -3.7879717 0.0055407776   -4.8390466    1.0510749  1010000 
 2490000   0.70108728   -4.8382512   -4.8382512   -3.7866213 0.0065653263   -4.8382512    1.0516299  1010000 
 2491000    0.7003272   -4.8389107   -4.8389107   -3.7884209 0.0056721604   -4.8389107    1.0504898  1010000 
 2492000   0.70034548   -4.8372733   -4.8372733   -3.7867562 0.0052414691   -4.8372733    1.0505172  1010000 
 2493000    0.7004064   -4.8392427   -4.8392427   -3.7886341 0.0020904457   -4.8392427    1.0506086  1010000 
 2494000    0.6995906   -4.8381725   -4.8381725   -3.7887876 0.0034680754   -4.8381725    1.0493849  1010000 
 2495000   0.70026468   -4.8377161   -4.8377161   -3.7873201  0.005440585   -4.8377161     1.050396  1010000 
 2496000   0.70038718   -4.8381489   -4.8381489   -3.7875692 0.0064015464   -4.8381489    1.0505797  1010000 
 2497000   0.69977288   -4.8385056   -4.8385056   -3.7888473 0.0034450381   -4.8385056    1.0496583  1010000 
 2498000   0.69991052   -4.8375006   -4.8375006   -3.7876358 0.0064417284   -4.8375006    1.0498647  1010000 
 2499000   0.70020426   -4.8380917   -4.8380917   -3.7877864 0.0033118015   -4.8380917    1.0503054  1010000 
 2500000   0.70016035   -4.8368771   -4.8368771   -3.7866376 0.0066703749   -4.8368771    1.0502395  1010000 
 2501000   0.69915458   -4.8373749   -4.8373749   -3.7886441 0.0055069642   -4.8373749    1.0487308  1010000 
 2502000   0.69917534   -4.8381336   -4.8381336   -3.7893716 0.0059578572   -4.8381336     1.048762  1010000 
 2503000   0.70005516   -4.8392741   -4.8392741   -3.7891924 0.00018442878   -4.8392741    1.0500817  1010000 
 2504000   0.69949379   -4.8366371   -4.8366371   -3.7873974 0.0051854821   -4.8366371    1.0492397  1010000 
 2505000   0.70071725   -4.8368766   -4.8368766   -3.7858017 0.0048229864   -4.8368766    1.0510748  1010000 
 2506000   0.69952172   -4.8361334   -4.8361334   -3.7868519 0.0059500758   -4.8361334    1.0492815  1010000 
 2507000   0.69961117   -4.8359522   -4.8359522   -3.7865365 0.0045245684   -4.8359522    1.0494157  1010000 
 2508000   0.70083901   -4.8391315   -4.8391315    -3.787874 0.0019502667   -4.8391315    1.0512575  1010000 
 2509000    0.7005555   -4.8373705   -4.8373705   -3.7865383 0.0060065848   -4.8373705    1.0508322  1010000 
 2510000   0.70029619   -4.8373789   -4.8373789   -3.7869357 0.0056862641   -4.8373789    1.0504432  1010000 
 2511000   0.69956103   -4.8378703   -4.8378703   -3.7885298 0.00063783814   -4.8378703    1.0493405  1010000 
 2512000   0.69904852   -4.8378934   -4.8378934   -3.7893216 0.0012357094   -4.8378934    1.0485717  1010000 
 2513000   0.69995981   -4.8376755   -4.8376755   -3.7877368 0.0036155355   -4.8376755    1.0499387  1010000 
 2514000   0.70002565   -4.8379681   -4.8379681   -3.7879306 0.0063375121   -4.8379681    1.0500374  1010000 
 2515000    0.6998202   -4.8378108   -4.8378108   -3.7880815 0.0037742141   -4.8378108    1.0497293  1010000 
 2516000   0.70041162   -4.8374667   -4.8374667   -3.7868503 0.0053863771   -4.8374667    1.0506164  1010000 
 2517000   0.70061679    -4.839941    -4.839941   -3.7890169 0.0025733157    -4.839941    1.0509241  1010000 
 2518000   0.70094081   -4.8389974   -4.8389974   -3.7875873 0.0071869291   -4.8389974    1.0514102  1010000 
 2519000   0.70042041   -4.8398144   -4.8398144   -3.7891848 0.0050665097   -4.8398144    1.0506296  1010000 
 2520000   0.70055767   -4.8405952   -4.8405952   -3.7897597 0.00049547124   -4.8405952    1.0508355  1010000 
 2521000   0.69997277    -4.839098    -4.839098   -3.7891399 0.0054794218    -4.839098    1.0499581  1010000 
 2522000   0.69993184   -4.8391235   -4.8391235   -3.7892268 0.0038206793   -4.8391235    1.0498967  1010000 
 2523000   0.69907234   -4.8382108   -4.8382108   -3.7896033 0.0071735439   -4.8382108    1.0486075  1010000 
 2524000   0.70022565   -4.8381155   -4.8381155   -3.7877781 0.0084006016   -4.8381155    1.0503374  1010000 
 2525000   0.70048522   -4.8390009   -4.8390009   -3.7882741  0.006473154   -4.8390009    1.0507268  1010000 
 2526000   0.69823674   -4.8389352   -4.8389352   -3.7915812 0.0030232338   -4.8389352    1.0473541  1010000 
 2527000   0.70016587   -4.8370174   -4.8370174   -3.7867696 0.0082167823   -4.8370174    1.0502478  1010000 
 2528000   0.70009183   -4.8373241   -4.8373241   -3.7871874 0.0073029723   -4.8373241    1.0501367  1010000 
 2529000    0.7000482   -4.8372379   -4.8372379   -3.7871666 0.0056459692   -4.8372379    1.0500713  1010000 
 2530000   0.70007662   -4.8370265   -4.8370265   -3.7869126 0.0064179636   -4.8370265    1.0501139  1010000 
 2531000   0.69901592   -4.8365039   -4.8365039    -3.787981 0.0060769799   -4.8365039    1.0485228  1010000 
 2532000   0.69916315   -4.8369307   -4.8369307   -3.7881871 0.0033326852   -4.8369307    1.0487437  1010000 
 2533000   0.69935215   -4.8363119   -4.8363119   -3.7872847 0.0045948116   -4.8363119    1.0490272  1010000 
 2534000   0.70037356   -4.8359973   -4.8359973    -3.785438 0.0063737929   -4.8359973    1.0505593  1010000 
 2535000   0.69947928   -4.8355253   -4.8355253   -3.7863075 0.0054030137   -4.8355253    1.0492179  1010000 
 2536000   0.70014064    -4.837114    -4.837114   -3.7869041 0.0048343329    -4.837114    1.0502099  1010000 
 2537000   0.70015581   -4.8365054   -4.8365054   -3.7862727  0.004102822   -4.8365054    1.0502327  1010000 
 2538000   0.69956194   -4.8358944   -4.8358944   -3.7865525 0.0054917073   -4.8358944    1.0493419  1010000 
 2539000   0.70066578   -4.8357689   -4.8357689   -3.7847713 0.0068625679   -4.8357689    1.0509976  1010000 
 2540000   0.70035276   -4.8361906   -4.8361906   -3.7856625 0.0040691561   -4.8361906    1.0505281  1010000 
 2541000   0.69995455    -4.836796    -4.836796   -3.7868652 0.0012614362    -4.836796    1.0499308  1010000 
 2542000   0.70044886   -4.8370183   -4.8370183    -3.786346 0.0032116084   -4.8370183    1.0506722  1010000 
 2543000   0.70055397   -4.8374367   -4.8374367   -3.7866068 0.0049051046   -4.8374367    1.0508299  1010000 
 2544000   0.69982204   -4.8373566   -4.8373566   -3.7876246 0.0035850708   -4.8373566     1.049732  1010000 
 2545000   0.70041446   -4.8376878   -4.8376878   -3.7870672 0.0021001251   -4.8376878    1.0506206  1010000 
 2546000    0.7001355   -4.8374255   -4.8374255   -3.7872233 0.0055802141   -4.8374255    1.0502022  1010000 
 2547000   0.70018273    -4.837828    -4.837828   -3.7875549 0.0068779145    -4.837828     1.050273  1010000 
 2548000   0.69841609   -4.8374325   -4.8374325   -3.7898094 0.0041618621   -4.8374325    1.0476231  1010000 
 2549000   0.69972136   -4.8385562   -4.8385562   -3.7889752 0.0064593524   -4.8385562     1.049581  1010000 
 2550000   0.69997663   -4.8385888   -4.8385888   -3.7886249 0.0051847215   -4.8385888    1.0499639  1010000 
 2551000   0.69912951   -4.8396132   -4.8396132   -3.7909199  0.005087482   -4.8396132    1.0486932  1010000 
 2552000   0.69919816   -4.8400389   -4.8400389   -3.7912427 0.0036993673   -4.8400389    1.0487962  1010000 
 2553000   0.69902379   -4.8396091   -4.8396091   -3.7910745 0.0060134723   -4.8396091    1.0485347  1010000 
 2554000   0.70026881   -4.8389019   -4.8389019   -3.7884998 0.0089498138   -4.8389019    1.0504022  1010000 
 2555000   0.70042835   -4.8407124   -4.8407124   -3.7900709 0.0067761075   -4.8407124    1.0506415  1010000 
 2556000   0.70110924   -4.8402433   -4.8402433   -3.7885805 0.0083427628   -4.8402433    1.0516628  1010000 
 2557000   0.69888766   -4.8377883   -4.8377883   -3.7894578 0.0093486021   -4.8377883    1.0483305  1010000 
 2558000   0.70027342   -4.8401361   -4.8401361   -3.7897271 0.0054087573   -4.8401361    1.0504091  1010000 
 2559000   0.69970712   -4.8392088   -4.8392088   -3.7896492 0.0058790966   -4.8392088    1.0495596  1010000 
 2560000   0.69949772   -4.8414718   -4.8414718   -3.7922263 0.0016786103   -4.8414718    1.0492455  1010000 
 2561000   0.70030865   -4.8384884   -4.8384884   -3.7880264 0.0094317726   -4.8384884    1.0504619  1010000 
 2562000   0.70060016   -4.8381019   -4.8381019   -3.7872027 0.0081340306   -4.8381019    1.0508992  1010000 
 2563000   0.69940962   -4.8364213   -4.8364213   -3.7873079 0.0086620305   -4.8364213    1.0491134  1010000 
 2564000   0.69925464   -4.8374329   -4.8374329   -3.7885519 0.0026787296   -4.8374329    1.0488809  1010000 
 2565000   0.69880504   -4.8370836   -4.8370836    -3.788877 0.0024965971   -4.8370836    1.0482065  1010000 
 2566000   0.69971112   -4.8359398   -4.8359398   -3.7863742 0.0045339326   -4.8359398    1.0495656  1010000 
 2567000   0.69941471    -4.836477    -4.836477    -3.787356  0.004248505    -4.836477     1.049121  1010000 
 2568000   0.70049204   -4.8357266   -4.8357266   -3.7849896 0.0049363786   -4.8357266     1.050737  1010000 
 2569000    0.6992875   -4.8366318   -4.8366318   -3.7877016 0.0021876211   -4.8366318    1.0489302  1010000 
 2570000   0.69910967   -4.8366531   -4.8366531   -3.7879896 0.0015330454   -4.8366531    1.0486635  1010000 
 2571000    0.7000908   -4.8359163   -4.8359163   -3.7857812 0.0015815911   -4.8359163    1.0501352  1010000 
 2572000   0.69932834   -4.8355444   -4.8355444   -3.7865529 0.0031155652   -4.8355444    1.0489915  1010000 
 2573000    0.6992034   -4.8363399   -4.8363399   -3.7875359 0.0025526831   -4.8363399    1.0488041  1010000 
 2574000   0.70136982   -4.8365905   -4.8365905   -3.7845368 0.00056877296   -4.8365905    1.0520537  1010000 
 2575000   0.70019915   -4.8362781   -4.8362781   -3.7859804 0.0048960804   -4.8362781    1.0502977  1010000 
 2576000   0.69999268    -4.838251    -4.838251    -3.788263 0.00034618518    -4.838251     1.049988  1010000 
 2577000   0.69980112   -4.8365135   -4.8365135   -3.7868129 0.0057570717   -4.8365135    1.0497006  1010000 
 2578000   0.70090528    -4.836631    -4.836631   -3.7852741 0.0038882718    -4.836631    1.0513569  1010000 
 2579000   0.70073851   -4.8375668   -4.8375668   -3.7864601  0.005430817   -4.8375668    1.0511067  1010000 
 2580000   0.70025952   -4.8389632   -4.8389632    -3.788575 0.0038791806   -4.8389632    1.0503882  1010000 
 2581000    0.6999499   -4.8394693   -4.8394693   -3.7895455 0.0030055311   -4.8394693    1.0499238  1010000 
 2582000   0.69967509   -4.8391057   -4.8391057   -3.7895941 0.0050398069   -4.8391057    1.0495116  1010000 
 2583000   0.70029708   -4.8384328   -4.8384328   -3.7879882  0.008213687   -4.8384328    1.0504446  1010000 
 2584000   0.69930119   -4.8384813   -4.8384813   -3.7895305 0.0067510095   -4.8384813    1.0489507  1010000 
 2585000   0.69843841   -4.8375071   -4.8375071   -3.7898505  0.010787117   -4.8375071    1.0476566  1010000 
 2586000    0.6999994   -4.8377621   -4.8377621    -3.787764 0.0074740482   -4.8377621    1.0499981  1010000 
 2587000   0.69922529   -4.8393769   -4.8393769     -3.79054 0.0014833385   -4.8393769    1.0488369  1010000 
 2588000   0.69939751   -4.8378881   -4.8378881   -3.7887928  0.005432687   -4.8378881    1.0490952  1010000 
 2589000    0.6999017   -4.8382082   -4.8382082   -3.7883567 0.0083423317   -4.8382082    1.0498515  1010000 
 2590000   0.70021688   -4.8390821   -4.8390821   -3.7887579 0.0050581434   -4.8390821    1.0503243  1010000 
 2591000   0.69905426   -4.8391017   -4.8391017   -3.7905213 0.0046638524   -4.8391017    1.0485803  1010000 
 2592000   0.70021721   -4.8383929   -4.8383929   -3.7880681 0.0066263651   -4.8383929    1.0503248  1010000 
 2593000   0.70076518   -4.8385896   -4.8385896   -3.7874429 0.0062305468   -4.8385896    1.0511467  1010000 
 2594000   0.69945173   -4.8383267   -4.8383267   -3.7891501 0.0056501009   -4.8383267    1.0491766  1010000 
 2595000    0.6994204   -4.8370751   -4.8370751   -3.7879456 0.0059327837   -4.8370751    1.0491296  1010000 
 2596000   0.70021262   -4.8362628   -4.8362628   -3.7859449 0.0075920749   -4.8362628    1.0503179  1010000 
 2597000    0.7007584   -4.8361381   -4.8361381   -3.7850015  0.012548435   -4.8361381    1.0511366  1010000 
 2598000   0.69874931   -4.8367217   -4.8367217   -3.7885988 0.0044987342   -4.8367217    1.0481229  1010000 
 2599000   0.69992336   -4.8380224   -4.8380224   -3.7881384 0.0016350158   -4.8380224     1.049884  1010000 
 2600000   0.70038168   -4.8359767   -4.8359767   -3.7854052 0.0063228916   -4.8359767    1.0505715  1010000 
 2601000   0.69866508   -4.8371765   -4.8371765   -3.7891799 0.0022950955   -4.8371765    1.0479966  1010000 
 2602000   0.70035229   -4.8375544   -4.8375544    -3.787027 0.0014598043   -4.8375544    1.0505274  1010000 
 2603000     0.698462   -4.8375857   -4.8375857   -3.7898937 -0.00037932005   -4.8375857     1.047692  1010000 
 2604000    0.6995937   -4.8348219   -4.8348219   -3.7854324 0.0037815381   -4.8348219    1.0493895  1010000 
 2605000   0.70023362   -4.8355808   -4.8355808   -3.7852314 0.0036442632   -4.8355808    1.0503494  1010000 
 2606000   0.69974791   -4.8371351   -4.8371351   -3.7875142 -0.0017646719   -4.8371351    1.0496208  1010000 
 2607000   0.69969087    -4.836897    -4.836897   -3.7873617  0.003215975    -4.836897    1.0495353  1010000 
 2608000   0.69991276   -4.8358278   -4.8358278   -3.7859597 0.0054045204   -4.8358278    1.0498681  1010000 
 2609000   0.69919675   -4.8365732   -4.8365732   -3.7877792 0.0043541231   -4.8365732    1.0487941  1010000 
 2610000   0.69975286   -4.8378146   -4.8378146   -3.7881864 0.00027418173   -4.8378146    1.0496282  1010000 
 2611000   0.70002915   -4.8363601   -4.8363601   -3.7863175 0.0048412594   -4.8363601    1.0500427  1010000 
 2612000   0.70069542   -4.8375608   -4.8375608   -3.7865187 0.00054456634   -4.8375608    1.0510421  1010000 
 2613000   0.69973636    -4.836431    -4.836431   -3.7868275 0.0059439298    -4.836431    1.0496035  1010000 
 2614000     0.700802   -4.8376161   -4.8376161   -3.7864141 0.0090901802   -4.8376161     1.051202  1010000 
 2615000   0.70070294   -4.8382236   -4.8382236   -3.7871702 0.0087898335   -4.8382236    1.0510534  1010000 
 2616000     0.700578   -4.8388877   -4.8388877   -3.7880218 0.0056018318   -4.8388877     1.050866  1010000 
 2617000   0.69962987   -4.8390181   -4.8390181   -3.7895743 0.00094864496   -4.8390181    1.0494438  1010000 
 2618000   0.69875285   -4.8378447   -4.8378447   -3.7897165 0.0056677689   -4.8378447    1.0481282  1010000 
 2619000   0.70061179   -4.8385401   -4.8385401   -3.7876235 0.0050436518   -4.8385401    1.0509166  1010000 
 2620000   0.69926361    -4.837278    -4.837278   -3.7883837 0.0085906745    -4.837278    1.0488944  1010000 
 2621000   0.69988519   -4.8386634   -4.8386634   -3.7888367 0.0072717716   -4.8386634    1.0498267  1010000 
 2622000   0.70055349   -4.8402221   -4.8402221   -3.7893929 0.0034255186   -4.8402221    1.0508292  1010000 
 2623000   0.69951304   -4.8394873   -4.8394873   -3.7902188 0.0050408812   -4.8394873    1.0492685  1010000 
 2624000   0.69902543   -4.8391012   -4.8391012   -3.7905641 0.0048442323   -4.8391012    1.0485371  1010000 
 2625000   0.70016144   -4.8380732   -4.8380732    -3.787832 0.0069834912   -4.8380732    1.0502411  1010000 
 2626000   0.70043952   -4.8385174   -4.8385174   -3.7878592 0.0042327959   -4.8385174    1.0506582  1010000 
 2627000   0.69975266   -4.8380453   -4.8380453   -3.7884173 0.0041135814   -4.8380453    1.0496279  1010000 
 2628000   0.70021278   -4.8391049   -4.8391049   -3.7887868  0.000401026   -4.8391049    1.0503181  1010000 
 2629000   0.70030951   -4.8383283   -4.8383283    -3.787865 0.0021075132   -4.8383283    1.0504632  1010000 
 2630000    0.6995798   -4.8377254   -4.8377254   -3.7883567 0.0039562445   -4.8377254    1.0493687  1010000 
 2631000   0.69943483   -4.8388394   -4.8388394   -3.7896882 0.0014412944   -4.8388394    1.0491512  1010000 
 2632000    0.7002221   -4.8364493   -4.8364493   -3.7861172  0.004054326   -4.8364493    1.0503321  1010000 
 2633000   0.69906741   -4.8369978   -4.8369978   -3.7883977 0.0039418659   -4.8369978    1.0486001  1010000 
 2634000   0.70065629    -4.836087    -4.836087   -3.7851036 0.0029399188    -4.836087    1.0509834  1010000 
 2635000   0.70088956   -4.8354668   -4.8354668   -3.7841335 0.0082228077   -4.8354668    1.0513333  1010000 
 2636000   0.69996722   -4.8370401   -4.8370401   -3.7870903 0.0037441157   -4.8370401    1.0499498  1010000 
 2637000   0.69947047   -4.8376193   -4.8376193   -3.7884146 0.0013609504   -4.8376193    1.0492047  1010000 
 2638000   0.69966209   -4.8369257   -4.8369257   -3.7874336 0.0023077118   -4.8369257    1.0494921  1010000 
 2639000   0.70017061   -4.8376286   -4.8376286   -3.7873737 -0.00050941701   -4.8376286    1.0502549  1010000 
 2640000   0.70078371   -4.8369763   -4.8369763   -3.7858018 0.0032048119   -4.8369763    1.0511745  1010000 
 2641000   0.69929319   -4.8372011   -4.8372011   -3.7882624  0.004202508   -4.8372011    1.0489387  1010000 
 2642000   0.70013055   -4.8365071   -4.8365071   -3.7863123 0.0061064182   -4.8365071    1.0501948  1010000 
 2643000   0.69998134   -4.8385211   -4.8385211   -3.7885501 0.00094413973   -4.8385211     1.049971  1010000 
 2644000   0.69983757   -4.8387643   -4.8387643    -3.789009 0.0038903786   -4.8387643    1.0497553  1010000 
 2645000   0.69922519   -4.8390206   -4.8390206   -3.7901838 0.0058884397   -4.8390206    1.0488367  1010000 
 2646000   0.69981986   -4.8388786   -4.8388786   -3.7891498   0.00443368   -4.8388786    1.0497288  1010000 
 2647000   0.69953975   -4.8382835   -4.8382835    -3.788975  0.004425135   -4.8382835    1.0493086  1010000 
 2648000   0.70022464    -4.839449    -4.839449   -3.7891131 0.0041969141    -4.839449    1.0503359  1010000 
 2649000   0.70087484   -4.8375969   -4.8375969   -3.7862857  0.010905285   -4.8375969    1.0513112  1010000 
 2650000   0.69954196   -4.8384841   -4.8384841   -3.7891722 0.0090899802   -4.8384841    1.0493119  1010000 
 2651000   0.70115389   -4.8392775   -4.8392775   -3.7875477 0.0045087806   -4.8392775    1.0517298  1010000 
 2652000   0.70104973   -4.8387745   -4.8387745   -3.7872009  0.010709697   -4.8387745    1.0515736  1010000 
 2653000   0.69935384   -4.8396976   -4.8396976   -3.7906678 0.0027038297   -4.8396976    1.0490297  1010000 
 2654000   0.70039035   -4.8376897   -4.8376897   -3.7871052  0.010027207   -4.8376897    1.0505845  1010000 
 2655000   0.69973598   -4.8379599   -4.8379599    -3.788357 0.0059469093   -4.8379599    1.0496029  1010000 
 2656000   0.69959135   -4.8374736   -4.8374736   -3.7880877 0.0049134271   -4.8374736     1.049386  1010000 
 2657000   0.69907888   -4.8369364   -4.8369364   -3.7883191 0.0050435923   -4.8369364    1.0486173  1010000 
 2658000   0.70088115   -4.8365373   -4.8365373   -3.7852166 0.0083348717   -4.8365373    1.0513207  1010000 
 2659000   0.70045663   -4.8368517   -4.8368517   -3.7861678 0.0061032097   -4.8368517    1.0506839  1010000 
 2660000   0.70010372   -4.8361197   -4.8361197   -3.7859652 0.0056363024   -4.8361197    1.0501545  1010000 
 2661000   0.69949822   -4.8375221   -4.8375221   -3.7882758 0.0032415439   -4.8375221    1.0492463  1010000 
 2662000   0.69995042   -4.8350232   -4.8350232   -3.7850986 0.0038798402   -4.8350232    1.0499246  1010000 
 2663000   0.69981607   -4.8353027   -4.8353027   -3.7855796 0.0037388798   -4.8353027    1.0497231  1010000 
 2664000   0.69957142   -4.8363762   -4.8363762   -3.7870201 -0.000953316   -4.8363762    1.0493561  1010000 
 2665000   0.70008181   -4.8346971   -4.8346971   -3.7845754 0.0034839691   -4.8346971    1.0501217  1010000 
 2666000   0.69926851   -4.8361299   -4.8361299   -3.7872282 0.0010462843   -4.8361299    1.0489017  1010000 
 2667000   0.69988102   -4.8366419   -4.8366419   -3.7868214 0.0042926245   -4.8366419    1.0498205  1010000 
 2668000   0.70010449   -4.8362436   -4.8362436   -3.7860879   0.00326574   -4.8362436    1.0501557  1010000 
 2669000   0.70121717   -4.8363678   -4.8363678   -3.7845431 0.0040540888   -4.8363678    1.0518247  1010000 
 2670000   0.69986268   -4.8375384   -4.8375384   -3.7877454 0.0026074392   -4.8375384     1.049793  1010000 
 2671000   0.70086984   -4.8362697   -4.8362697    -3.784966 0.0065343205   -4.8362697    1.0513037  1010000 
 2672000   0.70019403   -4.8361816   -4.8361816   -3.7858916 0.0039603964   -4.8361816      1.05029  1010000 
 2673000   0.70083794    -4.837572    -4.837572   -3.7863162  0.005709716    -4.837572    1.0512559  1010000 
 2674000   0.70071124   -4.8380471   -4.8380471   -3.7869813 0.0046894922   -4.8380471    1.0510658  1010000 
 2675000   0.70033714   -4.8373786   -4.8373786    -3.786874 0.0094682124   -4.8373786    1.0505047  1010000 
 2676000   0.69956693   -4.8390613   -4.8390613    -3.789712 0.0057500541   -4.8390613    1.0493494  1010000 
 2677000   0.69944441   -4.8380449   -4.8380449   -3.7888793 0.0069263528   -4.8380449    1.0491656  1010000 
 2678000   0.69926031   -4.8377856   -4.8377856   -3.7888961  0.009000147   -4.8377856    1.0488894  1010000 
 2679000   0.70006454   -4.8394885   -4.8394885   -3.7893927 0.0044926501   -4.8394885    1.0500958  1010000 
 2680000   0.70036094   -4.8389201   -4.8389201   -3.7883798 0.0057886673   -4.8389201    1.0505404  1010000 
 2681000   0.69971091   -4.8396905   -4.8396905   -3.7901251 0.0048844986   -4.8396905    1.0495653  1010000 
 2682000   0.69914451   -4.8400944   -4.8400944   -3.7913787 0.0042369925   -4.8400944    1.0487157  1010000 
 2683000   0.69975221   -4.8403522   -4.8403522   -3.7907249 0.0068236912   -4.8403522    1.0496273  1010000 
 2684000   0.70018615   -4.8395239   -4.8395239   -3.7892457 0.0060590812   -4.8395239    1.0502782  1010000 
 2685000   0.70005806   -4.8391579   -4.8391579   -3.7890718 0.0059684564   -4.8391579    1.0500861  1010000 
 2686000   0.69953212   -4.8396429   -4.8396429   -3.7903458 0.0015043128   -4.8396429    1.0492971  1010000 
 2687000   0.70012468   -4.8373589   -4.8373589    -3.787173  0.010068659   -4.8373589     1.050186  1010000 
 2688000   0.69991949   -4.8384531   -4.8384531   -3.7885749 0.0075422778   -4.8384531    1.0498782  1010000 
 2689000   0.70033599   -4.8378877   -4.8378877   -3.7873847 0.0075340812   -4.8378877    1.0505029  1010000 
 2690000   0.70003191   -4.8380348   -4.8380348   -3.7879879 0.0071985293   -4.8380348    1.0500468  1010000 
 2691000   0.69963476   -4.8369981   -4.8369981    -3.787547 0.0041308831   -4.8369981    1.0494511  1010000 
 2692000   0.69893115   -4.8374102   -4.8374102   -3.7890145 0.0027885649   -4.8374102    1.0483957  1010000 
 2693000   0.70047864   -4.8373187   -4.8373187   -3.7866018 0.0031582247   -4.8373187    1.0507169  1010000 
 2694000   0.70132859   -4.8368627   -4.8368627   -3.7848708  0.003693927   -4.8368627    1.0519918  1010000 
 2695000   0.69947349   -4.8350148   -4.8350148   -3.7858056 0.0027559274   -4.8350148    1.0492092  1010000 
 2696000   0.69995231   -4.8372355   -4.8372355   -3.7873081 -0.00047459258   -4.8372355    1.0499274  1010000 
 2697000   0.69960815   -4.8361926   -4.8361926   -3.7867814 0.0051367588   -4.8361926    1.0494112  1010000 
 2698000   0.69969842   -4.8368603   -4.8368603   -3.7873137 -0.00069357285   -4.8368603    1.0495466  1010000 
 2699000   0.70037841   -4.8357219   -4.8357219   -3.7851553 0.00079807364   -4.8357219    1.0505666  1010000 
 2700000   0.69956843   -4.8361321   -4.8361321   -3.7867805 0.00021242818   -4.8361321    1.0493516  1010000 
 2701000   0.70066743   -4.8359855   -4.8359855   -3.7849854 0.0018893862   -4.8359855    1.0510001  1010000 
 2702000   0.70112476   -4.8372124   -4.8372124   -3.7855263 0.0036036564   -4.8372124    1.0516861  1010000 
 2703000   0.70100819   -4.8379427   -4.8379427   -3.7864315 -0.0020012596   -4.8379427    1.0515112  1010000 
 2704000   0.69990779   -4.8376749   -4.8376749   -3.7878143 0.0051895932   -4.8376749    1.0498606  1010000 
 2705000   0.70061574   -4.8377534   -4.8377534   -3.7868308 0.0069930347   -4.8377534    1.0509226  1010000 
 2706000   0.69884974   -4.8376345   -4.8376345   -3.7893609 0.0075337467   -4.8376345    1.0482736  1010000 
 2707000   0.69951267   -4.8380127   -4.8380127   -3.7887448 0.0056296159   -4.8380127     1.049268  1010000 
 2708000   0.69991085   -4.8379713   -4.8379713    -3.788106 0.0061220493   -4.8379713    1.0498652  1010000 
 2709000   0.70095311   -4.8399995   -4.8399995   -3.7885708 0.0060120767   -4.8399995    1.0514286  1010000 
 2710000   0.70114015   -4.8396004   -4.8396004   -3.7878912 0.0087195672   -4.8396004    1.0517092  1010000 
 2711000   0.70015216   -4.8398126   -4.8398126   -3.7895854  0.005589566   -4.8398126    1.0502272  1010000 
 2712000   0.70019525   -4.8405998   -4.8405998   -3.7903079 0.0048371342   -4.8405998    1.0502918  1010000 
 2713000   0.70059094   -4.8396354   -4.8396354     -3.78875 0.0086280477   -4.8396354    1.0508854  1010000 
 2714000   0.70080475   -4.8397635   -4.8397635   -3.7885574 0.0025766183   -4.8397635    1.0512061  1010000 
 2715000   0.69995744   -4.8395699   -4.8395699   -3.7896348 0.0051586801   -4.8395699    1.0499351  1010000 
 2716000   0.70043007   -4.8385956   -4.8385956   -3.7879515 0.0064492734   -4.8385956    1.0506441  1010000 
 2717000   0.70003311   -4.8376365   -4.8376365   -3.7875879 0.0055655635   -4.8376365    1.0500486  1010000 
 2718000   0.70096145   -4.8385731   -4.8385731    -3.787132 0.0037871973   -4.8385731    1.0514411  1010000 
 2719000   0.70048666   -4.8385771   -4.8385771   -3.7878482 0.0046942265   -4.8385771    1.0507289  1010000 
 2720000   0.69976279   -4.8374765   -4.8374765   -3.7878333 0.0038707101   -4.8374765    1.0496432  1010000 
 2721000   0.70022983    -4.836813    -4.836813   -3.7864693 0.0053150914    -4.836813    1.0503437  1010000 
 2722000   0.69993484   -4.8358031   -4.8358031   -3.7859019  0.002972948   -4.8358031    1.0499012  1010000 
 2723000   0.69955256   -4.8357273   -4.8357273   -3.7863995 0.00068767317   -4.8357273    1.0493278  1010000 
 2724000   0.69998993   -4.8356592   -4.8356592   -3.7856753 0.0030599299   -4.8356592    1.0499839  1010000 
 2725000   0.70039988   -4.8362096   -4.8362096   -3.7856109 0.0014561082   -4.8362096    1.0505988  1010000 
 2726000   0.69983467   -4.8355274   -4.8355274   -3.7857765 0.0023903745   -4.8355274     1.049751  1010000 
 2727000   0.70051731   -4.8370515   -4.8370515   -3.7862766 -0.00062810114   -4.8370515    1.0507749  1010000 
 2728000   0.70043326   -4.8370186   -4.8370186   -3.7863698 -0.00099401974   -4.8370186    1.0506489  1010000 
 2729000   0.70024849    -4.836577    -4.836577   -3.7862053 0.00023805353    -4.836577    1.0503717  1010000 
 2730000   0.69986778   -4.8358625   -4.8358625   -3.7860618 0.0007067415   -4.8358625    1.0498006  1010000 
 2731000    0.7006798   -4.8368398   -4.8368398   -3.7858211 0.0010400916   -4.8368398    1.0510187  1010000 
 2732000   0.69995463   -4.8370764   -4.8370764   -3.7871455 0.00081878314   -4.8370764    1.0499309  1010000 
 2733000   0.70043581    -4.838619    -4.838619   -3.7879663 -0.00098666683    -4.838619    1.0506527  1010000 
 2734000   0.70056517   -4.8368366   -4.8368366   -3.7859898 0.0082114174   -4.8368366    1.0508467  1010000 
 2735000   0.70067989   -4.8380895   -4.8380895   -3.7870707 0.0076897672   -4.8380895    1.0510188  1010000 
 2736000   0.70005823    -4.839523    -4.839523   -3.7894367 0.0018198447    -4.839523    1.0500863  1010000 
 2737000   0.70073055   -4.8377672   -4.8377672   -3.7866725 0.0046070295   -4.8377672    1.0510948  1010000 
 2738000   0.70108215   -4.8376566   -4.8376566   -3.7860345 0.0072065488   -4.8376566    1.0516222  1010000 
 2739000   0.69908448   -4.8370477   -4.8370477   -3.7884221 0.0077813893   -4.8370477    1.0486257  1010000 
 2740000   0.69967794   -4.8379931   -4.8379931   -3.7884772 0.0082830422   -4.8379931    1.0495159  1010000 
 2741000   0.69935283   -4.8396535   -4.8396535   -3.7906253 0.0068897877   -4.8396535    1.0490282  1010000 
 2742000   0.69928267   -4.8408455   -4.8408455   -3.7919226  0.002405762   -4.8408455     1.048923  1010000 
 2743000   0.69999096   -4.8396047   -4.8396047   -3.7896193 0.0077671116   -4.8396047    1.0499854  1010000 
 2744000    0.6999612   -4.8388644   -4.8388644   -3.7889236 0.0028523839   -4.8388644    1.0499408  1010000 
 2745000   0.70023511   -4.8367242   -4.8367242   -3.7863726 0.0060524958   -4.8367242    1.0503516  1010000 
 2746000   0.69987421   -4.8369515   -4.8369515   -3.7871412 0.0060475118   -4.8369515    1.0498103  1010000 
 2747000   0.70085266   -4.8383485   -4.8383485   -3.7870706 0.0040180575   -4.8383485     1.051278  1010000 
 2748000    0.6988224   -4.8375077   -4.8375077   -3.7892751 0.0072878949   -4.8375077    1.0482326  1010000 
 2749000   0.70041164   -4.8391339   -4.8391339   -3.7885175 0.0036910558   -4.8391339    1.0506164  1010000 
 2750000   0.69984023   -4.8389594   -4.8389594   -3.7892001 0.0015532077   -4.8389594    1.0497593  1010000 
 2751000   0.70037997   -4.8359496   -4.8359496   -3.7853807 0.0086678676   -4.8359496    1.0505689  1010000 
 2752000   0.70061514   -4.8373206   -4.8373206   -3.7863989 0.0034202414   -4.8373206    1.0509217  1010000 
 2753000   0.69947033   -4.8367782   -4.8367782   -3.7875737 0.0020860179   -4.8367782    1.0492044  1010000 
 2754000    0.7002817   -4.8360171   -4.8360171   -3.7855956 0.0037479375   -4.8360171    1.0504215  1010000 
 2755000   0.69960502   -4.8362554   -4.8362554   -3.7868489 0.0051428263   -4.8362554    1.0494065  1010000 
 2756000   0.69984234   -4.8381464   -4.8381464   -3.7883839 0.00044169171   -4.8381464    1.0497625  1010000 
 2757000   0.70079816   -4.8374122   -4.8374122    -3.786216 0.0048156542   -4.8374122    1.0511962  1010000 
 2758000   0.69960031   -4.8374426   -4.8374426   -3.7880432 0.0035196341   -4.8374426    1.0493994  1010000 
 2759000   0.70075642   -4.8355101   -4.8355101   -3.7843765 0.0095033638   -4.8355101    1.0511336  1010000 
 2760000    0.6995076   -4.8375241   -4.8375241   -3.7882638  0.003504984   -4.8375241    1.0492604  1010000 
 2761000   0.69991789   -4.8366975   -4.8366975   -3.7868217 0.0046822194   -4.8366975    1.0498758  1010000 
 2762000   0.70007268   -4.8360099   -4.8360099   -3.7859019 0.0097471784   -4.8360099     1.050108  1010000 
 2763000   0.69975412   -4.8388375   -4.8388375   -3.7892073 0.0038904146   -4.8388375    1.0496301  1010000 
 2764000   0.69960739   -4.8383044   -4.8383044   -3.7888944 0.0030869936   -4.8383044      1.04941  1010000 
 2765000   0.70010359   -4.8382942   -4.8382942   -3.7881399 0.0067307718   -4.8382942    1.0501543  1010000 
 2766000   0.69994378     -4.83736     -4.83736   -3.7874454 0.0065451106     -4.83736    1.0499146  1010000 
 2767000    0.7000094   -4.8384058   -4.8384058   -3.7883927 0.0038295608   -4.8384058    1.0500131  1010000 
 2768000    0.7008046   -4.8376401   -4.8376401   -3.7864343 0.0029019038   -4.8376401    1.0512059  1010000 
 2769000   0.69990684   -4.8367851   -4.8367851   -3.7869259 0.0068309007   -4.8367851    1.0498592  1010000 
 2770000   0.69940792   -4.8375526   -4.8375526   -3.7884418 0.0057749187   -4.8375526    1.0491108  1010000 
 2771000   0.69944204   -4.8383025   -4.8383025   -3.7891405 0.0039424306   -4.8383025     1.049162  1010000 
 2772000   0.70086745   -4.8379228   -4.8379228   -3.7866227 0.0049347851   -4.8379228    1.0513001  1010000 
 2773000   0.70045759   -4.8383832   -4.8383832   -3.7876978 0.0055128163   -4.8383832    1.0506853  1010000 
 2774000   0.70003307   -4.8376321   -4.8376321   -3.7875835 0.0045623681   -4.8376321    1.0500486  1010000 
 2775000   0.70029989   -4.8367075   -4.8367075   -3.7862587 0.0091120231   -4.8367075    1.0504488  1010000 
 2776000    0.7003837   -4.8378373   -4.8378373   -3.7872628 0.0053952279   -4.8378373    1.0505745  1010000 
 2777000   0.70020232   -4.8378254   -4.8378254   -3.7875229 0.0036762418   -4.8378254    1.0503024  1010000 
 2778000   0.69958334   -4.8385556   -4.8385556   -3.7891817 0.0022270661   -4.8385556     1.049374  1010000 
 2779000   0.70032059   -4.8388056   -4.8388056   -3.7883258 0.0037533486   -4.8388056    1.0504798  1010000 
 2780000   0.70062631   -4.8370725   -4.8370725   -3.7861341 0.0084828246   -4.8370725    1.0509384  1010000 
 2781000   0.70014745   -4.8373915   -4.8373915   -3.7871714 0.0067301675   -4.8373915    1.0502201  1010000 
 2782000   0.69876731    -4.837496    -4.837496    -3.789346 0.0028215235    -4.837496    1.0481499  1010000 
 2783000    0.6994826   -4.8383376   -4.8383376   -3.7891148 0.00012450142   -4.8383376    1.0492229  1010000 
 2784000   0.70030019    -4.837554    -4.837554   -3.7871047  0.001480802    -4.837554    1.0504492  1010000 
 2785000   0.69987113   -4.8372456   -4.8372456   -3.7874399 0.0040334226   -4.8372456    1.0498057  1010000 
 2786000   0.69984604   -4.8367265   -4.8367265   -3.7869584 0.0077330279   -4.8367265     1.049768  1010000 
 2787000    0.6994687   -4.8377327   -4.8377327   -3.7885307 0.0055788048   -4.8377327     1.049202  1010000 
 2788000   0.70162577   -4.8370617   -4.8370617   -3.7846241 0.0084711504   -4.8370617    1.0524376  1010000 
 2789000   0.69947928   -4.8370551   -4.8370551   -3.7878372 0.0054382006   -4.8370551    1.0492179  1010000 
 2790000   0.70000433   -4.8375054   -4.8375054   -3.7874999 0.0036011024   -4.8375054    1.0500055  1010000 
 2791000   0.70019005   -4.8359094   -4.8359094   -3.7856254 0.0076075921   -4.8359094     1.050284  1010000 
 2792000    0.6991784   -4.8367219   -4.8367219   -3.7879553 0.0041951615   -4.8367219    1.0487666  1010000 
 2793000    0.7000651   -4.8383256   -4.8383256   -3.7882289 0.0055103411   -4.8383256    1.0500966  1010000 
 2794000   0.69962845   -4.8383265   -4.8383265   -3.7888849 0.0049898807   -4.8383265    1.0494416  1010000 
 2795000   0.70051787   -4.8375554   -4.8375554   -3.7867796 0.0074845619   -4.8375554    1.0507758  1010000 
 2796000   0.69995693   -4.8353111   -4.8353111   -3.7853767 0.0078758889   -4.8353111    1.0499344  1010000 
 2797000   0.70106055   -4.8375045   -4.8375045   -3.7859147 -0.00012033974   -4.8375045    1.0515898  1010000 
 2798000    0.6995822   -4.8362573   -4.8362573    -3.786885  0.004520204   -4.8362573    1.0493723  1010000 
 2799000    0.6998872   -4.8381262   -4.8381262   -3.7882964 0.00026985329   -4.8381262    1.0498298  1010000 
 2800000   0.70052323   -4.8385804   -4.8385804   -3.7877966 0.0023353669   -4.8385804    1.0507838  1010000 
 2801000   0.69940362   -4.8371291   -4.8371291   -3.7880247 0.0086019103   -4.8371291    1.0491044  1010000 
 2802000   0.69948797   -4.8402579   -4.8402579    -3.791027 0.00078329949   -4.8402579    1.0492309  1010000 
 2803000   0.70026337   -4.8377834   -4.8377834   -3.7873894 0.0056253949   -4.8377834     1.050394  1010000 
 2804000   0.69960789   -4.8385504   -4.8385504   -3.7891396 0.0028889436   -4.8385504    1.0494108  1010000 
 2805000   0.69957649   -4.8366406   -4.8366406    -3.787277 0.0073688308   -4.8366406    1.0493637  1010000 
 2806000   0.69951205   -4.8383197   -4.8383197   -3.7890527 0.0037471507   -4.8383197     1.049267  1010000 
 2807000   0.69986935   -4.8391545   -4.8391545   -3.7893515 0.0039184729   -4.8391545     1.049803  1010000 
 2808000   0.70035584     -4.83877     -4.83877   -3.7882373 0.0083334168     -4.83877    1.0505327  1010000 
 2809000   0.70082108   -4.8402186   -4.8402186    -3.788988 0.0053222082   -4.8402186    1.0512306  1010000 
 2810000   0.69983988   -4.8410942   -4.8410942   -3.7913354 0.0032716891   -4.8410942    1.0497588  1010000 
 2811000   0.69948242   -4.8401114   -4.8401114   -3.7908888 0.0066349373   -4.8401114    1.0492226  1010000 
 2812000   0.69875525   -4.8395733   -4.8395733   -3.7914415 0.0029116387   -4.8395733    1.0481318  1010000 
 2813000    0.7001417   -4.8380518   -4.8380518   -3.7878402 0.0080900834   -4.8380518    1.0502115  1010000 
 2814000     0.699052    -4.838718    -4.838718    -3.790141 0.0067917269    -4.838718     1.048577  1010000 
 2815000    0.6984918   -4.8393838   -4.8393838   -3.7916471 0.0066676884   -4.8393838    1.0477367  1010000 
 2816000   0.69995453   -4.8403575   -4.8403575   -3.7904267 0.0055279099   -4.8403575    1.0499308  1010000 
 2817000   0.69998239   -4.8386693   -4.8386693   -3.7886967 0.0077367064   -4.8386693    1.0499725  1010000 
 2818000   0.69933786   -4.8393891   -4.8393891   -3.7903834 -0.00051729645   -4.8393891    1.0490057  1010000 
 2819000    0.6995727   -4.8381053   -4.8381053   -3.7887473 0.0037979116   -4.8381053     1.049358  1010000 
 2820000   0.70011481   -4.8368424   -4.8368424   -3.7866713 0.0064648397   -4.8368424    1.0501712  1010000 
 2821000   0.69946222   -4.8364597   -4.8364597   -3.7872674 0.0061332558   -4.8364597    1.0491923  1010000 
 2822000   0.70033358    -4.838088    -4.838088   -3.7875887 0.00072820552    -4.838088    1.0504993  1010000 
 2823000   0.70009628   -4.8365888   -4.8365888   -3.7864454 0.0062924191   -4.8365888    1.0501434  1010000 
 2824000   0.69918143   -4.8362922   -4.8362922   -3.7875211  0.005076337   -4.8362922    1.0487711  1010000 
 2825000   0.70022677   -4.8362567   -4.8362567   -3.7859176 0.0024879012   -4.8362567    1.0503391  1010000 
 2826000   0.69990688   -4.8357438   -4.8357438   -3.7858845 0.0031130497   -4.8357438    1.0498593  1010000 
 2827000   0.70052873   -4.8354711   -4.8354711    -3.784679 0.0015810193   -4.8354711    1.0507921  1010000 
 2828000   0.70018737   -4.8352069   -4.8352069   -3.7849269 0.0029681246   -4.8352069      1.05028  1010000 
 2829000   0.69960035   -4.8349325   -4.8349325   -3.7855331 0.0069080307   -4.8349325    1.0493995  1010000 
 2830000   0.70088815    -4.835607    -4.835607   -3.7842758 0.0052081179    -4.835607    1.0513312  1010000 
 2831000   0.69952815   -4.8359681   -4.8359681   -3.7866769 0.0062645447   -4.8359681    1.0492912  1010000 
 2832000   0.69994222    -4.836912    -4.836912   -3.7869997 0.0036859033    -4.836912    1.0499123  1010000 
 2833000   0.69997321   -4.8363414   -4.8363414   -3.7863826 0.0031454154   -4.8363414    1.0499588  1010000 
 2834000   0.70163461   -4.8369617   -4.8369617   -3.7845108 0.0040385532   -4.8369617    1.0524509  1010000 
 2835000   0.69983243   -4.8368593   -4.8368593   -3.7871117 0.0019567723   -4.8368593    1.0497476  1010000 
 2836000   0.69920846   -4.8374101   -4.8374101   -3.7885984 0.0036351188   -4.8374101    1.0488116  1010000 
 2837000   0.70020574   -4.8401086   -4.8401086    -3.789801 0.0035929462   -4.8401086    1.0503076  1010000 
 2838000   0.70043651   -4.8382443   -4.8382443   -3.7875906  0.010061252   -4.8382443    1.0506537  1010000 
 2839000   0.70020902    -4.838862    -4.838862   -3.7885496 0.0059774173    -4.838862    1.0503125  1010000 
 2840000   0.70050249   -4.8385865   -4.8385865   -3.7878338 0.0066245847   -4.8385865    1.0507527  1010000 
 2841000   0.70004561   -4.8375268   -4.8375268   -3.7874594 0.0085732331   -4.8375268    1.0500674  1010000 
 2842000   0.70012893   -4.8391165   -4.8391165   -3.7889242 0.0039450732   -4.8391165    1.0501924  1010000 
 2843000   0.69895861   -4.8400442   -4.8400442   -3.7916073 0.0023935366   -4.8400442    1.0484369  1010000 
 2844000   0.69952331   -4.8386954   -4.8386954   -3.7894115  0.007920823   -4.8386954    1.0492839  1010000 
 2845000   0.69979842   -4.8384639   -4.8384639   -3.7887674   0.01009923   -4.8384639    1.0496966  1010000 
 2846000   0.69998289   -4.8392039   -4.8392039   -3.7892306 0.0081749152   -4.8392039    1.0499733  1010000 
 2847000   0.70080005   -4.8395023   -4.8395023   -3.7883032  0.005094576   -4.8395023     1.051199  1010000 
 2848000   0.70067148   -4.8379328   -4.8379328   -3.7869266 0.0077467897   -4.8379328    1.0510062  1010000 
 2849000   0.70001688   -4.8373088   -4.8373088   -3.7872845 0.0046306517   -4.8373088    1.0500243  1010000 
 2850000   0.70036465   -4.8364168   -4.8364168   -3.7858709 0.0055624304   -4.8364168    1.0505459  1010000 
 2851000   0.70075791   -4.8383375   -4.8383375   -3.7872016 0.00057175098   -4.8383375    1.0511358  1010000 
 2852000   0.70083835   -4.8370644   -4.8370644   -3.7858079 0.0075931041   -4.8370644    1.0512565  1010000 
 2853000   0.70020386   -4.8388761   -4.8388761   -3.7885714 0.0029085297   -4.8388761    1.0503047  1010000 
 2854000   0.69995146   -4.8382735   -4.8382735   -3.7883474 0.0039433339   -4.8382735    1.0499261  1010000 
 2855000   0.70053157   -4.8379836   -4.8379836   -3.7871873 0.0012410832   -4.8379836    1.0507963  1010000 
 2856000   0.70068114   -4.8361446   -4.8361446    -3.785124 0.0053946631   -4.8361446    1.0510207  1010000 
 2857000   0.70014822   -4.8356326   -4.8356326   -3.7854113  0.007442321   -4.8356326    1.0502213  1010000 
 2858000   0.69946104   -4.8361159   -4.8361159   -3.7869254 0.0032757099   -4.8361159    1.0491905  1010000 
 2859000   0.69977631   -4.8374468   -4.8374468   -3.7877834 0.0031268962   -4.8374468    1.0496634  1010000 
 2860000   0.70039159   -4.8375348   -4.8375348   -3.7869485 0.0072747575   -4.8375348    1.0505863  1010000 
 2861000    0.7004297   -4.8378225   -4.8378225    -3.787179 0.0061514151   -4.8378225    1.0506435  1010000 
 2862000   0.70066069   -4.8374348   -4.8374348   -3.7864448 0.0035218878   -4.8374348      1.05099  1010000 
 2863000   0.69998195   -4.8364282   -4.8364282   -3.7864563  0.004524417   -4.8364282    1.0499719  1010000 
 2864000   0.69989522   -4.8364843   -4.8364843   -3.7866425 0.0036003442   -4.8364843    1.0498418  1010000 
 2865000    0.6998138   -4.8373105   -4.8373105   -3.7875909 0.0053619546   -4.8373105    1.0497197  1010000 
 2866000   0.69945721   -4.8365091   -4.8365091   -3.7873243 0.0068267317   -4.8365091    1.0491848  1010000 
 2867000   0.70009051   -4.8400934   -4.8400934   -3.7899586 0.0017963417   -4.8400934    1.0501347  1010000 
 2868000     0.699943   -4.8388916   -4.8388916   -3.7889781 0.0055413555   -4.8388916    1.0499135  1010000 
 2869000   0.69917441    -4.838087    -4.838087   -3.7893264  0.008467458    -4.838087    1.0487606  1010000 
 2870000   0.69998227   -4.8383488   -4.8383488   -3.7883764  0.003792024   -4.8383488    1.0499724  1010000 
 2871000   0.69927711   -4.8380779   -4.8380779   -3.7891633 0.0062816196   -4.8380779    1.0489146  1010000 
 2872000   0.69954807   -4.8383063   -4.8383063   -3.7889852 0.0014597226   -4.8383063    1.0493211  1010000 
 2873000   0.70014943    -4.838988    -4.838988   -3.7887649 0.0031673705    -4.838988    1.0502231  1010000 
 2874000   0.70022067    -4.838742    -4.838742   -3.7884121 0.0028275365    -4.838742      1.05033  1010000 
 2875000   0.69994687   -4.8403224   -4.8403224   -3.7904031 0.00079402684   -4.8403224    1.0499193  1010000 
 2876000   0.69980267    -4.838567    -4.838567   -3.7888641  0.005580824    -4.838567     1.049703  1010000 
 2877000   0.69975959   -4.8387206   -4.8387206   -3.7890822 0.0069835899   -4.8387206    1.0496384  1010000 
 2878000   0.69891299   -4.8377346   -4.8377346   -3.7893661 0.0038961462   -4.8377346    1.0483684  1010000 
 2879000   0.70031296   -4.8368907   -4.8368907   -3.7864223 0.0082452037   -4.8368907    1.0504684  1010000 
 2880000   0.69910741   -4.8366027   -4.8366027   -3.7879426 0.0056375488   -4.8366027    1.0486601  1010000 
 2881000   0.70024638   -4.8387079   -4.8387079   -3.7883394 0.0021157184   -4.8387079    1.0503685  1010000 
 2882000   0.69991121   -4.8377913   -4.8377913   -3.7879255 0.0061073559   -4.8377913    1.0498658  1010000 
 2883000   0.70031203   -4.8383821   -4.8383821   -3.7879151 0.0069832119   -4.8383821     1.050467  1010000 
 2884000   0.70004529   -4.8392696   -4.8392696   -3.7892027 0.0023705984   -4.8392696    1.0500669  1010000 
 2885000   0.70021484   -4.8387428   -4.8387428   -3.7884216 0.0045889689   -4.8387428    1.0503212  1010000 
 2886000   0.69903275   -4.8386285   -4.8386285   -3.7900804 0.0015483855   -4.8386285    1.0485481  1010000 
 2887000   0.69940557   -4.8374595   -4.8374595   -3.7883521 0.0064109685   -4.8374595    1.0491073  1010000 
 2888000   0.70031713   -4.8366301   -4.8366301   -3.7861554 0.0070754733   -4.8366301    1.0504747  1010000 
 2889000   0.70057402   -4.8386321   -4.8386321   -3.7877721 0.0036033131   -4.8386321      1.05086  1010000 
 2890000   0.70042807   -4.8385094   -4.8385094   -3.7878683   0.00521153   -4.8385094    1.0506411  1010000 
 2891000   0.70036129   -4.8382119   -4.8382119    -3.787671 0.0067699219   -4.8382119    1.0505409  1010000 
 2892000   0.70001507   -4.8390484   -4.8390484   -3.7890268 0.0050263894   -4.8390484    1.0500216  1010000 
 2893000    0.6990899   -4.8362401   -4.8362401   -3.7876063 0.0083709025   -4.8362401    1.0486338  1010000 
 2894000   0.69971517   -4.8372524   -4.8372524   -3.7876807 0.0053041319   -4.8372524    1.0495717  1010000 
 2895000   0.69916564   -4.8351058   -4.8351058   -3.7863583 0.0046766128   -4.8351058    1.0487474  1010000 
 2896000   0.69908642   -4.8366073   -4.8366073   -3.7879787 0.0051614748   -4.8366073    1.0486286  1010000 
 2897000   0.70041607    -4.837116    -4.837116    -3.786493 0.0064125057    -4.837116    1.0506231  1010000 
 2898000   0.70086797   -4.8386214   -4.8386214   -3.7873205 0.0022696383   -4.8386214    1.0513009  1010000 
 2899000   0.70029006   -4.8375341   -4.8375341      -3.7871  0.010034009   -4.8375341     1.050434  1010000 
 2900000   0.70011763   -4.8385663   -4.8385663   -3.7883909  0.001047319   -4.8385663    1.0501754  1010000 
 2901000   0.70035475   -4.8367619   -4.8367619   -3.7862308 0.0044032866   -4.8367619    1.0505311  1010000 
 2902000   0.69999218   -4.8352512   -4.8352512   -3.7852639 0.0092849251   -4.8352512    1.0499872  1010000 
 2903000   0.69908617   -4.8357266   -4.8357266   -3.7870984 0.0036721945   -4.8357266    1.0486282  1010000 
 2904000   0.69948534   -4.8371389   -4.8371389   -3.7879119  0.002414106   -4.8371389     1.049227  1010000 
 2905000   0.70056396   -4.8366489   -4.8366489    -3.785804 0.0059951874   -4.8366489    1.0508449  1010000 
 2906000   0.69987712   -4.8380912   -4.8380912   -3.7882765 0.0042887103   -4.8380912    1.0498146  1010000 
 2907000   0.69985596   -4.8372144   -4.8372144   -3.7874315 0.0061068642   -4.8372144    1.0497829  1010000 
 2908000   0.69889208   -4.8388557   -4.8388557   -3.7905186 0.00056324818   -4.8388557    1.0483371  1010000 
 2909000   0.69995419   -4.8367662   -4.8367662   -3.7868359 0.0041796081   -4.8367662    1.0499302  1010000 
 2910000   0.70084672   -4.8370066   -4.8370066   -3.7857375 0.0050651187   -4.8370066     1.051269  1010000 
 2911000   0.69968723    -4.836504    -4.836504   -3.7869742 0.0046098182    -4.836504    1.0495298  1010000 
 2912000   0.70049794   -4.8373847   -4.8373847   -3.7866388  0.010795053   -4.8373847    1.0507459  1010000 
 2913000      0.70027   -4.8387145   -4.8387145   -3.7883105 0.0065190084   -4.8387145     1.050404  1010000 
 2914000   0.70075861   -4.8391011   -4.8391011   -3.7879642 0.0060080008   -4.8391011    1.0511369  1010000 
 2915000   0.69967308   -4.8395049   -4.8395049   -3.7899963 0.0044272765   -4.8395049    1.0495086  1010000 
 2916000   0.70033955   -4.8401252   -4.8401252   -3.7896169 0.00035536437   -4.8401252    1.0505083  1010000 
 2917000   0.69976691   -4.8387101   -4.8387101   -3.7890608 0.0022796392   -4.8387101    1.0496493  1010000 
 2918000   0.70009686   -4.8384957   -4.8384957   -3.7883514 0.0078289364   -4.8384957    1.0501442  1010000 
 2919000   0.70013039   -4.8412696   -4.8412696    -3.791075 0.0023130169   -4.8412696    1.0501945  1010000 
 2920000   0.69970428   -4.8397005   -4.8397005   -3.7901451 0.0075488038   -4.8397005    1.0495554  1010000 
 2921000   0.70001188   -4.8387034   -4.8387034   -3.7886866   0.01033588   -4.8387034    1.0500168  1010000 
 2922000   0.70056846   -4.8388695   -4.8388695   -3.7880178 0.0056022689   -4.8388695    1.0508516  1010000 
 2923000   0.70031872   -4.8392265   -4.8392265   -3.7887494 0.0041596472   -4.8392265     1.050477  1010000 
 2924000   0.70066673    -4.838479    -4.838479     -3.78748 0.0082371512    -4.838479     1.050999  1010000 
 2925000   0.70060991   -4.8390963   -4.8390963   -3.7881824   0.00355623   -4.8390963    1.0509138  1010000 
 2926000   0.70073626   -4.8386761   -4.8386761   -3.7875727 0.0050588501   -4.8386761    1.0511034  1010000 
 2927000   0.70091442   -4.8384212   -4.8384212   -3.7870506 0.0075196262   -4.8384212    1.0513706  1010000 
 2928000   0.70030754   -4.8377266   -4.8377266   -3.7872663 0.0069365006   -4.8377266    1.0504603  1010000 
 2929000   0.70012125   -4.8382222   -4.8382222   -3.7880414 0.0035995292   -4.8382222    1.0501808  1010000 
 2930000   0.70055077   -4.8371814   -4.8371814   -3.7863563 0.0055828512   -4.8371814    1.0508251  1010000 
 2931000   0.69886813   -4.8364729   -4.8364729   -3.7881717 0.0048933824   -4.8364729    1.0483012  1010000 
 2932000    0.7003798   -4.8379349   -4.8379349   -3.7873662 0.0057977942   -4.8379349    1.0505687  1010000 
 2933000   0.70138296    -4.836037    -4.836037   -3.7839636 0.0070068656    -4.836037    1.0520734  1010000 
 2934000   0.69950714   -4.8378212   -4.8378212   -3.7885615 0.0036630198   -4.8378212    1.0492597  1010000 
 2935000   0.69919957   -4.8380338   -4.8380338   -3.7892355 0.0026116889   -4.8380338    1.0487983  1010000 
 2936000   0.69977365   -4.8369303   -4.8369303   -3.7872709 0.00024801197   -4.8369303    1.0496594  1010000 
 2937000   0.70006673   -4.8365144   -4.8365144   -3.7864153 0.00041938394   -4.8365144    1.0500991  1010000 
 2938000   0.70071685   -4.8361516   -4.8361516   -3.7850774 0.0049287438   -4.8361516    1.0510742  1010000 
 2939000   0.70022512   -4.8372599   -4.8372599   -3.7869233 0.0038684872   -4.8372599    1.0503366  1010000 
 2940000   0.70032301   -4.8358838   -4.8358838   -3.7854003 0.0051053006   -4.8358838    1.0504835  1010000 
 2941000   0.70109282    -4.836917    -4.836917   -3.7852788 0.0081637898    -4.836917    1.0516382  1010000 
 2942000   0.70053279   -4.8386441   -4.8386441   -3.7878459 0.00029519817   -4.8386441    1.0507981  1010000 
 2943000   0.70100423    -4.837895    -4.837895   -3.7863897 0.0037616866    -4.837895    1.0515053  1010000 
 2944000     0.700311   -4.8385173   -4.8385173   -3.7880518 0.0016436919   -4.8385173    1.0504655  1010000 
 2945000    0.6994633   -4.8393279   -4.8393279    -3.790134 -0.0004199164   -4.8393279    1.0491939  1010000 
 2946000   0.70034136   -4.8385639   -4.8385639   -3.7880529 0.0039770693   -4.8385639     1.050511  1010000 
 2947000    0.6989996   -4.8395046   -4.8395046   -3.7910063 0.0039569249   -4.8395046    1.0484984  1010000 
 2948000   0.70063879   -4.8405728   -4.8405728   -3.7896157 0.0029389301   -4.8405728    1.0509571  1010000 
 2949000    0.7000825   -4.8387377   -4.8387377   -3.7886149 0.0073237941   -4.8387377    1.0501227  1010000 
 2950000   0.70100538   -4.8390488   -4.8390488   -3.7875418 0.0071546656   -4.8390488     1.051507  1010000 
 2951000   0.69984598   -4.8389608   -4.8389608   -3.7891928 0.0073269816   -4.8389608    1.0497679  1010000 
 2952000   0.70086289   -4.8395217   -4.8395217   -3.7882284 0.0055788098   -4.8395217    1.0512933  1010000 
 2953000   0.69958659   -4.8380416   -4.8380416   -3.7886628 0.0087340444   -4.8380416    1.0493788  1010000 
 2954000   0.70042551   -4.8390186   -4.8390186   -3.7883814 0.0076955772   -4.8390186    1.0506372  1010000 
 2955000   0.69977186   -4.8404988   -4.8404988   -3.7908421 0.0015377886   -4.8404988    1.0496568  1010000 
 2956000   0.69943491   -4.8402287   -4.8402287   -3.7910774 0.0062344613   -4.8402287    1.0491513  1010000 
 2957000   0.70030223   -4.8385362   -4.8385362   -3.7880839 0.0043012018   -4.8385362    1.0504523  1010000 
 2958000   0.70066553   -4.8384421   -4.8384421   -3.7874449 0.0022425112   -4.8384421    1.0509973  1010000 
 2959000   0.69959847   -4.8362313   -4.8362313   -3.7868346 0.0069568786   -4.8362313    1.0493967  1010000 
 2960000   0.69980632   -4.8379932   -4.8379932   -3.7882847 0.0032055531   -4.8379932    1.0497084  1010000 
 2961000   0.70063707   -4.8369017   -4.8369017   -3.7859471 0.0025714941   -4.8369017    1.0509546  1010000 
 2962000   0.70136369   -4.8356167   -4.8356167   -3.7835722 0.0069916301   -4.8356167    1.0520445  1010000 
 2963000   0.70025166   -4.8363431   -4.8363431   -3.7859666 0.0036159134   -4.8363431    1.0503765  1010000 
 2964000   0.70023915   -4.8365773   -4.8365773   -3.7862196   0.00294533   -4.8365773    1.0503577  1010000 
 2965000   0.69967973   -4.8373012   -4.8373012   -3.7877826 -3.9248267e-05   -4.8373012    1.0495186  1010000 
 2966000   0.69979068   -4.8362184   -4.8362184   -3.7865334 0.0051469309   -4.8362184     1.049685  1010000 
 2967000   0.70028286   -4.8368332   -4.8368332     -3.78641 0.0017157285   -4.8368332    1.0504232  1010000 
 2968000   0.70039793   -4.8358099   -4.8358099   -3.7852141  0.006105581   -4.8358099    1.0505959  1010000 
 2969000   0.70113369   -4.8372071   -4.8372071   -3.7855076 0.0025087732   -4.8372071    1.0516995  1010000 
 2970000   0.70021242    -4.836984    -4.836984   -3.7866664 0.0048446234    -4.836984    1.0503176  1010000 
 2971000    0.6998828    -4.837334    -4.837334   -3.7875108 0.0053300651    -4.837334    1.0498232  1010000 
 2972000   0.70004425    -4.839728    -4.839728   -3.7896626 0.0013897482    -4.839728    1.0500653  1010000 
 2973000   0.70009036   -4.8378415   -4.8378415    -3.787707  0.005881338   -4.8378415    1.0501345  1010000 
 2974000   0.70008584   -4.8390063   -4.8390063   -3.7888786 0.0081081438   -4.8390063    1.0501277  1010000 
 2975000   0.70113133   -4.8391114   -4.8391114   -3.7874155  0.007113737   -4.8391114     1.051696  1010000 
 2976000   0.70052482   -4.8383552   -4.8383552    -3.787569 0.0073269114   -4.8383552    1.0507862  1010000 
 2977000   0.70032256   -4.8403161   -4.8403161   -3.7898333 0.0030518736   -4.8403161    1.0504828  1010000 
 2978000   0.70043698   -4.8401287   -4.8401287   -3.7894743 0.0058231406   -4.8401287    1.0506544  1010000 
 2979000   0.70101261   -4.8394008   -4.8394008   -3.7878829 0.0090207199   -4.8394008    1.0515179  1010000 
 2980000   0.69997807   -4.8401921   -4.8401921   -3.7902261 0.0069679093   -4.8401921    1.0499661  1010000 
 2981000   0.69993845   -4.8420125   -4.8420125   -3.7921059 0.0019485621   -4.8420125    1.0499066  1010000 
 2982000   0.69992146   -4.8404698   -4.8404698   -3.7905886 0.0057725202   -4.8404698    1.0498811  1010000 
 2983000   0.69939739   -4.8385847   -4.8385847   -3.7894896  0.008936831   -4.8385847     1.049095  1010000 
 2984000   0.70012688    -4.839349    -4.839349   -3.7891597 0.0045315304    -4.839349    1.0501893  1010000 
 2985000   0.70004307   -4.8380847   -4.8380847   -3.7880211 0.0063489427   -4.8380847    1.0500636  1010000 
 2986000   0.70060284   -4.8372496   -4.8372496   -3.7863463 0.0093301913   -4.8372496    1.0509032  1010000 
 2987000   0.69985698   -4.8371213   -4.8371213   -3.7873369 0.0081913129   -4.8371213    1.0497844  1010000 
 2988000   0.70027421    -4.835898    -4.835898   -3.7854877 0.0086004009    -4.835898    1.0504103  1010000 
 2989000   0.69995465   -4.8372537   -4.8372537   -3.7873228 0.0050726954   -4.8372537    1.0499309  1010000 
 2990000   0.69947501   -4.8383011   -4.8383011   -3.7890896 -0.0011498773   -4.8383011    1.0492115  1010000 
 2991000   0.69965887   -4.8377232   -4.8377232    -3.788236 0.00073267656   -4.8377232    1.0494873  1010000 
 2992000   0.69939796   -4.8362803   -4.8362803   -3.7871844 0.0024539593   -4.8362803    1.0490959  1010000 
 2993000   0.69978333   -4.8367231   -4.8367231   -3.7870492 0.0024583317   -4.8367231     1.049674  1010000 
 2994000   0.69954704   -4.8362946   -4.8362946   -3.7869751 0.0015649592   -4.8362946    1.0493195  1010000 
 2995000   0.69982461   -4.8357093   -4.8357093   -3.7859734  0.003740159   -4.8357093    1.0497359  1010000 
 2996000    0.7005278    -4.836275    -4.836275   -3.7854844 0.0015649932    -4.836275    1.0507907  1010000 
 2997000   0.70076186   -4.8356637   -4.8356637    -3.784522 0.0040431316   -4.8356637    1.0511417  1010000 
 2998000   0.70033837   -4.8367201   -4.8367201   -3.7862136  0.002766517   -4.8367201    1.0505065  1010000 
 2999000   0.70083976   -4.8353416   -4.8353416    -3.784083 0.0058716983   -4.8353416    1.0512586  1010000 
 3000000   0.69997161   -4.8359827   -4.8359827   -3.7860263 0.0066910507   -4.8359827    1.0499564  1010000 
Loop time of 16603 on 240 procs for 3000000 steps with 1010000 atoms

Performance: 78057.955 tau/day, 180.690 timesteps/s
99.0% CPU use with 240 MPI tasks x 1 OpenMP threads

MPI task timing breakdown:
Section |  min time  |  avg time  |  max time  |%varavg|  %CPU | %total
-----------------------------------------------------------------------
Pair    | 3791.9     | 5858       | 9203.4     |1181.6 |  99.0 | 35.28
Bond    | 1.0163     | 1.3161     | 2.1606     |  18.1 | 100.0 |  0.01
Neigh   | 1355       | 2081.4     | 3139       | 666.5 |  99.5 | 12.54
Comm    | 2780.2     | 7078.5     | 9697.7     |1354.3 |  98.8 | 42.63
Output  | 217.45     | 218.14     | 218.33     |   0.4 |  99.8 |  1.31
Modify  | 711.16     | 1246.1     | 2263       | 878.7 |  99.2 |  7.51
Other   |            | 119.5      |            |       |       |  0.72

Nlocal:        4208.33 ave        4701 max        3781 min
Histogram: 1 3 3 3 212 11 1 4 0 2
Nghost:        5806.10 ave        6186 max        4119 min
Histogram: 28 12 0 0 0 0 0 0 0 200
Neighs:       162488.0 ave      169890 max      119294 min
Histogram: 3 4 4 2 3 2 1 1 106 114

Total # of neighbors = 38997042
Ave neighs/atom = 38.610933
Ave special neighs/atom = 0.0000000
Neighbor list builds = 300000
Dangerous builds = 296998

write_data	data.lj
System init for write_data ...
WARNING: Not all mixed pair coeffs generated from mixing. Use write_data with 'pair ij' option to store all pair coeffs. (src/write_data.cpp:312)
Total wall time: 4:36:55
