LAMMPS (29 Oct 2020)
  using 1 OpenMP thread(s) per MPI task
# Simple rigid body system

units		lj
atom_style	full
dimension 	3
boundary	p p f
pair_style	lj/cut/opt 2.5


variable 	sigma		equal 1.0
variable 	epsilon 	equal 1.0


region		box block 0 80 0 80 0 80
create_box 	3 box
Created orthogonal box = (0.0000000 0.0000000 0.0000000) to (80.000000 80.000000 80.000000)
  2 by 4 by 4 MPI processor grid
lattice 	sc 1.0
Lattice spacing in x,y,z = 1.0000000 1.0000000 1.0000000

create_atoms 	1 region box
Created 512000 atoms
  create_atoms CPU = 0.188 seconds

mass		1 1.0
mass		2 1.0
mass		3 1.0


group		solvent type 1
512000 atoms in group solvent


velocity 	solvent create 1.0 563435 loop geom

read_data	data.vac add append
Reading data file ...
  orthogonal box = (0.0000000 0.0000000 0.0000000) to (80.000000 80.000000 160.00000)
  2 by 2 by 8 MPI processor grid
Finding 1-2 1-3 1-4 neighbors ...
  special bond factors lj:    0.0      0.0      0.0     
  special bond factors coul:  0.0      0.0      0.0     
     0 = max # of 1-2 neighbors
     0 = max # of 1-3 neighbors
     0 = max # of 1-4 neighbors
     1 = max # of special neighbors
  special bonds CPU = 0.585 seconds
  read_data CPU = 0.604 seconds

neighbor 	0.4 bin

pair_coeff	1 1 1.0 1.0
pair_coeff	2 2 0.0 0.0
pair_coeff	3 3 0.0 0.0
pair_coeff	2 3 0.0 0.0
pair_coeff	1 2*3 0.0 0.0

pair_modify 	shift yes


balance 	1.05 shift z 10 1.05
Balancing ...
Neighbor list info ...
  update every 1 steps, delay 10 steps, check yes
  max neighbors/atom: 2000, page size: 100000
  master list distance cutoff = 2.9
  ghost atom cutoff = 2.9
  binsize = 1.45, bins = 56 56 111
  1 neighbor lists, perpetual/occasional/extra = 1 0 0
  (1) pair lj/cut/opt, perpetual
      attributes: half, newton on
      pair build: half/bin/newton
      stencil: half/bin/3d/newton
      bin: standard
 rebalancing time: 0.033 seconds
  iteration count = 5
  initial/final maximal load/proc = 32000.000 19200.000
  initial/final imbalance factor  = 2.0000000 1.2000000
  x cuts: 0.0000000 0.5 1.0000000
  y cuts: 0.0000000 0.5 1.0000000
  z cuts: 0.0000000 0.0625 0.12890625 0.1875 0.2578125 0.30859375 0.38671875 0.4375 1.0000000


####################### WALLS ###########################


region	       low block  EDGE EDGE EDGE EDGE 0 2

region 	       top block  EDGE EDGE EDGE EDGE 159 160


delete_atoms   region low
WARNING: Ignoring 'compress yes' for molecular system (src/delete_atoms.cpp:125)
Deleted 19200 atoms, new total = 492800

delete_atoms   region top
WARNING: Ignoring 'compress yes' for molecular system (src/delete_atoms.cpp:125)
Deleted 0 atoms, new total = 492800


variable       epsilonWall equal 2*${epsilon}
variable       epsilonWall equal 2*1

variable       cutoffTop   equal   0.7147*${sigma}
variable       cutoffTop   equal   0.7147*1

variable       cutoffLow   equal   3*${sigma}
variable       cutoffLow   equal   3*1


fix            topWall all wall/lj93 zhi EDGE                ${epsilonWall} ${sigma} ${cutoffTop} units box
fix            topWall all wall/lj93 zhi EDGE                2 ${sigma} ${cutoffTop} units box
fix            topWall all wall/lj93 zhi EDGE                2 1 ${cutoffTop} units box
fix            topWall all wall/lj93 zhi EDGE                2 1 0.7147 units box

fix            lowWall all wall/lj93 zlo EDGE                ${epsilonWall} ${sigma} ${cutoffLow} units box
fix            lowWall all wall/lj93 zlo EDGE                2 ${sigma} ${cutoffLow} units box
fix            lowWall all wall/lj93 zlo EDGE                2 1 ${cutoffLow} units box
fix            lowWall all wall/lj93 zlo EDGE                2 1 3 units box


###################### COMPUTES ##########################

compute        bin1 solvent chunk/atom bin/1d z upper 1.0



######################	FIXES ############################


fix 		peclet solvent ave/chunk 1000 1 1000 bin1 density/number norm 		 none ave one file density.profile

fix 		2 solvent nve

## Thermostat


region		regthermo block EDGE EDGE EDGE EDGE 0 20

group 		thermo dynamic solvent region regthermo every 1000
dynamic group thermo defined

fix 		3 thermo langevin ${temp} ${temp} 10 156453
fix 		3 thermo langevin .7 ${temp} 10 156453
fix 		3 thermo langevin .7 .7 10 156453



#### Load balancing


fix 		bal all balance 1000 1.05 shift z 10 1.05


############### Diagnostics and computes ###################
#compute 	com cube	  rigid/local	1 mol x y z
#compute 	quat cube	  rigid/local	1 mol quatw quati quatj quatk

thermo 		1000
thermo_style 	custom step temp epair evdwl etotal press pe ke vol

dump		1 all custom 100000 dump.lammpstrj id mol type x y z
dump 		2 all image 10000 image.*.png type type
dump 		3 all movie 1000 movie.avi type type
#dump 		com cube local 1000 dump.*.xyz c_com[*]
#dump		quat cube      local 1000 dump.*.quat c_quat[*]


restart 	500000 restart.dat
timestep 	0.0025
timer 		full
New timer settings: style=full  mode=nosync  timeout=off


run		1000000
Per MPI rank memory allocation (min/avg/max) = 21.45 | 22.19 | 22.73 Mbytes
Step Temp E_pair E_vdwl TotEng Press PotEng KinEng Volume 
       0   0.99997028   -3.2974116   -3.2974116   -1.7974593    8.5725801   -3.2974116    1.4999524      1024000 
    1000    1.7196597   -4.5206794   -4.5206794    -1.941195    4.4353521   -4.5206794    2.5794843      1024000 
    2000    1.6589047   -4.5846009   -4.5846009   -2.0962489    3.0636631   -4.5846009     2.488352      1024000 
    3000    1.5662937    -4.585931    -4.585931   -2.2364952     2.050665    -4.585931    2.3494358      1024000 
    4000    1.5219501   -4.6065705   -4.6065705   -2.3236499    1.0352099   -4.6065705    2.2829206      1024000 
    5000     1.450413   -4.5336067   -4.5336067   -2.3579916   0.34629781   -4.5336067    2.1756151      1024000 
    6000    1.3656414    -4.409292    -4.409292   -2.3608341 -0.010350913    -4.409292     2.048458      1024000 
    7000    1.2975199   -4.2970959   -4.2970959     -2.35082  -0.14293889   -4.2970959    1.9462759      1024000 
    8000    1.2743263   -4.2493573   -4.2493573   -2.3378717 -0.081835722   -4.2493573    1.9114856      1024000 
    9000    1.2805623   -4.2486675   -4.2486675   -2.3278279  0.030851736   -4.2486675    1.9208396      1024000 
   10000    1.2852112   -4.2506171   -4.2506171   -2.3228043  0.087457839   -4.2506171    1.9278129      1024000 
   11000    1.2851038   -4.2489343   -4.2489343   -2.3212826   0.11350551   -4.2489343    1.9276517      1024000 
   12000    1.2844939   -4.2473115   -4.2473115   -2.3205746   0.13855883   -4.2473115    1.9267369      1024000 
   13000    1.2871191   -4.2510612   -4.2510612   -2.3203865   0.16246989   -4.2510612    1.9306747      1024000 
   14000    1.2856873   -4.2494986   -4.2494986   -2.3209716   0.17815798   -4.2494986     1.928527      1024000 
   15000     1.282874   -4.2469404   -4.2469404   -2.3226333   0.18754387   -4.2469404    1.9243071      1024000 
   16000     1.279838   -4.2438555   -4.2438555   -2.3241024   0.19278929   -4.2438555    1.9197531      1024000 
   17000    1.2767234   -4.2405474   -4.2405474   -2.3254661    0.1932449   -4.2405474    1.9150813      1024000 
   18000    1.2789957   -4.2470871   -4.2470871   -2.3285974   0.31905603   -4.2470871    1.9184897      1024000 
   19000     1.283476   -4.2552722   -4.2552722   -2.3300621   0.95298542   -4.2552722    1.9252102      1024000 
   20000    1.2925193   -4.2698562   -4.2698562   -2.3310812    1.0098787   -4.2698562     1.938775      1024000 
   21000    1.2896716   -4.2646672   -4.2646672   -2.3301637    1.1110388   -4.2646672    1.9345035      1024000 
   22000      1.27993      -4.2517      -4.2517   -2.3318089    1.6772341      -4.2517    1.9198911      1024000 
   23000    1.2800275   -4.2546405   -4.2546405   -2.3346032    1.3858642   -4.2546405    1.9200374      1024000 
   24000    1.2310706   -4.1826102   -4.1826102    -2.336008    1.2177938   -4.1826102    1.8466022      1024000 
   25000    1.2090424    -4.150503    -4.150503   -2.3369431   0.98390965    -4.150503      1.81356      1024000 
   26000    1.1903156   -4.1233892   -4.1233892   -2.3379194   0.76057362   -4.1233892    1.7854698      1024000 
   27000    1.1640704   -4.0848025   -4.0848025   -2.3387004   0.59752046   -4.0848025    1.7461021      1024000 
   28000    1.1298597    -4.034847    -4.034847   -2.3400608   0.42008896    -4.034847    1.6947862      1024000 
   29000    1.0872505   -3.9724459   -3.9724459   -2.3415734   0.24868626   -3.9724459    1.6308725      1024000 
   30000    1.0421873   -3.9061853   -3.9061853   -2.3429076   0.13244259   -3.9061853    1.5632778      1024000 
   31000    1.0071387   -3.8549519   -3.8549519   -2.3442469  0.054366961   -3.8549519     1.510705      1024000 
   32000    0.9818357   -3.8172871   -3.8172871   -2.3445365  0.013610023   -3.8172871    1.4727506      1024000 
   33000   0.96440045   -3.7923873   -3.7923873   -2.3457895 -0.0055758562   -3.7923873    1.4465977      1024000 
   34000   0.95698525   -3.7828633   -3.7828633   -2.3473884  -0.01162433   -3.7828633     1.435475      1024000 
   35000   0.95296425    -3.777979    -3.777979   -2.3485355 -0.0023710421    -3.777979    1.4294435      1024000 
   36000     0.954476   -3.7827332   -3.7827332   -2.3510221 0.0070474015   -3.7827332    1.4317111      1024000 
   37000   0.95656619   -3.7876596   -3.7876596   -2.3528132  0.021865462   -3.7876596    1.4348464      1024000 
   38000   0.95906968   -3.7940722   -3.7940722   -2.3554706  0.040059918   -3.7940722    1.4386016      1024000 
   39000   0.96009036   -3.7979624   -3.7979624   -2.3578298  0.045648836   -3.7979624    1.4401326      1024000 
   40000    0.9614968   -3.8017799   -3.8017799   -2.3595376  0.048549033   -3.8017799    1.4422423      1024000 
   41000   0.96289029   -3.8063037   -3.8063037   -2.3619712  0.053377437   -3.8063037    1.4443325      1024000 
   42000   0.96268015   -3.8084355   -3.8084355   -2.3644182  0.053461475   -3.8084355    1.4440173      1024000 
   43000   0.95923082   -3.8065936   -3.8065936   -2.3677502  0.048601022   -3.8065936    1.4388433      1024000 
   44000   0.95810358   -3.8086793   -3.8086793   -2.3715269  0.050208599   -3.8086793    1.4371525      1024000 
   45000    0.9569101   -3.8101877   -3.8101877   -2.3748254   0.05005228   -3.8101877    1.4353622      1024000 
   46000   0.95394318    -3.809619    -3.809619   -2.3787071  0.045209777    -3.809619    1.4309119      1024000 
   47000   0.95523215   -3.8160527   -3.8160527   -2.3832074   0.04519786   -3.8160527    1.4328453      1024000 
   48000    0.9553427   -3.8215892   -3.8215892    -2.388578  0.044417084   -3.8215892    1.4330111      1024000 
   49000   0.95660218   -3.8292188   -3.8292188   -2.3943184   0.05401606   -3.8292188    1.4349004      1024000 
   50000    0.9561002   -3.8356566   -3.8356566   -2.4015092  0.059741385   -3.8356566    1.4341474      1024000 
   51000   0.95615834    -3.843018    -3.843018   -2.4087834  0.063278207    -3.843018    1.4342346      1024000 
   52000   0.95821624   -3.8535834   -3.8535834   -2.4162619  0.064484943   -3.8535834    1.4373214      1024000 
   53000   0.95952559   -3.8642842   -3.8642842   -2.4249987  0.073305408   -3.8642842    1.4392855      1024000 
   54000   0.96129688   -3.8766038   -3.8766038   -2.4346614  0.089094303   -3.8766038    1.4419424      1024000 
   55000   0.96454225   -3.8913186   -3.8913186   -2.4445081  0.097066081   -3.8913186    1.4468104      1024000 
   56000   0.96542016   -3.9029585   -3.9029585   -2.4548312   0.10603074   -3.9029585    1.4481273      1024000 
   57000   0.96661485   -3.9168196   -3.9168196   -2.4669003   0.12422657   -3.9168196    1.4499193      1024000 
   58000   0.96835638   -3.9307571   -3.9307571   -2.4782255   0.14086784   -3.9307571    1.4525316      1024000 
   59000   0.97406246   -3.9504615   -3.9504615   -2.4893707   0.16641168   -3.9504615    1.4610907      1024000 
   60000   0.98089077   -3.9729362   -3.9729362    -2.501603   0.19432319   -3.9729362    1.4713332      1024000 
   61000   0.98972825   -3.9977146   -3.9977146   -2.5131253   0.23844781   -3.9977146    1.4845894      1024000 
   62000   0.99414382   -4.0182822   -4.0182822   -2.5270695   0.27668947   -4.0182822    1.4912127      1024000 
   63000   0.99817797   -4.0383776   -4.0383776   -2.5411137   0.31269932   -4.0383776    1.4972639      1024000 
   64000    1.0014155   -4.0577802   -4.0577802   -2.5556599   0.33582158   -4.0577802    1.5021203      1024000 
   65000    1.0015396    -4.071381    -4.071381   -2.5690747   0.35562167    -4.071381    1.5023063      1024000 
   66000    1.0012122   -4.0851768   -4.0851768   -2.5833615   0.36769968   -4.0851768    1.5018153      1024000 
   67000    1.0011621   -4.0969749   -4.0969749   -2.5952347   0.37724575   -4.0969749    1.5017402      1024000 
   68000    1.0037425    -4.111844    -4.111844   -2.6062334   0.39146406    -4.111844    1.5056106      1024000 
   69000    1.0073109    -4.125849    -4.125849   -2.6148857   0.42726889    -4.125849    1.5109634      1024000 
   70000    1.0143275   -4.1443172   -4.1443172    -2.622829    0.4535093   -4.1443172    1.5214882      1024000 
   71000    1.0162364   -4.1542471   -4.1542471   -2.6298955   0.47209084   -4.1542471    1.5243516      1024000 
   72000    1.0135973   -4.1556644   -4.1556644   -2.6352716   0.47044636   -4.1556644    1.5203928      1024000 
   73000    1.0048796   -4.1492207   -4.1492207   -2.6419044   0.44681508   -4.1492207    1.5073163      1024000 
   74000   0.99267128   -4.1391806   -4.1391806   -2.6501767   0.41754361   -4.1391806    1.4890039      1024000 
   75000   0.97880311   -4.1285681   -4.1285681   -2.6603664   0.39039715   -4.1285681    1.4682017      1024000 
   76000   0.96402782   -4.1177844   -4.1177844   -2.6717456   0.35525508   -4.1177844    1.4460388      1024000 
   77000   0.95027598   -4.1086729   -4.1086729   -2.6832618   0.31521581   -4.1086729    1.4254111      1024000 
   78000   0.93847254   -4.0995096   -4.0995096   -2.6918036   0.26014912   -4.0995096    1.4077059      1024000 
   79000    0.9259247   -4.0875677   -4.0875677   -2.6986834   0.21511889   -4.0875677    1.3888842      1024000 
   80000   0.91696368    -4.077903    -4.077903   -2.7024603   0.16074916    -4.077903    1.3754427      1024000 
   81000   0.90833059   -4.0665679   -4.0665679   -2.7040748    0.1193212   -4.0665679    1.3624931      1024000 
   82000   0.89877983   -4.0512727   -4.0512727   -2.7031056  0.078148059   -4.0512727     1.348167      1024000 
   83000    0.8896046   -4.0365055   -4.0365055   -2.7021013  0.043136067   -4.0365055    1.3344042      1024000 
   84000   0.88022326   -4.0187349   -4.0187349   -2.6984027 0.0053257241   -4.0187349    1.3203322      1024000 
   85000   0.87073915   -4.0001562   -4.0001562   -2.6940501 -0.022294301   -4.0001562    1.3061061      1024000 
   86000     0.860742   -3.9820535   -3.9820535   -2.6909432 -0.044002439   -3.9820535    1.2911104      1024000 
   87000   0.85330265   -3.9663363   -3.9663363   -2.6863849 -0.068486498   -3.9663363    1.2799514      1024000 
   88000    0.8467666   -3.9521408   -3.9521408   -2.6819935 -0.084728977   -3.9521408    1.2701473      1024000 
   89000   0.84033962   -3.9399139   -3.9399139    -2.679407 -0.091063108   -3.9399139    1.2605069      1024000 
   90000   0.83638224   -3.9315567   -3.9315567   -2.6769859 -0.098077311   -3.9315567    1.2545708      1024000 
   91000   0.83475956   -3.9268746   -3.9268746   -2.6747378  -0.10004282   -3.9268746    1.2521368      1024000 
   92000   0.83484018   -3.9255615   -3.9255615   -2.6733038 -0.087063708   -3.9255615    1.2522577      1024000 
   93000   0.83663157   -3.9276518   -3.9276518    -2.672707 -0.078510205   -3.9276518    1.2549448      1024000 
   94000   0.83896884   -3.9309652   -3.9309652   -2.6725145 -0.064197228   -3.9309652    1.2584507      1024000 
   95000   0.84371425   -3.9388249   -3.9388249   -2.6732561 -0.062969163   -3.9388249    1.2655688      1024000 
   96000   0.84632032   -3.9446206   -3.9446206   -2.6751427 -0.040553583   -3.9446206    1.2694779      1024000 
   97000   0.85083046   -3.9535732   -3.9535732     -2.67733  -0.02753211   -3.9535732    1.2762431      1024000 
   98000   0.85227604   -3.9584121   -3.9584121   -2.6800007 -0.015668114   -3.9584121    1.2784115      1024000 
   99000   0.85606505   -3.9662943   -3.9662943   -2.6821993 -0.0036464561   -3.9662943     1.284095      1024000 
  100000   0.85893223   -3.9737483   -3.9737483   -2.6853525 0.0058896197   -3.9737483    1.2883957      1024000 
  101000   0.86032156   -3.9782012   -3.9782012   -2.6877215  0.013890223   -3.9782012    1.2904797      1024000 
  102000   0.86158148   -3.9828076   -3.9828076    -2.690438  0.011453704   -3.9828076    1.2923696      1024000 
  103000    0.8608162   -3.9832582   -3.9832582   -2.6920366  0.013198423   -3.9832582    1.2912217      1024000 
  104000   0.86033757   -3.9836301   -3.9836301   -2.6931263 0.0082410243   -3.9836301    1.2905037      1024000 
  105000   0.85879255   -3.9830232   -3.9830232    -2.694837 0.0060032435   -3.9830232    1.2881862      1024000 
  106000   0.85680384   -3.9828646   -3.9828646   -2.6976615 0.0034181862   -3.9828646    1.2852031      1024000 
  107000    0.8560462   -3.9832432   -3.9832432   -2.6991765 0.00097316998   -3.9832432    1.2840667      1024000 
  108000   0.85747783   -3.9867266   -3.9867266   -2.7005125 -0.0035210043   -3.9867266    1.2862141      1024000 
  109000   0.85831485   -3.9900697   -3.9900697   -2.7026001  0.011633072   -3.9900697    1.2874697      1024000 
  110000   0.85886149   -3.9935139   -3.9935139   -2.7052242  0.012474499   -3.9935139    1.2882896      1024000 
  111000   0.85829251   -3.9950583   -3.9950583   -2.7076221  0.016937579   -3.9950583    1.2874361      1024000 
  112000   0.86006225   -4.0002548   -4.0002548    -2.710164  0.023707507   -4.0002548    1.2900908      1024000 
  113000   0.85992781   -4.0025613   -4.0025613   -2.7126722  0.022514029   -4.0025613    1.2898891      1024000 
  114000   0.85971297   -4.0048157   -4.0048157   -2.7152489  0.016307303   -4.0048157    1.2895668      1024000 
  115000   0.86012187   -4.0071091   -4.0071091   -2.7169289  0.020454067   -4.0071091    1.2901802      1024000 
  116000   0.85994758   -4.0087568   -4.0087568   -2.7188381  0.017068373   -4.0087568    1.2899187      1024000 
  117000   0.86009535   -4.0108312   -4.0108312   -2.7206908  0.014805784   -4.0108312    1.2901404      1024000 
  118000   0.85849053   -4.0095189   -4.0095189   -2.7217857   0.01868082   -4.0095189    1.2877332      1024000 
  119000   0.85608294   -4.0073539   -4.0073539   -2.7232321  0.016619671   -4.0073539    1.2841218      1024000 
  120000   0.85573619   -4.0084732   -4.0084732   -2.7248716  0.013157125   -4.0084732    1.2836017      1024000 
  121000   0.85358269   -4.0068115   -4.0068115     -2.72644  0.014525154   -4.0068115    1.2803714      1024000 
  122000    0.8545895    -4.010558    -4.010558   -2.7286763   0.01112644    -4.010558    1.2818816      1024000 
  123000    0.8556971   -4.0137177   -4.0137177   -2.7301747  0.012026221   -4.0137177     1.283543      1024000 
  124000   0.85576552   -4.0150412   -4.0150412   -2.7313955  0.016920214   -4.0150412    1.2836457      1024000 
  125000   0.85382549   -4.0140358   -4.0140358   -2.7333001  0.020583355   -4.0140358    1.2807356      1024000 
  126000   0.85448671    -4.016347    -4.016347   -2.7346195  0.017258346    -4.016347    1.2817275      1024000 
  127000   0.85487338   -4.0185957   -4.0185957   -2.7362883   0.02096544   -4.0185957    1.2823075      1024000 
  128000    0.8544162   -4.0188548   -4.0188548   -2.7372331  0.020561822   -4.0188548    1.2816217      1024000 
  129000   0.85466212   -4.0212326   -4.0212326    -2.739242  0.022371021   -4.0212326    1.2819906      1024000 
  130000   0.85375876   -4.0209359   -4.0209359   -2.7403004  0.023942087   -4.0209359    1.2806355      1024000 
  131000   0.85400175   -4.0221227   -4.0221227   -2.7411226  0.016731962   -4.0221227        1.281      1024000 
  132000    0.8530863   -4.0227607   -4.0227607   -2.7431338  0.017804019   -4.0227607    1.2796269      1024000 
  133000   0.85284821   -4.0239087   -4.0239087   -2.7446389  0.017812613   -4.0239087    1.2792697      1024000 
  134000   0.85309725   -4.0253468   -4.0253468   -2.7457035  0.019604917   -4.0253468    1.2796433      1024000 
  135000   0.85374565   -4.0267179   -4.0267179    -2.746102  0.022303754   -4.0267179    1.2806159      1024000 
  136000   0.85259743   -4.0262874   -4.0262874   -2.7473939  0.021973358   -4.0262874    1.2788936      1024000 
  137000   0.85183379   -4.0274556   -4.0274556   -2.7497076  0.017914253   -4.0274556    1.2777481      1024000 
  138000   0.85139473   -4.0286355   -4.0286355    -2.751546  0.017596736   -4.0286355    1.2770895      1024000 
  139000   0.85161078    -4.030386    -4.030386   -2.7529724   0.02390599    -4.030386    1.2774136      1024000 
  140000   0.85215644   -4.0326794   -4.0326794   -2.7544474   0.02104824   -4.0326794    1.2782321      1024000 
  141000   0.85115233   -4.0325277   -4.0325277   -2.7558018  0.017380448   -4.0325277    1.2767259      1024000 
  142000   0.85169301   -4.0346578   -4.0346578   -2.7571208  0.018467327   -4.0346578    1.2775369      1024000 
  143000   0.85058242   -4.0342078   -4.0342078   -2.7583368   0.01825685   -4.0342078     1.275871      1024000 
  144000   0.85102466   -4.0358909   -4.0358909   -2.7593565  0.024326427   -4.0358909    1.2765344      1024000 
  145000   0.85165478   -4.0376362   -4.0376362   -2.7601567   0.02051729   -4.0376362    1.2774796      1024000 
  146000   0.85131345   -4.0393065   -4.0393065   -2.7623389  0.022177641   -4.0393065    1.2769676      1024000 
  147000   0.84997014   -4.0393478   -4.0393478   -2.7643952   0.02048368   -4.0393478    1.2749526      1024000 
  148000   0.84949233   -4.0396487   -4.0396487   -2.7654128  0.021036272   -4.0396487    1.2742359      1024000 
  149000   0.84931329   -4.0409496   -4.0409496   -2.7669823  0.020377533   -4.0409496    1.2739674      1024000 
  150000   0.84877504   -4.0411166   -4.0411166   -2.7679567  0.025824258   -4.0411166      1.27316      1024000 
  151000    0.8479777   -4.0408708   -4.0408708   -2.7689068  0.025425831   -4.0408708     1.271964      1024000 
  152000   0.84923626   -4.0447201   -4.0447201   -2.7708683   0.02363497   -4.0447201    1.2738518      1024000 
  153000   0.84763396   -4.0431481   -4.0431481   -2.7716997  0.024239046   -4.0431481    1.2714484      1024000 
  154000   0.84809132   -4.0450247   -4.0450247   -2.7728903  0.018683062   -4.0450247    1.2721344      1024000 
  155000    0.8485693   -4.0457338   -4.0457338   -2.7728824  0.019031804   -4.0457338    1.2728514      1024000 
  156000   0.84733951   -4.0455164   -4.0455164   -2.7745098  0.017973777   -4.0455164    1.2710067      1024000 
  157000   0.84732315   -4.0467882   -4.0467882    -2.775806  0.023388991   -4.0467882    1.2709821      1024000 
  158000   0.84715547   -4.0480823   -4.0480823   -2.7773516  0.021611585   -4.0480823    1.2707306      1024000 
  159000   0.84717056   -4.0491243   -4.0491243    -2.778371  0.021596226   -4.0491243    1.2707533      1024000 
  160000   0.84670337   -4.0487721   -4.0487721   -2.7787197  0.025305224   -4.0487721    1.2700525      1024000 
  161000   0.84771055   -4.0510724   -4.0510724   -2.7795092  0.019282601   -4.0510724    1.2715632      1024000 
  162000   0.84636485   -4.0506241   -4.0506241   -2.7810794  0.021524814   -4.0506241    1.2695447      1024000 
  163000   0.84723628    -4.052761    -4.052761   -2.7819092  0.027360053    -4.052761    1.2708518      1024000 
  164000   0.84605344   -4.0515437   -4.0515437   -2.7824661  0.025873674   -4.0515437    1.2690776      1024000 
  165000   0.84602425   -4.0523364   -4.0523364   -2.7833026  0.024652303   -4.0523364    1.2690338      1024000 
  166000   0.84554853    -4.053838    -4.053838   -2.7855178  0.020390562    -4.053838    1.2683202      1024000 
  167000   0.84594768   -4.0548592   -4.0548592   -2.7859403  0.025678302   -4.0548592    1.2689189      1024000 
  168000   0.84511496    -4.054713    -4.054713   -2.7870431  0.021385419    -4.054713    1.2676699      1024000 
  169000   0.84554164   -4.0567823   -4.0567823   -2.7884724  0.019468907   -4.0567823    1.2683099      1024000 
  170000   0.84560007   -4.0574337   -4.0574337   -2.7890362  0.026416704   -4.0574337    1.2683975      1024000 
  171000   0.84463262   -4.0576458   -4.0576458   -2.7906994  0.027708726   -4.0576458    1.2669464      1024000 
  172000    0.8443991   -4.0590617   -4.0590617   -2.7924656  0.023538602   -4.0590617    1.2665961      1024000 
  173000   0.84492504   -4.0608354   -4.0608354   -2.7934504  0.023773694   -4.0608354     1.267385      1024000 
  174000   0.84504539   -4.0618696   -4.0618696   -2.7943041  0.022566893   -4.0618696    1.2675655      1024000 
  175000   0.84366146   -4.0618823   -4.0618823   -2.7963927  0.029577863   -4.0618823    1.2654896      1024000 
  176000   0.84336998   -4.0627388   -4.0627388   -2.7976864  0.019050145   -4.0627388    1.2650524      1024000 
  177000   0.84320557   -4.0646682   -4.0646682   -2.7998624  0.017249581   -4.0646682    1.2648058      1024000 
  178000   0.84326599   -4.0644204   -4.0644204    -2.799524   0.02037212   -4.0644204    1.2648964      1024000 
  179000   0.84327342   -4.0652187   -4.0652187   -2.8003111  0.022188526   -4.0652187    1.2649076      1024000 
  180000   0.84324593   -4.0660324   -4.0660324   -2.8011661  0.027088183   -4.0660324    1.2648663      1024000 
  181000   0.84189156   -4.0651032   -4.0651032   -2.8022684  0.024128693   -4.0651032    1.2628348      1024000 
  182000    0.8432412    -4.068582    -4.068582   -2.8037227  0.023065005    -4.068582    1.2648592      1024000 
  183000   0.84272057   -4.0694873   -4.0694873    -2.805409  0.025423795   -4.0694873    1.2640783      1024000 
  184000   0.84386648   -4.0721348   -4.0721348   -2.8063376  0.025014152   -4.0721348    1.2657972      1024000 
  185000   0.84189997   -4.0707538   -4.0707538   -2.8079064  0.025419043   -4.0707538    1.2628474      1024000 
  186000    0.8420432   -4.0716029   -4.0716029   -2.8085407  0.022958096   -4.0716029    1.2630622      1024000 
  187000   0.84308461   -4.0737252   -4.0737252   -2.8091008   0.01879422   -4.0737252    1.2646243      1024000 
  188000   0.84147489   -4.0723163   -4.0723163   -2.8101065  0.022806116   -4.0723163    1.2622098      1024000 
  189000   0.84133145    -4.072984    -4.072984   -2.8109894  0.024445398    -4.072984    1.2619946      1024000 
  190000   0.84195978   -4.0749851   -4.0749851    -2.812048  0.022619969   -4.0749851    1.2629371      1024000 
  191000   0.84120496   -4.0745215   -4.0745215   -2.8127166   0.02131003   -4.0745215    1.2618049      1024000 
  192000   0.84107989   -4.0753018   -4.0753018   -2.8136846  0.023325214   -4.0753018    1.2616173      1024000 
  193000   0.84087041   -4.0757305   -4.0757305   -2.8144274   0.02279686   -4.0757305     1.261303      1024000 
  194000   0.84057454   -4.0765286   -4.0765286   -2.8156693  0.026830512   -4.0765286    1.2608593      1024000 
  195000   0.84145837    -4.079093    -4.079093    -2.816908  0.030131197    -4.079093     1.262185      1024000 
  196000   0.84183687   -4.0802849   -4.0802849   -2.8175322  0.021064124   -4.0802849    1.2627527      1024000 
  197000   0.84128233   -4.0815583   -4.0815583   -2.8196374  0.021086222   -4.0815583    1.2619209      1024000 
  198000     0.841231   -4.0827394   -4.0827394   -2.8208954  0.021195146   -4.0827394    1.2618439      1024000 
  199000   0.84053645   -4.0822509   -4.0822509   -2.8214488  0.026495058   -4.0822509    1.2608021      1024000 
  200000   0.84091314   -4.0834986   -4.0834986   -2.8221315  0.021280257   -4.0834986    1.2613671      1024000 
  201000   0.84033931   -4.0852958   -4.0852958   -2.8247894  0.016987674   -4.0852958    1.2605064      1024000 
  202000   0.83992864   -4.0857667   -4.0857667   -2.8258763   0.02476328   -4.0857667    1.2598904      1024000 
  203000   0.83843054   -4.0851754   -4.0851754   -2.8275322  0.019726355   -4.0851754    1.2576433      1024000 
  204000   0.84008756   -4.0884987   -4.0884987   -2.8283699   0.02174355   -4.0884987    1.2601288      1024000 
  205000   0.83896837   -4.0875674   -4.0875674   -2.8291174  0.021571177   -4.0875674      1.25845      1024000 
  206000   0.83860682   -4.0882908   -4.0882908   -2.8303831  0.019346183   -4.0882908    1.2579077      1024000 
  207000   0.83956803   -4.0899751   -4.0899751   -2.8306256  0.024667139   -4.0899751    1.2593495      1024000 
  208000   0.83873588   -4.0903527   -4.0903527   -2.8322515  0.028495871   -4.0903527    1.2581013      1024000 
  209000   0.83947169   -4.0933936   -4.0933936   -2.8341886  0.022188897   -4.0933936     1.259205      1024000 
  210000   0.83788302    -4.092628    -4.092628    -2.835806  0.023989409    -4.092628     1.256822      1024000 
  211000   0.83806273   -4.0930231   -4.0930231   -2.8359315  0.020086162   -4.0930231    1.2570915      1024000 
  212000   0.83784058    -4.093096    -4.093096   -2.8363377  0.022471808    -4.093096    1.2567583      1024000 
  213000   0.83940832   -4.0955877   -4.0955877   -2.8364778  0.018454739   -4.0955877    1.2591099      1024000 
  214000   0.83875408   -4.0961827   -4.0961827   -2.8380541  0.024192484   -4.0961827    1.2581286      1024000 
  215000   0.83745119   -4.0951463   -4.0951463    -2.838972  0.023632704   -4.0951463    1.2561742      1024000 
  216000   0.83803877   -4.0964839   -4.0964839   -2.8394283  0.021555389   -4.0964839    1.2570556      1024000 
  217000   0.83726232   -4.0964405   -4.0964405   -2.8405495  0.021277919   -4.0964405    1.2558909      1024000 
  218000   0.83605491   -4.0960754   -4.0960754   -2.8419955  0.022627819   -4.0960754    1.2540798      1024000 
  219000   0.83573861   -4.0958234   -4.0958234    -2.842218  0.017167452   -4.0958234    1.2536054      1024000 
  220000   0.83771143   -4.0990979   -4.0990979   -2.8425333  0.016623107   -4.0990979    1.2565646      1024000 
  221000   0.83628741   -4.0969766   -4.0969766    -2.842548  0.023237719   -4.0969766    1.2544286      1024000 
  222000   0.83840717     -4.10132     -4.10132   -2.8437118  0.019876171     -4.10132    1.2576082      1024000 
  223000   0.83735113   -4.1007124   -4.1007124   -2.8446882  0.027153709   -4.1007124    1.2560241      1024000 
  224000   0.83842533   -4.1036459   -4.1036459   -2.8460105  0.020981641   -4.1036459    1.2576354      1024000 
  225000   0.83923092   -4.1053308   -4.1053308    -2.846487  0.023938385   -4.1053308    1.2588438      1024000 
  226000   0.83854715   -4.1053405   -4.1053405   -2.8475224  0.024685557   -4.1053405    1.2578182      1024000 
  227000    0.8367108    -4.103262    -4.103262   -2.8481983  0.026061901    -4.103262    1.2550637      1024000 
  228000   0.83655732   -4.1038096   -4.1038096   -2.8489762   0.02207692   -4.1038096    1.2548334      1024000 
  229000     0.837303    -4.105593    -4.105593   -2.8496411  0.018272327    -4.105593    1.2559519      1024000 
  230000   0.83727105   -4.1064822   -4.1064822   -2.8505782  0.020821019   -4.1064822     1.255904      1024000 
  231000   0.83610433    -4.105315    -4.105315   -2.8511611   0.01941262    -4.105315     1.254154      1024000 
  232000   0.83687254   -4.1072899   -4.1072899   -2.8519836   0.01496349   -4.1072899    1.2553063      1024000 
  233000   0.83627043   -4.1073728   -4.1073728   -2.8529697  0.014866905   -4.1073728    1.2544031      1024000 
  234000    0.8355878   -4.1069603   -4.1069603   -2.8535811  0.017900283   -4.1069603    1.2533792      1024000 
  235000   0.83426777   -4.1062362   -4.1062362   -2.8548371  0.022293298   -4.1062362    1.2513991      1024000 
  236000   0.83496324   -4.1088778   -4.1088778   -2.8564355  0.016484534   -4.1088778    1.2524423      1024000 
  237000   0.83555813   -4.1103704   -4.1103704   -2.8570357  0.020572291   -4.1103704    1.2533347      1024000 
  238000   0.83550438   -4.1113345   -4.1113345   -2.8580805  0.027564108   -4.1113345     1.253254      1024000 
  239000   0.83719989   -4.1152705   -4.1152705   -2.8594732  0.027772844   -4.1152705    1.2557973      1024000 
  240000   0.83634943   -4.1152943   -4.1152943   -2.8607727  0.023484104   -4.1152943    1.2545216      1024000 
  241000   0.83767647   -4.1191969   -4.1191969   -2.8626848  0.021023412   -4.1191969    1.2565122      1024000 
  242000   0.83596454   -4.1171777   -4.1171777   -2.8632335  0.027241202   -4.1171777    1.2539443      1024000 
  243000   0.83567853   -4.1176066   -4.1176066   -2.8640914  0.029342193   -4.1176066    1.2535153      1024000 
  244000   0.83613782   -4.1194066   -4.1194066   -2.8652024  0.025428868   -4.1194066    1.2542042      1024000 
  245000   0.83628458   -4.1193898   -4.1193898   -2.8649655  0.026084059   -4.1193898    1.2544243      1024000 
  246000   0.83683452   -4.1209143   -4.1209143   -2.8656651  0.024612343   -4.1209143    1.2552492      1024000 
  247000   0.83589058   -4.1202335   -4.1202335   -2.8664001   0.02541179   -4.1202335    1.2538333      1024000 
  248000   0.83359716   -4.1175554   -4.1175554   -2.8671622  0.022131026   -4.1175554    1.2503932      1024000 
  249000   0.83332545   -4.1182689   -4.1182689   -2.8682832  0.019233353   -4.1182689    1.2499856      1024000 
  250000   0.83340469   -4.1192466   -4.1192466   -2.8691421  0.019554052   -4.1192466    1.2501045      1024000 
  251000    0.8335009   -4.1203586   -4.1203586   -2.8701098  0.022621181   -4.1203586    1.2502488      1024000 
  252000   0.83289861   -4.1199914   -4.1199914    -2.870646   0.02328392   -4.1199914    1.2493454      1024000 
  253000   0.83282835   -4.1212419   -4.1212419   -2.8720019   0.02097151   -4.1212419      1.24924      1024000 
  254000   0.83287914   -4.1221823   -4.1221823   -2.8728661  0.018131284   -4.1221823    1.2493162      1024000 
  255000   0.83426948   -4.1255143   -4.1255143   -2.8741126  0.017290076   -4.1255143    1.2514017      1024000 
  256000   0.83275648   -4.1247634   -4.1247634   -2.8756312  0.018744739   -4.1247634    1.2491322      1024000 
  257000   0.83343622   -4.1275307   -4.1275307   -2.8773789   0.02251547   -4.1275307    1.2501518      1024000 
  258000   0.83261923    -4.127017    -4.127017   -2.8780907  0.024445737    -4.127017    1.2489263      1024000 
  259000   0.83470486   -4.1301882   -4.1301882   -2.8781334  0.024739043   -4.1301882    1.2520548      1024000 
  260000   0.83309629   -4.1292547   -4.1292547   -2.8796128   0.02399787   -4.1292547    1.2496419      1024000 
  261000   0.83398113   -4.1309594   -4.1309594   -2.8799903  0.025538734   -4.1309594    1.2509692      1024000 
  262000   0.83299437   -4.1309521   -4.1309521    -2.881463  0.027984489   -4.1309521     1.249489      1024000 
  263000   0.83235547   -4.1305955   -4.1305955   -2.8820648  0.031813753   -4.1305955    1.2485307      1024000 
  264000   0.83269433   -4.1322538   -4.1322538   -2.8832148  0.022295487   -4.1322538     1.249039      1024000 
  265000   0.83121637   -4.1304997   -4.1304997   -2.8836776  0.021718451   -4.1304997     1.246822      1024000 
  266000   0.83181322   -4.1314203   -4.1314203    -2.883703  0.018120835   -4.1314203    1.2477173      1024000 
  267000   0.83248156    -4.132517    -4.132517   -2.8837972  0.022497444    -4.132517    1.2487198      1024000 
  268000   0.83285237   -4.1340853   -4.1340853   -2.8848093  0.024486861   -4.1340853     1.249276      1024000 
  269000   0.83205469   -4.1333744   -4.1333744   -2.8852949  0.020031107   -4.1333744    1.2480795      1024000 
  270000   0.83119474   -4.1329346   -4.1329346   -2.8861451  0.023586079   -4.1329346    1.2467896      1024000 
  271000   0.83251999   -4.1363858   -4.1363858   -2.8876083  0.022022467   -4.1363858    1.2487775      1024000 
  272000   0.83210982     -4.13605     -4.13605   -2.8878878  0.023754653     -4.13605    1.2481622      1024000 
  273000   0.83186973   -4.1366283   -4.1366283   -2.8888262  0.025234536   -4.1366283    1.2478021      1024000 
  274000   0.83088111   -4.1361469   -4.1361469   -2.8898278  0.024053528   -4.1361469    1.2463191      1024000 
  275000   0.83137271    -4.137928    -4.137928   -2.8908715  0.023882711    -4.137928    1.2470565      1024000 
  276000   0.82992025   -4.1365443   -4.1365443   -2.8916664  0.027980533   -4.1365443    1.2448778      1024000 
  277000   0.83070378   -4.1387995   -4.1387995   -2.8927463  0.015106315   -4.1387995    1.2460531      1024000 
  278000   0.83011524   -4.1383121   -4.1383121   -2.8931417  0.022425347   -4.1383121    1.2451703      1024000 
  279000   0.83044108   -4.1400406   -4.1400406   -2.8943815  0.017016353   -4.1400406    1.2456591      1024000 
  280000   0.83136955   -4.1415787   -4.1415787    -2.894527  0.024603155   -4.1415787    1.2470518      1024000 
  281000   0.83194726   -4.1432718   -4.1432718   -2.8953534  0.019792235   -4.1432718    1.2479184      1024000 
  282000   0.83050549   -4.1419549   -4.1419549   -2.8961992  0.022799574   -4.1419549    1.2457557      1024000 
  283000   0.83107507   -4.1441565   -4.1441565   -2.8975464  0.018876763   -4.1441565    1.2466101      1024000 
  284000    0.8299831   -4.1437028   -4.1437028   -2.8987307  0.020547261   -4.1437028    1.2449721      1024000 
  285000   0.82974669   -4.1440414   -4.1440414   -2.8994239   0.02062434   -4.1440414    1.2446175      1024000 
  286000    0.8297825   -4.1454195   -4.1454195   -2.9007482  0.016360853   -4.1454195    1.2446712      1024000 
  287000   0.82880296     -4.14483     -4.14483    -2.901628  0.023699567     -4.14483    1.2432019      1024000 
  288000    0.8292108   -4.1465697   -4.1465697    -2.902756  0.019797012   -4.1465697    1.2438137      1024000 
  289000   0.82968228   -4.1474308   -4.1474308   -2.9029099  0.022837855   -4.1474308    1.2445209      1024000 
  290000   0.82926778   -4.1478651   -4.1478651   -2.9039659  0.020967474   -4.1478651    1.2438991      1024000 
  291000   0.82942539   -4.1492414   -4.1492414   -2.9051059  0.023898753   -4.1492414    1.2441356      1024000 
  292000   0.82993963   -4.1506672   -4.1506672   -2.9057603   0.02282782   -4.1506672    1.2449069      1024000 
  293000   0.82945209   -4.1512854   -4.1512854   -2.9071098   0.02369265   -4.1512854    1.2441756      1024000 
  294000   0.82884858   -4.1514015   -4.1514015   -2.9081312  0.024153971   -4.1514015    1.2432703      1024000 
  295000    0.8288435   -4.1510768   -4.1510768   -2.9078141   0.02230075   -4.1510768    1.2432627      1024000 
  296000     0.829043   -4.1526313   -4.1526313   -2.9090694  0.019891431   -4.1526313     1.243562      1024000 
  297000   0.83015939   -4.1540091   -4.1540091   -2.9087725  0.022147194   -4.1540091    1.2452366      1024000 
  298000   0.83048015   -4.1545032   -4.1545032   -2.9087855   0.02465913   -4.1545032    1.2457177      1024000 
  299000   0.83048342   -4.1547843   -4.1547843   -2.9090617  0.021281306   -4.1547843    1.2457226      1024000 
  300000    0.8282127    -4.152563    -4.152563   -2.9102465  0.021668394    -4.152563    1.2423165      1024000 
  301000   0.82853678   -4.1539786   -4.1539786   -2.9111759  0.024996548   -4.1539786    1.2428026      1024000 
  302000   0.82929678   -4.1558487   -4.1558487   -2.9119061  0.017942904   -4.1558487    1.2439427      1024000 
  303000   0.82785007   -4.1539538   -4.1539538   -2.9121812  0.024515494   -4.1539538    1.2417726      1024000 
  304000   0.82876124    -4.156141    -4.156141   -2.9130016  0.020703358    -4.156141    1.2431393      1024000 
  305000   0.82824715   -4.1566988   -4.1566988   -2.9143305  0.021304207   -4.1566988    1.2423682      1024000 
  306000   0.82646436    -4.155598    -4.155598   -2.9159039  0.021867936    -4.155598     1.239694      1024000 
  307000   0.82799477   -4.1589169   -4.1589169   -2.9169272  0.018802518   -4.1589169    1.2419896      1024000 
  308000   0.82809352   -4.1597185   -4.1597185   -2.9175808  0.015777694   -4.1597185    1.2421378      1024000 
  309000   0.82649183   -4.1580686   -4.1580686   -2.9183333  0.019988747   -4.1580686    1.2397352      1024000 
  310000   0.82655032   -4.1592037   -4.1592037   -2.9193807  0.023762075   -4.1592037     1.239823      1024000 
  311000   0.82740865   -4.1611417   -4.1611417   -2.9200313  0.020202733   -4.1611417    1.2411105      1024000 
  312000   0.82707835    -4.161953    -4.161953    -2.921338  0.026493559    -4.161953     1.240615      1024000 
  313000   0.82722505   -4.1633719   -4.1633719   -2.9225368  0.018253544   -4.1633719    1.2408351      1024000 
  314000   0.82683623    -4.163209    -4.163209   -2.9229572  0.015394155    -4.163209    1.2402518      1024000 
  315000    0.8269581   -4.1651321   -4.1651321   -2.9246974  0.019145659   -4.1651321    1.2404346      1024000 
  316000   0.82685442   -4.1652368   -4.1652368   -2.9249577  0.019706936   -4.1652368    1.2402791      1024000 
  317000    0.8269651   -4.1656183   -4.1656183   -2.9251731  0.020621529   -4.1656183    1.2404451      1024000 
  318000   0.82671209   -4.1669415   -4.1669415   -2.9268759  0.020261072   -4.1669415    1.2400656      1024000 
  319000   0.82582277   -4.1654664   -4.1654664   -2.9267348  0.028199998   -4.1654664    1.2387316      1024000 
  320000   0.82533984   -4.1651546   -4.1651546   -2.9271473  0.022016421   -4.1651546    1.2380073      1024000 
  321000   0.82538947   -4.1660791   -4.1660791   -2.9279975  0.019663009   -4.1660791    1.2380817      1024000 
  322000   0.82675407    -4.168489    -4.168489   -2.9283604  0.023324536    -4.168489    1.2401286      1024000 
  323000   0.82757078   -4.1698495   -4.1698495   -2.9284958  0.024025381   -4.1698495    1.2413536      1024000 
  324000   0.82694362   -4.1689878   -4.1689878   -2.9285749  0.026063652   -4.1689878    1.2404129      1024000 
  325000   0.82549552   -4.1683762   -4.1683762   -2.9301355  0.027219707   -4.1683762    1.2382408      1024000 
  326000   0.82663248   -4.1701995   -4.1701995   -2.9302533  0.020390676   -4.1701995    1.2399462      1024000 
  327000   0.82712192   -4.1710634   -4.1710634    -2.930383  0.022767488   -4.1710634    1.2406804      1024000 
  328000   0.82667338   -4.1715003   -4.1715003   -2.9314927  0.016417974   -4.1715003    1.2400076      1024000 
  329000    0.8270278   -4.1726999   -4.1726999   -2.9321607  0.015188696   -4.1726999    1.2405392      1024000 
  330000   0.82602505   -4.1721736   -4.1721736   -2.9331385  0.014622723   -4.1721736    1.2390351      1024000 
  331000   0.82734578   -4.1743877   -4.1743877   -2.9333716  0.019952898   -4.1743877    1.2410162      1024000 
  332000   0.82675668   -4.1746158   -4.1746158   -2.9344833   0.02169276   -4.1746158    1.2401325      1024000 
  333000   0.82678023   -4.1754511   -4.1754511   -2.9352833  0.022905385   -4.1754511    1.2401678      1024000 
  334000   0.82533441   -4.1742554   -4.1742554   -2.9362563  0.020629052   -4.1742554    1.2379991      1024000 
  335000   0.82648419    -4.176153    -4.176153   -2.9364292  0.022980932    -4.176153    1.2397238      1024000 
  336000   0.82456818   -4.1753608   -4.1753608    -2.938511  0.028621398   -4.1753608    1.2368498      1024000 
  337000   0.82592983   -4.1781767   -4.1781767   -2.9392845  0.024396623   -4.1781767    1.2388922      1024000 
  338000   0.82622056   -4.1798188   -4.1798188   -2.9404904  0.022397537   -4.1798188    1.2393283      1024000 
  339000   0.82506692   -4.1790697   -4.1790697   -2.9414718    0.0230648   -4.1790697    1.2375979      1024000 
  340000   0.82361956   -4.1781088   -4.1781088    -2.942682  0.022723254   -4.1781088    1.2354268      1024000 
  341000   0.82431174   -4.1801696   -4.1801696   -2.9437045  0.024147045   -4.1801696    1.2364651      1024000 
  342000   0.82560926   -4.1827731   -4.1827731   -2.9443617  0.016518206   -4.1827731    1.2384114      1024000 
  343000   0.82651703   -4.1836318   -4.1836318   -2.9438588  0.015970239   -4.1836318     1.239773      1024000 
  344000   0.82533019   -4.1825179   -4.1825179   -2.9445252  0.023330576   -4.1825179    1.2379928      1024000 
  345000   0.82449155   -4.1823427   -4.1823427   -2.9456079  0.024926533   -4.1823427    1.2367348      1024000 
  346000   0.82475875   -4.1834856   -4.1834856     -2.94635  0.023582165   -4.1834856    1.2371356      1024000 
  347000   0.82516897   -4.1837989   -4.1837989   -2.9460479  0.027617368   -4.1837989    1.2377509      1024000 
  348000   0.82424506   -4.1826914   -4.1826914   -2.9463263  0.029299086   -4.1826914    1.2363651      1024000 
  349000   0.82477593   -4.1840236   -4.1840236   -2.9468622  0.023051412   -4.1840236    1.2371614      1024000 
  350000   0.82415068   -4.1846709   -4.1846709   -2.9484473  0.021895173   -4.1846709    1.2362235      1024000 
  351000    0.8232342    -4.184007    -4.184007   -2.9491582  0.024109323    -4.184007    1.2348488      1024000 
  352000    0.8259727   -4.1885696   -4.1885696   -2.9496131  0.014871465   -4.1885696    1.2389565      1024000 
  353000   0.82552103   -4.1883904   -4.1883904   -2.9501114  0.019351227   -4.1883904     1.238279      1024000 
  354000   0.82401781   -4.1876829   -4.1876829   -2.9516587  0.022562587   -4.1876829    1.2360242      1024000 
  355000   0.82434832   -4.1886813   -4.1886813   -2.9521614  0.022351189   -4.1886813      1.23652      1024000 
  356000   0.82350505   -4.1886113   -4.1886113   -2.9533563  0.021538479   -4.1886113    1.2352551      1024000 
  357000    0.8242849   -4.1893232   -4.1893232   -2.9528984  0.022620515   -4.1893232    1.2364248      1024000 
  358000   0.82507184       -4.191       -4.191   -2.9533948   0.02147339       -4.191    1.2376053      1024000 
  359000   0.82500274   -4.1918925   -4.1918925   -2.9543909  0.019539784   -4.1918925    1.2375016      1024000 
  360000   0.82529684    -4.192683    -4.192683   -2.9547403  0.021096846    -4.192683    1.2379428      1024000 
  361000   0.82373748   -4.1918346   -4.1918346   -2.9562309  0.025362581   -4.1918346    1.2356037      1024000 
  362000   0.82502311   -4.1944295   -4.1944295   -2.9568973  0.021832503   -4.1944295    1.2375321      1024000 
  363000   0.82527347   -4.1957355   -4.1957355   -2.9578278  0.018522853   -4.1957355    1.2379077      1024000 
  364000    0.8252931   -4.1958468   -4.1958468   -2.9579096  0.021662738   -4.1958468    1.2379371      1024000 
  365000   0.82381198   -4.1949488   -4.1949488   -2.9592333  0.026219996   -4.1949488    1.2357155      1024000 
  366000   0.82359454   -4.1960903   -4.1960903    -2.960701  0.021481769   -4.1960903    1.2353893      1024000 
  367000    0.8242357   -4.1979933   -4.1979933   -2.9616423  0.018679684   -4.1979933     1.236351      1024000 
  368000   0.82441067   -4.1990825   -4.1990825    -2.962469  0.019175811   -4.1990825    1.2366135      1024000 
  369000   0.82457513   -4.1997081   -4.1997081   -2.9628479  0.021160849   -4.1997081    1.2368602      1024000 
  370000   0.82357634   -4.1990898   -4.1990898   -2.9637278  0.022849519   -4.1990898     1.235362      1024000 
  371000   0.82445206   -4.2013233   -4.2013233   -2.9646477   0.02012789   -4.2013233    1.2366756      1024000 
  372000   0.82527741   -4.2034156   -4.2034156    -2.965502  0.025217344   -4.2034156    1.2379136      1024000 
  373000   0.82471862   -4.2032521   -4.2032521   -2.9661767  0.025204036   -4.2032521    1.2370754      1024000 
  374000   0.82617073   -4.2064975   -4.2064975   -2.9672439  0.021753927   -4.2064975    1.2392536      1024000 
  375000    0.8247052   -4.2052655   -4.2052655   -2.9682102  0.025492547   -4.2052655    1.2370553      1024000 
  376000   0.82526468   -4.2059118   -4.2059118   -2.9680173  0.028196197   -4.2059118    1.2378945      1024000 
  377000   0.82563543   -4.2071814   -4.2071814   -2.9687308  0.026305774   -4.2071814    1.2384506      1024000 
  378000   0.82526861    -4.206873    -4.206873   -2.9689726  0.027282479    -4.206873    1.2379004      1024000 
  379000   0.82503109   -4.2070635   -4.2070635   -2.9695194  0.024739629   -4.2070635    1.2375441      1024000 
  380000   0.82497909   -4.2082756   -4.2082756   -2.9708095  0.025939417   -4.2082756    1.2374661      1024000 
  381000   0.82548761   -4.2093556   -4.2093556   -2.9711267  0.027465406   -4.2093556    1.2382289      1024000 
  382000   0.82351351    -4.207826    -4.207826   -2.9725583  0.029426484    -4.207826    1.2352678      1024000 
  383000    0.8251627    -4.210614    -4.210614   -2.9728725    0.0222857    -4.210614    1.2377415      1024000 
  384000   0.82355635   -4.2089369   -4.2089369   -2.9736048  0.024121994   -4.2089369     1.235332      1024000 
  385000   0.82491502   -4.2115781   -4.2115781   -2.9742081  0.022462747   -4.2115781      1.23737      1024000 
  386000   0.82390843   -4.2116183   -4.2116183   -2.9757582  0.025777707   -4.2116183    1.2358601      1024000 
  387000   0.82442116   -4.2137415   -4.2137415   -2.9771122  0.024112013   -4.2137415    1.2366292      1024000 
  388000   0.82451092   -4.2146743   -4.2146743   -2.9779105  0.025981138   -4.2146743    1.2367639      1024000 
  389000   0.82637824   -4.2181903   -4.2181903   -2.9786254  0.029020894   -4.2181903    1.2395648      1024000 
  390000   0.82612856   -4.2189992   -4.2189992   -2.9798089  0.034629274   -4.2189992    1.2391903      1024000 
  391000    0.8275693   -4.2225574   -4.2225574    -2.981206   0.03430656   -4.2225574    1.2413514      1024000 
  392000   0.82759174   -4.2239984   -4.2239984   -2.9826133  0.037779068   -4.2239984    1.2413851      1024000 
  393000   0.82930188   -4.2274252   -4.2274252   -2.9834749  0.037595481   -4.2274252    1.2439503      1024000 
  394000   0.83001085   -4.2295595   -4.2295595   -2.9845458  0.044579312   -4.2295595    1.2450138      1024000 
  395000   0.83021772   -4.2303227   -4.2303227   -2.9849987  0.047730545   -4.2303227    1.2453241      1024000 
  396000   0.83066485    -4.232435    -4.232435   -2.9864402  0.044628227    -4.232435    1.2459948      1024000 
  397000   0.83004812   -4.2333477   -4.2333477   -2.9882781  0.050154985   -4.2333477    1.2450697      1024000 
  398000   0.83101052   -4.2359101   -4.2359101   -2.9893968  0.051550991   -4.2359101    1.2465133      1024000 
  399000   0.83140598   -4.2369014   -4.2369014    -2.989795  0.056728589   -4.2369014    1.2471064      1024000 
  400000   0.83242548   -4.2391052   -4.2391052   -2.9904695  0.058452894   -4.2391052    1.2486357      1024000 
  401000   0.83220281   -4.2413782   -4.2413782   -2.9930765  0.068463715   -4.2413782    1.2483017      1024000 
  402000    0.8335507   -4.2452452   -4.2452452   -2.9949216  0.065067868   -4.2452452    1.2503235      1024000 
  403000   0.83397601   -4.2467933   -4.2467933   -2.9958318  0.070184553   -4.2467933    1.2509615      1024000 
  404000   0.83538192   -4.2505138   -4.2505138   -2.9974434  0.073911186   -4.2505138    1.2530703      1024000 
  405000   0.83644456    -4.253681    -4.253681   -2.9990167  0.074466593    -4.253681    1.2546643      1024000 
  406000   0.83641135   -4.2544023   -4.2544023   -2.9997878  0.082001839   -4.2544023    1.2546145      1024000 
  407000   0.83561011    -4.255339    -4.255339   -3.0019264  0.083145497    -4.255339    1.2534126      1024000 
  408000   0.83526373   -4.2569206   -4.2569206   -3.0040276  0.080178564   -4.2569206    1.2528931      1024000 
  409000   0.83358827   -4.2558204   -4.2558204   -3.0054406   0.07654351   -4.2558204    1.2503799      1024000 
  410000   0.83285811   -4.2559215   -4.2559215   -3.0066369  0.069629465   -4.2559215    1.2492846      1024000 
  411000   0.83203626   -4.2555018   -4.2555018   -3.0074499  0.066827594   -4.2555018    1.2480519      1024000 
  412000   0.83003349   -4.2538925   -4.2538925   -3.0088448  0.068143975   -4.2538925    1.2450477      1024000 
  413000    0.8294739    -4.254017    -4.254017   -3.0098087  0.059242362    -4.254017    1.2442083      1024000 
  414000   0.82699536   -4.2515286   -4.2515286   -3.0110381  0.053343822   -4.2515286    1.2404905      1024000 
  415000   0.82574463   -4.2508524   -4.2508524    -3.012238  0.044820201   -4.2508524    1.2386144      1024000 
  416000   0.82238385   -4.2467516   -4.2467516   -3.0131783  0.038484911   -4.2467516    1.2335733      1024000 
  417000   0.82148313   -4.2464824   -4.2464824   -3.0142602  0.026700026   -4.2464824    1.2322222      1024000 
  418000   0.82053115   -4.2453765   -4.2453765   -3.0145823  0.014783761   -4.2453765    1.2307942      1024000 
  419000   0.81841197    -4.242274    -4.242274   -3.0146585  0.015088755    -4.242274    1.2276155      1024000 
  420000   0.81696034   -4.2403784   -4.2403784   -3.0149403  0.011307683   -4.2403784     1.225438      1024000 
  421000   0.81614915   -4.2381642   -4.2381642    -3.013943 0.00061486635   -4.2381642    1.2242212      1024000 
  422000   0.81313316   -4.2325756   -4.2325756   -3.0128783 0.0021625128   -4.2325756    1.2196973      1024000 
  423000   0.81330217   -4.2333123   -4.2333123   -3.0133615 -0.0079863207   -4.2333123    1.2199508      1024000 
  424000   0.81140422   -4.2311254   -4.2311254   -3.0140216 -0.0080467485   -4.2311254    1.2171039      1024000 
  425000   0.81195416   -4.2310263   -4.2310263   -3.0130976 -0.0069124562   -4.2310263    1.2179288      1024000 
  426000   0.81261685   -4.2320504   -4.2320504   -3.0131276 -0.015991487   -4.2320504    1.2189228      1024000 
  427000   0.81082806   -4.2285161   -4.2285161   -3.0122764  -0.01001892   -4.2285161    1.2162396      1024000 
  428000   0.81122414   -4.2289351   -4.2289351   -3.0121013 -0.017649041   -4.2289351    1.2168337      1024000 
  429000   0.81071795    -4.228229    -4.228229   -3.0121545 -0.011376416    -4.228229    1.2160745      1024000 
  430000   0.81142328    -4.230382    -4.230382   -3.0132496  -0.01264149    -4.230382    1.2171325      1024000 
  431000   0.81171856   -4.2313472   -4.2313472   -3.0137718 -0.0087992707   -4.2313472    1.2175754      1024000 
  432000   0.81228402    -4.231981    -4.231981   -3.0135575 -0.0071564399    -4.231981    1.2184236      1024000 
  433000   0.81448561    -4.235061    -4.235061   -3.0133351 -0.0053370715    -4.235061    1.2217259      1024000 
  434000    0.8141717   -4.2344425   -4.2344425   -3.0131875 -0.00031658579   -4.2344425    1.2212551      1024000 
  435000   0.81488872   -4.2371985   -4.2371985   -3.0148678 0.0034021525   -4.2371985    1.2223306      1024000 
  436000    0.8158713   -4.2382143   -4.2382143   -3.0144098  0.010613465   -4.2382143    1.2238045      1024000 
  437000   0.81739944   -4.2421924   -4.2421924   -3.0160957  0.014726634   -4.2421924    1.2260967      1024000 
  438000   0.81851862   -4.2442353   -4.2442353   -3.0164599  0.018524482   -4.2442353    1.2277754      1024000 
  439000   0.82075971   -4.2485572   -4.2485572   -3.0174201  0.021573992   -4.2485572    1.2311371      1024000 
  440000   0.82138643   -4.2505862   -4.2505862   -3.0185091  0.027416688   -4.2505862    1.2320771      1024000 
  441000   0.82156883   -4.2519012   -4.2519012   -3.0195504  0.033652028   -4.2519012    1.2323507      1024000 
  442000   0.82317997   -4.2550642   -4.2550642   -3.0202968  0.035526077   -4.2550642    1.2347674      1024000 
  443000   0.82314951   -4.2567448   -4.2567448   -3.0220231  0.042575398   -4.2567448    1.2347218      1024000 
  444000    0.8239408   -4.2597595   -4.2597595   -3.0238508   0.04332004   -4.2597595    1.2359087      1024000 
  445000    0.8246678   -4.2629226   -4.2629226   -3.0259234   0.04583487   -4.2629226    1.2369992      1024000 
  446000   0.82434249   -4.2633805   -4.2633805   -3.0268693  0.055537353   -4.2633805    1.2365112      1024000 
  447000   0.82537568    -4.266251    -4.266251     -3.02819  0.050686599    -4.266251     1.238061      1024000 
  448000   0.82318129     -4.26508     -4.26508   -3.0303106  0.055263946     -4.26508    1.2347694      1024000 
  449000   0.82389581    -4.267346    -4.267346   -3.0315048  0.054252946    -4.267346    1.2358412      1024000 
  450000   0.82365285   -4.2686641   -4.2686641   -3.0331873  0.050327767   -4.2686641    1.2354768      1024000 
  451000    0.8227269   -4.2697348   -4.2697348   -3.0356469  0.051859946   -4.2697348    1.2340878      1024000 
  452000   0.82198587    -4.269503    -4.269503   -3.0365267   0.04785467    -4.269503    1.2329763      1024000 
  453000   0.82166474   -4.2699241   -4.2699241   -3.0374295  0.051260148   -4.2699241    1.2324946      1024000 
  454000   0.82055864   -4.2698618   -4.2698618   -3.0390263  0.046055025   -4.2698618    1.2308355      1024000 
  455000   0.81972538   -4.2696053   -4.2696053   -3.0400197  0.038946479   -4.2696053    1.2295856      1024000 
  456000   0.81841981   -4.2692095   -4.2692095   -3.0415823  0.036395859   -4.2692095    1.2276272      1024000 
  457000   0.81837881   -4.2699524   -4.2699524   -3.0423867  0.031673664   -4.2699524    1.2275657      1024000 
  458000   0.81688748   -4.2684133   -4.2684133   -3.0430846  0.028631016   -4.2684133    1.2253287      1024000 
  459000   0.81680126    -4.268865    -4.268865   -3.0436656  0.023610499    -4.268865    1.2251994      1024000 
  460000   0.81591047   -4.2680059   -4.2680059   -3.0441426  0.026477525   -4.2680059    1.2238632      1024000 
  461000   0.81542823    -4.267484    -4.267484   -3.0443441  0.026456421    -4.267484    1.2231399      1024000 
  462000   0.81479602   -4.2666548   -4.2666548   -3.0444633  0.019496263   -4.2666548    1.2221916      1024000 
  463000   0.81330506   -4.2651115   -4.2651115   -3.0451563  0.016409945   -4.2651115    1.2199551      1024000 
  464000   0.81356275    -4.265624    -4.265624   -3.0452824  0.012038659    -4.265624    1.2203416      1024000 
  465000   0.81074978   -4.2627622   -4.2627622     -3.04664  0.014941209   -4.2627622    1.2161222      1024000 
  466000   0.81087145   -4.2636395   -4.2636395   -3.0473348  0.009095128   -4.2636395    1.2163047      1024000 
  467000   0.81144528   -4.2640983   -4.2640983   -3.0469329  0.010316516   -4.2640983    1.2171655      1024000 
  468000    0.8111377   -4.2646101   -4.2646101   -3.0479061  0.011376121   -4.2646101    1.2167041      1024000 
  469000    0.8112847   -4.2643724   -4.2643724   -3.0474478  0.008251797   -4.2643724    1.2169246      1024000 
  470000   0.81066596   -4.2635063   -4.2635063   -3.0475098  0.012118846   -4.2635063    1.2159965      1024000 
  471000   0.81071999   -4.2644973   -4.2644973   -3.0484198 0.0098382737   -4.2644973    1.2160775      1024000 
  472000     0.811389   -4.2650574   -4.2650574   -3.0479764   0.01675441   -4.2650574     1.217081      1024000 
  473000    0.8123634   -4.2671425   -4.2671425   -3.0485998 0.0083270521   -4.2671425    1.2185426      1024000 
  474000   0.81086742   -4.2659246   -4.2659246   -3.0496259  0.015224128   -4.2659246    1.2162987      1024000 
  475000    0.8115278   -4.2674417   -4.2674417   -3.0501525  0.017211292   -4.2674417    1.2172892      1024000 
  476000   0.81130995   -4.2681726   -4.2681726   -3.0512101  0.022015218   -4.2681726    1.2169625      1024000 
  477000   0.81184364   -4.2693075   -4.2693075   -3.0515445  0.021788738   -4.2693075     1.217763      1024000 
  478000   0.81356955   -4.2720597   -4.2720597   -3.0517079   0.02303903   -4.2720597    1.2203519      1024000 
  479000   0.81333159   -4.2718019   -4.2718019   -3.0518069  0.031481188   -4.2718019    1.2199949      1024000 
  480000   0.81470115   -4.2758919   -4.2758919   -3.0538427  0.022188827   -4.2758919    1.2220492      1024000 
  481000   0.81343201   -4.2746621   -4.2746621   -3.0545166  0.030582673   -4.2746621    1.2201455      1024000 
  482000   0.81456556   -4.2765592   -4.2765592   -3.0547133   0.02867724   -4.2765592    1.2218459      1024000 
  483000    0.8140051   -4.2763019   -4.2763019   -3.0552968  0.036925958   -4.2763019    1.2210052      1024000 
  484000    0.8154342   -4.2792104   -4.2792104   -3.0560616  0.031273791   -4.2792104    1.2231488      1024000 
  485000   0.81613897   -4.2815171   -4.2815171   -3.0573111  0.031325562   -4.2815171     1.224206      1024000 
  486000   0.81538717   -4.2821683   -4.2821683     -3.05909  0.035650984   -4.2821683    1.2230783      1024000 
  487000   0.81514033   -4.2825836   -4.2825836   -3.0598756  0.039735372   -4.2825836     1.222708      1024000 
  488000   0.81501759   -4.2835248   -4.2835248   -3.0610009   0.03591227   -4.2835248    1.2225239      1024000 
  489000   0.81390129   -4.2827388   -4.2827388   -3.0618893   0.04155581   -4.2827388    1.2208495      1024000 
  490000   0.81603327   -4.2865478   -4.2865478   -3.0625004  0.035128343   -4.2865478    1.2240474      1024000 
  491000   0.81459519   -4.2857644   -4.2857644   -3.0638741  0.033905682   -4.2857644    1.2218903      1024000 
  492000   0.81372893   -4.2853374   -4.2853374   -3.0647465  0.035095614   -4.2853374    1.2205909      1024000 
  493000   0.81408911   -4.2863019   -4.2863019   -3.0651707  0.038799114   -4.2863019    1.2211312      1024000 
  494000   0.81374813   -4.2865306   -4.2865306   -3.0659109  0.034060968   -4.2865306    1.2206197      1024000 
  495000    0.8137182   -4.2878701   -4.2878701   -3.0672953  0.034004428   -4.2878701    1.2205748      1024000 
  496000   0.81262183   -4.2867102   -4.2867102   -3.0677799  0.031450235   -4.2867102    1.2189303      1024000 
  497000   0.81258016   -4.2881593   -4.2881593   -3.0692915   0.02772652   -4.2881593    1.2188678      1024000 
  498000   0.81182033   -4.2869439   -4.2869439   -3.0692158  0.032032069   -4.2869439     1.217728      1024000 
  499000   0.81077583   -4.2864043   -4.2864043    -3.070243  0.031911884   -4.2864043    1.2161613      1024000 
  500000   0.81059112   -4.2870121   -4.2870121   -3.0711278  0.023255319   -4.2870121    1.2158842      1024000 
  501000   0.81045011   -4.2866065   -4.2866065   -3.0709338  0.026380795   -4.2866065    1.2156727      1024000 
  502000   0.81005966   -4.2869449   -4.2869449   -3.0718579  0.024227078   -4.2869449     1.215087      1024000 
  503000   0.80899834   -4.2851777   -4.2851777   -3.0716827   0.01977569   -4.2851777     1.213495      1024000 
  504000   0.80963635    -4.287316    -4.287316   -3.0728639   0.01808897    -4.287316    1.2144521      1024000 
  505000   0.80861516   -4.2860901   -4.2860901   -3.0731698  0.027002386   -4.2860901    1.2129203      1024000 
  506000   0.81006139   -4.2887668   -4.2887668   -3.0736772  0.020338175   -4.2887668    1.2150896      1024000 
  507000   0.80863169   -4.2874801   -4.2874801   -3.0745351  0.014795968   -4.2874801    1.2129451      1024000 
  508000   0.80752496   -4.2874453   -4.2874453   -3.0761603  0.021015109   -4.2874453     1.211285      1024000 
  509000   0.80826744   -4.2886841   -4.2886841   -3.0762854  0.015728635   -4.2886841    1.2123987      1024000 
  510000    0.8074367   -4.2871963   -4.2871963   -3.0760437  0.022019997   -4.2871963    1.2111526      1024000 
  511000   0.80865245   -4.2892444   -4.2892444   -3.0762682  0.020586749   -4.2892444    1.2129762      1024000 
  512000   0.80827789   -4.2899634   -4.2899634    -3.077549   0.01741748   -4.2899634    1.2124144      1024000 
  513000   0.80811608   -4.2905833   -4.2905833   -3.0784116  0.021089739   -4.2905833    1.2121717      1024000 
  514000     0.808847   -4.2921538   -4.2921538   -3.0788858  0.019884734   -4.2921538     1.213268      1024000 
  515000   0.80840543   -4.2923642   -4.2923642   -3.0797585  0.020480626   -4.2923642    1.2126057      1024000 
  516000   0.80891784   -4.2941258   -4.2941258   -3.0807515  0.022330259   -4.2941258    1.2133743      1024000 
  517000   0.80937852   -4.2952812   -4.2952812   -3.0812159  0.026625219   -4.2952812    1.2140653      1024000 
  518000   0.80895783   -4.2955758   -4.2955758   -3.0821415  0.030938604   -4.2955758    1.2134343      1024000 
  519000   0.80958324   -4.2980153   -4.2980153   -3.0836429  0.023810459   -4.2980153    1.2143724      1024000 
  520000   0.80821192   -4.2973912   -4.2973912   -3.0850758  0.033603401   -4.2973912    1.2123154      1024000 
  521000   0.80866837   -4.2985475   -4.2985475   -3.0855474  0.031161357   -4.2985475    1.2130001      1024000 
  522000   0.80931355   -4.3003062   -4.3003062   -3.0863383  0.025148264   -4.3003062    1.2139679      1024000 
  523000   0.80836243   -4.2998858   -4.2998858   -3.0873446  0.031929474   -4.2998858    1.2125412      1024000 
  524000   0.80840372   -4.3009425   -4.3009425   -3.0883394  0.032132668   -4.3009425    1.2126031      1024000 
  525000    0.8083517    -4.302453    -4.302453   -3.0899279  0.026875775    -4.302453    1.2125251      1024000 
  526000   0.80742589   -4.3028254   -4.3028254   -3.0916891  0.031894784   -4.3028254    1.2111364      1024000 
  527000    0.8078973   -4.3045172   -4.3045172   -3.0926737  0.028015019   -4.3045172    1.2118435      1024000 
  528000   0.80737607   -4.3049331   -4.3049331   -3.0938715  0.027953931   -4.3049331    1.2110616      1024000 
  529000   0.80759502   -4.3056171   -4.3056171    -3.094227  0.032573655   -4.3056171    1.2113901      1024000 
  530000   0.80818058   -4.3069448   -4.3069448   -3.0946763  0.031122157   -4.3069448    1.2122684      1024000 
  531000    0.8080016   -4.3072485   -4.3072485   -3.0952485  0.031197453   -4.3072485    1.2119999      1024000 
  532000   0.80773345   -4.3073703   -4.3073703   -3.0957726  0.031976845   -4.3073703    1.2115977      1024000 
  533000   0.80810561   -4.3089125   -4.3089125   -3.0967566  0.028254327   -4.3089125     1.212156      1024000 
  534000   0.80751154    -4.308331    -4.308331   -3.0970662  0.030283879    -4.308331    1.2112649      1024000 
  535000   0.80781464   -4.3099072   -4.3099072   -3.0981877  0.031976297   -4.3099072    1.2117195      1024000 
  536000   0.80743603   -4.3102059   -4.3102059   -3.0990543  0.033307717   -4.3102059    1.2111516      1024000 
  537000   0.80795063   -4.3109414   -4.3109414   -3.0990179  0.030596922   -4.3109414    1.2119235      1024000 
  538000   0.80744595   -4.3105148   -4.3105148   -3.0993483  0.032241518   -4.3105148    1.2111665      1024000 
  539000   0.80676848   -4.3097716   -4.3097716   -3.0996214  0.026405361   -4.3097716    1.2101503      1024000 
  540000   0.80629824   -4.3090095   -4.3090095   -3.0995645  0.029369533   -4.3090095    1.2094449      1024000 
  541000   0.80600544    -4.309035    -4.309035   -3.1000293  0.026388636    -4.309035    1.2090057      1024000 
  542000   0.80566981   -4.3094816   -4.3094816   -3.1009793  0.025737912   -4.3094816    1.2085023      1024000 
  543000   0.80504431   -4.3096681   -4.3096681   -3.1021041  0.023998335   -4.3096681     1.207564      1024000 
  544000   0.80474319   -4.3100051   -4.3100051   -3.1028927  0.026694398   -4.3100051    1.2071123      1024000 
  545000    0.8049756   -4.3104816   -4.3104816   -3.1030206  0.023537204   -4.3104816    1.2074609      1024000 
  546000   0.80549327   -4.3116522   -4.3116522   -3.1034147  0.028717372   -4.3116522    1.2082374      1024000 
  547000    0.8056496   -4.3122545   -4.3122545   -3.1037826  0.023650378   -4.3122545    1.2084719      1024000 
  548000   0.80436727   -4.3108546   -4.3108546   -3.1043061  0.020928096   -4.3108546    1.2065485      1024000 
  549000   0.80393346   -4.3113594   -4.3113594   -3.1054617  0.021726638   -4.3113594    1.2058977      1024000 
  550000   0.80503906   -4.3140988   -4.3140988   -3.1065427  0.016426529   -4.3140988    1.2075561      1024000 
  551000   0.80417861   -4.3129233   -4.3129233   -3.1066578   0.01954932   -4.3129233    1.2062655      1024000 
  552000   0.80477072   -4.3145833   -4.3145833   -3.1074296  0.018910565   -4.3145833    1.2071536      1024000 
  553000   0.80388735   -4.3142367   -4.3142367   -3.1084082  0.016904299   -4.3142367    1.2058286      1024000 
  554000   0.80330349   -4.3133354   -4.3133354   -3.1083826  0.024281461   -4.3133354    1.2049528      1024000 
  555000   0.80377523   -4.3144695   -4.3144695   -3.1088091  0.021249849   -4.3144695    1.2056604      1024000 
  556000   0.80317888   -4.3136776   -4.3136776   -3.1089117  0.023052902   -4.3136776    1.2047659      1024000 
  557000   0.80337115   -4.3150935   -4.3150935   -3.1100392  0.020930773   -4.3150935    1.2050543      1024000 
  558000   0.80352135   -4.3153345   -4.3153345   -3.1100549  0.020662977   -4.3153345    1.2052796      1024000 
  559000   0.80284232   -4.3145163   -4.3145163   -3.1102552  0.026733585   -4.3145163     1.204261      1024000 
  560000   0.80387179   -4.3165245   -4.3165245   -3.1107192  0.024511298   -4.3165245    1.2058052      1024000 
  561000   0.80469461   -4.3176923   -4.3176923   -3.1106528  0.027856837   -4.3176923    1.2070395      1024000 
  562000   0.80389281   -4.3181891   -4.3181891   -3.1123523  0.030563767   -4.3181891    1.2058368      1024000 
  563000   0.80390944    -4.319017    -4.319017   -3.1131553  0.032179289    -4.319017    1.2058617      1024000 
  564000   0.80312479   -4.3189493   -4.3189493   -3.1142645  0.028788931   -4.3189493    1.2046847      1024000 
  565000    0.8043919   -4.3205354   -4.3205354     -3.11395  0.027559669   -4.3205354    1.2065854      1024000 
  566000   0.80373913   -4.3208339   -4.3208339   -3.1152277  0.033442829   -4.3208339    1.2056062      1024000 
  567000   0.80429701   -4.3222076   -4.3222076   -3.1157645  0.027211113   -4.3222076    1.2064431      1024000 
  568000   0.80444418   -4.3229315   -4.3229315   -3.1162677  0.034196979   -4.3229315    1.2066638      1024000 
  569000    0.8052516   -4.3255127   -4.3255127   -3.1176378  0.030877056   -4.3255127    1.2078749      1024000 
  570000   0.80341033   -4.3235882   -4.3235882   -3.1184752  0.032780773   -4.3235882    1.2051131      1024000 
  571000   0.80262826   -4.3233558   -4.3233558   -3.1194159  0.032050049   -4.3233558    1.2039399      1024000 
  572000   0.80265351    -4.325263    -4.325263   -3.1212852  0.028046349    -4.325263    1.2039778      1024000 
  573000   0.80341469   -4.3263683   -4.3263683   -3.1212487  0.031078588   -4.3263683    1.2051196      1024000 
  574000   0.80316379   -4.3260742   -4.3260742    -3.121331  0.033095462   -4.3260742    1.2047432      1024000 
  575000   0.80298842   -4.3270084   -4.3270084   -3.1225282  0.028188106   -4.3270084    1.2044802      1024000 
  576000   0.80195657   -4.3266584   -4.3266584    -3.123726  0.031224149   -4.3266584    1.2029324      1024000 
  577000   0.80237858   -4.3275545   -4.3275545   -3.1239891  0.030839817   -4.3275545    1.2035654      1024000 
  578000   0.80233602   -4.3281234   -4.3281234   -3.1246218  0.026478043   -4.3281234    1.2035016      1024000 
  579000   0.80264923   -4.3291646   -4.3291646   -3.1251932  0.026741019   -4.3291646    1.2039714      1024000 
  580000   0.80166738   -4.3283877   -4.3283877   -3.1258891  0.030246144   -4.3283877    1.2024986      1024000 
  581000   0.80173422   -4.3284414   -4.3284414   -3.1258425  0.030330732   -4.3284414    1.2025989      1024000 
  582000   0.80254923    -4.330605    -4.330605   -3.1267835  0.026321524    -4.330605    1.2038214      1024000 
  583000   0.80129974   -4.3294847   -4.3294847   -3.1275375  0.028202865   -4.3294847    1.2019472      1024000 
  584000   0.80139179   -4.3294864   -4.3294864   -3.1274011  0.031019039   -4.3294864    1.2020852      1024000 
  585000   0.80198976   -4.3309535   -4.3309535   -3.1279713  0.026957991   -4.3309535    1.2029822      1024000 
  586000   0.80136837   -4.3312583   -4.3312583   -3.1292082  0.024582621   -4.3312583    1.2020501      1024000 
  587000    0.8017741   -4.3325406   -4.3325406   -3.1298819  0.019608298   -4.3325406    1.2026587      1024000 
  588000   0.80094565   -4.3314173   -4.3314173   -3.1300013  0.021951905   -4.3314173     1.201416      1024000 
  589000   0.80000565   -4.3303515   -4.3303515   -3.1303454  0.024381944   -4.3303515     1.200006      1024000 
  590000   0.80065024   -4.3317176   -4.3317176   -3.1307447  0.024240327   -4.3317176    1.2009729      1024000 
  591000   0.79927684   -4.3305615   -4.3305615   -3.1316486   0.02632152   -4.3305615    1.1989128      1024000 
  592000   0.79973664   -4.3315562   -4.3315562   -3.1319536  0.027676103   -4.3315562    1.1996025      1024000 
  593000   0.80074531   -4.3346613   -4.3346613   -3.1335458  0.023259249   -4.3346613    1.2011155      1024000 
  594000    0.8000229   -4.3351241   -4.3351241   -3.1350922  0.021320104   -4.3351241    1.2000319      1024000 
  595000   0.80059715     -4.33606     -4.33606   -3.1351667  0.019158996     -4.33606    1.2008933      1024000 
  596000   0.80066759    -4.336523    -4.336523   -3.1355241  0.022058303    -4.336523    1.2009989      1024000 
  597000   0.80005361   -4.3361292   -4.3361292   -3.1360512  0.024616535   -4.3361292     1.200078      1024000 
  598000   0.79989988    -4.336115    -4.336115   -3.1362676  0.025428023    -4.336115    1.1998474      1024000 
  599000   0.79993931   -4.3370839   -4.3370839   -3.1371773  0.023351769   -4.3370839    1.1999065      1024000 
  600000   0.79898006   -4.3361997   -4.3361997   -3.1377321  0.022266995   -4.3361997    1.1984677      1024000 
  601000   0.79922821   -4.3365031   -4.3365031   -3.1376633  0.030794315   -4.3365031    1.1988399      1024000 
  602000   0.80095205   -4.3392526   -4.3392526    -3.137827  0.027660068   -4.3392526    1.2014256      1024000 
  603000   0.79923948   -4.3372791   -4.3372791   -3.1384223  0.035486225   -4.3372791    1.1988568      1024000 
  604000   0.80092627   -4.3408541   -4.3408541   -3.1394672  0.031354826   -4.3408541     1.201387      1024000 
  605000   0.79998034   -4.3407887   -4.3407887   -3.1408206  0.029780519   -4.3407887    1.1999681      1024000 
  606000   0.80090545   -4.3419655   -4.3419655   -3.1406098  0.032610407   -4.3419655    1.2013557      1024000 
  607000    0.8003622   -4.3415122   -4.3415122   -3.1409713  0.032002444   -4.3415122    1.2005409      1024000 
  608000   0.80070723   -4.3422665   -4.3422665    -3.141208  0.032630482   -4.3422665    1.2010584      1024000 
  609000   0.80058233   -4.3435622   -4.3435622   -3.1426911  0.029537336   -4.3435622    1.2008711      1024000 
  610000   0.80100718   -4.3443631   -4.3443631   -3.1428548  0.024501793   -4.3443631    1.2015083      1024000 
  611000   0.79945673   -4.3429498   -4.3429498   -3.1437671    0.0296825   -4.3429498    1.1991827      1024000 
  612000    0.7998927   -4.3440047   -4.3440047   -3.1441681  0.027650328   -4.3440047    1.1998366      1024000 
  613000   0.79871984   -4.3431828   -4.3431828   -3.1451054  0.029592667   -4.3431828    1.1980773      1024000 
  614000   0.79861307   -4.3439662   -4.3439662    -3.146049  0.028585751   -4.3439662    1.1979172      1024000 
  615000    0.7979478   -4.3433864   -4.3433864   -3.1464671  0.026637258   -4.3433864    1.1969193      1024000 
  616000   0.79870123   -4.3456887   -4.3456887   -3.1476393  0.026002433   -4.3456887    1.1980494      1024000 
  617000   0.79854306    -4.345839    -4.345839   -3.1480269  0.030255951    -4.345839    1.1978122      1024000 
  618000    0.7994902   -4.3482795   -4.3482795   -3.1490466  0.021693522   -4.3482795    1.1992329      1024000 
  619000   0.79661109    -4.344284    -4.344284   -3.1493697  0.027316582    -4.344284    1.1949142      1024000 
  620000   0.79725988    -4.347313    -4.347313   -3.1514256  0.022498913    -4.347313    1.1958874      1024000 
  621000   0.79602522   -4.3463313   -4.3463313   -3.1522959  0.020254234   -4.3463313    1.1940354      1024000 
  622000   0.79684383   -4.3468932   -4.3468932   -3.1516299   0.02270678   -4.3468932    1.1952633      1024000 
  623000   0.79588168   -4.3466897   -4.3466897   -3.1528696  0.024130439   -4.3466897    1.1938201      1024000 
  624000   0.79683547   -4.3485225   -4.3485225   -3.1532717  0.024706181   -4.3485225    1.1952508      1024000 
  625000   0.79699584   -4.3489871   -4.3489871   -3.1534958  0.024065983   -4.3489871    1.1954913      1024000 
  626000   0.79718414   -4.3492212   -4.3492212   -3.1534474  0.021434287   -4.3492212    1.1957738      1024000 
  627000   0.79624229   -4.3484864   -4.3484864   -3.1541254  0.022914087   -4.3484864     1.194361      1024000 
  628000   0.79664455   -4.3495855   -4.3495855   -3.1546211  0.024364711   -4.3495855    1.1949644      1024000 
  629000   0.79676351   -4.3505083   -4.3505083   -3.1553655  0.022499834   -4.3505083    1.1951428      1024000 
  630000    0.7963846   -4.3501209   -4.3501209   -3.1555464  0.024774227   -4.3501209    1.1945745      1024000 
  631000   0.79746837   -4.3520007   -4.3520007   -3.1558006  0.025388525   -4.3520007    1.1962001      1024000 
  632000   0.79680797   -4.3525493   -4.3525493   -3.1573397  0.025059298   -4.3525493    1.1952095      1024000 
  633000   0.79767188   -4.3546806   -4.3546806   -3.1581752  0.024365945   -4.3546806    1.1965054      1024000 
  634000    0.7964666   -4.3528338   -4.3528338   -3.1581363  0.027849814   -4.3528338    1.1946975      1024000 
  635000   0.79638553   -4.3534874   -4.3534874   -3.1589115  0.027260967   -4.3534874    1.1945759      1024000 
  636000   0.79603836   -4.3540979   -4.3540979   -3.1600427  0.026900213   -4.3540979    1.1940551      1024000 
  637000   0.79612658   -4.3550226   -4.3550226   -3.1608352  0.028689188   -4.3550226    1.1941874      1024000 
  638000   0.79585092   -4.3554098   -4.3554098   -3.1616359  0.029773324   -4.3554098     1.193774      1024000 
  639000   0.79650451   -4.3571676   -4.3571676   -3.1624133  0.024978552   -4.3571676    1.1947543      1024000 
  640000   0.79541882   -4.3567256   -4.3567256   -3.1635998  0.027310348   -4.3567256    1.1931258      1024000 
  641000   0.79636305   -4.3585579   -4.3585579   -3.1640158  0.026048138   -4.3585579    1.1945422      1024000 
  642000   0.79752574   -4.3604307   -4.3604307   -3.1641445  0.023457102   -4.3604307    1.1962862      1024000 
  643000   0.79650303   -4.3594001   -4.3594001   -3.1646479   0.02862662   -4.3594001    1.1947521      1024000 
  644000   0.79589737   -4.3583342   -4.3583342   -3.1644906  0.031190325   -4.3583342    1.1938436      1024000 
  645000   0.79639969   -4.3588402   -4.3588402   -3.1642431  0.029770138   -4.3588402    1.1945971      1024000 
  646000   0.79676757   -4.3596904   -4.3596904   -3.1645414  0.029591778   -4.3596904    1.1951489      1024000 
  647000   0.79694335   -4.3608541   -4.3608541   -3.1654415  0.033770313   -4.3608541    1.1954126      1024000 
  648000   0.79450724   -4.3581727   -4.3581727   -3.1664143  0.032587061   -4.3581727    1.1917584      1024000 
  649000   0.79580813   -4.3603262   -4.3603262   -3.1666164  0.025442079   -4.3603262    1.1937098      1024000 
  650000    0.7960827   -4.3609409   -4.3609409   -3.1668193  0.028540459   -4.3609409    1.1941216      1024000 
  651000   0.79652565   -4.3617671   -4.3617671    -3.166981  0.029048795   -4.3617671     1.194786      1024000 
  652000   0.79457921   -4.3594296   -4.3594296   -3.1675632   0.03376047   -4.3594296    1.1918664      1024000 
  653000   0.79666874   -4.3631608   -4.3631608   -3.1681602  0.019849567   -4.3631608    1.1950007      1024000 
  654000   0.79528504   -4.3614628   -4.3614628   -3.1685376  0.028530332   -4.3614628    1.1929251      1024000 
  655000   0.79416465   -4.3609626   -4.3609626   -3.1697181  0.027636858   -4.3609626    1.1912446      1024000 
  656000   0.79337005    -4.360452    -4.360452   -3.1703993  0.027225796    -4.360452    1.1900527      1024000 
  657000   0.79325681   -4.3611051   -4.3611051   -3.1712223  0.021164174   -4.3611051    1.1898828      1024000 
  658000   0.79316476   -4.3621963   -4.3621963   -3.1724516  0.021198081   -4.3621963    1.1897447      1024000 
  659000   0.79444508   -4.3642416   -4.3642416   -3.1725764  0.017060155   -4.3642416    1.1916652      1024000 
  660000   0.79377008   -4.3634322   -4.3634322   -3.1727795  0.018989546   -4.3634322    1.1906527      1024000 
  661000    0.7930297   -4.3624518   -4.3624518   -3.1729096  0.024205958   -4.3624518    1.1895421      1024000 
  662000   0.79342527   -4.3633193   -4.3633193   -3.1731838  0.022926777   -4.3633193    1.1901355      1024000 
  663000   0.79222667   -4.3629506   -4.3629506    -3.174613  0.020484494   -4.3629506    1.1883376      1024000 
  664000   0.79229935   -4.3629852   -4.3629852   -3.1745385  0.021503699   -4.3629852    1.1884466      1024000 
  665000   0.79248276   -4.3638595   -4.3638595   -3.1751377  0.018733176   -4.3638595    1.1887217      1024000 
  666000   0.79172917   -4.3625177   -4.3625177   -3.1749263  0.025859161   -4.3625177    1.1875914      1024000 
  667000    0.7936835   -4.3663211   -4.3663211   -3.1757982  0.022245797   -4.3663211    1.1905228      1024000 
  668000   0.79325685   -4.3670632   -4.3670632   -3.1771803  0.024878297   -4.3670632    1.1898829      1024000 
  669000   0.79267174   -4.3668809   -4.3668809   -3.1778757  0.022838772   -4.3668809    1.1890052      1024000 
  670000   0.79220602   -4.3675133   -4.3675133   -3.1792066  0.019663685   -4.3675133    1.1883066      1024000 
  671000   0.79285659   -4.3684096   -4.3684096   -3.1791272  0.024962398   -4.3684096    1.1892825      1024000 
  672000   0.79336932   -4.3688678   -4.3688678   -3.1788162  0.024485472   -4.3688678    1.1900516      1024000 
  673000   0.79218117   -4.3686508   -4.3686508   -3.1803815  0.027594136   -4.3686508    1.1882693      1024000 
  674000   0.79311935   -4.3701508   -4.3701508   -3.1804742  0.027594922   -4.3701508    1.1896766      1024000 
  675000   0.79283319   -4.3707378   -4.3707378   -3.1814905  0.024657721   -4.3707378    1.1892474      1024000 
  676000   0.79237237   -4.3713226   -4.3713226   -3.1827665  0.027593091   -4.3713226    1.1885561      1024000 
  677000   0.79195615   -4.3725947   -4.3725947   -3.1846629  0.030192642   -4.3725947    1.1879318      1024000 
  678000   0.79319125   -4.3749933   -4.3749933   -3.1852088  0.025437421   -4.3749933    1.1897845      1024000 
  679000   0.79255065   -4.3749345   -4.3749345   -3.1861109  0.027461575   -4.3749345    1.1888236      1024000 
  680000   0.79205974   -4.3755967   -4.3755967   -3.1875095  0.027843927   -4.3755967    1.1880872      1024000 
  681000    0.7921835   -4.3761229   -4.3761229   -3.1878501  0.023764642   -4.3761229    1.1882728      1024000 
  682000   0.79165083   -4.3752489   -4.3752489   -3.1877751  0.030496859   -4.3752489    1.1874738      1024000 
  683000   0.79240439   -4.3772038   -4.3772038   -3.1885996  0.032265004   -4.3772038    1.1886042      1024000 
  684000    0.7919823   -4.3766633   -4.3766633   -3.1886922  0.032335586   -4.3766633     1.187971      1024000 
  685000   0.79266625   -4.3778052   -4.3778052   -3.1888082  0.032180383   -4.3778052     1.188997      1024000 
  686000   0.79307403   -4.3792354   -4.3792354   -3.1896267  0.030086468   -4.3792354    1.1896086      1024000 
  687000   0.79212057   -4.3779417   -4.3779417   -3.1897632   0.03480391   -4.3779417    1.1881784      1024000 
  688000   0.79256299   -4.3789713   -4.3789713   -3.1901292  0.037975868   -4.3789713    1.1888421      1024000 
  689000   0.79302323   -4.3800183   -4.3800183   -3.1904858  0.031100384   -4.3800183    1.1895324      1024000 
  690000   0.79280439   -4.3801742   -4.3801742     -3.19097  0.032282851   -4.3801742    1.1892042      1024000 
  691000   0.79178332   -4.3794753   -4.3794753   -3.1918027  0.030103644   -4.3794753    1.1876726      1024000 
  692000   0.79089909   -4.3794718   -4.3794718   -3.1931255  0.029641907   -4.3794718    1.1863462      1024000 
  693000   0.79097872   -4.3801389   -4.3801389   -3.1936732  0.026473805   -4.3801389    1.1864657      1024000 
  694000   0.78914457   -4.3779978   -4.3779978   -3.1942833  0.030577345   -4.3779978    1.1837144      1024000 
  695000   0.78920355    -4.378127    -4.378127   -3.1943241  0.028351301    -4.378127    1.1838029      1024000 
  696000   0.79046341   -4.3802981   -4.3802981   -3.1946054  0.021394642   -4.3802981    1.1856927      1024000 
  697000   0.79035488   -4.3807651   -4.3807651   -3.1952352   0.02078163   -4.3807651    1.1855299      1024000 
  698000   0.78912123   -4.3806427   -4.3806427   -3.1969632  0.023036799   -4.3806427    1.1836794      1024000 
  699000   0.78841892   -4.3803197   -4.3803197   -3.1976937  0.024743256   -4.3803197     1.182626      1024000 
  700000   0.78938592   -4.3823149   -4.3823149   -3.1982384  0.020323389   -4.3823149    1.1840765      1024000 
  701000   0.78902489   -4.3817639   -4.3817639    -3.198229  0.017900631   -4.3817639    1.1835349      1024000 
  702000   0.78879604   -4.3816239   -4.3816239   -3.1984323   0.01770862   -4.3816239    1.1831917      1024000 
  703000   0.78837863   -4.3820191   -4.3820191   -3.1994535  0.016999245   -4.3820191    1.1825656      1024000 
  704000   0.78904381   -4.3830746   -4.3830746   -3.1995113  0.017683823   -4.3830746    1.1835633      1024000 
  705000   0.78881848   -4.3822178   -4.3822178   -3.1989924   0.01774901   -4.3822178    1.1832253      1024000 
  706000   0.78831398   -4.3820562   -4.3820562   -3.1995876  0.024549978   -4.3820562    1.1824686      1024000 
  707000   0.78873109   -4.3832557   -4.3832557   -3.2001614  0.021254676   -4.3832557    1.1830942      1024000 
  708000   0.78895092   -4.3830161   -4.3830161   -3.1995921  0.023936662   -4.3830161     1.183424      1024000 
  709000   0.78938699   -4.3834004   -4.3834004   -3.1993223  0.027095506   -4.3834004    1.1840781      1024000 
  710000    0.7892576   -4.3843143   -4.3843143   -3.2004303  0.024410758   -4.3843143     1.183884      1024000 
  711000    0.7899696   -4.3853029   -4.3853029   -3.2003509  0.032446755   -4.3853029     1.184952      1024000 
  712000   0.79126817     -4.38699     -4.38699   -3.2000902   0.02628125     -4.38699    1.1868998      1024000 
  713000   0.78980139   -4.3860342   -4.3860342   -3.2013345  0.032458271   -4.3860342    1.1846997      1024000 
  714000   0.79107061    -4.388576    -4.388576   -3.2019725  0.029614113    -4.388576    1.1866035      1024000 
  715000   0.79014718   -4.3883343   -4.3883343   -3.2031159  0.032603493   -4.3883343    1.1852184      1024000 
  716000   0.78895413   -4.3874161   -4.3874161   -3.2039873  0.031934394   -4.3874161    1.1834288      1024000 
  717000   0.78985437   -4.3894463   -4.3894463   -3.2046672  0.028476012   -4.3894463    1.1847791      1024000 
  718000   0.78852956   -4.3894342   -4.3894342   -3.2066422  0.023635231   -4.3894342    1.1827919      1024000 
  719000   0.78908327   -4.3901233   -4.3901233   -3.2065008  0.024919607   -4.3901233    1.1836225      1024000 
  720000   0.78793354   -4.3894654   -4.3894654   -3.2075675   0.02849474   -4.3894654    1.1818979      1024000 
  721000   0.78771007   -4.3901548   -4.3901548   -3.2085921  0.025014132   -4.3901548    1.1815627      1024000 
  722000   0.78763221   -4.3907488   -4.3907488   -3.2093029  0.022691386   -4.3907488    1.1814459      1024000 
  723000   0.78804121   -4.3911599   -4.3911599   -3.2091005  0.026619652   -4.3911599    1.1820594      1024000 
  724000     0.787453   -4.3917427   -4.3917427   -3.2105656  0.024853509   -4.3917427    1.1811771      1024000 
  725000   0.78705035   -4.3922697   -4.3922697   -3.2116966  0.031421643   -4.3922697    1.1805731      1024000 
  726000   0.78775702   -4.3924999   -4.3924999   -3.2108668  0.029681075   -4.3924999    1.1816331      1024000 
  727000   0.78829579   -4.3932381   -4.3932381   -3.2107969  0.029054538   -4.3932381    1.1824413      1024000 
  728000   0.78857561   -4.3934084   -4.3934084   -3.2105474  0.030397414   -4.3934084     1.182861      1024000 
  729000   0.78835104   -4.3929287   -4.3929287   -3.2104046  0.028880983   -4.3929287    1.1825242      1024000 
  730000    0.7886145   -4.3938818   -4.3938818   -3.2109624  0.028262996   -4.3938818    1.1829194      1024000 
  731000   0.78899453   -4.3949152   -4.3949152   -3.2114258  0.028893969   -4.3949152    1.1834894      1024000 
  732000   0.78781618   -4.3941994   -4.3941994   -3.2124775  0.029422601   -4.3941994    1.1817219      1024000 
  733000   0.78617472   -4.3919505   -4.3919505   -3.2126908  0.034573365   -4.3919505    1.1792597      1024000 
  734000   0.78811913   -4.3948492   -4.3948492   -3.2126729  0.024983738   -4.3948492    1.1821763      1024000 
  735000   0.78762375   -4.3947873   -4.3947873   -3.2133541  0.027541157   -4.3947873    1.1814332      1024000 
  736000   0.78714629   -4.3936024   -4.3936024   -3.2128854  0.025745036   -4.3936024     1.180717      1024000 
  737000   0.78772342   -4.3945538   -4.3945538   -3.2129711  0.023471255   -4.3945538    1.1815827      1024000 
  738000    0.7874984   -4.3944198   -4.3944198   -3.2131746  0.028310124   -4.3944198    1.1812452      1024000 
  739000   0.78915336   -4.3965885   -4.3965885   -3.2128609  0.021455817   -4.3965885    1.1837276      1024000 
  740000   0.78845324   -4.3949059   -4.3949059   -3.2122285  0.028112118   -4.3949059    1.1826775      1024000 
  741000   0.78879867   -4.3962421   -4.3962421   -3.2130465  0.024300247   -4.3962421    1.1831956      1024000 
  742000   0.78971784   -4.3979507   -4.3979507   -3.2133763  0.021255868   -4.3979507    1.1845744      1024000 
  743000    0.7875738   -4.3953197   -4.3953197   -3.2139614  0.029862172   -4.3953197    1.1813583      1024000 
  744000   0.78719684    -4.394898    -4.394898   -3.2141051  0.024354936    -4.394898    1.1807929      1024000 
  745000   0.78696365   -4.3949987   -4.3949987   -3.2145557  0.024380779   -4.3949987    1.1804431      1024000 
  746000   0.78705125   -4.3962811   -4.3962811   -3.2157067  0.023956428   -4.3962811    1.1805745      1024000 
  747000   0.78643512   -4.3958469   -4.3958469   -3.2161966  0.025088574   -4.3958469    1.1796503      1024000 
  748000   0.78496416   -4.3950855   -4.3950855   -3.2176417  0.026647078   -4.3950855    1.1774438      1024000 
  749000   0.78459059   -4.3951563   -4.3951563   -3.2182728  0.024300149   -4.3951563    1.1768835      1024000 
  750000    0.7848893   -4.3956367   -4.3956367   -3.2183051  0.020510344   -4.3956367    1.1773316      1024000 
  751000    0.7842529   -4.3958498   -4.3958498   -3.2194728  0.019477833   -4.3958498     1.176377      1024000 
  752000   0.78610922   -4.3992802   -4.3992802   -3.2201188  0.013942415   -4.3992802    1.1791614      1024000 
  753000    0.7852878   -4.3991014   -4.3991014   -3.2211721  0.016265077   -4.3991014    1.1779293      1024000 
  754000   0.78458172   -4.3987529   -4.3987529   -3.2218827  0.023330119   -4.3987529    1.1768702      1024000 
  755000   0.78571306   -4.4008195   -4.4008195   -3.2222523  0.020391597   -4.4008195    1.1785672      1024000 
  756000   0.78510778   -4.4007045   -4.4007045   -3.2230452  0.025784943   -4.4007045    1.1776593      1024000 
  757000   0.78690938   -4.4040308   -4.4040308   -3.2236691   0.02315947   -4.4040308    1.1803617      1024000 
  758000   0.78584466   -4.4025926   -4.4025926    -3.223828  0.027720703   -4.4025926    1.1787646      1024000 
  759000   0.78580638    -4.402486    -4.402486   -3.2237788  0.027624293    -4.402486    1.1787072      1024000 
  760000   0.78526718   -4.4021805   -4.4021805   -3.2242821  0.029282378   -4.4021805    1.1778984      1024000 
  761000   0.78693445   -4.4058033   -4.4058033    -3.225404  0.021557551   -4.4058033    1.1803993      1024000 
  762000   0.78565779   -4.4052498   -4.4052498   -3.2267655  0.030071582   -4.4052498    1.1784843      1024000 
  763000   0.78689463   -4.4066128   -4.4066128   -3.2262733  0.027430168   -4.4066128    1.1803395      1024000 
  764000   0.78584259   -4.4059529   -4.4059529   -3.2271914  0.030005511   -4.4059529    1.1787615      1024000 
  765000   0.78574405   -4.4072056   -4.4072056   -3.2285919  0.028239451   -4.4072056    1.1786137      1024000 
  766000   0.78657688   -4.4085521   -4.4085521   -3.2286891  0.025843077   -4.4085521    1.1798629      1024000 
  767000   0.78555199   -4.4079328   -4.4079328   -3.2296072  0.030397431   -4.4079328    1.1783256      1024000 
  768000    0.7849666   -4.4077024   -4.4077024   -3.2302548  0.034067494   -4.4077024    1.1774475      1024000 
  769000   0.78458818   -4.4081371   -4.4081371   -3.2312572  0.031946629   -4.4081371    1.1768799      1024000 
  770000   0.78555655   -4.4096768   -4.4096768   -3.2313443  0.023609142   -4.4096768    1.1783324      1024000 
  771000   0.78566901   -4.4111281   -4.4111281   -3.2326269  0.026376932   -4.4111281    1.1785011      1024000 
  772000   0.78477979   -4.4107394   -4.4107394   -3.2335721  0.028169017   -4.4107394    1.1771673      1024000 
  773000   0.78450692    -4.410536    -4.410536   -3.2337781  0.025254746    -4.410536     1.176758      1024000 
  774000   0.78415743   -4.4105652   -4.4105652   -3.2343315  0.028568637   -4.4105652    1.1762338      1024000 
  775000   0.78355582   -4.4096466   -4.4096466   -3.2343152  0.027578799   -4.4096466    1.1753313      1024000 
  776000   0.78413298   -4.4103709   -4.4103709   -3.2341738  0.026000963   -4.4103709    1.1761971      1024000 
  777000   0.78405039   -4.4102838   -4.4102838   -3.2342106  0.026741822   -4.4102838    1.1760732      1024000 
  778000   0.78548071   -4.4131965   -4.4131965   -3.2349778  0.021348783   -4.4131965    1.1782187      1024000 
  779000   0.78414549   -4.4116477   -4.4116477   -3.2354319  0.024653974   -4.4116477    1.1762158      1024000 
  780000   0.78393512   -4.4108397   -4.4108397   -3.2349394  0.025011236   -4.4108397    1.1759003      1024000 
  781000   0.78471179   -4.4131706   -4.4131706   -3.2361053  0.021838163   -4.4131706    1.1770653      1024000 
  782000   0.78316092   -4.4121953   -4.4121953   -3.2374563  0.021959184   -4.4121953     1.174739      1024000 
  783000   0.78333242   -4.4129172   -4.4129172    -3.237921  0.020707525   -4.4129172    1.1749962      1024000 
  784000   0.78353361   -4.4131099   -4.4131099   -3.2378119  0.024274552   -4.4131099     1.175298      1024000 
  785000   0.78284369   -4.4121788   -4.4121788   -3.2379157  0.028561021   -4.4121788    1.1742631      1024000 
  786000   0.78238787   -4.4115098   -4.4115098   -3.2379304  0.024906547   -4.4115098    1.1735794      1024000 
  787000   0.78345964   -4.4135434   -4.4135434   -3.2383563  0.018740992   -4.4135434    1.1751871      1024000 
  788000   0.78310958   -4.4146657   -4.4146657   -3.2400037  0.018833153   -4.4146657     1.174662      1024000 
  789000   0.78190804   -4.4136856   -4.4136856   -3.2408259  0.023127919   -4.4136856    1.1728597      1024000 
  790000   0.78130946   -4.4132918   -4.4132918     -3.24133  0.020619622   -4.4132918    1.1719618      1024000 
  791000   0.78200653   -4.4146728   -4.4146728   -3.2416654   0.01903723   -4.4146728    1.1730074      1024000 
  792000   0.78254219   -4.4159399   -4.4159399    -3.242129  0.021197194   -4.4159399    1.1738109      1024000 
  793000   0.78181291   -4.4152563   -4.4152563   -3.2425393  0.023592067   -4.4152563     1.172717      1024000 
  794000   0.78297192   -4.4177065   -4.4177065    -3.243251  0.024716623   -4.4177065    1.1744555      1024000 
  795000    0.7824763   -4.4172943   -4.4172943   -3.2435823  0.026840717   -4.4172943    1.1737121      1024000 
  796000    0.7831706   -4.4183185   -4.4183185    -3.243565  0.026722625   -4.4183185    1.1747535      1024000 
  797000    0.7823605   -4.4174918   -4.4174918   -3.2439535   0.02395577   -4.4174918    1.1735384      1024000 
  798000    0.7828071   -4.4193442   -4.4193442    -3.245136  0.030389908   -4.4193442    1.1742083      1024000 
  799000   0.78189448   -4.4187467   -4.4187467   -3.2459073  0.030145053   -4.4187467    1.1728393      1024000 
  800000   0.78242017   -4.4205615   -4.4205615   -3.2469336  0.026098967   -4.4205615    1.1736279      1024000 
  801000   0.78175803   -4.4196351   -4.4196351   -3.2470004  0.027925701   -4.4196351    1.1726347      1024000 
  802000   0.78259327   -4.4221821   -4.4221821   -3.2482946  0.023290507   -4.4221821    1.1738875      1024000 
  803000   0.78193086   -4.4212567   -4.4212567   -3.2483628  0.022651557   -4.4212567    1.1728939      1024000 
  804000   0.78262409   -4.4232001   -4.4232001   -3.2492663  0.025165833   -4.4232001    1.1739338      1024000 
  805000   0.78218407   -4.4224351   -4.4224351   -3.2491614  0.024206122   -4.4224351    1.1732737      1024000 
  806000   0.78261174   -4.4233842   -4.4233842    -3.249469  0.031176743   -4.4233842    1.1739152      1024000 
  807000   0.78307358   -4.4252879   -4.4252879   -3.2506799  0.024140824   -4.4252879     1.174608      1024000 
  808000   0.78092341   -4.4221803   -4.4221803   -3.2507976  0.030875691   -4.4221803    1.1713827      1024000 
  809000   0.78213747   -4.4243371   -4.4243371   -3.2511333  0.026193489   -4.4243371    1.1732038      1024000 
  810000   0.78191862   -4.4232207   -4.4232207   -3.2503452  0.035259754   -4.4232207    1.1728755      1024000 
  811000   0.78152884   -4.4225181   -4.4225181   -3.2502272  0.031847214   -4.4225181    1.1722909      1024000 
  812000   0.78277536    -4.424817    -4.424817   -3.2506563  0.026578633    -4.424817    1.1741607      1024000 
  813000   0.78205471   -4.4238167   -4.4238167    -3.250737  0.029318996   -4.4238167    1.1730797      1024000 
  814000   0.78185759   -4.4252354   -4.4252354   -3.2524514  0.022477638   -4.4252354     1.172784      1024000 
  815000   0.78131956   -4.4245648   -4.4245648   -3.2525879  0.023323323   -4.4245648     1.171977      1024000 
  816000   0.78073015   -4.4242991   -4.4242991   -3.2532063  0.024320207   -4.4242991    1.1710929      1024000 
  817000   0.78166795   -4.4265213   -4.4265213   -3.2540218  0.023015982   -4.4265213    1.1724995      1024000 
  818000   0.78061783   -4.4247472   -4.4247472   -3.2538228  0.030855922   -4.4247472    1.1709244      1024000 
  819000     0.781099   -4.4256529   -4.4256529   -3.2540068  0.022682466   -4.4256529    1.1716461      1024000 
  820000   0.78049951    -4.425236    -4.425236   -3.2544891  0.021409701    -4.425236    1.1707469      1024000 
  821000   0.77988774   -4.4250544   -4.4250544   -3.2552252  0.022403994   -4.4250544    1.1698292      1024000 
  822000   0.77954172   -4.4252242   -4.4252242    -3.255914  0.022837934   -4.4252242    1.1693102      1024000 
  823000   0.77863098   -4.4245756   -4.4245756   -3.2566315  0.028211648   -4.4245756    1.1679441      1024000 
  824000   0.78001275   -4.4269169   -4.4269169   -3.2569002  0.015452598   -4.4269169    1.1700168      1024000 
  825000   0.77902442   -4.4264731   -4.4264731   -3.2579388  0.020857871   -4.4264731    1.1685343      1024000 
  826000   0.77885864   -4.4256838   -4.4256838   -3.2573982  0.022344617   -4.4256838    1.1682856      1024000 
  827000   0.77870444   -4.4262796   -4.4262796   -3.2582253  0.018601367   -4.4262796    1.1680543      1024000 
  828000     0.777582   -4.4251201   -4.4251201   -3.2587495   0.01822653   -4.4251201    1.1663706      1024000 
  829000   0.77931602   -4.4271502   -4.4271502   -3.2581786  0.020376462   -4.4271502    1.1689717      1024000 
  830000   0.77869663   -4.4269389   -4.4269389   -3.2588963  0.022981865   -4.4269389    1.1680426      1024000 
  831000   0.77953345   -4.4293782   -4.4293782   -3.2600804  0.018884743   -4.4293782    1.1692978      1024000 
  832000   0.77926271    -4.430267    -4.430267   -3.2613753  0.017809012    -4.430267    1.1688917      1024000 
  833000   0.77888479   -4.4296988   -4.4296988    -3.261374  0.021349171   -4.4296988    1.1683248      1024000 
  834000   0.77872573   -4.4295078   -4.4295078   -3.2614216   0.02736181   -4.4295078    1.1680862      1024000 
  835000   0.77911483   -4.4303179   -4.4303179    -3.261648   0.02496684   -4.4303179    1.1686699      1024000 
  836000   0.78009339   -4.4328102   -4.4328102   -3.2626725  0.022454516   -4.4328102    1.1701377      1024000 
  837000   0.77985334   -4.4324615   -4.4324615   -3.2626839  0.027458776   -4.4324615    1.1697776      1024000 
  838000   0.77966427   -4.4326139   -4.4326139   -3.2631199   0.02613835   -4.4326139     1.169494      1024000 
  839000   0.77914532   -4.4331158   -4.4331158   -3.2644002  0.027624486   -4.4331158    1.1687156      1024000 
  840000   0.77963533   -4.4337021   -4.4337021   -3.2642515  0.026487085   -4.4337021    1.1694506      1024000 
  841000   0.77891067   -4.4324645   -4.4324645   -3.2641009  0.029139221   -4.4324645    1.1683636      1024000 
  842000   0.77869158   -4.4332472   -4.4332472   -3.2652122  0.029274679   -4.4332472     1.168035      1024000 
  843000   0.77943924    -4.435164    -4.435164   -3.2660075  0.029327618    -4.435164    1.1691565      1024000 
  844000   0.77874053   -4.4352883   -4.4352883   -3.2671799   0.02966489   -4.4352883    1.1681084      1024000 
  845000   0.78005637   -4.4376327   -4.4376327   -3.2675505  0.027102672   -4.4376327    1.1700822      1024000 
  846000   0.78058466   -4.4396736   -4.4396736    -3.268799  0.023632623   -4.4396736    1.1708746      1024000 
  847000   0.77988581    -4.439591    -4.439591   -3.2697646  0.024951334    -4.439591    1.1698263      1024000 
  848000   0.77851707   -4.4377759   -4.4377759   -3.2700027   0.02850824   -4.4377759    1.1677732      1024000 
  849000   0.77856886   -4.4380829   -4.4380829    -3.270232  0.029054452   -4.4380829    1.1678509      1024000 
  850000   0.77935851   -4.4384752   -4.4384752   -3.2694399  0.027954777   -4.4384752    1.1690354      1024000 
  851000   0.77803202   -4.4370258   -4.4370258   -3.2699801  0.028283108   -4.4370258    1.1670457      1024000 
  852000   0.77922571   -4.4380939   -4.4380939   -3.2692577  0.031808371   -4.4380939    1.1688362      1024000 
  853000   0.77818607   -4.4366394   -4.4366394   -3.2693627  0.033349372   -4.4366394    1.1672767      1024000 
  854000   0.77928131   -4.4389114   -4.4389114   -3.2699919  0.020492213   -4.4389114    1.1689196      1024000 
  855000   0.77866019   -4.4387936   -4.4387936   -3.2708057  0.024763551   -4.4387936    1.1679879      1024000 
  856000   0.77817382     -4.43913     -4.43913   -3.2718716  0.025289431     -4.43913    1.1672584      1024000 
  857000   0.77805394   -4.4391948   -4.4391948   -3.2721163  0.023709398   -4.4391948    1.1670785      1024000 
  858000   0.77740291   -4.4392553   -4.4392553   -3.2731533  0.019779732   -4.4392553     1.166102      1024000 
  859000   0.77681371   -4.4387578   -4.4387578   -3.2735396   0.02138291   -4.4387578    1.1652182      1024000 
  860000   0.77594816   -4.4381346   -4.4381346   -3.2742147  0.019802337   -4.4381346    1.1639199      1024000 
  861000   0.77624373   -4.4382614   -4.4382614   -3.2738981  0.024799622   -4.4382614    1.1643632      1024000 
  862000   0.77653482   -4.4395286   -4.4395286   -3.2747288  0.018159973   -4.4395286    1.1647999      1024000 
  863000   0.77561277   -4.4385594   -4.4385594   -3.2751426  0.020520133   -4.4385594    1.1634168      1024000 
  864000   0.77599527   -4.4391375   -4.4391375    -3.275147  0.019058479   -4.4391375    1.1639905      1024000 
  865000   0.77545783   -4.4391065   -4.4391065   -3.2759221  0.022802417   -4.4391065    1.1631844      1024000 
  866000   0.77572478   -4.4397672   -4.4397672   -3.2761824  0.017687152   -4.4397672    1.1635848      1024000 
  867000   0.77622318    -4.440586    -4.440586   -3.2762536  0.018101414    -4.440586    1.1643324      1024000 
  868000   0.77690728    -4.442517    -4.442517   -3.2771584  0.015531484    -4.442517    1.1653585      1024000 
  869000    0.7772439   -4.4423254   -4.4423254   -3.2764619  0.021640758   -4.4423254    1.1658635      1024000 
  870000   0.77627799   -4.4414272   -4.4414272   -3.2770125  0.021171346   -4.4414272    1.1644146      1024000 
  871000   0.77713211   -4.4424554   -4.4424554   -3.2767596  0.018348532   -4.4424554    1.1656958      1024000 
  872000   0.77680056   -4.4422122   -4.4422122   -3.2770138  0.028481436   -4.4422122    1.1651985      1024000 
  873000   0.77670321   -4.4431252   -4.4431252   -3.2780728  0.026627569   -4.4431252    1.1650525      1024000 
  874000   0.77596554   -4.4428053   -4.4428053   -3.2788594  0.023325164   -4.4428053    1.1639459      1024000 
  875000   0.77666617   -4.4455484   -4.4455484   -3.2805515  0.021986028   -4.4455484    1.1649969      1024000 
  876000   0.77574359   -4.4436845   -4.4436845   -3.2800715  0.025448342   -4.4436845     1.163613      1024000 
  877000   0.77540266    -4.444184    -4.444184   -3.2810824  0.027940385    -4.444184    1.1631016      1024000 
  878000   0.77634597    -4.446311    -4.446311   -3.2817944  0.024606364    -4.446311    1.1645166      1024000 
  879000   0.77677731   -4.4471529   -4.4471529   -3.2819893  0.022614146   -4.4471529    1.1651636      1024000 
  880000   0.77577285   -4.4461599   -4.4461599   -3.2825029  0.023910643   -4.4461599    1.1636569      1024000 
  881000   0.77617568   -4.4469759   -4.4469759   -3.2827148  0.025233776   -4.4469759    1.1642612      1024000 
  882000   0.77580281   -4.4474121   -4.4474121   -3.2837103  0.028039911   -4.4474121    1.1637019      1024000 
  883000   0.77758061    -4.450477    -4.450477   -3.2841085    0.0221172    -4.450477    1.1663686      1024000 
  884000   0.77574537   -4.4469191   -4.4469191   -3.2833034  0.027356209   -4.4469191    1.1636157      1024000 
  885000   0.77559519   -4.4477633   -4.4477633   -3.2843729  0.028756773   -4.4477633    1.1633904      1024000 
  886000   0.77579652      -4.4487      -4.4487   -3.2850075  0.026670585      -4.4487    1.1636924      1024000 
  887000   0.77589995   -4.4490599   -4.4490599   -3.2852124   0.02947113   -4.4490599    1.1638476      1024000 
  888000   0.77537846   -4.4477848   -4.4477848   -3.2847195  0.029086602   -4.4477848    1.1630653      1024000 
  889000   0.77589928   -4.4494534   -4.4494534   -3.2856068  0.026090343   -4.4494534    1.1638466      1024000 
  890000   0.77607978   -4.4507168   -4.4507168   -3.2865995  0.020441267   -4.4507168    1.1641173      1024000 
  891000     0.775482   -4.4501926   -4.4501926   -3.2869719  0.023568624   -4.4501926    1.1632206      1024000 
  892000    0.7745211   -4.4488838   -4.4488838   -3.2871045  0.029343265   -4.4488838    1.1617793      1024000 
  893000   0.77432007   -4.4487398   -4.4487398   -3.2872621  0.026851646   -4.4487398    1.1614777      1024000 
  894000   0.77515568   -4.4500672   -4.4500672   -3.2873361  0.024070169   -4.4500672    1.1627312      1024000 
  895000   0.77523966   -4.4508607   -4.4508607   -3.2880035  0.021657865   -4.4508607    1.1628571      1024000 
  896000   0.77498404   -4.4510203   -4.4510203   -3.2885466  0.022844155   -4.4510203    1.1624737      1024000 
  897000   0.77441093     -4.45072     -4.45072   -3.2891059  0.022767527     -4.45072     1.161614      1024000 
  898000   0.77471101   -4.4504946   -4.4504946   -3.2884304  0.020336587   -4.4504946    1.1620642      1024000 
  899000   0.77505389   -4.4514951   -4.4514951   -3.2889166  0.018213441   -4.4514951    1.1625785      1024000 
  900000   0.77469509   -4.4522874   -4.4522874   -3.2902471  0.015295612   -4.4522874    1.1620403      1024000 
  901000   0.77444202   -4.4524337   -4.4524337    -3.290773  0.016169226   -4.4524337    1.1616607      1024000 
  902000    0.7741741   -4.4530044   -4.4530044   -3.2917456  0.020304984   -4.4530044    1.1612588      1024000 
  903000   0.77424558   -4.4523354   -4.4523354   -3.2909694  0.020751851   -4.4523354     1.161366      1024000 
  904000   0.77404856   -4.4520881   -4.4520881   -3.2910176   0.02178749   -4.4520881    1.1610705      1024000 
  905000   0.77368671   -4.4520627   -4.4520627    -3.291535  0.022566441   -4.4520627    1.1605277      1024000 
  906000   0.77456627   -4.4528943   -4.4528943   -3.2910472  0.016400895   -4.4528943     1.161847      1024000 
  907000   0.77431971   -4.4523626   -4.4523626   -3.2908854  0.024929392   -4.4523626    1.1614772      1024000 
  908000   0.77466138   -4.4525236   -4.4525236   -3.2905339  0.027573922   -4.4525236    1.1619897      1024000 
  909000   0.77449374   -4.4532634   -4.4532634   -3.2915251  0.027203698   -4.4532634    1.1617383      1024000 
  910000   0.77409893   -4.4530691   -4.4530691   -3.2919231  0.027637907   -4.4530691     1.161146      1024000 
  911000   0.77484412   -4.4548538   -4.4548538   -3.2925899  0.022899133   -4.4548538    1.1622638      1024000 
  912000   0.77469002   -4.4550907   -4.4550907   -3.2930581  0.025683017   -4.4550907    1.1620327      1024000 
  913000   0.77392771   -4.4545758   -4.4545758   -3.2936866  0.023987542   -4.4545758    1.1608892      1024000 
  914000   0.77502258   -4.4567929   -4.4567929   -3.2942613  0.020215541   -4.4567929    1.1625315      1024000 
  915000   0.77337312   -4.4539429   -4.4539429   -3.2938856  0.023958652   -4.4539429    1.1600573      1024000 
  916000   0.77429877   -4.4562935   -4.4562935   -3.2948477  0.021235696   -4.4562935    1.1614458      1024000 
  917000   0.77448534   -4.4574661   -4.4574661   -3.2957405  0.022480413   -4.4574661    1.1617257      1024000 
  918000   0.77331478   -4.4564355   -4.4564355   -3.2964657   0.02215475   -4.4564355    1.1599698      1024000 
  919000   0.77432654   -4.4584157   -4.4584157   -3.2969283   0.01954407   -4.4584157    1.1614875      1024000 
  920000   0.77360961   -4.4577359   -4.4577359   -3.2973238  0.019421391   -4.4577359    1.1604121      1024000 
  921000    0.7730814   -4.4564604   -4.4564604   -3.2968406  0.023406422   -4.4564604    1.1596197      1024000 
  922000   0.77342234   -4.4575856   -4.4575856   -3.2974545  0.019960612   -4.4575856    1.1601312      1024000 
  923000   0.77400937   -4.4586785   -4.4586785   -3.2976668  0.019106628   -4.4586785    1.1610117      1024000 
  924000   0.77401701   -4.4590432   -4.4590432     -3.29802   0.02039138   -4.4590432    1.1610232      1024000 
  925000   0.77312303   -4.4579345   -4.4579345   -3.2982523  0.023131144   -4.4579345    1.1596822      1024000 
  926000   0.77381108   -4.4591426   -4.4591426   -3.2984284   0.02093423   -4.4591426    1.1607143      1024000 
  927000   0.77278468   -4.4580093   -4.4580093   -3.2988347   0.02469076   -4.4580093    1.1591747      1024000 
  928000   0.77252603   -4.4579461   -4.4579461   -3.2991594  0.022314306   -4.4579461    1.1587867      1024000 
  929000   0.77349285   -4.4598146   -4.4598146   -3.2995777  0.020640809   -4.4598146    1.1602369      1024000 
  930000   0.77352886   -4.4600383   -4.4600383   -3.2997474   0.02585299   -4.4600383    1.1602909      1024000 
  931000    0.7746465    -4.461607    -4.461607   -3.2996396  0.026399126    -4.461607    1.1619674      1024000 
  932000   0.77393143   -4.4613055   -4.4613055   -3.3004107  0.025465387   -4.4613055    1.1608948      1024000 
  933000   0.77343657   -4.4604674   -4.4604674   -3.3003149  0.024902662   -4.4604674    1.1601525      1024000 
  934000   0.77329962   -4.4616159   -4.4616159   -3.3016688  0.021558329   -4.4616159    1.1599471      1024000 
  935000    0.7728425   -4.4617939   -4.4617939   -3.3025325  0.020734613   -4.4617939    1.1592614      1024000 
  936000   0.77153719   -4.4601513   -4.4601513   -3.3028479  0.022331151   -4.4601513    1.1573034      1024000 
  937000   0.77315321   -4.4633747   -4.4633747   -3.3036472  0.022991993   -4.4633747    1.1597275      1024000 
  938000   0.77206569   -4.4617429   -4.4617429   -3.3036467  0.024069689   -4.4617429    1.1580962      1024000 
  939000   0.77233563    -4.462936    -4.462936   -3.3044349  0.018080397    -4.462936    1.1585011      1024000 
  940000   0.77186483   -4.4628985   -4.4628985   -3.3051036    0.0186945   -4.4628985    1.1577949      1024000 
  941000   0.77120923   -4.4625124   -4.4625124   -3.3057009  0.017411561   -4.4625124    1.1568115      1024000 
  942000   0.77159178   -4.4634181   -4.4634181   -3.3060328  0.022675396   -4.4634181    1.1573853      1024000 
  943000   0.77319187   -4.4651508   -4.4651508   -3.3053654  0.020234645   -4.4651508    1.1597855      1024000 
  944000    0.7722948   -4.4638113   -4.4638113   -3.3053714  0.026021114   -4.4638113    1.1584399      1024000 
  945000   0.77178185    -4.464338    -4.464338   -3.3066676  0.025464569    -4.464338    1.1576704      1024000 
  946000   0.77224632   -4.4660894   -4.4660894   -3.3077223  0.024936724   -4.4660894    1.1583671      1024000 
  947000   0.77222176   -4.4661797   -4.4661797   -3.3078494  0.025605422   -4.4661797    1.1583303      1024000 
  948000   0.77341972   -4.4678845   -4.4678845   -3.3077573  0.021935052   -4.4678845    1.1601272      1024000 
  949000   0.77162634   -4.4655361   -4.4655361    -3.308099  0.024997744   -4.4655361    1.1574372      1024000 
  950000    0.7721002   -4.4665317   -4.4665317   -3.3083837   0.02662246   -4.4665317    1.1581479      1024000 
  951000   0.77214434   -4.4673722   -4.4673722   -3.3091581  0.021779487   -4.4673722    1.1582142      1024000 
  952000   0.77108802    -4.465908    -4.465908   -3.3092783  0.023275995    -4.465908    1.1566297      1024000 
  953000   0.77143649   -4.4675409   -4.4675409   -3.3103886  0.021317147   -4.4675409    1.1571524      1024000 
  954000   0.77143574   -4.4683362   -4.4683362    -3.311185  0.023312536   -4.4683362    1.1571513      1024000 
  955000   0.77210675   -4.4695961   -4.4695961   -3.3114383  0.020753572   -4.4695961    1.1581578      1024000 
  956000   0.77185308    -4.470006    -4.470006   -3.3122287  0.024084546    -4.470006    1.1577773      1024000 
  957000    0.7706462   -4.4692944   -4.4692944   -3.3133274  0.024508639   -4.4692944     1.155967      1024000 
  958000   0.77182526   -4.4713222   -4.4713222   -3.3135866  0.020468221   -4.4713222    1.1577355      1024000 
  959000    0.7716872   -4.4712588   -4.4712588   -3.3137303  0.020490451   -4.4712588    1.1575285      1024000 
  960000   0.77194359   -4.4716663   -4.4716663   -3.3137532   0.02564328   -4.4716663     1.157913      1024000 
  961000   0.77177821   -4.4714347   -4.4714347   -3.3137697  0.025815182   -4.4714347     1.157665      1024000 
  962000   0.77189607   -4.4721552   -4.4721552   -3.3143134   0.02214212   -4.4721552    1.1578418      1024000 
  963000   0.77130344   -4.4711213   -4.4711213   -3.3141685  0.025836738   -4.4711213    1.1569528      1024000 
  964000   0.77151495   -4.4724818   -4.4724818   -3.3152117  0.021913662   -4.4724818    1.1572701      1024000 
  965000   0.77023088   -4.4714053   -4.4714053   -3.3160613  0.023598513   -4.4714053     1.155344      1024000 
  966000   0.77061833   -4.4728196   -4.4728196   -3.3168945  0.020517113   -4.4728196    1.1559252      1024000 
  967000   0.77054016   -4.4726071   -4.4726071   -3.3167992  0.020543915   -4.4726071    1.1558079      1024000 
  968000   0.77076584   -4.4732325   -4.4732325   -3.3170861   0.02159818   -4.4732325    1.1561464      1024000 
  969000     0.770924   -4.4735586   -4.4735586    -3.317175  0.022919884   -4.4735586    1.1563837      1024000 
  970000   0.77130877   -4.4745743   -4.4745743   -3.3176135  0.020448703   -4.4745743    1.1569608      1024000 
  971000   0.77049575   -4.4741042   -4.4741042    -3.318363  0.023749324   -4.4741042    1.1557413      1024000 
  972000   0.77043757   -4.4741808   -4.4741808   -3.3185267  0.020465017   -4.4741808     1.155654      1024000 
  973000   0.77012462   -4.4738178   -4.4738178   -3.3186332  0.019472733   -4.4738178    1.1551846      1024000 
  974000   0.77092317   -4.4751059   -4.4751059   -3.3187234  0.020076787   -4.4751059    1.1563824      1024000 
  975000   0.77086572    -4.476201    -4.476201   -3.3199048  0.020045689    -4.476201    1.1562962      1024000 
  976000    0.7704869   -4.4757806   -4.4757806   -3.3200526  0.018727649   -4.4757806     1.155728      1024000 
  977000   0.77088161   -4.4766811   -4.4766811    -3.320361  0.021417661   -4.4766811    1.1563201      1024000 
  978000   0.76983405   -4.4759311   -4.4759311   -3.3211824  0.022434758   -4.4759311    1.1547487      1024000 
  979000   0.76958401    -4.475942    -4.475942   -3.3215683  0.022795246    -4.475942    1.1543737      1024000 
  980000   0.76989113   -4.4773849   -4.4773849   -3.3225506  0.018163964   -4.4773849    1.1548343      1024000 
  981000   0.76985103   -4.4774811   -4.4774811   -3.3227069  0.019066973   -4.4774811    1.1547742      1024000 
  982000    0.7696017   -4.4766639   -4.4766639   -3.3222637  0.021667781   -4.4766639    1.1544002      1024000 
  983000   0.76862171   -4.4758678   -4.4758678   -3.3229376  0.024655331   -4.4758678    1.1529302      1024000 
  984000   0.76889314   -4.4774149   -4.4774149   -3.3240776  0.021373491   -4.4774149    1.1533374      1024000 
  985000   0.76954288   -4.4789468   -4.4789468   -3.3246348   0.02117243   -4.4789468     1.154312      1024000 
  986000    0.7693468   -4.4791095   -4.4791095   -3.3250916   0.02510766   -4.4791095    1.1540179      1024000 
  987000   0.76915554   -4.4789937   -4.4789937   -3.3252627  0.023093234   -4.4789937     1.153731      1024000 
  988000   0.76997146   -4.4813696   -4.4813696   -3.3264148  0.018368022   -4.4813696    1.1549548      1024000 
  989000   0.76871201   -4.4792956   -4.4792956   -3.3262299  0.020389788   -4.4792956    1.1530657      1024000 
  990000   0.76950766   -4.4809963   -4.4809963   -3.3267372  0.020883426   -4.4809963    1.1542591      1024000 
  991000   0.76978919   -4.4812176   -4.4812176   -3.3265362  0.025910987   -4.4812176    1.1546814      1024000 
  992000   0.76948089   -4.4808233   -4.4808233   -3.3266043  0.027977474   -4.4808233     1.154219      1024000 
  993000   0.77022775   -4.4822567   -4.4822567   -3.3269174  0.023551742   -4.4822567    1.1553393      1024000 
  994000   0.77026713   -4.4833999   -4.4833999   -3.3280016  0.025293584   -4.4833999    1.1553983      1024000 
  995000   0.77016671   -4.4845891   -4.4845891   -3.3293413   0.02186113   -4.4845891    1.1552477      1024000 
  996000   0.77046767   -4.4849595   -4.4849595   -3.3292604  0.021726162   -4.4849595    1.1556992      1024000 
  997000   0.76946847   -4.4838594   -4.4838594    -3.329659  0.021507957   -4.4838594    1.1542004      1024000 
  998000   0.76895412   -4.4834452   -4.4834452   -3.3300163  0.027449179   -4.4834452    1.1534288      1024000 
  999000   0.76916343   -4.4845599   -4.4845599    -3.330817  0.022417725   -4.4845599    1.1537428      1024000 
 1000000   0.76841548   -4.4840958   -4.4840958    -3.331475  0.026661334   -4.4840958    1.1526209      1024000 
Loop time of 16055.5 on 32 procs for 1000000 steps with 492800 atoms

Performance: 13453.370 tau/day, 62.284 timesteps/s
99.4% CPU use with 32 MPI tasks x 1 OpenMP threads

MPI task timing breakdown:
Section |  min time  |  avg time  |  max time  |%varavg|  %CPU | %total
-----------------------------------------------------------------------
Pair    | 4512.3     | 7192.4     | 11128      |1774.2 |  99.5 | 44.80
Bond    | 0.42469    | 0.59978    | 0.79508    |  11.1 | 100.0 |  0.00
Neigh   | 1049.2     | 1511.1     | 2238       | 739.6 |  99.9 |  9.41
Comm    | 1698.3     | 5979.3     | 8443.2     |2131.5 |  99.0 | 37.24
Output  | 35.764     | 35.961     | 35.972     |   0.6 |  98.9 |  0.22
Modify  | 201.05     | 415.52     | 1320.7     |1526.5 |  99.6 |  2.59
Other   |            | 920.6      |            |       |       |  5.73

Nlocal:        15400.0 ave       15652 max       13919 min
Histogram: 1 1 0 0 0 0 0 1 12 17
Nghost:        12750.6 ave       14362 max        8640 min
Histogram: 4 4 0 0 0 0 0 0 9 15
Neighs:       557239.0 ave      606454 max      353900 min
Histogram: 2 2 0 0 0 0 0 2 11 15

Total # of neighbors = 17831641
Ave neighs/atom = 36.184336
Ave special neighs/atom = 0.0000000
Neighbor list builds = 61940
Dangerous builds = 777
Total wall time: 4:27:37
