LAMMPS (24 Dec 2020)
OMP_NUM_THREADS environment is not set. Defaulting to 1 thread. (src/comm.cpp:94)
  using 1 OpenMP thread(s) per MPI task
# Simple rigid body system
# needed variables:

units		lj
atom_style	full
dimension 	3
boundary	p p f
pair_style	lj/cut/opt 2.5


variable 	sigma		equal 1.0
variable 	epsilon 	equal 1.0


region		box block 0 80 0 80 0 80
create_box 	3 box
Created orthogonal box = (0.0000000 0.0000000 0.0000000) to (80.000000 80.000000 80.000000)
  2 by 4 by 4 MPI processor grid
lattice 	sc 1.0
Lattice spacing in x,y,z = 1.0000000 1.0000000 1.0000000

create_atoms 	1 region box
Created 512000 atoms
  create_atoms CPU = 0.028 seconds

mass		1 1.0
mass		2 1.0
mass		3 1.0


group		solvent type 1
512000 atoms in group solvent


velocity 	solvent create ${startTemp} 563435 loop geom
velocity 	solvent create 0.5 563435 loop geom

read_data	data.vac add append
Reading data file ...
  orthogonal box = (0.0000000 0.0000000 0.0000000) to (80.000000 80.000000 160.00000)
  2 by 2 by 8 MPI processor grid
Finding 1-2 1-3 1-4 neighbors ...
  special bond factors lj:    0        0        0       
  special bond factors coul:  0        0        0       
     0 = max # of 1-2 neighbors
     0 = max # of 1-3 neighbors
     0 = max # of 1-4 neighbors
     1 = max # of special neighbors
  special bonds CPU = 0.079 seconds
  read_data CPU = 0.088 seconds

neighbor 	0.4 bin

pair_coeff	1 1 1.0 1.0
pair_coeff	2 2 0.0 0.0
pair_coeff	3 3 0.0 0.0
pair_coeff	2 3 0.0 0.0
pair_coeff	1 2*3 0.0 0.0

pair_modify 	shift yes


balance 	1.05 shift z 10 1.05
Balancing ...
Neighbor list info ...
  update every 1 steps, delay 10 steps, check yes
  max neighbors/atom: 2000, page size: 100000
  master list distance cutoff = 2.9
  ghost atom cutoff = 2.9
  binsize = 1.45, bins = 56 56 111
  1 neighbor lists, perpetual/occasional/extra = 1 0 0
  (1) pair lj/cut/opt, perpetual
      attributes: half, newton on
      pair build: half/bin/newton
      stencil: half/bin/3d/newton
      bin: standard
 rebalancing time: 0.016 seconds
  iteration count = 5
  initial/final maximal load/proc = 32000.000 19200.000
  initial/final imbalance factor  = 2.0000000 1.2000000
  x cuts: 0.0000000 0.50000000 1.0000000
  y cuts: 0.0000000 0.50000000 1.0000000
  z cuts: 0.0000000 0.062500000 0.12890625 0.18750000 0.25781250 0.30859375 0.38671875 0.43750000 1.0000000


####################### WALLS ###########################


region	       low block  EDGE EDGE EDGE EDGE 0 2

region 	       top block  EDGE EDGE EDGE EDGE 159 160


delete_atoms   region low
WARNING: Ignoring 'compress yes' for molecular system (src/delete_atoms.cpp:125)
Deleted 19200 atoms, new total = 492800

delete_atoms   region top
WARNING: Ignoring 'compress yes' for molecular system (src/delete_atoms.cpp:125)
Deleted 0 atoms, new total = 492800


variable       epsilonWall equal 2*${epsilon}
variable       epsilonWall equal 2*1

variable       cutoffTop   equal   0.7147*${sigma}
variable       cutoffTop   equal   0.7147*1

variable       cutoffLow   equal   3*${sigma}
variable       cutoffLow   equal   3*1


fix            topWall all wall/lj93 zhi EDGE                ${epsilonWall} ${sigma} ${cutoffTop} units box
fix            topWall all wall/lj93 zhi EDGE                2 ${sigma} ${cutoffTop} units box
fix            topWall all wall/lj93 zhi EDGE                2 1 ${cutoffTop} units box
fix            topWall all wall/lj93 zhi EDGE                2 1 0.7147 units box

fix            lowWall all wall/lj93 zlo EDGE                ${epsilonWall} ${sigma} ${cutoffLow} units box
fix            lowWall all wall/lj93 zlo EDGE                2 ${sigma} ${cutoffLow} units box
fix            lowWall all wall/lj93 zlo EDGE                2 1 ${cutoffLow} units box
fix            lowWall all wall/lj93 zlo EDGE                2 1 3 units box


###################### COMPUTES ##########################

compute        bin1 solvent chunk/atom bin/1d z upper 1.0



######################	FIXES ############################


fix 		peclet solvent ave/chunk 1000 1 1000 bin1 density/number norm 		 none ave one file density.profile

fix 		2 solvent nve

## Thermostat


region		regthermo block EDGE EDGE EDGE EDGE 0 20

group 		thermo dynamic solvent region regthermo every 1000
dynamic group thermo defined

fix 		3 thermo langevin ${startTemp} ${temp} 10 156453
fix 		3 thermo langevin 0.5 ${temp} 10 156453
fix 		3 thermo langevin 0.5 .9 10 156453



#### Load balancing


fix 		bal all balance 1000 1.05 shift z 10 1.05


############### Diagnostics and computes ###################
#compute 	com cube	  rigid/local	1 mol x y z
#compute 	quat cube	  rigid/local	1 mol quatw quati quatj quatk

thermo 		1000
thermo_style 	custom step temp epair evdwl etotal press pe ke vol

dump		1 all custom 100000 dump.lammpstrj id mol type x y z
dump 		2 all image 10000 image.*.png type type
dump 		3 all movie 1000 movie.avi type type
#dump 		com cube local 1000 dump.*.xyz c_com[*]
#dump		quat cube      local 1000 dump.*.quat c_quat[*]


restart 	500000 restart.dat
timestep 	0.0025
timer 		full
New timer settings: style=full  mode=nosync  timeout=off


run		1000000
Per MPI rank memory allocation (min/avg/max) = 21.45 | 22.19 | 22.73 Mbytes
Step Temp E_pair E_vdwl TotEng Press PotEng KinEng Volume 
       0   0.49998514   -3.2974116   -3.2974116   -2.5474355    8.3319627   -3.2974116   0.74997619      1024000 
    1000    1.4272324   -4.8129367   -4.8129367   -2.6720924    3.6890353   -4.8129367    2.1408442      1024000 
    2000    1.3672862   -4.8632033   -4.8632033   -2.8122782    2.4685516   -4.8632033    2.0509252      1024000 
    3000    1.2637674    -4.836386    -4.836386   -2.9407387    1.6311518    -4.836386    1.8956473      1024000 
    4000     1.213167   -4.8491777   -4.8491777    -3.029431   0.72097117   -4.8491777    1.8197468      1024000 
    5000    1.1420626    -4.785962    -4.785962   -3.0728716  0.083984586    -4.785962    1.7130904      1024000 
    6000    1.0628881   -4.6829132   -4.6829132   -3.0885843  -0.25644829   -4.6829132    1.5943289      1024000 
    7000     1.002132   -4.5937405   -4.5937405   -3.0905456  -0.36292989   -4.5937405    1.5031949      1024000 
    8000   0.98753705   -4.5718906   -4.5718906    -3.090588  -0.24911694   -4.5718906    1.4813026      1024000 
    9000    1.0011473   -4.5973591   -4.5973591   -3.0956412  -0.10573834   -4.5973591    1.5017179      1024000 
   10000    1.0079029   -4.6188355   -4.6188355   -3.1069842 -0.019238355   -4.6188355    1.5118513      1024000 
   11000    1.0098417   -4.6333183   -4.6333183   -3.1185588  0.015876735   -4.6333183    1.5147595      1024000 
   12000    1.0117244   -4.6463348   -4.6463348   -3.1287513   0.04331103   -4.6463348    1.5175835      1024000 
   13000    1.0130257   -4.6575399   -4.6575399   -3.1380045  0.069266238   -4.6575399    1.5195354      1024000 
   14000    1.0136606    -4.666519    -4.666519   -3.1460313  0.090147155    -4.666519    1.5204878      1024000 
   15000    1.0105114   -4.6696241   -4.6696241   -3.1538601  0.092876099   -4.6696241     1.515764      1024000 
   16000    1.0096144   -4.6744852   -4.6744852   -3.1600668  0.089920325   -4.6744852    1.5144185      1024000 
   17000     1.008768   -4.6784449   -4.6784449   -3.1652959   0.10028669   -4.6784449     1.513149      1024000 
   18000     1.009061   -4.6834258   -4.6834258   -3.1698375   0.10424155   -4.6834258    1.5135884      1024000 
   19000    1.0090267   -4.6876705   -4.6876705   -3.1741335   0.11137914   -4.6876705     1.513537      1024000 
   20000    1.0072816   -4.6886309   -4.6886309   -3.1777116   0.11611698   -4.6886309    1.5109193      1024000 
   21000    1.0066342   -4.6912936   -4.6912936   -3.1813454    0.1152659   -4.6912936    1.5099482      1024000 
   22000    1.0063562   -4.6939824   -4.6939824   -3.1844512   0.12636205   -4.6939824    1.5095312      1024000 
   23000    1.0079897   -4.6999275   -4.6999275   -3.1879461   0.13196955   -4.6999275    1.5119814      1024000 
   24000    1.0117934   -4.7084973   -4.7084973   -3.1908104   0.22123479   -4.7084973     1.517687      1024000 
   25000    1.0234547   -4.7290123   -4.7290123   -3.1938334   0.66411254   -4.7290123    1.5351789      1024000 
   26000    1.0387953   -4.7545755   -4.7545755   -3.1963857     1.052695   -4.7545755    1.5581898      1024000 
   27000    1.0458208   -4.7666516   -4.7666516   -3.1979236    1.5360932   -4.7666516     1.568728      1024000 
   28000    1.0536292   -4.7805429   -4.7805429   -3.2001022    1.7636329   -4.7805429    1.5804406      1024000 
   29000     1.035819   -4.7558421   -4.7558421   -3.2021167    1.3967956   -4.7558421    1.5537253      1024000 
   30000    1.0185656   -4.7311978   -4.7311978   -3.2033526    1.0090807   -4.7311978    1.5278452      1024000 
   31000    1.0031278   -4.7089234   -4.7089234   -3.2042348   0.63997325   -4.7089234    1.5046887      1024000 
   32000   0.96960452   -4.6602057   -4.6602057   -3.2058018   0.37680767   -4.6602057    1.4544038      1024000 
   33000   0.92721862   -4.5983237   -4.5983237   -3.2074986   0.17192267   -4.5983237    1.3908251      1024000 
   34000   0.88790412   -4.5412399   -4.5412399   -3.2093865  0.018785277   -4.5412399    1.3318535      1024000 
   35000    0.8575673   -4.4977582   -4.4977582   -3.2114099 -0.072098279   -4.4977582    1.2863483      1024000 
   36000    0.8373974   -4.4694505   -4.4694505    -3.213357  -0.10724562   -4.4694505    1.2560935      1024000 
   37000   0.82886927   -4.4579732   -4.4579732   -3.2146718  -0.10781046   -4.4579732    1.2433014      1024000 
   38000   0.83075537   -4.4617601   -4.4617601   -3.2156296 -0.083680082   -4.4617601    1.2461305      1024000 
   39000   0.84228746    -4.479966    -4.479966   -3.2165374 -0.050385486    -4.479966    1.2634286      1024000 
   40000   0.85616745   -4.5021658   -4.5021658   -3.2179172 0.0073745072   -4.5021658    1.2842486      1024000 
   41000   0.87196517   -4.5269628   -4.5269628   -3.2190177  0.072795342   -4.5269628    1.3079451      1024000 
   42000    0.8828435   -4.5443542   -4.5443542   -3.2200916   0.12110277   -4.5443542    1.3242626      1024000 
   43000   0.88587116   -4.5502904   -4.5502904   -3.2214864   0.15232321   -4.5502904     1.328804      1024000 
   44000    0.8883003    -4.555661    -4.555661   -3.2232132   0.15594334    -4.555661    1.3324477      1024000 
   45000   0.88415866   -4.5513571   -4.5513571   -3.2251218   0.14357552   -4.5513571    1.3262353      1024000 
   46000   0.87729386   -4.5429822   -4.5429822    -3.227044   0.11402156   -4.5429822    1.3159381      1024000 
   47000   0.86862422   -4.5318683   -4.5318683   -3.2289346  0.089343875   -4.5318683    1.3029337      1024000 
   48000    0.8615152   -4.5232027   -4.5232027   -3.2309325  0.058132153   -4.5232027    1.2922702      1024000 
   49000   0.85344641   -4.5131594   -4.5131594   -3.2329924  0.038611121   -4.5131594     1.280167      1024000 
   50000     0.847695   -4.5069588   -4.5069588   -3.2354189  0.014341131   -4.5069588    1.2715399      1024000 
   51000   0.84376169   -4.5032524   -4.5032524   -3.2376124 0.0079646052   -4.5032524      1.26564      1024000 
   52000   0.84348911   -4.5057462   -4.5057462   -3.2405151  0.012154635   -4.5057462    1.2652311      1024000 
   53000   0.84778958   -4.5141904   -4.5141904   -3.2425086  0.027037207   -4.5141904    1.2716818      1024000 
   54000   0.85163073   -4.5224484   -4.5224484   -3.2450049  0.049934262   -4.5224484    1.2774435      1024000 
   55000   0.85778374   -4.5348347   -4.5348347   -3.2481617  0.072711784   -4.5348347     1.286673      1024000 
   56000   0.86339309   -4.5459079   -4.5459079   -3.2508209   0.10456624   -4.5459079     1.295087      1024000 
   57000   0.86670268   -4.5545515   -4.5545515   -3.2545002   0.12929507   -4.5545515    1.3000514      1024000 
   58000   0.86776227   -4.5598642   -4.5598642   -3.2582235   0.13087444   -4.5598642    1.3016408      1024000 
   59000   0.86511732   -4.5596893   -4.5596893   -3.2620159   0.11887889   -4.5596893    1.2976733      1024000 
   60000   0.86147389   -4.5581505   -4.5581505   -3.2659423   0.10293403   -4.5581505    1.2922082      1024000 
   61000    0.8570967   -4.5561916   -4.5561916   -3.2705492   0.10105864   -4.5561916    1.2856424      1024000 
   62000   0.85462144   -4.5582615   -4.5582615   -3.2763319  0.097760437   -4.5582615    1.2819296      1024000 
   63000   0.85299932   -4.5614145   -4.5614145   -3.2819182   0.10548345   -4.5614145    1.2794964      1024000 
   64000   0.85388583   -4.5682936   -4.5682936   -3.2874675   0.12669308   -4.5682936    1.2808261      1024000 
   65000   0.85683921   -4.5793461   -4.5793461   -3.2940899   0.14340744   -4.5793461    1.2852562      1024000 
   66000   0.86214029   -4.5948294   -4.5948294   -3.3016216   0.18338402   -4.5948294    1.2932078      1024000 
   67000   0.87186153   -4.6168284   -4.6168284   -3.3090388   0.24252652   -4.6168284    1.3077896      1024000 
   68000   0.88058065   -4.6379596   -4.6379596   -3.3170913   0.31717797   -4.6379596    1.3208683      1024000 
   69000   0.88817493   -4.6572711   -4.6572711   -3.3250114   0.38445687   -4.6572711    1.3322597      1024000 
   70000   0.88871783   -4.6688054   -4.6688054   -3.3357314   0.44244805   -4.6688054     1.333074      1024000 
   71000    0.8845707   -4.6796452   -4.6796452   -3.3527919   0.51648675   -4.6796452    1.3268534      1024000 
   72000    0.8777851   -4.6939011   -4.6939011   -3.3772262   0.59144186   -4.6939011     1.316675      1024000 
   73000   0.86824953   -4.7065432   -4.7065432   -3.4041716   0.63372682   -4.7065432    1.3023716      1024000 
   74000   0.86311682    -4.723463    -4.723463   -3.4287904   0.64374813    -4.723463    1.2946726      1024000 
   75000   0.85983697   -4.7400485   -4.7400485   -3.4502956   0.63724528   -4.7400485    1.2897528      1024000 
   76000   0.86026884   -4.7583165   -4.7583165   -3.4679158   0.63158434   -4.7583165    1.2904006      1024000 
   77000   0.85955407   -4.7720898   -4.7720898   -3.4827613   0.62266132   -4.7720898    1.2893285      1024000 
   78000   0.85504618   -4.7759031   -4.7759031   -3.4933364   0.56475079   -4.7759031    1.2825667      1024000 
   79000   0.83659682   -4.7551981   -4.7551981   -3.5003054   0.44236854   -4.7551981    1.2548927      1024000 
   80000    0.8158331   -4.7303432   -4.7303432    -3.506596    0.3075907   -4.7303432    1.2237472      1024000 
   81000   0.79433438   -4.7019276   -4.7019276   -3.5104284   0.19308732   -4.7019276    1.1914992      1024000 
   82000   0.77320496   -4.6744138   -4.6744138   -3.5146087   0.10317718   -4.6744138    1.1598051      1024000 
   83000   0.75347152     -4.64831     -4.64831    -3.518105  0.030139932     -4.64831     1.130205      1024000 
   84000    0.7371045   -4.6268427   -4.6268427   -3.5211882 -0.045658532   -4.6268427    1.1056545      1024000 
   85000    0.7217469    -4.605746    -4.605746   -3.5231279  -0.11047911    -4.605746    1.0826182      1024000 
   86000    0.7088244   -4.5863259   -4.5863259   -3.5230915  -0.17641048   -4.5863259    1.0632344      1024000 
   87000   0.69867035   -4.5684642   -4.5684642   -3.5204608   -0.2242259   -4.5684642    1.0480034      1024000 
   88000   0.69048536   -4.5526135   -4.5526135   -3.5168876  -0.25656848   -4.5526135    1.0357259      1024000 
   89000   0.68725479   -4.5421456   -4.5421456   -3.5112655  -0.26745388   -4.5421456    1.0308801      1024000 
   90000   0.68724535   -4.5378472   -4.5378472   -3.5069812  -0.25910304   -4.5378472    1.0308659      1024000 
   91000   0.69259509   -4.5411924   -4.5411924   -3.5023019  -0.23417857   -4.5411924    1.0388905      1024000 
   92000   0.70131402   -4.5506749   -4.5506749    -3.498706  -0.19209415   -4.5506749    1.0519689      1024000 
   93000   0.71236506   -4.5656432   -4.5656432   -3.4970978  -0.14554277   -4.5656432    1.0685454      1024000 
   94000   0.72091576   -4.5787196   -4.5787196   -3.4973482 -0.086021472   -4.5787196    1.0813714      1024000 
   95000   0.72915285   -4.5942189   -4.5942189   -3.5004919 -0.043147928   -4.5942189    1.0937271      1024000 
   96000    0.7334947   -4.6058482   -4.6058482   -3.5056084 0.0009280724   -4.6058482    1.1002398      1024000 
   97000   0.73574878   -4.6157905   -4.6157905   -3.5121696  0.016341374   -4.6157905    1.1036209      1024000 
   98000   0.73418176   -4.6198072   -4.6198072   -3.5185368  0.024442599   -4.6198072    1.1012704      1024000 
   99000   0.73174952   -4.6222731   -4.6222731    -3.524651  0.010342388   -4.6222731    1.0976221      1024000 
  100000   0.72807872   -4.6211667   -4.6211667   -3.5290509 -0.0066450864   -4.6211667    1.0921159      1024000 
  101000   0.72538508    -4.620345    -4.620345   -3.5322696 -0.023369005    -4.620345    1.0880754      1024000 
  102000   0.72317458   -4.6198286   -4.6198286    -3.535069 -0.030522256   -4.6198286    1.0847597      1024000 
  103000   0.72274012   -4.6207847   -4.6207847   -3.5366767 -0.036045332   -4.6207847     1.084108      1024000 
  104000   0.72492513   -4.6258539   -4.6258539   -3.5384684 -0.034316653   -4.6258539    1.0873855      1024000 
  105000   0.72589389   -4.6289053   -4.6289053   -3.5400667 -0.022190884   -4.6289053    1.0888386      1024000 
  106000   0.72627286   -4.6307006   -4.6307006   -3.5412935 -0.0097022486   -4.6307006    1.0894071      1024000 
  107000   0.72749768   -4.6346596   -4.6346596   -3.5434153  -0.00454511   -4.6346596    1.0912443      1024000 
  108000     0.728839   -4.6393356   -4.6393356   -3.5460793 0.0036676759   -4.6393356    1.0932563      1024000 
  109000   0.72945877   -4.6433469   -4.6433469    -3.549161 0.0047046947   -4.6433469    1.0941859      1024000 
  110000   0.72921338    -4.645777    -4.645777   -3.5519591 0.0020695686    -4.645777    1.0938178      1024000 
  111000   0.72697362   -4.6453496   -4.6453496   -3.5548914 0.0022209428   -4.6453496    1.0904582      1024000 
  112000   0.72676034   -4.6468126   -4.6468126   -3.5566743 -0.004531281   -4.6468126    1.0901383      1024000 
  113000   0.72554932   -4.6472377   -4.6472377   -3.5589159 -0.010178919   -4.6472377    1.0883218      1024000 
  114000    0.7237339   -4.6469588   -4.6469588   -3.5613602 -0.018458131   -4.6469588    1.0855986      1024000 
  115000   0.72259543   -4.6465774   -4.6465774   -3.5626865 -0.019769086   -4.6465774    1.0838909      1024000 
  116000   0.72236055   -4.6483851   -4.6483851   -3.5648465  -0.01410946   -4.6483851    1.0835386      1024000 
  117000   0.72292994   -4.6514048   -4.6514048   -3.5670121 -0.012076261   -4.6514048    1.0843927      1024000 
  118000   0.72419595   -4.6550538   -4.6550538    -3.568762 -0.014958416   -4.6550538    1.0862917      1024000 
  119000   0.72234109   -4.6539194   -4.6539194   -3.5704099 -0.0042012841   -4.6539194    1.0835094      1024000 
  120000   0.72447672   -4.6588207   -4.6588207   -3.5721078 -5.2298178e-06   -4.6588207    1.0867129      1024000 
  121000   0.72332808   -4.6586274   -4.6586274   -3.5736375 -0.00064425339   -4.6586274    1.0849899      1024000 
  122000   0.72407908   -4.6616084   -4.6616084    -3.575492 -0.0018741948   -4.6616084    1.0861164      1024000 
  123000   0.72253041   -4.6617936   -4.6617936   -3.5780002 -0.0010760331   -4.6617936    1.0837934      1024000 
  124000     0.721388    -4.662054    -4.662054   -3.5799742 -0.0027514588    -4.662054    1.0820798      1024000 
  125000   0.72086102   -4.6634518   -4.6634518   -3.5821624 -0.0054003131   -4.6634518    1.0812893      1024000 
  126000   0.72201812   -4.6667567   -4.6667567   -3.5837318 -0.0033079124   -4.6667567     1.083025      1024000 
  127000    0.7213868   -4.6674982   -4.6674982   -3.5854202 0.0017340326   -4.6674982     1.082078      1024000 
  128000   0.72141103   -4.6689207   -4.6689207   -3.5868064 0.00037417741   -4.6689207    1.0821144      1024000 
  129000   0.72103779   -4.6691698   -4.6691698   -3.5876153 0.0028331635   -4.6691698    1.0815545      1024000 
  130000   0.72197668   -4.6719305   -4.6719305   -3.5889677 -0.0064193774   -4.6719305    1.0829628      1024000 
  131000   0.72013188   -4.6708038   -4.6708038   -3.5906082 -0.0057816823   -4.6708038    1.0801956      1024000 
  132000   0.71994538   -4.6717425   -4.6717425   -3.5918266 -0.0035251081   -4.6717425    1.0799159      1024000 
  133000   0.71955965    -4.672368    -4.672368   -3.5930307 -0.0035009058    -4.672368    1.0793373      1024000 
  134000   0.71937024   -4.6729119   -4.6729119   -3.5938587 -0.0098763719   -4.6729119    1.0790532      1024000 
  135000    0.7193152   -4.6744034   -4.6744034   -3.5954328 -0.005405508   -4.6744034    1.0789706      1024000 
  136000   0.71811747   -4.6742298   -4.6742298   -3.5970558 -0.0029407196   -4.6742298     1.077174      1024000 
  137000    0.7195965   -4.6781006   -4.6781006   -3.5987081 -0.0087834814   -4.6781006    1.0793926      1024000 
  138000   0.71825608   -4.6778201   -4.6778201   -3.6004382 -0.0050714986   -4.6778201    1.0773819      1024000 
  139000   0.71795805   -4.6795679   -4.6795679    -3.602633 -0.0023663902   -4.6795679    1.0769349      1024000 
  140000   0.71878934   -4.6820768   -4.6820768   -3.6038949 -0.00057820035   -4.6820768    1.0781818      1024000 
  141000   0.71711862   -4.6811053   -4.6811053   -3.6054295 0.0013395458   -4.6811053    1.0756758      1024000 
  142000   0.71793061   -4.6840207   -4.6840207   -3.6071269 -0.0035800444   -4.6840207    1.0768937      1024000 
  143000   0.71800001   -4.6851304   -4.6851304   -3.6081326 -0.0029118239   -4.6851304    1.0769978      1024000 
  144000   0.71751547   -4.6859916   -4.6859916   -3.6097206 -3.862481e-05   -4.6859916     1.076271      1024000 
  145000   0.71740371   -4.6872349   -4.6872349   -3.6111315 -0.0052862633   -4.6872349    1.0761034      1024000 
  146000   0.71656733   -4.6873748   -4.6873748    -3.612526 -0.0044907702   -4.6873748    1.0748488      1024000 
  147000   0.71689229   -4.6892391   -4.6892391   -3.6139029 -0.00064613005   -4.6892391    1.0753363      1024000 
  148000   0.71656824   -4.6903847   -4.6903847   -3.6155346 -0.0043117239   -4.6903847    1.0748502      1024000 
  149000    0.7168684   -4.6919844   -4.6919844   -3.6166839 -0.0065764494   -4.6919844    1.0753004      1024000 
  150000   0.71679369   -4.6933574   -4.6933574   -3.6181691 -0.001844341   -4.6933574    1.0751884      1024000 
  151000   0.71550453   -4.6928852   -4.6928852   -3.6196306 -0.00065658796   -4.6928852    1.0732546      1024000 
  152000   0.71562433   -4.6944478   -4.6944478   -3.6210135 -0.0046151588   -4.6944478    1.0734343      1024000 
  153000   0.71452652   -4.6938278   -4.6938278   -3.6220402 -0.0028399944   -4.6938278    1.0717876      1024000 
  154000    0.7148171   -4.6950558   -4.6950558   -3.6228324 -0.0094640883   -4.6950558    1.0722235      1024000 
  155000   0.71488506   -4.6964701   -4.6964701   -3.6241447 -0.0080506275   -4.6964701    1.0723254      1024000 
  156000   0.71492537   -4.6972309   -4.6972309   -3.6248451 -0.0036001817   -4.6972309    1.0723859      1024000 
  157000   0.71542615   -4.6991468   -4.6991468   -3.6260098 -0.005961111   -4.6991468     1.073137      1024000 
  158000   0.71552503   -4.7006002   -4.7006002   -3.6273148 -0.0013844461   -4.7006002    1.0732854      1024000 
  159000   0.71445468   -4.7001754   -4.7001754   -3.6284956 0.0004093605   -4.7001754    1.0716798      1024000 
  160000   0.71399696   -4.7005521   -4.7005521   -3.6295588 0.0028240129   -4.7005521    1.0709933      1024000 
  161000   0.71439951   -4.7036027   -4.7036027   -3.6320056 -0.0018851289   -4.7036027    1.0715971      1024000 
  162000    0.7141935   -4.7042174   -4.7042174   -3.6329294 -0.0026188798   -4.7042174    1.0712881      1024000 
  163000   0.71375742   -4.7045704   -4.7045704   -3.6339364 -0.0058983974   -4.7045704     1.070634      1024000 
  164000     0.712707   -4.7044435   -4.7044435   -3.6353852 0.0035820201   -4.7044435    1.0690583      1024000 
  165000   0.71352945   -4.7064707   -4.7064707   -3.6361787 -0.00043714825   -4.7064707     1.070292      1024000 
  166000   0.71329715   -4.7073424   -4.7073424   -3.6373989 -0.0024446435   -4.7073424    1.0699435      1024000 
  167000   0.71327499   -4.7088695   -4.7088695   -3.6389592 -0.0011814665   -4.7088695    1.0699103      1024000 
  168000   0.71297282   -4.7093978   -4.7093978   -3.6399407   -0.0005892   -4.7093978    1.0694571      1024000 
  169000   0.71228313   -4.7090333   -4.7090333   -3.6406108  0.001105096   -4.7090333    1.0684225      1024000 
  170000   0.71325664   -4.7113688   -4.7113688    -3.641486 -0.001474111   -4.7113688    1.0698828      1024000 
  171000   0.71182101   -4.7106176   -4.7106176   -3.6428883 0.0013239268   -4.7106176    1.0677293      1024000 
  172000   0.71313445   -4.7130125   -4.7130125   -3.6433129 -0.0043167259   -4.7130125    1.0696995      1024000 
  173000    0.7118212     -4.71183     -4.71183   -3.6441004 -0.0014985037     -4.71183    1.0677296      1024000 
  174000   0.71250985   -4.7134759   -4.7134759   -3.6447133 -0.0093916505   -4.7134759    1.0687626      1024000 
  175000   0.71049032   -4.7112783   -4.7112783    -3.645545 -0.0040057025   -4.7112783    1.0657333      1024000 
  176000   0.71269951   -4.7154976   -4.7154976   -3.6464505 -0.0065484305   -4.7154976    1.0690471      1024000 
  177000   0.71337663   -4.7176416   -4.7176416   -3.6475788 -0.0066691453   -4.7176416    1.0700628      1024000 
  178000   0.71144531   -4.7163826   -4.7163826   -3.6492168 -0.0024321277   -4.7163826    1.0671658      1024000 
  179000   0.71130723   -4.7178872   -4.7178872   -3.6509285 0.0053270577   -4.7178872    1.0669587      1024000 
  180000   0.71256795   -4.7212031   -4.7212031   -3.6523534 0.0030192314   -4.7212031    1.0688498      1024000 
  181000   0.71291035   -4.7230697   -4.7230697   -3.6537063 0.0046255617   -4.7230697    1.0693634      1024000 
  182000   0.71246547   -4.7234565   -4.7234565   -3.6547605 0.00081484947   -4.7234565     1.068696      1024000 
  183000     0.711406   -4.7228354   -4.7228354   -3.6557286 0.00031121828   -4.7228354    1.0671068      1024000 
  184000   0.71171993   -4.7242959   -4.7242959   -3.6567182 0.0010393681   -4.7242959    1.0675777      1024000 
  185000   0.71140549   -4.7251197   -4.7251197   -3.6580136 -0.0020623697   -4.7251197    1.0671061      1024000 
  186000   0.71204589   -4.7267213   -4.7267213   -3.6586547 -0.0050957502   -4.7267213    1.0680667      1024000 
  187000   0.71166057   -4.7267958   -4.7267958   -3.6593071 -0.00079153953   -4.7267958    1.0674887      1024000 
  188000   0.71096275   -4.7275449   -4.7275449   -3.6611029 -0.00010497213   -4.7275449     1.066442      1024000 
  189000   0.71063874   -4.7273806   -4.7273806   -3.6614246 0.0030485853   -4.7273806    1.0659559      1024000 
  190000   0.71097938   -4.7287719   -4.7287719    -3.662305 -0.0034579453   -4.7287719    1.0664669      1024000 
  191000   0.71162684    -4.730728    -4.730728   -3.6632899 -0.0062908814    -4.730728    1.0674381      1024000 
  192000    0.7114057   -4.7317202   -4.7317202   -3.6646138 -0.0057816212   -4.7317202    1.0671064      1024000 
  193000   0.71185784   -4.7337743   -4.7337743   -3.6659897 -0.0045159493   -4.7337743    1.0677846      1024000 
  194000   0.71064963   -4.7323032   -4.7323032   -3.6663309 -0.0014127819   -4.7323032    1.0659723      1024000 
  195000   0.71197536   -4.7356961   -4.7356961   -3.6677353 -0.0018141323   -4.7356961    1.0679609      1024000 
  196000   0.71058154   -4.7342864   -4.7342864   -3.6684163 0.0022655367   -4.7342864    1.0658701      1024000 
  197000   0.71096116   -4.7357179   -4.7357179   -3.6692783 0.0015929655   -4.7357179    1.0664396      1024000 
  198000   0.71060035   -4.7354278   -4.7354278   -3.6695294 0.0044138753   -4.7354278    1.0658984      1024000 
  199000   0.71094647   -4.7371619   -4.7371619   -3.6707444 0.0055750928   -4.7371619    1.0664175      1024000 
  200000   0.71117081   -4.7383877   -4.7383877   -3.6716337 -0.0029765339   -4.7383877     1.066754      1024000 
  201000   0.71152419    -4.737937    -4.737937   -3.6706528 0.0011412815    -4.737937    1.0672841      1024000 
  202000   0.71114053   -4.7380794   -4.7380794   -3.6713708 0.0048407152   -4.7380794    1.0667086      1024000 
  203000   0.71241448   -4.7407521   -4.7407521   -3.6721326 0.0014301523   -4.7407521    1.0686196      1024000 
  204000   0.71247401   -4.7414246   -4.7414246   -3.6727158 -0.0027628605   -4.7414246    1.0687088      1024000 
  205000   0.71088266   -4.7398079   -4.7398079   -3.6734861 -0.0042193943   -4.7398079    1.0663218      1024000 
  206000   0.71137283   -4.7415011   -4.7415011    -3.674444 -0.0073568745   -4.7415011    1.0670571      1024000 
  207000   0.71024819   -4.7399063   -4.7399063   -3.6745362 0.0013725741   -4.7399063    1.0653701      1024000 
  208000    0.7100791   -4.7404934   -4.7404934   -3.6753769 -0.0030239561   -4.7404934    1.0651165      1024000 
  209000   0.71042841   -4.7419845   -4.7419845    -3.676344 0.0012798162   -4.7419845    1.0656404      1024000 
  210000   0.71140168   -4.7439279   -4.7439279   -3.6768276 -0.0016104015   -4.7439279    1.0671004      1024000 
  211000    0.7117417   -4.7445897   -4.7445897   -3.6769793 0.0062965505   -4.7445897    1.0676104      1024000 
  212000   0.71227036   -4.7464991   -4.7464991   -3.6780958 0.0022313146   -4.7464991    1.0684034      1024000 
  213000   0.71273631   -4.7474409   -4.7474409   -3.6783386 0.0078415637   -4.7474409    1.0691023      1024000 
  214000   0.71231645   -4.7481807   -4.7481807   -3.6797082  0.010763722   -4.7481807    1.0684725      1024000 
  215000   0.71228302   -4.7492101   -4.7492101   -3.6807878 0.0021589612   -4.7492101    1.0684224      1024000 
  216000   0.71155645   -4.7487629   -4.7487629   -3.6814304  0.002206167   -4.7487629    1.0673325      1024000 
  217000     0.711042   -4.7480188   -4.7480188   -3.6814579 0.00069890722   -4.7480188    1.0665608      1024000 
  218000   0.71203996   -4.7506702   -4.7506702   -3.6826124 -0.00070110942   -4.7506702    1.0680578      1024000 
  219000   0.71184431    -4.750874    -4.750874   -3.6831097 0.0035024688    -4.750874    1.0677643      1024000 
  220000   0.71178094   -4.7512874   -4.7512874   -3.6836182 0.0021184487   -4.7512874    1.0676692      1024000 
  221000   0.71182072   -4.7525787   -4.7525787   -3.6848497 0.0069908745   -4.7525787    1.0677289      1024000 
  222000   0.71269321   -4.7539972   -4.7539972   -3.6849596  0.012490237   -4.7539972    1.0690376      1024000 
  223000    0.7118897   -4.7527872   -4.7527872   -3.6849549  0.010243253   -4.7527872    1.0678324      1024000 
  224000   0.71355942   -4.7557694   -4.7557694   -3.6854324 0.0086394066   -4.7557694     1.070337      1024000 
  225000   0.71402972   -4.7576209   -4.7576209   -3.6865785 0.0044017482   -4.7576209    1.0710424      1024000 
  226000   0.71284477   -4.7568577   -4.7568577   -3.6875927  0.007328679   -4.7568577     1.069265      1024000 
  227000   0.71386023   -4.7596494   -4.7596494   -3.6888612 0.0032783267   -4.7596494    1.0707882      1024000 
  228000   0.71330824   -4.7587949   -4.7587949   -3.6888348  0.008642925   -4.7587949    1.0699602      1024000 
  229000   0.71375903   -4.7595914   -4.7595914    -3.688955  0.013964844   -4.7595914    1.0706364      1024000 
  230000   0.71467646   -4.7607168   -4.7607168   -3.6887043  0.015856759   -4.7607168    1.0720125      1024000 
  231000   0.71526346   -4.7624606   -4.7624606   -3.6895676  0.016157639   -4.7624606     1.072893      1024000 
  232000   0.71544587   -4.7635749   -4.7635749   -3.6904082  0.013633622   -4.7635749    1.0731666      1024000 
  233000   0.71451728   -4.7630185   -4.7630185   -3.6912447   0.01709935   -4.7630185    1.0717737      1024000 
  234000   0.71605788   -4.7659527   -4.7659527   -3.6918681  0.014516177   -4.7659527    1.0740846      1024000 
  235000   0.71558612    -4.765905    -4.765905    -3.692528  0.018143522    -4.765905     1.073377      1024000 
  236000   0.71708884   -4.7683126   -4.7683126   -3.6926815  0.019725344   -4.7683126    1.0756311      1024000 
  237000   0.71835796   -4.7710235   -4.7710235   -3.6934888  0.030090785   -4.7710235    1.0775348      1024000 
  238000   0.71906992   -4.7731722   -4.7731722   -3.6945695  0.038088196   -4.7731722    1.0786027      1024000 
  239000   0.72037024   -4.7754903   -4.7754903   -3.6949371  0.043811194   -4.7754903    1.0805532      1024000 
  240000   0.72128775   -4.7774131   -4.7774131   -3.6954837  0.051338882   -4.7774131    1.0819294      1024000 
  241000   0.72054608   -4.7771073   -4.7771073   -3.6962904  0.059543885   -4.7771073    1.0808169      1024000 
  242000   0.72149739   -4.7797509   -4.7797509    -3.697507  0.064580244   -4.7797509    1.0822439      1024000 
  243000   0.72233113   -4.7822503   -4.7822503   -3.6987558  0.066341222   -4.7822503    1.0834945      1024000 
  244000   0.72331654   -4.7848369   -4.7848369   -3.6998643  0.069940507   -4.7848369    1.0849726      1024000 
  245000   0.72403856   -4.7883343   -4.7883343   -3.7022787    0.0761767   -4.7883343    1.0860556      1024000 
  246000   0.72602489   -4.7924794   -4.7924794   -3.7034443  0.083216157   -4.7924794    1.0890351      1024000 
  247000   0.72609894   -4.7935798   -4.7935798   -3.7044336  0.093489559   -4.7935798    1.0891462      1024000 
  248000   0.72551057   -4.7949039   -4.7949039   -3.7066403  0.097936938   -4.7949039    1.0882636      1024000 
  249000   0.72518292   -4.7964715   -4.7964715   -3.7086993  0.089673286   -4.7964715    1.0877722      1024000 
  250000   0.72379101   -4.7950583   -4.7950583    -3.709374  0.084978165   -4.7950583    1.0856843      1024000 
  251000   0.72144466   -4.7926768   -4.7926768    -3.710512  0.077130903   -4.7926768    1.0821648      1024000 
  252000   0.72063379   -4.7923584   -4.7923584   -3.7114099  0.061764633   -4.7923584    1.0809485      1024000 
  253000   0.71819717   -4.7897804   -4.7897804   -3.7124868  0.049572123   -4.7897804    1.0772936      1024000 
  254000    0.7166217   -4.7878277   -4.7878277   -3.7128974  0.039074831   -4.7878277    1.0749304      1024000 
  255000   0.71394174   -4.7839703   -4.7839703   -3.7130599  0.025568326   -4.7839703    1.0709104      1024000 
  256000   0.71247516   -4.7812689   -4.7812689   -3.7125583 0.0093593752   -4.7812689    1.0687106      1024000 
  257000   0.71044636   -4.7772519   -4.7772519   -3.7115845 -0.0054853835   -4.7772519    1.0656674      1024000 
  258000   0.70811879   -4.7729993   -4.7729993   -3.7108233 -0.014874975   -4.7729993     1.062176      1024000 
  259000    0.7055052   -4.7677371   -4.7677371   -3.7094814 -0.016655825   -4.7677371    1.0582557      1024000 
  260000   0.70492052   -4.7661056   -4.7661056    -3.708727 -0.034095089   -4.7661056    1.0573786      1024000 
  261000   0.70358816   -4.7627943   -4.7627943   -3.7074142 -0.035972131   -4.7627943    1.0553801      1024000 
  262000   0.70338162   -4.7619705   -4.7619705   -3.7069002 -0.043478574   -4.7619705    1.0550703      1024000 
  263000   0.70280487   -4.7603463   -4.7603463   -3.7061411 -0.048931205   -4.7603463    1.0542052      1024000 
  264000   0.70294189   -4.7593537   -4.7593537    -3.704943   -0.0448919   -4.7593537    1.0544107      1024000 
  265000   0.70269311   -4.7583549   -4.7583549   -3.7043174 -0.043640722   -4.7583549    1.0540375      1024000 
  266000   0.70336358   -4.7591076   -4.7591076   -3.7040644 -0.043198397   -4.7591076    1.0550432      1024000 
  267000   0.70552437    -4.761514    -4.761514   -3.7032296 -0.035412851    -4.761514    1.0582844      1024000 
  268000   0.70703436    -4.762932    -4.762932   -3.7023826 -0.025948694    -4.762932    1.0605494      1024000 
  269000   0.70738792   -4.7629715   -4.7629715   -3.7018918 -0.018216603   -4.7629715    1.0610797      1024000 
  270000   0.70851587   -4.7645915   -4.7645915   -3.7018199 -0.010922972   -4.7645915    1.0627716      1024000 
  271000   0.70955104   -4.7671387   -4.7671387   -3.7028143 -0.0010950871   -4.7671387    1.0643244      1024000 
  272000   0.71317575   -4.7719469   -4.7719469   -3.7021854 0.0059640157   -4.7719469    1.0697614      1024000 
  273000   0.71528355   -4.7752438   -4.7752438   -3.7023207  0.019321484   -4.7752438    1.0729232      1024000 
  274000   0.71553347   -4.7770631   -4.7770631    -3.703765  0.028086523   -4.7770631     1.073298      1024000 
  275000   0.71602335   -4.7785915   -4.7785915   -3.7045586  0.035203491   -4.7785915    1.0740328      1024000 
  276000   0.71770209   -4.7820354   -4.7820354   -3.7054844  0.038685877   -4.7820354    1.0765509      1024000 
  277000   0.71768032   -4.7832032   -4.7832032   -3.7066849  0.047847414   -4.7832032    1.0765183      1024000 
  278000   0.71882347   -4.7858448   -4.7858448   -3.7076118  0.049716585   -4.7858448     1.078233      1024000 
  279000   0.71806551   -4.7867969   -4.7867969   -3.7097008   0.05090601   -4.7867969    1.0770961      1024000 
  280000   0.71764202   -4.7869979   -4.7869979    -3.710537  0.055093782   -4.7869979    1.0764609      1024000 
  281000   0.71795431   -4.7884986   -4.7884986   -3.7115693  0.050388001   -4.7884986    1.0769293      1024000 
  282000   0.71704143   -4.7879459   -4.7879459   -3.7123859  0.049237766   -4.7879459      1.07556      1024000 
  283000   0.71592692    -4.787524    -4.787524   -3.7136358  0.043927821    -4.787524    1.0738882      1024000 
  284000   0.71528473   -4.7871742   -4.7871742   -3.7142493  0.036753191   -4.7871742    1.0729249      1024000 
  285000   0.71352951   -4.7847071   -4.7847071    -3.714415  0.034147243   -4.7847071    1.0702921      1024000 
  286000   0.71129313   -4.7821112   -4.7821112   -3.7151737  0.031325991   -4.7821112    1.0669375      1024000 
  287000   0.71133748   -4.7819192   -4.7819192   -3.7149152  0.018165223   -4.7819192    1.0670041      1024000 
  288000    0.7097674   -4.7792416   -4.7792416   -3.7145927  0.018438177   -4.7792416    1.0646489      1024000 
  289000   0.70993583    -4.778014    -4.778014   -3.7131124 0.0038192091    -4.778014    1.0649016      1024000 
  290000   0.70796512   -4.7744273   -4.7744273   -3.7124818 0.0046525872   -4.7744273    1.0619455      1024000 
  291000   0.70707215   -4.7726254   -4.7726254   -3.7120193 -4.3841599e-07   -4.7726254    1.0606061      1024000 
  292000   0.70775247   -4.7737004   -4.7737004   -3.7120738 -0.0097093482   -4.7737004    1.0616266      1024000 
  293000   0.70598428   -4.7700409   -4.7700409   -3.7110666 -0.011430008   -4.7700409    1.0589743      1024000 
  294000     0.706133   -4.7697646   -4.7697646   -3.7105673 -0.013098593   -4.7697646    1.0591973      1024000 
  295000   0.70579175   -4.7683247   -4.7683247   -3.7096392 -0.017574561   -4.7683247    1.0586855      1024000 
  296000   0.70696291   -4.7691454   -4.7691454   -3.7087032  -0.01917729   -4.7691454    1.0604422      1024000 
  297000   0.70596365   -4.7661481   -4.7661481   -3.7072048 -0.011371025   -4.7661481    1.0589433      1024000 
  298000   0.70711224   -4.7671701   -4.7671701   -3.7065039 -0.013662806   -4.7671701    1.0606662      1024000 
  299000    0.7076592   -4.7670415   -4.7670415   -3.7055549 -0.011106959   -4.7670415    1.0614866      1024000 
  300000   0.70754312   -4.7666347   -4.7666347   -3.7053221 -0.0093963557   -4.7666347    1.0613125      1024000 
  301000   0.70833312   -4.7682423   -4.7682423   -3.7057448 -0.0023251857   -4.7682423    1.0624975      1024000 
  302000   0.70950007   -4.7699087   -4.7699087   -3.7056608 0.0042964207   -4.7699087    1.0642479      1024000 
  303000   0.71048835   -4.7715579   -4.7715579   -3.7058275 0.0041089377   -4.7715579    1.0657304      1024000 
  304000   0.70990349   -4.7709384   -4.7709384   -3.7060853  0.013215329   -4.7709384    1.0648531      1024000 
  305000   0.71085205   -4.7729816   -4.7729816   -3.7067057  0.016897698   -4.7729816    1.0662759      1024000 
  306000   0.71283132   -4.7756936   -4.7756936   -3.7064488  0.017933768   -4.7756936    1.0692448      1024000 
  307000   0.71327273   -4.7761516   -4.7761516   -3.7062447  0.021053215   -4.7761516    1.0699069      1024000 
  308000    0.7127344   -4.7756913   -4.7756913   -3.7065919  0.024519955   -4.7756913    1.0690994      1024000 
  309000   0.71249355   -4.7755733   -4.7755733   -3.7068351  0.034164982   -4.7755733    1.0687382      1024000 
  310000   0.71309924   -4.7776209   -4.7776209   -3.7079742  0.031295743   -4.7776209    1.0696467      1024000 
  311000    0.7133937   -4.7789011   -4.7789011   -3.7088128  0.026626496   -4.7789011    1.0700884      1024000 
  312000   0.71274905    -4.778041    -4.778041   -3.7089196  0.032529048    -4.778041    1.0691214      1024000 
  313000   0.71372515   -4.7796616   -4.7796616    -3.709076  0.027217289   -4.7796616    1.0705856      1024000 
  314000   0.71281824     -4.77792     -4.77792   -3.7086948  0.030774368     -4.77792    1.0692252      1024000 
  315000   0.71216628   -4.7773051   -4.7773051   -3.7090579  0.032249163   -4.7773051    1.0682472      1024000 
  316000   0.71303168   -4.7780934   -4.7780934   -3.7085481  0.022132258   -4.7780934    1.0695453      1024000 
  317000   0.71051775   -4.7748859   -4.7748859   -3.7091114  0.024850884   -4.7748859    1.0657745      1024000 
  318000   0.71092538   -4.7753994   -4.7753994   -3.7090135  0.019956399   -4.7753994    1.0663859      1024000 
  319000   0.70961669   -4.7732768   -4.7732768   -3.7088539   0.01921266   -4.7732768    1.0644229      1024000 
  320000   0.71055844   -4.7741051   -4.7741051   -3.7082696  0.018701205   -4.7741051    1.0658355      1024000 
  321000   0.70907731   -4.7708775   -4.7708775   -3.7072637   0.01481111   -4.7708775    1.0636138      1024000 
  322000   0.70931317    -4.770798    -4.770798   -3.7068304 0.0093705952    -4.770798    1.0639676      1024000 
  323000    0.7080438    -4.768576    -4.768576   -3.7065124  0.010420504    -4.768576    1.0620635      1024000 
  324000   0.70752324   -4.7678262   -4.7678262   -3.7065435 0.0016619361   -4.7678262    1.0612827      1024000 
  325000   0.70672262    -4.766432    -4.766432   -3.7063502 0.0018202971    -4.766432    1.0600818      1024000 
  326000   0.70765793   -4.7665727   -4.7665727   -3.7050879 -0.0045748155   -4.7665727    1.0614847      1024000 
  327000   0.70714421   -4.7645805   -4.7645805   -3.7038663 -0.0020711311   -4.7645805    1.0607142      1024000 
  328000    0.7073438   -4.7638194   -4.7638194   -3.7028058 -0.0023131369   -4.7638194    1.0610136      1024000 
  329000   0.70811933    -4.765134    -4.765134   -3.7029571 -0.0039777433    -4.765134    1.0621768      1024000 
  330000   0.70857982   -4.7646535   -4.7646535    -3.701786  -0.00730529   -4.7646535    1.0628676      1024000 
  331000   0.70927031   -4.7649234   -4.7649234   -3.7010201 -0.0039401731   -4.7649234    1.0639033      1024000 
  332000   0.70906055   -4.7645411   -4.7645411   -3.7009524 -0.0029791244   -4.7645411    1.0635887      1024000 
  333000   0.70926893   -4.7640978   -4.7640978   -3.7001966 0.0034016388   -4.7640978    1.0639012      1024000 
  334000   0.70964536   -4.7640202   -4.7640202   -3.6995543 0.0091927447   -4.7640202    1.0644659      1024000 
  335000   0.70933406   -4.7629231   -4.7629231   -3.6989242  0.011167365   -4.7629231    1.0639989      1024000 
  336000   0.71108047   -4.7650104   -4.7650104   -3.6983919 0.0065925756   -4.7650104    1.0666185      1024000 
  337000   0.71038635   -4.7641934   -4.7641934   -3.6986161  0.011862909   -4.7641934    1.0655774      1024000 
  338000    0.7103196   -4.7642549   -4.7642549   -3.6987777  0.015498054   -4.7642549    1.0654772      1024000 
  339000   0.71136613    -4.765792    -4.765792    -3.698745  0.014964598    -4.765792     1.067047      1024000 
  340000   0.71086658   -4.7649225   -4.7649225   -3.6986248  0.015238498   -4.7649225    1.0662977      1024000 
  341000   0.71067234    -4.764721    -4.764721   -3.6987147  0.022369078    -4.764721    1.0660063      1024000 
  342000   0.71176971   -4.7667005   -4.7667005   -3.6990481  0.018911333   -4.7667005    1.0676524      1024000 
  343000   0.71186394   -4.7671142   -4.7671142   -3.6993204  0.018131265   -4.7671142    1.0677937      1024000 
  344000   0.71098173     -4.76588     -4.76588   -3.6994096  0.022954696     -4.76588    1.0664704      1024000 
  345000   0.71104997   -4.7661791   -4.7661791   -3.6996063  0.021893993   -4.7661791    1.0665728      1024000 
  346000   0.71104219     -4.76666     -4.76666   -3.7000989  0.018562402     -4.76666    1.0665611      1024000 
  347000   0.71157955   -4.7672889   -4.7672889   -3.6999218    0.0184342   -4.7672889    1.0673672      1024000 
  348000   0.71207697   -4.7668755   -4.7668755   -3.6987622  0.018488755   -4.7668755    1.0681133      1024000 
  349000   0.70985125   -4.7631745   -4.7631745   -3.6983998  0.023464642   -4.7631745    1.0647747      1024000 
  350000   0.70978656   -4.7627311   -4.7627311   -3.6980534  0.022705497   -4.7627311    1.0646777      1024000 
  351000   0.70997652   -4.7626252   -4.7626252   -3.6976626  0.024545787   -4.7626252    1.0649626      1024000 
  352000   0.71062322   -4.7633155   -4.7633155   -3.6973828  0.017685151   -4.7633155    1.0659327      1024000 
  353000   0.71106331   -4.7636233   -4.7636233   -3.6970305  0.014368134   -4.7636233    1.0665928      1024000 
  354000   0.71137236   -4.7643557   -4.7643557   -3.6972994  0.012548189   -4.7643557    1.0670564      1024000 
  355000   0.71081523   -4.7626582   -4.7626582   -3.6964375  0.016825927   -4.7626582    1.0662207      1024000 
  356000   0.71036308   -4.7616062   -4.7616062   -3.6960638  0.012219909   -4.7616062    1.0655425      1024000 
  357000   0.71029955   -4.7611824   -4.7611824   -3.6957353 0.0079000906   -4.7611824    1.0654472      1024000 
  358000   0.70971352   -4.7590189   -4.7590189   -3.6944508  0.010515393   -4.7590189    1.0645681      1024000 
  359000     0.709988   -4.7595419   -4.7595419    -3.694562 0.0085180049   -4.7595419    1.0649798      1024000 
  360000   0.70929526   -4.7581751   -4.7581751   -3.6942344 0.0091523559   -4.7581751    1.0639407      1024000 
  361000   0.71010815   -4.7587722   -4.7587722   -3.6936121 0.0066527975   -4.7587722    1.0651601      1024000 
  362000   0.70909812   -4.7566993   -4.7566993   -3.6930543 0.0062179178   -4.7566993     1.063645      1024000 
  363000   0.70985481   -4.7576218   -4.7576218   -3.6928417 0.0032588162   -4.7576218      1.06478      1024000 
  364000   0.71014155   -4.7563959   -4.7563959   -3.6911857 0.0095191872   -4.7563959    1.0652102      1024000 
  365000   0.71015596   -4.7561242   -4.7561242   -3.6908924 0.0097497904   -4.7561242    1.0652318      1024000 
  366000   0.71102481   -4.7569183   -4.7569183   -3.6903833 0.0071530486   -4.7569183     1.066535      1024000 
  367000   0.71014659    -4.755215    -4.755215   -3.6899972 0.0098312235    -4.755215    1.0652177      1024000 
  368000   0.71025018   -4.7559885   -4.7559885   -3.6906154 0.0091658077   -4.7559885    1.0653731      1024000 
  369000   0.71025021   -4.7555016   -4.7555016   -3.6901285 0.0090584476   -4.7555016    1.0653732      1024000 
  370000   0.71017555   -4.7560967   -4.7560967   -3.6908356 0.0061061481   -4.7560967    1.0652612      1024000 
  371000   0.70996763   -4.7555466   -4.7555466   -3.6905973 0.0089425031   -4.7555466    1.0649493      1024000 
  372000    0.7102125   -4.7558777   -4.7558777   -3.6905612 0.0073185548   -4.7558777    1.0653166      1024000 
  373000   0.70993151   -4.7553039   -4.7553039   -3.6904088 0.0098207557   -4.7553039    1.0648951      1024000 
  374000   0.71035113   -4.7565842   -4.7565842   -3.6910597 0.0093376341   -4.7565842    1.0655245      1024000 
  375000   0.71080525   -4.7563106   -4.7563106   -3.6901049 0.0072076215   -4.7563106    1.0662057      1024000 
  376000    0.7107618   -4.7564093   -4.7564093   -3.6902687  0.011640084   -4.7564093    1.0661405      1024000 
  377000   0.71091852   -4.7566282   -4.7566282   -3.6902526 0.0082032246   -4.7566282    1.0663756      1024000 
  378000   0.71213322     -4.75913     -4.75913   -3.6909323 0.0097494975     -4.75913    1.0681977      1024000 
  379000   0.71253708   -4.7593161   -4.7593161   -3.6905126   0.01717877   -4.7593161    1.0688035      1024000 
  380000    0.7120792   -4.7595097   -4.7595097    -3.691393  0.018069192   -4.7595097    1.0681166      1024000 
  381000   0.71276775   -4.7599233   -4.7599233   -3.6907738  0.013185224   -4.7599233    1.0691495      1024000 
  382000    0.7110759   -4.7570197   -4.7570197    -3.690408  0.021392574   -4.7570197    1.0666117      1024000 
  383000     0.712157   -4.7581412   -4.7581412   -3.6899079   0.01861428   -4.7581412    1.0682333      1024000 
  384000   0.71267692   -4.7593613   -4.7593613   -3.6903481  0.016421998   -4.7593613    1.0690132      1024000 
  385000   0.71145284   -4.7576644   -4.7576644   -3.6904873  0.020955094   -4.7576644    1.0671771      1024000 
  386000   0.71126722   -4.7570782   -4.7570782   -3.6901795  0.017703942   -4.7570782    1.0668987      1024000 
  387000   0.71118292   -4.7569727   -4.7569727   -3.6902005  0.022166332   -4.7569727    1.0667722      1024000 
  388000   0.71150352      -4.7573      -4.7573   -3.6900469  0.018947836      -4.7573    1.0672531      1024000 
  389000   0.71200199   -4.7590847   -4.7590847   -3.6910838  0.015774173   -4.7590847    1.0680008      1024000 
  390000   0.71130792   -4.7574241   -4.7574241   -3.6904644   0.02021795   -4.7574241    1.0669597      1024000 
  391000   0.71296445   -4.7592218   -4.7592218   -3.6897773  0.015191962   -4.7592218    1.0694445      1024000 
  392000   0.71187095   -4.7573941   -4.7573941   -3.6895899  0.011838049   -4.7573941    1.0678043      1024000 
  393000   0.71141511   -4.7564756   -4.7564756   -3.6893551  0.015882428   -4.7564756    1.0671205      1024000 
  394000   0.71200019   -4.7571456   -4.7571456   -3.6891475  0.010139636   -4.7571456    1.0679981      1024000 
  395000   0.71050087   -4.7553696   -4.7553696   -3.6896205  0.013325281   -4.7553696    1.0657491      1024000 
  396000   0.71179891   -4.7570705   -4.7570705   -3.6893743 0.0070630286   -4.7570705    1.0676962      1024000 
  397000   0.71133832   -4.7558935   -4.7558935   -3.6888882 0.0050518881   -4.7558935    1.0670053      1024000 
  398000   0.70968128   -4.7539799   -4.7539799   -3.6894601 0.0083354178   -4.7539799    1.0645198      1024000 
  399000    0.7105421    -4.754406    -4.754406    -3.688595 0.0083484723    -4.754406     1.065811      1024000 
  400000    0.7110716   -4.7539764   -4.7539764   -3.6873712 0.0077044294   -4.7539764    1.0666052      1024000 
  401000   0.71099121   -4.7539881   -4.7539881   -3.6875034 0.0073951149   -4.7539881    1.0664847      1024000 
  402000    0.7112638    -4.753872    -4.753872   -3.6869785  0.011496403    -4.753872    1.0668935      1024000 
  403000   0.71160937   -4.7548247   -4.7548247   -3.6874128  0.011199124   -4.7548247    1.0674119      1024000 
  404000   0.71074796   -4.7529344   -4.7529344   -3.6868146    0.0131036   -4.7529344    1.0661198      1024000 
  405000   0.71151183    -4.754048    -4.754048   -3.6867824 0.0086648452    -4.754048    1.0672656      1024000 
  406000   0.71130253     -4.75347     -4.75347   -3.6865184  0.011130486     -4.75347    1.0669516      1024000 
  407000    0.7127339    -4.754554    -4.754554   -3.6854553  0.010290096    -4.754554    1.0690987      1024000 
  408000   0.71254788   -4.7538473   -4.7538473   -3.6850277 0.0099075791   -4.7538473    1.0688196      1024000 
  409000    0.7126825   -4.7531102   -4.7531102   -3.6840886  0.015399102   -4.7531102    1.0690216      1024000 
  410000   0.71330609   -4.7540448   -4.7540448   -3.6840879   0.01535757   -4.7540448     1.069957      1024000 
  411000   0.71310437   -4.7532625   -4.7532625   -3.6836081  0.013335387   -4.7532625    1.0696544      1024000 
  412000   0.71329185   -4.7529689   -4.7529689   -3.6830333  0.016259586   -4.7529689    1.0699356      1024000 
  413000   0.71306311   -4.7529464   -4.7529464   -3.6833539  0.014803774   -4.7529464    1.0695925      1024000 
  414000   0.71270676   -4.7519732   -4.7519732   -3.6829153  0.014510829   -4.7519732     1.069058      1024000 
  415000   0.71384268   -4.7525575   -4.7525575   -3.6817956  0.014804608   -4.7525575    1.0707619      1024000 
  416000   0.71268352   -4.7511134   -4.7511134   -3.6820902  0.018560557   -4.7511134    1.0690231      1024000 
  417000   0.71343024   -4.7520013   -4.7520013   -3.6818581    0.0143833   -4.7520013    1.0701432      1024000 
  418000   0.71489772   -4.7534197   -4.7534197   -3.6810753  0.012559951   -4.7534197    1.0723444      1024000 
  419000   0.71333967   -4.7510958   -4.7510958   -3.6810885  0.012717845   -4.7510958    1.0700073      1024000 
  420000    0.7133564      -4.7503      -4.7503   -3.6802675   0.01470171      -4.7503    1.0700324      1024000 
  421000   0.71260522   -4.7483368   -4.7483368   -3.6794312  0.018564078   -4.7483368    1.0689057      1024000 
  422000   0.71381288   -4.7497203   -4.7497203   -3.6790031  0.013418302   -4.7497203    1.0707171      1024000 
  423000   0.71422852   -4.7498671   -4.7498671   -3.6785265  0.012747274   -4.7498671    1.0713406      1024000 
  424000   0.71328642   -4.7492172   -4.7492172   -3.6792897 0.0073463648   -4.7492172    1.0699275      1024000 
  425000    0.7124128   -4.7480148   -4.7480148   -3.6793978   0.01249449   -4.7480148     1.068617      1024000 
  426000   0.71345006   -4.7487012   -4.7487012   -3.6785282 0.0089651728   -4.7487012    1.0701729      1024000 
  427000   0.71324489   -4.7491347   -4.7491347   -3.6792695 0.0054618822   -4.7491347    1.0698652      1024000 
  428000   0.71256133   -4.7473747   -4.7473747   -3.6785348 0.0052217504   -4.7473747    1.0688398      1024000 
  429000   0.71267155   -4.7465692   -4.7465692   -3.6775641 0.0080164786   -4.7465692    1.0690052      1024000 
  430000   0.71408545   -4.7481051   -4.7481051   -3.6769791 0.0063502734   -4.7481051     1.071126      1024000 
  431000   0.71266749   -4.7462112   -4.7462112   -3.6772122  0.006135619   -4.7462112    1.0689991      1024000 
  432000   0.71326168   -4.7467533   -4.7467533   -3.6768629 0.0062469648   -4.7467533    1.0698904      1024000 
  433000   0.71237368   -4.7444046   -4.7444046   -3.6758463  0.010119699   -4.7444046    1.0685584      1024000 
  434000   0.71365233   -4.7465847   -4.7465847   -3.6761083 0.0079143121   -4.7465847    1.0704763      1024000 
  435000   0.71374933   -4.7472439   -4.7472439   -3.6766221 0.0063968339   -4.7472439    1.0706218      1024000 
  436000   0.71411215   -4.7467965   -4.7467965   -3.6756304 0.0093156699   -4.7467965    1.0711661      1024000 
  437000   0.71528706   -4.7483979   -4.7483979   -3.6754695 0.0045161982   -4.7483979    1.0729284      1024000 
  438000   0.71449691   -4.7467031   -4.7467031   -3.6749599  0.011188541   -4.7467031    1.0717432      1024000 
  439000   0.71430623   -4.7468513   -4.7468513   -3.6753941  0.007891409   -4.7468513    1.0714572      1024000 
  440000   0.71433798    -4.747028    -4.747028   -3.6755232   0.01053476    -4.747028    1.0715048      1024000 
  441000   0.71397371   -4.7455154   -4.7455154    -3.674557   0.01196819   -4.7455154    1.0709584      1024000 
  442000   0.71445834   -4.7454521   -4.7454521   -3.6737667   0.01582135   -4.7454521    1.0716853      1024000 
  443000   0.71575716   -4.7473713   -4.7473713   -3.6737378  0.012122319   -4.7473713    1.0736336      1024000 
  444000   0.71487987   -4.7457983   -4.7457983   -3.6734806  0.015174854   -4.7457983    1.0723176      1024000 
  445000   0.71500386    -4.745798    -4.745798   -3.6732944  0.015367749    -4.745798    1.0725036      1024000 
  446000   0.71439531    -4.744465    -4.744465   -3.6728742  0.017505186    -4.744465    1.0715908      1024000 
  447000   0.71490589   -4.7445847   -4.7445847    -3.672228  0.015345765   -4.7445847    1.0723567      1024000 
  448000   0.71506763   -4.7449828   -4.7449828   -3.6723836  0.015897614   -4.7449828    1.0725993      1024000 
  449000     0.714609    -4.743709    -4.743709   -3.6717977  0.021307149    -4.743709    1.0719113      1024000 
  450000     0.715037   -4.7434074   -4.7434074    -3.670854  0.017438127   -4.7434074    1.0725533      1024000 
  451000    0.7162871   -4.7454487   -4.7454487   -3.6710203 0.0090916568   -4.7454487    1.0744285      1024000 
  452000   0.71583715   -4.7436081   -4.7436081   -3.6698546  0.014772379   -4.7436081    1.0737536      1024000 
  453000   0.71592987   -4.7431049   -4.7431049   -3.6692123  0.013339663   -4.7431049    1.0738926      1024000 
  454000   0.71457338    -4.741345    -4.741345   -3.6694871  0.016662482    -4.741345    1.0718579      1024000 
  455000   0.71629782   -4.7428324   -4.7428324   -3.6683879  0.011984402   -4.7428324    1.0744446      1024000 
  456000    0.7156561   -4.7409951   -4.7409951   -3.6675131  0.013211492   -4.7409951     1.073482      1024000 
  457000   0.71481016   -4.7395119   -4.7395119   -3.6672988  0.015501297   -4.7395119    1.0722131      1024000 
  458000   0.71709018   -4.7420564   -4.7420564   -3.6664233  0.012043188   -4.7420564    1.0756331      1024000 
  459000   0.71658714    -4.741832    -4.741832   -3.6669535  0.013305371    -4.741832    1.0748785      1024000 
  460000    0.7154446   -4.7386456   -4.7386456   -3.6654809  0.014701605   -4.7386456    1.0731647      1024000 
  461000   0.71496108    -4.738434    -4.738434   -3.6659946  0.010707241    -4.738434    1.0724394      1024000 
  462000   0.71523762   -4.7374799   -4.7374799   -3.6646257  0.009883085   -4.7374799    1.0728542      1024000 
  463000    0.7156299   -4.7381445   -4.7381445   -3.6647019 0.0095758091   -4.7381445    1.0734427      1024000 
  464000   0.71492651   -4.7379657   -4.7379657   -3.6655781 0.0045196471   -4.7379657    1.0723876      1024000 
  465000   0.71410007   -4.7369246   -4.7369246   -3.6657766 0.0069267088   -4.7369246    1.0711479      1024000 
  466000   0.71421873   -4.7363439   -4.7363439    -3.665018  0.008829602   -4.7363439    1.0713259      1024000 
  467000   0.71523821   -4.7376213   -4.7376213   -3.6647661 0.0047454822   -4.7376213    1.0728551      1024000 
  468000   0.71517405   -4.7371666   -4.7371666   -3.6644077  0.006068392   -4.7371666    1.0727589      1024000 
  469000   0.71575016   -4.7378045   -4.7378045   -3.6641815   0.00993042   -4.7378045    1.0736231      1024000 
  470000   0.71624753   -4.7377792   -4.7377792   -3.6634101 0.0087989289   -4.7377792    1.0743691      1024000 
  471000   0.71685741   -4.7383176   -4.7383176   -3.6630337 0.0064670071   -4.7383176    1.0752839      1024000 
  472000   0.71641472   -4.7375982   -4.7375982   -3.6629783 0.0058680769   -4.7375982    1.0746199      1024000 
  473000   0.71616118   -4.7373845   -4.7373845   -3.6631449  0.011434945   -4.7373845    1.0742396      1024000 
  474000   0.71625514   -4.7365256   -4.7365256   -3.6621451  0.016806459   -4.7365256    1.0743805      1024000 
  475000   0.71777193   -4.7377736   -4.7377736   -3.6611179  0.010963809   -4.7377736    1.0766557      1024000 
  476000   0.71732306   -4.7370707   -4.7370707   -3.6610883   0.01151381   -4.7370707    1.0759824      1024000 
  477000   0.71760173   -4.7372735   -4.7372735    -3.660873  0.013598482   -4.7372735    1.0764004      1024000 
  478000   0.71695304   -4.7354782   -4.7354782   -3.6600508  0.018530565   -4.7354782    1.0754274      1024000 
  479000   0.71743506   -4.7360644   -4.7360644    -3.659914   0.01506564   -4.7360644    1.0761504      1024000 
  480000   0.71797933   -4.7355321   -4.7355321   -3.6585653  0.021955184   -4.7355321    1.0769668      1024000 
  481000   0.71842068   -4.7363243   -4.7363243   -3.6586955  0.016186968   -4.7363243    1.0776288      1024000 
  482000   0.71850392    -4.736516    -4.736516   -3.6587623  0.013748513    -4.736516    1.0777537      1024000 
  483000   0.71783466   -4.7350515   -4.7350515   -3.6583016  0.013890455   -4.7350515    1.0767498      1024000 
  484000    0.7174085   -4.7342672   -4.7342672   -3.6581566  0.015369154   -4.7342672    1.0761106      1024000 
  485000   0.71805903   -4.7346736   -4.7346736   -3.6575873  0.014462739   -4.7346736    1.0770864      1024000 
  486000   0.71800935   -4.7336713   -4.7336713   -3.6566595  0.016679666   -4.7336713    1.0770118      1024000 
  487000   0.71837712   -4.7345273   -4.7345273   -3.6569638  0.011347495   -4.7345273    1.0775635      1024000 
  488000   0.71895449   -4.7343413   -4.7343413   -3.6559118   0.01006866   -4.7343413    1.0784296      1024000 
  489000   0.71892728   -4.7338415   -4.7338415   -3.6554528  0.011245493   -4.7338415    1.0783887      1024000 
  490000   0.71899936   -4.7334683   -4.7334683   -3.6549714 0.0093008916   -4.7334683    1.0784969      1024000 
  491000   0.71817989   -4.7326859   -4.7326859   -3.6554182   0.01304708   -4.7326859    1.0772677      1024000 
  492000   0.71826718   -4.7316853   -4.7316853   -3.6542867 0.0097648862   -4.7316853    1.0773986      1024000 
  493000   0.71884204   -4.7311858   -4.7311858   -3.6529249  0.011124999   -4.7311858    1.0782609      1024000 
  494000   0.71793472   -4.7290741   -4.7290741   -3.6521742  0.012777892   -4.7290741    1.0768999      1024000 
  495000   0.71934442   -4.7305123   -4.7305123   -3.6514979    0.0104174   -4.7305123    1.0790144      1024000 
  496000   0.71892062   -4.7292702   -4.7292702   -3.6508915 0.0071886836   -4.7292702    1.0783787      1024000 
  497000   0.71810702   -4.7274511   -4.7274511   -3.6502927  0.013249374   -4.7274511    1.0771583      1024000 
  498000   0.71944153   -4.7282895   -4.7282895   -3.6491293  0.012201041   -4.7282895    1.0791601      1024000 
  499000   0.71935178    -4.728251    -4.728251   -3.6492255 0.0093568454    -4.728251    1.0790255      1024000 
  500000   0.71977044   -4.7281772   -4.7281772   -3.6485238 0.0087501437   -4.7281772    1.0796535      1024000 
  501000   0.71918884   -4.7271102   -4.7271102   -3.6483292  0.010756224   -4.7271102    1.0787811      1024000 
  502000    0.7205009   -4.7283831   -4.7283831   -3.6476339 0.0036563688   -4.7283831    1.0807492      1024000 
  503000   0.71914491   -4.7258054   -4.7258054   -3.6470902 0.0091256356   -4.7258054    1.0787152      1024000 
  504000   0.72057706   -4.7270274   -4.7270274    -3.646164 0.0076587229   -4.7270274    1.0808634      1024000 
  505000   0.71979227   -4.7253265   -4.7253265   -3.6456403  0.012173359   -4.7253265    1.0796862      1024000 
  506000   0.72039592   -4.7255092   -4.7255092   -3.6449175 0.0084772395   -4.7255092    1.0805917      1024000 
  507000   0.72051421   -4.7252582   -4.7252582    -3.644489 0.0056981674   -4.7252582    1.0807691      1024000 
  508000   0.72120944   -4.7263019   -4.7263019   -3.6444899 0.0042883492   -4.7263019     1.081812      1024000 
  509000    0.7193967   -4.7230427   -4.7230427   -3.6439498  0.010708907   -4.7230427    1.0790929      1024000 
  510000   0.71996863   -4.7233249   -4.7233249   -3.6433741 0.0088588758   -4.7233249    1.0799507      1024000 
  511000   0.71927931   -4.7218986   -4.7218986   -3.6429818   0.01168126   -4.7218986    1.0789168      1024000 
  512000   0.72061216   -4.7226618   -4.7226618   -3.6417457 0.0076193589   -4.7226618     1.080916      1024000 
  513000   0.72052415   -4.7224851   -4.7224851   -3.6417011  0.010997813   -4.7224851     1.080784      1024000 
  514000   0.72148674   -4.7232607   -4.7232607   -3.6410328 0.0097406242   -4.7232607    1.0822279      1024000 
  515000    0.7210221   -4.7223182   -4.7223182   -3.6407873  0.012404205   -4.7223182     1.081531      1024000 
  516000   0.72061724   -4.7220285   -4.7220285   -3.6411048 0.0091512903   -4.7220285    1.0809237      1024000 
  517000    0.7213485   -4.7222302   -4.7222302   -3.6402096  0.012815929   -4.7222302    1.0820206      1024000 
  518000     0.720957   -4.7209864   -4.7209864   -3.6395531  0.015104178   -4.7209864    1.0814333      1024000 
  519000   0.72164093   -4.7213027   -4.7213027   -3.6388435  0.018316276   -4.7213027    1.0824592      1024000 
  520000    0.7206858   -4.7208762   -4.7208762   -3.6398497  0.013471802   -4.7208762    1.0810265      1024000 
  521000   0.72126246   -4.7207252   -4.7207252   -3.6388337  0.012991884   -4.7207252    1.0818915      1024000 
  522000   0.72120489   -4.7212328   -4.7212328   -3.6394277 0.0087083816   -4.7212328    1.0818051      1024000 
  523000    0.7197155   -4.7180896   -4.7180896   -3.6385186  0.017688538   -4.7180896    1.0795711      1024000 
  524000   0.72088105   -4.7189971   -4.7189971   -3.6376777  0.014522792   -4.7189971    1.0813194      1024000 
  525000   0.72027331   -4.7176836   -4.7176836   -3.6372758  0.013352469   -4.7176836    1.0804078      1024000 
  526000   0.72143413   -4.7189756   -4.7189756   -3.6368266  0.012045038   -4.7189756     1.082149      1024000 
  527000   0.72220127    -4.719299    -4.719299   -3.6359993  0.011078038    -4.719299    1.0832997      1024000 
  528000    0.7231471   -4.7189268   -4.7189268   -3.6342084  0.011265834   -4.7189268    1.0847184      1024000 
  529000   0.72389338   -4.7193903   -4.7193903   -3.6335525  0.011386749   -4.7193903    1.0858379      1024000 
  530000   0.72374966   -4.7187698   -4.7187698   -3.6331475 0.0096395898   -4.7187698    1.0856223      1024000 
  531000   0.72327438   -4.7174441   -4.7174441   -3.6325348  0.015739087   -4.7174441    1.0849094      1024000 
  532000   0.72285132   -4.7165534   -4.7165534   -3.6322786  0.014021251   -4.7165534    1.0842748      1024000 
  533000   0.72374807   -4.7167683   -4.7167683   -3.6311484 0.0082846744   -4.7167683    1.0856199      1024000 
  534000   0.72288992   -4.7156189   -4.7156189   -3.6312863  0.011397591   -4.7156189    1.0843327      1024000 
  535000   0.72270469   -4.7145011   -4.7145011   -3.6304462  0.012410122   -4.7145011    1.0840548      1024000 
  536000   0.72280901   -4.7141061   -4.7141061   -3.6298947  0.013727533   -4.7141061    1.0842113      1024000 
  537000   0.72379937   -4.7148033   -4.7148033   -3.6291065  0.010179185   -4.7148033    1.0856969      1024000 
  538000   0.72271027   -4.7119691   -4.7119691   -3.6279059 0.0095730374   -4.7119691    1.0840632      1024000 
  539000   0.72397717   -4.7129868   -4.7129868   -3.6270232  0.010812964   -4.7129868    1.0859635      1024000 
  540000    0.7234822   -4.7118139   -4.7118139   -3.6265928  0.010719999   -4.7118139    1.0852211      1024000 
  541000   0.72368096   -4.7107637   -4.7107637   -3.6252445  0.011064357   -4.7107637    1.0855192      1024000 
  542000   0.72380566   -4.7118133   -4.7118133   -3.6261071  0.012796548   -4.7118133    1.0857063      1024000 
  543000   0.72289158   -4.7105483   -4.7105483   -3.6262131  0.011604969   -4.7105483    1.0843352      1024000 
  544000   0.72408228   -4.7115149   -4.7115149   -3.6253937  0.011321216   -4.7115149    1.0861212      1024000 
  545000   0.72465036   -4.7111216   -4.7111216   -3.6241483 0.0094652514   -4.7111216    1.0869733      1024000 
  546000   0.72361967   -4.7082953   -4.7082953    -3.622868  0.011863689   -4.7082953    1.0854273      1024000 
  547000   0.72414575   -4.7083468   -4.7083468   -3.6221304 0.0075414741   -4.7083468    1.0862164      1024000 
  548000   0.72374933   -4.7073225   -4.7073225   -3.6217007  0.010176071   -4.7073225    1.0856218      1024000 
  549000   0.72413658   -4.7071362   -4.7071362   -3.6209335 0.0090027431   -4.7071362    1.0862027      1024000 
  550000   0.72527691   -4.7083969   -4.7083969   -3.6204837 0.0073730612   -4.7083969    1.0879132      1024000 
  551000   0.72456956   -4.7065993   -4.7065993   -3.6197472  0.010763797   -4.7065993    1.0868521      1024000 
  552000   0.72483442   -4.7060446   -4.7060446   -3.6187952  0.014907427   -4.7060446    1.0872494      1024000 
  553000    0.7249239   -4.7057299   -4.7057299   -3.6183463  0.010440043   -4.7057299    1.0873836      1024000 
  554000   0.72403437   -4.7039729   -4.7039729   -3.6179236 0.0083783272   -4.7039729    1.0860493      1024000 
  555000     0.725384   -4.7058569   -4.7058569   -3.6177831 0.0094765751   -4.7058569    1.0880738      1024000 
  556000   0.72472918   -4.7045037   -4.7045037   -3.6174121 0.0098558599   -4.7045037    1.0870916      1024000 
  557000   0.72522408   -4.7042723   -4.7042723   -3.6164384  0.013136471   -4.7042723    1.0878339      1024000 
  558000   0.72653765   -4.7062186   -4.7062186   -3.6164144 0.0070604437   -4.7062186    1.0898043      1024000 
  559000   0.72643493   -4.7047467   -4.7047467   -3.6150966  0.011100265   -4.7047467    1.0896502      1024000 
  560000   0.72450856   -4.7019837   -4.7019837    -3.615223  0.014899797   -4.7019837    1.0867606      1024000 
  561000    0.7257866     -4.70342     -4.70342   -3.6147423 0.0066213024     -4.70342    1.0886777      1024000 
  562000   0.72663015   -4.7035243   -4.7035243   -3.6135812 0.0076196468   -4.7035243     1.089943      1024000 
  563000   0.72639639   -4.7023651   -4.7023651   -3.6127727 0.0092143579   -4.7023651    1.0895924      1024000 
  564000   0.72668473   -4.7030152   -4.7030152   -3.6129903   0.01313507   -4.7030152    1.0900249      1024000 
  565000    0.7264469   -4.7026392   -4.7026392   -3.6129711  0.011418751   -4.7026392    1.0896681      1024000 
  566000     0.727058   -4.7035447   -4.7035447   -3.6129599  0.011302981   -4.7035447    1.0905848      1024000 
  567000   0.72648523   -4.7018321   -4.7018321   -3.6121065  0.009761406   -4.7018321    1.0897256      1024000 
  568000   0.72644309   -4.7002221   -4.7002221   -3.6105597  0.016879691   -4.7002221    1.0896624      1024000 
  569000   0.72686582   -4.7007186   -4.7007186   -3.6104221  0.014061545   -4.7007186    1.0902965      1024000 
  570000   0.72791631   -4.7009776   -4.7009776   -3.6091054  0.012099465   -4.7009776    1.0918722      1024000 
  571000   0.72826165   -4.7007081   -4.7007081   -3.6083179 0.0096617164   -4.7007081    1.0923903      1024000 
  572000   0.72865803   -4.7006062   -4.7006062   -3.6076214 0.0088017844   -4.7006062    1.0929848      1024000 
  573000   0.72814244   -4.6986372   -4.6986372   -3.6064257  0.016216266   -4.6986372    1.0922114      1024000 
  574000   0.72928147   -4.7000767   -4.7000767   -3.6061568  0.012726286   -4.7000767      1.09392      1024000 
  575000   0.72800995   -4.6979827   -4.6979827   -3.6059699  0.011642685   -4.6979827    1.0920127      1024000 
  576000   0.72788644   -4.6971907   -4.6971907   -3.6053633  0.011416884   -4.6971907    1.0918275      1024000 
  577000   0.72861459   -4.6974089   -4.6974089   -3.6044892  0.011415387   -4.6974089    1.0929197      1024000 
  578000   0.72836835   -4.6969101   -4.6969101   -3.6043598  0.014570608   -4.6969101    1.0925503      1024000 
  579000   0.72828246    -4.696528    -4.696528   -3.6041065  0.013421813    -4.696528    1.0924215      1024000 
  580000   0.72779334   -4.6952497   -4.6952497   -3.6035619  0.011977551   -4.6952497    1.0916878      1024000 
  581000   0.72846631   -4.6953581   -4.6953581   -3.6026609  0.010522617   -4.6953581    1.0926972      1024000 
  582000   0.72961778   -4.6951748   -4.6951748   -3.6007504  0.011134813   -4.6951748    1.0944244      1024000 
  583000   0.72889261   -4.6933521   -4.6933521   -3.6000154  0.010789139   -4.6933521    1.0933367      1024000 
  584000   0.72873143   -4.6917706   -4.6917706   -3.5986756  0.013302051   -4.6917706    1.0930949      1024000 
  585000   0.72975226   -4.6924546   -4.6924546   -3.5978285  0.014355564   -4.6924546    1.0946262      1024000 
  586000   0.72940452    -4.691379    -4.691379   -3.5972744  0.014405284    -4.691379    1.0941046      1024000 
  587000   0.73043571   -4.6925712   -4.6925712   -3.5969199 0.0089579741   -4.6925712    1.0956513      1024000 
  588000    0.7296257   -4.6905858   -4.6905858   -3.5961494  0.012005345   -4.6905858    1.0944363      1024000 
  589000   0.72986742   -4.6906028   -4.6906028   -3.5958039 0.0097172955   -4.6906028    1.0947989      1024000 
  590000   0.73002097   -4.6903948   -4.6903948   -3.5953655 0.0084556075   -4.6903948    1.0950292      1024000 
  591000    0.7298369   -4.6895009   -4.6895009   -3.5947478 0.0042737692   -4.6895009    1.0947531      1024000 
  592000   0.72867695   -4.6867388   -4.6867388   -3.5937255  0.011383158   -4.6867388    1.0930132      1024000 
  593000   0.72958538   -4.6872723   -4.6872723   -3.5928964 0.0089204322   -4.6872723    1.0943758      1024000 
  594000    0.7291842   -4.6856029   -4.6856029   -3.5918288   0.01194608   -4.6856029    1.0937741      1024000 
  595000   0.72991625   -4.6866834   -4.6866834   -3.5918112 0.0086267035   -4.6866834    1.0948722      1024000 
  596000   0.73022245    -4.686676    -4.686676   -3.5913446  0.011804139    -4.686676    1.0953314      1024000 
  597000    0.7304678   -4.6861051   -4.6861051   -3.5904057  0.011131936   -4.6861051    1.0956995      1024000 
  598000   0.72871725   -4.6832618   -4.6832618   -3.5901882  0.017413152   -4.6832618    1.0930737      1024000 
  599000   0.73103412   -4.6851925   -4.6851925   -3.5886436 0.0092919263   -4.6851925     1.096549      1024000 
  600000   0.73176784   -4.6852259   -4.6852259   -3.5875764 0.0073839015   -4.6852259    1.0976495      1024000 
  601000   0.73094152   -4.6829696   -4.6829696   -3.5865596 0.0094349226   -4.6829696    1.0964101      1024000 
  602000   0.73070629   -4.6825439   -4.6825439   -3.5864867  0.007741483   -4.6825439    1.0960572      1024000 
  603000   0.73137846   -4.6828087   -4.6828087   -3.5857432  0.011221435   -4.6828087    1.0970655      1024000 
  604000    0.7317993    -4.682272    -4.682272   -3.5845752 0.0091270419    -4.682272    1.0976967      1024000 
  605000   0.73193105   -4.6817462   -4.6817462   -3.5838519 0.0055877206   -4.6817462    1.0978943      1024000 
  606000    0.7315154   -4.6796734   -4.6796734   -3.5824025  0.012701396   -4.6796734    1.0972709      1024000 
  607000    0.7321066   -4.6800772   -4.6800772   -3.5819195  0.013442841   -4.6800772    1.0981577      1024000 
  608000   0.73233794   -4.6791443   -4.6791443   -3.5806396  0.016309463   -4.6791443    1.0985047      1024000 
  609000   0.73358782   -4.6807962   -4.6807962   -3.5804167  0.011198907   -4.6807962    1.1003795      1024000 
  610000   0.73370858   -4.6796016   -4.6796016    -3.579041  0.016984665   -4.6796016    1.1005606      1024000 
  611000   0.73440528   -4.6796538   -4.6796538   -3.5780482  0.013459384   -4.6796538    1.1016057      1024000 
  612000   0.73398994   -4.6790027   -4.6790027   -3.5780201  0.010974864   -4.6790027    1.1009827      1024000 
  613000   0.73239571   -4.6766681   -4.6766681   -3.5780768  0.011344906   -4.6766681    1.0985913      1024000 
  614000    0.7333525   -4.6767234   -4.6767234   -3.5766969  0.010762391   -4.6767234    1.1000265      1024000 
  615000   0.73326927   -4.6762042   -4.6762042   -3.5763025  0.011782669   -4.6762042    1.0999017      1024000 
  616000   0.73312962   -4.6762125   -4.6762125   -3.5765203  0.010239618   -4.6762125    1.0996922      1024000 
  617000   0.73203752   -4.6748205   -4.6748205   -3.5767664 0.0092364095   -4.6748205    1.0980541      1024000 
  618000   0.73209486    -4.672935    -4.672935    -3.574795  0.010090425    -4.672935    1.0981401      1024000 
  619000   0.73328985   -4.6743339   -4.6743339   -3.5744013 0.0049376526   -4.6743339    1.0999325      1024000 
  620000   0.73293203   -4.6728951   -4.6728951   -3.5734993 0.0065668582   -4.6728951    1.0993958      1024000 
  621000    0.7336905   -4.6726693   -4.6726693   -3.5721358 0.0085880987   -4.6726693    1.1005335      1024000 
  622000   0.73321758   -4.6712783   -4.6712783   -3.5714542  0.010363366   -4.6712783    1.0998241      1024000 
  623000     0.734286   -4.6722958   -4.6722958   -3.5708691  0.010374049   -4.6722958    1.1014268      1024000 
  624000   0.73454857   -4.6723663   -4.6723663   -3.5705457 0.0097837743   -4.6723663    1.1018206      1024000 
  625000   0.73389765   -4.6704055   -4.6704055   -3.5695613  0.010631771   -4.6704055    1.1008442      1024000 
  626000   0.73300241   -4.6682139   -4.6682139   -3.5687125  0.015551992   -4.6682139    1.0995014      1024000 
  627000      0.73373   -4.6685569   -4.6685569   -3.5679642 0.0081295556   -4.6685569    1.1005928      1024000 
  628000   0.73457088   -4.6684622   -4.6684622   -3.5666081  0.011830311   -4.6684622    1.1018541      1024000 
  629000   0.73463585   -4.6685066   -4.6685066    -3.566555 0.0064767825   -4.6685066    1.1019515      1024000 
  630000    0.7342752   -4.6670276   -4.6670276    -3.565617  0.012389391   -4.6670276    1.1014106      1024000 
  631000   0.73486251   -4.6673468   -4.6673468   -3.5650553  0.010951935   -4.6673468    1.1022915      1024000 
  632000   0.73596804   -4.6691495   -4.6691495   -3.5651997 0.0047906341   -4.6691495    1.1039498      1024000 
  633000   0.73420874   -4.6658068   -4.6658068   -3.5644959  0.012326036   -4.6658068    1.1013109      1024000 
  634000   0.73534735   -4.6664829   -4.6664829   -3.5634641  0.012208327   -4.6664829    1.1030188      1024000 
  635000    0.7360011   -4.6659942   -4.6659942   -3.5619948  0.013958602   -4.6659942    1.1039994      1024000 
  636000   0.73727851   -4.6680144   -4.6680144   -3.5620989  0.012585541   -4.6680144    1.1059155      1024000 
  637000   0.73681815   -4.6668881   -4.6668881   -3.5616632  0.016344798   -4.6668881     1.105225      1024000 
  638000   0.73805149    -4.667777    -4.667777    -3.560702 0.0096266904    -4.667777     1.107075      1024000 
  639000   0.73698333   -4.6650252   -4.6650252   -3.5595524  0.011207815   -4.6650252    1.1054727      1024000 
  640000   0.73641131   -4.6632893   -4.6632893   -3.5586746  0.014498129   -4.6632893    1.1046147      1024000 
  641000   0.73653589   -4.6629761   -4.6629761   -3.5581745  0.013398853   -4.6629761    1.1048016      1024000 
  642000   0.73761321   -4.6628996   -4.6628996    -3.556482  0.013435278   -4.6628996    1.1064176      1024000 
  643000   0.73806875   -4.6625941   -4.6625941   -3.5554932   0.01528371   -4.6625941    1.1071009      1024000 
  644000   0.73742947    -4.660934    -4.660934    -3.554792  0.014525528    -4.660934     1.106142      1024000 
  645000   0.73848649   -4.6618161   -4.6618161   -3.5540886  0.011695484   -4.6618161    1.1077275      1024000 
  646000   0.73728266   -4.6590133   -4.6590133   -3.5530916  0.012187528   -4.6590133    1.1059217      1024000 
  647000   0.73785789   -4.6597904   -4.6597904   -3.5530058  0.010517203   -4.6597904    1.1067846      1024000 
  648000   0.73719718   -4.6580514   -4.6580514   -3.5522579  0.016859015   -4.6580514    1.1057935      1024000 
  649000   0.73723981   -4.6568278   -4.6568278   -3.5509703   0.01236667   -4.6568278    1.1058575      1024000 
  650000   0.73789205   -4.6570407   -4.6570407   -3.5502048  0.009150549   -4.6570407    1.1068358      1024000 
  651000   0.73723997   -4.6547643   -4.6547643   -3.5489066 0.0083269284   -4.6547643    1.1058577      1024000 
  652000   0.73756582   -4.6534582   -4.6534582   -3.5471117  0.014207284   -4.6534582    1.1063465      1024000 
  653000   0.73823709   -4.6541729   -4.6541729   -3.5468195 0.0076501991   -4.6541729    1.1073534      1024000 
  654000   0.73803176    -4.653552    -4.653552   -3.5465066 0.0021493276    -4.653552    1.1070454      1024000 
  655000   0.73850562   -4.6540548   -4.6540548   -3.5462986 0.0039194893   -4.6540548    1.1077562      1024000 
  656000   0.73848647   -4.6526039   -4.6526039   -3.5448765 0.0062844068   -4.6526039    1.1077275      1024000 
  657000   0.73931498    -4.652704    -4.652704   -3.5437337 0.0053192606    -4.652704    1.1089702      1024000 
  658000   0.73874059   -4.6512531   -4.6512531   -3.5431445  0.010174245   -4.6512531    1.1081086      1024000 
  659000   0.73918741   -4.6512365   -4.6512365   -3.5424577 0.0084533318   -4.6512365    1.1087789      1024000 
  660000   0.73804767   -4.6493497   -4.6493497   -3.5422804    0.0109368   -4.6493497    1.1070693      1024000 
  661000   0.73922794   -4.6501897   -4.6501897   -3.5413501 0.0050554965   -4.6501897    1.1088397      1024000 
  662000   0.73910072   -4.6484465   -4.6484465   -3.5397976  0.010674672   -4.6484465    1.1086488      1024000 
  663000   0.73856733   -4.6466205   -4.6466205   -3.5387717  0.012503168   -4.6466205    1.1078487      1024000 
  664000   0.73952989   -4.6472732   -4.6472732   -3.5379806  0.012397598   -4.6472732    1.1092926      1024000 
  665000    0.7410466   -4.6487173   -4.6487173   -3.5371497 0.0072259944   -4.6487173    1.1115676      1024000 
  666000   0.74031834   -4.6468585   -4.6468585   -3.5363832  0.011288906   -4.6468585    1.1104753      1024000 
  667000    0.7399595   -4.6461816   -4.6461816   -3.5362446 0.0095302647   -4.6461816     1.109937      1024000 
  668000   0.74016732   -4.6462173   -4.6462173   -3.5359685 0.0094600828   -4.6462173    1.1102487      1024000 
  669000   0.73987033   -4.6453958   -4.6453958   -3.5355926  0.011780124   -4.6453958    1.1098032      1024000 
  670000   0.73970405   -4.6440407   -4.6440407   -3.5344869  0.010701524   -4.6440407    1.1095538      1024000 
  671000   0.74080781   -4.6448023   -4.6448023   -3.5335929  0.011656238   -4.6448023    1.1112095      1024000 
  672000   0.74070508    -4.644271    -4.644271   -3.5332156  0.014069984    -4.644271    1.1110554      1024000 
  673000   0.74129113   -4.6446441   -4.6446441   -3.5327096 0.0090242179   -4.6446441    1.1119344      1024000 
  674000   0.74123879   -4.6433463   -4.6433463   -3.5314903 0.0067103666   -4.6433463    1.1118559      1024000 
  675000   0.74178434    -4.643046    -4.643046   -3.5303718 0.0082412037    -4.643046    1.1126743      1024000 
  676000   0.74230341   -4.6421608   -4.6421608    -3.528708  0.011018834   -4.6421608    1.1134529      1024000 
  677000    0.7417876   -4.6421345   -4.6421345   -3.5294554  0.016384208   -4.6421345    1.1126791      1024000 
  678000   0.74227135   -4.6425073   -4.6425073   -3.5291025  0.012937117   -4.6425073    1.1134048      1024000 
  679000   0.74220619   -4.6409982   -4.6409982   -3.5276912  0.012697836   -4.6409982     1.113307      1024000 
  680000   0.74256446   -4.6408188   -4.6408188   -3.5269743  0.011399112   -4.6408188    1.1138444      1024000 
  681000      0.74361   -4.6410357   -4.6410357    -3.525623  0.011870428   -4.6410357    1.1154127      1024000 
  682000   0.74329997   -4.6392103   -4.6392103   -3.5242626  0.016760534   -4.6392103    1.1149477      1024000 
  683000   0.74472794   -4.6404848   -4.6404848   -3.5233952  0.013010326   -4.6404848    1.1170896      1024000 
  684000   0.74456706   -4.6398923   -4.6398923    -3.523044 0.0081149953   -4.6398923    1.1168483      1024000 
  685000   0.74375896   -4.6380997   -4.6380997   -3.5224635  0.012429704   -4.6380997    1.1156362      1024000 
  686000   0.74324998    -4.636772    -4.636772   -3.5218993  0.010805133    -4.636772    1.1148727      1024000 
  687000   0.74371213   -4.6363263   -4.6363263   -3.5207604 0.0075339186   -4.6363263    1.1155659      1024000 
  688000   0.74312647    -4.635147    -4.635147   -3.5204596 0.0095983587    -4.635147    1.1146874      1024000 
  689000   0.74360872   -4.6348797   -4.6348797   -3.5194689  0.010650785   -4.6348797    1.1154108      1024000 
  690000    0.7427088   -4.6332442   -4.6332442   -3.5191832 0.0084929156   -4.6332442    1.1140609      1024000 
  691000   0.74345219   -4.6338063   -4.6338063   -3.5186303 0.0097793932   -4.6338063     1.115176      1024000 
  692000   0.74322871    -4.631301    -4.631301   -3.5164602  0.012838574    -4.631301    1.1148408      1024000 
  693000    0.7443002   -4.6318371   -4.6318371   -3.5153891 0.0082024565   -4.6318371     1.116448      1024000 
  694000   0.74495994    -4.632012    -4.632012   -3.5145744 0.0062489214    -4.632012    1.1174376      1024000 
  695000   0.74389919   -4.6297496   -4.6297496   -3.5139031 0.0057985013   -4.6297496    1.1158465      1024000 
  696000   0.74588154   -4.6312849   -4.6312849   -3.5124648 0.0058237876   -4.6312849      1.11882      1024000 
  697000   0.74525881   -4.6298919   -4.6298919    -3.512006 0.0051850296   -4.6298919    1.1178859      1024000 
  698000   0.74439174   -4.6283529   -4.6283529   -3.5117676 0.0051653846   -4.6283529    1.1165853      1024000 
  699000   0.74373787   -4.6281359   -4.6281359   -3.5125314 0.0022742482   -4.6281359    1.1156045      1024000 
  700000   0.74394078   -4.6270921   -4.6270921   -3.5111831 0.0017628494   -4.6270921    1.1159089      1024000 
  701000   0.74395951   -4.6259798   -4.6259798   -3.5100428 0.0053511955   -4.6259798     1.115937      1024000 
  702000    0.7437282   -4.6249435   -4.6249435   -3.5093534 0.0067018088   -4.6249435      1.11559      1024000 
  703000   0.74366087   -4.6252875   -4.6252875   -3.5097984 0.0019360226   -4.6252875     1.115489      1024000 
  704000   0.74500443   -4.6250976   -4.6250976   -3.5075932 0.0058625527   -4.6250976    1.1175044      1024000 
  705000   0.74551185   -4.6259016   -4.6259016   -3.5076361 0.0043500922   -4.6259016    1.1182655      1024000 
  706000   0.74481591    -4.624775    -4.624775   -3.5075534 0.0051390412    -4.624775    1.1172216      1024000 
  707000   0.74672058    -4.625329    -4.625329   -3.5052504 0.0032662727    -4.625329    1.1200786      1024000 
  708000   0.74627269   -4.6236702   -4.6236702   -3.5042635  0.012395528   -4.6236702    1.1194068      1024000 
  709000   0.74650559   -4.6231684   -4.6231684   -3.5034123  0.012231072   -4.6231684    1.1197561      1024000 
  710000   0.74682212   -4.6223624   -4.6223624   -3.5021315  0.014174261   -4.6223624    1.1202309      1024000 
  711000    0.7473062   -4.6228112   -4.6228112   -3.5018542  0.014239803   -4.6228112     1.120957      1024000 
  712000   0.74651663    -4.621798    -4.621798   -3.5020253  0.014140257    -4.621798    1.1197727      1024000 
  713000   0.74687677   -4.6207079   -4.6207079    -3.500395  0.012789609   -4.6207079    1.1203129      1024000 
  714000   0.74659575    -4.620665    -4.620665   -3.5007737  0.010529095    -4.620665    1.1198914      1024000 
  715000   0.74734788   -4.6198213   -4.6198213   -3.4988017  0.016010305   -4.6198213    1.1210195      1024000 
  716000   0.74797171   -4.6198286   -4.6198286   -3.4978733  0.011991032   -4.6198286    1.1219553      1024000 
  717000   0.74869026   -4.6185533   -4.6185533   -3.4955202  0.013504947   -4.6185533    1.1230331      1024000 
  718000   0.74870638   -4.6176082   -4.6176082   -3.4945509  0.019535965   -4.6176082    1.1230573      1024000 
  719000   0.74895212   -4.6178419   -4.6178419    -3.494416  0.014041151   -4.6178419    1.1234259      1024000 
  720000   0.74982435    -4.618047    -4.618047   -3.4933128  0.015513406    -4.618047    1.1247342      1024000 
  721000   0.74975846   -4.6177609   -4.6177609   -3.4931255  0.015740065   -4.6177609    1.1246354      1024000 
  722000   0.75007826   -4.6167713   -4.6167713   -3.4916562  0.016804649   -4.6167713    1.1251151      1024000 
  723000   0.74983175   -4.6159627   -4.6159627   -3.4912174  0.016609875   -4.6159627    1.1247454      1024000 
  724000   0.75016644   -4.6159556   -4.6159556   -3.4907083  0.012575722   -4.6159556    1.1252474      1024000 
  725000   0.74902415   -4.6136882   -4.6136882   -3.4901543 0.0088837848   -4.6136882     1.123534      1024000 
  726000   0.74865823   -4.6122391   -4.6122391    -3.489254 0.0084275685   -4.6122391    1.1229851      1024000 
  727000   0.74779094   -4.6097216   -4.6097216   -3.4880374  0.013400578   -4.6097216    1.1216841      1024000 
  728000     0.750157   -4.6117839   -4.6117839   -3.4865507 0.0043467203   -4.6117839    1.1252332      1024000 
  729000   0.74760583   -4.6082564   -4.6082564   -3.4868499 0.0059781752   -4.6082564    1.1214065      1024000 
  730000    0.7488685   -4.6094898   -4.6094898   -3.4861894  0.003070201   -4.6094898    1.1233005      1024000 
  731000   0.74920924   -4.6087009   -4.6087009   -3.4848893 0.0033700319   -4.6087009    1.1238116      1024000 
  732000   0.74884964   -4.6076691   -4.6076691    -3.484397 0.0059409536   -4.6076691    1.1232722      1024000 
  733000   0.74988369   -4.6071747   -4.6071747   -3.4823515 0.0087440488   -4.6071747    1.1248233      1024000 
  734000   0.75087615   -4.6072169   -4.6072169   -3.4809049  0.006491917   -4.6072169    1.1263119      1024000 
  735000    0.7510364   -4.6066521   -4.6066521   -3.4800998 0.0052680995   -4.6066521    1.1265523      1024000 
  736000   0.74949073   -4.6030359   -4.6030359   -3.4788021 0.0087469429   -4.6030359    1.1242338      1024000 
  737000   0.75063848   -4.6034181   -4.6034181   -3.4774627 0.0044203583   -4.6034181    1.1259554      1024000 
  738000   0.75033419   -4.6024751   -4.6024751   -3.4769761 0.0083071993   -4.6024751     1.125499      1024000 
  739000   0.75074984    -4.602045    -4.602045   -3.4759225 0.0091144236    -4.602045    1.1261225      1024000 
  740000   0.75120823   -4.6016646   -4.6016646   -3.4748546 0.0026652767   -4.6016646    1.1268101      1024000 
  741000   0.75195951   -4.6019725   -4.6019725   -3.4740355 0.0072838523   -4.6019725     1.127937      1024000 
  742000   0.75158986    -4.600389    -4.600389   -3.4730065 0.0056308483    -4.600389    1.1273825      1024000 
  743000   0.75205265   -4.6002036   -4.6002036    -3.472127 0.0074768941   -4.6002036    1.1280767      1024000 
  744000   0.75063902   -4.5967894   -4.5967894   -3.4708331  0.010247395   -4.5967894    1.1259562      1024000 
  745000   0.75172058   -4.5978389   -4.5978389   -3.4702604 0.0097868523   -4.5978389    1.1275786      1024000 
  746000   0.75286257   -4.5985713   -4.5985713   -3.4692798 0.0026217421   -4.5985713    1.1292916      1024000 
  747000   0.75178049   -4.5959264   -4.5959264    -3.468258  0.010667537   -4.5959264    1.1276684      1024000 
  748000   0.75313141   -4.5970376   -4.5970376   -3.4673428 0.0080801214   -4.5970376    1.1296948      1024000 
  749000   0.75371655      -4.5959      -4.5959   -3.4653275  0.008772228      -4.5959    1.1305725      1024000 
  750000   0.75370778   -4.5945808   -4.5945808   -3.4640215  0.013684236   -4.5945808    1.1305594      1024000 
  751000   0.75285007   -4.5925022   -4.5925022   -3.4632294  0.012011036   -4.5925022    1.1292728      1024000 
  752000   0.75387399   -4.5932455   -4.5932455   -3.4624368  0.012644682   -4.5932455    1.1308087      1024000 
  753000   0.75328281   -4.5916226   -4.5916226   -3.4617007  0.011162682   -4.5916226    1.1299219      1024000 
  754000     0.754637   -4.5920336   -4.5920336   -3.4600804  0.014326767   -4.5920336    1.1319532      1024000 
  755000   0.75566524   -4.5930522   -4.5930522   -3.4595566  0.013808517   -4.5930522    1.1334956      1024000 
  756000   0.75514336   -4.5915386   -4.5915386   -3.4588258  0.013088417   -4.5915386    1.1327127      1024000 
  757000   0.75443271   -4.5902995   -4.5902995   -3.4586527  0.011795168   -4.5902995    1.1316468      1024000 
  758000    0.7549935   -4.5896042   -4.5896042   -3.4571163  0.011926264   -4.5896042     1.132488      1024000 
  759000   0.75516484   -4.5888366   -4.5888366   -3.4560916 0.0090849555   -4.5888366     1.132745      1024000 
  760000    0.7541198   -4.5863997   -4.5863997   -3.4552223  0.010783165   -4.5863997    1.1311774      1024000 
  761000   0.75419254   -4.5859845   -4.5859845    -3.454698 0.0094701366   -4.5859845    1.1312865      1024000 
  762000   0.75551099   -4.5875737   -4.5875737   -3.4543096 0.0082254026   -4.5875737    1.1332642      1024000 
  763000   0.75410224   -4.5853684   -4.5853684   -3.4542173 0.0083269595   -4.5853684    1.1311511      1024000 
  764000   0.75556812   -4.5857849   -4.5857849    -3.452435 0.0079364896   -4.5857849    1.1333499      1024000 
  765000   0.75457135   -4.5842416   -4.5842416   -3.4523869 0.0045953216   -4.5842416    1.1318547      1024000 
  766000   0.75421808   -4.5821065   -4.5821065   -3.4507817 0.0068509008   -4.5821065    1.1313248      1024000 
  767000   0.75544241   -4.5829678   -4.5829678   -3.4498065 0.0094909594   -4.5829678    1.1331613      1024000 
  768000   0.75570064   -4.5814831   -4.5814831   -3.4479345  0.012215357   -4.5814831    1.1335487      1024000 
  769000   0.75618112   -4.5812327   -4.5812327   -3.4469633  0.010393781   -4.5812327    1.1342694      1024000 
  770000   0.75628301   -4.5804726   -4.5804726   -3.4460503  0.008063123   -4.5804726    1.1344222      1024000 
  771000   0.75599831   -4.5793317   -4.5793317   -3.4453366  0.013074946   -4.5793317    1.1339952      1024000 
  772000   0.75591416   -4.5799296   -4.5799296   -3.4460607 0.0068023876   -4.5799296    1.1338689      1024000 
  773000   0.75525557   -4.5777888   -4.5777888   -3.4449077 0.0089689183   -4.5777888    1.1328811      1024000 
  774000   0.75717386   -4.5791626   -4.5791626   -3.4434041 0.0059901668   -4.5791626    1.1357585      1024000 
  775000   0.75699036   -4.5773027   -4.5773027   -3.4418195 0.0099029446   -4.5773027    1.1354832      1024000 
  776000   0.75821032   -4.5791465   -4.5791465   -3.4418334  0.009717048   -4.5791465    1.1373132      1024000 
  777000   0.75751331   -4.5778017   -4.5778017    -3.441534 0.0075072665   -4.5778017    1.1362677      1024000 
  778000   0.75746006   -4.5769644   -4.5769644   -3.4407766 0.0055406762   -4.5769644    1.1361878      1024000 
  779000   0.75819942   -4.5769198   -4.5769198    -3.439623  0.010719735   -4.5769198    1.1372968      1024000 
  780000   0.75876706   -4.5770292   -4.5770292   -3.4388809 0.0097147987   -4.5770292    1.1381483      1024000 
  781000   0.75807358   -4.5754302   -4.5754302   -3.4383222  0.014951817   -4.5754302    1.1371081      1024000 
  782000   0.75857878   -4.5753668   -4.5753668   -3.4375009  0.008428262   -4.5753668    1.1378659      1024000 
  783000   0.75776659   -4.5728537   -4.5728537   -3.4362061  0.011836347   -4.5728537    1.1366476      1024000 
  784000   0.75773532   -4.5723468   -4.5723468   -3.4357462  0.012839709   -4.5723468    1.1366007      1024000 
  785000   0.75876225   -4.5736638   -4.5736638   -3.4355227 0.0051173099   -4.5736638    1.1381411      1024000 
  786000   0.75824137   -4.5721296   -4.5721296   -3.4347698 0.0064837255   -4.5721296    1.1373597      1024000 
  787000   0.75764212   -4.5706006   -4.5706006   -3.4341397  0.012910427   -4.5706006    1.1364609      1024000 
  788000   0.75919045   -4.5720857   -4.5720857   -3.4333024 0.0065549264   -4.5720857    1.1387834      1024000 
  789000   0.75924009   -4.5703722   -4.5703722   -3.4315143 0.0056206277   -4.5703722    1.1388578      1024000 
  790000   0.75862279   -4.5686649   -4.5686649    -3.430733  0.013556011   -4.5686649    1.1379319      1024000 
  791000   0.76026096   -4.5693321   -4.5693321   -3.4289429  0.011415807   -4.5693321    1.1403891      1024000 
  792000   0.75956228   -4.5668223   -4.5668223   -3.4274812   0.01609018   -4.5668223    1.1393411      1024000 
  793000   0.76015095   -4.5669986   -4.5669986   -3.4267745  0.016404521   -4.5669986    1.1402241      1024000 
  794000   0.76156654   -4.5674594   -4.5674594   -3.4251119  0.013415608   -4.5674594    1.1423475      1024000 
  795000   0.76036456   -4.5656806   -4.5656806   -3.4251361  0.014451027   -4.5656806    1.1405445      1024000 
  796000   0.76069517   -4.5661081   -4.5661081   -3.4250677  0.013231954   -4.5661081    1.1410404      1024000 
  797000     0.761128   -4.5650168   -4.5650168   -3.4233271  0.011595695   -4.5650168    1.1416897      1024000 
  798000   0.76134194   -4.5643249   -4.5643249   -3.4223143  0.014162014   -4.5643249    1.1420106      1024000 
  799000     0.761592   -4.5633379   -4.5633379   -3.4209522  0.015002885   -4.5633379    1.1423857      1024000 
  800000   0.76072406   -4.5612435   -4.5612435   -3.4201598   0.01366901   -4.5612435    1.1410838      1024000 
  801000   0.76138584   -4.5610159   -4.5610159   -3.4189395   0.01012086   -4.5610159    1.1420764      1024000 
  802000   0.76159439   -4.5601145   -4.5601145   -3.4177252  0.010139471   -4.5601145    1.1423893      1024000 
  803000   0.76114637   -4.5589079   -4.5589079   -3.4171907  0.007380288   -4.5589079    1.1417172      1024000 
  804000   0.76115739   -4.5584041   -4.5584041   -3.4166703 0.0071934768   -4.5584041    1.1417338      1024000 
  805000   0.76154478    -4.557689    -4.557689   -3.4153742 0.0065412296    -4.557689    1.1423149      1024000 
  806000    0.7610643   -4.5566768   -4.5566768   -3.4150827  0.010159337   -4.5566768    1.1415941      1024000 
  807000   0.76073308   -4.5560372   -4.5560372   -3.4149399 0.0070364954   -4.5560372    1.1410973      1024000 
  808000    0.7616319   -4.5564245   -4.5564245    -3.413979 0.0056398283   -4.5564245    1.1424455      1024000 
  809000   0.76075875   -4.5540069   -4.5540069   -3.4128711 0.0052451662   -4.5540069    1.1411358      1024000 
  810000   0.76219358   -4.5547824   -4.5547824   -3.4114943 0.0087252828   -4.5547824     1.143288      1024000 
  811000   0.76210565   -4.5529482   -4.5529482    -3.409792 0.0054618044   -4.5529482    1.1431562      1024000 
  812000   0.76227264    -4.552273    -4.552273   -3.4088664 0.0028624707    -4.552273    1.1434066      1024000 
  813000   0.76211291   -4.5506071   -4.5506071   -3.4074401 0.0084485139   -4.5506071     1.143167      1024000 
  814000   0.76351204   -4.5521724   -4.5521724   -3.4069067 0.0074935915   -4.5521724    1.1452657      1024000 
  815000   0.76310539   -4.5506298   -4.5506298    -3.405974 0.0081116631   -4.5506298    1.1446558      1024000 
  816000   0.76375542   -4.5506613   -4.5506613   -3.4050305 0.0093203705   -4.5506613    1.1456308      1024000 
  817000   0.76385766   -4.5493621   -4.5493621   -3.4035779  0.012568043   -4.5493621    1.1457842      1024000 
  818000   0.76326036   -4.5476446   -4.5476446   -3.4027564  0.011206387   -4.5476446    1.1448882      1024000 
  819000   0.76522574   -4.5499923   -4.5499923    -3.402156 0.0057189338   -4.5499923    1.1478363      1024000 
  820000   0.76505845   -4.5480858   -4.5480858   -3.4005005  0.010486769   -4.5480858    1.1475854      1024000 
  821000   0.76503602   -4.5471624   -4.5471624   -3.3996107  0.013963567   -4.5471624    1.1475517      1024000 
  822000   0.76577952   -4.5469312   -4.5469312   -3.3982643 0.0086241818   -4.5469312     1.148667      1024000 
  823000   0.76629653   -4.5466511   -4.5466511   -3.3972087 0.0075193465   -4.5466511    1.1494425      1024000 
  824000   0.76566226   -4.5456992   -4.5456992   -3.3972081  0.016651088   -4.5456992    1.1484911      1024000 
  825000   0.76659398   -4.5449606   -4.5449606    -3.395072  0.010262136   -4.5449606    1.1498886      1024000 
  826000   0.76590023   -4.5431978   -4.5431978   -3.3943498  0.017006343   -4.5431978     1.148848      1024000 
  827000    0.7663044    -4.543468    -4.543468   -3.3940137  0.011002697    -4.543468    1.1494543      1024000 
  828000   0.76533609   -4.5420705   -4.5420705   -3.3940687   0.01508541   -4.5420705    1.1480018      1024000 
  829000   0.76530409     -4.54122     -4.54122   -3.3932662  0.013825324     -4.54122    1.1479538      1024000 
  830000   0.76657442    -4.542022    -4.542022   -3.3921627 0.0093842336    -4.542022    1.1498593      1024000 
  831000   0.76658432   -4.5402377   -4.5402377   -3.3903636  0.010132508   -4.5402377    1.1498742      1024000 
  832000   0.76694692   -4.5393962   -4.5393962   -3.3889782 0.0085836416   -4.5393962     1.150418      1024000 
  833000   0.76593572   -4.5375702   -4.5375702    -3.388669  0.012550268   -4.5375702    1.1489013      1024000 
  834000   0.76738247    -4.537837    -4.537837   -3.3867657 0.0060914104    -4.537837    1.1510714      1024000 
  835000   0.76681152   -4.5368236   -4.5368236   -3.3866086 0.0074897724   -4.5368236    1.1502149      1024000 
  836000   0.76706824   -4.5357076   -4.5357076   -3.3851075   0.01302472   -4.5357076       1.1506      1024000 
  837000   0.76836814   -4.5353305   -4.5353305   -3.3827807  0.011326899   -4.5353305    1.1525499      1024000 
  838000   0.76777871   -4.5342532   -4.5342532   -3.3825875 0.0080153939   -4.5342532    1.1516657      1024000 
  839000   0.76837935   -4.5344363   -4.5344363   -3.3818696 0.0088952031   -4.5344363    1.1525667      1024000 
  840000   0.76841897   -4.5342526   -4.5342526   -3.3816265  0.010060608   -4.5342526    1.1526261      1024000 
  841000   0.76730573   -4.5327351   -4.5327351   -3.3817789 0.0044330957   -4.5327351    1.1509563      1024000 
  842000   0.76802563   -4.5324716   -4.5324716   -3.3804355 0.0061756024   -4.5324716    1.1520361      1024000 
  843000   0.76787758   -4.5310005   -4.5310005   -3.3791865 0.0074421934   -4.5310005     1.151814      1024000 
  844000    0.7683507   -4.5306568   -4.5306568    -3.378133 0.0041086791   -4.5306568    1.1525237      1024000 
  845000   0.76707423   -4.5285264   -4.5285264   -3.3779174 0.0085945617   -4.5285264     1.150609      1024000 
  846000   0.76791038   -4.5284171   -4.5284171   -3.3765539  0.006347334   -4.5284171    1.1518632      1024000 
  847000    0.7678342   -4.5268825   -4.5268825   -3.3751335 0.0047463051   -4.5268825     1.151749      1024000 
  848000   0.76828904   -4.5260655   -4.5260655   -3.3736343   0.01060137   -4.5260655    1.1524312      1024000 
  849000   0.76894317   -4.5262251   -4.5262251   -3.3728127  0.012351484   -4.5262251    1.1534124      1024000 
  850000   0.76925243   -4.5242838   -4.5242838   -3.3704075  0.014060152   -4.5242838    1.1538763      1024000 
  851000   0.77054556   -4.5250386   -4.5250386   -3.3692226  0.012290255   -4.5250386     1.155816      1024000 
  852000   0.77079565   -4.5246496   -4.5246496   -3.3684585  0.011633494   -4.5246496    1.1561911      1024000 
  853000    0.7708549   -4.5239959   -4.5239959   -3.3677159 0.0096049121   -4.5239959      1.15628      1024000 
  854000   0.77069173   -4.5229787   -4.5229787   -3.3669434  0.015401879   -4.5229787    1.1560352      1024000 
  855000   0.77016783   -4.5208394   -4.5208394     -3.36559  0.014672344   -4.5208394    1.1552494      1024000 
  856000   0.77168083   -4.5220531   -4.5220531   -3.3645342 0.0060135582   -4.5220531    1.1575189      1024000 
  857000   0.77101837    -4.519387    -4.519387   -3.3628617 0.0082994034    -4.519387    1.1565252      1024000 
  858000    0.7722917   -4.5205159   -4.5205159   -3.3620807 0.0027601646   -4.5205159    1.1584352      1024000 
  859000   0.77121557   -4.5178601   -4.5178601    -3.361039 0.0077294631   -4.5178601     1.156821      1024000 
  860000   0.77153025   -4.5174323   -4.5174323   -3.3601393 0.0076962786   -4.5174323     1.157293      1024000 
  861000   0.77076932    -4.515279    -4.515279   -3.3591273  0.011502593    -4.515279    1.1561516      1024000 
  862000   0.77257289    -4.516643    -4.516643    -3.357786  0.006175406    -4.516643     1.158857      1024000 
  863000   0.77138154   -4.5134831   -4.5134831   -3.3564132 0.0089504825   -4.5134831      1.15707      1024000 
  864000   0.77169259   -4.5125984   -4.5125984   -3.3550618  0.012550694   -4.5125984    1.1575365      1024000 
  865000   0.77189425   -4.5124755   -4.5124755   -3.3546365  0.011537055   -4.5124755     1.157839      1024000 
  866000   0.77248101   -4.5123394   -4.5123394   -3.3536202  0.010183934   -4.5123394    1.1587192      1024000 
  867000   0.77256051    -4.512132    -4.512132   -3.3532935  0.011295574    -4.512132    1.1588384      1024000 
  868000   0.77207055   -4.5111353   -4.5111353   -3.3530319 0.0069231992   -4.5111353    1.1581035      1024000 
  869000   0.77150808   -4.5093627   -4.5093627   -3.3521029 0.0075243504   -4.5093627    1.1572598      1024000 
  870000   0.77189516   -4.5088482   -4.5088482   -3.3510078 -0.00080320911   -4.5088482    1.1578404      1024000 
  871000   0.77171215    -4.506649    -4.506649   -3.3490831 0.0052167691    -4.506649    1.1575659      1024000 
  872000   0.77248603   -4.5057849   -4.5057849   -3.3470582 0.0076923511   -4.5057849    1.1587267      1024000 
  873000   0.77224306    -4.504602    -4.504602   -3.3462397 0.0042945393    -4.504602    1.1583622      1024000 
  874000   0.77299874    -4.504894    -4.504894   -3.3453983 0.0036836714    -4.504894    1.1594958      1024000 
  875000   0.77259752   -4.5041922   -4.5041922   -3.3452983 0.0040134164   -4.5041922    1.1588939      1024000 
  876000   0.77226747   -4.5030167   -4.5030167   -3.3446179 0.0097819774   -4.5030167    1.1583989      1024000 
  877000    0.7745121   -4.5045643   -4.5045643   -3.3427985 0.0066399409   -4.5045643    1.1617658      1024000 
  878000   0.77435115    -4.502846    -4.502846   -3.3413217  0.011047418    -4.502846    1.1615244      1024000 
  879000   0.77434272   -4.5022841   -4.5022841   -3.3407724  0.013756831   -4.5022841    1.1615117      1024000 
  880000   0.77484501   -4.5024364   -4.5024364   -3.3401713  0.010766325   -4.5024364    1.1622652      1024000 
  881000     0.775369   -4.5026268   -4.5026268   -3.3395756 0.0064392466   -4.5026268    1.1630511      1024000 
  882000   0.77461287   -4.5011624   -4.5011624   -3.3392455 0.0087011915   -4.5011624     1.161917      1024000 
  883000   0.77520473    -4.500722    -4.500722   -3.3379173 0.0073324068    -4.500722    1.1628047      1024000 
  884000   0.77515144   -4.4999956   -4.4999956   -3.3372708  0.006219952   -4.4999956    1.1627248      1024000 
  885000   0.77561089   -4.4990203   -4.4990203   -3.3356064 0.0099635221   -4.4990203     1.163414      1024000 
  886000   0.77532193   -4.4979532   -4.4979532   -3.3349727 0.0083924893   -4.4979532    1.1629805      1024000 
  887000   0.77646691   -4.4981326   -4.4981326   -3.3334346  0.010677174   -4.4981326     1.164698      1024000 
  888000   0.77568371   -4.4960618   -4.4960618   -3.3325386  0.013394432   -4.4960618    1.1635232      1024000 
  889000   0.77645513   -4.4969348   -4.4969348   -3.3322544  0.014603661   -4.4969348    1.1646803      1024000 
  890000   0.77737224   -4.4979207   -4.4979207   -3.3318647  0.014010457   -4.4979207     1.166056      1024000 
  891000   0.77672533    -4.496012    -4.496012   -3.3309263  0.019596212    -4.496012    1.1650856      1024000 
  892000   0.77807689   -4.4960199   -4.4960199    -3.328907    0.0143075   -4.4960199     1.167113      1024000 
  893000   0.77697015   -4.4937159   -4.4937159   -3.3282631  0.013024548   -4.4937159    1.1654529      1024000 
  894000   0.77863509   -4.4952319   -4.4952319   -3.3272817 0.0099083308   -4.4952319    1.1679503      1024000 
  895000   0.77832157   -4.4928737   -4.4928737   -3.3253937   0.01526161   -4.4928737      1.16748      1024000 
  896000   0.77750402   -4.4918742   -4.4918742   -3.3256205  0.012261298   -4.4918742    1.1662537      1024000 
  897000   0.77853507   -4.4923458   -4.4923458   -3.3245455  0.009538576   -4.4923458    1.1678002      1024000 
  898000   0.77756568   -4.4909047   -4.4909047   -3.3245586 0.0089890998   -4.4909047    1.1663462      1024000 
  899000   0.77778073   -4.4903249   -4.4903249   -3.3236562  0.010092154   -4.4903249    1.1666687      1024000 
  900000   0.77786626   -4.4891491   -4.4891491   -3.3223521  0.009868146   -4.4891491     1.166797      1024000 
  901000   0.77885801   -4.4888426   -4.4888426   -3.3205579 0.0094605091   -4.4888426    1.1682847      1024000 
  902000   0.77904005   -4.4882214   -4.4882214   -3.3196637 0.0058826823   -4.4882214    1.1685577      1024000 
  903000   0.77952123   -4.4879257   -4.4879257   -3.3186463 0.0090760366   -4.4879257    1.1692795      1024000 
  904000    0.7789627   -4.4864927   -4.4864927   -3.3180511  0.016389908   -4.4864927    1.1684417      1024000 
  905000   0.78018927   -4.4869018   -4.4869018   -3.3166202 0.0067367462   -4.4869018    1.1702815      1024000 
  906000   0.77986675   -4.4850461   -4.4850461   -3.3152483  0.014403615   -4.4850461    1.1697978      1024000 
  907000   0.78010944   -4.4833389   -4.4833389   -3.3131771   0.01236823   -4.4833389    1.1701618      1024000 
  908000   0.78015372   -4.4825483   -4.4825483   -3.3123201  0.012024655   -4.4825483    1.1702282      1024000 
  909000   0.78035697   -4.4823644   -4.4823644   -3.3118313 0.0084650476   -4.4823644    1.1705331      1024000 
  910000   0.77882607   -4.4797967   -4.4797967   -3.3115599  0.010942166   -4.4797967    1.1682367      1024000 
  911000   0.77951563   -4.4793403   -4.4793403   -3.3100693 0.0098244517   -4.4793403    1.1692711      1024000 
  912000   0.77998407   -4.4784724   -4.4784724   -3.3084987 0.0067596749   -4.4784724    1.1699737      1024000 
  913000   0.77949477   -4.4773781   -4.4773781   -3.3081383  0.011221652   -4.4773781    1.1692398      1024000 
  914000   0.77976461   -4.4760776   -4.4760776    -3.306433 0.0091386608   -4.4760776    1.1696445      1024000 
  915000   0.78063571   -4.4763077   -4.4763077   -3.3053565 0.0064786985   -4.4763077    1.1709512      1024000 
  916000    0.7794934   -4.4748973   -4.4748973   -3.3056596 0.0083212086   -4.4748973    1.1692377      1024000 
  917000   0.78025516   -4.4747073   -4.4747073    -3.304327 0.0073328056   -4.4747073    1.1703804      1024000 
  918000   0.78065945   -4.4740163   -4.4740163   -3.3030295  0.010584965   -4.4740163    1.1709868      1024000 
  919000   0.78096937   -4.4727942   -4.4727942   -3.3013425 0.0077098059   -4.4727942    1.1714517      1024000 
  920000   0.78155052   -4.4723833   -4.4723833   -3.3000599 0.0062950589   -4.4723833    1.1723234      1024000 
  921000   0.78065585    -4.469106    -4.469106   -3.2981246  0.009144274    -4.469106    1.1709814      1024000 
  922000   0.78166048    -4.469323    -4.469323   -3.2968347 0.0070080011    -4.469323    1.1724883      1024000 
  923000   0.78179631   -4.4686218   -4.4686218   -3.2959297 0.0071417971   -4.4686218    1.1726921      1024000 
  924000    0.7817744   -4.4670214   -4.4670214   -3.2943621   0.01132286   -4.4670214    1.1726592      1024000 
  925000   0.78348397   -4.4682467   -4.4682467   -3.2930231 0.0081314557   -4.4682467    1.1752236      1024000 
  926000   0.78216352    -4.465759    -4.465759   -3.2925161 0.0066511932    -4.465759    1.1732429      1024000 
  927000   0.78339746   -4.4664549   -4.4664549   -3.2913611 0.0056608282   -4.4664549    1.1750938      1024000 
  928000   0.78306921   -4.4648091   -4.4648091   -3.2902077 0.0089449005   -4.4648091    1.1746014      1024000 
  929000   0.78400255   -4.4650661   -4.4650661   -3.2890647  0.012460477   -4.4650661    1.1760014      1024000 
  930000     0.784031   -4.4635345   -4.4635345   -3.2874904   0.01194636   -4.4635345    1.1760441      1024000 
  931000   0.78435049   -4.4633325   -4.4633325   -3.2868092 0.0078667784   -4.4633325    1.1765234      1024000 
  932000   0.78281938   -4.4606093   -4.4606093   -3.2863826  0.015537651   -4.4606093    1.1742267      1024000 
  933000   0.78298315   -4.4603264   -4.4603264    -3.285854  0.013752759   -4.4603264    1.1744723      1024000 
  934000    0.7841235   -4.4598622   -4.4598622   -3.2836793 0.0071654188   -4.4598622    1.1761829      1024000 
  935000   0.78527092   -4.4604577   -4.4604577   -3.2825537 0.0069719944   -4.4604577     1.177904      1024000 
  936000   0.78507897   -4.4578416   -4.4578416   -3.2802256  0.014712227   -4.4578416    1.1776161      1024000 
  937000   0.78538377   -4.4577829   -4.4577829   -3.2797096  0.012242175   -4.4577829    1.1780733      1024000 
  938000   0.78496207   -4.4569964   -4.4569964   -3.2795557  0.013641055   -4.4569964    1.1774407      1024000 
  939000   0.78567276    -4.456899    -4.456899   -3.2783923  0.012290728    -4.456899    1.1785068      1024000 
  940000   0.78435462   -4.4541503   -4.4541503   -3.2776207  0.012168504   -4.4541503    1.1765295      1024000 
  941000   0.78558814   -4.4549054   -4.4549054   -3.2765256   0.01338376   -4.4549054    1.1783798      1024000 
  942000   0.78504405   -4.4534322   -4.4534322   -3.2758685 0.0077352054   -4.4534322    1.1775637      1024000 
  943000   0.78529999   -4.4531716   -4.4531716    -3.275224 0.0070300275   -4.4531716    1.1779476      1024000 
  944000   0.78527548   -4.4510555   -4.4510555   -3.2731446  0.013901128   -4.4510555    1.1779108      1024000 
  945000   0.78636354   -4.4513395   -4.4513395   -3.2717966  0.011559158   -4.4513395    1.1795429      1024000 
  946000   0.78698207       -4.452       -4.452   -3.2715293 0.0093252839       -4.452    1.1804707      1024000 
  947000   0.78614119   -4.4494074   -4.4494074    -3.270198  0.010869474   -4.4494074    1.1792094      1024000 
  948000   0.78693324   -4.4499457   -4.4499457   -3.2695482 0.0076626731   -4.4499457    1.1803975      1024000 
  949000   0.78672763   -4.4479202   -4.4479202   -3.2678311  0.015702893   -4.4479202    1.1800891      1024000 
  950000   0.78816744   -4.4489737   -4.4489737    -3.266725 0.0094117862   -4.4489737    1.1822488      1024000 
  951000   0.78671984   -4.4451671   -4.4451671   -3.2650897   0.01263573   -4.4451671    1.1800774      1024000 
  952000   0.78658516   -4.4450786   -4.4450786   -3.2652033  0.014773861   -4.4450786    1.1798753      1024000 
  953000   0.78697521   -4.4448819   -4.4448819   -3.2644215  0.010196962   -4.4448819    1.1804604      1024000 
  954000   0.78714336    -4.444562    -4.444562   -3.2638493 0.0063829369    -4.444562    1.1807126      1024000 
  955000   0.78838875   -4.4443421   -4.4443421   -3.2617614 0.0028673479   -4.4443421    1.1825807      1024000 
  956000   0.78881129   -4.4440085   -4.4440085   -3.2607939 0.0068159775   -4.4440085    1.1832145      1024000 
  957000   0.78747214   -4.4405962   -4.4405962   -3.2593904  0.010015964   -4.4405962    1.1812058      1024000 
  958000   0.78757494   -4.4395188   -4.4395188   -3.2581588 0.0095548177   -4.4395188      1.18136      1024000 
  959000   0.78860801   -4.4399862   -4.4399862   -3.2570766  0.010101611   -4.4399862    1.1829096      1024000 
  960000   0.78924032    -4.441154    -4.441154   -3.2572959 0.0063636543    -4.441154    1.1838581      1024000 
  961000   0.78861016   -4.4390982   -4.4390982   -3.2561854 0.0082883184   -4.4390982    1.1829128      1024000 
  962000   0.78892993   -4.4371043   -4.4371043   -3.2537118  0.011974689   -4.4371043    1.1833925      1024000 
  963000     0.788683   -4.4369256   -4.4369256   -3.2539035  0.006957659   -4.4369256    1.1830221      1024000 
  964000   0.78748056   -4.4342227   -4.4342227   -3.2530042  0.011398707   -4.4342227    1.1812184      1024000 
  965000   0.78954283   -4.4353086   -4.4353086   -3.2509967 0.0082018698   -4.4353086    1.1843118      1024000 
  966000     0.789463   -4.4335866   -4.4335866   -3.2493945  0.015559997   -4.4335866    1.1841921      1024000 
  967000    0.7910941    -4.435378    -4.435378   -3.2487393 0.0099332551    -4.435378    1.1866387      1024000 
  968000    0.7899865   -4.4335444   -4.4335444    -3.248567 0.0056792792   -4.4335444    1.1849774      1024000 
  969000   0.78979786   -4.4330111   -4.4330111   -3.2483167  0.011444844   -4.4330111    1.1846944      1024000 
  970000   0.78977353   -4.4327364   -4.4327364   -3.2480785 0.0073345808   -4.4327364    1.1846579      1024000 
  971000   0.79005111   -4.4322456   -4.4322456   -3.2471714 0.0062053781   -4.4322456    1.1850743      1024000 
  972000   0.78913914   -4.4301204   -4.4301204    -3.246414 0.0077261561   -4.4301204    1.1837063      1024000 
  973000   0.79004978   -4.4302425   -4.4302425   -3.2451702  0.011598392   -4.4302425    1.1850723      1024000 
  974000   0.79079785   -4.4294372   -4.4294372   -3.2432428 0.0027962455   -4.4294372    1.1861944      1024000 
  975000   0.79117441   -4.4294833   -4.4294833   -3.2427241 0.0059132304   -4.4294833    1.1867592      1024000 
  976000   0.79159197   -4.4290885   -4.4290885   -3.2417029 0.0073729808   -4.4290885    1.1873856      1024000 
  977000   0.79149882   -4.4278348   -4.4278348   -3.2405889 0.0092490622   -4.4278348    1.1872458      1024000 
  978000   0.79273676    -4.427915    -4.427915   -3.2388123 0.0080904752    -4.427915    1.1891027      1024000 
  979000   0.79262628   -4.4265952   -4.4265952   -3.2376582   0.01429467   -4.4265952     1.188937      1024000 
  980000   0.79348179    -4.425537    -4.425537   -3.2353167  0.014550717    -4.425537    1.1902203      1024000 
  981000   0.79295668   -4.4240947   -4.4240947   -3.2346621  0.013467459   -4.4240947    1.1894326      1024000 
  982000   0.79362672   -4.4238899   -4.4238899   -3.2334523  0.012302622   -4.4238899    1.1904377      1024000 
  983000   0.79379348   -4.4232355   -4.4232355   -3.2325477  0.017411309   -4.4232355    1.1906878      1024000 
  984000   0.79429647   -4.4226547   -4.4226547   -3.2312125  0.013419067   -4.4226547    1.1914423      1024000 
  985000   0.79480073   -4.4218701   -4.4218701   -3.2296714 0.0096816425   -4.4218701    1.1921987      1024000 
  986000   0.79396509   -4.4193729   -4.4193729   -3.2284277   0.01339097   -4.4193729    1.1909452      1024000 
  987000   0.79480604   -4.4209276   -4.4209276   -3.2287209 0.0089931409   -4.4209276    1.1922066      1024000 
  988000   0.79419182   -4.4191014   -4.4191014   -3.2278161  0.018245674   -4.4191014    1.1912853      1024000 
  989000   0.79547019    -4.418366    -4.418366   -3.2251632   0.01120625    -4.418366    1.1932029      1024000 
  990000   0.79487924   -4.4170616   -4.4170616   -3.2247451  0.015434894   -4.4170616    1.1923164      1024000 
  991000   0.79406841   -4.4140611   -4.4140611   -3.2229609  0.013192349   -4.4140611    1.1911002      1024000 
  992000   0.79475437   -4.4147164   -4.4147164   -3.2225873   0.01381157   -4.4147164    1.1921291      1024000 
  993000   0.79394089   -4.4127414   -4.4127414   -3.2218325  0.011058458   -4.4127414    1.1909089      1024000 
  994000   0.79404832   -4.4120857   -4.4120857   -3.2210157 0.0057094703   -4.4120857    1.1910701      1024000 
  995000   0.79364722   -4.4104602   -4.4104602   -3.2199918 0.0096671681   -4.4104602    1.1904684      1024000 
  996000   0.79532204   -4.4106864   -4.4106864   -3.2177058 0.0049745117   -4.4106864    1.1929806      1024000 
  997000   0.79494861    -4.409261    -4.409261   -3.2168406  0.011974993    -4.409261    1.1924205      1024000 
  998000   0.79577846    -4.410013    -4.410013   -3.2163477 0.0061728674    -4.410013    1.1936653      1024000 
  999000   0.79458791   -4.4074979   -4.4074979   -3.2156185 0.0087500931   -4.4074979    1.1918794      1024000 
 1000000    0.7948331   -4.4069404   -4.4069404   -3.2146932 0.0090346963   -4.4069404    1.1922472      1024000 
Loop time of 7924.13 on 32 procs for 1000000 steps with 492800 atoms

Performance: 27258.526 tau/day, 126.197 timesteps/s
99.7% CPU use with 32 MPI tasks x 1 OpenMP threads

MPI task timing breakdown:
Section |  min time  |  avg time  |  max time  |%varavg|  %CPU | %total
-----------------------------------------------------------------------
Pair    | 4189       | 5029.8     | 5463       | 484.2 |  99.7 | 63.47
Bond    | 0.62218    | 0.64763    | 0.67199    |   1.4 | 100.0 |  0.01
Neigh   | 1034.8     | 1211       | 1304.7     | 206.5 |  99.8 | 15.28
Comm    | 594.06     | 1118.6     | 2060.6     |1265.1 |  99.5 | 14.12
Output  | 22.44      | 22.619     | 22.626     |   0.7 |  98.3 |  0.29
Modify  | 147.77     | 265.92     | 722.21     |1189.0 |  99.2 |  3.36
Other   |            | 275.5      |            |       |       |  3.48

Nlocal:        15400.0 ave       16365 max       14459 min
Histogram: 1 0 1 0 14 15 0 0 0 1
Nghost:        12596.5 ave       14093 max        8783 min
Histogram: 4 4 0 0 0 0 0 0 8 16
Neighs:        550577.0 ave      589441 max      459005 min
Histogram: 1 1 1 2 2 3 2 4 7 9

Total # of neighbors = 17618475
Ave neighs/atom = 35.751776
Ave special neighs/atom = 0.0000000
Neighbor list builds = 58599
Dangerous builds = 69
Total wall time: 2:12:05
