LAMMPS (24 Dec 2020)
OMP_NUM_THREADS environment is not set. Defaulting to 1 thread. (src/comm.cpp:94)
  using 1 OpenMP thread(s) per MPI task
#Read the equilibrated lj fluid and add nanocubes

units           lj
atom_style      full
atom_modify     map array first cubes
dimension       3
boundary        p p f
pair_style      lj/cut/opt 2.5

variable        sigma           equal 1.0
variable        epsilon         equal 1.0
read_restart	restart.dat.3000000
Reading restart file ...
  restart file = 24 Dec 2020, LAMMPS = 24 Dec 2020
WARNING: Restart file used different # of processors: 48 vs. 240 (src/read_restart.cpp:697)
  restoring atom style full from restart
  orthogonal box = (0.0000000 0.0000000 0.0000000) to (80.000000 80.000000 160.00000)
  5 by 4 by 12 MPI processor grid
  restoring pair style lj/cut/opt from restart
  518400 atoms
Finding 1-2 1-3 1-4 neighbors ...
  special bond factors lj:    0        0        0       
  special bond factors coul:  0        0        0       
     0 = max # of 1-2 neighbors
     0 = max # of 1-3 neighbors
     0 = max # of 1-4 neighbors
     1 = max # of special neighbors
  special bonds CPU = 1.898 seconds
  read_restart CPU = 2.226 seconds

group		solvent type 1
518400 atoms in group solvent

read_data	data_125.cubes group cubes add append
Reading data file ...
  orthogonal box = (0.0000000 0.0000000 0.0000000) to (80.000000 80.000000 160.00000)
  5 by 4 by 12 MPI processor grid
  reading atoms ...
  142875 atoms
  reading velocities ...
  142875 velocities
Finding 1-2 1-3 1-4 neighbors ...
  special bond factors lj:    0        0        0       
  special bond factors coul:  0        0        0       
     0 = max # of 1-2 neighbors
     0 = max # of 1-3 neighbors
     0 = max # of 1-4 neighbors
     1 = max # of special neighbors
  special bonds CPU = 0.033 seconds
  read_data CPU = 0.353 seconds

group 		hull  type 2
55750 atoms in group hull
group 		dummy type 3
87125 atoms in group dummy

neighbor      0.4 bin
neigh_modify  exclude molecule/intra cubes


pair_modify   shift yes

pair_coeff    1 1 1.0 1.0 #solvent
pair_coeff    2 2 1.0 1.0 1.12 #np
pair_coeff    3 3 0.0 0.0 0.0 #dummy
pair_coeff    2 3 0.0 0.0 0.0 #np dummy
pair_coeff    1 2 ${sol} 1.0 #np solvent
pair_coeff    1 2 1.0 1.0 
pair_coeff    1 3 0.0 0.0 2.5 #dummy solvent

# delete solvent where the cubes are
delete_atoms  overlap 1.0 solvent cubes
System init for delete_atoms ...
Neighbor list info ...
  update every 1 steps, delay 10 steps, check yes
  max neighbors/atom: 2000, page size: 100000
  master list distance cutoff = 2.9
  ghost atom cutoff = 2.9
  binsize = 1.45, bins = 56 56 111
  2 neighbor lists, perpetual/occasional/extra = 1 1 0
  (1) command delete_atoms, occasional
      attributes: full, newton on
      pair build: full/bin
      stencil: full/bin/3d
      bin: standard
  (2) pair lj/cut/opt, perpetual
      attributes: half, newton on
      pair build: half/bin/newton
      stencil: half/bin/3d/newton
      bin: standard
WARNING: Delete_atoms cutoff > minimum neighbor cutoff (src/delete_atoms.cpp:307)
WARNING: Ignoring 'compress yes' for molecular system (src/delete_atoms.cpp:125)
Deleted 91914 atoms, new total = 569361



pair_coeff    1 1 1.0 1.0 #solvent
pair_coeff    2 2 1.0 1.0 1.12 #np
pair_coeff    3 3 0.0 0.0 0.0 #dummy
pair_coeff    2 3 0.0 0.0 0.0 #np dummy
pair_coeff    1 2 ${sol} 1.0 #np solvent
pair_coeff    1 2 1.0 1.0 
pair_coeff    1 3 0.0 0.0 0.0 #dummy solvent


comm_modify   mode multi cutoff/multi 1 2.5 cutoff/multi 2 2.5 cutoff/multi 3 6.95

reset_timestep 	0

balance 	1.05 shift z 10 1.05
Balancing ...
Neighbor list info ...
  update every 1 steps, delay 10 steps, check yes
  max neighbors/atom: 2000, page size: 100000
  master list distance cutoff = 2.9
  ghost atom cutoff = 6.95
  binsize = 1.45, bins = 56 56 111
  1 neighbor lists, perpetual/occasional/extra = 1 0 0
  (1) pair lj/cut/opt, perpetual
      attributes: half, newton on
      pair build: half/bin/newton
      stencil: half/bin/3d/newton
      bin: standard
 rebalancing time: 0.005 seconds
  iteration count = 4
  initial/final maximal load/proc = 3011.0000 3276.0000
  initial/final imbalance factor  = 1.2692123 1.3809165
  x cuts: 0.0000000 0.20000000 0.40000000 0.60000000 0.80000000 1.0000000
  y cuts: 0.0000000 0.25000000 0.50000000 0.75000000 1.0000000
  z cuts: 0.0000000 0.078125000 0.16145833 0.24479167 0.33854167 0.41145833 0.48437500 0.54687500 0.61979167 0.70312500 0.77604167 0.85937500 1.0000000

####################### WALLS ###########################

variable       epsilonWall equal 2*${epsilon}
variable       epsilonWall equal 2*1
variable       repulsive   equal   0.7147*${sigma}
variable       repulsive   equal   0.7147*1
variable       full	   equal   3*${sigma}
variable       full	   equal   3*1
region         lowWall block EDGE EDGE EDGE EDGE EDGE 2

fix            topWall all wall/lj93 zhi EDGE 	       ${epsilonWall} ${sigma} ${repulsive} units box
fix            topWall all wall/lj93 zhi EDGE 	       2 ${sigma} ${repulsive} units box
fix            topWall all wall/lj93 zhi EDGE 	       2 1 ${repulsive} units box
fix            topWall all wall/lj93 zhi EDGE 	       2 1 0.7147 units box
fix            lowSol solvent wall/lj93 zlo EDGE                ${epsilonWall} ${sigma} ${full} units box
fix            lowSol solvent wall/lj93 zlo EDGE                2 ${sigma} ${full} units box
fix            lowSol solvent wall/lj93 zlo EDGE                2 1 ${full} units box
fix            lowSol solvent wall/lj93 zlo EDGE                2 1 3 units box
fix 	       lowCub cubes wall/lj93 zlo EDGE                ${epsilonWall} ${sigma} ${repulsive} units box
fix 	       lowCub cubes wall/lj93 zlo EDGE                2 ${sigma} ${repulsive} units box
fix 	       lowCub cubes wall/lj93 zlo EDGE                2 1 ${repulsive} units box
fix 	       lowCub cubes wall/lj93 zlo EDGE                2 1 0.7147 units box


###################### COMPUTES ##########################

compute        bin1 solvent chunk/atom bin/1d z lower 1.0 units box


######################  FIXES ############################


fix             peclet solvent ave/chunk 10 10 10000 bin1 density/number norm                  none ave one file density.profile

fix              temp solvent ave/chunk 10 10 10000 bin1 temp norm                  none ave one file temp.profile

fix             1 cubes rigid/nve/small molecule
  create bodies CPU = 0.002 seconds
  125 rigid bodies with 142875 atoms
  6.9282032 = max distance from body owner to body atom

fix             2 solvent nve# temp ${temp} ${temp} 10


## Thermostat
region          regthermo block EDGE EDGE EDGE EDGE 0 15
group           thermo dynamic solvent region regthermo every 1000
dynamic group thermo defined
fix             3 thermo langevin ${temp} ${temp} 10 156453
fix             3 thermo langevin 1.0 ${temp} 10 156453
fix             3 thermo langevin 1.0 1.0 10 156453


#### Load balancing

fix             bal all balance 1000 1.05 shift z 10 1.05

############### Diagnostics and computes ###################

compute        	com cubes          rigid/local   1 mol x y z
compute        	quat cubes         rigid/local   1 mol quatw quati quatj quatk

compute 	cc2 cubes 	   chunk/atom 	 molecule
compute 	msd cubes 	   msd/chunk 	 cc2

fix 		msd all ave/time  1 1 10000 c_msd[*] file dump.msd ave one mode vector

dump            1 all custom 500000 dump.lammpstrj id mol type x y z
dump		cubetrj hull custom 500000 cubes.lammpstrj id mol type x y z
dump            com cubes local 10000 dump.*.xyz c_com[*]
dump	        xyz hull xyz 100000 cubes.xyz
dump            quat cubes      local 10000 dump.*.quat c_quat[*]
#dump		mol cubes molfile 10000 mol.xyz xyz


dump            2 all image 10000 image.*.png type type
dump_modify     2 pad 8
dump		image cubes image 10000 image_cubes.*.png type type
dump_modify	image pad 8
dump            3 all movie 5000 movie.avi type type
dump		4 cubes movie 5000 movie_cubes.avi type type


thermo          1000
thermo_style    custom step temp epair evdwl etotal press pe ke atoms

restart         1000000 restart.dat
timestep        0.005
timer           full
New timer settings: style=full  mode=nosync  timeout=off

run 		4000000
Per MPI rank memory allocation (min/avg/max) = 15.17 | 20.22 | 23.59 Mbytes
Step Temp E_pair E_vdwl TotEng Press PotEng KinEng Atoms 
       0   0.99247058   -2.5406705   -2.5406705   -1.4248883  -0.17269629   -2.5406705    1.1157823   569361 
    1000    1.0156597   -2.5688365   -2.5688365    -1.426984  0.061117585   -2.5688365    1.1418526   569361 
    2000    1.0181721   -2.5735434   -2.5735434   -1.4288663   0.05194217   -2.5735434    1.1446771   569361 
    3000    1.0192851   -2.5772724   -2.5772724    -1.431344  0.059983909   -2.5772724    1.1459284   569361 
    4000    1.0197404   -2.5808381   -2.5808381   -1.4343978  0.062519149   -2.5808381    1.1464402   569361 
    5000    1.0178147   -2.5814244   -2.5814244   -1.4371491    0.0624095   -2.5814244    1.1442753   569361 
    6000    1.0194258    -2.583778    -2.583778   -1.4376914  0.072639911    -2.583778    1.1460866   569361 
    7000    1.0189392   -2.5843323   -2.5843323   -1.4387928  0.079385991   -2.5843323    1.1455396   569361 
    8000     1.017436   -2.5843424   -2.5843424   -1.4404929  0.066219637   -2.5843424    1.1438496   569361 
    9000    1.0158769   -2.5849358   -2.5849358    -1.442839  0.053938546   -2.5849358    1.1420968   569361 
   10000    1.0159029   -2.5854394   -2.5854394   -1.4433134  0.063861263   -2.5854394     1.142126   569361 
   11000    1.0147691   -2.5855232   -2.5855232   -1.4446718  0.065610565   -2.5855232    1.1408513   569361 
   12000    1.0147987   -2.5858252   -2.5858252   -1.4449406  0.050518246   -2.5858252    1.1408846   569361 
   13000    1.0155362   -2.5868781   -2.5868781   -1.4451643  0.061317075   -2.5868781    1.1417137   569361 
   14000    1.0146737   -2.5871588   -2.5871588   -1.4464147  0.062175046   -2.5871588    1.1407441   569361 
   15000    1.0122937    -2.586184    -2.586184   -1.4481157   0.07419949    -2.586184    1.1380683   569361 
   16000    1.0116483   -2.5869444   -2.5869444   -1.4496016  0.057802178   -2.5869444    1.1373427   569361 
   17000    1.0156834   -2.5921448   -2.5921448   -1.4502656  0.068171278   -2.5921448    1.1418792   569361 
   18000    1.0138817   -2.5905303   -2.5905303   -1.4506767  0.064082849   -2.5905303    1.1398536   569361 
   19000    1.0144005   -2.5911445   -2.5911445   -1.4507076  0.061591926   -2.5911445    1.1404369   569361 
   20000    1.0128791   -2.5907895   -2.5907895    -1.452063  0.056770231   -2.5907895    1.1387265   569361 
   21000    1.0123569   -2.5912239   -2.5912239   -1.4530845  0.056503546   -2.5912239    1.1381394   569361 
   22000    1.0114017   -2.5911394   -2.5911394   -1.4540738  0.065389886   -2.5911394    1.1370656   569361 
   23000    1.0139186   -2.5946236   -2.5946236   -1.4547284  0.062708829   -2.5946236    1.1398951   569361 
   24000    1.0141517   -2.5952375   -2.5952375   -1.4550802  0.051163222   -2.5952375    1.1401572   569361 
   25000    1.0111297    -2.592413    -2.592413   -1.4556532  0.049973466    -2.592413    1.1367598   569361 
   26000    1.0138135   -2.5956159   -2.5956159   -1.4558389  0.051972011   -2.5956159     1.139777   569361 
   27000    1.0119882   -2.5933823   -2.5933823   -1.4556574  0.057325801   -2.5933823    1.1377249   569361 
   28000    1.0121867   -2.5941508   -2.5941508   -1.4562028  0.061579207   -2.5941508     1.137948   569361 
   29000    1.0132149    -2.595667    -2.595667    -1.456563  0.060195678    -2.595667     1.139104   569361 
   30000    1.0131898   -2.5967823   -2.5967823   -1.4577065  0.056962742   -2.5967823    1.1390758   569361 
   31000    1.0132811   -2.5973022   -2.5973022   -1.4581238  0.071440188   -2.5973022    1.1391784   569361 
   32000    1.0135144     -2.59782     -2.59782   -1.4583793  0.064254375     -2.59782    1.1394407   569361 
   33000    1.0109039   -2.5952472   -2.5952472   -1.4587413  0.057737968   -2.5952472    1.1365059   569361 
   34000    1.0118552   -2.5973272   -2.5973272   -1.4597518  0.065626002   -2.5973272    1.1375754   569361 
   35000    1.0130667   -2.5985405   -2.5985405   -1.4596031   0.06026593   -2.5985405    1.1389374   569361 
   36000     1.011096   -2.5968894   -2.5968894   -1.4601677  0.062854812   -2.5968894    1.1367218   569361 
   37000    1.0119064   -2.5980785   -2.5980785   -1.4604455  0.060783043   -2.5980785     1.137633   569361 
   38000    1.0099631   -2.5965576   -2.5965576   -1.4611094  0.065178198   -2.5965576    1.1354482   569361 
   39000    1.0100985   -2.5973469   -2.5973469   -1.4617465  0.058909731   -2.5973469    1.1356004   569361 
   40000    1.0106647   -2.5986905   -2.5986905   -1.4624535  0.056854905   -2.5986905     1.136237   569361 
   41000    1.0111814   -2.5984716   -2.5984716   -1.4616538  0.054251421   -2.5984716    1.1368178   569361 
   42000    1.0103866   -2.5979294   -2.5979294   -1.4620052  0.061333536   -2.5979294    1.1359242   569361 
   43000      1.01194   -2.5995557   -2.5995557    -1.461885  0.050716342   -2.5995557    1.1376707   569361 
   44000    1.0110778    -2.597932    -2.597932   -1.4612306  0.055051163    -2.597932    1.1367014   569361 
   45000    1.0114666   -2.5978372   -2.5978372   -1.4606987  0.058080011   -2.5978372    1.1371385   569361 
   46000    1.0136857   -2.6000607   -2.6000607   -1.4604274  0.062235099   -2.6000607    1.1396333   569361 
   47000    1.0112662   -2.5982667   -2.5982667   -1.4613535  0.062088227   -2.5982667    1.1369132   569361 
   48000    1.0110247   -2.5979613   -2.5979613   -1.4613196  0.059930574   -2.5979613    1.1366417   569361 
   49000    1.0125731   -2.5992294   -2.5992294   -1.4608469   0.06371736   -2.5992294    1.1383825   569361 
   50000    1.0107685   -2.5964119   -2.5964119   -1.4600582  0.055963906   -2.5964119    1.1363537   569361 
   51000    1.0116027   -2.5986701   -2.5986701   -1.4613785  0.058795769   -2.5986701    1.1372915   569361 
   52000    1.0111662   -2.5982538   -2.5982538    -1.461453  0.056878762   -2.5982538    1.1368007   569361 
   53000    1.0110649    -2.598961    -2.598961   -1.4622742  0.063937803    -2.598961    1.1366868   569361 
   54000    1.0107213   -2.5992038   -2.5992038   -1.4629033  0.052554472   -2.5992038    1.1363005   569361 
   55000    1.0099773   -2.5989643   -2.5989643   -1.4635002  0.062069832   -2.5989643    1.1354641   569361 
   56000     1.010256   -2.5992155   -2.5992155    -1.463438  0.071589864   -2.5992155    1.1357775   569361 
   57000    1.0087138   -2.5978973   -2.5978973   -1.4638537   0.05143137   -2.5978973    1.1340436   569361 
   58000    1.0111598    -2.602679    -2.602679   -1.4658855  0.057110495    -2.602679    1.1367935   569361 
   59000    1.0112325   -2.6031861   -2.6031861   -1.4663109  0.057013238   -2.6031861    1.1368752   569361 
   60000    1.0105549   -2.6029072   -2.6029072   -1.4667936  0.057945557   -2.6029072    1.1361135   569361 
   61000    1.0102251   -2.6020883   -2.6020883   -1.4663456  0.062604337   -2.6020883    1.1357428   569361 
   62000       1.0105    -2.601837    -2.601837   -1.4657853  0.053764987    -2.601837    1.1360517   569361 
   63000    1.0091415   -2.5992571   -2.5992571   -1.4647326  0.061171874   -2.5992571    1.1345244   569361 
   64000     1.010233   -2.6010839   -2.6010839   -1.4653323  0.057153369   -2.6010839    1.1357516   569361 
   65000    1.0093727   -2.6004901   -2.6004901   -1.4657057  0.054933419   -2.6004901    1.1347844   569361 
   66000    1.0092732   -2.5994273   -2.5994273   -1.4647548   0.06334762   -2.5994273    1.1346726   569361 
   67000    1.0101146   -2.6012257   -2.6012257   -1.4656072  0.060385797   -2.6012257    1.1356185   569361 
   68000    1.0093426   -2.6005604   -2.6005604   -1.4658099  0.060340744   -2.6005604    1.1347506   569361 
   69000    1.0101848   -2.6015482   -2.6015482   -1.4658508  0.055804399   -2.6015482    1.1356974   569361 
   70000    1.0129572   -2.6052846   -2.6052846   -1.4664703  0.070344963   -2.6052846    1.1388143   569361 
   71000    1.0125885   -2.6038709   -2.6038709   -1.4654712  0.053354978   -2.6038709    1.1383997   569361 
   72000    1.0104639   -2.6018174   -2.6018174   -1.4658062   0.05492042   -2.6018174    1.1360112   569361 
   73000    1.0122917   -2.6039473   -2.6039473   -1.4658812  0.052416551   -2.6039473    1.1380661   569361 
   74000    1.0117506   -2.6031979   -2.6031979   -1.4657401  0.061898928   -2.6031979    1.1374578   569361 
   75000    1.0115799   -2.6036225   -2.6036225   -1.4663566  0.058127316   -2.6036225    1.1372659   569361 
   76000    1.0106944   -2.6029192   -2.6029192   -1.4666489  0.057354183   -2.6029192    1.1362704   569361 
   77000    1.0132098   -2.6054647   -2.6054647   -1.4663665  0.059747996   -2.6054647    1.1390982   569361 
   78000    1.0121188   -2.6052261   -2.6052261   -1.4673544  0.060411752   -2.6052261    1.1378718   569361 
   79000    1.0121479    -2.605295    -2.605295   -1.4673905  0.071371094    -2.605295    1.1379045   569361 
   80000    1.0126849   -2.6061544   -2.6061544   -1.4676463  0.059047907   -2.6061544    1.1385081   569361 
   81000    1.0116533   -2.6045523   -2.6045523    -1.467204   0.06922606   -2.6045523    1.1373483   569361 
   82000    1.0113752   -2.6046024   -2.6046024   -1.4675668  0.065952396   -2.6046024    1.1370357   569361 
   83000    1.0123724   -2.6057374   -2.6057374   -1.4675806   0.05656973   -2.6057374    1.1381568   569361 
   84000    1.0115758   -2.6044706   -2.6044706   -1.4672093  0.055173276   -2.6044706    1.1372613   569361 
   85000    1.0122564   -2.6056069   -2.6056069   -1.4675805  0.059831432   -2.6056069    1.1380265   569361 
   86000    1.0113543   -2.6054569   -2.6054569   -1.4684447  0.054668478   -2.6054569    1.1370122   569361 
   87000    1.0114297   -2.6061091   -2.6061091   -1.4690121  0.059415213   -2.6061091     1.137097   569361 
   88000    1.0112633   -2.6065709   -2.6065709    -1.469661  0.070231118   -2.6065709    1.1369099   569361 
   89000    1.0120659   -2.6074886   -2.6074886   -1.4696763  0.059374527   -2.6074886    1.1378122   569361 
   90000    1.0126095   -2.6093256   -2.6093256   -1.4709022  0.071564917   -2.6093256    1.1384234   569361 
   91000    1.0114553   -2.6078217   -2.6078217    -1.470696  0.058664426   -2.6078217    1.1371257   569361 
   92000    1.0110941   -2.6072462   -2.6072462   -1.4705266  0.058660701   -2.6072462    1.1367196   569361 
   93000    1.0108416   -2.6075205   -2.6075205   -1.4710846  0.059456927   -2.6075205    1.1364358   569361 
   94000    1.0110927   -2.6083862   -2.6083862   -1.4716681  0.061879723   -2.6083862    1.1367181   569361 
   95000    1.0098735   -2.6063651   -2.6063651   -1.4710176  0.074575623   -2.6063651    1.1353474   569361 
   96000    1.0090901   -2.6068762   -2.6068762   -1.4724095  0.070053583   -2.6068762    1.1344667   569361 
   97000    1.0111005   -2.6094079   -2.6094079    -1.472681  0.058782146   -2.6094079    1.1367269   569361 
   98000    1.0089315    -2.607219    -2.607219   -1.4729306   0.05885985    -2.607219    1.1342884   569361 
   99000    1.0109196   -2.6095295   -2.6095295    -1.473006  0.060256016   -2.6095295    1.1365235   569361 
  100000    1.0104634   -2.6096099   -2.6096099   -1.4735993  0.069436397   -2.6096099    1.1360106   569361 
  101000    1.0086026   -2.6075697   -2.6075697    -1.473651   0.06923496   -2.6075697    1.1339187   569361 
  102000    1.0110124   -2.6100505   -2.6100505   -1.4734228  0.061330307   -2.6100505    1.1366278   569361 
  103000    1.0106436   -2.6100184   -2.6100184   -1.4738052  0.066983659   -2.6100184    1.1362132   569361 
  104000     1.011302   -2.6103317   -2.6103317   -1.4733782  0.066385357   -2.6103317    1.1369534   569361 
  105000    1.0124987    -2.611272    -2.611272   -1.4729732  0.056624915    -2.611272    1.1382988   569361 
  106000    1.0110209   -2.6096173   -2.6096173   -1.4729799  0.058569879   -2.6096173    1.1366374   569361 
  107000    1.0090864   -2.6075314   -2.6075314   -1.4730688  0.063528599   -2.6075314    1.1344626   569361 
  108000    1.0100816   -2.6088369   -2.6088369   -1.4732556  0.061617274   -2.6088369    1.1355814   569361 
  109000    1.0114058   -2.6093925   -2.6093925   -1.4723224  0.060893258   -2.6093925    1.1370702   569361 
  110000    1.0117982   -2.6095512   -2.6095512   -1.4720399  0.061682065   -2.6095512    1.1375113   569361 
  111000     1.014277   -2.6129517   -2.6129517   -1.4726536  0.057775083   -2.6129517    1.1402981   569361 
  112000    1.0109898   -2.6106062   -2.6106062   -1.4740038  0.064192432   -2.6106062    1.1366024   569361 
  113000    1.0107258   -2.6097493   -2.6097493   -1.4734437  0.057131992   -2.6097493    1.1363057   569361 
  114000    1.0101902   -2.6093586   -2.6093586   -1.4736552  0.057395835   -2.6093586    1.1357035   569361 
  115000    1.0106949   -2.6098085   -2.6098085   -1.4735377  0.053221767   -2.6098085    1.1362708   569361 
  116000     1.010548   -2.6090541   -2.6090541   -1.4729484   0.06559771   -2.6090541    1.1361057   569361 
  117000    1.0107585   -2.6097226   -2.6097226   -1.4733801  0.064122504   -2.6097226    1.1363424   569361 
  118000    1.0106449   -2.6103186   -2.6103186   -1.4741039  0.071689567   -2.6103186    1.1362147   569361 
  119000    1.0100213   -2.6104296   -2.6104296    -1.474916  0.057669495   -2.6104296    1.1355136   569361 
  120000    1.0119582    -2.612256    -2.612256   -1.4745648  0.069885216    -2.612256    1.1376911   569361 
  121000    1.0109417   -2.6110252   -2.6110252   -1.4744769  0.057312031   -2.6110252    1.1365483   569361 
  122000    1.0100492   -2.6107323   -2.6107323   -1.4751873  0.063455954   -2.6107323     1.135545   569361 
  123000    1.0092946   -2.6101452   -2.6101452   -1.4754486  0.064646117   -2.6101452    1.1346966   569361 
  124000    1.0104431   -2.6120317   -2.6120317   -1.4760438  0.058376609   -2.6120317    1.1359879   569361 
  125000    1.0104374   -2.6110916   -2.6110916   -1.4751102  0.062911009   -2.6110916    1.1359814   569361 
  126000    1.0102161   -2.6115449   -2.6115449   -1.4758123  0.057232138   -2.6115449    1.1357326   569361 
  127000     1.010612   -2.6126595   -2.6126595   -1.4764818  0.060679645   -2.6126595    1.1361777   569361 
  128000    1.0119251   -2.6149677   -2.6149677   -1.4773137  0.066257078   -2.6149677     1.137654   569361 
  129000     1.011708   -2.6143488   -2.6143488   -1.4769389  0.063012477   -2.6143488    1.1374098   569361 
  130000    1.0115705   -2.6145457   -2.6145457   -1.4772903  0.070358326   -2.6145457    1.1372553   569361 
  131000    1.0112624   -2.6134616   -2.6134616   -1.4765527  0.056528408   -2.6134616    1.1369089   569361 
  132000     1.011696    -2.614307    -2.614307   -1.4769106  0.060288041    -2.614307    1.1373963   569361 
  133000     1.010653   -2.6131646   -2.6131646   -1.4769408   0.06898772   -2.6131646    1.1362238   569361 
  134000    1.0103743   -2.6141505   -2.6141505   -1.4782401  0.070699744   -2.6141505    1.1359105   569361 
  135000    1.0093286   -2.6130074   -2.6130074   -1.4782726  0.061081488   -2.6130074    1.1347349   569361 
  136000    1.0089938    -2.612318    -2.612318   -1.4779595  0.052585913    -2.612318    1.1343585   569361 
  137000     1.007843   -2.6105165   -2.6105165   -1.4774519  0.056132637   -2.6105165    1.1330647   569361 
  138000    1.0097092    -2.613487    -2.613487   -1.4783243  0.066579489    -2.613487    1.1351627   569361 
  139000    1.0094797   -2.6127405   -2.6127405   -1.4778358  0.052674089   -2.6127405    1.1349048   569361 
  140000    1.0094654   -2.6118726   -2.6118726    -1.476984  0.058545177   -2.6118726    1.1348886   569361 
  141000    1.0129373   -2.6154357   -2.6154357   -1.4766438  0.063645828   -2.6154357    1.1387919   569361 
  142000    1.0115813   -2.6141849   -2.6141849   -1.4769175  0.056816471   -2.6141849    1.1372675   569361 
  143000    1.0110451   -2.6133699   -2.6133699   -1.4767052  0.061752264   -2.6133699    1.1366647   569361 
  144000    1.0128759   -2.6153927   -2.6153927   -1.4766698  0.067083236   -2.6153927    1.1387229   569361 
  145000    1.0082376   -2.6105532   -2.6105532   -1.4770449  0.065788968   -2.6105532    1.1335083   569361 
  146000    1.0111827   -2.6139005   -2.6139005   -1.4770812  0.064033312   -2.6139005    1.1368193   569361 
  147000    1.0121858   -2.6156011   -2.6156011    -1.477654  0.057667036   -2.6156011    1.1379471   569361 
  148000    1.0094066   -2.6128743   -2.6128743   -1.4780518  0.061275338   -2.6128743    1.1348225   569361 
  149000    1.0118724   -2.6150386   -2.6150386   -1.4774439  0.059851789   -2.6150386    1.1375947   569361 
  150000    1.0103834   -2.6147409   -2.6147409   -1.4788202  0.061895978   -2.6147409    1.1359207   569361 
  151000    1.0089676   -2.6140929   -2.6140929   -1.4797638  0.064584094   -2.6140929     1.134329   569361 
  152000     1.009404   -2.6153078   -2.6153078   -1.4804882  0.060667468   -2.6153078    1.1348196   569361 
  153000    1.0097707   -2.6169281   -2.6169281   -1.4816962  0.064920054   -2.6169281    1.1352319   569361 
  154000    1.0102629   -2.6168287   -2.6168287   -1.4810435  0.068916014   -2.6168287    1.1357852   569361 
  155000    1.0108408   -2.6171875   -2.6171875   -1.4807525   0.05295374   -2.6171875     1.136435   569361 
  156000    1.0106404    -2.616771    -2.616771   -1.4805614   0.05600108    -2.616771    1.1362097   569361 
  157000    1.0093289   -2.6157394   -2.6157394   -1.4810042  0.055041036   -2.6157394    1.1347352   569361 
  158000    1.0091075   -2.6157889   -2.6157889   -1.4813027  0.051017899   -2.6157889    1.1344862   569361 
  159000    1.0070958   -2.6140992   -2.6140992   -1.4818746  0.056904252   -2.6140992    1.1322246   569361 
  160000    1.0093908   -2.6160867   -2.6160867    -1.481282  0.053775171   -2.6160867    1.1348047   569361 
  161000    1.0093967   -2.6158708   -2.6158708   -1.4810594  0.046425161   -2.6158708    1.1348114   569361 
  162000    1.0100973   -2.6164889   -2.6164889   -1.4808899  0.056509115   -2.6164889     1.135599   569361 
  163000    1.0081677   -2.6142831   -2.6142831   -1.4808535  0.067484932   -2.6142831    1.1334296   569361 
  164000    1.0086515   -2.6154295   -2.6154295   -1.4814559  0.063070708   -2.6154295    1.1339736   569361 
  165000    1.0092792   -2.6155614   -2.6155614   -1.4808821    0.0534164   -2.6155614    1.1346792   569361 
  166000    1.0094396   -2.6147642   -2.6147642   -1.4799046  0.058008789   -2.6147642    1.1348596   569361 
  167000    1.0072477   -2.6128876   -2.6128876   -1.4804922  0.064273568   -2.6128876    1.1323954   569361 
  168000    1.0093898   -2.6155051   -2.6155051   -1.4807014  0.066039818   -2.6155051    1.1348036   569361 
  169000    1.0091499   -2.6147432   -2.6147432   -1.4802093  0.054213704   -2.6147432    1.1345339   569361 
  170000    1.0099715   -2.6153535   -2.6153535   -1.4798959  0.057925853   -2.6153535    1.1354576   569361 
  171000    1.0097706   -2.6150521   -2.6150521   -1.4798203  0.072053185   -2.6150521    1.1352318   569361 
  172000    1.0117932    -2.617009    -2.617009   -1.4795033  0.053312366    -2.617009    1.1375057   569361 
  173000    1.0097515   -2.6153499   -2.6153499   -1.4801397  0.056200153   -2.6153499    1.1352102   569361 
  174000    1.0109969   -2.6174061   -2.6174061   -1.4807958   0.06240915   -2.6174061    1.1366104   569361 
  175000    1.0123799   -2.6187408   -2.6187408   -1.4805755  0.067468452   -2.6187408    1.1381653   569361 
  176000    1.0108763   -2.6175745   -2.6175745   -1.4810997  0.077871403   -2.6175745    1.1364748   569361 
  177000    1.0123031   -2.6188715   -2.6188715   -1.4807925  0.071375997   -2.6188715     1.138079   569361 
  178000     1.010959   -2.6177343   -2.6177343   -1.4811665  0.064270518   -2.6177343    1.1365679   569361 
  179000    1.0116198   -2.6201731   -2.6201731   -1.4828624  0.065160111   -2.6201731    1.1373107   569361 
  180000    1.0118273   -2.6197301   -2.6197301   -1.4821861  0.051172693   -2.6197301     1.137544   569361 
  181000    1.0098477   -2.6177635   -2.6177635    -1.482445   0.06129663   -2.6177635    1.1353185   569361 
  182000    1.0085616   -2.6165738   -2.6165738   -1.4827013  0.066281395   -2.6165738    1.1338725   569361 
  183000    1.0080659   -2.6168672   -2.6168672    -1.483552   0.06680028   -2.6168672    1.1333152   569361 
  184000    1.0090313   -2.6180317   -2.6180317   -1.4836312  0.070213081   -2.6180317    1.1344006   569361 
  185000    1.0105132   -2.6200297   -2.6200297   -1.4839631  0.061931325   -2.6200297    1.1360666   569361 
  186000    1.0109499   -2.6208935   -2.6208935    -1.484336  0.049836374   -2.6208935    1.1365575   569361 
  187000    1.0102452    -2.620309    -2.620309   -1.4845437  0.049939824    -2.620309    1.1357654   569361 
  188000    1.0096754    -2.618986    -2.618986   -1.4838613   0.06547118    -2.618986    1.1351247   569361 
  189000    1.0101287   -2.6196827   -2.6196827   -1.4840483  0.049740711   -2.6196827    1.1356344   569361 
  190000    1.0100809   -2.6200517   -2.6200517    -1.484471  0.068427724   -2.6200517    1.1355807   569361 
  191000    1.0097369   -2.6189827   -2.6189827   -1.4837888  0.067254473   -2.6189827    1.1351939   569361 
  192000    1.0095105   -2.6186986   -2.6186986   -1.4837592  0.065937013   -2.6186986    1.1349394   569361 
  193000    1.0100134   -2.6189492   -2.6189492   -1.4834445  0.048067585   -2.6189492    1.1355047   569361 
  194000    1.0098896   -2.6193883   -2.6193883   -1.4840227  0.058330949   -2.6193883    1.1353656   569361 
  195000    1.0091515   -2.6188967   -2.6188967    -1.484361  0.057196901   -2.6188967    1.1345357   569361 
  196000    1.0080454   -2.6184694   -2.6184694   -1.4851772  0.052915655   -2.6184694    1.1332922   569361 
  197000    1.0080547   -2.6181063   -2.6181063   -1.4848037  0.052388276   -2.6181063    1.1333026   569361 
  198000    1.0090546   -2.6189889   -2.6189889   -1.4845621   0.06546943   -2.6189889    1.1344268   569361 
  199000     1.009033   -2.6197049   -2.6197049   -1.4853024  0.069088354   -2.6197049    1.1344025   569361 
  200000    1.0077061   -2.6187525   -2.6187525   -1.4858417  0.062293038   -2.6187525    1.1329108   569361 
  201000    1.0087575   -2.6194767   -2.6194767    -1.485384   0.07274147   -2.6194767    1.1340927   569361 
  202000     1.007997   -2.6191165   -2.6191165   -1.4858788  0.056044764   -2.6191165    1.1332377   569361 
  203000    1.0083711   -2.6194253   -2.6194253   -1.4857669  0.056454257   -2.6194253    1.1336584   569361 
  204000     1.006779   -2.6179953   -2.6179953   -1.4861269  0.059326629   -2.6179953    1.1318684   569361 
  205000    1.0077824   -2.6194039   -2.6194039   -1.4864073  0.064280872   -2.6194039    1.1329965   569361 
  206000    1.0085307     -2.62031     -2.62031   -1.4864721  0.052044788     -2.62031    1.1338378   569361 
  207000    1.0082289   -2.6203572   -2.6203572   -1.4868587   0.06454794   -2.6203572    1.1334985   569361 
  208000    1.0116559   -2.6235688   -2.6235688   -1.4862175   0.05455108   -2.6235688    1.1373513   569361 
  209000    1.0091561   -2.6211654   -2.6211654   -1.4866244  0.060654113   -2.6211654    1.1345409   569361 
  210000    1.0086283   -2.6205903   -2.6205903   -1.4866428  0.068874957   -2.6205903    1.1339475   569361 
  211000     1.007421   -2.6199382   -2.6199382    -1.487348  0.058841856   -2.6199382    1.1325902   569361 
  212000    1.0101448   -2.6228372   -2.6228372   -1.4871848  0.046724417   -2.6228372    1.1356524   569361 
  213000    1.0095397   -2.6224628   -2.6224628   -1.4874906  0.065914752   -2.6224628    1.1349721   569361 
  214000     1.009254   -2.6233401   -2.6233401   -1.4886892  0.064233563   -2.6233401     1.134651   569361 
  215000    1.0091103     -2.62259     -2.62259   -1.4881006   0.05709002     -2.62259    1.1344895   569361 
  216000    1.0093486   -2.6225405   -2.6225405   -1.4877832  0.068381888   -2.6225405    1.1347573   569361 
  217000      1.00987   -2.6236697   -2.6236697   -1.4883262  0.056574457   -2.6236697    1.1353435   569361 
  218000    1.0088296   -2.6226359   -2.6226359    -1.488462  0.058271689   -2.6226359    1.1341738   569361 
  219000    1.0068218   -2.6202334   -2.6202334   -1.4883168  0.061882069   -2.6202334    1.1319166   569361 
  220000    1.0087568   -2.6227897   -2.6227897   -1.4886977  0.065693332   -2.6227897     1.134092   569361 
  221000    1.0079781   -2.6222916   -2.6222916   -1.4890751  0.062862679   -2.6222916    1.1332165   569361 
  222000    1.0088754   -2.6241936   -2.6241936   -1.4899683  0.066054109   -2.6241936    1.1342253   569361 
  223000    1.0080155   -2.6227678   -2.6227678   -1.4895092  0.065614314   -2.6227678    1.1332586   569361 
  224000    1.0069476   -2.6216008   -2.6216008   -1.4895428  0.059378612   -2.6216008     1.132058   569361 
  225000    1.0076548    -2.621684    -2.621684    -1.488831    0.0646148    -2.621684     1.132853   569361 
  226000    1.0077189   -2.6214306   -2.6214306   -1.4885055  0.064039778   -2.6214306    1.1329251   569361 
  227000    1.0071354   -2.6211313   -2.6211313   -1.4888621   0.05465458   -2.6211313    1.1322691   569361 
  228000    1.0061028   -2.6195986   -2.6195986   -1.4884905  0.062268232   -2.6195986    1.1311082   569361 
  229000    1.0072954    -2.620958    -2.620958   -1.4885091  0.050690456    -2.620958     1.132449   569361 
  230000    1.0078836   -2.6209654   -2.6209654   -1.4878551  0.059505081   -2.6209654    1.1331103   569361 
  231000    1.0093704   -2.6220858   -2.6220858    -1.487304  0.053557696   -2.6220858    1.1347819   569361 
  232000    1.0085326   -2.6217852   -2.6217852   -1.4879454  0.060734674   -2.6217852    1.1338399   569361 
  233000    1.0083111   -2.6216461   -2.6216461   -1.4880552  0.065137135   -2.6216461     1.133591   569361 
  234000    1.0074478   -2.6217969   -2.6217969   -1.4891766  0.053059451   -2.6217969    1.1326203   569361 
  235000    1.0073086   -2.6222611   -2.6222611   -1.4897973  0.073115643   -2.6222611    1.1324638   569361 
  236000    1.0091636    -2.624152    -2.624152   -1.4896027  0.056465341    -2.624152    1.1345493   569361 
  237000    1.0100222   -2.6255269   -2.6255269   -1.4900123  0.049344307   -2.6255269    1.1355146   569361 
  238000    1.0072502   -2.6228691   -2.6228691   -1.4904709  0.065614741   -2.6228691    1.1323982   569361 
  239000    1.0077908   -2.6232655   -2.6232655   -1.4902596  0.064403783   -2.6232655    1.1330059   569361 
  240000    1.0086291   -2.6242655   -2.6242655    -1.490317   0.05894573   -2.6242655    1.1339485   569361 
  241000    1.0087359   -2.6247806   -2.6247806   -1.4907121  0.049890988   -2.6247806    1.1340685   569361 
  242000     1.008666   -2.6238853   -2.6238853   -1.4898953  0.060542702   -2.6238853    1.1339899   569361 
  243000    1.0086705   -2.6237717   -2.6237717   -1.4897767  0.055634802   -2.6237717     1.133995   569361 
  244000    1.0074842   -2.6225454   -2.6225454   -1.4898841  0.055324052   -2.6225454    1.1326613   569361 
  245000    1.0084691   -2.6233148   -2.6233148   -1.4895462  0.059449709   -2.6233148    1.1337686   569361 
  246000    1.0100447   -2.6253904   -2.6253904   -1.4898505  0.063062654   -2.6253904      1.13554   569361 
  247000    1.0085434   -2.6232476   -2.6232476   -1.4893954  0.061070661   -2.6232476    1.1338521   569361 
  248000    1.0108326   -2.6257632   -2.6257632   -1.4893375  0.065014529   -2.6257632    1.1364257   569361 
  249000    1.0091228   -2.6243695   -2.6243695    -1.489866  0.069340988   -2.6243695    1.1345035   569361 
  250000    1.0096183   -2.6250562   -2.6250562   -1.4899957  0.066546364   -2.6250562    1.1350605   569361 
  251000    1.0114174   -2.6268614   -2.6268614   -1.4897782  0.055295477   -2.6268614    1.1370832   569361 
  252000    1.0085444   -2.6230312   -2.6230312    -1.489178  0.062995344   -2.6230312    1.1338532   569361 
  253000    1.0081816   -2.6236808   -2.6236808   -1.4902355  0.060313262   -2.6236808    1.1334453   569361 
  254000    1.0069784   -2.6226039   -2.6226039   -1.4905113  0.060368663   -2.6226039    1.1320926   569361 
  255000    1.0079803   -2.6243955   -2.6243955   -1.4911765  0.058272029   -2.6243955     1.133219   569361 
  256000    1.0101119   -2.6275556   -2.6275556   -1.4919402  0.059816567   -2.6275556    1.1356154   569361 
  257000    1.0066942   -2.6229624   -2.6229624   -1.4911893  0.063139798   -2.6229624    1.1317731   569361 
  258000    1.0068538   -2.6231913   -2.6231913   -1.4912388  0.066622844   -2.6231913    1.1319525   569361 
  259000    1.0079302   -2.6249338   -2.6249338   -1.4917711  0.063681781   -2.6249338    1.1331627   569361 
  260000    1.0068871   -2.6237453   -2.6237453   -1.4917553   0.05821367   -2.6237453      1.13199   569361 
  261000    1.0072614   -2.6240993   -2.6240993   -1.4916885  0.070062835   -2.6240993    1.1324108   569361 
  262000    1.0078188    -2.624557    -2.624557   -1.4915195  0.067635251    -2.624557    1.1330375   569361 
  263000    1.0088541   -2.6262594   -2.6262594   -1.4920581  0.065228502   -2.6262594    1.1342013   569361 
  264000    1.0083695   -2.6268182   -2.6268182   -1.4931617  0.061722983   -2.6268182    1.1336565   569361 
  265000    1.0068101   -2.6241511   -2.6241511   -1.4922477  0.062786376   -2.6241511    1.1319035   569361 
  266000    1.0083795   -2.6266526   -2.6266526   -1.4929848  0.056353765   -2.6266526    1.1336679   569361 
  267000    1.0096537   -2.6281069   -2.6281069   -1.4930066  0.058984827   -2.6281069    1.1351003   569361 
  268000    1.0072779   -2.6253012   -2.6253012   -1.4928719  0.057543941   -2.6253012    1.1324293   569361 
  269000    1.0095348    -2.627744    -2.627744   -1.4927773  0.056311136    -2.627744    1.1349667   569361 
  270000    1.0074462   -2.6250711   -2.6250711   -1.4924526  0.057684042   -2.6250711    1.1326185   569361 
  271000    1.0088003   -2.6272312   -2.6272312   -1.4930903    0.0608538   -2.6272312    1.1341409   569361 
  272000    1.0090037   -2.6272467   -2.6272467   -1.4928772   0.06552256   -2.6272467    1.1343695   569361 
  273000    1.0087092   -2.6268392   -2.6268392   -1.4928007  0.054856099   -2.6268392    1.1340385   569361 
  274000    1.0094055   -2.6270547   -2.6270547   -1.4922334  0.064468193   -2.6270547    1.1348213   569361 
  275000    1.0081327   -2.6269128   -2.6269128   -1.4935225  0.063213494   -2.6269128    1.1333903   569361 
  276000    1.0089253   -2.6265036   -2.6265036   -1.4922222  0.059577183   -2.6265036    1.1342814   569361 
  277000    1.0090209   -2.6265941   -2.6265941   -1.4922053   0.06042351   -2.6265941    1.1343888   569361 
  278000    1.0079691   -2.6258553   -2.6258553   -1.4926489  0.051111527   -2.6258553    1.1332064   569361 
  279000    1.0085548   -2.6262961   -2.6262961   -1.4924312  0.061275272   -2.6262961    1.1338649   569361 
  280000    1.0048895   -2.6225378   -2.6225378   -1.4927936  0.066556543   -2.6225378    1.1297442   569361 
  281000    1.0070744   -2.6255229   -2.6255229   -1.4933224  0.058589767   -2.6255229    1.1322006   569361 
  282000    1.0047685    -2.623425    -2.623425   -1.4938168  0.062871682    -2.623425    1.1296082   569361 
  283000    1.0079443   -2.6263933   -2.6263933   -1.4932148  0.057936325   -2.6263933    1.1331785   569361 
  284000    1.0055058   -2.6245251   -2.6245251    -1.494088     0.065118   -2.6245251    1.1304371   569361 
  285000     1.005949   -2.6244789   -2.6244789   -1.4935435  0.049660417   -2.6244789    1.1309354   569361 
  286000     1.006826   -2.6268631   -2.6268631   -1.4949419  0.058973461   -2.6268631    1.1319212   569361 
  287000     1.007232   -2.6265141   -2.6265141   -1.4941364  0.059405231   -2.6265141    1.1323778   569361 
  288000    1.0076745   -2.6269626   -2.6269626   -1.4940874  0.055454212   -2.6269626    1.1328752   569361 
  289000    1.0077292   -2.6275975   -2.6275975   -1.4946608  0.073042503   -2.6275975    1.1329367   569361 
  290000    1.0087123   -2.6284396   -2.6284396   -1.4943976  0.069144436   -2.6284396     1.134042   569361 
  291000    1.0082962   -2.6287168   -2.6287168   -1.4951426  0.070933169   -2.6287168    1.1335742   569361 
  292000    1.0098693   -2.6305213   -2.6305213   -1.4951785  0.075217356   -2.6305213    1.1353427   569361 
  293000    1.0088162   -2.6295835   -2.6295835   -1.4954248  0.064578902   -2.6295835    1.1341587   569361 
  294000    1.0105264   -2.6306402   -2.6306402   -1.4945588  0.060107353   -2.6306402    1.1360815   569361 
  295000    1.0096691   -2.6302001   -2.6302001   -1.4950825  0.066698907   -2.6302001    1.1351176   569361 
  296000    1.0076094   -2.6279171   -2.6279171   -1.4951151   0.05552338   -2.6279171     1.132802   569361 
  297000    1.0068057   -2.6274367   -2.6274367   -1.4955382  0.058056279   -2.6274367    1.1318985   569361 
  298000    1.0068092   -2.6267382   -2.6267382   -1.4948359  0.060296468   -2.6267382    1.1319024   569361 
  299000    1.0080615   -2.6278469   -2.6278469   -1.4945366  0.046378407   -2.6278469    1.1333103   569361 
  300000    1.0080121   -2.6266136   -2.6266136   -1.4933588  0.063119973   -2.6266136    1.1332547   569361 
  301000    1.0054594   -2.6241386   -2.6241386   -1.4937537  0.063923601   -2.6241386    1.1303848   569361 
  302000    1.0076252   -2.6270306   -2.6270306   -1.4942108  0.055513551   -2.6270306    1.1328198   569361 
  303000    1.0057665   -2.6250226   -2.6250226   -1.4942924  0.067010721   -2.6250226    1.1307302   569361 
  304000    1.0069768   -2.6266858   -2.6266858   -1.4945951  0.059388282   -2.6266858    1.1320908   569361 
  305000    1.0058024   -2.6256581   -2.6256581   -1.4948876  0.038406999   -2.6256581    1.1307705   569361 
  306000    1.0050817   -2.6245688   -2.6245688   -1.4946085  0.060822802   -2.6245688    1.1299603   569361 
  307000    1.0088411   -2.6286606   -2.6286606   -1.4944738  0.057622695   -2.6286606    1.1341867   569361 
  308000    1.0095388   -2.6292611   -2.6292611   -1.4942899  0.065351516   -2.6292611    1.1349712   569361 
  309000    1.0081775   -2.6281764   -2.6281764   -1.4947356  0.065890217   -2.6281764    1.1334407   569361 
  310000    1.0078748   -2.6286904   -2.6286904   -1.4955901  0.070615936   -2.6286904    1.1331004   569361 
  311000    1.0094677    -2.629982    -2.629982   -1.4950908  0.059795818    -2.629982    1.1348913   569361 
  312000    1.0065528   -2.6271585   -2.6271585   -1.4955443  0.065228576   -2.6271585    1.1316142   569361 
  313000    1.0085757   -2.6288756   -2.6288756   -1.4949872  0.067148961   -2.6288756    1.1338884   569361 
  314000    1.0076108   -2.6286286   -2.6286286   -1.4958249  0.060733033   -2.6286286    1.1328036   569361 
  315000    1.0093625   -2.6299267   -2.6299267   -1.4951537  0.062095897   -2.6299267    1.1347729   569361 
  316000    1.0099359    -2.632684    -2.632684   -1.4972664  0.060715727    -2.632684    1.1354176   569361 
  317000    1.0097063    -2.631945    -2.631945   -1.4967855  0.059598696    -2.631945    1.1351595   569361 
  318000    1.0086495   -2.6303253   -2.6303253   -1.4963539  0.071424824   -2.6303253    1.1339713   569361 
  319000    1.0082794   -2.6293812   -2.6293812   -1.4958259  0.070493161   -2.6293812    1.1335553   569361 
  320000    1.0081172   -2.6298897   -2.6298897   -1.4965167  0.057253651   -2.6298897     1.133373   569361 
  321000    1.0066808    -2.628527    -2.628527   -1.4967689  0.066795986    -2.628527    1.1317581   569361 
  322000    1.0065277   -2.6293388   -2.6293388   -1.4977529  0.064676169   -2.6293388    1.1315859   569361 
  323000    1.0063804   -2.6287211   -2.6287211   -1.4973008  0.060920788   -2.6287211    1.1314203   569361 
  324000    1.0057027   -2.6286638   -2.6286638   -1.4980054  0.060746877   -2.6286638    1.1306584   569361 
  325000    1.0070661   -2.6311531   -2.6311531   -1.4989619  0.043327088   -2.6311531    1.1321912   569361 
  326000    1.0066068    -2.629962    -2.629962   -1.4982871  0.063684651    -2.629962    1.1316749   569361 
  327000    1.0067876   -2.6303177   -2.6303177   -1.4984396  0.072083119   -2.6303177    1.1318781   569361 
  328000    1.0093525   -2.6333698   -2.6333698   -1.4986081   0.05818148   -2.6333698    1.1347618   569361 
  329000    1.0074376    -2.631233    -2.631233   -1.4986242  0.063382067    -2.631233    1.1326089   569361 
  330000    1.0082755   -2.6323437   -2.6323437   -1.4987928  0.067056793   -2.6323437    1.1335509   569361 
  331000    1.0081452   -2.6321197   -2.6321197   -1.4987153  0.055571673   -2.6321197    1.1334044   569361 
  332000    1.0077494   -2.6323481   -2.6323481   -1.4993887  0.066033082   -2.6323481    1.1329594   569361 
  333000    1.0071496   -2.6321929   -2.6321929   -1.4999079  0.065425052   -2.6321929    1.1322851   569361 
  334000    1.0073011   -2.6313466   -2.6313466   -1.4988912  0.062381985   -2.6313466    1.1324554   569361 
  335000    1.0079599   -2.6318622   -2.6318622   -1.4986662  0.053582291   -2.6318622     1.133196   569361 
  336000    1.0078975   -2.6310787   -2.6310787   -1.4979528  0.065604618   -2.6310787    1.1331259   569361 
  337000    1.0093783   -2.6333029   -2.6333029   -1.4985122  0.061014672   -2.6333029    1.1347907   569361 
  338000    1.0073461   -2.6314904   -2.6314904   -1.4989844  0.059171815   -2.6314904     1.132506   569361 
  339000    1.0051531   -2.6300876   -2.6300876   -1.5000471  0.055414083   -2.6300876    1.1300405   569361 
  340000    1.0073535   -2.6325722   -2.6325722   -1.5000579  0.055181792   -2.6325722    1.1325143   569361 
  341000    1.0072554   -2.6319531   -2.6319531   -1.4995491  0.060053515   -2.6319531     1.132404   569361 
  342000    1.0061336   -2.6311797   -2.6311797   -1.5000369  0.059346854   -2.6311797    1.1311429   569361 
  343000    1.0053097   -2.6309787   -2.6309787   -1.5007621  0.065532757   -2.6309787    1.1302166   569361 
  344000    1.0062598   -2.6314294   -2.6314294   -1.5001447  0.057105365   -2.6314294    1.1312847   569361 
  345000    1.0061299   -2.6320213   -2.6320213   -1.5008826  0.062044043   -2.6320213    1.1311387   569361 
  346000    1.0062396   -2.6326827   -2.6326827   -1.5014206  0.051620249   -2.6326827    1.1312621   569361 
  347000    1.0057475   -2.6305919   -2.6305919   -1.4998832  0.066261567   -2.6305919    1.1307087   569361 
  348000    1.0065123   -2.6303162   -2.6303162   -1.4987475  0.070961154   -2.6303162    1.1315687   569361 
  349000    1.0067922   -2.6317237   -2.6317237   -1.4998404   0.06902022   -2.6317237    1.1318833   569361 
  350000     1.007329   -2.6328956   -2.6328956   -1.5004088  0.058373238   -2.6328956    1.1324868   569361 
  351000    1.0088612   -2.6332939   -2.6332939   -1.4990845  0.068152759   -2.6332939    1.1342094   569361 
  352000    1.0082767    -2.632659    -2.632659   -1.4991068  0.065926214    -2.632659    1.1335523   569361 
  353000    1.0078363   -2.6331916   -2.6331916   -1.5001345   0.06785999   -2.6331916    1.1330571   569361 
  354000    1.0085068   -2.6345977   -2.6345977   -1.5007867  0.063104946   -2.6345977     1.133811   569361 
  355000    1.0101406   -2.6363628   -2.6363628   -1.5007151    0.0627267   -2.6363628    1.1356477   569361 
  356000    1.0089212   -2.6345012   -2.6345012   -1.5002244   0.06721878   -2.6345012    1.1342768   569361 
  357000    1.0085027    -2.635101    -2.635101   -1.5012947  0.062293135    -2.635101    1.1338063   569361 
  358000    1.0074155   -2.6339558   -2.6339558   -1.5013718  0.070319385   -2.6339558     1.132584   569361 
  359000    1.0076646    -2.634867    -2.634867   -1.5020029  0.067142633    -2.634867     1.132864   569361 
  360000    1.0072841   -2.6341666   -2.6341666   -1.5017303   0.07274054   -2.6341666    1.1324363   569361 
  361000    1.0069322   -2.6342004   -2.6342004   -1.5021597  0.069004311   -2.6342004    1.1320407   569361 
  362000    1.0063843   -2.6343476   -2.6343476   -1.5029228  0.062295465   -2.6343476    1.1314248   569361 
  363000    1.0049214   -2.6328941   -2.6328941   -1.5031141  0.053442425   -2.6328941      1.12978   569361 
  364000    1.0055344   -2.6333593   -2.6333593   -1.5028901  0.068270355   -2.6333593    1.1304692   569361 
  365000    1.0069493     -2.63465     -2.63465   -1.5025901  0.056001236     -2.63465    1.1320599   569361 
  366000    1.0072407   -2.6343107   -2.6343107   -1.5019232  0.051987517   -2.6343107    1.1323875   569361 
  367000    1.0058699   -2.6332086   -2.6332086   -1.5023622  0.062865718   -2.6332086    1.1308464   569361 
  368000    1.0071383   -2.6340539   -2.6340539   -1.5017816  0.059425883   -2.6340539    1.1322724   569361 
  369000    1.0071741    -2.634905    -2.634905   -1.5025924    0.0581812    -2.634905    1.1323126   569361 
  370000      1.00715    -2.634963    -2.634963   -1.5026775  0.069725973    -2.634963    1.1322855   569361 
  371000    1.0058469    -2.632912    -2.632912   -1.5020914  0.055591514    -2.632912    1.1308205   569361 
  372000    1.0087892    -2.635965    -2.635965   -1.5018366  0.055272229    -2.635965    1.1341284   569361 
  373000    1.0078221   -2.6358177   -2.6358177   -1.5027766  0.054694988   -2.6358177    1.1330412   569361 
  374000    1.0072331   -2.6351829   -2.6351829   -1.5028039  0.055021185   -2.6351829     1.132379   569361 
  375000    1.0079848   -2.6357898   -2.6357898   -1.5025657  0.058991971   -2.6357898    1.1332241   569361 
  376000    1.0067414   -2.6350619   -2.6350619   -1.5032357  0.064937777   -2.6350619    1.1318262   569361 
  377000    1.0053018   -2.6345692   -2.6345692   -1.5043615  0.065774461   -2.6345692    1.1302078   569361 
  378000    1.0068503   -2.6367032   -2.6367032   -1.5047546  0.060712193   -2.6367032    1.1319486   569361 
  379000    1.0064427   -2.6351829   -2.6351829   -1.5036926  0.063990689   -2.6351829    1.1314904   569361 
  380000    1.0077684   -2.6360539   -2.6360539   -1.5030731  0.058258284   -2.6360539    1.1329807   569361 
  381000    1.0061462   -2.6340147   -2.6340147   -1.5028576  0.060610315   -2.6340147    1.1311571   569361 
  382000    1.0065054      -2.6349      -2.6349   -1.5033391  0.057273034      -2.6349    1.1315609   569361 
  383000    1.0072019   -2.6354607   -2.6354607   -1.5031168  0.064594337   -2.6354607    1.1323439   569361 
  384000    1.0059508   -2.6341414   -2.6341414   -1.5032041  0.060002739   -2.6341414    1.1309373   569361 
  385000    1.0071121   -2.6351722   -2.6351722   -1.5029293  0.065363106   -2.6351722     1.132243   569361 
  386000    1.0083679   -2.6358592   -2.6358592   -1.5022045   0.06009194   -2.6358592    1.1336548   569361 
  387000    1.0068109   -2.6340777   -2.6340777   -1.5021733  0.059804456   -2.6340777    1.1319044   569361 
  388000    1.0066961   -2.6343783   -2.6343783   -1.5026031  0.065187939   -2.6343783    1.1317753   569361 
  389000    1.0077395   -2.6345035   -2.6345035   -1.5015552  0.067303985   -2.6345035    1.1329483   569361 
  390000    1.0071102   -2.6349013   -2.6349013   -1.5026605  0.056533314   -2.6349013    1.1322408   569361 
  391000    1.0041767   -2.6324241   -2.6324241   -1.5034814  0.055009118   -2.6324241    1.1289428   569361 
  392000    1.0063156   -2.6344598   -2.6344598   -1.5031123  0.056773546   -2.6344598    1.1313474   569361 
  393000    1.0076673   -2.6365663   -2.6365663   -1.5036992  0.056349316   -2.6365663    1.1328671   569361 
  394000    1.0067292   -2.6360836   -2.6360836   -1.5042711  0.056089716   -2.6360836    1.1318125   569361 
  395000    1.0063226   -2.6357425   -2.6357425   -1.5043871  0.062374291   -2.6357425    1.1313553   569361 
  396000    1.0078068   -2.6364732   -2.6364732   -1.5034493  0.065719534   -2.6364732    1.1330239   569361 
  397000    1.0077473   -2.6358748   -2.6358748   -1.5029177  0.066034862   -2.6358748    1.1329571   569361 
  398000    1.0069911   -2.6356993   -2.6356993   -1.5035924  0.066634393   -2.6356993    1.1321069   569361 
  399000     1.006443   -2.6340087   -2.6340087    -1.502518  0.063695461   -2.6340087    1.1314907   569361 
  400000    1.0085023   -2.6362798   -2.6362798    -1.502474  0.052518811   -2.6362798    1.1338059   569361 
  401000    1.0056611   -2.6335331   -2.6335331   -1.5029215  0.066415175   -2.6335331    1.1306116   569361 
  402000     1.006666   -2.6347659   -2.6347659   -1.5030245  0.059200105   -2.6347659    1.1317414   569361 
  403000    1.0064175   -2.6353298   -2.6353298   -1.5038678  0.063565661   -2.6353298     1.131462   569361 
  404000    1.0070869   -2.6359619   -2.6359619   -1.5037473  0.056682833   -2.6359619    1.1322146   569361 
  405000    1.0081433   -2.6373794   -2.6373794   -1.5039771  0.067178781   -2.6373794    1.1334022   569361 
  406000    1.0073271   -2.6366515   -2.6366515   -1.5041668   0.05867328   -2.6366515    1.1324847   569361 
  407000    1.0071392   -2.6356278   -2.6356278   -1.5033545  0.059572624   -2.6356278    1.1322734   569361 
  408000     1.007586   -2.6366993   -2.6366993   -1.5039236  0.063836458   -2.6366993    1.1327757   569361 
  409000    1.0049632   -2.6332331   -2.6332331   -1.5034061   0.06847619   -2.6332331     1.129827   569361 
  410000    1.0059889   -2.6346107   -2.6346107   -1.5036305  0.070593997   -2.6346107    1.1309802   569361 
  411000    1.0062279    -2.634885    -2.634885   -1.5036361  0.050292971    -2.634885    1.1312489   569361 
  412000    1.0069952   -2.6359062   -2.6359062   -1.5037947   0.05445518   -2.6359062    1.1321115   569361 
  413000    1.0058215   -2.6343226   -2.6343226   -1.5035306  0.058928329   -2.6343226    1.1307919   569361 
  414000    1.0063846   -2.6345142   -2.6345142   -1.5030891  0.062343001   -2.6345142    1.1314251   569361 
  415000    1.0073529   -2.6363764   -2.6363764   -1.5038628  0.051340581   -2.6363764    1.1325136   569361 
  416000    1.0043944   -2.6325352   -2.6325352   -1.5033477  0.062711753   -2.6325352    1.1291876   569361 
  417000    1.0066597   -2.6361084   -2.6361084   -1.5043741  0.054530898   -2.6361084    1.1317343   569361 
  418000    1.0064533   -2.6352536   -2.6352536   -1.5037513  0.067392459   -2.6352536    1.1315023   569361 
  419000    1.0079273   -2.6370442   -2.6370442   -1.5038848  0.065391696   -2.6370442    1.1331594   569361 
  420000     1.006414   -2.6366044   -2.6366044   -1.5051463  0.068038525   -2.6366044    1.1314581   569361 
  421000    1.0062733   -2.6376136   -2.6376136   -1.5063137  0.063435511   -2.6376136    1.1312999   569361 
  422000    1.0072941   -2.6386069   -2.6386069   -1.5061594  0.052270367   -2.6386069    1.1324475   569361 
  423000     1.007859   -2.6382408   -2.6382408   -1.5051582   0.06656265   -2.6382408    1.1330826   569361 
  424000     1.007695   -2.6385147   -2.6385147   -1.5056164   0.06296909   -2.6385147    1.1328983   569361 
  425000    1.0071975   -2.6387183   -2.6387183   -1.5063793  0.058335023   -2.6387183     1.132339   569361 
  426000    1.0066288   -2.6380943   -2.6380943   -1.5063948  0.072889197   -2.6380943    1.1316995   569361 
  427000     1.008106   -2.6398213   -2.6398213   -1.5064611  0.058053702   -2.6398213    1.1333603   569361 
  428000     1.006566   -2.6395018   -2.6395018   -1.5078728  0.058606099   -2.6395018     1.131629   569361 
  429000    1.0076202   -2.6405676   -2.6405676   -1.5077534  0.072020497   -2.6405676    1.1328142   569361 
  430000    1.0072565   -2.6397377   -2.6397377   -1.5073324  0.071108617   -2.6397377    1.1324053   569361 
  431000    1.0071803   -2.6396956   -2.6396956    -1.507376  0.056352141   -2.6396956    1.1323196   569361 
  432000    1.0082826   -2.6392897   -2.6392897   -1.5057308  0.057318631   -2.6392897    1.1335589   569361 
  433000    1.0084337   -2.6391704   -2.6391704   -1.5054416  0.067364126   -2.6391704    1.1337288   569361 
  434000    1.0075664   -2.6379741   -2.6379741   -1.5052205  0.062006579   -2.6379741    1.1327536   569361 
  435000    1.0064775   -2.6374971   -2.6374971   -1.5059676  0.063478143   -2.6374971    1.1315294   569361 
  436000    1.0065066   -2.6368714   -2.6368714   -1.5053092  0.060131259   -2.6368714    1.1315622   569361 
  437000    1.0058017    -2.635462    -2.635462   -1.5046922  0.062334379    -2.635462    1.1307698   569361 
  438000    1.0059911     -2.63613     -2.63613   -1.5051473  0.063012811     -2.63613    1.1309827   569361 
  439000    1.0062953   -2.6369826   -2.6369826   -1.5056579  0.051125712   -2.6369826    1.1313247   569361 
  440000    1.0073776   -2.6383593   -2.6383593   -1.5058178  0.068026093   -2.6383593    1.1325415   569361 
  441000    1.0080538   -2.6393068   -2.6393068   -1.5060052  0.063076439   -2.6393068    1.1333016   569361 
  442000    1.0082091   -2.6392921   -2.6392921   -1.5058158  0.063420531   -2.6392921    1.1334763   569361 
  443000    1.0096257   -2.6413515   -2.6413515   -1.5062826  0.061094173   -2.6413515    1.1350689   569361 
  444000    1.0085582   -2.6400926   -2.6400926   -1.5062239  0.062806408   -2.6400926    1.1338687   569361 
  445000    1.0087155   -2.6402874   -2.6402874   -1.5062419   0.07898726   -2.6402874    1.1340455   569361 
  446000    1.0075231   -2.6395798   -2.6395798   -1.5068748  0.057687837   -2.6395798     1.132705   569361 
  447000    1.0084318   -2.6406418   -2.6406418   -1.5069152   0.05990475   -2.6406418    1.1337266   569361 
  448000    1.0075022   -2.6387696   -2.6387696   -1.5060881  0.062032811   -2.6387696    1.1326815   569361 
  449000    1.0074604   -2.6385566   -2.6385566   -1.5059221  0.063350047   -2.6385566    1.1326345   569361 
  450000    1.0054223   -2.6373414   -2.6373414   -1.5069982  0.053739265   -2.6373414    1.1303432   569361 
  451000    1.0075452   -2.6396359   -2.6396359    -1.506906  0.066623217   -2.6396359    1.1327299   569361 
  452000    1.0064112   -2.6394025   -2.6394025   -1.5079476  0.067380741   -2.6394025    1.1314549   569361 
  453000    1.0052713   -2.6379679   -2.6379679   -1.5077945  0.066236268   -2.6379679    1.1301734   569361 
  454000    1.0070108   -2.6398303   -2.6398303   -1.5077012  0.069499947   -2.6398303    1.1321291   569361 
  455000    1.0062603   -2.6395218   -2.6395218   -1.5082365  0.065721865   -2.6395218    1.1312853   569361 
  456000    1.0069095    -2.640195    -2.640195   -1.5081798  0.062063458    -2.640195    1.1320152   569361 
  457000    1.0059898   -2.6397581   -2.6397581   -1.5087769   0.05131202   -2.6397581    1.1309812   569361 
  458000    1.0078217   -2.6415061   -2.6415061   -1.5084654  0.056527277   -2.6415061    1.1330407   569361 
  459000    1.0080948   -2.6433175   -2.6433175   -1.5099697  0.058285097   -2.6433175    1.1333478   569361 
  460000    1.0053632   -2.6392046   -2.6392046   -1.5089279  0.071849174   -2.6392046    1.1302767   569361 
  461000    1.0074884   -2.6420254   -2.6420254   -1.5093594  0.059296438   -2.6420254     1.132666   569361 
  462000    1.0049847   -2.6392925   -2.6392925   -1.5094412  0.055987411   -2.6392925    1.1298513   569361 
  463000    1.0055335   -2.6399935   -2.6399935   -1.5095253  0.053699805   -2.6399935    1.1304682   569361 
  464000    1.0070203   -2.6411005   -2.6411005   -1.5089607  0.056243655   -2.6411005    1.1321397   569361 
  465000     1.006184   -2.6404936   -2.6404936   -1.5092941  0.061261807   -2.6404936    1.1311995   569361 
  466000      1.00483    -2.638993    -2.638993   -1.5093157  0.069206973    -2.638993    1.1296773   569361 
  467000     1.006103     -2.63979     -2.63979   -1.5086815  0.060951612     -2.63979    1.1311085   569361 
  468000    1.0044928   -2.6380103   -2.6380103   -1.5087122  0.062213039   -2.6380103    1.1292982   569361 
  469000    1.0056797   -2.6386859   -2.6386859   -1.5080533  0.070346436   -2.6386859    1.1306325   569361 
  470000    1.0049329   -2.6381546   -2.6381546   -1.5083617  0.070730935   -2.6381546    1.1297929   569361 
  471000    1.0052622   -2.6384253   -2.6384253   -1.5082622  0.063143642   -2.6384253    1.1301632   569361 
  472000    1.0080386   -2.6412047   -2.6412047   -1.5079201  0.053427072   -2.6412047    1.1332846   569361 
  473000    1.0064719   -2.6390679   -2.6390679   -1.5075448  0.070465603   -2.6390679    1.1315232   569361 
  474000    1.0063773   -2.6389793   -2.6389793   -1.5075624  0.065752822   -2.6389793    1.1314168   569361 
  475000    1.0068647   -2.6402125   -2.6402125   -1.5082477  0.065934497   -2.6402125    1.1319648   569361 
  476000    1.0076575   -2.6416232   -2.6416232   -1.5087671  0.067907549   -2.6416232    1.1328561   569361 
  477000    1.0071259   -2.6409766   -2.6409766   -1.5087182   0.06058607   -2.6409766    1.1322584   569361 
  478000    1.0068917   -2.6403334   -2.6403334   -1.5083382   0.06772666   -2.6403334    1.1319952   569361 
  479000    1.0057578   -2.6399069   -2.6399069   -1.5091866  0.064649841   -2.6399069    1.1307203   569361 
  480000     1.005246   -2.6394622   -2.6394622   -1.5093172  0.052517596   -2.6394622     1.130145   569361 
  481000    1.0060152   -2.6397865   -2.6397865   -1.5087767  0.052903973   -2.6397865    1.1310097   569361 
  482000    1.0060407   -2.6402377   -2.6402377   -1.5091993  0.062975455   -2.6402377    1.1310384   569361 
  483000    1.0061268   -2.6410134   -2.6410134   -1.5098782   0.06154469   -2.6410134    1.1311352   569361 
  484000    1.0050618    -2.639145    -2.639145   -1.5092071  0.066701643    -2.639145    1.1299379   569361 
  485000    1.0069031   -2.6410023   -2.6410023   -1.5089943  0.063005977   -2.6410023     1.132008   569361 
  486000    1.0060102   -2.6398448   -2.6398448   -1.5088407  0.054324073   -2.6398448    1.1310041   569361 
  487000    1.0058269   -2.6395019   -2.6395019   -1.5087038  0.057131018   -2.6395019    1.1307981   569361 
  488000    1.0073182   -2.6400876   -2.6400876   -1.5076129  0.067765823   -2.6400876    1.1324747   569361 
  489000    1.0060665   -2.6397975   -2.6397975     -1.50873  0.067807789   -2.6397975    1.1310674   569361 
  490000    1.0052623   -2.6391863   -2.6391863   -1.5090229  0.056142357   -2.6391863    1.1301633   569361 
  491000    1.0057775   -2.6402039   -2.6402039   -1.5094614  0.062073936   -2.6402039    1.1307425   569361 
  492000    1.0066738   -2.6407668   -2.6407668   -1.5090166  0.066401654   -2.6407668    1.1317502   569361 
  493000    1.0057771   -2.6401865   -2.6401865   -1.5094445  0.059080794   -2.6401865     1.130742   569361 
  494000    1.0061774   -2.6407912   -2.6407912   -1.5095991  0.050556024   -2.6407912    1.1311921   569361 
  495000    1.0058693   -2.6407479   -2.6407479   -1.5099022  0.056222938   -2.6407479    1.1308457   569361 
  496000     1.006179   -2.6414489   -2.6414489    -1.510255  0.054363616   -2.6414489    1.1311939   569361 
  497000    1.0064707   -2.6420142   -2.6420142   -1.5104924  0.060643833   -2.6420142    1.1315218   569361 
  498000     1.004589   -2.6413991   -2.6413991   -1.5119927   0.05888799   -2.6413991    1.1294064   569361 
  499000    1.0052205   -2.6425489   -2.6425489   -1.5124325  0.053174767   -2.6425489    1.1301164   569361 
  500000    1.0059276   -2.6424689   -2.6424689   -1.5115576   0.06482098   -2.6424689    1.1309113   569361 
  501000    1.0058858   -2.6415894   -2.6415894   -1.5107251   0.06210163   -2.6415894    1.1308643   569361 
  502000    1.0042807   -2.6401998   -2.6401998   -1.5111401  0.064290473   -2.6401998    1.1290598   569361 
  503000    1.0054726   -2.6413841   -2.6413841   -1.5109844  0.069818683   -2.6413841    1.1303997   569361 
  504000    1.0046726   -2.6411656   -2.6411656   -1.5116653  0.047504619   -2.6411656    1.1295003   569361 
  505000    1.0050792   -2.6411765   -2.6411765    -1.511219  0.054184177   -2.6411765    1.1299575   569361 
  506000     1.004653   -2.6416474   -2.6416474   -1.5121691  0.062624138   -2.6416474    1.1294783   569361 
  507000    1.0060696    -2.643293    -2.643293    -1.512222  0.057900289    -2.643293    1.1310709   569361 
  508000    1.0042819   -2.6405555   -2.6405555   -1.5114943  0.060472076   -2.6405555    1.1290611   569361 
  509000    1.0067776   -2.6437329   -2.6437329    -1.511866  0.061520673   -2.6437329    1.1318668   569361 
  510000    1.0073403   -2.6438328   -2.6438328   -1.5113333  0.065000952   -2.6438328    1.1324995   569361 
  511000    1.0067771    -2.642339    -2.642339   -1.5104728   0.06777841    -2.642339    1.1318663   569361 
  512000    1.0079541   -2.6441166   -2.6441166   -1.5109271  0.060532822   -2.6441166    1.1331895   569361 
  513000    1.0086296   -2.6444705   -2.6444705   -1.5105215  0.067799672   -2.6444705     1.133949   569361 
  514000    1.0077017    -2.643775    -2.643775   -1.5108692  0.064705183    -2.643775    1.1329058   569361 
  515000    1.0077184   -2.6432901   -2.6432901   -1.5103656  0.059546868   -2.6432901    1.1329246   569361 
  516000    1.0059674     -2.64069     -2.64069   -1.5097339  0.070629776     -2.64069    1.1309561   569361 
  517000    1.0056442   -2.6402484   -2.6402484   -1.5096558  0.063830777   -2.6402484    1.1305926   569361 
  518000    1.0052905    -2.640201    -2.640201    -1.510006   0.06835593    -2.640201     1.130195   569361 
  519000    1.0065358    -2.641289    -2.641289    -1.509694  0.066275319    -2.641289     1.131595   569361 
  520000    1.0065224   -2.6407889   -2.6407889    -1.509209  0.063756255   -2.6407889      1.13158   569361 
  521000    1.0074332   -2.6419041   -2.6419041   -1.5093001   0.07074753   -2.6419041     1.132604   569361 
  522000    1.0071882   -2.6415612   -2.6415612   -1.5092327  0.064045356   -2.6415612    1.1323284   569361 
  523000    1.0071855   -2.6425982   -2.6425982   -1.5102727  0.071999704   -2.6425982    1.1323255   569361 
  524000    1.0071086   -2.6421541   -2.6421541    -1.509915  0.067402407   -2.6421541     1.132239   569361 
  525000    1.0070082   -2.6423532   -2.6423532    -1.510227  0.067900788   -2.6423532    1.1321261   569361 
  526000    1.0064023   -2.6414171   -2.6414171   -1.5099721  0.051957596   -2.6414171     1.131445   569361 
  527000    1.0052266   -2.6401411   -2.6401411   -1.5100179  0.063370122   -2.6401411    1.1301232   569361 
  528000    1.0052513   -2.6409176   -2.6409176   -1.5107667   0.05938893   -2.6409176     1.130151   569361 
  529000    1.0054977   -2.6411589   -2.6411589    -1.510731  0.057566264   -2.6411589    1.1304279   569361 
  530000    1.0034293   -2.6393095   -2.6393095    -1.511207  0.060283843   -2.6393095    1.1281025   569361 
  531000    1.0068853   -2.6433472   -2.6433472   -1.5113592  0.057761861   -2.6433472     1.131988   569361 
  532000    1.0051894   -2.6416063   -2.6416063    -1.511525   0.05662493   -2.6416063    1.1300813   569361 
  533000    1.0052197   -2.6415225   -2.6415225    -1.511407  0.059537817   -2.6415225    1.1301154   569361 
  534000    1.0040042     -2.64063     -2.64063   -1.5118812  0.072107569     -2.64063    1.1287488   569361 
  535000    1.0038686   -2.6407796   -2.6407796   -1.5121831  0.065952898   -2.6407796    1.1285965   569361 
  536000    1.0049945   -2.6421989   -2.6421989   -1.5123367  0.060539937   -2.6421989    1.1298622   569361 
  537000    1.0061887   -2.6437512   -2.6437512   -1.5125464  0.058307329   -2.6437512    1.1312048   569361 
  538000    1.0051963   -2.6433257   -2.6433257   -1.5132365  0.064119176   -2.6433257    1.1300891   569361 
  539000    1.0075561   -2.6458453   -2.6458453   -1.5131032  0.055228927   -2.6458453    1.1327421   569361 
  540000    1.0066707    -2.645748    -2.645748   -1.5140013   0.05574824    -2.645748    1.1317467   569361 
  541000    1.0071282   -2.6468356   -2.6468356   -1.5145745  0.075320641   -2.6468356    1.1322611   569361 
  542000     1.007346   -2.6462908   -2.6462908   -1.5137849  0.060904836   -2.6462908    1.1325059   569361 
  543000    1.0065313   -2.6454571   -2.6454571   -1.5138671  0.073924498   -2.6454571    1.1315899   569361 
  544000     1.005822   -2.6457275   -2.6457275   -1.5149349  0.061314205   -2.6457275    1.1307926   569361 
  545000    1.0050381    -2.643697    -2.643697   -1.5137857  0.058228019    -2.643697    1.1299113   569361 
  546000    1.0042312   -2.6424491   -2.6424491    -1.513445  0.055261467   -2.6424491    1.1290041   569361 
  547000     1.006426   -2.6444694   -2.6444694   -1.5129978  0.060383324   -2.6444694    1.1314716   569361 
  548000    1.0062176   -2.6444792   -2.6444792    -1.513242  0.057744724   -2.6444792    1.1312373   569361 
  549000    1.0047441   -2.6426402   -2.6426402   -1.5130595  0.059681308   -2.6426402    1.1295807   569361 
  550000     1.005606   -2.6440688   -2.6440688    -1.513519  0.064868076   -2.6440688    1.1305497   569361 
  551000    1.0061614   -2.6441761   -2.6441761    -1.513002  0.052814842   -2.6441761    1.1311741   569361 
  552000    1.0045082   -2.6419843   -2.6419843   -1.5126688  0.052244879   -2.6419843    1.1293155   569361 
  553000    1.0059028   -2.6438362   -2.6438362   -1.5129528  0.057260139   -2.6438362    1.1308833   569361 
  554000     1.006864   -2.6447077   -2.6447077   -1.5127437  0.054726128   -2.6447077     1.131964   569361 
  555000    1.0062834   -2.6442555   -2.6442555   -1.5129442  0.066121351   -2.6442555    1.1313113   569361 
  556000    1.0072582   -2.6451622   -2.6451622    -1.512755  0.058863409   -2.6451622    1.1324072   569361 
  557000    1.0041007   -2.6413405   -2.6413405   -1.5124832  0.060194702   -2.6413405    1.1288573   569361 
  558000    1.0048325   -2.6418416   -2.6418416   -1.5121615   0.06689626   -2.6418416    1.1296801   569361 
  559000    1.0051272   -2.6419749   -2.6419749   -1.5119634  0.068699905   -2.6419749    1.1300115   569361 
  560000    1.0073943   -2.6436876   -2.6436876   -1.5111274  0.067522543   -2.6436876    1.1325603   569361 
  561000    1.0068849   -2.6439825   -2.6439825    -1.511995    0.0535319   -2.6439825    1.1319875   569361 
  562000    1.0055147   -2.6425359   -2.6425359   -1.5120888  0.063174408   -2.6425359    1.1304471   569361 
  563000    1.0052457   -2.6419836   -2.6419836   -1.5118389  0.065029119   -2.6419836    1.1301446   569361 
  564000    1.0067155   -2.6436656   -2.6436656   -1.5118686  0.067379868   -2.6436656    1.1317971   569361 
  565000    1.0045598   -2.6420253   -2.6420253   -1.5126518  0.055563155   -2.6420253    1.1293735   569361 
  566000    1.0072906   -2.6448329   -2.6448329   -1.5123894  0.057775546   -2.6448329    1.1324436   569361 
  567000    1.0073371   -2.6446156   -2.6446156   -1.5121197  0.059554526   -2.6446156    1.1324959   569361 
  568000    1.0079388   -2.6459398   -2.6459398   -1.5127674  0.066480925   -2.6459398    1.1331723   569361 
  569000    1.0057334   -2.6439138   -2.6439138   -1.5132208  0.060141851   -2.6439138    1.1306929   569361 
  570000     1.004648   -2.6430047   -2.6430047    -1.513532  0.058378288   -2.6430047    1.1294727   569361 
  571000    1.0037364   -2.6422973   -2.6422973   -1.5138494  0.050189157   -2.6422973    1.1284478   569361 
  572000    1.0032567   -2.6414971   -2.6414971   -1.5135885   0.05480387   -2.6414971    1.1279086   569361 
  573000    1.0046508   -2.6427872   -2.6427872   -1.5133114  0.075481974   -2.6427872    1.1294759   569361 
  574000    1.0060021   -2.6451512   -2.6451512   -1.5141562  0.058218684   -2.6451512     1.130995   569361 
  575000    1.0042027   -2.6438938   -2.6438938   -1.5149218  0.059441966   -2.6438938     1.128972   569361 
  576000    1.0054468   -2.6455073   -2.6455073   -1.5151366  0.064088354   -2.6455073    1.1303707   569361 
  577000    1.0060725   -2.6458644   -2.6458644   -1.5147903  0.064791361   -2.6458644    1.1310741   569361 
  578000    1.0055955   -2.6456513   -2.6456513   -1.5151133   0.05861929   -2.6456513    1.1305379   569361 
  579000    1.0087694   -2.6484392   -2.6484392    -1.514333  0.059670028   -2.6484392    1.1341062   569361 
  580000    1.0073734   -2.6467221   -2.6467221   -1.5141854  0.060225748   -2.6467221    1.1325367   569361 
  581000    1.0069326   -2.6456493   -2.6456493   -1.5136082  0.057444952   -2.6456493    1.1320412   569361 
  582000     1.007486   -2.6461286   -2.6461286   -1.5134653   0.07087233   -2.6461286    1.1326633   569361 
  583000    1.0060268   -2.6451116   -2.6451116   -1.5140888  0.066117189   -2.6451116    1.1310228   569361 
  584000    1.0064459   -2.6462157   -2.6462157   -1.5147218   0.06987978   -2.6462157    1.1314939   569361 
  585000    1.0069519   -2.6475396   -2.6475396   -1.5154768  0.050370835   -2.6475396    1.1320629   569361 
  586000    1.0066034   -2.6476761   -2.6476761    -1.516005   0.05816986   -2.6476761    1.1316711   569361 
  587000    1.0054917   -2.6461631   -2.6461631   -1.5157418  0.052949744   -2.6461631    1.1304212   569361 
  588000    1.0071002    -2.647294    -2.647294   -1.5150645  0.067873204    -2.647294    1.1322295   569361 
  589000    1.0054012   -2.6453594   -2.6453594   -1.5150399  0.072176242   -2.6453594    1.1303195   569361 
  590000    1.0063815   -2.6469187   -2.6469187   -1.5154972  0.058719176   -2.6469187    1.1314215   569361 
  591000     1.007264   -2.6476788   -2.6476788   -1.5152651  0.056704632   -2.6476788    1.1324137   569361 
  592000    1.0055391   -2.6451946   -2.6451946     -1.51472  0.067203055   -2.6451946    1.1304745   569361 
  593000    1.0073184   -2.6470585   -2.6470585   -1.5145837  0.062840777   -2.6470585    1.1324748   569361 
  594000    1.0055345   -2.6448211   -2.6448211   -1.5143517  0.064669592   -2.6448211    1.1304693   569361 
  595000    1.0057329   -2.6452015   -2.6452015   -1.5145091  0.054317651   -2.6452015    1.1306924   569361 
  596000    1.0054479    -2.645059    -2.645059    -1.514687  0.065518598    -2.645059    1.1303719   569361 
  597000     1.007293   -2.6474399   -2.6474399   -1.5149935  0.059497316   -2.6474399    1.1324464   569361 
  598000    1.0058499   -2.6461246   -2.6461246   -1.5153007  0.063576868   -2.6461246    1.1308239   569361 
  599000     1.005828   -2.6460582   -2.6460582   -1.5152589  0.065253436   -2.6460582    1.1307993   569361 
  600000      1.00663    -2.646541    -2.646541     -1.51484  0.066600291    -2.646541     1.131701   569361 
  601000    1.0067349   -2.6471322   -2.6471322   -1.5153134  0.066309449   -2.6471322    1.1318189   569361 
  602000    1.0049686   -2.6461454   -2.6461454   -1.5163123  0.065485122   -2.6461454    1.1298331   569361 
  603000    1.0063547   -2.6469897   -2.6469897   -1.5155983   0.06068207   -2.6469897    1.1313914   569361 
  604000    1.0044922   -2.6444328   -2.6444328   -1.5151353  0.064869024   -2.6444328    1.1292976   569361 
  605000    1.0043172   -2.6442957   -2.6442957   -1.5151949  0.062316626   -2.6442957    1.1291008   569361 
  606000    1.0053604   -2.6461301   -2.6461301   -1.5158565  0.061287864   -2.6461301    1.1302736   569361 
  607000      1.00561   -2.6455197   -2.6455197   -1.5149656  0.065550835   -2.6455197    1.1305542   569361 
  608000     1.007109   -2.6480889   -2.6480889   -1.5158494  0.057481237   -2.6480889    1.1322395   569361 
  609000    1.0040119   -2.6446003   -2.6446003   -1.5158428  0.069423284   -2.6446003    1.1287576   569361 
  610000    1.0062025   -2.6475517   -2.6475517   -1.5163314  0.059364392   -2.6475517    1.1312203   569361 
  611000    1.0054586   -2.6468893   -2.6468893   -1.5165052   0.05777161   -2.6468893     1.130384   569361 
  612000    1.0047996   -2.6461902   -2.6461902   -1.5165471  0.052379491   -2.6461902    1.1296431   569361 
  613000    1.0041263   -2.6452886   -2.6452886   -1.5164025  0.059459693   -2.6452886    1.1288862   569361 
  614000    1.0057505   -2.6465181   -2.6465181   -1.5158059  0.055577857   -2.6465181    1.1307122   569361 
  615000    1.0049867   -2.6467251   -2.6467251   -1.5168717  0.045737866   -2.6467251    1.1298534   569361 
  616000    1.0037492   -2.6458571   -2.6458571   -1.5173949  0.069216483   -2.6458571    1.1284622   569361 
  617000    1.0049715   -2.6467689   -2.6467689   -1.5169326  0.067226989   -2.6467689    1.1298363   569361 
  618000    1.0031303   -2.6453767   -2.6453767   -1.5176103  0.055816215   -2.6453767    1.1277664   569361 
  619000    1.0035268   -2.6452976   -2.6452976   -1.5170854  0.057617137   -2.6452976    1.1282122   569361 
  620000    1.0039227   -2.6455275   -2.6455275   -1.5168702  0.061512522   -2.6455275    1.1286573   569361 
  621000    1.0035521     -2.64545     -2.64545   -1.5172093  0.056158174     -2.64545    1.1282407   569361 
  622000    1.0049752   -2.6473468   -2.6473468   -1.5175063  0.073151761   -2.6473468    1.1298405   569361 
  623000    1.0069334    -2.648703    -2.648703   -1.5166609  0.065476048    -2.648703    1.1320421   569361 
  624000    1.0047974   -2.6478172   -2.6478172   -1.5181765  0.061468098   -2.6478172    1.1296407   569361 
  625000    1.0072612   -2.6502034   -2.6502034   -1.5177929  0.060663134   -2.6502034    1.1324105   569361 
  626000    1.0059296   -2.6485092   -2.6485092   -1.5175956  0.069379734   -2.6485092    1.1309136   569361 
  627000    1.0059982   -2.6493648   -2.6493648   -1.5183742  0.067156353   -2.6493648    1.1309906   569361 
  628000    1.0057284   -2.6488969   -2.6488969   -1.5182096  0.064319006   -2.6488969    1.1306874   569361 
  629000    1.0061426    -2.648933    -2.648933   -1.5177801  0.051821075    -2.648933    1.1311529   569361 
  630000     1.003803   -2.6461506   -2.6461506   -1.5176279  0.068097673   -2.6461506    1.1285227   569361 
  631000    1.0055877   -2.6482757   -2.6482757   -1.5177466  0.066835645   -2.6482757    1.1305291   569361 
  632000    1.0045731   -2.6463657   -2.6463657   -1.5169772  0.054257692   -2.6463657    1.1293885   569361 
  633000     1.003849   -2.6466743   -2.6466743   -1.5180999  0.057630196   -2.6466743    1.1285744   569361 
  634000    1.0052637   -2.6481638   -2.6481638   -1.5179989  0.066352051   -2.6481638    1.1301649   569361 
  635000    1.0050411    -2.648479    -2.648479   -1.5185644  0.057246098    -2.648479    1.1299146   569361 
  636000    1.0046728   -2.6478857   -2.6478857   -1.5183851  0.062801876   -2.6478857    1.1295006   569361 
  637000     1.003893   -2.6464395   -2.6464395   -1.5178156  0.066213104   -2.6464395    1.1286239   569361 
  638000    1.0039029   -2.6467193   -2.6467193   -1.5180844  0.064191056   -2.6467193     1.128635   569361 
  639000     1.004307   -2.6473949   -2.6473949   -1.5183056  0.067192338   -2.6473949    1.1290893   569361 
  640000    1.0052795   -2.6489024   -2.6489024   -1.5187197  0.061260437   -2.6489024    1.1301827   569361 
  641000    1.0034459   -2.6473485   -2.6473485   -1.5192273  0.065610405   -2.6473485    1.1281212   569361 
  642000    1.0053381   -2.6488439   -2.6488439   -1.5185954  0.059228877   -2.6488439    1.1302485   569361 
  643000     1.003634   -2.6465787   -2.6465787   -1.5182461  0.065681653   -2.6465787    1.1283327   569361 
  644000    1.0042369   -2.6473616   -2.6473616   -1.5183511  0.062621745   -2.6473616    1.1290105   569361 
  645000    1.0042408   -2.6478456   -2.6478456   -1.5188307  0.051111115   -2.6478456    1.1290148   569361 
  646000    1.0041213   -2.6483537   -2.6483537   -1.5194732  0.059804965   -2.6483537    1.1288805   569361 
  647000    1.0063206   -2.6495503   -2.6495503   -1.5181972  0.063089308   -2.6495503    1.1313531   569361 
  648000    1.0050816   -2.6481976   -2.6481976   -1.5182375  0.061878107   -2.6481976    1.1299602   569361 
  649000    1.0046496   -2.6490697   -2.6490697   -1.5195953  0.059846037   -2.6490697    1.1294744   569361 
  650000    1.0050824   -2.6497855   -2.6497855   -1.5198244  0.055719284   -2.6497855     1.129961   569361 
  651000    1.0041013   -2.6492797   -2.6492797   -1.5204217  0.061207486   -2.6492797    1.1288581   569361 
  652000     1.004249   -2.6497567   -2.6497567   -1.5207326  0.066226051   -2.6497567    1.1290241   569361 
  653000    1.0031433   -2.6489141   -2.6489141    -1.521133   0.06461437   -2.6489141    1.1277811   569361 
  654000    1.0042055   -2.6494445   -2.6494445   -1.5204693  0.054391685   -2.6494445    1.1289752   569361 
  655000    1.0046891   -2.6495358   -2.6495358   -1.5200169  0.061309286   -2.6495358    1.1295189   569361 
  656000    1.0035303   -2.6483262   -2.6483262   -1.5201101  0.056945122   -2.6483262    1.1282162   569361 
  657000     1.004705    -2.648561    -2.648561   -1.5190242  0.056284832    -2.648561    1.1295368   569361 
  658000    1.0047008   -2.6490571   -2.6490571   -1.5195251  0.055479493   -2.6490571     1.129532   569361 
  659000    1.0055006    -2.648933    -2.648933   -1.5185017   0.06693112    -2.648933    1.1304313   569361 
  660000    1.0051992   -2.6488234   -2.6488234    -1.518731  0.053449451   -2.6488234    1.1300924   569361 
  661000    1.0049009   -2.6480595   -2.6480595   -1.5183025  0.059111228   -2.6480595    1.1297571   569361 
  662000    1.0063276   -2.6492989   -2.6492989    -1.517938  0.058034073   -2.6492989    1.1313609   569361 
  663000    1.0037096   -2.6470068   -2.6470068    -1.518589  0.057466161   -2.6470068    1.1284177   569361 
  664000    1.0037422   -2.6469413   -2.6469413    -1.518487  0.063988994   -2.6469413    1.1284544   569361 
  665000    1.0059419   -2.6490875   -2.6490875   -1.5181602  0.075802518   -2.6490875    1.1309273   569361 
  666000    1.0080687   -2.6509061   -2.6509061   -1.5175877  0.055542309   -2.6509061    1.1333184   569361 
  667000    1.0039007   -2.6474966   -2.6474966    -1.518864  0.056723462   -2.6474966    1.1286326   569361 
  668000    1.0035724   -2.6486011   -2.6486011   -1.5203377  0.047946405   -2.6486011    1.1282635   569361 
  669000    1.0053909   -2.6498139   -2.6498139    -1.519506   0.05953867   -2.6498139    1.1303079   569361 
  670000    1.0051253   -2.6500866   -2.6500866   -1.5200773    0.0633088   -2.6500866    1.1300092   569361 
  671000    1.0044199   -2.6502959   -2.6502959   -1.5210797  0.064848732   -2.6502959    1.1292163   569361 
  672000    1.0038081   -2.6497068   -2.6497068   -1.5211784  0.058948245   -2.6497068    1.1285284   569361 
  673000    1.0035806   -2.6497276   -2.6497276   -1.5214549  0.055974998   -2.6497276    1.1282727   569361 
  674000    1.0047358   -2.6509962   -2.6509962   -1.5214248  0.068143101   -2.6509962    1.1295714   569361 
  675000    1.0064648   -2.6521688   -2.6521688   -1.5206535  0.065356708   -2.6521688    1.1315152   569361 
  676000    1.0067443   -2.6529953   -2.6529953   -1.5211659  0.050206148   -2.6529953    1.1318294   569361 
  677000    1.0046718   -2.6518968   -2.6518968   -1.5223974  0.062695889   -2.6518968    1.1294994   569361 
  678000    1.0052618   -2.6514902   -2.6514902   -1.5213275  0.064535569   -2.6514902    1.1301627   569361 
  679000    1.0053395    -2.651259    -2.651259   -1.5210089  0.066574529    -2.651259    1.1302501   569361 
  680000    1.0051253   -2.6514857   -2.6514857   -1.5214764  0.064707021   -2.6514857    1.1300093   569361 
  681000    1.0046842   -2.6509205   -2.6509205   -1.5214071  0.060042078   -2.6509205    1.1295134   569361 
  682000    1.0058007   -2.6529712   -2.6529712   -1.5222026  0.063016809   -2.6529712    1.1307686   569361 
  683000    1.0048183   -2.6528282   -2.6528282    -1.523164  0.059837684   -2.6528282    1.1296641   569361 
  684000    1.0048922   -2.6530673   -2.6530673   -1.5233201  0.061357755   -2.6530673    1.1297472   569361 
  685000    1.0040555   -2.6517856   -2.6517856    -1.522979   0.06512774   -2.6517856    1.1288066   569361 
  686000    1.0068354   -2.6542887   -2.6542887   -1.5223568  0.063213693   -2.6542887    1.1319318   569361 
  687000    1.0056116   -2.6520705   -2.6520705   -1.5215145  0.064405872   -2.6520705     1.130556   569361 
  688000    1.0070355   -2.6534455   -2.6534455   -1.5212887  0.059951916   -2.6534455    1.1321568   569361 
  689000    1.0057035   -2.6527261   -2.6527261   -1.5220667  0.060686288   -2.6527261    1.1306594   569361 
  690000    1.0074393   -2.6542446   -2.6542446   -1.5216338  0.063699778   -2.6542446    1.1326108   569361 
  691000    1.0051344   -2.6521362   -2.6521362   -1.5221166  0.066478095   -2.6521362    1.1300195   569361 
  692000     1.004284   -2.6500536   -2.6500536   -1.5209901  0.060664133   -2.6500536    1.1290634   569361 
  693000    1.0031208   -2.6495687   -2.6495687   -1.5218131   0.06202028   -2.6495687    1.1277557   569361 
  694000    1.0053037   -2.6520565   -2.6520565   -1.5218466  0.051587845   -2.6520565    1.1302099   569361 
  695000    1.0048957   -2.6521837   -2.6521837   -1.5224325  0.060565045   -2.6521837    1.1297512   569361 
  696000    1.0044145   -2.6517166   -2.6517166   -1.5225064  0.054697707   -2.6517166    1.1292102   569361 
  697000    1.0057105   -2.6532143   -2.6532143   -1.5225471  0.069113736   -2.6532143    1.1306672   569361 
  698000    1.0060189   -2.6532042   -2.6532042   -1.5221903  0.059371895   -2.6532042    1.1310139   569361 
  699000    1.0057567   -2.6535172   -2.6535172   -1.5227981  0.067529904   -2.6535172    1.1307191   569361 
  700000    1.0059476   -2.6535837   -2.6535837   -1.5226499  0.059395776   -2.6535837    1.1309338   569361 
  701000    1.0066515   -2.6544291   -2.6544291   -1.5227039  0.065071037   -2.6544291    1.1317252   569361 
  702000    1.0059709   -2.6543728   -2.6543728   -1.5234129  0.063175514   -2.6543728    1.1309599   569361 
  703000    1.0044754   -2.6530026   -2.6530026    -1.523724  0.063671953   -2.6530026    1.1292786   569361 
  704000    1.0037088   -2.6515354   -2.6515354   -1.5231187  0.064083276   -2.6515354    1.1284168   569361 
  705000    1.0043789   -2.6530944   -2.6530944   -1.5239242  0.051532616   -2.6530944    1.1291702   569361 
  706000    1.0027037   -2.6516472   -2.6516472   -1.5243604  0.052832695   -2.6516472    1.1272868   569361 
  707000    1.0026922   -2.6508034   -2.6508034   -1.5235295   0.07204981   -2.6508034    1.1272739   569361 
  708000    1.0050204   -2.6534275   -2.6534275   -1.5235362  0.065097811   -2.6534275    1.1298913   569361 
  709000     1.004908   -2.6529676   -2.6529676   -1.5232025  0.053327366   -2.6529676     1.129765   569361 
  710000    1.0035123   -2.6514605   -2.6514605   -1.5232646  0.059090266   -2.6514605    1.1281959   569361 
  711000    1.0046576   -2.6521794   -2.6521794   -1.5226959  0.058716482   -2.6521794    1.1294835   569361 
  712000    1.0053935   -2.6537168   -2.6537168    -1.523406  0.062815241   -2.6537168    1.1303108   569361 
  713000    1.0043565   -2.6531987   -2.6531987   -1.5240538  0.065384718   -2.6531987     1.129145   569361 
  714000    1.0027455   -2.6516254   -2.6516254   -1.5242917  0.058300643   -2.6516254    1.1273338   569361 
  715000    1.0045233   -2.6533695   -2.6533695   -1.5240369  0.063388544   -2.6533695    1.1293325   569361 
  716000    1.0052317    -2.653928    -2.653928    -1.523799  0.067644619    -2.653928     1.130129   569361 
  717000    1.0052641   -2.6536133   -2.6536133    -1.523448  0.051888617   -2.6536133    1.1301653   569361 
  718000    1.0055618   -2.6543591   -2.6543591   -1.5238591  0.065670095   -2.6543591       1.1305   569361 
  719000    1.0033558   -2.6518421   -2.6518421   -1.5238221  0.067594772   -2.6518421    1.1280199   569361 
  720000    1.0041568   -2.6536081   -2.6536081   -1.5246877  0.052480242   -2.6536081    1.1289205   569361 
  721000    1.0041185   -2.6533371   -2.6533371   -1.5244597  0.061751345   -2.6533371    1.1288774   569361 
  722000    1.0047146   -2.6534285   -2.6534285   -1.5238809  0.056943449   -2.6534285    1.1295476   569361 
  723000     1.002732   -2.6508733   -2.6508733   -1.5235547   0.06866352   -2.6508733    1.1273187   569361 
  724000    1.0040571    -2.652881    -2.652881   -1.5240726  0.058921643    -2.652881    1.1288083   569361 
  725000    1.0037342   -2.6531557   -2.6531557   -1.5247103  0.055061414   -2.6531557    1.1284454   569361 
  726000    1.0034297   -2.6526717   -2.6526717   -1.5245687    0.0679354   -2.6526717     1.128103   569361 
  727000    1.0043809   -2.6538901   -2.6538901   -1.5247177   0.05405431   -2.6538901    1.1291724   569361 
  728000    1.0046648   -2.6549416   -2.6549416     -1.52545  0.056140422   -2.6549416    1.1294916   569361 
  729000    1.0030873   -2.6531988   -2.6531988   -1.5254807  0.062270284   -2.6531988    1.1277181   569361 
  730000    1.0027866   -2.6528908   -2.6528908   -1.5255108  0.061158896   -2.6528908      1.12738   569361 
  731000    1.0047374   -2.6549835   -2.6549835   -1.5254103  0.056602178   -2.6549835    1.1295732   569361 
  732000    1.0032485   -2.6537619   -2.6537619   -1.5258627  0.050703073   -2.6537619    1.1278993   569361 
  733000    1.0046504   -2.6549841   -2.6549841   -1.5255087  0.057566607   -2.6549841    1.1294754   569361 
  734000    1.0041623   -2.6550166   -2.6550166   -1.5260899  0.058861828   -2.6550166    1.1289267   569361 
  735000    1.0031457    -2.653935    -2.653935   -1.5261512   0.06867026    -2.653935    1.1277838   569361 
  736000    1.0050772   -2.6565602   -2.6565602    -1.526605  0.059868271   -2.6565602    1.1299552   569361 
  737000    1.0055376   -2.6570575   -2.6570575   -1.5265846  0.062121066   -2.6570575    1.1304729   569361 
  738000    1.0051828   -2.6561382   -2.6561382   -1.5260642   0.06009031   -2.6561382    1.1300739   569361 
  739000    1.0029075   -2.6539915   -2.6539915   -1.5264755  0.070738467   -2.6539915     1.127516   569361 
  740000    1.0040443   -2.6551624   -2.6551624   -1.5263684  0.064174798   -2.6551624    1.1287939   569361 
  741000    1.0048473   -2.6562452   -2.6562452   -1.5265485  0.063558094   -2.6562452    1.1296967   569361 
  742000    1.0022791   -2.6536278   -2.6536278   -1.5268184  0.063100912   -2.6536278    1.1268094   569361 
  743000    1.0028659   -2.6548164   -2.6548164   -1.5273473  0.049451153   -2.6548164    1.1274691   569361 
  744000    1.0040427    -2.655973    -2.655973   -1.5271808  0.056117218    -2.655973    1.1287922   569361 
  745000    1.0023748   -2.6554414   -2.6554414   -1.5285243  0.058601097   -2.6554414    1.1269171   569361 
  746000    1.0028046   -2.6559701   -2.6559701   -1.5285698  0.060103586   -2.6559701    1.1274003   569361 
  747000    1.0033208   -2.6569185   -2.6569185   -1.5289379  0.062733926   -2.6569185    1.1279806   569361 
  748000    1.0030983   -2.6571894   -2.6571894    -1.529459  0.047189284   -2.6571894    1.1277305   569361 
  749000    1.0021692   -2.6554208   -2.6554208   -1.5287349  0.059712065   -2.6554208    1.1266859   569361 
  750000    1.0034968   -2.6560823   -2.6560823   -1.5279039   0.05684324   -2.6560823    1.1281784   569361 
  751000    1.0020844   -2.6547219   -2.6547219   -1.5281313  0.051569554   -2.6547219    1.1265906   569361 
  752000    1.0020892   -2.6547396   -2.6547396   -1.5281437  0.057366828   -2.6547396    1.1265959   569361 
  753000    1.0034005   -2.6554334   -2.6554334   -1.5273633  0.056895334   -2.6554334    1.1280701   569361 
  754000    1.0029713   -2.6549822   -2.6549822   -1.5273946  0.062125025   -2.6549822    1.1275876   569361 
  755000      1.00276     -2.65527     -2.65527   -1.5279199  0.067155297     -2.65527    1.1273501   569361 
  756000    1.0036217   -2.6562597   -2.6562597   -1.5279408  0.065289446   -2.6562597    1.1283189   569361 
  757000    1.0043188    -2.656667    -2.656667   -1.5275645  0.050354793    -2.656667    1.1291026   569361 
  758000    1.0055624   -2.6583134   -2.6583134   -1.5278128  0.062427808   -2.6583134    1.1305007   569361 
  759000    1.0044564   -2.6567047   -2.6567047   -1.5274475  0.066954916   -2.6567047    1.1292572   569361 
  760000    1.0040038   -2.6565173   -2.6565173   -1.5277689  0.056882166   -2.6565173    1.1287484   569361 
  761000    1.0031382   -2.6550721   -2.6550721   -1.5272967  0.064901816   -2.6550721    1.1277753   569361 
  762000    1.0032327   -2.6561973   -2.6561973   -1.5283158  0.058241845   -2.6561973    1.1278815   569361 
  763000    1.0036939   -2.6560588   -2.6560588   -1.5276588  0.068693882   -2.6560588       1.1284   569361 
  764000    1.0032759   -2.6556622   -2.6556622   -1.5277321  0.053356259   -2.6556622    1.1279301   569361 
  765000    1.0034149   -2.6559397   -2.6559397   -1.5278533  0.060996992   -2.6559397    1.1280864   569361 
  766000    1.0028961   -2.6554135   -2.6554135   -1.5279104  0.062297207   -2.6554135    1.1275031   569361 
  767000    1.0011239   -2.6534594   -2.6534594   -1.5279487  0.063893718   -2.6534594    1.1255107   569361 
  768000    1.0031673   -2.6552802   -2.6552802   -1.5274722  0.063152219   -2.6552802     1.127808   569361 
  769000    1.0041817   -2.6564532   -2.6564532   -1.5275048  0.056304731   -2.6564532    1.1289485   569361 
  770000     1.005042   -2.6573222   -2.6573222   -1.5274066  0.071541119   -2.6573222    1.1299156   569361 
  771000    1.0042175   -2.6566269   -2.6566269   -1.5276382  0.060800509   -2.6566269    1.1289887   569361 
  772000    1.0024076   -2.6549014   -2.6549014   -1.5279474  0.060049675   -2.6549014     1.126954   569361 
  773000    1.0048103   -2.6570571   -2.6570571    -1.527402  0.061161785   -2.6570571    1.1296551   569361 
  774000    1.0041602   -2.6563342   -2.6563342   -1.5274099  0.078105823   -2.6563342    1.1289243   569361 
  775000    1.0028636   -2.6552084   -2.6552084   -1.5277418   0.06380602   -2.6552084    1.1274666   569361 
  776000    1.0027168   -2.6555995   -2.6555995    -1.528298  0.058528789   -2.6555995    1.1273015   569361 
  777000    1.0042045   -2.6565178   -2.6565178   -1.5275437  0.057528639   -2.6565178    1.1289741   569361 
  778000    1.0055798   -2.6575421   -2.6575421   -1.5270219   0.07111624   -2.6575421    1.1305203   569361 
  779000    1.0055157   -2.6577517   -2.6577517   -1.5273035  0.064375887   -2.6577517    1.1304482   569361 
  780000    1.0036612   -2.6565108   -2.6565108   -1.5281475  0.066646824   -2.6565108    1.1283633   569361 
  781000    1.0051487     -2.65797     -2.65797   -1.5279344  0.050774552     -2.65797    1.1300356   569361 
  782000    1.0047097   -2.6573291   -2.6573291   -1.5277871  0.071772427   -2.6573291     1.129542   569361 
  783000    1.0070857    -2.659984    -2.659984   -1.5277707  0.061120743    -2.659984    1.1322133   569361 
  784000    1.0043063   -2.6583925   -2.6583925    -1.529304  0.055589052   -2.6583925    1.1290885   569361 
  785000    1.0047181   -2.6591079   -2.6591079   -1.5295564  0.058793797   -2.6591079    1.1295515   569361 
  786000      1.00364   -2.6568734   -2.6568734   -1.5285339  0.066263894   -2.6568734    1.1283394   569361 
  787000    1.0045363   -2.6587714   -2.6587714   -1.5294243  0.053350424   -2.6587714    1.1293471   569361 
  788000      1.00406   -2.6589262   -2.6589262   -1.5301146   0.05927321   -2.6589262    1.1288116   569361 
  789000    1.0043112   -2.6577981   -2.6577981    -1.528704  0.075189285   -2.6577981    1.1290941   569361 
  790000    1.0052379   -2.6584109   -2.6584109    -1.528275  0.067181493   -2.6584109    1.1301359   569361 
  791000    1.0034093    -2.656611    -2.656611   -1.5285309  0.062534348    -2.656611      1.12808   569361 
  792000     1.003671   -2.6570132   -2.6570132    -1.528639  0.063193356   -2.6570132    1.1283742   569361 
  793000    1.0025747   -2.6565391   -2.6565391   -1.5293973  0.057506526   -2.6565391    1.1271418   569361 
  794000    1.0035537   -2.6586381   -2.6586381   -1.5303956  0.056377666   -2.6586381    1.1282424   569361 
  795000    1.0039485   -2.6589329   -2.6589329   -1.5302466  0.055882693   -2.6589329    1.1286862   569361 
  796000    1.0043535   -2.6592051   -2.6592051   -1.5300635  0.050301975   -2.6592051    1.1291416   569361 
  797000    1.0044424   -2.6584487   -2.6584487   -1.5292071  0.061590451   -2.6584487    1.1292415   569361 
  798000    1.0036213   -2.6583478   -2.6583478   -1.5300293  0.066678181   -2.6583478    1.1283185   569361 
  799000    1.0053952   -2.6606285   -2.6606285   -1.5303158  0.071911559   -2.6606285    1.1303127   569361 
  800000    1.0027767   -2.6575101   -2.6575101   -1.5301412  0.050278343   -2.6575101    1.1273689   569361 
  801000    1.0025283   -2.6574593   -2.6574593   -1.5303696  0.059263219   -2.6574593    1.1270896   569361 
  802000    1.0027527   -2.6571694   -2.6571694   -1.5298275  0.062350381   -2.6571694    1.1273419   569361 
  803000    1.0038035    -2.658386    -2.658386   -1.5298627  0.056909526    -2.658386    1.1285232   569361 
  804000     1.003291   -2.6567686   -2.6567686   -1.5288215  0.062082402   -2.6567686    1.1279471   569361 
  805000    1.0028485   -2.6575832   -2.6575832   -1.5301337  0.056247894   -2.6575832    1.1274496   569361 
  806000    1.0047646   -2.6604016   -2.6604016   -1.5307978  0.052648532   -2.6604016    1.1296038   569361 
  807000    1.0023592    -2.658131    -2.658131   -1.5312315  0.065044976    -2.658131    1.1268996   569361 
  808000    1.0035464   -2.6592146   -2.6592146   -1.5309805  0.060570567   -2.6592146    1.1282342   569361 
  809000    1.0049376   -2.6597738   -2.6597738   -1.5299755  0.061107461   -2.6597738    1.1297982   569361 
  810000    1.0040718   -2.6583318   -2.6583318   -1.5295069  0.079123745   -2.6583318    1.1288249   569361 
  811000    1.0052319   -2.6597094   -2.6597094   -1.5295802  0.065715425   -2.6597094    1.1301291   569361 
  812000    1.0037913   -2.6585011   -2.6585011   -1.5299916  0.070665703   -2.6585011    1.1285095   569361 
  813000    1.0036929   -2.6588329   -2.6588329    -1.530434  0.056208346   -2.6588329     1.128399   569361 
  814000    1.0040224   -2.6595514   -2.6595514    -1.530782  0.061209052   -2.6595514    1.1287694   569361 
  815000    1.0028882   -2.6578664   -2.6578664   -1.5303722  0.064674877   -2.6578664    1.1274942   569361 
  816000    1.0035119   -2.6585906   -2.6585906   -1.5303952  0.052327133   -2.6585906    1.1281954   569361 
  817000    1.0025952    -2.657732    -2.657732   -1.5305672   0.06227378    -2.657732    1.1271648   569361 
  818000    1.0039553   -2.6583035   -2.6583035   -1.5296096    0.0611969   -2.6583035    1.1286939   569361 
  819000    1.0028568   -2.6574493   -2.6574493   -1.5299904  0.059611161   -2.6574493    1.1274589   569361 
  820000    1.0025606   -2.6568736   -2.6568736   -1.5297476  0.062112134   -2.6568736     1.127126   569361 
  821000     1.003034    -2.658107    -2.658107   -1.5304487  0.057304135    -2.658107    1.1276582   569361 
  822000    1.0043611   -2.6587063   -2.6587063   -1.5295562  0.053906436   -2.6587063    1.1291501   569361 
  823000    1.0043716   -2.6590617   -2.6590617   -1.5298998  0.050838856   -2.6590617    1.1291619   569361 
  824000    1.0031945   -2.6585712   -2.6585712   -1.5307326  0.070227434   -2.6585712    1.1278386   569361 
  825000    1.0049365   -2.6603097   -2.6603097   -1.5305127  0.061869876   -2.6603097     1.129797   569361 
  826000    1.0073941    -2.663848    -2.663848    -1.531288  0.067098951    -2.663848      1.13256   569361 
  827000    1.0051012   -2.6621815   -2.6621815   -1.5321993   0.05229432   -2.6621815    1.1299822   569361 
  828000    1.0049829    -2.661422    -2.661422   -1.5315729  0.071813947    -2.661422    1.1298492   569361 
  829000    1.0052282     -2.66188     -2.66188   -1.5317551  0.060524305     -2.66188    1.1301249   569361 
  830000    1.0043896   -2.6613223   -2.6613223   -1.5321402  0.058408823   -2.6613223    1.1291822   569361 
  831000    1.0026399   -2.6598321   -2.6598321    -1.532617  0.052407221   -2.6598321    1.1272151   569361 
  832000    1.0033114   -2.6605767   -2.6605767   -1.5326066  0.051400144   -2.6605767    1.1279701   569361 
  833000    1.0035386   -2.6604164   -2.6604164   -1.5321909  0.058810638   -2.6604164    1.1282254   569361 
  834000    1.0038137   -2.6607576   -2.6607576   -1.5322228  0.067056093   -2.6607576    1.1285348   569361 
  835000     1.004248   -2.6617396   -2.6617396   -1.5327166  0.059142654   -2.6617396     1.129023   569361 
  836000    1.0033006   -2.6603572   -2.6603572   -1.5323993  0.064963331   -2.6603572    1.1279579   569361 
  837000    1.0038136   -2.6610138   -2.6610138   -1.5324792  0.061725487   -2.6610138    1.1285346   569361 
  838000    1.0052782   -2.6628104   -2.6628104   -1.5326293  0.055548308   -2.6628104    1.1301811   569361 
  839000    1.0027873   -2.6600573   -2.6600573   -1.5326765   0.06856784   -2.6600573    1.1273808   569361 
  840000    1.0031095   -2.6603794   -2.6603794   -1.5326364  0.053337226   -2.6603794     1.127743   569361 
  841000    1.0037023   -2.6610999   -2.6610999   -1.5326904  0.062974478   -2.6610999    1.1284095   569361 
  842000    1.0043022   -2.6613771   -2.6613771   -1.5322932  0.052658093   -2.6613771    1.1290839   569361 
  843000    1.0047598   -2.6613475   -2.6613475   -1.5317492  0.067143377   -2.6613475    1.1295984   569361 
  844000    1.0049457   -2.6611721   -2.6611721   -1.5313648   0.06830059   -2.6611721    1.1298074   569361 
  845000     1.004035   -2.6604883   -2.6604883   -1.5317047  0.076148413   -2.6604883    1.1287835   569361 
  846000    1.0038184   -2.6605039   -2.6605039   -1.5319639  0.068626978   -2.6605039      1.12854   569361 
  847000    1.0038794   -2.6597379   -2.6597379   -1.5311293  0.061677699   -2.6597379    1.1286086   569361 
  848000    1.0041722   -2.6603683   -2.6603683   -1.5314305  0.064293858   -2.6603683    1.1289378   569361 
  849000    1.0047031   -2.6610311   -2.6610311   -1.5314966  0.065188846   -2.6610311    1.1295346   569361 
  850000    1.0042973   -2.6607975   -2.6607975    -1.531719  0.059533492   -2.6607975    1.1290784   569361 
  851000    1.0039974   -2.6601049   -2.6601049   -1.5313636  0.062722111   -2.6601049    1.1287412   569361 
  852000    1.0020855   -2.6589586   -2.6589586   -1.5323668  0.058496022   -2.6589586    1.1265918   569361 
  853000    1.0027587   -2.6592301   -2.6592301   -1.5318814   0.04917455   -2.6592301    1.1273487   569361 
  854000    1.0031909   -2.6594576   -2.6594576   -1.5316231  0.065892214   -2.6594576    1.1278345   569361 
  855000    1.0030339   -2.6601079   -2.6601079   -1.5324499  0.051232549   -2.6601079     1.127658   569361 
  856000    1.0007484   -2.6580872   -2.6580872   -1.5329987  0.059606556   -2.6580872    1.1250886   569361 
  857000    1.0021885   -2.6590065   -2.6590065   -1.5322989  0.055605339   -2.6590065    1.1267076   569361 
  858000    1.0022336   -2.6591534   -2.6591534   -1.5323951   0.06207986   -2.6591534    1.1267583   569361 
  859000     1.002168   -2.6594892   -2.6594892   -1.5328046   0.06401096   -2.6594892    1.1266846   569361 
  860000    1.0023043    -2.660653    -2.660653   -1.5338152  0.062310667    -2.660653    1.1268378   569361 
  861000    1.0052609    -2.664012    -2.664012   -1.5338503  0.059492344    -2.664012    1.1301618   569361 
  862000    1.0038299   -2.6627268   -2.6627268   -1.5341738  0.068750047   -2.6627268     1.128553   569361 
  863000    1.0038455   -2.6625209   -2.6625209   -1.5339504  0.064084442   -2.6625209    1.1285705   569361 
  864000    1.0049574   -2.6640376   -2.6640376    -1.534217  0.062585818   -2.6640376    1.1298206   569361 
  865000    1.0037137   -2.6633289   -2.6633289   -1.5349065  0.068741099   -2.6633289    1.1284223   569361 
  866000    1.0045157   -2.6641981   -2.6641981   -1.5348741  0.054922857   -2.6641981     1.129324   569361 
  867000    1.0024766   -2.6618794   -2.6618794    -1.534848  0.070904754   -2.6618794    1.1270314   569361 
  868000    1.0023131   -2.6619688   -2.6619688    -1.535121  0.059330171   -2.6619688    1.1268477   569361 
  869000    1.0026949    -2.662338    -2.662338   -1.5350611  0.055591936    -2.662338    1.1272769   569361 
  870000    1.0032342   -2.6624781   -2.6624781   -1.5345949  0.059820791   -2.6624781    1.1278832   569361 
  871000    1.0026021   -2.6607785   -2.6607785   -1.5336059  0.058621013   -2.6607785    1.1271726   569361 
  872000    1.0021896    -2.660993    -2.660993   -1.5342841  0.062581175    -2.660993    1.1267089   569361 
  873000    1.0030811   -2.6619358   -2.6619358   -1.5342247  0.066767947   -2.6619358    1.1277111   569361 
  874000    1.0040411   -2.6623666   -2.6623666   -1.5335762  0.053890701   -2.6623666    1.1287904   569361 
  875000    1.0055477   -2.6632458   -2.6632458   -1.5327616  0.053513837   -2.6632458    1.1304842   569361 
  876000    1.0054656   -2.6627047   -2.6627047   -1.5323128   0.06259203   -2.6627047    1.1303919   569361 
  877000    1.0045622   -2.6611937   -2.6611937   -1.5318174  0.057903278   -2.6611937    1.1293762   569361 
  878000    1.0057917    -2.662866    -2.662866   -1.5321075  0.062818929    -2.662866    1.1307585   569361 
  879000    1.0059509   -2.6628248   -2.6628248   -1.5318873  0.066115632   -2.6628248    1.1309375   569361 
  880000    1.0040311   -2.6603794   -2.6603794   -1.5316003  0.059222297   -2.6603794    1.1287791   569361 
  881000     1.004869   -2.6615943   -2.6615943   -1.5318731   0.06337838   -2.6615943    1.1297211   569361 
  882000    1.0042817   -2.6607519   -2.6607519   -1.5316909   0.06019713   -2.6607519    1.1290609   569361 
  883000    1.0052269   -2.6610049   -2.6610049   -1.5308814  0.058138368   -2.6610049    1.1301235   569361 
  884000      1.00356   -2.6595125   -2.6595125   -1.5312629  0.060500261   -2.6595125    1.1282495   569361 
  885000    1.0023193   -2.6587916   -2.6587916    -1.531937  0.056824778   -2.6587916    1.1268546   569361 
  886000    1.0031074   -2.6592735   -2.6592735   -1.5315328  0.060920609   -2.6592735    1.1277406   569361 
  887000    1.0026627   -2.6584248   -2.6584248   -1.5311841  0.051687532   -2.6584248    1.1272407   569361 
  888000    1.0021546   -2.6581909   -2.6581909   -1.5315214  0.061430097   -2.6581909    1.1266695   569361 
  889000    1.0004757   -2.6565655   -2.6565655   -1.5317835  0.056839396   -2.6565655     1.124782   569361 
  890000    1.0039466   -2.6600648   -2.6600648   -1.5313806  0.061435534   -2.6600648    1.1286842   569361 
  891000     1.003293   -2.6597987   -2.6597987   -1.5318493  0.060524889   -2.6597987    1.1279493   569361 
  892000    1.0043139   -2.6614264   -2.6614264   -1.5323293  0.069374099   -2.6614264    1.1290971   569361 
  893000    1.0039564   -2.6616754   -2.6616754   -1.5329802  0.051481485   -2.6616754    1.1286952   569361 
  894000    1.0044421   -2.6623665   -2.6623665   -1.5331253  0.068212121   -2.6623665    1.1292412   569361 
  895000    1.0048969   -2.6626688   -2.6626688   -1.5329163  0.076161818   -2.6626688    1.1297525   569361 
  896000    1.0044585   -2.6625351   -2.6625351   -1.5332755  0.059095856   -2.6625351    1.1292596   569361 
  897000    1.0039377    -2.662434    -2.662434   -1.5337598  0.066565254    -2.662434    1.1286742   569361 
  898000     1.003624   -2.6623402   -2.6623402   -1.5340188  0.070270731   -2.6623402    1.1283214   569361 
  899000    1.0034582   -2.6621058   -2.6621058   -1.5339707  0.055550657   -2.6621058    1.1281351   569361 
  900000    1.0044068   -2.6628373   -2.6628373   -1.5336358  0.062581013   -2.6628373    1.1292015   569361 
  901000    1.0024856   -2.6612868   -2.6612868   -1.5342452  0.049427634   -2.6612868    1.1270416   569361 
  902000    1.0028383   -2.6614002   -2.6614002   -1.5339621  0.065563021   -2.6614002    1.1274381   569361 
  903000    1.0046336   -2.6629201   -2.6629201   -1.5334635  0.058837612   -2.6629201    1.1294565   569361 
  904000    1.0041452   -2.6624805   -2.6624805   -1.5335731  0.056571094   -2.6624805    1.1289074   569361 
  905000    1.0041166   -2.6625465   -2.6625465   -1.5336712    0.0545697   -2.6625465    1.1288752   569361 
  906000     1.003544   -2.6621101   -2.6621101   -1.5338785  0.064696205   -2.6621101    1.1282315   569361 
  907000    1.0045511   -2.6624496   -2.6624496   -1.5330859  0.059133706   -2.6624496    1.1293637   569361 
  908000    1.0054536   -2.6639344   -2.6639344    -1.533556  0.050970264   -2.6639344    1.1303783   569361 
  909000    1.0034221   -2.6616661   -2.6616661   -1.5335716  0.066447411   -2.6616661    1.1280945   569361 
  910000    1.0037927   -2.6621848   -2.6621848   -1.5336737   0.05815327   -2.6621848    1.1285111   569361 
  911000    1.0046289   -2.6630439   -2.6630439   -1.5335927  0.062286677   -2.6630439    1.1294512   569361 
  912000    1.0037382   -2.6614879   -2.6614879    -1.533038  0.062204358   -2.6614879    1.1284499   569361 
  913000    1.0054071   -2.6639435   -2.6639435   -1.5336174  0.060838033   -2.6639435    1.1303261   569361 
  914000    1.0031963   -2.6616701   -2.6616701   -1.5338295   0.05836929   -2.6616701    1.1278406   569361 
  915000    1.0033904   -2.6622248   -2.6622248    -1.534166  0.047648427   -2.6622248    1.1280588   569361 
  916000     1.002024   -2.6612919   -2.6612919   -1.5347692  0.061092255   -2.6612919    1.1265227   569361 
  917000    1.0019425   -2.6613658   -2.6613658   -1.5349347  0.058319802   -2.6613658     1.126431   569361 
  918000    1.0017402   -2.6608734   -2.6608734   -1.5346698  0.046329873   -2.6608734    1.1262036   569361 
  919000    1.0028361   -2.6624287   -2.6624287    -1.534993  0.051673487   -2.6624287    1.1274357   569361 
  920000    1.0027519   -2.6625852   -2.6625852   -1.5352442  0.053776327   -2.6625852     1.127341   569361 
  921000    1.0030111   -2.6622449   -2.6622449   -1.5346124  0.059598616   -2.6622449    1.1276324   569361 
  922000    1.0048819   -2.6654124   -2.6654124   -1.5356767  0.059499703   -2.6654124    1.1297357   569361 
  923000    1.0039894   -2.6643256   -2.6643256   -1.5355934  0.061838242   -2.6643256    1.1287322   569361 
  924000    1.0033506   -2.6645322   -2.6645322   -1.5365181  0.060474328   -2.6645322    1.1280141   569361 
  925000    1.0040845   -2.6658594   -2.6658594   -1.5370203  0.050794694   -2.6658594    1.1288391   569361 
  926000    1.0031723   -2.6638415   -2.6638415   -1.5360278  0.059180883   -2.6638415    1.1278137   569361 
  927000    1.0049903   -2.6653748   -2.6653748   -1.5355172  0.056115207   -2.6653748    1.1298575   569361 
  928000    1.0060039   -2.6672109   -2.6672109   -1.5362139  0.068450001   -2.6672109     1.130997   569361 
  929000    1.0048911     -2.66585     -2.66585    -1.536104  0.057524407     -2.66585     1.129746   569361 
  930000    1.0036198   -2.6646208   -2.6646208   -1.5363041  0.072056041   -2.6646208    1.1283167   569361 
  931000    1.0037096   -2.6649346   -2.6649346    -1.536517  0.054350916   -2.6649346    1.1284177   569361 
  932000    1.0024098   -2.6629939   -2.6629939   -1.5360376  0.072095975   -2.6629939    1.1269563   569361 
  933000    1.0031904   -2.6651245   -2.6651245   -1.5372906  0.057019901   -2.6651245    1.1278339   569361 
  934000    1.0022938   -2.6652449   -2.6652449   -1.5384189  0.056151824   -2.6652449     1.126826   569361 
  935000    1.0028038   -2.6644642   -2.6644642   -1.5370648   0.05928772   -2.6644642    1.1273994   569361 
  936000    1.0049828   -2.6659733   -2.6659733   -1.5361242  0.056260003   -2.6659733    1.1298491   569361 
  937000    1.0043412    -2.666088    -2.666088   -1.5369602  0.056151015    -2.666088    1.1291278   569361 
  938000    1.0030018   -2.6649504   -2.6649504   -1.5373284  0.055887579   -2.6649504     1.127622   569361 
  939000    1.0043792   -2.6654472   -2.6654472   -1.5362767  0.061988562   -2.6654472    1.1291705   569361 
  940000    1.0050759    -2.665916    -2.665916   -1.5359623  0.058405962    -2.665916    1.1299537   569361 
  941000    1.0044354   -2.6648253   -2.6648253   -1.5355916  0.057799868   -2.6648253    1.1292337   569361 
  942000    1.0041589   -2.6651065   -2.6651065   -1.5361836  0.057520616   -2.6651065    1.1289229   569361 
  943000    1.0044869    -2.665374    -2.665374   -1.5360824  0.065670261    -2.665374    1.1292916   569361 
  944000    1.0035558   -2.6651115   -2.6651115   -1.5368667  0.061131186   -2.6651115    1.1282448   569361 
  945000    1.0045581   -2.6652875   -2.6652875   -1.5359159  0.060152117   -2.6652875    1.1293716   569361 
  946000     1.005093   -2.6660536   -2.6660536   -1.5360806  0.059007533   -2.6660536     1.129973   569361 
  947000     1.003349   -2.6646358   -2.6646358   -1.5366236  0.064611155   -2.6646358    1.1280122   569361 
  948000    1.0044391   -2.6653431   -2.6653431   -1.5361053  0.055345589   -2.6653431    1.1292378   569361 
  949000    1.0038425   -2.6641991   -2.6641991    -1.535632  0.061697828   -2.6641991    1.1285671   569361 
  950000    1.0036257   -2.6646934   -2.6646934     -1.53637   0.06578948   -2.6646934    1.1283234   569361 
  951000    1.0025135   -2.6637591   -2.6637591   -1.5366862  0.059041616   -2.6637591    1.1270729   569361 
  952000    1.0018771   -2.6637889   -2.6637889   -1.5374315  0.073929629   -2.6637889    1.1263575   569361 
  953000    1.0036156   -2.6667686   -2.6667686   -1.5384566  0.055506051   -2.6667686     1.128312   569361 
  954000    1.0053738   -2.6678035   -2.6678035   -1.5375148  0.064332026   -2.6678035    1.1302887   569361 
  955000    1.0049422   -2.6666501   -2.6666501   -1.5368467  0.059705972   -2.6666501    1.1298034   569361 
  956000    1.0043921    -2.666057    -2.666057    -1.536872  0.061891052    -2.666057     1.129185   569361 
  957000    1.0042761   -2.6665088   -2.6665088   -1.5374543  0.054916539   -2.6665088    1.1290546   569361 
  958000    1.0030978   -2.6656329   -2.6656329   -1.5379031  0.060315452   -2.6656329    1.1277298   569361 
  959000    1.0037404   -2.6661683   -2.6661683    -1.537716  0.054007742   -2.6661683    1.1284523   569361 
  960000    1.0047862   -2.6671617   -2.6671617   -1.5375337  0.060468915   -2.6671617    1.1296281   569361 
  961000    1.0023935   -2.6651705   -2.6651705   -1.5382325  0.061298382   -2.6651705     1.126938   569361 
  962000    1.0033955   -2.6664801   -2.6664801   -1.5384155  0.062174925   -2.6664801    1.1280646   569361 
  963000    1.0051073   -2.6682872   -2.6682872   -1.5382982  0.070649748   -2.6682872    1.1299891   569361 
  964000     1.002293   -2.6655877   -2.6655877   -1.5387626  0.055652184   -2.6655877    1.1268251   569361 
  965000    1.0041288   -2.6677199   -2.6677199   -1.5388309  0.055664313   -2.6677199     1.128889   569361 
  966000    1.0038926   -2.6673631   -2.6673631   -1.5387397  0.065679792   -2.6673631    1.1286234   569361 
  967000    1.0028713   -2.6658597   -2.6658597   -1.5383845  0.059550784   -2.6658597    1.1274752   569361 
  968000    1.0023207   -2.6648842   -2.6648842   -1.5380279  0.057782891   -2.6648842    1.1268563   569361 
  969000    1.0026552   -2.6655728   -2.6655728   -1.5383406  0.056299959   -2.6655728    1.1272322   569361 
  970000    1.0033456   -2.6660114   -2.6660114   -1.5380029  0.062713795   -2.6660114    1.1280085   569361 
  971000    1.0027963   -2.6657426   -2.6657426   -1.5383517  0.056768482   -2.6657426    1.1273909   569361 
  972000    1.0024833   -2.6662896   -2.6662896   -1.5392507  0.057053758   -2.6662896     1.127039   569361 
  973000    1.0022691   -2.6658251   -2.6658251   -1.5390269  0.063424212   -2.6658251    1.1267982   569361 
  974000    1.0031099   -2.6666206   -2.6666206   -1.5388771   0.05158846   -2.6666206    1.1277435   569361 
  975000     1.003967   -2.6676982   -2.6676982   -1.5389911  0.056092282   -2.6676982    1.1287071   569361 
  976000    1.0027084    -2.667276    -2.667276    -1.539984  0.073467479    -2.667276     1.127292   569361 
  977000    1.0034061    -2.668083    -2.668083   -1.5400065  0.057504956    -2.668083    1.1280765   569361 
  978000    1.0045772   -2.6686505   -2.6686505   -1.5392575  0.069471095   -2.6686505     1.129393   569361 
  979000    1.0047501   -2.6682685   -2.6682685   -1.5386811  0.061895391   -2.6682685    1.1295875   569361 
  980000    1.0056852     -2.66888     -2.66888   -1.5382412  0.059919396     -2.66888    1.1306387   569361 
  981000    1.0037019   -2.6656178   -2.6656178   -1.5372087  0.059379927   -2.6656178     1.128409   569361 
  982000     1.003533   -2.6643655   -2.6643655   -1.5361464  0.060286932   -2.6643655    1.1282191   569361 
  983000    1.0031008   -2.6650009   -2.6650009   -1.5372677  0.060567884   -2.6650009    1.1277332   569361 
  984000    1.0029776   -2.6651422   -2.6651422   -1.5375474  0.068589798   -2.6651422    1.1275948   569361 
  985000    1.0036155   -2.6663003   -2.6663003   -1.5379884  0.061850623   -2.6663003    1.1283119   569361 
  986000    1.0029325   -2.6664055   -2.6664055   -1.5388614  0.061461675   -2.6664055    1.1275441   569361 
  987000    1.0006272   -2.6645485   -2.6645485   -1.5395962  0.067560467   -2.6645485    1.1249523   569361 
  988000    1.0023993   -2.6662032   -2.6662032   -1.5392587  0.066820828   -2.6662032    1.1269445   569361 
  989000    1.0015956   -2.6650536   -2.6650536   -1.5390126  0.061516966   -2.6650536    1.1260411   569361 
  990000    1.0030613   -2.6666368   -2.6666368   -1.5389479  0.060946086   -2.6666368    1.1276889   569361 
  991000    1.0005665   -2.6636932   -2.6636932   -1.5388091  0.062950921   -2.6636932    1.1248841   569361 
  992000    1.0013218   -2.6653156   -2.6653156   -1.5395823  0.065182053   -2.6653156    1.1257333   569361 
  993000    1.0016066   -2.6660848   -2.6660848   -1.5400314  0.065149057   -2.6660848    1.1260534   569361 
  994000    1.0027979   -2.6675711   -2.6675711   -1.5401784  0.062123943   -2.6675711    1.1273927   569361 
  995000    1.0039796   -2.6691236   -2.6691236   -1.5404023  0.064393692   -2.6691236    1.1287213   569361 
  996000    1.0034564   -2.6674198   -2.6674198   -1.5392868  0.059746678   -2.6674198     1.128133   569361 
  997000    1.0042929    -2.668754    -2.668754   -1.5396805  0.064899774    -2.668754    1.1290734   569361 
  998000    1.0025634   -2.6669052   -2.6669052   -1.5397761  0.065908983   -2.6669052    1.1271291   569361 
  999000    1.0035204   -2.6677972   -2.6677972   -1.5395922   0.06227598   -2.6677972     1.128205   569361 
 1000000    1.0031964   -2.6679566   -2.6679566   -1.5401159  0.066400707   -2.6679566    1.1278407   569361 
 1001000    1.0038396   -2.6683952   -2.6683952   -1.5398314  0.066942584   -2.6683952    1.1285639   569361 
 1002000     1.003259   -2.6688627   -2.6688627   -1.5409516  0.061995799   -2.6688627    1.1279111   569361 
 1003000     1.002861   -2.6685373   -2.6685373   -1.5410736   0.06332031   -2.6685373    1.1274637   569361 
 1004000    1.0022851   -2.6688333   -2.6688333   -1.5420171  0.063037513   -2.6688333    1.1268162   569361 
 1005000    1.0012846   -2.6664398   -2.6664398   -1.5407484  0.064551393   -2.6664398    1.1256913   569361 
 1006000    1.0022517    -2.668198    -2.668198   -1.5414194  0.050085977    -2.668198    1.1267786   569361 
 1007000    1.0012399   -2.6670493   -2.6670493   -1.5414082  0.055912111   -2.6670493    1.1256411   569361 
 1008000    1.0018355   -2.6669743   -2.6669743   -1.5406636  0.069270787   -2.6669743    1.1263107   569361 
 1009000    1.0019963    -2.666719    -2.666719   -1.5402275   0.05676428    -2.666719    1.1264916   569361 
 1010000     1.003679   -2.6682029   -2.6682029   -1.5398195  0.062186227   -2.6682029    1.1283833   569361 
 1011000    1.0012879   -2.6659822   -2.6659822   -1.5402871  0.051866364   -2.6659822    1.1256952   569361 
 1012000    1.0025137   -2.6666346   -2.6666346   -1.5395614  0.061332292   -2.6666346    1.1270732   569361 
 1013000    1.0029797    -2.667581    -2.667581   -1.5399839  0.054962885    -2.667581    1.1275971   569361 
 1014000    1.0015005    -2.666536    -2.666536   -1.5406019  0.064001013    -2.666536    1.1259341   569361 
 1015000     1.002052   -2.6668434   -2.6668434   -1.5402892  0.063633208   -2.6668434    1.1265542   569361 
 1016000    1.0041281   -2.6684927   -2.6684927   -1.5396045  0.056574467   -2.6684927    1.1288882   569361 
 1017000    1.0036643   -2.6674698   -2.6674698    -1.539103  0.063015807   -2.6674698    1.1283668   569361 
 1018000    1.0035379   -2.6681213   -2.6681213   -1.5398967  0.058645387   -2.6681213    1.1282246   569361 
 1019000    1.0016331   -2.6662648   -2.6662648   -1.5401816  0.063189937   -2.6662648    1.1260832   569361 
 1020000    1.0008472   -2.6647991   -2.6647991   -1.5395994  0.050569793   -2.6647991    1.1251997   569361 
 1021000    1.0021508   -2.6667249   -2.6667249   -1.5400596  0.061773549   -2.6667249    1.1266653   569361 
 1022000    1.0034637   -2.6685896   -2.6685896   -1.5404484  0.061015484   -2.6685896    1.1281412   569361 
 1023000     1.002445    -2.667893    -2.667893   -1.5408971  0.068175037    -2.667893    1.1269959   569361 
 1024000    1.0020877   -2.6676174   -2.6676174    -1.541023  0.058112747   -2.6676174    1.1265943   569361 
 1025000    1.0021785   -2.6673133   -2.6673133   -1.5406169   0.05947013   -2.6673133    1.1266963   569361 
 1026000    1.0013801   -2.6663641   -2.6663641   -1.5405654  0.056631975   -2.6663641    1.1257987   569361 
 1027000    1.0019791   -2.6672492   -2.6672492   -1.5407771  0.060498473   -2.6672492    1.1264722   569361 
 1028000    1.0034256   -2.6681628   -2.6681628   -1.5400644  0.065339962   -2.6681628    1.1280985   569361 
 1029000    1.0023938   -2.6669681   -2.6669681   -1.5400297  0.055391276   -2.6669681    1.1269384   569361 
 1030000     1.002735    -2.668424    -2.668424   -1.5411019   0.05499054    -2.668424     1.127322   569361 
 1031000    1.0025265   -2.6687361   -2.6687361   -1.5416485  0.055477593   -2.6687361    1.1270876   569361 
 1032000    1.0021514   -2.6683586   -2.6683586   -1.5416926    0.0635879   -2.6683586    1.1266659   569361 
 1033000    1.0025505   -2.6685658   -2.6685658   -1.5414512  0.060822425   -2.6685658    1.1271146   569361 
 1034000    1.0031552   -2.6692298   -2.6692298   -1.5414354  0.056447809   -2.6692298    1.1277944   569361 
 1035000    1.0029348   -2.6694376   -2.6694376    -1.541891  0.053341082   -2.6694376    1.1275466   569361 
 1036000    1.0051102   -2.6719455   -2.6719455   -1.5419532  0.055166781   -2.6719455    1.1299923   569361 
 1037000    1.0027275   -2.6696389   -2.6696389   -1.5423252  0.062522692   -2.6696389    1.1273136   569361 
 1038000    1.0016274   -2.6674508   -2.6674508    -1.541374  0.054223917   -2.6674508    1.1260767   569361 
 1039000    1.0012717   -2.6668394   -2.6668394   -1.5411625   0.05067417   -2.6668394    1.1256768   569361 
 1040000    1.0023229   -2.6675143   -2.6675143   -1.5406556  0.065135711   -2.6675143    1.1268587   569361 
 1041000    1.0026224    -2.668166    -2.668166   -1.5409706  0.059657163    -2.668166    1.1271954   569361 
 1042000    1.0024219   -2.6674848   -2.6674848   -1.5405148  0.046496735   -2.6674848    1.1269699   569361 
 1043000    1.0019544   -2.6676298   -2.6676298   -1.5411854  0.064002222   -2.6676298    1.1264444   569361 
 1044000    1.0028381   -2.6684951   -2.6684951   -1.5410573  0.062308951   -2.6684951    1.1274379   569361 
 1045000    1.0029774   -2.6690427   -2.6690427   -1.5414482  0.061884974   -2.6690427    1.1275945   569361 
 1046000    1.0040684   -2.6701796   -2.6701796   -1.5413586  0.070387939   -2.6701796     1.128821   569361 
 1047000    1.0035204   -2.6700329   -2.6700329   -1.5418279  0.071143525   -2.6700329     1.128205   569361 
 1048000    1.0026982    -2.669592    -2.669592   -1.5423114  0.067127736    -2.669592    1.1272806   569361 
 1049000    1.0029956   -2.6707449   -2.6707449   -1.5431298  0.068648476   -2.6707449     1.127615   569361 
 1050000    1.0026495   -2.6707689   -2.6707689   -1.5435431   0.05792476   -2.6707689    1.1272258   569361 
 1051000    1.0019019   -2.6702891   -2.6702891   -1.5439037  0.060676837   -2.6702891    1.1263854   569361 
 1052000    1.0021103   -2.6704789   -2.6704789   -1.5438592  0.060175256   -2.6704789    1.1266197   569361 
 1053000    1.0027772   -2.6713737   -2.6713737   -1.5440042  0.062641381   -2.6713737    1.1273695   569361 
 1054000    1.0009241   -2.6696773   -2.6696773   -1.5443912  0.061516322   -2.6696773     1.125286   569361 
 1055000     1.002613   -2.6716197   -2.6716197    -1.544435  0.050847735   -2.6716197    1.1271848   569361 
 1056000    1.0020327   -2.6700292   -2.6700292   -1.5434968  0.064162951   -2.6700292    1.1265325   569361 
 1057000    1.0023748   -2.6707374   -2.6707374   -1.5438203  0.075088378   -2.6707374    1.1269171   569361 
 1058000    1.0024568   -2.6709941   -2.6709941   -1.5439849  0.052766184   -2.6709941    1.1270092   569361 
 1059000    1.0025294   -2.6716147   -2.6716147   -1.5445239  0.062670879   -2.6716147    1.1270908   569361 
 1060000    1.0038613   -2.6726162   -2.6726162    -1.544028  0.060475501   -2.6726162    1.1285882   569361 
 1061000    1.0036594   -2.6717655   -2.6717655   -1.5434043  0.065498182   -2.6717655    1.1283612   569361 
 1062000    1.0017459    -2.669658    -2.669658   -1.5434479  0.059424376    -2.669658    1.1262101   569361 
 1063000    1.0046887   -2.6734072   -2.6734072   -1.5438888    0.0515818   -2.6734072    1.1295184   569361 
 1064000    1.0040206   -2.6722447   -2.6722447   -1.5434774  0.068916206   -2.6722447    1.1287673   569361 
 1065000    1.0033738   -2.6717082   -2.6717082    -1.543668   0.05577611   -2.6717082    1.1280402   569361 
 1066000    1.0018351   -2.6694275   -2.6694275   -1.5431172  0.066267342   -2.6694275    1.1263103   569361 
 1067000    1.0024931   -2.6700391   -2.6700391    -1.542989  0.057338236   -2.6700391    1.1270501   569361 
 1068000    1.0026207   -2.6709975   -2.6709975    -1.543804  0.064951299   -2.6709975    1.1271935   569361 
 1069000    1.0017724   -2.6696232   -2.6696232   -1.5433834  0.065300341   -2.6696232    1.1262398   569361 
 1070000    1.0021147   -2.6693815   -2.6693815   -1.5427569  0.052330726   -2.6693815    1.1266247   569361 
 1071000    1.0009223   -2.6684676   -2.6684676   -1.5431835  0.052155726   -2.6684676    1.1252841   569361 
 1072000    1.0028027   -2.6696101   -2.6696101   -1.5422119  0.066258243   -2.6696101    1.1273981   569361 
 1073000    1.0022629   -2.6687292   -2.6687292    -1.541938  0.059343861   -2.6687292    1.1267912   569361 
 1074000    1.0000216   -2.6659574   -2.6659574   -1.5416859  0.061790705   -2.6659574    1.1242715   569361 
 1075000    1.0018284   -2.6679115   -2.6679115   -1.5416088   0.06332671   -2.6679115    1.1263027   569361 
 1076000    1.0019063   -2.6677586   -2.6677586   -1.5413684  0.058290398   -2.6677586    1.1263903   569361 
 1077000    1.0025836   -2.6686334   -2.6686334   -1.5414816  0.054338013   -2.6686334    1.1271518   569361 
 1078000     1.002759   -2.6680792   -2.6680792   -1.5407302  0.068808913   -2.6680792     1.127349   569361 
 1079000    1.0038625   -2.6697935   -2.6697935   -1.5412039  0.057223169   -2.6697935    1.1285896   569361 
 1080000    1.0026378   -2.6682547   -2.6682547    -1.541042  0.061296287   -2.6682547    1.1272127   569361 
 1081000     1.005477   -2.6705594   -2.6705594   -1.5401548  0.060947301   -2.6705594    1.1304047   569361 
 1082000     1.003699   -2.6689444   -2.6689444   -1.5405386  0.065586092   -2.6689444    1.1284058   569361 
 1083000    1.0027689   -2.6686146   -2.6686146   -1.5412545  0.048670165   -2.6686146    1.1273601   569361 
 1084000    1.0024229   -2.6688366   -2.6688366   -1.5418655   0.05996177   -2.6688366    1.1269711   569361 
 1085000    1.0027717    -2.669542    -2.669542   -1.5421787  0.059514387    -2.669542    1.1273633   569361 
 1086000    1.0029894   -2.6703945   -2.6703945   -1.5427865  0.059266482   -2.6703945     1.127608   569361 
 1087000    1.0019204   -2.6705016   -2.6705016   -1.5440954   0.05634766   -2.6705016    1.1264062   569361 
 1088000     1.004142   -2.6719763   -2.6719763   -1.5430725  0.063388821   -2.6719763    1.1289038   569361 
 1089000    1.0023493   -2.6701281   -2.6701281   -1.5432397  0.062422538   -2.6701281    1.1268884   569361 
 1090000    1.0035104   -2.6709136   -2.6709136   -1.5427199  0.048317714   -2.6709136    1.1281938   569361 
 1091000    1.0033432   -2.6717005   -2.6717005   -1.5436947  0.059282866   -2.6717005    1.1280058   569361 
 1092000    1.0020163   -2.6708177   -2.6708177   -1.5443037  0.066968713   -2.6708177     1.126514   569361 
 1093000    1.0033119   -2.6723184   -2.6723184   -1.5443478  0.046771865   -2.6723184    1.1279706   569361 
 1094000    1.0029246   -2.6718341   -2.6718341    -1.544299  0.063896931   -2.6718341    1.1275351   569361 
 1095000    1.0043111   -2.6725891   -2.6725891   -1.5434951  0.064293203   -2.6725891     1.129094   569361 
 1096000    1.0021004   -2.6696559   -2.6696559   -1.5430474  0.069327637   -2.6696559    1.1266085   569361 
 1097000    1.0039483   -2.6724668   -2.6724668   -1.5437807  0.061489485   -2.6724668     1.128686   569361 
 1098000    1.0037572   -2.6712232   -2.6712232    -1.542752  0.064346259   -2.6712232    1.1284712   569361 
 1099000    1.0042678    -2.671945    -2.671945   -1.5428998  0.062926289    -2.671945    1.1290452   569361 
 1100000    1.0037447   -2.6707628   -2.6707628   -1.5423057  0.064313601   -2.6707628    1.1284571   569361 
 1101000    1.0031991   -2.6708648   -2.6708648    -1.543021  0.057983951   -2.6708648    1.1278438   569361 
 1102000    1.0022344   -2.6703655   -2.6703655   -1.5436063  0.062026043   -2.6703655    1.1267592   569361 
 1103000    1.0033152   -2.6709783   -2.6709783   -1.5430041  0.063191026   -2.6709783    1.1279743   569361 
 1104000    1.0023214    -2.671002    -2.671002    -1.544145  0.056917165    -2.671002     1.126857   569361 
 1105000      1.00352   -2.6723625   -2.6723625    -1.544158  0.048108285   -2.6723625    1.1282045   569361 
 1106000    1.0022768    -2.671506    -2.671506   -1.5446991  0.073616239    -2.671506    1.1268068   569361 
 1107000    1.0019137   -2.6707839   -2.6707839   -1.5443852  0.063640167   -2.6707839    1.1263987   569361 
 1108000    1.0015369   -2.6703261   -2.6703261   -1.5443511  0.065695603   -2.6703261     1.125975   569361 
 1109000    1.0028887   -2.6719963   -2.6719963   -1.5445015  0.063491632   -2.6719963    1.1274948   569361 
 1110000    1.0031323   -2.6733358   -2.6733358   -1.5455672   0.06471966   -2.6733358    1.1277686   569361 
 1111000    1.0029781   -2.6737118   -2.6737118   -1.5461165  0.066827529   -2.6737118    1.1275953   569361 
 1112000    1.0053278   -2.6753269   -2.6753269   -1.5450899  0.063074382   -2.6753269     1.130237   569361 
 1113000    1.0024867   -2.6731027   -2.6731027   -1.5460599   0.06475276   -2.6731027    1.1270429   569361 
 1114000    1.0036175    -2.674283    -2.674283   -1.5459689  0.063445268    -2.674283    1.1283141   569361 
 1115000    1.0058305   -2.6768048   -2.6768048   -1.5460027  0.056286954   -2.6768048    1.1308021   569361 
 1116000    1.0046009    -2.675497    -2.675497   -1.5460772  0.060568474    -2.675497    1.1294197   569361 
 1117000    1.0046622   -2.6745993   -2.6745993   -1.5451106  0.057116077   -2.6745993    1.1294887   569361 
 1118000    1.0051436   -2.6762146   -2.6762146   -1.5461848  0.062547245   -2.6762146    1.1300298   569361 
 1119000    1.0063981    -2.677444    -2.677444   -1.5460037  0.058483555    -2.677444    1.1314403   569361 
 1120000    1.0027476    -2.674323    -2.674323   -1.5469868  0.057254093    -2.674323    1.1273362   569361 
 1121000    1.0028463   -2.6752505   -2.6752505   -1.5478034  0.064901955   -2.6752505    1.1274471   569361 
 1122000    1.0029697   -2.6745927   -2.6745927   -1.5470068  0.062413551   -2.6745927    1.1275859   569361 
 1123000     1.003466   -2.6759979   -2.6759979    -1.547854  0.053659019   -2.6759979    1.1281439   569361 
 1124000    1.0042924   -2.6770608   -2.6770608   -1.5479879  0.049368184   -2.6770608    1.1290729   569361 
 1125000    1.0039357    -2.677334    -2.677334   -1.5486622  0.062195281    -2.677334    1.1286719   569361 
 1126000     1.001844   -2.6758296   -2.6758296   -1.5495093  0.058581512   -2.6758296    1.1263203   569361 
 1127000    1.0011349   -2.6750449   -2.6750449   -1.5495218  0.062142781   -2.6750449    1.1255231   569361 
 1128000    1.0011612   -2.6760483   -2.6760483   -1.5504957  0.051186094   -2.6760483    1.1255526   569361 
 1129000    1.0030334   -2.6770925   -2.6770925   -1.5494349  0.058194182   -2.6770925    1.1276575   569361 
 1130000    1.0042854   -2.6785098   -2.6785098   -1.5494448  0.061310287   -2.6785098     1.129065   569361 
 1131000    1.0037701   -2.6775283   -2.6775283   -1.5490426   0.06741049   -2.6775283    1.1284857   569361 
 1132000    1.0043555   -2.6782544   -2.6782544   -1.5491106  0.065701324   -2.6782544    1.1291438   569361 
 1133000     1.004765   -2.6781383   -2.6781383   -1.5485341  0.063565289   -2.6781383    1.1296042   569361 
 1134000    1.0051922   -2.6792327   -2.6792327   -1.5491481  0.067728777   -2.6792327    1.1300845   569361 
 1135000    1.0055217   -2.6798382   -2.6798382   -1.5493832  0.063941841   -2.6798382     1.130455   569361 
 1136000    1.0042176    -2.678163    -2.678163   -1.5491742  0.061038028    -2.678163    1.1289888   569361 
 1137000     1.003555   -2.6778275   -2.6778275   -1.5495837  0.066258232   -2.6778275    1.1282438   569361 
 1138000    1.0034345   -2.6783965   -2.6783965    -1.550288  0.058843898   -2.6783965    1.1281084   569361 
 1139000    1.0047305      -2.6784      -2.6784   -1.5488345  0.061777298      -2.6784    1.1295655   569361 
 1140000    1.0036656   -2.6776821   -2.6776821   -1.5493139  0.061009784   -2.6776821    1.1283682   569361 
 1141000     1.003173   -2.6776239   -2.6776239   -1.5498094  0.058688878   -2.6776239    1.1278145   569361 
 1142000    1.0037855   -2.6782072   -2.6782072   -1.5497042  0.057457568   -2.6782072     1.128503   569361 
 1143000    1.0027486   -2.6778259   -2.6778259   -1.5504886  0.054789549   -2.6778259    1.1273373   569361 
 1144000    1.0026778    -2.677342    -2.677342   -1.5500843  0.061798055    -2.677342    1.1272577   569361 
 1145000    1.0037505     -2.67816     -2.67816   -1.5496963  0.064428498     -2.67816    1.1284636   569361 
 1146000    1.0032939    -2.678054    -2.678054   -1.5501036  0.059455894    -2.678054    1.1279504   569361 
 1147000    1.0035246   -2.6780406   -2.6780406   -1.5498309   0.05711441   -2.6780406    1.1282097   569361 
 1148000    1.0013736   -2.6774025   -2.6774025    -1.551611  0.066361375   -2.6774025    1.1257914   569361 
 1149000    1.0040088   -2.6797079   -2.6797079   -1.5509538  0.058089848   -2.6797079     1.128754   569361 
 1150000    1.0022224   -2.6771642   -2.6771642   -1.5504185  0.060040165   -2.6771642    1.1267458   569361 
 1151000    1.0031833   -2.6780815   -2.6780815   -1.5502555  0.058355226   -2.6780815    1.1278259   569361 
 1152000    1.0033635   -2.6780537   -2.6780537   -1.5500251  0.059358845   -2.6780537    1.1280285   569361 
 1153000    1.0035226    -2.677882    -2.677882   -1.5496745  0.069323168    -2.677882    1.1282074   569361 
 1154000    1.0041183   -2.6785451   -2.6785451    -1.549668   0.05299604   -2.6785451    1.1288771   569361 
 1155000    1.0024568   -2.6769493   -2.6769493   -1.5499401  0.062662562   -2.6769493    1.1270092   569361 
 1156000    1.0023846   -2.6771247   -2.6771247   -1.5501967  0.052933891   -2.6771247    1.1269281   569361 
 1157000    1.0025565   -2.6778597   -2.6778597   -1.5507384  0.058352497   -2.6778597    1.1271214   569361 
 1158000    1.0026636   -2.6782835   -2.6782835   -1.5510417  0.057911854   -2.6782835    1.1272418   569361 
 1159000    1.0036885   -2.6788626   -2.6788626   -1.5504686  0.067169896   -2.6788626    1.1283939   569361 
 1160000    1.0045779   -2.6802764   -2.6802764   -1.5508826  0.058415237   -2.6802764    1.1293939   569361 
 1161000    1.0026005   -2.6775752   -2.6775752   -1.5504044  0.060592538   -2.6775752    1.1271708   569361 
 1162000     1.001254   -2.6771736   -2.6771736   -1.5515166   0.06326034   -2.6771736     1.125657   569361 
 1163000    1.0031918   -2.6789966   -2.6789966    -1.551161  0.061611412   -2.6789966    1.1278356   569361 
 1164000    1.0045893   -2.6803594   -2.6803594   -1.5509527  0.064228741   -2.6803594    1.1294067   569361 
 1165000    1.0047678    -2.680765    -2.680765   -1.5511576  0.061994154    -2.680765    1.1296074   569361 
 1166000    1.0029428   -2.6790918   -2.6790918   -1.5515362  0.068579545   -2.6790918    1.1275556   569361 
 1167000    1.0028793   -2.6802925   -2.6802925   -1.5528082  0.056112975   -2.6802925    1.1274842   569361 
 1168000    1.0026217   -2.6796419   -2.6796419   -1.5524473  0.064677072   -2.6796419    1.1271946   569361 
 1169000    1.0023709   -2.6792256   -2.6792256   -1.5523129  0.065687059   -2.6792256    1.1269126   569361 
 1170000    1.0027319   -2.6784273   -2.6784273   -1.5511088  0.061426803   -2.6784273    1.1273185   569361 
 1171000     1.004401   -2.6798829   -2.6798829   -1.5506879  0.067561716   -2.6798829    1.1291949   569361 
 1172000    1.0025844   -2.6779327   -2.6779327     -1.55078  0.056160887   -2.6779327    1.1271527   569361 
 1173000    1.0046515   -2.6792723   -2.6792723   -1.5497957  0.062260604   -2.6792723    1.1294766   569361 
 1174000    1.0041061   -2.6792738   -2.6792738   -1.5504103  0.058961986   -2.6792738    1.1288635   569361 
 1175000    1.0033794   -2.6788773   -2.6788773   -1.5508308   0.06188367   -2.6788773    1.1280464   569361 
 1176000    1.0046518   -2.6807925   -2.6807925   -1.5513155  0.056546484   -2.6807925     1.129477   569361 
 1177000    1.0037732   -2.6797034   -2.6797034   -1.5512142  0.052219805   -2.6797034    1.1284892   569361 
 1178000    1.0029493   -2.6782799   -2.6782799    -1.550717    0.0678502   -2.6782799    1.1275629   569361 
 1179000    1.0022344   -2.6780842   -2.6780842   -1.5513249  0.061218388   -2.6780842    1.1267593   569361 
 1180000    1.0031189   -2.6792487   -2.6792487   -1.5514951  0.060895039   -2.6792487    1.1277536   569361 
 1181000    1.0020171   -2.6784596   -2.6784596   -1.5519447  0.055912721   -2.6784596    1.1265149   569361 
 1182000    1.0025356   -2.6788689   -2.6788689   -1.5517711  0.051053603   -2.6788689    1.1270978   569361 
 1183000    1.0025103   -2.6789026   -2.6789026   -1.5518332  0.067035904   -2.6789026    1.1270694   569361 
 1184000    1.0027057   -2.6796046   -2.6796046   -1.5523155  0.061128171   -2.6796046    1.1272891   569361 
 1185000    1.0018959   -2.6786598   -2.6786598   -1.5522812  0.058355906   -2.6786598    1.1263786   569361 
 1186000     1.003002    -2.680402    -2.680402   -1.5527798  0.063652679    -2.680402    1.1276222   569361 
 1187000    1.0043907   -2.6811154   -2.6811154    -1.551932   0.05681387   -2.6811154    1.1291835   569361 
 1188000    1.0040354   -2.6801507   -2.6801507   -1.5513667  0.059420045   -2.6801507    1.1287839   569361 
 1189000    1.0037516   -2.6802151   -2.6802151   -1.5517501  0.057412151   -2.6802151     1.128465   569361 
 1190000    1.0041533    -2.680403    -2.680403   -1.5514865  0.066390553    -2.680403    1.1289165   569361 
 1191000     1.003956    -2.679434    -2.679434   -1.5507393   0.06462053    -2.679434    1.1286947   569361 
 1192000    1.0040428   -2.6791022   -2.6791022   -1.5503099  0.064998783   -2.6791022    1.1287923   569361 
 1193000    1.0030038   -2.6783667   -2.6783667   -1.5507426  0.062228522   -2.6783667    1.1276241   569361 
 1194000    1.0051418   -2.6804869   -2.6804869   -1.5504591  0.062298755   -2.6804869    1.1300278   569361 
 1195000    1.0039587   -2.6796057   -2.6796057    -1.550908  0.055000781   -2.6796057    1.1286977   569361 
 1196000     1.004299   -2.6800209   -2.6800209   -1.5509405  0.060622257   -2.6800209    1.1290804   569361 
 1197000    1.0035791    -2.680344    -2.680344    -1.552073  0.062699295    -2.680344     1.128271   569361 
 1198000    1.0035192   -2.6804536   -2.6804536     -1.55225  0.069533586   -2.6804536    1.1282036   569361 
 1199000    1.0014065   -2.6779773   -2.6779773   -1.5521488  0.069517942   -2.6779773    1.1258285   569361 
 1200000    1.0028746   -2.6796988   -2.6796988   -1.5522199  0.059079761   -2.6796988    1.1274789   569361 
 1201000    1.0028671   -2.6804935   -2.6804935   -1.5530229  0.055790086   -2.6804935    1.1274706   569361 
 1202000    1.0029288   -2.6801419   -2.6801419   -1.5526021  0.060891627   -2.6801419    1.1275398   569361 
 1203000    1.0026172   -2.6796115   -2.6796115   -1.5524219  0.063240285   -2.6796115    1.1271896   569361 
 1204000    1.0005807   -2.6777287   -2.6777287   -1.5528286  0.063481694   -2.6777287       1.1249   569361 
 1205000    1.0015134   -2.6792827   -2.6792827   -1.5533341  0.054347129   -2.6792827    1.1259486   569361 
 1206000    1.0025979   -2.6807525   -2.6807525   -1.5535847  0.064708643   -2.6807525    1.1271679   569361 
 1207000    1.0029807   -2.6806492   -2.6806492    -1.553051  0.053329377   -2.6806492    1.1275983   569361 
 1208000    1.0024449   -2.6792184   -2.6792184   -1.5522226  0.067194942   -2.6792184    1.1269959   569361 
 1209000    1.0040094    -2.681627    -2.681627   -1.5528722   0.06682794    -2.681627    1.1287547   569361 
 1210000     1.005867   -2.6836753   -2.6836753   -1.5528322  0.050950824   -2.6836753    1.1308431   569361 
 1211000    1.0049334    -2.682771    -2.682771   -1.5529774  0.064666051    -2.682771    1.1297936   569361 
 1212000    1.0052067   -2.6828461   -2.6828461   -1.5527453  0.060301403   -2.6828461    1.1301008   569361 
 1213000    1.0045994   -2.6818324   -2.6818324   -1.5524143   0.06994621   -2.6818324    1.1294181   569361 
 1214000    1.0035666   -2.6819784   -2.6819784   -1.5537215  0.057063976   -2.6819784    1.1282569   569361 
 1215000    1.0035809   -2.6828811   -2.6828811   -1.5546081  0.051526331   -2.6828811    1.1282731   569361 
 1216000    1.0019502   -2.6815094   -2.6815094   -1.5550697  0.051546366   -2.6815094    1.1264397   569361 
 1217000    1.0038028   -2.6827745   -2.6827745    -1.554252  0.061588386   -2.6827745    1.1285225   569361 
 1218000    1.0020104   -2.6806862   -2.6806862   -1.5541788  0.053813457   -2.6806862    1.1265074   569361 
 1219000    1.0007977   -2.6800519   -2.6800519   -1.5549079  0.061648405   -2.6800519     1.125144   569361 
 1220000    1.0005724   -2.6806896   -2.6806896   -1.5557989  0.059813271   -2.6806896    1.1248907   569361 
 1221000    1.0024966   -2.6826495   -2.6826495   -1.5555956  0.064733877   -2.6826495    1.1270539   569361 
 1222000    1.0016128    -2.681577    -2.681577   -1.5555166  0.065276632    -2.681577    1.1260604   569361 
 1223000    1.0029688   -2.6824212   -2.6824212   -1.5548364  0.072922563   -2.6824212    1.1275848   569361 
 1224000    1.0043528   -2.6839144   -2.6839144   -1.5547736  0.056288473   -2.6839144    1.1291408   569361 
 1225000    1.0009964   -2.6798668   -2.6798668   -1.5544994   0.05627871   -2.6798668    1.1253673   569361 
 1226000    1.0030954   -2.6825864   -2.6825864   -1.5548592  0.065620302   -2.6825864    1.1277272   569361 
 1227000    1.0043436    -2.682639    -2.682639   -1.5535085  0.060794279    -2.682639    1.1291305   569361 
 1228000    1.0033367   -2.6810226   -2.6810226   -1.5530241  0.065175016   -2.6810226    1.1279985   569361 
 1229000    1.0019325   -2.6797735   -2.6797735   -1.5533537  0.062658092   -2.6797735    1.1264198   569361 
 1230000    1.0022591   -2.6795688   -2.6795688   -1.5527819  0.058690935   -2.6795688    1.1267869   569361 
 1231000    1.0028656   -2.6810807   -2.6810807   -1.5536119  0.062604628   -2.6810807    1.1274688   569361 
 1232000    1.0041674   -2.6814564   -2.6814564    -1.552524  0.061977316   -2.6814564    1.1289324   569361 
 1233000    1.0033588   -2.6814381   -2.6814381   -1.5534149  0.069496763   -2.6814381    1.1280233   569361 
 1234000    1.0028405   -2.6806926   -2.6806926    -1.553252  0.061043162   -2.6806926    1.1274406   569361 
 1235000    1.0035625   -2.6804237   -2.6804237   -1.5521714  0.064538259   -2.6804237    1.1282523   569361 
 1236000    1.0032418   -2.6802042   -2.6802042   -1.5523124  0.063452181   -2.6802042    1.1278918   569361 
 1237000    1.0028797   -2.6804726   -2.6804726   -1.5529879   0.06899722   -2.6804726    1.1274847   569361 
 1238000    1.0036012   -2.6805472   -2.6805472   -1.5522513  0.064370727   -2.6805472    1.1282959   569361 
 1239000    1.0043359   -2.6815475   -2.6815475   -1.5524258   0.05632675   -2.6815475    1.1291217   569361 
 1240000    1.0032748   -2.6797428   -2.6797428   -1.5518139  0.054888078   -2.6797428    1.1279289   569361 
 1241000    1.0023421   -2.6788805   -2.6788805   -1.5520002  0.067277198   -2.6788805    1.1268803   569361 
 1242000    1.0014789    -2.677814    -2.677814   -1.5519042  0.057319624    -2.677814    1.1259098   569361 
 1243000    1.0016604   -2.6790581   -2.6790581   -1.5529442  0.056179421   -2.6790581    1.1261138   569361 
 1244000    1.0017373   -2.6786387   -2.6786387   -1.5524384  0.055952009   -2.6786387    1.1262003   569361 
 1245000    1.0016084   -2.6787267   -2.6787267   -1.5526712  0.066099535   -2.6787267    1.1260554   569361 
 1246000    1.0017642   -2.6796298   -2.6796298   -1.5533992  0.051577099   -2.6796298    1.1262306   569361 
 1247000     1.002244   -2.6803026   -2.6803026   -1.5535326  0.055528728   -2.6803026      1.12677   569361 
 1248000    1.0010422   -2.6791245   -2.6791245   -1.5537057  0.047241408   -2.6791245    1.1254189   569361 
 1249000    1.0003592   -2.6784484   -2.6784484   -1.5537974  0.049542298   -2.6784484    1.1246511   569361 
 1250000    1.0001795   -2.6786274   -2.6786274   -1.5541784  0.048742626   -2.6786274    1.1244489   569361 
 1251000    1.0014286   -2.6791029   -2.6791029   -1.5532497  0.049190208   -2.6791029    1.1258533   569361 
 1252000    1.0011361   -2.6791607   -2.6791607   -1.5536363  0.058279847   -2.6791607    1.1255244   569361 
 1253000    1.0020293   -2.6803078   -2.6803078   -1.5537792  0.061922098   -2.6803078    1.1265286   569361 
 1254000    1.0023101   -2.6803985   -2.6803985   -1.5535542  0.049042091   -2.6803985    1.1268443   569361 
 1255000     1.002835   -2.6808852   -2.6808852   -1.5534507  0.065539971   -2.6808852    1.1274345   569361 
 1256000    1.0049871   -2.6831834   -2.6831834   -1.5533295  0.054883408   -2.6831834     1.129854   569361 
 1257000    1.0026593   -2.6801734   -2.6801734   -1.5529364  0.062690808   -2.6801734    1.1272369   569361 
 1258000    1.0040779   -2.6826534   -2.6826534   -1.5538217  0.057715083   -2.6826534    1.1288317   569361 
 1259000    1.0034536   -2.6816607   -2.6816607   -1.5535308  0.069726322   -2.6816607    1.1281299   569361 
 1260000    1.0031284   -2.6818464   -2.6818464   -1.5540821    0.0562556   -2.6818464    1.1277643   569361 
 1261000    1.0045816   -2.6836775   -2.6836775   -1.5542794  0.053780528   -2.6836775    1.1293981   569361 
 1262000    1.0027414   -2.6825024   -2.6825024   -1.5551732  0.052282079   -2.6825024    1.1273292   569361 
 1263000    1.0023462   -2.6820911   -2.6820911   -1.5552062  0.056758785   -2.6820911    1.1268849   569361 
 1264000     1.004454     -2.68374     -2.68374   -1.5544855  0.065929606     -2.68374    1.1292545   569361 
 1265000    1.0045904    -2.683682    -2.683682    -1.554274   0.06383929    -2.683682     1.129408   569361 
 1266000     1.004646   -2.6843572   -2.6843572   -1.5548867  0.061532826   -2.6843572    1.1294705   569361 
 1267000    1.0046284   -2.6838628   -2.6838628   -1.5544121  0.060278241   -2.6838628    1.1294507   569361 
 1268000    1.0030214   -2.6820146   -2.6820146   -1.5543705  0.061562823   -2.6820146     1.127644   569361 
 1269000       1.0024   -2.6822033   -2.6822033   -1.5552579  0.057819941   -2.6822033    1.1269453   569361 
 1270000    1.0009078   -2.6812818   -2.6812818    -1.556014  0.057116125   -2.6812818    1.1252678   569361 
 1271000    1.0022889   -2.6833687   -2.6833687   -1.5565482  0.056893286   -2.6833687    1.1268205   569361 
 1272000    1.0012862   -2.6820053   -2.6820053   -1.5563121   0.05362334   -2.6820053    1.1256932   569361 
 1273000     1.001372   -2.6827606   -2.6827606   -1.5569709  0.052063951   -2.6827606    1.1257897   569361 
 1274000    1.0019669   -2.6832933   -2.6832933   -1.5568348  0.065990518   -2.6832933    1.1264585   569361 
 1275000    1.0025515   -2.6831678   -2.6831678   -1.5560522  0.067682058   -2.6831678    1.1271157   569361 
 1276000    1.0025324   -2.6835448   -2.6835448   -1.5564506  0.057452929   -2.6835448    1.1270942   569361 
 1277000    1.0015466   -2.6821573   -2.6821573   -1.5561713  0.063853205   -2.6821573     1.125986   569361 
 1278000    1.0027541   -2.6828426   -2.6828426   -1.5554991  0.057713559   -2.6828426    1.1273435   569361 
 1279000    1.0015806   -2.6808324   -2.6808324   -1.5548082  0.065171241   -2.6808324    1.1260242   569361 
 1280000    1.0018347   -2.6816399   -2.6816399   -1.5553301  0.067175549   -2.6816399    1.1263098   569361 
 1281000    1.0021253     -2.68183     -2.68183   -1.5551934  0.055664714     -2.68183    1.1266365   569361 
 1282000    1.0033704   -2.6833999   -2.6833999   -1.5553635  0.068296094   -2.6833999    1.1280364   569361 
 1283000    1.0034397   -2.6836539   -2.6836539   -1.5555397  0.055323591   -2.6836539    1.1281142   569361 
 1284000    1.0034643   -2.6848971   -2.6848971   -1.5567552  0.055090694   -2.6848971    1.1281419   569361 
 1285000     1.002499   -2.6835726   -2.6835726   -1.5565159  0.058554458   -2.6835726    1.1270567   569361 
 1286000    1.0012517   -2.6820564   -2.6820564    -1.556402  0.064573726   -2.6820564    1.1256544   569361 
 1287000    1.0022436   -2.6819882   -2.6819882   -1.5552187  0.063572517   -2.6819882    1.1267695   569361 
 1288000     1.001058   -2.6817557   -2.6817557   -1.5563191  0.054889915   -2.6817557    1.1254366   569361 
 1289000    1.0015113   -2.6821803   -2.6821803   -1.5562341  0.054542997   -2.6821803    1.1259463   569361 
 1290000    1.0021428   -2.6822034   -2.6822034   -1.5555472  0.063920424   -2.6822034    1.1266562   569361 
 1291000    1.0035464   -2.6846253   -2.6846253   -1.5563911   0.07018481   -2.6846253    1.1282342   569361 
 1292000    1.0023761   -2.6830096   -2.6830096   -1.5560912  0.072167325   -2.6830096    1.1269185   569361 
 1293000    1.0028869   -2.6838032   -2.6838032   -1.5563104  0.061973164   -2.6838032    1.1274928   569361 
 1294000      1.00234   -2.6839367   -2.6839367   -1.5570587  0.066445194   -2.6839367     1.126878   569361 
 1295000    1.0013052    -2.682808    -2.682808   -1.5570934  0.061813334    -2.682808    1.1257145   569361 
 1296000    1.0018185   -2.6833975   -2.6833975   -1.5571059   0.06351437   -2.6833975    1.1262916   569361 
 1297000      1.00287   -2.6851239   -2.6851239   -1.5576501  0.057793986   -2.6851239    1.1274738   569361 
 1298000    1.0046652   -2.6874026   -2.6874026   -1.5579106  0.063079684   -2.6874026     1.129492   569361 
 1299000    1.0042986   -2.6864938   -2.6864938   -1.5574139  0.054700431   -2.6864938    1.1290799   569361 
 1300000     1.004184   -2.6860099   -2.6860099   -1.5570589  0.059564602   -2.6860099     1.128951   569361 
 1301000    1.0031731    -2.685093    -2.685093   -1.5572784   0.06915924    -2.685093    1.1278145   569361 
 1302000     1.005126   -2.6878369   -2.6878369   -1.5578268  0.069831226   -2.6878369    1.1300101   569361 
 1303000    1.0035869    -2.686336    -2.686336   -1.5580563  0.065130847    -2.686336    1.1282797   569361 
 1304000    1.0021526   -2.6840708   -2.6840708   -1.5574036  0.067420074   -2.6840708    1.1266672   569361 
 1305000    1.0037451   -2.6864599   -2.6864599   -1.5580022   0.06563239   -2.6864599    1.1284576   569361 
 1306000    1.0047341    -2.688238    -2.688238   -1.5586684  0.068797862    -2.688238    1.1295695   569361 
 1307000    1.0028003   -2.6864835   -2.6864835    -1.559088   0.06546376   -2.6864835    1.1273955   569361 
 1308000     1.003806   -2.6869273   -2.6869273   -1.5584012  0.068331671   -2.6869273    1.1285261   569361 
 1309000    1.0028306   -2.6866812   -2.6866812   -1.5592518  0.064322823   -2.6866812    1.1274294   569361 
 1310000    1.0023954   -2.6851003   -2.6851003   -1.5581601  0.069568688   -2.6851003    1.1269402   569361 
 1311000    1.0041111   -2.6867445   -2.6867445   -1.5578754  0.067624219   -2.6867445    1.1288691   569361 
 1312000    1.0047397   -2.6874599   -2.6874599   -1.5578842  0.066582631   -2.6874599    1.1295758   569361 
 1313000    1.0056793    -2.689136    -2.689136   -1.5585038  0.062885876    -2.689136    1.1306322   569361 
 1314000    1.0037118   -2.6866145   -2.6866145   -1.5581943  0.064328515   -2.6866145    1.1284202   569361 
 1315000     1.003186   -2.6873074   -2.6873074   -1.5594783  0.056830998   -2.6873074     1.127829   569361 
 1316000    1.0030995   -2.6875829   -2.6875829   -1.5598511  0.070363984   -2.6875829    1.1277318   569361 
 1317000     1.003291   -2.6877223   -2.6877223   -1.5597752  0.060288221   -2.6877223    1.1279471   569361 
 1318000    1.0029253   -2.6873315   -2.6873315   -1.5597956  0.058186251   -2.6873315    1.1275359   569361 
 1319000    1.0013858    -2.686247    -2.686247   -1.5604418  0.056966061    -2.686247    1.1258052   569361 
 1320000    1.0014448    -2.687462    -2.687462   -1.5615905  0.061932646    -2.687462    1.1258715   569361 
 1321000    1.0012907   -2.6864474   -2.6864474   -1.5607492  0.055033384   -2.6864474    1.1256982   569361 
 1322000    1.0019846   -2.6871362   -2.6871362   -1.5606579  0.061681573   -2.6871362    1.1264784   569361 
 1323000    1.0020104   -2.6874255   -2.6874255   -1.5609182  0.055149448   -2.6874255    1.1265074   569361 
 1324000    1.0009765    -2.685845    -2.685845   -1.5604999  0.061639219    -2.685845     1.125345   569361 
 1325000    1.0009793   -2.6854341   -2.6854341   -1.5600859  0.056679723   -2.6854341    1.1253482   569361 
 1326000    1.0003088   -2.6845368   -2.6845368   -1.5599424  0.062766031   -2.6845368    1.1245944   569361 
 1327000    1.0011795   -2.6851613   -2.6851613   -1.5595881  0.072218897   -2.6851613    1.1255732   569361 
 1328000    1.0020032   -2.6861754   -2.6861754   -1.5596762  0.057858646   -2.6861754    1.1264992   569361 
 1329000    1.0026415   -2.6867184   -2.6867184   -1.5595016  0.054600878   -2.6867184    1.1272168   569361 
 1330000     1.004582   -2.6884613   -2.6884613   -1.5590628  0.064325915   -2.6884613    1.1293984   569361 
 1331000    1.0050362   -2.6890535   -2.6890535   -1.5591444  0.064892338   -2.6890535    1.1299091   569361 
 1332000    1.0027278   -2.6858575   -2.6858575   -1.5585436  0.073171778   -2.6858575    1.1273139   569361 
 1333000    1.0037224   -2.6870212   -2.6870212   -1.5585891  0.055679744   -2.6870212    1.1284321   569361 
 1334000    1.0036805   -2.6861777   -2.6861777   -1.5577927  0.066579197   -2.6861777     1.128385   569361 
 1335000    1.0034867    -2.686075    -2.686075   -1.5579079  0.061297897    -2.686075    1.1281671   569361 
 1336000     1.003271   -2.6858077   -2.6858077   -1.5578831  0.056284779   -2.6858077    1.1279247   569361 
 1337000    1.0040976   -2.6862696   -2.6862696   -1.5574157  0.066945644   -2.6862696    1.1288539   569361 
 1338000    1.0021007   -2.6851496   -2.6851496   -1.5585407  0.066248329   -2.6851496    1.1266089   569361 
 1339000    1.0014872   -2.6851554   -2.6851554   -1.5592362  0.053768789   -2.6851554    1.1259192   569361 
 1340000    1.0012027   -2.6842788   -2.6842788   -1.5586794  0.072011491   -2.6842788    1.1255994   569361 
 1341000    1.0029661   -2.6857454   -2.6857454   -1.5581637  0.059572632   -2.6857454    1.1275818   569361 
 1342000    1.0019526   -2.6847863   -2.6847863   -1.5583438  0.052821542   -2.6847863    1.1264424   569361 
 1343000    1.0027034   -2.6859433   -2.6859433   -1.5586568  0.069548419   -2.6859433    1.1272865   569361 
 1344000    1.0029452   -2.6869324   -2.6869324    -1.559374  0.066323337   -2.6869324    1.1275584   569361 
 1345000    1.0022919   -2.6857824   -2.6857824   -1.5589585  0.065295773   -2.6857824    1.1268239   569361 
 1346000    1.0014956    -2.685677    -2.685677   -1.5597484  0.065729325    -2.685677    1.1259286   569361 
 1347000    1.0030613   -2.6851536   -2.6851536   -1.5574647  0.057302058   -2.6851536    1.1276889   569361 
 1348000    1.0019206   -2.6836971   -2.6836971   -1.5572906  0.067118732   -2.6836971    1.1264065   569361 
 1349000     1.002052   -2.6843119   -2.6843119   -1.5577577  0.057065776   -2.6843119    1.1265542   569361 
 1350000    1.0020229   -2.6848922   -2.6848922   -1.5583708  0.066900707   -2.6848922    1.1265214   569361 
 1351000    1.0013071   -2.6836447   -2.6836447    -1.557928  0.060527492   -2.6836447    1.1257167   569361 
 1352000    1.0016286   -2.6841217   -2.6841217   -1.5580436  0.063888405   -2.6841217    1.1260781   569361 
 1353000    1.0024257   -2.6860484   -2.6860484   -1.5590742  0.063254908   -2.6860484    1.1269742   569361 
 1354000    1.0031842   -2.6869358   -2.6869358   -1.5591088  0.055240867   -2.6869358     1.127827   569361 
 1355000    1.0016353   -2.6851256   -2.6851256   -1.5590399  0.067172796   -2.6851256    1.1260856   569361 
 1356000    1.0012381   -2.6844764   -2.6844764   -1.5588374  0.063963317   -2.6844764    1.1256391   569361 
 1357000    1.0036589   -2.6870004   -2.6870004   -1.5586397  0.061918445   -2.6870004    1.1283607   569361 
 1358000    1.0025851   -2.6859071   -2.6859071   -1.5587537  0.058343299   -2.6859071    1.1271534   569361 
 1359000    1.0032486   -2.6859278   -2.6859278   -1.5580283  0.053210359   -2.6859278    1.1278994   569361 
 1360000    1.0032256   -2.6854206   -2.6854206    -1.557547  0.060356854   -2.6854206    1.1278736   569361 
 1361000    1.0024421   -2.6858224   -2.6858224   -1.5588297  0.063201385   -2.6858224    1.1269927   569361 
 1362000    1.0032032   -2.6864369   -2.6864369   -1.5585885  0.058225827   -2.6864369    1.1278484   569361 
 1363000    1.0019887   -2.6863693   -2.6863693   -1.5598863   0.05189082   -2.6863693     1.126483   569361 
 1364000    1.0027583   -2.6867032   -2.6867032   -1.5593551  0.057348351   -2.6867032    1.1273481   569361 
 1365000    1.0033939    -2.687618    -2.687618   -1.5595552  0.059499762    -2.687618    1.1280628   569361 
 1366000    1.0032437   -2.6869972   -2.6869972   -1.5591033  0.067328452   -2.6869972    1.1278939   569361 
 1367000    1.0036054   -2.6882609   -2.6882609   -1.5599604   0.05653429   -2.6882609    1.1283005   569361 
 1368000    1.0028132   -2.6875313   -2.6875313   -1.5601213  0.058998942   -2.6875313      1.12741   569361 
 1369000    1.0037681   -2.6883918   -2.6883918   -1.5599084  0.056553207   -2.6883918    1.1284834   569361 
 1370000    1.0023407   -2.6869043   -2.6869043   -1.5600256  0.062786944   -2.6869043    1.1268787   569361 
 1371000    1.0021694   -2.6864923   -2.6864923   -1.5598061  0.059267036   -2.6864923    1.1266862   569361 
 1372000    1.0030969   -2.6875354   -2.6875354   -1.5598065   0.07147184   -2.6875354    1.1277289   569361 
 1373000    1.0026313   -2.6871419   -2.6871419   -1.5599365  0.059822473   -2.6871419    1.1272054   569361 
 1374000    1.0042624   -2.6887718   -2.6887718   -1.5597327  0.065602365   -2.6887718    1.1290392   569361 
 1375000    1.0024582   -2.6868177   -2.6868177   -1.5598069   0.06066241   -2.6868177    1.1270108   569361 
 1376000    1.0028421    -2.687396    -2.687396   -1.5599535  0.055460439    -2.687396    1.1274424   569361 
 1377000    1.0041755   -2.6891249   -2.6891249   -1.5601834  0.059693974   -2.6891249    1.1289415   569361 
 1378000    1.0027123   -2.6876141   -2.6876141   -1.5603177  0.058042773   -2.6876141    1.1272964   569361 
 1379000    1.0022441   -2.6874247   -2.6874247   -1.5606546    0.0677428   -2.6874247    1.1267701   569361 
 1380000    1.0023923   -2.6878767   -2.6878767     -1.56094  0.064355999   -2.6878767    1.1269367   569361 
 1381000    1.0013695   -2.6867026   -2.6867026   -1.5609158  0.060867628   -2.6867026    1.1257868   569361 
 1382000    1.0010685    -2.685812    -2.685812   -1.5603635  0.068330748    -2.685812    1.1254485   569361 
 1383000     1.001549   -2.6869044   -2.6869044   -1.5609158  0.054855489   -2.6869044    1.1259886   569361 
 1384000    1.0011252   -2.6857437   -2.6857437   -1.5602315  0.062696407   -2.6857437    1.1255122   569361 
 1385000    1.0007752   -2.6861102   -2.6861102   -1.5609914  0.067303474   -2.6861102    1.1251187   569361 
 1386000    1.0022281   -2.6876318   -2.6876318   -1.5608797  0.060603111   -2.6876318    1.1267521   569361 
 1387000    1.0004875   -2.6856834   -2.6856834   -1.5608882  0.061315609   -2.6856834    1.1247952   569361 
 1388000    1.0013171   -2.6859261   -2.6859261   -1.5601982  0.058218673   -2.6859261    1.1257279   569361 
 1389000    1.0031311   -2.6875247   -2.6875247   -1.5597573  0.056415228   -2.6875247    1.1277673   569361 
 1390000    1.0026411   -2.6885692   -2.6885692   -1.5613528  0.056119687   -2.6885692    1.1272164   569361 
 1391000    1.0028437   -2.6877615   -2.6877615   -1.5603173  0.066879855   -2.6877615    1.1274442   569361 
 1392000    1.0025324   -2.6870844   -2.6870844   -1.5599901  0.072002937   -2.6870844    1.1270942   569361 
 1393000    1.0047892   -2.6901835   -2.6901835   -1.5605521  0.055666392   -2.6901835    1.1296314   569361 
 1394000    1.0019665   -2.6871169   -2.6871169   -1.5606589  0.060215164   -2.6871169     1.126458   569361 
 1395000    1.0026595   -2.6871288   -2.6871288   -1.5598916  0.061361623   -2.6871288    1.1272372   569361 
 1396000    1.0036609   -2.6887786   -2.6887786   -1.5604157   0.06664933   -2.6887786    1.1283629   569361 
 1397000    1.0036337   -2.6890927   -2.6890927   -1.5607604  0.061350583   -2.6890927    1.1283323   569361 
 1398000    1.0029615   -2.6881182   -2.6881182   -1.5605415  0.059882637   -2.6881182    1.1275767   569361 
 1399000    1.0037177   -2.6895128   -2.6895128    -1.561086     0.061297   -2.6895128    1.1284268   569361 
 1400000     1.004103   -2.6892279   -2.6892279   -1.5603679  0.067611629   -2.6892279      1.12886   569361 
 1401000    1.0007757   -2.6870336   -2.6870336   -1.5619142  0.065241037   -2.6870336    1.1251193   569361 
 1402000    1.0020113   -2.6891369   -2.6891369   -1.5626285  0.064088598   -2.6891369    1.1265084   569361 
 1403000    1.0012972    -2.688969    -2.688969   -1.5632634  0.054137571    -2.688969    1.1257055   569361 
 1404000    1.0018264   -2.6889875   -2.6889875   -1.5626871    0.0671038   -2.6889875    1.1263005   569361 
 1405000    1.0029462   -2.6899329   -2.6899329   -1.5623735   0.05758864   -2.6899329    1.1275595   569361 
 1406000    1.0049465   -2.6920728   -2.6920728   -1.5622646  0.056697707   -2.6920728    1.1298082   569361 
 1407000    1.0023818    -2.689537    -2.689537   -1.5626121   0.06337732    -2.689537    1.1269249   569361 
 1408000    1.0045006   -2.6905283   -2.6905283   -1.5612213  0.058620375   -2.6905283     1.129307   569361 
 1409000    1.0043996   -2.6900022   -2.6900022   -1.5608088  0.073498112   -2.6900022    1.1291934   569361 
 1410000    1.0055449   -2.6908078   -2.6908078   -1.5603268  0.077536894   -2.6908078     1.130481   569361 
 1411000    1.0035124   -2.6885249   -2.6885249   -1.5603289  0.068814402   -2.6885249    1.1281959   569361 
 1412000    1.0036509   -2.6905614   -2.6905614   -1.5622098   0.06712587   -2.6905614    1.1283517   569361 
 1413000    1.0023229   -2.6885047   -2.6885047    -1.561646  0.057066891   -2.6885047    1.1268587   569361 
 1414000    1.0029791   -2.6894684   -2.6894684   -1.5618719  0.066759821   -2.6894684    1.1275965   569361 
 1415000    1.0013524   -2.6880863   -2.6880863   -1.5623187  0.064503133   -2.6880863    1.1257676   569361 
 1416000   0.99966621   -2.6861543   -2.6861543   -1.5622824  0.058645106   -2.6861543    1.1238719   569361 
 1417000    1.0020943   -2.6888234   -2.6888234   -1.5622217  0.059871555   -2.6888234    1.1266017   569361 
 1418000     1.002299   -2.6883413   -2.6883413   -1.5615095  0.058488644   -2.6883413    1.1268319   569361 
 1419000   0.99968532   -2.6850847   -2.6850847   -1.5611913  0.061082877   -2.6850847    1.1238934   569361 
 1420000    1.0015508   -2.6859443   -2.6859443   -1.5599536   0.05855896   -2.6859443    1.1259907   569361 
 1421000    1.0018399   -2.6870088   -2.6870088   -1.5606931  0.052597446   -2.6870088    1.1263157   569361 
 1422000    1.0014798   -2.6872265   -2.6872265   -1.5613156  0.062826719   -2.6872265    1.1259108   569361 
 1423000    1.0031342   -2.6876469   -2.6876469   -1.5598762  0.065075276   -2.6876469    1.1277708   569361 
 1424000    1.0038647   -2.6885763   -2.6885763   -1.5599842  0.059485169   -2.6885763    1.1285921   569361 
 1425000    1.0023252    -2.686758    -2.686758   -1.5598967  0.059771934    -2.686758    1.1268613   569361 
 1426000    1.0011097    -2.685338    -2.685338   -1.5598433  0.056955373    -2.685338    1.1254947   569361 
 1427000    1.0020166    -2.686508    -2.686508   -1.5599937  0.052937898    -2.686508    1.1265144   569361 
 1428000    1.0029532   -2.6866321   -2.6866321   -1.5590648  0.066930729   -2.6866321    1.1275673   569361 
 1429000    1.0025839   -2.6857114   -2.6857114   -1.5585594  0.056394051   -2.6857114    1.1271521   569361 
 1430000    1.0018286   -2.6840601   -2.6840601   -1.5577571  0.070188687   -2.6840601     1.126303   569361 
 1431000    1.0013913   -2.6846028   -2.6846028   -1.5587915  0.062680109   -2.6846028    1.1258113   569361 
 1432000    1.0035065   -2.6866607   -2.6866607   -1.5584713   0.06630408   -2.6866607    1.1281894   569361 
 1433000    1.0035461   -2.6859035   -2.6859035   -1.5576696  0.067038172   -2.6859035    1.1282338   569361 
 1434000     1.001629   -2.6835717   -2.6835717   -1.5574932  0.067199354   -2.6835717    1.1260785   569361 
 1435000    1.0024847    -2.685036    -2.685036   -1.5579954  0.064946826    -2.685036    1.1270406   569361 
 1436000    1.0025734   -2.6853336   -2.6853336   -1.5581933  0.058312126   -2.6853336    1.1271403   569361 
 1437000    1.0018968   -2.6852993   -2.6852993   -1.5589197  0.059680314   -2.6852993    1.1263796   569361 
 1438000    1.0019942   -2.6842932   -2.6842932    -1.557804  0.056978398   -2.6842932    1.1264892   569361 
 1439000    1.0034764   -2.6865738   -2.6865738   -1.5584183  0.060869211   -2.6865738    1.1281555   569361 
 1440000    1.0027791   -2.6854942   -2.6854942   -1.5581226  0.067099675   -2.6854942    1.1273715   569361 
 1441000     1.001332   -2.6847695   -2.6847695   -1.5590248   0.06490806   -2.6847695    1.1257447   569361 
 1442000     1.001185   -2.6847443   -2.6847443   -1.5591648  0.061581968   -2.6847443    1.1255795   569361 
 1443000    1.0007879   -2.6843381   -2.6843381   -1.5592052  0.045815339   -2.6843381    1.1251329   569361 
 1444000    1.0024961   -2.6863721   -2.6863721   -1.5593186  0.057566421   -2.6863721    1.1270534   569361 
 1445000    1.0009816    -2.684755    -2.684755   -1.5594043  0.057943936    -2.684755    1.1253507   569361 
 1446000    1.0019289   -2.6865682   -2.6865682   -1.5601524  0.059811088   -2.6865682    1.1264158   569361 
 1447000    1.0042532   -2.6888534   -2.6888534   -1.5598246   0.06638843   -2.6888534    1.1290288   569361 
 1448000    1.0028541   -2.6872647   -2.6872647   -1.5598088  0.067549581   -2.6872647    1.1274559   569361 
 1449000    1.0033312   -2.6885229   -2.6885229   -1.5605307  0.054313557   -2.6885229    1.1279923   569361 
 1450000    1.0026268   -2.6879506   -2.6879506   -1.5607503  0.062071923   -2.6879506    1.1272003   569361 
 1451000     1.003783   -2.6890008   -2.6890008   -1.5605006  0.066689151   -2.6890008    1.1285002   569361 
 1452000    1.0019295   -2.6868204   -2.6868204    -1.560404  0.068495112   -2.6868204    1.1264165   569361 
 1453000    1.0049317   -2.6890458   -2.6890458   -1.5592542  0.071913086   -2.6890458    1.1297916   569361 
 1454000    1.0032261   -2.6868751   -2.6868751    -1.559001  0.065986015   -2.6868751    1.1278741   569361 
 1455000    1.0035939   -2.6875629   -2.6875629   -1.5592753  0.060184056   -2.6875629    1.1282876   569361 
 1456000    1.0030338    -2.688221    -2.688221   -1.5605631  0.065505402    -2.688221    1.1276579   569361 
 1457000    1.0032252   -2.6872544   -2.6872544   -1.5593813   0.06535937   -2.6872544    1.1278731   569361 
 1458000    1.0036691   -2.6882669   -2.6882669   -1.5598947  0.058347485   -2.6882669    1.1283722   569361 
 1459000    1.0026929   -2.6862423   -2.6862423   -1.5589677  0.062608154   -2.6862423    1.1272747   569361 
 1460000    1.0028403   -2.6864202   -2.6864202   -1.5589799  0.056137309   -2.6864202    1.1274404   569361 
 1461000      1.00295   -2.6862375   -2.6862375   -1.5586738  0.055610971   -2.6862375    1.1275637   569361 
 1462000    1.0028288    -2.686394    -2.686394   -1.5589666  0.068483444    -2.686394    1.1274274   569361 
 1463000     1.003804   -2.6887733   -2.6887733   -1.5602495  0.058152766   -2.6887733    1.1285238   569361 
 1464000    1.0039116   -2.6882087   -2.6882087   -1.5595639  0.057049659   -2.6882087    1.1286448   569361 
 1465000    1.0036184   -2.6877937   -2.6877937   -1.5594786  0.069746323   -2.6877937    1.1283151   569361 
 1466000    1.0032836   -2.6872818   -2.6872818   -1.5593431  0.056089872   -2.6872818    1.1279388   569361 
 1467000    1.0025723   -2.6861751   -2.6861751    -1.559036  0.061971511   -2.6861751    1.1271391   569361 
 1468000    1.0036065   -2.6877441   -2.6877441   -1.5594423  0.069209088   -2.6877441    1.1283018   569361 
 1469000    1.0022102   -2.6861258   -2.6861258   -1.5593938  0.061196408   -2.6861258     1.126732   569361 
 1470000    1.0024926   -2.6871975   -2.6871975    -1.560148  0.055569343   -2.6871975    1.1270495   569361 
 1471000    1.0010587   -2.6855149   -2.6855149   -1.5600774  0.056835771   -2.6855149    1.1254375   569361 
 1472000    1.0021617     -2.68666     -2.68666   -1.5599825  0.061022947     -2.68666    1.1266775   569361 
 1473000    1.0002423   -2.6854414   -2.6854414   -1.5609218  0.052667099   -2.6854414    1.1245196   569361 
 1474000    1.0017532   -2.6859792   -2.6859792    -1.559761  0.066607867   -2.6859792    1.1262182   569361 
 1475000     1.002683   -2.6867554   -2.6867554   -1.5594918   0.06314056   -2.6867554    1.1272635   569361 
 1476000    1.0026464   -2.6865198   -2.6865198   -1.5592974  0.060272318   -2.6865198    1.1272224   569361 
 1477000    1.0010125   -2.6848876   -2.6848876    -1.559502   0.06193448   -2.6848876    1.1253855   569361 
 1478000    1.0008898   -2.6849568   -2.6849568   -1.5597092  0.059806236   -2.6849568    1.1252476   569361 
 1479000    1.0020799   -2.6869761   -2.6869761   -1.5603906  0.061845209   -2.6869761    1.1265855   569361 
 1480000    1.0027202   -2.6868449   -2.6868449   -1.5595396  0.057815439   -2.6868449    1.1273053   569361 
 1481000     1.002412   -2.6880285   -2.6880285   -1.5610696  0.049165752   -2.6880285    1.1269589   569361 
 1482000    1.0023284   -2.6878379   -2.6878379   -1.5609731  0.068285847   -2.6878379    1.1268649   569361 
 1483000    1.0027695   -2.6871757   -2.6871757   -1.5598149  0.062777028   -2.6871757    1.1273608   569361 
 1484000    1.0015377    -2.686891    -2.686891   -1.5609151   0.06397482    -2.686891    1.1259759   569361 
 1485000    1.0015404   -2.6866856   -2.6866856   -1.5607067  0.068692251   -2.6866856     1.125979   569361 
 1486000    1.0024992   -2.6879451   -2.6879451   -1.5608882  0.056847148   -2.6879451    1.1270569   569361 
 1487000    1.0024617    -2.687212    -2.687212   -1.5601973  0.059767972    -2.687212    1.1270147   569361 
 1488000    1.0005656   -2.6857824   -2.6857824   -1.5608993  0.062903435   -2.6857824    1.1248831   569361 
 1489000    1.0017773   -2.6870048   -2.6870048   -1.5607595   0.06096142   -2.6870048    1.1262453   569361 
 1490000    1.0024992   -2.6882281   -2.6882281   -1.5611713  0.063936733   -2.6882281    1.1270569   569361 
 1491000    1.0011196   -2.6871714   -2.6871714   -1.5616655  0.059149874   -2.6871714    1.1255059   569361 
 1492000    1.0016526   -2.6888216   -2.6888216   -1.5627165  0.056308582   -2.6888216    1.1261052   569361 
 1493000    1.0010042    -2.687969    -2.687969   -1.5625929  0.065258779    -2.687969    1.1253761   569361 
 1494000    1.0020559   -2.6892634   -2.6892634   -1.5627049  0.052485438   -2.6892634    1.1265586   569361 
 1495000    1.0011432   -2.6885401   -2.6885401   -1.5630077  0.061187379   -2.6885401    1.1255324   569361 
 1496000    1.0019867   -2.6883227   -2.6883227    -1.561842  0.061328042   -2.6883227    1.1264807   569361 
 1497000    1.0000736   -2.6868264   -2.6868264   -1.5624965  0.062206414   -2.6868264      1.12433   569361 
 1498000    1.0020944   -2.6886808   -2.6886808    -1.562079  0.064970445   -2.6886808    1.1266019   569361 
 1499000    1.0031072   -2.6897606   -2.6897606   -1.5620202  0.059158855   -2.6897606    1.1277404   569361 
 1500000    1.0037916   -2.6900626   -2.6900626   -1.5615527  0.061604118   -2.6900626    1.1285099   569361 
 1501000    1.0024592   -2.6890086   -2.6890086   -1.5619967  0.064053604   -2.6890086    1.1270119   569361 
 1502000    1.0036789   -2.6907846   -2.6907846   -1.5624014  0.056788222   -2.6907846    1.1283831   569361 
 1503000    1.0024151   -2.6891377   -2.6891377   -1.5621754   0.06147138   -2.6891377    1.1269623   569361 
 1504000    1.0018376   -2.6897824   -2.6897824   -1.5634692  0.061909907   -2.6897824    1.1263131   569361 
 1505000    1.0026181   -2.6904573   -2.6904573   -1.5632666  0.071930568   -2.6904573    1.1271906   569361 
 1506000    1.0034222   -2.6910097   -2.6910097   -1.5629152  0.062249141   -2.6910097    1.1280945   569361 
 1507000    1.0028132    -2.690843    -2.690843   -1.5634331  0.053270034    -2.690843    1.1274099   569361 
 1508000    1.0021907   -2.6903578   -2.6903578   -1.5636477   0.06207014   -2.6903578    1.1267101   569361 
 1509000    1.0005009   -2.6889584   -2.6889584   -1.5641481  0.057925047   -2.6889584    1.1248104   569361 
 1510000    1.0019057   -2.6900735   -2.6900735   -1.5636838  0.061441185   -2.6900735    1.1263896   569361 
 1511000    1.0016162   -2.6905657   -2.6905657   -1.5645015  0.065214917   -2.6905657    1.1260641   569361 
 1512000    1.0023736    -2.690795    -2.690795   -1.5638793  0.058009891    -2.690795    1.1269156   569361 
 1513000    1.0005536   -2.6892752   -2.6892752   -1.5644057  0.057810101   -2.6892752    1.1248695   569361 
 1514000    1.0014407   -2.6903569   -2.6903569   -1.5644901  0.070215926   -2.6903569    1.1258668   569361 
 1515000    1.0005254   -2.6891949   -2.6891949   -1.5643571  0.066714144   -2.6891949    1.1248378   569361 
 1516000    1.0008898   -2.6899612   -2.6899612   -1.5647137  0.062604068   -2.6899612    1.1252475   569361 
 1517000    1.0027487   -2.6907649   -2.6907649   -1.5634275  0.062115235   -2.6907649    1.1273374   569361 
 1518000    1.0027435   -2.6914438   -2.6914438   -1.5641123  0.054276753   -2.6914438    1.1273316   569361 
 1519000    1.0016244   -2.6887289   -2.6887289   -1.5626554  0.068402072   -2.6887289    1.1260734   569361 
 1520000    1.0018768   -2.6891743   -2.6891743   -1.5628171  0.056942762   -2.6891743    1.1263572   569361 
 1521000    1.0028528   -2.6909834   -2.6909834    -1.563529  0.067061257   -2.6909834    1.1274544   569361 
 1522000    1.0025778   -2.6905423   -2.6905423    -1.563397  0.057861362   -2.6905423    1.1271453   569361 
 1523000    1.0034228   -2.6914647   -2.6914647   -1.5633695   0.07170593   -2.6914647    1.1280953   569361 
 1524000    1.0031787   -2.6921239   -2.6921239    -1.564303  0.068943437   -2.6921239    1.1278208   569361 
 1525000    1.0026484   -2.6915717   -2.6915717    -1.564347  0.059768783   -2.6915717    1.1272247   569361 
 1526000    1.0026972    -2.691535    -2.691535   -1.5642555   0.07389208    -2.691535    1.1272795   569361 
 1527000    1.0033922   -2.6921327   -2.6921327   -1.5640718  0.059603455   -2.6921327    1.1280609   569361 
 1528000    1.0013474   -2.6899334   -2.6899334   -1.5641714  0.055562302   -2.6899334     1.125762   569361 
 1529000    1.0017431   -2.6910525   -2.6910525   -1.5648457  0.072960568   -2.6910525    1.1262068   569361 
 1530000    1.0023436   -2.6912808   -2.6912808   -1.5643989  0.058210107   -2.6912808     1.126882   569361 
 1531000   0.99952425   -2.6887855   -2.6887855   -1.5650731  0.065978852   -2.6887855    1.1237123   569361 
 1532000   0.99918055   -2.6886295   -2.6886295   -1.5653036  0.074554997   -2.6886295    1.1233259   569361 
 1533000    1.0015428   -2.6909776   -2.6909776   -1.5649959  0.063061569   -2.6909776    1.1259817   569361 
 1534000    1.0013737   -2.6909522   -2.6909522   -1.5651607  0.067380461   -2.6909522    1.1257915   569361 
 1535000    1.0007959   -2.6909749   -2.6909749   -1.5658329  0.052152858   -2.6909749     1.125142   569361 
 1536000    1.0021675   -2.6922765   -2.6922765   -1.5655926  0.057005902   -2.6922765     1.126684   569361 
 1537000    1.0027962   -2.6917934   -2.6917934   -1.5644026    0.0594872   -2.6917934    1.1273908   569361 
 1538000    1.0020056   -2.6900807   -2.6900807   -1.5635788  0.069834602   -2.6900807     1.126502   569361 
 1539000    1.0011532   -2.6899708   -2.6899708   -1.5644271  0.066569226   -2.6899708    1.1255437   569361 
 1540000     1.001749   -2.6903434   -2.6903434     -1.56413  0.064391834   -2.6903434    1.1262135   569361 
 1541000    1.0020485   -2.6910523   -2.6910523   -1.5645022  0.065170859   -2.6910523    1.1265502   569361 
 1542000    1.0015779    -2.690663    -2.690663   -1.5646418  0.062545582    -2.690663    1.1260212   569361 
 1543000    1.0023171   -2.6909515   -2.6909515   -1.5640993  0.064321905   -2.6909515    1.1268522   569361 
 1544000    1.0026402   -2.6914568   -2.6914568   -1.5642414  0.060492313   -2.6914568    1.1272154   569361 
 1545000    1.0023282     -2.69107     -2.69107   -1.5642053  0.070844734     -2.69107    1.1268647   569361 
 1546000    1.0021053   -2.6911502   -2.6911502   -1.5645361  0.061566927   -2.6911502    1.1266141   569361 
 1547000    1.0025234   -2.6914446   -2.6914446   -1.5643604  0.059471751   -2.6914446    1.1270841   569361 
 1548000     1.002314   -2.6911887   -2.6911887     -1.56434   0.06336945   -2.6911887    1.1268487   569361 
 1549000    1.0004125   -2.6894473   -2.6894473   -1.5647363  0.058875606   -2.6894473     1.124711   569361 
 1550000    1.0018918    -2.690944    -2.690944     -1.56457   0.07109917    -2.690944     1.126374   569361 
 1551000    1.0025444   -2.6915663   -2.6915663   -1.5644586  0.059375762   -2.6915663    1.1271077   569361 
 1552000    1.0024243   -2.6910669   -2.6910669   -1.5640942  0.057976548   -2.6910669    1.1269727   569361 
 1553000    1.0030148   -2.6919562   -2.6919562   -1.5643196  0.067563828   -2.6919562    1.1276366   569361 
 1554000    1.0012504   -2.6898866   -2.6898866   -1.5642336  0.058336253   -2.6898866     1.125653   569361 
 1555000    1.0004748   -2.6883489   -2.6883489   -1.5635679  0.062424085   -2.6883489     1.124781   569361 
 1556000    1.0021646   -2.6901463   -2.6901463   -1.5634656  0.057468192   -2.6901463    1.1266807   569361 
 1557000    1.0011197   -2.6894087   -2.6894087   -1.5639026  0.062358816   -2.6894087     1.125506   569361 
 1558000      1.00124    -2.690148    -2.690148   -1.5645068  0.059140115    -2.690148    1.1256413   569361 
 1559000    1.0030283   -2.6912645   -2.6912645   -1.5636127   0.05192295   -2.6912645    1.1276518   569361 
 1560000    1.0030495   -2.6920488   -2.6920488   -1.5643733  0.057542181   -2.6920488    1.1276755   569361 
 1561000    1.0015899   -2.6899509   -2.6899509   -1.5639163  0.055027596   -2.6899509    1.1260346   569361 
 1562000    1.0014461   -2.6895756   -2.6895756   -1.5637026  0.056288102   -2.6895756    1.1258729   569361 
 1563000    1.0013908   -2.6890539   -2.6890539   -1.5632431  0.067603745   -2.6890539    1.1258108   569361 
 1564000    1.0032899   -2.6914047   -2.6914047   -1.5634588  0.060274757   -2.6914047    1.1279459   569361 
 1565000    1.0020138   -2.6900216   -2.6900216   -1.5635103  0.064088332   -2.6900216    1.1265112   569361 
 1566000    1.0012643   -2.6893388   -2.6893388   -1.5636702  0.055404323   -2.6893388    1.1256686   569361 
 1567000     1.000895    -2.689213    -2.689213   -1.5639596  0.057085347    -2.689213    1.1252534   569361 
 1568000    1.0012963   -2.6894044   -2.6894044   -1.5636998   0.06095727   -2.6894044    1.1257046   569361 
 1569000    1.0013948   -2.6900602   -2.6900602   -1.5642449  0.063484347   -2.6900602    1.1258153   569361 
 1570000      1.00208   -2.6894787   -2.6894787   -1.5628931  0.066545687   -2.6894787    1.1265856   569361 
 1571000    1.0021622   -2.6904455   -2.6904455   -1.5637674  0.063115353   -2.6904455    1.1266781   569361 
 1572000    1.0020903   -2.6910344   -2.6910344   -1.5644372  0.057267422   -2.6910344    1.1265972   569361 
 1573000    1.0022058   -2.6911227   -2.6911227   -1.5643957  0.059653194   -2.6911227     1.126727   569361 
 1574000    1.0003273   -2.6895159   -2.6895159   -1.5649007  0.060228015   -2.6895159    1.1246152   569361 
 1575000     1.002956   -2.6931591   -2.6931591   -1.5655886  0.059419915   -2.6931591    1.1275705   569361 
 1576000    1.0016074   -2.6910799   -2.6910799   -1.5650256  0.056591351   -2.6910799    1.1260543   569361 
 1577000    1.0014745   -2.6911894   -2.6911894   -1.5652846  0.063402109   -2.6911894    1.1259048   569361 
 1578000    1.0007083   -2.6913719   -2.6913719   -1.5663284  0.062254009   -2.6913719    1.1250435   569361 
 1579000    1.0016078    -2.691388    -2.691388   -1.5653333  0.065534474    -2.691388    1.1260547   569361 
 1580000    1.0005652   -2.6901488   -2.6901488   -1.5652661  0.063520598   -2.6901488    1.1248826   569361 
 1581000    1.0004613   -2.6903468   -2.6903468    -1.565581  0.066413793   -2.6903468    1.1247658   569361 
 1582000   0.99937222   -2.6898976   -2.6898976   -1.5663562   0.06024739   -2.6898976    1.1235414   569361 
 1583000   0.99998721   -2.6894404   -2.6894404   -1.5652076  0.065593806   -2.6894404    1.1242328   569361 
 1584000    1.0011818   -2.6908498   -2.6908498    -1.565274  0.063026224   -2.6908498    1.1255759   569361 
 1585000    1.0013402   -2.6905908   -2.6905908    -1.564837   0.07039654   -2.6905908    1.1257539   569361 
 1586000    1.0022404   -2.6908361   -2.6908361   -1.5640701  0.067452665   -2.6908361     1.126766   569361 
 1587000    1.0030576   -2.6920477   -2.6920477    -1.564363  0.062186396   -2.6920477    1.1276847   569361 
 1588000    1.0023365   -2.6907109   -2.6907109   -1.5638368  0.065326683   -2.6907109     1.126874   569361 
 1589000    1.0016547   -2.6907306   -2.6907306   -1.5646232  0.074703688   -2.6907306    1.1261074   569361 
 1590000    1.0009765   -2.6899007   -2.6899007   -1.5645557  0.066250364   -2.6899007     1.125345   569361 
 1591000    1.0020643   -2.6916542   -2.6916542   -1.5650863  0.064238632   -2.6916542    1.1265679   569361 
 1592000    1.0009381   -2.6899105   -2.6899105   -1.5646086  0.067803851   -2.6899105    1.1253019   569361 
 1593000    1.0011343   -2.6894169   -2.6894169   -1.5638944  0.059853445   -2.6894169    1.1255225   569361 
 1594000    1.0033401   -2.6915236   -2.6915236   -1.5635213  0.058490033   -2.6915236    1.1280023   569361 
 1595000    1.0015628   -2.6887143   -2.6887143   -1.5627101  0.067853344   -2.6887143    1.1260042   569361 
 1596000    1.0017872   -2.6894875   -2.6894875    -1.563231  0.059110386   -2.6894875    1.1262565   569361 
 1597000    1.0011913   -2.6890229   -2.6890229   -1.5634364  0.058767543   -2.6890229    1.1255865   569361 
 1598000    1.0024889   -2.6904427   -2.6904427   -1.5633974  0.060118812   -2.6904427    1.1270453   569361 
 1599000     1.001476   -2.6892863   -2.6892863   -1.5633797  0.062589534   -2.6892863    1.1259066   569361 
 1600000    1.0022889   -2.6896933   -2.6896933   -1.5628728  0.065961471   -2.6896933    1.1268204   569361 
 1601000    1.0028997   -2.6903501   -2.6903501   -1.5628429  0.068448757   -2.6903501    1.1275072   569361 
 1602000    1.0010311   -2.6885682   -2.6885682   -1.5631618  0.063180381   -2.6885682    1.1254064   569361 
 1603000    1.0003552   -2.6872493   -2.6872493   -1.5626028  0.057005243   -2.6872493    1.1246465   569361 
 1604000    1.0014267    -2.688654    -2.688654   -1.5628029   0.05341746    -2.688654    1.1258511   569361 
 1605000    1.0017417   -2.6893723   -2.6893723    -1.563167  0.060066717   -2.6893723    1.1262053   569361 
 1606000     1.000352   -2.6883414   -2.6883414   -1.5636985  0.063077213   -2.6883414     1.124643   569361 
 1607000   0.99993773   -2.6872978   -2.6872978   -1.5631206  0.059643671   -2.6872978    1.1241772   569361 
 1608000    1.0020656   -2.6895309   -2.6895309   -1.5629614  0.078450203   -2.6895309    1.1265695   569361 
 1609000    1.0013636   -2.6894237   -2.6894237   -1.5636435  0.069404773   -2.6894237    1.1257802   569361 
 1610000   0.99972468   -2.6885816   -2.6885816   -1.5646439  0.062902142   -2.6885816    1.1239377   569361 
 1611000     1.001445   -2.6896663   -2.6896663   -1.5637946  0.066871971   -2.6896663    1.1258717   569361 
 1612000    1.0009363   -2.6898161   -2.6898161   -1.5645163  0.073213443   -2.6898161    1.1252998   569361 
 1613000     1.001607   -2.6899612   -2.6899612   -1.5639074  0.062372167   -2.6899612    1.1260538   569361 
 1614000    1.0007462   -2.6887908   -2.6887908   -1.5637047  0.060027059   -2.6887908    1.1250861   569361 
 1615000    1.0015075   -2.6897329   -2.6897329    -1.563791  0.058620546   -2.6897329    1.1259419   569361 
 1616000    1.0018574   -2.6907942   -2.6907942   -1.5644589  0.069033198   -2.6907942    1.1263353   569361 
 1617000    1.0015923   -2.6910456   -2.6910456   -1.5650083  0.066807798   -2.6910456    1.1260373   569361 
 1618000    1.0024832   -2.6922539   -2.6922539    -1.565215  0.071540893   -2.6922539    1.1270389   569361 
 1619000    1.0031771   -2.6932034   -2.6932034   -1.5653844  0.068344842   -2.6932034     1.127819   569361 
 1620000    1.0034388   -2.6925546   -2.6925546   -1.5644413  0.066565029   -2.6925546    1.1281133   569361 
 1621000    1.0024665   -2.6917274   -2.6917274   -1.5647073  0.070258892   -2.6917274    1.1270201   569361 
 1622000    1.0030172   -2.6922818   -2.6922818   -1.5646426  0.062112632   -2.6922818    1.1276392   569361 
 1623000    1.0049287   -2.6941551   -2.6941551   -1.5643668  0.069999123   -2.6941551    1.1297883   569361 
 1624000    1.0039405   -2.6931331   -2.6931331   -1.5644558  0.067388859   -2.6931331    1.1286773   569361 
 1625000    1.0029768   -2.6925937   -2.6925937   -1.5649998  0.064139333   -2.6925937    1.1275939   569361 
 1626000    1.0024764   -2.6933051   -2.6933051   -1.5662737  0.063070359   -2.6933051    1.1270313   569361 
 1627000    1.0011508   -2.6922742   -2.6922742   -1.5667333  0.067110936   -2.6922742    1.1255409   569361 
 1628000     1.002584   -2.6939706   -2.6939706   -1.5668183  0.072222685   -2.6939706    1.1271523   569361 
 1629000    1.0031408   -2.6952875   -2.6952875   -1.5675093  0.065395752   -2.6952875    1.1277782   569361 
 1630000    1.0024735   -2.6933345   -2.6933345   -1.5663065  0.075159795   -2.6933345     1.127028   569361 
 1631000    1.0015976   -2.6935856   -2.6935856   -1.5675423  0.063632417   -2.6935856    1.1260433   569361 
 1632000    1.0008945    -2.693009    -2.693009   -1.5677561  0.054145377    -2.693009    1.1252528   569361 
 1633000    1.0015048   -2.6931125   -2.6931125   -1.5671736  0.065820916   -2.6931125     1.125939   569361 
 1634000    1.0012826   -2.6925562   -2.6925562    -1.566867  0.067865518   -2.6925562    1.1256891   569361 
 1635000      1.00182   -2.6930376   -2.6930376   -1.5667443  0.065155774   -2.6930376    1.1262933   569361 
 1636000    1.0010698   -2.6923271   -2.6923271   -1.5668773  0.063097985   -2.6923271    1.1254499   569361 
 1637000    1.0008407   -2.6917945   -2.6917945   -1.5666021  0.072230065   -2.6917945    1.1251924   569361 
 1638000    1.0024687   -2.6935983   -2.6935983   -1.5665756  0.062311072   -2.6935983    1.1270226   569361 
 1639000    1.0032613   -2.6932814   -2.6932814   -1.5653677  0.067574763   -2.6932814    1.1279137   569361 
 1640000    1.0001619   -2.6903343   -2.6903343   -1.5659051    0.0499504   -2.6903343    1.1244292   569361 
 1641000     1.000895   -2.6906238   -2.6906238   -1.5653704  0.063969207   -2.6906238    1.1252534   569361 
 1642000    1.0022449   -2.6913704   -2.6913704   -1.5645993  0.065033401   -2.6913704     1.126771   569361 
 1643000    1.0018177   -2.6914236   -2.6914236   -1.5651329  0.068480875   -2.6914236    1.1262907   569361 
 1644000     1.001385   -2.6901761   -2.6901761   -1.5643718  0.060817382   -2.6901761    1.1258043   569361 
 1645000    1.0015179   -2.6907899   -2.6907899   -1.5648363  0.063821217   -2.6907899    1.1259537   569361 
 1646000     1.001227   -2.6913973   -2.6913973   -1.5657707  0.063946425   -2.6913973    1.1256266   569361 
 1647000    1.0010859    -2.691323    -2.691323   -1.5658549  0.059611436    -2.691323     1.125468   569361 
 1648000   0.99973183   -2.6901112   -2.6901112   -1.5661656  0.061389315   -2.6901112    1.1239457   569361 
 1649000    1.0015209   -2.6920373   -2.6920373   -1.5660803   0.06820312   -2.6920373    1.1259571   569361 
 1650000    1.0010932   -2.6916292   -2.6916292    -1.566153  0.072521759   -2.6916292    1.1254762   569361 
 1651000    1.0018038   -2.6919902   -2.6919902    -1.565715  0.056768345   -2.6919902    1.1262751   569361 
 1652000    1.0006411   -2.6917384   -2.6917384   -1.5667705  0.058300759   -2.6917384    1.1249679   569361 
 1653000    1.0001843   -2.6902513   -2.6902513   -1.5657969  0.065508686   -2.6902513    1.1244544   569361 
 1654000     1.002413    -2.693415    -2.693415   -1.5664551  0.062420423    -2.693415      1.12696   569361 
 1655000    1.0022646   -2.6926955   -2.6926955   -1.5659023  0.065122422   -2.6926955    1.1267932   569361 
 1656000    1.0010492   -2.6914669   -2.6914669   -1.5660402  0.062918598   -2.6914669    1.1254267   569361 
 1657000    1.0015548   -2.6914088   -2.6914088   -1.5654136  0.065339144   -2.6914088    1.1259951   569361 
 1658000    1.0024943   -2.6928971   -2.6928971   -1.5658458  0.071650925   -2.6928971    1.1270514   569361 
 1659000     1.002227   -2.6931722   -2.6931722   -1.5664213  0.065134353   -2.6931722    1.1267509   569361 
 1660000    1.0022283   -2.6930743   -2.6930743   -1.5663221  0.068206158   -2.6930743    1.1267523   569361 
 1661000      1.00134   -2.6931281   -2.6931281   -1.5673745  0.063111814   -2.6931281    1.1257536   569361 
 1662000    1.0018745   -2.6932984   -2.6932984   -1.5669438  0.054850334   -2.6932984    1.1263546   569361 
 1663000    1.0010771   -2.6929671   -2.6929671    -1.567509  0.058167617   -2.6929671    1.1254582   569361 
 1664000    1.0021414   -2.6943044   -2.6943044   -1.5676498  0.069077938   -2.6943044    1.1266546   569361 
 1665000    1.0034484   -2.6952817   -2.6952817   -1.5671577  0.056917168   -2.6952817     1.128124   569361 
 1666000    1.0009706   -2.6920173   -2.6920173   -1.5666789  0.077635216   -2.6920173    1.1253384   569361 
 1667000    1.0010034   -2.6924037   -2.6924037   -1.5670285  0.067328588   -2.6924037    1.1253752   569361 
 1668000    1.0002592   -2.6921135   -2.6921135   -1.5675749  0.057437849   -2.6921135    1.1245386   569361 
 1669000    1.0000671   -2.6920451   -2.6920451   -1.5677226  0.067397528   -2.6920451    1.1243226   569361 
 1670000    1.0005363   -2.6922014   -2.6922014   -1.5673512  0.064742312   -2.6922014    1.1248502   569361 
 1671000   0.99975465   -2.6920493   -2.6920493   -1.5680779  0.060572323   -2.6920493    1.1239713   569361 
 1672000    1.0001355   -2.6934103   -2.6934103   -1.5690108  0.057320137   -2.6934103    1.1243995   569361 
 1673000   0.99948749   -2.6921783   -2.6921783   -1.5685073  0.061111519   -2.6921783     1.123671   569361 
 1674000   0.99898139   -2.6908914   -2.6908914   -1.5677894   0.05893589   -2.6908914     1.123102   569361 
 1675000    1.0003862   -2.6919681   -2.6919681   -1.5672867    0.0606339   -2.6919681    1.1246814   569361 
 1676000     1.001281   -2.6918551   -2.6918551   -1.5661677  0.076575728   -2.6918551    1.1256873   569361 
 1677000    1.0012491    -2.692826    -2.692826   -1.5671746  0.068451638    -2.692826    1.1256515   569361 
 1678000    1.0017024   -2.6931376   -2.6931376   -1.5669765  0.060054543   -2.6931376    1.1261611   569361 
 1679000    1.0022733   -2.6929847   -2.6929847   -1.5661817  0.060919994   -2.6929847     1.126803   569361 
 1680000    1.0030082   -2.6942331   -2.6942331    -1.566604  0.070259208   -2.6942331    1.1276291   569361 
 1681000     1.002124   -2.6931142   -2.6931142   -1.5664791  0.071348051   -2.6931142    1.1266351   569361 
 1682000    1.0021093   -2.6930405   -2.6930405   -1.5664219  0.071462368   -2.6930405    1.1266185   569361 
 1683000     1.003288   -2.6942798   -2.6942798   -1.5663361  0.067439956   -2.6942798    1.1279438   569361 
 1684000    1.0026437   -2.6930503   -2.6930503    -1.565831  0.064430448   -2.6930503    1.1272193   569361 
 1685000    1.0013524   -2.6923454   -2.6923454   -1.5665778  0.074591649   -2.6923454    1.1257676   569361 
 1686000    0.9996838   -2.6905944   -2.6905944   -1.5667027  0.057860514   -2.6905944    1.1238917   569361 
 1687000   0.99944714   -2.6905042   -2.6905042   -1.5668785  0.054799135   -2.6905042    1.1236256   569361 
 1688000    0.9990234   -2.6909131   -2.6909131   -1.5677639  0.064490034   -2.6909131    1.1231492   569361 
 1689000    1.0000549   -2.6915513   -2.6915513   -1.5672424  0.061321471   -2.6915513    1.1243089   569361 
 1690000    1.0000845   -2.6916402   -2.6916402    -1.567298  0.068851765   -2.6916402    1.1243422   569361 
 1691000      1.00013   -2.6917934   -2.6917934   -1.5674001  0.060775209   -2.6917934    1.1243933   569361 
 1692000    1.0019053    -2.693462    -2.693462   -1.5670729  0.051470409    -2.693462    1.1263892   569361 
 1693000     1.000731    -2.693886    -2.693886    -1.568817  0.063418568    -2.693886    1.1250691   569361 
 1694000     1.000493   -2.6946799   -2.6946799   -1.5698785  0.068804008   -2.6946799    1.1248014   569361 
 1695000     1.000177   -2.6938738   -2.6938738   -1.5694277  0.059408303   -2.6938738    1.1244461   569361 
 1696000   0.99977486   -2.6928536   -2.6928536   -1.5688595  0.073443949   -2.6928536    1.1239941   569361 
 1697000    1.0018698   -2.6950929   -2.6950929   -1.5687436  0.058917569   -2.6950929    1.1263493   569361 
 1698000    1.0018503   -2.6946889   -2.6946889   -1.5683615  0.068821975   -2.6946889    1.1263273   569361 
 1699000     1.002036   -2.6948942   -2.6948942   -1.5683581  0.066286536   -2.6948942    1.1265361   569361 
 1700000    1.0011935   -2.6938174   -2.6938174   -1.5682284  0.059333649   -2.6938174     1.125589   569361 
 1701000    1.0019049   -2.6939834   -2.6939834   -1.5675946  0.064910598   -2.6939834    1.1263888   569361 
 1702000    1.0036713   -2.6952731   -2.6952731   -1.5668985  0.055628143   -2.6952731    1.1283746   569361 
 1703000    1.0020979    -2.693349    -2.693349   -1.5667432  0.062012319    -2.693349    1.1266058   569361 
 1704000    1.0026058   -2.6938273   -2.6938273   -1.5666507  0.061521627   -2.6938273    1.1271767   569361 
 1705000    1.0032645   -2.6954282   -2.6954282    -1.567511  0.057488871   -2.6954282    1.1279173   569361 
 1706000    1.0040177   -2.6958512   -2.6958512   -1.5670872  0.062832813   -2.6958512    1.1287641   569361 
 1707000    1.0033449   -2.6951951   -2.6951951   -1.5671874  0.061720338   -2.6951951    1.1280076   569361 
 1708000    1.0021341   -2.6929454   -2.6929454    -1.566299  0.073970317   -2.6929454    1.1266464   569361 
 1709000    1.0026634   -2.6942939   -2.6942939   -1.5670524  0.065615294   -2.6942939    1.1272415   569361 
 1710000     1.002469    -2.693691    -2.693691    -1.566668  0.074930471    -2.693691     1.127023   569361 
 1711000    1.0026369   -2.6940043   -2.6940043   -1.5667927   0.05699537   -2.6940043    1.1272117   569361 
 1712000     1.003402   -2.6949165   -2.6949165   -1.5668447  0.050437457   -2.6949165    1.1280719   569361 
 1713000    1.0018298   -2.6928889   -2.6928889   -1.5665846  0.058294967   -2.6928889    1.1263043   569361 
 1714000    1.0012857   -2.6929823   -2.6929823   -1.5672896  0.067492094   -2.6929823    1.1256927   569361 
 1715000    1.0013268   -2.6929528   -2.6929528   -1.5672139  0.067008384   -2.6929528    1.1257389   569361 
 1716000    1.0014063   -2.6931126   -2.6931126   -1.5672843  0.063098969   -2.6931126    1.1258282   569361 
 1717000    1.0009682   -2.6933019   -2.6933019   -1.5679662  0.067204376   -2.6933019    1.1253357   569361 
 1718000    1.0026223   -2.6950604   -2.6950604   -1.5678651  0.057436561   -2.6950604    1.1271953   569361 
 1719000     1.001614   -2.6938366   -2.6938366   -1.5677748  0.058418905   -2.6938366    1.1260617   569361 
 1720000    1.0025768   -2.6940289   -2.6940289   -1.5668847  0.047877996   -2.6940289    1.1271442   569361 
 1721000    1.0024516   -2.6937952   -2.6937952   -1.5667918   0.06244592   -2.6937952    1.1270033   569361 
 1722000    1.0024939   -2.6933483   -2.6933483   -1.5662974  0.068733244   -2.6933483    1.1270509   569361 
 1723000   0.99920564   -2.6904335   -2.6904335   -1.5670794  0.050887494   -2.6904335    1.1233541   569361 
 1724000    1.0001334   -2.6911932   -2.6911932   -1.5667959  0.062934375   -2.6911932    1.1243972   569361 
 1725000    1.0007929   -2.6918017   -2.6918017   -1.5666631  0.058269726   -2.6918017    1.1251386   569361 
 1726000   0.99903106   -2.6905722   -2.6905722   -1.5674144  0.058394164   -2.6905722    1.1231578   569361 
 1727000     1.000721   -2.6922548   -2.6922548   -1.5671971  0.066591061   -2.6922548    1.1250577   569361 
 1728000    1.0012167   -2.6928996   -2.6928996   -1.5672845  0.061418746   -2.6928996    1.1256151   569361 
 1729000    1.0001212   -2.6923953   -2.6923953   -1.5680118  0.055862318   -2.6923953    1.1243835   569361 
 1730000    1.0006103   -2.6926966   -2.6926966   -1.5677633  0.060851255   -2.6926966    1.1249333   569361 
 1731000    1.0021401   -2.6935821   -2.6935821   -1.5669289  0.061256934   -2.6935821    1.1266532   569361 
 1732000    1.0004593   -2.6917621   -2.6917621   -1.5669985  0.058750757   -2.6917621    1.1247636   569361 
 1733000    1.0026885   -2.6934013   -2.6934013   -1.5661316  0.065219788   -2.6934013    1.1272697   569361 
 1734000     1.000941   -2.6917286   -2.6917286   -1.5664234  0.068711672   -2.6917286    1.1253052   569361 
 1735000    1.0026477   -2.6936158   -2.6936158    -1.566392  0.072523021   -2.6936158    1.1272238   569361 
 1736000     1.002813   -2.6952249   -2.6952249   -1.5678152   0.07474048   -2.6952249    1.1274097   569361 
 1737000    1.0034405   -2.6950064   -2.6950064   -1.5668913  0.054854945   -2.6950064    1.1281151   569361 
 1738000    1.0045136   -2.6968477   -2.6968477   -1.5675262  0.055790737   -2.6968477    1.1293215   569361 
 1739000    1.0045608   -2.6964954   -2.6964954   -1.5671207  0.065779602   -2.6964954    1.1293747   569361 
 1740000    1.0012849    -2.693784    -2.693784   -1.5680923  0.066378693    -2.693784    1.1256917   569361 
 1741000    1.0035813   -2.6965132   -2.6965132   -1.5682397  0.065421915   -2.6965132    1.1282735   569361 
 1742000    1.0026793   -2.6953543   -2.6953543   -1.5680949  0.062595534   -2.6953543    1.1272594   569361 
 1743000    1.0017606   -2.6941361   -2.6941361   -1.5679095  0.062938807   -2.6941361    1.1262265   569361 
 1744000    1.0015138   -2.6941871   -2.6941871   -1.5682381  0.064517613   -2.6941871     1.125949   569361 
 1745000     1.002975   -2.6954807   -2.6954807   -1.5678888   0.05771754   -2.6954807    1.1275919   569361 
 1746000     1.002131   -2.6950135   -2.6950135   -1.5683706  0.064829559   -2.6950135     1.126643   569361 
 1747000    1.0007679   -2.6941257   -2.6941257   -1.5690152  0.061557449   -2.6941257    1.1251105   569361 
 1748000    1.0010506   -2.6946288   -2.6946288   -1.5692005  0.062492651   -2.6946288    1.1254283   569361 
 1749000    1.0009827   -2.6935292   -2.6935292   -1.5681772  0.063537683   -2.6935292     1.125352   569361 
 1750000    1.0005784   -2.6934704   -2.6934704    -1.568573  0.053439707   -2.6934704    1.1248974   569361 
 1751000    1.0014218   -2.6947038   -2.6947038   -1.5688581    0.0634222   -2.6947038    1.1258457   569361 
 1752000    1.0010202   -2.6937571   -2.6937571   -1.5683629   0.07281285   -2.6937571    1.1253942   569361 
 1753000    1.0006868   -2.6939372   -2.6939372   -1.5689179  0.065208258   -2.6939372    1.1250194   569361 
 1754000     1.002015   -2.6956095   -2.6956095   -1.5690969  0.058970578   -2.6956095    1.1265126   569361 
 1755000    1.0005006   -2.6938685   -2.6938685   -1.5690585  0.058253385   -2.6938685      1.12481   569361 
 1756000    0.9995297   -2.6929394   -2.6929394    -1.569221  0.070156993   -2.6929394    1.1237184   569361 
 1757000   0.99982894    -2.693134    -2.693134   -1.5690792  0.064534562    -2.693134    1.1240549   569361 
 1758000    1.0003276   -2.6932329   -2.6932329   -1.5686174  0.066657392   -2.6932329    1.1246155   569361 
 1759000    1.0011935   -2.6931851   -2.6931851   -1.5675961  0.068208256   -2.6931851     1.125589   569361 
 1760000    1.0021913   -2.6941572   -2.6941572   -1.5674465  0.064566964   -2.6941572    1.1267107   569361 
 1761000    1.0010933   -2.6931458   -2.6931458   -1.5676696  0.064799589   -2.6931458    1.1254763   569361 
 1762000    1.0009017   -2.6921571   -2.6921571   -1.5668962  0.065536162   -2.6921571    1.1252609   569361 
 1763000    1.0013571   -2.6936687   -2.6936687   -1.5678958  0.052468795   -2.6936687    1.1257729   569361 
 1764000    1.0019423   -2.6930282   -2.6930282   -1.5665974  0.059857365   -2.6930282    1.1264308   569361 
 1765000    1.0022029   -2.6934656   -2.6934656   -1.5667418  0.074385502   -2.6934656    1.1267238   569361 
 1766000    1.0027133   -2.6929045   -2.6929045    -1.565607  0.059025423   -2.6929045    1.1272976   569361 
 1767000    1.0012553   -2.6920527   -2.6920527   -1.5663942  0.060589052   -2.6920527    1.1256585   569361 
 1768000    1.0021938   -2.6934415   -2.6934415    -1.566728  0.070199893   -2.6934415    1.1267135   569361 
 1769000    1.0026368   -2.6931054   -2.6931054   -1.5658937  0.064958505   -2.6931054    1.1272116   569361 
 1770000    1.0023265   -2.6918954   -2.6918954   -1.5650327  0.064635978   -2.6918954    1.1268627   569361 
 1771000     1.001835   -2.6920245   -2.6920245   -1.5657143  0.052582476   -2.6920245    1.1263102   569361 
 1772000    1.0007956   -2.6904502   -2.6904502   -1.5653086  0.047892281   -2.6904502    1.1251416   569361 
 1773000     1.001669    -2.692573    -2.692573   -1.5664495  0.059773264    -2.692573    1.1261235   569361 
 1774000    1.0012189   -2.6913293   -2.6913293   -1.5657118   0.05477815   -2.6913293    1.1256175   569361 
 1775000    1.0008787   -2.6905369   -2.6905369   -1.5653019  0.060761266   -2.6905369     1.125235   569361 
 1776000    1.0012251   -2.6907062   -2.6907062   -1.5650817  0.055294305   -2.6907062    1.1256245   569361 
 1777000    1.0016166   -2.6912042   -2.6912042   -1.5651395  0.060967282   -2.6912042    1.1260646   569361 
 1778000    1.0019267   -2.6921029   -2.6921029   -1.5656897  0.060992982   -2.6921029    1.1264132   569361 
 1779000    1.0020044   -2.6924172   -2.6924172   -1.5659165  0.053750541   -2.6924172    1.1265006   569361 
 1780000    1.0008152   -2.6914927   -2.6914927    -1.566329  0.067730264   -2.6914927    1.1251637   569361 
 1781000    1.0010007   -2.6911866   -2.6911866   -1.5658144  0.053774545   -2.6911866    1.1253722   569361 
 1782000    1.0018397    -2.692491    -2.692491   -1.5661756  0.059755691    -2.692491    1.1263154   569361 
 1783000    1.0006886   -2.6914164   -2.6914164    -1.566395  0.056517578   -2.6914164    1.1250214   569361 
 1784000   0.99982935   -2.6903057   -2.6903057   -1.5662504  0.049561984   -2.6903057    1.1240553   569361 
 1785000   0.99978297   -2.6916399   -2.6916399   -1.5676367  0.061068239   -2.6916399    1.1240032   569361 
 1786000     1.001585    -2.692853    -2.692853    -1.566824   0.05931119    -2.692853    1.1260291   569361 
 1787000    1.0016157   -2.6936517   -2.6936517   -1.5675881  0.056520296   -2.6936517    1.1260636   569361 
 1788000    1.0017874   -2.6929155   -2.6929155   -1.5666589  0.056909104   -2.6929155    1.1262567   569361 
 1789000    1.0026542   -2.6943439   -2.6943439   -1.5671128  0.064672708   -2.6943439    1.1272311   569361 
 1790000     1.003392   -2.6951412   -2.6951412   -1.5670805  0.066268811   -2.6951412    1.1280606   569361 
 1791000    1.0014108   -2.6937571   -2.6937571   -1.5679238   0.06658117   -2.6937571    1.1258333   569361 
 1792000    1.0013992   -2.6933195   -2.6933195   -1.5674992   0.06463445   -2.6933195    1.1258203   569361 
 1793000    1.0025579   -2.6942428   -2.6942428   -1.5671199  0.068836666   -2.6942428    1.1271229   569361 
 1794000    1.0032378   -2.6950912   -2.6950912    -1.567204  0.072885957   -2.6950912    1.1278873   569361 
 1795000    1.0021783   -2.6946699   -2.6946699   -1.5679737  0.064007839   -2.6946699    1.1266962   569361 
 1796000     1.002764   -2.6953333   -2.6953333   -1.5679787  0.073047523   -2.6953333    1.1273546   569361 
 1797000    1.0029445   -2.6956638   -2.6956638   -1.5681062  0.069624318   -2.6956638    1.1275576   569361 
 1798000     1.002505   -2.6963884   -2.6963884   -1.5693249  0.061329828   -2.6963884    1.1270634   569361 
 1799000    1.0035926   -2.6976487   -2.6976487   -1.5693626  0.071896476   -2.6976487    1.1282861   569361 
 1800000    1.0022491   -2.6963094   -2.6963094   -1.5695337  0.058664371   -2.6963094    1.1267757   569361 
 1801000    1.0017149   -2.6954678   -2.6954678   -1.5692926   0.06913756   -2.6954678    1.1261752   569361 
 1802000     1.000336   -2.6944948   -2.6944948   -1.5698698  0.065135488   -2.6944948     1.124625   569361 
 1803000    1.0015382   -2.6952623   -2.6952623   -1.5692858  0.067220768   -2.6952623    1.1259765   569361 
 1804000    1.0020782   -2.6961058   -2.6961058   -1.5695222  0.071911512   -2.6961058    1.1265836   569361 
 1805000    1.0015821   -2.6953843   -2.6953843   -1.5693584  0.069173734   -2.6953843    1.1260258   569361 
 1806000    1.0007625   -2.6952983   -2.6952983   -1.5701939  0.065908087   -2.6952983    1.1251044   569361 
 1807000    1.0015317   -2.6962151   -2.6962151   -1.5702459  0.055020487   -2.6962151    1.1259692   569361 
 1808000    1.0015218   -2.6955392   -2.6955392   -1.5695811  0.061401773   -2.6955392    1.1259581   569361 
 1809000    1.0007072   -2.6954035   -2.6954035   -1.5703612  0.055539207   -2.6954035    1.1250422   569361 
 1810000    1.0000855    -2.694279    -2.694279   -1.5699357  0.060623073    -2.694279    1.1243433   569361 
 1811000    1.0000012   -2.6935116   -2.6935116    -1.569263  0.050997039   -2.6935116    1.1242486   569361 
 1812000   0.99931059   -2.6927059   -2.6927059   -1.5692338  0.052894623   -2.6927059    1.1234721   569361 
 1813000    0.9988985   -2.6922976   -2.6922976   -1.5692888  0.066423832   -2.6922976    1.1230088   569361 
 1814000   0.99993398   -2.6925393   -2.6925393   -1.5683663  0.068404958   -2.6925393     1.124173   569361 
 1815000   0.99982275   -2.6921815   -2.6921815   -1.5681336  0.064587372   -2.6921815    1.1240479   569361 
 1816000    0.9998957   -2.6936268   -2.6936268   -1.5694969  0.064995999   -2.6936268    1.1241299   569361 
 1817000    1.0009586   -2.6935738   -2.6935738   -1.5682489  0.057193511   -2.6935738    1.1253248   569361 
 1818000   0.99945288   -2.6915323   -2.6915323   -1.5679002  0.055584764   -2.6915323    1.1236321   569361 
 1819000    1.0003339   -2.6920609   -2.6920609   -1.5674384  0.068615471   -2.6920609    1.1246225   569361 
 1820000    1.0016509   -2.6929355   -2.6929355   -1.5668323  0.065911011   -2.6929355    1.1261032   569361 
 1821000    1.0030809   -2.6947469   -2.6947469   -1.5670361  0.066315314   -2.6947469    1.1277108   569361 
 1822000    1.0024073   -2.6938342   -2.6938342   -1.5668806  0.069509001   -2.6938342    1.1269536   569361 
 1823000    1.0025247   -2.6939969   -2.6939969   -1.5669113  0.060352237   -2.6939969    1.1270856   569361 
 1824000    1.0023977   -2.6938012   -2.6938012   -1.5668584  0.065495085   -2.6938012    1.1269428   569361 
 1825000    1.0026463   -2.6942817   -2.6942817   -1.5670594  0.058757084   -2.6942817    1.1272223   569361 
 1826000    1.0032768   -2.6946423   -2.6946423   -1.5667111  0.069574919   -2.6946423    1.1279312   569361 
 1827000    1.0047096   -2.6958133   -2.6958133   -1.5662714  0.066204692   -2.6958133    1.1295419   569361 
 1828000    1.0033598   -2.6952069   -2.6952069   -1.5671824  0.054695363   -2.6952069    1.1280244   569361 
 1829000    1.0031032   -2.6948932   -2.6948932   -1.5671572  0.061298097   -2.6948932    1.1277359   569361 
 1830000    1.0002477   -2.6917631   -2.6917631   -1.5672374  0.073138937   -2.6917631    1.1245256   569361 
 1831000    1.0022374   -2.6946201   -2.6946201   -1.5678575  0.056077557   -2.6946201    1.1267626   569361 
 1832000    1.0019375   -2.6934592   -2.6934592   -1.5670338  0.074168456   -2.6934592    1.1264254   569361 
 1833000    1.0013057   -2.6933259   -2.6933259   -1.5676107  0.060571168   -2.6933259    1.1257151   569361 
 1834000   0.99990503   -2.6924238   -2.6924238   -1.5682834  0.063909928   -2.6924238    1.1241404   569361 
 1835000     1.000477   -2.6927532   -2.6927532   -1.5679697   0.07293273   -2.6927532    1.1247834   569361 
 1836000    1.0016647   -2.6940012   -2.6940012   -1.5678825  0.063885571   -2.6940012    1.1261187   569361 
 1837000     1.001204   -2.6931868   -2.6931868    -1.567586  0.064725117   -2.6931868    1.1256008   569361 
 1838000    1.0032057   -2.6957099   -2.6957099   -1.5678587  0.058646128   -2.6957099    1.1278512   569361 
 1839000    1.0008869   -2.6924566   -2.6924566   -1.5672123  0.061260353   -2.6924566    1.1252443   569361 
 1840000     1.001972   -2.6941397   -2.6941397   -1.5676755  0.059751113   -2.6941397    1.1264642   569361 
 1841000    1.0004557   -2.6928411   -2.6928411   -1.5680816  0.073225202   -2.6928411    1.1247596   569361 
 1842000    1.0008139   -2.6931518   -2.6931518   -1.5679896  0.063302914   -2.6931518    1.1251622   569361 
 1843000    1.0028903   -2.6956586   -2.6956586    -1.568162   0.06285239   -2.6956586    1.1274966   569361 
 1844000    1.0007494   -2.6931051   -2.6931051   -1.5680154    0.0687203   -2.6931051    1.1250897   569361 
 1845000    1.0008766   -2.6931422   -2.6931422   -1.5679096   0.05759304   -2.6931422    1.1252326   569361 
 1846000    1.0012274   -2.6934632   -2.6934632   -1.5678361  0.060243474   -2.6934632    1.1256271   569361 
 1847000    1.0004934   -2.6923773   -2.6923773   -1.5675754  0.064201991   -2.6923773    1.1248019   569361 
 1848000    1.0003372   -2.6928247   -2.6928247   -1.5681984  0.061577388   -2.6928247    1.1246263   569361 
 1849000    1.0007913   -2.6931937   -2.6931937   -1.5680569  0.064581623   -2.6931937    1.1251368   569361 
 1850000    1.0013503   -2.6939261   -2.6939261   -1.5681609  0.053168691   -2.6939261    1.1257653   569361 
 1851000    1.0029681   -2.6950937   -2.6950937   -1.5675097    0.0650937   -2.6950937     1.127584   569361 
 1852000    1.0015849   -2.6940136   -2.6940136   -1.5679845  0.058344514   -2.6940136     1.126029   569361 
 1853000    1.0022387   -2.6944151   -2.6944151   -1.5676511  0.068556864   -2.6944151     1.126764   569361 
 1854000    1.0012772   -2.6929296   -2.6929296   -1.5672465  0.063676823   -2.6929296    1.1256831   569361 
 1855000    1.0017549   -2.6932743   -2.6932743   -1.5670541  0.067592212   -2.6932743    1.1262201   569361 
 1856000     1.002624   -2.6945569   -2.6945569   -1.5673597  0.057574098   -2.6945569    1.1271972   569361 
 1857000    1.0032575   -2.6952313   -2.6952313   -1.5673219  0.069724032   -2.6952313    1.1279095   569361 
 1858000    1.0037209   -2.6956408   -2.6956408   -1.5672105   0.06024257   -2.6956408    1.1284303   569361 
 1859000    1.0020719   -2.6935168   -2.6935168   -1.5669403  0.070433038   -2.6935168    1.1265765   569361 
 1860000    1.0030349   -2.6950047   -2.6950047   -1.5673455  0.066924924   -2.6950047    1.1276592   569361 
 1861000    1.0015049   -2.6941634   -2.6941634   -1.5682243  0.061395867   -2.6941634    1.1259391   569361 
 1862000    1.0012907   -2.6943395   -2.6943395   -1.5686412  0.059548045   -2.6943395    1.1256983   569361 
 1863000    1.0021978   -2.6949644   -2.6949644   -1.5682463  0.058524102   -2.6949644    1.1267181   569361 
 1864000    1.0013433   -2.6942856   -2.6942856   -1.5685282  0.056364442   -2.6942856    1.1257574   569361 
 1865000    1.0018225   -2.6958711   -2.6958711   -1.5695751  0.051336237   -2.6958711    1.1262961   569361 
 1866000   0.99984049   -2.6940967   -2.6940967   -1.5700288  0.057659622   -2.6940967    1.1240679   569361 
 1867000    1.0004896   -2.6944857   -2.6944857   -1.5696881  0.072172464   -2.6944857    1.1247976   569361 
 1868000    1.0003057   -2.6933353   -2.6933353   -1.5687444   0.06366452   -2.6933353    1.1245909   569361 
 1869000    1.0003994   -2.6934018   -2.6934018   -1.5687056  0.066378821   -2.6934018    1.1246962   569361 
 1870000    0.9994797   -2.6924306   -2.6924306   -1.5687684  0.069177556   -2.6924306    1.1236622   569361 
 1871000    1.0001265   -2.6926277   -2.6926277   -1.5682383     0.066235   -2.6926277    1.1243894   569361 
 1872000     1.002302   -2.6953482   -2.6953482    -1.568513  0.056885905   -2.6953482    1.1268352   569361 
 1873000     1.002298   -2.6948434   -2.6948434   -1.5680127   0.06377838   -2.6948434    1.1268307   569361 
 1874000    1.0010018   -2.6934659   -2.6934659   -1.5680925  0.071039621   -2.6934659    1.1253734   569361 
 1875000     1.001184   -2.6938105   -2.6938105   -1.5682322  0.066483811   -2.6938105    1.1255783   569361 
 1876000    1.0036605   -2.6959726   -2.6959726   -1.5676102   0.05762511   -2.6959726    1.1283625   569361 
 1877000    1.0021613   -2.6943968   -2.6943968   -1.5677198  0.060883744   -2.6943968     1.126677   569361 
 1878000    1.0012779   -2.6931729   -2.6931729    -1.567489  0.056611415   -2.6931729    1.1256839   569361 
 1879000     1.002966     -2.69523     -2.69523   -1.5676483  0.068366879     -2.69523    1.1275817   569361 
 1880000    1.0005788   -2.6923864   -2.6923864   -1.5674885  0.066421167   -2.6923864    1.1248979   569361 
 1881000    1.0013316   -2.6931403   -2.6931403    -1.567396   0.06858796   -2.6931403    1.1257443   569361 
 1882000    0.9999337   -2.6915667   -2.6915667   -1.5673941  0.066780381   -2.6915667    1.1241726   569361 
 1883000    1.0003069   -2.6915456   -2.6915456   -1.5669534  0.059408771   -2.6915456    1.1245922   569361 
 1884000    1.0015359   -2.6943188   -2.6943188   -1.5683449  0.062347456   -2.6943188    1.1259739   569361 
 1885000   0.99947823   -2.6927373   -2.6927373   -1.5690767  0.064009305   -2.6927373    1.1236606   569361 
 1886000    1.0008577    -2.692924    -2.692924   -1.5677125  0.055517461    -2.692924    1.1252115   569361 
 1887000    1.0017247   -2.6932936   -2.6932936   -1.5671074  0.056992832   -2.6932936    1.1261862   569361 
 1888000    1.0013708    -2.692774    -2.692774   -1.5669857  0.063517384    -2.692774    1.1257883   569361 
 1889000    1.0011349   -2.6925599   -2.6925599   -1.5670368  0.064878022   -2.6925599    1.1255231   569361 
 1890000    1.0012881   -2.6925918   -2.6925918   -1.5668964  0.051521827   -2.6925918    1.1256954   569361 
 1891000    1.0024233   -2.6937771   -2.6937771   -1.5668056   0.06655458   -2.6937771    1.1269715   569361 
 1892000     1.001812   -2.6931512   -2.6931512   -1.5668669  0.058286782   -2.6931512    1.1262843   569361 
 1893000    1.0029292   -2.6940587   -2.6940587   -1.5665183  0.058181957   -2.6940587    1.1275404   569361 
 1894000    1.0042193   -2.6954489   -2.6954489   -1.5664581  0.064505583   -2.6954489    1.1289908   569361 
 1895000     1.000861   -2.6923219   -2.6923219   -1.5671067  0.066205088   -2.6923219    1.1252152   569361 
 1896000    1.0007467   -2.6925995   -2.6925995   -1.5675129  0.064665569   -2.6925995    1.1250867   569361 
 1897000    1.0010757   -2.6930858   -2.6930858   -1.5676293  0.075637278   -2.6930858    1.1254565   569361 
 1898000    1.0015386   -2.6939954   -2.6939954   -1.5680185  0.055607927   -2.6939954    1.1259769   569361 
 1899000   0.99913026    -2.691258    -2.691258   -1.5679886  0.072409569    -2.691258    1.1232694   569361 
 1900000    1.0000354    -2.691971    -2.691971    -1.567684  0.053181115    -2.691971     1.124287   569361 
 1901000    1.0006503   -2.6926073   -2.6926073    -1.567629  0.078981784   -2.6926073    1.1249783   569361 
 1902000    1.0019785    -2.693399    -2.693399   -1.5669275  0.062427653    -2.693399    1.1264715   569361 
 1903000    1.0012835   -2.6930194   -2.6930194   -1.5673292  0.072216724   -2.6930194    1.1256901   569361 
 1904000     1.002229   -2.6938427   -2.6938427   -1.5670895  0.054977363   -2.6938427    1.1267531   569361 
 1905000    1.0004602   -2.6924904   -2.6924904   -1.5677258  0.067893431   -2.6924904    1.1247646   569361 
 1906000    1.0017052   -2.6935234   -2.6935234   -1.5673592   0.07333294   -2.6935234    1.1261643   569361 
 1907000    1.0022247   -2.6938544   -2.6938544   -1.5671062  0.072077864   -2.6938544    1.1267483   569361 
 1908000    1.0022985   -2.6936244   -2.6936244   -1.5667932  0.070681835   -2.6936244    1.1268312   569361 
 1909000    1.0024641   -2.6947437   -2.6947437   -1.5677262  0.048569941   -2.6947437    1.1270175   569361 
 1910000    1.0032093   -2.6946078   -2.6946078   -1.5667526  0.069253207   -2.6946078    1.1278552   569361 
 1911000     1.002019   -2.6929608   -2.6929608   -1.5664438  0.073058935   -2.6929608     1.126517   569361 
 1912000     1.002851    -2.693269    -2.693269   -1.5658166  0.067844971    -2.693269    1.1274524   569361 
 1913000    1.0036678   -2.6939246   -2.6939246   -1.5655539  0.062645351   -2.6939246    1.1283706   569361 
 1914000     1.003086   -2.6933069   -2.6933069   -1.5655902   0.06602631   -2.6933069    1.1277166   569361 
 1915000    1.0009134   -2.6917409   -2.6917409   -1.5664669  0.063692592   -2.6917409     1.125274   569361 
 1916000    1.0009056    -2.691247    -2.691247   -1.5659817  0.063853386    -2.691247    1.1252652   569361 
 1917000    1.0020151   -2.6917862   -2.6917862   -1.5652736  0.056851239   -2.6917862    1.1265126   569361 
 1918000   0.99965663   -2.6897318   -2.6897318   -1.5658706  0.060162546   -2.6897318    1.1238611   569361 
 1919000    1.0009247   -2.6914127   -2.6914127   -1.5661259  0.067672557   -2.6914127    1.1252868   569361 
 1920000    1.0017438   -2.6924416   -2.6924416    -1.566234  0.058100912   -2.6924416    1.1262076   569361 
 1921000    1.0010092   -2.6904432   -2.6904432   -1.5650615  0.055911022   -2.6904432    1.1253817   569361 
 1922000    1.0010721    -2.691284    -2.691284   -1.5658315   0.05946327    -2.691284    1.1254525   569361 
 1923000    1.0009953   -2.6907216   -2.6907216   -1.5653555  0.060348958   -2.6907216    1.1253662   569361 
 1924000    1.0022035   -2.6917082   -2.6917082   -1.5649838  0.066237413   -2.6917082    1.1267245   569361 
 1925000    1.0030766   -2.6931209   -2.6931209   -1.5654148  0.058707075   -2.6931209     1.127706   569361 
 1926000    1.0026744   -2.6927104   -2.6927104   -1.5654565   0.07106326   -2.6927104    1.1272539   569361 
 1927000    1.0016683   -2.6919758   -2.6919758    -1.565853  0.065092327   -2.6919758    1.1261228   569361 
 1928000    1.0014598   -2.6911094   -2.6911094    -1.565221  0.071772866   -2.6911094    1.1258883   569361 
 1929000    1.0025257    -2.692618    -2.692618   -1.5655313  0.069951604    -2.692618    1.1270867   569361 
 1930000    1.0017765   -2.6918627   -2.6918627   -1.5656184  0.065595784   -2.6918627    1.1262444   569361 
 1931000    1.0008746   -2.6913097   -2.6913097   -1.5660793  0.066438265   -2.6913097    1.1252305   569361 
 1932000    1.0017459    -2.692174    -2.692174   -1.5659639  0.059820489    -2.692174    1.1262101   569361 
 1933000    1.0016272   -2.6920837   -2.6920837   -1.5660071  0.047461279   -2.6920837    1.1260766   569361 
 1934000    1.0019164   -2.6925851   -2.6925851   -1.5661834   0.05969611   -2.6925851    1.1264017   569361 
 1935000    1.0001798   -2.6920778   -2.6920778   -1.5676285  0.064258485   -2.6920778    1.1244493   569361 
 1936000    1.0008273   -2.6919216   -2.6919216   -1.5667443  0.066708393   -2.6919216    1.1251773   569361 
 1937000    0.9998484   -2.6916796   -2.6916796   -1.5676028  0.066378129   -2.6916796    1.1240767   569361 
 1938000    1.0018391   -2.6930573   -2.6930573   -1.5667425  0.061444642   -2.6930573    1.1263148   569361 
 1939000    1.0031179   -2.6944078   -2.6944078   -1.5666553  0.068673362   -2.6944078    1.1277525   569361 
 1940000     1.001003   -2.6921789   -2.6921789   -1.5668041  0.065257424   -2.6921789    1.1253748   569361 
 1941000    1.0021112   -2.6939168   -2.6939168   -1.5672962  0.069038524   -2.6939168    1.1266207   569361 
 1942000    1.0020416   -2.6933324   -2.6933324   -1.5667899  0.064967106   -2.6933324    1.1265425   569361 
 1943000     1.004316   -2.6954878   -2.6954878   -1.5663884  0.066333587   -2.6954878    1.1290994   569361 
 1944000    1.0038631   -2.6942142   -2.6942142    -1.565624   0.06778635   -2.6942142    1.1285903   569361 
 1945000    1.0040371    -2.696199    -2.696199   -1.5674131  0.066996977    -2.696199    1.1287859   569361 
 1946000    1.0022071   -2.6944469   -2.6944469   -1.5677185  0.074187597   -2.6944469    1.1267285   569361 
 1947000    1.0028485   -2.6944746   -2.6944746   -1.5670251  0.072858286   -2.6944746    1.1274496   569361 
 1948000    1.0034023   -2.6961306   -2.6961306   -1.5680584  0.064734729   -2.6961306    1.1280722   569361 
 1949000    1.0018681   -2.6944233   -2.6944233   -1.5680759  0.061356724   -2.6944233    1.1263474   569361 
 1950000    1.0021242   -2.6951154   -2.6951154   -1.5684801  0.065563111   -2.6951154    1.1266353   569361 
 1951000    1.0021204   -2.6956966   -2.6956966   -1.5690655   0.06337541   -2.6956966    1.1266311   569361 
 1952000    1.0025198   -2.6953261   -2.6953261   -1.5682459  0.062680124   -2.6953261    1.1270801   569361 
 1953000    1.0021492   -2.6943448   -2.6943448   -1.5676814  0.064735882   -2.6943448    1.1266634   569361 
 1954000    1.0011487   -2.6934046   -2.6934046   -1.5678659  0.057815593   -2.6934046    1.1255387   569361 
 1955000    1.0006963   -2.6927808   -2.6927808   -1.5677508  0.066873492   -2.6927808      1.12503   569361 
 1956000    1.0025917   -2.6949119   -2.6949119    -1.567751  0.066093677   -2.6949119    1.1271609   569361 
 1957000    1.0012811   -2.6933788   -2.6933788   -1.5676914  0.064152108   -2.6933788    1.1256875   569361 
 1958000    1.0019406   -2.6942995   -2.6942995   -1.5678706  0.063606193   -2.6942995    1.1264289   569361 
 1959000     1.001283   -2.6922711   -2.6922711   -1.5665815  0.067244817   -2.6922711    1.1256896   569361 
 1960000    1.0022035   -2.6933564   -2.6933564   -1.5666319  0.065733216   -2.6933564    1.1267245   569361 
 1961000    1.0026078   -2.6940572   -2.6940572   -1.5668782  0.059285664   -2.6940572     1.127179   569361 
 1962000    1.0027313   -2.6946971   -2.6946971   -1.5673792  0.062571757   -2.6946971    1.1273179   569361 
 1963000     1.001222   -2.6923356   -2.6923356   -1.5667145  0.075176169   -2.6923356    1.1256211   569361 
 1964000    1.0014941   -2.6924139   -2.6924139   -1.5664869  0.055536097   -2.6924139    1.1259269   569361 
 1965000    1.0020656   -2.6928352   -2.6928352   -1.5662658  0.070023967   -2.6928352    1.1265694   569361 
 1966000    1.0023997   -2.6924427   -2.6924427   -1.5654977  0.060789642   -2.6924427     1.126945   569361 
 1967000    1.0027112   -2.6924137   -2.6924137   -1.5651184  0.053442271   -2.6924137    1.1272953   569361 
 1968000    1.0026549   -2.6920325   -2.6920325   -1.5648005  0.064565012   -2.6920325     1.127232   569361 
 1969000    1.0026922   -2.6917461   -2.6917461   -1.5644722  0.067134359   -2.6917461    1.1272739   569361 
 1970000    1.0031176    -2.691158    -2.691158   -1.5634058  0.062834988    -2.691158    1.1277522   569361 
 1971000    1.0027576   -2.6904552   -2.6904552   -1.5631078   0.05953024   -2.6904552    1.1273474   569361 
 1972000    1.0008065   -2.6889445   -2.6889445   -1.5637906   0.06493818   -2.6889445    1.1251539   569361 
 1973000    1.0015841   -2.6906499   -2.6906499   -1.5646218  0.055045803   -2.6906499    1.1260281   569361 
 1974000    1.0026624   -2.6909775   -2.6909775   -1.5637371  0.058561143   -2.6909775    1.1272404   569361 
 1975000    1.0032004   -2.6910996   -2.6910996   -1.5632543  0.071211184   -2.6910996    1.1278452   569361 
 1976000    1.0038452   -2.6919809   -2.6919809   -1.5634108  0.060337552   -2.6919809    1.1285701   569361 
 1977000    1.0025234    -2.690592    -2.690592   -1.5635079  0.069285624    -2.690592    1.1270841   569361 
 1978000    1.0004241   -2.6885847   -2.6885847   -1.5638608  0.062855305   -2.6885847     1.124724   569361 
 1979000    1.0003418   -2.6880502   -2.6880502   -1.5634187  0.063376842   -2.6880502    1.1246315   569361 
 1980000    1.0022567   -2.6910565   -2.6910565   -1.5642723  0.069242728   -2.6910565    1.1267842   569361 
 1981000    1.0013877   -2.6894852   -2.6894852   -1.5636779  0.052876246   -2.6894852    1.1258073   569361 
 1982000    1.0010126   -2.6905893   -2.6905893   -1.5652037  0.066343537   -2.6905893    1.1253856   569361 
 1983000    1.0018267   -2.6909786   -2.6909786   -1.5646777  0.057362299   -2.6909786    1.1263009   569361 
 1984000    1.0012548   -2.6903532   -2.6903532   -1.5646953  0.068392243   -2.6903532    1.1256579   569361 
 1985000    1.0018892   -2.6912706   -2.6912706   -1.5648995  0.068777209   -2.6912706    1.1263711   569361 
 1986000    1.0032369   -2.6927376   -2.6927376   -1.5648514  0.066434831   -2.6927376    1.1278863   569361 
 1987000     1.000971   -2.6901887   -2.6901887   -1.5648498  0.056937389   -2.6901887    1.1253388   569361 
 1988000    1.0008902   -2.6901463   -2.6901463   -1.5648983  0.063423928   -2.6901463     1.125248   569361 
 1989000    1.0013419   -2.6906444   -2.6906444   -1.5648886  0.064143387   -2.6906444    1.1257558   569361 
 1990000    1.0024339   -2.6923099   -2.6923099   -1.5653263  0.062716708   -2.6923099    1.1269835   569361 
 1991000    1.0016879   -2.6921588   -2.6921588    -1.566014   0.07019812   -2.6921588    1.1261448   569361 
 1992000    1.0022558    -2.692616    -2.692616   -1.5658327  0.064073832    -2.692616    1.1267833   569361 
 1993000    1.0017463   -2.6923184   -2.6923184   -1.5661079  0.062028209   -2.6923184    1.1262105   569361 
 1994000    1.0005728   -2.6910927   -2.6910927   -1.5662015  0.062619235   -2.6910927    1.1248911   569361 
 1995000    1.0002178   -2.6905787   -2.6905787   -1.5660866  0.059705009   -2.6905787    1.1244921   569361 
 1996000    1.0022829   -2.6922551   -2.6922551   -1.5654415  0.067063746   -2.6922551    1.1268137   569361 
 1997000    1.0021288   -2.6923138   -2.6923138   -1.5656733  0.072940243   -2.6923138    1.1266405   569361 
 1998000    1.0018669   -2.6924893   -2.6924893   -1.5661433  0.069875612   -2.6924893     1.126346   569361 
 1999000     1.003124   -2.6942005   -2.6942005   -1.5664412  0.066745168   -2.6942005    1.1277593   569361 
 2000000    1.0031444   -2.6941454   -2.6941454   -1.5663631  0.082581123   -2.6941454    1.1277823   569361 
 2001000    1.0045028   -2.6950928   -2.6950928   -1.5657834  0.061587316   -2.6950928    1.1293094   569361 
 2002000    1.0024464    -2.692509    -2.692509   -1.5655114  0.061313983    -2.692509    1.1269976   569361 
 2003000    1.0035077    -2.693305    -2.693305   -1.5651144  0.061582264    -2.693305    1.1281907   569361 
 2004000    1.0013871   -2.6916415   -2.6916415   -1.5658349  0.059497315   -2.6916415    1.1258066   569361 
 2005000    1.0028385   -2.6935501   -2.6935501   -1.5661117  0.054996124   -2.6935501    1.1274384   569361 
 2006000    1.0022594   -2.6917475   -2.6917475   -1.5649602  0.059021371   -2.6917475    1.1267873   569361 
 2007000    1.0023107   -2.6925896   -2.6925896   -1.5657446  0.059248638   -2.6925896     1.126845   569361 
 2008000     1.001823   -2.6916855   -2.6916855   -1.5653888  0.062846097   -2.6916855    1.1262967   569361 
 2009000    1.0023179   -2.6917969   -2.6917969   -1.5649438  0.071635157   -2.6917969    1.1268531   569361 
 2010000     1.002138   -2.6924682   -2.6924682   -1.5658173  0.071161612   -2.6924682    1.1266509   569361 
 2011000    1.0016631     -2.69203     -2.69203    -1.565913  0.052563261     -2.69203     1.126117   569361 
 2012000     1.001985   -2.6933389   -2.6933389     -1.56686  0.064971412   -2.6933389    1.1264789   569361 
 2013000    1.0004511   -2.6913095   -2.6913095   -1.5665551  0.068170825   -2.6913095    1.1247543   569361 
 2014000   0.99976366   -2.6900113   -2.6900113   -1.5660299  0.057906178   -2.6900113    1.1239815   569361 
 2015000    1.0003739   -2.6909171   -2.6909171   -1.5662495  0.067145681   -2.6909171    1.1246676   569361 
 2016000    1.0011633   -2.6919772   -2.6919772   -1.5664221  0.062685098   -2.6919772    1.1255551   569361 
 2017000   0.99923446   -2.6893454   -2.6893454   -1.5659589  0.062141152   -2.6893454    1.1233865   569361 
 2018000   0.99995514   -2.6899063   -2.6899063   -1.5657095  0.062449895   -2.6899063    1.1241968   569361 
 2019000    1.0004028   -2.6911886   -2.6911886   -1.5664886  0.061655535   -2.6911886       1.1247   569361 
 2020000    1.0001753   -2.6905978   -2.6905978   -1.5661535  0.060207689   -2.6905978    1.1244443   569361 
 2021000   0.99866937   -2.6891542   -2.6891542    -1.566403  0.052949311   -2.6891542    1.1227512   569361 
 2022000   0.99939519   -2.6891938   -2.6891938   -1.5656265  0.057617483   -2.6891938    1.1235672   569361 
 2023000    1.0000466   -2.6898876   -2.6898876   -1.5655881  0.066456034   -2.6898876    1.1242996   569361 
 2024000    1.0016783   -2.6920973   -2.6920973   -1.5659633   0.06468063   -2.6920973     1.126134   569361 
 2025000    1.0013962   -2.6913903   -2.6913903   -1.5655735  0.051174507   -2.6913903    1.1258168   569361 
 2026000     1.001531   -2.6914432   -2.6914432   -1.5654747  0.063084157   -2.6914432    1.1259684   569361 
 2027000     1.001867   -2.6909015   -2.6909015   -1.5645553  0.058364398   -2.6909015    1.1263462   569361 
 2028000    1.0031465   -2.6928817   -2.6928817   -1.5650971  0.060852658   -2.6928817    1.1277846   569361 
 2029000    1.0015249   -2.6910496   -2.6910496   -1.5650881  0.068224115   -2.6910496    1.1259615   569361 
 2030000    1.0026036    -2.693323    -2.693323   -1.5661487  0.055776886    -2.693323    1.1271743   569361 
 2031000    1.0026102   -2.6932908   -2.6932908   -1.5661091  0.066015997   -2.6932908    1.1271817   569361 
 2032000    1.0013395   -2.6923954   -2.6923954   -1.5666423  0.062255977   -2.6923954    1.1257532   569361 
 2033000    1.0045637   -2.6953812   -2.6953812   -1.5660033  0.057044665   -2.6953812     1.129378   569361 
 2034000    1.0041503   -2.6948734   -2.6948734   -1.5659602  0.067453728   -2.6948734    1.1289131   569361 
 2035000    1.0034789   -2.6939588   -2.6939588   -1.5658005  0.069126705   -2.6939588    1.1281583   569361 
 2036000    1.0031872   -2.6939052   -2.6939052   -1.5660749  0.059872874   -2.6939052    1.1278303   569361 
 2037000    1.0039926    -2.694835    -2.694835   -1.5660991  0.068419866    -2.694835    1.1287359   569361 
 2038000    1.0040493   -2.6951496   -2.6951496   -1.5663501  0.069385319   -2.6951496    1.1287995   569361 
 2039000    1.0023862   -2.6937612   -2.6937612   -1.5668313  0.067828262   -2.6937612    1.1269299   569361 
 2040000     1.002954   -2.6940928   -2.6940928   -1.5665246  0.070571372   -2.6940928    1.1275682   569361 
 2041000    1.0035091   -2.6949942   -2.6949942   -1.5668019  0.070349214   -2.6949942    1.1281923   569361 
 2042000    1.0026373   -2.6933199   -2.6933199   -1.5661078  0.063081437   -2.6933199    1.1272121   569361 
 2043000    1.0040379   -2.6942676   -2.6942676   -1.5654809  0.068103013   -2.6942676    1.1287867   569361 
 2044000    1.0033087   -2.6935061   -2.6935061   -1.5655391  0.084032416   -2.6935061     1.127967   569361 
 2045000    1.0042039    -2.697024    -2.697024   -1.5680506   0.06357863    -2.697024    1.1289734   569361 
 2046000    1.0025083   -2.6937852   -2.6937852   -1.5667181  0.074623179   -2.6937852    1.1270671   569361 
 2047000    1.0027878   -2.6938468   -2.6938468   -1.5664655  0.063085568   -2.6938468    1.1273813   569361 
 2048000    1.0032384   -2.6932844   -2.6932844   -1.5653965  0.064797995   -2.6932844    1.1278879   569361 
 2049000    1.0024927   -2.6928535   -2.6928535   -1.5658039  0.063006021   -2.6928535    1.1270496   569361 
 2050000    1.0016048   -2.6927043   -2.6927043   -1.5666529  0.070531848   -2.6927043    1.1260514   569361 
 2051000    1.0005446   -2.6906672   -2.6906672   -1.5658077  0.065156674   -2.6906672    1.1248594   569361 
 2052000    1.0003946   -2.6908126   -2.6908126   -1.5661218  0.060699517   -2.6908126    1.1246908   569361 
 2053000     1.002225   -2.6922451   -2.6922451   -1.5654965  0.056695241   -2.6922451    1.1267486   569361 
 2054000    1.0019536   -2.6923716   -2.6923716    -1.565928  0.068487037   -2.6923716    1.1264435   569361 
 2055000    1.0007276   -2.6912825   -2.6912825   -1.5662174  0.059683314   -2.6912825    1.1250652   569361 
 2056000   0.99945935   -2.6892033   -2.6892033    -1.565564  0.058280603   -2.6892033    1.1236394   569361 
 2057000    1.0012054   -2.6910593   -2.6910593    -1.565457  0.064297118   -2.6910593    1.1256023   569361 
 2058000    1.0022403   -2.6916537   -2.6916537   -1.5648879  0.063905497   -2.6916537    1.1267658   569361 
 2059000    1.0024675    -2.692219    -2.692219   -1.5651978   0.05865916    -2.692219    1.1270212   569361 
 2060000     1.001793   -2.6913805   -2.6913805   -1.5651176  0.064358101   -2.6913805     1.126263   569361 
 2061000    1.0031356   -2.6929788   -2.6929788   -1.5652063  0.064593246   -2.6929788    1.1277724   569361 
 2062000    1.0028718     -2.69277     -2.69277   -1.5652942  0.071629683     -2.69277    1.1274758   569361 
 2063000    1.0027613   -2.6918303   -2.6918303   -1.5644787  0.070326667   -2.6918303    1.1273516   569361 
 2064000    1.0035651   -2.6927098   -2.6927098   -1.5644545  0.064610824   -2.6927098    1.1282553   569361 
 2065000    1.0029634   -2.6921611   -2.6921611   -1.5645823   0.05859461   -2.6921611    1.1275788   569361 
 2066000    1.0044291   -2.6946321   -2.6946321   -1.5654055  0.063890283   -2.6946321    1.1292266   569361 
 2067000    1.0014225   -2.6920929   -2.6920929   -1.5662465  0.069086227   -2.6920929    1.1258464   569361 
 2068000    1.0030362   -2.6939149   -2.6939149   -1.5662543  0.062098424   -2.6939149    1.1276606   569361 
 2069000    1.0016266   -2.6924503   -2.6924503   -1.5663744  0.066528841   -2.6924503    1.1260759   569361 
 2070000     1.000827   -2.6915042   -2.6915042   -1.5663272  0.069372365   -2.6915042     1.125177   569361 
 2071000    1.0026093    -2.692695    -2.692695   -1.5655144   0.06373298    -2.692695    1.1271807   569361 
 2072000    1.0015477   -2.6910296   -2.6910296   -1.5650425  0.074575557   -2.6910296    1.1259872   569361 
 2073000    1.0031325   -2.6919632   -2.6919632   -1.5641942  0.057101015   -2.6919632    1.1277689   569361 
 2074000    1.0042871    -2.691871    -2.691871   -1.5628041  0.065838283    -2.691871    1.1290669   569361 
 2075000    1.0054659   -2.6932701   -2.6932701   -1.5628779  0.066029367   -2.6932701    1.1303922   569361 
 2076000    1.0057462   -2.6938121   -2.6938121   -1.5631048  0.066309913   -2.6938121    1.1307073   569361 
 2077000    1.0047262   -2.6927389   -2.6927389   -1.5631783  0.073009267   -2.6927389    1.1295606   569361 
 2078000    1.0047015   -2.6929451   -2.6929451   -1.5634123  0.074407837   -2.6929451    1.1295328   569361 
 2079000    1.0048262   -2.6929212   -2.6929212   -1.5632482  0.071529389   -2.6929212     1.129673   569361 
 2080000    1.0038429   -2.6914825   -2.6914825   -1.5629149  0.065571371   -2.6914825    1.1285676   569361 
 2081000    1.0032989   -2.6911617   -2.6911617   -1.5632058  0.070197779   -2.6911617    1.1279559   569361 
 2082000     1.002157   -2.6896761   -2.6896761    -1.563004  0.062186681   -2.6896761    1.1266721   569361 
 2083000    1.0020883   -2.6904079   -2.6904079    -1.563813  0.066270024   -2.6904079    1.1265949   569361 
 2084000   0.99940493   -2.6875425   -2.6875425   -1.5639643  0.068777199   -2.6875425    1.1235782   569361 
 2085000    1.0005712   -2.6887278   -2.6887278   -1.5638384  0.063547713   -2.6887278    1.1248894   569361 
 2086000   0.99951126   -2.6872414   -2.6872414   -1.5635437  0.054442863   -2.6872414    1.1236977   569361 
 2087000    1.0000346   -2.6881682   -2.6881682   -1.5638822   0.05906483   -2.6881682     1.124286   569361 
 2088000    1.0006864   -2.6878098   -2.6878098    -1.562791  0.057712432   -2.6878098    1.1250188   569361 
 2089000    1.0025334   -2.6898988   -2.6898988   -1.5628035  0.052404874   -2.6898988    1.1270953   569361 
 2090000    1.0026485   -2.6893637   -2.6893637   -1.5621389  0.061545252   -2.6893637    1.1272248   569361 
 2091000    1.0033121   -2.6903119   -2.6903119   -1.5623411  0.071021722   -2.6903119    1.1279708   569361 
 2092000    1.0043575   -2.6911538   -2.6911538   -1.5620077  0.065285758   -2.6911538    1.1291461   569361 
 2093000    1.0040142   -2.6905362   -2.6905362   -1.5617761   0.06631851   -2.6905362    1.1287601   569361 
 2094000    1.0036521   -2.6897052   -2.6897052   -1.5613522  0.061206283   -2.6897052    1.1283531   569361 
 2095000    1.0026818   -2.6881096   -2.6881096   -1.5608474  0.069760758   -2.6881096    1.1272622   569361 
 2096000    1.0034348   -2.6883509   -2.6883509   -1.5602422  0.071439146   -2.6883509    1.1281087   569361 
 2097000    1.0045764    -2.689547    -2.689547   -1.5601549  0.065436616    -2.689547    1.1293922   569361 
 2098000    1.0041156    -2.689574    -2.689574   -1.5606999  0.061566912    -2.689574    1.1288741   569361 
 2099000    1.0028032   -2.6886783   -2.6886783   -1.5612797  0.061891537   -2.6886783    1.1273986   569361 
 2100000    1.0026201   -2.6884406   -2.6884406   -1.5612478  0.060166243   -2.6884406    1.1271928   569361 
 2101000    1.0029638   -2.6889218   -2.6889218   -1.5613426  0.066758273   -2.6889218    1.1275792   569361 
 2102000    1.0033131   -2.6895888   -2.6895888   -1.5616169  0.060193833   -2.6895888    1.1279719   569361 
 2103000    1.0042399   -2.6897939   -2.6897939     -1.56078  0.064223471   -2.6897939    1.1290139   569361 
 2104000    1.0039327   -2.6896694   -2.6896694   -1.5610009  0.072320896   -2.6896694    1.1286685   569361 
 2105000    1.0042601   -2.6903502   -2.6903502   -1.5613137  0.054147293   -2.6903502    1.1290366   569361 
 2106000    1.0038378   -2.6900505   -2.6900505   -1.5614887   0.06706909   -2.6900505    1.1285618   569361 
 2107000    1.0024075   -2.6884948   -2.6884948    -1.561541  0.060499774   -2.6884948    1.1269538   569361 
 2108000    1.0036821   -2.6900914   -2.6900914   -1.5617047  0.064552606   -2.6900914    1.1283867   569361 
 2109000    1.0040794   -2.6903995   -2.6903995   -1.5615661  0.067149682   -2.6903995    1.1288335   569361 
 2110000    1.0031995   -2.6902312   -2.6902312    -1.562387  0.069612427   -2.6902312    1.1278443   569361 
 2111000    1.0012562   -2.6883425   -2.6883425    -1.562683  0.076778262   -2.6883425    1.1256595   569361 
 2112000    1.0025927   -2.6897325   -2.6897325   -1.5625705  0.064626591   -2.6897325     1.127162   569361 
 2113000    1.0024863   -2.6898343   -2.6898343   -1.5627919  0.065286579   -2.6898343    1.1270424   569361 
 2114000    1.0021322   -2.6900982   -2.6900982   -1.5634538  0.062735943   -2.6900982    1.1266443   569361 
 2115000    1.0029876   -2.6906752   -2.6906752   -1.5630692  0.057712472   -2.6906752     1.127606   569361 
 2116000    1.0021657   -2.6904221   -2.6904221   -1.5637402   0.05648004   -2.6904221    1.1266819   569361 
 2117000    1.0013966   -2.6899751   -2.6899751   -1.5641578  0.062159767   -2.6899751    1.1258173   569361 
 2118000     1.002627    -2.690669    -2.690669   -1.5634684  0.058986535    -2.690669    1.1272006   569361 
 2119000    1.0029229   -2.6911299   -2.6911299   -1.5635967   0.06596387   -2.6911299    1.1275332   569361 
 2120000    1.0023897   -2.6906913   -2.6906913   -1.5637575  0.064615022   -2.6906913    1.1269338   569361 
 2121000    1.0033572   -2.6926381   -2.6926381   -1.5646166   0.06491028   -2.6926381    1.1280215   569361 
 2122000    1.0026527   -2.6918203   -2.6918203   -1.5645908  0.061370367   -2.6918203    1.1272295   569361 
 2123000     1.002378   -2.6905458   -2.6905458   -1.5636252   0.07397115   -2.6905458    1.1269206   569361 
 2124000    1.0049383   -2.6935183   -2.6935183   -1.5637193  0.056344279   -2.6935183    1.1297991   569361 
 2125000    1.0047141   -2.6925487   -2.6925487   -1.5630018  0.064671487   -2.6925487     1.129547   569361 
 2126000    1.0035465    -2.691818    -2.691818   -1.5635837  0.073830325    -2.691818    1.1282343   569361 
 2127000    1.0048451   -2.6935179   -2.6935179   -1.5638237  0.067353688   -2.6935179    1.1296942   569361 
 2128000    1.0033546   -2.6925507   -2.6925507   -1.5645321  0.065422597   -2.6925507    1.1280185   569361 
 2129000    1.0046428   -2.6936813   -2.6936813   -1.5642144  0.074497816   -2.6936813    1.1294669   569361 
 2130000    1.0043504   -2.6928589   -2.6928589   -1.5637208  0.062032515   -2.6928589    1.1291381   569361 
 2131000    1.0030566   -2.6922044   -2.6922044   -1.5645208  0.061904002   -2.6922044    1.1276836   569361 
 2132000    1.0042934   -2.6941749   -2.6941749   -1.5651009  0.068929716   -2.6941749     1.129074   569361 
 2133000    1.0027836   -2.6927786   -2.6927786    -1.565402  0.059194459   -2.6927786    1.1273766   569361 
 2134000    1.0022104   -2.6920948   -2.6920948   -1.5653626  0.064007671   -2.6920948    1.1267322   569361 
 2135000    1.0016052   -2.6917018   -2.6917018     -1.56565  0.066856512   -2.6917018    1.1260519   569361 
 2136000    1.0020061   -2.6911683   -2.6911683   -1.5646658  0.063073321   -2.6911683    1.1265025   569361 
 2137000    1.0012372   -2.6906945   -2.6906945   -1.5650563  0.063662083   -2.6906945    1.1256381   569361 
 2138000    1.0008781   -2.6906143   -2.6906143   -1.5653799  0.063464264   -2.6906143    1.1252344   569361 
 2139000    1.0019156   -2.6919193   -2.6919193   -1.5655186  0.069315275   -2.6919193    1.1264008   569361 
 2140000    1.0023806   -2.6922605   -2.6922605    -1.565337  0.059290069   -2.6922605    1.1269235   569361 
 2141000    1.0029982   -2.6925014   -2.6925014   -1.5648836  0.051770243   -2.6925014    1.1276179   569361 
 2142000    1.0043638   -2.6939616   -2.6939616   -1.5648084   0.06936134   -2.6939616    1.1291532   569361 
 2143000    1.0022228   -2.6915712   -2.6915712    -1.564825  0.062343836   -2.6915712    1.1267462   569361 
 2144000    1.0013318   -2.6905615   -2.6905615    -1.564817  0.072789103   -2.6905615    1.1257445   569361 
 2145000    1.0033487   -2.6928871   -2.6928871   -1.5648751  0.050045382   -2.6928871     1.128012   569361 
 2146000    1.0020342   -2.6901732   -2.6901732    -1.563639  0.068196049   -2.6901732    1.1265342   569361 
 2147000    1.0037306   -2.6930589   -2.6930589   -1.5646176  0.064352595   -2.6930589    1.1284413   569361 
 2148000    1.0028661    -2.691793    -2.691793   -1.5643236   0.06590098    -2.691793    1.1274694   569361 
 2149000    1.0040397   -2.6922961   -2.6922961   -1.5635073  0.064106984   -2.6922961    1.1287888   569361 
 2150000    1.0042181   -2.6931215   -2.6931215   -1.5641321  0.072864751   -2.6931215    1.1289894   569361 
 2151000    1.0016676   -2.6906226   -2.6906226   -1.5645006  0.067074865   -2.6906226     1.126122   569361 
 2152000    1.0030571   -2.6914281   -2.6914281   -1.5637439  0.075764805   -2.6914281    1.1276842   569361 
 2153000    1.0041605   -2.6920884   -2.6920884   -1.5631638  0.075041305   -2.6920884    1.1289247   569361 
 2154000    1.0022791   -2.6902453   -2.6902453   -1.5634359  0.062496696   -2.6902453    1.1268094   569361 
 2155000    1.0026066    -2.691245    -2.691245   -1.5640673  0.061150118    -2.691245    1.1271776   569361 
 2156000    1.0021872   -2.6909724   -2.6909724   -1.5642662  0.073123033   -2.6909724    1.1267062   569361 
 2157000    1.0028411   -2.6907641   -2.6907641   -1.5633228  0.071942638   -2.6907641    1.1274412   569361 
 2158000    1.0028084   -2.6916764   -2.6916764   -1.5642719  0.067953855   -2.6916764    1.1274045   569361 
 2159000    1.0018686   -2.6906807   -2.6906807   -1.5643327  0.049024597   -2.6906807    1.1263479   569361 
 2160000    1.0023173   -2.6907668   -2.6907668   -1.5639144  0.068331495   -2.6907668    1.1268524   569361 
 2161000     1.001826    -2.690094    -2.690094   -1.5637939  0.059381486    -2.690094    1.1263001   569361 
 2162000    1.0018203   -2.6908756   -2.6908756    -1.564582  0.058312974   -2.6908756    1.1262936   569361 
 2163000    1.0015214   -2.6902285   -2.6902285    -1.564271  0.063600714   -2.6902285    1.1259576   569361 
 2164000    1.0025394   -2.6905259   -2.6905259   -1.5634238  0.065958529   -2.6905259    1.1271021   569361 
 2165000     1.003216   -2.6918548   -2.6918548    -1.563992  0.063225895   -2.6918548    1.1278628   569361 
 2166000    1.0029319    -2.691933    -2.691933   -1.5643897  0.067112352    -2.691933    1.1275433   569361 
 2167000    1.0029142   -2.6919756   -2.6919756   -1.5644521  0.069004511   -2.6919756    1.1275234   569361 
 2168000    1.0023946    -2.691455    -2.691455   -1.5645157  0.073224347    -2.691455    1.1269393   569361 
 2169000    1.0026923   -2.6918107   -2.6918107   -1.5645367  0.063493343   -2.6918107     1.127274   569361 
 2170000    1.0022651   -2.6915537   -2.6915537     -1.56476  0.072650375   -2.6915537    1.1267937   569361 
 2171000    1.0035839   -2.6933956   -2.6933956   -1.5651192  0.067889635   -2.6933956    1.1282764   569361 
 2172000     1.002098   -2.6914107   -2.6914107   -1.5648049  0.071135912   -2.6914107    1.1266058   569361 
 2173000    1.0039942   -2.6927835   -2.6927835   -1.5640458   0.05964953   -2.6927835    1.1287377   569361 
 2174000    1.0030286   -2.6920477   -2.6920477   -1.5643956   0.06395329   -2.6920477    1.1276521   569361 
 2175000    1.0035985    -2.692424    -2.692424   -1.5641312  0.058039902    -2.692424    1.1282928   569361 
 2176000    1.0010669   -2.6913014   -2.6913014   -1.5658547  0.071567195   -2.6913014    1.1254466   569361 
 2177000    1.0018267   -2.6913093   -2.6913093   -1.5650085  0.055097471   -2.6913093    1.1263009   569361 
 2178000    1.0026236   -2.6914316   -2.6914316   -1.5642349  0.068603287   -2.6914316    1.1271967   569361 
 2179000    1.0042521   -2.6944114   -2.6944114   -1.5653837  0.050873458   -2.6944114    1.1290276   569361 
 2180000    1.0041848   -2.6935388   -2.6935388   -1.5645869   0.06723709   -2.6935388    1.1289519   569361 
 2181000    1.0032325    -2.693776    -2.693776   -1.5658947  0.062115968    -2.693776    1.1278813   569361 
 2182000    1.0034082   -2.6938924   -2.6938924   -1.5658136  0.063065493   -2.6938924    1.1280789   569361 
 2183000    1.0028523   -2.6921291   -2.6921291   -1.5646752  0.072540343   -2.6921291    1.1274539   569361 
 2184000     1.003963   -2.6927365   -2.6927365   -1.5640339  0.068792624   -2.6927365    1.1287026   569361 
 2185000     1.003833   -2.6932257   -2.6932257   -1.5646693  0.072749413   -2.6932257    1.1285564   569361 
 2186000    1.0034946   -2.6923684   -2.6923684   -1.5641924  0.064593564   -2.6923684     1.128176   569361 
 2187000    1.0048687    -2.693631    -2.693631   -1.5639102  0.062867692    -2.693631    1.1297208   569361 
 2188000    1.0038047   -2.6919762   -2.6919762   -1.5634516  0.079313942   -2.6919762    1.1285246   569361 
 2189000    1.0046731   -2.6940195   -2.6940195   -1.5645186  0.058880838   -2.6940195    1.1295009   569361 
 2190000    1.0026373   -2.6914422   -2.6914422     -1.56423  0.073877674   -2.6914422    1.1272121   569361 
 2191000    1.0050582   -2.6936755   -2.6936755   -1.5637416   0.08192439   -2.6936755    1.1299339   569361 
 2192000    1.0045162   -2.6935092   -2.6935092   -1.5641847  0.070363601   -2.6935092    1.1293245   569361 
 2193000    1.0039947   -2.6929267   -2.6929267   -1.5641885  0.065647941   -2.6929267    1.1287382   569361 
 2194000    1.0032343   -2.6916287   -2.6916287   -1.5637453  0.066968411   -2.6916287    1.1278834   569361 
 2195000    1.0037184   -2.6924769   -2.6924769   -1.5640494  0.068662672   -2.6924769    1.1284275   569361 
 2196000    1.0028035   -2.6913361   -2.6913361    -1.563937  0.070003853   -2.6913361    1.1273991   569361 
 2197000     1.004571   -2.6930441   -2.6930441   -1.5636579  0.074377647   -2.6930441    1.1293862   569361 
 2198000    1.0034666   -2.6918302   -2.6918302   -1.5636856  0.066677137   -2.6918302    1.1281445   569361 
 2199000     1.005337   -2.6931994   -2.6931994   -1.5629521  0.070161972   -2.6931994    1.1302473   569361 
 2200000    1.0036342   -2.6917301   -2.6917301   -1.5633972  0.075117664   -2.6917301    1.1283329   569361 
 2201000    1.0028181   -2.6916024   -2.6916024   -1.5641869  0.066561991   -2.6916024    1.1274155   569361 
 2202000     1.002237   -2.6901534   -2.6901534   -1.5633913  0.071580013   -2.6901534    1.1267622   569361 
 2203000    1.0028976   -2.6907807   -2.6907807   -1.5632759  0.057711644   -2.6907807    1.1275048   569361 
 2204000    1.0012706   -2.6898489   -2.6898489   -1.5641732   0.07129582   -2.6898489    1.1256757   569361 
 2205000    1.0027497    -2.691686    -2.691686   -1.5643475  0.055222052    -2.691686    1.1273386   569361 
 2206000     1.002206   -2.6915046   -2.6915046   -1.5647773  0.067112233   -2.6915046    1.1267273   569361 
 2207000    1.0027078   -2.6914049   -2.6914049   -1.5641135  0.066359538   -2.6914049    1.1272914   569361 
 2208000    1.0007378   -2.6887575   -2.6887575   -1.5636809  0.077860211   -2.6887575    1.1250766   569361 
 2209000    1.0036523   -2.6913213   -2.6913213   -1.5629681  0.060227851   -2.6913213    1.1283533   569361 
 2210000    1.0018634   -2.6892777   -2.6892777   -1.5629356  0.070817549   -2.6892777    1.1263421   569361 
 2211000    1.0024022   -2.6901418   -2.6901418    -1.563194  0.058350644   -2.6901418    1.1269478   569361 
 2212000    1.0018085   -2.6884019   -2.6884019   -1.5621215  0.052845899   -2.6884019    1.1262804   569361 
 2213000    1.0022221   -2.6890599   -2.6890599   -1.5623145  0.067152261   -2.6890599    1.1267453   569361 
 2214000    1.0024465   -2.6894827   -2.6894827   -1.5624851  0.059340758   -2.6894827    1.1269977   569361 
 2215000    1.0028016   -2.6891995   -2.6891995   -1.5618025  0.059291883   -2.6891995    1.1273969   569361 
 2216000    1.0026164   -2.6881602   -2.6881602   -1.5609715  0.063371679   -2.6881602    1.1271887   569361 
 2217000    1.0032534   -2.6890948   -2.6890948     -1.56119  0.061318293   -2.6890948    1.1279048   569361 
 2218000    1.0046499   -2.6915906   -2.6915906   -1.5621158  0.064760425   -2.6915906    1.1294748   569361 
 2219000    1.0034441   -2.6904559   -2.6904559   -1.5623368   0.06586701   -2.6904559    1.1281192   569361 
 2220000    1.0031231   -2.6892112   -2.6892112   -1.5614529  0.071561886   -2.6892112    1.1277583   569361 
 2221000    1.0038148    -2.689733    -2.689733    -1.561197  0.071414815    -2.689733     1.128536   569361 
 2222000    1.0037126   -2.6888478   -2.6888478   -1.5604267  0.072148693   -2.6888478    1.1284211   569361 
 2223000    1.0032359   -2.6882331   -2.6882331    -1.560348  0.064167157   -2.6882331    1.1278852   569361 
 2224000     1.002442   -2.6876553   -2.6876553   -1.5606627  0.072476004   -2.6876553    1.1269926   569361 
 2225000    1.0031826   -2.6891861   -2.6891861   -1.5613609  0.061875202   -2.6891861    1.1278252   569361 
 2226000    1.0036622   -2.6893553   -2.6893553   -1.5609909  0.067320969   -2.6893553    1.1283644   569361 
 2227000    1.0022881   -2.6885183   -2.6885183   -1.5616987  0.072771634   -2.6885183    1.1268195   569361 
 2228000     1.003231   -2.6897967   -2.6897967    -1.561917  0.065508301   -2.6897967    1.1278797   569361 
 2229000    1.0037721   -2.6897454   -2.6897454   -1.5612574   0.06052444   -2.6897454     1.128488   569361 
 2230000    1.0013744   -2.6879118   -2.6879118   -1.5621195  0.069279942   -2.6879118    1.1257923   569361 
 2231000    1.0015929   -2.6882413   -2.6882413   -1.5622033   0.07587509   -2.6882413     1.126038   569361 
 2232000    1.0029502   -2.6894843   -2.6894843   -1.5619203  0.065052368   -2.6894843     1.127564   569361 
 2233000     1.003172   -2.6896155   -2.6896155   -1.5618022  0.055581052   -2.6896155    1.1278133   569361 
 2234000    1.0026943   -2.6877283   -2.6877283   -1.5604521  0.066686068   -2.6877283    1.1272762   569361 
 2235000    1.0039327    -2.689034    -2.689034   -1.5603655  0.070326281    -2.689034    1.1286685   569361 
 2236000    1.0032139   -2.6892666   -2.6892666   -1.5614062  0.066957533   -2.6892666    1.1278604   569361 
 2237000    1.0021526   -2.6878124   -2.6878124   -1.5611451  0.062913594   -2.6878124    1.1266673   569361 
 2238000     1.003158   -2.6884056   -2.6884056    -1.560608  0.063113895   -2.6884056    1.1277976   569361 
 2239000    1.0037021    -2.689266    -2.689266   -1.5608567  0.050014388    -2.689266    1.1284093   569361 
 2240000    1.0020784   -2.6875245   -2.6875245   -1.5609407  0.071523263   -2.6875245    1.1265838   569361 
 2241000    1.0026474   -2.6879166   -2.6879166    -1.560693  0.078994914   -2.6879166    1.1272235   569361 
 2242000    1.0013764    -2.687383    -2.687383   -1.5615885   0.07371969    -2.687383    1.1257946   569361 
 2243000    1.0036943    -2.688468    -2.688468   -1.5600675  0.060976001    -2.688468    1.1284005   569361 
 2244000    1.0042831   -2.6879152   -2.6879152   -1.5588528  0.074517999   -2.6879152    1.1290624   569361 
 2245000     1.003956   -2.6884373   -2.6884373   -1.5597426  0.062964742   -2.6884373    1.1286947   569361 
 2246000    1.0029494   -2.6872594   -2.6872594   -1.5596963  0.073152145   -2.6872594    1.1275631   569361 
 2247000    1.0028012   -2.6876582   -2.6876582   -1.5602618  0.067828002   -2.6876582    1.1273964   569361 
 2248000    1.0026781   -2.6884283   -2.6884283   -1.5611703   0.05764697   -2.6884283     1.127258   569361 
 2249000    1.0024646   -2.6892065   -2.6892065   -1.5621885  0.067080544   -2.6892065     1.127018   569361 
 2250000    1.0027384   -2.6903111   -2.6903111   -1.5629853  0.056042737   -2.6903111    1.1273258   569361 
 2251000    1.0037169   -2.6903633   -2.6903633   -1.5619374  0.065506702   -2.6903633    1.1284259   569361 
 2252000    1.0044992   -2.6904379   -2.6904379   -1.5611325   0.06056569   -2.6904379    1.1293054   569361 
 2253000    1.0035676   -2.6889084   -2.6889084   -1.5606503  0.073831816   -2.6889084    1.1282581   569361 
 2254000    1.0049576   -2.6901817   -2.6901817    -1.560361  0.067695412   -2.6901817    1.1298208   569361 
 2255000    1.0033763   -2.6890628   -2.6890628   -1.5610198  0.069734101   -2.6890628     1.128043   569361 
 2256000    1.0033915   -2.6889076   -2.6889076   -1.5608476  0.062753695   -2.6889076    1.1280601   569361 
 2257000    1.0029285   -2.6889614   -2.6889614   -1.5614219  0.061789308   -2.6889614    1.1275395   569361 
 2258000    1.0043076   -2.6904888   -2.6904888   -1.5613988  0.064256425   -2.6904888      1.12909   569361 
 2259000    1.0031621   -2.6897896   -2.6897896   -1.5619875    0.0647686   -2.6897896    1.1278022   569361 
 2260000    1.0042877   -2.6902185   -2.6902185   -1.5611509  0.066729159   -2.6902185    1.1290676   569361 
 2261000     1.004142   -2.6902389   -2.6902389   -1.5613351  0.061598418   -2.6902389    1.1289038   569361 
 2262000    1.0037961   -2.6896613   -2.6896613   -1.5611464  0.053576115   -2.6896613    1.1285149   569361 
 2263000    1.0030642   -2.6890712   -2.6890712   -1.5613791  0.066463121   -2.6890712    1.1276922   569361 
 2264000    1.0029949   -2.6898066   -2.6898066   -1.5621924   0.05737373   -2.6898066    1.1276142   569361 
 2265000    1.0033026   -2.6898832   -2.6898832   -1.5619231  0.065083035   -2.6898832    1.1279601   569361 
 2266000    1.0036345   -2.6904104   -2.6904104   -1.5620772  0.062846826   -2.6904104    1.1283332   569361 
 2267000    1.0032126   -2.6892934   -2.6892934   -1.5614345  0.053970975   -2.6892934    1.1278589   569361 
 2268000    1.0026701   -2.6893208   -2.6893208   -1.5620717  0.062184984   -2.6893208    1.1272491   569361 
 2269000    1.0023186   -2.6886253   -2.6886253   -1.5617715  0.058132679   -2.6886253    1.1268538   569361 
 2270000    1.0022116   -2.6888322   -2.6888322   -1.5620986  0.066366793   -2.6888322    1.1267336   569361 
 2271000    1.0039178   -2.6910038   -2.6910038   -1.5623521  0.063341734   -2.6910038    1.1286517   569361 
 2272000    1.0027493   -2.6893654   -2.6893654   -1.5620274  0.060070356   -2.6893654     1.127338   569361 
 2273000    1.0015787   -2.6897931   -2.6897931   -1.5637711  0.069154699   -2.6897931     1.126022   569361 
 2274000    1.0024156   -2.6898442   -2.6898442   -1.5628814  0.065086948   -2.6898442    1.1269629   569361 
 2275000    1.0013823   -2.6888249   -2.6888249   -1.5630236  0.064096206   -2.6888249    1.1258013   569361 
 2276000    1.0007909   -2.6887086   -2.6887086   -1.5635722   0.06174533   -2.6887086    1.1251364   569361 
 2277000     1.001367   -2.6900186   -2.6900186   -1.5642346  0.073628455   -2.6900186     1.125784   569361 
 2278000    1.0006622   -2.6891955   -2.6891955   -1.5642039  0.068477573   -2.6891955    1.1249916   569361 
 2279000    1.0001353    -2.688223    -2.688223   -1.5638237  0.073289896    -2.688223    1.1243993   569361 
 2280000    1.0024398   -2.6905479   -2.6905479   -1.5635577   0.07310425   -2.6905479    1.1269901   569361 
 2281000    1.0022186   -2.6895253   -2.6895253   -1.5627839   0.06226688   -2.6895253    1.1267415   569361 
 2282000    1.0027474   -2.6903103   -2.6903103   -1.5629744  0.071100402   -2.6903103    1.1273359   569361 
 2283000    1.0048613   -2.6935814   -2.6935814   -1.5638689   0.06187087   -2.6935814    1.1297125   569361 
 2284000    1.0031672   -2.6914969   -2.6914969    -1.563689  0.066794641   -2.6914969    1.1278079   569361 
 2285000     1.003482   -2.6915823   -2.6915823   -1.5634204  0.070103877   -2.6915823    1.1281619   569361 
 2286000    1.0046877   -2.6926088   -2.6926088   -1.5630915  0.061657158   -2.6926088    1.1295173   569361 
 2287000    1.0041915   -2.6930353   -2.6930353   -1.5640759  0.072267197   -2.6930353    1.1289594   569361 
 2288000    1.0041477   -2.6934306   -2.6934306   -1.5645204  0.064149801   -2.6934306    1.1289102   569361 
 2289000    1.0041649   -2.6937852   -2.6937852   -1.5648556  0.073287067   -2.6937852    1.1289296   569361 
 2290000    1.0036739   -2.6930346   -2.6930346   -1.5646571  0.068236635   -2.6930346    1.1283776   569361 
 2291000    1.0023242   -2.6915753   -2.6915753   -1.5647151  0.066508536   -2.6915753    1.1268602   569361 
 2292000    1.0013768   -2.6911642   -2.6911642   -1.5653691  0.062958048   -2.6911642    1.1257951   569361 
 2293000    1.0012554   -2.6918345   -2.6918345   -1.5661759  0.064764932   -2.6918345    1.1256586   569361 
 2294000    1.0024579   -2.6933099   -2.6933099   -1.5662995  0.061740339   -2.6933099    1.1270104   569361 
 2295000    1.0011295   -2.6918226   -2.6918226   -1.5663055  0.063527562   -2.6918226    1.1255171   569361 
 2296000     1.001066   -2.6921455   -2.6921455   -1.5666998   0.06883226   -2.6921455    1.1254456   569361 
 2297000    1.0027757   -2.6937983   -2.6937983   -1.5664305  0.057682609   -2.6937983    1.1273678   569361 
 2298000    1.0029959   -2.6928678   -2.6928678   -1.5652525  0.069249779   -2.6928678    1.1276153   569361 
 2299000    1.0019398   -2.6908338   -2.6908338   -1.5644058  0.066770367   -2.6908338     1.126428   569361 
 2300000    1.0017734   -2.6908006   -2.6908006   -1.5645597  0.065024562   -2.6908006    1.1262409   569361 
 2301000    1.0029268   -2.6932738   -2.6932738   -1.5657362  0.066282576   -2.6932738    1.1275376   569361 
 2302000    1.0039165   -2.6932687   -2.6932687   -1.5646184  0.067406381   -2.6932687    1.1286503   569361 
 2303000    1.0050216   -2.6944456   -2.6944456   -1.5645529  0.064798426   -2.6944456    1.1298927   569361 
 2304000    1.0038623   -2.6934265   -2.6934265   -1.5648372    0.0613579   -2.6934265    1.1285893   569361 
 2305000    1.0031635   -2.6923198   -2.6923198    -1.564516  0.073021625   -2.6923198    1.1278037   569361 
 2306000    1.0028555   -2.6916661   -2.6916661   -1.5642086   0.07148888   -2.6916661    1.1274575   569361 
 2307000    1.0023863   -2.6915624   -2.6915624   -1.5646324  0.073759166   -2.6915624      1.12693   569361 
 2308000    1.0029159   -2.6914129   -2.6914129   -1.5638875  0.071108046   -2.6914129    1.1275254   569361 
 2309000    1.0019246   -2.6913177   -2.6913177   -1.5649067  0.069142138   -2.6913177     1.126411   569361 
 2310000    1.0016805    -2.691268    -2.691268   -1.5651315  0.060737418    -2.691268    1.1261365   569361 
 2311000    1.0007738   -2.6904278   -2.6904278   -1.5653106  0.060656805   -2.6904278    1.1251172   569361 
 2312000    1.0012003    -2.691445    -2.691445   -1.5658483  0.058492291    -2.691445    1.1255967   569361 
 2313000    1.0013705   -2.6912205   -2.6912205   -1.5654326  0.071507713   -2.6912205    1.1257879   569361 
 2314000    1.0008529   -2.6910275   -2.6910275   -1.5658215  0.055190966   -2.6910275     1.125206   569361 
 2315000    1.0012396    -2.691278    -2.691278   -1.5656372  0.065533359    -2.691278    1.1256408   569361 
 2316000   0.99935397   -2.6894159   -2.6894159    -1.565895  0.052390857   -2.6894159    1.1235209   569361 
 2317000    1.0008851   -2.6903347   -2.6903347   -1.5650924  0.059057506   -2.6903347    1.1252423   569361 
 2318000   0.99972645   -2.6897964   -2.6897964   -1.5658568  0.063389867   -2.6897964    1.1239396   569361 
 2319000    1.0015355   -2.6905294   -2.6905294   -1.5645558  0.056571984   -2.6905294    1.1259735   569361 
 2320000    1.0007169   -2.6892305   -2.6892305   -1.5641774  0.062944594   -2.6892305    1.1250532   569361 
 2321000    1.0015197   -2.6907359   -2.6907359   -1.5647801  0.063973981   -2.6907359    1.1259557   569361 
 2322000    1.0005509   -2.6898951   -2.6898951   -1.5650286  0.055716881   -2.6898951    1.1248665   569361 
 2323000    1.0021092    -2.691318    -2.691318   -1.5646996  0.065893925    -2.691318    1.1266184   569361 
 2324000   0.99998399   -2.6894638   -2.6894638   -1.5652346  0.062353145   -2.6894638    1.1242292   569361 
 2325000    1.0004782   -2.6894399   -2.6894399   -1.5646552  0.067024577   -2.6894399    1.1247848   569361 
 2326000    1.0022529   -2.6902601   -2.6902601   -1.5634801  0.055852584   -2.6902601      1.12678   569361 
 2327000    1.0022272   -2.6899194   -2.6899194   -1.5631683   0.06678539   -2.6899194    1.1267511   569361 
 2328000    1.0029488   -2.6910033   -2.6910033   -1.5634409  0.050307663   -2.6910033    1.1275624   569361 
 2329000     1.003739   -2.6917074   -2.6917074   -1.5632567  0.062874964   -2.6917074    1.1284507   569361 
 2330000    1.0043125   -2.6922541   -2.6922541   -1.5631586   0.06416961   -2.6922541    1.1290955   569361 
 2331000    1.0032031   -2.6907179   -2.6907179   -1.5628697  0.065155698   -2.6907179    1.1278482   569361 
 2332000    1.0028988   -2.6913217   -2.6913217   -1.5638156  0.068062966   -2.6913217    1.1275061   569361 
 2333000    1.0023572   -2.6907163   -2.6907163   -1.5638191  0.071264618   -2.6907163    1.1268972   569361 
 2334000    1.0018257   -2.6892773   -2.6892773   -1.5629776  0.073253744   -2.6892773    1.1262997   569361 
 2335000    1.0018245   -2.6900149   -2.6900149   -1.5637166  0.074491348   -2.6900149    1.1262983   569361 
 2336000    1.0015356   -2.6892608   -2.6892608   -1.5632872  0.060012019   -2.6892608    1.1259736   569361 
 2337000    1.0018353   -2.6894484   -2.6894484   -1.5631379  0.067592753   -2.6894484    1.1263105   569361 
 2338000    1.0021236   -2.6900754   -2.6900754   -1.5634408  0.063849565   -2.6900754    1.1266346   569361 
 2339000    1.0019225   -2.6902136   -2.6902136   -1.5638051  0.072734385   -2.6902136    1.1264085   569361 
 2340000    1.0024425    -2.690854    -2.690854   -1.5638609  0.067023108    -2.690854    1.1269932   569361 
 2341000    1.0029136   -2.6918761   -2.6918761   -1.5643533  0.064956817   -2.6918761    1.1275228   569361 
 2342000    1.0015811   -2.6904064   -2.6904064   -1.5643817  0.063182765   -2.6904064    1.1260247   569361 
 2343000    1.0017113   -2.6914418   -2.6914418   -1.5652707  0.060020675   -2.6914418    1.1261711   569361 
 2344000    1.0019149   -2.6918749   -2.6918749   -1.5654749  0.054757317   -2.6918749       1.1264   569361 
 2345000    1.0023149   -2.6922016   -2.6922016   -1.5653519  0.058806948   -2.6922016    1.1268497   569361 
 2346000    1.0019131   -2.6914366   -2.6914366   -1.5650386  0.063034485   -2.6914366     1.126398   569361 
 2347000    1.0017717    -2.691219    -2.691219     -1.56498  0.064006873    -2.691219     1.126239   569361 
 2348000   0.99971143    -2.689963    -2.689963   -1.5660402  0.068911687    -2.689963    1.1239228   569361 
 2349000    1.0007075   -2.6909098   -2.6909098   -1.5658673  0.060446328   -2.6909098    1.1250425   569361 
 2350000    1.0017051   -2.6909125   -2.6909125   -1.5647484  0.063784188   -2.6909125    1.1261642   569361 
 2351000    1.0028849    -2.691844    -2.691844   -1.5643534  0.056884643    -2.691844    1.1274905   569361 
 2352000    1.0013477   -2.6900776   -2.6900776   -1.5643153  0.062912813   -2.6900776    1.1257623   569361 
 2353000    1.0026246   -2.6909126   -2.6909126   -1.5637147  0.066537365   -2.6909126    1.1271978   569361 
 2354000    1.0030003   -2.6910291   -2.6910291   -1.5634088  0.069717455   -2.6910291    1.1276203   569361 
 2355000     1.003662   -2.6913878   -2.6913878   -1.5630236  0.070730198   -2.6913878    1.1283642   569361 
 2356000    1.0050128   -2.6922967   -2.6922967   -1.5624138  0.066307359   -2.6922967    1.1298829   569361 
 2357000    1.0064695   -2.6937072   -2.6937072   -1.5621867  0.069124759   -2.6937072    1.1315205   569361 
 2358000    1.0055275   -2.6928011   -2.6928011   -1.5623396  0.063965893   -2.6928011    1.1304615   569361 
 2359000    1.0045578   -2.6919354   -2.6919354   -1.5625642  0.064620513   -2.6919354    1.1293712   569361 
 2360000    1.0038539   -2.6912377   -2.6912377   -1.5626578  0.064630665   -2.6912377    1.1285799   569361 
 2361000    1.0016958   -2.6891659   -2.6891659   -1.5630123   0.07589674   -2.6891659    1.1261536   569361 
 2362000    1.0028297   -2.6903276   -2.6903276   -1.5628991  0.069033616   -2.6903276    1.1274284   569361 
 2363000    1.0022932   -2.6893555   -2.6893555   -1.5625301  0.067168472   -2.6893555    1.1268254   569361 
 2364000    1.0029288   -2.6905939   -2.6905939    -1.563054  0.059897753   -2.6905939    1.1275399   569361 
 2365000    1.0016357   -2.6885995   -2.6885995   -1.5625134  0.057170336   -2.6885995    1.1260861   569361 
 2366000    1.0025592   -2.6894737   -2.6894737   -1.5623493  0.059747527   -2.6894737    1.1271244   569361 
 2367000     1.000527   -2.6873472   -2.6873472   -1.5625075  0.064229435   -2.6873472    1.1248397   569361 
 2368000    1.0019828   -2.6889655   -2.6889655   -1.5624891  0.054411201   -2.6889655    1.1264764   569361 
 2369000    1.0029617   -2.6903441   -2.6903441   -1.5627673  0.054689676   -2.6903441    1.1275769   569361 
 2370000    1.0035558   -2.6896481   -2.6896481   -1.5614033  0.067392332   -2.6896481    1.1282448   569361 
 2371000    1.0033873   -2.6896555   -2.6896555   -1.5616001  0.055321326   -2.6896555    1.1280553   569361 
 2372000    1.0023962   -2.6890536   -2.6890536   -1.5621125  0.067630431   -2.6890536    1.1269411   569361 
 2373000    1.0026473   -2.6890516   -2.6890516   -1.5618282  0.069960086   -2.6890516    1.1272234   569361 
 2374000    1.0025128   -2.6882525   -2.6882525   -1.5611804  0.063639144   -2.6882525    1.1270722   569361 
 2375000    1.0032047   -2.6885115   -2.6885115   -1.5606615  0.063588008   -2.6885115      1.12785   569361 
 2376000    1.0036584   -2.6882356   -2.6882356   -1.5598755  0.066620985   -2.6882356    1.1283601   569361 
 2377000    1.0015113   -2.6872837   -2.6872837   -1.5613374  0.058837119   -2.6872837    1.1259463   569361 
 2378000    1.0018931   -2.6870603   -2.6870603   -1.5606848  0.062761531   -2.6870603    1.1263755   569361 
 2379000    1.0013466   -2.6869616   -2.6869616   -1.5612005  0.069878489   -2.6869616    1.1257611   569361 
 2380000    1.0020207   -2.6872823   -2.6872823   -1.5607633  0.050331431   -2.6872823     1.126519   569361 
 2381000    1.0024486   -2.6877749   -2.6877749   -1.5607748  0.049967314   -2.6877749        1.127   569361 
 2382000    1.0003899   -2.6860522   -2.6860522   -1.5613666  0.058867456   -2.6860522    1.1246856   569361 
 2383000    1.0011711    -2.687582    -2.687582   -1.5620183  0.059436157    -2.687582    1.1255638   569361 
 2384000      1.00131   -2.6881052   -2.6881052   -1.5623852   0.06490404   -2.6881052    1.1257199   569361 
 2385000    1.0010927   -2.6881133   -2.6881133   -1.5626377  0.062478266   -2.6881133    1.1254757   569361 
 2386000    1.0008751   -2.6865932   -2.6865932   -1.5613622  0.067228733   -2.6865932     1.125231   569361 
 2387000    1.0015481   -2.6876584   -2.6876584   -1.5616708  0.057397447   -2.6876584    1.1259876   569361 
 2388000    1.0014626   -2.6883963   -2.6883963   -1.5625048  0.058145953   -2.6883963    1.1258916   569361 
 2389000     1.001836   -2.6888313   -2.6888313     -1.56252  0.060956019   -2.6888313    1.1263113   569361 
 2390000    1.0018059    -2.689316    -2.689316   -1.5630385  0.065126705    -2.689316    1.1262775   569361 
 2391000    1.0025977   -2.6897883   -2.6897883   -1.5626207   0.07205976   -2.6897883    1.1271676   569361 
 2392000    1.0026216   -2.6900677   -2.6900677   -1.5628731  0.067329977   -2.6900677    1.1271946   569361 
 2393000    1.0019248   -2.6893422   -2.6893422   -1.5629311  0.065127943   -2.6893422    1.1264111   569361 
 2394000    1.0031629   -2.6902295   -2.6902295   -1.5624264  0.061038645   -2.6902295    1.1278031   569361 
 2395000     1.001979   -2.6890781   -2.6890781    -1.562606  0.069681268   -2.6890781    1.1264721   569361 
 2396000    1.0023274   -2.6896207   -2.6896207   -1.5627569  0.073642108   -2.6896207    1.1268638   569361 
 2397000    1.0029575   -2.6901398   -2.6901398   -1.5625677  0.071854492   -2.6901398    1.1275722   569361 
 2398000    1.0035672   -2.6915937   -2.6915937   -1.5633361  0.070208909   -2.6915937    1.1282576   569361 
 2399000    1.0024489   -2.6899067   -2.6899067   -1.5629063  0.071048176   -2.6899067    1.1270004   569361 
 2400000    1.0041602   -2.6912799   -2.6912799   -1.5623556  0.057375946   -2.6912799    1.1289243   569361 
 2401000    1.0034739   -2.6909974   -2.6909974   -1.5628447  0.066357649   -2.6909974    1.1281527   569361 
 2402000    1.0017436   -2.6901704   -2.6901704   -1.5639631  0.067346206   -2.6901704    1.1262074   569361 
 2403000    1.0033667   -2.6919997   -2.6919997   -1.5639675  0.069038011   -2.6919997    1.1280322   569361 
 2404000    1.0051484   -2.6944265   -2.6944265   -1.5643913  0.065619264   -2.6944265    1.1300352   569361 
 2405000    1.0020399   -2.6916393   -2.6916393   -1.5650987  0.065637749   -2.6916393    1.1265405   569361 
 2406000    1.0022619   -2.6912381   -2.6912381   -1.5644479  0.069403916   -2.6912381    1.1267901   569361 
 2407000    1.0022063   -2.6908306   -2.6908306   -1.5641029  0.063523001   -2.6908306    1.1267277   569361 
 2408000    1.0032581   -2.6911205   -2.6911205   -1.5632104  0.055174436   -2.6911205    1.1279101   569361 
 2409000    1.0032099   -2.6907358   -2.6907358     -1.56288    0.0699896   -2.6907358    1.1278559   569361 
 2410000    1.0029691    -2.690525    -2.690525   -1.5629398  0.067781846    -2.690525    1.1275852   569361 
 2411000    1.0023042   -2.6902088   -2.6902088   -1.5633711  0.061902982   -2.6902088    1.1268377   569361 
 2412000    1.0023647   -2.6890969   -2.6890969   -1.5621913   0.07096334   -2.6890969    1.1269057   569361 
 2413000    1.0018234   -2.6890194   -2.6890194   -1.5627223  0.061757618   -2.6890194    1.1262971   569361 
 2414000     1.002738   -2.6902598   -2.6902598   -1.5629344  0.068680725   -2.6902598    1.1273254   569361 
 2415000    1.0023017   -2.6899151   -2.6899151   -1.5630803  0.072474047   -2.6899151    1.1268348   569361 
 2416000     1.002367   -2.6898728   -2.6898728   -1.5629646  0.069243851   -2.6898728    1.1269082   569361 
 2417000    1.0018751   -2.6893773   -2.6893773    -1.563022  0.058555436   -2.6893773    1.1263553   569361 
 2418000    1.0014724   -2.6892833   -2.6892833   -1.5633808  0.060776213   -2.6892833    1.1259025   569361 
 2419000     1.002842   -2.6916576   -2.6916576   -1.5642153  0.064829774   -2.6916576    1.1274423   569361 
 2420000     1.002009   -2.6907801   -2.6907801   -1.5642743  0.062499729   -2.6907801    1.1265058   569361 
 2421000    1.0017478   -2.6893279   -2.6893279   -1.5631158   0.05981865   -2.6893279    1.1262121   569361 
 2422000    1.0025028   -2.6901623   -2.6901623   -1.5631014  0.055418322   -2.6901623    1.1270609   569361 
 2423000     1.001258   -2.6873414   -2.6873414   -1.5616799  0.066920803   -2.6873414    1.1256615   569361 
 2424000    1.0010108   -2.6885446   -2.6885446    -1.563161  0.075691632   -2.6885446    1.1253836   569361 
 2425000    1.0013955   -2.6886262   -2.6886262   -1.5628101  0.072168566   -2.6886262     1.125816   569361 
 2426000    1.0020672   -2.6895212   -2.6895212   -1.5629499  0.066712873   -2.6895212    1.1265713   569361 
 2427000    1.0016949   -2.6894717   -2.6894717   -1.5633191  0.063841235   -2.6894717    1.1261526   569361 
 2428000    1.0029831   -2.6919951   -2.6919951   -1.5643942  0.063693685   -2.6919951    1.1276009   569361 
 2429000    1.0013509   -2.6915101   -2.6915101   -1.5657442  0.074422159   -2.6915101    1.1257659   569361 
 2430000    1.0023535   -2.6927151   -2.6927151    -1.565822  0.068048312   -2.6927151    1.1268931   569361 
 2431000    1.0014429   -2.6910942   -2.6910942   -1.5652249  0.067466384   -2.6910942    1.1258693   569361 
 2432000    1.0019808   -2.6923661   -2.6923661    -1.565892  0.076815389   -2.6923661    1.1264741   569361 
 2433000    1.0023362   -2.6923063   -2.6923063   -1.5654327  0.062252093   -2.6923063    1.1268736   569361 
 2434000    1.0004593    -2.691413    -2.691413   -1.5666495  0.066217664    -2.691413    1.1247635   569361 
 2435000    1.0019683   -2.6922495   -2.6922495   -1.5657895  0.059758683   -2.6922495      1.12646   569361 
 2436000    1.0005836   -2.6916682   -2.6916682    -1.566765   0.06956453   -2.6916682    1.1249033   569361 
 2437000    1.0015854   -2.6921286   -2.6921286   -1.5660991  0.069346566   -2.6921286    1.1260295   569361 
 2438000    1.0020355   -2.6920205   -2.6920205   -1.5654849  0.061916942   -2.6920205    1.1265356   569361 
 2439000    1.0024511   -2.6930559   -2.6930559    -1.566053   0.06401977   -2.6930559    1.1270028   569361 
 2440000    1.0015029   -2.6913543   -2.6913543   -1.5654175  0.063205456   -2.6913543    1.1259368   569361 
 2441000     1.003115   -2.6927496   -2.6927496   -1.5650004  0.073631877   -2.6927496    1.1277492   569361 
 2442000    1.0035026   -2.6931918   -2.6931918   -1.5650068  0.071517366   -2.6931918    1.1281849   569361 
 2443000    1.0037794   -2.6933877   -2.6933877   -1.5648916  0.070696717   -2.6933877    1.1284961   569361 
 2444000    1.0036477   -2.6937419   -2.6937419   -1.5653939  0.063921888   -2.6937419    1.1283481   569361 
 2445000    1.0046143   -2.6942411   -2.6942411   -1.5648064  0.074752753   -2.6942411    1.1294347   569361 
 2446000    1.0029709   -2.6927655   -2.6927655   -1.5651782  0.060606947   -2.6927655    1.1275873   569361 
 2447000     1.004509    -2.694917    -2.694917   -1.5656007  0.065662874    -2.694917    1.1293164   569361 
 2448000    1.0030109   -2.6928805   -2.6928805   -1.5652484  0.076003481   -2.6928805    1.1276321   569361 
 2449000    1.0031507   -2.6937339   -2.6937339   -1.5659445  0.064608228   -2.6937339    1.1277894   569361 
 2450000    1.0039607   -2.6941759   -2.6941759   -1.5654759  0.067504389   -2.6941759    1.1286999   569361 
 2451000    1.0033229   -2.6938903   -2.6938903   -1.5659074   0.06906128   -2.6938903    1.1279829   569361 
 2452000    1.0011852    -2.692581    -2.692581   -1.5670014  0.071503225    -2.692581    1.1255797   569361 
 2453000     1.001688   -2.6928407   -2.6928407   -1.5666959     0.077797   -2.6928407    1.1261449   569361 
 2454000    0.9999632   -2.6902075   -2.6902075   -1.5660017  0.072913049   -2.6902075    1.1242058   569361 
 2455000    1.0023702   -2.6926158   -2.6926158    -1.565704  0.069284693   -2.6926158    1.1269118   569361 
 2456000    1.0017007    -2.691449    -2.691449   -1.5652898  0.067558528    -2.691449    1.1261592   569361 
 2457000    1.0021236   -2.6917096   -2.6917096   -1.5650749  0.062297196   -2.6917096    1.1266347   569361 
 2458000    1.0020841   -2.6917674   -2.6917674   -1.5651771  0.065367987   -2.6917674    1.1265903   569361 
 2459000    1.0012735   -2.6906258   -2.6906258   -1.5649469  0.067844854   -2.6906258    1.1256789   569361 
 2460000    1.0021367     -2.69142     -2.69142   -1.5647707  0.065405763     -2.69142    1.1266494   569361 
 2461000    1.0016965   -2.6898746   -2.6898746   -1.5637201  0.074012129   -2.6898746    1.1261544   569361 
 2462000    1.0014716   -2.6901277   -2.6901277    -1.564226  0.057599543   -2.6901277    1.1259016   569361 
 2463000    1.0011581    -2.689145    -2.689145   -1.5635959  0.065577762    -2.689145    1.1255491   569361 
 2464000    1.0007572   -2.6892996   -2.6892996   -1.5642011  0.071512598   -2.6892996    1.1250985   569361 
 2465000    1.0012019   -2.6890477   -2.6890477   -1.5634493  0.067389739   -2.6890477    1.1255984   569361 
 2466000    1.0018868   -2.6891251   -2.6891251   -1.5627567  0.075479716   -2.6891251    1.1263684   569361 
 2467000    1.0014379   -2.6887318   -2.6887318   -1.5628681  0.064304924   -2.6887318    1.1258637   569361 
 2468000    1.0021956   -2.6889166   -2.6889166    -1.562201  0.056618153   -2.6889166    1.1267156   569361 
 2469000    1.0013624   -2.6887102   -2.6887102   -1.5629314  0.048375854   -2.6887102    1.1257788   569361 
 2470000    1.0014727   -2.6888627   -2.6888627   -1.5629599  0.071685006   -2.6888627    1.1259029   569361 
 2471000    1.0024255   -2.6895408   -2.6895408   -1.5625668  0.069707808   -2.6895408     1.126974   569361 
 2472000    1.0024995   -2.6902324   -2.6902324   -1.5631751  0.059235267   -2.6902324    1.1270573   569361 
 2473000     1.002061   -2.6889548   -2.6889548   -1.5623906  0.063187744   -2.6889548    1.1265642   569361 
 2474000    1.0023052   -2.6890709   -2.6890709   -1.5622322  0.063355496   -2.6890709    1.1268387   569361 
 2475000    1.0029655   -2.6891444   -2.6891444   -1.5615633  0.066467357   -2.6891444    1.1275811   569361 
 2476000    1.0029001   -2.6899237   -2.6899237    -1.562416   0.05789224   -2.6899237    1.1275076   569361 
 2477000    1.0030663    -2.690226    -2.690226   -1.5625315  0.063998108    -2.690226    1.1276945   569361 
 2478000    1.0018798   -2.6893406   -2.6893406     -1.56298  0.076691977   -2.6893406    1.1263606   569361 
 2479000    1.0030791   -2.6897894   -2.6897894   -1.5620806  0.066631654   -2.6897894    1.1277088   569361 
 2480000    1.0033673     -2.68987     -2.68987   -1.5618372  0.067044334     -2.68987    1.1280329   569361 
 2481000     1.003955      -2.6908      -2.6908   -1.5621064  0.072166711      -2.6908    1.1286936   569361 
 2482000    1.0047307   -2.6914589   -2.6914589   -1.5618933  0.070134107   -2.6914589    1.1295657   569361 
 2483000       1.0049   -2.6925129   -2.6925129   -1.5627569  0.066322173   -2.6925129     1.129756   569361 
 2484000    1.0042138   -2.6916737   -2.6916737   -1.5626891  0.069930623   -2.6916737    1.1289846   569361 
 2485000    1.0042003   -2.6922379   -2.6922379   -1.5632685  0.069836912   -2.6922379    1.1289694   569361 
 2486000    1.0030802   -2.6911631   -2.6911631    -1.563453  0.067447197   -2.6911631    1.1277101   569361 
 2487000    1.0038914   -2.6917667   -2.6917667   -1.5631446  0.073513249   -2.6917667    1.1286221   569361 
 2488000    1.0028573   -2.6902712   -2.6902712   -1.5628117  0.072603905   -2.6902712    1.1274594   569361 
 2489000    1.0031317   -2.6909693   -2.6909693   -1.5632013  0.064579025   -2.6909693     1.127768   569361 
 2490000    1.0022211   -2.6899509   -2.6899509   -1.5632066  0.067660323   -2.6899509    1.1267442   569361 
 2491000    1.0018829   -2.6895419   -2.6895419   -1.5631779  0.073571381   -2.6895419     1.126364   569361 
 2492000    1.0038854   -2.6916292   -2.6916292   -1.5630139  0.070199428   -2.6916292    1.1286153   569361 
 2493000    1.0025191   -2.6901889   -2.6901889   -1.5631097  0.056112062   -2.6901889    1.1270792   569361 
 2494000    1.0018562   -2.6889334   -2.6889334   -1.5625994  0.062449771   -2.6889334     1.126334   569361 
 2495000    1.0033309   -2.6900164   -2.6900164   -1.5620245  0.062911329   -2.6900164    1.1279919   569361 
 2496000    1.0029791   -2.6893088   -2.6893088   -1.5617124  0.066779969   -2.6893088    1.1275964   569361 
 2497000     1.002346   -2.6899167   -2.6899167   -1.5630321  0.069783661   -2.6899167    1.1268847   569361 
 2498000    1.0039526   -2.6910099   -2.6910099   -1.5623191  0.056284443   -2.6910099    1.1286909   569361 
 2499000    1.0025513   -2.6895881   -2.6895881   -1.5624726  0.068854478   -2.6895881    1.1271154   569361 
 2500000    1.0032356    -2.690536    -2.690536   -1.5626512  0.067622403    -2.690536    1.1278849   569361 
 2501000    1.0026055   -2.6896809   -2.6896809   -1.5625045  0.072507574   -2.6896809    1.1271764   569361 
 2502000    1.0009753   -2.6873086   -2.6873086   -1.5619649  0.068047265   -2.6873086    1.1253437   569361 
 2503000     1.002631   -2.6896042   -2.6896042   -1.5623991  0.063102096   -2.6896042     1.127205   569361 
 2504000    1.0036222   -2.6907057   -2.6907057   -1.5623862  0.057273026   -2.6907057    1.1283194   569361 
 2505000    1.0034093   -2.6894448   -2.6894448   -1.5613648  0.074803857   -2.6894448    1.1280801   569361 
 2506000    1.0030834   -2.6894052   -2.6894052   -1.5616915  0.070908244   -2.6894052    1.1277136   569361 
 2507000    1.0047857   -2.6903414   -2.6903414   -1.5607139  0.071052086   -2.6903414    1.1296275   569361 
 2508000    1.0020445   -2.6883529   -2.6883529   -1.5618072  0.061259849   -2.6883529    1.1265457   569361 
 2509000    1.0023846   -2.6887293   -2.6887293   -1.5618012  0.075086794   -2.6887293    1.1269281   569361 
 2510000    1.0046984   -2.6909877   -2.6909877   -1.5614584  0.060214473   -2.6909877    1.1295293   569361 
 2511000    1.0037238   -2.6899502   -2.6899502   -1.5615165  0.058248634   -2.6899502    1.1284337   569361 
 2512000    1.0039743   -2.6893017   -2.6893017   -1.5605865  0.070962288   -2.6893017    1.1287152   569361 
 2513000    1.0035021   -2.6888363   -2.6888363   -1.5606519  0.054812014   -2.6888363    1.1281844   569361 
 2514000    1.0041498    -2.690018    -2.690018   -1.5611054  0.061764785    -2.690018    1.1289126   569361 
 2515000    1.0014181   -2.6872392   -2.6872392   -1.5613978  0.062968319   -2.6872392    1.1258415   569361 
 2516000    1.0034472   -2.6900059   -2.6900059   -1.5618833  0.058984905   -2.6900059    1.1281227   569361 
 2517000    1.0034509   -2.6885246   -2.6885246   -1.5603977  0.073969151   -2.6885246    1.1281269   569361 
 2518000    1.0043977   -2.6892124   -2.6892124   -1.5600212  0.069627803   -2.6892124    1.1291912   569361 
 2519000    1.0055976   -2.6905782   -2.6905782    -1.560038  0.069361719   -2.6905782    1.1305403   569361 
 2520000    1.0033149   -2.6893879   -2.6893879    -1.561414  0.076321305   -2.6893879    1.1279739   569361 
 2521000     1.003541   -2.6894063   -2.6894063   -1.5611781  0.061066755   -2.6894063    1.1282282   569361 
 2522000    1.0048628   -2.6910533   -2.6910533   -1.5613391  0.063686215   -2.6910533    1.1297142   569361 
 2523000    1.0021292   -2.6891528   -2.6891528   -1.5625119  0.064893404   -2.6891528    1.1266409   569361 
 2524000    1.0029956   -2.6895754   -2.6895754   -1.5619604   0.06490115   -2.6895754    1.1276149   569361 
 2525000    1.0012959   -2.6884393   -2.6884393   -1.5627352  0.066385961   -2.6884393    1.1257041   569361 
 2526000    1.0026482   -2.6892043   -2.6892043   -1.5619799  0.061458457   -2.6892043    1.1272244   569361 
 2527000    1.0036325   -2.6904824   -2.6904824   -1.5621514  0.065193519   -2.6904824     1.128331   569361 
 2528000    1.0021818   -2.6891152   -2.6891152   -1.5624151  0.069510045   -2.6891152    1.1267001   569361 
 2529000    1.0034734   -2.6907779   -2.6907779   -1.5626258  0.063949638   -2.6907779    1.1281521   569361 
 2530000    1.0029755   -2.6901605   -2.6901605   -1.5625682  0.075421031   -2.6901605    1.1275924   569361 
 2531000    1.0039242   -2.6916351   -2.6916351   -1.5629761   0.06485471   -2.6916351     1.128659   569361 
 2532000    1.0042221   -2.6925128   -2.6925128   -1.5635189  0.063932179   -2.6925128    1.1289939   569361 
 2533000    1.0046026   -2.6926509   -2.6926509   -1.5632292  0.064456916   -2.6926509    1.1294217   569361 
 2534000    1.0035543   -2.6914948   -2.6914948   -1.5632517  0.057664208   -2.6914948    1.1282431   569361 
 2535000    1.0037492   -2.6913949   -2.6913949   -1.5629327  0.070551175   -2.6913949    1.1284622   569361 
 2536000    1.0032989   -2.6906814   -2.6906814   -1.5627255  0.076547711   -2.6906814    1.1279559   569361 
 2537000    1.0036741   -2.6902841   -2.6902841   -1.5619063  0.061943907   -2.6902841    1.1283778   569361 
 2538000    1.0031246   -2.6910597   -2.6910597   -1.5632997  0.069441073   -2.6910597      1.12776   569361 
 2539000     1.003601   -2.6920736   -2.6920736    -1.563778  0.058283778   -2.6920736    1.1282956   569361 
 2540000    1.0020682   -2.6893752   -2.6893752   -1.5628029  0.071979639   -2.6893752    1.1265723   569361 
 2541000    1.0026965   -2.6900716   -2.6900716   -1.5627928  0.076266978   -2.6900716    1.1272787   569361 
 2542000    1.0046375   -2.6921546   -2.6921546   -1.5626937  0.057185753   -2.6921546    1.1294609   569361 
 2543000    1.0036303   -2.6911651   -2.6911651   -1.5628365   0.06764277   -2.6911651    1.1283286   569361 
 2544000    1.0041104   -2.6922188   -2.6922188   -1.5633506   0.06955795   -2.6922188    1.1288683   569361 
 2545000    1.0026518   -2.6898661   -2.6898661   -1.5626376  0.075074159   -2.6898661    1.1272285   569361 
 2546000     1.003125   -2.6907845   -2.6907845    -1.563024  0.064310435   -2.6907845    1.1277604   569361 
 2547000    1.0029073   -2.6907086   -2.6907086   -1.5631929  0.062641438   -2.6907086    1.1275157   569361 
 2548000    1.0027345   -2.6906654   -2.6906654   -1.5633439  0.072845297   -2.6906654    1.1273215   569361 
 2549000    1.0031559   -2.6907704   -2.6907704   -1.5629752   0.05103024   -2.6907704    1.1277952   569361 
 2550000    1.0031952   -2.6912683   -2.6912683   -1.5634289  0.064387553   -2.6912683    1.1278394   569361 
 2551000    1.0021529   -2.6911469   -2.6911469   -1.5644793  0.067689136   -2.6911469    1.1266675   569361 
 2552000    1.0031877   -2.6920785   -2.6920785   -1.5642476  0.056081738   -2.6920785    1.1278309   569361 
 2553000    1.0009022   -2.6891071   -2.6891071   -1.5638456  0.062896225   -2.6891071    1.1252615   569361 
 2554000    1.0017118   -2.6901283   -2.6901283   -1.5639567  0.062548557   -2.6901283    1.1261716   569361 
 2555000    1.0014825   -2.6895783   -2.6895783   -1.5636643    0.0535173   -2.6895783    1.1259139   569361 
 2556000    1.0022655   -2.6899411   -2.6899411   -1.5631469  0.065335079   -2.6899411    1.1267942   569361 
 2557000    1.0022252   -2.6893112   -2.6893112   -1.5625623  0.065220157   -2.6893112    1.1267489   569361 
 2558000    1.0039743   -2.6907379   -2.6907379   -1.5620225  0.068703867   -2.6907379    1.1287153   569361 
 2559000    1.0043084   -2.6914271   -2.6914271   -1.5623362  0.065409457   -2.6914271    1.1290909   569361 
 2560000    1.0023919   -2.6891357   -2.6891357   -1.5621994  0.073107233   -2.6891357    1.1269363   569361 
 2561000    1.0039881   -2.6913505   -2.6913505   -1.5626198  0.067033121   -2.6913505    1.1287308   569361 
 2562000     1.003345    -2.690047    -2.690047   -1.5620391   0.06453056    -2.690047    1.1280078   569361 
 2563000    1.0050071   -2.6913815   -2.6913815    -1.561505  0.057443632   -2.6913815    1.1298764   569361 
 2564000    1.0024292   -2.6899636   -2.6899636   -1.5629854  0.071367677   -2.6899636    1.1269782   569361 
 2565000    1.0029378   -2.6914256   -2.6914256   -1.5638756  0.066739853   -2.6914256      1.12755   569361 
 2566000    1.0036593   -2.6914281   -2.6914281    -1.563067  0.068641252   -2.6914281    1.1283611   569361 
 2567000    1.0031886   -2.6905193   -2.6905193   -1.5626874  0.073530857   -2.6905193    1.1278319   569361 
 2568000    1.0033047   -2.6912174   -2.6912174   -1.5632549  0.063846084   -2.6912174    1.1279625   569361 
 2569000    1.0030977   -2.6913344   -2.6913344   -1.5636046  0.060329755   -2.6913344    1.1277298   569361 
 2570000     1.003184   -2.6910472   -2.6910472   -1.5632205  0.067019386   -2.6910472    1.1278268   569361 
 2571000    1.0025558   -2.6898412   -2.6898412   -1.5627206  0.072699978   -2.6898412    1.1271206   569361 
 2572000    1.0012422   -2.6895127   -2.6895127    -1.563869  0.065317598   -2.6895127    1.1256437   569361 
 2573000    1.0018726   -2.6913903   -2.6913903   -1.5650379  0.060438772   -2.6913903    1.1263525   569361 
 2574000    1.0017442   -2.6910611   -2.6910611    -1.564853  0.049650754   -2.6910611    1.1262081   569361 
 2575000    1.0035109    -2.692417    -2.692417   -1.5642228  0.062256425    -2.692417    1.1281943   569361 
 2576000    1.0035937   -2.6913133   -2.6913133    -1.563026  0.065689155   -2.6913133    1.1282873   569361 
 2577000    1.0048607   -2.6922604   -2.6922604   -1.5625486  0.071588291   -2.6922604    1.1297118   569361 
 2578000    1.0043935   -2.6928915   -2.6928915   -1.5637049  0.076851287   -2.6928915    1.1291866   569361 
 2579000    1.0044223    -2.693342    -2.693342   -1.5641231  0.062411261    -2.693342    1.1292189   569361 
 2580000    1.0033975   -2.6921778   -2.6921778    -1.564111  0.067617207   -2.6921778    1.1280668   569361 
 2581000    1.0027976   -2.6923196   -2.6923196   -1.5649272   0.06807284   -2.6923196    1.1273923   569361 
 2582000    1.0035201   -2.6920444   -2.6920444   -1.5638397   0.05961113   -2.6920444    1.1282047   569361 
 2583000    1.0023354    -2.691782    -2.691782   -1.5649093  0.059955589    -2.691782    1.1268727   569361 
 2584000    1.0025434    -2.692013    -2.692013   -1.5649064  0.068029311    -2.692013    1.1271065   569361 
 2585000    1.0023817   -2.6910446   -2.6910446   -1.5641198  0.066568261   -2.6910446    1.1269248   569361 
 2586000    1.0040196   -2.6922748   -2.6922748   -1.5635086   0.06626163   -2.6922748    1.1287662   569361 
 2587000    1.0022345   -2.6920098   -2.6920098   -1.5652505  0.067390621   -2.6920098    1.1267594   569361 
 2588000    1.0010766   -2.6904669   -2.6904669   -1.5650093  0.069597895   -2.6904669    1.1254575   569361 
 2589000     1.001395   -2.6904879   -2.6904879   -1.5646724  0.062100265   -2.6904879    1.1258155   569361 
 2590000    1.0037976   -2.6932472   -2.6932472   -1.5647306  0.063861184   -2.6932472    1.1285166   569361 
 2591000    1.0028518    -2.691346    -2.691346   -1.5638927  0.067658972    -2.691346    1.1274533   569361 
 2592000    1.0035365   -2.6914137   -2.6914137   -1.5631906   0.06321505   -2.6914137    1.1282231   569361 
 2593000    1.0014394   -2.6882554   -2.6882554     -1.56239  0.069228565   -2.6882554    1.1258654   569361 
 2594000    1.0026281   -2.6905517   -2.6905517   -1.5633498  0.075538069   -2.6905517    1.1272019   569361 
 2595000    1.0029611    -2.691001    -2.691001   -1.5634248  0.070256229    -2.691001    1.1275762   569361 
 2596000    1.0018701   -2.6893544   -2.6893544   -1.5630047  0.070097742   -2.6893544    1.1263497   569361 
 2597000    1.0024024   -2.6901031   -2.6901031    -1.563155  0.059991316   -2.6901031    1.1269481   569361 
 2598000    1.0025507   -2.6898649   -2.6898649   -1.5627502  0.062006792   -2.6898649    1.1271147   569361 
 2599000    1.0011638   -2.6889243   -2.6889243   -1.5633688  0.070997548   -2.6889243    1.1255555   569361 
 2600000    1.0017534   -2.6892137   -2.6892137   -1.5629952   0.06402516   -2.6892137    1.1262185   569361 
 2601000    1.0027864    -2.691197    -2.691197   -1.5638172  0.068731739    -2.691197    1.1273798   569361 
 2602000    1.0014107    -2.690029    -2.690029   -1.5641959  0.064514296    -2.690029    1.1258331   569361 
 2603000    1.0011937   -2.6893639   -2.6893639   -1.5637747   0.06621502   -2.6893639    1.1255892   569361 
 2604000    1.0013998   -2.6894793   -2.6894793   -1.5636585  0.075625304   -2.6894793    1.1258209   569361 
 2605000    1.0028835   -2.6906288   -2.6906288   -1.5631399  0.067881289   -2.6906288    1.1274889   569361 
 2606000    1.0016812   -2.6901964   -2.6901964   -1.5640591  0.065560717   -2.6901964    1.1261373   569361 
 2607000    1.0021215    -2.690473    -2.690473   -1.5638407  0.068665466    -2.690473    1.1266323   569361 
 2608000    1.0022178   -2.6906287   -2.6906287   -1.5638881  0.067687307   -2.6906287    1.1267406   569361 
 2609000    1.0025992    -2.691036    -2.691036   -1.5638666  0.061676409    -2.691036    1.1271694   569361 
 2610000    1.0033542   -2.6913302   -2.6913302   -1.5633121  0.061473632   -2.6913302    1.1280181   569361 
 2611000    1.0053401   -2.6936678   -2.6936678   -1.5634171  0.062276041   -2.6936678    1.1302507   569361 
 2612000     1.003865   -2.6912048   -2.6912048   -1.5626125  0.069634534   -2.6912048    1.1285924   569361 
 2613000    1.0048056   -2.6918508   -2.6918508    -1.562201  0.054872101   -2.6918508    1.1296498   569361 
 2614000    1.0034632   -2.6895288   -2.6895288   -1.5613881  0.072456467   -2.6895288    1.1281407   569361 
 2615000    1.0038172   -2.6902159   -2.6902159   -1.5616772  0.069297387   -2.6902159    1.1285386   569361 
 2616000    1.0016743    -2.688059    -2.688059   -1.5619296  0.073584065    -2.688059    1.1261295   569361 
 2617000    1.0013258   -2.6884414   -2.6884414   -1.5627036   0.06697152   -2.6884414    1.1257377   569361 
 2618000      1.00164   -2.6891185   -2.6891185   -1.5630276  0.069737617   -2.6891185    1.1260909   569361 
 2619000    1.0028565   -2.6907834   -2.6907834   -1.5633248  0.060275774   -2.6907834    1.1274586   569361 
 2620000    1.0003426   -2.6884739   -2.6884739   -1.5638416  0.057433582   -2.6884739    1.1246323   569361 
 2621000    1.0001351   -2.6889302   -2.6889302   -1.5645312  0.055911143   -2.6889302     1.124399   569361 
 2622000    1.0001676   -2.6886483   -2.6886483   -1.5642127  0.064704416   -2.6886483    1.1244356   569361 
 2623000    1.0017505   -2.6903036   -2.6903036   -1.5640884  0.051986476   -2.6903036    1.1262152   569361 
 2624000    1.0017682   -2.6902717   -2.6902717   -1.5640366  0.072777689   -2.6902717    1.1262351   569361 
 2625000    1.0020228   -2.6899574   -2.6899574   -1.5634361  0.065768782   -2.6899574    1.1265213   569361 
 2626000    1.0000984   -2.6880018   -2.6880018    -1.563644  0.071382838   -2.6880018    1.1243578   569361 
 2627000    1.0003643   -2.6878921   -2.6878921   -1.5632354  0.064324285   -2.6878921    1.1246567   569361 
 2628000    1.0023446   -2.6892024   -2.6892024   -1.5623193  0.069735482   -2.6892024    1.1268831   569361 
 2629000    1.0029077   -2.6901041   -2.6901041    -1.562588  0.063104024   -2.6901041    1.1275161   569361 
 2630000    1.0027767   -2.6898227   -2.6898227   -1.5624539  0.058516623   -2.6898227    1.1273688   569361 
 2631000     1.001332   -2.6890872   -2.6890872   -1.5633425  0.056714878   -2.6890872    1.1257447   569361 
 2632000    1.0018796   -2.6895349   -2.6895349   -1.5631746  0.062566738   -2.6895349    1.1263603   569361 
 2633000    1.0015597   -2.6899769   -2.6899769   -1.5639763  0.063419932   -2.6899769    1.1260006   569361 
 2634000    1.0022682   -2.6895895   -2.6895895   -1.5627923  0.061084107   -2.6895895    1.1267972   569361 
 2635000    1.0039234   -2.6914819   -2.6914819   -1.5628239  0.064062744   -2.6914819    1.1286581   569361 
 2636000    1.0030307    -2.689679    -2.689679   -1.5620246  0.059144747    -2.689679    1.1276544   569361 
 2637000    1.0036595   -2.6907115   -2.6907115   -1.5623501  0.066771104   -2.6907115    1.1283614   569361 
 2638000    1.0036495   -2.6904586   -2.6904586   -1.5621085  0.067036216   -2.6904586    1.1283501   569361 
 2639000    1.0025875    -2.689149    -2.689149   -1.5619928  0.061875766    -2.689149    1.1271561   569361 
 2640000    1.0042656   -2.6913175   -2.6913175   -1.5622747  0.067853242   -2.6913175    1.1290428   569361 
 2641000     1.003471   -2.6906705   -2.6906705    -1.562521  0.064372397   -2.6906705    1.1281494   569361 
 2642000    1.0022904   -2.6893686   -2.6893686   -1.5625465  0.061211106   -2.6893686    1.1268221   569361 
 2643000    1.0031612   -2.6905557   -2.6905557   -1.5627546  0.064649454   -2.6905557    1.1278011   569361 
 2644000    1.0041185   -2.6922178   -2.6922178   -1.5633404  0.058085708   -2.6922178    1.1288774   569361 
 2645000     1.001562   -2.6890898   -2.6890898   -1.5630866  0.065608556   -2.6890898    1.1260032   569361 
 2646000    1.0039345   -2.6909803   -2.6909803   -1.5623097   0.06323111   -2.6909803    1.1286706   569361 
 2647000    1.0023162   -2.6894697   -2.6894697   -1.5626185  0.059801526   -2.6894697    1.1268512   569361 
 2648000    1.0028406   -2.6903366   -2.6903366   -1.5628959  0.072554699   -2.6903366    1.1274407   569361 
 2649000     1.003402   -2.6903757   -2.6903757   -1.5623038  0.062728945   -2.6903757    1.1280719   569361 
 2650000    1.0038409   -2.6911142   -2.6911142   -1.5625489  0.059562637   -2.6911142    1.1285653   569361 
 2651000    1.0035034   -2.6903133   -2.6903133   -1.5621275  0.067798888   -2.6903133    1.1281858   569361 
 2652000    1.0056167   -2.6916745   -2.6916745   -1.5611128  0.060662702   -2.6916745    1.1305618   569361 
 2653000    1.0031375   -2.6900313   -2.6900313   -1.5622567  0.063265001   -2.6900313    1.1277745   569361 
 2654000    1.0047327   -2.6910712   -2.6910712   -1.5615033  0.072395965   -2.6910712    1.1295679   569361 
 2655000    1.0061313   -2.6920538   -2.6920538   -1.5609135  0.061401097   -2.6920538    1.1311403   569361 
 2656000    1.0041678   -2.6903947   -2.6903947   -1.5614618  0.057037272   -2.6903947    1.1289329   569361 
 2657000     1.005217   -2.6908136   -2.6908136   -1.5607013  0.062082198   -2.6908136    1.1301124   569361 
 2658000    1.0039359   -2.6904091   -2.6904091    -1.561737  0.068717008   -2.6904091    1.1286721   569361 
 2659000    1.0042571   -2.6897874   -2.6897874   -1.5607542  0.059281183   -2.6897874    1.1290332   569361 
 2660000    1.0032483   -2.6887735   -2.6887735   -1.5608744  0.069365146   -2.6887735    1.1278991   569361 
 2661000    1.0030699   -2.6880286   -2.6880286   -1.5603301  0.067384327   -2.6880286    1.1276985   569361 
 2662000    1.0012793    -2.686664    -2.686664   -1.5609785  0.074171023    -2.686664    1.1256855   569361 
 2663000    1.0050187   -2.6903408   -2.6903408   -1.5604514  0.059773587   -2.6903408    1.1298894   569361 
 2664000    1.0019364   -2.6871875   -2.6871875   -1.5607634    0.0742519   -2.6871875    1.1264241   569361 
 2665000    1.0019148   -2.6874635   -2.6874635   -1.5610636  0.057098951   -2.6874635    1.1263999   569361 
 2666000    1.0021354   -2.6875475   -2.6875475   -1.5608996  0.063940021   -2.6875475    1.1266479   569361 
 2667000    1.0034065   -2.6887245   -2.6887245   -1.5606476  0.072690083   -2.6887245    1.1280769   569361 
 2668000    1.0031367   -2.6875406   -2.6875406    -1.559767  0.060575833   -2.6875406    1.1277737   569361 
 2669000    1.0038602   -2.6885373   -2.6885373   -1.5599503  0.068469718   -2.6885373     1.128587   569361 
 2670000    1.0020307   -2.6865672   -2.6865672    -1.560037  0.064563754   -2.6865672    1.1265302   569361 
 2671000    1.0044314   -2.6893433   -2.6893433   -1.5601141  0.064804384   -2.6893433    1.1292292   569361 
 2672000    1.0027505   -2.6865219   -2.6865219   -1.5591824  0.071079571   -2.6865219    1.1273394   569361 
 2673000    1.0044804   -2.6876986   -2.6876986   -1.5584144   0.06308295   -2.6876986    1.1292842   569361 
 2674000     1.005017   -2.6889225   -2.6889225    -1.559035  0.062948448   -2.6889225    1.1298875   569361 
 2675000    1.0049761   -2.6879046   -2.6879046    -1.558063  0.073009904   -2.6879046    1.1298416   569361 
 2676000    1.0046669   -2.6881233   -2.6881233   -1.5586294  0.061939534   -2.6881233     1.129494   569361 
 2677000    1.0039035   -2.6872369   -2.6872369   -1.5586012  0.074802547   -2.6872369    1.1286357   569361 
 2678000    1.0031777   -2.6869107   -2.6869107    -1.559091  0.059529439   -2.6869107    1.1278197   569361 
 2679000    1.0047453   -2.6879371   -2.6879371    -1.558355  0.070788474   -2.6879371    1.1295821   569361 
 2680000    1.0027231   -2.6855579   -2.6855579   -1.5582493  0.059137124   -2.6855579    1.1273086   569361 
 2681000    1.0048932   -2.6892406   -2.6892406   -1.5594922  0.058443783   -2.6892406    1.1297483   569361 
 2682000     1.003695   -2.6872432   -2.6872432   -1.5588419  0.058265666   -2.6872432    1.1284012   569361 
 2683000    1.0030732   -2.6868157   -2.6868157   -1.5591134  0.068084572   -2.6868157    1.1277022   569361 
 2684000    1.0033126   -2.6866049   -2.6866049   -1.5586336  0.071330493   -2.6866049    1.1279713   569361 
 2685000    1.0032035   -2.6863468   -2.6863468   -1.5584982  0.076825726   -2.6863468    1.1278487   569361 
 2686000    1.0031403   -2.6860436   -2.6860436   -1.5582659  0.058733055   -2.6860436    1.1277777   569361 
 2687000    1.0022954   -2.6853063   -2.6853063   -1.5584785  0.077382217   -2.6853063    1.1268278   569361 
 2688000    1.0034577   -2.6865727   -2.6865727   -1.5584382  0.071304015   -2.6865727    1.1281345   569361 
 2689000     1.004618   -2.6879028   -2.6879028   -1.5584639   0.06870177   -2.6879028    1.1294389   569361 
 2690000    1.0061476    -2.689253    -2.689253   -1.5580944  0.069973772    -2.689253    1.1311586   569361 
 2691000    1.0057612   -2.6894079   -2.6894079   -1.5586837  0.066785995   -2.6894079    1.1307242   569361 
 2692000    1.0036768   -2.6868528   -2.6868528    -1.558472  0.068517604   -2.6868528    1.1283808   569361 
 2693000    1.0034695   -2.6876215   -2.6876215   -1.5594737  0.078903945   -2.6876215    1.1281478   569361 
 2694000    1.0052102   -2.6887507   -2.6887507    -1.558646  0.060146038   -2.6887507    1.1301047   569361 
 2695000    1.0034887   -2.6867107   -2.6867107   -1.5585413  0.063576804   -2.6867107    1.1281694   569361 
 2696000    1.0041726   -2.6881589   -2.6881589   -1.5592207  0.063852406   -2.6881589    1.1289382   569361 
 2697000    1.0050912   -2.6888705   -2.6888705   -1.5588996  0.063401337   -2.6888705    1.1299709   569361 
 2698000    1.0023728   -2.6861794   -2.6861794   -1.5592646  0.064816344   -2.6861794    1.1269148   569361 
 2699000    1.0028816   -2.6874825   -2.6874825   -1.5599957  0.075822348   -2.6874825    1.1274868   569361 
 2700000    1.0038597   -2.6877054   -2.6877054    -1.559119  0.067333199   -2.6877054    1.1285864   569361 
 2701000    1.0038064   -2.6887729   -2.6887729   -1.5602464  0.069001221   -2.6887729    1.1285265   569361 
 2702000    1.0043434   -2.6890333   -2.6890333    -1.559903  0.067958175   -2.6890333    1.1291302   569361 
 2703000    1.0036972   -2.6881847   -2.6881847    -1.559781  0.068411497   -2.6881847    1.1284037   569361 
 2704000    1.0036318   -2.6877287   -2.6877287   -1.5593986  0.072530809   -2.6877287    1.1283302   569361 
 2705000     1.003818   -2.6882331   -2.6882331   -1.5596936  0.068265502   -2.6882331    1.1285396   569361 
 2706000    1.0052581    -2.690023    -2.690023   -1.5598644  0.066722068    -2.690023    1.1301586   569361 
 2707000    1.0038711   -2.6886261   -2.6886261   -1.5600269  0.064854681   -2.6886261    1.1285993   569361 
 2708000    1.0030542   -2.6870587   -2.6870587   -1.5593778  0.071946409   -2.6870587    1.1276808   569361 
 2709000    1.0038095   -2.6886572   -2.6886572   -1.5601271    0.0644279   -2.6886572      1.12853   569361 
 2710000    1.0023641   -2.6867742   -2.6867742   -1.5598691  0.071943346   -2.6867742    1.1269051   569361 
 2711000    1.0026381   -2.6874144   -2.6874144   -1.5602013  0.067355607   -2.6874144     1.127213   569361 
 2712000    1.0032096   -2.6878506   -2.6878506    -1.559995  0.066064531   -2.6878506    1.1278555   569361 
 2713000    1.0019341   -2.6870713   -2.6870713   -1.5606498  0.065564761   -2.6870713    1.1264215   569361 
 2714000    1.0037162    -2.688142    -2.688142    -1.559717  0.059662212    -2.688142    1.1284251   569361 
 2715000    1.0037855   -2.6894855   -2.6894855   -1.5609825  0.063649842   -2.6894855     1.128503   569361 
 2716000    1.0022492   -2.6870333   -2.6870333   -1.5602575  0.070823681   -2.6870333    1.1267758   569361 
 2717000    1.0049246   -2.6902199   -2.6902199   -1.5604363  0.068091068   -2.6902199    1.1297836   569361 
 2718000    1.0038961   -2.6893508   -2.6893508   -1.5607234  0.059023573   -2.6893508    1.1286274   569361 
 2719000    1.0059698   -2.6906389   -2.6906389   -1.5596802  0.050412802   -2.6906389    1.1309587   569361 
 2720000    1.0051182   -2.6904691   -2.6904691   -1.5604677   0.06831122   -2.6904691    1.1300014   569361 
 2721000    1.0046647   -2.6888112   -2.6888112   -1.5593198  0.070219978   -2.6888112    1.1294915   569361 
 2722000     1.004578   -2.6886276   -2.6886276   -1.5592336  0.073855642   -2.6886276     1.129394   569361 
 2723000    1.0072544   -2.6914845   -2.6914845   -1.5590815  0.068765513   -2.6914845    1.1324029   569361 
 2724000    1.0050743   -2.6898189   -2.6898189   -1.5598669  0.063278931   -2.6898189     1.129952   569361 
 2725000     1.003889   -2.6883474   -2.6883474    -1.559728  0.062695535   -2.6883474    1.1286194   569361 
 2726000    1.0032661   -2.6872508   -2.6872508   -1.5593318  0.064707655   -2.6872508     1.127919   569361 
 2727000     1.003026   -2.6860911   -2.6860911    -1.558442  0.060764072   -2.6860911    1.1276492   569361 
 2728000    1.0047503   -2.6880527   -2.6880527    -1.558465  0.075121919   -2.6880527    1.1295877   569361 
 2729000    1.0036409   -2.6870468   -2.6870468   -1.5587063  0.062405681   -2.6870468    1.1283405   569361 
 2730000     1.004995   -2.6883741   -2.6883741   -1.5585113  0.067975717   -2.6883741    1.1298628   569361 
 2731000    1.0047805   -2.6879642   -2.6879642   -1.5583426  0.063465116   -2.6879642    1.1296216   569361 
 2732000    1.0019059   -2.6872422   -2.6872422   -1.5608523    0.0716823   -2.6872422    1.1263899   569361 
 2733000    1.0022528   -2.6876342   -2.6876342   -1.5608543  0.065954972   -2.6876342    1.1267799   569361 
 2734000    1.0039001   -2.6890766   -2.6890766   -1.5604447  0.065169645   -2.6890766    1.1286319   569361 
 2735000    1.0040317   -2.6893156   -2.6893156   -1.5605357  0.064744041   -2.6893156    1.1287798   569361 
 2736000    1.0030146   -2.6883588   -2.6883588   -1.5607224   0.05587725   -2.6883588    1.1276364   569361 
 2737000    1.0034757   -2.6897761   -2.6897761   -1.5616213  0.054597573   -2.6897761    1.1281548   569361 
 2738000    1.0012195   -2.6872569   -2.6872569   -1.5616388  0.063324997   -2.6872569    1.1256182   569361 
 2739000    1.0026629   -2.6889053   -2.6889053   -1.5616644  0.065437543   -2.6889053    1.1272409   569361 
 2740000    1.0034484   -2.6904453   -2.6904453   -1.5623212  0.060351897   -2.6904453     1.128124   569361 
 2741000    1.0009024   -2.6874983   -2.6874983   -1.5622366  0.074630589   -2.6874983    1.1252617   569361 
 2742000    1.0030494   -2.6898836   -2.6898836   -1.5622081   0.05607048   -2.6898836    1.1276755   569361 
 2743000    1.0016121   -2.6879018   -2.6879018   -1.5618422  0.064426744   -2.6879018    1.1260596   569361 
 2744000    1.0048768    -2.691143    -2.691143   -1.5614131  0.064644437    -2.691143    1.1297299   569361 
 2745000    1.0027382    -2.688814    -2.688814   -1.5614884  0.077717829    -2.688814    1.1273256   569361 
 2746000     1.003126    -2.689301    -2.689301   -1.5615394  0.066944075    -2.689301    1.1277615   569361 
 2747000    1.0050073   -2.6915454   -2.6915454   -1.5616688  0.060994259   -2.6915454    1.1298766   569361 
 2748000    1.0054356   -2.6924203   -2.6924203   -1.5620621  0.059890209   -2.6924203    1.1303581   569361 
 2749000    1.0043911   -2.6910282   -2.6910282   -1.5618443  0.067930667   -2.6910282    1.1291838   569361 
 2750000    1.0040483   -2.6918426   -2.6918426   -1.5630442  0.065511526   -2.6918426    1.1287984   569361 
 2751000     1.003572   -2.6909521   -2.6909521   -1.5626892  0.069323847   -2.6909521     1.128263   569361 
 2752000    1.0027805   -2.6906723   -2.6906723   -1.5632991  0.062958879   -2.6906723    1.1273732   569361 
 2753000    1.0030065   -2.6905859   -2.6905859   -1.5629586  0.068046546   -2.6905859    1.1276272   569361 
 2754000    1.0025376   -2.6899179   -2.6899179   -1.5628178  0.068682861   -2.6899179       1.1271   569361 
 2755000    1.0026575   -2.6902081   -2.6902081   -1.5629732  0.060566338   -2.6902081    1.1272348   569361 
 2756000    1.0035995   -2.6911162   -2.6911162   -1.5628222  0.067363412   -2.6911162     1.128294   569361 
 2757000    1.0035215   -2.6917295   -2.6917295   -1.5635233  0.066038703   -2.6917295    1.1282062   569361 
 2758000    1.0032651   -2.6909003   -2.6909003   -1.5629823  0.066525915   -2.6909003     1.127918   569361 
 2759000    1.0026683   -2.6896098   -2.6896098   -1.5623628  0.062743722   -2.6896098     1.127247   569361 
 2760000    1.0024085   -2.6897746   -2.6897746   -1.5628197  0.080955692   -2.6897746    1.1269549   569361 
 2761000     1.003398   -2.6899993   -2.6899993   -1.5619319  0.070853633   -2.6899993    1.1280674   569361 
 2762000    1.0033439   -2.6899493   -2.6899493   -1.5619428  0.067275119   -2.6899493    1.1280065   569361 
 2763000    1.0032248   -2.6909333   -2.6909333   -1.5630606  0.074637302   -2.6909333    1.1278727   569361 
 2764000    1.0033405     -2.69054     -2.69054   -1.5625372  0.062456427     -2.69054    1.1280027   569361 
 2765000    1.0024318   -2.6898363   -2.6898363   -1.5628552  0.063018779   -2.6898363    1.1269812   569361 
 2766000    1.0040878   -2.6904494   -2.6904494   -1.5616065  0.063125407   -2.6904494    1.1288428   569361 
 2767000    1.0033387   -2.6887419   -2.6887419   -1.5607411  0.066765554   -2.6887419    1.1280008   569361 
 2768000    1.0045635   -2.6896449   -2.6896449   -1.5602672  0.067157872   -2.6896449    1.1293777   569361 
 2769000     1.003184   -2.6876969   -2.6876969   -1.5598701  0.074501787   -2.6876969    1.1278268   569361 
 2770000    1.0054548   -2.6901067   -2.6901067   -1.5597269  0.066965854   -2.6901067    1.1303798   569361 
 2771000    1.0038555   -2.6885287   -2.6885287    -1.559947  0.068195947   -2.6885287    1.1285818   569361 
 2772000    1.0027108   -2.6867253   -2.6867253   -1.5594305  0.065983755   -2.6867253    1.1272948   569361 
 2773000    1.0037696   -2.6875426   -2.6875426   -1.5590575  0.063612346   -2.6875426    1.1284851   569361 
 2774000     1.003054   -2.6874928   -2.6874928   -1.5598122  0.053892476   -2.6874928    1.1276806   569361 
 2775000    1.0015544   -2.6864988   -2.6864988   -1.5605041  0.062281174   -2.6864988    1.1259947   569361 
 2776000     1.001503   -2.6864193   -2.6864193   -1.5604824  0.070268835   -2.6864193    1.1259369   569361 
 2777000    1.0017169    -2.686398    -2.686398   -1.5602206  0.060933211    -2.686398    1.1261774   569361 
 2778000     1.002735   -2.6873359   -2.6873359   -1.5600139  0.062730302   -2.6873359     1.127322   569361 
 2779000    1.0031162   -2.6873436   -2.6873436   -1.5595931  0.059860397   -2.6873436    1.1277505   569361 
 2780000    1.0035909   -2.6883365   -2.6883365   -1.5600523  0.066880128   -2.6883365    1.1282843   569361 
 2781000    1.0020976   -2.6870338   -2.6870338   -1.5604284  0.067900521   -2.6870338    1.1266054   569361 
 2782000    1.0030034   -2.6878717   -2.6878717    -1.560248  0.053448525   -2.6878717    1.1276237   569361 
 2783000    1.0032228   -2.6879369   -2.6879369   -1.5600665  0.066942861   -2.6879369    1.1278704   569361 
 2784000    1.0038715   -2.6884568   -2.6884568   -1.5598571  0.064872082   -2.6884568    1.1285997   569361 
 2785000    1.0039914   -2.6883398   -2.6883398   -1.5596053  0.061834199   -2.6883398    1.1287345   569361 
 2786000    1.0038472   -2.6875711   -2.6875711   -1.5589987  0.068314976   -2.6875711    1.1285724   569361 
 2787000      1.00505   -2.6881838   -2.6881838   -1.5582592  0.055680703   -2.6881838    1.1299246   569361 
 2788000    1.0039407   -2.6878307   -2.6878307   -1.5591532  0.061198169   -2.6878307    1.1286775   569361 
 2789000    1.0051762   -2.6899447   -2.6899447   -1.5598782  0.071867681   -2.6899447    1.1300665   569361 
 2790000    1.0042728   -2.6886673   -2.6886673   -1.5596164  0.066304493   -2.6886673    1.1290509   569361 
 2791000    1.0048345   -2.6890616   -2.6890616   -1.5593792  0.059226295   -2.6890616    1.1296823   569361 
 2792000    1.0052113   -2.6895675   -2.6895675   -1.5594616  0.076318611   -2.6895675    1.1301059   569361 
 2793000     1.005259   -2.6905247   -2.6905247   -1.5603651  0.067773891   -2.6905247    1.1301596   569361 
 2794000    1.0035665   -2.6884586   -2.6884586   -1.5602018  0.059435819   -2.6884586    1.1282568   569361 
 2795000    1.0034791   -2.6892958   -2.6892958   -1.5611373  0.068422152   -2.6892958    1.1281585   569361 
 2796000     1.002307   -2.6880767   -2.6880767   -1.5612359   0.06930632   -2.6880767    1.1268408   569361 
 2797000    1.0033057   -2.6887727   -2.6887727   -1.5608091  0.064729547   -2.6887727    1.1279636   569361 
 2798000     1.004377   -2.6896523   -2.6896523   -1.5604843  0.066003829   -2.6896523     1.129168   569361 
 2799000    1.0045152   -2.6885829   -2.6885829   -1.5592595  0.064810404   -2.6885829    1.1293234   569361 
 2800000    1.0042234    -2.687382    -2.687382   -1.5583867  0.074507258    -2.687382    1.1289953   569361 
 2801000    1.0040987    -2.687651    -2.687651   -1.5587958  0.070862175    -2.687651    1.1288552   569361 
 2802000     1.005638   -2.6902409   -2.6902409   -1.5596552  0.067319475   -2.6902409    1.1305857   569361 
 2803000    1.0059302   -2.6900182   -2.6900182    -1.559104  0.069901552   -2.6900182    1.1309142   569361 
 2804000    1.0041144   -2.6897037   -2.6897037   -1.5608309  0.065781956   -2.6897037    1.1288728   569361 
 2805000    1.0068245   -2.6917408   -2.6917408   -1.5598212  0.069510529   -2.6917408    1.1319196   569361 
 2806000    1.0052114   -2.6898495   -2.6898495   -1.5597435  0.066170825   -2.6898495    1.1301061   569361 
 2807000    1.0046357   -2.6894674   -2.6894674   -1.5600086  0.071126164   -2.6894674    1.1294588   569361 
 2808000    1.0051187   -2.6896443   -2.6896443   -1.5596424  0.063398587   -2.6896443    1.1300019   569361 
 2809000    1.0032692   -2.6873156   -2.6873156    -1.559393  0.074561584   -2.6873156    1.1279226   569361 
 2810000    1.0038864   -2.6884024   -2.6884024    -1.559786  0.069002798   -2.6884024    1.1286164   569361 
 2811000    1.0027489   -2.6880773   -2.6880773   -1.5607397  0.074930011   -2.6880773    1.1273376   569361 
 2812000    1.0037315   -2.6891222   -2.6891222     -1.56068  0.049362735   -2.6891222    1.1284423   569361 
 2813000    1.0046117   -2.6887612   -2.6887612   -1.5593293  0.066046765   -2.6887612    1.1294319   569361 
 2814000    1.0032688   -2.6884576   -2.6884576   -1.5605355  0.071076329   -2.6884576    1.1279221   569361 
 2815000    1.0030199   -2.6876336   -2.6876336   -1.5599913  0.068160205   -2.6876336    1.1276423   569361 
 2816000    1.0047101   -2.6894744   -2.6894744   -1.5599319  0.061764368   -2.6894744    1.1295425   569361 
 2817000    1.0038876    -2.688211    -2.688211   -1.5595932   0.06474778    -2.688211    1.1286178   569361 
 2818000    1.0026193   -2.6870715   -2.6870715   -1.5598796  0.064580063   -2.6870715    1.1271919   569361 
 2819000    1.0025399   -2.6869657   -2.6869657    -1.559863  0.072142723   -2.6869657    1.1271027   569361 
 2820000    1.0020548   -2.6872265   -2.6872265   -1.5606693  0.074647568   -2.6872265    1.1265572   569361 
 2821000    1.0029485   -2.6881436   -2.6881436   -1.5605816  0.067545592   -2.6881436     1.127562   569361 
 2822000    1.0023793   -2.6871197   -2.6871197   -1.5601976  0.072774026   -2.6871197    1.1269221   569361 
 2823000    1.0032778   -2.6872848   -2.6872848   -1.5593526  0.060347337   -2.6872848    1.1279322   569361 
 2824000    1.0024943   -2.6862334   -2.6862334    -1.559182  0.061818209   -2.6862334    1.1270514   569361 
 2825000    1.0021363   -2.6856773   -2.6856773   -1.5590284  0.066396321   -2.6856773    1.1266489   569361 
 2826000    1.0041237   -2.6877166   -2.6877166   -1.5588334  0.065380272   -2.6877166    1.1288832   569361 
 2827000    1.0046355   -2.6880068   -2.6880068   -1.5585483  0.063254444   -2.6880068    1.1294586   569361 
 2828000    1.0027993   -2.6859941   -2.6859941   -1.5585998  0.061035701   -2.6859941    1.1273943   569361 
 2829000    1.0046587   -2.6878986   -2.6878986   -1.5584139  0.056881848   -2.6878986    1.1294848   569361 
 2830000    1.0031503   -2.6867342   -2.6867342   -1.5589453  0.062652922   -2.6867342    1.1277889   569361 
 2831000    1.0026891   -2.6856255   -2.6856255   -1.5583551  0.067255399   -2.6856255    1.1272704   569361 
 2832000    1.0026805   -2.6858456   -2.6858456   -1.5585849  0.061193918   -2.6858456    1.1272607   569361 
 2833000    1.0020195   -2.6845058   -2.6845058   -1.5579882  0.055724909   -2.6845058    1.1265176   569361 
 2834000    1.0040489   -2.6863818   -2.6863818   -1.5575827  0.059735219   -2.6863818    1.1287991   569361 
 2835000    1.0041295   -2.6859431   -2.6859431   -1.5570534   0.07245761   -2.6859431    1.1288898   569361 
 2836000    1.0034439   -2.6848959   -2.6848959   -1.5567769  0.067548823   -2.6848959     1.128119   569361 
 2837000    1.0025888   -2.6848413   -2.6848413   -1.5576837  0.064350501   -2.6848413    1.1271576   569361 
 2838000    1.0037176    -2.686682    -2.686682   -1.5582554  0.058586613    -2.686682    1.1284267   569361 
 2839000     1.004087   -2.6867272   -2.6867272   -1.5578853  0.066742617   -2.6867272     1.128842   569361 
 2840000    1.0033088   -2.6869486   -2.6869486   -1.5589815  0.068319412   -2.6869486    1.1279671   569361 
 2841000    1.0044332   -2.6887611   -2.6887611   -1.5595299  0.058253981   -2.6887611    1.1292312   569361 
 2842000    1.0031315   -2.6867688   -2.6867688   -1.5590011   0.06886789   -2.6867688    1.1277677   569361 
 2843000    1.0037689   -2.6880567   -2.6880567   -1.5595723  0.074078585   -2.6880567    1.1284844   569361 
 2844000    1.0014722   -2.6857405   -2.6857405   -1.5598382  0.066216655   -2.6857405    1.1259023   569361 
 2845000    1.0042098   -2.6881314   -2.6881314   -1.5591513  0.066135652   -2.6881314    1.1289801   569361 
 2846000    1.0036589    -2.687256    -2.687256   -1.5588953  0.055613536    -2.687256    1.1283607   569361 
 2847000    1.0027293   -2.6867534   -2.6867534   -1.5594378  0.074419688   -2.6867534    1.1273156   569361 
 2848000    1.0029066   -2.6875804   -2.6875804   -1.5600654  0.072658019   -2.6875804    1.1275149   569361 
 2849000    1.0042366   -2.6893828   -2.6893828   -1.5603727  0.070726824   -2.6893828    1.1290101   569361 
 2850000    1.0030633   -2.6888938   -2.6888938   -1.5612027  0.068783421   -2.6888938    1.1276911   569361 
 2851000    1.0022692   -2.6889316   -2.6889316   -1.5621332  0.063667628   -2.6889316    1.1267984   569361 
 2852000    1.0022231   -2.6890286   -2.6890286   -1.5622821  0.070696384   -2.6890286    1.1267465   569361 
 2853000    1.0037298   -2.6906397   -2.6906397   -1.5621993  0.068119954   -2.6906397    1.1284404   569361 
 2854000    1.0029204   -2.6888363   -2.6888363   -1.5613059  0.071471954   -2.6888363    1.1275304   569361 
 2855000    1.0028552    -2.689398    -2.689398   -1.5619409  0.077718918    -2.689398    1.1274571   569361 
 2856000    1.0034247   -2.6905519   -2.6905519   -1.5624545  0.063293455   -2.6905519    1.1280974   569361 
 2857000    1.0039165   -2.6912396   -2.6912396   -1.5625893  0.070279779   -2.6912396    1.1286504   569361 
 2858000    1.0029372   -2.6897962   -2.6897962   -1.5622468  0.070630622   -2.6897962    1.1275493   569361 
 2859000    1.0031226    -2.690899    -2.690899   -1.5631413  0.067893997    -2.690899    1.1277577   569361 
 2860000    1.0052057   -2.6925216   -2.6925216   -1.5624219  0.062851305   -2.6925216    1.1300997   569361 
 2861000    1.0033092   -2.6899972   -2.6899972   -1.5620298  0.072236603   -2.6899972    1.1279675   569361 
 2862000    1.0043325   -2.6906922   -2.6906922   -1.5615743  0.080769377   -2.6906922     1.129118   569361 
 2863000    1.0041567   -2.6899092   -2.6899092   -1.5609889  0.075271263   -2.6899092    1.1289203   569361 
 2864000    1.0045115   -2.6908442   -2.6908442   -1.5615249  0.073065204   -2.6908442    1.1293193   569361 
 2865000    1.0049784   -2.6911113   -2.6911113   -1.5612673  0.071282712   -2.6911113    1.1298441   569361 
 2866000     1.003742   -2.6894498   -2.6894498   -1.5609956  0.073365556   -2.6894498    1.1284541   569361 
 2867000    1.0035598   -2.6894537   -2.6894537   -1.5612045  0.080521923   -2.6894537    1.1282492   569361 
 2868000    1.0031148    -2.688421    -2.688421    -1.560672  0.078934457    -2.688421     1.127749   569361 
 2869000    1.0049324    -2.690105    -2.690105   -1.5603126  0.065985063    -2.690105    1.1297924   569361 
 2870000    1.0040114   -2.6895526   -2.6895526   -1.5607955  0.058547336   -2.6895526     1.128757   569361 
 2871000    1.0036373    -2.688855    -2.688855   -1.5605187  0.062239787    -2.688855    1.1283364   569361 
 2872000    1.0030981   -2.6883013   -2.6883013   -1.5605711  0.062762348   -2.6883013    1.1277302   569361 
 2873000    1.0038976   -2.6878852   -2.6878852   -1.5592562  0.067957786   -2.6878852     1.128629   569361 
 2874000    1.0025723   -2.6873032   -2.6873032   -1.5601641  0.077049368   -2.6873032    1.1271391   569361 
 2875000    1.0027138   -2.6880026   -2.6880026   -1.5607045  0.054582776   -2.6880026    1.1272982   569361 
 2876000    1.0013132   -2.6866466   -2.6866466   -1.5609231  0.065206766   -2.6866466    1.1257235   569361 
 2877000    1.0026284   -2.6881948   -2.6881948   -1.5609926  0.058362274   -2.6881948    1.1272022   569361 
 2878000    1.0026342    -2.688432    -2.688432   -1.5612233  0.057553788    -2.688432    1.1272087   569361 
 2879000    1.0034519   -2.6893229   -2.6893229   -1.5611949  0.066008064   -2.6893229     1.128128   569361 
 2880000     1.001734   -2.6871775   -2.6871775   -1.5609809  0.061277088   -2.6871775    1.1261966   569361 
 2881000    1.0024078   -2.6877391   -2.6877391    -1.560785  0.063803807   -2.6877391    1.1269541   569361 
 2882000     1.003415   -2.6890799   -2.6890799   -1.5609934  0.064773597   -2.6890799    1.1280865   569361 
 2883000    1.0032157   -2.6877238   -2.6877238   -1.5598614  0.058347409   -2.6877238    1.1278624   569361 
 2884000    1.0019839   -2.6870213   -2.6870213   -1.5605438   0.06815901   -2.6870213    1.1264776   569361 
 2885000    1.0028954   -2.6879502   -2.6879502   -1.5604479  0.072933005   -2.6879502    1.1275023   569361 
 2886000    1.0040879   -2.6889581   -2.6889581   -1.5601152  0.072295092   -2.6889581     1.128843   569361 
 2887000    1.0037681   -2.6893986   -2.6893986   -1.5609151  0.069495736   -2.6893986    1.1284835   569361 
 2888000    1.0042711   -2.6901078   -2.6901078   -1.5610589   0.06793471   -2.6901078     1.129049   569361 
 2889000    1.0036745   -2.6887021   -2.6887021   -1.5603238  0.062272075   -2.6887021    1.1283783   569361 
 2890000    1.0057152   -2.6914312   -2.6914312   -1.5607587  0.057706865   -2.6914312    1.1306725   569361 
 2891000    1.0021113   -2.6875503   -2.6875503   -1.5609295  0.083303999   -2.6875503    1.1266208   569361 
 2892000    1.0027378   -2.6883597   -2.6883597   -1.5610346  0.068763512   -2.6883597    1.1273251   569361 
 2893000    1.0027742   -2.6881347   -2.6881347   -1.5607686  0.057687975   -2.6881347     1.127366   569361 
 2894000    1.0027296   -2.6881106   -2.6881106   -1.5607947  0.071255215   -2.6881106    1.1273159   569361 
 2895000    1.0022589   -2.6887232   -2.6887232   -1.5619364  0.070461615   -2.6887232    1.1267868   569361 
 2896000    1.0042895   -2.6912616   -2.6912616    -1.562192  0.064343855   -2.6912616    1.1290696   569361 
 2897000    1.0042253   -2.6907524   -2.6907524    -1.561755  0.069857148   -2.6907524    1.1289974   569361 
 2898000    1.0046062   -2.6920626   -2.6920626   -1.5626369  0.064959984   -2.6920626    1.1294256   569361 
 2899000    1.0036515   -2.6914235   -2.6914235   -1.5630711  0.063052081   -2.6914235    1.1283523   569361 
 2900000    1.0015309   -2.6887974   -2.6887974   -1.5628292  0.062890848   -2.6887974    1.1259683   569361 
 2901000    1.0037412   -2.6907835   -2.6907835   -1.5623304  0.064111274   -2.6907835    1.1284532   569361 
 2902000    1.0031298   -2.6908798   -2.6908798    -1.563114  0.063622502   -2.6908798    1.1277659   569361 
 2903000    1.0043438   -2.6911825   -2.6911825   -1.5620518  0.070212824   -2.6911825    1.1291307   569361 
 2904000     1.004718   -2.6908282   -2.6908282   -1.5612768  0.073090512   -2.6908282    1.1295514   569361 
 2905000    1.0054033   -2.6904551   -2.6904551   -1.5601333   0.06900087   -2.6904551    1.1303218   569361 
 2906000    1.0048356   -2.6905117   -2.6905117   -1.5608281  0.067751136   -2.6905117    1.1296836   569361 
 2907000    1.0044851   -2.6893328   -2.6893328   -1.5600433  0.068944278   -2.6893328    1.1292895   569361 
 2908000    1.0055498   -2.6900003   -2.6900003   -1.5595138  0.069759457   -2.6900003    1.1304865   569361 
 2909000    1.0052411   -2.6895665   -2.6895665   -1.5594271  0.072270617   -2.6895665    1.1301395   569361 
 2910000    1.0056638   -2.6888712   -2.6888712   -1.5582566   0.06924692   -2.6888712    1.1306147   569361 
 2911000       1.0055   -2.6888269   -2.6888269   -1.5583963  0.068648358   -2.6888269    1.1304306   569361 
 2912000    1.0048083   -2.6885215   -2.6885215   -1.5588686  0.072757276   -2.6885215    1.1296529   569361 
 2913000    1.0047096   -2.6879414   -2.6879414   -1.5583995  0.073334633   -2.6879414    1.1295419   569361 
 2914000     1.005342   -2.6891204   -2.6891204   -1.5588675  0.063629464   -2.6891204    1.1302529   569361 
 2915000    1.0027794   -2.6864831   -2.6864831   -1.5591111  0.069717451   -2.6864831     1.127372   569361 
 2916000    1.0029312   -2.6860796   -2.6860796    -1.558537  0.057252659   -2.6860796    1.1275426   569361 
 2917000    1.0029089    -2.686387    -2.686387   -1.5588695  0.061284851    -2.686387    1.1275175   569361 
 2918000    1.0032195   -2.6864185   -2.6864185   -1.5585518  0.060256967   -2.6864185    1.1278667   569361 
 2919000    1.0033442   -2.6861172   -2.6861172   -1.5581103  0.069869953   -2.6861172    1.1280069   569361 
 2920000    1.0051915   -2.6872751   -2.6872751   -1.5571914  0.057637713   -2.6872751    1.1300837   569361 
 2921000    1.0055676   -2.6888091   -2.6888091   -1.5583025  0.051607849   -2.6888091    1.1305065   569361 
 2922000    1.0039087   -2.6860593   -2.6860593   -1.5574178  0.060867388   -2.6860593    1.1286416   569361 
 2923000    1.0054605   -2.6883701   -2.6883701    -1.557984  0.058396887   -2.6883701    1.1303861   569361 
 2924000    1.0039885   -2.6868727   -2.6868727   -1.5581415   0.06999456   -2.6868727    1.1287312   569361 
 2925000    1.0044006   -2.6874125   -2.6874125    -1.558218  0.072868163   -2.6874125    1.1291945   569361 
 2926000    1.0047573   -2.6879524   -2.6879524   -1.5583569  0.053825372   -2.6879524    1.1295955   569361 
 2927000    1.0031507   -2.6857527   -2.6857527   -1.5579634   0.06430647   -2.6857527    1.1277893   569361 
 2928000    1.0034513   -2.6863475   -2.6863475   -1.5582201  0.057341374   -2.6863475    1.1281273   569361 
 2929000    1.0040054    -2.686987    -2.686987   -1.5582368   0.06157404    -2.686987    1.1287502   569361 
 2930000    1.0039135   -2.6872859   -2.6872859   -1.5586389  0.065143076   -2.6872859    1.1286469   569361 
 2931000    1.0037723    -2.686559    -2.686559   -1.5580708  0.062766815    -2.686559    1.1284882   569361 
 2932000    1.0047968   -2.6871437   -2.6871437   -1.5575037  0.064298413   -2.6871437      1.12964   569361 
 2933000    1.0044274   -2.6872905   -2.6872905   -1.5580658  0.070121431   -2.6872905    1.1292247   569361 
 2934000    1.0053658   -2.6884521   -2.6884521   -1.5581725  0.062317916   -2.6884521    1.1302796   569361 
 2935000    1.0043648   -2.6874161   -2.6874161   -1.5582617  0.066045306   -2.6874161    1.1291543   569361 
 2936000    1.0044283   -2.6869606   -2.6869606    -1.557735   0.07524698   -2.6869606    1.1292257   569361 
 2937000    1.0041928   -2.6876356   -2.6876356   -1.5586746  0.060601555   -2.6876356     1.128961   569361 
 2938000    1.0049137   -2.6894513   -2.6894513   -1.5596799  0.066782022   -2.6894513    1.1297714   569361 
 2939000     1.004793   -2.6885187   -2.6885187    -1.558883   0.06105706   -2.6885187    1.1296357   569361 
 2940000    1.0043646    -2.687535    -2.687535   -1.5583809  0.069425776    -2.687535    1.1291541   569361 
 2941000    1.0043051   -2.6868624   -2.6868624   -1.5577752  0.059241304   -2.6868624    1.1290872   569361 
 2942000    1.0060723   -2.6881848   -2.6881848   -1.5571108  0.077472232   -2.6881848    1.1310739   569361 
 2943000    1.0051251   -2.6870834   -2.6870834   -1.5570744  0.067467051   -2.6870834    1.1300091   569361 
 2944000    1.0055448   -2.6877962   -2.6877962   -1.5573153  0.076685665   -2.6877962    1.1304809   569361 
 2945000    1.0057196   -2.6881335   -2.6881335   -1.5574562  0.083640102   -2.6881335    1.1306774   569361 
 2946000    1.0048493    -2.687684    -2.687684   -1.5579851  0.065670523    -2.687684     1.129699   569361 
 2947000    1.0049522   -2.6872342   -2.6872342   -1.5574195  0.078971094   -2.6872342    1.1298147   569361 
 2948000    1.0045624   -2.6864069   -2.6864069   -1.5570305  0.069619141   -2.6864069    1.1293764   569361 
 2949000    1.0045612   -2.6872145   -2.6872145   -1.5578395  0.071988314   -2.6872145    1.1293751   569361 
 2950000    1.0055214   -2.6871883   -2.6871883   -1.5567338  0.073098808   -2.6871883    1.1304546   569361 
 2951000    1.0042598   -2.6865643   -2.6865643    -1.557528  0.071238053   -2.6865643    1.1290363   569361 
 2952000    1.0050653   -2.6869296   -2.6869296   -1.5569878  0.071500046   -2.6869296    1.1299418   569361 
 2953000    1.0049773   -2.6869163   -2.6869163   -1.5570734  0.074332075   -2.6869163    1.1298429   569361 
 2954000     1.004753   -2.6855554   -2.6855554   -1.5559646  0.066471315   -2.6855554    1.1295908   569361 
 2955000    1.0053697   -2.6852723   -2.6852723   -1.5549882  0.070426242   -2.6852723    1.1302841   569361 
 2956000    1.0038275    -2.683963    -2.683963   -1.5554127  0.075844202    -2.683963    1.1285503   569361 
 2957000    1.0048808   -2.6856695   -2.6856695   -1.5559351  0.073234207   -2.6856695    1.1297344   569361 
 2958000    1.0040666   -2.6844962   -2.6844962   -1.5556771  0.069215284   -2.6844962     1.128819   569361 
 2959000    1.0034694   -2.6845847   -2.6845847   -1.5564371  0.056303721   -2.6845847    1.1281477   569361 
 2960000    1.0034895   -2.6841891   -2.6841891   -1.5560189  0.061990135   -2.6841891    1.1281702   569361 
 2961000    1.0023081   -2.6822726   -2.6822726   -1.5554305  0.066005059   -2.6822726    1.1268421   569361 
 2962000    1.0019741   -2.6831235   -2.6831235   -1.5566569  0.054996683   -2.6831235    1.1264666   569361 
 2963000    1.0013666   -2.6823214   -2.6823214   -1.5565379  0.054368811   -2.6823214    1.1257835   569361 
 2964000    1.0019135   -2.6819583   -2.6819583   -1.5555599  0.064131089   -2.6819583    1.1263984   569361 
 2965000    1.0020298   -2.6820114   -2.6820114   -1.5554822  0.072792568   -2.6820114    1.1265292   569361 
 2966000    1.0032233   -2.6832285   -2.6832285   -1.5553575  0.068315152   -2.6832285     1.127871   569361 
 2967000    1.0042334   -2.6840153   -2.6840153   -1.5550088  0.059510069   -2.6840153    1.1290065   569361 
 2968000    1.0015212   -2.6819054   -2.6819054    -1.555948  0.058703524   -2.6819054    1.1259574   569361 
 2969000    1.0023212    -2.682585    -2.682585   -1.5557282  0.066904076    -2.682585    1.1268568   569361 
 2970000    1.0029853   -2.6834612   -2.6834612   -1.5558578  0.054462988   -2.6834612    1.1276034   569361 
 2971000    1.0031279   -2.6838559   -2.6838559   -1.5560922   0.05690177   -2.6838559    1.1277637   569361 
 2972000    1.0030926   -2.6834581   -2.6834581   -1.5557341  0.064231119   -2.6834581     1.127724   569361 
 2973000    1.0035571   -2.6840314   -2.6840314   -1.5557852  0.063387374   -2.6840314    1.1282462   569361 
 2974000     1.003663    -2.683627    -2.683627   -1.5552617  0.062326563    -2.683627    1.1283653   569361 
 2975000    1.0037677   -2.6834477   -2.6834477   -1.5549647  0.060965526   -2.6834477     1.128483   569361 
 2976000    1.0029468   -2.6834701   -2.6834701   -1.5559099  0.073763311   -2.6834701    1.1275601   569361 
 2977000    1.0051616   -2.6849577   -2.6849577   -1.5549076  0.060559887   -2.6849577      1.13005   569361 
 2978000     1.004086   -2.6847032   -2.6847032   -1.5558624   0.06730978   -2.6847032    1.1288408   569361 
 2979000    1.0045151   -2.6846767   -2.6846767   -1.5553534  0.068960611   -2.6846767    1.1293232   569361 
 2980000    1.0044679   -2.6848915   -2.6848915   -1.5556213  0.071305303   -2.6848915    1.1292702   569361 
 2981000    1.0034752   -2.6849235   -2.6849235   -1.5567693  0.074693881   -2.6849235    1.1281542   569361 
 2982000    1.0043809   -2.6860317   -2.6860317   -1.5568592  0.064932666   -2.6860317    1.1291724   569361 
 2983000    1.0039688   -2.6849737   -2.6849737   -1.5562646     0.066534   -2.6849737    1.1287091   569361 
 2984000    1.0048851   -2.6856447   -2.6856447   -1.5559055  0.064631298   -2.6856447    1.1297392   569361 
 2985000    1.0045458   -2.6852151   -2.6852151   -1.5558573  0.058645583   -2.6852151    1.1293577   569361 
 2986000    1.0039213   -2.6846481   -2.6846481   -1.5559925  0.071512737   -2.6846481    1.1286556   569361 
 2987000    1.0041617   -2.6848224   -2.6848224   -1.5558965  0.074542573   -2.6848224    1.1289259   569361 
 2988000    1.0045853   -2.6857081   -2.6857081    -1.556306  0.074371884   -2.6857081    1.1294022   569361 
 2989000    1.0056081   -2.6870573   -2.6870573   -1.5565052  0.062872519   -2.6870573    1.1305521   569361 
 2990000    1.0036377   -2.6855804   -2.6855804   -1.5572435  0.075640079   -2.6855804    1.1283369   569361 
 2991000     1.005333   -2.6870014   -2.6870014   -1.5567587  0.054278271   -2.6870014    1.1302427   569361 
 2992000     1.003929   -2.6852293   -2.6852293    -1.556565  0.065513679   -2.6852293    1.1286644   569361 
 2993000     1.005962   -2.6869951   -2.6869951   -1.5560452   0.06147514   -2.6869951    1.1309499   569361 
 2994000     1.004372   -2.6857287   -2.6857287   -1.5565664  0.060469288   -2.6857287    1.1291623   569361 
 2995000    1.0038923    -2.685604    -2.685604   -1.5569809  0.063633111    -2.685604    1.1286231   569361 
 2996000    1.0039624   -2.6856971   -2.6856971   -1.5569952  0.069661797   -2.6856971    1.1287019   569361 
 2997000    1.0021534   -2.6838152   -2.6838152    -1.557147  0.057933557   -2.6838152    1.1266681   569361 
 2998000    1.0039896   -2.6852697   -2.6852697   -1.5565372  0.052958087   -2.6852697    1.1287325   569361 
 2999000    1.0009043   -2.6824947   -2.6824947   -1.5572309  0.064762251   -2.6824947    1.1252638   569361 
 3000000    1.0024401    -2.683596    -2.683596   -1.5566055  0.062437443    -2.683596    1.1269905   569361 
 3001000    1.0023263    -2.683448    -2.683448   -1.5565855  0.069042442    -2.683448    1.1268625   569361 
 3002000    1.0025842    -2.683508    -2.683508   -1.5563556  0.059543195    -2.683508    1.1271524   569361 
 3003000     1.002432   -2.6829698   -2.6829698   -1.5559885  0.051652154   -2.6829698    1.1269813   569361 
 3004000    1.0031053   -2.6839647   -2.6839647   -1.5562263  0.065720812   -2.6839647    1.1277384   569361 
 3005000    1.0025129   -2.6831961   -2.6831961   -1.5561238  0.069628724   -2.6831961    1.1270723   569361 
 3006000    1.0032502   -2.6834542   -2.6834542    -1.555553  0.067701141   -2.6834542    1.1279012   569361 
 3007000    1.0036221   -2.6844232   -2.6844232    -1.556104  0.072660623   -2.6844232    1.1283193   569361 
 3008000    1.0038333   -2.6850088   -2.6850088    -1.556452  0.067052716   -2.6850088    1.1285568   569361 
 3009000    1.0050825   -2.6859318   -2.6859318   -1.5559706   0.06293352   -2.6859318    1.1299612   569361 
 3010000    1.0041049   -2.6846166   -2.6846166   -1.5557544  0.063619179   -2.6846166    1.1288621   569361 
 3011000    1.0039275   -2.6845165   -2.6845165   -1.5558539   0.07023297   -2.6845165    1.1286627   569361 
 3012000     1.003173   -2.6838611   -2.6838611   -1.5560467  0.072818693   -2.6838611    1.1278145   569361 
 3013000     1.004343   -2.6842689   -2.6842689   -1.5551391  0.079554607   -2.6842689    1.1291297   569361 
 3014000    1.0039653   -2.6840745   -2.6840745   -1.5553694  0.063556169   -2.6840745    1.1287051   569361 
 3015000    1.0041105   -2.6842814   -2.6842814    -1.555413  0.056159992   -2.6842814    1.1288684   569361 
 3016000    1.0039446   -2.6841244   -2.6841244   -1.5554425  0.071165948   -2.6841244    1.1286819   569361 
 3017000    1.0040004   -2.6839781   -2.6839781   -1.5552334  0.049773651   -2.6839781    1.1287447   569361 
 3018000    1.0039222   -2.6846243   -2.6846243   -1.5559676  0.066477179   -2.6846243    1.1286568   569361 
 3019000    1.0039589   -2.6845413   -2.6845413   -1.5558434  0.068958734   -2.6845413     1.128698   569361 
 3020000    1.0046442   -2.6843837   -2.6843837   -1.5549153  0.075545432   -2.6843837    1.1294684   569361 
 3021000    1.0049447    -2.685231    -2.685231   -1.5554247  0.063920861    -2.685231    1.1298063   569361 
 3022000    1.0062819   -2.6858557   -2.6858557   -1.5545461  0.065279059   -2.6858557    1.1313096   569361 
 3023000     1.003819   -2.6826601   -2.6826601   -1.5541194  0.069646095   -2.6826601    1.1285407   569361 
 3024000     1.004727   -2.6844362   -2.6844362   -1.5548747  0.060867168   -2.6844362    1.1295615   569361 
 3025000    1.0045134   -2.6839023   -2.6839023   -1.5545809  0.065318411   -2.6839023    1.1293214   569361 
 3026000    1.0032442   -2.6818112   -2.6818112   -1.5539167  0.082433029   -2.6818112    1.1278945   569361 
 3027000    1.0026868   -2.6816558   -2.6816558    -1.554388  0.071497472   -2.6816558    1.1272678   569361 
 3028000    1.0049479   -2.6833749   -2.6833749    -1.553565  0.063841877   -2.6833749    1.1298098   569361 
 3029000    1.0041078   -2.6823923   -2.6823923   -1.5535269  0.063488283   -2.6823923    1.1288654   569361 
 3030000    1.0031016   -2.6822058   -2.6822058   -1.5544716  0.076370474   -2.6822058    1.1277342   569361 
 3031000    1.0022217    -2.682041    -2.682041    -1.555296   0.06798097    -2.682041    1.1267449   569361 
 3032000    1.0053122   -2.6834344   -2.6834344   -1.5532151  0.072401036   -2.6834344    1.1302194   569361 
 3033000    1.0025148    -2.681365    -2.681365   -1.5542906  0.057253444    -2.681365    1.1270744   569361 
 3034000    1.0026525   -2.6822254   -2.6822254   -1.5549961  0.060355315   -2.6822254    1.1272293   569361 
 3035000    1.0014627    -2.681033    -2.681033   -1.5551414  0.062991324    -2.681033    1.1258916   569361 
 3036000    1.0034593   -2.6820271   -2.6820271   -1.5538908  0.053626552   -2.6820271    1.1281363   569361 
 3037000     1.004339   -2.6833446   -2.6833446   -1.5542193  0.065804635   -2.6833446    1.1291253   569361 
 3038000    1.0030417   -2.6827915   -2.6827915   -1.5551247   0.06682659   -2.6827915    1.1276668   569361 
 3039000    1.0037202   -2.6826464   -2.6826464   -1.5542168  0.061962026   -2.6826464    1.1284296   569361 
 3040000    1.0020963   -2.6815464   -2.6815464   -1.5549425  0.068945586   -2.6815464    1.1266039   569361 
 3041000    1.0029056   -2.6823333   -2.6823333   -1.5548195  0.067245005   -2.6823333    1.1275138   569361 
 3042000    1.0043675    -2.684009    -2.684009   -1.5548516  0.070542768    -2.684009    1.1291573   569361 
 3043000    1.0024556   -2.6825314   -2.6825314   -1.5555236  0.062075939   -2.6825314    1.1270078   569361 
 3044000    1.0027308   -2.6834075   -2.6834075   -1.5560902  0.064190404   -2.6834075    1.1273173   569361 
 3045000    1.0036299   -2.6837926   -2.6837926   -1.5554645  0.070060177   -2.6837926    1.1283281   569361 
 3046000    1.0040573   -2.6840627   -2.6840627   -1.5552542  0.059088799   -2.6840627    1.1288085   569361 
 3047000    1.0030579   -2.6830193   -2.6830193   -1.5553343  0.070233739   -2.6830193     1.127685   569361 
 3048000    1.0038269    -2.683528    -2.683528   -1.5549785   0.06955406    -2.683528    1.1285495   569361 
 3049000    1.0034695   -2.6834033   -2.6834033   -1.5552555  0.066136601   -2.6834033    1.1281478   569361 
 3050000    1.0054588    -2.684685    -2.684685   -1.5543007  0.076034669    -2.684685    1.1303842   569361 
 3051000    1.0062319   -2.6860241   -2.6860241   -1.5547707  0.069760156   -2.6860241    1.1312533   569361 
 3052000    1.0059914   -2.6858324   -2.6858324   -1.5548495  0.072932175   -2.6858324     1.130983   569361 
 3053000    1.0056419     -2.68649     -2.68649   -1.5558999  0.070339955     -2.68649    1.1305901   569361 
 3054000    1.0055472   -2.6869626   -2.6869626    -1.556479  0.069257314   -2.6869626    1.1304836   569361 
 3055000    1.0053418   -2.6869423   -2.6869423   -1.5566896  0.071070916   -2.6869423    1.1302527   569361 
 3056000    1.0054959   -2.6864715   -2.6864715   -1.5560456  0.055230655   -2.6864715    1.1304259   569361 
 3057000     1.004721   -2.6863606   -2.6863606   -1.5568058  0.065523446   -2.6863606    1.1295548   569361 
 3058000    1.0053884   -2.6878476   -2.6878476   -1.5575426  0.060459106   -2.6878476     1.130305   569361 
 3059000    1.0047331   -2.6871814   -2.6871814   -1.5576131  0.067325829   -2.6871814    1.1295683   569361 
 3060000    1.0045722    -2.686594    -2.686594   -1.5572066  0.082809881    -2.686594    1.1293874   569361 
 3061000    1.0038205   -2.6861707   -2.6861707   -1.5576284  0.061486058   -2.6861707    1.1285423   569361 
 3062000    1.0069466   -2.6889962   -2.6889962   -1.5569394  0.067449405   -2.6889962    1.1320568   569361 
 3063000    1.0053634   -2.6879173   -2.6879173   -1.5576404  0.066371738   -2.6879173    1.1302769   569361 
 3064000    1.0049758   -2.6870351   -2.6870351   -1.5571939  0.067603069   -2.6870351    1.1298412   569361 
 3065000    1.0040057   -2.6870012   -2.6870012   -1.5582507  0.071193214   -2.6870012    1.1287506   569361 
 3066000    1.0039624   -2.6865831   -2.6865831   -1.5578812  0.068899225   -2.6865831    1.1287019   569361 
 3067000    1.0041137   -2.6868623   -2.6868623   -1.5579904   0.07492411   -2.6868623     1.128872   569361 
 3068000    1.0044251   -2.6869544   -2.6869544   -1.5577323  0.071796649   -2.6869544    1.1292221   569361 
 3069000    1.0047527    -2.686482    -2.686482   -1.5568916  0.067049759    -2.686482    1.1295904   569361 
 3070000    1.0022189     -2.68401     -2.68401   -1.5572682  0.074139601     -2.68401    1.1267418   569361 
 3071000    1.0052825   -2.6877689   -2.6877689    -1.557583  0.067858836   -2.6877689     1.130186   569361 
 3072000    1.0038347   -2.6861144   -2.6861144   -1.5575561  0.068176126   -2.6861144    1.1285583   569361 
 3073000    1.0045564   -2.6861619   -2.6861619   -1.5567922  0.072199029   -2.6861619    1.1293697   569361 
 3074000    1.0052887   -2.6873691   -2.6873691   -1.5571761  0.076297006   -2.6873691     1.130193   569361 
 3075000    1.0048854   -2.6870867   -2.6870867   -1.5573471  0.074734708   -2.6870867    1.1297396   569361 
 3076000    1.0047998   -2.6866844   -2.6866844    -1.557041  0.061612864   -2.6866844    1.1296433   569361 
 3077000    1.0043686   -2.6865656   -2.6865656   -1.5574071  0.055211635   -2.6865656    1.1291585   569361 
 3078000    1.0036138   -2.6855437   -2.6855437   -1.5572337  0.073712346   -2.6855437      1.12831   569361 
 3079000    1.0034486   -2.6847203   -2.6847203    -1.556596   0.05840945   -2.6847203    1.1281243   569361 
 3080000    1.0036945   -2.6847668   -2.6847668    -1.556366  0.065654591   -2.6847668    1.1284008   569361 
 3081000    1.0046277   -2.6867021   -2.6867021   -1.5572523  0.061576476   -2.6867021    1.1294498   569361 
 3082000    1.0037796   -2.6853018   -2.6853018   -1.5568054  0.063770623   -2.6853018    1.1284964   569361 
 3083000    1.0033045   -2.6848046   -2.6848046   -1.5568423  0.071187829   -2.6848046    1.1279623   569361 
 3084000     1.003397   -2.6845344   -2.6845344   -1.5564681  0.064487518   -2.6845344    1.1280663   569361 
 3085000    1.0050429   -2.6864371   -2.6864371   -1.5565205  0.051144957   -2.6864371    1.1299167   569361 
 3086000    1.0036704   -2.6842119   -2.6842119   -1.5558383  0.070773591   -2.6842119    1.1283736   569361 
 3087000    1.0037945   -2.6839836   -2.6839836   -1.5554705  0.070120782   -2.6839836    1.1285131   569361 
 3088000    1.0061132   -2.6862678   -2.6862678   -1.5551479  0.067610231   -2.6862678    1.1311199   569361 
 3089000    1.0054036   -2.6855962   -2.6855962   -1.5552741  0.073393127   -2.6855962    1.1303221   569361 
 3090000    1.0066159    -2.687028    -2.687028   -1.5553429  0.059134138    -2.687028    1.1316851   569361 
 3091000    1.0058928   -2.6859731   -2.6859731   -1.5551009  0.067604915   -2.6859731    1.1308722   569361 
 3092000    1.0033194   -2.6838843   -2.6838843   -1.5559053  0.074273228   -2.6838843     1.127979   569361 
 3093000    1.0040404   -2.6844835   -2.6844835    -1.555694  0.058453227   -2.6844835    1.1287895   569361 
 3094000    1.0042894   -2.6840454   -2.6840454   -1.5549758  0.053886092   -2.6840454    1.1290696   569361 
 3095000    1.0042623   -2.6839774   -2.6839774   -1.5549383  0.063834822   -2.6839774     1.129039   569361 
 3096000     1.003994   -2.6841833   -2.6841833   -1.5554459  0.074669927   -2.6841833    1.1287374   569361 
 3097000    1.0042418   -2.6842802   -2.6842802   -1.5552642  0.062877608   -2.6842802    1.1290161   569361 
 3098000    1.0028586   -2.6847749   -2.6847749   -1.5573139  0.059244401   -2.6847749     1.127461   569361 
 3099000    1.0033521   -2.6848947   -2.6848947   -1.5568789  0.067074564   -2.6848947    1.1280158   569361 
 3100000    1.0031226   -2.6845389   -2.6845389   -1.5567811  0.072175279   -2.6845389    1.1277578   569361 
 3101000    1.0043331   -2.6861685   -2.6861685   -1.5570499  0.070790414   -2.6861685    1.1291187   569361 
 3102000    1.0047317   -2.6863872   -2.6863872   -1.5568204  0.056714989   -2.6863872    1.1295668   569361 
 3103000    1.0040317   -2.6856303   -2.6856303   -1.5568504  0.068890613   -2.6856303    1.1287798   569361 
 3104000    1.0015229   -2.6840601   -2.6840601   -1.5581008  0.073746388   -2.6840601    1.1259593   569361 
 3105000    1.0031314   -2.6854067   -2.6854067    -1.557639  0.063468784   -2.6854067    1.1277676   569361 
 3106000    1.0022906   -2.6849305   -2.6849305    -1.558108  0.061968036   -2.6849305    1.1268224   569361 
 3107000    1.0028596   -2.6856291   -2.6856291   -1.5581671  0.059333997   -2.6856291     1.127462   569361 
 3108000    1.0033884   -2.6865087   -2.6865087   -1.5584522  0.058948146   -2.6865087    1.1280566   569361 
 3109000    1.0048402   -2.6872531   -2.6872531   -1.5575644  0.064644383   -2.6872531    1.1296888   569361 
 3110000     1.005763   -2.6876155   -2.6876155   -1.5568892  0.074388844   -2.6876155    1.1307263   569361 
 3111000    1.0052432   -2.6881747   -2.6881747   -1.5580329  0.070377688   -2.6881747    1.1301418   569361 
 3112000    1.0046763   -2.6878484   -2.6878484   -1.5583439   0.07268002   -2.6878484    1.1295045   569361 
 3113000    1.0047087    -2.688157    -2.688157   -1.5586161  0.067110752    -2.688157    1.1295409   569361 
 3114000     1.004572   -2.6889979   -2.6889979   -1.5596106   0.06257636   -2.6889979    1.1293873   569361 
 3115000    1.0055624   -2.6891453   -2.6891453   -1.5586447  0.063686572   -2.6891453    1.1305006   569361 
 3116000    1.0048781   -2.6888021   -2.6888021   -1.5590708  0.077352952   -2.6888021    1.1297313   569361 
 3117000    1.0052809   -2.6887488   -2.6887488   -1.5585646  0.068920269   -2.6887488    1.1301842   569361 
 3118000    1.0053971   -2.6892415   -2.6892415   -1.5589266  0.067035723   -2.6892415    1.1303149   569361 
 3119000     1.006916   -2.6900894   -2.6900894   -1.5580669  0.085676047   -2.6900894    1.1320225   569361 
 3120000    1.0052225   -2.6891894   -2.6891894   -1.5590708  0.073572715   -2.6891894    1.1301186   569361 
 3121000    1.0038278   -2.6877897   -2.6877897   -1.5592391  0.067511919   -2.6877897    1.1285506   569361 
 3122000    1.0035724   -2.6888262   -2.6888262   -1.5605628  0.061914006   -2.6888262    1.1282634   569361 
 3123000    1.0048986     -2.68909     -2.68909   -1.5593356  0.064038749     -2.68909    1.1297544   569361 
 3124000     1.003733   -2.6887842   -2.6887842   -1.5603402  0.073408535   -2.6887842     1.128444   569361 
 3125000    1.0030929   -2.6881788   -2.6881788   -1.5604544  0.072904524   -2.6881788    1.1277244   569361 
 3126000    1.0048866   -2.6893822   -2.6893822   -1.5596413  0.066503831   -2.6893822    1.1297409   569361 
 3127000    1.0038215   -2.6895899   -2.6895899   -1.5610464  0.064672009   -2.6895899    1.1285435   569361 
 3128000    1.0036096   -2.6884772   -2.6884772   -1.5601719  0.076228546   -2.6884772    1.1283053   569361 
 3129000    1.0051679   -2.6895005   -2.6895005   -1.5594434  0.069187229   -2.6895005    1.1300572   569361 
 3130000    1.0058545   -2.6903862   -2.6903862   -1.5595572  0.069217322   -2.6903862     1.130829   569361 
 3131000    1.0041999   -2.6888212   -2.6888212   -1.5598523  0.075023245   -2.6888212    1.1289689   569361 
 3132000    1.0033738   -2.6870853   -2.6870853   -1.5590452  0.073178668   -2.6870853    1.1280401   569361 
 3133000    1.0047732   -2.6875384   -2.6875384   -1.5579249   0.06848464   -2.6875384    1.1296135   569361 
 3134000    1.0063818   -2.6895181   -2.6895181   -1.5580962  0.066798363   -2.6895181    1.1314219   569361 
 3135000    1.0054194   -2.6881526   -2.6881526   -1.5578127   0.06469696   -2.6881526    1.1303399   569361 
 3136000    1.0043205   -2.6868669   -2.6868669   -1.5577624  0.067637245   -2.6868669    1.1291045   569361 
 3137000     1.005557   -2.6887348   -2.6887348   -1.5582402  0.071483696   -2.6887348    1.1304946   569361 
 3138000    1.0050186   -2.6878076   -2.6878076   -1.5579182  0.063603393   -2.6878076    1.1298894   569361 
 3139000    1.0063706   -2.6894752   -2.6894752   -1.5580659  0.060152878   -2.6894752    1.1314093   569361 
 3140000    1.0030465   -2.6857376   -2.6857376   -1.5580654  0.069108618   -2.6857376    1.1276722   569361 
 3141000    1.0037304    -2.686011    -2.686011   -1.5575699  0.067172074    -2.686011    1.1284411   569361 
 3142000    1.0025815   -2.6852277   -2.6852277   -1.5580783  0.066093318   -2.6852277    1.1271494   569361 
 3143000    1.0026302   -2.6842487   -2.6842487   -1.5570445  0.063272134   -2.6842487    1.1272042   569361 
 3144000    1.0050324   -2.6867148   -2.6867148     -1.55681  0.078709818   -2.6867148    1.1299048   569361 
 3145000    1.0043694    -2.684482    -2.684482   -1.5553225  0.065651686    -2.684482    1.1291594   569361 
 3146000    1.0046575   -2.6853492   -2.6853492   -1.5558659  0.065790095   -2.6853492    1.1294833   569361 
 3147000    1.0036908   -2.6832555   -2.6832555    -1.554859  0.066043926   -2.6832555    1.1283965   569361 
 3148000    1.0057493   -2.6867856   -2.6867856   -1.5560748  0.071954938   -2.6867856    1.1307108   569361 
 3149000    1.0047303   -2.6855204   -2.6855204   -1.5559552  0.069596835   -2.6855204    1.1295652   569361 
 3150000    1.0048878   -2.6853514   -2.6853514   -1.5556091  0.068498897   -2.6853514    1.1297423   569361 
 3151000    1.0037855   -2.6848808   -2.6848808   -1.5563778  0.061343187   -2.6848808     1.128503   569361 
 3152000    1.0036615   -2.6846555   -2.6846555    -1.556292  0.066356901   -2.6846555    1.1283636   569361 
 3153000    1.0045801   -2.6852918   -2.6852918   -1.5558955  0.078742615   -2.6852918    1.1293964   569361 
 3154000    1.0041674   -2.6837914   -2.6837914    -1.554859   0.06863521   -2.6837914    1.1289324   569361 
 3155000    1.0030678   -2.6834266   -2.6834266   -1.5557305  0.064491467   -2.6834266    1.1276961   569361 
 3156000    1.0032849   -2.6837128   -2.6837128   -1.5557726  0.056228434   -2.6837128    1.1279402   569361 
 3157000    1.0023756   -2.6830255   -2.6830255   -1.5561076  0.066780959   -2.6830255    1.1269179   569361 
 3158000    1.0024061   -2.6844513   -2.6844513   -1.5574991  0.068786219   -2.6844513    1.1269522   569361 
 3159000    1.0020088   -2.6840995   -2.6840995   -1.5575939  0.063377462   -2.6840995    1.1265056   569361 
 3160000    1.0017412   -2.6843959   -2.6843959   -1.5581912  0.061718029   -2.6843959    1.1262047   569361 
 3161000    1.0037463     -2.68698     -2.68698    -1.558521  0.049429314     -2.68698     1.128459   569361 
 3162000    1.0033072   -2.6861492   -2.6861492   -1.5581839  0.058542334   -2.6861492    1.1279653   569361 
 3163000    1.0035694   -2.6859365   -2.6859365   -1.5576764  0.063608167   -2.6859365      1.12826   569361 
 3164000     1.004058   -2.6862252   -2.6862252   -1.5574158  0.062817729   -2.6862252    1.1288094   569361 
 3165000    1.0044438   -2.6865156   -2.6865156   -1.5572726   0.06651409   -2.6865156    1.1292431   569361 
 3166000     1.003754   -2.6862135   -2.6862135   -1.5577459   0.07541166   -2.6862135    1.1284676   569361 
 3167000    1.0059209   -2.6880965   -2.6880965   -1.5571928  0.072271836   -2.6880965    1.1309037   569361 
 3168000    1.0064092   -2.6889391   -2.6889391   -1.5574863  0.074358024   -2.6889391    1.1314527   569361 
 3169000    1.0051945   -2.6884145   -2.6884145   -1.5583274   0.07680244   -2.6884145    1.1300871   569361 
 3170000    1.0060155   -2.6895571   -2.6895571    -1.558547  0.066494241   -2.6895571    1.1310101   569361 
 3171000    1.0052158   -2.6879611   -2.6879611   -1.5578501  0.073088435   -2.6879611     1.130111   569361 
 3172000     1.005537   -2.6880956   -2.6880956   -1.5576235  0.062628394   -2.6880956    1.1304721   569361 
 3173000    1.0072314   -2.6905595   -2.6905595   -1.5581825  0.064562005   -2.6905595    1.1323771   569361 
 3174000    1.0054312   -2.6885804   -2.6885804   -1.5582272  0.071548157   -2.6885804    1.1303532   569361 
 3175000    1.0049769   -2.6878862   -2.6878862   -1.5580437  0.078725054   -2.6878862    1.1298425   569361 
 3176000      1.00633   -2.6889213   -2.6889213   -1.5575576  0.070700199   -2.6889213    1.1313637   569361 
 3177000    1.0056168   -2.6897103   -2.6897103   -1.5591485  0.064127937   -2.6897103    1.1305619   569361 
 3178000    1.0051102   -2.6892204   -2.6892204   -1.5592281  0.070968939   -2.6892204    1.1299923   569361 
 3179000    1.0069048   -2.6903591   -2.6903591   -1.5583493  0.067996384   -2.6903591    1.1320099   569361 
 3180000    1.0073721   -2.6904097   -2.6904097   -1.5578745  0.064395651   -2.6904097    1.1325352   569361 
 3181000    1.0050699   -2.6889484   -2.6889484   -1.5590014  0.063369285   -2.6889484     1.129947   569361 
 3182000    1.0057023   -2.6888112   -2.6888112   -1.5581532  0.074504713   -2.6888112     1.130658   569361 
 3183000    1.0056949   -2.6890134   -2.6890134   -1.5583638  0.061613597   -2.6890134    1.1306497   569361 
 3184000     1.005166   -2.6882593   -2.6882593   -1.5582042  0.070698131   -2.6882593    1.1300551   569361 
 3185000    1.0042578   -2.6870553   -2.6870553   -1.5580213  0.067072206   -2.6870553     1.129034   569361 
 3186000    1.0030604   -2.6856973   -2.6856973   -1.5580095  0.070984459   -2.6856973    1.1276878   569361 
 3187000    1.0044256   -2.6873831   -2.6873831   -1.5581605  0.068360033   -2.6873831    1.1292226   569361 
 3188000    1.0034958   -2.6869208   -2.6869208   -1.5587434  0.071559187   -2.6869208    1.1281773   569361 
 3189000    1.0023769   -2.6858849   -2.6858849   -1.5589654  0.057273735   -2.6858849    1.1269195   569361 
 3190000    1.0030488    -2.686398    -2.686398   -1.5587232  0.061444181    -2.686398    1.1276748   569361 
 3191000    1.0027179   -2.6845616   -2.6845616   -1.5572589  0.072525803   -2.6845616    1.1273027   569361 
 3192000     1.003106   -2.6850029   -2.6850029   -1.5572638  0.061893646   -2.6850029    1.1277391   569361 
 3193000    1.0042166   -2.6863342   -2.6863342   -1.5573465  0.063006892   -2.6863342    1.1289877   569361 
 3194000    1.0052074   -2.6869196   -2.6869196    -1.556818  0.072316892   -2.6869196    1.1301016   569361 
 3195000    1.0043195    -2.686001    -2.686001   -1.5568977  0.066123498    -2.686001    1.1291033   569361 
 3196000    1.0031346   -2.6853942   -2.6853942   -1.5576229  0.059847215   -2.6853942    1.1277713   569361 
 3197000    1.0032142   -2.6855453   -2.6855453   -1.5576845  0.062954169   -2.6855453    1.1278607   569361 
 3198000    1.0034984   -2.6857036   -2.6857036   -1.5575233  0.064071647   -2.6857036    1.1281802   569361 
 3199000    1.0039034    -2.685474    -2.685474   -1.5568383  0.060067154    -2.685474    1.1286356   569361 
 3200000    1.0034423   -2.6854014   -2.6854014   -1.5572842  0.059247314   -2.6854014    1.1281172   569361 
 3201000    1.0032243   -2.6855839   -2.6855839   -1.5577119  0.061418886   -2.6855839    1.1278721   569361 
 3202000    1.0037294   -2.6860992   -2.6860992   -1.5576592  0.056384018   -2.6860992    1.1284399   569361 
 3203000    1.0034707   -2.6858786   -2.6858786   -1.5577294   0.05171882   -2.6858786    1.1281492   569361 
 3204000    1.0025726   -2.6851893   -2.6851893   -1.5580499  0.057917105   -2.6851893    1.1271394   569361 
 3205000     1.005149   -2.6878836   -2.6878836   -1.5578477  0.054105089   -2.6878836    1.1300359   569361 
 3206000    1.0044672   -2.6866819   -2.6866819   -1.5574125  0.070265904   -2.6866819    1.1292694   569361 
 3207000    1.0057169   -2.6875473   -2.6875473   -1.5568729   0.06396387   -2.6875473    1.1306744   569361 
 3208000    1.0052905   -2.6871703   -2.6871703   -1.5569753  0.070377458   -2.6871703    1.1301951   569361 
 3209000    1.0054165    -2.687812    -2.687812   -1.5574754  0.077199639    -2.687812    1.1303366   569361 
 3210000    1.0048038    -2.687619    -2.687619   -1.5579711   0.06090432    -2.687619    1.1296478   569361 
 3211000    1.0030999   -2.6856498   -2.6856498   -1.5579176  0.074959988   -2.6856498    1.1277322   569361 
 3212000    1.0048747   -2.6881189   -2.6881189   -1.5583914  0.064564007   -2.6881189    1.1297275   569361 
 3213000    1.0038146   -2.6878739   -2.6878739   -1.5593382    0.0632802   -2.6878739    1.1285357   569361 
 3214000    1.0048555   -2.6891057   -2.6891057   -1.5593997  0.058218055   -2.6891057     1.129706   569361 
 3215000    1.0029179   -2.6874074   -2.6874074   -1.5598798  0.073133452   -2.6874074    1.1275276   569361 
 3216000    1.0043839   -2.6887384   -2.6887384   -1.5595626  0.076604468   -2.6887384    1.1291758   569361 
 3217000    1.0051474   -2.6891441   -2.6891441   -1.5591099  0.071188276   -2.6891441    1.1300342   569361 
 3218000    1.0042754    -2.688776    -2.688776   -1.5597222  0.077123262    -2.688776    1.1290538   569361 
 3219000    1.0065363   -2.6910304   -2.6910304   -1.5594348  0.065223247   -2.6910304    1.1315956   569361 
 3220000    1.0046559   -2.6893003   -2.6893003   -1.5598188   0.06710848   -2.6893003    1.1294816   569361 
 3221000    1.0042816   -2.6902387   -2.6902387    -1.561178  0.068898281   -2.6902387    1.1290607   569361 
 3222000    1.0042977   -2.6900466   -2.6900466   -1.5609677   0.06612631   -2.6900466    1.1290789   569361 
 3223000    1.0047366   -2.6904035   -2.6904035   -1.5608312  0.069406919   -2.6904035    1.1295723   569361 
 3224000    1.0062037   -2.6917717   -2.6917717     -1.56055   0.06412706   -2.6917717    1.1312217   569361 
 3225000    1.0042151   -2.6897911   -2.6897911   -1.5608052  0.076812789   -2.6897911     1.128986   569361 
 3226000    1.0057471   -2.6914522   -2.6914522   -1.5607438  0.076526522   -2.6914522    1.1307083   569361 
 3227000    1.0045096   -2.6904565   -2.6904565   -1.5611394  0.065549424   -2.6904565    1.1293171   569361 
 3228000     1.004438   -2.6910849   -2.6910849   -1.5618483  0.071932612   -2.6910849    1.1292366   569361 
 3229000    1.0033383   -2.6897144   -2.6897144   -1.5617141  0.070855164   -2.6897144    1.1280003   569361 
 3230000    1.0043458   -2.6905808   -2.6905808   -1.5614478  0.068272371   -2.6905808     1.129133   569361 
 3231000    1.0049498   -2.6917269   -2.6917269    -1.561915  0.060866068   -2.6917269     1.129812   569361 
 3232000    1.0040374   -2.6903875   -2.6903875   -1.5616013  0.065032378   -2.6903875    1.1287862   569361 
 3233000    1.0022515    -2.688535    -2.688535   -1.5617565  0.073806039    -2.688535    1.1267785   569361 
 3234000    1.0027844   -2.6888491   -2.6888491   -1.5614715  0.068919346   -2.6888491    1.1273775   569361 
 3235000    1.0017418    -2.687907    -2.687907   -1.5617016  0.069949266    -2.687907    1.1262054   569361 
 3236000    1.0035834   -2.6895227   -2.6895227   -1.5612469  0.065937185   -2.6895227    1.1282758   569361 
 3237000    1.0044117   -2.6913198   -2.6913198   -1.5621128  0.067661416   -2.6913198     1.129207   569361 
 3238000    1.0023408   -2.6881479   -2.6881479   -1.5612691  0.070777006   -2.6881479    1.1268788   569361 
 3239000    1.0031012   -2.6890608   -2.6890608   -1.5613271  0.072703188   -2.6890608    1.1277337   569361 
 3240000    1.0027336    -2.688803    -2.688803   -1.5614825  0.057907919    -2.688803    1.1273205   569361 
 3241000    1.0036738   -2.6894341   -2.6894341   -1.5610567  0.050681185   -2.6894341    1.1283774   569361 
 3242000    1.0040492   -2.6895467   -2.6895467   -1.5607472  0.072814544   -2.6895467    1.1287995   569361 
 3243000    1.0041926   -2.6897725   -2.6897725   -1.5608118  0.069611913   -2.6897725    1.1289607   569361 
 3244000    1.0044551   -2.6896731   -2.6896731   -1.5604173  0.075427165   -2.6896731    1.1292559   569361 
 3245000    1.0033147   -2.6885654   -2.6885654   -1.5605917  0.061559601   -2.6885654    1.1279737   569361 
 3246000     1.004121   -2.6897436   -2.6897436   -1.5608634  0.076613066   -2.6897436    1.1288802   569361 
 3247000    1.0037564   -2.6892329   -2.6892329   -1.5607626   0.06862557   -2.6892329    1.1284703   569361 
 3248000    1.0034135   -2.6881152   -2.6881152   -1.5600304  0.073600818   -2.6881152    1.1280848   569361 
 3249000    1.0042833   -2.6887191   -2.6887191   -1.5596565  0.064451048   -2.6887191    1.1290626   569361 
 3250000    1.0033424   -2.6882314   -2.6882314   -1.5602265  0.066815703   -2.6882314    1.1280049   569361 
 3251000    1.0029626   -2.6883583   -2.6883583   -1.5607804  0.070624623   -2.6883583    1.1275779   569361 
 3252000    1.0037263   -2.6892246   -2.6892246   -1.5607881   0.06967282   -2.6892246    1.1284364   569361 
 3253000    1.0014695   -2.6861261   -2.6861261   -1.5602269  0.071093064   -2.6861261    1.1258992   569361 
 3254000     1.001101   -2.6867765   -2.6867765   -1.5612915  0.066526143   -2.6867765     1.125485   569361 
 3255000    1.0021333   -2.6870699   -2.6870699   -1.5604244  0.068699967   -2.6870699    1.1266455   569361 
 3256000    1.0012695   -2.6868163   -2.6868163   -1.5611418  0.064638819   -2.6868163    1.1256744   569361 
 3257000    1.0035456   -2.6883644   -2.6883644   -1.5601311  0.062177987   -2.6883644    1.1282334   569361 
 3258000    1.0033841   -2.6880912   -2.6880912   -1.5600394  0.067015736   -2.6880912    1.1280518   569361 
 3259000    1.0023867   -2.6866518   -2.6866518   -1.5597215  0.070266922   -2.6866518    1.1269304   569361 
 3260000     1.004327   -2.6880168   -2.6880168    -1.558905  0.073580249   -2.6880168    1.1291118   569361 
 3261000    1.0034726   -2.6880273   -2.6880273   -1.5598761  0.073790085   -2.6880273    1.1281513   569361 
 3262000      1.00383   -2.6871323   -2.6871323   -1.5585793   0.06971963   -2.6871323    1.1285531   569361 
 3263000    1.0040514   -2.6869589   -2.6869589    -1.558157  0.065179225   -2.6869589    1.1288019   569361 
 3264000     1.003684   -2.6871603   -2.6871603   -1.5587714  0.065936561   -2.6871603    1.1283889   569361 
 3265000     1.005913   -2.6900544   -2.6900544   -1.5591595  0.058006818   -2.6900544    1.1308949   569361 
 3266000    1.0047143   -2.6886579   -2.6886579   -1.5591108   0.06778025   -2.6886579    1.1295472   569361 
 3267000    1.0028444   -2.6860101   -2.6860101   -1.5585651  0.068707976   -2.6860101    1.1274449   569361 
 3268000    1.0047768     -2.68702     -2.68702   -1.5574026  0.075172094     -2.68702    1.1296175   569361 
 3269000    1.0037478   -2.6867142   -2.6867142   -1.5582535  0.075394093   -2.6867142    1.1284607   569361 
 3270000    1.0047286   -2.6874526   -2.6874526   -1.5578893  0.068538546   -2.6874526    1.1295633   569361 
 3271000    1.0049167   -2.6869193   -2.6869193   -1.5571446  0.062796212   -2.6869193    1.1297748   569361 
 3272000    1.0048954   -2.6862137   -2.6862137   -1.5564628  0.065498534   -2.6862137    1.1297509   569361 
 3273000    1.0033287   -2.6843588   -2.6843588   -1.5563693  0.064219327   -2.6843588    1.1279894   569361 
 3274000    1.0038636    -2.685155    -2.685155   -1.5565642  0.066385119    -2.685155    1.1285908   569361 
 3275000    1.0028703   -2.6848772   -2.6848772   -1.5574031   0.06404558   -2.6848772    1.1274742   569361 
 3276000    1.0032408   -2.6847222   -2.6847222   -1.5568316   0.05514027   -2.6847222    1.1278907   569361 
 3277000    1.0042782   -2.6857053   -2.6857053   -1.5566483  0.061686093   -2.6857053     1.129057   569361 
 3278000     1.003006   -2.6848071   -2.6848071   -1.5571804  0.062057269   -2.6848071    1.1276267   569361 
 3279000    1.0028038    -2.684702    -2.684702   -1.5573027   0.06018592    -2.684702    1.1273993   569361 
 3280000    1.0037251   -2.6858143   -2.6858143   -1.5573793  0.059488319   -2.6858143    1.1284351   569361 
 3281000    1.0031758   -2.6846447   -2.6846447   -1.5568272   0.06396701   -2.6846447    1.1278175   569361 
 3282000    1.0028188   -2.6845035   -2.6845035   -1.5570872  0.065716195   -2.6845035    1.1274162   569361 
 3283000    1.0038975   -2.6851937   -2.6851937   -1.5565647  0.062652405   -2.6851937    1.1286289   569361 
 3284000    1.0030208   -2.6843244   -2.6843244   -1.5566812  0.067234123   -2.6843244    1.1276433   569361 
 3285000     1.003008   -2.6846503   -2.6846503   -1.5570214  0.058038672   -2.6846503    1.1276289   569361 
 3286000       1.0039   -2.6853886   -2.6853886   -1.5567569  0.061448178   -2.6853886    1.1286317   569361 
 3287000    1.0030199   -2.6841318   -2.6841318   -1.5564895  0.061348596   -2.6841318    1.1276423   569361 
 3288000    1.0039847   -2.6849562   -2.6849562   -1.5562293  0.069376484   -2.6849562    1.1287269   569361 
 3289000    1.0046418   -2.6851217   -2.6851217    -1.555656  0.065684759   -2.6851217    1.1294658   569361 
 3290000    1.0048908   -2.6851054   -2.6851054   -1.5553597  0.071583781   -2.6851054    1.1297457   569361 
 3291000    1.0048452   -2.6859079   -2.6859079   -1.5562135  0.066066683   -2.6859079    1.1296944   569361 
 3292000    1.0042801   -2.6847198   -2.6847198   -1.5556607  0.068898468   -2.6847198    1.1290591   569361 
 3293000    1.0061411   -2.6867544   -2.6867544   -1.5556031  0.059444334   -2.6867544    1.1311513   569361 
 3294000    1.0040501   -2.6859724   -2.6859724   -1.5571719  0.073128774   -2.6859724    1.1288005   569361 
 3295000    1.0040412   -2.6854186   -2.6854186    -1.556628  0.072389139   -2.6854186    1.1287905   569361 
 3296000    1.0037323   -2.6848183   -2.6848183   -1.5563751  0.061805783   -2.6848183    1.1284432   569361 
 3297000    1.0050199   -2.6855453   -2.6855453   -1.5556545  0.073123382   -2.6855453    1.1298908   569361 
 3298000    1.0051407   -2.6864233   -2.6864233   -1.5563967  0.080428964   -2.6864233    1.1300266   569361 
 3299000    1.0030016   -2.6842008   -2.6842008   -1.5565791  0.073680674   -2.6842008    1.1276217   569361 
 3300000    1.0046512   -2.6860134   -2.6860134   -1.5565371  0.068431682   -2.6860134    1.1294763   569361 
 3301000    1.0056644   -2.6883456   -2.6883456   -1.5577302  0.054781697   -2.6883456    1.1306154   569361 
 3302000    1.0045919   -2.6864301   -2.6864301   -1.5570205  0.072651439   -2.6864301    1.1294096   569361 
 3303000    1.0044632   -2.6856727   -2.6856727   -1.5564078  0.066547913   -2.6856727    1.1292649   569361 
 3304000    1.0036479   -2.6852034   -2.6852034   -1.5568551  0.073562753   -2.6852034    1.1283483   569361 
 3305000    1.0023884   -2.6841102   -2.6841102   -1.5571778  0.063781587   -2.6841102    1.1269324   569361 
 3306000    1.0027335   -2.6838021   -2.6838021   -1.5564818  0.070054023   -2.6838021    1.1273204   569361 
 3307000    1.0022523    -2.683909    -2.683909   -1.5571297   0.06561899    -2.683909    1.1267793   569361 
 3308000     1.002662   -2.6847308   -2.6847308   -1.5574908  0.072643963   -2.6847308      1.12724   569361 
 3309000     1.002302   -2.6842085   -2.6842085   -1.5573734  0.056224831   -2.6842085    1.1268352   569361 
 3310000      1.00206   -2.6837333   -2.6837333   -1.5571701  0.059546393   -2.6837333    1.1265632   569361 
 3311000    1.0020476   -2.6846291   -2.6846291   -1.5580799  0.070699149   -2.6846291    1.1265492   569361 
 3312000    1.0038729    -2.685557    -2.685557   -1.5569557  0.054560557    -2.685557    1.1286013   569361 
 3313000     1.001873   -2.6830794   -2.6830794   -1.5567264  0.059675484   -2.6830794    1.1263529   569361 
 3314000    1.0031488    -2.684223    -2.684223   -1.5564357  0.069932411    -2.684223    1.1277872   569361 
 3315000    1.0018594   -2.6833063   -2.6833063   -1.5569687  0.068604412   -2.6833063    1.1263376   569361 
 3316000    1.0019165   -2.6834855   -2.6834855   -1.5570837  0.065763714   -2.6834855    1.1264018   569361 
 3317000    1.0040523   -2.6854307   -2.6854307   -1.5566278  0.064009209   -2.6854307    1.1288029   569361 
 3318000    1.0042019   -2.6854325   -2.6854325   -1.5564613  0.064587196   -2.6854325    1.1289712   569361 
 3319000    1.0031296   -2.6840853   -2.6840853   -1.5563197  0.068549533   -2.6840853    1.1277657   569361 
 3320000    1.0045424   -2.6854369   -2.6854369   -1.5560829  0.057081615   -2.6854369    1.1293539   569361 
 3321000    1.0049215   -2.6850182   -2.6850182    -1.555238  0.072741672   -2.6850182    1.1297802   569361 
 3322000    1.0058559    -2.685703    -2.685703   -1.5548723  0.077685828    -2.685703    1.1308307   569361 
 3323000     1.005987   -2.6851374   -2.6851374   -1.5541594   0.07899739   -2.6851374     1.130978   569361 
 3324000    1.0066482   -2.6857868   -2.6857868   -1.5540655  0.074702462   -2.6857868    1.1317214   569361 
 3325000    1.0056001   -2.6854092   -2.6854092   -1.5548661  0.063974446   -2.6854092    1.1305431   569361 
 3326000    1.0055402   -2.6854455   -2.6854455   -1.5549697  0.067284702   -2.6854455    1.1304758   569361 
 3327000    1.0050923   -2.6858568   -2.6858568   -1.5558846   0.06762731   -2.6858568    1.1299722   569361 
 3328000    1.0047576   -2.6861715   -2.6861715   -1.5565755   0.06527993   -2.6861715    1.1295959   569361 
 3329000    1.0052444   -2.6860296   -2.6860296   -1.5558863  0.069550783   -2.6860296    1.1301432   569361 
 3330000    1.0055989   -2.6864288   -2.6864288    -1.555887  0.075282412   -2.6864288    1.1305418   569361 
 3331000    1.0039014    -2.684713    -2.684713   -1.5560796  0.056751005    -2.684713    1.1286333   569361 
 3332000    1.0049226   -2.6855321   -2.6855321   -1.5557506  0.062387218   -2.6855321    1.1297815   569361 
 3333000    1.0055803   -2.6856259   -2.6856259   -1.5551051  0.067409485   -2.6856259    1.1305209   569361 
 3334000    1.0050056      -2.6849      -2.6849   -1.5550253  0.062612889      -2.6849    1.1298747   569361 
 3335000    1.0066394   -2.6858183   -2.6858183   -1.5541068  0.076468521   -2.6858183    1.1317116   569361 
 3336000    1.0054461   -2.6855532   -2.6855532   -1.5551833  0.069046713   -2.6855532    1.1303699   569361 
 3337000    1.0047197    -2.684874    -2.684874   -1.5553207  0.066709332    -2.684874    1.1295533   569361 
 3338000    1.0059466   -2.6862975   -2.6862975   -1.5553649  0.075639005   -2.6862975    1.1309326   569361 
 3339000    1.0060945    -2.686962    -2.686962   -1.5558631  0.068475908    -2.686962    1.1310989   569361 
 3340000    1.0056332   -2.6864433   -2.6864433   -1.5558629  0.063342509   -2.6864433    1.1305803   569361 
 3341000    1.0051394   -2.6852498   -2.6852498   -1.5552247  0.060857302   -2.6852498    1.1300251   569361 
 3342000    1.0035149   -2.6842707   -2.6842707   -1.5560719  0.069554116   -2.6842707    1.1281988   569361 
 3343000    1.0041533   -2.6849572   -2.6849572   -1.5560407  0.065768988   -2.6849572    1.1289165   569361 
 3344000    1.0056225   -2.6860969   -2.6860969   -1.5555287   0.05739067   -2.6860969    1.1305683   569361 
 3345000     1.003539   -2.6834172   -2.6834172   -1.5551913  0.070710409   -2.6834172    1.1282259   569361 
 3346000    1.0033552   -2.6837426   -2.6837426   -1.5557233  0.070528305   -2.6837426    1.1280193   569361 
 3347000    1.0036269   -2.6843264   -2.6843264   -1.5560017  0.067532247   -2.6843264    1.1283247   569361 
 3348000    1.0047445    -2.685516    -2.685516   -1.5559348  0.062879216    -2.685516    1.1295812   569361 
 3349000    1.0044276    -2.685317    -2.685317   -1.5560921   0.06366585    -2.685317    1.1292249   569361 
 3350000    1.0036385    -2.684684    -2.684684   -1.5563463  0.062774645    -2.684684    1.1283377   569361 
 3351000    1.0048036   -2.6849273   -2.6849273   -1.5552797  0.060549382   -2.6849273    1.1296476   569361 
 3352000    1.0053889   -2.6859386   -2.6859386   -1.5556329  0.074394911   -2.6859386    1.1303057   569361 
 3353000    1.0057649    -2.686697    -2.686697   -1.5559686  0.058210304    -2.686697    1.1307284   569361 
 3354000    1.0047184   -2.6847613   -2.6847613   -1.5552095  0.070171023   -2.6847613    1.1295518   569361 
 3355000    1.0043133   -2.6841789   -2.6841789   -1.5550825  0.069258861   -2.6841789    1.1290964   569361 
 3356000    1.0053544   -2.6857663   -2.6857663   -1.5554995  0.068205065   -2.6857663    1.1302668   569361 
 3357000    1.0038373   -2.6839066   -2.6839066   -1.5553454  0.069969604   -2.6839066    1.1285612   569361 
 3358000    1.0050191   -2.6845562   -2.6845562   -1.5546663  0.057572536   -2.6845562    1.1298899   569361 
 3359000    1.0049489   -2.6853905   -2.6853905   -1.5555795  0.063828318   -2.6853905     1.129811   569361 
 3360000    1.0059618   -2.6862936   -2.6862936   -1.5553439  0.062086981   -2.6862936    1.1309497   569361 
 3361000    1.0046331   -2.6855968   -2.6855968   -1.5561409  0.060475197   -2.6855968     1.129456   569361 
 3362000    1.0051399    -2.684979    -2.684979   -1.5549533  0.059305768    -2.684979    1.1300257   569361 
 3363000    1.0039719    -2.684362    -2.684362   -1.5556494  0.069367927    -2.684362    1.1287126   569361 
 3364000    1.0024193   -2.6826048   -2.6826048   -1.5556377  0.061147187   -2.6826048    1.1269671   569361 
 3365000    1.0035297   -2.6845203   -2.6845203   -1.5563048  0.062966012   -2.6845203    1.1282155   569361 
 3366000    1.0037857   -2.6844722   -2.6844722   -1.5559689  0.062449539   -2.6844722    1.1285033   569361 
 3367000    1.0036677   -2.6843599   -2.6843599   -1.5559893  0.071661947   -2.6843599    1.1283706   569361 
 3368000    1.0032403   -2.6837705   -2.6837705   -1.5558804  0.059744588   -2.6837705      1.12789   569361 
 3369000    1.0028565   -2.6832881   -2.6832881   -1.5558295  0.056121701   -2.6832881    1.1274586   569361 
 3370000    1.0050481   -2.6849068   -2.6849068   -1.5549843  0.068709429   -2.6849068    1.1299225   569361 
 3371000    1.0048454   -2.6848578   -2.6848578   -1.5551632  0.071764229   -2.6848578    1.1296946   569361 
 3372000    1.0040667   -2.6836813   -2.6836813   -1.5548621  0.070323993   -2.6836813    1.1288192   569361 
 3373000    1.0027043   -2.6829867   -2.6829867   -1.5556992  0.070422588   -2.6829867    1.1272875   569361 
 3374000    1.0063971   -2.6856238   -2.6856238   -1.5541847  0.071019694   -2.6856238    1.1314391   569361 
 3375000    1.0051418   -2.6840654   -2.6840654   -1.5540376  0.067727651   -2.6840654    1.1300278   569361 
 3376000    1.0052667   -2.6854915   -2.6854915   -1.5553233  0.070510323   -2.6854915    1.1301682   569361 
 3377000    1.0048222   -2.6849946   -2.6849946    -1.555326   0.06453331   -2.6849946    1.1296686   569361 
 3378000    1.0046781   -2.6847353   -2.6847353   -1.5552288  0.061979981   -2.6847353    1.1295065   569361 
 3379000    1.0053904   -2.6849374   -2.6849374   -1.5546301   0.06584642   -2.6849374    1.1303073   569361 
 3380000    1.0038851    -2.683147    -2.683147    -1.554532  0.072016888    -2.683147     1.128615   569361 
 3381000    1.0030626   -2.6821538   -2.6821538   -1.5544635  0.067799752   -2.6821538    1.1276903   569361 
 3382000    1.0048451   -2.6842912   -2.6842912   -1.5545969  0.066202746   -2.6842912    1.1296943   569361 
 3383000    1.0034965   -2.6828448   -2.6828448   -1.5546668  0.060721543   -2.6828448    1.1281781   569361 
 3384000    1.0056098   -2.6844396   -2.6844396   -1.5538856  0.056988272   -2.6844396     1.130554   569361 
 3385000    1.0055355   -2.6847309   -2.6847309   -1.5542605  0.078186005   -2.6847309    1.1304704   569361 
 3386000    1.0045161   -2.6838323   -2.6838323   -1.5545079  0.074080192   -2.6838323    1.1293244   569361 
 3387000    1.0054873   -2.6853365   -2.6853365   -1.5549203  0.060225058   -2.6853365    1.1304162   569361 
 3388000    1.0046779   -2.6851012   -2.6851012   -1.5555949  0.070289325   -2.6851012    1.1295062   569361 
 3389000    1.0055024   -2.6861505   -2.6861505   -1.5557172   0.06047516   -2.6861505    1.1304333   569361 
 3390000    1.0044152   -2.6859158   -2.6859158   -1.5567048   0.06414025   -2.6859158     1.129211   569361 
 3391000    1.0048167   -2.6871261   -2.6871261   -1.5574637  0.058283177   -2.6871261    1.1296624   569361 
 3392000    1.0037399   -2.6851692   -2.6851692   -1.5567174  0.065837893   -2.6851692    1.1284518   569361 
 3393000     1.004056   -2.6852304   -2.6852304   -1.5564233  0.062823154   -2.6852304    1.1288071   569361 
 3394000    1.0039995   -2.6845751   -2.6845751   -1.5558315  0.074024377   -2.6845751    1.1287436   569361 
 3395000    1.0043339   -2.6852916   -2.6852916   -1.5561721  0.062041719   -2.6852916    1.1291195   569361 
 3396000    1.0048155   -2.6863698   -2.6863698   -1.5567087  0.062520908   -2.6863698     1.129661   569361 
 3397000     1.004329   -2.6851535   -2.6851535   -1.5560395  0.081422755   -2.6851535     1.129114   569361 
 3398000    1.0041826   -2.6854248   -2.6854248   -1.5564753   0.06345266   -2.6854248    1.1289495   569361 
 3399000    1.0045849   -2.6861829   -2.6861829   -1.5567811  0.067209498   -2.6861829    1.1294018   569361 
 3400000    1.0052605   -2.6873228   -2.6873228   -1.5571615  0.060425398   -2.6873228    1.1301613   569361 
 3401000    1.0022099   -2.6845202   -2.6845202   -1.5577885  0.073151561   -2.6845202    1.1267317   569361 
 3402000    1.0044661   -2.6865115   -2.6865115   -1.5572433  0.063490345   -2.6865115    1.1292682   569361 
 3403000    1.0030474   -2.6852107   -2.6852107   -1.5575374  0.057967066   -2.6852107    1.1276732   569361 
 3404000    1.0025121   -2.6838591   -2.6838591   -1.5567877   0.06499994   -2.6838591    1.1270714   569361 
 3405000     1.004043     -2.68552     -2.68552   -1.5567275  0.062402279     -2.68552    1.1287925   569361 
 3406000    1.0035399   -2.6846139   -2.6846139    -1.556387  0.066259403   -2.6846139    1.1282269   569361 
 3407000    1.0048586   -2.6859661   -2.6859661   -1.5562566  0.060013962   -2.6859661    1.1297094   569361 
 3408000    1.0018545   -2.6834434   -2.6834434   -1.5571113  0.073910695   -2.6834434    1.1263321   569361 
 3409000    1.0030213   -2.6849961   -2.6849961   -1.5573522  0.057997177   -2.6849961    1.1276438   569361 
 3410000    1.0039627   -2.6855621   -2.6855621     -1.55686  0.058345759   -2.6855621    1.1287022   569361 
 3411000    1.0045328   -2.6859297   -2.6859297   -1.5565865  0.068839124   -2.6859297    1.1293432   569361 
 3412000    1.0039916   -2.6856051   -2.6856051   -1.5568704  0.073130597   -2.6856051    1.1287347   569361 
 3413000     1.003527   -2.6850497   -2.6850497   -1.5568373  0.075202523   -2.6850497    1.1282124   569361 
 3414000    1.0044147   -2.6865864   -2.6865864   -1.5573759  0.068763558   -2.6865864    1.1292104   569361 
 3415000    1.0042575   -2.6856657   -2.6856657    -1.556632  0.074733143   -2.6856657    1.1290337   569361 
 3416000    1.0040429   -2.6853096   -2.6853096   -1.5565172   0.07651024   -2.6853096    1.1287924   569361 
 3417000     1.003358   -2.6854639   -2.6854639   -1.5574415  0.057268736   -2.6854639    1.1280225   569361 
 3418000    1.0040068   -2.6858939   -2.6858939   -1.5571421  0.071050295   -2.6858939    1.1287518   569361 
 3419000    1.0039723   -2.6855413   -2.6855413   -1.5568283  0.063321576   -2.6855413     1.128713   569361 
 3420000    1.0043976    -2.686024    -2.686024   -1.5568328  0.065485462    -2.686024    1.1291912   569361 
 3421000    1.0033108   -2.6853072   -2.6853072   -1.5573378  0.058895286   -2.6853072    1.1279693   569361 
 3422000    1.0052457   -2.6875744   -2.6875744   -1.5574297  0.060231838   -2.6875744    1.1301447   569361 
 3423000    1.0035431   -2.6852536   -2.6852536   -1.5570231   0.06895372   -2.6852536    1.1282305   569361 
 3424000     1.003414   -2.6857707   -2.6857707   -1.5576853  0.068389849   -2.6857707    1.1280854   569361 
 3425000    1.0041943   -2.6863786   -2.6863786   -1.5574159  0.067262311   -2.6863786    1.1289626   569361 
 3426000     1.004501   -2.6871823   -2.6871823   -1.5578749  0.066585408   -2.6871823    1.1293074   569361 
 3427000    1.0038368   -2.6864581   -2.6864581   -1.5578974  0.071666818   -2.6864581    1.1285607   569361 
 3428000    1.0043266   -2.6870609   -2.6870609   -1.5579496   0.07256653   -2.6870609    1.1291113   569361 
 3429000    1.0038873    -2.685453    -2.685453   -1.5568356  0.078075121    -2.685453    1.1286174   569361 
 3430000    1.0061332   -2.6875653   -2.6875653   -1.5564228  0.060012001   -2.6875653    1.1311424   569361 
 3431000    1.0049479   -2.6865082   -2.6865082   -1.5566983  0.063790848   -2.6865082    1.1298099   569361 
 3432000    1.0038521    -2.685593    -2.685593   -1.5570152  0.068794882    -2.685593    1.1285779   569361 
 3433000    1.0043704   -2.6864726   -2.6864726    -1.557312   0.06052413   -2.6864726    1.1291606   569361 
 3434000    1.0040153   -2.6851661   -2.6851661   -1.5564047  0.063916175   -2.6851661    1.1287614   569361 
 3435000    1.0047901   -2.6866532   -2.6866532   -1.5570207  0.058860804   -2.6866532    1.1296325   569361 
 3436000    1.0036886   -2.6859043   -2.6859043   -1.5575101  0.065116697   -2.6859043    1.1283941   569361 
 3437000    1.0030066   -2.6852429   -2.6852429   -1.5576155   0.07243261   -2.6852429    1.1276274   569361 
 3438000    1.0031492   -2.6847796   -2.6847796   -1.5569919  0.062361858   -2.6847796    1.1277877   569361 
 3439000    1.0050873   -2.6871514   -2.6871514   -1.5571848    0.0594503   -2.6871514    1.1299666   569361 
 3440000    1.0027957   -2.6847744   -2.6847744   -1.5573841  0.070707886   -2.6847744    1.1273903   569361 
 3441000    1.0045641   -2.6850048   -2.6850048   -1.5556265  0.071928607   -2.6850048    1.1293783   569361 
 3442000    1.0053269   -2.6864483   -2.6864483   -1.5562124  0.068897276   -2.6864483    1.1302359   569361 
 3443000    1.0049895   -2.6855581   -2.6855581   -1.5557015  0.065477923   -2.6855581    1.1298566   569361 
 3444000    1.0043806   -2.6849705   -2.6849705   -1.5557985  0.063211579   -2.6849705     1.129172   569361 
 3445000    1.0065701   -2.6871888   -2.6871888   -1.5555552  0.064730331   -2.6871888    1.1316336   569361 
 3446000    1.0037296   -2.6840451   -2.6840451   -1.5556049  0.065122165   -2.6840451    1.1284402   569361 
 3447000    1.0041669   -2.6846903   -2.6846903   -1.5557584   0.06606541   -2.6846903    1.1289318   569361 
 3448000    1.0046357   -2.6850161   -2.6850161   -1.5555572  0.055461297   -2.6850161    1.1294589   569361 
 3449000    1.0051202   -2.6862209   -2.6862209   -1.5562173  0.060657699   -2.6862209    1.1300035   569361 
 3450000     1.004561   -2.6855034   -2.6855034   -1.5561285  0.070267521   -2.6855034    1.1293749   569361 
 3451000    1.0052311   -2.6864705   -2.6864705   -1.5563423  0.059378578   -2.6864705    1.1301282   569361 
 3452000    1.0053368   -2.6863708   -2.6863708   -1.5561238  0.064997623   -2.6863708     1.130247   569361 
 3453000    1.0045872   -2.6852598   -2.6852598   -1.5558555  0.074362649   -2.6852598    1.1294043   569361 
 3454000    1.0059397   -2.6866812   -2.6866812   -1.5557562  0.065664338   -2.6866812    1.1309249   569361 
 3455000    1.0038685   -2.6840651   -2.6840651   -1.5554688  0.063934691   -2.6840651    1.1285963   569361 
 3456000    1.0045891   -2.6847892   -2.6847892   -1.5553827     0.062666   -2.6847892    1.1294065   569361 
 3457000    1.0048054   -2.6847189   -2.6847189   -1.5550693   0.06700557   -2.6847189    1.1296496   569361 
 3458000    1.0043483   -2.6849318   -2.6849318   -1.5557961  0.066543769   -2.6849318    1.1291357   569361 
 3459000      1.00563   -2.6858636   -2.6858636    -1.555287  0.069958917   -2.6858636    1.1305766   569361 
 3460000    1.0057412   -2.6849886   -2.6849886   -1.5542869   0.06988382   -2.6849886    1.1307017   569361 
 3461000    1.0058585   -2.6850736   -2.6850736   -1.5542401  0.074361237   -2.6850736    1.1308336   569361 
 3462000    1.0041564   -2.6848761   -2.6848761   -1.5559561   0.06173167   -2.6848761      1.12892   569361 
 3463000     1.003891   -2.6840358   -2.6840358   -1.5554142  0.066532205   -2.6840358    1.1286216   569361 
 3464000    1.0051089    -2.685978    -2.685978   -1.5559872  0.077816739    -2.685978    1.1299908   569361 
 3465000    1.0053025   -2.6866787   -2.6866787   -1.5564702  0.063153264   -2.6866787    1.1302085   569361 
 3466000    1.0030696    -2.684974    -2.684974   -1.5572758  0.060361203    -2.684974    1.1276981   569361 
 3467000    1.0037237   -2.6844001   -2.6844001   -1.5559666  0.068039299   -2.6844001    1.1284335   569361 
 3468000    1.0044126   -2.6831983   -2.6831983   -1.5539902  0.068601681   -2.6831983     1.129208   569361 
 3469000    1.0051965   -2.6833146   -2.6833146   -1.5532253  0.053639196   -2.6833146    1.1300893   569361 
 3470000    1.0046856   -2.6839801   -2.6839801   -1.5544651  0.065364265   -2.6839801     1.129515   569361 
 3471000    1.0038572   -2.6831816   -2.6831816    -1.554598  0.071041016   -2.6831816    1.1285836   569361 
 3472000    1.0021549    -2.681674    -2.681674   -1.5550042  0.063845295    -2.681674    1.1266698   569361 
 3473000     1.003867   -2.6831404   -2.6831404   -1.5545457  0.065929672   -2.6831404    1.1285947   569361 
 3474000    1.0040089   -2.6832797   -2.6832797   -1.5545256   0.07805314   -2.6832797    1.1287542   569361 
 3475000    1.0053807   -2.6840832   -2.6840832   -1.5537868  0.066537943   -2.6840832    1.1302965   569361 
 3476000    1.0037371   -2.6826875   -2.6826875   -1.5542389  0.056401915   -2.6826875    1.1284486   569361 
 3477000    1.0029474   -2.6822938   -2.6822938    -1.554733  0.073008367   -2.6822938    1.1275608   569361 
 3478000    1.0041728   -2.6838388   -2.6838388   -1.5549004  0.059985944   -2.6838388    1.1289385   569361 
 3479000    1.0030837   -2.6827693   -2.6827693   -1.5550552  0.070324039   -2.6827693     1.127714   569361 
 3480000    1.0018498   -2.6818904   -2.6818904   -1.5555635  0.064843969   -2.6818904    1.1263269   569361 
 3481000    1.0026148   -2.6815886   -2.6815886   -1.5544018  0.067133301   -2.6815886    1.1271868   569361 
 3482000    1.0037621   -2.6825236   -2.6825236   -1.5540469  0.070482186   -2.6825236    1.1284767   569361 
 3483000    1.0028204   -2.6817709   -2.6817709   -1.5543529   0.05754752   -2.6817709     1.127418   569361 
 3484000    1.0047346   -2.6832656   -2.6832656   -1.5536956  0.074810405   -2.6832656      1.12957   569361 
 3485000    1.0043278   -2.6832101   -2.6832101   -1.5540974  0.064788416   -2.6832101    1.1291127   569361 
 3486000    1.0052369   -2.6843622   -2.6843622   -1.5542274  0.067464591   -2.6843622    1.1301348   569361 
 3487000    1.0034568   -2.6821523   -2.6821523   -1.5540189  0.068935362   -2.6821523    1.1281335   569361 
 3488000    1.0050259   -2.6839498   -2.6839498   -1.5540523  0.076789214   -2.6839498    1.1298975   569361 
 3489000    1.0062414   -2.6857485   -2.6857485   -1.5544845   0.06092211   -2.6857485     1.131264   569361 
 3490000    1.0046815   -2.6852004   -2.6852004   -1.5556901  0.065661632   -2.6852004    1.1295103   569361 
 3491000    1.0033463   -2.6839508   -2.6839508   -1.5559416  0.067204005   -2.6839508    1.1280092   569361 
 3492000    1.0028743   -2.6830556   -2.6830556   -1.5555769  0.063923631   -2.6830556    1.1274786   569361 
 3493000    1.0034712   -2.6845892   -2.6845892   -1.5564395   0.07031747   -2.6845892    1.1281497   569361 
 3494000    1.0044373   -2.6854485   -2.6854485   -1.5562127  0.059867494   -2.6854485    1.1292358   569361 
 3495000    1.0041294   -2.6847376   -2.6847376   -1.5558479  0.076292246   -2.6847376    1.1288896   569361 
 3496000      1.00358   -2.6848093   -2.6848093   -1.5565373   0.06547005   -2.6848093     1.128272   569361 
 3497000    1.0044993   -2.6855825   -2.6855825    -1.556277  0.056275748   -2.6855825    1.1293055   569361 
 3498000    1.0054156   -2.6866293   -2.6866293   -1.5562936  0.069093279   -2.6866293    1.1303357   569361 
 3499000    1.0038243   -2.6849625   -2.6849625   -1.5564159  0.066034416   -2.6849625    1.1285466   569361 
 3500000    1.0041301    -2.684906    -2.684906   -1.5560155  0.074753529    -2.684906    1.1288905   569361 
 3501000    1.0050014    -2.685874    -2.685874    -1.556004  0.074307957    -2.685874      1.12987   569361 
 3502000    1.0055867   -2.6863402   -2.6863402   -1.5558122  0.070396214   -2.6863402     1.130528   569361 
 3503000    1.0070387   -2.6878708   -2.6878708   -1.5557104  0.070919989   -2.6878708    1.1321604   569361 
 3504000    1.0048233   -2.6840463   -2.6840463   -1.5543765  0.078295069   -2.6840463    1.1296698   569361 
 3505000    1.0063226   -2.6856386   -2.6856386   -1.5542833  0.068632124   -2.6856386    1.1313553   569361 
 3506000    1.0056336   -2.6856639   -2.6856639   -1.5550831  0.067106911   -2.6856639    1.1305808   569361 
 3507000    1.0048694   -2.6847298   -2.6847298   -1.5550082  0.077558871   -2.6847298    1.1297216   569361 
 3508000    1.0056562   -2.6853006   -2.6853006   -1.5546944  0.063842488   -2.6853006    1.1306061   569361 
 3509000    1.0050684    -2.684086    -2.684086   -1.5541406  0.070786894    -2.684086    1.1299453   569361 
 3510000    1.0058832   -2.6841826   -2.6841826   -1.5533213  0.066867502   -2.6841826    1.1308614   569361 
 3511000    1.0059377    -2.684659    -2.684659   -1.5537363  0.062515053    -2.684659    1.1309227   569361 
 3512000    1.0060294   -2.6847231   -2.6847231   -1.5536973  0.060252114   -2.6847231    1.1310258   569361 
 3513000    1.0037864   -2.6819915   -2.6819915   -1.5534875  0.060691437   -2.6819915     1.128504   569361 
 3514000    1.0045651   -2.6827208   -2.6827208   -1.5533413  0.066965796   -2.6827208    1.1293795   569361 
 3515000    1.0042642   -2.6810275   -2.6810275   -1.5519864  0.062622376   -2.6810275    1.1290412   569361 
 3516000    1.0047744   -2.6818264   -2.6818264   -1.5522117   0.07233398   -2.6818264    1.1296147   569361 
 3517000    1.0038941    -2.681383    -2.681383    -1.552758  0.065352431    -2.681383    1.1286251   569361 
 3518000    1.0042695   -2.6811072   -2.6811072   -1.5520601  0.060898397   -2.6811072    1.1290472   569361 
 3519000    1.0029732   -2.6804275   -2.6804275   -1.5528377  0.065759436   -2.6804275    1.1275897   569361 
 3520000    1.0027159   -2.6799084   -2.6799084   -1.5526079  0.054567719   -2.6799084    1.1273006   569361 
 3521000    1.0028464   -2.6812966   -2.6812966   -1.5538493  0.054392425   -2.6812966    1.1274473   569361 
 3522000    1.0029843   -2.6809747   -2.6809747   -1.5533725  0.065094377   -2.6809747    1.1276022   569361 
 3523000    1.0036782   -2.6808226   -2.6808226   -1.5524402  0.071183712   -2.6808226    1.1283824   569361 
 3524000    1.0037801   -2.6813381   -2.6813381   -1.5528412   0.06133714   -2.6813381     1.128497   569361 
 3525000    1.0017507   -2.6793212   -2.6793212   -1.5531058  0.064794005   -2.6793212    1.1262154   569361 
 3526000    1.0028435   -2.6822941   -2.6822941   -1.5548501  0.059259208   -2.6822941     1.127444   569361 
 3527000    1.0014487   -2.6806134   -2.6806134   -1.5547376  0.071345547   -2.6806134    1.1258758   569361 
 3528000    1.0045631   -2.6833011   -2.6833011   -1.5539238  0.063615711   -2.6833011    1.1293773   569361 
 3529000    1.0033151   -2.6821326   -2.6821326   -1.5541584  0.053855428   -2.6821326    1.1279742   569361 
 3530000    1.0022393    -2.680735    -2.680735   -1.5539703  0.063978981    -2.680735    1.1267647   569361 
 3531000     1.003885    -2.682568    -2.682568   -1.5539531  0.071998716    -2.682568    1.1286149   569361 
 3532000    1.0032779   -2.6817623   -2.6817623   -1.5538299  0.065164133   -2.6817623    1.1279324   569361 
 3533000    1.0047245   -2.6827909   -2.6827909   -1.5532323  0.071910743   -2.6827909    1.1295587   569361 
 3534000    1.0044443   -2.6836626   -2.6836626   -1.5544189  0.063618379   -2.6836626    1.1292437   569361 
 3535000    1.0059167   -2.6860428   -2.6860428   -1.5551437  0.065486346   -2.6860428     1.130899   569361 
 3536000     1.003901   -2.6838578   -2.6838578   -1.5552249  0.072881869   -2.6838578    1.1286329   569361 
 3537000    1.0048115   -2.6845547   -2.6845547   -1.5548982  0.067641089   -2.6845547    1.1296564   569361 
 3538000    1.0054334   -2.6850239   -2.6850239   -1.5546682  0.075672277   -2.6850239    1.1303557   569361 
 3539000    1.0046608   -2.6843218   -2.6843218   -1.5548348  0.075879777   -2.6843218     1.129487   569361 
 3540000    1.0073342    -2.686646    -2.686646   -1.5541534  0.074336519    -2.686646    1.1324926   569361 
 3541000    1.0058838   -2.6861503   -2.6861503   -1.5552882  0.069344955   -2.6861503     1.130862   569361 
 3542000    1.0054837   -2.6851966   -2.6851966   -1.5547843  0.063486218   -2.6851966    1.1304123   569361 
 3543000     1.003201   -2.6843067   -2.6843067   -1.5564608  0.073761457   -2.6843067    1.1278459   569361 
 3544000    1.0046605   -2.6856964   -2.6856964   -1.5562096  0.065424321   -2.6856964    1.1294868   569361 
 3545000    1.0047604   -2.6857121   -2.6857121   -1.5561131  0.061937419   -2.6857121     1.129599   569361 
 3546000    1.0040789   -2.6853323   -2.6853323   -1.5564994  0.069074216   -2.6853323    1.1288328   569361 
 3547000    1.0046436   -2.6863933   -2.6863933   -1.5569255  0.060780321   -2.6863933    1.1294677   569361 
 3548000    1.0053885    -2.686786    -2.686786   -1.5564807  0.066447148    -2.686786    1.1303052   569361 
 3549000    1.0039201   -2.6854342   -2.6854342   -1.5567799  0.067918612   -2.6854342    1.1286543   569361 
 3550000     1.004651   -2.6871382   -2.6871382   -1.5576621  0.064359073   -2.6871382    1.1294761   569361 
 3551000    1.0033366   -2.6853518   -2.6853518   -1.5573535  0.064725746   -2.6853518    1.1279983   569361 
 3552000    1.0035201   -2.6859292   -2.6859292   -1.5577245  0.057167877   -2.6859292    1.1282047   569361 
 3553000     1.003323   -2.6869953   -2.6869953   -1.5590122  0.068816476   -2.6869953     1.127983   569361 
 3554000    1.0046095    -2.687078    -2.687078   -1.5576486  0.071029012    -2.687078    1.1294293   569361 
 3555000    1.0049856   -2.6867044   -2.6867044   -1.5568522  0.068172276   -2.6867044    1.1298522   569361 
 3556000    1.0057727   -2.6870937   -2.6870937   -1.5563566  0.070886601   -2.6870937    1.1307371   569361 
 3557000    1.0047319   -2.6857461   -2.6857461   -1.5561791  0.072302709   -2.6857461     1.129567   569361 
 3558000    1.0055915   -2.6860529   -2.6860529   -1.5555196  0.069310507   -2.6860529    1.1305334   569361 
 3559000    1.0055045   -2.6868706   -2.6868706    -1.556435  0.076625298   -2.6868706    1.1304356   569361 
 3560000    1.0042111       -2.686       -2.686   -1.5570185  0.065541414       -2.686    1.1289815   569361 
 3561000    1.0049447   -2.6865642   -2.6865642    -1.556758  0.064662135   -2.6865642    1.1298062   569361 
 3562000    1.0052115   -2.6874868   -2.6874868   -1.5573807  0.065344933   -2.6874868    1.1301061   569361 
 3563000    1.0033142   -2.6857578   -2.6857578   -1.5577846   0.07052741   -2.6857578    1.1279732   569361 
 3564000    1.0048027   -2.6873114   -2.6873114   -1.5576648  0.065071703   -2.6873114    1.1296466   569361 
 3565000    1.0035952   -2.6861362   -2.6861362   -1.5578471  0.065043814   -2.6861362    1.1282891   569361 
 3566000    1.0043235   -2.6868625   -2.6868625   -1.5577546  0.063921275   -2.6868625    1.1291079   569361 
 3567000     1.003105     -2.68507     -2.68507    -1.557332  0.072123051     -2.68507     1.127738   569361 
 3568000    1.0037384   -2.6854016   -2.6854016   -1.5569516  0.068583256   -2.6854016    1.1284501   569361 
 3569000    1.0028078   -2.6841086   -2.6841086   -1.5567047  0.064172995   -2.6841086    1.1274039   569361 
 3570000    1.0022662   -2.6836951   -2.6836951   -1.5569002  0.065309568   -2.6836951     1.126795   569361 
 3571000    1.0052018   -2.6861825   -2.6861825   -1.5560872  0.060218316   -2.6861825    1.1300953   569361 
 3572000    1.0055266   -2.6862057   -2.6862057   -1.5557452  0.071124727   -2.6862057    1.1304604   569361 
 3573000    1.0040832   -2.6847577   -2.6847577     -1.55592  0.076654637   -2.6847577    1.1288377   569361 
 3574000    1.0047694    -2.685477    -2.685477   -1.5558679  0.068691668    -2.685477    1.1296092   569361 
 3575000    1.0072963   -2.6880547   -2.6880547   -1.5556047  0.066701255   -2.6880547      1.13245   569361 
 3576000    1.0024534    -2.683855    -2.683855   -1.5568496  0.071024126    -2.683855    1.1270054   569361 
 3577000    1.0021237   -2.6833858   -2.6833858    -1.556751  0.065885553   -2.6833858    1.1266347   569361 
 3578000     1.004223   -2.6857081   -2.6857081   -1.5567132   0.06601893   -2.6857081    1.1289949   569361 
 3579000    1.0055791   -2.6861199   -2.6861199   -1.5556004   0.05922562   -2.6861199    1.1305195   569361 
 3580000     1.005934   -2.6853267   -2.6853267   -1.5544083  0.067912902   -2.6853267    1.1309185   569361 
 3581000    1.0049313    -2.684512    -2.684512   -1.5547209  0.069407993    -2.684512    1.1297911   569361 
 3582000    1.0064141   -2.6864367   -2.6864367   -1.5549785  0.065618668   -2.6864367    1.1314582   569361 
 3583000    1.0038423   -2.6838589   -2.6838589   -1.5552921  0.073180583   -2.6838589    1.1285669   569361 
 3584000     1.004682   -2.6843226   -2.6843226   -1.5548117  0.072936559   -2.6843226    1.1295109   569361 
 3585000     1.004916   -2.6845175   -2.6845175   -1.5547435  0.071231516   -2.6845175     1.129774   569361 
 3586000      1.00616   -2.6863364   -2.6863364   -1.5551638  0.068207586   -2.6863364    1.1311726   569361 
 3587000    1.0050275   -2.6855622   -2.6855622   -1.5556628  0.060646784   -2.6855622    1.1298993   569361 
 3588000    1.0016824   -2.6819767   -2.6819767   -1.5558381  0.070278386   -2.6819767    1.1261386   569361 
 3589000    1.0041699    -2.685159    -2.685159   -1.5562238  0.073938413    -2.685159    1.1289351   569361 
 3590000    1.0036152   -2.6838201   -2.6838201   -1.5555086  0.056477014   -2.6838201    1.1283115   569361 
 3591000    1.0032594    -2.683164    -2.683164   -1.5552524  0.070511452    -2.683164    1.1279116   569361 
 3592000     1.004257   -2.6837138   -2.6837138   -1.5546807  0.059046468   -2.6837138    1.1290331   569361 
 3593000    1.0030376   -2.6826291   -2.6826291   -1.5549669   0.07117784   -2.6826291    1.1276622   569361 
 3594000    1.0038476   -2.6832088   -2.6832088   -1.5546359   0.07467597   -2.6832088    1.1285729   569361 
 3595000     1.004765   -2.6840823   -2.6840823    -1.554478  0.054907219   -2.6840823    1.1296043   569361 
 3596000    1.0059502   -2.6852511   -2.6852511   -1.5543144  0.066982729   -2.6852511    1.1309367   569361 
 3597000    1.0043127   -2.6832652   -2.6832652   -1.5541695  0.061932457   -2.6832652    1.1290957   569361 
 3598000    1.0059293    -2.684783    -2.684783   -1.5538698  0.072845173    -2.684783    1.1309132   569361 
 3599000     1.005247   -2.6836922   -2.6836922   -1.5535461  0.068844489   -2.6836922    1.1301461   569361 
 3600000    1.0068351   -2.6867912   -2.6867912   -1.5548598  0.069154902   -2.6867912    1.1319315   569361 
 3601000    1.0053459   -2.6847501   -2.6847501   -1.5544928  0.066621357   -2.6847501    1.1302573   569361 
 3602000    1.0062332   -2.6853063   -2.6853063   -1.5540514  0.057393063   -2.6853063    1.1312549   569361 
 3603000    1.0050951   -2.6835748   -2.6835748   -1.5535994  0.070898688   -2.6835748    1.1299754   569361 
 3604000    1.0041375    -2.683043    -2.683043   -1.5541443  0.068898337    -2.683043    1.1288988   569361 
 3605000    1.0038121    -2.681653    -2.681653   -1.5531201  0.065371584    -2.681653    1.1285329   569361 
 3606000    1.0048829    -2.683338    -2.683338   -1.5536012  0.065895109    -2.683338    1.1297368   569361 
 3607000    1.0045779   -2.6826754   -2.6826754   -1.5532816  0.078037276   -2.6826754    1.1293938   569361 
 3608000    1.0037343   -2.6831101   -2.6831101   -1.5546646  0.067541411   -2.6831101    1.1284455   569361 
 3609000    1.0062381   -2.6852333   -2.6852333    -1.553973  0.061792485   -2.6852333    1.1312604   569361 
 3610000    1.0051832    -2.683443    -2.683443   -1.5533687  0.067531584    -2.683443    1.1300743   569361 
 3611000    1.0055625   -2.6846442   -2.6846442   -1.5541434  0.067767897   -2.6846442    1.1305008   569361 
 3612000    1.0060009   -2.6848941   -2.6848941   -1.5539003  0.070411284   -2.6848941    1.1309937   569361 
 3613000    1.0067814   -2.6855616   -2.6855616   -1.5536905  0.063705985   -2.6855616    1.1318711   569361 
 3614000    1.0068903   -2.6863242   -2.6863242   -1.5543306  0.073145427   -2.6863242    1.1319936   569361 
 3615000    1.0063207   -2.6847269   -2.6847269   -1.5533736  0.063430878   -2.6847269    1.1313532   569361 
 3616000    1.0069648   -2.6850713   -2.6850713    -1.552994    0.0688598   -2.6850713    1.1320774   569361 
 3617000    1.0042416   -2.6832131   -2.6832131   -1.5541973   0.07333606   -2.6832131    1.1290158   569361 
 3618000    1.0058793   -2.6842509   -2.6842509    -1.553394  0.072005949   -2.6842509     1.130857   569361 
 3619000    1.0077079   -2.6862464   -2.6862464   -1.5533336  0.071582048   -2.6862464    1.1329128   569361 
 3620000    1.0040876   -2.6826203   -2.6826203   -1.5537776  0.067534319   -2.6826203    1.1288427   569361 
 3621000    1.0067852   -2.6862851   -2.6862851   -1.5544097  0.068870297   -2.6862851    1.1318754   569361 
 3622000    1.0052915    -2.685011    -2.685011   -1.5548149  0.074245801    -2.685011    1.1301961   569361 
 3623000    1.0053178   -2.6855457   -2.6855457     -1.55532  0.064354052   -2.6855457    1.1302257   569361 
 3624000    1.0063752   -2.6864375   -2.6864375    -1.555023  0.069662773   -2.6864375    1.1314145   569361 
 3625000    1.0067381   -2.6860223   -2.6860223   -1.5541998   0.06826786   -2.6860223    1.1318225   569361 
 3626000    1.0075372   -2.6864696   -2.6864696   -1.5537488  0.069242572   -2.6864696    1.1327208   569361 
 3627000     1.003934   -2.6834558   -2.6834558   -1.5547859  0.070877795   -2.6834558    1.1286699   569361 
 3628000    1.0035712   -2.6830965   -2.6830965   -1.5548344  0.058814327   -2.6830965    1.1282621   569361 
 3629000    1.0047479   -2.6840276   -2.6840276   -1.5544426  0.070097539   -2.6840276     1.129585   569361 
 3630000    1.0040874   -2.6839309   -2.6839309   -1.5550885  0.066468916   -2.6839309    1.1288424   569361 
 3631000    1.0020352   -2.6822871   -2.6822871   -1.5557519  0.072941937   -2.6822871    1.1265353   569361 
 3632000    1.0030864   -2.6832989   -2.6832989   -1.5555818  0.058832105   -2.6832989    1.1277171   569361 
 3633000    1.0054366   -2.6850641   -2.6850641   -1.5547049  0.069300956   -2.6850641    1.1303592   569361 
 3634000    1.0044619   -2.6843026   -2.6843026   -1.5550391  0.072009646   -2.6843026    1.1292635   569361 
 3635000    1.0040663   -2.6834835   -2.6834835   -1.5546649  0.075170255   -2.6834835    1.1288187   569361 
 3636000    1.0034882   -2.6832942   -2.6832942   -1.5551254  0.060410531   -2.6832942    1.1281688   569361 
 3637000    1.0047106   -2.6841341   -2.6841341   -1.5545911  0.065974235   -2.6841341     1.129543   569361 
 3638000    1.0037587   -2.6834518   -2.6834518   -1.5549789  0.060372289   -2.6834518    1.1284729   569361 
 3639000    1.0022761   -2.6805967   -2.6805967   -1.5537907  0.071001686   -2.6805967     1.126806   569361 
 3640000    1.0045098   -2.6833107   -2.6833107   -1.5539934  0.065995286   -2.6833107    1.1293173   569361 
 3641000    1.0067518   -2.6855069   -2.6855069   -1.5536691  0.063872912   -2.6855069    1.1318378   569361 
 3642000    1.0055708   -2.6840142   -2.6840142   -1.5535041  0.064292306   -2.6840142    1.1305101   569361 
 3643000    1.0035452   -2.6820592   -2.6820592   -1.5538263  0.066659133   -2.6820592    1.1282329   569361 
 3644000    1.0045251   -2.6824398   -2.6824398   -1.5531052  0.075987064   -2.6824398    1.1293345   569361 
 3645000    1.0042906   -2.6827264   -2.6827264   -1.5536555  0.062604395   -2.6827264    1.1290709   569361 
 3646000     1.004862   -2.6829331   -2.6829331   -1.5532199  0.060688482   -2.6829331    1.1297132   569361 
 3647000    1.0051746   -2.6828549   -2.6828549   -1.5527902  0.077936145   -2.6828549    1.1300647   569361 
 3648000     1.005917   -2.6830941   -2.6830941   -1.5521948   0.06921257   -2.6830941    1.1308993   569361 
 3649000    1.0056946   -2.6832972   -2.6832972    -1.552648  0.068634423   -2.6832972    1.1306493   569361 
 3650000    1.0060832   -2.6847076   -2.6847076   -1.5536214   0.06486792   -2.6847076    1.1310862   569361 
 3651000    1.0056539   -2.6843558   -2.6843558   -1.5537522  0.065571797   -2.6843558    1.1306036   569361 
 3652000     1.005692   -2.6852671   -2.6852671   -1.5546207  0.061868619   -2.6852671    1.1306464   569361 
 3653000    1.0052188   -2.6848284   -2.6848284    -1.554714  0.060062471   -2.6848284    1.1301144   569361 
 3654000    1.0042036   -2.6836039   -2.6836039   -1.5546308  0.063890111   -2.6836039    1.1289731   569361 
 3655000    1.0059839   -2.6847993   -2.6847993   -1.5538248  0.063339389   -2.6847993    1.1309745   569361 
 3656000    1.0070532   -2.6857555   -2.6857555   -1.5535787  0.060333043   -2.6857555    1.1321768   569361 
 3657000    1.0045583   -2.6831485   -2.6831485   -1.5537767  0.069124281   -2.6831485    1.1293718   569361 
 3658000    1.0046812   -2.6827641   -2.6827641   -1.5532541  0.072261502   -2.6827641    1.1295101   569361 
 3659000    1.0044618   -2.6820288   -2.6820288   -1.5527654  0.061862449   -2.6820288    1.1292634   569361 
 3660000     1.006478   -2.6848268   -2.6848268   -1.5532967  0.067573483   -2.6848268    1.1315301   569361 
 3661000    1.0053273   -2.6832013   -2.6832013    -1.552965   0.06301718   -2.6832013    1.1302363   569361 
 3662000    1.0063706   -2.6852206   -2.6852206   -1.5538112  0.064025177   -2.6852206    1.1314094   569361 
 3663000    1.0044258   -2.6834884   -2.6834884   -1.5542655  0.064919122   -2.6834884    1.1292229   569361 
 3664000    1.0052764    -2.684989    -2.684989   -1.5548099  0.070676416    -2.684989    1.1301792   569361 
 3665000     1.003872    -2.683048    -2.683048   -1.5544477  0.066127202    -2.683048    1.1286003   569361 
 3666000    1.0037962   -2.6838535   -2.6838535   -1.5553385  0.062429216   -2.6838535    1.1285151   569361 
 3667000    1.0026196   -2.6811795   -2.6811795   -1.5539872  0.070702852   -2.6811795    1.1271923   569361 
 3668000    1.0067002   -2.6852875   -2.6852875   -1.5535076   0.06714101   -2.6852875    1.1317799   569361 
 3669000    1.0061627   -2.6854238   -2.6854238   -1.5542482  0.070106735   -2.6854238    1.1311756   569361 
 3670000    1.0046703   -2.6839708   -2.6839708   -1.5544731  0.066593598   -2.6839708    1.1294977   569361 
 3671000    1.0045116   -2.6845184   -2.6845184   -1.5551991  0.065601514   -2.6845184    1.1293193   569361 
 3672000     1.005088    -2.685187    -2.685187   -1.5552197  0.075416109    -2.685187    1.1299673   569361 
 3673000    1.0041949    -2.683662    -2.683662   -1.5546987  0.067386446    -2.683662    1.1289633   569361 
 3674000    1.0032718   -2.6817683   -2.6817683   -1.5538428  0.061985258   -2.6817683    1.1279255   569361 
 3675000    1.0050216   -2.6831331   -2.6831331   -1.5532404  0.074352527   -2.6831331    1.1298927   569361 
 3676000    1.0029385   -2.6815003   -2.6815003   -1.5539495  0.065048768   -2.6815003    1.1275508   569361 
 3677000    1.0047143   -2.6841448   -2.6841448   -1.5545975  0.057718501   -2.6841448    1.1295473   569361 
 3678000    1.0052747    -2.684465    -2.684465   -1.5542878  0.057543106    -2.684465    1.1301772   569361 
 3679000    1.0045239   -2.6841358   -2.6841358   -1.5548027  0.064793282   -2.6841358    1.1293332   569361 
 3680000    1.0050401    -2.684743    -2.684743   -1.5548295  0.066994937    -2.684743    1.1299135   569361 
 3681000    1.0046279   -2.6834349   -2.6834349   -1.5539848  0.065165586   -2.6834349      1.12945   569361 
 3682000    1.0041395   -2.6828768   -2.6828768   -1.5539758  0.068559152   -2.6828768     1.128901   569361 
 3683000    1.0051998   -2.6853084   -2.6853084   -1.5552154  0.061684444   -2.6853084     1.130093   569361 
 3684000    1.0048702   -2.6846688   -2.6846688   -1.5549463  0.063902406   -2.6846688    1.1297225   569361 
 3685000    1.0053634   -2.6847752   -2.6847752   -1.5544982    0.0765821   -2.6847752     1.130277   569361 
 3686000    1.0042708   -2.6833728   -2.6833728   -1.5543241  0.076573906   -2.6833728    1.1290487   569361 
 3687000    1.0042838   -2.6831929   -2.6831929   -1.5541296  0.066320217   -2.6831929    1.1290632   569361 
 3688000    1.0043173   -2.6834854   -2.6834854   -1.5543845  0.067887629   -2.6834854    1.1291009   569361 
 3689000    1.0044842   -2.6838998   -2.6838998   -1.5546112  0.069048753   -2.6838998    1.1292886   569361 
 3690000     1.005916   -2.6843596   -2.6843596   -1.5534613  0.073590939   -2.6843596    1.1308982   569361 
 3691000    1.0035812   -2.6822362   -2.6822362   -1.5539628  0.066478911   -2.6822362    1.1282733   569361 
 3692000    1.0026085   -2.6819232   -2.6819232   -1.5547434  0.066060755   -2.6819232    1.1271798   569361 
 3693000    1.0046319   -2.6844395   -2.6844395    -1.554985   0.05963465   -2.6844395    1.1294545   569361 
 3694000    1.0045748   -2.6847161   -2.6847161   -1.5553257  0.058493029   -2.6847161    1.1293904   569361 
 3695000    1.0040241   -2.6837579   -2.6837579   -1.5549866   0.06934167   -2.6837579    1.1287713   569361 
 3696000    1.0049763   -2.6847399   -2.6847399   -1.5548982  0.066500263   -2.6847399    1.1298417   569361 
 3697000    1.0040292   -2.6838624   -2.6838624   -1.5550854  0.063255837   -2.6838624     1.128777   569361 
 3698000    1.0052542   -2.6848086   -2.6848086   -1.5546544  0.062863099   -2.6848086    1.1301542   569361 
 3699000    1.0041965   -2.6833883   -2.6833883   -1.5544232  0.064311344   -2.6833883    1.1289651   569361 
 3700000     1.004578   -2.6839733   -2.6839733   -1.5545793  0.065291989   -2.6839733    1.1293939   569361 
 3701000    1.0033109   -2.6835778   -2.6835778   -1.5556083  0.065318858   -2.6835778    1.1279695   569361 
 3702000    1.0035025   -2.6847317   -2.6847317   -1.5565468   0.06380299   -2.6847317    1.1281849   569361 
 3703000    1.0029773   -2.6846024   -2.6846024   -1.5570081  0.066864709   -2.6846024    1.1275944   569361 
 3704000    1.0015827   -2.6834913   -2.6834913   -1.5574648  0.062581383   -2.6834913    1.1260265   569361 
 3705000    1.0031637    -2.685395    -2.685395    -1.557591  0.059628297    -2.685395     1.127804   569361 
 3706000    1.0035533   -2.6844663   -2.6844663   -1.5562243  0.067263951   -2.6844663     1.128242   569361 
 3707000    1.0039382   -2.6847235   -2.6847235   -1.5560487  0.069916921   -2.6847235    1.1286747   569361 
 3708000    1.0044421   -2.6849359   -2.6849359   -1.5556948  0.073808658   -2.6849359    1.1292411   569361 
 3709000    1.0050263   -2.6846393   -2.6846393   -1.5547413  0.070255643   -2.6846393     1.129898   569361 
 3710000    1.0076001   -2.6863817   -2.6863817   -1.5535902  0.058298811   -2.6863817    1.1327915   569361 
 3711000     1.005008   -2.6841441   -2.6841441   -1.5542667  0.078062398   -2.6841441    1.1298774   569361 
 3712000    1.0055506   -2.6851644   -2.6851644   -1.5546771  0.075078553   -2.6851644    1.1304874   569361 
 3713000    1.0060196   -2.6850697   -2.6850697    -1.554055  0.067880868   -2.6850697    1.1310147   569361 
 3714000    1.0070432   -2.6869897   -2.6869897   -1.5548242   0.06696545   -2.6869897    1.1321654   569361 
 3715000    1.0029413   -2.6824621   -2.6824621   -1.5549081  0.069102772   -2.6824621     1.127554   569361 
 3716000    1.0057486   -2.6852208   -2.6852208   -1.5545108  0.066328428   -2.6852208      1.13071   569361 
 3717000    1.0058942   -2.6843122   -2.6843122   -1.5534385  0.064613846   -2.6843122    1.1308738   569361 
 3718000    1.0050806   -2.6838451   -2.6838451   -1.5538861  0.073999545   -2.6838451     1.129959   569361 
 3719000    1.0061808   -2.6849005   -2.6849005   -1.5537046  0.041620605   -2.6849005    1.1311959   569361 
 3720000    1.0035195   -2.6825475   -2.6825475   -1.5543435  0.065559766   -2.6825475     1.128204   569361 
 3721000    1.0037757   -2.6829079   -2.6829079   -1.5544159  0.078480816   -2.6829079     1.128492   569361 
 3722000    1.0036956   -2.6836325   -2.6836325   -1.5552305  0.061536469   -2.6836325     1.128402   569361 
 3723000     1.004689   -2.6839576   -2.6839576   -1.5544389  0.066908723   -2.6839576    1.1295187   569361 
 3724000    1.0045103   -2.6842284   -2.6842284   -1.5549105  0.070938598   -2.6842284    1.1293178   569361 
 3725000    1.0016415   -2.6823415   -2.6823415   -1.5562489  0.063127731   -2.6823415    1.1260926   569361 
 3726000    1.0016127   -2.6823454   -2.6823454   -1.5562852  0.056895747   -2.6823454    1.1260602   569361 
 3727000    1.0030932   -2.6834915   -2.6834915   -1.5557667  0.052768742   -2.6834915    1.1277247   569361 
 3728000    1.0019438    -2.682524    -2.682524   -1.5560916  0.062379628    -2.682524    1.1264325   569361 
 3729000    1.0006784   -2.6811908   -2.6811908   -1.5561809  0.064889056   -2.6811908    1.1250099   569361 
 3730000     1.002928   -2.6828398   -2.6828398   -1.5553008   0.07041244   -2.6828398     1.127539   569361 
 3731000    1.0039802    -2.684165    -2.684165    -1.555443  0.053366368    -2.684165    1.1287219   569361 
 3732000    1.0034976   -2.6839278   -2.6839278   -1.5557484  0.062588017   -2.6839278    1.1281794   569361 
 3733000    1.0034307   -2.6831887   -2.6831887   -1.5550846  0.061356198   -2.6831887    1.1281041   569361 
 3734000    1.0045012   -2.6832031   -2.6832031   -1.5538954  0.071960443   -2.6832031    1.1293076   569361 
 3735000     1.004455   -2.6831498   -2.6831498   -1.5538942  0.066067816   -2.6831498    1.1292557   569361 
 3736000    1.0048053   -2.6842707   -2.6842707   -1.5546212  0.063003635   -2.6842707    1.1296495   569361 
 3737000    1.0041748   -2.6827834   -2.6827834   -1.5538427  0.068344076   -2.6827834    1.1289407   569361 
 3738000    1.0075487   -2.6851729   -2.6851729   -1.5524391  0.064782795   -2.6851729    1.1327338   569361 
 3739000    1.0053286   -2.6838675   -2.6838675   -1.5536297  0.073867912   -2.6838675    1.1302378   569361 
 3740000    1.0061767   -2.6850193   -2.6850193    -1.553828  0.070804958   -2.6850193    1.1311913   569361 
 3741000    1.0080823   -2.6864317   -2.6864317    -1.553098  0.069576244   -2.6864317    1.1333337   569361 
 3742000     1.005719   -2.6827906   -2.6827906   -1.5521138  0.073330744   -2.6827906    1.1306768   569361 
 3743000    1.0068032   -2.6838858   -2.6838858   -1.5519901  0.062648765   -2.6838858    1.1318956   569361 
 3744000    1.0066185   -2.6844789   -2.6844789   -1.5527909  0.075578042   -2.6844789     1.131688   569361 
 3745000    1.0049171   -2.6836392   -2.6836392    -1.553864  0.065713431   -2.6836392    1.1297752   569361 
 3746000    1.0046507   -2.6838789   -2.6838789   -1.5544032  0.071419559   -2.6838789    1.1294758   569361 
 3747000    1.0043065   -2.6833577   -2.6833577    -1.554269  0.066676794   -2.6833577    1.1290887   569361 
 3748000    1.0035101   -2.6831712   -2.6831712   -1.5549779  0.064174956   -2.6831712    1.1281933   569361 
 3749000    1.0032204   -2.6830486   -2.6830486   -1.5551809  0.057174696   -2.6830486    1.1278677   569361 
 3750000    1.0043869   -2.6841127   -2.6841127   -1.5549335  0.067298851   -2.6841127    1.1291792   569361 
 3751000    1.0042901   -2.6841728   -2.6841728   -1.5551025  0.059821776   -2.6841728    1.1290703   569361 
 3752000    1.0056198   -2.6850745   -2.6850745   -1.5545093  0.061266431   -2.6850745    1.1305652   569361 
 3753000    1.0042638   -2.6838798   -2.6838798   -1.5548391   0.07287537   -2.6838798    1.1290407   569361 
 3754000     1.003856   -2.6836027   -2.6836027   -1.5550204   0.06800531   -2.6836027    1.1285822   569361 
 3755000    1.0038597   -2.6832154   -2.6832154    -1.554629  0.075435253   -2.6832154    1.1285864   569361 
 3756000    1.0052514   -2.6855066   -2.6855066   -1.5553556  0.058247096   -2.6855066     1.130151   569361 
 3757000    1.0056646   -2.6856098   -2.6856098   -1.5549943  0.070633121   -2.6856098    1.1306156   569361 
 3758000    1.0061185    -2.686311    -2.686311   -1.5551851   0.05628553    -2.686311    1.1311259   569361 
 3759000    1.0055688   -2.6842385   -2.6842385   -1.5537306  0.077760413   -2.6842385    1.1305079   569361 
 3760000    1.0044431   -2.6842396   -2.6842396   -1.5549972  0.070542771   -2.6842396    1.1292423   569361 
 3761000    1.0033857   -2.6831002   -2.6831002   -1.5550466  0.064269456   -2.6831002    1.1280535   569361 
 3762000     1.005281   -2.6848475   -2.6848475   -1.5546633  0.056776374   -2.6848475    1.1301843   569361 
 3763000    1.0049143   -2.6852408   -2.6852408   -1.5554688  0.067192031   -2.6852408    1.1297721   569361 
 3764000    1.0046445   -2.6854489   -2.6854489   -1.5559801  0.057985794   -2.6854489    1.1294688   569361 
 3765000    1.0042594   -2.6850864   -2.6850864   -1.5560506  0.057861643   -2.6850864    1.1290358   569361 
 3766000     1.004839   -2.6863225   -2.6863225   -1.5566351  0.070677484   -2.6863225    1.1296874   569361 
 3767000     1.003937   -2.6855303   -2.6855303    -1.556857  0.081168237   -2.6855303    1.1286733   569361 
 3768000    1.0033218    -2.684271    -2.684271   -1.5562892  0.066414448    -2.684271    1.1279817   569361 
 3769000    1.0044205   -2.6853281   -2.6853281   -1.5561112  0.062762044   -2.6853281    1.1292169   569361 
 3770000    1.0040146   -2.6850548   -2.6850548   -1.5562942  0.067817977   -2.6850548    1.1287606   569361 
 3771000    1.0040134   -2.6844152   -2.6844152    -1.555656  0.068044294   -2.6844152    1.1287592   569361 
 3772000     1.003719   -2.6855772   -2.6855772   -1.5571489  0.056033849   -2.6855772    1.1284283   569361 
 3773000    1.0047735    -2.685005    -2.685005   -1.5553912  0.074263583    -2.685005    1.1296138   569361 
 3774000    1.0035689   -2.6847245   -2.6847245    -1.556465   0.07531327   -2.6847245    1.1282595   569361 
 3775000    1.0038393   -2.6846698   -2.6846698   -1.5561063  0.072921919   -2.6846698    1.1285635   569361 
 3776000    1.0050542   -2.6860885   -2.6860885   -1.5561592  0.067440728   -2.6860885    1.1299293   569361 
 3777000    1.0055633   -2.6865064   -2.6865064   -1.5560047  0.065542359   -2.6865064    1.1305017   569361 
 3778000    1.0043578   -2.6855676   -2.6855676   -1.5564211  0.071188639   -2.6855676    1.1291465   569361 
 3779000     1.003666   -2.6844888   -2.6844888   -1.5561201  0.068634468   -2.6844888    1.1283686   569361 
 3780000    1.0037048    -2.684736    -2.684736   -1.5563237  0.075531648    -2.684736    1.1284122   569361 
 3781000    1.0053791   -2.6856902   -2.6856902   -1.5553955  0.057058601   -2.6856902    1.1302947   569361 
 3782000    1.0054217   -2.6853771   -2.6853771   -1.5550346  0.070701107   -2.6853771    1.1303426   569361 
 3783000      1.00499   -2.6853959   -2.6853959   -1.5555386  0.075044706   -2.6853959    1.1298572   569361 
 3784000    1.0059128   -2.6859789   -2.6859789   -1.5550843  0.067440389   -2.6859789    1.1308946   569361 
 3785000    1.0043269   -2.6844775   -2.6844775   -1.5553659  0.074194883   -2.6844775    1.1291116   569361 
 3786000    1.0067415    -2.687236    -2.687236   -1.5554098  0.062893255    -2.687236    1.1318263   569361 
 3787000    1.0062657   -2.6866495   -2.6866495   -1.5553582  0.073128484   -2.6866495    1.1312913   569361 
 3788000    1.0052772   -2.6857219   -2.6857219   -1.5555419  0.070366856   -2.6857219    1.1301801   569361 
 3789000    1.0056373   -2.6871056   -2.6871056   -1.5565208  0.059952581   -2.6871056    1.1305849   569361 
 3790000    1.0041818   -2.6857229   -2.6857229   -1.5567743  0.069543882   -2.6857229    1.1289486   569361 
 3791000    1.0047529   -2.6866511   -2.6866511   -1.5570604  0.062784945   -2.6866511    1.1295907   569361 
 3792000    1.0055161   -2.6866103   -2.6866103   -1.5561616  0.070191927   -2.6866103    1.1304487   569361 
 3793000    1.0056256   -2.6869563   -2.6869563   -1.5563846   0.07015707   -2.6869563    1.1305717   569361 
 3794000    1.0068895   -2.6871682   -2.6871682   -1.5551755  0.078510535   -2.6871682    1.1319927   569361 
 3795000    1.0062453    -2.686206    -2.686206   -1.5549375  0.070567843    -2.686206    1.1312685   569361 
 3796000    1.0050969   -2.6847703   -2.6847703    -1.554793  0.066366656   -2.6847703    1.1299773   569361 
 3797000    1.0049801   -2.6848327   -2.6848327   -1.5549866   0.05979323   -2.6848327    1.1298461   569361 
 3798000    1.0059228   -2.6852624   -2.6852624   -1.5543565  0.077305304   -2.6852624    1.1309059   569361 
 3799000    1.0066585   -2.6853909   -2.6853909   -1.5536579  0.071221171   -2.6853909     1.131733   569361 
 3800000    1.0071291   -2.6858822   -2.6858822   -1.5536202  0.068280659   -2.6858822     1.132262   569361 
 3801000    1.0064765   -2.6856865   -2.6856865   -1.5541581  0.068403655   -2.6856865    1.1315284   569361 
 3802000    1.0067432   -2.6857535   -2.6857535   -1.5539253  0.069664694   -2.6857535    1.1318283   569361 
 3803000    1.0061268   -2.6853279   -2.6853279   -1.5541927  0.080950799   -2.6853279    1.1311352   569361 
 3804000       1.0059   -2.6855217   -2.6855217   -1.5546415  0.064948508   -2.6855217    1.1308802   569361 
 3805000    1.0067506   -2.6861857   -2.6861857   -1.5543492  0.070075208   -2.6861857    1.1318365   569361 
 3806000    1.0059464   -2.6860651   -2.6860651   -1.5551327  0.059632109   -2.6860651    1.1309324   569361 
 3807000    1.0046079   -2.6839844   -2.6839844   -1.5545567  0.070601701   -2.6839844    1.1294277   569361 
 3808000    1.0055454   -2.6845179   -2.6845179   -1.5540363  0.068966792   -2.6845179    1.1304816   569361 
 3809000    1.0057067   -2.6854131   -2.6854131   -1.5547501  0.072199854   -2.6854131     1.130663   569361 
 3810000    1.0049913   -2.6840683   -2.6840683   -1.5542096  0.050352318   -2.6840683    1.1298587   569361 
 3811000    1.0057117   -2.6849984   -2.6849984   -1.5543299  0.067220643   -2.6849984    1.1306686   569361 
 3812000    1.0040772   -2.6836757   -2.6836757   -1.5548446  0.075179136   -2.6836757     1.128831   569361 
 3813000    1.0063404   -2.6858291   -2.6858291   -1.5544537  0.071904737   -2.6858291    1.1313754   569361 
 3814000    1.0083765   -2.6872557   -2.6872557   -1.5535913  0.060031535   -2.6872557    1.1336645   569361 
 3815000      1.00613   -2.6840027   -2.6840027   -1.5528639  0.067985924   -2.6840027    1.1311388   569361 
 3816000    1.0052607   -2.6836008   -2.6836008   -1.5534393  0.077917487   -2.6836008    1.1301615   569361 
 3817000    1.0053239   -2.6835263   -2.6835263   -1.5532938  0.070674221   -2.6835263    1.1302325   569361 
 3818000    1.0061459   -2.6839582   -2.6839582   -1.5528015  0.081005655   -2.6839582    1.1311567   569361 
 3819000    1.0066088     -2.68391     -2.68391   -1.5522328  0.068933607     -2.68391    1.1316772   569361 
 3820000    1.0075232   -2.6841982   -2.6841982    -1.551493  0.072746326   -2.6841982    1.1327052   569361 
 3821000    1.0084048   -2.6853773   -2.6853773   -1.5516811  0.061194726   -2.6853773    1.1336962   569361 
 3822000     1.008022   -2.6852563   -2.6852563   -1.5519903  0.070179382   -2.6852563    1.1332659   569361 
 3823000    1.0079819   -2.6860638   -2.6860638   -1.5528429  0.070127922   -2.6860638    1.1332208   569361 
 3824000    1.0074976   -2.6846473   -2.6846473    -1.551971  0.065656806   -2.6846473    1.1326763   569361 
 3825000     1.005724   -2.6828301   -2.6828301   -1.5521477  0.066367258   -2.6828301    1.1306824   569361 
 3826000     1.007591   -2.6845109   -2.6845109   -1.5517296  0.076054719   -2.6845109    1.1327813   569361 
 3827000    1.0074766   -2.6841883   -2.6841883   -1.5515356  0.068309137   -2.6841883    1.1326527   569361 
 3828000    1.0064428   -2.6837093   -2.6837093   -1.5522188  0.061349862   -2.6837093    1.1314905   569361 
 3829000    1.0061328   -2.6836438   -2.6836438   -1.5525018  0.067641753   -2.6836438     1.131142   569361 
 3830000    1.0043646   -2.6822986   -2.6822986   -1.5531445  0.068018653   -2.6822986     1.129154   569361 
 3831000    1.0067665   -2.6835691   -2.6835691   -1.5517146  0.065290526   -2.6835691    1.1318544   569361 
 3832000    1.0062859   -2.6839533   -2.6839533   -1.5526392  0.067194146   -2.6839533    1.1313141   569361 
 3833000    1.0053796   -2.6837067   -2.6837067   -1.5534116  0.067154436   -2.6837067    1.1302952   569361 
 3834000    1.0039127     -2.68115     -2.68115    -1.552504   0.07154262     -2.68115     1.128646   569361 
 3835000    1.0049211   -2.6821121   -2.6821121   -1.5523324  0.069370122   -2.6821121    1.1297797   569361 
 3836000    1.0045376   -2.6820355   -2.6820355    -1.552687  0.066890539   -2.6820355    1.1293485   569361 
 3837000    1.0046309   -2.6828281   -2.6828281   -1.5533746     0.071017   -2.6828281    1.1294535   569361 
 3838000    1.0072452   -2.6853393   -2.6853393   -1.5529467  0.060518377   -2.6853393    1.1323925   569361 
 3839000    1.0061689    -2.684064    -2.684064   -1.5528814  0.067335356    -2.684064    1.1311826   569361 
 3840000    1.0054967   -2.6828189   -2.6828189   -1.5523921  0.053899054   -2.6828189    1.1304268   569361 
 3841000    1.0061799   -2.6838146   -2.6838146   -1.5526197  0.061762011   -2.6838146    1.1311949   569361 
 3842000    1.0054656   -2.6825003   -2.6825003   -1.5521085  0.071273495   -2.6825003    1.1303919   569361 
 3843000    1.0046481    -2.681711    -2.681711   -1.5522382  0.075315721    -2.681711    1.1294728   569361 
 3844000    1.0058187   -2.6832528   -2.6832528    -1.552464  0.059065995   -2.6832528    1.1307888   569361 
 3845000    1.0046905   -2.6817102   -2.6817102   -1.5521898  0.075363916   -2.6817102    1.1295204   569361 
 3846000    1.0072778   -2.6851599   -2.6851599   -1.5527307  0.064530039   -2.6851599    1.1324292   569361 
 3847000    1.0066616   -2.6841501   -2.6841501   -1.5524136  0.062171185   -2.6841501    1.1317365   569361 
 3848000    1.0072352    -2.684068    -2.684068   -1.5516866  0.064301963    -2.684068    1.1323813   569361 
 3849000    1.0064269   -2.6837831   -2.6837831   -1.5523105  0.076644147   -2.6837831    1.1314726   569361 
 3850000    1.0084139   -2.6866406   -2.6866406    -1.552934  0.074688515   -2.6866406    1.1337065   569361 
 3851000     1.007236    -2.685339    -2.685339   -1.5529567  0.064701755    -2.685339    1.1323822   569361 
 3852000    1.0073072   -2.6857827   -2.6857827   -1.5533205  0.057358083   -2.6857827    1.1324623   569361 
 3853000    1.0056158    -2.683471    -2.683471   -1.5529103  0.069673961    -2.683471    1.1305607   569361 
 3854000    1.0043204    -2.682025    -2.682025   -1.5529206  0.068400623    -2.682025    1.1291044   569361 
 3855000    1.0046654   -2.6825712   -2.6825712   -1.5530789  0.063566935   -2.6825712    1.1294923   569361 
 3856000    1.0048824   -2.6827047   -2.6827047   -1.5529686    0.0693231   -2.6827047    1.1297362   569361 
 3857000    1.0042706   -2.6819724   -2.6819724    -1.552924  0.069093235   -2.6819724    1.1290484   569361 
 3858000    1.0042682   -2.6824754   -2.6824754   -1.5534296  0.066222221   -2.6824754    1.1290457   569361 
 3859000    1.0060416   -2.6853954   -2.6853954    -1.554356  0.068980398   -2.6853954    1.1310394   569361 
 3860000    1.0036287   -2.6827216   -2.6827216   -1.5543948  0.075329527   -2.6827216    1.1283268   569361 
 3861000    1.0038717   -2.6831847   -2.6831847   -1.5545848  0.070709083   -2.6831847    1.1285999   569361 
 3862000    1.0043672   -2.6835744   -2.6835744   -1.5544175  0.063785303   -2.6835744    1.1291569   569361 
 3863000    1.0022789   -2.6817538   -2.6817538   -1.5549446   0.06691994   -2.6817538    1.1268092   569361 
 3864000    1.0061085   -2.6847731   -2.6847731   -1.5536585  0.068092578   -2.6847731    1.1311147   569361 
 3865000    1.0048179   -2.6833876   -2.6833876   -1.5537239   0.06701526   -2.6833876    1.1296637   569361 
 3866000    1.0052894   -2.6840412   -2.6840412   -1.5538475  0.062908403   -2.6840412    1.1301938   569361 
 3867000    1.0047768   -2.6831531   -2.6831531   -1.5535357   0.06784271   -2.6831531    1.1296174   569361 
 3868000    1.0042962   -2.6833297   -2.6833297   -1.5542525  0.066092197   -2.6833297    1.1290772   569361 
 3869000    1.0049882   -2.6836105   -2.6836105   -1.5537553  0.077220325   -2.6836105    1.1298552   569361 
 3870000    1.0055212   -2.6841684   -2.6841684   -1.5537141  0.060619739   -2.6841684    1.1304543   569361 
 3871000    1.0058595   -2.6854806   -2.6854806   -1.5546459  0.060869775   -2.6854806    1.1308347   569361 
 3872000    1.0050277   -2.6840345   -2.6840345   -1.5541349  0.067354316   -2.6840345    1.1298996   569361 
 3873000    1.0048567   -2.6846392   -2.6846392   -1.5549319  0.067857508   -2.6846392    1.1297073   569361 
 3874000     1.004179   -2.6837387   -2.6837387   -1.5547932  0.069919879   -2.6837387    1.1289455   569361 
 3875000    1.0036807   -2.6831902   -2.6831902    -1.554805  0.079288736   -2.6831902    1.1283852   569361 
 3876000    1.0053646   -2.6851806   -2.6851806   -1.5549023  0.074524496   -2.6851806    1.1302783   569361 
 3877000    1.0043861   -2.6846161   -2.6846161   -1.5554378  0.073339474   -2.6846161    1.1291782   569361 
 3878000    1.0049191   -2.6847465   -2.6847465   -1.5549691  0.067414952   -2.6847465    1.1297774   569361 
 3879000    1.0057108   -2.6858846   -2.6858846   -1.5552171  0.072703788   -2.6858846    1.1306675   569361 
 3880000    1.0052626   -2.6854743   -2.6854743   -1.5553106  0.070769187   -2.6854743    1.1301636   569361 
 3881000    1.0049599   -2.6845386   -2.6845386   -1.5547153  0.067739123   -2.6845386    1.1298233   569361 
 3882000    1.0047342   -2.6849118   -2.6849118   -1.5553423  0.066019128   -2.6849118    1.1295696   569361 
 3883000    1.0053614    -2.685814    -2.685814   -1.5555393  0.062408611    -2.685814    1.1302747   569361 
 3884000    1.0049557   -2.6845623   -2.6845623   -1.5547436  0.065523306   -2.6845623    1.1298187   569361 
 3885000    1.0052187   -2.6857219   -2.6857219   -1.5556075  0.067895504   -2.6857219    1.1301143   569361 
 3886000    1.0046634   -2.6851415   -2.6851415   -1.5556515  0.067880658   -2.6851415    1.1294899   569361 
 3887000    1.0058904   -2.6862151   -2.6862151   -1.5553456  0.071635168   -2.6862151    1.1308695   569361 
 3888000     1.005112   -2.6854671   -2.6854671   -1.5554728  0.068510829   -2.6854671    1.1299943   569361 
 3889000    1.0052478   -2.6854872   -2.6854872   -1.5553401  0.061705768   -2.6854872    1.1301471   569361 
 3890000    1.0049265   -2.6848891   -2.6848891   -1.5551033  0.067722725   -2.6848891    1.1297858   569361 
 3891000    1.0043617   -2.6843965   -2.6843965   -1.5552457  0.070783357   -2.6843965    1.1291508   569361 
 3892000    1.0045995   -2.6852948   -2.6852948   -1.5558767  0.060565877   -2.6852948    1.1294181   569361 
 3893000     1.004022   -2.6843739   -2.6843739    -1.555605   0.05850805   -2.6843739    1.1287689   569361 
 3894000     1.003209   -2.6833163   -2.6833163   -1.5554614  0.065561568   -2.6833163    1.1278549   569361 
 3895000    1.0041978    -2.683577    -2.683577   -1.5546105  0.061012558    -2.683577    1.1289665   569361 
 3896000    1.0040613   -2.6841056   -2.6841056   -1.5552925  0.068581713   -2.6841056    1.1288131   569361 
 3897000    1.0038137   -2.6849202   -2.6849202   -1.5563854  0.060304211   -2.6849202    1.1285348   569361 
 3898000    1.0054224   -2.6862715   -2.6862715   -1.5559282  0.069126776   -2.6862715    1.1303433   569361 
 3899000    1.0052978   -2.6854809   -2.6854809   -1.5552777  0.074248781   -2.6854809    1.1302032   569361 
 3900000    1.0059923    -2.685774    -2.685774     -1.55479  0.059264219    -2.685774     1.130984   569361 
 3901000    1.0056816   -2.6853903   -2.6853903   -1.5547556  0.065006083   -2.6853903    1.1306347   569361 
 3902000    1.0064785   -2.6865288   -2.6865288   -1.5549982  0.072656999   -2.6865288    1.1315306   569361 
 3903000    1.0054313   -2.6849977   -2.6849977   -1.5546444   0.06739606   -2.6849977    1.1303533   569361 
 3904000    1.0046529   -2.6841442   -2.6841442    -1.554666  0.066489865   -2.6841442    1.1294782   569361 
 3905000    1.0040464   -2.6841989   -2.6841989   -1.5554025  0.067199086   -2.6841989    1.1287963   569361 
 3906000    1.0039585   -2.6843119   -2.6843119   -1.5556144  0.063946516   -2.6843119    1.1286975   569361 
 3907000    1.0062982   -2.6864594   -2.6864594   -1.5551315  0.059357306   -2.6864594    1.1313279   569361 
 3908000    1.0027865   -2.6833981   -2.6833981   -1.5560182  0.067980216   -2.6833981    1.1273799   569361 
 3909000    1.0023578   -2.6839022   -2.6839022   -1.5570042  0.061722074   -2.6839022     1.126898   569361 
 3910000    1.0038212   -2.6852948   -2.6852948   -1.5567516  0.061119572   -2.6852948    1.1285432   569361 
 3911000    1.0040293    -2.685283    -2.685283   -1.5565058  0.066075388    -2.685283    1.1287772   569361 
 3912000    1.0041167    -2.685407    -2.685407   -1.5565316  0.067988782    -2.685407    1.1288754   569361 
 3913000    1.0037353   -2.6854931   -2.6854931   -1.5570466   0.06447674   -2.6854931    1.1284465   569361 
 3914000    1.0045368   -2.6859966   -2.6859966   -1.5566489  0.062380317   -2.6859966    1.1293477   569361 
 3915000    1.0043755   -2.6856843   -2.6856843    -1.556518  0.069561192   -2.6856843    1.1291663   569361 
 3916000    1.0034085   -2.6846902   -2.6846902   -1.5566111  0.074008844   -2.6846902    1.1280791   569361 
 3917000    1.0032062   -2.6841218   -2.6841218     -1.55627  0.072513278   -2.6841218    1.1278518   569361 
 3918000    1.0042028   -2.6855107   -2.6855107   -1.5565385  0.065912626   -2.6855107    1.1289722   569361 
 3919000    1.0043212   -2.6865653   -2.6865653   -1.5574601  0.062921297   -2.6865653    1.1291053   569361 
 3920000    1.0032451   -2.6858338   -2.6858338   -1.5579383  0.061172565   -2.6858338    1.1278955   569361 
 3921000    1.0037622   -2.6860977   -2.6860977   -1.5576208  0.072254808   -2.6860977    1.1284769   569361 
 3922000    1.0048153   -2.6869265   -2.6869265   -1.5572657   0.07468147   -2.6869265    1.1296608   569361 
 3923000    1.0051355   -2.6866772   -2.6866772   -1.5566564  0.073933249   -2.6866772    1.1300208   569361 
 3924000    1.0057926   -2.6870094   -2.6870094   -1.5562499  0.070847203   -2.6870094    1.1307595   569361 
 3925000    1.0051143   -2.6860502   -2.6860502   -1.5560532  0.065944956   -2.6860502    1.1299969   569361 
 3926000    1.0060443    -2.686575    -2.686575   -1.5555325  0.062219197    -2.686575    1.1310425   569361 
 3927000    1.0056857   -2.6867339   -2.6867339   -1.5560946  0.071739146   -2.6867339    1.1306393   569361 
 3928000     1.005438   -2.6863505   -2.6863505   -1.5559896   0.08439038   -2.6863505    1.1303609   569361 
 3929000    1.0058782   -2.6861445   -2.6861445   -1.5552888  0.069260978   -2.6861445    1.1308557   569361 
 3930000    1.0054979   -2.6868143   -2.6868143    -1.556386  0.071340637   -2.6868143    1.1304282   569361 
 3931000     1.004695   -2.6853877   -2.6853877   -1.5558622  0.065196725   -2.6853877    1.1295255   569361 
 3932000    1.0055682   -2.6867928   -2.6867928   -1.5562856  0.069901362   -2.6867928    1.1305072   569361 
 3933000    1.0047714   -2.6858436   -2.6858436   -1.5562322  0.072102708   -2.6858436    1.1296114   569361 
 3934000    1.0047132   -2.6849719   -2.6849719    -1.555426   0.06519957   -2.6849719    1.1295459   569361 
 3935000    1.0060843   -2.6864641   -2.6864641   -1.5553766  0.064631225   -2.6864641    1.1310875   569361 
 3936000    1.0044604   -2.6851875   -2.6851875   -1.5559258  0.058120125   -2.6851875    1.1292618   569361 
 3937000     1.004935   -2.6850841   -2.6850841   -1.5552887  0.067909875   -2.6850841    1.1297953   569361 
 3938000    1.0038044   -2.6833374   -2.6833374   -1.5548131  0.064486155   -2.6833374    1.1285242   569361 
 3939000    1.0065661   -2.6860549   -2.6860549   -1.5544257  0.067537925   -2.6860549    1.1316292   569361 
 3940000    1.0062043   -2.6856228   -2.6856228   -1.5544005  0.064123008   -2.6856228    1.1312223   569361 
 3941000    1.0048993   -2.6833945   -2.6833945   -1.5536393  0.070929023   -2.6833945    1.1297552   569361 
 3942000    1.0042298   -2.6834141   -2.6834141   -1.5544115  0.080483575   -2.6834141    1.1290026   569361 
 3943000    1.0039289   -2.6830667   -2.6830667   -1.5544025  0.071716232   -2.6830667    1.1286642   569361 
 3944000     1.003309   -2.6833248   -2.6833248   -1.5553575  0.058051502   -2.6833248    1.1279673   569361 
 3945000    1.0043087   -2.6843095   -2.6843095   -1.5552183  0.062473596   -2.6843095    1.1290912   569361 
 3946000    1.0036553   -2.6829078   -2.6829078   -1.5545511  0.057976651   -2.6829078    1.1283566   569361 
 3947000    1.0039948   -2.6828181   -2.6828181   -1.5540798  0.063018737   -2.6828181    1.1287383   569361 
 3948000    1.0057015   -2.6838733   -2.6838733   -1.5532162  0.067402601   -2.6838733     1.130657   569361 
 3949000    1.0055023   -2.6838442   -2.6838442   -1.5534111  0.072814243   -2.6838442    1.1304331   569361 
 3950000    1.0046964   -2.6833279   -2.6833279   -1.5538008  0.063617042   -2.6833279    1.1295271   569361 
 3951000    1.0039306   -2.6812875   -2.6812875   -1.5526214  0.065089168   -2.6812875    1.1286661   569361 
 3952000    1.0065985   -2.6836757   -2.6836757   -1.5520102  0.071333448   -2.6836757    1.1316655   569361 
 3953000    1.0060069   -2.6822172   -2.6822172   -1.5512168  0.077949089   -2.6822172    1.1310004   569361 
 3954000    1.0049315   -2.6808721   -2.6808721   -1.5510807   0.06712061   -2.6808721    1.1297914   569361 
 3955000    1.0056982   -2.6818056   -2.6818056   -1.5511523  0.072508406   -2.6818056    1.1306534   569361 
 3956000    1.0047985   -2.6814763   -2.6814763   -1.5518344  0.064746735   -2.6814763    1.1296418   569361 
 3957000    1.0064846   -2.6827954   -2.6827954   -1.5512579  0.069393831   -2.6827954    1.1315375   569361 
 3958000    1.0048255   -2.6809721   -2.6809721   -1.5512999  0.064383226   -2.6809721    1.1296722   569361 
 3959000    1.0071515   -2.6833472   -2.6833472   -1.5510599  0.068139609   -2.6833472    1.1322873   569361 
 3960000    1.0057928   -2.6816802   -2.6816802   -1.5509205  0.069750383   -2.6816802    1.1307597   569361 
 3961000    1.0058095   -2.6817715   -2.6817715   -1.5509931  0.071485431   -2.6817715    1.1307785   569361 
 3962000    1.0052236   -2.6817246   -2.6817246   -1.5516047  0.071599951   -2.6817246    1.1301198   569361 
 3963000    1.0066123   -2.6830786   -2.6830786   -1.5513976  0.065857688   -2.6830786     1.131681   569361 
 3964000    1.0043512    -2.681038    -2.681038    -1.551899  0.070598841    -2.681038     1.129139   569361 
 3965000     1.004592   -2.6813788   -2.6813788   -1.5519691  0.066655313   -2.6813788    1.1294097   569361 
 3966000    1.0045952   -2.6812359   -2.6812359   -1.5518226  0.063560917   -2.6812359    1.1294134   569361 
 3967000    1.0051674   -2.6815691   -2.6815691   -1.5515125  0.057953603   -2.6815691    1.1300566   569361 
 3968000     1.003773   -2.6810464   -2.6810464   -1.5525574  0.053000818   -2.6810464     1.128489   569361 
 3969000    1.0052323   -2.6812698   -2.6812698   -1.5511402  0.059819796   -2.6812698    1.1301296   569361 
 3970000     1.004608   -2.6818088   -2.6818088   -1.5523811  0.062511505   -2.6818088    1.1294277   569361 
 3971000    1.0063168   -2.6833424   -2.6833424   -1.5519936  0.073378133   -2.6833424    1.1313488   569361 
 3972000    1.0049762   -2.6822322   -2.6822322   -1.5523905  0.070247893   -2.6822322    1.1298417   569361 
 3973000    1.0025246   -2.6794315   -2.6794315    -1.552346  0.062310342   -2.6794315    1.1270855   569361 
 3974000    1.0032611    -2.680191    -2.680191   -1.5522776  0.070297485    -2.680191    1.1279134   569361 
 3975000    1.0026478   -2.6800929   -2.6800929   -1.5528689  0.064566178   -2.6800929     1.127224   569361 
 3976000    1.0043967   -2.6816859   -2.6816859   -1.5524957  0.069811515   -2.6816859    1.1291902   569361 
 3977000    1.0067927   -2.6843254   -2.6843254   -1.5524416  0.061677644   -2.6843254    1.1318838   569361 
 3978000    1.0055867   -2.6823307   -2.6823307   -1.5518026   0.06689235   -2.6823307     1.130528   569361 
 3979000    1.0054774   -2.6817842   -2.6817842   -1.5513791  0.068830088   -2.6817842    1.1304051   569361 
 3980000    1.0076797   -2.6856986   -2.6856986   -1.5528175    0.0639475   -2.6856986     1.132881   569361 
 3981000     1.006223   -2.6838871   -2.6838871   -1.5526437  0.071282694   -2.6838871    1.1312434   569361 
 3982000    1.0087564   -2.6856723   -2.6856723   -1.5515808  0.062871319   -2.6856723    1.1340915   569361 
 3983000    1.0086535     -2.68573     -2.68573   -1.5517541   0.06863718     -2.68573    1.1339758   569361 
 3984000    1.0077869   -2.6849769   -2.6849769   -1.5519753  0.069932444   -2.6849769    1.1330016   569361 
 3985000    1.0065943   -2.6839839   -2.6839839    -1.552323  0.070889697   -2.6839839    1.1316608   569361 
 3986000      1.00432    -2.681468    -2.681468   -1.5523641  0.060629787    -2.681468    1.1291039   569361 
 3987000    1.0063152   -2.6840145   -2.6840145   -1.5526674  0.059560294   -2.6840145    1.1313471   569361 
 3988000    1.0054194   -2.6820155   -2.6820155   -1.5516756  0.067181516   -2.6820155    1.1303399   569361 
 3989000    1.0072837   -2.6845141   -2.6845141   -1.5520782  0.058365196   -2.6845141    1.1324358   569361 
 3990000    1.0062867   -2.6831141   -2.6831141   -1.5517991  0.069531755   -2.6831141     1.131315   569361 
 3991000    1.0059137   -2.6839555   -2.6839555   -1.5530598  0.068993361   -2.6839555    1.1308956   569361 
 3992000    1.0049671   -2.6839978   -2.6839978   -1.5541664   0.05935765   -2.6839978    1.1298314   569361 
 3993000    1.0047355   -2.6831647   -2.6831647   -1.5535936  0.057332912   -2.6831647     1.129571   569361 
 3994000     1.003534   -2.6816177   -2.6816177   -1.5533974  0.066495523   -2.6816177    1.1282203   569361 
 3995000    1.0042224   -2.6812145   -2.6812145   -1.5522203  0.069612907   -2.6812145    1.1289942   569361 
 3996000    1.0042335   -2.6815083   -2.6815083   -1.5525016   0.06867501   -2.6815083    1.1290067   569361 
 3997000    1.0049379   -2.6822667   -2.6822667   -1.5524681  0.076641603   -2.6822667    1.1297986   569361 
 3998000    1.0049173   -2.6816853   -2.6816853   -1.5519098  0.058931413   -2.6816853    1.1297755   569361 
 3999000    1.0045329   -2.6822405   -2.6822405   -1.5528972  0.060727571   -2.6822405    1.1293433   569361 
 4000000    1.0057523   -2.6826257   -2.6826257   -1.5519115  0.059367301   -2.6826257    1.1307141   569361 
Loop time of 8162.08 on 240 procs for 4000000 steps with 569361 atoms

Performance: 211710.677 tau/day, 490.071 timesteps/s
99.2% CPU use with 240 MPI tasks x 1 OpenMP threads

MPI task timing breakdown:
Section |  min time  |  avg time  |  max time  |%varavg|  %CPU | %total
-----------------------------------------------------------------------
Pair    | 1620.7     | 2222.9     | 2893.1     | 732.8 |  99.1 | 27.23
Bond    | 2.6411     | 2.7851     | 3.0052     |   3.2 | 100.0 |  0.03
Neigh   | 1206.4     | 1872.3     | 2495.6     | 605.6 |  99.6 | 22.94
Comm    | 1353.3     | 2469.6     | 3462.8     | 886.3 |  99.0 | 30.26
Output  | 153.85     | 155.86     | 158.26     |  13.5 |  97.4 |  1.91
Modify  | 902.03     | 1336.5     | 1869       | 720.1 |  99.1 | 16.37
Other   |            | 102.1      |            |       |       |  1.25

Nlocal:        2372.34 ave        2961 max        1875 min
Histogram: 10 18 23 46 55 34 21 18 10 5
Nghost:        5395.80 ave        9160 max        2359 min
Histogram: 22 22 34 15 38 37 38 26 6 2
Neighs:        53390.8 ave       72105 max       23836 min
Histogram: 2 3 7 23 41 44 41 17 47 15

Total # of neighbors = 12813788
Ave neighs/atom = 22.505560
Ave special neighs/atom = 0.0000000
Neighbor list builds = 400000
Dangerous builds = 396000

Total wall time: 2:16:06
