LAMMPS (24 Dec 2020)
OMP_NUM_THREADS environment is not set. Defaulting to 1 thread. (src/comm.cpp:94)
  using 1 OpenMP thread(s) per MPI task
# Simple rigid body system
# needed variables: startTemp, temp

units		lj
atom_style	full
dimension 	3
boundary	p p f
pair_style	lj/cut/opt 2.5

variable 	gcmcdisplace	equal 0
variable 	sigma		equal 1.0
variable 	epsilon 	equal 1.0


read_restart	restart.dat.3000000
Reading restart file ...
  restart file = 24 Dec 2020, LAMMPS = 24 Dec 2020
WARNING: Restart file used different # of processors: 48 vs. 192 (src/read_restart.cpp:697)
  restoring atom style full from restart
  orthogonal box = (0.0000000 0.0000000 0.0000000) to (80.000000 80.000000 160.00000)
  6 by 4 by 8 MPI processor grid
  restoring pair style lj/cut/opt from restart
  439061 atoms
Finding 1-2 1-3 1-4 neighbors ...
  special bond factors lj:    0        0        0       
  special bond factors coul:  0        0        0       
     0 = max # of 1-2 neighbors
     0 = max # of 1-3 neighbors
     0 = max # of 1-4 neighbors
     1 = max # of special neighbors
  special bonds CPU = 1.402 seconds
  read_restart CPU = 1.704 seconds

mass		1 1.0
mass		2 1.0
mass		3 1.0


group		solvent type 1
439061 atoms in group solvent


neighbor 	0.4 bin

pair_coeff	1 1 1.0 1.0
pair_coeff	2 2 0.0 0.0
pair_coeff	3 3 0.0 0.0
pair_coeff	2 3 0.0 0.0
pair_coeff	1 2*3 0.0 0.0

pair_modify 	shift yes


balance 	1.05 shift z 10 1.05
Balancing ...
Neighbor list info ...
  update every 1 steps, delay 10 steps, check yes
  max neighbors/atom: 2000, page size: 100000
  master list distance cutoff = 2.9
  ghost atom cutoff = 2.9
  binsize = 1.45, bins = 56 56 111
  1 neighbor lists, perpetual/occasional/extra = 1 0 0
  (1) pair lj/cut/opt, perpetual
      attributes: half, newton on
      pair build: half/bin/newton
      stencil: half/bin/3d/newton
      bin: standard
 rebalancing time: 0.039 seconds
  iteration count = 5
  initial/final maximal load/proc = 3162.0000 2575.0000
  initial/final imbalance factor  = 1.3827327 1.1260394
  x cuts: 0.0000000 0.16666667 0.33333333 0.50000000 0.66666667 0.83333333 1.0000000
  y cuts: 0.0000000 0.25000000 0.50000000 0.75000000 1.0000000
  z cuts: 0.0000000 0.097656250 0.18359375 0.27734375 0.37890625 0.47656250 0.57031250 0.67968750 1.0000000


####################### WALLS ###########################


variable       epsilonWall equal 2*${epsilon}
variable       epsilonWall equal 2*1

variable       cutoffTop   equal   0.7147*${sigma}
variable       cutoffTop   equal   0.7147*1

variable       cutoffLow   equal   3*${sigma}
variable       cutoffLow   equal   3*1


fix            topWall all wall/lj93 zhi EDGE                ${epsilonWall} ${sigma} ${cutoffTop} units box
fix            topWall all wall/lj93 zhi EDGE                2 ${sigma} ${cutoffTop} units box
fix            topWall all wall/lj93 zhi EDGE                2 1 ${cutoffTop} units box
fix            topWall all wall/lj93 zhi EDGE                2 1 0.7147 units box

fix            lowWall all wall/lj93 zlo EDGE                ${epsilonWall} ${sigma} ${cutoffLow} units box
fix            lowWall all wall/lj93 zlo EDGE                2 ${sigma} ${cutoffLow} units box
fix            lowWall all wall/lj93 zlo EDGE                2 1 ${cutoffLow} units box
fix            lowWall all wall/lj93 zlo EDGE                2 1 3 units box


###################### COMPUTES ##########################

compute        bin1 solvent chunk/atom bin/1d z upper 1.0



######################	FIXES ############################


fix 		peclet solvent ave/chunk 1000 1 1000 bin1 density/number norm 		 none ave one file density.profile

fix 		 temp solvent ave/chunk 1000 1 1000 bin1 temp norm none ave one file temp.profile

fix 		2 solvent nve

## Thermostat


region		regthermo block EDGE EDGE EDGE EDGE 0 20

group 		thermo dynamic solvent region regthermo every 1000
dynamic group thermo defined

fix 		3 thermo langevin ${startTemp} ${temp} 10 156453
fix 		3 thermo langevin 1.0 ${temp} 10 156453
fix 		3 thermo langevin 1.0 1.0 10 156453


## Evaporation

region		regevap block EDGE EDGE EDGE EDGE 140 158
fix 		gcmc solvent gcmc 100 100 0 1 780493 ${temp} ${mu} ${gcmcdisplace} region regevap
fix 		gcmc solvent gcmc 100 100 0 1 780493 1.0 ${mu} ${gcmcdisplace} region regevap
fix 		gcmc solvent gcmc 100 100 0 1 780493 1.0 -2.3 ${gcmcdisplace} region regevap
fix 		gcmc solvent gcmc 100 100 0 1 780493 1.0 -2.3 0 region regevap


#### Load balancing

fix 		bal all balance 1000 1.05 shift z 10 1.05

############### Diagnostics and computes ###################
#compute 	com cube	  rigid/local	1 mol x y z
#compute 	quat cube	  rigid/local	1 mol quatw quati quatj quatk

thermo 		1000
thermo_style 	custom step temp epair etotal press pe ke atoms

dump		1 all custom 100000 dump.lammpstrj id mol type x y z
dump 		2 all image 10000 image.*.png type type
dump 		3 all movie 1000 movie.avi type type
#dump 		com cube local 1000 dump.*.xyz c_com[*]
#dump		quat cube      local 1000 dump.*.quat c_quat[*]


restart 	1000000 restart.dat
timestep 	0.005
timer 		full
New timer settings: style=full  mode=nosync  timeout=off


run		5000000
Per MPI rank memory allocation (min/avg/max) = 9.923 | 9.986 | 10.01 Mbytes
Step Temp E_pair TotEng Press PotEng KinEng Atoms 
 3000000     1.016004   -3.1352716   -1.6112691  0.079025997   -3.1352716    1.5240025   439061 
 3001000    1.0155307   -3.1340066   -1.6112447  0.074302562   -3.1340066    1.5227619   439214 
 3002000    1.0173623   -3.1346356   -1.6096445  0.074030931   -3.1346356    1.5249911   439363 
 3003000    1.0178185   -3.1349286   -1.6096634  0.074394287   -3.1349286    1.5252652   439481 
 3004000     1.016254   -3.1313487    -1.609093  0.073795856   -3.1313487    1.5222557   439673 
 3005000    1.0176435   -3.1312692   -1.6075212  0.079342692   -3.1312692    1.5237479   439843 
 3006000    1.0187508   -3.1303374   -1.6053614  0.080463488   -3.1303374     1.524976   439967 
 3007000    1.0190903     -3.13055   -1.6054853  0.078357737     -3.13055    1.5250647   440088 
 3008000    1.0202002   -3.1325748   -1.6063381  0.078147507   -3.1325748    1.5262367   440229 
 3009000    1.0209467   -3.1325379   -1.6056528  0.071728615   -3.1325379    1.5268852   440364 
 3010000    1.0202663    -3.129937   -1.6046339  0.081638611    -3.129937    1.5253031   440527 
 3011000    1.0204513   -3.1299008   -1.6049062  0.075260988   -3.1299008    1.5249946   440696 
 3012000    1.0207899   -3.1296592   -1.6046396  0.078953045   -3.1296592    1.5250196   440835 
 3013000    1.0212661   -3.1278274   -1.6027018  0.084240885   -3.1278274    1.5251256   441010 
 3014000    1.0251576   -3.1305328   -1.6001753  0.077745395   -3.1305328    1.5303575   441177 
 3015000    1.0247352   -3.1279889   -1.5989239  0.078855529   -3.1279889    1.5290649   441368 
 3016000    1.0257223   -3.1278902   -1.5978064  0.082521942   -3.1278902    1.5300838   441499 
 3017000      1.02531   -3.1273277   -1.5983889  0.081917931   -3.1273277    1.5289388   441652 
 3018000    1.0267189    -3.127515   -1.5968807   0.07839377    -3.127515    1.5306343   441769 
 3019000    1.0271234   -3.1266381   -1.5959898  0.084612202   -3.1266381    1.5306483   441939 
 3020000    1.0279457   -3.1264394   -1.5950715  0.082120716   -3.1264394    1.5313679   442085 
 3021000    1.0288673   -3.1258015   -1.5934628  0.089770323   -3.1258015    1.5323387   442201 
 3022000    1.0280478   -3.1254699   -1.5948813  0.078815797   -3.1254699    1.5305886   442354 
 3023000    1.0271884   -3.1247212   -1.5958545  0.079856972   -3.1247212    1.5288667   442482 
 3024000    1.0284682    -3.126032   -1.5957723  0.082068386    -3.126032    1.5302597   442630 
 3025000    1.0292225   -3.1261431    -1.595387  0.079133768   -3.1261431    1.5307561   442811 
 3026000    1.0297901   -3.1260955    -1.594955  0.084936588   -3.1260955    1.5311404   442944 
 3027000    1.0282923   -3.1244389   -1.5959914  0.079278218   -3.1244389    1.5284476   443079 
 3028000    1.0296966    -3.125574   -1.5955604  0.080265799    -3.125574    1.5300136   443230 
 3029000    1.0294423   -3.1262352   -1.5971447  0.078879119   -3.1262352    1.5290905   443388 
 3030000    1.0312729   -3.1265586   -1.5951566  0.080602665   -3.1265586     1.531402   443506 
 3031000     1.031662   -3.1256588   -1.5940795  0.086846294   -3.1256588    1.5315794   443622 
 3032000    1.0314715    -3.124265   -1.5934481  0.090605795    -3.124265    1.5308168   443761 
 3033000    1.0318783   -3.1234586   -1.5925003  0.079868308   -3.1234586    1.5309583   443895 
 3034000    1.0339013   -3.1262454    -1.592645  0.082267134   -3.1262454    1.5336004   443999 
 3035000    1.0343567   -3.1244693   -1.5907322  0.084512045   -3.1244693    1.5337371   444155 
 3036000    1.0341802    -3.124339   -1.5914262  0.082783614    -3.124339    1.5329128   444318 
 3037000    1.0338942   -3.1244611   -1.5923205  0.081788187   -3.1244611    1.5321406   444419 
 3038000    1.0363233   -3.1261153    -1.590831  0.083355395   -3.1261153    1.5352842   444551 
 3039000    1.0362478   -3.1249513   -1.5901311  0.085044547   -3.1249513    1.5348202   444653 
 3040000    1.0361071   -3.1251535   -1.5909867  0.085483298   -3.1251535    1.5341668   444782 
 3041000    1.0350247   -3.1228935   -1.5909046  0.087718372   -3.1228935    1.5319889   444949 
 3042000    1.0374209   -3.1242451   -1.5893304  0.083920714   -3.1242451    1.5349147   445129 
 3043000    1.0400133    -3.126666    -1.588593  0.087120492    -3.126666     1.538073   445325 
 3044000    1.0383546   -3.1245198   -1.5893378   0.08618252   -3.1245198    1.5351821   445452 
 3045000    1.0397002    -3.125652   -1.5889807  0.084366616    -3.125652    1.5366714   445597 
 3046000    1.0396623   -3.1246034   -1.5884052  0.083447446   -3.1246034    1.5361982   445718 
 3047000    1.0399335   -3.1246877   -1.5885919  0.085828897   -3.1246877    1.5360958   445864 
 3048000    1.0396481   -3.1227917   -1.5875652  0.090924818   -3.1227917    1.5352265   445994 
 3049000    1.0401358   -3.1221347   -1.5866493  0.088375414   -3.1221347    1.5354854   446128 
 3050000    1.0405494   -3.1232145   -1.5875522  0.088259668   -3.1232145    1.5356623   446254 
 3051000    1.0422317   -3.1240883   -1.5863602  0.082043663   -3.1240883    1.5377281   446375 
 3052000    1.0420706   -3.1223799   -1.5853681  0.090854834   -3.1223799    1.5370118   446514 
 3053000    1.0414746   -3.1220805   -1.5863571  0.083620334   -3.1220805    1.5357234   446633 
 3054000    1.0423665   -3.1204804   -1.5840129  0.085441505   -3.1204804    1.5364676   446799 
 3055000    1.0427421   -3.1202625   -1.5836403   0.08791738   -3.1202625    1.5366223   446915 
 3056000    1.0418247   -3.1183091   -1.5834407  0.085720714   -3.1183091    1.5348685   447032 
 3057000    1.0411959   -3.1165378    -1.583172  0.089740044   -3.1165378    1.5333658   447200 
 3058000    1.0436397   -3.1188907   -1.5824481  0.088274523   -3.1188907    1.5364426   447352 
 3059000    1.0447153   -3.1201507   -1.5826023  0.089901364   -3.1201507    1.5375484   447491 
 3060000    1.0448292    -3.119309   -1.5821083  0.086303416    -3.119309    1.5372007   447641 
 3061000     1.042654   -3.1162306   -1.5827439    0.0940579   -3.1162306    1.5334867   447791 
 3062000    1.0435412   -3.1179255   -1.5836685  0.089575147   -3.1179255     1.534257   447947 
 3063000    1.0445565   -3.1177532   -1.5824902  0.087380345   -3.1177532    1.5352631   448089 
 3064000    1.0469167   -3.1182515   -1.5800035  0.087662847   -3.1182515    1.5382479   448230 
 3065000    1.0467467   -3.1177084   -1.5801734  0.085093556   -3.1177084     1.537535   448365 
 3066000    1.0476397   -3.1177867   -1.5794511   0.08541887   -3.1177867    1.5383356   448514 
 3067000    1.0476367   -3.1164045   -1.5785945  0.087767829   -3.1164045    1.5378099   448666 
 3068000    1.0497084   -3.1182464   -1.5778589  0.090768218   -3.1182464    1.5403875   448801 
 3069000     1.048947   -3.1169252   -1.5781041  0.085473915   -3.1169252    1.5388211   448932 
 3070000     1.048924   -3.1155117   -1.5770603  0.088309517   -3.1155117    1.5384514   449030 
 3071000    1.0479826   -3.1151949   -1.5785417  0.090183489   -3.1151949    1.5366532   449152 
 3072000     1.048037   -3.1130923   -1.5768929  0.096131547   -3.1130923    1.5361994   449308 
 3073000    1.0497946   -3.1151091   -1.5768915  0.091421359   -3.1151091    1.5382176   449471 
 3074000    1.0501606    -3.115474   -1.5771513  0.089133202    -3.115474    1.5383227   449597 
 3075000    1.0519656   -3.1165488   -1.5760344  0.090862595   -3.1165488    1.5405144   449729 
 3076000    1.0503543   -3.1149397   -1.5772499  0.086730391   -3.1149397    1.5376899   449865 
 3077000    1.0511558   -3.1159196   -1.5775249  0.089177089   -3.1159196    1.5383947   450002 
 3078000    1.0525988   -3.1156659   -1.5756213  0.092442607   -3.1156659    1.5400446   450137 
 3079000    1.0523902   -3.1135016    -1.574323  0.094703764   -3.1135016    1.5391785   450301 
 3080000    1.0550338   -3.1169138   -1.5744955  0.088819898   -3.1169138    1.5424182   450484 
 3081000    1.0549259   -3.1174464    -1.575672  0.088352466   -3.1174464    1.5417744   450626 
 3082000    1.0552869   -3.1161221   -1.5744393   0.08892887   -3.1161221    1.5416828   450807 
 3083000      1.05508   -3.1152921   -1.5743183  0.094267838   -3.1152921    1.5409738   450926 
 3084000    1.0563037   -3.1173268   -1.5750447   0.09037107   -3.1173268    1.5422821   451066 
 3085000    1.0573689   -3.1180916   -1.5746374  0.089979636   -3.1180916    1.5434542   451178 
 3086000    1.0574956   -3.1166292   -1.5734587  0.097187689   -3.1166292    1.5431705   451315 
 3087000    1.0572218   -3.1151515   -1.5726846  0.094851702   -3.1151515    1.5424669   451404 
 3088000    1.0570525   -3.1150566   -1.5731749  0.094365835   -3.1150566    1.5418817   451503 
 3089000    1.0563915   -3.1137741   -1.5733138  0.092941723   -3.1137741    1.5404603   451637 
 3090000    1.0577614   -3.1137419   -1.5717551  0.089496758   -3.1137419    1.5419868   451775 
 3091000    1.0584074   -3.1148804   -1.5724026  0.098203242   -3.1148804    1.5424778   451907 
 3092000    1.0593355    -3.115336   -1.5719531  0.098832697    -3.115336     1.543383   452038 
 3093000    1.0593496   -3.1148884   -1.5718706  0.088997133   -3.1148884    1.5430178   452151 
 3094000    1.0603112   -3.1159849   -1.5720513   0.09038777   -3.1159849    1.5439336   452293 
 3095000    1.0607117   -3.1140262    -1.569786  0.099874349   -3.1140262    1.5442402   452374 
 3096000    1.0611768   -3.1136508   -1.5690784  0.095102114   -3.1136508    1.5445725   452475 
 3097000    1.0611639   -3.1140683   -1.5698729  0.092732846   -3.1140683    1.5441954   452580 
 3098000    1.0619011   -3.1144994   -1.5695453  0.091834813   -3.1144994    1.5449541   452672 
 3099000    1.0618743   -3.1139376   -1.5694388   0.10060358   -3.1139376    1.5444988   452794 
 3100000    1.0614682   -3.1126436   -1.5691956  0.092986374   -3.1126436     1.543448   452929 
 3101000     1.060797   -3.1123324   -1.5702893  0.084328655   -3.1123324    1.5420431   453055 
 3102000    1.0596792   -3.1108377   -1.5708615  0.087798742   -3.1108377    1.5399762   453185 
 3103000    1.0606966   -3.1101824   -1.5692105  0.091187591   -3.1101824    1.5409719   453327 
 3104000    1.0602982    -3.110674   -1.5706309  0.089330483    -3.110674    1.5400431   453430 
 3105000     1.060466   -3.1098359   -1.5699327  0.092562013   -3.1098359    1.5399031   453543 
 3106000    1.0620375   -3.1105005   -1.5686859  0.092152987   -3.1105005    1.5418146   453652 
 3107000    1.0626088    -3.110004   -1.5678563  0.093288422    -3.110004    1.5421477   453798 
 3108000    1.0627314    -3.109978   -1.5680024  0.092944304    -3.109978    1.5419756   453901 
 3109000     1.065017    -3.111195   -1.5662367  0.097390609    -3.111195    1.5449583   453999 
 3110000    1.0638969   -3.1083667   -1.5654275   0.10094945   -3.1083667    1.5429392   454115 
 3111000    1.0658503   -3.1105199   -1.5651084  0.088610329   -3.1105199    1.5454115   454221 
 3112000    1.0656339   -3.1097997     -1.56511  0.094920845   -3.1097997    1.5446897   454341 
 3113000    1.0668574   -3.1099208   -1.5637877  0.094926782   -3.1099208    1.5461331   454438 
 3114000    1.0665084   -3.1107714   -1.5655114  0.095186598   -3.1107714      1.54526   454546 
 3115000    1.0669765   -3.1107757   -1.5652522  0.093902734   -3.1107757    1.5455235   454668 
 3116000    1.0663492   -3.1087784   -1.5645271  0.091802418   -3.1087784    1.5442513   454775 
 3117000    1.0672514   -3.1106607   -1.5653542  0.090834507   -3.1106607    1.5453065   454849 
 3118000    1.0677041   -3.1115145   -1.5659874  0.095454282   -3.1115145    1.5455271   454977 
 3119000     1.066342   -3.1102637   -1.5670679  0.094423852   -3.1102637    1.5431958   455083 
 3120000    1.0671176    -3.110468   -1.5665773  0.092468537    -3.110468    1.5438907   455209 
 3121000    1.0673624   -3.1101968   -1.5663928   0.09184402   -3.1101968     1.543804   455339 
 3122000    1.0667721   -3.1091225   -1.5665686  0.094437245   -3.1091225    1.5425539   455456 
 3123000    1.0683401     -3.10954   -1.5650342  0.098010829     -3.10954    1.5445058   455549 
 3124000    1.0686381   -3.1097781     -1.56515   0.09047228   -3.1097781    1.5446281   455640 
 3125000    1.0688395   -3.1091186   -1.5645485  0.093187635   -3.1091186    1.5445701   455743 
 3126000    1.0687057    -3.108447   -1.5644463  0.097060447    -3.108447    1.5440007   455854 
 3127000    1.0692835   -3.1080453   -1.5635656  0.093306994   -3.1080453    1.5444797   455959 
 3128000    1.0715659   -3.1109364   -1.5635536  0.098837096   -3.1109364    1.5473828   456075 
 3129000     1.071644   -3.1109607   -1.5638383  0.096348157   -3.1109607    1.5471224   456185 
 3130000    1.0714854   -3.1084078   -1.5620126  0.096552608   -3.1084078    1.5463952   456332 
 3131000    1.0703936   -3.1075998    -1.563244   0.10043024   -3.1075998    1.5443558   456469 
 3132000    1.0719474   -3.1091882   -1.5629259   0.09660434   -3.1091882    1.5462623   456568 
 3133000    1.0726919   -3.1113329   -1.5644271  0.092438354   -3.1113329    1.5469058   456695 
 3134000    1.0737772   -3.1116236   -1.5634544  0.094281747   -3.1116236    1.5481692   456784 
 3135000     1.072786   -3.1087601   -1.5624465  0.094350058   -3.1087601    1.5463135   456910 
 3136000    1.0737128   -3.1104461   -1.5632301  0.089455788   -3.1104461     1.547216   457038 
 3137000    1.0746023   -3.1110748   -1.5628887  0.092771706   -3.1110748    1.5481862   457130 
 3138000    1.0751456   -3.1113884   -1.5629107   0.09602265   -3.1113884    1.5484777   457275 
 3139000    1.0746064   -3.1093848    -1.561995  0.094676518   -3.1093848    1.5473898   457367 
 3140000    1.0757557   -3.1096481    -1.560898  0.095998969   -3.1096481    1.5487501   457454 
 3141000    1.0731231   -3.1064832   -1.5619283  0.094969303   -3.1064832    1.5445549   457574 
 3142000    1.0750096   -3.1081706   -1.5611845  0.093851961   -3.1081706    1.5469861   457658 
 3143000    1.0751061   -3.1082432   -1.5615508    0.0954436   -3.1082432    1.5466924   457786 
 3144000    1.0746799   -3.1069693   -1.5613323   0.10040361   -3.1069693     1.545637   457917 
 3145000     1.074192   -3.1046464   -1.5601159  0.094822757   -3.1046464    1.5445304   458037 
 3146000    1.0745266   -3.1049962   -1.5603455  0.096721893   -3.1049962    1.5446507   458144 
 3147000    1.0752759   -3.1048751   -1.5595015  0.098844108   -3.1048751    1.5453737   458249 
 3148000      1.07673   -3.1062476    -1.559061  0.097480614   -3.1062476    1.5471867   458331 
 3149000    1.0764147    -3.105497    -1.559121  0.091220795    -3.105497    1.5463759   458437 
 3150000    1.0772548   -3.1062581   -1.5589656  0.095489406   -3.1062581    1.5472926   458523 
 3151000    1.0776924   -3.1055796   -1.5581376  0.092086894   -3.1055796     1.547442   458665 
 3152000    1.0782423   -3.1055563   -1.5576556  0.093860296   -3.1055563    1.5479007   458763 
 3153000    1.0789551   -3.1052697   -1.5566326  0.093352547   -3.1052697    1.5486371   458848 
 3154000    1.0779255   -3.1041729   -1.5574349  0.094501306   -3.1041729    1.5467379   458973 
 3155000     1.078947   -3.1034847   -1.5556385  0.091048429   -3.1034847    1.5478462   459079 
 3156000    1.0774662   -3.1016641   -1.5563899  0.091181333   -3.1016641    1.5452742   459212 
 3157000    1.0788813    -3.103047   -1.5562283  0.092392075    -3.103047    1.5468187   459356 
 3158000     1.080277   -3.1050908   -1.5565341  0.093255102   -3.1050908    1.5485567   459434 
 3159000     1.079219   -3.1018308   -1.5550802  0.098335833   -3.1018308    1.5467506   459520 
 3160000    1.0788997   -3.1024061   -1.5564159  0.096449941   -3.1024061    1.5459902   459610 
 3161000    1.0803858   -3.1029294   -1.5551937  0.096820874   -3.1029294    1.5477357   459724 
 3162000    1.0814001   -3.1032139   -1.5544395  0.097586349   -3.1032139    1.5487744   459847 
 3163000    1.0833334   -3.1049237   -1.5537514   0.10091513   -3.1049237    1.5511723   459957 
 3164000    1.0828928   -3.1039231   -1.5536412  0.098811146   -3.1039231    1.5502818   460034 
 3165000    1.0843857   -3.1052889   -1.5532038  0.098779968   -3.1052889    1.5520851   460133 
 3166000    1.0838953   -3.1043631   -1.5532058   0.09525028   -3.1043631    1.5511573   460200 
 3167000    1.0838005   -3.1040195   -1.5533483  0.098848659   -3.1040195    1.5506712   460304 
 3168000    1.0821843   -3.1017579   -1.5537119   0.09988788   -3.1017579     1.548046   460397 
 3169000    1.0829449    -3.102508   -1.5537608  0.097963388    -3.102508    1.5487473   460512 
 3170000    1.0844857   -3.1038414   -1.5532105  0.097716073   -3.1038414    1.5506309   460607 
 3171000    1.0843182   -3.1038993   -1.5539017   0.10045702   -3.1038993    1.5499976   460724 
 3172000    1.0839205   -3.1029301   -1.5539144   0.10458825   -3.1029301    1.5490157   460847 
 3173000    1.0848595   -3.1045873   -1.5546334  0.093755688   -3.1045873    1.5499539   460967 
 3174000    1.0829921   -3.1016383   -1.5548188  0.096287324   -3.1016383    1.5468195   461106 
 3175000    1.0843259    -3.103496   -1.5550266  0.096928117    -3.103496    1.5484694   461182 
 3176000    1.0838436   -3.1040996   -1.5566714  0.094167955   -3.1040996    1.5474282   461287 
 3177000    1.0829043   -3.1023382    -1.556653  0.098998057   -3.1023382    1.5456851   461407 
 3178000    1.0858557   -3.1049685   -1.5553159  0.095691118   -3.1049685    1.5496526   461480 
 3179000    1.0844082   -3.1021617   -1.5548933  0.094131453   -3.1021617    1.5472684   461575 
 3180000    1.0847643   -3.1027078   -1.5552733  0.095052824   -3.1027078    1.5474345   461677 
 3181000    1.0862422   -3.1035553   -1.5544085   0.09868203   -3.1035553    1.5491468   461795 
 3182000    1.0873973   -3.1041584   -1.5538175   0.09314822   -3.1041584    1.5503409   461930 
 3183000    1.0879468   -3.1053707   -1.5546727  0.092637511   -3.1053707     1.550698   462057 
 3184000     1.086425   -3.1024454   -1.5542817   0.10048415   -3.1024454    1.5481637   462166 
 3185000     1.088869   -3.1056773   -1.5543565  0.097312657   -3.1056773    1.5513208   462263 
 3186000    1.0874836   -3.1019826   -1.5530544   0.10034772   -3.1019826    1.5489282   462388 
 3187000    1.0903332   -3.1055592    -1.552992  0.093188217   -3.1055592    1.5525672   462513 
 3188000    1.0911651   -3.1062936   -1.5528272  0.096681878   -3.1062936    1.5534664   462598 
 3189000    1.0901664   -3.1045222   -1.5528434  0.099983273   -3.1045222    1.5516788   462707 
 3190000     1.090445   -3.1045634   -1.5528938  0.099049982   -3.1045634    1.5516696   462828 
 3191000    1.0890955   -3.1036499   -1.5542788   0.09786641   -3.1036499    1.5493711   462941 
 3192000    1.0903896   -3.1038797   -1.5529892   0.10043203   -3.1038797    1.5508905   463037 
 3193000    1.0908799   -3.1042279    -1.552945    0.1000295   -3.1042279     1.551283   463128 
 3194000    1.0911067   -3.1043754    -1.553068   0.10000429   -3.1043754    1.5513074   463217 
 3195000    1.0904784   -3.1041183   -1.5539485  0.099472444   -3.1041183    1.5501699   463290 
 3196000    1.0911431   -3.1037021   -1.5529323  0.097409297   -3.1037021    1.5507699   463393 
 3197000    1.0894391   -3.1018656   -1.5538348   0.10241416   -3.1018656    1.5480307   463488 
 3198000    1.0927481   -3.1044559   -1.5520548   0.10515347   -3.1044559    1.5524011   463587 
 3199000      1.09436   -3.1052559    -1.550994   0.10028703   -3.1052559    1.5542619   463715 
 3200000    1.0941827   -3.1047807   -1.5510956   0.10299084   -3.1047807    1.5536851   463812 
 3201000    1.0945886   -3.1045531   -1.5505263    0.1073995   -3.1045531    1.5540268   463882 
 3202000    1.0936525   -3.1041942   -1.5517708   0.09935868   -3.1041942    1.5524234   463964 
 3203000    1.0947126   -3.1055664   -1.5520099  0.096695952   -3.1055664    1.5535565   464075 
 3204000      1.09261   -3.1020014   -1.5517828   0.10139702   -3.1020014    1.5502186   464181 
 3205000     1.093598    -3.103858   -1.5525384  0.099423736    -3.103858    1.5513197   464271 
 3206000    1.0934835   -3.1030597   -1.5522666   0.10272766   -3.1030597    1.5507931   464380 
 3207000    1.0951823   -3.1057935   -1.5530292  0.093690323   -3.1057935    1.5527643   464511 
 3208000    1.0956768   -3.1056941    -1.552523  0.095421565   -3.1056941    1.5531712   464599 
 3209000    1.0937879    -3.101941   -1.5517277   0.10096951    -3.101941    1.5502133   464683 
 3210000     1.093491   -3.1007529   -1.5511738  0.098589389   -3.1007529     1.549579   464747 
 3211000    1.0955072   -3.1029066   -1.5508411  0.099980102   -3.1029066    1.5520655   464858 
 3212000    1.0956689   -3.1026913   -1.5506938   0.10169979   -3.1026913    1.5519975   464947 
 3213000    1.0941612   -3.1012785     -1.55169  0.099386138   -3.1012785    1.5495885   465029 
 3214000    1.0967191   -3.1041257   -1.5512184  0.099214196   -3.1041257    1.5529073   465120 
 3215000    1.0958723   -3.1018761   -1.5505347   0.09776983   -3.1018761    1.5513414   465230 
 3216000    1.0960816   -3.1012468    -1.549946   0.10424376   -3.1012468    1.5513008   465331 
 3217000    1.0975872   -3.1019044    -1.548723   0.10522082   -3.1019044    1.5531814   465406 
 3218000    1.0975931   -3.1019773   -1.5491612   0.10012727   -3.1019773    1.5528162   465518 
 3219000    1.0970785   -3.1013616   -1.5496835   0.10601451   -3.1013616    1.5516781   465641 
 3220000    1.0987118   -3.1028157   -1.5491279  0.096390158   -3.1028157    1.5536878   465731 
 3221000    1.0991404   -3.1031873   -1.5492604   0.10089993   -3.1031873    1.5539269   465841 
 3222000    1.0994145   -3.1024246   -1.5484705   0.10076437   -3.1024246    1.5539541   465949 
 3223000    1.0992848   -3.1032222   -1.5498214   0.10029736   -3.1032222    1.5534008   466060 
 3224000     1.098981   -3.1037824   -1.5510508  0.099718033   -3.1037824    1.5527316   466132 
 3225000    1.0983792   -3.1004361   -1.5487811   0.10148123   -3.1004361     1.551655   466200 
 3226000    1.0989221    -3.101191   -1.5490421  0.099222581    -3.101191    1.5521489   466282 
 3227000    1.0998931   -3.1019025   -1.5487418   0.09968146   -3.1019025    1.5531607   466390 
 3228000    1.1000107   -3.1013751   -1.5484613    0.1053871   -3.1013751    1.5529138   466514 
 3229000    1.1007351   -3.1030729   -1.5494128   0.10485629   -3.1030729    1.5536601   466597 
 3230000    1.0997893   -3.1019952    -1.550026    0.1087099   -3.1019952    1.5519692   466704 
 3231000    1.0995073   -3.1006859   -1.5495135   0.10101871   -3.1006859    1.5511724   466824 
 3232000    1.1013936     -3.10291   -1.5493427   0.10483199     -3.10291    1.5535673   466904 
 3233000    1.1020519   -3.1042767   -1.5501569  0.098348255   -3.1042767    1.5541197   467017 
 3234000    1.1013229   -3.1024005   -1.5496245   0.10281136   -3.1024005    1.5527759   467112 
 3235000    1.1032063   -3.1041493   -1.5490775   0.10109953   -3.1041493    1.5550718   467220 
 3236000    1.1006265   -3.1009749   -1.5497985   0.10407369   -3.1009749    1.5511764   467298 
 3237000    1.1035439   -3.1038805   -1.5489818   0.10444452   -3.1038805    1.5548987   467415 
 3238000    1.1030427   -3.1035685   -1.5497384   0.10198779   -3.1035685    1.5538301   467524 
 3239000    1.1021336   -3.1017193   -1.5495017   0.10805572   -3.1017193    1.5522176   467624 
 3240000    1.1040035   -3.1031193   -1.5485906   0.10202985   -3.1031193    1.5545286   467721 
 3241000    1.1033756   -3.1013957   -1.5481265   0.10437068   -3.1013957    1.5532692   467834 
 3242000    1.1037003   -3.1008813   -1.5475868   0.10409656   -3.1008813    1.5532946   467964 
 3243000    1.1039607   -3.1013662   -1.5480104   0.10467164   -3.1013662    1.5533558   468056 
 3244000    1.1052861   -3.1019501    -1.547045   0.10018654   -3.1019501    1.5549051   468151 
 3245000    1.1052497   -3.0997427   -1.5453006   0.11071498   -3.0997427    1.5544422   468275 
 3246000    1.1048327   -3.0995822   -1.5460517   0.10534965   -3.0995822    1.5535305   468373 
 3247000    1.1054565    -3.098989   -1.5449462   0.10393802    -3.098989    1.5540427   468483 
 3248000    1.1048894    -3.099223    -1.546226  0.099384839    -3.099223    1.5529969   468558 
 3249000    1.1056993   -3.0991346   -1.5453641   0.10597353   -3.0991346    1.5537705   468668 
 3250000    1.1078225   -3.1027233   -1.5463379  0.094845668   -3.1027233    1.5563854   468779 
 3251000    1.1055748   -3.0998947    -1.546889   0.10458005   -3.0998947    1.5530057   468846 
 3252000    1.1079526    -3.101227   -1.5452529   0.10026837    -3.101227    1.5559741   468958 
 3253000    1.1064236   -3.0977293   -1.5442701   0.10416677   -3.0977293    1.5534592   469069 
 3254000    1.1078367   -3.1004784   -1.5453734    0.1020939   -3.1004784    1.5551051   469171 
 3255000    1.1064832   -3.0981061   -1.5451856   0.10599032   -3.0981061    1.5529204   469257 
 3256000    1.1084924   -3.1003541   -1.5449684  0.097149873   -3.1003541    1.5553856   469364 
 3257000    1.1073333   -3.0994303   -1.5460318   0.10244939   -3.0994303    1.5533985   469473 
 3258000    1.1066561   -3.0979198   -1.5456697   0.11094542   -3.0979198    1.5522501   469533 
 3259000    1.1075729   -3.0975906   -1.5444019  0.099806727   -3.0975906    1.5531887   469638 
 3260000    1.1091042   -3.1005095   -1.5454416  0.096550026   -3.1005095    1.5550679   469719 
 3261000    1.1066577   -3.0966302   -1.5453195   0.10073753   -3.0966302    1.5513106   469818 
 3262000    1.1100969   -3.1014413   -1.5456108  0.097732342   -3.1014413    1.5558305   469909 
 3263000    1.1093504    -3.099837   -1.5452975   0.10751333    -3.099837    1.5545394   469983 
 3264000    1.1075388   -3.0975439   -1.5457808  0.099817988   -3.0975439    1.5517631   470055 
 3265000    1.1106884    -3.101835   -1.5459238   0.10024737    -3.101835    1.5559112   470135 
 3266000    1.1101382   -3.1009792   -1.5461464    0.1027096   -3.1009792    1.5548328   470228 
 3267000    1.1121445   -3.1030187    -1.545674  0.099006432   -3.1030187    1.5573447   470318 
 3268000    1.1107267   -3.1005628   -1.5454944    0.1053909   -3.1005628    1.5550684   470406 
 3269000    1.1106285   -3.1015794   -1.5469724  0.099865344   -3.1015794     1.554607   470504 
 3270000    1.1110045   -3.1001721   -1.5453262   0.10926083   -3.1001721    1.5548459   470591 
 3271000    1.1127047    -3.102248   -1.5453932   0.10317928    -3.102248    1.5568548   470703 
 3272000    1.1122691   -3.1009581   -1.5449938   0.10323743   -3.1009581    1.5559643   470788 
 3273000    1.1128778   -3.0997984   -1.5432471   0.11017673   -3.0997984    1.5565513   470868 
 3274000    1.1148659   -3.1028201   -1.5438224   0.10514282   -3.1028201    1.5589976   470969 
 3275000    1.1145373   -3.1019781   -1.5437311   0.10280152   -3.1019781     1.558247   471057 
 3276000    1.1148215   -3.1010721    -1.542795   0.10771957   -3.1010721    1.5582771   471168 
 3277000    1.1143318   -3.1012331   -1.5440173  0.099509427   -3.1012331    1.5572158   471282 
 3278000    1.1138857   -3.1002868    -1.544051   0.10730637   -3.1002868    1.5562358   471390 
 3279000    1.1146628   -3.1006614   -1.5435844   0.10769961   -3.1006614    1.5570771   471464 
 3280000    1.1141319   -3.1005134    -1.544574     0.104095   -3.1005134    1.5559394   471584 
 3281000    1.1152003   -3.1018665   -1.5448049   0.10215403   -3.1018665    1.5570616   471696 
 3282000    1.1139871   -3.1006914   -1.5455742   0.10776538   -3.1006914    1.5551173   471772 
 3283000    1.1152045   -3.0998213   -1.5432983   0.10381957   -3.0998213     1.556523   471861 
 3284000    1.1162418   -3.1014921   -1.5437721   0.10050444   -3.1014921    1.5577199   471937 
 3285000    1.1161336   -3.1001061   -1.5428605  0.096521854   -3.1001061    1.5572456   472035 
 3286000    1.1153128   -3.0987315   -1.5428816   0.10223388   -3.0987315    1.5558499   472111 
 3287000    1.1158875   -3.0992695   -1.5429575   0.09996615   -3.0992695     1.556312   472214 
 3288000    1.1154342   -3.0988241   -1.5434407  0.098864038   -3.0988241    1.5553835   472304 
 3289000    1.1144771   -3.0969702    -1.543247   0.10138647   -3.0969702    1.5537232   472403 
 3290000    1.1165923   -3.0987035    -1.542407   0.10106286   -3.0987035    1.5562965   472517 
 3291000     1.115112   -3.0970124   -1.5431213   0.10333201   -3.0970124    1.5538911   472621 
 3292000    1.1162751   -3.0966978    -1.541426  0.097434079   -3.0966978    1.5552718   472694 
 3293000    1.1171053   -3.0966846   -1.5405328   0.10381166   -3.0966846    1.5561519   472778 
 3294000    1.1183763   -3.0978016   -1.5401132   0.10722533   -3.0978016    1.5576884   472849 
 3295000    1.1180658   -3.0975293   -1.5406289   0.10659403   -3.0975293    1.5569005   472957 
 3296000    1.1187904   -3.0968997   -1.5392405   0.10397923   -3.0968997    1.5576592   473033 
 3297000    1.1180205   -3.0966649   -1.5403376   0.10415162   -3.0966649    1.5563273   473112 
 3298000    1.1201358   -3.0993239   -1.5403421   0.10471469   -3.0993239    1.5589819   473200 
 3299000    1.1200449   -3.1000023   -1.5415256   0.10186769   -3.1000023    1.5584767   473315 
 3300000    1.1202415   -3.1001324   -1.5416522   0.10653826   -3.1001324    1.5584802   473397 
 3301000    1.1196508   -3.0982778   -1.5410142   0.10245576   -3.0982778    1.5572637   473517 
 3302000    1.1194741   -3.0980096   -1.5412448   0.10386779   -3.0980096    1.5567647   473594 
 3303000    1.1196468   -3.0974031   -1.5406118   0.10404561   -3.0974031    1.5567913   473659 
 3304000    1.1214176   -3.1001158   -1.5412507    0.1010311   -3.1001158    1.5588651   473777 
 3305000    1.1196496   -3.0974972   -1.5414806   0.10412395   -3.0974972    1.5560166   473896 
 3306000    1.1202709   -3.0987404   -1.5421528   0.10379707   -3.0987404    1.5565877   473985 
 3307000    1.1199469     -3.09866    -1.542831  0.095966698     -3.09866     1.555829   474079 
 3308000    1.1186526   -3.0973187   -1.5435795   0.10071974   -3.0973187    1.5537392   474168 
 3309000    1.1216243   -3.0991971   -1.5417147   0.10318648   -3.0991971    1.5574824   474285 
 3310000    1.1215938   -3.0992602    -1.542178   0.10770331   -3.0992602    1.5570822   474394 
 3311000    1.1212431   -3.0970008   -1.5407073   0.10601104   -3.0970008    1.5562935   474486 
 3312000    1.1240934   -3.1001036   -1.5402221   0.10753673   -3.1001036    1.5598815   474598 
 3313000    1.1239353   -3.1002463   -1.5409159   0.10692455   -3.1002463    1.5593304   474699 
 3314000    1.1233948   -3.0993812   -1.5411487   0.10592545   -3.0993812    1.5582326   474805 
 3315000    1.1244709   -3.1004494   -1.5411052   0.10585352   -3.1004494    1.5593442   474921 
 3316000    1.1246993   -3.1017542   -1.5424119   0.10330847   -3.1017542    1.5593424   475018 
 3317000    1.1244619   -3.1018026   -1.5430257    0.1074356   -3.1018026     1.558777   475090 
 3318000    1.1250879   -3.1022489   -1.5428635   0.10779836   -3.1022489    1.5593855   475169 
 3319000    1.1252126   -3.1004031   -1.5411762   0.11092048   -3.1004031    1.5592269   475270 
 3320000    1.1260391   -3.1017596   -1.5416993   0.10487107   -3.1017596    1.5600603   475365 
 3321000     1.125396   -3.1019051   -1.5430636   0.10413918   -3.1019051    1.5588415   475465 
 3322000    1.1261325   -3.1022971   -1.5427274   0.10919221   -3.1022971    1.5595697   475554 
 3323000    1.1254619   -3.1017463   -1.5433347   0.10417308   -3.1017463    1.5584116   475624 
 3324000    1.1273003   -3.1028278   -1.5421692   0.10601468   -3.1028278    1.5606586   475715 
 3325000    1.1281129   -3.1037875   -1.5423486   0.10493236   -3.1037875    1.5614389   475820 
 3326000     1.126659   -3.1011398   -1.5420278   0.10953619   -3.1011398     1.559112   475916 
 3327000    1.1279678   -3.1026135    -1.541933   0.10818221   -3.1026135    1.5606805   475990 
 3328000    1.1266577   -3.1013869   -1.5427876   0.10560573   -3.1013869    1.5585993   476072 
 3329000    1.1278988   -3.1019304   -1.5419845   0.10261863   -3.1019304    1.5599459   476185 
 3330000    1.1299921   -3.1026195   -1.5401393   0.10598391   -3.1026195    1.5624802   476295 
 3331000    1.1296829   -3.1021204   -1.5403202   0.10491172   -3.1021204    1.5618002   476372 
 3332000    1.1287689   -3.1001947   -1.5398384   0.11177827   -3.1001947    1.5603564   476427 
 3333000    1.1300656   -3.1003755   -1.5386037   0.11082534   -3.1003755    1.5617718   476542 
 3334000    1.1296826   -3.0983832   -1.5374158    0.1098898   -3.0983832    1.5609674   476626 
 3335000    1.1302326   -3.0984063   -1.5370098   0.10400506   -3.0984063    1.5613966   476727 
 3336000    1.1294827   -3.0974639   -1.5374501   0.11467254   -3.0974639    1.5600137   476833 
 3337000    1.1304269   -3.0982961   -1.5371943   0.10638733   -3.0982961    1.5611017   476899 
 3338000    1.1304787   -3.0978302   -1.5369678   0.11200664   -3.0978302    1.5608624   476994 
 3339000    1.1319011   -3.0982516   -1.5356874   0.10350336   -3.0982516    1.5625642   477074 
 3340000    1.1301704   -3.0972271   -1.5373267   0.10460107   -3.0972271    1.5599004   477158 
 3341000    1.1301291   -3.0971609   -1.5376639   0.10358262   -3.0971609     1.559497   477264 
 3342000    1.1292761   -3.0958533   -1.5378044   0.10653773   -3.0958533    1.5580489   477347 
 3343000    1.1293466   -3.0957169   -1.5377894   0.10244575   -3.0957169    1.5579274   477414 
 3344000    1.1314475   -3.0972947   -1.5366913     0.101368   -3.0972947    1.5606034   477482 
 3345000    1.1307459   -3.0952753   -1.5358747    0.1072672   -3.0952753    1.5594006   477554 
 3346000    1.1303155   -3.0949457   -1.5363704   0.10876053   -3.0949457    1.5585753   477625 
 3347000    1.1332965   -3.0973657   -1.5349156   0.10303699   -3.0973657    1.5624501   477697 
 3348000    1.1329847   -3.0974405   -1.5357896   0.10146627   -3.0974405    1.5616509   477810 
 3349000    1.1321071   -3.0954975   -1.5354448   0.10919386   -3.0954975    1.5600527   477929 
 3350000    1.1333225   -3.0959826   -1.5345459   0.10936445   -3.0959826    1.5614367   478018 
 3351000    1.1345752   -3.0975105   -1.5346258   0.10530891   -3.0975105    1.5628847   478103 
 3352000    1.1360269   -3.0989619   -1.5343361   0.11004095   -3.0989619    1.5646259   478182 
 3353000    1.1340614   -3.0973362   -1.5356982   0.11215123   -3.0973362     1.561638   478268 
 3354000    1.1365827   -3.1008283   -1.5359539   0.10752619   -3.1008283    1.5648744   478340 
 3355000    1.1360553   -3.1004275   -1.5366062   0.10570536   -3.1004275    1.5638213   478440 
 3356000     1.137024   -3.1018921   -1.5369859   0.10790088   -3.1018921    1.5649061   478516 
 3357000     1.136096   -3.0996158   -1.5362124   0.11175576   -3.0996158    1.5634035   478585 
 3358000    1.1363586   -3.1009414   -1.5374445   0.11019737   -3.1009414    1.5634969   478667 
 3359000    1.1365303   -3.1016924   -1.5383021   0.10850529   -3.1016924    1.5633903   478772 
 3360000    1.1365227   -3.1012779   -1.5381429   0.10274994   -3.1012779     1.563135   478847 
 3361000    1.1358231   -3.1013079   -1.5394288    0.1059445   -3.1013079    1.5618791   478937 
 3362000    1.1369192   -3.1021203   -1.5390667   0.10517023   -3.1021203    1.5630536   479039 
 3363000    1.1356969   -3.0997514   -1.5386617   0.10759318   -3.0997514    1.5610897   479126 
 3364000    1.1363191   -3.1020004   -1.5402967   0.10515798   -3.1020004    1.5617037   479200 
 3365000    1.1363407   -3.1028701   -1.5414463   0.10601677   -3.1028701    1.5614238   479295 
 3366000    1.1367253   -3.1019815   -1.5402736   0.10875611   -3.1019815    1.5617079   479370 
 3367000     1.136703    -3.102882   -1.5414849   0.10805761    -3.102882    1.5613972   479456 
 3368000    1.1368296   -3.1021078   -1.5409339     0.105033   -3.1021078    1.5611739   479578 
 3369000    1.1362142   -3.1010026   -1.5410187   0.10693739   -3.1010026    1.5599838   479684 
 3370000    1.1388992   -3.1043133   -1.5408809   0.10633111   -3.1043133    1.5634324   479757 
 3371000    1.1378563   -3.1033526   -1.5416188     0.110793   -3.1033526    1.5617338   479839 
 3372000    1.1363305   -3.1007221   -1.5414042   0.10877224   -3.1007221    1.5593179   479938 
 3373000    1.1399019   -3.1046797   -1.5408976   0.10699656   -3.1046797    1.5637821   480072 
 3374000    1.1374068   -3.1023922   -1.5423515   0.11036506   -3.1023922    1.5600407   480170 
 3375000    1.1390855   -3.1034851   -1.5414575   0.10781144   -3.1034851    1.5620276   480267 
 3376000     1.141053   -3.1055685   -1.5411621   0.10778205   -3.1055685    1.5644064   480365 
 3377000    1.1384356   -3.1007735   -1.5402967   0.11674891   -3.1007735    1.5604768   480470 
 3378000    1.1397076   -3.1023011   -1.5403765   0.10609229   -3.1023011    1.5619246   480561 
 3379000    1.1403858   -3.1025293   -1.5399127   0.10562017   -3.1025293    1.5626166   480634 
 3380000    1.1397615   -3.1011584   -1.5397189   0.10821252   -3.1011584    1.5614395   480733 
 3381000    1.1410041   -3.1041202   -1.5412286   0.10751012   -3.1041202    1.5628916   480810 
 3382000    1.1396357   -3.1019195    -1.541175   0.10801576   -3.1019195    1.5607445   480894 
 3383000    1.1404707   -3.1030035   -1.5413168   0.10759738   -3.1030035    1.5616867   480956 
 3384000    1.1421209   -3.1047327   -1.5411082   0.10842915   -3.1047327    1.5636246   481055 
 3385000     1.143194   -3.1052855   -1.5404131   0.11068137   -3.1052855    1.5648724   481123 
 3386000    1.1424677   -3.1047917   -1.5411279   0.10354178   -3.1047917    1.5636637   481189 
 3387000    1.1427651   -3.1046284   -1.5408728    0.1064256   -3.1046284    1.5637556   481286 
 3388000    1.1420197   -3.1027489   -1.5403639   0.11134538   -3.1027489     1.562385   481394 
 3389000    1.1428536   -3.1039645   -1.5406757   0.11196852   -3.1039645    1.5632888   481467 
 3390000    1.1415049   -3.1025238   -1.5413328   0.11028439   -3.1025238     1.561191   481545 
 3391000    1.1433697   -3.1053686   -1.5418058   0.10231881   -3.1053686    1.5635628   481600 
 3392000    1.1442043   -3.1059408   -1.5414543   0.10474974   -3.1059408    1.5644865   481667 
 3393000    1.1436334   -3.1045608    -1.541173    0.1073792   -3.1045608    1.5633878   481765 
 3394000     1.144778   -3.1056971   -1.5410206   0.10897866   -3.1056971    1.5646765   481850 
 3395000    1.1429034     -3.10413   -1.5422038   0.10477449     -3.10413    1.5619263   481908 
 3396000    1.1437701   -3.1048223   -1.5419484   0.10788293   -3.1048223    1.5628739   481981 
 3397000    1.1437917   -3.1048197   -1.5421594   0.11029055   -3.1048197    1.5626603   482056 
 3398000    1.1452277   -3.1067225   -1.5423503   0.10856455   -3.1067225    1.5643722   482133 
 3399000    1.1433331    -3.103548   -1.5419256   0.11254602    -3.103548    1.5616224   482183 
 3400000    1.1451572    -3.105828   -1.5419997   0.11131579    -3.105828    1.5638283   482271 
 3401000    1.1445822   -3.1062342   -1.5434827    0.1085447   -3.1062342    1.5627515   482361 
 3402000    1.1462353   -3.1075297   -1.5428715   0.10190551   -3.1075297    1.5646582   482469 
 3403000     1.144906   -3.1051405   -1.5426174   0.10700145   -3.1051405    1.5625231   482568 
 3404000    1.1478775   -3.1084098   -1.5421494   0.11060569   -3.1084098    1.5662604   482666 
 3405000    1.1458121   -3.1062765    -1.543048   0.10739909   -3.1062765    1.5632285   482732 
 3406000     1.147539   -3.1090338   -1.5436601   0.10793763   -3.1090338    1.5653737   482797 
 3407000    1.1478645   -3.1093955   -1.5438211   0.10931142   -3.1093955    1.5655744   482872 
 3408000    1.1462687    -3.106271   -1.5431741   0.11377874    -3.106271    1.5630969   482965 
 3409000    1.1465405   -3.1068518   -1.5436852   0.10855329   -3.1068518    1.5631666   483058 
 3410000    1.1462979   -3.1064269   -1.5437982   0.10542171   -3.1064269    1.5626287   483122 
 3411000    1.1469125   -3.1065992    -1.543398   0.11683843   -3.1065992    1.5632013   483204 
 3412000    1.1474181   -3.1073253   -1.5436809       0.1155   -3.1073253    1.5636444   483280 
 3413000    1.1476623   -3.1078584    -1.544195   0.11220099   -3.1078584    1.5636634   483377 
 3414000    1.1472897   -3.1075957   -1.5447148   0.11278201   -3.1075957    1.5628809   483462 
 3415000    1.1498935   -3.1101604   -1.5440694   0.10856868   -3.1101604    1.5660909   483566 
 3416000    1.1499232    -3.109094   -1.5432993   0.11003188    -3.109094    1.5657947   483670 
 3417000    1.1489552   -3.1068063   -1.5425948   0.11276226   -3.1068063    1.5642114   483752 
 3418000    1.1503712   -3.1098192   -1.5439875   0.10396248   -3.1098192    1.5658317   483847 
 3419000    1.1484965   -3.1058122   -1.5427164   0.10750342   -3.1058122    1.5630958   483904 
 3420000     1.149677   -3.1068324   -1.5424177   0.11220744   -3.1068324    1.5644147   483993 
 3421000    1.1505118   -3.1067539    -1.541449   0.10829362   -3.1067539    1.5653049   484069 
 3422000    1.1499742   -3.1064718   -1.5421957   0.11412981   -3.1064718    1.5642762   484161 
 3423000    1.1511778    -3.107732   -1.5420192   0.11167474    -3.107732    1.5657128   484223 
 3424000    1.1507359   -3.1077337   -1.5428837    0.1098586   -3.1077337      1.56485   484304 
 3425000    1.1510486   -3.1075088   -1.5424758   0.10550865   -3.1075088     1.565033   484379 
 3426000    1.1514219   -3.1079446   -1.5426174   0.11199929   -3.1079446    1.5653273   484445 
 3427000    1.1514227   -3.1058795   -1.5408355   0.11472683   -3.1058795     1.565044   484533 
 3428000    1.1516872   -3.1045604   -1.5394766   0.11145648   -3.1045604    1.5650838   484632 
 3429000    1.1523722   -3.1063534   -1.5406102    0.1113987   -3.1063534    1.5657432   484716 
 3430000    1.1517944   -3.1062887   -1.5415985   0.11020138   -3.1062887    1.5646903   484799 
 3431000    1.1507766   -3.1051842   -1.5421056   0.11352431   -3.1051842    1.5630786   484870 
 3432000    1.1521091   -3.1070129    -1.542376   0.11035791   -3.1070129    1.5646368   484948 
 3433000    1.1519199   -3.1061616     -1.54203   0.11341294   -3.1061616    1.5641315   485025 
 3434000    1.1521005   -3.1067322   -1.5426327     0.106683   -3.1067322    1.5640995   485111 
 3435000    1.1516299   -3.1059976   -1.5426948   0.10933791   -3.1059976    1.5633027   485160 
 3436000    1.1505155   -3.1042996   -1.5427478   0.11084537   -3.1042996    1.5615518   485234 
 3437000    1.1544983   -3.1083179   -1.5416027   0.11016068   -3.1083179    1.5667152   485309 
 3438000    1.1540279   -3.1059078   -1.5400793   0.11107739   -3.1059078    1.5658286   485386 
 3439000     1.153557   -3.1051285   -1.5402001   0.10852726   -3.1051285    1.5649284   485467 
 3440000     1.153685   -3.1062016   -1.5413994   0.10977571   -3.1062016    1.5648022   485560 
 3441000    1.1539243    -3.105068   -1.5402635   0.11368567    -3.105068    1.5648045   485660 
 3442000    1.1527144   -3.1035462   -1.5405915   0.11586768   -3.1035462    1.5629547   485725 
 3443000    1.1536043   -3.1045061   -1.5406828   0.10983181   -3.1045061    1.5638233   485830 
 3444000    1.1550212   -3.1076256   -1.5421362    0.1122751   -3.1076256    1.5654894   485909 
 3445000    1.1537265   -3.1070103    -1.543472   0.11417215   -3.1070103    1.5635383   485970 
 3446000    1.1542743   -3.1069709   -1.5428865   0.10959539   -3.1069709    1.5640844   486031 
 3447000    1.1553724   -3.1084275   -1.5430903   0.11767868   -3.1084275    1.5653372   486104 
 3448000     1.156158   -3.1084066   -1.5422401   0.11455427   -3.1084066    1.5661665   486177 
 3449000    1.1570884   -3.1093976   -1.5421739    0.1126103   -3.1093976    1.5672237   486240 
 3450000     1.156386   -3.1080354    -1.542098   0.11722186   -3.1080354    1.5659374   486344 
 3451000    1.1577195   -3.1087636   -1.5412784   0.11297415   -3.1087636    1.5674853   486424 
 3452000    1.1578514   -3.1085764   -1.5412476   0.11530391   -3.1085764    1.5673288   486528 
 3453000    1.1586531   -3.1102661   -1.5421453   0.11078892   -3.1102661    1.5681207   486619 
 3454000    1.1572998   -3.1073275   -1.5412797   0.11389279   -3.1073275    1.5660478   486694 
 3455000    1.1562533   -3.1069536   -1.5426529    0.1182439   -3.1069536    1.5643007   486797 
 3456000     1.157386   -3.1085265   -1.5430183   0.11222684   -3.1085265    1.5655083   486898 
 3457000    1.1569887   -3.1067564   -1.5421293   0.11048842   -3.1067564    1.5646271   487005 
 3458000    1.1593276   -3.1093798   -1.5418182    0.1093024   -3.1093798    1.5675615   487076 
 3459000    1.1591955   -3.1085188   -1.5414674   0.10672587   -3.1085188    1.5670514   487179 
 3460000    1.1592672    -3.108313   -1.5414637   0.11051474    -3.108313    1.5668492   487272 
 3461000    1.1607322   -3.1098674   -1.5412537   0.10831627   -3.1098674    1.5686136   487339 
 3462000    1.1597176   -3.1089199   -1.5419892   0.10805896   -3.1089199    1.5669306   487436 
 3463000    1.1596119   -3.1091288   -1.5425948   0.10781332   -3.1091288     1.566534   487515 
 3464000    1.1588984   -3.1070587   -1.5416909   0.11511878   -3.1070587    1.5653678   487578 
 3465000    1.1603722   -3.1088875   -1.5417637   0.11363328   -3.1088875    1.5671238   487651 
 3466000    1.1597929   -3.1063529   -1.5401977   0.11469987   -3.1063529    1.5661552   487709 
 3467000    1.1598585   -3.1073897    -1.541406   0.11766132   -3.1073897    1.5659837   487790 
 3468000    1.1595724    -3.106285    -1.540925   0.11179967    -3.106285      1.56536   487864 
 3469000    1.1623201   -3.1099157   -1.5410844   0.10425734   -3.1099157    1.5688313   487938 
 3470000    1.1624135   -3.1091462   -1.5403752   0.11627726   -3.1091462    1.5687709   487996 
 3471000    1.1608648   -3.1078231   -1.5414153    0.1096457   -3.1078231    1.5664079   488081 
 3472000    1.1602423   -3.1071211   -1.5418386   0.11507266   -3.1071211    1.5652825   488170 
 3473000    1.1629128   -3.1103558   -1.5417019   0.10797195   -3.1103558    1.5686539   488242 
 3474000    1.1606535   -3.1065543   -1.5411916   0.10766707   -3.1065543    1.5653627   488318 
 3475000    1.1617771   -3.1084238   -1.5418345   0.10354425   -3.1084238    1.5665894   488408 
 3476000    1.1611218   -3.1085793   -1.5431139   0.11638026   -3.1085793    1.5654654   488483 
 3477000    1.1629763   -3.1117161   -1.5440201   0.10752254   -3.1117161     1.567696   488567 
 3478000    1.1612677   -3.1083563   -1.5431942   0.12069074   -3.1083563    1.5651622   488639 
 3479000    1.1646063   -3.1114924   -1.5420617   0.10904019   -3.1114924    1.5694307   488711 
 3480000    1.1647622   -3.1113397   -1.5420169   0.11029816   -3.1113397    1.5693229   488810 
 3481000    1.1624785   -3.1094587   -1.5434593    0.1151774   -3.1094587    1.5659994   488887 
 3482000    1.1642198   -3.1110428   -1.5428934   0.11433777   -3.1110428    1.5681495   488948 
 3483000    1.1640428   -3.1112404   -1.5435795   0.11239626   -3.1112404    1.5676609   489026 
 3484000    1.1653547   -3.1123874   -1.5431009   0.11193214   -3.1123874    1.5692865   489070 
 3485000    1.1646047   -3.1108501   -1.5427724   0.10921729   -3.1108501    1.5680777   489132 
 3486000    1.1656718   -3.1118526    -1.542476   0.11126977   -3.1118526    1.5693766   489175 
 3487000    1.1662258   -3.1131629   -1.5431753   0.11308573   -3.1131629    1.5699876   489217 
 3488000     1.167176   -3.1144559   -1.5434138   0.11506085   -3.1144559    1.5710421   489287 
 3489000    1.1655881   -3.1123147   -1.5437146    0.1177463   -3.1123147    1.5686001   489382 
 3490000    1.1655915   -3.1118381   -1.5434257   0.11214059   -3.1118381    1.5684125   489442 
 3491000    1.1643745   -3.1110827   -1.5444199   0.11796821   -3.1110827    1.5666628   489477 
 3492000    1.1652387   -3.1115045   -1.5439959   0.10904446   -3.1115045    1.5675086   489576 
 3493000    1.1651656   -3.1119786    -1.544754   0.11192936   -3.1119786    1.5672245   489634 
 3494000      1.16752   -3.1141669   -1.5439776   0.10969834   -3.1141669    1.5701893   489697 
 3495000    1.1661589   -3.1119136   -1.5437982   0.10983498   -3.1119136    1.5681154   489773 
 3496000     1.165336   -3.1104706   -1.5437336   0.11797754   -3.1104706     1.566737   489858 
 3497000    1.1647125   -3.1100522   -1.5443388   0.10815213   -3.1100522    1.5657134   489916 
 3498000    1.1658947   -3.1103381   -1.5433042   0.11392247   -3.1103381    1.5670338   490000 
 3499000    1.1663379   -3.1096947   -1.5422763   0.11478936   -3.1096947    1.5674184   490066 
 3500000    1.1675002    -3.112682   -1.5439353   0.11009948    -3.112682    1.5687467   490139 
 3501000    1.1654429    -3.109887   -1.5440994   0.11635428    -3.109887    1.5657876   490200 
 3502000    1.1666409   -3.1104566   -1.5433249   0.11144427   -3.1104566    1.5671317   490283 
 3503000    1.1662366   -3.1105687    -1.544239   0.10904997   -3.1105687    1.5663298   490364 
 3504000    1.1666321   -3.1099925   -1.5433232   0.11094006   -3.1099925    1.5666693   490424 
 3505000    1.1671177   -3.1109569   -1.5439549   0.10633303   -3.1109569     1.567002   490524 
 3506000     1.167516   -3.1103698   -1.5430569   0.11472083   -3.1103698     1.567313   490594 
 3507000    1.1680372    -3.110941   -1.5431073   0.10853575    -3.110941    1.5678337   490650 
 3508000    1.1683012   -3.1106658   -1.5426406   0.10744403   -3.1106658    1.5680251   490701 
 3509000    1.1675088   -3.1095662   -1.5428313   0.11497502   -3.1095662    1.5667349   490772 
 3510000    1.1676962   -3.1099963   -1.5432971   0.11106276   -3.1099963    1.5666991   490862 
 3511000    1.1696889   -3.1117056   -1.5425919   0.10773321   -3.1117056    1.5691138   490943 
 3512000    1.1689621   -3.1097793   -1.5418673   0.11845623   -3.1097793     1.567912   491014 
 3513000    1.1697491   -3.1125225     -1.54367   0.10756613   -3.1125225    1.5688526   491050 
 3514000    1.1712322   -3.1132191   -1.5425917   0.10782148   -3.1132191    1.5706274   491117 
 3515000    1.1694909   -3.1099602     -1.54192   0.11242189   -3.1099602    1.5680401   491196 
 3516000    1.1706976   -3.1111481   -1.5417265    0.1107206   -3.1111481    1.5694216   491270 
 3517000    1.1707994   -3.1118902   -1.5425653   0.11224856   -3.1118902    1.5693248   491343 
 3518000    1.1705511   -3.1100024   -1.5412754   0.11336224   -3.1100024     1.568727   491426 
 3519000    1.1710084   -3.1118976    -1.542794   0.11648655   -3.1118976    1.5691036   491500 
 3520000    1.1694961   -3.1093977   -1.5425914   0.11049538   -3.1093977    1.5668063   491585 
 3521000     1.173426   -3.1136791   -1.5418892   0.10798306   -3.1136791    1.5717899   491673 
 3522000    1.1700031   -3.1111368    -1.544171   0.11448744   -3.1111368    1.5669659   491748 
 3523000    1.1720567   -3.1128843   -1.5434681   0.11412654   -3.1128843    1.5694162   491842 
 3524000    1.1717582   -3.1124491   -1.5436048   0.11098169   -3.1124491    1.5688442   491896 
 3525000    1.1718241   -3.1132622   -1.5446166   0.11128188   -3.1132622    1.5686456   491986 
 3526000     1.172186   -3.1129536   -1.5439895   0.11384029   -3.1129536    1.5689641   492038 
 3527000    1.1730119   -3.1126759   -1.5428392   0.11194254   -3.1126759    1.5698366   492111 
 3528000    1.1735263   -3.1119515   -1.5416975    0.1114753   -3.1119515    1.5702539   492196 
 3529000    1.1754265   -3.1142509   -1.5417515   0.11054601   -3.1142509    1.5724993   492289 
 3530000    1.1731689    -3.111473   -1.5422298   0.11391928    -3.111473    1.5692432   492363 
 3531000    1.1750352   -3.1149152    -1.543383   0.10811753   -3.1149152    1.5715321   492428 
 3532000    1.1720978   -3.1114931   -1.5440837   0.11712985   -3.1114931    1.5674094   492489 
 3533000    1.1719112   -3.1114715    -1.544633   0.11358326   -3.1114715    1.5668385   492590 
 3534000    1.1733548   -3.1134585   -1.5448045   0.11091234   -3.1134585     1.568654   492626 
 3535000    1.1734093   -3.1137891   -1.5453297    0.1161382   -3.1137891    1.5684594   492710 
 3536000    1.1741263   -3.1145015   -1.5453416   0.11258565   -3.1145015    1.5691599   492791 
 3537000    1.1737369   -3.1142273    -1.545852   0.10886189   -3.1142273    1.5683753   492874 
 3538000    1.1751319   -3.1141833   -1.5442403   0.11434877   -3.1141833    1.5699431   492967 
 3539000    1.1763484   -3.1153545   -1.5440604   0.11471835   -3.1153545    1.5712941   493053 
 3540000    1.1765431   -3.1158232    -1.544543   0.11143073   -3.1158232    1.5712802   493139 
 3541000    1.1766393   -3.1151303   -1.5440085    0.1140692   -3.1151303    1.5711218   493229 
 3542000    1.1780741   -3.1151403   -1.5423481   0.11449173   -3.1151403    1.5727922   493306 
 3543000    1.1760721    -3.113252    -1.543368   0.11242296    -3.113252     1.569884   493380 
 3544000    1.1798686   -3.1180438   -1.5433794   0.11655601   -3.1180438    1.5746644   493470 
 3545000    1.1787273   -3.1155376   -1.5425717   0.11983634   -3.1155376    1.5729659   493525 
 3546000    1.1773559   -3.1143525   -1.5434554    0.1198951   -3.1143525    1.5708971   493600 
 3547000    1.1774833    -3.115122   -1.5442713   0.11216403    -3.115122    1.5708507   493668 
 3548000    1.1786996    -3.116468    -1.544224   0.11500314    -3.116468     1.572244   493740 
 3549000    1.1749144    -3.112179   -1.5452728   0.11341085    -3.112179    1.5669062   493831 
 3550000    1.1769593   -3.1143849   -1.5449707   0.11240041   -3.1143849    1.5694142   493900 
 3551000    1.1754973   -3.1143321   -1.5471054   0.11372804   -3.1143321    1.5672266   493975 
 3552000     1.177189    -3.114182    -1.545005   0.11822718    -3.114182    1.5691771   494071 
 3553000    1.1767196   -3.1138461   -1.5455201   0.11513632   -3.1138461     1.568326   494142 
 3554000    1.1761935   -3.1130218    -1.545711   0.11565233   -3.1130218    1.5673108   494241 
 3555000    1.1762334   -3.1139696   -1.5468213   0.11493718   -3.1139696    1.5671483   494309 
 3556000    1.1768536   -3.1127482   -1.5449955   0.11415013   -3.1127482    1.5677528   494379 
 3557000    1.1777122   -3.1143969   -1.5456654   0.10565705   -3.1143969    1.5687316   494431 
 3558000      1.17678   -3.1126877    -1.545442    0.1133821   -3.1126877    1.5672457   494508 
 3559000    1.1775914   -3.1134343   -1.5453364   0.11813192   -3.1134343     1.568098   494580 
 3560000    1.1776165   -3.1138553   -1.5459711   0.11005758   -3.1138553    1.5678842   494658 
 3561000     1.177796   -3.1152373    -1.547298   0.11589619   -3.1152373    1.5679393   494716 
 3562000    1.1792581   -3.1166118   -1.5469195   0.10414419   -3.1166118    1.5696922   494777 
 3563000    1.1778698   -3.1139817   -1.5463846   0.10933381   -3.1139817    1.5675971   494855 
 3564000    1.1781177   -3.1130484   -1.5454033   0.11357483   -3.1130484    1.5676452   494944 
 3565000    1.1791954   -3.1127355    -1.543834   0.11621906   -3.1127355    1.5689016   495000 
 3566000    1.1802102   -3.1148434   -1.5449278   0.11720851   -3.1148434    1.5699156   495106 
 3567000    1.1815718    -3.116582   -1.5451058   0.11203117    -3.116582    1.5714761   495185 
 3568000    1.1810841   -3.1152026   -1.5445243   0.11479659   -3.1152026    1.5706783   495232 
 3569000    1.1808417    -3.114583   -1.5444395   0.11334771    -3.114583    1.5701436   495299 
 3570000    1.1800025   -3.1135671   -1.5447326   0.11506936   -3.1135671    1.5688345   495360 
 3571000    1.1807302   -3.1135202    -1.543959   0.11905745   -3.1135202    1.5695612   495436 
 3572000    1.1816607   -3.1154629   -1.5448899   0.11410126   -3.1154629    1.5705731   495507 
 3573000     1.181517   -3.1147538   -1.5446095   0.11393001   -3.1147538    1.5701443   495582 
 3574000    1.1821062   -3.1148582   -1.5442604   0.11303779   -3.1148582    1.5705978   495686 
 3575000    1.1801637   -3.1138515   -1.5460023   0.11496419   -3.1138515    1.5678492   495739 
 3576000    1.1818072   -3.1160246   -1.5461725   0.11631554   -3.1160246    1.5698521   495796 
 3577000     1.182703   -3.1155925   -1.5448514   0.11495168   -3.1155925    1.5707411   495891 
 3578000    1.1832522   -3.1147855   -1.5435748    0.1185842   -3.1147855    1.5712107   495973 
 3579000    1.1836186   -3.1163275   -1.5448584   0.11762038   -3.1163275    1.5714691   496045 
 3580000    1.1832662   -3.1162535   -1.5455152   0.11329728   -3.1162535    1.5707383   496128 
 3581000    1.1851046   -3.1189501   -1.5460218   0.11200197   -3.1189501    1.5729283   496207 
 3582000    1.1827839    -3.116674   -1.5469998   0.11438383    -3.116674    1.5696742   496262 
 3583000    1.1839289   -3.1183497   -1.5474282   0.11175622   -3.1183497    1.5709215   496348 
 3584000    1.1840944   -3.1181729   -1.5472723   0.11220157   -3.1181729    1.5709006   496424 
 3585000    1.1830371   -3.1173322   -1.5479829   0.11203729   -3.1173322    1.5693493   496471 
 3586000    1.1817284   -3.1166541   -1.5492303   0.10899558   -3.1166541    1.5674238   496531 
 3587000    1.1830158    -3.117352   -1.5484386   0.11465816    -3.117352    1.5689134   496600 
 3588000    1.1824012   -3.1168646   -1.5489116   0.11594432   -3.1168646     1.567953   496646 
 3589000    1.1838406   -3.1182014   -1.5486019   0.11139959   -3.1182014    1.5695995   496729 
 3590000    1.1844271   -3.1202957   -1.5501178   0.11555978   -3.1202957     1.570178   496792 
 3591000    1.1852871   -3.1213289   -1.5501817   0.10901637   -3.1213289    1.5711473   496846 
 3592000    1.1831881   -3.1190108     -1.55087   0.11207243   -3.1190108    1.5681409   496917 
 3593000    1.1850549   -3.1204303   -1.5500618   0.11490191   -3.1204303    1.5703685   496995 
 3594000    1.1840388   -3.1198438   -1.5509733   0.11236491   -3.1198438    1.5688705   497043 
 3595000    1.1865391   -3.1223302   -1.5504314   0.11707395   -3.1223302    1.5718988   497133 
 3596000    1.1851041   -3.1202745   -1.5505357   0.11201489   -3.1202745    1.5697388   497215 
 3597000    1.1848916   -3.1203626   -1.5511387   0.11306816   -3.1203626    1.5692238   497289 
 3598000    1.1859715   -3.1219842   -1.5515733   0.11528342   -3.1219842    1.5704109   497366 
 3599000    1.1861695   -3.1222215   -1.5518043    0.1154696   -3.1222215    1.5704172   497447 
 3600000    1.1855504   -3.1215191   -1.5521392   0.11443299   -3.1215191    1.5693799   497516 
 3601000     1.186938   -3.1240358   -1.5530178   0.11513594   -3.1240358    1.5710179   497579 
 3602000     1.186201   -3.1229999   -1.5532195   0.11764542   -3.1229999    1.5697805   497662 
 3603000    1.1851617   -3.1206198   -1.5524195   0.11408254   -3.1206198    1.5682003   497727 
 3604000    1.1855282    -3.121852   -1.5533369   0.11223345    -3.121852    1.5685152   497781 
 3605000    1.1865779   -3.1214363   -1.5517153   0.12012127   -3.1214363     1.569721   497839 
 3606000    1.1867278   -3.1223318   -1.5526679    0.1170992   -3.1223318     1.569664   497920 
 3607000    1.1876728   -3.1229685   -1.5522881   0.11961565   -3.1229685    1.5706804   497994 
 3608000    1.1874883   -3.1214178   -1.5512335    0.1191614   -3.1214178    1.5701842   498074 
 3609000    1.1891554   -3.1216681   -1.5495542    0.1149705   -3.1216681    1.5721139   498161 
 3610000    1.1891377   -3.1216251   -1.5497491   0.11699696   -3.1216251     1.571876   498229 
 3611000    1.1897051   -3.1233229   -1.5509935   0.11352321   -3.1233229    1.5723293   498323 
 3612000    1.1881984    -3.120512   -1.5504511   0.11983627    -3.120512    1.5700609   498411 
 3613000     1.189609   -3.1211693   -1.5493707   0.11295823   -3.1211693    1.5717986   498451 
 3614000    1.1893587   -3.1206723   -1.5494314   0.11296658   -3.1206723    1.5712409   498523 
 3615000    1.1891899   -3.1190205   -1.5483018   0.11751274   -3.1190205    1.5707187   498618 
 3616000    1.1896233   -3.1197923   -1.5486935     0.114624   -3.1197923    1.5710988   498679 
 3617000    1.1903853   -3.1208188   -1.5489563    0.1140808   -3.1208188    1.5718626   498756 
 3618000    1.1911626   -3.1208276    -1.548191   0.11358043   -3.1208276    1.5726366   498836 
 3619000    1.1904739   -3.1204608   -1.5489256   0.10913541   -3.1204608    1.5715352   498897 
 3620000    1.1904032    -3.120336   -1.5490453   0.11283843    -3.120336    1.5712907   498945 
 3621000    1.1899008   -3.1203545   -1.5498749   0.10703899   -3.1203545    1.5704796   498992 
 3622000    1.1905732   -3.1206868   -1.5494835   0.10810778   -3.1206868    1.5712033   499044 
 3623000    1.1910189   -3.1211541   -1.5495578   0.11303405   -3.1211541    1.5715963   499106 
 3624000    1.1904091   -3.1205197   -1.5499075   0.11193495   -3.1205197    1.5706122   499163 
 3625000    1.1905941   -3.1213146   -1.5506974   0.11499513   -3.1213146    1.5706173   499239 
 3626000    1.1908658   -3.1216826   -1.5509838   0.11361038   -3.1216826    1.5706987   499327 
 3627000    1.1910205   -3.1206261   -1.5499686   0.11511168   -3.1206261    1.5706575   499405 
 3628000    1.1921649   -3.1224731   -1.5505017   0.11022392   -3.1224731    1.5719714   499467 
 3629000    1.1923048   -3.1231251   -1.5512303   0.11512209   -3.1231251    1.5718948   499550 
 3630000    1.1910343   -3.1223984   -1.5524647   0.11726838   -3.1223984    1.5699337   499641 
 3631000    1.1906439   -3.1215106   -1.5523553   0.12073957   -3.1215106    1.5691553   499725 
 3632000    1.1927713   -3.1235674   -1.5518411   0.10969958   -3.1235674    1.5717263   499799 
 3633000     1.191491   -3.1226043   -1.5527913   0.11494609   -3.1226043    1.5698131   499871 
 3634000    1.1931034   -3.1242919   -1.5525588   0.11985612   -3.1242919    1.5717331   499936 
 3635000    1.1927771   -3.1239706   -1.5529062   0.11197626   -3.1239706    1.5710645   500012 
 3636000    1.1937848   -3.1243268    -1.552127   0.11942352   -3.1243268    1.5721999   500073 
 3637000    1.1934531   -3.1240624   -1.5525476   0.11671169   -3.1240624    1.5715148   500152 
 3638000    1.1932018   -3.1268486   -1.5558531   0.11431076   -3.1268486    1.5709954   500212 
 3639000    1.1935676   -3.1264166    -1.555172   0.11359348   -3.1264166    1.5712446   500286 
 3640000    1.1956651   -3.1279357   -1.5542225   0.11900353   -3.1279357    1.5737132   500379 
 3641000    1.1935275   -3.1250172   -1.5543716   0.12062787   -3.1250172    1.5706456   500460 
 3642000    1.1949038   -3.1274287   -1.5552139   0.11346091   -3.1274287    1.5722148   500537 
 3643000    1.1954355   -3.1271247   -1.5543988   0.11449198   -3.1271247    1.5727259   500597 
 3644000    1.1935617   -3.1252954   -1.5552668   0.11541255   -3.1252954    1.5700287   500671 
 3645000    1.1954991   -3.1278012      -1.5554    0.1158825   -3.1278012    1.5724012   500727 
 3646000    1.1953182   -3.1270482   -1.5551046   0.12211251   -3.1270482    1.5719436   500797 
 3647000    1.1961557   -3.1290272   -1.5562021   0.10994109   -3.1290272    1.5728251   500867 
 3648000    1.1964598   -3.1282104   -1.5551833   0.11358295   -3.1282104    1.5730271   500930 
 3649000    1.1948691   -3.1251843   -1.5544366   0.11430758   -3.1251843    1.5707476   500990 
 3650000    1.1953227   -3.1242007   -1.5530261   0.11778875   -3.1242007    1.5711746   501044 
 3651000    1.1961443   -3.1273369   -1.5553302   0.11596962   -3.1273369    1.5720067   501123 
 3652000    1.1961256   -3.1262511   -1.5544322   0.11441517   -3.1262511    1.5718189   501175 
 3653000    1.1959959   -3.1259874   -1.5546023   0.12074135   -3.1259874    1.5713851   501259 
 3654000    1.1964729   -3.1252362   -1.5534156   0.12125763   -3.1252362    1.5718206   501320 
 3655000    1.1973045   -3.1250195    -1.552395   0.11936945   -3.1250195    1.5726245   501412 
 3656000    1.1969464   -3.1246434   -1.5526774    0.1187195   -3.1246434     1.571966   501472 
 3657000    1.1976009    -3.127343    -1.554715   0.11651089    -3.127343     1.572628   501535 
 3658000    1.1966741   -3.1253147   -1.5542138   0.11400292   -3.1253147    1.5711009   501634 
 3659000    1.1980654   -3.1265027   -1.5537853   0.11437979   -3.1265027    1.5727174   501701 
 3660000    1.1988676   -3.1259737   -1.5523726   0.11804005   -3.1259737    1.5736011   501755 
 3661000    1.1977976   -3.1243626   -1.5523351    0.1185579   -3.1243626    1.5720275   501809 
 3662000    1.1990313   -3.1259695    -1.552602   0.11284074   -3.1259695    1.5733675   501898 
 3663000    1.1987477   -3.1251087   -1.5523263   0.11547388   -3.1251087    1.5727824   501966 
 3664000    1.1982026   -3.1249589    -1.553017   0.11454504   -3.1249589    1.5719419   502006 
 3665000    1.1985321   -3.1253944   -1.5532457   0.11453795   -3.1253944    1.5721487   502078 
 3666000    1.1964403    -3.121847   -1.5526297    0.1137528    -3.121847    1.5692173   502138 
 3667000    1.1983379   -3.1251128   -1.5536101   0.11351877   -3.1251128    1.5715027   502203 
 3668000    1.1983197   -3.1240302   -1.5527641   0.11392919   -3.1240302    1.5712661   502271 
 3669000    1.1980958   -3.1241911   -1.5535189   0.11617342   -3.1241911    1.5706723   502367 
 3670000    1.1992202   -3.1258836   -1.5539343   0.12095724   -3.1258836    1.5719493   502430 
 3671000    1.1972165   -3.1233489   -1.5542136   0.11314815   -3.1233489    1.5691354   502490 
 3672000    1.1991531   -3.1254455   -1.5540158   0.11839004   -3.1254455    1.5714296   502568 
 3673000    1.1982439   -3.1241801   -1.5542138   0.11471989   -3.1241801    1.5699663   502655 
 3674000    1.1991642   -3.1271485   -1.5561452   0.11419631   -3.1271485    1.5710034   502709 
 3675000    1.2002972   -3.1272091   -1.5549684   0.11326855   -3.1272091    1.5722407   502788 
 3676000    1.2008534   -3.1275636   -1.5548289   0.11574857   -3.1275636    1.5727347   502863 
 3677000    1.1996581   -3.1269736   -1.5561262   0.11815808   -3.1269736    1.5708473   502966 
 3678000    1.2003134   -3.1271452   -1.5556304   0.11473793   -3.1271452    1.5715149   503027 
 3679000    1.2020899   -3.1287119    -1.555137   0.11629925   -3.1287119    1.5735749   503112 
 3680000    1.2018794   -3.1279282   -1.5547821   0.11679821   -3.1279282    1.5731461   503161 
 3681000    1.2012594   -3.1285469   -1.5563529   0.11461679   -3.1285469     1.572194   503206 
 3682000    1.2015241   -3.1285286   -1.5562444   0.11877442   -3.1285286    1.5722842   503288 
 3683000    1.2019139    -3.128485    -1.555922   0.11855263    -3.128485     1.572563   503362 
 3684000    1.2012454   -3.1293577   -1.5577536   0.11193379   -3.1293577    1.5716041   503389 
 3685000    1.2006164   -3.1280817   -1.5575906   0.11087893   -3.1280817    1.5704911   503482 
 3686000    1.2029883   -3.1297725   -1.5564164   0.11813876   -3.1297725    1.5733561   503558 
 3687000    1.2028191   -3.1292582   -1.5563827   0.11731665   -3.1292582    1.5728755   503641 
 3688000    1.2056507   -3.1333988   -1.5570959   0.11430738   -3.1333988    1.5763029   503729 
 3689000    1.2029945   -3.1293377   -1.5568073   0.11997656   -3.1293377    1.5725304   503825 
 3690000    1.2040374    -3.131717   -1.5580045   0.11131948    -3.131717    1.5737126   503883 
 3691000    1.2022584   -3.1291668   -1.5580227   0.11533552   -3.1291668    1.5711442   503961 
 3692000    1.2059252   -3.1321983   -1.5564092   0.11059887   -3.1321983    1.5757891   504008 
 3693000    1.2028417   -3.1296566   -1.5580807   0.11145787   -3.1296566    1.5715759   504067 
 3694000    1.2048358   -3.1317725   -1.5577817   0.11586931   -3.1317725    1.5739907   504128 
 3695000     1.203731   -3.1305798   -1.5582819   0.11162023   -3.1305798    1.5722979   504208 
 3696000    1.2032258   -3.1293585    -1.557895   0.11963509   -3.1293585    1.5714635   504264 
 3697000    1.2035841   -3.1299606   -1.5582567   0.12364683   -3.1299606     1.571704   504337 
 3698000    1.2055546   -3.1330706   -1.5589963   0.11321582   -3.1330706    1.5740743   504402 
 3699000    1.2038591    -3.129699   -1.5580877   0.11465624    -3.129699    1.5716113   504482 
 3700000    1.2043962   -3.1317323   -1.5596847   0.11422782   -3.1317323    1.5720476   504567 
 3701000    1.2045878   -3.1322452   -1.5601688   0.11371777   -3.1322452    1.5720764   504638 
 3702000    1.2056978   -3.1333736   -1.5601167   0.11173819   -3.1333736    1.5732569   504724 
 3703000    1.2062145   -3.1326537   -1.5588566   0.11582192   -3.1326537     1.573797   504767 
 3704000    1.2045842   -3.1296324    -1.558171    0.1160902   -3.1296324    1.5714613   504834 
 3705000    1.2068338   -3.1332226    -1.559051   0.11375985   -3.1332226    1.5741716   504906 
 3706000    1.2069731   -3.1306535   -1.5565465   0.11724141   -3.1306535     1.574107   504985 
 3707000    1.2076192   -3.1316244   -1.5569056   0.12040628   -3.1316244    1.5747188   505059 
 3708000    1.2080599   -3.1322051   -1.5571767   0.11635728   -3.1322051    1.5750284   505144 
 3709000    1.2074681   -3.1320235   -1.5579474   0.12076143   -3.1320235    1.5740761   505202 
 3710000    1.2064519   -3.1305656   -1.5580321   0.12181418   -3.1305656    1.5725335   505272 
 3711000    1.2080001    -3.132624   -1.5582875   0.11542743    -3.132624    1.5743365   505341 
 3712000    1.2075811   -3.1325101   -1.5588878   0.11611404   -3.1325101    1.5736223   505395 
 3713000    1.2078005    -3.131642    -1.557986   0.11593842    -3.131642     1.573656   505476 
 3714000    1.2090921   -3.1332579   -1.5580561   0.11678945   -3.1332579    1.5752017   505520 
 3715000    1.2080435   -3.1323063   -1.5586886   0.12460677   -3.1323063    1.5736176   505590 
 3716000    1.2079534   -3.1319753   -1.5587208   0.11761589   -3.1319753    1.5732545   505669 
 3717000    1.2072999   -3.1318919   -1.5596938   0.11714348   -3.1318919    1.5721981   505735 
 3718000    1.2088169   -3.1328917   -1.5588674    0.1167737   -3.1328917    1.5740243   505783 
 3719000    1.2085709   -3.1320999   -1.5586014   0.11681091   -3.1320999    1.5734986   505849 
 3720000    1.2078657   -3.1322296   -1.5598418   0.11264206   -3.1322296    1.5723878   505911 
 3721000    1.2083957    -3.133208   -1.5603386   0.11174253    -3.133208    1.5728694   505978 
 3722000    1.2091466     -3.13454   -1.5609077   0.10839754     -3.13454    1.5736322   506047 
 3723000    1.2085448   -3.1330479   -1.5604009   0.11164679   -3.1330479     1.572647   506112 
 3724000    1.2103887   -3.1353177   -1.5605295   0.11184514   -3.1353177    1.5747882   506195 
 3725000    1.2092219   -3.1333429   -1.5602623   0.11544515   -3.1333429    1.5730806   506256 
 3726000    1.2106626   -3.1357034   -1.5608793   0.11236552   -3.1357034    1.5748241   506298 
 3727000    1.2099472   -3.1347654   -1.5611268   0.11129257   -3.1347654    1.5736386   506380 
 3728000    1.2092223   -3.1329945   -1.5604943   0.11757358   -3.1329945    1.5725002   506443 
 3729000    1.2119514   -3.1352912   -1.5595002   0.11442494   -3.1352912     1.575791   506526 
 3730000    1.2107698   -3.1325869   -1.5585343   0.11862554   -3.1325869    1.5740527   506591 
 3731000    1.2115771   -3.1334434    -1.558649   0.11738988   -3.1334434    1.5747944   506690 
 3732000     1.211116   -3.1331617   -1.5591997   0.11758424   -3.1331617    1.5739621   506765 
 3733000    1.2120875   -3.1351279   -1.5601301   0.11476562   -3.1351279    1.5749977   506838 
 3734000    1.2119698   -3.1342324    -1.559605    0.1175624   -3.1342324    1.5746274   506908 
 3735000    1.2106637   -3.1333535   -1.5606433   0.11581562   -3.1333535    1.5727102   506979 
 3736000    1.2120889   -3.1356417   -1.5612851   0.11654584   -3.1356417    1.5743566   507045 
 3737000    1.2130424   -3.1357452   -1.5602869   0.11808678   -3.1357452    1.5754583   507089 
 3738000    1.2129497   -3.1352818   -1.5600184   0.12106536   -3.1352818    1.5752633   507113 
 3739000    1.2134744   -3.1361333   -1.5603531   0.11916381   -3.1361333    1.5757802   507166 
 3740000    1.2120154    -3.134097   -1.5604535    0.1234023    -3.134097    1.5736435   507244 
 3741000    1.2106036   -3.1334344   -1.5617509   0.12127897   -3.1334344    1.5716835   507285 
 3742000    1.2115234   -3.1349816   -1.5622684   0.11363043   -3.1349816    1.5727132   507338 
 3743000    1.2120058   -3.1357337   -1.5626423   0.11525631   -3.1357337    1.5730914   507418 
 3744000    1.2127218   -3.1368526   -1.5630738   0.11509316   -3.1368526    1.5737788   507496 
 3745000    1.2130695   -3.1357391   -1.5616827   0.11859878   -3.1357391    1.5740564   507552 
 3746000    1.2139555   -3.1361335   -1.5610921   0.11517761   -3.1361335    1.5750415   507605 
 3747000    1.2135299   -3.1357952   -1.5614547   0.11469244   -3.1357952    1.5743405   507653 
 3748000    1.2141883   -3.1359306   -1.5609532   0.11916108   -3.1359306    1.5749774   507723 
 3749000    1.2145953    -3.136114   -1.5608444   0.11473764    -3.136114    1.5752696   507799 
 3750000    1.2155614   -3.1378493   -1.5615472   0.11420063   -3.1378493    1.5763022   507870 
 3751000    1.2139627   -3.1365712   -1.5625344   0.11592052   -3.1365712    1.5740368   507932 
 3752000    1.2162886   -3.1385124   -1.5616212   0.11617521   -3.1385124    1.5768912   507984 
 3753000    1.2156553   -3.1378747   -1.5619845   0.11612383   -3.1378747    1.5758902   508042 
 3754000    1.2143131   -3.1365102   -1.5624932   0.11526193   -3.1365102    1.5740171   508085 
 3755000    1.2148563   -3.1368438   -1.5623117   0.11912622   -3.1368438    1.5745321   508146 
 3756000    1.2156156   -3.1369785   -1.5615769   0.11395215   -3.1369785    1.5754016   508183 
 3757000    1.2161847   -3.1400964   -1.5641497   0.11820124   -3.1400964    1.5759467   508245 
 3758000    1.2139843   -3.1360224   -1.5630847   0.11659721   -3.1360224    1.5729377   508296 
 3759000    1.2139947   -3.1350476   -1.5622264   0.11764794   -3.1350476    1.5728212   508338 
 3760000     1.213889   -3.1354998   -1.5630414   0.11787046   -3.1354998    1.5724584   508411 
 3761000    1.2161699   -3.1376773   -1.5624904   0.11752116   -3.1376773    1.5751869   508484 
 3762000    1.2173985   -3.1385741   -1.5618982   0.11596276   -3.1385741    1.5766759   508517 
 3763000    1.2152572   -3.1375832   -1.5638818    0.1175805   -3.1375832    1.5737015   508582 
 3764000    1.2166818   -3.1386921   -1.5634153   0.11524554   -3.1386921    1.5752768   508669 
 3765000    1.2169268   -3.1383813   -1.5629608   0.12239017   -3.1383813    1.5754206   508725 
 3766000     1.217175    -3.137928   -1.5623874   0.11738325    -3.137928    1.5755405   508790 
 3767000    1.2186222    -3.139586   -1.5624666   0.11882883    -3.139586    1.5771194   508885 
 3768000    1.2176284   -3.1390566   -1.5634494    0.1158454   -3.1390566    1.5756072   508958 
 3769000     1.218386   -3.1396721    -1.563193   0.12117714   -3.1396721    1.5764791   508993 
 3770000    1.2166234   -3.1379428   -1.5639021   0.12134356   -3.1379428    1.5740407   509044 
 3771000    1.2171114   -3.1387392   -1.5643083   0.11859113   -3.1387392    1.5744309   509122 
 3772000    1.2181738   -3.1405968    -1.564968   0.11932838   -3.1405968    1.5756288   509179 
 3773000    1.2179169   -3.1408192    -1.565699   0.11574388   -3.1408192    1.5751202   509236 
 3774000    1.2187518   -3.1415401   -1.5654639   0.12067824   -3.1415401    1.5760762   509276 
 3775000    1.2192755   -3.1429297   -1.5664117   0.11859125   -3.1429297    1.5765181   509352 
 3776000     1.218688   -3.1425315    -1.567002   0.12620909   -3.1425315    1.5755295   509426 
 3777000     1.218736   -3.1430536   -1.5677465   0.11570729   -3.1430536    1.5753071   509518 
 3778000    1.2164131   -3.1398298   -1.5676857   0.12186561   -3.1398298    1.5721442   509570 
 3779000    1.2182146   -3.1422684   -1.5680863   0.11649338   -3.1422684    1.5741821   509664 
 3780000    1.2168087   -3.1425038   -1.5703513   0.12442486   -3.1425038    1.5721525   509733 
 3781000    1.2197625   -3.1445784   -1.5687454   0.11423205   -3.1445784     1.575833   509777 
 3782000    1.2200951   -3.1437896   -1.5677095   0.11790769   -3.1437896    1.5760802   509836 
 3783000    1.2193178   -3.1419901   -1.5671333   0.12028736   -3.1419901    1.5748568   509907 
 3784000    1.2200105   -3.1431507   -1.5675475   0.12118236   -3.1431507    1.5756031   509955 
 3785000    1.2184329   -3.1404165   -1.5670729   0.12240747   -3.1404165    1.5733437   510027 
 3786000    1.2215691   -3.1447537   -1.5675305   0.12099098   -3.1447537    1.5772232   510082 
 3787000    1.2177123   -3.1408075   -1.5687397   0.12156921   -3.1408075    1.5720678   510139 
 3788000    1.2213965    -3.144866   -1.5682643   0.11803997    -3.144866    1.5766017   510211 
 3789000    1.2202444   -3.1427604    -1.567791   0.11741577   -3.1427604    1.5749694   510258 
 3790000    1.2197054   -3.1420211    -1.567917   0.12332768   -3.1420211    1.5741041   510313 
 3791000     1.221899   -3.1433547   -1.5665803   0.11856883   -3.1433547    1.5767744   510365 
 3792000    1.2212038   -3.1433332   -1.5676164   0.11501251   -3.1433332    1.5757167   510417 
 3793000    1.2201941   -3.1413888   -1.5672186   0.11677534   -3.1413888    1.5741703   510496 
 3794000    1.2213902   -3.1428314   -1.5673371   0.11482596   -3.1428314    1.5754942   510567 
 3795000    1.2216352   -3.1413935   -1.5658208   0.12113778   -3.1413935    1.5755726   510644 
 3796000    1.2203321   -3.1407235   -1.5670565   0.11669972   -3.1407235    1.5736671   510717 
 3797000    1.2213046   -3.1425008   -1.5677862   0.11572315   -3.1425008    1.5747146   510784 
 3798000    1.2205712   -3.1422669   -1.5686922   0.11409017   -3.1422669    1.5735748   510847 
 3799000    1.2210851   -3.1431674   -1.5692073    0.1210325   -3.1431674    1.5739601   510937 
 3800000    1.2219274   -3.1441398    -1.569359   0.11378777   -3.1441398    1.5747808   511023 
 3801000    1.2233124   -3.1440169    -1.567627   0.11583828   -3.1440169    1.5763899   511080 
 3802000    1.2220926   -3.1419642   -1.5673588   0.11944568   -3.1419642    1.5746054   511149 
 3803000    1.2224489   -3.1424615   -1.5675542   0.11792501   -3.1424615    1.5749073   511200 
 3804000    1.2218779   -3.1420623   -1.5681154   0.11769796   -3.1420623    1.5739469   511273 
 3805000    1.2244116   -3.1442928   -1.5672887   0.12375961   -3.1442928    1.5770041   511340 
 3806000     1.225294   -3.1450491   -1.5670505   0.12010635   -3.1450491    1.5779986   511386 
 3807000    1.2251602   -3.1442163   -1.5666585   0.11424449   -3.1442163    1.5775578   511473 
 3808000    1.2256459   -3.1460102   -1.5680276   0.11507135   -3.1460102    1.5779827   511538 
 3809000    1.2227838   -3.1425086   -1.5683461   0.12053676   -3.1425086    1.5741625   511582 
 3810000    1.2229309   -3.1430665   -1.5688901    0.1216114   -3.1430665    1.5741764   511639 
 3811000    1.2227024   -3.1435275    -1.569836   0.12228187   -3.1435275    1.5736916   511701 
 3812000    1.2248056   -3.1464502   -1.5702518   0.12144145   -3.1464502    1.5761984   511766 
 3813000    1.2243761   -3.1459888   -1.5704848   0.11250721   -3.1459888     1.575504   511812 
 3814000     1.224633   -3.1473234   -1.5716705   0.11743159   -3.1473234    1.5756529   511871 
 3815000    1.2259006   -3.1482972   -1.5712258   0.11740616   -3.1482972    1.5770713   511940 
 3816000    1.2245895   -3.1472007   -1.5719639    0.1200031   -3.1472007    1.5752369   511988 
 3817000    1.2235876   -3.1464728   -1.5726569   0.11319431   -3.1464728     1.573816   512031 
 3818000    1.2236185   -3.1448262   -1.5711519   0.12507401   -3.1448262    1.5736744   512090 
 3819000    1.2259643    -3.147822   -1.5712755   0.12108452    -3.147822    1.5765465   512137 
 3820000    1.2241982   -3.1456309     -1.57154   0.12158577   -3.1456309     1.574091   512197 
 3821000    1.2259868   -3.1474755   -1.5712509   0.12023375   -3.1474755    1.5762247   512251 
 3822000    1.2266611   -3.1491667   -1.5722537   0.11800022   -3.1491667    1.5769131   512309 
 3823000    1.2256715   -3.1481044   -1.5725773   0.12016507   -3.1481044    1.5755271   512346 
 3824000    1.2256092   -3.1481429   -1.5729143   0.12134829   -3.1481429    1.5752286   512417 
 3825000    1.2249228   -3.1485812    -1.574376    0.1164449   -3.1485812    1.5742052   512463 
 3826000    1.2256174   -3.1500705   -1.5751939    0.1196434   -3.1500705    1.5748766   512535 
 3827000    1.2260744   -3.1511581   -1.5758511   0.11927297   -3.1511581    1.5753071   512586 
 3828000    1.2252609   -3.1499121   -1.5757271   0.11565365   -3.1499121    1.5741851   512611 
 3829000    1.2253844   -3.1496965   -1.5755646   0.11516244   -3.1496965    1.5741318   512680 
 3830000    1.2264595   -3.1495707   -1.5742238   0.12145777   -3.1495707     1.575347   512734 
 3831000    1.2281779   -3.1512182   -1.5738055   0.12368545   -3.1512182    1.5774127   512780 
 3832000    1.2275881   -3.1511873   -1.5747412   0.11948698   -3.1511873    1.5764461   512848 
 3833000    1.2266217    -3.149678   -1.5746264   0.12270428    -3.149678    1.5750516   512898 
 3834000    1.2264134   -3.1502175   -1.5756391   0.11885447   -3.1502175    1.5745784   512965 
 3835000    1.2277092   -3.1512897   -1.5751706   0.12286125   -3.1512897    1.5761191   513005 
 3836000    1.2274247   -3.1520656   -1.5764131   0.12143555   -3.1520656    1.5756525   513038 
 3837000    1.2293642   -3.1544134   -1.5764495   0.11773269   -3.1544134    1.5779639   513096 
 3838000     1.225147   -3.1493019   -1.5769288   0.11830726   -3.1493019    1.5723731   513154 
 3839000    1.2275769   -3.1520483     -1.57679   0.12280074   -3.1520483    1.5752583   513230 
 3840000    1.2277426   -3.1518393    -1.576623   0.12213006   -3.1518393    1.5752163   513313 
 3841000     1.227398   -3.1502339   -1.5756224   0.12242442   -3.1502339    1.5746116   513366 
 3842000    1.2296027   -3.1525892   -1.5753675   0.12138229   -3.1525892    1.5772218   513437 
 3843000    1.2288999   -3.1519188    -1.575798    0.1187855   -3.1519188    1.5761208   513502 
 3844000    1.2286945   -3.1520777   -1.5764045   0.11467767   -3.1520777    1.5756732   513562 
 3845000     1.229142   -3.1520739   -1.5759496   0.11459599   -3.1520739    1.5761244   513602 
 3846000    1.2296526   -3.1523948   -1.5758091   0.12112046   -3.1523948    1.5765857   513665 
 3847000    1.2295896   -3.1524784   -1.5761452   0.11498836   -3.1524784    1.5763331   513721 
 3848000    1.2297296   -3.1523548   -1.5760294   0.11689192   -3.1523548    1.5763254   513782 
 3849000    1.2295946   -3.1529286   -1.5769542   0.11799319   -3.1529286    1.5759744   513840 
 3850000    1.2268359   -3.1502398    -1.577994   0.11725993   -3.1502398    1.5722458   513903 
 3851000    1.2277753   -3.1504611   -1.5771798   0.11602333   -3.1504611    1.5732814   513958 
 3852000    1.2282528   -3.1515602   -1.5778568   0.12239506   -3.1515602    1.5737034   514020 
 3853000    1.2289816   -3.1523465   -1.5779085   0.11652427   -3.1523465     1.574438   514085 
 3854000    1.2301491   -3.1527633   -1.5769798   0.12151443   -3.1527633    1.5757836   514134 
 3855000    1.2282767    -3.151443   -1.5782476   0.11449413    -3.151443    1.5731954   514196 
 3856000    1.2293605   -3.1524435   -1.5780498   0.12082439   -3.1524435    1.5743937   514258 
 3857000    1.2292299   -3.1512724   -1.5772327    0.1219643   -3.1512724    1.5740397   514319 
 3858000     1.228897   -3.1518468   -1.5783894   0.11843352   -3.1518468    1.5734573   514370 
 3859000    1.2296606   -3.1512959   -1.5769894   0.11971071   -3.1512959    1.5743065   514412 
 3860000    1.2313681   -3.1544207   -1.5781242   0.11558069   -3.1544207    1.5762964   514476 
 3861000    1.2303578   -3.1525443   -1.5777186   0.11754293   -3.1525443    1.5748257   514534 
 3862000    1.2302983   -3.1519466   -1.5774328   0.12065811   -3.1519466    1.5745138   514611 
 3863000     1.230018   -3.1524141   -1.5784884   0.11665935   -3.1524141    1.5739258   514686 
 3864000    1.2314305   -3.1531265   -1.5775923   0.11751079   -3.1531265    1.5755342   514751 
 3865000    1.2317943   -3.1524363   -1.5766357   0.11954774   -3.1524363    1.5758007   514816 
 3866000    1.2319358   -3.1539037   -1.5781148   0.12200747   -3.1539037    1.5757889   514879 
 3867000    1.2340725   -3.1549796   -1.5766324   0.11864439   -3.1549796    1.5783472   514936 
 3868000    1.2313587   -3.1516371   -1.5769657   0.12291573   -3.1516371    1.5746714   515003 
 3869000    1.2331754   -3.1547902    -1.577964   0.12043105   -3.1547902    1.5768262   515058 
 3870000    1.2318073   -3.1531467   -1.5782379      0.12125   -3.1531467    1.5749088   515113 
 3871000    1.2347726   -3.1565613    -1.578036   0.11874204   -3.1565613    1.5785253   515170 
 3872000    1.2327286   -3.1543556    -1.578633   0.11841238   -3.1543556    1.5757227   515232 
 3873000    1.2306811   -3.1528602   -1.5799135   0.12089687   -3.1528602    1.5729467   515284 
 3874000    1.2343985   -3.1574336   -1.5798796   0.12256045   -3.1574336     1.577554   515331 
 3875000    1.2335928   -3.1554905   -1.5791589   0.11382279   -3.1554905    1.5763317   515394 
 3876000    1.2326943   -3.1537062   -1.5787152   0.11864963   -3.1537062     1.574991   515457 
 3877000    1.2338279   -3.1563286   -1.5801002   0.11760992   -3.1563286    1.5762284   515526 
 3878000    1.2339245   -3.1561633   -1.5800133   0.12146708   -3.1561633      1.57615   515592 
 3879000    1.2351742   -3.1560017   -1.5784481   0.12109468   -3.1560017    1.5775536   515655 
 3880000    1.2357443   -3.1571331   -1.5789799   0.11726562   -3.1571331    1.5781532   515697 
 3881000    1.2346635   -3.1557857   -1.5791932   0.11572481   -3.1557857    1.5765925   515756 
 3882000    1.2350657   -3.1558898   -1.5789275   0.12015697   -3.1558898    1.5769623   515803 
 3883000    1.2348939   -3.1556091   -1.5790679   0.11366227   -3.1556091    1.5765413   515869 
 3884000    1.2337294   -3.1535403   -1.5787024   0.11805762   -3.1535403    1.5748379   515940 
 3885000    1.2347847   -3.1552398   -1.5791954   0.11823613   -3.1552398    1.5760444   515986 
 3886000    1.2364675   -3.1576585   -1.5796619    0.1186977   -3.1576585    1.5779966   516050 
 3887000    1.2336526   -3.1544962   -1.5802628   0.11732867   -3.1544962    1.5742333   516106 
 3888000    1.2352921    -3.156541   -1.5804537   0.12121669    -3.156541    1.5760873   516184 
 3889000    1.2341827   -3.1551781   -1.5806192   0.12253104   -3.1551781    1.5745589   516221 
 3890000    1.2336108    -3.154315   -1.5806289   0.12081164    -3.154315    1.5736861   516268 
 3891000    1.2350804   -3.1550491   -1.5796929   0.12004275   -3.1550491    1.5753563   516335 
 3892000     1.236028   -3.1560612   -1.5796519   0.12255616   -3.1560612    1.5764093   516386 
 3893000    1.2362882   -3.1569408   -1.5803829   0.12190056   -3.1569408     1.576558   516446 
 3894000    1.2374828   -3.1585955   -1.5806852   0.11175916   -3.1585955    1.5779103   516502 
 3895000     1.236724    -3.158702    -1.581918   0.12032206    -3.158702     1.576784   516554 
 3896000    1.2366775   -3.1588734   -1.5823135   0.12356538   -3.1588734    1.5765598   516608 
 3897000    1.2365292   -3.1580366   -1.5818214   0.12319401   -3.1580366    1.5762152   516659 
 3898000    1.2386219    -3.159382   -1.5806337   0.11904868    -3.159382    1.5787483   516703 
 3899000    1.2380561    -3.158127   -1.5802311   0.12187368    -3.158127    1.5778958   516746 
 3900000    1.2370479   -3.1580467   -1.5816525   0.12311859   -3.1580467    1.5763943   516817 
 3901000    1.2382726   -3.1581211   -1.5803401   0.12326154   -3.1581211     1.577781   516874 
 3902000     1.239086   -3.1587079   -1.5800494   0.11895856   -3.1587079    1.5786586   516926 
 3903000    1.2397489   -3.1588065   -1.5794348   0.12496124   -3.1588065    1.5793717   516969 
 3904000    1.2390601   -3.1583036    -1.579965   0.12674164   -3.1583036    1.5783386   517020 
 3905000    1.2401195   -3.1606552   -1.5811597    0.1203569   -3.1606552    1.5794955   517083 
 3906000    1.2375922   -3.1574113   -1.5812689   0.12287287   -3.1574113    1.5761425   517127 
 3907000    1.2381481    -3.158693   -1.5820224   0.12303573    -3.158693    1.5766706   517186 
 3908000    1.2376254   -3.1581191   -1.5822817   0.11902934   -3.1581191    1.5758374   517241 
 3909000    1.2388864   -3.1611043   -1.5838107   0.11996621   -3.1611043    1.5772936   517290 
 3910000    1.2411925   -3.1622239   -1.5822417   0.11953551   -3.1622239    1.5799821   517371 
 3911000    1.2396155   -3.1604841   -1.5826649   0.12042454   -3.1604841    1.5778192   517422 
 3912000    1.2386609   -3.1594857   -1.5830492   0.12554029   -3.1594857    1.5764365   517477 
 3913000    1.2386137   -3.1599571    -1.583733    0.1197655   -3.1599571    1.5762242   517527 
 3914000    1.2385272   -3.1593186   -1.5833598   0.12007465   -3.1593186    1.5759588   517578 
 3915000    1.2374053   -3.1595462   -1.5852066   0.12336929   -3.1595462    1.5743397   517641 
 3916000    1.2380196   -3.1606446    -1.585715   0.11896916   -3.1606446    1.5749296   517704 
 3917000    1.2406528   -3.1618728   -1.5837093   0.12192503   -3.1618728    1.5781635   517742 
 3918000    1.2393447   -3.1593379   -1.5830181   0.12264381   -3.1593379    1.5763199   517801 
 3919000    1.2393568   -3.1597846    -1.583641   0.11869951   -3.1597846    1.5761436   517864 
 3920000    1.2399244   -3.1595699   -1.5829116   0.11810153   -3.1595699    1.5766583   517932 
 3921000    1.2405291   -3.1616853   -1.5844499   0.11789973   -3.1616853    1.5772354   517995 
 3922000    1.2397909   -3.1610032   -1.5849164   0.11964164   -3.1610032    1.5760869   518064 
 3923000    1.2376071   -3.1595988   -1.5864216   0.12039321   -3.1595988    1.5731772   518108 
 3924000    1.2398497   -3.1619728   -1.5860483   0.11578002   -3.1619728    1.5759244   518142 
 3925000     1.239726   -3.1614668   -1.5858579   0.12377694   -3.1614668     1.575609   518194 
 3926000    1.2404351   -3.1618625   -1.5855074   0.11688039   -3.1618625    1.5763551   518245 
 3927000    1.2393717   -3.1614712   -1.5866134   0.11947988   -3.1614712    1.5748578   518293 
 3928000    1.2397707     -3.16057   -1.5853906   0.11472122     -3.16057    1.5751794   518354 
 3929000    1.2412302   -3.1634604   -1.5865634   0.11841842   -3.1634604     1.576897   518399 
 3930000    1.2418413   -3.1635822   -1.5860945   0.11996063   -3.1635822    1.5774877   518460 
 3931000    1.2424129   -3.1642526   -1.5861758   0.11806381   -3.1642526    1.5780768   518505 
 3932000    1.2419455   -3.1632286   -1.5859007   0.12464576   -3.1632286    1.5773279   518556 
 3933000    1.2408962    -3.163319   -1.5874878   0.12551986    -3.163319    1.5758312   518610 
 3934000    1.2404514   -3.1624268   -1.5873365    0.1229806   -3.1624268    1.5750903   518668 
 3935000     1.240805    -3.161929   -1.5865326   0.12104815    -3.161929    1.5753964   518715 
 3936000    1.2427556   -3.1633937   -1.5856454   0.12502423   -3.1633937    1.5777483   518756 
 3937000      1.24322   -3.1630616   -1.5848879   0.12485077   -3.1630616    1.5781737   518810 
 3938000    1.2424481   -3.1619794   -1.5849073    0.1223923   -3.1619794    1.5770721   518850 
 3939000    1.2437826   -3.1630322   -1.5844335   0.11738736   -3.1630322    1.5785987   518905 
 3940000    1.2443184   -3.1648291   -1.5857298   0.12384929   -3.1648291    1.5790993   518964 
 3941000    1.2430768   -3.1646375   -1.5873176   0.12290727   -3.1646375    1.5773199   519031 
 3942000    1.2433856   -3.1641733   -1.5866469   0.12154012   -3.1641733    1.5775264   519092 
 3943000     1.244265   -3.1647404   -1.5862382   0.12122507   -3.1647404    1.5785022   519138 
 3944000    1.2455568   -3.1664978   -1.5865424   0.12919166   -3.1664978    1.5799553   519199 
 3945000    1.2440904   -3.1647569   -1.5868531   0.12158726   -3.1647569    1.5779038   519262 
 3946000    1.2430724   -3.1630067   -1.5865914   0.12227029   -3.1630067    1.5764153   519327 
 3947000    1.2440181   -3.1636648    -1.586193   0.12148344   -3.1636648    1.5774718   519374 
 3948000    1.2442307   -3.1633051   -1.5857428   0.12126451   -3.1633051    1.5775623   519433 
 3949000    1.2435514   -3.1627093   -1.5861115   0.11765501   -3.1627093    1.5765977   519467 
 3950000     1.243034   -3.1638371   -1.5880348   0.12444401   -3.1638371    1.5758023   519513 
 3951000    1.2419892   -3.1629939   -1.5886859   0.11777441   -3.1629939     1.574308   519569 
 3952000    1.2443186   -3.1647868   -1.5877293   0.11839105   -3.1647868    1.5770574   519636 
 3953000    1.2432891   -3.1648867   -1.5892676   0.12232398   -3.1648867    1.5756191   519680 
 3954000    1.2431927   -3.1641383   -1.5888505   0.12337109   -3.1641383    1.5752878   519749 
 3955000    1.2443311    -3.164736   -1.5881574   0.11917299    -3.164736    1.5765786   519799 
 3956000    1.2453464   -3.1659583   -1.5882116   0.11635029   -3.1659583    1.5777467   519838 
 3957000    1.2465228   -3.1665302   -1.5873539   0.12222461   -3.1665302    1.5791763   519858 
 3958000    1.2440944   -3.1643062   -1.5883366   0.11843763   -3.1643062    1.5759696   519901 
 3959000    1.2455481   -3.1669924   -1.5893574   0.11450221   -3.1669924     1.577635   519959 
 3960000    1.2438384   -3.1645094   -1.5891399   0.11774173   -3.1645094    1.5753695   519992 
 3961000    1.2462085    -3.166752   -1.5886236   0.12220536    -3.166752    1.5781285   520072 
 3962000     1.246093   -3.1675617   -1.5897221   0.12220118   -3.1675617    1.5778396   520119 
 3963000    1.2450942   -3.1666939   -1.5903159   0.11995593   -3.1666939    1.5763779   520184 
 3964000    1.2456935   -3.1680558   -1.5910313   0.12161958   -3.1680558    1.5770245   520221 
 3965000    1.2444932   -3.1665317   -1.5912145   0.11647177   -3.1665317    1.5753172   520283 
 3966000    1.2459074   -3.1676142    -1.590722   0.12349376   -3.1676142    1.5768922   520354 
 3967000    1.2471282   -3.1684531   -1.5901857   0.11998186   -3.1684531    1.5782675   520410 
 3968000    1.2472051    -3.169094     -1.59089   0.11896554    -3.169094     1.578204   520463 
 3969000     1.248138   -3.1702653    -1.591081   0.12123373   -3.1702653    1.5791843   520529 
 3970000    1.2466673    -3.170074    -1.592905   0.12446276    -3.170074    1.5771689   520580 
 3971000    1.2448155    -3.167738   -1.5930751   0.12307673    -3.167738    1.5746629   520634 
 3972000    1.2464112   -3.1696756   -1.5931699   0.12009799   -3.1696756    1.5765058   520692 
 3973000    1.2476243    -3.171468   -1.5935036   0.11569497    -3.171468    1.5779644   520717 
 3974000    1.2459682   -3.1682371   -1.5925338   0.12487198   -3.1682371    1.5757033   520772 
 3975000    1.2471437   -3.1695755   -1.5925157   0.12293858   -3.1695755    1.5770598   520815 
 3976000    1.2475111   -3.1710011   -1.5936494   0.11888503   -3.1710011    1.5773517   520872 
 3977000    1.2466596   -3.1707775   -1.5946477   0.11807565   -3.1707775    1.5761298   520920 
 3978000    1.2473212    -3.171397   -1.5946154   0.11857237    -3.171397    1.5767816   520981 
 3979000    1.2479117   -3.1720642   -1.5946996   0.12467878   -3.1720642    1.5773646   521035 
 3980000    1.2471662   -3.1719673   -1.5956932    0.1241531   -3.1719673    1.5762741   521084 
 3981000    1.2467107   -3.1713254   -1.5957147   0.12031224   -3.1713254    1.5756107   521113 
 3982000    1.2485405   -3.1719864   -1.5942146   0.12373121   -3.1719864    1.5777718   521163 
 3983000    1.2494918   -3.1739284   -1.5950998   0.12419225   -3.1739284    1.5788286   521211 
 3984000    1.2484669    -3.172209   -1.5947299   0.12286174    -3.172209    1.5774791   521229 
 3985000    1.2485638    -3.171312    -1.593989   0.12388483    -3.171312     1.577323   521321 
 3986000    1.2481468    -3.170601   -1.5939136    0.1251911    -3.170601    1.5766874   521357 
 3987000     1.248889    -3.172458    -1.594954   0.12337425    -3.172458     1.577504   521397 
 3988000    1.2481787   -3.1707553   -1.5943542   0.12460761   -3.1707553    1.5764011   521465 
 3989000    1.2492318   -3.1736836   -1.5960886    0.1208711   -3.1736836     1.577595   521510 
 3990000     1.248049   -3.1711582     -1.59522   0.12100431   -3.1711582    1.5759382   521564 
 3991000    1.2483435   -3.1720034   -1.5959322   0.11732645   -3.1720034    1.5760712   521643 
 3992000     1.249097   -3.1718186   -1.5949109   0.11914211   -3.1718186    1.5769077   521681 
 3993000    1.2493355   -3.1711671    -1.594185   0.11898875   -3.1711671    1.5769821   521756 
 3994000    1.2494651   -3.1713165   -1.5943642   0.12139719   -3.1713165    1.5769522   521820 
 3995000    1.2499719   -3.1701594   -1.5927278   0.11964007   -3.1701594    1.5774316   521873 
 3996000    1.2506901   -3.1720669   -1.5939103   0.12037922   -3.1720669    1.5781566   521933 
 3997000    1.2506399   -3.1715925    -1.593593   0.12206471   -3.1715925    1.5779995   521964 
 3998000    1.2494635   -3.1703621   -1.5940191   0.12058399   -3.1703621     1.576343   522021 
 3999000     1.248661   -3.1694611   -1.5942904   0.12131542   -3.1694611    1.5751707   522074 
 4000000    1.2491543   -3.1707438   -1.5951109   0.11869219   -3.1707438    1.5756329   522127 
 4001000    1.2502601   -3.1717529   -1.5949456   0.11877899   -3.1717529    1.5768073   522200 
 4002000    1.2487685   -3.1710582   -1.5962556   0.11394815   -3.1710582    1.5748026   522241 
 4003000    1.2498047   -3.1713311   -1.5953063   0.12221351   -3.1713311    1.5760248   522269 
 4004000    1.2500331   -3.1715253   -1.5953997   0.11673802   -3.1715253    1.5761256   522331 
 4005000    1.2506371   -3.1726436   -1.5959376   0.11823857   -3.1726436    1.5767061   522391 
 4006000    1.2517326    -3.173343   -1.5954037   0.11812075    -3.173343    1.5779393   522440 
 4007000    1.2515384   -3.1730923   -1.5955368   0.12497801   -3.1730923    1.5775555   522486 
 4008000    1.2525348    -3.173039   -1.5943273   0.12067526    -3.173039    1.5787117   522519 
 4009000    1.2521929   -3.1735747   -1.5955325   0.12397978   -3.1735747    1.5780422   522598 
 4010000    1.2512107   -3.1734772   -1.5968146   0.12586203   -3.1734772    1.5766626   522645 
 4011000    1.2512498    -3.173831   -1.5972367   0.12347379    -3.173831    1.5765943   522684 
 4012000    1.2526039     -3.17566   -1.5974834   0.12257076     -3.17566    1.5781766   522725 
 4013000    1.2520625   -3.1750321   -1.5977066   0.11972333   -3.1750321    1.5773256   522781 
 4014000    1.2517863   -3.1743904   -1.5974943   0.12165921   -3.1743904    1.5768961   522808 
 4015000    1.2515573   -3.1756464   -1.5991201   0.12519253   -3.1756464    1.5765263   522835 
 4016000    1.2525681   -3.1769983   -1.5993466   0.12015527   -3.1769983    1.5776516   522884 
 4017000    1.2511194   -3.1751689   -1.5995288   0.12887063   -3.1751689    1.5756402   522946 
 4018000    1.2510713   -3.1757041     -1.60026   0.12252442   -3.1757041    1.5754441   522991 
 4019000    1.2498306   -3.1754995   -1.6017894   0.12505064   -3.1754995    1.5737102   523048 
 4020000    1.2534141   -3.1782945   -1.6002412   0.11912351   -3.1782945    1.5780533   523104 
 4021000    1.2515447   -3.1762939   -1.6007598   0.12259181   -3.1762939    1.5755341   523159 
 4022000    1.2502013   -3.1752285   -1.6015451   0.12339135   -3.1752285    1.5736834   523212 
 4023000    1.2517407   -3.1777605   -1.6023049   0.12308046   -3.1777605    1.5754556   523267 
 4024000    1.2510454   -3.1763451   -1.6018579    0.1242153   -3.1763451    1.5744872   523298 
 4025000    1.2532231   -3.1787611   -1.6016749   0.12177355   -3.1787611    1.5770862   523345 
 4026000    1.2543293   -3.1785392   -1.6001303   0.12102092   -3.1785392    1.5784089   523368 
 4027000    1.2546456   -3.1789732    -1.600302   0.12564662   -3.1789732    1.5786713   523413 
 4028000    1.2549104   -3.1787043    -1.599902   0.12281721   -3.1787043    1.5788023   523480 
 4029000     1.253584   -3.1779957   -1.6010097   0.12401125   -3.1779957     1.576986   523529 
 4030000    1.2548611   -3.1796075   -1.6012109   0.12068387   -3.1796075    1.5783966   523594 
 4031000    1.2540324   -3.1774397    -1.600203    0.1227343   -3.1774397    1.5772367   523633 
 4032000    1.2540155   -3.1785259   -1.6014761   0.12307592   -3.1785259    1.5770498   523688 
 4033000    1.2540945   -3.1778786    -1.600856   0.12423345   -3.1778786    1.5770227   523730 
 4034000    1.2537458   -3.1779315   -1.6014828   0.12253008   -3.1779315    1.5764487   523775 
 4035000    1.2534913   -3.1793723   -1.6033518    0.1168678   -3.1793723    1.5760205   523811 
 4036000    1.2536941   -3.1779118   -1.6017988   0.11477978   -3.1779118     1.576113   523865 
 4037000    1.2526811   -3.1766863   -1.6019852   0.12009077   -3.1766863    1.5747011   523911 
 4038000    1.2525067   -3.1772503   -1.6029307   0.12169465   -3.1772503    1.5743196   523965 
 4039000    1.2536157   -3.1784286   -1.6028294   0.11789317   -3.1784286    1.5755993   524003 
 4040000    1.2527583   -3.1769026   -1.6024741   0.12861693   -3.1769026    1.5744285   524034 
 4041000    1.2533791   -3.1772366   -1.6021811   0.12497812   -3.1772366    1.5750555   524085 
 4042000     1.255037   -3.1761618   -1.5991944    0.1260909   -3.1761618    1.5769673   524142 
 4043000    1.2582963   -3.1803467   -1.5994861   0.11910969   -3.1803467    1.5808606   524209 
 4044000    1.2556775   -3.1768358   -1.5993316   0.12760094   -3.1768358    1.5775043   524231 
 4045000    1.2559687    -3.177436   -1.5997645   0.12972914    -3.177436    1.5776715   524297 
 4046000    1.2566426   -3.1796396   -1.6012058   0.12072328   -3.1796396    1.5784338   524325 
 4047000    1.2558709   -3.1790995   -1.6018006   0.11998155   -3.1790995    1.5772989   524380 
 4048000    1.2558859    -3.179425   -1.6022696   0.12239842    -3.179425    1.5771554   524434 
 4049000    1.2562828   -3.1788312   -1.6012706   0.12354776   -3.1788312    1.5775606   524465 
 4050000    1.2560356   -3.1788537   -1.6016727   0.11858545   -3.1788537     1.577181   524488 
 4051000    1.2582373   -3.1806409   -1.6008068   0.12439635   -3.1806409    1.5798342   524525 
 4052000    1.2572092   -3.1801737   -1.6017959   0.12046691   -3.1801737    1.5783777   524580 
 4053000    1.2586275   -3.1813736   -1.6013417   0.12108636   -3.1813736    1.5800319   524622 
 4054000    1.2551678   -3.1777955   -1.6022179    0.1240164   -3.1777955    1.5755776   524659 
 4055000    1.2557293    -3.178798   -1.6026958   0.12263367    -3.178798    1.5761022   524719 
 4056000    1.2561225   -3.1797551   -1.6033306   0.11724494   -3.1797551    1.5764245   524776 
 4057000    1.2546721     -3.17817   -1.6036648   0.12404265     -3.17817    1.5745052   524809 
 4058000    1.2556136   -3.1794749   -1.6039233   0.12159329   -3.1794749    1.5755516   524854 
 4059000     1.256705   -3.1808117   -1.6040168   0.12700238   -3.1808117    1.5767949   524896 
 4060000    1.2562748   -3.1804386   -1.6043756   0.12452883   -3.1804386     1.576063   524960 
 4061000    1.2575722   -3.1807661   -1.6032017   0.12308289   -3.1807661    1.5775645   525002 
 4062000    1.2584827   -3.1830439   -1.6044906   0.11746604   -3.1830439    1.5785532   525053 
 4063000    1.2569414   -3.1803554   -1.6039127   0.12148243   -3.1803554    1.5764428   525112 
 4064000    1.2585892   -3.1824108   -1.6039975   0.11764358   -3.1824108    1.5784133   525144 
 4065000    1.2576713   -3.1818865   -1.6047385   0.12343321   -3.1818865     1.577148   525182 
 4066000    1.2573039   -3.1826727   -1.6061235   0.11895451   -3.1826727    1.5765492   525228 
 4067000    1.2582335   -3.1825712   -1.6049675   0.12570182   -3.1825712    1.5776037   525265 
 4068000    1.2574461   -3.1828525   -1.6063682   0.11962736   -3.1828525    1.5764843   525309 
 4069000    1.2569645   -3.1826303   -1.6069147   0.12753368   -3.1826303    1.5757156   525364 
 4070000    1.2573526   -3.1836525   -1.6076094    0.1176312   -3.1836525    1.5760431   525417 
 4071000    1.2569747   -3.1829958   -1.6075373   0.12242085   -3.1829958    1.5754585   525454 
 4072000    1.2588971   -3.1838447   -1.6060758   0.12034943   -3.1838447    1.5777689   525487 
 4073000    1.2582405   -3.1827613   -1.6059534   0.11804914   -3.1827613    1.5768079   525533 
 4074000    1.2580189    -3.182811   -1.6064606   0.12449787    -3.182811    1.5763503   525593 
 4075000    1.2585259   -3.1838657   -1.6070001   0.12174307   -3.1838657    1.5768656   525633 
 4076000    1.2602528   -3.1845684   -1.6057254    0.1264133   -3.1845684     1.578843   525695 
 4077000    1.2576223   -3.1824994   -1.6070448   0.12948832   -3.1824994    1.5754546   525726 
 4078000     1.258098   -3.1828352   -1.6068926   0.12283733   -3.1828352    1.5759427   525762 
 4079000    1.2589175   -3.1829482    -1.606075   0.12628147   -3.1829482    1.5768733   525794 
 4080000    1.2577457   -3.1817391   -1.6065493   0.12705749   -3.1817391    1.5751898   525866 
 4081000    1.2599064   -3.1847369   -1.6069611   0.12727592   -3.1847369    1.5777758   525906 
 4082000    1.2583468   -3.1843343   -1.6086194   0.12191464   -3.1843343    1.5757148   525942 
 4083000    1.2582577   -3.1852363   -1.6097738   0.12468132   -3.1852363    1.5754625   525989 
 4084000    1.2581814    -3.185302    -1.610028   0.11485193    -3.185302    1.5752741   526020 
 4085000    1.2595144   -3.1872678   -1.6104926   0.11923705   -3.1872678    1.5767752   526076 
 4086000    1.2598046   -3.1861218   -1.6091452   0.12055897   -3.1861218    1.5769766   526130 
 4087000    1.2589108   -3.1859499   -1.6102209   0.12120728   -3.1859499    1.5757291   526173 
 4088000    1.2596714    -3.185993   -1.6095068   0.12345368    -3.185993    1.5764862   526238 
 4089000    1.2599364   -3.1877182   -1.6110471   0.12059584   -3.1877182    1.5766711   526287 
 4090000    1.2579061   -3.1841913   -1.6102074   0.12078196   -3.1841913    1.5739839   526336 
 4091000     1.261991   -3.1886311   -1.6096829   0.11863946   -3.1886311    1.5789482   526385 
 4092000    1.2606613   -3.1875947    -1.610475   0.12610494   -3.1875947    1.5771197   526440 
 4093000    1.2592002   -3.1860196   -1.6109043   0.12482152   -3.1860196    1.5751153   526499 
 4094000    1.2603072   -3.1877545    -1.611452   0.12110945   -3.1877545    1.5763025   526565 
 4095000    1.2620594   -3.1886462    -1.610362   0.12234175   -3.1886462    1.5782842   526635 
 4096000    1.2607257   -3.1885616   -1.6120621   0.12346773   -3.1885616    1.5764995   526674 
 4097000    1.2595012   -3.1874739    -1.612637   0.12646859   -3.1874739    1.5748369   526718 
 4098000    1.2611211   -3.1884022   -1.6115609   0.11635497   -3.1884022    1.5768413   526725 
 4099000    1.2617623   -3.1881475   -1.6106812   0.12565166   -3.1881475    1.5774664   526784 
 4100000    1.2637568   -3.1883364   -1.6085084   0.12194926   -3.1883364     1.579828   526828 
 4101000    1.2606331   -3.1854306   -1.6096901   0.12119214   -3.1854306    1.5757405   526889 
 4102000    1.2612949   -3.1873932    -1.610984   0.12373284   -3.1873932    1.5764092   526942 
 4103000    1.2598235   -3.1841639   -1.6097401   0.12313329   -3.1841639    1.5744238   526991 
 4104000    1.2611555    -3.186943   -1.6109981   0.12360989    -3.186943    1.5759448   527039 
 4105000    1.2611984     -3.18643   -1.6105571   0.12554381     -3.18643    1.5758729   527081 
 4106000    1.2611383   -3.1866611   -1.6110606   0.12223105   -3.1866611    1.5756005   527147 
 4107000    1.2619338    -3.186328   -1.6098413   0.12416673    -3.186328    1.5764867   527183 
 4108000    1.2613843   -3.1863783   -1.6107275   0.11929856   -3.1863783    1.5756508   527233 
 4109000    1.2616775   -3.1854392   -1.6095776   0.12227999   -3.1854392    1.5758616   527285 
 4110000    1.2628771   -3.1861572   -1.6089139   0.12309064   -3.1861572    1.5772433   527324 
 4111000    1.2630741   -3.1865027   -1.6091361   0.12389025   -3.1865027    1.5773666   527365 
 4112000    1.2630667   -3.1872941   -1.6100533    0.1195144   -3.1872941    1.5772408   527404 
 4113000    1.2621754   -3.1863706   -1.6103564   0.11923991   -3.1863706    1.5760142   527442 
 4114000    1.2646212   -3.1879734   -1.6090489    0.1235552   -3.1879734    1.5789245   527490 
 4115000    1.2621414   -3.1861999   -1.6105418   0.12157836   -3.1861999    1.5756581   527547 
 4116000    1.2625445   -3.1879509    -1.611921   0.12336048   -3.1879509    1.5760299   527591 
 4117000    1.2633708   -3.1887867    -1.611791   0.11984131   -3.1887867    1.5769957   527613 
 4118000    1.2632304   -3.1892747   -1.6126248   0.11559551   -3.1892747      1.57665   527670 
 4119000    1.2623627   -3.1878718   -1.6124361   0.12704263   -3.1878718    1.5754357   527714 
 4120000    1.2627926   -3.1889243   -1.6130836   0.12608964   -3.1889243    1.5758407   527758 
 4121000    1.2629973   -3.1887924   -1.6127798   0.12200931   -3.1887924    1.5760126   527786 
 4122000    1.2628037   -3.1892992   -1.6136744   0.12297195   -3.1892992    1.5756248   527835 
 4123000    1.2636282   -3.1889319   -1.6124247   0.12205545   -3.1889319    1.5765072   527884 
 4124000    1.2648157   -3.1893032   -1.6114192   0.12169534   -3.1893032     1.577884   527919 
 4125000    1.2652385   -3.1914286   -1.6131845   0.12485758   -3.1914286    1.5782441   527975 
 4126000    1.2640969   -3.1894756    -1.612781   0.12480369   -3.1894756    1.5766946   528017 
 4127000    1.2637996   -3.1896505   -1.6134193   0.11610502   -3.1896505    1.5762312   528048 
 4128000    1.2629278   -3.1887967   -1.6137214   0.13141884   -3.1887967    1.5750753   528071 
 4129000    1.2626791   -3.1883574   -1.6136846   0.12146932   -3.1883574    1.5746727   528102 
 4130000    1.2630015   -3.1897544   -1.6148525   0.12560839   -3.1897544    1.5749019   528160 
 4131000    1.2641175   -3.1922601   -1.6161189   0.12310138   -3.1922601    1.5761413   528211 
 4132000    1.2642666   -3.1913962   -1.6152481   0.12141567   -3.1913962    1.5761481   528271 
 4133000    1.2652735   -3.1924081   -1.6152286   0.11998078   -3.1924081    1.5771795   528346 
 4134000    1.2652482   -3.1928526   -1.6158211   0.12449162   -3.1928526    1.5770315   528385 
 4135000    1.2649153   -3.1912556    -1.614812   0.12626664   -3.1912556    1.5764436   528443 
 4136000    1.2648653   -3.1918593   -1.6156391   0.12310965   -3.1918593    1.5762202   528497 
 4137000      1.26485   -3.1916425   -1.6156144   0.12675766   -3.1916425    1.5760281   528555 
 4138000    1.2635733   -3.1920583   -1.6177073   0.11895384   -3.1920583     1.574351   528584 
 4139000     1.264234    -3.191713     -1.61667   0.12317189    -3.191713     1.575043   528628 
 4140000    1.2660252    -3.193659   -1.6164649   0.12133661    -3.193659    1.5771941   528655 
 4141000    1.2654122   -3.1931314     -1.61685    0.1274507   -3.1931314    1.5762814   528705 
 4142000    1.2652365   -3.1917605   -1.6158739   0.12907639   -3.1917605    1.5758866   528764 
 4143000    1.2664668   -3.1929948     -1.61571   0.12611731   -3.1929948    1.5772848   528809 
 4144000    1.2667467    -3.193571   -1.6160927   0.12599725    -3.193571    1.5774782   528861 
 4145000     1.266868    -3.193221    -1.615723   0.12446596    -3.193221     1.577498   528905 
 4146000    1.2659934   -3.1916827   -1.6154138    0.1236992   -3.1916827    1.5762689   528952 
 4147000    1.2658145   -3.1927924   -1.6168804   0.11927037   -3.1927924    1.5759121   528997 
 4148000     1.265672   -3.1930298    -1.617444   0.12570946   -3.1930298    1.5755858   529047 
 4149000    1.2662903   -3.1928894   -1.6167276   0.12073808   -3.1928894    1.5761618   529112 
 4150000    1.2667739    -3.192325   -1.6156864   0.12381943    -3.192325    1.5766386   529154 
 4151000    1.2654299   -3.1898405   -1.6150324   0.12771463   -3.1898405    1.5748081   529207 
 4152000    1.2667214   -3.1919315   -1.6156413   0.12075048   -3.1919315    1.5762902   529249 
 4153000    1.2693683   -3.1937749   -1.6143371   0.12943624   -3.1937749    1.5794379   529298 
 4154000    1.2674867   -3.1931485   -1.6161175     0.125019   -3.1931485     1.577031   529320 
 4155000    1.2665889   -3.1929484   -1.6172161   0.11686346   -3.1929484    1.5757323   529381 
 4156000    1.2672023   -3.1925431   -1.6162084   0.12164866   -3.1925431    1.5763348   529435 
 4157000    1.2666974   -3.1928406    -1.617256   0.12190677   -3.1928406    1.5755846   529476 
 4158000    1.2666152   -3.1928565   -1.6174783   0.12542962   -3.1928565    1.5753782   529511 
 4159000    1.2668771    -3.192353    -1.616655    0.1260789    -3.192353    1.5756981   529513 
 4160000    1.2690946   -3.1938431   -1.6154823   0.12479665   -3.1938431    1.5783607   529545 
 4161000    1.2680649   -3.1921538   -1.6152286    0.1240924   -3.1921538    1.5769252   529597 
 4162000    1.2687979   -3.1933229   -1.6155546   0.12517343   -3.1933229    1.5777682   529620 
 4163000    1.2695783   -3.1949719   -1.6164061   0.12396568   -3.1949719    1.5785658   529678 
 4164000    1.2695185   -3.1936475    -1.615302   0.11968187   -3.1936475    1.5783454   529727 
 4165000    1.2698208   -3.1961748   -1.6175877    0.1236514   -3.1961748    1.5785871   529772 
 4166000    1.2681287    -3.194961   -1.6185726   0.12031335    -3.194961    1.5763884   529804 
 4167000    1.2692767   -3.1961381   -1.6183941   0.12015185   -3.1961381     1.577744   529828 
 4168000    1.2703932   -3.1969337   -1.6178883   0.12232483   -3.1969337    1.5790454   529857 
 4169000    1.2680739   -3.1935701   -1.6174997   0.12663401   -3.1935701    1.5760704   529888 
 4170000     1.269042   -3.1963517   -1.6192477   0.12608376   -3.1963517     1.577104   529945 
 4171000    1.2704944   -3.1991991   -1.6204451   0.12391931   -3.1991991     1.578754   529997 
 4172000    1.2693671   -3.1974154   -1.6201723   0.12222154   -3.1974154    1.5772431   530034 
 4173000    1.2691578   -3.1975754    -1.620744   0.12361692   -3.1975754    1.5768314   530085 
 4174000    1.2697393   -3.1980019    -1.620588   0.12616995   -3.1980019    1.5774139   530132 
 4175000    1.2685193   -3.1962598    -1.620522    0.1262909   -3.1962598    1.5757378   530186 
 4176000    1.2679748   -3.1954024   -1.6204479   0.12986549   -3.1954024    1.5749545   530222 
 4177000    1.2698164   -3.1977313   -1.6205815   0.12331373   -3.1977313    1.5771497   530253 
 4178000     1.270022   -3.1987268   -1.6214466   0.12393762   -3.1987268    1.5772802   530295 
 4179000    1.2700249   -3.1988043   -1.6217376   0.12399819   -3.1988043    1.5770667   530368 
 4180000    1.2713585   -3.1997919   -1.6211794   0.12205042   -3.1997919    1.5786125   530405 
 4181000    1.2683625   -3.1966999   -1.6218995   0.12247623   -3.1966999    1.5748004   530436 
 4182000    1.2704447   -3.1991959   -1.6219558   0.12715022   -3.1991959    1.5772401   530485 
 4183000    1.2696316    -3.199549   -1.6234402   0.12777881    -3.199549    1.5761087   530526 
 4184000    1.2710964   -3.2008009   -1.6230017   0.12427817   -3.2008009    1.5777992   530569 
 4185000    1.2682475   -3.1974455   -1.6233191   0.12951416   -3.1974455    1.5741265   530615 
 4186000    1.2718219   -3.2014518   -1.6230554   0.12340875   -3.2014518    1.5783964   530671 
 4187000    1.2695171   -3.1983789   -1.6229943   0.12833858   -3.1983789    1.5753846   530722 
 4188000    1.2685399   -3.1971077   -1.6230544   0.12454697   -3.1971077    1.5740534   530762 
 4189000    1.2696165   -3.1987606   -1.6235049    0.1254294   -3.1987606    1.5752557   530807 
 4190000    1.2697002   -3.1991365   -1.6239105   0.11969222   -3.1991365     1.575226   530852 
 4191000    1.2704731    -3.199592   -1.6236149   0.12619747    -3.199592    1.5759771   530922 
 4192000    1.2698425   -3.1991578   -1.6240698   0.11488268   -3.1991578     1.575088   530958 
 4193000    1.2683435   -3.1974927   -1.6243559   0.12214393   -3.1974927    1.5731368   530989 
 4194000    1.2706142   -3.2001856   -1.6243334   0.12158735   -3.2001856    1.5758523   531023 
 4195000    1.2701551   -3.1997017   -1.6245138   0.12208419   -3.1997017    1.5751879   531055 
 4196000    1.2702893   -3.1988968   -1.6236847   0.12441854   -3.1988968    1.5752121   531103 
 4197000    1.2717046   -3.2001493   -1.6233069   0.12072173   -3.2001493    1.5768424   531145 
 4198000    1.2712068    -3.199488   -1.6234172   0.12658168    -3.199488    1.5760708   531197 
 4199000    1.2733139   -3.2027634     -1.62419   0.12246359   -3.2027634    1.5785733   531234 
 4200000     1.271247   -3.2011865   -1.6253181    0.1268449   -3.2011865    1.5758684   531282 
 4201000    1.2728018   -3.2027757   -1.6250986   0.11962735   -3.2027757     1.577677   531322 
 4202000     1.269202   -3.1992766   -1.6261918   0.11863976   -3.1992766    1.5730847   531366 
 4203000    1.2724737   -3.2027621   -1.6257054   0.12274318   -3.2027621    1.5770567   531394 
 4204000     1.274662   -3.2046199   -1.6249403   0.11909659   -3.2046199    1.5796796   531424 
 4205000    1.2730944   -3.2020124   -1.6243735   0.11971834   -3.2020124    1.5776389   531457 
 4206000    1.2741287   -3.2032571   -1.6245117   0.12577817   -3.2032571    1.5787454   531516 
 4207000    1.2725775   -3.2027029   -1.6259687   0.12704424   -3.2027029    1.5767343   531546 
 4208000    1.2727977   -3.2028236   -1.6259886   0.12585853   -3.2028236    1.5768351   531604 
 4209000    1.2741212   -3.2045045   -1.6261901   0.12526517   -3.2045045    1.5783144   531658 
 4210000    1.2738077   -3.2034195   -1.6256122   0.12749111   -3.2034195    1.5778074   531698 
 4211000     1.273626   -3.2046825   -1.6272218   0.12282447   -3.2046825    1.5774607   531739 
 4212000    1.2710313   -3.2018627    -1.627663   0.12337037   -3.2018627    1.5741997   531755 
 4213000    1.2722743   -3.2042984   -1.6286512   0.12482446   -3.2042984    1.5756473   531786 
 4214000    1.2725299   -3.2045237   -1.6287615   0.11745412   -3.2045237    1.5757622   531854 
 4215000    1.2721037   -3.2028119   -1.6276604   0.12386691   -3.2028119    1.5751515   531882 
 4216000    1.2731851   -3.2044617   -1.6281222   0.11950256   -3.2044617    1.5763395   531933 
 4217000    1.2732102    -3.203686   -1.6274221   0.12821199    -3.203686    1.5762639   531969 
 4218000    1.2749109   -3.2049892   -1.6268186   0.12477725   -3.2049892    1.5781705   532036 
 4219000    1.2732332   -3.2033259    -1.627324   0.12302312   -3.2033259    1.5760019   532067 
 4220000    1.2730755   -3.2032433   -1.6275638   0.11717402   -3.2032433    1.5756795   532110 
 4221000    1.2711778   -3.2014689   -1.6282564   0.12731156   -3.2014689    1.5732124   532150 
 4222000    1.2749584   -3.2062666   -1.6284495   0.11677468   -3.2062666    1.5778171   532175 
 4223000    1.2715318   -3.2022351   -1.6287472   0.12437704   -3.2022351    1.5734879   532205 
 4224000    1.2735666   -3.2038195   -1.6278757   0.12294705   -3.2038195    1.5759437   532226 
 4225000    1.2743923   -3.2047706   -1.6278969    0.1235892   -3.2047706    1.5768737   532257 
 4226000    1.2742238   -3.2036754   -1.6270842   0.12005009   -3.2036754    1.5765911   532282 
 4227000    1.2737995   -3.2043358   -1.6283111   0.12445202   -3.2043358    1.5760246   532296 
 4228000    1.2726695   -3.2029572   -1.6284756   0.12490652   -3.2029572    1.5744816   532345 
 4229000    1.2746313   -3.2060772     -1.62929   0.12411352   -3.2060772    1.5767871   532386 
 4230000    1.2750123   -3.2059737   -1.6287805   0.11707971   -3.2059737    1.5771933   532408 
 4231000    1.2750274   -3.2048786   -1.6277732   0.12271652   -3.2048786    1.5771053   532444 
 4232000    1.2744406   -3.2037855   -1.6275125   0.12666377   -3.2037855     1.576273   532480 
 4233000    1.2758955   -3.2045717   -1.6266267   0.13002972   -3.2045717     1.577945   532523 
 4234000    1.2757264   -3.2057363   -1.6280863   0.12710643   -3.2057363    1.5776499   532552 
 4235000    1.2754672   -3.2050415   -1.6278453   0.12464341   -3.2050415    1.5771962   532597 
 4236000    1.2748468   -3.2047567   -1.6283632   0.12780553   -3.2047567    1.5763935   532609 
 4237000     1.275827   -3.2060034   -1.6285015   0.12503658   -3.2060034    1.5775019   532644 
 4238000    1.2737859   -3.2041464   -1.6292836    0.1274172   -3.2041464    1.5748629   532683 
 4239000    1.2739635   -3.2045472   -1.6295683   0.12664966   -3.2045472     1.574979   532718 
 4240000    1.2734018   -3.2044797     -1.63034    0.1223007   -3.2044797    1.5741397   532767 
 4241000    1.2735352   -3.2046753   -1.6304269   0.12301506   -3.2046753    1.5742484   532786 
 4242000    1.2736488   -3.2060293   -1.6317792   0.12158423   -3.2060293      1.57425   532833 
 4243000    1.2752051   -3.2059854   -1.6299803   0.12775703   -3.2059854    1.5760051   532890 
 4244000    1.2765597   -3.2066361   -1.6290635   0.12410236   -3.2066361    1.5775726   532926 
 4245000    1.2759281   -3.2075069   -1.6308302   0.12300191   -3.2075069    1.5766767   532965 
 4246000    1.2748425   -3.2050539   -1.6298103   0.12123111   -3.2050539    1.5752436   532996 
 4247000    1.2748507   -3.2062154   -1.6310946    0.1273447   -3.2062154    1.5751207   533041 
 4248000     1.272957   -3.2039601   -1.6313148   0.12285626   -3.2039601    1.5726453   533087 
 4249000    1.2738943   -3.2046477   -1.6310127   0.12480084   -3.2046477     1.573635   533144 
 4250000    1.2750413   -3.2064255    -1.631477   0.12006607   -3.2064255    1.5749485   533179 
 4251000    1.2760055   -3.2078333   -1.6318653   0.12070769   -3.2078333    1.5759681   533237 
 4252000    1.2745898   -3.2055501   -1.6314133   0.12084075   -3.2055501    1.5741368   533265 
 4253000    1.2755135   -3.2065206   -1.6313376   0.12430495   -3.2065206    1.5751831   533297 
 4254000    1.2752501   -3.2064741   -1.6316989   0.12348651   -3.2064741    1.5747752   533325 
 4255000    1.2757388   -3.2061977   -1.6308751   0.13161651   -3.2061977    1.5753225   533344 
 4256000    1.2757488   -3.2063289   -1.6311979   0.11917768   -3.2063289    1.5751311   533413 
 4257000    1.2766116   -3.2065594   -1.6304517   0.12550958   -3.2065594    1.5761077   533443 
 4258000    1.2764714   -3.2076089   -1.6317836   0.12120521   -3.2076089    1.5758253   533480 
 4259000    1.2752691    -3.205831    -1.631664   0.12098045    -3.205831     1.574167   533539 
 4260000    1.2762998   -3.2074568   -1.6321386     0.126405   -3.2074568    1.5753183   533580 
 4261000    1.2763986   -3.2068491   -1.6315063   0.12646723   -3.2068491    1.5753428   533613 
 4262000    1.2764312   -3.2074361   -1.6321535   0.12081721   -3.2074361    1.5752826   533647 
 4263000    1.2770614    -3.209153   -1.6332759   0.12117757    -3.209153    1.5758772   533709 
 4264000    1.2764858    -3.208661   -1.6335825   0.12330139    -3.208661    1.5750784   533739 
 4265000    1.2760113   -3.2094107   -1.6350239   0.12405614   -3.2094107    1.5743867   533775 
 4266000    1.2771998    -3.209554   -1.6338691   0.12709775    -3.209554    1.5756849   533832 
 4267000     1.277017   -3.2094622   -1.6340972   0.12173113   -3.2094622     1.575365   533864 
 4268000    1.2781409   -3.2109448   -1.6342938   0.12673268   -3.2109448     1.576651   533898 
 4269000    1.2780651   -3.2101515   -1.6336709   0.12135382   -3.2101515    1.5764807   533924 
 4270000    1.2797589   -3.2108198   -1.6323445   0.12747553   -3.2108198    1.5784754   533956 
 4271000    1.2790941   -3.2110032    -1.633466   0.12212179   -3.2110032    1.5775372   533996 
 4272000    1.2778937   -3.2096317   -1.6337078   0.12433709   -3.2096317     1.575924   534041 
 4273000     1.278269   -3.2099737    -1.633767   0.12404173   -3.2099737    1.5762068   534102 
 4274000    1.2779127   -3.2092497   -1.6335856   0.12578201   -3.2092497    1.5756641   534137 
 4275000    1.2787036   -3.2105984   -1.6340476   0.12487151   -3.2105984    1.5765508   534167 
 4276000    1.2790586   -3.2108031   -1.6339091   0.12406087   -3.2108031     1.576894   534199 
 4277000    1.2806121   -3.2117864   -1.6331101   0.12683386   -3.2117864    1.5786763   534244 
 4278000    1.2781476   -3.2100592   -1.6345214   0.13096337   -3.2100592    1.5755378   534278 
 4279000     1.278904   -3.2110388   -1.6347221   0.12606364   -3.2110388    1.5763168   534330 
 4280000    1.2787626   -3.2103998   -1.6343812   0.12701549   -3.2103998    1.5760186   534372 
 4281000    1.2773956   -3.2099321   -1.6357602   0.12346455   -3.2099321    1.5741719   534427 
 4282000    1.2780405   -3.2105237   -1.6356544    0.1247196   -3.2105237    1.5748693   534460 
 4283000    1.2789261   -3.2112582   -1.6353889   0.12256586   -3.2112582    1.5758692   534491 
 4284000    1.2809863    -3.212382   -1.6340835   0.12446427    -3.212382    1.5782985   534528 
 4285000     1.280355   -3.2110886    -1.633686   0.12475604   -3.2110886    1.5774026   534568 
 4286000     1.279927   -3.2096566   -1.6328667   0.12409281   -3.2096566    1.5767899   534597 
 4287000    1.2807751   -3.2110269   -1.6333103   0.12472238   -3.2110269    1.5777166   534637 
 4288000    1.2789302   -3.2101561   -1.6348182    0.1262035   -3.2101561    1.5753379   534673 
 4289000    1.2791982   -3.2106513   -1.6350334   0.12274353   -3.2106513    1.5756179   534690 
 4290000    1.2783669   -3.2088981   -1.6344337   0.12801887   -3.2088981    1.5744644   534734 
 4291000    1.2806558   -3.2116805   -1.6345534   0.12183079   -3.2116805    1.5771271   534787 
 4292000     1.281012   -3.2121486   -1.6347332   0.11983931   -3.2121486    1.5774154   534838 
 4293000    1.2780921   -3.2092742   -1.6355721    0.1224078   -3.2092742    1.5737021   534878 
 4294000     1.280106   -3.2126238   -1.6365804   0.11807898   -3.2126238    1.5760433   534925 
 4295000    1.2797898    -3.211736   -1.6362233   0.12242947    -3.211736    1.5755127   534973 
 4296000    1.2797711   -3.2115366   -1.6361529   0.12236006   -3.2115366    1.5753837   535009 
 4297000    1.2805438   -3.2105922   -1.6343575   0.12463268   -3.2105922    1.5762347   535043 
 4298000    1.2816668   -3.2117789   -1.6342857   0.12320231   -3.2117789    1.5774931   535085 
 4299000    1.2820918   -3.2116462   -1.6337685   0.12016328   -3.2116462    1.5778776   535132 
 4300000    1.2815352   -3.2125396   -1.6354943   0.12100714   -3.2125396    1.5770453   535182 
 4301000    1.2805043   -3.2119558   -1.6363057   0.12735145   -3.2119558    1.5756501   535225 
 4302000    1.2811304   -3.2127947   -1.6365097   0.12605365   -3.2127947     1.576285   535271 
 4303000    1.2804793   -3.2119631   -1.6366057   0.12582364   -3.2119631    1.5753574   535314 
 4304000    1.2817893   -3.2141058   -1.6372398   0.12551474   -3.2141058     1.576866   535349 
 4305000    1.2802097    -3.212649   -1.6378086   0.12794154    -3.212649    1.5748403   535377 
 4306000    1.2818003   -3.2149204   -1.6382176   0.11369517   -3.2149204    1.5767028   535409 
 4307000    1.2809441   -3.2140707   -1.6384976   0.12434965   -3.2140707    1.5755731   535435 
 4308000    1.2807124    -3.215197    -1.640006   0.12079269    -3.215197     1.575191   535468 
 4309000    1.2820401   -3.2164081   -1.6397402   0.12371511   -3.2164081    1.5766679   535521 
 4310000    1.2813809    -3.214812    -1.639093   0.12426905    -3.214812     1.575719   535568 
 4311000    1.2817999   -3.2152131   -1.6391291   0.12234861   -3.2152131    1.5760841   535619 
 4312000    1.2811823   -3.2162757   -1.6410452   0.11952557   -3.2162757    1.5752305   535651 
 4313000     1.282064   -3.2168524   -1.6406466   0.12000653   -3.2168524    1.5762057   535688 
 4314000    1.2811321   -3.2162424   -1.6413381   0.12888129   -3.2162424    1.5749043   535741 
 4315000    1.2816821   -3.2167065   -1.6412496   0.11975418   -3.2167065    1.5754569   535783 
 4316000    1.2817859   -3.2178832   -1.6424781   0.12562241   -3.2178832    1.5754051   535844 
 4317000    1.2811858   -3.2176837   -1.6431513   0.12262571   -3.2176837    1.5745324   535890 
 4318000    1.2810919   -3.2180478   -1.6437072   0.12363119   -3.2180478    1.5743406   535916 
 4319000    1.2823561   -3.2202273   -1.6444419   0.11953385   -3.2202273    1.5757854   535953 
 4320000     1.282738   -3.2205586   -1.6444803   0.12402855   -3.2205586    1.5760782   536013 
 4321000    1.2826527   -3.2194909   -1.6436674   0.12755881   -3.2194909    1.5758235   536064 
 4322000    1.2823881   -3.2185002   -1.6430606   0.12498101   -3.2185002    1.5754396   536084 
 4323000    1.2826044   -3.2187812   -1.6431728   0.13064788   -3.2187812    1.5756084   536117 
 4324000    1.2835039   -3.2208187   -1.6442495   0.12491005   -3.2208187    1.5765692   536166 
 4325000    1.2838908   -3.2213627   -1.6444417   0.12928805   -3.2213627     1.576921   536208 
 4326000    1.2855506   -3.2221518   -1.6433187   0.12314888   -3.2221518     1.578833   536251 
 4327000    1.2836728    -3.220212   -1.6437763   0.12300167    -3.220212    1.5764357   536282 
 4328000     1.283805   -3.2221036   -1.6456232   0.12146551   -3.2221036    1.5764804   536322 
 4329000    1.2819261   -3.2200539   -1.6459395   0.12573902   -3.2200539    1.5741144   536342 
 4330000    1.2814236   -3.2196845   -1.6462721   0.12315045   -3.2196845    1.5734124   536371 
 4331000    1.2842152   -3.2213728   -1.6447179    0.1223775   -3.2213728    1.5766549   536434 
 4332000     1.282604   -3.2201288   -1.6456134   0.12740746   -3.2201288    1.5745154   536489 
 4333000    1.2827734   -3.2205262   -1.6459144   0.12219729   -3.2205262    1.5746118   536527 
 4334000    1.2816055   -3.2194913   -1.6464069   0.11902008   -3.2194913    1.5730844   536559 
 4335000    1.2837736   -3.2213202   -1.6457332   0.12557955   -3.2213202     1.575587   536613 
 4336000    1.2830298   -3.2207432   -1.6461806   0.12291588   -3.2207432    1.5745626   536651 
 4337000    1.2840439   -3.2220914   -1.6463901   0.12045819   -3.2220914    1.5757014   536687 
 4338000    1.2833586   -3.2201878   -1.6454711   0.12763728   -3.2201878    1.5747167   536736 
 4339000    1.2830317   -3.2216456    -1.647418   0.12456619   -3.2216456    1.5742276   536766 
 4340000    1.2824116   -3.2206774   -1.6473338   0.12669989   -3.2206774    1.5733436   536808 
 4341000    1.2831278    -3.221418   -1.6473071   0.12468141    -3.221418    1.5741109   536846 
 4342000    1.2855542   -3.2242682   -1.6472306   0.12129908   -3.2242682    1.5770376   536863 
 4343000    1.2842994   -3.2222709   -1.6468635   0.12480609   -3.2222709    1.5754073   536894 
 4344000    1.2845263   -3.2214565   -1.6459058   0.12757926   -3.2214565    1.5755507   536940 
 4345000    1.2841628   -3.2218814   -1.6469262   0.12430949   -3.2218814    1.5749552   536991 
 4346000    1.2836645   -3.2224061   -1.6481969   0.12276265   -3.2224061    1.5742092   537037 
 4347000    1.2827849     -3.22124   -1.6482442   0.12424652     -3.22124    1.5729958   537083 
 4348000    1.2831985   -3.2209053   -1.6475136   0.12797536   -3.2209053    1.5733916   537121 
 4349000     1.284347   -3.2226261   -1.6479377   0.12421373   -3.2226261    1.5746885   537159 
 4350000    1.2843898   -3.2231294   -1.6485292   0.12147731   -3.2231294    1.5746003   537207 
 4351000    1.2850055   -3.2235988   -1.6483083   0.12788673   -3.2235988    1.5752905   537229 
 4352000    1.2834139   -3.2218604   -1.6486147    0.1264258   -3.2218604    1.5732457   537261 
 4353000    1.2838117   -3.2221471   -1.6484782   0.12632421   -3.2221471    1.5736689   537283 
 4354000    1.2834644   -3.2239115   -1.6508352   0.11724915   -3.2239115    1.5730763   537340 
 4355000    1.2834497   -3.2226398   -1.6496897    0.1217019   -3.2226398      1.57295   537377 
 4356000    1.2824137   -3.2215993   -1.6499688   0.12296737   -3.2215993    1.5716305   537394 
 4357000    1.2836236   -3.2225737   -1.6495247    0.1211637   -3.2225737     1.573049   537416 
 4358000    1.2841146   -3.2238002   -1.6502726   0.12434577   -3.2238002    1.5735276   537458 
 4359000    1.2829696   -3.2230804   -1.6510844   0.11595888   -3.2230804     1.571996   537502 
 4360000    1.2836735   -3.2232043   -1.6504863   0.12525812   -3.2232043     1.572718   537550 
 4361000    1.2842602   -3.2232925   -1.6500108   0.12139357   -3.2232925    1.5732817   537603 
 4362000    1.2833056   -3.2227199   -1.6507393   0.12887602   -3.2227199    1.5719806   537648 
 4363000    1.2833847   -3.2237212    -1.651749   0.12719747   -3.2237212    1.5719722   537684 
 4364000    1.2840724   -3.2240299   -1.6512913   0.12832447   -3.2240299    1.5727386   537710 
 4365000    1.2855199   -3.2255748     -1.65116   0.11894243   -3.2255748    1.5744148   537743 
 4366000    1.2841886   -3.2236092   -1.6509507   0.13086491   -3.2236092    1.5726585   537786 
 4367000    1.2859778   -3.2259617   -1.6511734   0.11989671   -3.2259617    1.5747882   537807 
 4368000    1.2866364   -3.2267073   -1.6512562   0.12551743   -3.2267073    1.5754511   537856 
 4369000     1.285597    -3.226216   -1.6521751   0.11870504    -3.226216    1.5740409   537903 
 4370000    1.2869982   -3.2276318    -1.652013   0.12347294   -3.2276318    1.5756188   537950 
 4371000     1.286637   -3.2259695   -1.6509072   0.12703468   -3.2259695    1.5750624   537989 
 4372000    1.2870129   -3.2274991   -1.6521288   0.12722386   -3.2274991    1.5753703   538041 
 4373000    1.2851843   -3.2264764   -1.6534496   0.12787637   -3.2264764    1.5730268   538077 
 4374000    1.2871685   -3.2278966   -1.6525671   0.11796646   -3.2278966    1.5753295   538120 
 4375000     1.284621   -3.2249455   -1.6528245   0.12275394   -3.2249455    1.5721211   538151 
 4376000    1.2870644   -3.2283341   -1.6533838   0.12650956   -3.2283341    1.5749503   538206 
 4377000    1.2864453   -3.2285601   -1.6544199    0.1265423   -3.2285601    1.5741402   538224 
 4378000     1.285952   -3.2279379   -1.6545534   0.11811763   -3.2279379    1.5733845   538276 
 4379000     1.286528   -3.2283595   -1.6543346   0.12057903   -3.2283595    1.5740249   538298 
 4380000     1.287693   -3.2291941    -1.653852   0.12732504   -3.2291941     1.575342   538335 
 4381000    1.2867705   -3.2288372   -1.6547963   0.12867041   -3.2288372    1.5740409   538394 
 4382000    1.2873839   -3.2284767   -1.6538054   0.11763427   -3.2284767    1.5746713   538435 
 4383000    1.2878645    -3.229172   -1.6539772   0.11969973    -3.229172    1.5751948   538457 
 4384000     1.287144   -3.2290468   -1.6548121   0.12352527   -3.2290468    1.5742347   538484 
 4385000    1.2874639   -3.2293132   -1.6548189   0.12583458   -3.2293132    1.5744943   538529 
 4386000    1.2866434   -3.2273686   -1.6539216   0.12298434   -3.2273686     1.573447   538544 
 4387000    1.2872623    -3.228458   -1.6543505   0.12175305    -3.228458    1.5741074   538577 
 4388000     1.288028   -3.2295468   -1.6546229   0.13110931   -3.2295468    1.5749239   538618 
 4389000    1.2879531    -3.228611   -1.6538138   0.12525631    -3.228611    1.5747973   538630 
 4390000    1.2885676   -3.2294718   -1.6540403   0.13264687   -3.2294718    1.5754316   538670 
 4391000    1.2882698   -3.2291164     -1.65416   0.12513296   -3.2291164    1.5749564   538708 
 4392000    1.2863962    -3.227608   -1.6550034   0.11993098    -3.227608    1.5726046   538729 
 4393000    1.2860609   -3.2275741   -1.6554787   0.12614817   -3.2275741    1.5720954   538763 
 4394000    1.2877795    -3.228725   -1.6546047    0.1248573    -3.228725    1.5741203   538789 
 4395000    1.2872688   -3.2280556   -1.6546647   0.12365372   -3.2280556    1.5733909   538825 
 4396000    1.2878469   -3.2285116   -1.6544666   0.12180739   -3.2285116     1.574045   538843 
 4397000    1.2858679   -3.2275336   -1.6560125   0.12155674   -3.2275336    1.5715212   538879 
 4398000    1.2866259   -3.2294627   -1.6571261   0.11718163   -3.2294627    1.5723366   538917 
 4399000      1.28877   -3.2308993   -1.6560739   0.11975936   -3.2308993    1.5748253   538962 
 4400000     1.288106   -3.2301365   -1.6562305   0.12096424   -3.2301365    1.5739059   538999 
 4401000    1.2860637   -3.2275062   -1.6562356   0.12721858   -3.2275062    1.5712706   539047 
 4402000    1.2860525   -3.2273317   -1.6562031   0.12176634   -3.2273317    1.5711286   539091 
 4403000    1.2884318   -3.2290349   -1.6550901   0.12057842   -3.2290349    1.5739448   539122 
 4404000    1.2893276   -3.2291146   -1.6542712   0.12635669   -3.2291146    1.5748434   539189 
 4405000    1.2884371   -3.2295601   -1.6559532   0.12434094   -3.2295601    1.5736069   539240 
 4406000    1.2890575   -3.2284732   -1.6542517    0.1289345   -3.2284732    1.5742216   539289 
 4407000    1.2903347   -3.2307669   -1.6551083   0.12088026   -3.2307669    1.5756586   539331 
 4408000    1.2904862   -3.2310445   -1.6553002   0.12191826   -3.2310445    1.5757443   539365 
 4409000    1.2879172   -3.2276516   -1.6551404   0.12710674   -3.2276516    1.5725111   539398 
 4410000     1.289545   -3.2295776   -1.6552424   0.12614953   -3.2295776    1.5743352   539454 
 4411000    1.2888674   -3.2291517   -1.6557428   0.11986339   -3.2291517    1.5734089   539488 
 4412000    1.2890126   -3.2307264   -1.6572628   0.12767168   -3.2307264    1.5734636   539530 
 4413000     1.290202   -3.2321092    -1.657293   0.12299322   -3.2321092    1.5748162   539564 
 4414000    1.2914604    -3.231947   -1.6556591   0.12522875    -3.231947    1.5762879   539586 
 4415000    1.2894425   -3.2309818   -1.6572181   0.12365718   -3.2309818    1.5737637   539607 
 4416000    1.2894227   -3.2309382   -1.6573036   0.12601307   -3.2309382    1.5736346   539643 
 4417000    1.2900623    -3.230765   -1.6564344   0.12874602    -3.230765    1.5743306   539672 
 4418000    1.2900956   -3.2312232   -1.6569628   0.12636096   -3.2312232    1.5742603   539710 
 4419000    1.2900012   -3.2308217   -1.6567349    0.1263323   -3.2308217    1.5740868   539730 
 4420000    1.2889878   -3.2293542   -1.6565855   0.12989899   -3.2293542    1.5727687   539758 
 4421000     1.289117   -3.2319514   -1.6590745   0.12232916   -3.2319514    1.5728768   539775 
 4422000    1.2893248   -3.2323354   -1.6593507    0.1164602   -3.2323354    1.5729847   539825 
 4423000    1.2905073   -3.2335247   -1.6591966   0.12183908   -3.2335247    1.5743281   539859 
 4424000    1.2883894   -3.2309045   -1.6593144   0.12436761   -3.2309045    1.5715901   539912 
 4425000     1.289621   -3.2328248    -1.659881   0.12083488   -3.2328248    1.5729438   539963 
 4426000    1.2914805   -3.2339466   -1.6588106   0.12104386   -3.2339466     1.575136   539989 
 4427000    1.2891602   -3.2313293   -1.6591426   0.12633506   -3.2313293    1.5721868   540030 
 4428000    1.2905659   -3.2324999   -1.6587212    0.1203287   -3.2324999    1.5737786   540072 
 4429000    1.2911409   -3.2328448   -1.6584641   0.12325249   -3.2328448    1.5743807   540106 
 4430000    1.2911095   -3.2328136   -1.6585906    0.1220319   -3.2328136     1.574223   540147 
 4431000    1.2897435    -3.232531   -1.6600871   0.12445891    -3.232531    1.5724438   540186 
 4432000    1.2882705   -3.2314116   -1.6608742   0.12644718   -3.2314116    1.5705375   540224 
 4433000    1.2883975   -3.2326223   -1.6619852   0.12423488   -3.2326223    1.5706371   540243 
 4434000    1.2913444   -3.2355882   -1.6615189   0.12066349   -3.2355882    1.5740694   540298 
 4435000    1.2891277   -3.2334835   -1.6622674   0.12742759   -3.2334835     1.571216   540350 
 4436000    1.2903305   -3.2341657   -1.6616175   0.12367253   -3.2341657    1.5725482   540396 
 4437000    1.2892985   -3.2334589   -1.6622643   0.12771889   -3.2334589    1.5711946   540429 
 4438000     1.291239   -3.2343286   -1.6608566   0.12618221   -3.2343286    1.5734719   540459 
 4439000    1.2909105   -3.2338835   -1.6608933   0.12534716   -3.2338835    1.5729901   540487 
 4440000    1.2909615   -3.2341482   -1.6611774   0.12906369   -3.2341482    1.5729708   540515 
 4441000    1.2919118    -3.235236   -1.6612325   0.12627465    -3.235236    1.5740035   540558 
 4442000      1.29093   -3.2350669   -1.6623585   0.13448975   -3.2350669    1.5727084   540592 
 4443000    1.2937703   -3.2377993   -1.6617035   0.13085536   -3.2377993    1.5760958   540617 
 4444000    1.2923833   -3.2362517   -1.6619388   0.12787897   -3.2362517    1.5743129   540649 
 4445000    1.2917806    -3.235871   -1.6623766   0.12906012    -3.235871    1.5734944   540678 
 4446000    1.2916623    -3.236609   -1.6634071   0.12548331    -3.236609    1.5732019   540729 
 4447000    1.2919433   -3.2379483   -1.6644885    0.1266237   -3.2379483    1.5734598   540758 
 4448000    1.2903023   -3.2366832   -1.6653382    0.1266662   -3.2366832     1.571345   540798 
 4449000    1.2916468   -3.2370198   -1.6640783    0.1271318   -3.2370198    1.5729415   540812 
 4450000    1.2917964   -3.2375324   -1.6644988    0.1266082   -3.2375324    1.5730336   540843 
 4451000    1.2930904   -3.2386434   -1.6641419   0.12524973   -3.2386434    1.5745015   540880 
 4452000    1.2932146   -3.2392084   -1.6646575   0.11843842   -3.2392084    1.5745509   540915 
 4453000    1.2931767   -3.2400913   -1.6656885   0.12482892   -3.2400913    1.5744028   540950 
 4454000    1.2913165   -3.2369705   -1.6648905   0.12242754   -3.2369705      1.57208   540970 
 4455000    1.2919139   -3.2380231   -1.6653205   0.13061638   -3.2380231    1.5727026   541006 
 4456000     1.291107   -3.2378732   -1.6662807   0.12710023   -3.2378732    1.5715925   541050 
 4457000    1.2917458   -3.2393654   -1.6671203   0.12188134   -3.2393654    1.5722451   541093 
 4458000    1.2917447     -3.23999   -1.6678654   0.12717162     -3.23999    1.5721247   541134 
 4459000    1.2908024   -3.2385092   -1.6676038   0.12736261   -3.2385092    1.5709053   541159 
 4460000    1.2949455   -3.2425478   -1.6666965   0.11964537   -3.2425478    1.5758513   541192 
 4461000    1.2928211   -3.2415893   -1.6684597   0.11921785   -3.2415893    1.5731296   541239 
 4462000    1.2935765   -3.2427658   -1.6688422   0.12587002   -3.2427658    1.5739236   541282 
 4463000    1.2925747   -3.2415354   -1.6689701   0.12522927   -3.2415354    1.5725653   541330 
 4464000    1.2934762   -3.2426342   -1.6690797   0.11669675   -3.2426342    1.5735545   541367 
 4465000     1.292887   -3.2418218   -1.6691061   0.12218918   -3.2418218    1.5727157   541409 
 4466000    1.2929313    -3.242012   -1.6693847   0.12518279    -3.242012    1.5726273   541458 
 4467000     1.292815   -3.2415104   -1.6691814   0.12235594   -3.2415104     1.572329   541512 
 4468000    1.2924327   -3.2422964   -1.6704759   0.11789156   -3.2422964    1.5718205   541527 
 4469000    1.2918763   -3.2416288   -1.6706156    0.1243008   -3.2416288    1.5710133   541572 
 4470000    1.2922263   -3.2421477   -1.6708336   0.12313853   -3.2421477    1.5713141   541615 
 4471000    1.2922786   -3.2424382   -1.6711621   0.11801482   -3.2424382    1.5712762   541650 
 4472000    1.2917916   -3.2421231   -1.6715753   0.12573683   -3.2421231    1.5705478   541697 
 4473000     1.291512   -3.2405743   -1.6704881   0.13283949   -3.2405743    1.5700862   541739 
 4474000    1.2914647   -3.2409046   -1.6709947   0.12691955   -3.2409046    1.5699098   541780 
 4475000    1.2918036   -3.2397162   -1.6695452   0.12056006   -3.2397162     1.570171   541832 
 4476000    1.2943022   -3.2421508    -1.669053   0.12472327   -3.2421508    1.5730977   541870 
 4477000    1.2936091   -3.2414192   -1.6692712    0.1201741   -3.2414192    1.5721481   541907 
 4478000    1.2947682   -3.2423441   -1.6688949   0.12238884   -3.2423441    1.5734492   541944 
 4479000    1.2948441   -3.2423005   -1.6688664   0.12444665   -3.2423005     1.573434   541981 
 4480000    1.2941644   -3.2408697   -1.6683602   0.12906842   -3.2408697    1.5725095   542015 
 4481000    1.2941599    -3.241215    -1.668798    0.1255949    -3.241215     1.572417   542045 
 4482000    1.2956091   -3.2426632   -1.6685987   0.11987148   -3.2426632    1.5740645   542084 
 4483000    1.2956291   -3.2414098   -1.6673703   0.12917368   -3.2414098    1.5740395   542101 
 4484000    1.2950285   -3.2415038   -1.6683275   0.12260979   -3.2415038    1.5731763   542147 
 4485000    1.2953882    -3.241841   -1.6683496   0.12174729    -3.241841    1.5734914   542189 
 4486000    1.2964249   -3.2420983   -1.6675045   0.11930052   -3.2420983    1.5745938   542243 
 4487000    1.2948145   -3.2405753   -1.6680853   0.12207453   -3.2405753      1.57249   542294 
 4488000    1.2941956    -3.239972   -1.6683582   0.12365116    -3.239972    1.5716137   542337 
 4489000    1.2962118   -3.2417793   -1.6677984    0.1223606   -3.2417793    1.5739808   542365 
 4490000    1.2957173   -3.2419625   -1.6687416   0.12091837   -3.2419625    1.5732209   542420 
 4491000    1.2973759   -3.2434617   -1.6683664   0.12320961   -3.2434617    1.5750953   542468 
 4492000    1.2955325   -3.2423703   -1.6695652   0.11906583   -3.2423703    1.5728051   542486 
 4493000    1.2957162   -3.2434012   -1.6704542   0.11888178   -3.2434012     1.572947   542514 
 4494000    1.2949148   -3.2418766   -1.6700474   0.12736369   -3.2418766    1.5718292   542564 
 4495000    1.2948141   -3.2425863   -1.6710068    0.1256074   -3.2425863    1.5715795   542608 
 4496000    1.2954394   -3.2430541   -1.6708488   0.12140085   -3.2430541    1.5722052   542654 
 4497000     1.295479   -3.2437598   -1.6716543   0.12567377   -3.2437598    1.5721055   542705 
 4498000    1.2944712   -3.2436345   -1.6728301   0.12395765   -3.2436345    1.5708044   542732 
 4499000    1.2973356   -3.2453609   -1.6712373   0.12192825   -3.2453609    1.5741236   542786 
 4500000    1.2950056   -3.2431837   -1.6719856   0.12287179   -3.2431837    1.5711981   542820 
 4501000    1.2958091   -3.2434864   -1.6714206   0.13070108   -3.2434864    1.5720658   542857 
 4502000    1.2987456   -3.2462083   -1.6706699   0.12749503   -3.2462083    1.5755383   542888 
 4503000    1.2961166   -3.2444454   -1.6722093   0.12649302   -3.2444454    1.5722361   542927 
 4504000    1.2986825   -3.2475977   -1.6723535    0.1221783   -3.2475977    1.5752442   542963 
 4505000    1.2963196   -3.2449231   -1.6726117   0.12566663   -3.2449231    1.5723114   542986 
 4506000    1.2965031   -3.2449343   -1.6724901   0.12270136   -3.2449343    1.5724443   543017 
 4507000    1.2964126   -3.2458131   -1.6735481   0.12401894   -3.2458131     1.572265   543041 
 4508000    1.2977405   -3.2484582   -1.6747016    0.1216891   -3.2484582    1.5737567   543082 
 4509000    1.2960606   -3.2463659   -1.6747304   0.12374067   -3.2463659    1.5716355   543111 
 4510000    1.2971867   -3.2470273   -1.6741305   0.12723685   -3.2470273    1.5728968   543147 
 4511000    1.2960309   -3.2451104    -1.673751   0.12825785   -3.2451104    1.5713594   543194 
 4512000    1.2969815   -3.2456514   -1.6732524   0.12695243   -3.2456514     1.572399   543233 
 4513000     1.296454   -3.2462525   -1.6746231   0.12111948   -3.2462525    1.5716293   543278 
 4514000    1.2956497   -3.2459849   -1.6754231   0.12570516   -3.2459849    1.5705618   543310 
 4515000    1.2956899   -3.2460343   -1.6755308   0.12709753   -3.2460343    1.5705035   543347 
 4516000     1.298188   -3.2491807   -1.6757679   0.12393364   -3.2491807    1.5734128   543388 
 4517000    1.2964552    -3.246801    -1.675555   0.12628343    -3.246801    1.5712461   543411 
 4518000    1.2967092    -3.246655   -1.6752196   0.12868576    -3.246655    1.5714354   543452 
 4519000    1.2965063   -3.2471006   -1.6760239   0.12233969   -3.2471006    1.5710767   543491 
 4520000    1.2991038   -3.2499536    -1.675874   0.12186899   -3.2499536    1.5740796   543541 
 4521000    1.2972731   -3.2474773    -1.675668   0.12599131   -3.2474773    1.5718093   543559 
 4522000    1.2969954   -3.2483347   -1.6769399   0.12145862   -3.2483347    1.5713948   543586 
 4523000    1.2949388   -3.2464703   -1.6776423   0.12872511   -3.2464703     1.568828   543612 
 4524000    1.2953052   -3.2464318    -1.677284   0.12603553   -3.2464318    1.5691478   543655 
 4525000    1.2959334   -3.2479763   -1.6781888   0.12841889   -3.2479763    1.5697875   543697 
 4526000    1.2975333   -3.2499229   -1.6782725   0.12461323   -3.2499229    1.5716504   543723 
 4527000    1.2980488   -3.2505497   -1.6783645   0.12461846   -3.2505497    1.5721852   543754 
 4528000    1.2976935   -3.2502628   -1.6786352   0.12645475   -3.2502628    1.5716277   543798 
 4529000    1.2984611   -3.2515575   -1.6791246   0.12818936   -3.2515575    1.5724329   543841 
 4530000    1.2977685   -3.2509627    -1.679513   0.12945967   -3.2509627    1.5714497   543891 
 4531000    1.2979096   -3.2507173   -1.6792527   0.12898881   -3.2507173    1.5714645   543945 
 4532000    1.2978718   -3.2500476   -1.6786923   0.13224124   -3.2500476    1.5713553   543967 
 4533000    1.2992527   -3.2522851   -1.6793448   0.12284493   -3.2522851    1.5729404   543997 
 4534000    1.2978142    -3.250152   -1.6790744   0.12615307    -3.250152    1.5710775   544039 
 4535000    1.2988341   -3.2515016   -1.6792964   0.12666106   -3.2515016    1.5722053   544076 
 4536000    1.2993883   -3.2517852   -1.6789901   0.12369882   -3.2517852    1.5727951   544104 
 4537000    1.3001373   -3.2528444   -1.6792583   0.12964925   -3.2528444    1.5735861   544144 
 4538000    1.2999021   -3.2531167   -1.6799397   0.12625644   -3.2531167     1.573177   544187 
 4539000    1.2988308   -3.2521876   -1.6804226   0.12416441   -3.2521876     1.571765   544227 
 4540000    1.2969851   -3.2513646   -1.6819197   0.12535681   -3.2513646     1.569445   544257 
 4541000    1.2997976   -3.2529572   -1.6802245   0.12196374   -3.2529572    1.5727327   544297 
 4542000     1.300018   -3.2527406   -1.6798221   0.12542711   -3.2527406    1.5729185   544325 
 4543000    1.2982154   -3.2507855   -1.6801202   0.12540102   -3.2507855    1.5706653   544350 
 4544000    1.2987741    -3.252452   -1.6811742   0.12658017    -3.252452    1.5712778   544372 
 4545000    1.2993889   -3.2527951   -1.6808255   0.12468167   -3.2527951    1.5719696   544390 
 4546000    1.2989445   -3.2537512    -1.682452   0.12195503   -3.2537512    1.5712992   544436 
 4547000    1.2988941   -3.2532374   -1.6820915   0.12308211   -3.2532374    1.5711459   544468 
 4548000    1.2978908    -3.252279   -1.6824794   0.12408148    -3.252279    1.5697996   544514 
 4549000    1.2985406   -3.2537429   -1.6832928    0.1151919   -3.2537429    1.5704501   544561 
 4550000    1.2978045   -3.2539358   -1.6844481   0.11895217   -3.2539358    1.5694878   544586 
 4551000    1.2978982   -3.2525859     -1.68308   0.12231777   -3.2525859     1.569506   544619 
 4552000    1.2986979   -3.2528577   -1.6824365   0.12573654   -3.2528577    1.5704212   544637 
 4553000    1.2971402   -3.2518627   -1.6834116   0.11766489   -3.2518627    1.5684511   544667 
 4554000    1.2986875   -3.2540516   -1.6838592   0.12038384   -3.2540516    1.5701923   544712 
 4555000    1.2971605   -3.2532574   -1.6849891   0.12274993   -3.2532574    1.5682683   544739 
 4556000     1.299622   -3.2539799   -1.6828163   0.11914676   -3.2539799    1.5711636   544767 
 4557000    1.3008174   -3.2552219   -1.6827258   0.12234302   -3.2552219    1.5724961   544806 
 4558000    1.3008459   -3.2548192   -1.6823376   0.12937872   -3.2548192    1.5724816   544823 
 4559000    1.3024179   -3.2569095   -1.6826057   0.13002812   -3.2569095    1.5743038   544850 
 4560000    1.2989501    -3.253414   -1.6833884   0.12747023    -3.253414    1.5700256   544880 
 4561000    1.3002342   -3.2551938    -1.683694    0.1240485   -3.2551938    1.5714998   544907 
 4562000    1.2989763   -3.2540404   -1.6841128   0.12564701   -3.2540404    1.5699276   544925 
 4563000    1.3010784   -3.2551345   -1.6827701   0.12529173   -3.2551345    1.5723644   544961 
 4564000    1.3016064   -3.2565724    -1.683671   0.12393795   -3.2565724    1.5729013   544996 
 4565000    1.3005704   -3.2559345   -1.6844091   0.12708232   -3.2559345    1.5715254   545039 
 4566000    1.3022076   -3.2584636   -1.6850407   0.12181238   -3.2584636    1.5734228   545067 
 4567000    1.2996338   -3.2557521   -1.6855456   0.12432487   -3.2557521    1.5702064   545104 
 4568000    1.2986398   -3.2547583   -1.6858363   0.12525359   -3.2547583     1.568922   545133 
 4569000    1.3014511    -3.257745   -1.6855332   0.12207171    -3.257745    1.5722117   545170 
 4570000    1.2997795    -3.255792   -1.6857234   0.12821444    -3.255792    1.5700685   545213 
 4571000    1.2990582   -3.2565334   -1.6874341   0.12951024   -3.2565334    1.5690994   545247 
 4572000     1.298892   -3.2572031     -1.68848   0.11766027   -3.2572031    1.5687231   545308 
 4573000    1.2984621   -3.2551726   -1.6871009    0.1210927   -3.2551726    1.5680717   545354 
 4574000     1.300042   -3.2576721   -1.6877933   0.12149802   -3.2576721    1.5698788   545389 
 4575000    1.2995177   -3.2571511     -1.68796   0.11997336   -3.2571511    1.5691911   545408 
 4576000    1.3001182   -3.2570362   -1.6872437   0.12782161   -3.2570362    1.5697924   545451 
 4577000    1.3007173   -3.2571527   -1.6867405   0.12139528   -3.2571527    1.5704121   545487 
 4578000    1.2987686   -3.2558815   -1.6879285   0.12762269   -3.2558815     1.567953   545524 
 4579000    1.2997782   -3.2571571   -1.6880974    0.1222818   -3.2571571    1.5690597   545563 
 4580000     1.300758   -3.2583465   -1.6882278   0.12968113   -3.2583465    1.5701187   545606 
 4581000    1.3014543   -3.2587069   -1.6878629   0.12582789   -3.2587069    1.5708441   545646 
 4582000    1.2997066    -3.256554   -1.6879143   0.12967844    -3.256554    1.5686397   545679 
 4583000    1.3014736   -3.2592443   -1.6886303   0.12551988   -3.2592443     1.570614   545734 
 4584000    1.3010699    -3.259032   -1.6890058   0.12342893    -3.259032    1.5700262   545769 
 4585000    1.3009953   -3.2596832   -1.6898361   0.11878788   -3.2596832     1.569847   545800 
 4586000    1.3002381   -3.2585674   -1.6897863    0.1293036   -3.2585674     1.568781   545853 
 4587000    1.3020322   -3.2604808   -1.6896245   0.11924945   -3.2604808    1.5708564   545884 
 4588000    1.3017602   -3.2602392   -1.6898346   0.12482447   -3.2602392    1.5704046   545927 
 4589000    1.3005263   -3.2595524   -1.6907455   0.12335148   -3.2595524    1.5688069   545965 
 4590000    1.3004416   -3.2591535   -1.6905552   0.12372281   -3.2591535    1.5685983   546002 
 4591000    1.3031533   -3.2621485   -1.6904059   0.12781029   -3.2621485    1.5717426   546046 
 4592000    1.3004157   -3.2602776   -1.6918972   0.12829698   -3.2602776    1.5683804   546067 
 4593000    1.3019976   -3.2629519   -1.6927815   0.12753558   -3.2629519    1.5701704   546108 
 4594000    1.3006439   -3.2602665    -1.691832   0.12497256   -3.2602665    1.5684345   546144 
 4595000    1.3008281   -3.2603029   -1.6917928    0.1283862   -3.2603029    1.5685101   546195 
 4596000    1.3023334    -3.262117   -1.6918494   0.12898044    -3.262117    1.5702677   546215 
 4597000     1.301336   -3.2608969    -1.691961   0.12845364   -3.2608969    1.5689359   546260 
 4598000    1.3029415   -3.2632758   -1.6924878   0.12678307   -3.2632758     1.570788   546289 
 4599000    1.3027119   -3.2642599   -1.6939211   0.12734732   -3.2642599    1.5703389   546349 
 4600000    1.3015169   -3.2629974   -1.6941996   0.12142976   -3.2629974    1.5687978   546384 
 4601000    1.3035336   -3.2643578   -1.6932097   0.11949977   -3.2643578    1.5711481   546412 
 4602000    1.3012755   -3.2619124   -1.6935491   0.12301287   -3.2619124    1.5683633   546434 
 4603000    1.3025266   -3.2632144   -1.6934352   0.12708309   -3.2632144    1.5697793   546466 
 4604000    1.3011428   -3.2614118   -1.6933978     0.125072   -3.2614118     1.568014   546500 
 4605000    1.3007881   -3.2608503   -1.6933814   0.12445163   -3.2608503    1.5674689   546541 
 4606000    1.3015336   -3.2613533   -1.6931237   0.12792348   -3.2613533    1.5682296   546589 
 4607000    1.3036911   -3.2630013   -1.6922871   0.12448708   -3.2630013    1.5707142   546629 
 4608000    1.3021649   -3.2618509   -1.6930387   0.13290148   -3.2618509    1.5688122   546651 
 4609000    1.3018881   -3.2610785   -1.6926629   0.13106738   -3.2610785    1.5684156   546673 
 4610000    1.3031366   -3.2636606     -1.69385   0.12128621   -3.2636606    1.5698106   546711 
 4611000    1.3040007   -3.2637795   -1.6930457   0.12340173   -3.2637795    1.5707338   546752 
 4612000     1.301664   -3.2615492   -1.6937334   0.12564992   -3.2615492    1.5678158   546788 
 4613000    1.3029678    -3.262577   -1.6932769   0.12731271    -3.262577    1.5693001   546818 
 4614000    1.3042032   -3.2631946    -1.692507    0.1260542   -3.2631946    1.5706876   546853 
 4615000    1.3040006   -3.2623735   -1.6920047   0.12324636   -3.2623735    1.5703688   546879 
 4616000    1.3043246   -3.2619807   -1.6913595   0.12711728   -3.2619807    1.5706212   546927 
 4617000    1.3034566   -3.2610631   -1.6915474   0.12712492   -3.2610631    1.5695157   546948 
 4618000     1.304763   -3.2617773   -1.6907863   0.12697487   -3.2617773    1.5709911   546982 
 4619000    1.3039944   -3.2613423   -1.6913885   0.12551987   -3.2613423    1.5699537   547021 
 4620000    1.3032435     -3.26026   -1.6912591   0.12301316     -3.26026     1.569001   547038 
 4621000    1.3055864   -3.2630611   -1.6913457   0.12411552   -3.2630611    1.5717153   547075 
 4622000    1.3054408   -3.2643783   -1.6929244   0.12116138   -3.2643783    1.5714539   547105 
 4623000     1.303768   -3.2630504   -1.6936705   0.12457196   -3.2630504    1.5693799   547126 
 4624000    1.3032949   -3.2634943   -1.6947613   0.12322238   -3.2634943     1.568733   547153 
 4625000    1.3034982   -3.2637915   -1.6949543   0.12820459   -3.2637915    1.5688372   547202 
 4626000    1.3039212   -3.2642073   -1.6949498   0.12397702   -3.2642073    1.5692575   547233 
 4627000    1.3041183   -3.2647308   -1.6953079   0.12320914   -3.2647308     1.569423   547258 
 4628000    1.3045664   -3.2649868    -1.695059   0.12337018   -3.2649868    1.5699278   547270 
 4629000    1.3043846   -3.2648004   -1.6951659   0.13154211   -3.2648004    1.5696344   547296 
 4630000    1.3048932   -3.2649435   -1.6948232   0.12589764   -3.2649435    1.5701203   547340 
 4631000    1.3052167   -3.2647002   -1.6942912   0.12660453   -3.2647002    1.5704091   547375 
 4632000    1.3050399   -3.2647642    -1.694631   0.12363384   -3.2647642    1.5701332   547397 
 4633000    1.3035714   -3.2648625   -1.6965362   0.12019983   -3.2648625    1.5683263   547411 
 4634000    1.3050587   -3.2668138   -1.6967669   0.12501996   -3.2668138    1.5700469   547435 
 4635000    1.3044266   -3.2662648   -1.6970815   0.12324518   -3.2662648    1.5691833   547471 
 4636000      1.30433   -3.2652264   -1.6962425   0.12165876   -3.2652264    1.5689839   547500 
 4637000    1.3033678   -3.2642897   -1.6965205   0.12757371   -3.2642897    1.5677692   547520 
 4638000    1.3044109   -3.2642705   -1.6953239   0.12572685   -3.2642705    1.5689466   547547 
 4639000    1.3050726   -3.2643278   -1.6946714   0.12714603   -3.2643278    1.5696564   547577 
 4640000    1.3056094    -3.265418   -1.6952334   0.12467477    -3.265418    1.5701845   547618 
 4641000    1.3050402   -3.2653017   -1.6958992   0.12163813   -3.2653017    1.5694025   547652 
 4642000    1.3047794   -3.2661492   -1.6971348   0.12161786   -3.2661492    1.5690144   547678 
 4643000    1.3053021   -3.2664771     -1.69692   0.12177003   -3.2664771     1.569557   547708 
 4644000    1.3047646   -3.2654605   -1.6966358   0.12233606   -3.2654605    1.5688247   547738 
 4645000    1.3047676   -3.2650504   -1.6962995   0.12592391   -3.2650504     1.568751   547765 
 4646000     1.304047   -3.2640337   -1.6962264   0.11932036   -3.2640337    1.5678073   547792 
 4647000    1.3037574   -3.2642669   -1.6969594   0.12413432   -3.2642669    1.5673076   547845 
 4648000    1.3029328   -3.2631026   -1.6968807   0.12828997   -3.2631026    1.5662219   547878 
 4649000     1.304089   -3.2649341   -1.6973653    0.1230167   -3.2649341    1.5675688   547893 
 4650000    1.3049262    -3.266254   -1.6977905   0.12463506    -3.266254    1.5684635   547932 
 4651000    1.3051719   -3.2665591   -1.6978347   0.12324011   -3.2665591    1.5687245   547944 
 4652000    1.3040864   -3.2646935   -1.6973682   0.12112464   -3.2646935    1.5673253   547977 
 4653000    1.3054464   -3.2653647   -1.6965279   0.12417055   -3.2653647    1.5688368   548020 
 4654000    1.3067042   -3.2649887   -1.6947235   0.12777311   -3.2649887    1.5702653   548049 
 4655000     1.307371   -3.2656523   -1.6946631   0.12685945   -3.2656523    1.5709892   548076 
 4656000    1.3071697   -3.2664079   -1.6957523   0.12740211   -3.2664079    1.5706556   548108 
 4657000    1.3072512   -3.2657014   -1.6950053   0.12963589   -3.2657014    1.5706961   548128 
 4658000    1.3070081    -3.266068   -1.6957527   0.12240418    -3.266068    1.5703153   548159 
 4659000    1.3074113   -3.2670989   -1.6963479    0.1257671   -3.2670989     1.570751   548176 
 4660000     1.307792   -3.2672998   -1.6961716   0.12685982   -3.2672998    1.5711282   548204 
 4661000    1.3070044   -3.2668898    -1.696831    0.1301421   -3.2668898    1.5700588   548247 
 4662000    1.3079904   -3.2673639   -1.6962353   0.12205855   -3.2673639    1.5711286   548287 
 4663000    1.3078615   -3.2674735   -1.6966057   0.12633948   -3.2674735    1.5708678   548324 
 4664000    1.3071531   -3.2675634   -1.6976696   0.12933419   -3.2675634    1.5698938   548367 
 4665000    1.3059981   -3.2670823   -1.6987072   0.12558955   -3.2670823    1.5683751   548413 
 4666000     1.306162   -3.2672701   -1.6987583   0.11756593   -3.2672701    1.5685118   548434 
 4667000    1.3076643   -3.2689063    -1.698682   0.12582863   -3.2689063    1.5702243   548466 
 4668000     1.307776    -3.269049   -1.6988108   0.11636511    -3.269049    1.5702382   548508 
 4669000    1.3071336   -3.2693907    -1.699964   0.12104298   -3.2693907    1.5694267   548522 
 4670000    1.3051429   -3.2674207   -1.7004612   0.12199661   -3.2674207    1.5669594   548549 
 4671000    1.3076214   -3.2700632   -1.7002081   0.12542575   -3.2700632     1.569855   548577 
 4672000    1.3076338   -3.2694757   -1.6997346   0.12363005   -3.2694757    1.5697411   548622 
 4673000    1.3080769   -3.2698591   -1.6996862   0.12087085   -3.2698591    1.5701729   548657 
 4674000    1.3058337   -3.2679548   -1.7005631   0.12460743   -3.2679548    1.5673918   548688 
 4675000    1.3053587   -3.2675364   -1.7008119   0.12139868   -3.2675364    1.5667245   548722 
 4676000     1.308512   -3.2712702    -1.700804   0.12244722   -3.2712702    1.5704662   548737 
 4677000    1.3064875   -3.2681828    -1.700212   0.12056803   -3.2681828    1.5679708   548760 
 4678000    1.3089931   -3.2704271   -1.6995867   0.12141763   -3.2704271    1.5708403   548808 
 4679000    1.3078612   -3.2701148     -1.70073   0.12444675   -3.2701148    1.5693848   548842 
 4680000    1.3066751    -3.268602   -1.7007404    0.1272567    -3.268602    1.5678615   548877 
 4681000    1.3079955    -3.269887   -1.7005211   0.12643388    -3.269887    1.5693659   548905 
 4682000    1.3075278   -3.2703427   -1.7016209   0.12863879   -3.2703427    1.5687218   548934 
 4683000    1.3057308   -3.2680813   -1.7016154   0.12772202   -3.2680813    1.5664659   548969 
 4684000     1.307564   -3.2699394     -1.70134   0.12779722   -3.2699394    1.5685994   548992 
 4685000    1.3085386   -3.2705248   -1.7008562   0.12654725   -3.2705248    1.5696686   549027 
 4686000    1.3083831   -3.2700827   -1.7006978   0.12811409   -3.2700827    1.5693849   549061 
 4687000    1.3094447   -3.2723204   -1.7017509   0.12536601   -3.2723204    1.5705696   549092 
 4688000    1.3093541   -3.2711966   -1.7008101   0.12522173   -3.2711966    1.5703865   549118 
 4689000    1.3094693   -3.2716747   -1.7012759   0.12094724   -3.2716747    1.5703989   549162 
 4690000    1.3079212    -3.269452   -1.7010012   0.13103727    -3.269452    1.5684508   549194 
 4691000     1.311264   -3.2742208   -1.7018758   0.12094275   -3.2742208     1.572345   549234 
 4692000    1.3083557   -3.2726499   -1.7038436   0.12865063   -3.2726499    1.5688063   549252 
 4693000    1.3082812   -3.2708293   -1.7022152   0.12956353   -3.2708293    1.5686141   549288 
 4694000    1.3098511    -3.273432   -1.7030614    0.1223911    -3.273432    1.5703706   549332 
 4695000     1.311014     -3.27492   -1.7032552   0.12259475     -3.27492    1.5716647   549367 
 4696000    1.3092538   -3.2734209   -1.7039977   0.12165645   -3.2734209    1.5694232   549413 
 4697000    1.3092014   -3.2743186   -1.7050783   0.13222352   -3.2743186    1.5692403   549455 
 4698000    1.3089608   -3.2734624   -1.7046247   0.12731004   -3.2734624    1.5688377   549495 
 4699000    1.3091592   -3.2739822   -1.7050295   0.12588665   -3.2739822    1.5689527   549538 
 4700000     1.309288   -3.2737232   -1.7046988   0.12251058   -3.2737232    1.5690243   549567 
 4701000    1.3096498   -3.2747022     -1.70537   0.12862618   -3.2747022    1.5693323   549611 
 4702000    1.3095685   -3.2745539   -1.7054104   0.12734865   -3.2745539    1.5691435   549643 
 4703000      1.30915   -3.2744011   -1.7058647   0.12947434   -3.2744011    1.5685364   549680 
 4704000    1.3096065   -3.2762382   -1.7072177   0.11803847   -3.2762382    1.5690205   549702 
 4705000    1.3086468   -3.2749071   -1.7071247   0.12428545   -3.2749071    1.5677824   549733 
 4706000    1.3081352   -3.2742923   -1.7072226   0.12680625   -3.2742923    1.5670697   549768 
 4707000    1.3095683   -3.2757457    -1.707025     0.125288   -3.2757457    1.5687208   549791 
 4708000    1.3095007   -3.2751586   -1.7066414   0.12346902   -3.2751586    1.5685172   549834 
 4709000    1.3086415   -3.2746657   -1.7072347   0.12004615   -3.2746657     1.567431   549854 
 4710000    1.3087299    -3.275132   -1.7076806   0.11936759    -3.275132    1.5674513   549884 
 4711000     1.308918   -3.2733328   -1.7057131   0.12995183   -3.2733328    1.5676197   549904 
 4712000    1.3103137   -3.2762285   -1.7070828   0.12577949   -3.2762285    1.5691456   549955 
 4713000    1.3094154   -3.2742511   -1.7062581   0.12830988   -3.2742511    1.5679929   549982 
 4714000    1.3106746   -3.2754035   -1.7060311   0.12513416   -3.2754035    1.5693724   550027 
 4715000    1.3088204   -3.2752865   -1.7081742   0.12099065   -3.2752865    1.5671123   550041 
 4716000    1.3068311   -3.2729067   -1.7082361   0.12848918   -3.2729067    1.5646706   550062 
 4717000    1.3082359   -3.2747282   -1.7084751   0.12240832   -3.2747282    1.5662531   550097 
 4718000    1.3102463   -3.2773049   -1.7087733   0.12548832   -3.2773049    1.5685315   550142 
 4719000    1.3092458   -3.2767338   -1.7094797   0.12332129   -3.2767338    1.5672541   550170 
 4720000    1.3078396   -3.2750396   -1.7095228   0.12325385   -3.2750396    1.5655167   550189 
 4721000    1.3100598   -3.2779802   -1.7099228   0.12270992   -3.2779802    1.5680575   550230 
 4722000    1.3087134   -3.2771084   -1.7107734   0.12731972   -3.2771084     1.566335   550269 
 4723000    1.3081964   -3.2756902   -1.7100651   0.12490167   -3.2756902    1.5656252   550301 
 4724000    1.3111822    -3.278342   -1.7092747   0.12739037    -3.278342    1.5690673   550347 
 4725000     1.309723   -3.2762969   -1.7090355   0.12964517   -3.2762969    1.5672613   550368 
 4726000    1.3106161   -3.2765049   -1.7082718   0.12570041   -3.2765049    1.5682331   550402 
 4727000    1.3119243   -3.2769171    -1.707187   0.12403026   -3.2769171    1.5697301   550426 
 4728000    1.3117557   -3.2774474   -1.7079819   0.12850909   -3.2774474    1.5694655   550448 
 4729000     1.312647    -3.279144   -1.7087176   0.12794131    -3.279144    1.5704264   550485 
 4730000    1.3118579   -3.2777481   -1.7083455    0.1324503   -3.2777481    1.5694025   550513 
 4731000     1.311279   -3.2771915   -1.7085527   0.12934324   -3.2771915    1.5686388   550538 
 4732000     1.311478   -3.2771987   -1.7084501   0.12220159   -3.2771987    1.5687486   550583 
 4733000    1.3124407   -3.2787742   -1.7089026   0.12900844   -3.2787742    1.5698716   550593 
 4734000    1.3126788    -3.278941   -1.7088132   0.12688319    -3.278941    1.5701278   550603 
 4735000    1.3103942    -3.277278   -1.7100023   0.13370844    -3.277278    1.5672756   550645 
 4736000    1.3111845   -3.2781919   -1.7100736   0.12605576   -3.2781919    1.5681184   550681 
 4737000    1.3113694   -3.2789405   -1.7106722   0.12686842   -3.2789405    1.5682683   550706 
 4738000     1.312727   -3.2790406   -1.7092342   0.12414306   -3.2790406    1.5698064   550736 
 4739000    1.3121844   -3.2782052   -1.7091589   0.13124818   -3.2782052    1.5690463   550775 
 4740000    1.3110853   -3.2784365   -1.7108011   0.12324476   -3.2784365    1.5676354   550809 
 4741000    1.3124353   -3.2806969   -1.7115442   0.12853269   -3.2806969    1.5691526   550843 
 4742000    1.3147713   -3.2823888   -1.7105088   0.11850538   -3.2823888      1.57188   550866 
 4743000    1.3140714   -3.2819718   -1.7110313   0.11968507   -3.2819718    1.5709405   550902 
 4744000    1.3131423   -3.2795966   -1.7098579   0.12139037   -3.2795966    1.5697387   550934 
 4745000    1.3134375   -3.2791749   -1.7091232   0.13039543   -3.2791749    1.5700517   550948 
 4746000    1.3148276   -3.2811996    -1.709532   0.12486713   -3.2811996    1.5716677   550964 
 4747000    1.3143073    -3.279659   -1.7087187   0.12615155    -3.279659    1.5709403   551001 
 4748000    1.3127035   -3.2789816   -1.7100579   0.12742979   -3.2789816    1.5689237   551036 
 4749000    1.3136176   -3.2798308   -1.7098403   0.13315562   -3.2798308    1.5699905   551045 
 4750000    1.3121063   -3.2791327   -1.7110652   0.12512501   -3.2791327    1.5680675   551086 
 4751000    1.3127258   -3.2801126    -1.711373   0.12468692   -3.2801126    1.5687396   551110 
 4752000    1.3108392   -3.2781186   -1.7117246   0.12851528   -3.2781186    1.5663941   551142 
 4753000     1.312099   -3.2799914   -1.7121601   0.12546728   -3.2799914    1.5678313   551166 
 4754000    1.3119862   -3.2809144   -1.7133146   0.12427095   -3.2809144    1.5675998   551200 
 4755000     1.311451   -3.2800301   -1.7131437   0.12692974   -3.2800301    1.5668864   551226 
 4756000    1.3116993    -3.281132   -1.7140115   0.12118093    -3.281132    1.5671205   551248 
 4757000    1.3114184   -3.2812168   -1.7144773   0.12307104   -3.2812168    1.5667395   551264 
 4758000    1.3097253    -3.279423   -1.7147801   0.13221768    -3.279423    1.5646429   551290 
 4759000    1.3118869    -3.281285    -1.714165   0.12904649    -3.281285      1.56712   551327 
 4760000    1.3119628   -3.2807782   -1.7136243   0.12907822   -3.2807782    1.5671538   551347 
 4761000    1.3139868   -3.2830016   -1.7135296   0.12413793   -3.2830016     1.569472   551382 
 4762000    1.3151346   -3.2844574   -1.7136857   0.12799299   -3.2844574    1.5707717   551407 
 4763000    1.3142169   -3.2845538   -1.7149977   0.12424322   -3.2845538    1.5695561   551449 
 4764000    1.3123565   -3.2831374   -1.7158913   0.13275265   -3.2831374     1.567246   551480 
 4765000    1.3142223   -3.2857545   -1.7163685   0.12631496   -3.2857545     1.569386   551511 
 4766000    1.3148336   -3.2857218    -1.715694   0.12585479   -3.2857218    1.5700278   551542 
 4767000     1.313137   -3.2845264   -1.7165786   0.12964865   -3.2845264    1.5679479   551561 
 4768000    1.3125953   -3.2843106   -1.7171487    0.1275248   -3.2843106    1.5671618   551610 
 4769000     1.313791   -3.2852957   -1.7168029   0.12711833   -3.2852957    1.5684928   551644 
 4770000    1.3125092   -3.2848756   -1.7180354   0.12803625   -3.2848756    1.5668403   551687 
 4771000    1.3114952   -3.2831409   -1.7175706   0.12896061   -3.2831409    1.5655702   551708 
 4772000    1.3131444   -3.2843506   -1.7168969   0.13163723   -3.2843506    1.5674537   551738 
 4773000    1.3133311   -3.2849803   -1.7173662   0.12626019   -3.2849803    1.5676141   551760 
 4774000    1.3130302   -3.2841177   -1.7169679   0.12622523   -3.2841177    1.5671499   551797 
 4775000     1.313635    -3.284569   -1.7168025   0.12780411    -3.284569    1.5677665   551834 
 4776000    1.3142024   -3.2835266   -1.7151682   0.12923992   -3.2835266    1.5683584   551864 
 4777000    1.3155961   -3.2856374   -1.7156556   0.13001974   -3.2856374    1.5699819   551878 
 4778000     1.315508   -3.2855207   -1.7157806   0.12437136   -3.2855207    1.5697401   551926 
 4779000     1.313745   -3.2851239   -1.7175642   0.12944611   -3.2851239    1.5675598   551953 
 4780000    1.3143334    -3.285062   -1.7168796   0.12308401    -3.285062    1.5681823   551981 
 4781000    1.3132406   -3.2838704   -1.7170658   0.13313984   -3.2838704    1.5668046   552007 
 4782000    1.3135528   -3.2841196   -1.7170702    0.1287379   -3.2841196    1.5670493   552052 
 4783000    1.3159983   -3.2873011   -1.7174252   0.11897636   -3.2873011    1.5698759   552084 
 4784000    1.3141287   -3.2859575   -1.7183745   0.12143425   -3.2859575     1.567583   552106 
 4785000    1.3134658   -3.2834663   -1.7167563   0.12984239   -3.2834663      1.56671   552135 
 4786000    1.3149429    -3.285113   -1.7167632   0.12654307    -3.285113    1.5683498   552178 
 4787000     1.315173   -3.2846206   -1.7161158   0.12452157   -3.2846206    1.5685049   552220 
 4788000    1.3148117   -3.2839212   -1.7158954    0.1261643   -3.2839212    1.5680257   552237 
 4789000    1.3147775   -3.2853275   -1.7174477   0.12326852   -3.2853275    1.5678799   552274 
 4790000    1.3160631   -3.2856311   -1.7162919    0.1232977   -3.2856311    1.5693392   552300 
 4791000    1.3148923   -3.2855817    -1.717758   0.12836093   -3.2855817    1.5678238   552342 
 4792000    1.3140095   -3.2851721   -1.7184945   0.12338668   -3.2851721    1.5666776   552375 
 4793000    1.3139745   -3.2857746   -1.7192182   0.12878787   -3.2857746    1.5665564   552403 
 4794000    1.3146676   -3.2870328   -1.7197408   0.12298156   -3.2870328     1.567292   552435 
 4795000    1.3135246   -3.2856397    -1.719784   0.12891713   -3.2856397    1.5658557   552461 
 4796000    1.3158513   -3.2877359   -1.7191861   0.12993286   -3.2877359    1.5685498   552489 
 4797000     1.315114   -3.2874624   -1.7198285   0.12064096   -3.2874624     1.567634   552502 
 4798000    1.3166297   -3.2882847   -1.7189234   0.12626933   -3.2882847    1.5693613   552530 
 4799000    1.3165001   -3.2890242   -1.7199169   0.12658462   -3.2890242    1.5691073   552565 
 4800000    1.3154272   -3.2879061   -1.7201456   0.12444058   -3.2879061    1.5677605   552589 
 4801000    1.3162919   -3.2896451   -1.7209222   0.12637173   -3.2896451    1.5687229   552613 
 4802000    1.3140067   -3.2876983   -1.7217782    0.1315372   -3.2876983    1.5659201   552641 
 4803000     1.313916   -3.2877784   -1.7220343   0.12549814   -3.2877784    1.5657441   552665 
 4804000    1.3130894   -3.2878977   -1.7231982   0.12567307   -3.2878977    1.5646996   552686 
 4805000    1.3151281   -3.2893715   -1.7222965    0.1263784   -3.2893715    1.5670751   552705 
 4806000    1.3159395   -3.2902422   -1.7223166   0.12363256   -3.2902422    1.5679256   552746 
 4807000    1.3145857   -3.2887139   -1.7224609   0.13050879   -3.2887139     1.566253   552767 
 4808000    1.3161905   -3.2894264   -1.7213408   0.12892482   -3.2894264    1.5680856   552795 
 4809000    1.3161894    -3.288816   -1.7207941   0.12681482    -3.288816    1.5680219   552817 
 4810000    1.3169936   -3.2913084   -1.7224929   0.12701761   -3.2913084    1.5688154   552875 
 4811000    1.3154892   -3.2898199   -1.7228674   0.12460142   -3.2898199    1.5669525   552900 
 4812000    1.3151078   -3.2884774   -1.7220585   0.13141435   -3.2884774    1.5664189   552928 
 4813000    1.3150487   -3.2892177   -1.7229316   0.13107283   -3.2892177    1.5662861   552950 
 4814000    1.3167535   -3.2913024   -1.7230396   0.12562589   -3.2913024    1.5682628   552969 
 4815000    1.3137901   -3.2879796   -1.7232972   0.12674803   -3.2879796    1.5646824   552987 
 4816000     1.315805   -3.2894906    -1.722519    0.1280083   -3.2894906    1.5669716   553026 
 4817000    1.3162279   -3.2903493   -1.7229733   0.12148414   -3.2903493     1.567376   553061 
 4818000    1.3152323   -3.2900214   -1.7239187    0.1241374   -3.2900214    1.5661026   553092 
 4819000    1.3151631   -3.2898014   -1.7238604   0.12358817   -3.2898014    1.5659409   553120 
 4820000    1.3154324   -3.2904945   -1.7243291   0.12153751   -3.2904945    1.5661653   553154 
 4821000    1.3163565   -3.2922622   -1.7250986   0.12228358   -3.2922622    1.5671636   553190 
 4822000    1.3150671   -3.2906041   -1.7250491    0.1246451   -3.2906041     1.565555   553216 
 4823000    1.3153254   -3.2908051    -1.725087   0.12246663   -3.2908051    1.5657181   553267 
 4824000    1.3154922    -3.290501   -1.7246721   0.12539564    -3.290501    1.5658289   553298 
 4825000    1.3165869   -3.2917281   -1.7246359   0.12862855   -3.2917281    1.5670922   553312 
 4826000    1.3145376   -3.2893126   -1.7247472   0.12806092   -3.2893126    1.5645654   553343 
 4827000    1.3163494    -3.292007   -1.7253503   0.12578536    -3.292007    1.5666567   553366 
 4828000    1.3163942   -3.2914479   -1.7248484   0.11870089   -3.2914479    1.5665996   553405 
 4829000    1.3164323   -3.2915681   -1.7249656    0.1308327   -3.2915681    1.5666025   553420 
 4830000    1.3180023   -3.2924738   -1.7240681   0.12739117   -3.2924738    1.5684057   553443 
 4831000     1.315502   -3.2904913   -1.7251741   0.12568738   -3.2904913    1.5653172   553483 
 4832000    1.3178341   -3.2939094   -1.7259306   0.12691242   -3.2939094    1.5679789   553523 
 4833000    1.3173175   -3.2918716   -1.7245414   0.13017873   -3.2918716    1.5673302   553535 
 4834000    1.3175185    -3.292171   -1.7247035   0.12824256    -3.292171    1.5674675   553571 
 4835000    1.3164896   -3.2920309   -1.7258527   0.13767662   -3.2920309    1.5661782   553594 
 4836000    1.3188657   -3.2938489   -1.7249006   0.12252314   -3.2938489    1.5689484   553614 
 4837000    1.3180407   -3.2918179   -1.7239671   0.12603669   -3.2918179    1.5678508   553655 
 4838000    1.3168538   -3.2910223   -1.7246654   0.13304119   -3.2910223    1.5663569   553684 
 4839000    1.3179159   -3.2918408   -1.7242914   0.12900198   -3.2918408    1.5675494   553709 
 4840000    1.3162312   -3.2910351   -1.7255828   0.13184027   -3.2910351    1.5654524   553742 
 4841000    1.3178374   -3.2931865   -1.7259427   0.12117261   -3.2931865    1.5672437   553784 
 4842000    1.3183798   -3.2929878   -1.7251386   0.12811465   -3.2929878    1.5678492   553798 
 4843000    1.3182891   -3.2939731   -1.7262742   0.12102696   -3.2939731    1.5676989   553813 
 4844000     1.315821   -3.2908296    -1.726176   0.12610087   -3.2908296    1.5646537   553852 
 4845000    1.3185872   -3.2933207    -1.725491   0.12078381   -3.2933207    1.5678297   553892 
 4846000    1.3176097   -3.2924187   -1.7257937   0.12630072   -3.2924187     1.566625   553907 
 4847000    1.3176744   -3.2927861   -1.7261944   0.12599317   -3.2927861    1.5665917   553946 
 4848000    1.3192626   -3.2940469   -1.7256604   0.12507416   -3.2940469    1.5683864   553979 
 4849000    1.3186247   -3.2934523   -1.7259486   0.12637826   -3.2934523    1.5675036   554023 
 4850000    1.3182545     -3.29236   -1.7253587   0.12659738     -3.29236    1.5670014   554045 
 4851000    1.3176988    -3.291881   -1.7256505   0.12946139    -3.291881    1.5662305   554084 
 4852000    1.3186205   -3.2940308   -1.7267303   0.12941396   -3.2940308    1.5673005   554093 
 4853000    1.3195687   -3.2942952   -1.7259072   0.12617339   -3.2942952     1.568388   554107 
 4854000    1.3192831    -3.294377   -1.7264643   0.13082058    -3.294377    1.5679127   554155 
 4855000    1.3192649   -3.2948488   -1.7270399   0.12388683   -3.2948488     1.567809   554184 
 4856000    1.3174876    -3.293506   -1.7278797   0.12586876    -3.293506    1.5656262   554209 
 4857000    1.3179746   -3.2929661   -1.7268148   0.12631277   -3.2929661    1.5661513   554228 
 4858000    1.3172191   -3.2922131   -1.7270753   0.12807576   -3.2922131    1.5651377   554269 
 4859000    1.3182462   -3.2939617   -1.7277053   0.12729845   -3.2939617    1.5662564   554305 
 4860000    1.3202142   -3.2963732   -1.7278889   0.12550289   -3.2963732    1.5684844   554344 
 4861000    1.3207367   -3.2968643     -1.72783   0.12487411   -3.2968643    1.5690343   554369 
 4862000    1.3184775    -3.294496   -1.7281908   0.12419187    -3.294496    1.5663052   554385 
 4863000    1.3197112   -3.2954542   -1.7277626   0.12978119   -3.2954542    1.5676916   554413 
 4864000    1.3202967   -3.2973235     -1.72901   0.12154574   -3.2973235    1.5683135   554439 
 4865000    1.3193461   -3.2966899   -1.7295395   0.13248663   -3.2966899    1.5671504   554451 
 4866000    1.3207663   -3.2978568   -1.7291354      0.12587   -3.2978568    1.5687215   554492 
 4867000    1.3187323   -3.2952854   -1.7290816   0.12920086   -3.2952854    1.5662038   554528 
 4868000    1.3198056   -3.2967461   -1.7293608    0.1324034   -3.2967461    1.5673853   554561 
 4869000    1.3187126   -3.2963781    -1.730401   0.13178678   -3.2963781    1.5659772   554600 
 4870000    1.3198948   -3.2981536   -1.7308121   0.12359713   -3.2981536    1.5673415   554614 
 4871000    1.3201417   -3.2982927   -1.7307456   0.12527046   -3.2982927    1.5675471   554645 
 4872000    1.3188182   -3.2971076   -1.7312282   0.13090576   -3.2971076    1.5658795   554679 
 4873000     1.317754   -3.2965622   -1.7320422   0.12355002   -3.2965622      1.56452   554713 
 4874000    1.3178751   -3.2969654   -1.7323242   0.13098383   -3.2969654    1.5646412   554721 
 4875000    1.3190213   -3.2986224   -1.7326711   0.13092225   -3.2986224    1.5659513   554739 
 4876000    1.3180197   -3.2974495   -1.7327409   0.12923497   -3.2974495    1.5647086   554758 
 4877000    1.3195949   -3.2986685   -1.7321633   0.12489663   -3.2986685    1.5665052   554784 
 4878000    1.3183852   -3.2969156   -1.7319537   0.12715378   -3.2969156    1.5649619   554822 
 4879000    1.3168276   -3.2965549   -1.7334785    0.1279179   -3.2965549    1.5630764   554835 
 4880000    1.3190356   -3.2994732   -1.7339113   0.11911423   -3.2994732    1.5655618   554883 
 4881000    1.3183618   -3.2986201    -1.733937   0.11946004   -3.2986201    1.5646832   554911 
 4882000    1.3167736   -3.2966751   -1.7339812   0.12452585   -3.2966751     1.562694   554948 
 4883000    1.3190513   -3.2983371   -1.7330105    0.1265571   -3.2983371    1.5653266   554973 
 4884000     1.317512    -3.297406   -1.7339652   0.12202039    -3.297406    1.5634407   554994 
 4885000    1.3181447   -3.2985284   -1.7344045   0.12416359   -3.2985284    1.5641239   555018 
 4886000    1.3180945   -3.2976926   -1.7337269   0.12814024   -3.2976926    1.5639657   555053 
 4887000    1.3161227   -3.2955472   -1.7340252     0.129328   -3.2955472     1.561522   555090 
 4888000    1.3198912   -3.2987378   -1.7328406    0.1246339   -3.2987378    1.5658972   555124 
 4889000    1.3206088   -3.2991445   -1.7324976    0.1278388   -3.2991445    1.5666469   555160 
 4890000    1.3193293   -3.2985798   -1.7335296   0.12812201   -3.2985798    1.5650502   555188 
 4891000    1.3195626   -3.2983865   -1.7331583   0.12877435   -3.2983865    1.5652282   555223 
 4892000    1.3193971   -3.2976651   -1.7327064   0.13709159   -3.2976651    1.5649587   555249 
 4893000    1.3189898   -3.2976246   -1.7332646   0.13164055   -3.2976246      1.56436   555290 
 4894000    1.3220925   -3.3010076   -1.7330552   0.12686587   -3.3010076    1.5679524   555321 
 4895000    1.3192192   -3.2982141   -1.7337397   0.12581293   -3.2982141    1.5644744   555346 
 4896000    1.3210275   -3.2988142   -1.7323111   0.12215877   -3.2988142    1.5665031   555387 
 4897000    1.3211153   -3.2996999   -1.7331969   0.12625889   -3.2996999    1.5665029   555424 
 4898000    1.3224843   -3.3014202   -1.7333646    0.1221004   -3.3014202    1.5680556   555449 
 4899000    1.3224734   -3.3003983   -1.7324374   0.12684703   -3.3003983    1.5679609   555478 
 4900000    1.3206373   -3.2985814   -1.7329018    0.1274665   -3.2985814    1.5656796   555515 
 4901000    1.3200263   -3.2992435   -1.7343558   0.11951074   -3.2992435    1.5648877   555539 
 4902000    1.3206409   -3.2998024   -1.7342932   0.12520395   -3.2998024    1.5655092   555577 
 4903000    1.3218747   -3.3002666   -1.7333935   0.12188367   -3.3002666     1.566873   555612 
 4904000     1.319611   -3.2975208   -1.7334043   0.13155369   -3.2975208    1.5641166   555638 
 4905000    1.3197285   -3.2974468   -1.7332473   0.12498844   -3.2974468    1.5641995   555658 
 4906000    1.3218225   -3.2996285   -1.7330542   0.12403218   -3.2996285    1.5665743   555696 
 4907000    1.3204718   -3.2982087   -1.7333168   0.12101716   -3.2982087    1.5648919   555725 
 4908000    1.3215276   -3.2995342   -1.7334333     0.127376   -3.2995342    1.5661008   555740 
 4909000    1.3215387   -3.2996133   -1.7335444   0.12806481   -3.2996133    1.5660689   555756 
 4910000    1.3227131   -3.3010843   -1.7337253   0.12665637   -3.3010843     1.567359   555792 
 4911000     1.320332   -3.2982486   -1.7337898   0.12420782   -3.2982486    1.5644587   555820 
 4912000     1.321852   -3.2997622   -1.7335307   0.12990863   -3.2997622    1.5662316   555830 
 4913000    1.3221527   -3.3005513   -1.7340084   0.12637031   -3.3005513    1.5665428   555846 
 4914000    1.3226279    -3.301015   -1.7339626   0.12285051    -3.301015    1.5670523   555865 
 4915000    1.3220139   -3.3005642   -1.7342986   0.12944274   -3.3005642    1.5662657   555886 
 4916000    1.3221253   -3.3003447   -1.7340118   0.12790482   -3.3003447    1.5663328   555909 
 4917000    1.3237158   -3.3016015   -1.7334944   0.12958255   -3.3016015    1.5681071   555948 
 4918000    1.3228461   -3.3008367   -1.7338248   0.12891481   -3.3008367    1.5670119   555971 
 4919000    1.3226674   -3.3013008   -1.7346161   0.12546441   -3.3013008    1.5666848   556012 
 4920000    1.3211238   -3.2992684   -1.7344655    0.1269187   -3.2992684    1.5648029   556031 
 4921000    1.3218951   -3.3011346   -1.7355195   0.12693829   -3.3011346    1.5656152   556067 
 4922000    1.3224046   -3.3019114   -1.7358083   0.12188069   -3.3019114    1.5661031   556108 
 4923000    1.3214342   -3.3012891   -1.7364084   0.12206616   -3.3012891    1.5648807   556134 
 4924000    1.3224277    -3.300787   -1.7348001   0.12562142    -3.300787    1.5659869   556159 
 4925000    1.3217209   -3.3004327   -1.7353645   0.12785106   -3.3004327    1.5650682   556188 
 4926000    1.3228774   -3.3002221   -1.7338492   0.12833339   -3.3002221    1.5663729   556211 
 4927000    1.3213848   -3.2989207   -1.7343855   0.12952024   -3.2989207    1.5645352   556236 
 4928000    1.3230965   -3.3016097   -1.7351745   0.12190896   -3.3016097    1.5664352   556281 
 4929000    1.3215691   -3.3014027   -1.7368743   0.12576514   -3.3014027    1.5645285   556316 
 4930000    1.3225674   -3.3014235   -1.7358004   0.12182921   -3.3014235    1.5656231   556347 
 4931000    1.3225722   -3.3013758    -1.735854   0.12493007   -3.3013758    1.5655218   556385 
 4932000    1.3238815   -3.3026635    -1.735637   0.12201274   -3.3026635    1.5670265   556401 
 4933000    1.3232174   -3.3030119   -1.7368588   0.13101425   -3.3030119    1.5661531   556432 
 4934000    1.3217694   -3.3007978   -1.7364371   0.13025454   -3.3007978    1.5643607   556460 
 4935000    1.3228132   -3.3023868   -1.7368696   0.12705215   -3.3023868    1.5655172   556488 
 4936000    1.3228966   -3.3021404   -1.7366089   0.12772918   -3.3021404    1.5655315   556518 
 4937000    1.3228532    -3.303441   -1.7380143   0.12719359    -3.303441    1.5654267   556537 
 4938000     1.322633   -3.3028707   -1.7377496    0.1206801   -3.3028707    1.5651211   556553 
 4939000    1.3227628   -3.3031157    -1.737945   0.12985186   -3.3031157    1.5651707   556590 
 4940000    1.3240427   -3.3033756   -1.7367411   0.13603595   -3.3033756    1.5666345   556608 
 4941000     1.323882    -3.304188   -1.7378365   0.13137075    -3.304188    1.5663514   556641 
 4942000    1.3222126   -3.3023074    -1.738066   0.13052544   -3.3023074    1.5642414   556689 
 4943000    1.3240686   -3.3051932   -1.7388516   0.13404426   -3.3051932    1.5663415   556723 
 4944000    1.3254195   -3.3068679   -1.7389818   0.12400848   -3.3068679     1.567886   556742 
 4945000    1.3239907   -3.3042955   -1.7381897   0.13225496   -3.3042955    1.5661059   556774 
 4946000    1.3230616   -3.3038006   -1.7388443   0.12739489   -3.3038006    1.5649563   556792 
 4947000    1.3233902   -3.3059589   -1.7406982   0.12509937   -3.3059589    1.5652607   556822 
 4948000    1.3236218   -3.3063247   -1.7408632   0.12676503   -3.3063247    1.5654615   556848 
 4949000    1.3249841   -3.3069508   -1.7399203   0.12821218   -3.3069508    1.5670304   556863 
 4950000    1.3234364   -3.3066888   -1.7415197   0.13433577   -3.3066888    1.5651692   556874 
 4951000    1.3236123   -3.3064696   -1.7411402   0.12970114   -3.3064696    1.5653294   556891 
 4952000    1.3228883   -3.3066923   -1.7422838   0.12693373   -3.3066923    1.5644085   556914 
 4953000    1.3237027   -3.3067936   -1.7414726    0.1300521   -3.3067936    1.5653211   556932 
 4954000    1.3246811   -3.3073846   -1.7409881   0.12076032   -3.3073846    1.5663964   556961 
 4955000      1.32355   -3.3063544   -1.7413994   0.12460384   -3.3063544     1.564955   556998 
 4956000    1.3234026   -3.3066715   -1.7419834   0.13355967   -3.3066715     1.564688   557031 
 4957000    1.3204639   -3.3045238   -1.7433748   0.12640181   -3.3045238     1.561149   557054 
 4958000    1.3230092    -3.307232   -1.7431664   0.12709971    -3.307232    1.5640656   557087 
 4959000    1.3242819   -3.3081245   -1.7425572    0.1237419   -3.3081245    1.5655674   557088 
 4960000    1.3214345    -3.305206   -1.7430832   0.12947921    -3.305206    1.5621227   557116 
 4961000    1.3219702   -3.3066482   -1.7439932   0.12492883   -3.3066482     1.562655   557152 
 4962000    1.3226957   -3.3077483   -1.7443311   0.12106891   -3.3077483    1.5634172   557186 
 4963000     1.322622   -3.3091442   -1.7459011   0.13281391   -3.3091442     1.563243   557217 
 4964000    1.3224932   -3.3083249   -1.7452846   0.12397034   -3.3083249    1.5630403   557235 
 4965000    1.3238056   -3.3093401   -1.7447823   0.12273511   -3.3093401    1.5645578   557247 
 4966000    1.3223249   -3.3076338   -1.7448988   0.12355144   -3.3076338    1.5627349   557273 
 4967000    1.3231935    -3.308049   -1.7443465    0.1283592    -3.308049    1.5637025   557294 
 4968000    1.3238765   -3.3091806    -1.744758   0.12379141   -3.3091806    1.5644227   557325 
 4969000    1.3226979   -3.3074623   -1.7444633   0.12999885   -3.3074623     1.562999   557336 
 4970000    1.3247467   -3.3092273   -1.7438915   0.12867321   -3.3092273    1.5653358   557366 
 4971000    1.3253117   -3.3090314   -1.7431123   0.13057658   -3.3090314     1.565919   557396 
 4972000    1.3248372    -3.309332    -1.744055   0.12626718    -3.309332     1.565277   557425 
 4973000     1.325051    -3.309446   -1.7440175   0.12719627    -3.309446    1.5654285   557461 
 4974000    1.3240887   -3.3084348   -1.7442386   0.12821795   -3.3084348    1.5641962   557495 
 4975000    1.3252793   -3.3091443   -1.7436286   0.12642369   -3.3091443    1.5655157   557526 
 4976000    1.3243521   -3.3081226   -1.7437554   0.12623153   -3.3081226    1.5643671   557545 
 4977000    1.3235933   -3.3080075   -1.7446152   0.12711278   -3.3080075    1.5633923   557573 
 4978000    1.3249294   -3.3083761   -1.7434814   0.12386069   -3.3083761    1.5648947   557600 
 4979000    1.3246948   -3.3082642   -1.7436523   0.12912489   -3.3082642    1.5646119   557602 
 4980000    1.3236779   -3.3080743   -1.7447616    0.1286646   -3.3080743    1.5633127   557637 
 4981000    1.3240664   -3.3081158   -1.7444227   0.13165621   -3.3081158    1.5636931   557665 
 4982000    1.3242954   -3.3085633   -1.7446979   0.12377119   -3.3085633    1.5638654   557700 
 4983000     1.323797   -3.3081162   -1.7449627   0.12307983   -3.3081162    1.5631535   557744 
 4984000    1.3248786   -3.3101196   -1.7457648   0.12631327   -3.3101196    1.5643548   557771 
 4985000    1.3245769   -3.3097776   -1.7458884   0.12153195   -3.3097776    1.5638893   557810 
 4986000    1.3241389   -3.3095693   -1.7462616   0.12955721   -3.3095693    1.5633077   557833 
 4987000    1.3248247   -3.3102322   -1.7461793   0.12048446   -3.3102322    1.5640529   557856 
 4988000    1.3243716   -3.3088643   -1.7454164   0.13105741   -3.3088643    1.5634479   557881 
 4989000     1.327375   -3.3113085   -1.7443656   0.12613204   -3.3113085    1.5669429   557899 
 4990000    1.3252359   -3.3101401   -1.7457868   0.12494232   -3.3101401    1.5643533   557922 
 4991000    1.3246149   -3.3099849   -1.7464431   0.13030223   -3.3099849    1.5635418   557950 
 4992000    1.3254579   -3.3107049   -1.7462438   0.13070984   -3.3107049    1.5644611   557977 
 4993000    1.3259262   -3.3113302   -1.7464258   0.12764959   -3.3113302    1.5649045   558016 
 4994000    1.3254236   -3.3113569   -1.7471409   0.12406073   -3.3113569    1.5642159   558050 
 4995000    1.3254161   -3.3122841   -1.7481947    0.1223528   -3.3122841    1.5640894   558092 
 4996000    1.3256745   -3.3125118   -1.7482155   0.13039688   -3.3125118    1.5642963   558127 
 4997000    1.3247341   -3.3106291    -1.747535   0.12405963   -3.3106291    1.5630941   558160 
 4998000    1.3239511   -3.3110683   -1.7489596   0.12954618   -3.3110683    1.5621087   558182 
 4999000    1.3248179   -3.3126646   -1.7495892   0.12092008   -3.3126646    1.5630755   558202 
 5000000    1.3257496    -3.314441   -1.7503615   0.12443253    -3.314441    1.5640794   558236 
 5001000    1.3245802   -3.3131604   -1.7505334   0.12730865   -3.3131604     1.562627   558262 
 5002000    1.3246197   -3.3134541   -1.7508449   0.12749723   -3.3134541    1.5626092   558285 
 5003000    1.3243562   -3.3126939   -1.7504767   0.13075686   -3.3126939    1.5622173   558314 
 5004000    1.3247862   -3.3132159   -1.7505642   0.12664546   -3.3132159    1.5626517   558340 
 5005000    1.3254409   -3.3136866   -1.7502991   0.12539067   -3.3136866    1.5633876   558353 
 5006000    1.3252496   -3.3133441   -1.7503081   0.12962889   -3.3133441    1.5630359   558398 
 5007000      1.32609   -3.3140622    -1.750077   0.12659367   -3.3140622    1.5639851   558413 
 5008000    1.3264037   -3.3137307   -1.7494513   0.12582134   -3.3137307    1.5642794   558440 
 5009000    1.3256156   -3.3129384   -1.7496668   0.12859866   -3.3129384    1.5632717   558468 
 5010000    1.3257325   -3.3141683    -1.750854   0.12523352   -3.3141683    1.5633143   558502 
 5011000    1.3270191   -3.3146955   -1.7499481   0.12445001   -3.3146955    1.5647474   558532 
 5012000    1.3271606     -3.31592   -1.7510702   0.12315456     -3.31592    1.5648498   558555 
 5013000    1.3255641   -3.3154642    -1.752564    0.1203613   -3.3154642    1.5629002   558579 
 5014000    1.3276669   -3.3171739   -1.7518783   0.12457283   -3.3171739    1.5652955   558609 
 5015000    1.3267788   -3.3159223   -1.7517774   0.12844801   -3.3159223    1.5641449   558646 
 5016000    1.3253526   -3.3152805   -1.7528954   0.12427065   -3.3152805    1.5623852   558674 
 5017000    1.3248606   -3.3145768   -1.7528528   0.12844793   -3.3145768     1.561724   558703 
 5018000     1.324678   -3.3145801   -1.7531607   0.12437717   -3.3145801    1.5614195   558735 
 5019000    1.3255156   -3.3152005    -1.752886   0.12573765   -3.3152005    1.5623145   558768 
 5020000     1.326773   -3.3171142   -1.7534072   0.12913618   -3.3171142     1.563707   558800 
 5021000    1.3258328   -3.3162313   -1.7536633   0.12996367   -3.3162313     1.562568   558811 
 5022000    1.3275727   -3.3174802   -1.7529287   0.12417748   -3.3174802    1.5645515   558835 
 5023000    1.3278149   -3.3164913   -1.7517328   0.13038193   -3.3164913    1.5647585   558863 
 5024000    1.3268418   -3.3146529   -1.7511083   0.13233523   -3.3146529    1.5635446   558887 
 5025000    1.3273661   -3.3165153   -1.7524061   0.12875156   -3.3165153    1.5641093   558906 
 5026000    1.3271148   -3.3166564   -1.7529468   0.12573485   -3.3166564    1.5637096   558943 
 5027000    1.3267173   -3.3160724   -1.7529178   0.12753528   -3.3160724    1.5631546   558974 
 5028000    1.3259391   -3.3161881   -1.7540231   0.12444924   -3.3161881     1.562165   559000 
 5029000     1.326514    -3.316259   -1.7535006   0.12825982    -3.316259    1.5627584   559030 
 5030000    1.3273363   -3.3163931   -1.7527526   0.12396929   -3.3163931    1.5636405   559061 
 5031000    1.3290024   -3.3182959   -1.7527795   0.12396671   -3.3182959    1.5655164   559092 
 5032000    1.3267102    -3.315007   -1.7522858   0.13111239    -3.315007    1.5627213   559126 
 5033000    1.3293722   -3.3178819   -1.7520643   0.12398331   -3.3178819    1.5658176   559140 
 5034000    1.3277959   -3.3163233   -1.7524939   0.12561384   -3.3163233    1.5638295   559187 
 5035000    1.3262356   -3.3151304   -1.7532726   0.12573657   -3.3151304    1.5618577   559235 
 5036000    1.3274552   -3.3157752   -1.7525567   0.12412755   -3.3157752    1.5632185   559262 
 5037000    1.3276672   -3.3159978   -1.7526526   0.13089653   -3.3159978    1.5633451   559306 
 5038000    1.3284224   -3.3153827   -1.7512266   0.12981204   -3.3153827    1.5641561   559334 
 5039000    1.3292263   -3.3168186   -1.7518391   0.12568871   -3.3168186    1.5649795   559378 
 5040000    1.3287298   -3.3162845   -1.7519958   0.12373937   -3.3162845    1.5642887   559416 
 5041000    1.3287372   -3.3170564   -1.7528316   0.12870249   -3.3170564    1.5642248   559442 
 5042000    1.3294974   -3.3170908   -1.7520746   0.12708873   -3.3170908    1.5650162   559479 
 5043000    1.3288012   -3.3165084   -1.7524151   0.12812979   -3.3165084    1.5640933   559516 
 5044000    1.3264305   -3.3144057   -1.7531811   0.13536621   -3.3144057    1.5612246   559544 
 5045000    1.3280845   -3.3167419   -1.7536376   0.13060288   -3.3167419    1.5631043   559568 
 5046000     1.329919   -3.3184282   -1.7532935   0.12691573   -3.3184282    1.5651348   559614 
 5047000     1.330461   -3.3189713   -1.7532882   0.12448657   -3.3189713    1.5656831   559646 
 5048000    1.3299983   -3.3187564   -1.7537157   0.13014405   -3.3187564    1.5650407   559681 
 5049000    1.3303974   -3.3190205   -1.7535409    0.1280077   -3.3190205    1.5654796   559692 
 5050000    1.3277326   -3.3167332    -1.754473   0.13116814   -3.3167332    1.5622602   559722 
 5051000    1.3295759   -3.3189448   -1.7546051   0.12775763   -3.3189448    1.5643397   559754 
 5052000    1.3311307   -3.3206159   -1.7545168   0.12542868   -3.3206159    1.5660991   559779 
 5053000    1.3280981   -3.3181323   -1.7556346   0.12529084   -3.3181323    1.5624977   559791 
 5054000    1.3293301   -3.3199302   -1.7560808   0.13123607   -3.3199302    1.5638494   559826 
 5055000    1.3310168   -3.3214169   -1.7556505   0.12793397   -3.3214169    1.5657664   559850 
 5056000    1.3309311   -3.3208301   -1.7552734   0.12821441   -3.3208301    1.5655566   559889 
 5057000    1.3294809   -3.3192698   -1.7554917   0.13220663   -3.3192698    1.5637781   559915 
 5058000    1.3301149   -3.3207822    -1.756317   0.13594862   -3.3207822    1.5644652   559936 
 5059000    1.3297783   -3.3204143   -1.7564149   0.13069581   -3.3204143    1.5639994   559961 
 5060000    1.3298029   -3.3198813    -1.755906   0.13192929   -3.3198813    1.5639753   559980 
 5061000    1.3292856   -3.3207575   -1.7574827   0.12784668   -3.3207575    1.5632748   560013 
 5062000     1.329602   -3.3200844    -1.756499   0.12915351   -3.3200844    1.5635854   560035 
 5063000    1.3300467   -3.3205341   -1.7564983    0.1306407   -3.3205341    1.5640358   560061 
 5064000    1.3316933   -3.3213128   -1.7554246   0.12400922   -3.3213128    1.5658882   560091 
 5065000    1.3308835   -3.3207638   -1.7558893   0.12642949   -3.3207638    1.5648745   560113 
 5066000    1.3304134   -3.3217064   -1.7575047   0.13130666   -3.3217064    1.5642017   560156 
 5067000    1.3296673   -3.3211753   -1.7578927   0.13614453   -3.3211753    1.5632826   560171 
 5068000    1.3289734   -3.3213071     -1.75891    0.1256908   -3.3213071    1.5623971   560196 
 5069000    1.3300621    -3.322923   -1.7592879   0.12301059    -3.322923    1.5636351   560211 
 5070000    1.3279535   -3.3210899   -1.7599672   0.12500993   -3.3210899    1.5611228   560223 
 5071000    1.3307026   -3.3226313   -1.7583717     0.122653   -3.3226313    1.5642596   560257 
 5072000    1.3307256   -3.3230686   -1.7588432   0.12640091   -3.3230686    1.5642253   560279 
 5073000    1.3290458   -3.3207035   -1.7585587   0.13408598   -3.3207035    1.5621448   560317 
 5074000    1.3298519    -3.320525   -1.7575304   0.12779352    -3.320525    1.5629946   560352 
 5075000    1.3293362   -3.3205905   -1.7582996   0.13004887   -3.3205905    1.5622909   560387 
 5076000    1.3276411   -3.3197941   -1.7595844   0.12502238   -3.3197941    1.5602097   560419 
 5077000    1.3277167   -3.3205705   -1.7603777   0.12833431   -3.3205705    1.5601927   560457 
 5078000    1.3295526   -3.3217729   -1.7594646   0.12634667   -3.3217729    1.5623083   560472 
 5079000    1.3284325    -3.319265   -1.7583676   0.13090255    -3.319265    1.5608974   560506 
 5080000    1.3306805   -3.3211331   -1.7576194   0.12792719   -3.3211331    1.5635137   560515 
 5081000    1.3296002   -3.3205905   -1.7584436   0.12475223   -3.3205905    1.5621469   560550 
 5082000    1.3295314   -3.3201943   -1.7582063   0.12362477   -3.3201943     1.561988   560578 
 5083000    1.3301804   -3.3217126   -1.7590458   0.12710866   -3.3217126    1.5626668   560608 
 5084000    1.3300791    -3.321759    -1.759306   0.12441409    -3.321759    1.5624531   560642 
 5085000    1.3312696   -3.3228626   -1.7591088   0.12810955   -3.3228626    1.5637539   560677 
 5086000    1.3307849   -3.3222821   -1.7592034    0.1285842   -3.3222821    1.5630787   560715 
 5087000    1.3320218   -3.3239037   -1.7594782   0.12634402   -3.3239037    1.5644255   560753 
 5088000    1.3311259   -3.3234639   -1.7601577   0.13169458   -3.3234639    1.5633062   560777 
 5089000    1.3311351   -3.3235013   -1.7602371   0.12712227   -3.3235013    1.5632642   560796 
 5090000    1.3327116   -3.3245182   -1.7594892   0.12418848   -3.3245182     1.565029   560827 
 5091000    1.3317857   -3.3247836   -1.7609283   0.12850452   -3.3247836    1.5638553   560858 
 5092000    1.3308583   -3.3223716   -1.7596805   0.13541782   -3.3223716    1.5626911   560885 
 5093000    1.3334243    -3.324805   -1.7591763   0.12795019    -3.324805    1.5656287   560912 
 5094000    1.3320618    -3.323571   -1.7596285   0.13401614    -3.323571    1.5639425   560943 
 5095000    1.3320417   -3.3233558   -1.7595372   0.13370688   -3.3233558    1.5638185   560979 
 5096000    1.3306377   -3.3232752   -1.7611858   0.12655142   -3.3232752    1.5620895   561008 
 5097000    1.3309631   -3.3243896   -1.7619599   0.12793254   -3.3243896    1.5624297   561023 
 5098000    1.3299995   -3.3230881   -1.7618648     0.128697   -3.3230881    1.5612233   561050 
 5099000    1.3300411   -3.3231685   -1.7620549    0.1266063   -3.3231685    1.5611136   561107 
 5100000    1.3323467   -3.3256495   -1.7619078   0.12262512   -3.3256495    1.5637417   561135 
 5101000    1.3331587   -3.3266225   -1.7619835   0.12485129   -3.3266225     1.564639   561155 
 5102000    1.3309144   -3.3244888   -1.7625728   0.12643503   -3.3244888    1.5619159   561187 
 5103000    1.3318994   -3.3244303   -1.7614226   0.12963086   -3.3244303    1.5630078   561210 
 5104000    1.3325088   -3.3243897   -1.7607364   0.12350354   -3.3243897    1.5636533   561235 
 5105000    1.3325609   -3.3243257   -1.7607032   0.12700313   -3.3243257    1.5636225   561268 
 5106000    1.3332557    -3.324852   -1.7604421   0.12655754    -3.324852    1.5644099   561278 
 5107000    1.3343166   -3.3251387   -1.7595704   0.12786013   -3.3251387    1.5655683   561309 
 5108000      1.33392   -3.3249351   -1.7598907   0.12224383   -3.3249351    1.5650443   561330 
 5109000    1.3311574    -3.322747   -1.7610217   0.12857728    -3.322747    1.5617253   561358 
 5110000    1.3310939   -3.3234334   -1.7618411   0.13173846   -3.3234334    1.5615923   561379 
 5111000    1.3317706   -3.3238748   -1.7615554    0.1283731   -3.3238748    1.5623194   561403 
 5112000    1.3318108   -3.3241089   -1.7617924   0.12537294   -3.3241089    1.5623165   561421 
 5113000      1.33291   -3.3260091   -1.7624673   0.12048404   -3.3260091    1.5635418   561444 
 5114000    1.3317286   -3.3250388   -1.7629245   0.12250694   -3.3250388    1.5621144   561459 
 5115000    1.3329104   -3.3251295   -1.7616846   0.12992024   -3.3251295    1.5634448   561479 
 5116000    1.3310498   -3.3236613   -1.7624406   0.13440254   -3.3236613    1.5612207   561494 
 5117000    1.3326051   -3.3253355   -1.7623657   0.12514336   -3.3253355    1.5629698   561521 
 5118000    1.3310076   -3.3245587   -1.7635404   0.12989718   -3.3245587    1.5610184   561549 
 5119000    1.3330473   -3.3268664   -1.7635505   0.12970918   -3.3268664    1.5633159   561583 
 5120000    1.3325832    -3.325488   -1.7627831   0.13378646    -3.325488    1.5627049   561607 
 5121000    1.3329972   -3.3278882   -1.7647759   0.12820534   -3.3278882    1.5631124   561635 
 5122000    1.3329762   -3.3268284   -1.7638241   0.13046376   -3.3268284    1.5630043   561665 
 5123000    1.3328033   -3.3263928   -1.7636748   0.12744941   -3.3263928     1.562718   561695 
 5124000     1.334926    -3.329296   -1.7642311   0.13227374    -3.329296    1.5650649   561746 
 5125000    1.3346471   -3.3293842   -1.7647466   0.12650638   -3.3293842    1.5646376   561782 
 5126000    1.3340215   -3.3276331    -1.763779   0.13209969   -3.3276331    1.5638541   561800 
 5127000    1.3352314   -3.3289028   -1.7637252   0.12826158   -3.3289028    1.5651777   561834 
 5128000    1.3356049   -3.3307531   -1.7652296   0.12539827   -3.3307531    1.5655235   561867 
 5129000    1.3335014   -3.3285112   -1.7655172   0.12711348   -3.3285112     1.562994   561890 
 5130000    1.3325062   -3.3273629   -1.7656798   0.12543116   -3.3273629     1.561683   561942 
 5131000    1.3343425   -3.3288708   -1.7651191   0.12859104   -3.3288708    1.5637516   561972 
 5132000    1.3332459   -3.3275069   -1.7651433   0.13402415   -3.3275069    1.5623636   562009 
 5133000    1.3341107   -3.3290046   -1.7656693   0.13221985   -3.3290046    1.5633353   562024 
 5134000    1.3337304   -3.3293677   -1.7665058   0.12719987   -3.3293677    1.5628619   562034 
 5135000    1.3345554    -3.329963   -1.7661845   0.12763832    -3.329963    1.5637785   562052 
 5136000    1.3338121   -3.3295152   -1.7666884   0.12823132   -3.3295152    1.5628269   562081 
 5137000    1.3334284   -3.3285918   -1.7663117   0.13109181   -3.3285918    1.5622801   562116 
 5138000    1.3349397   -3.3303022   -1.7663433   0.12559116   -3.3303022    1.5639589   562149 
 5139000    1.3340548   -3.3283621   -1.7654983   0.13345663   -3.3283621    1.5628638   562170 
 5140000    1.3330869   -3.3291445    -1.767534    0.1297327   -3.3291445    1.5616105   562213 
 5141000    1.3348168   -3.3315457   -1.7679561   0.12795341   -3.3315457    1.5635897   562230 
 5142000    1.3346868   -3.3310641   -1.7676796   0.12685677   -3.3310641    1.5633846   562249 
 5143000    1.3348198   -3.3312699   -1.7677992   0.13737542   -3.3312699    1.5634707   562274 
 5144000    1.3330042   -3.3292287    -1.767965   0.13311139   -3.3292287    1.5612637   562303 
 5145000    1.3344897      -3.3311   -1.7681715   0.13151093      -3.3311    1.5629285   562330 
 5146000    1.3343967   -3.3304389   -1.7676526   0.12667644   -3.3304389    1.5627863   562342 
 5147000    1.3332125   -3.3296535   -1.7683486   0.13320082   -3.3296535    1.5613049   562376 
 5148000    1.3333958   -3.3318479   -1.7703532   0.13106858   -3.3318479    1.5614946   562385 
 5149000     1.332898   -3.3302817   -1.7694921   0.13206398   -3.3302817    1.5607896   562429 
 5150000    1.3342412   -3.3307145   -1.7684022   0.13294051   -3.3307145    1.5623123   562447 
 5151000    1.3361707   -3.3317985   -1.7673158   0.12959663   -3.3317985    1.5644827   562479 
 5152000    1.3346762   -3.3309143    -1.768212   0.13005101   -3.3309143    1.5627023   562490 
 5153000    1.3359446   -3.3322411     -1.76809   0.12873394   -3.3322411    1.5641512   562503 
 5154000    1.3359865   -3.3327044   -1.7685597    0.1286978   -3.3327044    1.5641447   562523 
 5155000    1.3359693   -3.3319065   -1.7678514   0.12788845   -3.3319065     1.564055   562548 
 5156000    1.3337801   -3.3294395   -1.7680141   0.13257873   -3.3294395    1.5614254   562572 
 5157000    1.3368204   -3.3334023   -1.7685233   0.12778251   -3.3334023     1.564879   562610 
 5158000    1.3338877   -3.3318838   -1.7704961   0.12475843   -3.3318838    1.5613877   562631 
 5159000    1.3333777   -3.3313223   -1.7705594   0.12796637   -3.3313223    1.5607629   562641 
 5160000    1.3340549   -3.3330246   -1.7715828   0.12571553   -3.3330246    1.5614418   562682 
 5161000    1.3347727   -3.3336656   -1.7714364   0.13373871   -3.3336656    1.5622292   562701 
 5162000    1.3327768   -3.3324516   -1.7726471     0.124092   -3.3324516    1.5598045   562733 
 5163000    1.3336694   -3.3338757   -1.7731347   0.12037312   -3.3338757     1.560741   562772 
 5164000    1.3326517     -3.33265   -1.7731553   0.12909558     -3.33265    1.5594946   562792 
 5165000    1.3345877   -3.3343385   -1.7726311   0.12716756   -3.3343385    1.5617074   562811 
 5166000     1.333808   -3.3340421   -1.7733025   0.12325837   -3.3340421    1.5607396   562831 
 5167000    1.3338454   -3.3341372   -1.7734343   0.12391708   -3.3341372    1.5607029   562860 
 5168000    1.3351679   -3.3353937   -1.7732156    0.1293174   -3.3353937    1.5621781   562886 
 5169000     1.334672   -3.3351172    -1.773547   0.13090316   -3.3351172    1.5615702   562896 
 5170000    1.3340054    -3.334999   -1.7742864   0.12727988    -3.334999    1.5607126   562924 
 5171000    1.3343611   -3.3348415   -1.7737765   0.12720815   -3.3348415     1.561065   562947 
 5172000    1.3353351   -3.3344264   -1.7722608   0.13269328   -3.3344264    1.5621656   562961 
 5173000    1.3355158   -3.3348691   -1.7725559   0.13159243   -3.3348691    1.5623132   562984 
 5174000    1.3348954   -3.3337579    -1.772212   0.13012189   -3.3337579    1.5615459   562999 
 5175000    1.3348533   -3.3337833   -1.7723421   0.13294822   -3.3337833    1.5614412   563019 
 5176000    1.3367869   -3.3352134   -1.7716215   0.13028518   -3.3352134    1.5635919   563059 
 5177000    1.3346574   -3.3333625   -1.7723418   0.13434574   -3.3333625    1.5610207   563088 
 5178000    1.3347944   -3.3332857   -1.7722019   0.12849781   -3.3332857    1.5610838   563123 
 5179000    1.3365933   -3.3348717   -1.7717561   0.13460224   -3.3348717    1.5631156   563149 
 5180000    1.3359833   -3.3346762     -1.77236   0.12657978   -3.3346762    1.5623162   563180 
 5181000     1.334964   -3.3335795   -1.7725052   0.12975836   -3.3335795    1.5610744   563198 
 5182000    1.3353265   -3.3344865    -1.773088   0.12090069   -3.3344865    1.5613984   563234 
 5183000    1.3352279   -3.3346056   -1.7733808   0.12617833   -3.3346056    1.5612249   563255 
 5184000    1.3349446   -3.3345928   -1.7737988   0.12597599   -3.3345928    1.5607939   563291 
 5185000     1.334074   -3.3335991   -1.7738811   0.12271768   -3.3335991    1.5597179   563312 
 5186000    1.3358551   -3.3355444    -1.773819   0.12774452   -3.3355444    1.5617254   563339 
 5187000    1.3357462   -3.3345494   -1.7730013   0.12647644   -3.3345494    1.5615481   563357 
 5188000    1.3343635   -3.3340593   -1.7741746   0.12771382   -3.3340593    1.5598846   563374 
 5189000    1.3360869   -3.3358297   -1.7740108   0.13168623   -3.3358297    1.5618189   563403 
 5190000    1.3367577   -3.3352777   -1.7727661   0.12375264   -3.3352777    1.5625116   563436 
 5191000    1.3361916     -3.33534   -1.7735955   0.13079459     -3.33534    1.5617445   563474 
 5192000    1.3358517   -3.3345669   -1.7733112   0.12735404   -3.3345669    1.5612557   563507 
 5193000    1.3361012   -3.3350386   -1.7735799   0.12781198   -3.3350386    1.5614587   563539 
 5194000    1.3355943   -3.3341972   -1.7733974   0.12495685   -3.3341972    1.5607998   563563 
 5195000    1.3361863   -3.3351194   -1.7737191   0.12993177   -3.3351194    1.5614002   563596 
 5196000     1.337059    -3.336409   -1.7740029   0.13003014    -3.336409    1.5624062   563601 
 5197000    1.3365124   -3.3365817   -1.7749278   0.13070085   -3.3365817    1.5616539   563642 
 5198000    1.3365979   -3.3362072   -1.7745754   0.13274355   -3.3362072    1.5616319   563686 
 5199000    1.3363313   -3.3363031    -1.775016    0.1302493   -3.3363031    1.5612871   563698 
 5200000    1.3365597   -3.3374928   -1.7760413   0.12235824   -3.3374928    1.5614515   563735 
 5201000    1.3369912   -3.3373214    -1.775424   0.12747537   -3.3373214    1.5618974   563756 
 5202000    1.3362686   -3.3370489   -1.7760621   0.12954685   -3.3370489    1.5609868   563780 
 5203000    1.3368617   -3.3378603   -1.7762278   0.12846309   -3.3378603    1.5616325   563797 
 5204000    1.3367141   -3.3374558   -1.7761009   0.12810602   -3.3374558    1.5613549   563835 
 5205000    1.3373702   -3.3382113   -1.7761344   0.12585193   -3.3382113    1.5620769   563851 
 5206000     1.338233    -3.339917    -1.776921   0.12521876    -3.339917     1.562996   563883 
 5207000    1.3373728   -3.3383221   -1.7763973   0.12990146   -3.3383221    1.5619248   563907 
 5208000    1.3365049   -3.3380996   -1.7772769   0.13257378   -3.3380996    1.5608227   563939 
 5209000    1.3370965   -3.3391016   -1.7776019   0.12427142   -3.3391016    1.5614997   563944 
 5210000    1.3349188   -3.3365124   -1.7776056   0.12262277   -3.3365124    1.5589068   563962 
 5211000    1.3352096   -3.3382643   -1.7790595   0.12833422   -3.3382643    1.5592048   563977 
 5212000    1.3358276   -3.3384363   -1.7785485   0.12702035   -3.3384363    1.5598878   563991 
 5213000    1.3361135   -3.3395451   -1.7794037   0.12269849   -3.3395451    1.5601415   564020 
 5214000    1.3341254   -3.3370567   -1.7793333   0.12433219   -3.3370567    1.5577234   564055 
 5215000    1.3363237   -3.3381502   -1.7779321   0.13069768   -3.3381502    1.5602181   564081 
 5216000    1.3351037   -3.3381691   -1.7794112   0.12791866   -3.3381691    1.5587579   564094 
 5217000    1.3369563   -3.3396922   -1.7788128   0.12783791   -3.3396922    1.5608793   564109 
 5218000    1.3352759   -3.3381896   -1.7793301   0.12736471   -3.3381896    1.5588594   564130 
 5219000    1.3358665   -3.3395494   -1.7800835   0.12603398   -3.3395494    1.5594659   564160 
 5220000     1.336981   -3.3415224   -1.7808438   0.12229548   -3.3415224    1.5606785   564192 
 5221000    1.3358955   -3.3393435   -1.7799736   0.12427412   -3.3393435    1.5593699   564207 
 5222000    1.3355246   -3.3384361   -1.7795821    0.1229755   -3.3384361     1.558854   564237 
 5223000    1.3360392   -3.3397681   -1.7803631   0.12949208   -3.3397681     1.559405   564255 
 5224000    1.3370932   -3.3403391   -1.7797952   0.12581313   -3.3403391    1.5605439   564288 
 5225000    1.3364671   -3.3396856   -1.7799608   0.13559988   -3.3396856    1.5597248   564320 
 5226000    1.3383628   -3.3413319   -1.7794529   0.12827552   -3.3413319     1.561879   564341 
 5227000    1.3354833   -3.3389563   -1.7804764    0.1262288   -3.3389563    1.5584799   564355 
 5228000    1.3362837   -3.3408478    -1.781525   0.12856684   -3.3408478    1.5593228   564388 
 5229000    1.3364817   -3.3412526   -1.7817707     0.124806   -3.3412526     1.559482   564414 
 5230000    1.3365778   -3.3421114   -1.7825918   0.13528968   -3.3421114    1.5595196   564441 
 5231000    1.3358881   -3.3406751   -1.7819823   0.12987777   -3.3406751    1.5586927   564449 
 5232000    1.3366165   -3.3405769   -1.7810951   0.12808348   -3.3405769    1.5594818   564471 
 5233000      1.33734   -3.3407733   -1.7805303   0.12709472   -3.3407733     1.560243   564501 
 5234000    1.3353349   -3.3393583   -1.7814766    0.1260283   -3.3393583    1.5578817   564509 
 5235000    1.3377527   -3.3416193   -1.7809667    0.1253642   -3.3416193    1.5606526   564527 
 5236000    1.3385296   -3.3432364     -1.78173   0.12373146   -3.3432364    1.5615064   564546 
 5237000    1.3368492    -3.342132   -1.7826218   0.12280934    -3.342132    1.5595102   564559 
 5238000    1.3377001   -3.3420718   -1.7816187   0.12972267   -3.3420718    1.5604531   564577 
 5239000    1.3355552   -3.3387037   -1.7807803   0.13336726   -3.3387037    1.5579235   564587 
 5240000    1.3379548   -3.3403634   -1.7796658   0.12775509   -3.3403634    1.5606976   564596 
 5241000    1.3358645   -3.3389098   -1.7806642   0.13108141   -3.3389098    1.5582456   564601 
 5242000    1.3364049   -3.3390231   -1.7801914   0.12399348   -3.3390231    1.5588318   564617 
 5243000    1.3393787   -3.3413128   -1.7790649   0.12950114   -3.3413128    1.5622479   564636 
 5244000    1.3376646   -3.3404025   -1.7802203   0.12779816   -3.3404025    1.5601822   564660 
 5245000     1.337358   -3.3409726   -1.7812087   0.12918538   -3.3409726    1.5597639   564682 
 5246000    1.3391708   -3.3422423   -1.7803835    0.1330683   -3.3422423    1.5618588   564689 
 5247000    1.3371209   -3.3404665   -1.7810537    0.1328371   -3.3404665    1.5594128   564709 
 5248000     1.338544   -3.3417702    -1.780764   0.13248172   -3.3417702    1.5610062   564733 
 5249000     1.337183   -3.3413619   -1.7820009   0.12081251   -3.3413619     1.559361   564754 
 5250000    1.3371594   -3.3419696   -1.7826804   0.13089764   -3.3419696    1.5592893   564770 
 5251000    1.3382205   -3.3430752   -1.7825954   0.12550925   -3.3430752    1.5604797   564787 
 5252000    1.3368573   -3.3415661    -1.782734   0.12903055   -3.3415661    1.5588321   564808 
 5253000    1.3392506   -3.3437947   -1.7822521   0.12628009   -3.3437947    1.5615426   564837 
 5254000    1.3363751   -3.3415744   -1.7834286   0.12658742   -3.3415744    1.5581458   564853 
 5255000    1.3398591   -3.3443322   -1.7821795   0.12393235   -3.3443322    1.5621526   564873 
 5256000    1.3409927   -3.3448252   -1.7813953   0.12737043   -3.3448252      1.56343   564889 
 5257000    1.3386246   -3.3442602   -1.7836437   0.12445626   -3.3442602    1.5606166   564908 
 5258000    1.3392539   -3.3447354   -1.7834515   0.12272279   -3.3447354    1.5612839   564932 
 5259000    1.3387639    -3.343323   -1.7826849    0.1272398    -3.343323    1.5606381   564959 
 5260000    1.3389058   -3.3441672   -1.7833969   0.12222226   -3.3441672    1.5607703   564971 
 5261000    1.3387542   -3.3427931     -1.78231   0.13330518   -3.3427931    1.5604831   565011 
 5262000     1.340084   -3.3440123   -1.7820538   0.13105509   -3.3440123    1.5619585   565038 
 5263000    1.3405789   -3.3453832   -1.7828948   0.12356638   -3.3453832    1.5624883   565055 
 5264000    1.3405744   -3.3449853   -1.7825823   0.13060484   -3.3449853     1.562403   565084 
 5265000    1.3398502   -3.3447434    -1.783248   0.12774135   -3.3447434    1.5614954   565107 
 5266000    1.3395324   -3.3449889   -1.7839247   0.12664846   -3.3449889    1.5610642   565129 
 5267000     1.338939   -3.3451176   -1.7848223   0.12883267   -3.3451176    1.5602953   565157 
 5268000    1.3388888   -3.3436718   -1.7835094   0.12850472   -3.3436718    1.5601624   565184 
 5269000    1.3386472   -3.3433283   -1.7834862   0.12620052   -3.3433283    1.5598421   565198 
 5270000    1.3391374   -3.3452116   -1.7848314   0.12780848   -3.3452116    1.5603802   565210 
 5271000     1.338658    -3.343946   -1.7842293   0.12790153    -3.343946    1.5597167   565248 
 5272000    1.3380025   -3.3436889   -1.7847745   0.12230093   -3.3436889    1.5589144   565262 
 5273000    1.3372866    -3.343084    -1.785045   0.12711597    -3.343084     1.558039   565277 
 5274000     1.340413   -3.3452459   -1.7836391   0.12551199   -3.3452459    1.5616068   565304 
 5275000    1.3391893   -3.3436722    -1.783549   0.12366938   -3.3436722    1.5601232   565325 
 5276000    1.3387639   -3.3437204   -1.7841644   0.13392032   -3.3437204     1.559556   565351 
 5277000    1.3395553   -3.3445911   -1.7842153    0.1300712   -3.3445911    1.5603758   565388 
 5278000    1.3399521   -3.3447331   -1.7839614   0.12646415   -3.3447331    1.5607717   565412 
 5279000    1.3404045   -3.3444256   -1.7831739   0.13020423   -3.3444256    1.5612517   565429 
 5280000    1.3392096   -3.3441332   -1.7843395   0.12517111   -3.3441332    1.5597937   565453 
 5281000    1.3395692   -3.3455864    -1.785429   0.12630568   -3.3455864    1.5601574   565473 
 5282000    1.3392012   -3.3455359   -1.7858816   0.11992974   -3.3455359    1.5596544   565500 
 5283000    1.3403402   -3.3468819   -1.7859701   0.12823585   -3.3468819    1.5609118   565525 
 5284000    1.3392794   -3.3453779   -1.7858339   0.12744829   -3.3453779     1.559544   565573 
 5285000    1.3393779   -3.3451783   -1.7855967   0.13023126   -3.3451783    1.5595815   565601 
 5286000    1.3394644   -3.3462338   -1.7866149    0.1303844   -3.3462338    1.5596189   565624 
 5287000    1.3375753   -3.3444753   -1.7871002   0.13429184   -3.3444753    1.5573752   565640 
 5288000     1.339098   -3.3456328   -1.7865232   0.13116448   -3.3456328    1.5591096   565654 
 5289000    1.3392314   -3.3468359   -1.7876373   0.13038464   -3.3468359    1.5591987   565678 
 5290000    1.3419462   -3.3499753   -1.7876684   0.12498781   -3.3499753    1.5623069   565697 
 5291000    1.3404323   -3.3479475   -1.7874528   0.12874973   -3.3479475    1.5604948   565715 
 5292000     1.339682   -3.3470328   -1.7875053   0.12860056   -3.3470328    1.5595275   565749 
 5293000    1.3404283   -3.3471724    -1.786856    0.1341385   -3.3471724    1.5603163   565778 
 5294000     1.341067   -3.3486785    -1.787649   0.12721902   -3.3486785    1.5610295   565789 
 5295000     1.340159   -3.3485556   -1.7886327   0.12016251   -3.3485556     1.559923   565807 
 5296000    1.3406537   -3.3496574   -1.7892055   0.12670208   -3.3496574    1.5604519   565824 
 5297000    1.3403182   -3.3502387   -1.7902077   0.12478369   -3.3502387    1.5600311   565835 
 5298000    1.3398335   -3.3490872   -1.7896947   0.13198395   -3.3490872    1.5593925   565862 
 5299000    1.3414692   -3.3503208   -1.7891018   0.12860219   -3.3503208    1.5612189   565890 
 5300000    1.3387733   -3.3483518   -1.7903557   0.13038912   -3.3483518    1.5579961   565921 
 5301000    1.3400447   -3.3496156    -1.790195    0.1220773   -3.3496156    1.5594205   565941 
 5302000    1.3389938   -3.3480424   -1.7899494   0.13223443   -3.3480424     1.558093   565979 
 5303000    1.3399685   -3.3482049   -1.7890714   0.13045797   -3.3482049    1.5591336   566013 
 5304000    1.3398641    -3.347658   -1.7887203   0.13487263    -3.347658    1.5589377   566040 
 5305000    1.3401163   -3.3480852   -1.7889339   0.13120071   -3.3480852    1.5591513   566069 
 5306000     1.342137   -3.3492105   -1.7877497   0.13209414   -3.3492105    1.5614609   566084 
 5307000    1.3401246   -3.3466971   -1.7876381   0.13344048   -3.3466971    1.5590591   566106 
 5308000    1.3402973   -3.3473289   -1.7881379   0.13176393   -3.3473289     1.559191   566131 
 5309000    1.3422453   -3.3492521   -1.7878334   0.13315076   -3.3492521    1.5614186   566145 
 5310000     1.339782   -3.3475778   -1.7891238   0.13254557   -3.3475778     1.558454   566181 
 5311000    1.3412212   -3.3492173   -1.7891305   0.12811806   -3.3492173    1.5600868   566196 
 5312000    1.3419479   -3.3494464   -1.7885833   0.13196042   -3.3494464    1.5608631   566221 
 5313000    1.3411207    -3.349052   -1.7892061   0.12864328    -3.349052    1.5598458   566241 
 5314000    1.3405203   -3.3481913   -1.7891181   0.13261756   -3.3481913    1.5590731   566268 
 5315000    1.3396355   -3.3479149   -1.7899561   0.13388005   -3.3479149    1.5579588   566299 
 5316000    1.3433544   -3.3516271   -1.7894398   0.12284991   -3.3516271    1.5621873   566334 
 5317000    1.3412062   -3.3496286   -1.7900083   0.12638856   -3.3496286    1.5596203   566359 
 5318000    1.3403442   -3.3498078   -1.7912835   0.12772454   -3.3498078    1.5585243   566393 
 5319000    1.3399662   -3.3495082   -1.7915115   0.12854769   -3.3495082    1.5579968   566425 
 5320000    1.3412691   -3.3495522   -1.7900873   0.12701861   -3.3495522    1.5594649   566442 
 5321000    1.3406112   -3.3499035   -1.7912805   0.12687786   -3.3499035     1.558623   566470 
 5322000     1.340292   -3.3494044   -1.7912599   0.13027323   -3.3494044    1.5581445   566509 
 5323000    1.3404543   -3.3501234   -1.7918067   0.13318122   -3.3501234    1.5583167   566515 
 5324000    1.3410915   -3.3497746   -1.7907997   0.13142234   -3.3497746    1.5589749   566545 
 5325000    1.3410198   -3.3498579   -1.7909938   0.13061259   -3.3498579    1.5588641   566555 
 5326000    1.3428284   -3.3513736   -1.7905146   0.13140413   -3.3513736    1.5608591   566594 
 5327000    1.3420561    -3.351253   -1.7913495   0.12753811    -3.351253    1.5599035   566615 
 5328000    1.3414008   -3.3504519   -1.7913679   0.13297211   -3.3504519    1.5590841   566636 
 5329000    1.3406681   -3.3506188   -1.7924716     0.133441   -3.3506188    1.5581473   566667 
 5330000    1.3408653   -3.3519212   -1.7935723   0.13157623   -3.3519212    1.5583489   566677 
 5331000    1.3406942   -3.3508795    -1.792779   0.13016063   -3.3508795    1.5581005   566695 
 5332000    1.3410349   -3.3514121   -1.7929925   0.13053911   -3.3514121    1.5584195   566723 
 5333000    1.3412515   -3.3512945   -1.7927167   0.12831164   -3.3512945    1.5585778   566757 
 5334000    1.3431557   -3.3529183   -1.7922297   0.12783549   -3.3529183    1.5606886   566794 
 5335000    1.3413232   -3.3512108   -1.7926983   0.13098979   -3.3512108    1.5585125   566811 
 5336000    1.3417254   -3.3523337   -1.7933896   0.12584402   -3.3523337    1.5589441   566824 
 5337000    1.3418589   -3.3519646   -1.7929533   0.13139964   -3.3519646    1.5590112   566856 
 5338000    1.3419803   -3.3516728   -1.7926277   0.12844175   -3.3516728     1.559045   566895 
 5339000    1.3419484   -3.3519361   -1.7930217   0.12703388   -3.3519361    1.5589144   566929 
 5340000    1.3420236    -3.353234   -1.7943284   0.12976305    -3.353234    1.5589056   566964 
 5341000    1.3413146   -3.3517846   -1.7937603   0.12651943   -3.3517846    1.5580242   566985 
 5342000    1.3412919   -3.3524372    -1.794519   0.13832356   -3.3524372    1.5579182   567014 
 5343000    1.3408309   -3.3525973    -1.795286   0.13361777   -3.3525973    1.5573114   567040 
 5344000    1.3423721   -3.3542695   -1.7952451   0.12452316   -3.3542695    1.5590244   567068 
 5345000    1.3413602   -3.3518547   -1.7940825   0.13003485   -3.3518547    1.5577723   567096 
 5346000     1.341004   -3.3518306   -1.7945407   0.13153242   -3.3518306    1.5572899   567121 
 5347000    1.3408915   -3.3534867   -1.7963604   0.13321437   -3.3534867    1.5571263   567133 
 5348000    1.3421502    -3.354614   -1.7960782   0.12898913    -3.354614    1.5585358   567152 
 5349000    1.3400057   -3.3525724   -1.7965597   0.12502219   -3.3525724    1.5560127   567164 
 5350000    1.3401851    -3.352331   -1.7961403   0.13020895    -3.352331    1.5561907   567175 
 5351000    1.3423056   -3.3546984   -1.7960783   0.12738808   -3.3546984    1.5586201   567187 
 5352000    1.3437192   -3.3563474   -1.7961685   0.12456108   -3.3563474     1.560179   567217 
 5353000    1.3434096   -3.3552142   -1.7954635   0.13048481   -3.3552142    1.5597507   567242 
 5354000    1.3433174   -3.3555613   -1.7959754   0.12544986   -3.3555613    1.5595859   567263 
 5355000    1.3422856   -3.3544058   -1.7960534   0.12380363   -3.3544058    1.5583523   567276 
 5356000    1.3446169   -3.3553818   -1.7944027   0.12824462   -3.3553818    1.5609791   567305 
 5357000    1.3425492   -3.3525729    -1.794008   0.13277396   -3.3525729    1.5585649   567310 
 5358000    1.3431404   -3.3544225   -1.7952124   0.12460398   -3.3544225    1.5592101   567325 
 5359000    1.3444578   -3.3546358   -1.7939543   0.12758257   -3.3546358    1.5606815   567346 
 5360000    1.3425528   -3.3534018   -1.7950139   0.13288545   -3.3534018    1.5583878   567376 
 5361000    1.3450735   -3.3562119   -1.7949834   0.12705561   -3.3562119    1.5612285   567407 
 5362000    1.3437832   -3.3547579   -1.7950463   0.13159977   -3.3547579    1.5597116   567414 
 5363000    1.3428342   -3.3534416   -1.7949085   0.12730974   -3.3534416    1.5585331   567442 
 5364000    1.3433967   -3.3538766   -1.7947483   0.13025628   -3.3538766    1.5591283   567463 
 5365000    1.3414098   -3.3512468   -1.7944848   0.13003778   -3.3512468     1.556762   567485 
 5366000     1.343254   -3.3532465   -1.7944019   0.12626321   -3.3532465    1.5588445   567506 
 5367000    1.3425947   -3.3525147   -1.7945341   0.12294039   -3.3525147    1.5579806   567542 
 5368000    1.3427778   -3.3534981   -1.7953818   0.12686798   -3.3534981    1.5581163   567570 
 5369000    1.3415598   -3.3530006   -1.7963251   0.13054827   -3.3530006    1.5566755   567580 
 5370000    1.3431248   -3.3540144   -1.7955861   0.12508031   -3.3540144    1.5584283   567603 
 5371000    1.3452054   -3.3567735   -1.7959668   0.12505305   -3.3567735    1.5608066   567616 
 5372000    1.3437393   -3.3554065   -1.7963943   0.13034319   -3.3554065    1.5590122   567650 
 5373000    1.3443878   -3.3568136   -1.7971562   0.12684593   -3.3568136    1.5596574   567689 
 5374000    1.3430911   -3.3561067   -1.7980085   0.12469234   -3.3561067    1.5580981   567709 
 5375000    1.3413563   -3.3539038   -1.7979032   0.12938666   -3.3539038    1.5560007   567740 
 5376000    1.3439435   -3.3568111   -1.7978559   0.12744196   -3.3568111    1.5589553   567757 
 5377000    1.3429342   -3.3548112   -1.7971118   0.12685628   -3.3548112    1.5576994   567788 
 5378000    1.3440983   -3.3553442   -1.7963302   0.13295874   -3.3553442     1.559014   567801 
 5379000    1.3440597   -3.3560307   -1.7971493   0.12528243   -3.3560307    1.5588814   567833 
 5380000    1.3422422    -3.354576   -1.7978602   0.13207296    -3.354576    1.5567158   567854 
 5381000    1.3455288   -3.3583105   -1.7978708   0.12791138   -3.3583105    1.5604397   567886 
 5382000     1.342413   -3.3561176   -1.7993654   0.13484493   -3.3561176    1.5567521   567913 
 5383000    1.3437136   -3.3566656    -1.798504   0.13729103   -3.3566656    1.5581616   567949 
 5384000     1.344911   -3.3572728   -1.7978023   0.13123127   -3.3572728    1.5594705   567978 
 5385000    1.3449822     -3.35771   -1.7982448   0.13115287     -3.35771    1.5594652   568010 
 5386000    1.3459328   -3.3585298   -1.7980751   0.13071208   -3.3585298    1.5604547   568051 
 5387000    1.3449913   -3.3583216   -1.7990463   0.13305614   -3.3583216    1.5592753   568083 
 5388000    1.3455821   -3.3597503   -1.7998449   0.12691533   -3.3597503    1.5599054   568103 
 5389000    1.3455537   -3.3581986    -1.798436   0.12939264   -3.3581986    1.5597626   568143 
 5390000    1.3468369    -3.359278   -1.7980883   0.13398457    -3.359278    1.5611896   568165 
 5391000    1.3435647   -3.3576178   -1.8003006   0.13532013   -3.3576178    1.5573172   568194 
 5392000    1.3450086   -3.3587181   -1.7998096   0.13387524   -3.3587181    1.5589085   568224 
 5393000    1.3454316   -3.3588953   -1.7995761   0.13227435   -3.3588953    1.5593192   568253 
 5394000    1.3450927   -3.3587194   -1.7998698   0.12525478   -3.3587194    1.5588495   568281 
 5395000    1.3460151   -3.3588743   -1.7990408   0.13120499   -3.3588743    1.5598335   568312 
 5396000    1.3439997    -3.357088   -1.7996751   0.13369488    -3.357088    1.5574129   568343 
 5397000    1.3457714   -3.3590393   -1.7996282   0.13364778   -3.3590393    1.5594112   568363 
 5398000    1.3470164    -3.360069   -1.7992702   0.13259247    -3.360069    1.5607988   568383 
 5399000    1.3451307   -3.3579371   -1.7994056   0.13496871   -3.3579371    1.5585316   568413 
 5400000    1.3460823   -3.3583635   -1.7987704   0.13430802   -3.3583635    1.5595931   568428 
 5401000    1.3472006   -3.3594979   -1.7986421   0.12620145   -3.3594979    1.5608558   568440 
 5402000    1.3457822    -3.357989   -1.7988453   0.13268101    -3.357989    1.5591438   568465 
 5403000    1.3454932   -3.3570523   -1.7982762   0.12755503   -3.3570523    1.5587761   568477 
 5404000    1.3460531   -3.3580148   -1.7986697   0.13670096   -3.3580148    1.5593452   568506 
 5405000    1.3458328   -3.3590704    -1.800016   0.13313611   -3.3590704    1.5590544   568519 
 5406000    1.3470326   -3.3611268   -1.8007128    0.1254818   -3.3611268    1.5604141   568530 
 5407000    1.3468397   -3.3601385   -1.7999781   0.13176241   -3.3601385    1.5601604   568541 
 5408000    1.3455614   -3.3604931   -1.8018765     0.126539   -3.3604931    1.5586166   568564 
 5409000    1.3455797   -3.3595004   -1.8009778   0.12883178   -3.3595004    1.5585226   568606 
 5410000    1.3453836   -3.3586975    -1.800487    0.1278268   -3.3586975    1.5582106   568637 
 5411000    1.3476259   -3.3616084   -1.8008638   0.12981694   -3.3616084    1.5607445   568660 
 5412000    1.3474204   -3.3604559    -1.800029   0.13066443   -3.3604559    1.5604269   568689 
 5413000     1.345553   -3.3587667   -1.8005545   0.12999466   -3.3587667    1.5582122   568708 
 5414000    1.3454171   -3.3585485   -1.8005456   0.13421671   -3.3585485    1.5580028   568727 
 5415000    1.3465509   -3.3590334   -1.7997616   0.13741584   -3.3590334    1.5592718   568743 
 5416000    1.3480579    -3.360435   -1.7994264   0.12717409    -3.360435    1.5610087   568746 
 5417000    1.3447319   -3.3573022   -1.8001696   0.14181929   -3.3573022    1.5571326   568755 
 5418000    1.3482554   -3.3623792   -1.8012681   0.12753613   -3.3623792    1.5611111   568792 
 5419000    1.3469798   -3.3605914   -1.8010175   0.12688252   -3.3605914    1.5595739   568814 
 5420000    1.3475907   -3.3609185   -1.8007279   0.12840599   -3.3609185    1.5601906   568847 
 5421000    1.3469399   -3.3599779   -1.8006038   0.13573846   -3.3599779    1.5593741   568870 
 5422000    1.3475027   -3.3606025    -1.800618   0.13634376   -3.3606025    1.5599845   568885 
 5423000    1.3476181   -3.3602345   -1.8001877   0.13024763   -3.3602345    1.5600468   568911 
 5424000    1.3470435   -3.3602431   -1.8009189   0.13395576   -3.3602431    1.5593241   568932 
 5425000    1.3465686   -3.3594796   -1.8007519   0.13189352   -3.3594796    1.5587278   568949 
 5426000    1.3473174   -3.3607321   -1.8011897   0.13304676   -3.3607321    1.5595424   568968 
 5427000    1.3492036   -3.3624876    -1.800792   0.13145888   -3.3624876    1.5616956   568979 
 5428000    1.3477789   -3.3607866   -1.8007922   0.13012689   -3.3607866    1.5599944   568998 
 5429000    1.3507224   -3.3631944   -1.7998892   0.13286963   -3.3631944    1.5633052   569033 
 5430000    1.3498681   -3.3621689    -1.799965   0.12480061   -3.3621689    1.5622039   569074 
 5431000    1.3481958   -3.3609741   -1.8007494   0.13631678   -3.3609741    1.5602247   569090 
 5432000    1.3466822    -3.360195    -1.801763   0.13230349    -3.360195    1.5584319   569105 
 5433000    1.3496127   -3.3624245   -1.8006149   0.12992108   -3.3624245    1.5618096   569110 
 5434000     1.348351   -3.3603777   -1.8000831   0.13323939   -3.3603777    1.5602946   569130 
 5435000    1.3482845   -3.3607464   -1.8005973   0.13298213   -3.3607464    1.5601492   569155 
 5436000    1.3483558   -3.3601792   -1.7999859   0.13504119   -3.3601792    1.5601933   569169 
 5437000    1.3495141   -3.3633639   -1.8019045   0.13180347   -3.3633639    1.5614595   569196 
 5438000    1.3467453   -3.3609807   -1.8027852   0.13443033   -3.3609807    1.5581956   569218 
 5439000    1.3471502   -3.3604363   -1.8018379    0.1318228   -3.3604363    1.5585984   569242 
 5440000     1.346419   -3.3605344   -1.8028176   0.13414596   -3.3605344    1.5577168   569255 
 5441000    1.3477909    -3.363061   -1.8038473    0.1259267    -3.363061    1.5592137   569288 
 5442000    1.3473144   -3.3619841   -1.8033874   0.13067511   -3.3619841    1.5585967   569312 
 5443000    1.3482923   -3.3629057   -1.8032489   0.12968973   -3.3629057    1.5596567   569338 
 5444000    1.3478602   -3.3620498   -1.8029368   0.13328837   -3.3620498     1.559113   569354 
 5445000     1.346351   -3.3613109   -1.8039929   0.13687603   -3.3613109     1.557318   569372 
 5446000    1.3492746   -3.3645794   -1.8039289    0.1313826   -3.3645794    1.5606505   569390 
 5447000    1.3468615   -3.3618976   -1.8041039   0.13361226   -3.3618976    1.5577937   569414 
 5448000    1.3472952   -3.3626239   -1.8044435    0.1382515   -3.3626239    1.5581804   569456 
 5449000    1.3473412   -3.3625058   -1.8042942   0.13840337   -3.3625058    1.5582116   569464 
 5450000    1.3479444   -3.3632537   -1.8043855   0.13096179   -3.3632537    1.5588682   569479 
 5451000    1.3466737   -3.3628702   -1.8055481      0.13556   -3.3628702    1.5573221   569507 
 5452000    1.3467175   -3.3630449    -1.805675   0.13037058   -3.3630449      1.55737   569508 
 5453000     1.346942   -3.3628553   -1.8052749   0.13250417   -3.3628553    1.5575804   569526 
 5454000    1.3483412   -3.3640564   -1.8049183   0.12862175   -3.3640564    1.5591382   569548 
 5455000     1.347778   -3.3637083   -1.8052652   0.13338694   -3.3637083    1.5584431   569564 
 5456000     1.346266   -3.3626517    -1.806017   0.12935188   -3.3626517    1.5566346   569586 
 5457000    1.3477522   -3.3641042   -1.8058496   0.13029394   -3.3641042    1.5582546   569622 
 5458000    1.3464395   -3.3628838   -1.8061989   0.12966551   -3.3628838    1.5566849   569641 
 5459000    1.3470855   -3.3633091   -1.8059183   0.12716416   -3.3633091    1.5573908   569656 
 5460000    1.3478213    -3.364668   -1.8065113   0.13207785    -3.364668    1.5581567   569687 
 5461000    1.3497531   -3.3655109   -1.8051756   0.13230555   -3.3655109    1.5603353   569707 
 5462000    1.3488211   -3.3640501   -1.8048798   0.14003565   -3.3640501    1.5591703   569739 
 5463000    1.3492452   -3.3649557   -1.8053664   0.13004207   -3.3649557    1.5595893   569765 
 5464000    1.3489267   -3.3648886   -1.8057222   0.13151222   -3.3648886    1.5591664   569785 
 5465000    1.3484129   -3.3646168   -1.8060497   0.13198133   -3.3646168    1.5585671   569787 
 5466000    1.3484486   -3.3639415   -1.8053688   0.13635663   -3.3639415    1.5585728   569800 
 5467000    1.3497454   -3.3648293   -1.8048125   0.13470179   -3.3648293    1.5600169   569820 
 5468000    1.3468818   -3.3623611   -1.8056784   0.13687588   -3.3623611    1.5566826   569829 
 5469000    1.3474581   -3.3652597   -1.8079793   0.13076959   -3.3652597    1.5572804   569854 
 5470000    1.3502687   -3.3679285   -1.8074163   0.13540172   -3.3679285    1.5605122   569860 
 5471000    1.3470642   -3.3637975   -1.8070352   0.13007236   -3.3637975    1.5567623   569877 
 5472000    1.3454511   -3.3640241   -1.8091561   0.13407425   -3.3640241     1.554868   569888 
 5473000    1.3469067   -3.3642789   -1.8078161   0.13528638   -3.3642789    1.5564628   569920 
 5474000    1.3464215   -3.3647036   -1.8088915   0.12747735   -3.3647036    1.5558121   569953 
 5475000    1.3475879   -3.3664842   -1.8093762    0.1273344   -3.3664842     1.557108   569972 
 5476000    1.3477532   -3.3655438   -1.8082804   0.12785519   -3.3655438    1.5572634   569985 
 5477000    1.3466977   -3.3650688   -1.8090796   0.13323884   -3.3650688    1.5559893   570005 
 5478000    1.3473311   -3.3659104   -1.8092221   0.12677667   -3.3659104    1.5566883   570017 
 5479000    1.3484324    -3.366756     -1.80885   0.13059184    -3.366756     1.557906   570037 
 5480000    1.3508854    -3.368699   -1.8079973   0.12401771    -3.368699    1.5607018   570051 
 5481000    1.3493362   -3.3680267   -1.8091858   0.12878406   -3.3680267    1.5588409   570077 
 5482000    1.3499147   -3.3677566   -1.8083131    0.1336051   -3.3677566    1.5594435   570101 
 5483000    1.3483709   -3.3672074   -1.8096292   0.13295044   -3.3672074    1.5575782   570131 
 5484000    1.3489357   -3.3679053   -1.8097403   0.13013379   -3.3679053     1.558165   570155 
 5485000    1.3487588    -3.367361   -1.8094578   0.12775939    -3.367361    1.5579033   570176 
 5486000     1.348468   -3.3671446   -1.8096319   0.13407603   -3.3671446    1.5575128   570196 
 5487000    1.3500637    -3.369098   -1.8097831   0.13005557    -3.369098    1.5593148   570211 
 5488000    1.3486316   -3.3667653   -1.8091674   0.13808561   -3.3667653    1.5575979   570234 
 5489000     1.349398   -3.3686136   -1.8101906   0.13313209   -3.3686136    1.5584229   570256 
 5490000    1.3492578   -3.3679013   -1.8096758   0.12854937   -3.3679013    1.5582255   570269 
 5491000    1.3488291   -3.3677877    -1.810112   0.13722955   -3.3677877    1.5576757   570289 
 5492000    1.3479481   -3.3670688   -1.8104678   0.12902321   -3.3670688     1.556601   570310 
 5493000    1.3482189   -3.3666871   -1.8098279    0.1324767   -3.3666871    1.5568592   570330 
 5494000    1.3507876   -3.3697324   -1.8099973   0.12543035   -3.3697324    1.5597351   570363 
 5495000    1.3513653   -3.3696379   -1.8093178   0.13325185   -3.3696379    1.5603201   570393 
 5496000    1.3502193   -3.3684239   -1.8094653   0.13346442   -3.3684239    1.5589587   570407 
 5497000    1.3480396   -3.3667126   -1.8103278   0.13173457   -3.3667126    1.5563847   570428 
 5498000    1.3485118   -3.3665972   -1.8097274   0.13378174   -3.3665972    1.5568698   570450 
 5499000    1.3485812   -3.3673285   -1.8104332   0.13384715   -3.3673285    1.5568953   570470 
 5500000    1.3504648    -3.367698   -1.8086854   0.12859024    -3.367698    1.5590125   570491 
 5501000    1.3488238     -3.36773   -1.8106993   0.12712181     -3.36773    1.5570308   570523 
 5502000    1.3473395   -3.3666672   -1.8113935   0.13423287   -3.3666672    1.5552737   570539 
 5503000    1.3498252   -3.3691771   -1.8110969   0.13365862   -3.3691771    1.5580802   570562 
 5504000    1.3495805    -3.368664   -1.8109454   0.12811766    -3.368664    1.5577187   570591 
 5505000    1.3486915   -3.3682702   -1.8116732   0.13087083   -3.3682702     1.556597   570626 
 5506000    1.3493289     -3.36896   -1.8116927   0.13070527     -3.36896    1.5572672   570650 
 5507000    1.3471675   -3.3666998   -1.8119952   0.13239038   -3.3666998    1.5547046   570675 
 5508000    1.3483334   -3.3689936   -1.8130117    0.1301228   -3.3689936    1.5559819   570700 
 5509000    1.3479103   -3.3681358   -1.8127238   0.12911397   -3.3681358     1.555412   570730 
 5510000     1.348377   -3.3685885   -1.8126789   0.13476018   -3.3685885    1.5559096   570745 
 5511000    1.3483851   -3.3690124   -1.8131261   0.12537295   -3.3690124    1.5558863   570757 
 5512000    1.3490266   -3.3696599   -1.8130771   0.12968741   -3.3696599    1.5565828   570773 
 5513000    1.3485564   -3.3686044    -1.812605   0.13151947   -3.3686044    1.5559994   570788 
 5514000    1.3506739   -3.3714618   -1.8130875   0.13381213   -3.3714618    1.5583743   570813 
 5515000    1.3495173   -3.3703087   -1.8133207   0.13087497   -3.3703087     1.556988   570832 
 5516000    1.3508372    -3.371768   -1.8133363   0.12683353    -3.371768    1.5584317   570861 
 5517000    1.3501036   -3.3705302   -1.8129666   0.13001752   -3.3705302    1.5575636   570869 
 5518000    1.3522473   -3.3732674   -1.8133155   0.13065902   -3.3732674    1.5599519   570900 
 5519000    1.3497608   -3.3704258   -1.8133888    0.1392592   -3.3704258    1.5570371   570917 
 5520000    1.3495919   -3.3712582   -1.8144732   0.13757892   -3.3712582     1.556785   570938 
 5521000    1.3500849   -3.3725204   -1.8152348   0.13337261   -3.3725204    1.5572856   570963 
 5522000    1.3481205   -3.3704881   -1.8155257   0.13830893   -3.3704881    1.5549624   570984 
 5523000    1.3478792   -3.3697853   -1.8151856   0.13186379   -3.3697853    1.5545997   571015 
 5524000    1.3501603     -3.37234   -1.8151529   0.13478537     -3.37234    1.5571871   571031 
 5525000    1.3486635    -3.371508   -1.8160854   0.13058721    -3.371508    1.5554226   571045 
 5526000    1.3505371   -3.3731219   -1.8155985   0.12973957   -3.3731219    1.5575234   571067 
 5527000    1.3498327   -3.3731557   -1.8164991   0.12605802   -3.3731557    1.5566566   571087 
 5528000     1.350085   -3.3721732   -1.8152584   0.13070353   -3.3721732    1.5569148   571099 
 5529000    1.3503207   -3.3734532   -1.8162993   0.13474405   -3.3734532    1.5571539   571111 
 5530000    1.3476186   -3.3708151   -1.8168426    0.1328974   -3.3708151    1.5539726   571135 
 5531000    1.3502252   -3.3739121   -1.8169911   0.13444769   -3.3739121     1.556921   571156 
 5532000    1.3488521   -3.3724824   -1.8172072    0.1346331   -3.3724824    1.5552752   571179 
 5533000    1.3492325   -3.3735175   -1.8178664   0.12768472   -3.3735175    1.5556511   571202 
 5534000    1.3490806   -3.3729861   -1.8175808   0.12652427   -3.3729861    1.5554052   571228 
 5535000    1.3503009    -3.374049    -1.817305   0.12812858    -3.374049     1.556744   571253 
 5536000    1.3518075   -3.3750209   -1.8166082   0.12967523   -3.3750209    1.5584127   571278 
 5537000    1.3517231   -3.3739629   -1.8157375   0.13067634   -3.3739629    1.5582254   571311 
 5538000    1.3516867   -3.3728872    -1.814761   0.13437455   -3.3728872    1.5581262   571332 
 5539000    1.3523357   -3.3731493   -1.8143624   0.13765885   -3.3731493     1.558787   571364 
 5540000    1.3513086   -3.3734488   -1.8159138   0.12937763   -3.3734488    1.5575349   571389 
 5541000    1.3525689   -3.3744175   -1.8154954   0.13146186   -3.3744175    1.5589221   571413 
 5542000    1.3527258   -3.3749082   -1.8158626    0.1343793   -3.3749082    1.5590456   571434 
 5543000     1.351316   -3.3731052   -1.8157661   0.13884062   -3.3731052    1.5573391   571464 
 5544000    1.3530084   -3.3753045   -1.8160778   0.12960223   -3.3753045    1.5592268   571487 
 5545000    1.3514516   -3.3745547   -1.8171765   0.13686007   -3.3745547    1.5573782   571507 
 5546000    1.3519385   -3.3753571   -1.8174805   0.12798876   -3.3753571    1.5578765   571530 
 5547000    1.3523329   -3.3769896   -1.8187486   0.12766712   -3.3769896     1.558241   571563 
 5548000    1.3502008   -3.3743555   -1.8186094    0.1311854   -3.3743555    1.5557462   571577 
 5549000    1.3494595   -3.3740004   -1.8191764     0.131389   -3.3740004     1.554824   571602 
 5550000    1.3506374   -3.3758397   -1.8197647   0.12509308   -3.3758397     1.556075   571641 
 5551000    1.3493078   -3.3740352   -1.8195273    0.1272387   -3.3740352    1.5545079   571654 
 5552000    1.3500588   -3.3752021   -1.8199025   0.12940372   -3.3752021    1.5552996   571681 
 5553000    1.3506801   -3.3757284   -1.8197703   0.13179699   -3.3757284    1.5559582   571702 
 5554000    1.3499402   -3.3742337   -1.8191741   0.13434119   -3.3742337    1.5550596   571719 
 5555000    1.3506672   -3.3762574   -1.8203793   0.12595064   -3.3762574     1.555878   571726 
 5556000    1.3505941   -3.3751277   -1.8194129   0.12836361   -3.3751277    1.5557149   571755 
 5557000    1.3516901   -3.3769869   -1.8200586   0.13331962   -3.3769869    1.5569283   571773 
 5558000    1.3520725   -3.3778513   -1.8205342    0.1352642   -3.3778513    1.5573171   571792 
 5559000    1.3544528   -3.3790882   -1.8191059   0.12859738   -3.3790882    1.5599823   571820 
 5560000     1.352965   -3.3769659   -1.8187816    0.1247438   -3.3769659    1.5581843   571851 
 5561000    1.3514405   -3.3749486   -1.8185582   0.13989966   -3.3749486    1.5563904   571865 
 5562000    1.3522579   -3.3767861   -1.8195334   0.13768114   -3.3767861    1.5572527   571894 
 5563000    1.3521135   -3.3776286   -1.8205857   0.13234116   -3.3776286     1.557043   571910 
 5564000    1.3511156   -3.3771698    -1.821295   0.13811669   -3.3771698    1.5558748   571917 
 5565000    1.3522175   -3.3782043   -1.8211505   0.13124751   -3.3782043    1.5570538   571950 
 5566000    1.3518176    -3.377896   -1.8213571    0.1325402    -3.377896    1.5565389   571970 
 5567000    1.3523417    -3.378547     -1.82147   0.12661136    -3.378547    1.5570771   571994 
 5568000     1.350243   -3.3765626   -1.8219536   0.12932297   -3.3765626     1.554609   572013 
 5569000    1.3496606   -3.3755895   -1.8217081   0.12908509   -3.3755895    1.5538814   572034 
 5570000    1.3506117   -3.3749829   -1.8200744   0.13292575   -3.3749829    1.5549084   572059 
 5571000    1.3526258    -3.378305   -1.8211405   0.13309263    -3.378305    1.5571646   572082 
 5572000    1.3526142   -3.3780306    -1.820942   0.12845037   -3.3780306    1.5570887   572105 
 5573000    1.3522423   -3.3775203   -1.8209033   0.13206018   -3.3775203     1.556617   572121 
 5574000     1.352155   -3.3772446    -1.820807   0.13686116   -3.3772446    1.5564376   572150 
 5575000    1.3516246   -3.3758992   -1.8201102   0.13244413   -3.3758992     1.555789   572164 
 5576000    1.3520158   -3.3773251   -1.8211321   0.13079697   -3.3773251     1.556193   572181 
 5577000    1.3525529   -3.3787285   -1.8219988   0.12874066   -3.3787285    1.5567296   572211 
 5578000    1.3509095   -3.3763646   -1.8215916   0.13571604   -3.3763646     1.554773   572235 
 5579000    1.3523762   -3.3778101   -1.8214444   0.12808848   -3.3778101    1.5563657   572270 
 5580000    1.3518773   -3.3769097   -1.8211562   0.12860315   -3.3769097    1.5557536   572284 
 5581000    1.3511058   -3.3762851   -1.8214602   0.13466468   -3.3762851     1.554825   572299 
 5582000    1.3554588   -3.3805201   -1.8207267   0.13267371   -3.3805201    1.5597934   572314 
 5583000    1.3523972   -3.3784527   -1.8222749   0.13570783   -3.3784527    1.5561778   572348 
 5584000    1.3530138   -3.3799649   -1.8230965   0.12706569   -3.3799649    1.5568684   572355 
 5585000     1.350879   -3.3780074   -1.8236662   0.13256035   -3.3780074    1.5543412   572381 
 5586000     1.351433   -3.3779942   -1.8230454   0.13167177   -3.3779942    1.5549488   572392 
 5587000    1.3541087   -3.3805776   -1.8226073   0.12917149   -3.3805776    1.5579703   572413 
 5588000    1.3527886   -3.3796017   -1.8231828   0.13520714   -3.3796017    1.5564188   572425 
 5589000     1.353357   -3.3804348   -1.8234219   0.12992843   -3.3804348    1.5570129   572447 
 5590000    1.3522702   -3.3798941   -1.8241805   0.12843404   -3.3798941    1.5557137   572465 
 5591000    1.3523202   -3.3803827   -1.8246632   0.13272861   -3.3803827    1.5557195   572484 
 5592000    1.3530289   -3.3811779   -1.8247219   0.12611484   -3.3811779    1.5564561   572513 
 5593000    1.3524198   -3.3796913   -1.8239958   0.13203599   -3.3796913    1.5556955   572535 
 5594000    1.3530155   -3.3804023   -1.8240568   0.13403555   -3.3804023    1.5563455   572548 
 5595000    1.3520712   -3.3800929    -1.824888   0.13008609   -3.3800929    1.5552049   572568 
 5596000    1.3505085   -3.3789934     -1.82567   0.13302308   -3.3789934    1.5533234   572599 
 5597000    1.3525937    -3.379892   -1.8242545   0.13334926    -3.379892    1.5556375   572630 
 5598000    1.3519067   -3.3792881    -1.824506    0.1303387   -3.3792881    1.5547821   572654 
 5599000    1.3521232   -3.3800907   -1.8251247   0.13189511   -3.3800907     1.554966   572678 
 5600000    1.3511121   -3.3793405   -1.8255807   0.13616131   -3.3793405    1.5537598   572694 
 5601000     1.352609   -3.3800776   -1.8246262   0.12941984   -3.3800776    1.5554514   572705 
 5602000    1.3526367   -3.3804351   -1.8250252   0.13348302   -3.3804351    1.5554099   572732 
 5603000    1.3541889    -3.381721   -1.8245725   0.12858291    -3.381721    1.5571485   572749 
 5604000     1.352009   -3.3792897   -1.8246859    0.1308807   -3.3792897    1.5546039   572763 
 5605000    1.3545368   -3.3825112   -1.8250469   0.12861009   -3.3825112    1.5574643   572780 
 5606000    1.3534129   -3.3798823   -1.8237783   0.13570303   -3.3798823    1.5561041   572805 
 5607000    1.3554611   -3.3818883   -1.8234783   0.12649145   -3.3818883      1.55841   572823 
 5608000    1.3547392   -3.3795449   -1.8220002    0.1425546   -3.3795449    1.5575448   572836 
 5609000    1.3550916   -3.3804216   -1.8225695   0.13777481   -3.3804216     1.557852   572872 
 5610000    1.3532128   -3.3791913   -1.8235182   0.13369538   -3.3791913    1.5556731   572879 
 5611000    1.3521783   -3.3788385   -1.8244144   0.13569081   -3.3788385    1.5544241   572901 
 5612000    1.3551955   -3.3817668   -1.8239015   0.12706601   -3.3817668    1.5578654   572911 
 5613000    1.3551558   -3.3822423   -1.8245014   0.13230178   -3.3822423    1.5577409   572940 
 5614000    1.3531146   -3.3800378   -1.8246948   0.13601235   -3.3800378     1.555343   572959 
 5615000    1.3545386   -3.3815619   -1.8246201   0.13023763   -3.3815619    1.5569418   572973 
 5616000     1.353922    -3.382186   -1.8260154   0.13040082    -3.382186    1.5561706   572996 
 5617000    1.3533684   -3.3813158   -1.8258548   0.13377397   -3.3813158     1.555461   573023 
 5618000    1.3526106   -3.3806726   -1.8261693   0.13022196   -3.3806726    1.5545032   573055 
 5619000    1.3545808    -3.383012   -1.8263206   0.12745226    -3.383012    1.5566914   573083 
 5620000    1.3535624   -3.3829032   -1.8274419   0.12984558   -3.3829032    1.5554613   573105 
 5621000    1.3530986   -3.3820303   -1.8271426   0.13257603   -3.3820303    1.5548876   573120 
 5622000    1.3513894   -3.3810064   -1.8281425    0.1339065   -3.3810064    1.5528639   573142 
 5623000     1.352927   -3.3818879   -1.8273222   0.13310106   -3.3818879    1.5545657   573166 
 5624000    1.3536209   -3.3823286   -1.8270605   0.13559319   -3.3823286    1.5552681   573201 
 5625000    1.3540246   -3.3826014   -1.8269075   0.12922089   -3.3826014    1.5556939   573215 
 5626000    1.3537143   -3.3820663   -1.8268022   0.13739403   -3.3820663    1.5552641   573242 
 5627000    1.3518643   -3.3816996   -1.8286287   0.13377363   -3.3816996     1.553071   573267 
 5628000    1.3526708   -3.3820988   -1.8281691   0.13302114   -3.3820988    1.5539297   573292 
 5629000    1.3540105   -3.3827893   -1.8274129   0.13088162   -3.3827893    1.5553765   573326 
 5630000    1.3554784   -3.3835971   -1.8265969   0.13358415   -3.3835971    1.5570002   573349 
 5631000    1.3546598   -3.3832762   -1.8272733   0.12939158   -3.3832762     1.556003   573370 
 5632000    1.3553229   -3.3848698    -1.828154    0.1281502   -3.3848698    1.5567157   573388 
 5633000    1.3535446   -3.3823425   -1.8277399   0.13437376   -3.3823425    1.5546027   573414 
 5634000    1.3541724   -3.3844375   -1.8291544   0.12876054   -3.3844375    1.5552831   573429 
 5635000    1.3538888   -3.3835787   -1.8286756     0.126916   -3.3835787    1.5549031   573449 
 5636000    1.3534248    -3.383488   -1.8291693   0.13048542    -3.383488    1.5543187   573468 
 5637000    1.3543683   -3.3851638   -1.8298375     0.131059   -3.3851638    1.5553263   573496 
 5638000    1.3530322   -3.3838518   -1.8301059   0.13213455   -3.3838518    1.5537459   573513 
 5639000     1.355211    -3.386136   -1.8299179   0.13096594    -3.386136    1.5562181   573524 
 5640000    1.3525418   -3.3825014    -1.829454   0.13984671   -3.3825014    1.5530474   573563 
 5641000    1.3544061   -3.3843476   -1.8291976   0.13262781   -3.3843476      1.55515   573577 
 5642000    1.3542587   -3.3845219   -1.8295953   0.13536998   -3.3845219    1.5549266   573597 
 5643000    1.3547673   -3.3843922    -1.828944    0.1359701   -3.3843922    1.5554482   573620 
 5644000    1.3534331    -3.382921   -1.8290426   0.13708756    -3.382921    1.5538784   573634 
 5645000    1.3546686   -3.3848552   -1.8296612   0.13344322   -3.3848552    1.5551939   573672 
 5646000    1.3553391   -3.3849341   -1.8289759   0.13404371   -3.3849341    1.5559582   573674 
 5647000    1.3550542   -3.3853575   -1.8297969   0.12840327   -3.3853575    1.5555607   573700 
 5648000    1.3542814   -3.3853683   -1.8307652   0.13581962   -3.3853683    1.5546031   573726 
 5649000    1.3554194   -3.3854738   -1.8296539   0.13430573   -3.3854738    1.5558199   573759 
 5650000    1.3546564   -3.3849545   -1.8300727   0.13123095   -3.3849545    1.5548818   573782 
 5651000    1.3542402   -3.3853531   -1.8310033   0.13139868   -3.3853531    1.5543498   573802 
 5652000    1.3566576   -3.3880161   -1.8309567   0.12500321   -3.3880161    1.5570594   573826 
 5653000    1.3549376   -3.3851915   -1.8301713   0.13346973   -3.3851915    1.5550202   573850 
 5654000    1.3548837    -3.385978   -1.8310712   0.12906489    -3.385978    1.5549068   573869 
 5655000    1.3555387   -3.3879547   -1.8323286   0.12378734   -3.3879547    1.5556261   573881 
 5656000    1.3547905   -3.3867351   -1.8320165   0.13202762   -3.3867351    1.5547186   573899 
 5657000    1.3552398   -3.3872336   -1.8320671   0.13353353   -3.3872336    1.5551665   573924 
 5658000    1.3534262   -3.3855957    -1.832559   0.12962571   -3.3855957    1.5530367   573942 
 5659000    1.3547715   -3.3871268   -1.8326331   0.12705132   -3.3871268    1.5544937   573974 
 5660000    1.3567018   -3.3886164   -1.8319675   0.13134282   -3.3886164    1.5566489   573996 
 5661000    1.3560128   -3.3875747   -1.8317651   0.12831437   -3.3875747    1.5558096   574014 
 5662000    1.3548033   -3.3874367   -1.8330555   0.12806393   -3.3874367    1.5543812   574029 
 5663000    1.3546042   -3.3864868   -1.8324287   0.13083371   -3.3864868    1.5540581   574064 
 5664000    1.3538412   -3.3866084   -1.8335095   0.13293176   -3.3866084    1.5530989   574095 
 5665000     1.355228   -3.3882769   -1.8336386   0.13058887   -3.3882769    1.5546382   574114 
 5666000    1.3535166   -3.3871639    -1.834524   0.13520439   -3.3871639    1.5526399   574127 
 5667000    1.3546245   -3.3886909   -1.8348586   0.13465698   -3.3886909    1.5538323   574156 
 5668000     1.354933   -3.3889416    -1.834769   0.13363495   -3.3889416    1.5541727   574161 
 5669000     1.355901   -3.3903021   -1.8350814   0.12978329   -3.3903021    1.5552207   574184 
 5670000    1.3540933   -3.3879768   -1.8348485   0.13547504   -3.3879768    1.5531283   574191 
 5671000    1.3536788   -3.3891396     -1.83653   0.12861836   -3.3891396    1.5526096   574207 
 5672000    1.3532061   -3.3878894   -1.8358625   0.13373196   -3.3878894    1.5520269   574222 
 5673000    1.3542661   -3.3893802   -1.8361944   0.12978648   -3.3893802    1.5531858   574243 
 5674000    1.3539621   -3.3892153   -1.8364375   0.13034779   -3.3892153    1.5527778   574265 
 5675000    1.3546559   -3.3885227   -1.8350142   0.13054458   -3.3885227    1.5535085   574289 
 5676000    1.3551214    -3.390649   -1.8366906   0.12592067    -3.390649    1.5539584   574320 
 5677000    1.3538755   -3.3887782   -1.8363026   0.13010876   -3.3887782    1.5524756   574340 
 5678000    1.3554639   -3.3900031   -1.8357439   0.12972157   -3.3900031    1.5542592   574354 
 5679000    1.3556437   -3.3903829   -1.8359988   0.13118519   -3.3903829    1.5543841   574384 
 5680000    1.3550193   -3.3902668   -1.8366771   0.12356448   -3.3902668    1.5535898   574413 
 5681000    1.3555171   -3.3908478   -1.8367874   0.12580355   -3.3908478    1.5540605   574450 
 5682000    1.3569357   -3.3905663   -1.8349066   0.12634711   -3.3905663    1.5556597   574460 
 5683000    1.3541877   -3.3875252   -1.8350727   0.13496556   -3.3875252    1.5524525   574481 
 5684000    1.3563115   -3.3892509   -1.8344664   0.13296173   -3.3892509    1.5547844   574519 
 5685000    1.3566236   -3.3908769    -1.835778   0.13539262   -3.3908769    1.5550989   574535 
 5686000    1.3553781   -3.3891046   -1.8355092   0.13641752   -3.3891046    1.5535954   574563 
 5687000      1.35548   -3.3902563   -1.8365873   0.13639068   -3.3902563     1.553669   574579 
 5688000    1.3567828   -3.3916927   -1.8365981   0.12242501   -3.3916927    1.5550946   574604 
 5689000    1.3567079   -3.3914471    -1.836506    0.1296891   -3.3914471    1.5549411   574629 
 5690000    1.3562521   -3.3907857   -1.8364509     0.135504   -3.3907857    1.5543349   574660 
 5691000    1.3567632   -3.3924832   -1.8375977   0.13462925   -3.3924832    1.5548854   574673 
 5692000    1.3550417   -3.3911202   -1.8382563   0.13003338   -3.3911202    1.5528639   574691 
 5693000    1.3552747   -3.3915149   -1.8384407   0.12789703   -3.3915149    1.5530742   574712 
 5694000    1.3546308   -3.3920616   -1.8398117   0.13674819   -3.3920616    1.5522499   574744 
 5695000    1.3556138   -3.3923429   -1.8390234   0.13011031   -3.3923429    1.5533195   574765 
 5696000    1.3566508    -3.392638   -1.8382113   0.12855716    -3.392638    1.5544267   574795 
 5697000    1.3565361   -3.3918583   -1.8375955   0.13348176   -3.3918583    1.5542628   574807 
 5698000    1.3576206   -3.3928839   -1.8374461   0.13827989   -3.3928839    1.5554377   574832 
 5699000    1.3571997   -3.3929673   -1.8380444   0.12898781   -3.3929673     1.554923   574844 
 5700000    1.3541531   -3.3898099   -1.8384502   0.13291759   -3.3898099    1.5513597   574871 
 5701000    1.3570262   -3.3924445   -1.8378555   0.13395961   -3.3924445     1.554589   574894 
 5702000    1.3566457   -3.3917386   -1.8376207   0.13552508   -3.3917386    1.5541179   574907 
 5703000    1.3557379   -3.3908184   -1.8377918   0.12971154   -3.3908184    1.5530266   574926 
 5704000    1.3574143   -3.3932455   -1.8383445   0.12751645   -3.3932455     1.554901   574943 
 5705000    1.3572843   -3.3930931   -1.8383815    0.1338092   -3.3930931    1.5547116   574958 
 5706000     1.355467   -3.3905714   -1.8379712    0.1388961   -3.3905714    1.5526002   574969 
 5707000    1.3556975   -3.3908388   -1.8380475    0.1325681   -3.3908388    1.5527913   574996 
 5708000    1.3566023   -3.3918026   -1.8380371   0.13254127   -3.3918026    1.5537656   575019 
 5709000    1.3568297   -3.3919908       -1.838   0.13005123   -3.3919908    1.5539908   575032 
 5710000     1.358071   -3.3933826   -1.8380161   0.13159533   -3.3933826    1.5553665   575049 
 5711000    1.3564573   -3.3917678   -1.8383034   0.13204129   -3.3917678    1.5534643   575069 
 5712000    1.3555067   -3.3912291   -1.8389235   0.13446121   -3.3912291    1.5523055   575095 
 5713000    1.3561502   -3.3913438    -1.838358   0.13549708   -3.3913438    1.5529858   575116 
 5714000    1.3576538   -3.3926851   -1.8380018   0.13041141   -3.3926851    1.5546833   575125 
 5715000      1.35706    -3.391443   -1.8374749   0.13243592    -3.391443    1.5539681   575138 
 5716000    1.3565963   -3.3911143   -1.8377257   0.14111288   -3.3911143    1.5533886   575156 
 5717000    1.3584892   -3.3916004   -1.8361282   0.13133647   -3.3916004    1.5554722   575187 
 5718000    1.3586186   -3.3924097   -1.8368488   0.13865027   -3.3924097    1.5555609   575209 
 5719000    1.3555787    -3.390144   -1.8381581    0.1342864    -3.390144    1.5519858   575244 
 5720000    1.3578656   -3.3935934   -1.8390406   0.12836934   -3.3935934    1.5545528   575263 
 5721000    1.3554164   -3.3917498   -1.8400764   0.13241814   -3.3917498    1.5516733   575291 
 5722000      1.35899   -3.3951358   -1.8394283    0.1266787   -3.3951358    1.5557075   575312 
 5723000    1.3574438   -3.3928046   -1.8388994    0.1335728   -3.3928046    1.5539051   575324 
 5724000     1.357497   -3.3928399   -1.8389414   0.13847557   -3.3928399    1.5538985   575349 
 5725000      1.35723   -3.3929941   -1.8394876   0.13331932   -3.3929941    1.5535065   575381 
 5726000    1.3579099   -3.3933749   -1.8391253   0.13188101   -3.3933749    1.5542496   575394 
 5727000    1.3572544   -3.3928146   -1.8393692   0.13240009   -3.3928146    1.5534453   575414 
 5728000    1.3576613   -3.3930305   -1.8391762   0.13281581   -3.3930305    1.5538543   575435 
 5729000    1.3584384   -3.3945579   -1.8399007   0.13419467   -3.3945579    1.5546572   575467 
 5730000    1.3583357   -3.3946592   -1.8401547   0.13589626   -3.3946592    1.5545046   575480 
 5731000     1.358448   -3.3948378   -1.8402452   0.13268931   -3.3948378    1.5545926   575495 
 5732000    1.3582827   -3.3956177   -1.8412655   0.12986216   -3.3956177    1.5543521   575514 
 5733000    1.3578311   -3.3946391   -1.8409172   0.13255546   -3.3946391    1.5537219   575556 
 5734000    1.3592507   -3.3955305   -1.8402598    0.1330535   -3.3955305    1.5552707   575584 
 5735000    1.3578702   -3.3944077   -1.8407435   0.13957927   -3.3944077    1.5536641   575594 
 5736000    1.3584341   -3.3954079   -1.8411202   0.13676027   -3.3954079    1.5542877   575602 
 5737000    1.3576246   -3.3952287   -1.8419077   0.13266226   -3.3952287    1.5533211   575617 
 5738000    1.3585243   -3.3957713   -1.8415153   0.13049647   -3.3957713    1.5542559   575652 
 5739000     1.356678   -3.3942338   -1.8421279   0.13142526   -3.3942338    1.5521059   575666 
 5740000    1.3591001   -3.3966862   -1.8418715   0.13041832   -3.3966862    1.5548148   575689 
 5741000    1.3578906   -3.3950593   -1.8416903   0.13247354   -3.3950593    1.5533689   575712 
 5742000    1.3582891   -3.3975827   -1.8437984    0.1311273   -3.3975827    1.5537843   575727 
 5743000     1.357889   -3.3972353   -1.8439869   0.13242298   -3.3972353    1.5532484   575756 
 5744000    1.3607505   -3.3992301   -1.8427815   0.12896576   -3.3992301    1.5564486   575783 
 5745000    1.3581998   -3.3963277   -1.8428694   0.12895809   -3.3963277    1.5534583   575810 
 5746000    1.3575255   -3.3953016   -1.8426631    0.1297232   -3.3953016    1.5526386   575828 
 5747000    1.3570364   -3.3945357   -1.8425456   0.14096903   -3.3945357    1.5519901   575861 
 5748000    1.3582963   -3.3949295    -1.841555   0.13781047   -3.3949295    1.5533745   575882 
 5749000    1.3606327   -3.3964544   -1.8404621   0.13627477   -3.3964544    1.5559923   575902 
 5750000    1.3582236   -3.3939485   -1.8407543   0.13502539   -3.3939485    1.5531941   575918 
 5751000     1.359017   -3.3963546   -1.8423179    0.1304583   -3.3963546    1.5540367   575942 
 5752000     1.358365   -3.3970733   -1.8437956    0.1301363   -3.3970733    1.5532777   575947 
 5753000    1.3583719   -3.3966113   -1.8433824   0.13127344   -3.3966113    1.5532289   575968 
 5754000    1.3578562   -3.3958001   -1.8431959   0.13384955   -3.3958001    1.5526042   575981 
 5755000    1.3578712   -3.3965978   -1.8440196   0.13474983   -3.3965978    1.5525782   575997 
 5756000    1.3569445   -3.3957726   -1.8443212   0.13307823   -3.3957726    1.5514513   576022 
 5757000    1.3586081   -3.3972324   -1.8439303   0.13194141   -3.3972324    1.5533021   576041 
 5758000    1.3584247   -3.3969562    -1.843915   0.13586421   -3.3969562    1.5530412   576060 
 5759000    1.3574456   -3.3954506   -1.8435772   0.13207967   -3.3954506    1.5518734   576078 
 5760000    1.3573237   -3.3954217   -1.8437604   0.12748744   -3.3954217    1.5516613   576105 
 5761000    1.3590418   -3.3980731   -1.8444774   0.13148173   -3.3980731    1.5535957   576116 
 5762000     1.359819    -3.397468   -1.8430027   0.13034767    -3.397468    1.5544653   576123 
 5763000    1.3607071   -3.3984246   -1.8429819   0.13449646   -3.3984246    1.5554427   576137 
 5764000    1.3587388   -3.3968077   -1.8436608   0.12680825   -3.3968077    1.5531469   576154 
 5765000    1.3582116   -3.3967782   -1.8443175   0.13236694   -3.3967782    1.5524607   576185 
 5766000    1.3594087   -3.3986031   -1.8448577   0.12884338   -3.3986031    1.5537454   576216 
 5767000    1.3588762   -3.3979252   -1.8448719   0.13337516   -3.3979252    1.5530532   576247 
 5768000    1.3585885   -3.3977635   -1.8450822   0.13394255   -3.3977635    1.5526814   576263 
 5769000     1.359457   -3.3989467   -1.8452943   0.12914884   -3.3989467    1.5536523   576271 
 5770000    1.3576034   -3.3973643   -1.8458869   0.13081487   -3.3973643    1.5514774   576292 
 5771000    1.3586999   -3.3980353   -1.8453587   0.13232189   -3.3980353    1.5526766   576312 
 5772000    1.3577286   -3.3971533   -1.8456459   0.13821925   -3.3971533    1.5515074   576334 
 5773000    1.3571652   -3.3960067   -1.8451914   0.13892273   -3.3960067    1.5508152   576352 
 5774000    1.3591835   -3.3987175    -1.845623   0.13461398   -3.3987175    1.5530945   576362 
 5775000    1.3589521   -3.3996952   -1.8469217   0.13035102   -3.3996952    1.5527735   576383 
 5776000    1.3611311   -3.4006471    -1.845435   0.13396334   -3.4006471    1.5552121   576402 
 5777000    1.3594321   -3.3991662   -1.8459655    0.1320773   -3.3991662    1.5532007   576428 
 5778000    1.3586732   -3.3985597   -1.8462772   0.13127494   -3.3985597    1.5522825   576447 
 5779000    1.3587696   -3.3989162   -1.8465828    0.1330938   -3.3989162    1.5523334   576469 
 5780000    1.3582677   -3.3990499   -1.8473653   0.13173447   -3.3990499    1.5516846   576497 
 5781000     1.359386   -3.3997118   -1.8467928   0.13169783   -3.3997118     1.552919   576513 
 5782000    1.3588247    -3.399561   -1.8473154   0.13085848    -3.399561    1.5522455   576525 
 5783000     1.358686   -3.3995914   -1.8475635   0.13069055   -3.3995914    1.5520279   576547 
 5784000     1.361186   -3.4010233   -1.8461963   0.13023013   -3.4010233     1.554827   576568 
 5785000    1.3586355   -3.3987893   -1.8469618    0.1314347   -3.3987893    1.5518275   576600 
 5786000    1.3581862   -3.3986932   -1.8474299   0.13928655   -3.3986932    1.5512632   576619 
 5787000    1.3576011   -3.3957605    -1.845214   0.13869651   -3.3957605    1.5505465   576637 
 5788000    1.3607437    -3.399119   -1.8450884   0.12744574    -3.399119    1.5540307   576676 
 5789000     1.360827   -3.4001976   -1.8461311   0.13481392   -3.4001976    1.5540665   576698 
 5790000    1.3616779   -3.4007668   -1.8457933   0.13586197   -3.4007668    1.5549735   576722 
 5791000    1.3618293   -3.4014746   -1.8463821   0.13619967   -3.4014746    1.5550925   576742 
 5792000    1.3611455   -3.4006117   -1.8463674   0.13384748   -3.4006117    1.5542443   576767 
 5793000    1.3615338   -3.4011337   -1.8464784   0.13358528   -3.4011337    1.5546554   576779 
 5794000    1.3586224   -3.3981494   -1.8468884   0.13706588   -3.3981494     1.551261   576805 
 5795000     1.358751   -3.4000541   -1.8487403   0.13638063   -3.4000541    1.5513138   576840 
 5796000    1.3605829   -3.4012789   -1.8479545   0.13291143   -3.4012789    1.5533245   576870 
 5797000    1.3597135   -3.4007428   -1.8484512   0.13031913   -3.4007428    1.5522916   576885 
 5798000    1.3587492   -3.3996661   -1.8485051   0.14239629   -3.3996661    1.5511611   576896 
 5799000    1.3599587   -3.4017529    -1.849254   0.13885782   -3.4017529    1.5524988   576912 
 5800000    1.3590136   -3.4008304    -1.849483   0.13417427   -3.4008304    1.5513473   576939 
 5801000    1.3584147   -3.4008747   -1.8502702   0.13970752   -3.4008747    1.5506045   576961 
 5802000    1.3613914   -3.4052352   -1.8512463   0.12718549   -3.4052352    1.5539889   576966 
 5803000    1.3582853   -3.4020893   -1.8517077   0.13524328   -3.4020893    1.5503816   576989 
 5804000    1.3612062   -3.4041819   -1.8505094   0.13607402   -3.4041819    1.5536725   577005 
 5805000    1.3596673   -3.4018994   -1.8500534   0.13727055   -3.4018994    1.5518461   577031 
 5806000    1.3605326   -3.4032743   -1.8505133   0.13667687   -3.4032743    1.5527611   577058 
 5807000    1.3630909   -3.4054564   -1.8498403   0.13230938   -3.4054564     1.555616   577082 
 5808000    1.3607084   -3.4034058   -1.8505976   0.13108461   -3.4034058    1.5528083   577115 
 5809000    1.3620017   -3.4048842   -1.8506997   0.12488387   -3.4048842    1.5541845   577152 
 5810000    1.3626164   -3.4054226   -1.8505824   0.13276763   -3.4054226    1.5548401   577169 
 5811000    1.3611492    -3.403941   -1.8508531   0.13649165    -3.403941    1.5530879   577198 
 5812000    1.3582548   -3.4008104    -1.851076   0.13908975   -3.4008104    1.5497344   577217 
 5813000    1.3617369   -3.4040491   -1.8503848   0.13396644   -3.4040491    1.5536643   577233 
 5814000    1.3622118   -3.4053988   -1.8512572   0.13095815   -3.4053988    1.5541415   577257 
 5815000    1.3616983   -3.4055395   -1.8520377   0.13406985   -3.4055395    1.5535018   577277 
 5816000    1.3624553    -3.405275   -1.8509714   0.13373998    -3.405275    1.5543036   577300 
 5817000    1.3620441   -3.4054139   -1.8516521    0.1357843   -3.4054139    1.5537618   577327 
 5818000      1.36106   -3.4041676   -1.8516306   0.13256649   -3.4041676     1.552537   577365 
 5819000    1.3622055   -3.4050569   -1.8512833    0.1280843   -3.4050569    1.5537736   577391 
 5820000     1.362111   -3.4053209   -1.8517008   0.12945255   -3.4053209    1.5536201   577408 
 5821000    1.3624855   -3.4047121   -1.8507241   0.13918035   -3.4047121     1.553988   577430 
 5822000     1.363437   -3.4045489   -1.8495861   0.13599647   -3.4045489    1.5549629   577471 
 5823000    1.3621665   -3.4037141   -1.8502486   0.13176694   -3.4037141    1.5534655   577489 
 5824000    1.3628316   -3.4042316   -1.8500211   0.13345198   -3.4042316    1.5542106   577494 
 5825000    1.3610768   -3.4032006   -1.8510288   0.13735378   -3.4032006    1.5521717   577508 
 5826000    1.3616934   -3.4048316   -1.8520052   0.13046795   -3.4048316    1.5528264   577526 
 5827000    1.3617269   -3.4045082   -1.8517081   0.13364005   -3.4045082    1.5528002   577550 
 5828000    1.3617239   -3.4046112   -1.8518925    0.1350483   -3.4046112    1.5527187   577579 
 5829000    1.3618207   -3.4044565    -1.851665   0.13874531   -3.4044565    1.5527915   577593 
 5830000    1.3602393   -3.4019186   -1.8509894   0.14085119   -3.4019186    1.5509292   577615 
 5831000    1.3633252   -3.4052279   -1.8508017    0.1367472   -3.4052279    1.5544262   577623 
 5832000    1.3642725   -3.4055747   -1.8501169   0.13091385   -3.4055747    1.5554578   577641 
 5833000    1.3624496   -3.4038403   -1.8505091   0.13589292   -3.4038403    1.5533311   577659 
 5834000    1.3616988   -3.4033869   -1.8509979   0.14011822   -3.4033869     1.552389   577691 
 5835000    1.3636274   -3.4052258   -1.8506784   0.13412588   -3.4052258    1.5545474   577706 
 5836000    1.3636726   -3.4052393   -1.8506754   0.13098638   -3.4052393    1.5545639   577719 
 5837000    1.3644799   -3.4050601   -1.8495893   0.13259513   -3.4050601    1.5554708   577724 
 5838000     1.363613   -3.4047514   -1.8503307   0.13853955   -3.4047514    1.5544207   577747 
 5839000    1.3648282   -3.4059223   -1.8501353   0.13887843   -3.4059223     1.555787   577754 
 5840000    1.3643632   -3.4063444    -1.851152   0.13106526   -3.4063444    1.5551925   577778 
 5841000    1.3623276   -3.4051497   -1.8523126   0.13679688   -3.4051497    1.5528372   577791 
 5842000    1.3625799   -3.4049675   -1.8518831   0.13756393   -3.4049675    1.5530844   577806 
 5843000    1.3621652   -3.4059196   -1.8533696    0.1347513   -3.4059196    1.5525499   577829 
 5844000    1.3647813   -3.4074055   -1.8518846   0.13506146   -3.4074055    1.5555209   577833 
 5845000    1.3653173    -3.406599   -1.8505104   0.13715699    -3.406599    1.5560887   577849 
 5846000    1.3634992    -3.405116   -1.8511182   0.13480241    -3.405116    1.5539978   577856 
 5847000    1.3630279   -3.4043267   -1.8509305   0.14015818   -3.4043267    1.5533961   577880 
 5848000    1.3657635   -3.4066754   -1.8502074   0.13421263   -3.4066754     1.556468   577897 
 5849000    1.3634048   -3.4049982   -1.8512559   0.14073386   -3.4049982    1.5537423   577911 
 5850000    1.3615927   -3.4043951   -1.8528092   0.13379918   -3.4043951    1.5515859   577945 
 5851000    1.3642854   -3.4062249   -1.8516432   0.13945637   -3.4062249    1.5545817   577972 
 5852000    1.3644067   -3.4060065   -1.8513618     0.135987   -3.4060065    1.5546447   578000 
 5853000    1.3643841   -3.4057725   -1.8511939   0.13839973   -3.4057725    1.5545786   578015 
 5854000    1.3641449   -3.4050811   -1.8508181   0.14313483   -3.4050811    1.5542629   578031 
 5855000    1.3646291   -3.4063091   -1.8515159   0.13487853   -3.4063091    1.5547932   578039 
 5856000    1.3627721   -3.4046613   -1.8519839   0.13595367   -3.4046613    1.5526774   578039 
 5857000    1.3639634   -3.4057136   -1.8517327   0.13569631   -3.4057136    1.5539809   578059 
 5858000    1.3632988   -3.4055622   -1.8523493   0.13598721   -3.4055622    1.5532129   578063 
 5859000    1.3664872   -3.4090221   -1.8522358   0.13001344   -3.4090221    1.5567863   578085 
 5860000    1.3642152   -3.4068347   -1.8526663   0.13576313   -3.4068347    1.5541683   578096 
 5861000    1.3635181   -3.4075596   -1.8542392   0.13410023   -3.4075596    1.5533204   578116 
 5862000    1.3613129   -3.4052455   -1.8544667     0.134335   -3.4052455    1.5507788   578127 
 5863000    1.3628979   -3.4057178   -1.8532033   0.13951335   -3.4057178    1.5525145   578153 
 5864000    1.3627745    -3.407172   -1.8548544   0.13309389    -3.407172    1.5523176   578174 
 5865000    1.3645486   -3.4083125   -1.8540494   0.13341791   -3.4083125    1.5542632   578202 
 5866000    1.3639386   -3.4073541   -1.8538314   0.12944978   -3.4073541    1.5535227   578219 
 5867000    1.3633859   -3.4085755   -1.8557066   0.13118719   -3.4085755    1.5528689   578228 
 5868000    1.3625951   -3.4078122   -1.8558815   0.13417973   -3.4078122    1.5519307   578242 
 5869000    1.3625982   -3.4077054   -1.8558007   0.13334264   -3.4077054    1.5519047   578253 
 5870000    1.3623071   -3.4071941   -1.8556746   0.13606527   -3.4071941    1.5515195   578273 
 5871000    1.3639702   -3.4091459   -1.8557995   0.13960839   -3.4091459    1.5533464   578298 
 5872000    1.3626361   -3.4072773   -1.8554877   0.13583038   -3.4072773    1.5517896   578312 
 5873000    1.3633858    -3.408186   -1.8555668   0.13811049    -3.408186    1.5526192   578321 
 5874000    1.3629469   -3.4078855   -1.8558118   0.13798541   -3.4078855    1.5520737   578338 
 5875000    1.3619028   -3.4076654   -1.8568798    0.1376218   -3.4076654    1.5507856   578375 
 5876000    1.3626072   -3.4088954   -1.8573373   0.13636898   -3.4088954     1.551558   578386 
 5877000    1.3631334   -3.4083538   -1.8562502   0.13691742   -3.4083538    1.5521036   578406 
 5878000    1.3617508   -3.4078332   -1.8573628    0.1323688   -3.4078332    1.5504704   578428 
 5879000     1.361032    -3.407528    -1.857935   0.12894939    -3.407528     1.549593   578450 
 5880000    1.3624924    -3.408341   -1.8571308   0.13122718    -3.408341    1.5512102   578467 
 5881000    1.3623903   -3.4089453   -1.8578889   0.13326398   -3.4089453    1.5510564   578481 
 5882000    1.3623127   -3.4092462   -1.8583103   0.13218058   -3.4092462    1.5509358   578493 
 5883000    1.3625631   -3.4096198   -1.8584767   0.13758742   -3.4096198    1.5511431   578522 
 5884000    1.3613045   -3.4093165   -1.8596089   0.13298722   -3.4093165    1.5497077   578523 
 5885000    1.3621314    -3.409955   -1.8593783   0.13781941    -3.409955    1.5505767   578550 
 5886000    1.3633131   -3.4100313   -1.8581631   0.13034137   -3.4100313    1.5518682   578570 
 5887000    1.3629322   -3.4098757    -1.858484   0.13743506   -3.4098757    1.5513917   578586 
 5888000    1.3636547    -3.411339   -1.8591679   0.13855647    -3.411339    1.5521711   578602 
 5889000    1.3631663   -3.4097881   -1.8582077   0.13876175   -3.4097881    1.5515804   578615 
 5890000    1.3663418    -3.413732   -1.8585856   0.13267034    -3.413732    1.5551464   578633 
 5891000    1.3636046   -3.4106275   -1.8586475   0.13765845   -3.4106275      1.55198   578652 
 5892000    1.3640135   -3.4101864    -1.857757   0.13858666   -3.4101864    1.5524294   578658 
 5893000    1.3640843    -3.409228    -1.856753   0.13570654    -3.409228     1.552475   578671 
 5894000    1.3650845   -3.4105709   -1.8570032   0.13633988   -3.4105709    1.5535677   578688 
 5895000    1.3651749   -3.4108148   -1.8571872   0.13699374   -3.4108148    1.5536276   578704 
 5896000    1.3647351   -3.4113186   -1.8582182   0.13965198   -3.4113186    1.5531003   578714 
 5897000    1.3623258   -3.4095818   -1.8592555   0.13756365   -3.4095818    1.5503263   578726 
 5898000    1.3646036   -3.4124818   -1.8595982   0.13558278   -3.4124818    1.5528835   578739 
 5899000    1.3651345   -3.4120138   -1.8585664   0.13550504   -3.4120138    1.5534474   578754 
 5900000    1.3636383   -3.4109842   -1.8593385    0.1367119   -3.4109842    1.5516457   578791 
 5901000    1.3637097   -3.4115797   -1.8599199   0.13408043   -3.4115797    1.5516599   578816 
 5902000    1.3651753    -3.413253   -1.8599524    0.1302281    -3.413253    1.5533006   578826 
 5903000     1.364559   -3.4118025   -1.8592782   0.13914987   -3.4118025    1.5525244   578854 
 5904000    1.3640547   -3.4109976   -1.8590846   0.13079638   -3.4109976     1.551913   578868 
 5905000    1.3633762   -3.4102885   -1.8592224   0.13916788   -3.4102885    1.5510661   578896 
 5906000    1.3640831   -3.4107218   -1.8588864   0.13555726   -3.4107218    1.5518354   578909 
 5907000    1.3652603   -3.4121514   -1.8590251   0.13800482   -3.4121514    1.5531263   578927 
 5908000    1.3627123   -3.4095285   -1.8593571    0.1401826   -3.4095285    1.5501715   578948 
 5909000    1.3632796   -3.4098976   -1.8591397   0.13462561   -3.4098976     1.550758   578970 
 5910000    1.3648688   -3.4109768   -1.8584889   0.13278697   -3.4109768    1.5524879   578999 
 5911000    1.3637435   -3.4092038   -1.8580736   0.14289599   -3.4092038    1.5511302   579028 
 5912000     1.364681   -3.4112382   -1.8590819   0.13618394   -3.4112382    1.5521563   579043 
 5913000    1.3645148   -3.4096046   -1.8577017   0.14254486   -3.4096046    1.5519029   579067 
 5914000    1.3636495   -3.4095461   -1.8586541   0.13460021   -3.4095461    1.5508921   579077 
 5915000    1.3645558   -3.4094621   -1.8576116   0.14008687   -3.4094621    1.5518504   579104 
 5916000     1.366353    -3.412123   -1.8582663   0.13486719    -3.412123    1.5538568   579118 
 5917000    1.3647148   -3.4097842   -1.8578842   0.14154256   -3.4097842       1.5519   579153 
 5918000    1.3689545   -3.4136685   -1.8570038    0.1315054   -3.4136685    1.5566647   579174 
 5919000    1.3673761   -3.4123603   -1.8575146   0.13110502   -3.4123603    1.5548457   579183 
 5920000    1.3672526   -3.4124021   -1.8577398   0.13562812   -3.4124021    1.5546623   579199 
 5921000    1.3651258   -3.4101237   -1.8579413   0.13829001   -3.4101237    1.5521824   579222 
 5922000    1.3648219    -3.410271   -1.8584958   0.13578411    -3.410271    1.5517752   579245 
 5923000    1.3665717   -3.4126494   -1.8589195   0.13712645   -3.4126494    1.5537299   579258 
 5924000    1.3654802   -3.4125753   -1.8601561   0.13429553   -3.4125753    1.5524193   579284 
 5925000    1.3669649   -3.4135694   -1.8595482   0.13275151   -3.4135694    1.5540213   579316 
 5926000    1.3665313   -3.4134396    -1.859989   0.14165148   -3.4134396    1.5534506   579345 
 5927000    1.3651347   -3.4125391   -1.8607324   0.13672715   -3.4125391    1.5518067   579366 
 5928000    1.3656373   -3.4131883   -1.8608772   0.13216334   -3.4131883    1.5523111   579391 
 5929000    1.3654386   -3.4135996   -1.8615921   0.13858048   -3.4135996    1.5520075   579420 
 5930000    1.3652282   -3.4125935   -1.8608572   0.13356858   -3.4125935    1.5517363   579432 
 5931000     1.364768   -3.4119372   -1.8607695   0.13474769   -3.4119372    1.5511676   579449 
 5932000    1.3661619   -3.4131778    -1.860474   0.14020223   -3.4131778    1.5527037   579467 
 5933000    1.3654909   -3.4133253   -1.8614511   0.13546482   -3.4133253    1.5518742   579492 
 5934000    1.3643576   -3.4116659   -1.8611145   0.14213122   -3.4116659    1.5505514   579505 
 5935000    1.3673407    -3.414197   -1.8602983   0.13578181    -3.414197    1.5538986   579521 
 5936000    1.3652259   -3.4125651   -1.8610992   0.13557588   -3.4125651    1.5514659   579532 
 5937000    1.3646369   -3.4128652   -1.8621303   0.13102372   -3.4128652     1.550735   579555 
 5938000    1.3650788   -3.4137809    -1.862608   0.13505538   -3.4137809    1.5511729   579579 
 5939000    1.3660358    -3.415513   -1.8633035   0.13482922    -3.415513    1.5522095   579598 
 5940000     1.367761   -3.4171403   -1.8630483   0.13241828   -3.4171403     1.554092   579627 
 5941000    1.3664924   -3.4164184   -1.8638266   0.14029454   -3.4164184    1.5525917   579649 
 5942000    1.3647081   -3.4147367   -1.8642152    0.1322155   -3.4147367    1.5505216   579665 
 5943000    1.3646921   -3.4144438   -1.8639885   0.13157662   -3.4144438    1.5504553   579683 
 5944000    1.3649363   -3.4135411   -1.8628726    0.1397335   -3.4135411    1.5506686   579707 
 5945000    1.3663058   -3.4151251   -1.8629756    0.1409637   -3.4151251    1.5521494   579735 
 5946000    1.3646334   -3.4135543   -1.8633663   0.13659759   -3.4135543     1.550188   579758 
 5947000    1.3653034   -3.4149978   -1.8640915   0.13208482   -3.4149978    1.5509063   579774 
 5948000    1.3651688   -3.4157005   -1.8649926   0.13971049   -3.4157005    1.5507079   579791 
 5949000    1.3667856   -3.4169248   -1.8644553   0.14282154   -3.4169248    1.5524695   579819 
 5950000     1.366343   -3.4172629   -1.8653229   0.13851116   -3.4172629      1.55194   579829 
 5951000    1.3660663   -3.4161449   -1.8645968   0.13866178   -3.4161449    1.5515481   579858 
 5952000    1.3664421   -3.4172336   -1.8653469   0.12923386   -3.4172336    1.5518867   579891 
 5953000     1.364702    -3.415362   -1.8654917   0.13574606    -3.415362    1.5498703   579906 
 5954000    1.3660231   -3.4161399   -1.8648281    0.1376805   -3.4161399    1.5513118   579928 
 5955000    1.3656963   -3.4153192   -1.8644507   0.13657661   -3.4153192    1.5508685   579955 
 5956000     1.366491    -3.416422   -1.8646752   0.14164156    -3.416422    1.5517468   579964 
 5957000    1.3671701   -3.4165397   -1.8640859   0.13658179   -3.4165397    1.5524538   579988 
 5958000    1.3675877   -3.4173707   -1.8645177   0.13560236   -3.4173707     1.552853   580016 
 5959000    1.3647487   -3.4141735   -1.8645922   0.13790566   -3.4141735    1.5495813   580034 
 5960000    1.3679236   -3.4180427   -1.8648806   0.13073356   -3.4180427    1.5531621   580043 
 5961000    1.3658821   -3.4154358   -1.8646612   0.13614676   -3.4154358    1.5507747   580069 
 5962000    1.3665791   -3.4164174   -1.8649397   0.13890872   -3.4164174    1.5514777   580102 
 5963000    1.3673184    -3.416977   -1.8647081   0.13810352    -3.416977    1.5522689   580120 
 5964000    1.3666467   -3.4174442   -1.8659859    0.1322231   -3.4174442    1.5514582   580138 
 5965000    1.3645028   -3.4157778   -1.8668442   0.13793857   -3.4157778    1.5489336   580172 
 5966000    1.3652605   -3.4166879    -1.866977    0.1312346   -3.4166879    1.5497109   580203 
 5967000    1.3655231   -3.4177039    -1.867759   0.13507069   -3.4177039    1.5499449   580227 
 5968000    1.3660261   -3.4168245   -1.8663595   0.13949876   -3.4168245     1.550465   580246 
 5969000    1.3677749   -3.4190293   -1.8666302   0.13220765   -3.4190293    1.5523991   580265 
 5970000    1.3661257   -3.4178724   -1.8673772   0.13421252   -3.4178724    1.5504952   580277 
 5971000    1.3662836   -3.4185573    -1.867955   0.13339713   -3.4185573    1.5506023   580304 
 5972000    1.3671288     -3.41876    -1.867276    0.1343454     -3.41876     1.551484   580333 
 5973000    1.3650435   -3.4165075   -1.8674327   0.13896486   -3.4165075    1.5490748   580349 
 5974000    1.3662427   -3.4185348   -1.8681659   0.12731221   -3.4185348    1.5503689   580374 
 5975000     1.367029   -3.4189135   -1.8677031   0.13488123   -3.4189135    1.5512104   580393 
 5976000     1.368154   -3.4195283   -1.8671216   0.13491745   -3.4195283    1.5524067   580423 
 5977000    1.3672469   -3.4186403   -1.8673056   0.13339568   -3.4186403    1.5513346   580439 
 5978000    1.3681409   -3.4198449     -1.86756   0.13923379   -3.4198449    1.5522849   580463 
 5979000     1.365326   -3.4176269   -1.8685865   0.13378648   -3.4176269    1.5490403   580482 
 5980000    1.3653962    -3.417881    -1.868785   0.14206253    -3.417881     1.549096   580491 
 5981000      1.36815   -3.4215538   -1.8693602   0.13120328   -3.4215538    1.5521936   580501 
 5982000    1.3670166   -3.4200485   -1.8691809   0.13468433   -3.4200485    1.5508676   580516 
 5983000    1.3660452    -3.420088   -1.8703598   0.13419742    -3.420088    1.5497282   580530 
 5984000    1.3657294   -3.4198799   -1.8705526   0.13818217   -3.4198799    1.5493273   580546 
 5985000    1.3661868   -3.4213791    -1.871573   0.13249619   -3.4213791    1.5498061   580561 
 5986000    1.3659461   -3.4211877   -1.8716814   0.13703813   -3.4211877    1.5495063   580571 
 5987000    1.3657225   -3.4211872   -1.8719905   0.13702145   -3.4211872    1.5491967   580592 
 5988000    1.3655504   -3.4207872   -1.8718499   0.13988392   -3.4207872    1.5489374   580616 
 5989000    1.3666038   -3.4216738   -1.8715976   0.13466703   -3.4216738    1.5500762   580637 
 5990000    1.3680806   -3.4229286   -1.8712281   0.13358063   -3.4229286    1.5517005   580656 
 5991000     1.366417   -3.4216507   -1.8718932   0.13746351   -3.4216507    1.5497575   580677 
 5992000    1.3656949    -3.421232   -1.8723308   0.13560185    -3.421232    1.5489012   580691 
 5993000     1.365698   -3.4203595   -1.8715215   0.13522506   -3.4203595     1.548838   580716 
 5994000    1.3663375   -3.4210944   -1.8715845   0.13460822   -3.4210944    1.5495099   580736 
 5995000    1.3675967   -3.4215749   -1.8706903   0.13671218   -3.4215749    1.5508846   580756 
 5996000    1.3678516   -3.4218459   -1.8707283   0.13677557   -3.4218459    1.5511176   580777 
 5997000    1.3679504   -3.4221028   -1.8709213   0.13414244   -3.4221028    1.5511815   580795 
 5998000    1.3684417   -3.4217718      -1.8701   0.14153053   -3.4217718    1.5516718   580820 
 5999000    1.3673331   -3.4204035   -1.8700181    0.1420199   -3.4204035    1.5503854   580831 
 6000000    1.3683372    -3.421989   -1.8705104   0.13879933    -3.421989    1.5514785   580848 
 6001000    1.3677699   -3.4208374   -1.8700608   0.13518866   -3.4208374    1.5507765   580870 
 6002000    1.3678856   -3.4209621   -1.8700998   0.13029413   -3.4209621    1.5508623   580887 
 6003000    1.3683533   -3.4207891   -1.8694766   0.14032177   -3.4207891    1.5513125   580917 
 6004000    1.3673513   -3.4212096   -1.8710758   0.13978184   -3.4212096    1.5501338   580933 
 6005000    1.3667108   -3.4205387   -1.8711363   0.14038611   -3.4205387    1.5494024   580935 
 6006000    1.3676559   -3.4205585   -1.8701114   0.13642717   -3.4205585    1.5504472   580945 
 6007000    1.3677553   -3.4203327   -1.8698237    0.1393368   -3.4203327    1.5505091   580964 
 6008000    1.3691387   -3.4219094   -1.8698535   0.13226904   -3.4219094    1.5520559   580972 
 6009000    1.3667139   -3.4201514   -1.8709108    0.1355621   -3.4201514    1.5492406   580997 
 6010000    1.3682101   -3.4206755    -1.869779   0.14046732   -3.4206755    1.5508966   581012 
 6011000    1.3672747   -3.4196055    -1.869812   0.13555271   -3.4196055    1.5497936   581028 
 6012000    1.3692899   -3.4212848   -1.8692632   0.13539854   -3.4212848    1.5520216   581049 
 6013000    1.3685095   -3.4208793   -1.8697822   0.13707735   -3.4208793    1.5510971   581064 
 6014000      1.36829   -3.4212734   -1.8704758   0.14246025   -3.4212734    1.5507976   581083 
 6015000    1.3700939   -3.4235131   -1.8707298    0.1310614   -3.4235131    1.5527833   581105 
 6016000    1.3683757   -3.4222337   -1.8714484   0.13909498   -3.4222337    1.5507853   581124 
 6017000    1.3673243    -3.422004   -1.8724688   0.13644103    -3.422004    1.5495351   581146 
 6018000    1.3686469   -3.4239849   -1.8730043   0.13333873   -3.4239849    1.5509806   581166 
 6019000    1.3677937   -3.4228975   -1.8729745   0.14131908   -3.4228975     1.549923   581200 
 6020000    1.3691123   -3.4251555   -1.8737918   0.13225989   -3.4251555    1.5513638   581220 
 6021000     1.367583   -3.4237014   -1.8740784   0.13792666   -3.4237014    1.5496229   581223 
 6022000    1.3680217   -3.4233793   -1.8732886   0.13441374   -3.4233793    1.5500907   581234 
 6023000     1.367289   -3.4237644    -1.874552   0.13379539   -3.4237644    1.5492125   581252 
 6024000     1.367864   -3.4236782   -1.8738542   0.13859954   -3.4236782    1.5498241   581267 
 6025000    1.3692611   -3.4261767   -1.8748178   0.13845522   -3.4261767    1.5513589   581285 
 6026000    1.3680184   -3.4251219   -1.8752189   0.13517794   -3.4251219    1.5499029   581303 
 6027000    1.3671797   -3.4244564   -1.8755676   0.13842416   -3.4244564    1.5488888   581327 
 6028000     1.368484   -3.4268242   -1.8765004   0.13226685   -3.4268242    1.5503237   581343 
 6029000    1.3678435   -3.4252465   -1.8756829   0.13434151   -3.4252465    1.5495635   581356 
 6030000    1.3681827   -3.4260782   -1.8761783   0.13363728   -3.4260782    1.5498998   581374 
 6031000    1.3658746   -3.4231665   -1.8759532   0.14151649   -3.4231665    1.5472133   581401 
 6032000    1.3677878   -3.4246119   -1.8753007   0.13513172   -3.4246119    1.5493112   581427 
 6033000    1.3702572   -3.4270264   -1.8749981    0.1350713   -3.4270264    1.5520283   581457 
 6034000      1.36828    -3.425703   -1.8759488   0.12830389    -3.425703    1.5497542   581470 
 6035000    1.3683024   -3.4252758    -1.875555   0.13430094   -3.4252758    1.5497209   581492 
 6036000    1.3679975   -3.4242012   -1.8748895   0.13843454   -3.4242012    1.5493116   581516 
 6037000     1.367779   -3.4238039   -1.8747904   0.14151295   -3.4238039    1.5490135   581535 
 6038000    1.3687292   -3.4254122   -1.8753733   0.13929266   -3.4254122     1.550039   581554 
 6039000     1.368445   -3.4247969    -1.875125   0.13368314   -3.4247969    1.5496718   581571 
 6040000    1.3704849   -3.4256502   -1.8737564   0.13811364   -3.4256502    1.5518938   581604 
 6041000    1.3698775   -3.4248864    -1.873747   0.13453164   -3.4248864    1.5511393   581629 
 6042000     1.368251   -3.4247198   -1.8754701   0.13327849   -3.4247198    1.5492497   581647 
 6043000    1.3684411   -3.4248477   -1.8754227    0.1325765   -3.4248477     1.549425   581662 
 6044000    1.3691697   -3.4252207   -1.8750108   0.13871138   -3.4252207    1.5502099   581677 
 6045000    1.3675485   -3.4242595   -1.8759118   0.13503181   -3.4242595    1.5483477   581687 
 6046000    1.3691941   -3.4260304   -1.8758861   0.13413924   -3.4260304    1.5501443   581712 
 6047000    1.3691221   -3.4256814   -1.8756639   0.13666166   -3.4256814    1.5500175   581729 
 6048000    1.3687239   -3.4247281   -1.8752493   0.13691953   -3.4247281    1.5494788   581762 
 6049000    1.3699038   -3.4265308    -1.875727   0.13403164   -3.4265308    1.5508038   581766 
 6050000    1.3673643   -3.4244748   -1.8765884   0.13824116   -3.4244748    1.5478864   581782 
 6051000    1.3679738   -3.4245907   -1.8760648   0.13698348   -3.4245907    1.5485259   581801 
 6052000      1.36896   -3.4253786    -1.875811   0.13625562   -3.4253786    1.5495676   581829 
 6053000    1.3696345   -3.4261626   -1.8758768    0.1361994   -3.4261626    1.5502858   581846 
 6054000    1.3705209   -3.4265022   -1.8752184    0.1311378   -3.4265022    1.5512838   581848 
 6055000    1.3682435   -3.4248165   -1.8761691   0.14081332   -3.4248165    1.5486474   581870 
 6056000    1.3689819   -3.4251595   -1.8756949   0.13781076   -3.4251595    1.5494646   581877 
 6057000    1.3688859   -3.4262101   -1.8769101   0.13642091   -3.4262101       1.5493   581898 
 6058000    1.3690639   -3.4271099   -1.8776804   0.13432039   -3.4271099    1.5494296   581925 
 6059000    1.3685281   -3.4261023   -1.8773723   0.13807348   -3.4261023      1.54873   581960 
 6060000    1.3695871   -3.4279326   -1.8780494   0.13996786   -3.4279326    1.5498832   581977 
 6061000    1.3695409   -3.4276802   -1.8779079   0.13292296   -3.4276802    1.5497723   581999 
 6062000    1.3693882   -3.4263525   -1.8767795   0.14252899   -3.4263525     1.549573   582009 
 6063000     1.368371   -3.4262443   -1.8778677   0.13981819   -3.4262443    1.5483766   582026 
 6064000    1.3709205   -3.4292431   -1.8780268   0.13216782   -3.4292431    1.5512162   582043 
 6065000    1.3688415   -3.4278946   -1.8790841   0.14040179   -3.4278946    1.5488105   582063 
 6066000    1.3690544   -3.4285245   -1.8795528   0.13797595   -3.4285245    1.5489716   582093 
 6067000    1.3692003   -3.4277821   -1.8787252   0.12961278   -3.4277821    1.5490569   582123 
 6068000    1.3693183   -3.4280467    -1.878899   0.13674331   -3.4280467    1.5491477   582139 
 6069000    1.3696005    -3.429329   -1.8799418   0.13564331    -3.429329    1.5493873   582169 
 6070000    1.3687719   -3.4291336   -1.8807397    0.1386564   -3.4291336    1.5483939   582190 
 6071000    1.3686932   -3.4283024   -1.8800825   0.13414402   -3.4283024    1.5482198   582222 
 6072000    1.3694784    -3.428759   -1.8796936   0.13714603    -3.428759    1.5490654   582238 
 6073000    1.3701437   -3.4286822   -1.8789333   0.14054128   -3.4286822    1.5497488   582264 
 6074000     1.368718    -3.428374   -1.8802618   0.13785599    -3.428374    1.5481122   582273 
 6075000    1.3701787   -3.4289079   -1.8792207   0.13721127   -3.4289079    1.5496872   582302 
 6076000    1.3710324    -3.430072   -1.8794512   0.13517841    -3.430072    1.5506208   582314 
 6077000    1.3690867   -3.4279481   -1.8795944   0.13857783   -3.4279481    1.5483538   582339 
 6078000    1.3701584   -3.4278299   -1.8783173    0.1369095   -3.4278299    1.5495126   582359 
 6079000    1.3696363   -3.4282796   -1.8794532   0.13650334   -3.4282796    1.5488264   582395 
 6080000    1.3708479   -3.4287401   -1.8786047   0.13911395   -3.4287401    1.5501354   582418 
 6081000    1.3703572    -3.427932    -1.878434   0.14266242    -3.427932     1.549498   582449 
 6082000    1.3700021   -3.4291111   -1.8800572    0.1352577   -3.4291111    1.5490539   582465 
 6083000    1.3702408   -3.4286659   -1.8793634    0.1378982   -3.4286659    1.5493025   582473 
 6084000    1.3715937   -3.4298449   -1.8790553   0.13115099   -3.4298449    1.5507896   582489 
 6085000    1.3701141   -3.4283817   -1.8792996   0.13949919   -3.4283817    1.5490821   582502 
 6086000    1.3707224   -3.4294382   -1.8797188   0.13740655   -3.4294382    1.5497194   582521 
 6087000    1.3716268    -3.431305    -1.880611   0.13670632    -3.431305     1.550694   582539 
 6088000    1.3692288   -3.4295701   -1.8816643    0.1404364   -3.4295701    1.5479058   582568 
 6089000    1.3693122   -3.4290747   -1.8811251   0.13928771   -3.4290747    1.5479496   582587 
 6090000    1.3715655   -3.4314179    -1.880953   0.13729356   -3.4314179     1.550465   582599 
 6091000    1.3707926   -3.4302558   -1.8806964   0.13732848   -3.4302558    1.5495593   582611 
 6092000    1.3706325   -3.4301811   -1.8808613   0.13838275   -3.4301811    1.5493198   582633 
 6093000    1.3699426    -3.429846   -1.8813884   0.13472129    -3.429846    1.5484576   582664 
 6094000    1.3705701    -3.430979   -1.8818307   0.13301568    -3.430979    1.5491483   582671 
 6095000    1.3690297   -3.4280761   -1.8807301   0.14032409   -3.4280761     1.547346   582694 
 6096000    1.3695397   -3.4293199   -1.8814293   0.13783006   -3.4293199    1.5478906   582706 
 6097000    1.3700538   -3.4304103   -1.8819971   0.14249769   -3.4304103    1.5484132   582728 
 6098000      1.37054   -3.4302153   -1.8813271     0.138645   -3.4302153    1.5488882   582756 
 6099000    1.3699494   -3.4293201   -1.8811311   0.13580018   -3.4293201     1.548189   582768 
 6100000    1.3718143   -3.4306743   -1.8803965   0.13690862   -3.4306743    1.5502778   582775 
 6101000     1.371204   -3.4297496    -1.880236    0.1427574   -3.4297496    1.5495137   582803 
 6102000    1.3719704   -3.4305579   -1.8802287   0.13650331   -3.4305579    1.5503292   582822 
 6103000    1.3709746   -3.4304134   -1.8812307     0.141499   -3.4304134    1.5491827   582830 
 6104000    1.3722779   -3.4323182   -1.8817133   0.13563916   -3.4323182    1.5506049   582849 
 6105000    1.3710404   -3.4309055   -1.8817122   0.13621897   -3.4309055    1.5491933   582854 
 6106000    1.3722267   -3.4310586   -1.8805594   0.13678503   -3.4310586    1.5504992   582867 
 6107000    1.3711907   -3.4303078   -1.8810031   0.13626286   -3.4303078    1.5493047   582876 
 6108000    1.3705982   -3.4290031   -1.8803732   0.14125078   -3.4290031    1.5486299   582878 
 6109000    1.3708334   -3.4305388   -1.8816884   0.14170874   -3.4305388    1.5488504   582895 
 6110000    1.3724553    -3.430749   -1.8801272   0.13591098    -3.430749    1.5506218   582918 
 6111000     1.371688    -3.430375    -1.880676   0.13976257    -3.430375     1.549699   582939 
 6112000    1.3722845   -3.4315943   -1.8812932   0.13558173   -3.4315943    1.5503011   582966 
 6113000    1.3702469   -3.4292471   -1.8813063   0.15165339   -3.4292471    1.5479408   582988 
 6114000    1.3710445    -3.429554   -1.8807361   0.14465321    -3.429554    1.5488179   582997 
 6115000    1.3716134   -3.4297088   -1.8802828   0.13754334   -3.4297088     1.549426   583010 
 6116000       1.3714   -3.4299297   -1.8808138   0.13722064   -3.4299297    1.5491159   583036 
 6117000    1.3714548    -3.429508    -1.880402   0.14102398    -3.429508     1.549106   583063 
 6118000    1.3714187   -3.4300751   -1.8810311   0.13975716   -3.4300751     1.549044   583071 
 6119000    1.3726064   -3.4314429   -1.8811131   0.14137638   -3.4314429    1.5503297   583092 
 6120000    1.3730279   -3.4309279   -1.8801434   0.13758929   -3.4309279    1.5507845   583100 
 6121000    1.3714171   -3.4289219   -1.8799806   0.14215748   -3.4289219    1.5489413   583109 
 6122000    1.3715083   -3.4305577   -1.8815612   0.13528818   -3.4305577    1.5489964   583127 
 6123000    1.3746475   -3.4340461   -1.8815734   0.13779009   -3.4340461    1.5524727   583153 
 6124000    1.3713083   -3.4312485   -1.8825629   0.13668994   -3.4312485    1.5486856   583159 
 6125000    1.3718529   -3.4318195   -1.8825774   0.13982857   -3.4318195    1.5492422   583181 
 6126000     1.370796   -3.4310815   -1.8830647   0.14137816   -3.4310815    1.5480167   583193 
 6127000    1.3713508    -3.432788   -1.8841686   0.13497776    -3.432788    1.5486194   583202 
 6128000    1.3704095   -3.4314992   -1.8839719   0.14003786   -3.4314992    1.5475273   583213 
 6129000    1.3716004   -3.4321588   -1.8833318   0.13662587   -3.4321588    1.5488269   583230 
 6130000    1.3706281   -3.4310305   -1.8833281   0.14324534   -3.4310305    1.5477024   583240 
 6131000     1.371192   -3.4325709   -1.8842875   0.13745506   -3.4325709    1.5482834   583261 
 6132000    1.3719813   -3.4334771   -1.8843449   0.13919932   -3.4334771    1.5491322   583277 
 6133000    1.3723405   -3.4332792   -1.8837867   0.13411205   -3.4332792    1.5494926   583294 
 6134000    1.3716915   -3.4325443   -1.8838455   0.14174377   -3.4325443    1.5486988   583317 
 6135000    1.3723101   -3.4324343   -1.8830823   0.14400218   -3.4324343     1.549352   583334 
 6136000    1.3720312   -3.4332336   -1.8842229    0.1320312   -3.4332336    1.5490106   583344 
 6137000    1.3721788   -3.4328064    -1.883661   0.13804033   -3.4328064    1.5491454   583356 
 6138000    1.3717121   -3.4335248   -1.8849488    0.1355376   -3.4335248     1.548576   583372 
 6139000    1.3727303   -3.4343614   -1.8846837   0.13664443   -3.4343614    1.5496777   583390 
 6140000    1.3731244    -3.433825   -1.8837344   0.13636228    -3.433825    1.5500907   583402 
 6141000    1.3715804   -3.4330941   -1.8847862   0.13785442   -3.4330941    1.5483079   583417 
 6142000    1.3729929   -3.4346753   -1.8847968   0.14089673   -3.4346753    1.5498785   583426 
 6143000     1.371466   -3.4326918   -1.8845768   0.13977292   -3.4326918     1.548115   583441 
 6144000    1.3739712   -3.4344726   -1.8835696   0.13913338   -3.4344726     1.550903   583456 
 6145000    1.3708025    -3.432206   -1.8848904   0.14048886    -3.432206    1.5473157   583460 
 6146000     1.372269   -3.4345617   -1.8856225   0.13601241   -3.4345617    1.5489391   583472 
 6147000    1.3736984   -3.4361702   -1.8856761   0.14178796   -3.4361702    1.5504941   583494 
 6148000    1.3712551   -3.4337541    -1.886076   0.13861044   -3.4337541    1.5476781   583516 
 6149000    1.3698067   -3.4328697   -1.8868662   0.13673889   -3.4328697    1.5460036   583531 
 6150000    1.3708695    -3.433772   -1.8866061    0.1423426    -3.433772    1.5471659   583545 
 6151000    1.3714457   -3.4344235    -1.886647   0.14472325   -3.4344235    1.5477765   583560 
 6152000    1.3699681   -3.4328985   -1.8868293   0.14218645   -3.4328985    1.5460692   583575 
 6153000    1.3718797   -3.4345175   -1.8863653   0.14291748   -3.4345175    1.5481522   583603 
 6154000    1.3722649   -3.4350613   -1.8865274   0.13567694   -3.4350613    1.5485338   583623 
 6155000    1.3727829   -3.4358598   -1.8867733   0.13555948   -3.4358598    1.5490865   583635 
 6156000    1.3735499   -3.4363352   -1.8864284   0.13770907   -3.4363352    1.5499068   583652 
 6157000    1.3729965   -3.4348303   -1.8855877   0.13622828   -3.4348303    1.5492426   583667 
 6158000    1.3738649   -3.4355649   -1.8853849   0.13564915   -3.4355649      1.55018   583683 
 6159000    1.3740441   -3.4359167   -1.8855744   0.13138929   -3.4359167    1.5503423   583698 
 6160000    1.3727012   -3.4342618   -1.8854745   0.13843265   -3.4342618    1.5487873   583713 
 6161000    1.3744591   -3.4357316   -1.8850087   0.13791138   -3.4357316    1.5507229   583731 
 6162000    1.3743583   -3.4365517   -1.8860063    0.1409834   -3.4365517    1.5505454   583755 
 6163000    1.3746016   -3.4364121   -1.8856346   0.14063958   -3.4364121    1.5507774   583771 
 6164000    1.3749316   -3.4381469    -1.887061   0.13732376   -3.4381469    1.5510859   583795 
 6165000    1.3727346   -3.4374101   -1.8888344   0.13862031   -3.4374101    1.5485756   583807 
 6166000    1.3724187   -3.4362112   -1.8880636   0.14211259   -3.4362112    1.5481476   583834 
 6167000    1.3741779   -3.4388054   -1.8887344   0.13941672   -3.4388054    1.5500711   583857 
 6168000    1.3723912   -3.4361439   -1.8881094   0.14265775   -3.4361439    1.5480344   583865 
 6169000     1.374022   -3.4377108   -1.8878661   0.13945064   -3.4377108    1.5498447   583876 
 6170000    1.3723456   -3.4367853   -1.8888421   0.14240111   -3.4367853    1.5479432   583880 
 6171000    1.3733817   -3.4381507   -1.8890707   0.13735669   -3.4381507      1.54908   583892 
 6172000    1.3721152    -3.437666    -1.890033   0.12962797    -3.437666     1.547633   583899 
 6173000    1.3711069   -3.4357136   -1.8892787   0.14124585   -3.4357136    1.5464348   583922 
 6174000    1.3732393   -3.4377594    -1.888946   0.13278615   -3.4377594    1.5488134   583932 
 6175000    1.3718542   -3.4372275   -1.8900162   0.13819346   -3.4372275    1.5472114   583947 
 6176000    1.3716807   -3.4368219   -1.8898803   0.13819989   -3.4368219    1.5469416   583975 
 6177000    1.3726691   -3.4370943   -1.8891097   0.14194302   -3.4370943    1.5479846   584002 
 6178000    1.3719944   -3.4365461   -1.8893806   0.14253061   -3.4365461    1.5471655   584024 
 6179000     1.372178    -3.438522   -1.8911944   0.13761488    -3.438522    1.5473275   584041 
 6180000    1.3713161   -3.4372525   -1.8909392   0.14105444   -3.4372525    1.5463133   584057 
 6181000    1.3707332   -3.4372485   -1.8916535   0.13749924   -3.4372485     1.545595   584080 
 6182000    1.3727912   -3.4386827   -1.8908359   0.13534271   -3.4386827    1.5478467   584106 
 6183000    1.3724987   -3.4376794   -1.8902181   0.14082934   -3.4376794    1.5474613   584127 
 6184000    1.3724656   -3.4384922   -1.8911239   0.13564484   -3.4384922    1.5473683   584148 
 6185000    1.3714545    -3.436735   -1.8905304   0.13725528    -3.436735    1.5462046   584157 
 6186000    1.3729103   -3.4380716   -1.8902602   0.13977351   -3.4380716    1.5478114   584170 
 6187000    1.3746554   -3.4386042   -1.8888545   0.14243975   -3.4386042    1.5497496   584181 
 6188000    1.3737395   -3.4379966   -1.8893299   0.13642659   -3.4379966    1.5486667   584200 
 6189000    1.3757322   -3.4395225   -1.8886597   0.13401171   -3.4395225    1.5508627   584219 
 6190000    1.3739768   -3.4374346   -1.8885985   0.13893845   -3.4374346    1.5488361   584237 
 6191000     1.374255   -3.4389779   -1.8898706   0.14232986   -3.4389779    1.5491073   584253 
 6192000    1.3742379   -3.4380253    -1.888977   0.13955837   -3.4380253    1.5490483   584268 
 6193000    1.3756853   -3.4395922   -1.8889602   0.13943461   -3.4395922     1.550632   584286 
 6194000    1.3749216   -3.4400625   -1.8903152    0.1375178   -3.4400625    1.5497473   584295 
 6195000    1.3739645   -3.4407558    -1.892127   0.13740305   -3.4407558    1.5486288   584310 
 6196000    1.3707152   -3.4366117    -1.891677   0.14006766   -3.4366117    1.5449347   584322 
 6197000    1.3723476   -3.4384213   -1.8916918   0.13671847   -3.4384213    1.5467296   584339 
 6198000    1.3724807    -3.439844   -1.8930465   0.13344275    -3.439844    1.5467975   584370 
 6199000      1.37267   -3.4396911   -1.8927305   0.12880028   -3.4396911    1.5469606   584389 
 6200000    1.3705325   -3.4376734   -1.8931746   0.13847545   -3.4376734    1.5444988   584409 
 6201000     1.372251    -3.439579   -1.8931832   0.13860711    -3.439579    1.5463958   584424 
 6202000    1.3736788   -3.4405156   -1.8925454   0.13010512   -3.4405156    1.5479703   584437 
 6203000     1.373731   -3.4405857   -1.8925911   0.13700021   -3.4405857    1.5479947   584450 
 6204000    1.3738624     -3.44075    -1.892676   0.14119571     -3.44075    1.5480739   584476 
 6205000    1.3733032   -3.4401847     -1.89277   0.13664558   -3.4401847    1.5474147   584487 
 6206000    1.3740922   -3.4409214   -1.8926309   0.13819759   -3.4409214    1.5482904   584492 
 6207000     1.373351   -3.4392532   -1.8918667   0.14018066   -3.4392532    1.5473864   584518 
 6208000    1.3745305   -3.4409714   -1.8922852   0.13962713   -3.4409714    1.5486862   584529 
 6209000    1.3733065   -3.4409289   -1.8936613   0.14021941   -3.4409289    1.5472675   584544 
 6210000    1.3720295   -3.4394098   -1.8935652   0.14231853   -3.4394098    1.5458446   584538 
 6211000    1.3731416   -3.4408829   -1.8938382   0.13202877   -3.4408829    1.5470447   584558 
 6212000    1.3730709   -3.4415984   -1.8946705   0.13511053   -3.4415984    1.5469279   584572 
 6213000    1.3738891   -3.4414887   -1.8936945   0.13356175   -3.4414887    1.5477941   584593 
 6214000    1.3731852   -3.4407481   -1.8937867   0.13856814   -3.4407481    1.5469614   584608 
 6215000    1.3723771   -3.4405021   -1.8945145   0.13452384   -3.4405021    1.5459876   584632 
 6216000    1.3723482   -3.4410459   -1.8951543   0.13870676   -3.4410459    1.5458916   584656 
 6217000    1.3716281   -3.4405915   -1.8955533   0.14160953   -3.4405915    1.5450381   584672 
 6218000    1.3718171   -3.4412956   -1.8961054     0.131582   -3.4412956    1.5451902   584695 
 6219000     1.371821   -3.4414645   -1.8963147   0.13552417   -3.4414645    1.5451498   584712 
 6220000    1.3724273    -3.441023     -1.89523   0.13425412    -3.441023     1.545793   584727 
 6221000    1.3736134   -3.4419294    -1.894864   0.13689661   -3.4419294    1.5470654   584751 
 6222000    1.3724978   -3.4394109   -1.8936284   0.13882671   -3.4394109    1.5457825   584761 
 6223000    1.3734581   -3.4409645   -1.8941295    0.1402513   -3.4409645    1.5468349   584772 
 6224000    1.3738522   -3.4408708   -1.8936158   0.13669586   -3.4408708     1.547255   584781 
 6225000     1.371435   -3.4400297   -1.8955524   0.13533604   -3.4400297    1.5444773   584802 
 6226000    1.3731507   -3.4416448   -1.8952592   0.13402139   -3.4416448    1.5463856   584811 
 6227000    1.3734933   -3.4416045   -1.8949045   0.13350002   -3.4416045    1.5467001   584838 
 6228000    1.3745275   -3.4414163   -1.8936073    0.1424288   -3.4414163     1.547809   584859 
 6229000    1.3724549    -3.439648   -1.8942573   0.14188961    -3.439648    1.5453907   584891 
 6230000     1.375239   -3.4424859   -1.8939815    0.1348495   -3.4424859    1.5485044   584899 
 6231000    1.3740989   -3.4421238   -1.8949535   0.13531833   -3.4421238    1.5471703   584918 
 6232000     1.371779   -3.4400079   -1.8954788   0.13752043   -3.4400079    1.5445292   584929 
 6233000    1.3733272   -3.4405863    -1.894372   0.13775257   -3.4405863    1.5462143   584951 
 6234000    1.3747407   -3.4419056    -1.894129   0.14068969   -3.4419056    1.5477766   584962 
 6235000    1.3748102   -3.4424536   -1.8946438   0.14126172   -3.4424536    1.5478099   584979 
 6236000    1.3740774   -3.4421847   -1.8952607   0.14033149   -3.4421847     1.546924   585002 
 6237000    1.3736317   -3.4405727    -1.894206   0.13332513   -3.4405727    1.5463667   585023 
 6238000    1.3742269   -3.4420121   -1.8949806   0.13774384   -3.4420121    1.5470315   585025 
 6239000    1.3732201   -3.4418016   -1.8959352   0.13643118   -3.4418016    1.5458664   585037 
 6240000    1.3733112   -3.4403397   -1.8943866    0.1430426   -3.4403397    1.5459531   585043 
 6241000    1.3756962   -3.4428262   -1.8942333   0.13771589   -3.4428262    1.5485929   585060 
 6242000    1.3761411   -3.4435921   -1.8945752   0.13589755   -3.4435921    1.5490169   585089 
 6243000    1.3746237   -3.4422972   -1.8950359   0.13924843   -3.4422972    1.5472613   585107 
 6244000    1.3749092     -3.44336   -1.8958171   0.13667602     -3.44336    1.5475429   585122 
 6245000    1.3748015   -3.4429578   -1.8955836   0.13641836   -3.4429578    1.5473742   585140 
 6246000    1.3756942   -3.4440804   -1.8957597    0.1394241   -3.4440804    1.5483207   585162 
 6247000     1.373021   -3.4420747   -1.8968023   0.14189894   -3.4420747    1.5452725   585177 
 6248000    1.3757587   -3.4439456   -1.8956264   0.14443855   -3.4439456    1.5483192   585190 
 6249000    1.3750307   -3.4436548    -1.896221   0.13933772   -3.4436548    1.5474338   585215 
 6250000    1.3755531   -3.4446511   -1.8966901   0.13732115   -3.4446511    1.5479609   585238 
 6251000    1.3751131   -3.4447672   -1.8973676   0.13624582   -3.4447672    1.5473996   585263 
 6252000    1.3741549   -3.4435063   -1.8972378    0.1426242   -3.4435063    1.5462685   585283 
 6253000    1.3751539   -3.4451094   -1.8977775   0.13357631   -3.4451094    1.5473318   585306 
 6254000    1.3738718   -3.4437847   -1.8979246   0.13483514   -3.4437847    1.5458601   585317 
 6255000    1.3736915   -3.4431082   -1.8974879   0.13543852   -3.4431082    1.5456203   585331 
 6256000    1.3756579   -3.4459547   -1.8981536   0.13388212   -3.4459547    1.5478011   585343 
 6257000    1.3738182   -3.4442843   -1.8986086    0.1428987   -3.4442843    1.5456757   585364 
 6258000    1.3747964   -3.4441767   -1.8974374   0.14048826   -3.4441767    1.5467393   585378 
 6259000    1.3745166   -3.4442396     -1.89786   0.13977646   -3.4442396    1.5463796   585395 
 6260000    1.3744264   -3.4454546   -1.8992029   0.13741596   -3.4454546    1.5462517   585405 
 6261000    1.3723761   -3.4439383   -1.9000433   0.13909742   -3.4439383     1.543895   585424 
 6262000    1.3733722    -3.444177   -1.8992036    0.1374435    -3.444177    1.5449733   585440 
 6263000    1.3726925   -3.4444121   -1.9002192   0.13188895   -3.4444121    1.5441929   585446 
 6264000     1.374647   -3.4467966   -1.9004657   0.14167816   -3.4467966    1.5463309   585469 
 6265000    1.3739466   -3.4461403   -1.9006343   0.13438325   -3.4461403     1.545506   585483 
 6266000    1.3747583   -3.4454295    -1.899058    0.1407105   -3.4454295    1.5463715   585501 
 6267000    1.3750263   -3.4454371   -1.8988196   0.14485776   -3.4454371    1.5466175   585522 
 6268000    1.3762052   -3.4479859   -1.9000608    0.1369392   -3.4479859     1.547925   585529 
 6269000    1.3748513   -3.4454295   -1.8990775   0.14218499   -3.4454295     1.546352   585548 
 6270000    1.3735123   -3.4459873   -1.9012126   0.13597901   -3.4459873    1.5447747   585575 
 6271000    1.3733137   -3.4454392   -1.9009749   0.13434359   -3.4454392    1.5444643   585608 
 6272000    1.3760244   -3.4481131   -1.9006399   0.13864467   -3.4481131    1.5474732   585623 
 6273000     1.375461   -3.4480716   -1.9012717   0.13174807   -3.4480716       1.5468   585638 
 6274000    1.3761844   -3.4486022   -1.9010415   0.13919439   -3.4486022    1.5475607   585658 
 6275000    1.3741779    -3.446062   -1.9007761   0.14415112    -3.446062    1.5452858   585665 
 6276000    1.3742021   -3.4471354   -1.9018856   0.14073401   -3.4471354    1.5452497   585689 
 6277000    1.3731756   -3.4455007   -1.9014658   0.13967619   -3.4455007    1.5440348   585712 
 6278000    1.3732492   -3.4454672   -1.9013944   0.14264724   -3.4454672    1.5440728   585729 
 6279000    1.3749071   -3.4473072   -1.9014257   0.14466376   -3.4473072    1.5458814   585750 
 6280000    1.3759983   -3.4496546   -1.9025885   0.13405217   -3.4496546    1.5470661   585766 
 6281000    1.3746986   -3.4482301   -1.9026754   0.14190642   -3.4482301    1.5455547   585785 
 6282000    1.3771535   -3.4505669   -1.9022786   0.13139168   -3.4505669    1.5482882   585795 
 6283000    1.3731334   -3.4462317   -1.9025052   0.13480429   -3.4462317    1.5437265   585811 
 6284000    1.3740874   -3.4469335   -1.9021636   0.14045624   -3.4469335      1.54477   585822 
 6285000    1.3746734   -3.4473936   -1.9020203   0.13636395   -3.4473936    1.5453733   585843 
 6286000    1.3755509   -3.4490466   -1.9027423   0.13965605   -3.4490466    1.5463043   585864 
 6287000     1.375869   -3.4486819   -1.9020595   0.13594281   -3.4486819    1.5466224   585879 
 6288000    1.3755925   -3.4495391   -1.9032883   0.13698321   -3.4495391    1.5462508   585902 
 6289000    1.3741195   -3.4482064   -1.9036482   0.13919265   -3.4482064    1.5445582   585916 
 6290000    1.3736769   -3.4488395   -1.9048263   0.13707097   -3.4488395    1.5440133   585934 
 6291000    1.3751696   -3.4488667   -1.9032468   0.14399534   -3.4488667    1.5456199   585961 
 6292000    1.3746443   -3.4491294   -1.9041105   0.13876583   -3.4491294    1.5450188   585965 
 6293000    1.3753581   -3.4493659   -1.9035896   0.14254718   -3.4493659    1.5457763   585982 
 6294000     1.374121    -3.448097   -1.9037796   0.13684065    -3.448097    1.5443174   586008 
 6295000    1.3748562   -3.4483462   -1.9032764   0.13943612   -3.4483462    1.5450698   586036 
 6296000    1.3754266   -3.4489662   -1.9033187   0.13852159   -3.4489662    1.5456476   586060 
 6297000    1.3745995    -3.447362   -1.9027151   0.13510728    -3.447362    1.5446469   586087 
 6298000    1.3748908   -3.4484484     -1.90354   0.13632718   -3.4484484    1.5449084   586112 
 6299000    1.3758878   -3.4505399   -1.9045429    0.1348766   -3.4505399     1.545997   586124 
 6300000     1.375109   -3.4487505    -1.903705   0.13862144   -3.4487505    1.5450455   586153 
 6301000    1.3760047   -3.4504913   -1.9044684   0.14106542   -3.4504913    1.5460229   586164 
 6302000    1.3750485   -3.4488733    -1.903959   0.13957803   -3.4488733    1.5449143   586177 
 6303000    1.3763885   -3.4500216   -1.9036546   0.13534937   -3.4500216     1.546367   586197 
 6304000    1.3761814   -3.4500818   -1.9040134   0.14011939   -3.4500818    1.5460684   586222 
 6305000     1.375213   -3.4495324   -1.9045836    0.1362668   -3.4495324    1.5449488   586234 
 6306000    1.3769423    -3.451332   -1.9044325   0.13266781    -3.451332    1.5468995   586231 
 6307000    1.3759469   -3.4506597   -1.9048995   0.14112124   -3.4506597    1.5457601   586239 
 6308000    1.3748581   -3.4499519   -1.9054782   0.13771741   -3.4499519    1.5444737   586263 
 6309000    1.3760299   -3.4505853   -1.9048321   0.13774909   -3.4505853    1.5457531   586277 
 6310000    1.3761693   -3.4505482   -1.9046463    0.1372476   -3.4505482    1.5459019   586280 
 6311000    1.3758683   -3.4496524   -1.9041467   0.13449646   -3.4496524    1.5455057   586302 
 6312000      1.37451   -3.4494736   -1.9055462   0.13748052   -3.4494736    1.5439273   586322 
 6313000    1.3751476   -3.4513712   -1.9067461   0.13069494   -3.4513712     1.544625   586329 
 6314000    1.3759467   -3.4511666   -1.9057099   0.14032012   -3.4511666    1.5454568   586354 
 6315000    1.3764497     -3.45182   -1.9058299   0.14238526     -3.45182    1.5459901   586366 
 6316000    1.3775045   -3.4530249   -1.9058844   0.13373507   -3.4530249    1.5471405   586379 
 6317000    1.3754845   -3.4514657   -1.9066494   0.13686178   -3.4514657    1.5448164   586400 
 6318000    1.3775411   -3.4530756   -1.9059942   0.13603066   -3.4530756    1.5470814   586417 
 6319000    1.3759802   -3.4506204   -1.9053158   0.14142338   -3.4506204    1.5453046   586426 
 6320000    1.3744563   -3.4503434   -1.9067976    0.1420596   -3.4503434    1.5435458   586444 
 6321000    1.3753409   -3.4516492   -1.9071259    0.1392003   -3.4516492    1.5445234   586450 
 6322000     1.374507   -3.4511823   -1.9076137   0.13892521   -3.4511823    1.5435686   586457 
 6323000    1.3756504   -3.4527264   -1.9079344   0.13465101   -3.4527264     1.544792   586480 
 6324000    1.3769815   -3.4541216   -1.9078639    0.1375476   -3.4541216    1.5462577   586491 
 6325000    1.3738369   -3.4513169   -1.9086377   0.13382523   -3.4513169    1.5426793   586509 
 6326000    1.3739214   -3.4501129   -1.9074125   0.14180332   -3.4501129    1.5427004   586537 
 6327000    1.3750759   -3.4519027   -1.9079402   0.14142904   -3.4519027    1.5439625   586550 
 6328000    1.3756879   -3.4517735   -1.9071791   0.13742279   -3.4517735    1.5445944   586571 
 6329000    1.3773622    -3.454592   -1.9081731   0.13479963    -3.454592     1.546419   586592 
 6330000    1.3753749   -3.4516126   -1.9074828   0.13882472   -3.4516126    1.5441298   586614 
 6331000    1.3740131   -3.4500512   -1.9075134   0.13935472   -3.4500512    1.5425378   586638 
 6332000    1.3761163   -3.4514198    -1.906563   0.13848427   -3.4514198    1.5448568   586654 
 6333000    1.3785673   -3.4538934   -1.9063326   0.13782763   -3.4538934    1.5475608   586672 
 6334000    1.3768926    -3.451781   -1.9061159   0.13809457    -3.451781    1.5456651   586678 
 6335000    1.3761488   -3.4510746   -1.9062471   0.14040541   -3.4510746    1.5448275   586679 
 6336000    1.3759702   -3.4521578   -1.9075756   0.13679817   -3.4521578    1.5445822   586696 
 6337000    1.3764927   -3.4528363   -1.9076702   0.14091818   -3.4528363    1.5451661   586697 
 6338000    1.3758974   -3.4519039   -1.9074455   0.14055725   -3.4519039    1.5444584   586712 
 6339000    1.3777397   -3.4536476   -1.9071501   0.13646725   -3.4536476    1.5464974   586723 
 6340000    1.3770981   -3.4536717   -1.9079024   0.13553424   -3.4536717    1.5457693   586726 
 6341000     1.375748   -3.4536038   -1.9093711   0.13447359   -3.4536038    1.5442327   586734 
 6342000    1.3757196   -3.4534868    -1.909336   0.13290565   -3.4534868    1.5441509   586753 
 6343000    1.3755992   -3.4529045   -1.9089045   0.14074319   -3.4529045    1.5439999   586759 
 6344000    1.3756825   -3.4530576   -1.9089984   0.13785564   -3.4530576    1.5440592   586772 
 6345000    1.3752065    -3.452908   -1.9094225   0.13354798    -3.452908    1.5434855   586787 
 6346000    1.3754956   -3.4531623   -1.9093734   0.13567028   -3.4531623     1.543789   586795 
 6347000    1.3765392   -3.4547852   -1.9098829   0.13762789   -3.4547852    1.5449024   586817 
 6348000    1.3746095    -3.454299   -1.9116071   0.13711758    -3.454299    1.5426919   586834 
 6349000    1.3734567   -3.4526387   -1.9112616   0.13852342   -3.4526387    1.5413772   586842 
 6350000    1.3751394   -3.4544376   -1.9111904   0.13874717   -3.4544376    1.5432472   586849 
 6351000    1.3751366   -3.4542023    -1.911003    0.1377652   -3.4542023    1.5431993   586866 
 6352000    1.3755383   -3.4535816   -1.9099552   0.14097815   -3.4535816    1.5436264   586875 
 6353000    1.3763173   -3.4542209   -1.9097755    0.1397999   -3.4542209    1.5444454   586896 
 6354000    1.3749721   -3.4540637   -1.9111594   0.13712876   -3.4540637    1.5429043   586908 
 6355000    1.3749789   -3.4542952   -1.9114149   0.13824983   -3.4542952    1.5428804   586920 
 6356000    1.3743951   -3.4547748   -1.9125889   0.13115904   -3.4547748    1.5421859   586935 
 6357000    1.3735898   -3.4547951   -1.9135312   0.13621509   -3.4547951    1.5412639   586942 
 6358000    1.3754133   -3.4555738   -1.9122979   0.13309804   -3.4555738    1.5432758   586955 
 6359000    1.3753046   -3.4540481   -1.9109652   0.13720155   -3.4540481    1.5430828   586982 
 6360000     1.373796   -3.4547207   -1.9133673    0.1397771   -3.4547207    1.5413534   586996 
 6361000      1.37567   -3.4555703    -1.912159   0.13594669   -3.4555703    1.5434113   587013 
 6362000    1.3765169   -3.4558953   -1.9115786   0.13687973   -3.4558953    1.5443168   587030 
 6363000     1.373694   -3.4529252   -1.9118596   0.14273512   -3.4529252    1.5410657   587062 
 6364000    1.3746762   -3.4537983   -1.9116806   0.14046244   -3.4537983    1.5421177   587081 
 6365000    1.3748161   -3.4544314   -1.9121698   0.13593732   -3.4544314    1.5422615   587086 
 6366000    1.3763879   -3.4565493   -1.9125718   0.13141008   -3.4565493    1.5439774   587104 
 6367000    1.3742969   -3.4533365   -1.9117624   0.14152349   -3.4533365    1.5415741   587126 
 6368000    1.3762959   -3.4544307   -1.9106301   0.13623434   -3.4544307    1.5438006   587132 
 6369000    1.3767527    -3.456018   -1.9117366   0.13300185    -3.456018    1.5442814   587144 
 6370000    1.3768491   -3.4544167   -1.9100667   0.13764168   -3.4544167    1.5443501   587159 
 6371000    1.3749733   -3.4533059   -1.9111176   0.13665201   -3.4533059    1.5421883   587181 
 6372000    1.3756395   -3.4539817   -1.9110961   0.13261174   -3.4539817    1.5428856   587200 
 6373000    1.3761173   -3.4534009   -1.9100242   0.13948609   -3.4534009    1.5433768   587217 
 6374000    1.3769611   -3.4542775   -1.9100254      0.13082   -3.4542775    1.5442521   587244 
 6375000    1.3752793    -3.451078   -1.9087146   0.14289919    -3.451078    1.5423634   587245 
 6376000    1.3760506   -3.4526385   -1.9094679   0.14255339   -3.4526385    1.5431706   587267 
 6377000    1.3782234   -3.4542849   -1.9087565   0.13863697   -3.4542849    1.5455284   587297 
 6378000    1.3775424   -3.4541724   -1.9094815   0.13694224   -3.4541724     1.544691   587325 
 6379000    1.3785746   -3.4563008    -1.910476   0.13764719   -3.4563008    1.5458248   587334 
 6380000    1.3766935   -3.4555048   -1.9118261   0.14140213   -3.4555048    1.5436787   587348 
 6381000    1.3764151   -3.4551186   -1.9117863   0.13890571   -3.4551186    1.5433323   587361 
 6382000    1.3773688    -3.455783   -1.9114444   0.13850272    -3.455783    1.5443386   587385 
 6383000    1.3777818   -3.4558861   -1.9111423   0.13827868   -3.4558861    1.5447438   587407 
 6384000    1.3782205   -3.4571089   -1.9119048   0.13227467   -3.4571089    1.5452041   587419 
 6385000    1.3777718   -3.4559466   -1.9112903   0.14454383   -3.4559466    1.5446563   587436 
 6386000    1.3784444     -3.45659   -1.9111981   0.13853459     -3.45659    1.5453919   587443 
 6387000    1.3798996   -3.4576054   -1.9105951   0.14277184   -3.4576054    1.5470103   587448 
 6388000     1.377731    -3.454867   -1.9103484   0.14042187    -3.454867    1.5445185   587471 
 6389000    1.3793902   -3.4576802   -1.9113279   0.13656379   -3.4576802    1.5463523   587481 
 6390000    1.3791434    -3.457567   -1.9115387   0.13085265    -3.457567    1.5460283   587499 
 6391000    1.3767067   -3.4549703   -1.9117156   0.14198855   -3.4549703    1.5432547   587515 
 6392000    1.3766893   -3.4559637   -1.9127863    0.1397832   -3.4559637    1.5431774   587537 
 6393000    1.3789351   -3.4584552   -1.9128342   0.13175441   -3.4584552    1.5456211   587565 
 6394000    1.3777174   -3.4580222   -1.9138211   0.13768809   -3.4580222    1.5442011   587586 
 6395000    1.3766475   -3.4565657   -1.9135691   0.13876449   -3.4565657    1.5429966   587588 
 6396000    1.3758813   -3.4564713   -1.9144149   0.13369247   -3.4564713    1.5420564   587619 
 6397000    1.3784334   -3.4582791    -1.913415   0.13708277   -3.4582791    1.5448642   587639 
 6398000    1.3768439   -3.4563582   -1.9133358   0.13374149   -3.4563582    1.5430224   587662 
 6399000    1.3764797   -3.4564506   -1.9139151   0.13535753   -3.4564506    1.5425355   587692 
 6400000     1.377529    -3.457127   -1.9134392    0.1329852    -3.457127    1.5436878   587701 
 6401000    1.3773966   -3.4574892    -1.913984   0.13871695   -3.4574892    1.5435052   587714 
 6402000    1.3780874   -3.4579141   -1.9136768   0.13808654   -3.4579141    1.5442372   587730 
 6403000    1.3764244   -3.4566364   -1.9143177   0.13614399   -3.4566364    1.5423187   587751 
 6404000    1.3771721   -3.4576727   -1.9145792   0.13918664   -3.4576727    1.5430935   587775 
 6405000    1.3766293   -3.4577476   -1.9153411   0.13427527   -3.4577476    1.5424065   587805 
 6406000    1.3782426   -3.4591915    -1.915022   0.13908171   -3.4591915    1.5441695   587822 
 6407000    1.3771676   -3.4586971   -1.9157268   0.13910796   -3.4586971    1.5429703   587820 
 6408000    1.3769685   -3.4588496   -1.9161759   0.13451164   -3.4588496    1.5426737   587848 
 6409000    1.3785334   -3.4605947   -1.9162465   0.13312657   -3.4605947    1.5443482   587878 
 6410000    1.3784189   -3.4602853   -1.9161074   0.13667526   -3.4602853    1.5441779   587894 
 6411000    1.3766476   -3.4588509    -1.916723   0.14002266   -3.4588509    1.5421279   587919 
 6412000    1.3762931   -3.4599036   -1.9182042   0.13682416   -3.4599036    1.5416994   587931 
 6413000    1.3756044   -3.4602527   -1.9193484   0.13409121   -3.4602527    1.5409043   587940 
 6414000    1.3752633   -3.4593244   -1.9188257   0.13879656   -3.4593244    1.5404987   587949 
 6415000    1.3752097   -3.4593495   -1.9189815    0.1414687   -3.4593495     1.540368   587976 
 6416000    1.3772284   -3.4624439   -1.9198516   0.13360494   -3.4624439    1.5425923   587990 
 6417000    1.3778782   -3.4623808   -1.9190948    0.1375383   -3.4623808     1.543286   588003 
 6418000    1.3758364   -3.4607603   -1.9198319    0.1363637   -3.4607603    1.5409283   588030 
 6419000    1.3776661   -3.4613868   -1.9184801   0.13214363   -3.4613868    1.5429068   588057 
 6420000    1.3768961   -3.4603873   -1.9183979   0.13354024   -3.4603873    1.5419894   588078 
 6421000    1.3785711   -3.4625452   -1.9186853   0.13980079   -3.4625452    1.5438599   588080 
 6422000    1.3781847   -3.4619882   -1.9186135   0.13463762   -3.4619882    1.5433747   588100 
 6423000    1.3771861   -3.4612113   -1.9189916   0.13348679   -3.4612113    1.5422196   588114 
 6424000    1.3772636   -3.4611203   -1.9188951    0.1400741   -3.4611203    1.5422252   588145 
 6425000    1.3782467   -3.4616369   -1.9183896   0.13512487   -3.4616369    1.5432473   588175 
 6426000    1.3778093   -3.4613302   -1.9186251   0.14078953   -3.4613302    1.5427051   588195 
 6427000     1.377433   -3.4607869   -1.9185267   0.13517217   -3.4607869    1.5422602   588204 
 6428000    1.3764744   -3.4604777   -1.9193407   0.13640718   -3.4604777    1.5411371   588223 
 6429000    1.3789778   -3.4628832   -1.9190246    0.1318652   -3.4628832    1.5438586   588254 
 6430000    1.3757886   -3.4604032   -1.9201518   0.14011491   -3.4604032    1.5402514   588268 
 6431000    1.3764128   -3.4608407    -1.919935   0.13843571   -3.4608407    1.5409057   588285 
 6432000    1.3770009   -3.4611221   -1.9196078   0.13897003   -3.4611221    1.5415143   588304 
 6433000    1.3757685   -3.4601313   -1.9200411   0.13418688   -3.4601313    1.5400902   588321 
 6434000    1.3783425   -3.4626484   -1.9197372   0.13319024   -3.4626484    1.5429112   588344 
 6435000    1.3770029   -3.4602237   -1.9188591   0.13929544   -3.4602237    1.5413645   588362 
 6436000    1.3795825   -3.4627302    -1.918549   0.13697802   -3.4627302    1.5441812   588389 
 6437000    1.3786339   -3.4626752   -1.9196371   0.13891322   -3.4626752    1.5430381   588420 
 6438000    1.3777135   -3.4618045   -1.9198384   0.13684896   -3.4618045     1.541966   588436 
 6439000    1.3804835   -3.4645002   -1.9194916   0.13863334   -3.4645002    1.5450086   588458 
 6440000    1.3806066   -3.4654551   -1.9203377   0.13949399   -3.4654551    1.5451174   588469 
 6441000     1.379551   -3.4638072   -1.9199236   0.14004082   -3.4638072    1.5438836   588489 
 6442000    1.3782539   -3.4628759    -1.920478   0.14214108   -3.4628759    1.5423978   588502 
 6443000    1.3807187    -3.464583   -1.9194766   0.13951782    -3.464583    1.5451064   588521 
 6444000    1.3802729   -3.4639311   -1.9193499   0.14064491   -3.4639311    1.5445812   588531 
 6445000    1.3778081   -3.4611575   -1.9193816   0.14328268   -3.4611575    1.5417759   588549 
 6446000    1.3796637   -3.4642285   -1.9204051   0.14101041   -3.4642285    1.5438234   588560 
 6447000    1.3777064   -3.4633267   -1.9217406   0.13990376   -3.4633267    1.5415861   588578 
 6448000    1.3792345   -3.4644929   -1.9212259    0.1343117   -3.4644929    1.5432671   588589 
 6449000    1.3803672   -3.4646369   -1.9201679    0.1409468   -3.4646369    1.5444689   588614 
 6450000    1.3787244   -3.4638077   -1.9212214   0.14263635   -3.4638077    1.5425862   588631 
 6451000    1.3790158   -3.4628817   -1.9200191   0.14166971   -3.4628817    1.5428626   588650 
 6452000    1.3794866   -3.4640354   -1.9206671   0.13880099   -3.4640354    1.5433683   588658 
 6453000    1.3791979   -3.4642533   -1.9212578   0.13992707   -3.4642533    1.5429955   588677 
 6454000    1.3785821    -3.464003   -1.9216964    0.1359131    -3.464003    1.5423065   588677 
 6455000    1.3794137   -3.4645777   -1.9213984   0.13587907   -3.4645777    1.5431793   588699 
 6456000    1.3778597    -3.462333   -1.9209079   0.14208662    -3.462333    1.5414251   588705 
 6457000    1.3801294   -3.4646588   -1.9207391     0.136629   -3.4646588    1.5439196   588722 
 6458000    1.3792038    -3.463523   -1.9207148   0.13978525    -3.463523    1.5428081   588751 
 6459000     1.378947   -3.4642642   -1.9217722   0.13684729   -3.4642642     1.542492   588762 
 6460000    1.3786517   -3.4640962    -1.921979   0.13986066   -3.4640962    1.5421171   588779 
 6461000    1.3776321   -3.4641173   -1.9231851   0.13815927   -3.4641173    1.5409322   588796 
 6462000    1.3780518   -3.4643222    -1.922999   0.13937223   -3.4643222    1.5413232   588826 
 6463000    1.3790966   -3.4658116   -1.9233407   0.13272878   -3.4658116    1.5424708   588834 
 6464000     1.377446   -3.4645677   -1.9239692   0.13781551   -3.4645677    1.5405985   588844 
 6465000     1.379345   -3.4662592   -1.9235631   0.13337631   -3.4662592    1.5426961   588854 
 6466000    1.3793136   -3.4653067   -1.9227032   0.13988312   -3.4653067    1.5426035   588876 
 6467000    1.3797275   -3.4677728   -1.9247667   0.13193433   -3.4677728    1.5430061   588899 
 6468000    1.3790321    -3.467098   -1.9248906   0.13547645    -3.467098    1.5422074   588907 
 6469000    1.3773038   -3.4639141   -1.9236656   0.13557752   -3.4639141    1.5402485   588917 
 6470000    1.3782544    -3.465837   -1.9245359   0.13752397    -3.465837    1.5413011   588921 
 6471000    1.3777137   -3.4652359   -1.9245866   0.13282597   -3.4652359    1.5406493   588939 
 6472000    1.3780293   -3.4662261   -1.9252448   0.12777343   -3.4662261    1.5409813   588947 
 6473000    1.3788213   -3.4666777   -1.9248789   0.13461433   -3.4666777    1.5417988   588973 
 6474000     1.379547   -3.4665834   -1.9240229   0.14233192   -3.4665834    1.5425606   588992 
 6475000    1.3777246   -3.4653547   -1.9248711   0.14080322   -3.4653547    1.5404836   589007 
 6476000    1.3785053   -3.4658998   -1.9245511   0.13635862   -3.4658998    1.5413487   589010 
 6477000    1.3792634   -3.4675732   -1.9254239   0.13671555   -3.4675732    1.5421493   589028 
 6478000     1.379296   -3.4671285   -1.9250057   0.13065281   -3.4671285    1.5421228   589052 
 6479000    1.3788267   -3.4663619   -1.9248239   0.13716941   -3.4663619     1.541538   589075 
 6480000    1.3796211   -3.4676983   -1.9253271   0.13909427   -3.4676983    1.5423712   589096 
 6481000    1.3792664   -3.4668502   -1.9249567    0.1374621   -3.4668502    1.5418934   589127 
 6482000    1.3780599   -3.4662831   -1.9257673   0.13556485   -3.4662831    1.5405159   589138 
 6483000     1.378069   -3.4657989    -1.925299   0.13738509   -3.4657989    1.5404999   589148 
 6484000    1.3769737   -3.4647623   -1.9255233   0.13708816   -3.4647623     1.539239   589162 
 6485000    1.3788225   -3.4669061   -1.9256318   0.13880619   -3.4669061    1.5412742   589174 
 6486000    1.3780042   -3.4666904   -1.9263805   0.13375368   -3.4666904    1.5403099   589193 
 6487000    1.3782138   -3.4660057   -1.9254668   0.13465165   -3.4660057    1.5405389   589195 
 6488000    1.3782489   -3.4658569   -1.9253101   0.13162678   -3.4658569    1.5405468   589207 
 6489000    1.3785032   -3.4662046   -1.9254075   0.13770955   -3.4662046    1.5407971   589220 
 6490000     1.378725   -3.4663982   -1.9254003   0.13737273   -3.4663982    1.5409978   589238 
 6491000    1.3779259   -3.4659734    -1.925921   0.13805096   -3.4659734    1.5400524   589258 
 6492000    1.3782451   -3.4666812   -1.9262746   0.14039683   -3.4666812    1.5404066   589259 
 6493000    1.3798622     -3.46886    -1.926701     0.131972     -3.46886     1.542159   589280 
 6494000    1.3794192   -3.4673618   -1.9257581   0.13689591   -3.4673618    1.5416037   589303 
 6495000    1.3809354   -3.4688177   -1.9255326   0.13671317   -3.4688177    1.5432851   589308 
 6496000     1.381955   -3.4691563   -1.9247658    0.1311369   -3.4691563    1.5443904   589321 
 6497000    1.3794133   -3.4673066   -1.9258089   0.13955713   -3.4673066    1.5414977   589341 
 6498000    1.3793021   -3.4683253   -1.9270224   0.13424923   -3.4683253    1.5413028   589368 
 6499000    1.3789327   -3.4673911   -1.9265507   0.14085909   -3.4673911    1.5408404   589387 
 6500000    1.3796044   -3.4679195   -1.9263259   0.13928009   -3.4679195    1.5415935   589386 
 6501000    1.3784277   -3.4681459   -1.9279195   0.13134196   -3.4681459    1.5402264   589406 
 6502000     1.378347   -3.4679887   -1.9279178   0.13350591   -3.4679887    1.5400709   589431 
 6503000    1.3790014    -3.468079   -1.9273109   0.14416655    -3.468079    1.5407682   589444 
 6504000    1.3774911   -3.4660958   -1.9270543   0.13865677   -3.4660958    1.5390415   589459 
 6505000    1.3786397   -3.4666306   -1.9263084   0.14294405   -3.4666306    1.5403222   589460 
 6506000    1.3803148   -3.4686197   -1.9264887   0.13912884   -3.4686197     1.542131   589484 
 6507000    1.3809403   -3.4693009   -1.9265051   0.13374208   -3.4693009    1.5427958   589497 
 6508000    1.3785412   -3.4672142   -1.9271379    0.1395544   -3.4672142    1.5400763   589512 
 6509000    1.3789141    -3.466976   -1.9265694   0.13518882    -3.466976    1.5404067   589545 
 6510000    1.3788611   -3.4664768   -1.9261581   0.13774053   -3.4664768    1.5403186   589556 
 6511000    1.3794231   -3.4668976   -1.9259982   0.14119008   -3.4668976    1.5408994   589574 
 6512000    1.3796427    -3.467347   -1.9262623   0.13440994    -3.467347    1.5410847   589597 
 6513000    1.3808629   -3.4686458   -1.9262243   0.13551856   -3.4686458    1.5424215   589607 
 6514000    1.3796608    -3.468059   -1.9270038   0.13112917    -3.468059    1.5410552   589616 
 6515000    1.3810054    -3.469716   -1.9271929   0.13418337    -3.469716    1.5425231   589629 
 6516000    1.3797662   -3.4678257    -1.926726   0.13648596   -3.4678257    1.5410997   589644 
 6517000     1.380032    -3.469038   -1.9276596   0.13755955    -3.469038    1.5413784   589651 
 6518000    1.3800909   -3.4692081   -1.9278189   0.13610198   -3.4692081    1.5413892   589672 
 6519000    1.3776971   -3.4660456    -1.927356   0.13938295   -3.4660456    1.5386896   589682 
 6520000    1.3796664   -3.4675667   -1.9267091   0.13377122   -3.4675667    1.5408576   589694 
 6521000    1.3798251   -3.4673823   -1.9263918   0.13476524   -3.4673823    1.5409905   589711 
 6522000    1.3803648    -3.469303   -1.9277254   0.13720311    -3.469303    1.5415775   589717 
 6523000    1.3819613   -3.4710043   -1.9276989   0.13436441   -3.4710043    1.5433055   589738 
 6524000    1.3789454   -3.4682985   -1.9283897   0.14333243   -3.4682985    1.5399088   589749 
 6525000    1.3812854   -3.4716485   -1.9291972   0.13636332   -3.4716485    1.5424513   589776 
 6526000    1.3806634   -3.4708271   -1.9290965   0.13572735   -3.4708271    1.5417306   589786 
 6527000    1.3824119   -3.4712256   -1.9275739   0.13535986   -3.4712256    1.5436517   589798 
 6528000    1.3809866   -3.4698117   -1.9278273   0.14376061   -3.4698117    1.5419843   589827 
 6529000    1.3812183   -3.4704425   -1.9282178   0.13815352   -3.4704425    1.5422247   589834 
 6530000    1.3802079   -3.4694045    -1.928389    0.1378639   -3.4694045    1.5410155   589865 
 6531000    1.3812613    -3.471951   -1.9298169   0.13541493    -3.471951    1.5421341   589887 
 6532000    1.3796015   -3.4694837   -1.9292262   0.13851237   -3.4694837    1.5402575   589896 
 6533000    1.3809395   -3.4703192   -1.9285862   0.13341766   -3.4703192     1.541733   589903 
 6534000    1.3819745   -3.4723494   -1.9294896   0.13796575   -3.4723494    1.5428598   589914 
 6535000    1.3789498   -3.4689077   -1.9294638    0.1359937   -3.4689077    1.5394439   589929 
 6536000    1.3778646   -3.4680977   -1.9298811   0.13921833   -3.4680977    1.5382166   589935 
 6537000    1.3780221   -3.4687978   -1.9304392    0.1422356   -3.4687978    1.5383586   589948 
 6538000    1.3791612   -3.4692193   -1.9296386   0.14057206   -3.4692193    1.5395806   589967 
 6539000     1.379657   -3.4705398   -1.9304762   0.13291251   -3.4705398    1.5400636   589994 
 6540000    1.3795705   -3.4703068   -1.9303867   0.14031564   -3.4703068    1.5399201   590012 
 6541000     1.381148   -3.4707034   -1.9290381   0.13744208   -3.4707034    1.5416653   590018 
 6542000    1.3792709   -3.4692267   -1.9296906   0.14201514   -3.4692267    1.5395361   590031 
 6543000    1.3795052   -3.4708024   -1.9310204   0.13803597   -3.4708024     1.539782   590037 
 6544000    1.3806124   -3.4720325   -1.9310539   0.13272469   -3.4720325    1.5409787   590052 
 6545000    1.3798822   -3.4699705    -1.929846   0.13665556   -3.4699705    1.5401245   590067 
 6546000    1.3807991   -3.4715879   -1.9304819    0.1393528   -3.4715879     1.541106   590083 
 6547000    1.3813869   -3.4722345   -1.9305142   0.13560362   -3.4722345    1.5417203   590099 
 6548000    1.3818277   -3.4715098   -1.9293471   0.13809045   -3.4715098    1.5421626   590118 
 6549000    1.3799986   -3.4702275    -1.930135   0.13966407   -3.4702275    1.5400925   590129 
 6550000    1.3815632    -3.471792   -1.9300056   0.14222995    -3.471792    1.5417865   590149 
 6551000    1.3811688   -3.4725592   -1.9312495   0.13968102   -3.4725592    1.5413097   590163 
 6552000    1.3797906   -3.4710521   -1.9313039   0.14461421   -3.4710521    1.5397482   590172 
 6553000    1.3814014    -3.473294   -1.9317691   0.13744053    -3.473294    1.5415249   590180 
 6554000    1.3801492   -3.4717444   -1.9316404    0.1380704   -3.4717444    1.5401041   590189 
 6555000     1.381814   -3.4740981   -1.9321729   0.13297589   -3.4740981    1.5419252   590203 
 6556000    1.3811961   -3.4721636   -1.9310063   0.14338188   -3.4721636    1.5411573   590233 
 6557000    1.3799938   -3.4707742   -1.9310314   0.13959774   -3.4707742    1.5397428   590261 
 6558000    1.3795265   -3.4716797    -1.932487   0.13864189   -3.4716797    1.5391927   590272 
 6559000    1.3792681   -3.4715737   -1.9327136   0.13948277   -3.4715737    1.5388601   590289 
 6560000    1.3809416   -3.4730966    -1.932432   0.13806614   -3.4730966    1.5406645   590313 
 6561000    1.3813794   -3.4724509   -1.9313397   0.13456337   -3.4724509    1.5411112   590329 
 6562000    1.3800405   -3.4711056    -1.931496    0.1369597   -3.4711056    1.5396097   590332 
 6563000    1.3812168   -3.4723611   -1.9314522   0.13674764   -3.4723611    1.5409089   590337 
 6564000    1.3813726   -3.4722218   -1.9312017   0.13913944   -3.4722218    1.5410201   590361 
 6565000    1.3803605   -3.4718545   -1.9320104   0.14215268   -3.4718545    1.5398441   590379 
 6566000    1.3825508   -3.4729632   -1.9307228   0.13023855   -3.4729632    1.5422404   590397 
 6567000    1.3825785   -3.4728495   -1.9305964   0.13944314   -3.4728495    1.5422531   590404 
 6568000    1.3821614   -3.4719939   -1.9302271   0.14216709   -3.4719939    1.5417669   590412 
 6569000    1.3842894   -3.4745019   -1.9303849   0.13576709   -3.4745019    1.5441171   590421 
 6570000    1.3819067   -3.4721852   -1.9307703   0.13843102   -3.4721852    1.5414149   590438 
 6571000    1.3810993    -3.470878   -1.9303871   0.13916213    -3.470878    1.5404908   590447 
 6572000     1.380031     -3.47028   -1.9310095   0.14169242     -3.47028    1.5392705   590458 
 6573000    1.3824582   -3.4731355   -1.9312046   0.13556273   -3.4731355    1.5419309   590476 
 6574000    1.3821306    -3.473082   -1.9315583   0.13940051    -3.473082    1.5415237   590492 
 6575000    1.3829892   -3.4741007   -1.9316559   0.13341192   -3.4741007    1.5424448   590506 
 6576000    1.3813357   -3.4722734   -1.9317146    0.1364412   -3.4722734    1.5405589   590522 
 6577000    1.3808222   -3.4726713   -1.9327321   0.14169177   -3.4726713    1.5399392   590540 
 6578000    1.3813212   -3.4732522   -1.9328086   0.13350223   -3.4732522    1.5404436   590560 
 6579000    1.3817311   -3.4745388   -1.9336852   0.13515193   -3.4745388    1.5408536   590578 
 6580000    1.3808569    -3.474595   -1.9347501   0.14076164    -3.474595    1.5398449   590591 
 6581000    1.3811724   -3.4736132   -1.9334712    0.1393398   -3.4736132     1.540142   590612 
 6582000    1.3812091   -3.4735748   -1.9334179   0.13945309   -3.4735748    1.5401569   590622 
 6583000    1.3825226   -3.4742247   -1.9326242   0.13645193   -3.4742247    1.5416005   590630 
 6584000    1.3813795   -3.4737866   -1.9335128   0.13986181   -3.4737866    1.5402738   590650 
 6585000     1.382366   -3.4737063   -1.9324055   0.13493048   -3.4737063    1.5413007   590678 
 6586000    1.3827638    -3.473553   -1.9318166   0.13345626    -3.473553    1.5417364   590681 
 6587000    1.3838236    -3.474614   -1.9317638   0.13690468    -3.474614    1.5428502   590707 
 6588000    1.3822159   -3.4736624   -1.9326308   0.14769864   -3.4736624    1.5410316   590717 
 6589000    1.3837486   -3.4754841   -1.9328089   0.14302438   -3.4754841    1.5426751   590742 
 6590000    1.3825404   -3.4749893   -1.9337186   0.14351499   -3.4749893    1.5412707   590764 
 6591000    1.3842412   -3.4761503   -1.9330018   0.13948047   -3.4761503    1.5431485   590771 
 6592000    1.3817561   -3.4733303   -1.9329886    0.1456186   -3.4733303    1.5403417   590785 
 6593000    1.3826859   -3.4738804    -1.932557   0.14141233   -3.4738804    1.5413234   590806 
 6594000    1.3824285   -3.4741142   -1.9330986   0.14297704   -3.4741142    1.5410156   590814 
 6595000    1.3820453   -3.4742106   -1.9336691   0.13824581   -3.4742106    1.5405415   590832 
 6596000    1.3816109     -3.47404   -1.9340088   0.14081591     -3.47404    1.5400312   590842 
 6597000    1.3824849   -3.4751479   -1.9342077     0.133874   -3.4751479    1.5409402   590867 
 6598000     1.381317   -3.4741795   -1.9345905   0.14392397   -3.4741795     1.539589   590886 
 6599000    1.3844593   -3.4778686   -1.9348242    0.1343408   -3.4778686    1.5430443   590904 
 6600000    1.3828771   -3.4768202   -1.9355864   0.13472246   -3.4768202    1.5412339   590922 
 6601000    1.3819951   -3.4755416   -1.9353533   0.14077518   -3.4755416    1.5401884   590946 
 6602000    1.3826853   -3.4749589   -1.9340483   0.14255781   -3.4749589    1.5409106   590964 
 6603000    1.3830773   -3.4750613   -1.9337373   0.14447638   -3.4750613     1.541324   590973 
 6604000    1.3819949   -3.4738105   -1.9337213   0.14356724   -3.4738105    1.5400891   590984 
 6605000    1.3829229   -3.4749011   -1.9338039   0.14103454   -3.4749011    1.5410972   590994 
 6606000     1.384282   -3.4763536   -1.9338149   0.14131316   -3.4763536    1.5425387   591022 
 6607000     1.382837    -3.475586   -1.9347044   0.14231277    -3.475586    1.5408816   591040 
 6608000    1.3834785   -3.4767601    -1.935182   0.14176429   -3.4767601    1.5415781   591047 
 6609000    1.3829729   -3.4763752   -1.9353891   0.13962753   -3.4763752    1.5409861   591058 
 6610000    1.3818969   -3.4756108   -1.9358419   0.14142389   -3.4756108    1.5397689   591065 
 6611000    1.3839129   -3.4780185    -1.936032   0.13368195   -3.4780185    1.5419865   591076 
 6612000    1.3816045     -3.47564   -1.9362672   0.13889065     -3.47564    1.5393728   591092 
 6613000     1.381155    -3.474945   -1.9361252   0.14157325    -3.474945    1.5388198   591112 
 6614000    1.3805232   -3.4744616   -1.9364186   0.13538678   -3.4744616     1.538043   591140 
 6615000    1.3825213   -3.4761183   -1.9358621   0.13668039   -3.4761183    1.5402562   591145 
 6616000    1.3823123   -3.4754671   -1.9355038   0.14209266   -3.4754671    1.5399633   591168 
 6617000    1.3815196   -3.4753116   -1.9363094   0.14098605   -3.4753116    1.5390022   591198 
 6618000    1.3814906   -3.4760625   -1.9371369    0.1397723   -3.4760625    1.5389256   591215 
 6619000    1.3824594   -3.4764425   -1.9364715   0.13779418   -3.4764425     1.539971   591228 
 6620000    1.3826417    -3.476586   -1.9364563   0.13625552    -3.476586    1.5401297   591245 
 6621000    1.3831735   -3.4768022   -1.9361009   0.14367671   -3.4768022    1.5407013   591253 
 6622000    1.3829858   -3.4758277    -1.935346   0.13994574   -3.4758277    1.5404817   591257 
 6623000     1.384042   -3.4756997    -1.934044   0.14056519   -3.4756997    1.5416556   591258 
 6624000    1.3844424   -3.4766541   -1.9345995   0.13750167   -3.4766541    1.5420546   591276 
 6625000    1.3845905   -3.4767089    -1.934531    0.1434661   -3.4767089    1.5421779   591292 
 6626000    1.3837979   -3.4762851   -1.9350031   0.14092353   -3.4762851    1.5412821   591297 
 6627000    1.3849213   -3.4770184   -1.9345634    0.1446321   -3.4770184    1.5424551   591327 
 6628000    1.3850608   -3.4778229   -1.9352308   0.14205833   -3.4778229    1.5425922   591334 
 6629000    1.3832369   -3.4762167   -1.9356767   0.14505869   -3.4762167      1.54054   591342 
 6630000    1.3832459   -3.4766327   -1.9361035   0.14432024   -3.4766327    1.5405292   591350 
 6631000     1.382482   -3.4763517   -1.9367019   0.14003203   -3.4763517    1.5396498   591361 
 6632000    1.3831925   -3.4766807   -1.9363021   0.13626762   -3.4766807    1.5403786   591385 
 6633000    1.3815946   -3.4754737   -1.9369033   0.14581716   -3.4754737    1.5385704   591396 
 6634000    1.3834181   -3.4760564   -1.9355152   0.14299035   -3.4760564    1.5405412   591419 
 6635000    1.3845029   -3.4772042   -1.9354811   0.13745069   -3.4772042    1.5417232   591429 
 6636000    1.3847899   -3.4773977   -1.9353889   0.14846083   -3.4773977    1.5420088   591442 
 6637000    1.3842491   -3.4765915   -1.9352318   0.14251505   -3.4765915    1.5413597   591460 
 6638000     1.384121   -3.4777709   -1.9365747   0.13963747   -3.4777709    1.5411962   591468 
 6639000    1.3838458    -3.478371   -1.9375594   0.13921124    -3.478371    1.5408116   591498 
 6640000    1.3846092   -3.4792856   -1.9376683   0.14404361   -3.4792856    1.5416173   591515 
 6641000    1.3825383   -3.4758239   -1.9365539   0.14699391   -3.4758239      1.53927   591531 
 6642000      1.38646   -3.4803961   -1.9368095   0.13996241   -3.4803961    1.5435867   591550 
 6643000    1.3854925   -3.4796057   -1.9371301    0.1363986   -3.4796057    1.5424757   591563 
 6644000    1.3856635   -3.4788098   -1.9361829   0.14120499   -3.4788098    1.5426269   591578 
 6645000    1.3843619   -3.4771226   -1.9360098   0.15565764   -3.4771226    1.5411127   591603 
 6646000    1.3869217   -3.4803032   -1.9363826    0.1447278   -3.4803032    1.5439206   591619 
 6647000    1.3829798   -3.4763157   -1.9368301   0.14240401   -3.4763157    1.5394856   591637 
 6648000    1.3871567   -3.4808938   -1.9367822   0.14111878   -3.4808938    1.5441117   591646 
 6649000    1.3852244   -3.4789327   -1.9370033   0.14102515   -3.4789327    1.5419295   591658 
 6650000    1.3862206   -3.4800569   -1.9370654   0.14842701   -3.4800569    1.5429915   591676 
 6651000    1.3848505   -3.4778354   -1.9364054   0.14483749   -3.4778354      1.54143   591690 
 6652000    1.3861376    -3.479588   -1.9367593   0.14194288    -3.479588    1.5428286   591703 
 6653000    1.3837287   -3.4764194    -1.936285   0.14443517   -3.4764194    1.5401344   591708 
 6654000    1.3861448   -3.4794841   -1.9366891   0.14083766   -3.4794841     1.542795   591719 
 6655000    1.3843056   -3.4781207   -1.9374066   0.14628695   -3.4781207     1.540714   591732 
 6656000    1.3858368   -3.4795129   -1.9371129   0.13849874   -3.4795129    1.5424001   591739 
 6657000    1.3853806   -3.4792408   -1.9373694   0.14358988   -3.4792408    1.5418715   591747 
 6658000     1.383882   -3.4771835   -1.9369851   0.14703303   -3.4771835    1.5401984   591749 
 6659000    1.3846317   -3.4790531   -1.9380333   0.13924469   -3.4790531    1.5410197   591754 
 6660000    1.3841657   -3.4781594   -1.9377052   0.14101582   -3.4781594    1.5404543   591772 
 6661000    1.3846976   -3.4784311   -1.9374292   0.13770259   -3.4784311    1.5410019   591789 
 6662000    1.3862662   -3.4788476   -1.9361339   0.14998981   -3.4788476    1.5427137   591802 
 6663000    1.3862844   -3.4783282   -1.9356281   0.14373751   -3.4783282       1.5427   591815 
 6664000    1.3862317   -3.4791888   -1.9366047   0.14102431   -3.4791888    1.5425841   591837 
 6665000    1.3857932   -3.4777705   -1.9357056   0.14149292   -3.4777705    1.5420649   591849 
 6666000    1.3856574   -3.4782479   -1.9363524   0.13448359   -3.4782479    1.5418955   591856 
 6667000    1.3858525   -3.4787747   -1.9366933   0.14265238   -3.4787747    1.5420814   591868 
 6668000    1.3858921   -3.4782624    -1.936197   0.13671326   -3.4782624    1.5420655   591891 
 6669000    1.3855653   -3.4782048   -1.9365629   0.14380236   -3.4782048     1.541642   591914 
 6670000    1.3866118   -3.4792926   -1.9365306    0.1450713   -3.4792926     1.542762   591931 
 6671000    1.3864009   -3.4784553   -1.9359722   0.14544101   -3.4784553    1.5424831   591948 
 6672000    1.3861576   -3.4788273   -1.9366644   0.14475061   -3.4788273    1.5421629   591967 
 6673000    1.3845552   -3.4771453   -1.9368042   0.14500059   -3.4771453    1.5403411   591982 
 6674000    1.3843834   -3.4768955   -1.9367923   0.14695927   -3.4768955    1.5401031   592000 
 6675000    1.3857511   -3.4783562    -1.936768   0.14598712   -3.4783562    1.5415882   592014 
 6676000    1.3872876   -3.4797514    -1.936493   0.14150801   -3.4797514    1.5432584   592029 
 6677000    1.3860009   -3.4787751   -1.9370105   0.14262298   -3.4787751    1.5417646   592053 
 6678000    1.3866228   -3.4797044   -1.9372898   0.14457564   -3.4797044    1.5424147   592069 
 6679000    1.3847664   -3.4784394   -1.9381131   0.14887164   -3.4784394    1.5403263   592078 
 6680000     1.385098   -3.4785899   -1.9379677   0.14157827   -3.4785899    1.5406222   592106 
 6681000    1.3861404   -3.4803172   -1.9386006   0.14429369   -3.4803172    1.5417166   592131 
 6682000    1.3853056   -3.4788384   -1.9380866   0.14625695   -3.4788384    1.5407517   592145 
 6683000    1.3869152   -3.4823727   -1.9398699   0.13649392   -3.4823727    1.5425028   592160 
 6684000    1.3867963   -3.4812761   -1.9389263   0.14443145   -3.4812761    1.5423498   592168 
 6685000    1.3866079    -3.482077   -1.9399836    0.1398867    -3.482077    1.5420934   592186 
 6686000    1.3870205    -3.481569   -1.9390455   0.14226821    -3.481569    1.5425236   592197 
 6687000    1.3867755   -3.4817335   -1.9395396   0.13817669   -3.4817335    1.5421938   592219 
 6688000    1.3864294   -3.4810732   -1.9392956   0.13895753   -3.4810732    1.5417777   592231 
 6689000    1.3859046   -3.4807743   -1.9396193   0.13716623   -3.4807743     1.541155   592246 
 6690000    1.3855559   -3.4812283   -1.9404818   0.14314813   -3.4812283    1.5407465   592254 
 6691000     1.384788   -3.4806079   -1.9407413   0.14066146   -3.4806079    1.5398666   592264 
 6692000     1.385873   -3.4823499   -1.9413106   0.14301163   -3.4823499    1.5410392   592277 
 6693000    1.3859277   -3.4821621    -1.941127   0.14273253   -3.4821621    1.5410351   592302 
 6694000    1.3863316   -3.4824104   -1.9409704   0.13907656   -3.4824104    1.5414399   592319 
 6695000    1.3861133   -3.4823239   -1.9411372   0.13727646   -3.4823239    1.5411868   592323 
 6696000    1.3861309   -3.4819553   -1.9407854   0.13872117   -3.4819553    1.5411699   592337 
 6697000    1.3842876   -3.4808688   -1.9417821   0.15041941   -3.4808688    1.5390867   592350 
 6698000    1.3844487   -3.4806522   -1.9414098   0.14893136   -3.4806522    1.5392423   592359 
 6699000    1.3857776   -3.4827119   -1.9420129   0.14227579   -3.4827119    1.5406991   592367 
 6700000    1.3855842   -3.4824397   -1.9419843   0.13842149   -3.4824397    1.5404554   592378 
 6701000    1.3837898   -3.4816447    -1.943218   0.14369795   -3.4816447    1.5384267   592391 
 6702000    1.3831626   -3.4817123   -1.9440219   0.13585904   -3.4817123    1.5376905   592406 
 6703000    1.3837852   -3.4830871   -1.9447745   0.13902508   -3.4830871    1.5383125   592433 
 6704000    1.3857348   -3.4850969   -1.9446612   0.13134107   -3.4850969    1.5404357   592450 
 6705000    1.3842113   -3.4832165   -1.9445212   0.13852811   -3.4832165    1.5386953   592468 
 6706000    1.3837478   -3.4826763   -1.9445533   0.13694522   -3.4826763    1.5381229   592490 
 6707000     1.385088   -3.4832577    -1.943684    0.1374879   -3.4832577    1.5395737   592505 
 6708000    1.3841112   -3.4825155   -1.9440431   0.13950007   -3.4825155    1.5384724   592511 
 6709000    1.3858195    -3.484038   -1.9437084   0.14499563    -3.484038    1.5403296   592527 
 6710000    1.3839858   -3.4815794   -1.9433451   0.14095491   -3.4815794    1.5382343   592549 
 6711000    1.3856123   -3.4826141   -1.9426214   0.14281224   -3.4826141    1.5399927   592568 
 6712000    1.3867691    -3.483172   -1.9419144   0.14415419    -3.483172    1.5412576   592576 
 6713000    1.3873948    -3.483915   -1.9420167   0.14023593    -3.483915    1.5418984   592597 
 6714000    1.3865435   -3.4831257   -1.9422177   0.14773969   -3.4831257    1.5409081   592614 
 6715000    1.3875515   -3.4851691   -1.9432033   0.13952434   -3.4851691    1.5419658   592638 
 6716000    1.3868392   -3.4837515   -1.9426006   0.14474823   -3.4837515    1.5411509   592647 
 6717000    1.3860603   -3.4830899   -1.9428357   0.14267731   -3.4830899    1.5402541   592659 
 6718000    1.3862203   -3.4837579    -1.943378   0.13990483   -3.4837579    1.5403799   592679 
 6719000    1.3843247   -3.4823083   -1.9441074   0.14175955   -3.4823083    1.5382008   592707 
 6720000    1.3853819   -3.4838109   -1.9444769   0.13606794   -3.4838109     1.539334   592723 
 6721000    1.3856067   -3.4838333   -1.9442806   0.13850363   -3.4838333    1.5395526   592735 
 6722000    1.3848926   -3.4833473   -1.9446141   0.14100118   -3.4833473    1.5387333   592745 
 6723000    1.3846742   -3.4828798   -1.9444385   0.14661191   -3.4828798    1.5384413   592764 
 6724000    1.3859397   -3.4851727     -1.94538   0.13915173   -3.4851727    1.5397927   592785 
 6725000    1.3857958   -3.4840008   -1.9444096   0.13834411   -3.4840008    1.5395913   592801 
 6726000     1.386832   -3.4841037   -1.9433951   0.14218589   -3.4841037    1.5407087   592814 
 6727000    1.3879726   -3.4853489   -1.9433913   0.14164615   -3.4853489    1.5419576   592821 
 6728000    1.3868503   -3.4838768   -1.9431945   0.14286018   -3.4838768    1.5406823   592832 
 6729000    1.3873729   -3.4843634   -1.9431942   0.13984539   -3.4843634    1.5411692   592868 
 6730000    1.3878579     -3.48418   -1.9425318   0.14167788     -3.48418    1.5416482   592891 
 6731000     1.386209   -3.4834028   -1.9436044   0.14334858   -3.4834028    1.5397984   592898 
 6732000    1.3872187   -3.4842971   -1.9433901   0.14634935   -3.4842971     1.540907   592903 
 6733000    1.3852348   -3.4836555   -1.9449963   0.14464516   -3.4836555    1.5386591   592920 
 6734000    1.3871988   -3.4858951   -1.9450987   0.14118686   -3.4858951    1.5407965   592937 
 6735000    1.3861839   -3.4864496   -1.9468297   0.13723951   -3.4864496    1.5396199   592956 
 6736000    1.3837371   -3.4848252   -1.9479618    0.1441923   -3.4848252    1.5368634   592971 
 6737000    1.3849618   -3.4860823    -1.947908   0.13612349   -3.4860823    1.5381743   592990 
 6738000    1.3849136    -3.484152   -1.9460364   0.14277142    -3.484152    1.5381156   592992 
 6739000    1.3874035   -3.4872194   -1.9463619   0.13636779   -3.4872194    1.5408575   593001 
 6740000    1.3861166   -3.4856611   -1.9462821   0.14530908   -3.4856611     1.539379   593020 
 6741000    1.3848155   -3.4850533   -1.9471609   0.14542012   -3.4850533    1.5378925   593036 
 6742000    1.3864179   -3.4857518   -1.9461265   0.14123593   -3.4857518    1.5396253   593054 
 6743000    1.3858828   -3.4844301   -1.9454509   0.14456462   -3.4844301    1.5389792   593074 
 6744000    1.3879296    -3.485919   -1.9447214   0.14422457    -3.485919    1.5411976   593095 
 6745000     1.388273    -3.485915   -1.9443804   0.14514747    -3.485915    1.5415347   593112 
 6746000    1.3894775     -3.48796   -1.9451372   0.13922482     -3.48796    1.5428227   593131 
 6747000     1.385549   -3.4837739    -1.945334   0.14891064   -3.4837739    1.5384399   593139 
 6748000    1.3871906     -3.48708   -1.9468485   0.13886751     -3.48708    1.5402315   593151 
 6749000    1.3873984   -3.4864967   -1.9460657   0.14635005   -3.4864967    1.5404311   593163 
 6750000    1.3878926    -3.487337   -1.9463832   0.14388905    -3.487337    1.5409538   593173 
 6751000    1.3855903   -3.4845593   -1.9462447   0.14288696   -3.4845593    1.5383146   593205 
 6752000    1.3867056   -3.4854442   -1.9459328   0.14925248   -3.4854442    1.5395113   593221 
 6753000    1.3853518   -3.4840448   -1.9460701   0.14553639   -3.4840448    1.5379747   593234 
 6754000      1.38818   -3.4868462   -1.9457344   0.13960007   -3.4868462    1.5411119   593235 
 6755000    1.3873662    -3.485932   -1.9457496    0.1468831    -3.485932    1.5401823   593245 
 6756000    1.3897692   -3.4876472   -1.9448517   0.13933374   -3.4876472    1.5427955   593266 
 6757000    1.3881189   -3.4863117    -1.945395   0.13510603   -3.4863117    1.5409167   593284 
 6758000    1.3855513   -3.4846998   -1.9466697    0.1461225   -3.4846998    1.5380302   593298 
 6759000    1.3866199   -3.4857946   -1.9466223    0.1452613   -3.4857946    1.5391723   593315 
 6760000    1.3877695    -3.486993   -1.9465758    0.1413277    -3.486993    1.5404172   593327 
 6761000    1.3866709   -3.4857451   -1.9466252   0.14066241   -3.4857451    1.5391199   593357 
 6762000    1.3873859   -3.4863854     -1.94649   0.14666024   -3.4863854    1.5398954   593364 
 6763000    1.3871485   -3.4870777   -1.9474821   0.14121409   -3.4870777    1.5395956   593378 
 6764000    1.3864884   -3.4865992   -1.9477285    0.1419238   -3.4865992    1.5388707   593375 
 6765000    1.3892553   -3.4883789   -1.9464684   0.14018931   -3.4883789    1.5419105   593387 
 6766000    1.3882696   -3.4875737   -1.9468169   0.14714352   -3.4875737    1.5407568   593410 
 6767000    1.3884519   -3.4881883   -1.9472552   0.14323496   -3.4881883    1.5409332   593420 
 6768000    1.3892317   -3.4890572   -1.9473158   0.14207638   -3.4890572    1.5417414   593442 
 6769000    1.3894619   -3.4899146   -1.9479567   0.14381151   -3.4899146    1.5419579   593457 
 6770000    1.3866516   -3.4881902   -1.9493821    0.1411382   -3.4881902    1.5388081   593469 
 6771000    1.3875815   -3.4886265   -1.9488306   0.14607527   -3.4886265    1.5397958   593486 
 6772000    1.3883604   -3.4892685   -1.9486576    0.1417522   -3.4892685    1.5406109   593505 
 6773000     1.387376   -3.4883554   -1.9488991   0.14556159   -3.4883554    1.5394563   593529 
 6774000    1.3870176   -3.4887943    -1.949772   0.14508678   -3.4887943    1.5390223   593543 
 6775000    1.3885961   -3.4907306    -1.949988   0.13792272   -3.4907306    1.5407426   593555 
 6776000    1.3880865   -3.4900679   -1.9499322   0.13384368   -3.4900679    1.5401357   593571 
 6777000    1.3886885   -3.4894124   -1.9486192   0.14149677   -3.4894124    1.5407932   593575 
 6778000    1.3894643   -3.4900307   -1.9484182    0.1367912   -3.4900307    1.5416125   593591 
 6779000    1.3886022   -3.4895402   -1.9489154   0.14406989   -3.4895402    1.5406248   593603 
 6780000    1.3877482   -3.4892366   -1.9495826    0.1394467   -3.4892366     1.539654   593612 
 6781000    1.3887124   -3.4905085   -1.9498262   0.14223394   -3.4905085    1.5406822   593628 
 6782000    1.3874865   -3.4884716   -1.9491857   0.13992287   -3.4884716    1.5392859   593642 
 6783000     1.388717   -3.4895822   -1.9489442   0.14258411   -3.4895822     1.540638   593647 
 6784000    1.3882339    -3.488504   -1.9484278    0.1397573    -3.488504    1.5400762   593657 
 6785000    1.3873928    -3.486389   -1.9472719   0.14711026    -3.486389    1.5391171   593667 
 6786000    1.3882095   -3.4887262   -1.9487213   0.14346629   -3.4887262    1.5400049   593674 
 6787000     1.389102   -3.4887738   -1.9478332   0.13938765   -3.4887738    1.5409406   593695 
 6788000    1.3878049   -3.4881336   -1.9486424    0.1432912   -3.4881336    1.5394912   593699 
 6789000    1.3885789   -3.4883172   -1.9480063   0.13762583   -3.4883172     1.540311   593714 
 6790000    1.3877812   -3.4880425   -1.9486424     0.143301   -3.4880425    1.5394001   593724 
 6791000    1.3869763   -3.4882292   -1.9497711   0.13971796   -3.4882292    1.5384581   593743 
 6792000     1.387301   -3.4888809    -1.950117   0.14170715   -3.4888809    1.5387638   593764 
 6793000    1.3883605   -3.4890992    -1.949194   0.14192448   -3.4890992    1.5399053   593777 
 6794000    1.3883813   -3.4892024   -1.9493129   0.14637263   -3.4892024    1.5398895   593792 
 6795000    1.3891354   -3.4906933    -1.949983   0.14414119   -3.4906933    1.5407103   593798 
 6796000    1.3891118   -3.4886643   -1.9479931    0.1434324   -3.4886643    1.5406711   593803 
 6797000     1.389528   -3.4887832   -1.9476945   0.14371541   -3.4887832    1.5410886   593820 
 6798000    1.3878859   -3.4879193   -1.9486908   0.14399095   -3.4879193    1.5392285   593835 
 6799000    1.3876244   -3.4878844   -1.9489562   0.14290795   -3.4878844    1.5389282   593839 
 6800000    1.3881201   -3.4888766    -1.949448   0.14991099   -3.4888766    1.5394287   593858 
 6801000    1.3881245    -3.489919    -1.950514   0.14324262    -3.489919     1.539405   593869 
 6802000    1.3892008   -3.4905967   -1.9500215    0.1450986   -3.4905967    1.5405753   593878 
 6803000    1.3880768    -3.488718   -1.9494049    0.1493365    -3.488718    1.5393132   593884 
 6804000    1.3878016   -3.4896689   -1.9506997   0.14885208   -3.4896689    1.5389692   593899 
 6805000    1.3894903   -3.4910062   -1.9502033   0.14195732   -3.4910062    1.5408029   593914 
 6806000    1.3897015   -3.4907479   -1.9497342   0.14716045   -3.4907479    1.5410137   593923 
 6807000    1.3882326   -3.4893118   -1.9499943   0.15027642   -3.4893118    1.5393176   593949 
 6808000    1.3889242   -3.4896908   -1.9496401   0.14466579   -3.4896908    1.5400507   593962 
 6809000    1.3890237   -3.4900761   -1.9499332   0.14266525   -3.4900761    1.5401429   593969 
 6810000    1.3881567   -3.4895313   -1.9504171   0.14137511   -3.4895313    1.5391141   593995 
 6811000    1.3883975   -3.4903758    -1.951018   0.14321596   -3.4903758    1.5393578   594004 
 6812000    1.3880354   -3.4905419   -1.9516063   0.14192224   -3.4905419    1.5389356   594012 
 6813000    1.3869673   -3.4888825   -1.9511803   0.14599235   -3.4888825    1.5377022   594031 
 6814000    1.3891013   -3.4914773   -1.9514403   0.14119827   -3.4914773    1.5400371   594043 
 6815000     1.388143   -3.4899829   -1.9510316   0.14241876   -3.4899829    1.5389513   594052 
 6816000    1.3886793    -3.490038   -1.9505258   0.13488753    -3.490038    1.5395122   594065 
 6817000    1.3863909   -3.4879919   -1.9510374   0.14027698   -3.4879919    1.5369545   594073 
 6818000    1.3886684   -3.4906956   -1.9512369   0.14164521   -3.4906956    1.5394587   594081 
 6819000    1.3887524   -3.4915392    -1.952016   0.13978861   -3.4915392    1.5395232   594092 
 6820000    1.3881873   -3.4904918   -1.9516339   0.14140998   -3.4904918     1.538858   594107 
 6821000    1.3888778    -3.491426   -1.9518493   0.14746795    -3.491426    1.5395767   594125 
 6822000    1.3899211    -3.492583   -1.9518939   0.14166386    -3.492583    1.5406891   594142 
 6823000    1.3886255   -3.4902609    -1.951039   0.14253057   -3.4902609    1.5392219   594154 
 6824000    1.3888876   -3.4904287   -1.9509732   0.14654318   -3.4904287    1.5394554   594176 
 6825000    1.3899908   -3.4920412   -1.9514044    0.1395874   -3.4920412    1.5406368   594192 
 6826000     1.389306   -3.4912547    -1.951421   0.14208981   -3.4912547    1.5398337   594209 
 6827000    1.3898068   -3.4906645   -1.9502939    0.1419005   -3.4906645    1.5403706   594216 
 6828000    1.3918248    -3.492813   -1.9502135   0.13621688    -3.492813    1.5425995   594219 
 6829000    1.3900251   -3.4929342   -1.9523528   0.14309874   -3.4929342    1.5405814   594228 
 6830000    1.3877805   -3.4905936   -1.9525568   0.14996136   -3.4905936    1.5380368   594250 
 6831000    1.3889574   -3.4917827   -1.9524779   0.14632743   -3.4917827    1.5393048   594264 
 6832000    1.3869632   -3.4908883   -1.9538349    0.1398239   -3.4908883    1.5370534   594280 
 6833000    1.3891271   -3.4937435   -1.9543153   0.14812661   -3.4937435    1.5394282   594289 
 6834000    1.3897435     -3.49287   -1.9528054   0.14663504     -3.49287    1.5400646   594307 
 6835000    1.3893148   -3.4924842   -1.9529335   0.14290708   -3.4924842    1.5395507   594322 
 6836000    1.3899759   -3.4930407    -1.952786   0.14578315   -3.4930407    1.5402547   594333 
 6837000     1.388753   -3.4910478   -1.9521663   0.14846381   -3.4910478    1.5388815   594340 
 6838000    1.3880506    -3.490349   -1.9522665   0.14207418    -3.490349    1.5380825   594348 
 6839000    1.3904531   -3.4925463   -1.9518716   0.14107254   -3.4925463    1.5406747   594375 
 6840000    1.3901401   -3.4922836   -1.9520076    0.1419678   -3.4922836    1.5402761   594395 
 6841000     1.391503   -3.4937724     -1.95202   0.14281394   -3.4937724    1.5417524   594408 
 6842000    1.3910944   -3.4917016    -1.950459   0.14236871   -3.4917016    1.5412426   594430 
 6843000     1.391978    -3.492728   -1.9505453   0.14869802    -3.492728    1.5421827   594445 
 6844000    1.3908959   -3.4915169   -1.9505667    0.1433897   -3.4915169    1.5409501   594458 
 6845000    1.3920301   -3.4925118   -1.9503518   0.14398832   -3.4925118      1.54216   594476 
 6846000    1.3911777    -3.491797   -1.9506436   0.14827149    -3.491797    1.5411535   594500 
 6847000    1.3922981   -3.4926668   -1.9503318   0.14018938   -3.4926668     1.542335   594523 
 6848000    1.3917136   -3.4922345    -1.950573   0.14594756   -3.4922345    1.5416615   594533 
 6849000    1.3889395   -3.4901472   -1.9515535   0.14478707   -3.4901472    1.5385938   594531 
 6850000    1.3908986   -3.4922811   -1.9515458    0.1421626   -3.4922811    1.5407354   594542 
 6851000     1.390105   -3.4915223    -1.951679   0.13949553   -3.4915223    1.5398433   594547 
 6852000     1.392472   -3.4940571   -1.9516254   0.13770299   -3.4940571    1.5424317   594560 
 6853000    1.3915905   -3.4927389   -1.9513615   0.14266869   -3.4927389    1.5413774   594590 
 6854000    1.3923395    -3.493016   -1.9508427   0.14100145    -3.493016    1.5421733   594603 
 6855000    1.3918244   -3.4914708   -1.9499147   0.15237345   -3.4914708    1.5415561   594621 
 6856000    1.3932164   -3.4922786   -1.9492171   0.14606037   -3.4922786    1.5430616   594635 
 6857000    1.3926039   -3.4918911   -1.9495313   0.14963853   -3.4918911    1.5423598   594644 
 6858000    1.3903348    -3.490568   -1.9507653   0.14899795    -3.490568    1.5398027   594661 
 6859000    1.3918306   -3.4928525   -1.9514191    0.1550074   -3.4928525    1.5414333   594671 
 6860000    1.3912977   -3.4921285   -1.9513242   0.14812514   -3.4921285    1.5408043   594686 
 6861000    1.3918214   -3.4939169   -1.9525715    0.1439932   -3.4939169    1.5413454   594701 
 6862000    1.3929371    -3.494889    -1.952365   0.14748892    -3.494889     1.542524   594723 
 6863000    1.3907651   -3.4939555   -1.9538704    0.1491593   -3.4939555     1.540085   594736 
 6864000    1.3898166   -3.4931275   -1.9541239   0.14495574   -3.4931275    1.5390036   594748 
 6865000    1.3895071     -3.49387   -1.9552271   0.14455751     -3.49387    1.5386428   594755 
 6866000    1.3895037    -3.493229   -1.9546443   0.14094847    -3.493229    1.5385847   594776 
 6867000    1.3897278    -3.493685   -1.9548754   0.14558709    -3.493685    1.5388096   594785 
 6868000    1.3892648   -3.4942133   -1.9559345   0.14181713   -3.4942133    1.5382788   594792 
 6869000    1.3895176   -3.4936463   -1.9551497   0.14427099   -3.4936463    1.5384966   594816 
 6870000    1.3911347   -3.4956561   -1.9554052   0.14338655   -3.4956561    1.5402509   594830 
 6871000    1.3899854   -3.4949184   -1.9559764    0.1453809   -3.4949184    1.5389421   594844 
 6872000    1.3906261   -3.4953297   -1.9557196    0.1352623   -3.4953297    1.5396101   594860 
 6873000    1.3912798   -3.4956515   -1.9553436   0.14483678   -3.4956515    1.5403079   594870 
 6874000    1.3915874    -3.495754   -1.9551522   0.14558691    -3.495754    1.5406018   594888 
 6875000    1.3912075   -3.4949401   -1.9548105   0.14645216   -3.4949401    1.5401295   594908 
 6876000    1.3903594   -3.4944993   -1.9553578   0.14469825   -3.4944993    1.5391414   594927 
 6877000    1.3922717   -3.4967146   -1.9555211   0.14686264   -3.4967146    1.5411936   594952 
 6878000    1.3904149   -3.4938488   -1.9547339   0.14925337   -3.4938488    1.5391149   594961 
 6879000    1.3915668    -3.495273   -1.9549477   0.14764725    -3.495273    1.5403253   594986 
 6880000    1.3904383   -3.4952994   -1.9562517   0.14446012   -3.4952994    1.5390477   594997 
 6881000    1.3899632   -3.4957237   -1.9572251    0.1448677   -3.4957237    1.5384985   595006 
 6882000    1.3898292   -3.4960213    -1.957728   0.13993974   -3.4960213    1.5382934   595028 
 6883000     1.390893   -3.4959145   -1.9564592   0.14341818   -3.4959145    1.5394553   595034 
 6884000    1.3898617   -3.4943459   -1.9560735   0.14417336   -3.4943459    1.5382724   595050 
 6885000    1.3916411   -3.4957409   -1.9555197   0.14837086   -3.4957409    1.5402211   595058 
 6886000    1.3924954   -3.4958196   -1.9546892   0.14650389   -3.4958196    1.5411304   595072 
 6887000     1.391963    -3.496045   -1.9555452   0.14184149    -3.496045    1.5404998   595088 
 6888000    1.3906718   -3.4943844   -1.9553421   0.14902855   -3.4943844    1.5390423   595099 
 6889000    1.3901133   -3.4943025   -1.9559532   0.14723156   -3.4943025    1.5383493   595128 
 6890000    1.3899016   -3.4938772   -1.9557881   0.15276694   -3.4938772    1.5380891   595138 
 6891000    1.3908138   -3.4951581   -1.9560595   0.14736946   -3.4951581    1.5390986   595138 
 6892000    1.3905757   -3.4956002   -1.9567962   0.14053121   -3.4956002     1.538804   595150 
 6893000    1.3920548   -3.4963185   -1.9559294   0.14584278   -3.4963185    1.5403891   595170 
 6894000    1.3908333   -3.4950747   -1.9560502   0.15153704   -3.4950747    1.5390245   595175 
 6895000    1.3908153    -3.494898   -1.9559142   0.14748486    -3.494898    1.5389838   595183 
 6896000     1.391069   -3.4951684   -1.9559762   0.14250946   -3.4951684    1.5391922   595211 
 6897000    1.3932032   -3.4967912   -1.9552789   0.14435911   -3.4967912    1.5415122   595227 
 6898000     1.392612   -3.4965394   -1.9556761   0.14628611   -3.4965394    1.5408633   595225 
 6899000    1.3901618   -3.4941583   -1.9560396   0.14543873   -3.4941583    1.5381187   595238 
 6900000    1.3918944   -3.4956605   -1.9556611   0.14750984   -3.4956605    1.5399994   595252 
 6901000    1.3910221   -3.4962928   -1.9573101    0.1421629   -3.4962928    1.5389826   595272 
 6902000    1.3910352   -3.4969267   -1.9579503   0.14572359   -3.4969267    1.5389764   595280 
 6903000     1.389764   -3.4953302   -1.9578093   0.14438161   -3.4953302    1.5375209   595299 
 6904000    1.3901203   -3.4967152   -1.9588105   0.14376784   -3.4967152    1.5379047   595303 
 6905000     1.390073   -3.4967408   -1.9589219   0.14289312   -3.4967408    1.5378188   595316 
 6906000    1.3918558   -3.4969181   -1.9571425   0.13896173   -3.4969181    1.5397756   595322 
 6907000    1.3916699   -3.4984094   -1.9589196    0.1426601   -3.4984094    1.5394898   595353 
 6908000    1.3905634   -3.4981889   -1.9599541   0.13915892   -3.4981889    1.5382348   595365 
 6909000    1.3912506   -3.4984953   -1.9595211   0.14226293   -3.4984953    1.5389743   595373 
 6910000    1.3919314   -3.4998358   -1.9601602   0.14173672   -3.4998358    1.5396756   595393 
 6911000    1.3893951   -3.4978036   -1.9609876    0.1421015   -3.4978036     1.536816   595414 
 6912000    1.3905842   -3.4988422   -1.9607394   0.14658832   -3.4988422    1.5381028   595425 
 6913000    1.3902752   -3.4982107   -1.9604833     0.144117   -3.4982107    1.5377274   595438 
 6914000    1.3911335   -3.4993423    -1.960712   0.14529613   -3.4993423    1.5386302   595456 
 6915000     1.392249   -3.5007301   -1.9609024   0.13994834   -3.5007301    1.5398278   595470 
 6916000    1.3910198   -3.4987712   -1.9603442   0.14504843   -3.4987712     1.538427   595486 
 6917000      1.39194   -3.4999735   -1.9605909   0.14437603   -3.4999735    1.5393826   595510 
 6918000    1.3930656   -3.4997547   -1.9591479   0.14671322   -3.4997547    1.5406068   595518 
 6919000    1.3923835   -3.4999737    -1.960191   0.14724783   -3.4999737    1.5397826   595545 
 6920000    1.3917621   -3.4989408   -1.9598945   0.14043146   -3.4989408    1.5390463   595564 
 6921000    1.3932481   -3.5006101   -1.9599385   0.14161159   -3.5006101    1.5406715   595571 
 6922000    1.3918793   -3.4998248   -1.9607135   0.14331027   -3.4998248    1.5391113   595589 
 6923000    1.3913367   -3.4989468   -1.9604742   0.13888929   -3.4989468    1.5384726   595604 
 6924000    1.3907249   -3.4985504   -1.9607492   0.14337965   -3.4985504    1.5378013   595602 
 6925000    1.3902618   -3.4987923   -1.9615495   0.14493614   -3.4987923    1.5372428   595620 
 6926000    1.3907594    -3.499928    -1.962148   0.14088861    -3.499928      1.53778   595625 
 6927000    1.3892866   -3.4989599   -1.9628444   0.13683243   -3.4989599    1.5361154   595639 
 6928000    1.3915646   -3.5010111    -1.962395   0.13301715   -3.5010111    1.5386161   595646 
 6929000    1.3892452   -3.4970391   -1.9610339   0.14914304   -3.4970391    1.5360051   595664 
 6930000    1.3939731   -3.5009302   -1.9597494   0.13735744   -3.5009302    1.5411808   595684 
 6931000    1.3922918   -3.4996279   -1.9603215   0.13986587   -3.4996279    1.5393064   595690 
 6932000    1.3928007   -3.5005525   -1.9607041   0.14680023   -3.5005525    1.5398484   595698 
 6933000    1.3920244   -3.4985516   -1.9596053   0.14080737   -3.4985516    1.5389462   595715 
 6934000    1.3919651   -3.4982337   -1.9594305   0.14628308   -3.4982337    1.5388032   595745 
 6935000    1.3926957   -3.4996396   -1.9600495   0.14601718   -3.4996396    1.5395901   595753 
 6936000    1.3927497   -3.4990161   -1.9594206   0.15077649   -3.4990161    1.5395956   595774 
 6937000    1.3916541   -3.4986814   -1.9603253   0.14786263   -3.4986814    1.5383561   595785 
 6938000    1.3911468   -3.4986312    -1.960854   0.14571708   -3.4986312    1.5377772   595792 
 6939000    1.3915402   -3.4990291   -1.9608687    0.1409035   -3.4990291    1.5381604   595812 
 6940000    1.3907629    -3.497885   -1.9606199   0.14798829    -3.497885    1.5372652   595826 
 6941000    1.3922614         -3.5   -1.9610888   0.14684402         -3.5    1.5389112   595830 
 6942000    1.3911323   -3.4995862   -1.9619617   0.14439276   -3.4995862    1.5376244   595845 
 6943000    1.3912907   -3.4989636   -1.9612079    0.1477412   -3.4989636    1.5377556   595862 
 6944000    1.3913869   -3.5000235   -1.9621976   0.14609942   -3.5000235    1.5378259   595876 
 6945000    1.3908433   -3.4990724   -1.9618989   0.14951732   -3.4990724    1.5371735   595896 
 6946000    1.3928181   -3.5010498   -1.9617223   0.13980754   -3.5010498    1.5393275   595907 
 6947000    1.3898018    -3.499409   -1.9634382     0.145033    -3.499409    1.5359708   595916 
 6948000    1.3914261   -3.5002954   -1.9625424   0.14455031   -3.5002954     1.537753   595921 
 6949000    1.3922505    -3.500374   -1.9617383   0.14817909    -3.500374    1.5386357   595932 
 6950000     1.390836   -3.4995314   -1.9625234   0.14705258   -3.4995314     1.537008   595957 
 6951000    1.3917125   -3.5010427   -1.9630842   0.14179741   -3.5010427    1.5379586   595964 
 6952000    1.3938418   -3.5032512   -1.9629706   0.14141009   -3.5032512    1.5402806   595976 
 6953000    1.3923981   -3.5020838   -1.9634476   0.14594683   -3.5020838    1.5386362   595995 
 6954000    1.3926512   -3.5010871   -1.9621868   0.14675247   -3.5010871    1.5389003   596001 
 6955000     1.394216   -3.5036207   -1.9630248   0.14016982   -3.5036207    1.5405959   596014 
 6956000    1.3934667   -3.5022758    -1.962526   0.14161218   -3.5022758    1.5397499   596021 
 6957000    1.3934343   -3.5028031   -1.9631356   0.14355406   -3.5028031    1.5396676   596039 
 6958000    1.3934382   -3.5016784   -1.9620376    0.1459744   -3.5016784    1.5396408   596051 
 6959000     1.393235   -3.5019788   -1.9625806   0.14825732   -3.5019788    1.5393983   596058 
 6960000    1.3928756   -3.5011464   -1.9622021   0.15106114   -3.5011464    1.5389443   596080 
 6961000    1.3926304   -3.5012732   -1.9626127   0.15208894   -3.5012732    1.5386605   596085 
 6962000    1.3939725   -3.5025083   -1.9623805   0.15130596   -3.5025083    1.5401278   596091 
 6963000    1.3940182    -3.502705   -1.9625189   0.14800097    -3.502705     1.540186   596088 
 6964000    1.3925097   -3.5007993    -1.962316   0.15351221   -3.5007993    1.5384833   596102 
 6965000    1.3938851   -3.5017379   -1.9617401   0.14927577   -3.5017379    1.5399977   596104 
 6966000    1.3936924   -3.5021453   -1.9623967   0.14180834   -3.5021453    1.5397486   596118 
 6967000    1.3956904    -3.502827   -1.9609201   0.14462922    -3.502827    1.5419069   596137 
 6968000    1.3941608   -3.5007542   -1.9606043   0.15399754   -3.5007542    1.5401499   596163 
 6969000    1.3949541     -3.50125   -1.9602702   0.14981103     -3.50125    1.5409797   596181 
 6970000    1.3941824   -3.5009827   -1.9608994   0.14972254   -3.5009827    1.5400833   596198 
 6971000    1.3950227   -3.5022496   -1.9612949   0.14791987   -3.5022496    1.5409547   596220 
 6972000    1.3935238    -3.501795   -1.9625476    0.1515995    -3.501795    1.5392473   596240 
 6973000    1.3934285   -3.5019145   -1.9628086   0.14316918   -3.5019145    1.5391059   596254 
 6974000    1.3936861   -3.5017032   -1.9623566   0.15146417   -3.5017032    1.5393466   596271 
 6975000    1.3919535    -3.501335   -1.9639433   0.14352354    -3.501335    1.5373917   596287 
 6976000     1.390707   -3.4995431   -1.9635489   0.14680794   -3.4995431    1.5359943   596295 
 6977000    1.3915943   -3.5007771   -1.9638414   0.14187551   -3.5007771    1.5369357   596310 
 6978000    1.3921004   -3.5005853   -1.9630803    0.1410778   -3.5005853    1.5375049   596306 
 6979000    1.3948491    -3.503758   -1.9632354   0.14160828    -3.503758    1.5405226   596313 
 6980000    1.3936894   -3.5021334   -1.9629664   0.14590818   -3.5021334     1.539167   596342 
 6981000    1.3925134   -3.5006129   -1.9627499   0.15142564   -3.5006129     1.537863   596344 
 6982000    1.3915173   -3.5004506    -1.963703   0.15193557   -3.5004506    1.5367476   596350 
 6983000    1.3948564   -3.5032002   -1.9628193   0.14238843   -3.5032002    1.5403809   596371 
 6984000    1.3945185   -3.5025754   -1.9625625   0.15127969   -3.5025754    1.5400129   596369 
 6985000     1.395943   -3.5042528   -1.9626978   0.14225066   -3.5042528     1.541555   596381 
 6986000    1.3955226      -3.5045   -1.9634196   0.14595786      -3.5045    1.5410804   596385 
 6987000    1.3928301   -3.5005377   -1.9624848   0.15407871   -3.5005377    1.5380529   596406 
 6988000     1.395126    -3.503103   -1.9625588   0.14631064    -3.503103    1.5405442   596423 
 6989000    1.3939837   -3.5023578   -1.9631162   0.15237258   -3.5023578    1.5392416   596439 
 6990000    1.3967056   -3.5046185   -1.9624049   0.14840925   -3.5046185    1.5422135   596452 
 6991000    1.3956462   -3.5038749   -1.9628415   0.14404539   -3.5038749    1.5410334   596456 
 6992000    1.3944966   -3.5030947   -1.9633409   0.14680045   -3.5030947    1.5397538   596460 
 6993000    1.3930998   -3.5031377   -1.9649597   0.14612681   -3.5031377    1.5381779   596473 
 6994000     1.394276   -3.5043651   -1.9649066    0.1486931   -3.5043651    1.5394586   596480 
 6995000    1.3951824   -3.5050375   -1.9646091    0.1494586   -3.5050375    1.5404284   596492 
 6996000    1.3946645   -3.5036147   -1.9638227   0.14918815   -3.5036147     1.539792   596517 
 6997000    1.3949143   -3.5042588   -1.9642426   0.14407848   -3.5042588    1.5400162   596537 
 6998000    1.3941134   -3.5037128   -1.9646014   0.15184123   -3.5037128    1.5391113   596545 
 6999000    1.3960252   -3.5055191   -1.9643179   0.14816779   -3.5055191    1.5412012   596553 
 7000000    1.3954679   -3.5044692   -1.9639117   0.14839533   -3.5044692    1.5405576   596564 
 7001000    1.3951323   -3.5045684   -1.9644045   0.15132591   -3.5045684    1.5401639   596573 
 7002000    1.3941191    -3.503734    -1.964717   0.14777635    -3.503734     1.539017   596584 
 7003000    1.3931278   -3.5031482   -1.9652694   0.14990242   -3.5031482    1.5378788   596601 
 7004000    1.3948945   -3.5043087   -1.9645235    0.1535234   -3.5043087    1.5397852   596618 
 7005000    1.3942781   -3.5034825    -1.964419   0.14745978   -3.5034825    1.5390635   596634 
 7006000    1.3941136   -3.5029006   -1.9640547   0.15354249   -3.5029006    1.5388459   596648 
 7007000    1.3934299   -3.5041665   -1.9660882   0.14244758   -3.5041665    1.5380783   596653 
 7008000    1.3929978   -3.5032946   -1.9657242   0.14822893   -3.5032946    1.5375704   596665 
 7009000     1.393085    -3.503131   -1.9655056   0.14475837    -3.503131    1.5376254   596681 
 7010000    1.3952344   -3.5047098   -1.9647352   0.15003726   -3.5047098    1.5399746   596690 
 7011000    1.3950913   -3.5045713   -1.9647779   0.14790032   -3.5045713    1.5397934   596699 
 7012000    1.3946576   -3.5049589   -1.9656674   0.15056077   -3.5049589    1.5392914   596708 
 7013000    1.3962755   -3.5058361   -1.9648003   0.14428304   -3.5058361    1.5410358   596724 
 7014000    1.3939895   -3.5040137   -1.9655189   0.14819666   -3.5040137    1.5384948   596731 
 7015000    1.3955486   -3.5049338    -1.964757   0.14735736   -3.5049338    1.5401768   596746 
 7016000    1.3959728   -3.5048256   -1.9642167   0.14962051   -3.5048256    1.5406089   596760 
 7017000    1.3955586   -3.5048057   -1.9646746   0.14984361   -3.5048057    1.5401311   596768 
 7018000    1.3953313   -3.5051455   -1.9652704   0.14924673   -3.5051455     1.539875   596770 
 7019000    1.3952651   -3.5043437    -1.964596   0.14907089   -3.5043437    1.5397478   596791 
 7020000    1.3951729   -3.5044839   -1.9648353   0.15068663   -3.5044839    1.5396486   596790 
 7021000    1.3946205   -3.5038905   -1.9648979   0.14756311   -3.5038905    1.5389927   596808 
 7022000    1.3953844   -3.5044736   -1.9646844    0.1473951   -3.5044736    1.5397892   596826 
 7023000    1.3948285   -3.5039603   -1.9648284   0.15259941   -3.5039603    1.5391319   596843 
 7024000    1.3945414   -3.5034494   -1.9646911   0.14868251   -3.5034494    1.5387584   596865 
 7025000    1.3948212   -3.5034134   -1.9643617   0.15357474   -3.5034134    1.5390517   596871 
 7026000    1.3955674   -3.5059517   -1.9660973   0.14522089   -3.5059517    1.5398544   596879 
 7027000    1.3942037   -3.5043536   -1.9660271   0.14159874   -3.5043536    1.5383265   596888 
 7028000    1.3933907   -3.5031971   -1.9657883   0.15140332   -3.5031971    1.5374088   596896 
 7029000    1.3933894   -3.5046022   -1.9672153   0.14472078   -3.5046022    1.5373868   596904 
 7030000    1.3941196   -3.5051913   -1.9670401   0.14354214   -3.5051913    1.5381512   596920 
 7031000    1.3941497   -3.5051378   -1.9669843   0.14735591   -3.5051378    1.5381535   596932 
 7032000    1.3939724   -3.5048066   -1.9668976   0.14611375   -3.5048066     1.537909   596951 
 7033000    1.3946247    -3.505376   -1.9667758   0.14130449    -3.505376    1.5386002   596962 
 7034000    1.3952886   -3.5056718   -1.9663751   0.14419997   -3.5056718    1.5392966   596976 
 7035000    1.3941595   -3.5045674   -1.9665319   0.14874123   -3.5045674    1.5380355   596982 
 7036000    1.3948258    -3.504806   -1.9660818    0.1442291    -3.504806    1.5387242   597000 
 7037000    1.3968584   -3.5067061   -1.9657628   0.14429374   -3.5067061    1.5409433   597009 
 7038000    1.3953324   -3.5049937   -1.9657752   0.14794443   -3.5049937    1.5392186   597025 
 7039000    1.3956751   -3.5054864   -1.9659285    0.1507905   -3.5054864    1.5395579   597040 
 7040000    1.3948345   -3.5045565   -1.9659465   0.14929347   -3.5045565      1.53861   597048 
 7041000     1.395363   -3.5054431   -1.9662732   0.14456702   -3.5054431    1.5391699   597057 
 7042000     1.396026   -3.5054226   -1.9655576   0.14205965   -3.5054226     1.539865   597071 
 7043000    1.3957512   -3.5052373   -1.9657011     0.146932   -3.5052373    1.5395362   597081 
 7044000    1.3959694   -3.5051161   -1.9654115     0.146072   -3.5051161    1.5397046   597109 
 7045000    1.3956557   -3.5054741   -1.9661413   0.14323815   -3.5054741    1.5393328   597119 
 7046000    1.3966818   -3.5067067    -1.966317     0.145682   -3.5067067    1.5403897   597148 
 7047000    1.3955099   -3.5057217    -1.966658   0.14738727   -3.5057217    1.5390637   597161 
 7048000    1.3950241   -3.5055999   -1.9671157   0.14807541   -3.5055999    1.5384842   597178 
 7049000    1.3965119   -3.5079782   -1.9679125   0.13845516   -3.5079782    1.5400657   597201 
 7050000    1.3946571   -3.5062993   -1.9683151   0.14541973   -3.5062993    1.5379842   597215 
 7051000    1.3933362   -3.5051223   -1.9686102   0.14614945   -3.5051223    1.5365121   597221 
 7052000    1.3950103   -3.5069795   -1.9686497   0.14612767   -3.5069795    1.5383299   597232 
 7053000    1.3973102   -3.5092024   -1.9683828   0.14225833   -3.5092024    1.5408196   597250 
 7054000    1.3944281   -3.5054249   -1.9678091   0.14536147   -3.5054249    1.5376158   597260 
 7055000    1.3953143   -3.5066453   -1.9680601   0.14838334   -3.5066453    1.5385852   597263 
 7056000    1.3952819   -3.5061641   -1.9676275   0.15046361   -3.5061641    1.5385366   597268 
 7057000    1.3952118   -3.5071151   -1.9686944   0.14857472   -3.5071151    1.5384207   597283 
 7058000    1.3946627    -3.506886   -1.9691094   0.14672884    -3.506886    1.5377766   597298 
 7059000    1.3960667   -3.5079966   -1.9687183   0.14619061   -3.5079966    1.5392783   597316 
 7060000    1.3953758   -3.5079424    -1.969485   0.15518118   -3.5079424    1.5384573   597339 
 7061000    1.3974564   -3.5100141   -1.9693144   0.14665683   -3.5100141    1.5406997   597359 
 7062000    1.3942729   -3.5073957   -1.9702265   0.14759237   -3.5073957    1.5371692   597367 
 7063000    1.3951507   -3.5089181   -1.9708145   0.14475635   -3.5089181    1.5381035   597380 
 7064000    1.3941596   -3.5070022    -1.970035   0.14598445   -3.5070022    1.5369672   597397 
 7065000    1.3951632   -3.5077694   -1.9697396   0.14852592   -3.5077694    1.5380298   597414 
 7066000    1.3944812   -3.5073173   -1.9700702   0.14645317   -3.5073173    1.5372471   597426 
 7067000    1.3948474    -3.508143   -1.9705359   0.14526471    -3.508143    1.5376071   597443 
 7068000     1.396519   -3.5093236   -1.9698971    0.1461438   -3.5093236    1.5394265   597452 
 7069000    1.3963698   -3.5092986   -1.9700623   0.15079334   -3.5092986    1.5392363   597462 
 7070000    1.3973004   -3.5099898   -1.9697947   0.15145258   -3.5099898    1.5401951   597488 
 7071000    1.3963177   -3.5090149   -1.9699263   0.14899026   -3.5090149    1.5390886   597497 
 7072000    1.3954036   -3.5087013   -1.9706459   0.15176535   -3.5087013    1.5380554   597507 
 7073000    1.3939862   -3.5077149   -1.9712656   0.14353014   -3.5077149    1.5364493   597524 
 7074000    1.3946741   -3.5073394   -1.9701807    0.1479444   -3.5073394    1.5371587   597543 
 7075000    1.3964696   -3.5085897   -1.9694881   0.14200854   -3.5085897    1.5391016   597557 
 7076000    1.3958847   -3.5073719   -1.9689588   0.14846502   -3.5073719    1.5384131   597574 
 7077000    1.3948024   -3.5076066   -1.9704377   0.14436757   -3.5076066     1.537169   597594 
 7078000    1.3966025   -3.5090904    -1.969966   0.14744266   -3.5090904    1.5391244   597605 
 7079000    1.3957974   -3.5080072   -1.9697881   0.14541505   -3.5080072    1.5382192   597612 
 7080000       1.3965   -3.5085471   -1.9695974   0.14584792   -3.5085471    1.5389497   597629 
 7081000    1.3961217   -3.5082601   -1.9697686   0.14493882   -3.5082601    1.5384915   597645 
 7082000    1.3965615   -3.5087161   -1.9697477   0.14243179   -3.5087161    1.5389684   597648 
 7083000    1.3947122   -3.5072876    -1.970429   0.14926515   -3.5072876    1.5368586   597676 
 7084000    1.3965455   -3.5094043   -1.9705565   0.14062868   -3.5094043    1.5388478   597688 
 7085000    1.3960864    -3.508343   -1.9700448   0.15122277    -3.508343    1.5382982   597705 
 7086000    1.3976219   -3.5100322   -1.9700627    0.1467528   -3.5100322    1.5399695   597713 
 7087000     1.395667   -3.5084015    -1.970622    0.1485454   -3.5084015    1.5377795   597727 
 7088000     1.395468   -3.5081992   -1.9706724   0.14926373   -3.5081992    1.5375268   597740 
 7089000    1.3973399   -3.5105858   -1.9710301   0.14787388   -3.5105858    1.5395557   597753 
 7090000    1.3978617   -3.5107092   -1.9706171   0.14983137   -3.5107092     1.540092   597768 
 7091000    1.3998155   -3.5127075    -1.970499   0.15164223   -3.5127075    1.5422085   597782 
 7092000    1.3954501   -3.5085833   -1.9712228   0.15660531   -3.5085833    1.5373605   597797 
 7093000     1.395161   -3.5093319   -1.9722976    0.1473635   -3.5093319    1.5370343   597800 
 7094000    1.3954161   -3.5090873   -1.9718286   0.14873716   -3.5090873    1.5372587   597822 
 7095000    1.3954824   -3.5099838   -1.9727061   0.14924295   -3.5099838    1.5372778   597843 
 7096000    1.3952893   -3.5110149   -1.9739576   0.14652847   -3.5110149    1.5370573   597846 
 7097000     1.395875   -3.5110528   -1.9733992    0.1488903   -3.5110528    1.5376537   597865 
 7098000    1.3955775   -3.5097705   -1.9724728   0.14677398   -3.5097705    1.5372977   597876 
 7099000    1.3968871   -3.5114747   -1.9727628   0.14866529   -3.5114747     1.538712   597887 
 7100000    1.3961995    -3.511075   -1.9731771   0.14854908    -3.511075    1.5378979   597909 
 7101000      1.39639   -3.5121223   -1.9740351    0.1509385   -3.5121223    1.5380872   597917 
 7102000     1.397115   -3.5126799   -1.9738302   0.14521335   -3.5126799    1.5388497   597931 
 7103000    1.3953701   -3.5110335   -1.9741365   0.14478562   -3.5110335     1.536897   597943 
 7104000    1.3978858   -3.5121056   -1.9725021   0.14157169   -3.5121056    1.5396035   597968 
 7105000    1.3958534    -3.509781    -1.972452   0.14506648    -3.509781     1.537329   597982 
 7106000    1.3955477   -3.5099559   -1.9730021   0.14304269   -3.5099559    1.5369538   597997 
 7107000    1.3967994   -3.5106195   -1.9722923   0.14903208   -3.5106195    1.5383272   597999 
 7108000    1.3965002   -3.5096107   -1.9716773   0.14748135   -3.5096107    1.5379334   598024 
 7109000    1.3976334   -3.5103358   -1.9711854   0.15076488   -3.5103358    1.5391504   598036 
 7110000     1.397955   -3.5107852   -1.9713038   0.14478945   -3.5107852    1.5394814   598045 
 7111000    1.3967237   -3.5103893   -1.9723127   0.14708041   -3.5103893    1.5380766   598064 
 7112000    1.3964399   -3.5095786   -1.9718634   0.15325313   -3.5095786    1.5377152   598083 
 7113000    1.3968367   -3.5106457   -1.9725269   0.14746758   -3.5106457    1.5381187   598096 
 7114000    1.3961008   -3.5103554   -1.9730958   0.14467069   -3.5103554    1.5372596   598115 
 7115000    1.3949601   -3.5090597   -1.9730947   0.14975752   -3.5090597    1.5359651   598130 
 7116000    1.3964683   -3.5111988   -1.9736194   0.15381665   -3.5111988    1.5375794   598148 
 7117000    1.3961322   -3.5105959   -1.9734483   0.14764138   -3.5105959    1.5371477   598172 
 7118000    1.3963164   -3.5098019   -1.9724591     0.154503   -3.5098019    1.5373428   598175 
 7119000    1.3983252   -3.5125898   -1.9730713   0.14197538   -3.5125898    1.5395185   598189 
 7120000     1.396467   -3.5106719   -1.9732174    0.1505854   -3.5106719    1.5374546   598196 
 7121000    1.3960662   -3.5108696   -1.9739127   0.14407409   -3.5108696    1.5369569   598218 
 7122000    1.3987339   -3.5136331   -1.9737677   0.14157569   -3.5136331    1.5398654   598229 
 7123000    1.3987052   -3.5134598   -1.9736594   0.14659481   -3.5134598    1.5398004   598242 
 7124000    1.3971316   -3.5105254   -1.9724933   0.14885318   -3.5105254    1.5380321   598256 
 7125000    1.3972147   -3.5112802   -1.9732004   0.14946323   -3.5112802    1.5380798   598273 
 7126000    1.4010879   -3.5139329   -1.9716384   0.15267807   -3.5139329    1.5422945   598292 
 7127000    1.3997341   -3.5126185   -1.9718349   0.15154528   -3.5126185    1.5407837   598300 
 7128000    1.3986721   -3.5121884   -1.9726098   0.15192621   -3.5121884    1.5395786   598314 
 7129000    1.3959355   -3.5090179   -1.9724978   0.15934505   -3.5090179    1.5365201   598332 
 7130000    1.3985608   -3.5120897    -1.972721   0.14739554   -3.5120897    1.5393687   598348 
 7131000    1.3979176   -3.5114535   -1.9728417   0.14724616   -3.5114535    1.5386118   598367 
 7132000    1.3983493   -3.5118191   -1.9727605   0.15169419   -3.5118191    1.5390587   598378 
 7133000    1.3980508   -3.5115719    -1.972888   0.14750079   -3.5115719    1.5386839   598396 
 7134000    1.3978777   -3.5113081   -1.9728276   0.15154307   -3.5113081    1.5384806   598401 
 7135000    1.3991618   -3.5124918   -1.9726083   0.15232694   -3.5124918    1.5398834   598405 
 7136000    1.3987665   -3.5121702   -1.9727835   0.15087022   -3.5121702    1.5393867   598429 
 7137000    1.3979464   -3.5108795    -1.972421   0.15745814   -3.5108795    1.5384585   598439 
 7138000     1.396801   -3.5100629   -1.9729061   0.14947558   -3.5100629    1.5371568   598455 
 7139000    1.3973014   -3.5102353   -1.9725381     0.152681   -3.5102353    1.5376972   598459 
 7140000    1.3983394   -3.5116917   -1.9728857   0.14771872   -3.5116917     1.538806   598472 
 7141000    1.3990629   -3.5118003   -1.9722393   0.14877591   -3.5118003    1.5395611   598488 
 7142000    1.3986425   -3.5121569   -1.9730893   0.15215651   -3.5121569    1.5390676   598500 
 7143000     1.397216   -3.5105889   -1.9731321   0.15212129   -3.5105889    1.5374568   598516 
 7144000    1.3997148   -3.5134293   -1.9732512   0.14308468   -3.5134293    1.5401781   598527 
 7145000    1.3989891   -3.5125533    -1.973202   0.14853563   -3.5125533    1.5393512   598538 
 7146000    1.3992728   -3.5125557   -1.9729205    0.1521059   -3.5125557    1.5396352   598549 
 7147000    1.3977074   -3.5120682   -1.9741709   0.15622675   -3.5120682    1.5378973   598555 
 7148000    1.4000635   -3.5127988   -1.9723297   0.14832909   -3.5127988    1.5404691   598563 
 7149000     1.399738   -3.5128062   -1.9727183    0.1524864   -3.5128062    1.5400879   598572 
 7150000    1.4008015   -3.5141486   -1.9729524   0.15142139   -3.5141486    1.5411962   598596 
 7151000    1.4002851   -3.5137195   -1.9731327   0.15477541   -3.5137195    1.5405868   598612 
 7152000    1.4022692   -3.5156623    -1.972908   0.14516651   -3.5156623    1.5427543   598618 
 7153000    1.3990466   -3.5129289    -1.973751   0.15023788   -3.5129289    1.5391779   598630 
 7154000    1.3995389    -3.513316   -1.9736376   0.14726683    -3.513316    1.5396784   598646 
 7155000    1.3994558   -3.5130335   -1.9734491    0.1470955   -3.5130335    1.5395844   598647 
 7156000    1.3973857   -3.5116531   -1.9743743   0.15284462   -3.5116531    1.5372788   598658 
 7157000    1.3997479    -3.514765   -1.9749441   0.14441902    -3.514765    1.5398209   598680 
 7158000    1.3998098   -3.5149383   -1.9750981   0.14501625   -3.5149383    1.5398401   598699 
 7159000    1.3982642   -3.5143656   -1.9762539   0.14814994   -3.5143656    1.5381116   598710 
 7160000    1.4001624   -3.5154759   -1.9753276   0.14879446   -3.5154759    1.5401483   598730 
 7161000    1.3972751   -3.5142089   -1.9772751   0.15207637   -3.5142089    1.5369338   598745 
 7162000    1.3993662   -3.5164072   -1.9772479   0.14399119   -3.5164072    1.5391593   598774 
 7163000    1.3996222   -3.5158692   -1.9764721   0.15065662   -3.5158692    1.5393972   598791 
 7164000    1.4002706   -3.5150493   -1.9749878   0.15222291   -3.5150493    1.5400615   598810 
 7165000    1.3989682   -3.5141402   -1.9755677   0.15246517   -3.5141402    1.5385725   598832 
 7166000    1.4008012    -3.516468    -1.975895   0.14517985    -3.516468     1.540573   598838 
 7167000    1.3992736   -3.5150408   -1.9761555   0.15094973   -3.5150408    1.5388853   598841 
 7168000    1.3996097   -3.5145314   -1.9753048   0.14888985   -3.5145314    1.5392266   598852 
 7169000    1.3995398    -3.516046   -1.9769297   0.14649398    -3.516046    1.5391163   598865 
 7170000    1.4012826   -3.5173859   -1.9763684   0.14986866   -3.5173859    1.5410175   598871 
 7171000    1.3978024   -3.5143512   -1.9772354   0.15612124   -3.5143512    1.5371158   598900 
 7172000    1.4003671   -3.5172132   -1.9773311   0.14635608   -3.5172132    1.5398821   598921 
 7173000    1.3991241    -3.515329   -1.9768445   0.15300885    -3.515329    1.5384845   598933 
 7174000      1.39806   -3.5141981   -1.9769042   0.14844308   -3.5141981    1.5372939   598941 
 7175000    1.4000915   -3.5160363   -1.9765394   0.15019448   -3.5160363    1.5394969   598953 
 7176000    1.3981882   -3.5140363   -1.9766656   0.15331233   -3.5140363    1.5373707   598966 
 7177000    1.4007288   -3.5173938   -1.9773017   0.14652699   -3.5173938    1.5400922   598994 
 7178000    1.3974623   -3.5147499   -1.9782671   0.15274527   -3.5147499    1.5364827   599001 
 7179000    1.3991244    -3.517199   -1.9789196   0.15214986    -3.517199    1.5382794   599013 
 7180000    1.3984651   -3.5160631   -1.9785292   0.14736311   -3.5160631     1.537534   599021 
 7181000    1.3987105   -3.5155836   -1.9778311   0.15381773   -3.5155836    1.5377524   599041 
 7182000    1.3996808   -3.5185378   -1.9797649   0.14355022   -3.5185378    1.5387729   599059 
 7183000    1.3985983   -3.5166384   -1.9790992   0.14807279   -3.5166384    1.5375392   599076 
 7184000    1.3969919   -3.5149734    -1.979236   0.15131901   -3.5149734    1.5357374   599090 
 7185000    1.3979817    -3.516679   -1.9798817   0.14966151    -3.516679    1.5367973   599101 
 7186000    1.3984713   -3.5176351   -1.9803125   0.14999476   -3.5176351    1.5373226   599106 
 7187000    1.3971877   -3.5159456   -1.9800596    0.1499236   -3.5159456     1.535886   599116 
 7188000     1.397715   -3.5174209   -1.9809809    0.1495385   -3.5174209      1.53644   599126 
 7189000    1.3975447   -3.5167024   -1.9804804   0.15351466   -3.5167024     1.536222   599138 
 7190000    1.3988293   -3.5182121   -1.9806114    0.1475401   -3.5182121    1.5376007   599151 
 7191000    1.3986005   -3.5175896   -1.9802661   0.15019643   -3.5175896    1.5373235   599161 
 7192000    1.3984116    -3.517486   -1.9803958   0.14793514    -3.517486    1.5370902   599171 
 7193000    1.3996932    -3.517911   -1.9794044   0.14841263    -3.517911    1.5385066   599168 
 7194000    1.4013877   -3.5190337    -1.978716   0.15631438   -3.5190337    1.5403177   599188 
 7195000    1.3999749   -3.5180807   -1.9793286   0.14883023   -3.5180807    1.5387521   599193 
 7196000    1.3972293   -3.5159752   -1.9802537   0.15092226   -3.5159752    1.5357214   599198 
 7197000    1.3984304   -3.5163622   -1.9793487   0.14767118   -3.5163622    1.5370135   599209 
 7198000    1.3978848   -3.5158864   -1.9795085   0.14866489   -3.5158864    1.5363779   599223 
 7199000    1.3983572   -3.5181464   -1.9812724   0.14555839   -3.5181464     1.536874   599232 
 7200000     1.399424     -3.51862   -1.9806043    0.1420693     -3.51862    1.5380157   599244 
 7201000    1.3969899   -3.5169112   -1.9815964   0.14684349   -3.5169112    1.5353149   599254 
 7202000     1.399199   -3.5189313   -1.9812245   0.14662518   -3.5189313    1.5377067   599268 
 7203000    1.4006577   -3.5192545   -1.9799806   0.14686929   -3.5192545    1.5392739   599282 
 7204000    1.3985682   -3.5183442   -1.9814204    0.1485824   -3.5183442    1.5369238   599303 
 7205000    1.3991094   -3.5188918   -1.9813938    0.1405453   -3.5188918     1.537498   599311 
 7206000    1.3968178   -3.5165081   -1.9815694   0.15271829   -3.5165081    1.5349387   599327 
 7207000    1.3963443   -3.5164302   -1.9820477   0.15282307   -3.5164302    1.5343826   599341 
 7208000    1.3979923   -3.5187125   -1.9825472   0.14707659   -3.5187125    1.5361653   599352 
 7209000     1.396747   -3.5171995   -1.9824358    0.1486923   -3.5171995    1.5347637   599365 
 7210000    1.3981662   -3.5194452    -1.983135   0.14911575   -3.5194452    1.5363102   599370 
 7211000    1.3982923   -3.5199048   -1.9834867   0.14960895   -3.5199048    1.5364181   599382 
 7212000    1.3989502   -3.5202851   -1.9831493    0.1523533   -3.5202851    1.5371358   599384 
 7213000    1.3977592   -3.5189538   -1.9831497   0.14922865   -3.5189538    1.5358041   599393 
 7214000     1.397687   -3.5189391   -1.9832783    0.1529046   -3.5189391    1.5356608   599418 
 7215000    1.3973641   -3.5195367   -1.9842589   0.15602982   -3.5195367    1.5352778   599429 
 7216000    1.3987821   -3.5208543   -1.9840391   0.14400369   -3.5208543    1.5368152   599437 
 7217000    1.3989427   -3.5209666   -1.9840005   0.15704206   -3.5209666     1.536966   599447 
 7218000    1.3984704   -3.5214431   -1.9850703    0.1533677   -3.5214431    1.5363728   599476 
 7219000    1.3988803   -3.5212715    -1.984456   0.14708698   -3.5212715    1.5368155   599479 
 7220000    1.3985768    -3.520876   -1.9844222   0.14555315    -3.520876    1.5364538   599490 
 7221000     1.399743    -3.521868   -1.9841767   0.14914319    -3.521868    1.5376914   599507 
 7222000    1.3983026   -3.5211215   -1.9850304   0.14404084   -3.5211215    1.5360911   599514 
 7223000    1.3954373   -3.5187659   -1.9858326   0.15479691   -3.5187659    1.5329333   599518 
 7224000    1.3974188   -3.5207201   -1.9856357   0.14864882   -3.5207201    1.5350844   599528 
 7225000    1.3981863   -3.5202025   -1.9843083   0.14744708   -3.5202025    1.5358942   599541 
 7226000    1.3970693   -3.5190818   -1.9844684   0.15352297   -3.5190818    1.5346134   599562 
 7227000      1.39752   -3.5202581   -1.9851932   0.14732324   -3.5202581    1.5350649   599579 
 7228000    1.3984674   -3.5200119   -1.9839344   0.14756669   -3.5200119    1.5360774   599590 
 7229000     1.398979   -3.5207422   -1.9841208   0.14362001   -3.5207422    1.5366213   599597 
 7230000     1.398107     -3.51956   -1.9839347   0.15009861     -3.51956    1.5356252   599612 
 7231000    1.3982817   -3.5189674   -1.9832118   0.14788422   -3.5189674    1.5357556   599636 
 7232000    1.3985344   -3.5191526   -1.9831579   0.15102019   -3.5191526    1.5359947   599651 
 7233000    1.3988934    -3.518946   -1.9826083   0.14805881    -3.518946    1.5363378   599671 
 7234000    1.3973012   -3.5193341   -1.9847731   0.14760316   -3.5193341     1.534561   599682 
 7235000    1.3991273   -3.5211468   -1.9846188   0.14492151   -3.5211468     1.536528   599697 
 7236000    1.3978069   -3.5198931   -1.9848587   0.15080064   -3.5198931    1.5350344   599714 
 7237000    1.3990828   -3.5212515   -1.9848645   0.14147175   -3.5212515    1.5363869   599733 
 7238000     1.398779   -3.5210293   -1.9850144   0.14535718   -3.5210293    1.5360149   599748 
 7239000    1.3985256   -3.5206241   -1.9848977    0.1518598   -3.5206241    1.5357264   599752 
 7240000    1.3996663   -3.5218122   -1.9848486   0.14949058   -3.5218122    1.5369637   599758 
 7241000    1.3977186   -3.5188631   -1.9840586   0.15538674   -3.5188631    1.5348044   599766 
 7242000    1.3996326   -3.5222672   -1.9854175   0.15027075   -3.5222672    1.5368497   599788 
 7243000    1.4009719   -3.5232947       -1.985   0.14644423   -3.5232947    1.5382947   599798 
 7244000    1.4000502   -3.5223458   -1.9850887   0.14974326   -3.5223458    1.5372571   599808 
 7245000    1.4000806   -3.5220176   -1.9847451   0.15269779   -3.5220176    1.5372724   599815 
 7246000     1.398829   -3.5209031   -1.9850638   0.15497371   -3.5209031    1.5358393   599838 
 7247000    1.4009537   -3.5235285   -1.9853922   0.15246437   -3.5235285    1.5381363   599852 
 7248000    1.3987635   -3.5222513   -1.9865786   0.14811179   -3.5222513    1.5356727   599875 
 7249000    1.3991148    -3.522644   -1.9866343   0.14750089    -3.522644    1.5360097   599894 
 7250000    1.3985981    -3.521465   -1.9860635   0.15293767    -3.521465    1.5354015   599910 
 7251000    1.4006784   -3.5231393   -1.9854924   0.15143588   -3.5231393    1.5376469   599925 
 7252000    1.3999113   -3.5219703   -1.9852015   0.15191266   -3.5219703    1.5367688   599939 
 7253000    1.3994083   -3.5221738   -1.9860032   0.14583436   -3.5221738    1.5361706   599957 
 7254000    1.3988178      -3.5213   -1.9858109   0.15186847      -3.5213    1.5354891   599970 
 7255000    1.4003044   -3.5214403   -1.9843219   0.14991646   -3.5214403    1.5371184   599971 
 7256000    1.3997294   -3.5214332   -1.9849767   0.14602901   -3.5214332    1.5364565   599983 
 7257000    1.3990776   -3.5205719    -1.984859   0.15021249   -3.5205719    1.5357129   599994 
 7258000    1.4006321   -3.5218135   -1.9844071   0.14785029   -3.5218135    1.5374064   599999 
 7259000    1.4011213   -3.5210113   -1.9831116   0.15356319   -3.5210113    1.5378998   600016 
 7260000    1.4014523   -3.5228092   -1.9845974   0.15174943   -3.5228092    1.5382118   600036 
 7261000    1.4007888   -3.5211058   -1.9836709   0.15804571   -3.5211058    1.5374349   600055 
 7262000    1.4018645   -3.5226576   -1.9840471   0.15150917   -3.5226576    1.5386105   600057 
 7263000    1.4005634   -3.5219336   -1.9847896   0.15327398   -3.5219336    1.5371439   600072 
 7264000    1.3992988   -3.5209169   -1.9852043   0.14607664   -3.5209169    1.5357126   600089 
 7265000    1.3998041   -3.5217195   -1.9854653   0.15003688   -3.5217195    1.5362543   600094 
 7266000    1.3987175   -3.5206886   -1.9856498   0.14921705   -3.5206886    1.5350388   600103 
 7267000    1.4015993    -3.523429   -1.9852866    0.1481887    -3.523429    1.5381424   600126 
 7268000    1.3988257   -3.5212603   -1.9862307   0.15308281   -3.5212603    1.5350296   600153 
 7269000    1.3999163   -3.5227364   -1.9865484   0.14467352   -3.5227364     1.536188   600168 
 7270000    1.4002263   -3.5234197    -1.986912   0.15209518   -3.5234197    1.5365077   600176 
 7271000    1.3983871   -3.5214623    -1.987006   0.14843965   -3.5214623    1.5344563   600189 
 7272000    1.4003096   -3.5233266   -1.9868249   0.15008699   -3.5233266    1.5365018   600214 
 7273000    1.3990908   -3.5207621   -1.9856514   0.15118111   -3.5207621    1.5351107   600235 
 7274000    1.4025928   -3.5246619   -1.9857369   0.14853906   -3.5246619     1.538925   600246 
 7275000     1.400932   -3.5230099   -1.9859609   0.14944041   -3.5230099     1.537049   600267 
 7276000    1.4010125   -3.5233263   -1.9862479   0.15108953   -3.5233263    1.5370785   600290 
 7277000     1.401258   -3.5229609    -1.985649   0.15282169   -3.5229609     1.537312   600304 
 7278000      1.40013   -3.5229635   -1.9869095   0.15128051   -3.5229635     1.536054   600312 
 7279000    1.4000719   -3.5227044   -1.9866964   0.15111633   -3.5227044    1.5360081   600305 
 7280000    1.3992933   -3.5223706   -1.9872371   0.15582927   -3.5223706    1.5351334   600313 
 7281000    1.4018569   -3.5252022   -1.9872947   0.14795073   -3.5252022    1.5379075   600328 
 7282000    1.4015203   -3.5242833   -1.9867554   0.14863135   -3.5242833    1.5375279   600332 
 7283000    1.4006322   -3.5234168   -1.9868887   0.14273858   -3.5234168    1.5365281   600342 
 7284000    1.4017161    -3.524187   -1.9864903   0.14618035    -3.524187    1.5376967   600350 
 7285000    1.4012657   -3.5242377   -1.9870376   0.15073589   -3.5242377    1.5372001   600351 
 7286000    1.4011109   -3.5237313   -1.9867523   0.14773722   -3.5237313     1.536979   600371 
 7287000    1.4021607   -3.5236588   -1.9855692   0.15440379   -3.5236588    1.5380896   600387 
 7288000    1.4018157   -3.5231271   -1.9854236   0.15147132   -3.5231271    1.5377035   600390 
 7289000    1.4020849   -3.5242389   -1.9862836   0.14468233   -3.5242389    1.5379553   600407 
 7290000    1.4009198   -3.5236055   -1.9869692   0.15375215   -3.5236055    1.5366363   600423 
 7291000    1.4016641   -3.5242044   -1.9867619   0.15128969   -3.5242044    1.5374425   600427 
 7292000    1.4013625   -3.5241629   -1.9870769     0.151524   -3.5241629     1.537086   600437 
 7293000    1.3995623    -3.522381   -1.9873105   0.15491013    -3.522381    1.5350705   600453 
 7294000    1.4013114   -3.5240884   -1.9871249   0.15210942   -3.5240884    1.5369634   600463 
 7295000    1.4000534   -3.5231687   -1.9875927   0.14614141   -3.5231687     1.535576   600466 
 7296000     1.400049   -3.5242446   -1.9887297   0.15358503   -3.5242446    1.5355148   600488 
 7297000    1.4009164   -3.5251355   -1.9886974   0.14304001   -3.5251355    1.5364381   600499 
 7298000    1.3994045   -3.5240757   -1.9893161   0.14778861   -3.5240757    1.5347595   600507 
 7299000    1.4004888   -3.5240714   -1.9881483   0.15413079   -3.5240714     1.535923   600517 
 7300000    1.4025535   -3.5258328   -1.9876735   0.14692889   -3.5258328    1.5381593   600528 
 7301000    1.4010951   -3.5232512   -1.9867196   0.15408026   -3.5232512    1.5365317   600539 
 7302000    1.4021089   -3.5234726   -1.9858496   0.15602295   -3.5234726     1.537623   600547 
 7303000     1.401725    -3.523736   -1.9865391   0.15772973    -3.523736    1.5371969   600549 
 7304000    1.4015022   -3.5232513   -1.9863269   0.15450882   -3.5232513    1.5369244   600560 
 7305000    1.4030655   -3.5250167   -1.9863831   0.15241991   -3.5250167    1.5386337   600562 
 7306000     1.402923   -3.5247223   -1.9862988   0.15474494   -3.5247223    1.5384235   600583 
 7307000    1.4008154     -3.52238   -1.9863009    0.1574117     -3.52238    1.5360791   600596 
 7308000    1.4023411   -3.5241383   -1.9864296   0.14894294   -3.5241383    1.5377087   600613 
 7309000    1.4012957   -3.5228022   -1.9862731   0.15656692   -3.5228022    1.5365291   600626 
 7310000    1.4012677   -3.5228338   -1.9863967   0.15231393   -3.5228338    1.5364371   600650 
 7311000    1.4014831   -3.5242508   -1.9876134   0.15033771   -3.5242508    1.5366374   600664 
 7312000     1.399427   -3.5222305   -1.9878909   0.15145731   -3.5222305    1.5343396   600681 
 7313000    1.4010551    -3.523701   -1.9876327   0.15064051    -3.523701    1.5360684   600703 
 7314000    1.4016694   -3.5240524    -1.987331   0.14905781   -3.5240524    1.5367214   600711 
 7315000    1.4024171   -3.5248239   -1.9873057   0.15290253   -3.5248239    1.5375181   600720 
 7316000    1.4027576   -3.5249865   -1.9871258   0.15127494   -3.5249865    1.5378607   600732 
 7317000    1.4006714   -3.5225673   -1.9870321   0.15598985   -3.5225673    1.5355352   600747 
 7318000    1.4047976   -3.5266031   -1.9865571   0.15012833   -3.5266031    1.5400459   600752 
 7319000    1.4041673    -3.525221   -1.9859173   0.14918359    -3.525221    1.5393037   600772 
 7320000    1.4039043   -3.5247362   -1.9857336   0.15607852   -3.5247362    1.5390026   600777 
 7321000    1.4051513   -3.5263397   -1.9859855   0.15444233   -3.5263397    1.5403542   600783 
 7322000    1.4041986   -3.5260059   -1.9867576   0.15511561   -3.5260059    1.5392483   600807 
 7323000    1.4033281   -3.5259796   -1.9877316   0.16271303   -3.5259796     1.538248   600825 
 7324000    1.4027469   -3.5259265   -1.9883361   0.15724551   -3.5259265    1.5375904   600833 
 7325000    1.4027168   -3.5259958   -1.9884946   0.14850177   -3.5259958    1.5375012   600855 
 7326000    1.4026581   -3.5259706   -1.9885696   0.14992373   -3.5259706     1.537401   600869 
 7327000    1.4026858   -3.5257807   -1.9883852   0.16036176   -3.5257807    1.5373955   600883 
 7328000    1.4020938   -3.5257702   -1.9890747   0.15440714   -3.5257702    1.5366955   600903 
 7329000    1.4028176   -3.5263896   -1.9889648   0.14983313   -3.5263896    1.5374249   600928 
 7330000    1.4018047     -3.52576   -1.9894811   0.14828439     -3.52576    1.5362789   600942 
 7331000    1.4034277    -3.527383   -1.9893688   0.15536525    -3.527383    1.5380141   600959 
 7332000    1.4036342   -3.5265718   -1.9883441   0.14921512   -3.5265718    1.5382277   600964 
 7333000    1.4031895   -3.5259022   -1.9881875   0.15500131   -3.5259022    1.5377147   600974 
 7334000    1.4045138   -3.5270306   -1.9878826   0.15664051   -3.5270306     1.539148   600981 
 7335000    1.4034034   -3.5253625   -1.9874492   0.15042266   -3.5253625    1.5379133   600988 
 7336000    1.4037588   -3.5259788   -1.9877323   0.15502512   -3.5259788    1.5382465   601010 
 7337000    1.4037208   -3.5260133   -1.9878545   0.15243967   -3.5260133    1.5381587   601028 
 7338000    1.4030071   -3.5257733   -1.9884375   0.14903517   -3.5257733    1.5373358   601044 
 7339000     1.402875   -3.5258542   -1.9887117   0.15334616   -3.5258542    1.5371424   601063 
 7340000    1.4034042   -3.5264092   -1.9887278   0.15129896   -3.5264092    1.5376814   601079 
 7341000    1.4017365   -3.5258578   -1.9900241   0.14952931   -3.5258578    1.5358337   601087 
 7342000    1.3998927   -3.5240569   -1.9902944   0.15323304   -3.5240569    1.5337624   601107 
 7343000    1.4018742   -3.5256015   -1.9897217   0.15439076   -3.5256015    1.5358798   601128 
 7344000    1.4019833   -3.5260726   -1.9901269    0.1483918   -3.5260726    1.5359457   601149 
 7345000    1.4030289   -3.5269412    -1.989896   0.15570917   -3.5269412    1.5370452   601167 
 7346000    1.4020956   -3.5270397   -1.9910554   0.15396524   -3.5270397    1.5359844   601182 
 7347000    1.4023922   -3.5270721   -1.9908139    0.1521246   -3.5270721    1.5362582   601202 
 7348000    1.4017942   -3.5275181   -1.9919303    0.1489326   -3.5275181    1.5355878   601208 
 7349000    1.4053525   -3.5303836   -1.9909236    0.1504404   -3.5303836      1.53946   601218 
 7350000      1.40404   -3.5298109   -1.9918117   0.14712522   -3.5298109    1.5379993   601227 
 7351000    1.4031399   -3.5287843   -1.9918016   0.15561652   -3.5287843    1.5369826   601239 
 7352000    1.4018002   -3.5276009   -1.9921292   0.15435221   -3.5276009    1.5354718   601256 
 7353000    1.4020522   -3.5290811   -1.9933794   0.15370055   -3.5290811    1.5357018   601274 
 7354000    1.4022992   -3.5279596   -1.9920255   0.16022517   -3.5279596    1.5359341   601289 
 7355000    1.4037699   -3.5300653   -1.9925562   0.14795128   -3.5300653    1.5375091   601303 
 7356000    1.4023591   -3.5291349   -1.9932375   0.14987069   -3.5291349    1.5358974   601329 
 7357000    1.4015593   -3.5287671   -1.9937814   0.14822258   -3.5287671    1.5349858   601343 
 7358000    1.4021142   -3.5292732   -1.9936976   0.15402534   -3.5292732    1.5355756   601350 
 7359000    1.4039334   -3.5309694   -1.9934397   0.14760728   -3.5309694    1.5375296   601365 
 7360000    1.4021872   -3.5303955   -1.9947986   0.14764675   -3.5303955    1.5355968   601373 
 7361000    1.4022082   -3.5312305   -1.9956566    0.1501451   -3.5312305    1.5355739   601391 
 7362000    1.4014267   -3.5302714   -1.9956018    0.1501856   -3.5302714    1.5346696   601410 
 7363000     1.402396   -3.5311816   -1.9955171   0.14868835   -3.5311816    1.5356646   601436 
 7364000    1.4025743   -3.5306621   -1.9948329   0.14928106   -3.5306621    1.5358292   601448 
 7365000    1.4029237   -3.5303459   -1.9941596   0.15302427   -3.5303459    1.5361863   601458 
 7366000     1.402851   -3.5303543   -1.9943038   0.15202645   -3.5303543    1.5360505   601480 
 7367000    1.4037602   -3.5318242   -1.9947936   0.15072034   -3.5318242    1.5370307   601486 
 7368000    1.4017549   -3.5304288   -1.9956372   0.15768457   -3.5304288    1.5347916   601503 
 7369000    1.4036127   -3.5308099   -1.9940353    0.1498365   -3.5308099    1.5367746   601523 
 7370000    1.4021424   -3.5297109    -1.994569   0.15542195   -3.5297109    1.5351418   601532 
 7371000    1.4040868   -3.5319091   -1.9946792   0.14961174   -3.5319091    1.5372299   601548 
 7372000    1.4043238   -3.5325104   -1.9950262   0.14001931   -3.5325104    1.5374842   601550 
 7373000    1.4032209   -3.5319632   -1.9957172    0.1477697   -3.5319632     1.536246   601562 
 7374000    1.4017498   -3.5296811   -1.9950583    0.1502599   -3.5296811    1.5346228   601567 
 7375000     1.404537     -3.53203   -1.9943866   0.14680609     -3.53203    1.5376435   601579 
 7376000    1.4044056   -3.5322571   -1.9948035   0.14731965   -3.5322571    1.5374536   601597 
 7377000    1.4041306   -3.5312302   -1.9941058   0.15797787   -3.5312302    1.5371244   601608 
 7378000    1.4035059   -3.5302885   -1.9938683   0.15745637   -3.5302885    1.5364202   601616 
 7379000    1.4027321   -3.5303312   -1.9947939   0.15618612   -3.5303312    1.5355373   601630 
 7380000    1.4043074   -3.5324223   -1.9952039   0.15441167   -3.5324223    1.5372183   601647 
 7381000    1.4017509   -3.5301675   -1.9957706   0.16007672   -3.5301675    1.5343969   601656 
 7382000    1.4027437   -3.5303551   -1.9948995   0.15495731   -3.5303551    1.5354556   601667 
 7383000    1.4037117   -3.5315014   -1.9950041   0.15178104   -3.5315014    1.5364973   601674 
 7384000     1.402179   -3.5308231   -1.9960468   0.15346507   -3.5308231    1.5347763   601691 
 7385000    1.4025147   -3.5313139   -1.9962212   0.15132665   -3.5313139    1.5350927   601711 
 7386000    1.4027255    -3.531548   -1.9962679   0.14852732    -3.531548    1.5352801   601728 
 7387000    1.4019885   -3.5315797   -1.9971344     0.143627   -3.5315797    1.5344453   601739 
 7388000    1.4001481    -3.530637   -1.9982008   0.15311884    -3.530637    1.5324362   601737 
 7389000    1.4017559   -3.5315472   -1.9973717   0.14899953   -3.5315472    1.5341755   601745 
 7390000    1.4006252   -3.5309701   -1.9980526    0.1518366   -3.5309701    1.5329176   601753 
 7391000    1.4000438   -3.5292601   -1.9970017   0.15539494   -3.5292601    1.5322584   601762 
 7392000    1.4046301   -3.5336545   -1.9964024   0.15849179   -3.5336545    1.5372522   601772 
 7393000    1.4029816   -3.5324441   -1.9970165   0.15398263   -3.5324441    1.5354277   601780 
 7394000    1.4022495   -3.5323077   -1.9977093   0.15082339   -3.5323077    1.5345984   601791 
 7395000    1.4041487   -3.5330235   -1.9964131   0.15289382   -3.5330235    1.5366104   601817 
 7396000    1.4038269   -3.5320069   -1.9957972   0.15383661   -3.5320069    1.5362097   601836 
 7397000    1.4025344    -3.530988   -1.9962308   0.16032535    -3.530988    1.5347572   601851 
 7398000    1.4041321   -3.5334023   -1.9969351   0.14817328   -3.5334023    1.5364672   601866 
 7399000    1.4045064   -3.5345276   -1.9976891   0.14818561   -3.5345276    1.5368385   601881 
 7400000    1.4026587    -3.533006   -1.9982454   0.15511099    -3.533006    1.5347606   601903 
 7401000    1.4038856   -3.5341669   -1.9980868   0.14778452   -3.5341669    1.5360801   601912 
 7402000    1.4026122   -3.5329023   -1.9982436   0.15236306   -3.5329023    1.5346587   601923 
 7403000    1.4032479   -3.5333703   -1.9980288    0.1492168   -3.5333703    1.5353415   601928 
 7404000    1.4029282   -3.5327848    -1.997811   0.14856014   -3.5327848    1.5349738   601935 
 7405000    1.4031788   -3.5327794   -1.9975696   0.15431013   -3.5327794    1.5352098   601950 
 7406000     1.403488   -3.5328903   -1.9973626   0.14967978   -3.5328903    1.5355277   601958 
 7407000     1.405029   -3.5344425   -1.9972723   0.14677025   -3.5344425    1.5371703   601975 
 7408000    1.4044134    -3.532826   -1.9963599   0.15353751    -3.532826    1.5364661   601987 
 7409000    1.4047624   -3.5331827    -1.996345   0.14825199   -3.5331827    1.5368377   601991 
 7410000    1.4045173   -3.5335508   -1.9970221   0.15433488   -3.5335508    1.5365287   602007 
 7411000     1.404342   -3.5329156   -1.9966373   0.15098437   -3.5329156    1.5362783   602030 
 7412000    1.4030868   -3.5325408   -1.9976893   0.14992975   -3.5325408    1.5348516   602051 
 7413000    1.4041258   -3.5325802   -1.9966404    0.1539633   -3.5325802    1.5359397   602070 
 7414000    1.4044185   -3.5333667   -1.9971298   0.15325469   -3.5333667    1.5362369   602079 
 7415000    1.4033036   -3.5326268    -1.997663   0.15196875   -3.5326268    1.5349638   602100 
 7416000    1.4034402   -3.5318352     -1.99675   0.15154669   -3.5318352    1.5350852   602111 
 7417000    1.4030021   -3.5313125   -1.9967268   0.16278252   -3.5313125    1.5345856   602119 
 7418000    1.4046552   -3.5325111   -1.9961531   0.14636249   -3.5325111     1.536358   602133 
 7419000    1.4051568   -3.5329249   -1.9960336   0.15647384   -3.5329249    1.5368913   602139 
 7420000     1.404385   -3.5330715   -1.9970601   0.15527433   -3.5330715    1.5360115   602153 
 7421000    1.4058599   -3.5339606   -1.9963538   0.15664388   -3.5339606    1.5376067   602160 
 7422000    1.4056142    -3.534418   -1.9971259   0.14546849    -3.534418    1.5372921   602178 
 7423000    1.4041799   -3.5341641   -1.9984585   0.15232099   -3.5341641    1.5357056   602185 
 7424000    1.4035026   -3.5324414   -1.9975098   0.15121298   -3.5324414    1.5349316   602198 
 7425000    1.4046448   -3.5338941   -1.9977362   0.15290835   -3.5338941    1.5361579   602207 
 7426000    1.4046431   -3.5331009   -1.9969781   0.15416141   -3.5331009    1.5361228   602220 
 7427000    1.4049979   -3.5334312   -1.9969331   0.15445365   -3.5334312    1.5364981   602225 
 7428000    1.4054497   -3.5338939    -1.996917   0.15336862   -3.5338939    1.5369769   602231 
 7429000    1.4033796   -3.5316515   -1.9969588   0.15430917   -3.5316515    1.5346927   602239 
 7430000     1.404647   -3.5332609   -1.9972256   0.15398063   -3.5332609    1.5360352   602256 
 7431000    1.4050776   -3.5334739    -1.997006   0.15760972   -3.5334739    1.5364679   602271 
 7432000    1.4056778   -3.5337117   -1.9966156    0.1586049   -3.5337117    1.5370961   602282 
 7433000    1.4048665   -3.5344259   -1.9982475   0.15168705   -3.5344259    1.5361784   602294 
 7434000     1.402835   -3.5319313   -1.9980175   0.15989321   -3.5319313    1.5339138   602311 
 7435000     1.403735   -3.5332926   -1.9984127   0.15107725   -3.5332926      1.53488   602318 
 7436000     1.404989   -3.5340623   -1.9978342   0.15037503   -3.5340623    1.5362281   602327 
 7437000    1.4053864   -3.5327534   -1.9961213   0.15744385   -3.5327534    1.5366321   602339 
 7438000    1.4048729    -3.531948   -1.9958926   0.16061193    -3.531948    1.5360553   602345 
 7439000    1.4065335   -3.5339314   -1.9960834   0.15556311   -3.5339314     1.537848   602354 
 7440000    1.4056285   -3.5328968   -1.9960894   0.15264466   -3.5328968    1.5368075   602374 
 7441000    1.4075293   -3.5343999   -1.9955603   0.15367402   -3.5343999    1.5388396   602392 
 7442000     1.405889     -3.53237   -1.9953518   0.15304233     -3.53237    1.5370183   602403 
 7443000    1.4051596   -3.5324207   -1.9962203    0.1527223   -3.5324207    1.5362005   602411 
 7444000    1.4064254   -3.5343181    -1.996744   0.15064303   -3.5343181    1.5375741   602415 
 7445000    1.4050083    -3.532885   -1.9968627   0.15620152    -3.532885    1.5360223   602416 
 7446000    1.4051428   -3.5331891   -1.9970707   0.15544372   -3.5331891    1.5361184   602436 
 7447000    1.4050405   -3.5334734   -1.9975306   0.15427871   -3.5334734    1.5359428   602461 
 7448000    1.4069902   -3.5356132   -1.9975595   0.14840495   -3.5356132    1.5380537   602469 
 7449000    1.4036151   -3.5323894   -1.9980278   0.15941139   -3.5323894    1.5343616   602470 
 7450000    1.4049116   -3.5344584   -1.9986871   0.15307639   -3.5344584    1.5357713   602473 
 7451000     1.404558   -3.5337305   -1.9983534   0.15517062   -3.5337305    1.5353771   602476 
 7452000    1.4049912   -3.5342258   -1.9984007   0.15032076   -3.5342258    1.5358251   602486 
 7453000    1.4056843   -3.5361799   -1.9996404   0.15276226   -3.5361799    1.5365395   602503 
 7454000     1.405392   -3.5367343   -2.0005373   0.14939767   -3.5367343     1.536197   602512 
 7455000    1.4042461   -3.5352685   -2.0003649    0.1564005   -3.5352685    1.5349037   602528 
 7456000     1.405257   -3.5365431   -2.0005396   0.14996836   -3.5365431    1.5360035   602530 
 7457000    1.4043554    -3.536002   -2.0010324   0.15213617    -3.536002    1.5349696   602549 
 7458000    1.4050369   -3.5370327   -2.0013207   0.15183028   -3.5370327     1.535712   602550 
 7459000    1.4055281   -3.5369209   -2.0007103   0.15694241   -3.5369209    1.5362106   602565 
 7460000    1.4032674   -3.5337348    -2.000041   0.16017825   -3.5337348    1.5336939   602583 
 7461000     1.403931     -3.53374   -1.9993616   0.15960407     -3.53374    1.5343784   602599 
 7462000    1.4051516   -3.5359797   -2.0003182   0.15190036   -3.5359797    1.5356615   602619 
 7463000    1.4059068   -3.5359142   -1.9994706   0.15243911   -3.5359142    1.5364435   602636 
 7464000    1.4066781   -3.5374846   -2.0002391   0.15421088   -3.5374846    1.5372455   602652 
 7465000    1.4045513   -3.5354762   -2.0005904   0.15729051   -3.5354762    1.5348858   602666 
 7466000    1.4049687   -3.5366876   -2.0013713   0.15638273   -3.5366876    1.5353164   602676 
 7467000    1.4052054   -3.5370931   -2.0015715   0.14672174   -3.5370931    1.5355216   602697 
 7468000    1.4057719   -3.5370024   -2.0009103   0.15222633   -3.5370024    1.5360921   602716 
 7469000    1.4071452   -3.5374398   -1.9998521   0.14843569   -3.5374398    1.5375877   602718 
 7470000    1.4049954   -3.5352102   -2.0000022   0.15560324   -3.5352102    1.5352081   602730 
 7471000    1.4050589   -3.5352616   -2.0000148   0.15404845   -3.5352616    1.5352468   602742 
 7472000    1.4064064   -3.5372868    -2.000611   0.14996475   -3.5372868    1.5366758   602759 
 7473000    1.4057842   -3.5369246   -2.0009592   0.14957547   -3.5369246    1.5359654   602771 
 7474000    1.4058549   -3.5374897    -2.001475   0.14912131   -3.5374897    1.5360147   602782 
 7475000    1.4059004   -3.5359782   -1.9999367   0.15585285   -3.5359782    1.5360415   602791 
 7476000    1.4052857   -3.5350094   -1.9996854   0.15414749   -3.5350094     1.535324   602809 
 7477000    1.4058601   -3.5364054   -2.0005073   0.15216318   -3.5364054    1.5358981   602830 
 7478000    1.4067599    -3.538197    -2.001372   0.15016219    -3.538197     1.536825   602852 
 7479000    1.4066376   -3.5372516   -2.0005908   0.15182943   -3.5372516    1.5366608   602864 
 7480000    1.4060693   -3.5366441   -2.0006399   0.15530588   -3.5366441    1.5360042   602878 
 7481000    1.4053162   -3.5365144   -2.0013354   0.15553359   -3.5365144     1.535179   602879 
 7482000    1.4061475   -3.5381184   -2.0020644   0.15538412   -3.5381184     1.536054   602892 
 7483000    1.4063845   -3.5387154   -2.0024382   0.14454128   -3.5387154    1.5362772   602906 
 7484000    1.4053431   -3.5372852   -2.0021889   0.14814543   -3.5372852    1.5350964   602923 
 7485000    1.4051577   -3.5364992   -2.0016333   0.15216642   -3.5364992    1.5348659   602934 
 7486000    1.4064966   -3.5382507   -2.0019453    0.1464561   -3.5382507    1.5363054   602943 
 7487000    1.4052263   -3.5368165   -2.0019241   0.15285946   -3.5368165    1.5348924   602953 
 7488000    1.4052573   -3.5368991   -2.0020238   0.15292683   -3.5368991    1.5348753   602973 
 7489000    1.4047479   -3.5370564   -2.0027756   0.15052541   -3.5370564    1.5342808   602988 
 7490000    1.4044114   -3.5366175   -2.0027246   0.15196948   -3.5366175    1.5338929   602996 
 7491000    1.4059827   -3.5378735   -2.0022949   0.15703843   -3.5378735    1.5355786   603008 
 7492000    1.4054365   -3.5379285   -2.0029949   0.15562926   -3.5379285    1.5349336   603027 
 7493000    1.4075256   -3.5396142   -2.0024448   0.15040612   -3.5396142    1.5371694   603045 
 7494000    1.4066687   -3.5389868   -2.0027941   0.15295664   -3.5389868    1.5361927   603061 
 7495000    1.4068551    -3.539206   -2.0028478   0.14767845    -3.539206    1.5363582   603076 
 7496000    1.4069136   -3.5398759   -2.0034819   0.14965126   -3.5398759     1.536394   603087 
 7497000    1.4059944   -3.5382353   -2.0028884   0.15753848   -3.5382353    1.5353469   603104 
 7498000    1.4067336   -3.5389191   -2.0027955   0.15435985   -3.5389191    1.5361235   603116 
 7499000     1.405653   -3.5382527   -2.0033447   0.15563432   -3.5382527    1.5349079   603130 
 7500000     1.405547   -3.5386171   -2.0038758    0.1552326   -3.5386171    1.5347413   603150 
 7501000    1.4069358   -3.5386337   -2.0024014   0.15504625   -3.5386337    1.5362323   603160 
 7502000    1.4058713   -3.5379813   -2.0029266   0.15612156   -3.5379813    1.5350547   603166 
 7503000    1.4068619   -3.5386488   -2.0025355   0.15684405   -3.5386488    1.5361133   603175 
 7504000    1.4065673   -3.5387698   -2.0030214   0.15245753   -3.5387698    1.5357484   603192 
 7505000    1.4066711   -3.5393102   -2.0034842   0.15855195   -3.5393102    1.5358261   603206 
 7506000    1.4063521   -3.5397113   -2.0042666   0.15888406   -3.5397113    1.5354448   603219 
 7507000    1.4048896    -3.539523   -2.0057157   0.15069104    -3.539523    1.5338073   603235 
 7508000     1.404916   -3.5381502   -2.0043319   0.15739781   -3.5381502    1.5338183   603242 
 7509000    1.4062885    -3.539926   -2.0046601   0.15366367    -3.539926    1.5352659   603262 
 7510000     1.405386   -3.5385746   -2.0043169    0.1602999   -3.5385746    1.5342577   603271 
 7511000     1.406729   -3.5403027   -2.0046399   0.15245913   -3.5403027    1.5356628   603295 
 7512000    1.4036085   -3.5367578    -2.004527   0.15395689   -3.5367578    1.5322309   603305 
 7513000    1.4068738   -3.5390628   -2.0032954   0.15655904   -3.5390628    1.5357674   603316 
 7514000    1.4052191   -3.5378185   -2.0038855   0.15240473   -3.5378185    1.5339331   603327 
 7515000    1.4069454    -3.540546   -2.0047768   0.15418606    -3.540546    1.5357692   603346 
 7516000    1.4066405   -3.5401646   -2.0047944   0.15334291   -3.5401646    1.5353702   603372 
 7517000    1.4058419   -3.5387482   -2.0042625   0.16300384   -3.5387482    1.5344857   603377 
 7518000    1.4071674    -3.540173   -2.0042913   0.15527902    -3.540173    1.5358817   603397 
 7519000    1.4061487   -3.5406897   -2.0059606   0.15220661   -3.5406897     1.534729   603413 
 7520000    1.4053425   -3.5384595   -2.0046561   0.15846947   -3.5384595    1.5338034   603431 
 7521000    1.4048371   -3.5391319   -2.0059385   0.15594325   -3.5391319    1.5331934   603454 
 7522000    1.4054516   -3.5387752   -2.0049392   0.15485122   -3.5387752     1.533836   603465 
 7523000    1.4059195   -3.5384547   -2.0041462   0.15225558   -3.5384547    1.5343086   603480 
 7524000    1.4062157    -3.539063   -2.0044465   0.15873549    -3.539063    1.5346166   603486 
 7525000    1.4083268   -3.5404712    -2.003594   0.16071275   -3.5404712    1.5368771   603503 
 7526000    1.4065816   -3.5395842   -2.0046574   0.15657561   -3.5395842    1.5349268   603521 
 7527000    1.4064292    -3.540128   -2.0053853   0.15557103    -3.540128    1.5347427   603528 
 7528000    1.4074139   -3.5407787   -2.0049843   0.15130005   -3.5407787    1.5357944   603537 
 7529000    1.4071659   -3.5400046   -2.0044859   0.15273965   -3.5400046    1.5355186   603539 
 7530000     1.407495   -3.5404398     -2.00459    0.1572442   -3.5404398    1.5358497   603550 
 7531000    1.4076146   -3.5395317   -2.0035768   0.16386827   -3.5395317    1.5359548   603560 
 7532000    1.4065518   -3.5388397   -2.0040853   0.15693414   -3.5388397    1.5347544   603576 
 7533000    1.4062675   -3.5394371   -2.0050361   0.16023992   -3.5394371     1.534401   603593 
 7534000    1.4068248   -3.5405057   -2.0055323   0.15261599   -3.5405057    1.5349735   603607 
 7535000    1.4071607   -3.5418286   -2.0065471   0.15018908   -3.5418286    1.5352815   603630 
 7536000    1.4068001   -3.5402746   -2.0054272    0.1561696   -3.5402746    1.5348474   603646 
 7537000    1.4076914   -3.5409238   -2.0051421   0.15403193   -3.5409238    1.5357817   603661 
 7538000    1.4072671   -3.5415522   -2.0062461   0.15876638   -3.5415522     1.535306   603666 
 7539000    1.4072512   -3.5414482   -2.0062053   0.15228066   -3.5414482    1.5352429   603684 
 7540000    1.4084609   -3.5418589   -2.0052988   0.15110514   -3.5418589    1.5365601   603685 
 7541000    1.4084553   -3.5426582   -2.0061501    0.1509223   -3.5426582    1.5365081   603703 
 7542000    1.4059004   -3.5404596   -2.0067564    0.1513038   -3.5404596    1.5337032   603710 
 7543000    1.4078809   -3.5416282   -2.0057645   0.15696131   -3.5416282    1.5358637   603710 
 7544000    1.4071613   -3.5404175   -2.0053846   0.15601821   -3.5404175    1.5350329   603728 
 7545000    1.4071931   -3.5413192   -2.0062744   0.15259798   -3.5413192    1.5350447   603737 
 7546000    1.4086169   -3.5425683   -2.0059933   0.15490958   -3.5425683    1.5365749   603746 
 7547000    1.4079792    -3.541922   -2.0060554   0.15497316    -3.541922    1.5358667   603751 
 7548000    1.4080881   -3.5428517   -2.0068892    0.1574206   -3.5428517    1.5359625   603760 
 7549000    1.4078208   -3.5415323   -2.0059148   0.15649359   -3.5415323    1.5356175   603781 
 7550000    1.4073289   -3.5415351   -2.0064998   0.15695559   -3.5415351    1.5350352   603799 
 7551000    1.4066726   -3.5421339   -2.0078756   0.15243254   -3.5421339    1.5342584   603823 
 7552000    1.4081632   -3.5433369   -2.0074604   0.15938026   -3.5433369    1.5358765   603826 
 7553000    1.4060821   -3.5410649   -2.0074759   0.15667716   -3.5410649     1.533589   603833 
 7554000    1.4070355    -3.541446   -2.0068629   0.15456783    -3.541446    1.5345831   603851 
 7555000    1.4060313   -3.5410217   -2.0075567   0.15469439   -3.5410217     1.533465   603860 
 7556000    1.4060719   -3.5409998   -2.0075439   0.15920658   -3.5409998    1.5334559   603881 
 7557000    1.4072056   -3.5426611   -2.0079891   0.15552939   -3.5426611    1.5346719   603889 
 7558000    1.4071659   -3.5423665   -2.0077454   0.15642687   -3.5423665    1.5346211   603892 
 7559000    1.4072405   -3.5422358   -2.0075613   0.15944433   -3.5422358    1.5346745   603903 
 7560000    1.4068087   -3.5414662   -2.0072956   0.15489982   -3.5414662    1.5341706   603916 
 7561000    1.4067446   -3.5413371   -2.0072592   0.15910235   -3.5413371    1.5340778   603925 
 7562000    1.4074658   -3.5415698   -2.0067335   0.15726021   -3.5415698    1.5348363   603936 
 7563000    1.4080333   -3.5423746   -2.0069271   0.15424046   -3.5423746    1.5354475   603939 
 7564000    1.4062263   -3.5415838   -2.0081397   0.16068408   -3.5415838     1.533444   603952 
 7565000    1.4069076   -3.5414582   -2.0073119   0.15294649   -3.5414582    1.5341463   603968 
 7566000     1.407999   -3.5427932   -2.0074695   0.15682371   -3.5427932    1.5353238   603973 
 7567000    1.4074455    -3.542196   -2.0074886   0.16079813    -3.542196    1.5347074   603978 
 7568000    1.4089435   -3.5437352   -2.0074223   0.15170514   -3.5437352    1.5363129   603989 
 7569000    1.4080168   -3.5430586   -2.0077664   0.15377412   -3.5430586    1.5352922   603993 
 7570000    1.4077846   -3.5421878   -2.0071512   0.16277381   -3.5421878    1.5350366   603994 
 7571000    1.4092574   -3.5439742   -2.0073444    0.1575895   -3.5439742    1.5366298   603999 
 7572000    1.4063491   -3.5415742   -2.0081359    0.1604392   -3.5415742    1.5334383   604007 
 7573000    1.4079029   -3.5420789   -2.0069795   0.15643618   -3.5420789    1.5350995   604020 
 7574000       1.4082   -3.5416442   -2.0062462   0.16287472   -3.5416442     1.535398   604030 
 7575000    1.4101822   -3.5434312   -2.0059025   0.15806536   -3.5434312    1.5375287   604042 
 7576000    1.4094536   -3.5429216   -2.0062076   0.15217331   -3.5429216    1.5367139   604050 
 7577000    1.4075297   -3.5420524   -2.0074514   0.16016474   -3.5420524     1.534601   604056 
 7578000    1.4083199   -3.5434593   -2.0080171   0.15107443   -3.5434593    1.5354422   604064 
 7579000    1.4087786   -3.5436103   -2.0076882    0.1557723   -3.5436103    1.5359221   604072 
 7580000     1.407424   -3.5424297    -2.008015   0.15452593   -3.5424297    1.5344147   604084 
 7581000    1.4078968   -3.5425433   -2.0076359   0.15317501   -3.5425433    1.5349073   604093 
 7582000    1.4081733   -3.5416121   -2.0064415   0.16018315   -3.5416121    1.5351706   604108 
 7583000    1.4089235   -3.5427406    -2.006803   0.15747025   -3.5427406    1.5359377   604128 
 7584000    1.4091591   -3.5433343   -2.0071602   0.15921799   -3.5433343    1.5361741   604136 
 7585000    1.4095263   -3.5419449   -2.0053985   0.15629896   -3.5419449    1.5365464   604147 
 7586000    1.4097169    -3.543449   -2.0067177    0.1572919    -3.543449    1.5367313   604156 
 7587000    1.4098803   -3.5441116   -2.0072683    0.1608397   -3.5441116    1.5368433   604182 
 7588000    1.4089217   -3.5426863   -2.0069133   0.15531607   -3.5426863     1.535773   604192 
 7589000    1.4094807   -3.5445226   -2.0081861   0.15727192   -3.5445226    1.5363365   604210 
 7590000     1.407002    -3.541422   -2.0078355   0.15512745    -3.541422    1.5335865   604229 
 7591000    1.4093636   -3.5432587   -2.0071286   0.15924888   -3.5432587    1.5361301   604241 
 7592000    1.4086759   -3.5440046   -2.0086597   0.15277551   -3.5440046    1.5353449   604255 
 7593000    1.4090575   -3.5439376   -2.0081971   0.15899494   -3.5439376    1.5357405   604263 
 7594000    1.4093461   -3.5445396   -2.0085023   0.15218464   -3.5445396    1.5360373   604270 
 7595000    1.4090737   -3.5445201   -2.0088077   0.15065144   -3.5445201    1.5357124   604281 
 7596000    1.4099834    -3.544943   -2.0082646   0.15205824    -3.544943    1.5366784   604291 
 7597000    1.4093755   -3.5438185   -2.0078026   0.15848457   -3.5438185     1.536016   604291 
 7598000    1.4082973   -3.5430875   -2.0083025   0.15794925   -3.5430875     1.534785   604313 
 7599000    1.4080131    -3.544317    -2.009885   0.15484978    -3.544317     1.534432   604330 
 7600000    1.4078907   -3.5440177   -2.0097265   0.15693843   -3.5440177    1.5342911   604333 
 7601000    1.4082199   -3.5431958   -2.0085789   0.16319562   -3.5431958    1.5346169   604346 
 7602000     1.408871   -3.5438826   -2.0085739   0.15648468   -3.5438826    1.5353086   604353 
 7603000    1.4108009   -3.5459904   -2.0086219   0.15207821   -3.5459904    1.5373685   604370 
 7604000    1.4080694   -3.5439638   -2.0096201    0.1610022   -3.5439638    1.5343437   604389 
 7605000     1.409688   -3.5470402   -2.0109785   0.15156725   -3.5470402    1.5360617   604407 
 7606000    1.4085661   -3.5452696   -2.0104787   0.15354556   -3.5452696     1.534791   604426 
 7607000    1.4089225   -3.5449419    -2.009816   0.15527476   -3.5449419    1.5351259   604447 
 7608000    1.4090504   -3.5439539   -2.0087191   0.15735017   -3.5439539    1.5352348   604459 
 7609000    1.4089475     -3.54541   -2.0102974   0.15049587     -3.54541    1.5351126   604463 
 7610000    1.4082182   -3.5446956   -2.0104157   0.15850919   -3.5446956    1.5342799   604478 
 7611000     1.408166   -3.5446681   -2.0104756   0.16155092   -3.5446681    1.5341925   604490 
 7612000    1.4101857   -3.5467287   -2.0103357   0.15535521   -3.5467287     1.536393   604490 
 7613000    1.4080787   -3.5455853   -2.0115107   0.15486129   -3.5455853    1.5340746   604499 
 7614000    1.4089319   -3.5471177   -2.0121415   0.15384406   -3.5471177    1.5349762   604510 
 7615000    1.4086495   -3.5455944   -2.0109335   0.15508622   -3.5455944    1.5346609   604513 
 7616000    1.4096995    -3.547235   -2.0114658   0.14671628    -3.547235    1.5357692   604527 
 7617000    1.4074558   -3.5458276   -2.0125382   0.15965688   -3.5458276    1.5332894   604541 
 7618000    1.4072522   -3.5449583   -2.0119084   0.15643785   -3.5449583    1.5330499   604548 
 7619000    1.4093054   -3.5473897   -2.0121235   0.15268957   -3.5473897    1.5352663   604556 
 7620000    1.4083898   -3.5467234   -2.0124876   0.15554114   -3.5467234    1.5342358   604569 
 7621000    1.4085874   -3.5461494   -2.0117439   0.15351277   -3.5461494    1.5344054   604587 
 7622000    1.4065181   -3.5445767   -2.0124254   0.15799872   -3.5445767    1.5321513   604587 
 7623000    1.4070285     -3.54528   -2.0126311   0.15401462     -3.54528    1.5326489   604610 
 7624000    1.4064193   -3.5456727   -2.0137101   0.15160038   -3.5456727    1.5319626   604619 
 7625000    1.4076826    -3.546675   -2.0133694   0.15115181    -3.546675    1.5333056   604632 
 7626000    1.4084271   -3.5468328   -2.0127618    0.1609318   -3.5468328    1.5340709   604650 
 7627000     1.409765   -3.5487546   -2.0132771   0.15514818   -3.5487546    1.5354775   604670 
 7628000    1.4086338   -3.5481868   -2.0139821   0.15771159   -3.5481868    1.5342047   604686 
 7629000    1.4073169   -3.5463821   -2.0136547   0.15690224   -3.5463821    1.5327274   604703 
 7630000    1.4099526   -3.5493201   -2.0137679   0.15044986   -3.5493201    1.5355523   604721 
 7631000    1.4084284   -3.5471041   -2.0132499   0.15322142   -3.5471041    1.5338542   604736 
 7632000    1.4080839   -3.5476348   -2.0141964   0.15248939   -3.5476348    1.5334384   604752 
 7633000    1.4092735   -3.5488252   -2.0141141   0.16425023   -3.5488252    1.5347111   604761 
 7634000    1.4093728   -3.5483791    -2.013565   0.15423149   -3.5483791    1.5348141   604763 
 7635000    1.4067022   -3.5456765   -2.0137908   0.15995719   -3.5456765    1.5318857   604771 
 7636000    1.4097263    -3.548249   -2.0131286    0.1505206    -3.548249    1.5351204   604794 
 7637000    1.4093077    -3.548049   -2.0133971   0.15210514    -3.548049     1.534652   604799 
 7638000    1.4092171   -3.5461942    -2.011684   0.15204709   -3.5461942    1.5345101   604816 
 7639000    1.4086056   -3.5459328   -2.0121114   0.15796873   -3.5459328    1.5338214   604825 
 7640000    1.4104623    -3.548916   -2.0131237   0.15013145    -3.548916    1.5357924   604845 
 7641000    1.4113374   -3.5495639   -2.0128466   0.15201236   -3.5495639    1.5367174   604856 
 7642000      1.41092   -3.5493337   -2.0131013   0.15511551   -3.5493337    1.5362323   604868 
 7643000    1.4078952   -3.5466527   -2.0137492   0.15505961   -3.5466527    1.5329035   604882 
 7644000     1.409118   -3.5472896   -2.0131004   0.15916963   -3.5472896    1.5341892   604900 
 7645000    1.4110557   -3.5489156   -2.0126244   0.15633211   -3.5489156    1.5362912   604903 
 7646000    1.4098591   -3.5469285   -2.0119756   0.16316024   -3.5469285    1.5349529   604917 
 7647000     1.411347   -3.5478558   -2.0113033   0.15833391   -3.5478558    1.5365525   604925 
 7648000    1.4123355   -3.5490255   -2.0114374   0.15030811   -3.5490255    1.5375881   604941 
 7649000    1.4108012   -3.5465658   -2.0106608   0.15540374   -3.5465658     1.535905   604946 
 7650000    1.4103095   -3.5474813   -2.0121624   0.15495424   -3.5474813    1.5353189   604966 
 7651000    1.4110073   -3.5482549   -2.0122094   0.15808762   -3.5482549    1.5360455   604979 
 7652000    1.4096214   -3.5470071   -2.0125083   0.15830465   -3.5470071    1.5344987   604994 
 7653000    1.4102239   -3.5484084   -2.0132716   0.15685618   -3.5484084    1.5351368   605001 
 7654000    1.4099753   -3.5480408   -2.0132101   0.15957296   -3.5480408    1.5348307   605015 
 7655000    1.4098476   -3.5476614   -2.0130127   0.16115852   -3.5476614    1.5346487   605032 
 7656000    1.4111631   -3.5494403   -2.0133826   0.15871146   -3.5494403    1.5360578   605041 
 7657000    1.4089041   -3.5473419   -2.0137532   0.16232433   -3.5473419    1.5335887   605045 
 7658000    1.4100892    -3.547916   -2.0130754   0.15686237    -3.547916    1.5348406   605060 
 7659000    1.4113556   -3.5482633   -2.0120798   0.15456236   -3.5482633    1.5361835   605074 
 7660000    1.4100722   -3.5486106   -2.0138671   0.15431666   -3.5486106    1.5347435   605091 
 7661000    1.4104203   -3.5491575   -2.0140503   0.15979869   -3.5491575    1.5351071   605097 
 7662000    1.4096715   -3.5479572   -2.0136778   0.15083413   -3.5479572    1.5342794   605102 
 7663000    1.4108149   -3.5499372   -2.0144133   0.15366341   -3.5499372    1.5355239   605102 
 7664000     1.408997   -3.5490517    -2.015547   0.15585159   -3.5490517    1.5335047   605118 
 7665000    1.4084972    -3.548851   -2.0159384   0.16044226    -3.548851    1.5329126   605137 
 7666000    1.4095309   -3.5501779   -2.0161732   0.15305924   -3.5501779    1.5340047   605150 
 7667000    1.4096498   -3.5498735   -2.0157495   0.15994074   -3.5498735     1.534124   605154 
 7668000    1.4108227   -3.5509192   -2.0155339   0.15337882   -3.5509192    1.5353853   605160 
 7669000    1.4096353    -3.549286   -2.0152311   0.15248858    -3.549286    1.5340549   605175 
 7670000     1.410887   -3.5504686   -2.0150514     0.159388   -3.5504686    1.5354172   605175 
 7671000    1.4100758   -3.5496882   -2.0151589   0.15407178   -3.5496882    1.5345293   605177 
 7672000    1.4111734   -3.5512677   -2.0155796   0.15246567   -3.5512677    1.5356882   605191 
 7673000    1.4096567   -3.5492386   -2.0152085   0.15573361   -3.5492386    1.5340301   605194 
 7674000    1.4094505   -3.5500948   -2.0163245   0.15436973   -3.5500948    1.5337702   605208 
 7675000    1.4091482   -3.5500286   -2.0166304   0.15727014   -3.5500286    1.5333982   605225 
 7676000    1.4085285   -3.5494503   -2.0167543   0.16100013   -3.5494503    1.5326959   605236 
 7677000    1.4090436   -3.5500238   -2.0167826   0.15179928   -3.5500238    1.5332412   605242 
 7678000    1.4096112   -3.5494258   -2.0155948   0.15686663   -3.5494258     1.533831   605253 
 7679000    1.4090286   -3.5495084   -2.0163417   0.15605584   -3.5495084    1.5331667   605265 
 7680000    1.4063381   -3.5468817   -2.0167082   0.16297363   -3.5468817    1.5301735   605291 
 7681000    1.4110282   -3.5505147   -2.0152534   0.15424757   -3.5505147    1.5352613   605297 
 7682000    1.4098062   -3.5495613   -2.0156271   0.15322304   -3.5495613    1.5339342   605296 
 7683000    1.4084386   -3.5482976   -2.0158843   0.15212327   -3.5482976    1.5324133   605309 
 7684000    1.4096168   -3.5500019   -2.0163143   0.15764424   -3.5500019    1.5336876   605312 
 7685000    1.4082714   -3.5491084   -2.0169124   0.15850865   -3.5491084     1.532196   605323 
 7686000    1.4085456   -3.5491488   -2.0166595   0.15955477   -3.5491488    1.5324893   605325 
 7687000    1.4088075   -3.5496955   -2.0169389   0.15541004   -3.5496955    1.5327565   605332 
 7688000    1.4118599   -3.5518121   -2.0157753   0.15455492   -3.5518121    1.5360368   605348 
 7689000    1.4103715   -3.5501401   -2.0157682   0.16207726   -3.5501401    1.5343719   605366 
 7690000    1.4101485   -3.5505906   -2.0164715   0.15168979   -3.5505906    1.5341191   605370 
 7691000     1.410121   -3.5507225   -2.0166662   0.15853493   -3.5507225    1.5340563   605383 
 7692000    1.4095889    -3.551331   -2.0179018   0.15669747    -3.551331    1.5334293   605402 
 7693000    1.4102801   -3.5518076   -2.0176771   0.15625253   -3.5518076    1.5341305   605422 
 7694000    1.4090746   -3.5508014   -2.0180152   0.15817977   -3.5508014    1.5327862   605435 
 7695000    1.4097486   -3.5510497   -2.0175632   0.15765074   -3.5510497    1.5334865   605448 
 7696000    1.4108408   -3.5528174   -2.0181834   0.15588036   -3.5528174     1.534634   605464 
 7697000    1.4080799   -3.5504314   -2.0188461   0.15877182   -3.5504314    1.5315853   605482 
 7698000    1.4084138   -3.5509138   -2.0190387    0.1557366   -3.5509138    1.5318751   605511 
 7699000    1.4100601    -3.552384   -2.0187512    0.1573061    -3.552384    1.5336328   605524 
 7700000    1.4102326   -3.5519897    -2.018192   0.15756487   -3.5519897    1.5337976   605533 
 7701000    1.4089214   -3.5500159   -2.0176772   0.16279977   -3.5500159    1.5323387   605546 
 7702000    1.4123318   -3.5523629   -2.0163278   0.15906436   -3.5523629    1.5360351   605551 
 7703000    1.4111965   -3.5517379   -2.0169755   0.15927219   -3.5517379    1.5347624   605566 
 7704000    1.4109851   -3.5519287   -2.0174317   0.16123237   -3.5519287     1.534497   605580 
 7705000    1.4110824   -3.5518588   -2.0172612   0.15136725   -3.5518588    1.5345977   605582 
 7706000    1.4098305   -3.5515009   -2.0182698   0.15564529   -3.5515009    1.5332312   605584 
 7707000    1.4102786   -3.5512076   -2.0175195   0.15635787   -3.5512076    1.5336881   605596 
 7708000    1.4086324    -3.549753   -2.0179006   0.15867928    -3.549753    1.5318523   605614 
 7709000    1.4076929   -3.5503394   -2.0195391   0.15595216   -3.5503394    1.5308003   605626 
 7710000    1.4062229   -3.5489619   -2.0197929   0.15515075   -3.5489619     1.529169   605639 
 7711000    1.4089124   -3.5514638   -2.0193981   0.16165344   -3.5514638    1.5320657   605650 
 7712000    1.4088563   -3.5515813    -2.019612   0.15585104   -3.5515813    1.5319693   605664 
 7713000    1.4092592   -3.5522568   -2.0198848   0.15362885   -3.5522568     1.532372   605678 
 7714000    1.4102732   -3.5530255   -2.0195939   0.14920127   -3.5530255    1.5334316   605695 
 7715000    1.4094242   -3.5517898    -2.019294    0.1545859   -3.5517898    1.5324958   605700 
 7716000    1.4099011   -3.5515607   -2.0185742   0.15691012   -3.5515607    1.5329864   605711 
 7717000    1.4103428   -3.5522068   -2.0187729   0.15046923   -3.5522068    1.5334339   605724 
 7718000    1.4107637   -3.5511702   -2.0173116   0.16055768   -3.5511702    1.5338586   605737 
 7719000    1.4109374   -3.5526971   -2.0186827   0.16059036   -3.5526971    1.5340145   605750 
 7720000    1.4097523   -3.5519928   -2.0193174   0.15953274   -3.5519928    1.5326754   605770 
 7721000    1.4116362   -3.5533287   -2.0186609   0.15979775   -3.5533287    1.5346678   605792 
 7722000    1.4101693   -3.5524749   -2.0194373   0.16075849   -3.5524749    1.5330376   605806 
 7723000    1.4100509   -3.5535181   -2.0206294   0.16139673   -3.5535181    1.5328886   605814 
 7724000    1.4114722   -3.5548884   -2.0204648   0.15552388   -3.5548884    1.5344237   605818 
 7725000    1.4108419   -3.5533614   -2.0196331    0.1572387   -3.5533614    1.5337283   605822 
 7726000    1.4107429   -3.5539827   -2.0204075   0.15495479   -3.5539827    1.5335752   605840 
 7727000    1.4094741   -3.5528687   -2.0207006   0.15664146   -3.5528687    1.5321681   605851 
 7728000    1.4113895   -3.5548111   -2.0205787   0.15615546   -3.5548111    1.5342324   605858 
 7729000    1.4115205   -3.5536097   -2.0192753   0.15377365   -3.5536097    1.5343343   605874 
 7730000    1.4114375   -3.5545422   -2.0203436   0.16020635   -3.5545422    1.5341985   605892 
 7731000    1.4104636   -3.5536099   -2.0204826   0.15714214   -3.5536099    1.5331273   605897 
 7732000    1.4102101   -3.5543548   -2.0215183   0.15813033   -3.5543548    1.5328365   605903 
 7733000    1.4081849   -3.5531311   -2.0224908   0.15983007   -3.5531311    1.5306403   605901 
 7734000    1.4103156    -3.554461   -2.0215223   0.15156432    -3.554461    1.5329386   605908 
 7735000     1.409714    -3.553172    -2.020905   0.15901435    -3.553172     1.532267   605915 
 7736000    1.4098029   -3.5534384   -2.0211026   0.15933885   -3.5534384    1.5323358   605926 
 7737000    1.4104946   -3.5538619   -2.0208021   0.15337835   -3.5538619    1.5330598   605937 
 7738000    1.4108794   -3.5532912   -2.0198435   0.16166126   -3.5532912    1.5334476   605949 
 7739000    1.4112779   -3.5528338   -2.0189606   0.16249691   -3.5528338    1.5338732   605952 
 7740000    1.4123262   -3.5528584    -2.017856   0.16071449   -3.5528584    1.5350024   605956 
 7741000    1.4109316    -3.552084   -2.0186074   0.16007082    -3.552084    1.5334766   605960 
 7742000    1.4130718   -3.5531924   -2.0174431   0.15552937   -3.5531924    1.5357493   605981 
 7743000    1.4117132    -3.552779   -2.0185594   0.16057429    -3.552779    1.5342196   606002 
 7744000    1.4132642   -3.5545626   -2.0186776   0.15437232   -3.5545626     1.535885   606010 
 7745000    1.4137696   -3.5538908   -2.0175174   0.15996159   -3.5538908    1.5363734   606034 
 7746000    1.4124719   -3.5527374   -2.0177793   0.16795238   -3.5527374    1.5349581   606036 
 7747000    1.4136894   -3.5538585    -2.017618   0.16148187   -3.5538585    1.5362406   606052 
 7748000     1.412277   -3.5534054   -2.0187224   0.15564371   -3.5534054     1.534683   606061 
 7749000    1.4117123   -3.5524335   -2.0183844   0.15977993   -3.5524335    1.5340491   606069 
 7750000    1.4122874   -3.5526188   -2.0179675   0.16265074   -3.5526188    1.5346512   606078 
 7751000    1.4125513   -3.5535914   -2.0186686   0.15511212   -3.5535914    1.5349228   606084 
 7752000    1.4121638   -3.5524532   -2.0179768   0.15758236   -3.5524532    1.5344764   606094 
 7753000     1.412978   -3.5531389   -2.0177879   0.16014689   -3.5531389    1.5353511   606098 
 7754000    1.4118886   -3.5529142   -2.0187698   0.15576476   -3.5529142    1.5341445   606107 
 7755000    1.4133543   -3.5552355   -2.0195237   0.15828023   -3.5552355    1.5357117   606117 
 7756000    1.4118269   -3.5542362   -2.0202069   0.15898763   -3.5542362    1.5340293   606126 
 7757000    1.4121592   -3.5545437   -2.0201887    0.1547216   -3.5545437     1.534355   606140 
 7758000    1.4108772    -3.553054   -2.0200793   0.16051922    -3.553054    1.5329746   606135 
 7759000    1.4125068   -3.5537041   -2.0189511   0.15899136   -3.5537041     1.534753   606132 
 7760000    1.4132795   -3.5539659   -2.0183785   0.15446403   -3.5539659    1.5355875   606134 
 7761000     1.412047   -3.5541402   -2.0198945   0.16124529   -3.5541402    1.5342458   606135 
 7762000    1.4142891    -3.556158    -2.019537   0.16002944    -3.556158     1.536621   606159 
 7763000    1.4125013   -3.5550188   -2.0203909    0.1592184   -3.5550188     1.534628   606179 
 7764000    1.4125166   -3.5555596   -2.0209454   0.15688727   -3.5555596    1.5346142   606191 
 7765000    1.4118369   -3.5545567   -2.0207012   0.15545511   -3.5545567    1.5338554   606199 
 7766000    1.4109155   -3.5543648   -2.0215407   0.15477362   -3.5543648    1.5328241   606211 
 7767000    1.4133199   -3.5561402   -2.0207394   0.15427317   -3.5561402    1.5354008   606225 
 7768000    1.4105908   -3.5535816   -2.0211583   0.15903796   -3.5535816    1.5324233   606230 
 7769000    1.4118677   -3.5546899   -2.0208667   0.15504419   -3.5546899    1.5338231   606225 
 7770000    1.4123956   -3.5555606    -2.021174   0.15448976   -3.5555606    1.5343865   606229 
 7771000    1.4103538   -3.5531836   -2.0210608    0.1656826   -3.5531836    1.5321228   606247 
 7772000    1.4131517   -3.5549504   -2.0197956   0.16363659   -3.5549504    1.5351547   606250 
 7773000    1.4122813   -3.5552472    -2.021081   0.15348765   -3.5552472    1.5341662   606267 
 7774000    1.4122626   -3.5548823    -2.020787   0.15827689   -3.5548823    1.5340953   606287 
 7775000    1.4127567   -3.5563401   -2.0217233   0.15438712   -3.5563401    1.5346169   606293 
 7776000      1.41089   -3.5541677   -2.0216165   0.15782286   -3.5541677    1.5325512   606308 
 7777000    1.4124673   -3.5555124   -2.0212809   0.15982706   -3.5555124    1.5342316   606321 
 7778000    1.4116492   -3.5547348   -2.0214019   0.15905631   -3.5547348    1.5333329   606325 
 7779000    1.4141885   -3.5558254   -2.0197596   0.15983267   -3.5558254    1.5360657   606335 
 7780000    1.4121074   -3.5540772   -2.0203048    0.1602274   -3.5540772    1.5337724   606348 
 7781000      1.41251   -3.5537501   -2.0195758   0.16290145   -3.5537501    1.5341743   606362 
 7782000    1.4111654   -3.5535628   -2.0208793   0.15894122   -3.5535628    1.5326835   606374 
 7783000    1.4126018    -3.555818   -2.0215922   0.15327015    -3.555818    1.5342258   606381 
 7784000    1.4128153   -3.5550625   -2.0206529   0.16274772   -3.5550625    1.5344096   606400 
 7785000    1.4145349   -3.5575017   -2.0212549   0.15525482   -3.5575017    1.5362469   606412 
 7786000    1.4132608   -3.5560399   -2.0212122   0.16343342   -3.5560399    1.5348277   606426 
 7787000    1.4138152   -3.5575729   -2.0221658   0.15841439   -3.5575729    1.5354071   606435 
 7788000    1.4118966   -3.5552367   -2.0219714    0.1603478   -3.5552367    1.5332653   606458 
 7789000    1.4128343   -3.5572085   -2.0229756    0.1521026   -3.5572085     1.534233   606478 
 7790000     1.412158   -3.5556417   -2.0221685   0.15941708   -3.5556417    1.5334732   606488 
 7791000    1.4124912   -3.5554561   -2.0216438   0.16066386   -3.5554561    1.5338123   606497 
 7792000    1.4122997     -3.55543   -2.0218938   0.16362575     -3.55543    1.5335362   606524 
 7793000    1.4134757   -3.5574988   -2.0227035   0.15373137   -3.5574988    1.5347953   606531 
 7794000    1.4121015   -3.5568734    -2.023598    0.1592346   -3.5568734    1.5332754   606542 
 7795000    1.4121038   -3.5564898   -2.0232245   0.15684435   -3.5564898    1.5332653   606547 
 7796000     1.413912   -3.5570395   -2.0218463   0.16040367   -3.5570395    1.5351932   606561 
 7797000    1.4136382   -3.5568906     -2.02201   0.16173385   -3.5568906    1.5348807   606567 
 7798000     1.411481     -3.55595   -2.0234595    0.1586025     -3.55595    1.5324905   606586 
 7799000    1.4129395   -3.5565208   -2.0224999   0.15994095   -3.5565208    1.5340209   606607 
 7800000    1.4113908   -3.5558654   -2.0235537   0.15949388   -3.5558654    1.5323117   606618 
 7801000    1.4125318   -3.5572292   -2.0237091   0.15894108   -3.5572292    1.5335202   606630 
 7802000    1.4127216      -3.5583   -2.0246092    0.1564678      -3.5583    1.5336908   606644 
 7803000     1.411517   -3.5568005   -2.0244579   0.15660583   -3.5568005    1.5323427   606660 
 7804000    1.4111944   -3.5560121   -2.0240551   0.16159041   -3.5560121     1.531957   606674 
 7805000    1.4112953   -3.5577743    -2.025733   0.15421609   -3.5577743    1.5320413   606684 
 7806000    1.4117477   -3.5587915    -2.026307   0.15071169   -3.5587915    1.5324845   606703 
 7807000    1.4115738   -3.5579128   -2.0256399   0.15607758   -3.5579128    1.5322729   606712 
 7808000    1.4109816   -3.5575943   -2.0259843   0.15227433   -3.5575943    1.5316099   606720 
 7809000    1.4127416   -3.5594169   -2.0259445   0.15202338   -3.5594169    1.5334724   606739 
 7810000     1.412015   -3.5587665   -2.0261308   0.15664314   -3.5587665    1.5326357   606758 
 7811000    1.4116245   -3.5578511    -2.025657   0.16178871   -3.5578511    1.5321941   606765 
 7812000    1.4119667   -3.5586145   -2.0260945    0.1576947   -3.5586145    1.5325201   606783 
 7813000    1.4113844   -3.5589001   -2.0270423   0.15853957   -3.5589001    1.5318578   606795 
 7814000    1.4110407   -3.5585535   -2.0270965   0.15916699   -3.5585535     1.531457   606806 
 7815000    1.4120964    -3.559029    -2.026459   0.15805164    -3.559029      1.53257   606819 
 7816000    1.4124626   -3.5588744   -2.0259549   0.15473227   -3.5588744    1.5329194   606838 
 7817000    1.4143242   -3.5609789   -2.0260594   0.15393461   -3.5609789    1.5349195   606846 
 7818000    1.4126489   -3.5594674   -2.0263837   0.16021598   -3.5594674    1.5330837   606853 
 7819000    1.4126761   -3.5583785   -2.0253108   0.15744553   -3.5583785    1.5330677   606871 
 7820000    1.4126567   -3.5587157   -2.0257094   0.15925122   -3.5587157    1.5330063   606887 
 7821000    1.4126861   -3.5583365   -2.0253134   0.15975788   -3.5583365    1.5330231   606893 
 7822000    1.4132974   -3.5589684    -2.025277   0.16012261   -3.5589684    1.5336914   606891 
 7823000    1.4113408   -3.5570026   -2.0254622   0.16384465   -3.5570026    1.5315405   606902 
 7824000    1.4129951    -3.558553   -2.0252579   0.15802466    -3.558553    1.5332952   606918 
 7825000    1.4128566   -3.5596695   -2.0265398   0.15526421   -3.5596695    1.5331297   606924 
 7826000    1.4126931   -3.5585641    -2.025622   0.16290935   -3.5585641    1.5329422   606928 
 7827000    1.4133062   -3.5595753   -2.0259829   0.15544922   -3.5595753    1.5335924   606934 
 7828000    1.4125515   -3.5584131   -2.0256523   0.16029812   -3.5584131    1.5327608   606939 
 7829000    1.4125767   -3.5592985   -2.0265508   0.15558694   -3.5592985    1.5327477   606955 
 7830000    1.4113177   -3.5581254   -2.0267791   0.16171004   -3.5581254    1.5313462   606969 
 7831000     1.411271   -3.5582099   -2.0269219   0.15324331   -3.5582099     1.531288   606972 
 7832000    1.4121025   -3.5585243   -2.0263467   0.15607076   -3.5585243    1.5321777   606977 
 7833000    1.4140827    -3.559503   -2.0252097   0.15896838    -3.559503    1.5342933   606990 
 7834000    1.4148834   -3.5605483   -2.0254165   0.15811711   -3.5605483    1.5351318   607002 
 7835000    1.4140781   -3.5597775    -2.025527   0.16190755   -3.5597775    1.5342505   607005 
 7836000    1.4143793   -3.5602243   -2.0256572    0.1614404   -3.5602243    1.5345672   607009 
 7837000    1.4143123   -3.5605328   -2.0260763   0.16190992   -3.5605328    1.5344565   607024 
 7838000    1.4137565   -3.5599226   -2.0261044   0.15709791   -3.5599226    1.5338181   607038 
 7839000    1.4110953   -3.5577774   -2.0268894   0.16037572   -3.5577774     1.530888   607055 
 7840000    1.4123764   -3.5599939   -2.0277312   0.16080814   -3.5599939    1.5322628   607061 
 7841000    1.4115421    -3.559228    -2.027898   0.16168927    -3.559228    1.5313299   607072 
 7842000    1.4140656    -3.560217   -2.0261722   0.15530324    -3.560217    1.5340448   607081 
 7843000    1.4137492   -3.5605715   -2.0269104   0.15697698   -3.5605715    1.5336611   607097 
 7844000    1.4122255   -3.5586366   -2.0266637   0.16040803   -3.5586366    1.5319729   607111 
 7845000    1.4125212    -3.559133   -2.0268797   0.16617552    -3.559133    1.5322533   607127 
 7846000    1.4148657   -3.5606013   -2.0258478    0.1587926   -3.5606013    1.5347535   607144 
 7847000    1.4135805   -3.5593717   -2.0260553   0.16485274   -3.5593717    1.5333165   607161 
 7848000     1.412683   -3.5584204   -2.0261329   0.16127399   -3.5584204    1.5322875   607183 
 7849000    1.4127793   -3.5591042   -2.0267451   0.16518388   -3.5591042    1.5323591   607196 
 7850000    1.4135965   -3.5607364   -2.0275389   0.15973308   -3.5607364    1.5331975   607215 
 7851000    1.4124205   -3.5595748   -2.0276831   0.16009178   -3.5595748    1.5318917   607227 
 7852000    1.4135792    -3.559889   -2.0267532   0.16283422    -3.559889    1.5331358   607232 
 7853000    1.4129896   -3.5597447   -2.0272837    0.1595042   -3.5597447     1.532461   607246 
 7854000    1.4137383   -3.5601254   -2.0268928   0.15953227   -3.5601254    1.5332326   607262 
 7855000    1.4143247   -3.5607979   -2.0269747   0.15978228   -3.5607979    1.5338232   607280 
 7856000    1.4131909   -3.5594947   -2.0269289   0.15999221   -3.5594947    1.5325657   607291 
 7857000    1.4134786   -3.5597444   -2.0268843   0.15908117   -3.5597444    1.5328601   607298 
 7858000    1.4131069   -3.5588191   -2.0263848   0.15789073   -3.5588191    1.5324343   607307 
 7859000    1.4131588   -3.5599195   -2.0274566   0.16245786   -3.5599195    1.5324629   607318 
 7860000    1.4129646   -3.5594842   -2.0272548   0.16475986   -3.5594842    1.5322295   607327 
 7861000    1.4131797   -3.5599899    -2.027565   0.16334341   -3.5599899    1.5324249   607342 
 7862000    1.4147067   -3.5605018   -2.0264766   0.16139154   -3.5605018    1.5340252   607364 
 7863000     1.413465   -3.5607881   -2.0281371   0.15719855   -3.5607881     1.532651   607375 
 7864000    1.4133095   -3.5610849   -2.0286277   0.15669687   -3.5610849    1.5324572   607385 
 7865000    1.4135105    -3.561933   -2.0292856   0.15881639    -3.561933    1.5326473   607396 
 7866000    1.4131087   -3.5612454   -2.0290565    0.1574535   -3.5612454     1.532189   607405 
 7867000    1.4132033   -3.5616186   -2.0293675    0.1630391   -3.5616186    1.5322512   607421 
 7868000     1.414347   -3.5632932   -2.0298373   0.15926821   -3.5632932    1.5334559   607435 
 7869000    1.4151285   -3.5614366   -2.0271283   0.16733439   -3.5614366    1.5343083   607433 
 7870000    1.4155407   -3.5621458   -2.0274134   0.15923942   -3.5621458    1.5347324   607442 
 7871000    1.4141653   -3.5600097    -2.026766    0.1624215   -3.5600097    1.5332437   607441 
 7872000    1.4144415   -3.5610311   -2.0275409   0.16108253   -3.5610311    1.5334902   607462 
 7873000     1.413795   -3.5613565   -2.0286102   0.16021001   -3.5613565    1.5327464   607479 
 7874000    1.4155713   -3.5626576   -2.0280107    0.1556228   -3.5626576    1.5346468   607489 
 7875000    1.4134091   -3.5598495   -2.0275694   0.16710185   -3.5598495    1.5322801   607498 
 7876000    1.4151457   -3.5622044   -2.0280542   0.15980972   -3.5622044    1.5341501   607503 
 7877000    1.4144803   -3.5616827   -2.0282841   0.15904889   -3.5616827    1.5333985   607515 
 7878000    1.4153135   -3.5620786   -2.0278072   0.15922462   -3.5620786    1.5342714   607527 
 7879000    1.4133194   -3.5603177   -2.0282559   0.16082016   -3.5603177    1.5320618   607546 
 7880000    1.4139316   -3.5611126   -2.0283948    0.1590421   -3.5611126    1.5327179   607549 
 7881000    1.4153772   -3.5618935   -2.0276515   0.15852155   -3.5618935     1.534242   607566 
 7882000    1.4142796   -3.5612342   -2.0282223    0.1622308   -3.5612342    1.5330119   607582 
 7883000    1.4148449   -3.5604932   -2.0269141   0.16262429   -3.5604932    1.5335791   607600 
 7884000    1.4159685   -3.5617761   -2.0269866   0.16342458   -3.5617761    1.5347895   607603 
 7885000    1.4169148    -3.562787   -2.0270021   0.15951498    -3.562787    1.5357849   607615 
 7886000     1.415247   -3.5613771   -2.0274303   0.15847033   -3.5613771    1.5339469   607627 
 7887000    1.4151373   -3.5608949   -2.0271023   0.15814535   -3.5608949    1.5337927   607641 
 7888000    1.4157615   -3.5616174   -2.0271685   0.16241308   -3.5616174    1.5344489   607649 
 7889000    1.4153868   -3.5617699   -2.0277195   0.16567972   -3.5617699    1.5340504   607646 
 7890000    1.4166209    -3.563293   -2.0279504   0.15959288    -3.563293    1.5353425   607664 
 7891000    1.4150422   -3.5631477   -2.0295415   0.16179509   -3.5631477    1.5336062   607674 
 7892000    1.4149653   -3.5632066   -2.0297292   0.15580626   -3.5632066    1.5334774   607692 
 7893000    1.4145703   -3.5628359   -2.0298219   0.15939494   -3.5628359     1.533014   607706 
 7894000    1.4155917   -3.5642376   -2.0301318   0.16436178   -3.5642376    1.5341059   607712 
 7895000     1.415139   -3.5616882   -2.0280932   0.16727287   -3.5616882     1.533595   607720 
 7896000    1.4167672   -3.5632114   -2.0278847    0.1572134   -3.5632114    1.5353267   607733 
 7897000    1.4159838   -3.5625687   -2.0280985   0.16334076   -3.5625687    1.5344702   607736 
 7898000    1.4157999   -3.5622705   -2.0280223   0.16166347   -3.5622705    1.5342482   607745 
 7899000    1.4158454    -3.562642   -2.0283799   0.16338658    -3.562642    1.5342622   607759 
 7900000    1.4147383   -3.5622155   -2.0291783   0.16310344   -3.5622155    1.5330372   607769 
 7901000    1.4150249   -3.5624649   -2.0291272    0.1673296   -3.5624649    1.5333377   607773 
 7902000    1.4152198   -3.5628714    -2.029373   0.16269823   -3.5628714    1.5334984   607793 
 7903000    1.4141419   -3.5624863   -2.0301938   0.15527359   -3.5624863    1.5322926   607808 
 7904000    1.4143249   -3.5625903   -2.0301448   0.16053078   -3.5625903    1.5324455   607826 
 7905000    1.4150266   -3.5624426   -2.0292848   0.16174193   -3.5624426    1.5331579   607845 
 7906000     1.414912   -3.5625371   -2.0295109   0.16634322   -3.5625371    1.5330262   607848 
 7907000    1.4155662   -3.5626533   -2.0289588   0.15993151   -3.5626533    1.5336946   607864 
 7908000    1.4152039    -3.562467   -2.0291977   0.16415709    -3.562467    1.5332693   607877 
 7909000    1.4167299    -3.564373   -2.0294681   0.15991125    -3.564373     1.534905   607884 
 7910000    1.4158223   -3.5627787   -2.0288621   0.16163732   -3.5627787    1.5339166   607886 
 7911000    1.4162706   -3.5633306   -2.0289637   0.16280548   -3.5633306    1.5343669   607900 
 7912000    1.4173705   -3.5651925   -2.0296794   0.15781114   -3.5651925    1.5355131   607918 
 7913000    1.4155302   -3.5626671   -2.0291982     0.165996   -3.5626671    1.5334689   607938 
 7914000    1.4160606   -3.5635249   -2.0295016   0.16624376   -3.5635249    1.5340234   607946 
 7915000    1.4153262   -3.5624798   -2.0292874   0.16460188   -3.5624798    1.5331924   607960 
 7916000    1.4146915   -3.5624135   -2.0299363   0.15735415   -3.5624135    1.5324772   607971 
 7917000    1.4138918    -3.562401   -2.0308179   0.16156034    -3.562401    1.5315832   607982 
 7918000    1.4154242   -3.5631293   -2.0299114   0.16226336   -3.5631293    1.5332179   607992 
 7919000    1.4154409   -3.5630717   -2.0298711   0.16222473   -3.5630717    1.5332007   608006 
 7920000    1.4163221   -3.5636645   -2.0295674   0.15902452   -3.5636645    1.5340972   608029 
 7921000    1.4160576   -3.5632121    -2.029419   0.16354389   -3.5632121    1.5337931   608036 
 7922000    1.4154626   -3.5640705   -2.0309219   0.16421697   -3.5640705    1.5331486   608036 
 7923000    1.4151699   -3.5637993   -2.0309955    0.1615436   -3.5637993    1.5328038   608047 
 7924000    1.4148175   -3.5635372   -2.0311328   0.15882588   -3.5635372    1.5324044   608054 
 7925000    1.4141204    -3.564271   -2.0326568   0.16155704    -3.564271    1.5316142   608068 
 7926000    1.4151411   -3.5659495   -2.0332424   0.15693087   -3.5659495     1.532707   608073 
 7927000    1.4158472    -3.565786   -2.0323571   0.15517653    -3.565786    1.5334289   608090 
 7928000    1.4144882   -3.5644422   -2.0325154   0.16523725   -3.5644422    1.5319269   608102 
 7929000    1.4149895   -3.5653509   -2.0329164   0.16323451   -3.5653509    1.5324345   608116 
 7930000    1.4154228   -3.5663842   -2.0335156   0.15329386   -3.5663842    1.5328685   608130 
 7931000    1.4133779   -3.5646871    -2.034056    0.1609775   -3.5646871    1.5306312   608139 
 7932000    1.4150735   -3.5660114   -2.0335691   0.15826179   -3.5660114    1.5324423   608149 
 7933000    1.4142864   -3.5656913   -2.0341366   0.16194095   -3.5656913    1.5315546   608163 
 7934000    1.4150685   -3.5663357   -2.0339618   0.15864664   -3.5663357    1.5323739   608174 
 7935000    1.4142076   -3.5655471   -2.0341533   0.16288221   -3.5655471    1.5313938   608193 
 7936000    1.4158875   -3.5679515   -2.0347588   0.15357497   -3.5679515    1.5331927   608201 
 7937000    1.4145708   -3.5669919   -2.0352426   0.15126961   -3.5669919    1.5317493   608208 
 7938000    1.4146032   -3.5666533   -2.0349067    0.1598568   -3.5666533    1.5317466   608223 
 7939000     1.415085   -3.5667811    -2.034538   0.15895896   -3.5667811    1.5322431   608233 
 7940000    1.4153672   -3.5665221   -2.0340012   0.15710636   -3.5665221    1.5325209   608244 
 7941000    1.4149837   -3.5673107   -2.0352276   0.15225359   -3.5673107     1.532083   608253 
 7942000    1.4137513   -3.5659013   -2.0351929   0.15999309   -3.5659013    1.5307084   608269 
 7943000    1.4138523   -3.5661988   -2.0353962    0.1562738   -3.5661988    1.5308026   608275 
 7944000    1.4147386   -3.5665977   -2.0348707    0.1551807   -3.5665977    1.5317271   608289 
 7945000    1.4147226   -3.5666868   -2.0350325   0.16117847   -3.5666868    1.5316543   608311 
 7946000    1.4162281   -3.5676204   -2.0343563    0.1627209   -3.5676204     1.533264   608319 
 7947000    1.4149171    -3.566478   -2.0346483   0.16113804    -3.566478    1.5318296   608325 
 7948000    1.4144938   -3.5660872    -2.034751   0.15879533   -3.5660872    1.5313361   608339 
 7949000    1.4158489   -3.5675633   -2.0348056   0.15426228   -3.5675633    1.5327578   608357 
 7950000     1.414786   -3.5661118   -2.0345449   0.16440219   -3.5661118    1.5315669   608373 
 7951000    1.4150585   -3.5671154   -2.0352838   0.16033814   -3.5671154    1.5318316   608385 
 7952000    1.4171186   -3.5698921   -2.0358934   0.16196253   -3.5698921    1.5339987   608410 
 7953000    1.4147309   -3.5674785   -2.0361224   0.16030776   -3.5674785    1.5313562   608433 
 7954000    1.4142914   -3.5663648   -2.0355296   0.16519566   -3.5663648    1.5308351   608451 
 7955000    1.4137515   -3.5670225   -2.0368321   0.15766403   -3.5670225    1.5301904   608475 
 7956000    1.4158031   -3.5682063   -2.0358306   0.15326016   -3.5682063    1.5323757   608489 
 7957000    1.4132892   -3.5661285   -2.0364812    0.1611278   -3.5661285    1.5296473   608492 
 7958000    1.4164523   -3.5695207   -2.0364852   0.15528508   -3.5695207    1.5330355   608506 
 7959000    1.4139658   -3.5676933   -2.0373968   0.15257061   -3.5676933    1.5302966   608525 
 7960000    1.4126628   -3.5670146   -2.0381433   0.15792717   -3.5670146    1.5288713   608531 
 7961000    1.4139872   -3.5679913   -2.0377269   0.16328239   -3.5679913    1.5302644   608547 
 7962000    1.4151411   -3.5682372   -2.0367416   0.16300731   -3.5682372    1.5314956   608554 
 7963000    1.4151197   -3.5688086   -2.0373563   0.15674298   -3.5688086    1.5314523   608562 
 7964000    1.4160005    -3.568765   -2.0364124   0.16069603    -3.568765    1.5323526   608583 
 7965000     1.415595   -3.5685609   -2.0366748   0.16075415   -3.5685609    1.5318862   608594 
 7966000    1.4145295   -3.5675202   -2.0368047   0.15487657   -3.5675202    1.5307155   608601 
 7967000     1.416251   -3.5694026   -2.0368443   0.15832142   -3.5694026    1.5325583   608609 
 7968000    1.4163923   -3.5696218   -2.0369636   0.16049902   -3.5696218    1.5326582   608630 
 7969000     1.415079   -3.5689438   -2.0377393   0.15683305   -3.5689438    1.5312045   608643 
 7970000    1.4142247   -3.5685415   -2.0382891   0.16382972   -3.5685415    1.5302524   608654 
 7971000    1.4135667   -3.5677399    -2.038187   0.16583974   -3.5677399     1.529553   608649 
 7972000    1.4152771   -3.5692968   -2.0379158   0.15873365   -3.5692968     1.531381   608658 
 7973000    1.4148699   -3.5692177   -2.0383124   0.16227166   -3.5692177    1.5309053   608672 
 7974000    1.4152245   -3.5682958   -2.0370296   0.15811759   -3.5682958    1.5312663   608681 
 7975000    1.4157813   -3.5699526   -2.0381241   0.15939914   -3.5699526    1.5318284   608697 
 7976000    1.4146251   -3.5677075     -2.03714    0.1677345   -3.5677075    1.5305675   608701 
 7977000    1.4152957   -3.5685188   -2.0372308   0.16617223   -3.5685188     1.531288   608703 
 7978000    1.4167779   -3.5702331   -2.0373817   0.15356087   -3.5702331    1.5328514   608719 
 7979000    1.4163852   -3.5689429   -2.0365492   0.16290796   -3.5689429    1.5323937   608732 
 7980000    1.4146799   -3.5670295   -2.0365058    0.1679606   -3.5670295    1.5305236   608742 
 7981000    1.4183897   -3.5702195   -2.0357075   0.15815777   -3.5702195     1.534512   608752 
 7982000    1.4163008   -3.5681335   -2.0359014   0.16589519   -3.5681335     1.532232   608760 
 7983000     1.416855   -3.5682861   -2.0355049   0.16541149   -3.5682861    1.5327811   608780 
 7984000    1.4182081   -3.5688185   -2.0346087   0.15791899   -3.5688185    1.5342097   608794 
 7985000    1.4165626   -3.5684981   -2.0360961   0.16094986   -3.5684981     1.532402   608805 
 7986000    1.4153648    -3.567477   -2.0363808   0.15873963    -3.567477    1.5310961   608809 
 7987000    1.4177576   -3.5710733   -2.0374391   0.15740484   -3.5710733    1.5336342   608829 
 7988000    1.4162971   -3.5696856   -2.0376563   0.16102412   -3.5696856    1.5320292   608839 
 7989000    1.4161613   -3.5705716   -2.0387019    0.1607698   -3.5705716    1.5318697   608844 
 7990000    1.4146063   -3.5682888   -2.0380912   0.15966846   -3.5682888    1.5301977   608840 
 7991000    1.4156234   -3.5696719   -2.0384142   0.16135159   -3.5696719    1.5312577   608856 
 7992000    1.4147342    -3.568505   -2.0382243   0.16165852    -3.568505    1.5302807   608862 
 7993000    1.4170989   -3.5707892   -2.0379884   0.15642353   -3.5707892    1.5328008   608877 
 7994000    1.4147418   -3.5687506   -2.0385194   0.16426355   -3.5687506    1.5302311   608885 
 7995000    1.4162223   -3.5700127   -2.0381902   0.16417801   -3.5700127    1.5318225   608889 
 7996000     1.415685   -3.5699376   -2.0387214   0.15679008   -3.5699376    1.5312162   608899 
 7997000    1.4155516   -3.5690488   -2.0379996   0.16019343   -3.5690488    1.5310492   608908 
 7998000    1.4148853   -3.5686078   -2.0383169   0.16313293   -3.5686078    1.5302909   608923 
 7999000    1.4154247   -3.5681108   -2.0372441   0.16673049   -3.5681108    1.5308667   608926 
 8000000    1.4142924   -3.5671269   -2.0375025   0.16443732   -3.5671269    1.5296245   608933 
Loop time of 10207.7 on 192 procs for 5000000 steps with 608933 atoms

Performance: 211604.041 tau/day, 489.824 timesteps/s
99.2% CPU use with 192 MPI tasks x 1 OpenMP threads

MPI task timing breakdown:
Section |  min time  |  avg time  |  max time  |%varavg|  %CPU | %total
-----------------------------------------------------------------------
Pair    | 3512.7     | 4250.6     | 4664.3     | 490.8 |  99.1 | 41.64
Bond    | 3.3254     | 3.4827     | 3.7504     |   3.6 | 100.0 |  0.03
Neigh   | 1808.6     | 2053.2     | 2170.7     | 202.9 |  99.5 | 20.11
Comm    | 1251.6     | 2192.3     | 3092.2     | 941.2 |  99.0 | 21.48
Output  | 282.56     | 283.77     | 283.79     |   0.5 |  98.3 |  2.78
Modify  | 1125.8     | 1221.4     | 1761       | 568.6 |  99.1 | 11.97
Other   |            | 203        |            |       |       |  1.99

Nlocal:        3171.53 ave        3265 max        3090 min
Histogram: 7 17 17 27 45 28 19 19 8 5
Nghost:        4223.54 ave        4586 max        3452 min
Histogram: 18 30 0 0 0 0 0 3 102 39
Neighs:        95535.8 ave      103701 max       84208 min
Histogram: 6 9 4 9 14 43 54 40 9 4

Total # of neighbors = 18342873
Ave neighs/atom = 30.122974
Ave special neighs/atom = 0.0000000
Neighbor list builds = 505000
Dangerous builds = 450000

write_restart   restart_write.dat
System init for write_restart ...
write_data	data.write
System init for write_data ...
WARNING: Not all mixed pair coeffs generated from mixing. Use write_data with 'pair ij' option to store all pair coeffs. (src/write_data.cpp:312)

Total wall time: 2:50:11
