LAMMPS (24 Dec 2020)
OMP_NUM_THREADS environment is not set. Defaulting to 1 thread. (src/comm.cpp:94)
  using 1 OpenMP thread(s) per MPI task
# Simple rigid body system
# needed variables:

#variable	startTemp equal 0.5
#variable 	temp 	  equal 0.8

units		lj
atom_style	full
dimension 	3
boundary	p p f
pair_style	lj/smooth/linear 2.5

variable 	sigma		equal 1.0
variable 	epsilon 	equal 1.0

region		box block 0 80 0 80 0 160
create_box 	3 box
Created orthogonal box = (0.0000000 0.0000000 0.0000000) to (80.000000 80.000000 160.00000)
  6 by 4 by 8 MPI processor grid



lattice 	sc 0.66
Lattice spacing in x,y,z = 1.1485556 1.1485556 1.1485556
region		fluid block EDGE EDGE EDGE EDGE 2 100 units box
create_atoms 	1 region fluid
Created 421400 atoms
  create_atoms CPU = 0.152 seconds

lattice 	sc 0.045
Lattice spacing in x,y,z = 2.8114422 2.8114422 2.8114422
region		gas block EDGE EDGE EDGE EDGE 101 158 units box
create_atoms    1 region gas
Created 17661 atoms
  create_atoms CPU = 0.005 seconds

group		solvent type 1
439061 atoms in group solvent

mass		1 1.0
mass		2 1.0
mass		3 1.0



neighbor 	0.4 bin

pair_coeff	1 1 1.0 1.0
pair_coeff	2 2 0.0 0.0
pair_coeff	3 3 0.0 0.0
pair_coeff	2 3 0.0 0.0
pair_coeff	1 2*3 0.0 0.0

pair_modify 	shift yes

delete_atoms	overlap 0.5 solvent solvent
System init for delete_atoms ...
Neighbor list info ...
  update every 1 steps, delay 10 steps, check yes
  max neighbors/atom: 2000, page size: 100000
  master list distance cutoff = 2.9
  ghost atom cutoff = 2.9
  binsize = 1.45, bins = 56 56 111
  2 neighbor lists, perpetual/occasional/extra = 1 1 0
  (1) command delete_atoms, occasional
      attributes: full, newton on
      pair build: full/bin
      stencil: full/bin/3d
      bin: standard
  (2) pair lj/smooth/linear, perpetual
      attributes: half, newton on
      pair build: half/bin/newton
      stencil: half/bin/3d/newton
      bin: standard
WARNING: Ignoring 'compress yes' for molecular system (src/delete_atoms.cpp:125)
Deleted 0 atoms, new total = 439061

velocity 	solvent create ${startTemp} 563435 loop geom
velocity 	solvent create .9 563435 loop geom

balance 	1.05 shift z 10 1.05
Balancing ...
Neighbor list info ...
  update every 1 steps, delay 10 steps, check yes
  max neighbors/atom: 2000, page size: 100000
  master list distance cutoff = 2.9
  ghost atom cutoff = 2.9
  binsize = 1.45, bins = 56 56 111
  1 neighbor lists, perpetual/occasional/extra = 1 0 0
  (1) pair lj/smooth/linear, perpetual
      attributes: half, newton on
      pair build: half/bin/newton
      stencil: half/bin/3d/newton
      bin: standard
 rebalancing time: 0.006 seconds
  iteration count = 5
  initial/final maximal load/proc = 3888.0000 2808.0000
  initial/final imbalance factor  = 1.7002102 1.2279296
  x cuts: 0.0000000 0.16666667 0.33333333 0.50000000 0.66666667 0.83333333 1.0000000
  y cuts: 0.0000000 0.25000000 0.50000000 0.75000000 1.0000000
  z cuts: 0.0000000 0.089843750 0.17578125 0.25390625 0.33593750 0.41406250 0.50390625 0.58203125 1.0000000


####################### WALLS ###########################


variable       epsilonWall equal 2*${epsilon}
variable       epsilonWall equal 2*1

variable       cutoffTop   equal   0.7147*${sigma}
variable       cutoffTop   equal   0.7147*1

variable       cutoffLow   equal   3*${sigma}
variable       cutoffLow   equal   3*1


fix            topWall all wall/lj93 zhi EDGE                ${epsilonWall} ${sigma} ${cutoffTop} units box
fix            topWall all wall/lj93 zhi EDGE                2 ${sigma} ${cutoffTop} units box
fix            topWall all wall/lj93 zhi EDGE                2 1 ${cutoffTop} units box
fix            topWall all wall/lj93 zhi EDGE                2 1 0.7147 units box

fix            lowWall all wall/lj93 zlo EDGE                ${epsilonWall} ${sigma} ${cutoffLow} units box
fix            lowWall all wall/lj93 zlo EDGE                2 ${sigma} ${cutoffLow} units box
fix            lowWall all wall/lj93 zlo EDGE                2 1 ${cutoffLow} units box
fix            lowWall all wall/lj93 zlo EDGE                2 1 3 units box


###################### COMPUTES ##########################

compute        bin1 solvent chunk/atom bin/1d z upper 1.0


######################	FIXES ############################


fix 		peclet solvent ave/chunk 1000 1 1000 bin1 density/number norm 		 none ave one file density.profile

fix 		 temp solvent ave/chunk 1000 1 1000 bin1 temp norm 		 none ave one file temp.profile

fix 		2 solvent nve


## Thermostat


region		regthermo block EDGE EDGE EDGE EDGE 0 20 units box

group 		thermo dynamic solvent region regthermo every 1000
dynamic group thermo defined

fix 		3 thermo langevin ${startTemp} ${temp} 10 156453
fix 		3 thermo langevin .9 ${temp} 10 156453
fix 		3 thermo langevin .9 .9 10 156453



#### Load balancing


fix 		bal all balance 1000 1.05 shift z 10 1.05


############### Diagnostics and computes ###################
#compute 	com cube	  rigid/local	1 mol x y z
#compute 	quat cube	  rigid/local	1 mol quatw quati quatj quatk

thermo 		1000
thermo_style 	custom step temp epair evdwl etotal press pe ke atoms

dump		1 all custom 100000 dump.lammpstrj id mol type x y z
dump 		2 all image 10000 image.*.png type type
dump 		3 all movie 1000 movie.avi type type

#dump 		com cube local 1000 dump.*.xyz c_com[*]
#dump		quat cube      local 1000 dump.*.quat c_quat[*]


restart 	1000000 restart.dat
timestep 	0.005
timer 		full
New timer settings: style=full  mode=nosync  timeout=off

run		3000000
Per MPI rank memory allocation (min/avg/max) = 9.982 | 10.06 | 10.45 Mbytes
Step Temp E_pair E_vdwl TotEng Press PotEng KinEng Atoms 
       0          0.9  -0.77633128  -0.77633128   0.57366565    4.1734644  -0.77633128    1.3499969   439061 
    1000    1.9239228   -2.7932801   -2.7932801  0.092597574    2.1223787   -2.7932801    2.8858776   439061 
    2000    1.8060277   -2.8005404   -2.8005404  -0.09150501     1.261558   -2.8005404    2.7090354   439061 
    3000     1.633224   -2.6973653   -2.6973653  -0.24753482    0.9306585   -2.6973653    2.4498305   439061 
    4000    1.5442072   -2.6695391   -2.6695391  -0.35323365   0.72686547   -2.6695391    2.3163055   439061 
    5000    1.4920484   -2.6337689   -2.6337689  -0.39570143    0.5841552   -2.6337689    2.2380675   439061 
    6000    1.4592737   -2.5893568   -2.5893568  -0.40045113   0.48983958   -2.5893568    2.1889056   439061 
    7000     1.434006   -2.5403812   -2.5403812  -0.38937718   0.47957936   -2.5403812    2.1510041   439061 
    8000    1.4211995   -2.5038544   -2.5038544  -0.37205996   0.50874393   -2.5038544    2.1317944   439061 
    9000    1.4229288   -2.4902402   -2.4902402  -0.35585193   0.54330587   -2.4902402    2.1343883   439061 
   10000     1.432219   -2.4876978   -2.4876978   -0.3393742    0.5982978   -2.4876978    2.1483236   439061 
   11000    1.4412039   -2.4893239   -2.4893239  -0.32752289   0.62531826   -2.4893239     2.161801   439061 
   12000    1.4454659   -2.4845475   -2.4845475   -0.3163537   0.63206733   -2.4845475    2.1681939   439061 
   13000    1.4370481   -2.4635259   -2.4635259  -0.30795861   0.60919934   -2.4635259    2.1555672   439061 
   14000    1.4179088   -2.4270988   -2.4270988  -0.30024042   0.54951318   -2.4270988    2.1268584   439061 
   15000    1.3984586   -2.3921005   -2.3921005  -0.29441729   0.50294501   -2.3921005    2.0976832   439061 
   16000    1.3824111   -2.3620691   -2.3620691  -0.28845716   0.47846295   -2.3620691     2.073612   439061 
   17000    1.3819528   -2.3566295   -2.3566295  -0.28370504   0.48374392   -2.3566295    2.0729244   439061 
   18000     1.378001   -2.3656035   -2.3656035   -0.2986068   0.50843886   -2.3656035    2.0669967   439061 
   19000    1.3632578   -2.3857777   -2.3857777  -0.34089568    0.5417427   -2.3857777     2.044882   439061 
   20000    1.3396011   -2.4116987   -2.4116987  -0.40230164   0.54990911   -2.4116987     2.009397   439061 
   21000    1.3171884   -2.4313181   -2.4313181  -0.45553996   0.54704428   -2.4313181    1.9757781   439061 
   22000    1.3029391   -2.4513236   -2.4513236  -0.49691938    0.5410107   -2.4513236    1.9544042   439061 
   23000    1.2924153   -2.4687971   -2.4687971  -0.53017856   0.54894981   -2.4687971    1.9386186   439061 
   24000    1.2851845   -2.4853537   -2.4853537  -0.55758125   0.53859823   -2.4853537    1.9277724   439061 
   25000    1.2768124   -2.4953172   -2.4953172  -0.58010301   0.53573833   -2.4953172    1.9152142   439061 
   26000     1.267493   -2.4977236   -2.4977236  -0.59648845   0.51422678   -2.4977236    1.9012351   439061 
   27000    1.2542874   -2.4926022   -2.4926022  -0.61117541   0.49400926   -2.4926022    1.8814268   439061 
   28000    1.2423574   -2.4842507   -2.4842507  -0.62071887   0.46707392   -2.4842507    1.8635318   439061 
   29000    1.2320328   -2.4738438   -2.4738438   -0.6257988   0.43944188   -2.4738438     1.848045   439061 
   30000    1.2187502   -2.4580289   -2.4580289  -0.62990784   0.41342329   -2.4580289    1.8281211   439061 
   31000    1.2059386   -2.4403731   -2.4403731  -0.63146926   0.38710117   -2.4403731    1.8089038   439061 
   32000    1.1928364   -2.4224049   -2.4224049  -0.63315437   0.36736721   -2.4224049    1.7892506   439061 
   33000    1.1854526   -2.4103213   -2.4103213  -0.63214645   0.34855794   -2.4103213    1.7781748   439061 
   34000    1.1801551   -2.3996396   -2.3996396  -0.62941095   0.34498913   -2.3996396    1.7702286   439061 
   35000    1.1777199   -2.3941146   -2.3941146  -0.62753884   0.32642364   -2.3941146    1.7665758   439061 
   36000    1.1760286   -2.3880546   -2.3880546  -0.62401573   0.32764064   -2.3880546    1.7640389   439061 
   37000     1.176617   -2.3834169   -2.3834169  -0.61849548   0.32975183   -2.3834169    1.7649214   439061 
   38000    1.1780298   -2.3807582   -2.3807582  -0.61371753   0.33242038   -2.3807582    1.7670407   439061 
   39000    1.1782325   -2.3765838   -2.3765838  -0.60923912   0.33129733   -2.3765838    1.7673447   439061 
   40000    1.1786649   -2.3726913   -2.3726913  -0.60469796   0.33513646   -2.3726913    1.7679933   439061 
   41000     1.178021   -2.3671566   -2.3671566  -0.60012914   0.33106275   -2.3671566    1.7670275   439061 
   42000    1.1769726   -2.3603475   -2.3603475  -0.59489257   0.32089679   -2.3603475    1.7654549   439061 
   43000    1.1741168   -2.3526828   -2.3526828  -0.59151159   0.31814851   -2.3526828    1.7611712   439061 
   44000    1.1741481   -2.3485668   -2.3485668  -0.58734867   0.31115799   -2.3485668    1.7612181   439061 
   45000    1.1729825   -2.3441035   -2.3441035  -0.58463364   0.30810013   -2.3441035    1.7594698   439061 
   46000    1.1774549   -2.3487855   -2.3487855  -0.58260715   0.31822596   -2.3487855    1.7661784   439061 
   47000     1.176917   -2.3549129   -2.3549129  -0.58954148   0.33588641   -2.3549129    1.7653715   439061 
   48000    1.1760381   -2.3670518   -2.3670518  -0.60299861   0.34575629   -2.3670518    1.7640531   439061 
   49000    1.1718759   -2.3795587   -2.3795587  -0.62174888   0.35644632   -2.3795587    1.7578098   439061 
   50000    1.1667853   -2.3912025   -2.3912025  -0.64102856   0.35234519   -2.3912025     1.750174   439061 
   51000    1.1636195   -2.3988096   -2.3988096  -0.65338442   0.35666137   -2.3988096    1.7454252   439061 
   52000    1.1615144   -2.4086134   -2.4086134  -0.66634579   0.35161869   -2.4086134    1.7422676   439061 
   53000    1.1578749   -2.4126048   -2.4126048  -0.67579641   0.35307832   -2.4126048    1.7368084   439061 
   54000    1.1560553   -2.4179854   -2.4179854  -0.68390628   0.35103734   -2.4179854    1.7340791   439061 
   55000    1.1540183   -2.4239322   -2.4239322  -0.69290872   0.34568962   -2.4239322    1.7310235   439061 
   56000    1.1517305    -2.426088    -2.426088  -0.69849615    0.3455609    -2.426088    1.7275918   439061 
   57000    1.1469633   -2.4256711   -2.4256711  -0.70523004   0.34462191   -2.4256711    1.7204411   439061 
   58000    1.1437232   -2.4261192   -2.4261192  -0.71053828   0.33235755   -2.4261192     1.715581   439061 
   59000    1.1379341   -2.4202364   -2.4202364  -0.71333918   0.32522804   -2.4202364    1.7068972   439061 
   60000    1.1330412   -2.4151908   -2.4151908   -0.7156329   0.31715466   -2.4151908    1.6995579   439061 
   61000    1.1267219   -2.4083485   -2.4083485  -0.71826956   0.30771794   -2.4083485    1.6900789   439061 
   62000     1.123391   -2.4041133   -2.4041133  -0.71903061   0.29759721   -2.4041133    1.6850827   439061 
   63000    1.1182955   -2.3964621   -2.3964621  -0.71902265   0.28800793   -2.3964621    1.6774395   439061 
   64000    1.1161729   -2.3914886   -2.3914886  -0.71723314   0.28725063   -2.3914886    1.6742555   439061 
   65000    1.1149883   -2.3892243   -2.3892243  -0.71674574   0.27826785   -2.3892243    1.6724786   439061 
   66000    1.1125024   -2.3849031   -2.3849031  -0.71615331   0.26877807   -2.3849031    1.6687498   439061 
   67000    1.1129009   -2.3835544   -2.3835544  -0.71420689   0.27272063   -2.3835544    1.6693475   439061 
   68000    1.1113411   -2.3795434   -2.3795434  -0.71253559   0.26759018   -2.3795434    1.6670078   439061 
   69000     1.110505   -2.3756512   -2.3756512  -0.70989752   0.26948553   -2.3756512    1.6657537   439061 
   70000    1.1111831   -2.3731899   -2.3731899  -0.70641906   0.26208817   -2.3731899    1.6667709   439061 
   71000    1.1119582   -2.3714187   -2.3714187  -0.70348523   0.26077682   -2.3714187    1.6679334   439061 
   72000    1.1114189   -2.3678091   -2.3678091  -0.70068456   0.25964459   -2.3678091    1.6671245   439061 
   73000    1.1102681    -2.363837    -2.363837  -0.69843863   0.26133428    -2.363837    1.6653984   439061 
   74000    1.1117183   -2.3639318   -2.3639318  -0.69635808   0.26298887   -2.3639318    1.6675737   439061 
   75000    1.1112888   -2.3622469   -2.3622469  -0.69531753   0.26341398   -2.3622469    1.6669294   439061 
   76000    1.1142331   -2.3660221   -2.3660221  -0.69467621   0.26110161   -2.3660221    1.6713459   439061 
   77000    1.1143704    -2.366979    -2.366979  -0.69542719   0.26985258    -2.366979    1.6715518   439061 
   78000    1.1151596   -2.3720751   -2.3720751  -0.69933947   0.27619841   -2.3720751    1.6727356   439061 
   79000     1.116211   -2.3784005   -2.3784005   -0.7040878   0.27937932   -2.3784005    1.6743127   439061 
   80000    1.1150342   -2.3857177   -2.3857177  -0.71317009   0.28700025   -2.3857177    1.6725476   439061 
   81000    1.1143964   -2.3930768   -2.3930768  -0.72148602   0.29476198   -2.3930768    1.6715907   439061 
   82000    1.1122313    -2.399442    -2.399442  -0.73109889   0.29222047    -2.399442    1.6683431   439061 
   83000    1.1107105    -2.403043    -2.403043  -0.73698104   0.29113242    -2.403043    1.6660619   439061 
   84000    1.1098547   -2.4086432   -2.4086432  -0.74386484   0.28862256   -2.4086432    1.6647783   439061 
   85000    1.1072091   -2.4108673   -2.4108673  -0.75005743   0.28833801   -2.4108673    1.6608098   439061 
   86000    1.1058078   -2.4141427   -2.4141427  -0.75543475   0.28376924   -2.4141427    1.6587079   439061 
   87000    1.1041812   -2.4161253   -2.4161253  -0.75985726   0.28593867   -2.4161253    1.6562681   439061 
   88000    1.1037257   -2.4197577   -2.4197577  -0.76417297   0.28260694   -2.4197577    1.6555848   439061 
   89000    1.1012432   -2.4174565   -2.4174565  -0.76559543   0.28139473   -2.4174565    1.6518611   439061 
   90000    1.0990454   -2.4170911   -2.4170911  -0.76852676    0.2795778   -2.4170911    1.6485643   439061 
   91000    1.0971162    -2.417117    -2.417117  -0.77144654   0.27350383    -2.417117    1.6456705   439061 
   92000    1.0930362   -2.4116163   -2.4116163  -0.77206572   0.27005149   -2.4116163    1.6395506   439061 
   93000    1.0920181   -2.4118977   -2.4118977   -0.7738743     0.264992   -2.4118977    1.6380234   439061 
   94000    1.0880079    -2.405526    -2.405526  -0.77351782   0.26415559    -2.405526    1.6320081   439061 
   95000    1.0868063   -2.4045303   -2.4045303  -0.77432453    0.2562731   -2.4045303    1.6302058   439061 
   96000    1.0865075   -2.4020349   -2.4020349  -0.77227749   0.25532381   -2.4020349    1.6297575   439061 
   97000    1.0844717   -2.3992603   -2.3992603  -0.77255645   0.25461864   -2.3992603    1.6267039   439061 
   98000    1.0840777   -2.3963752   -2.3963752  -0.77026236   0.24247366   -2.3963752    1.6261128   439061 
   99000    1.0826532   -2.3936327   -2.3936327  -0.76965656   0.24667162   -2.3936327    1.6239761   439061 
  100000    1.0816734   -2.3930301   -2.3930301  -0.77052377   0.23913021   -2.3930301    1.6225063   439061 
  101000     1.078576     -2.38786     -2.38786  -0.76999971   0.23812407     -2.38786    1.6178602   439061 
  102000    1.0802821   -2.3892412   -2.3892412  -0.76882176    0.2379527   -2.3892412    1.6204195   439061 
  103000    1.0819365   -2.3892557   -2.3892557  -0.76635474   0.23152467   -2.3892557     1.622901   439061 
  104000    1.0792858   -2.3845119   -2.3845119  -0.76558694   0.24048596   -2.3845119     1.618925   439061 
  105000    1.0813736   -2.3862773   -2.3862773  -0.76422056   0.23759705   -2.3862773    1.6220568   439061 
  106000    1.0815874   -2.3865327   -2.3865327  -0.76415535   0.23065363   -2.3865327    1.6223773   439061 
  107000    1.0817452    -2.386562    -2.386562   -0.7639478   0.24187828    -2.386562    1.6226141   439061 
  108000    1.0832339   -2.3903727   -2.3903727  -0.76552557   0.24039599   -2.3903727    1.6248471   439061 
  109000    1.0830882   -2.3911547   -2.3911547  -0.76652604   0.24550338   -2.3911547    1.6246287   439061 
  110000    1.0826519   -2.3932011   -2.3932011  -0.76922703   0.24779368   -2.3932011    1.6239741   439061 
  111000    1.0826988   -2.3954746   -2.3954746  -0.77143006   0.25445588   -2.3954746    1.6240445   439061 
  112000    1.0841735   -2.4016955   -2.4016955   -0.7754389   0.25453766   -2.4016955    1.6262566   439061 
  113000    1.0838047   -2.4048007   -2.4048007   -0.7790974   0.25285656   -2.4048007    1.6257033   439061 
  114000    1.0837506   -2.4080962   -2.4080962  -0.78247396   0.25476542   -2.4080962    1.6256222   439061 
  115000    1.0821078    -2.409731    -2.409731  -0.78657303   0.25875874    -2.409731    1.6231579   439061 
  116000    1.0798423   -2.4117002   -2.4117002  -0.79194048   0.25985478   -2.4117002    1.6197598   439061 
  117000     1.080166   -2.4150839   -2.4150839  -0.79483849   0.26109969   -2.4150839    1.6202454   439061 
  118000    1.0804885   -2.4187461   -2.4187461  -0.79801699   0.25969997   -2.4187461    1.6207291   439061 
  119000    1.0801076   -2.4204365   -2.4204365  -0.80027876   0.25562473   -2.4204365    1.6201578   439061 
  120000    1.0772532   -2.4197634   -2.4197634  -0.80388728   0.25379573   -2.4197634    1.6158761   439061 
  121000    1.0760406   -2.4195678   -2.4195678  -0.80551062   0.25398265   -2.4195678    1.6140572   439061 
  122000    1.0748097   -2.4211025   -2.4211025  -0.80889156   0.25144525   -2.4211025    1.6122109   439061 
  123000    1.0713874   -2.4175081   -2.4175081  -0.81043059   0.25095077   -2.4175081    1.6070775   439061 
  124000     1.072155   -2.4190082   -2.4190082   -0.8107794   0.24456507   -2.4190082    1.6082288   439061 
  125000    1.0707896   -2.4176922   -2.4176922  -0.81151152   0.24287023   -2.4176922    1.6061807   439061 
  126000    1.0691056   -2.4155944   -2.4155944  -0.81193974   0.24113502   -2.4155944    1.6036547   439061 
  127000    1.0686902   -2.4143199   -2.4143199  -0.81128822   0.23410729   -2.4143199    1.6030317   439061 
  128000    1.0678256   -2.4135979   -2.4135979  -0.81186322   0.23467251   -2.4135979    1.6017347   439061 
  129000    1.0666815   -2.4122299   -2.4122299  -0.81221136   0.23518977   -2.4122299    1.6000185   439061 
  130000    1.0645913   -2.4089041   -2.4089041  -0.81202074   0.23272849   -2.4089041    1.5968833   439061 
  131000    1.0635186   -2.4062434   -2.4062434  -0.81096909    0.2323083   -2.4062434    1.5952743   439061 
  132000    1.0645426   -2.4073909   -2.4073909  -0.81058063   0.22633363   -2.4073909    1.5968102   439061 
  133000     1.063298   -2.4031861   -2.4031861  -0.80824273   0.22469219   -2.4031861    1.5949434   439061 
  134000    1.0644001   -2.4043025   -2.4043025  -0.80770593    0.2264327   -2.4043025    1.5965966   439061 
  135000    1.0634065   -2.4039007   -2.4039007  -0.80879455   0.22812507   -2.4039007    1.5951062   439061 
  136000    1.0622901   -2.4008883   -2.4008883  -0.80745685   0.22465803   -2.4008883    1.5934315   439061 
  137000    1.0628496   -2.4015152   -2.4015152   -0.8072444   0.22825466   -2.4015152    1.5942708   439061 
  138000    1.0651706   -2.4045054   -2.4045054  -0.80675307   0.22131664   -2.4045054    1.5977523   439061 
  139000    1.0648788   -2.4039901   -2.4039901  -0.80667547   0.23014037   -2.4039901    1.5973146   439061 
  140000    1.0647776   -2.4040412   -2.4040412  -0.80687845    0.2287377   -2.4040412    1.5971627   439061 
  141000    1.0664762   -2.4076088   -2.4076088  -0.80789814   0.22677962   -2.4076088    1.5997107   439061 
  142000    1.0652766   -2.4080811   -2.4080811  -0.81016981   0.23429997   -2.4080811    1.5979113   439061 
  143000    1.0660992   -2.4124957   -2.4124957  -0.81335051   0.23369892   -2.4124957    1.5991452   439061 
  144000    1.0658842   -2.4124916   -2.4124916  -0.81366899   0.23500915   -2.4124916    1.5988226   439061 
  145000    1.0660444   -2.4141304   -2.4141304  -0.81506743   0.23856021   -2.4141304     1.599063   439061 
  146000    1.0646255   -2.4154826   -2.4154826  -0.81854807    0.2380505   -2.4154826    1.5969346   439061 
  147000    1.0659416   -2.4196275   -2.4196275  -0.82071863   0.23568819   -2.4196275    1.5989088   439061 
  148000    1.0648152   -2.4201355   -2.4201355  -0.82291634   0.23647676   -2.4201355    1.5972192   439061 
  149000    1.0652197   -2.4224906   -2.4224906  -0.82466468   0.23208124   -2.4224906     1.597826   439061 
  150000    1.0642099   -2.4235498   -2.4235498  -0.82723859   0.23477514   -2.4235498    1.5963112   439061 
  151000    1.0649355    -2.425957    -2.425957  -0.82855742   0.23744758    -2.425957    1.5973995   439061 
  152000    1.0618415   -2.4239667   -2.4239667   -0.8312081   0.23571282   -2.4239667    1.5927586   439061 
  153000    1.0620252   -2.4249554   -2.4249554  -0.83192122   0.23839362   -2.4249554    1.5930342   439061 
  154000    1.0610656   -2.4258886   -2.4258886   -0.8342938   0.22977576   -2.4258886    1.5915948   439061 
  155000    1.0598542   -2.4264439   -2.4264439  -0.83666621   0.23120642   -2.4264439    1.5897777   439061 
  156000    1.0598846   -2.4274335   -2.4274335  -0.83761028   0.22871965   -2.4274335    1.5898232   439061 
  157000    1.0574381   -2.4263578   -2.4263578  -0.84020418   0.22554226   -2.4263578    1.5861536   439061 
  158000    1.0558405    -2.423913    -2.423913  -0.84015582    0.2273967    -2.423913    1.5837571   439061 
  159000    1.0543777   -2.4228115   -2.4228115  -0.84124852   0.22430337   -2.4228115     1.581563   439061 
  160000    1.0543529   -2.4232595   -2.4232595  -0.84173377   0.21726471   -2.4232595    1.5815258   439061 
  161000    1.0545744    -2.423077    -2.423077  -0.84121899   0.22034769    -2.423077     1.581858   439061 
  162000    1.0538322   -2.4212536   -2.4212536  -0.84050893   0.21523546   -2.4212536    1.5807447   439061 
  163000    1.0534277   -2.4205933   -2.4205933  -0.84045535   0.22195924   -2.4205933     1.580138   439061 
  164000    1.0523637   -2.4190624   -2.4190624  -0.84052042   0.21904943   -2.4190624    1.5785419   439061 
  165000    1.0526089   -2.4213051   -2.4213051  -0.84239528   0.21525712   -2.4213051    1.5789098   439061 
  166000    1.0509831   -2.4204734   -2.4204734  -0.84400226   0.21251512   -2.4204734    1.5764711   439061 
  167000    1.0524639   -2.4215926   -2.4215926  -0.84290035   0.21514451   -2.4215926    1.5786922   439061 
  168000    1.0520257   -2.4195638   -2.4195638  -0.84152886   0.21266219   -2.4195638    1.5780349   439061 
  169000    1.0498357   -2.4182974   -2.4182974  -0.84354745   0.22149547   -2.4182974      1.57475   439061 
  170000    1.0501733   -2.4201236   -2.4201236  -0.84486717   0.21455064   -2.4201236    1.5752564   439061 
  171000    1.0504074   -2.4191421   -2.4191421  -0.84353463   0.21317678   -2.4191421    1.5756075   439061 
  172000    1.0522013   -2.4224025   -2.4224025  -0.84410411   0.21696957   -2.4224025    1.5782984   439061 
  173000    1.0506507   -2.4208743   -2.4208743  -0.84490189   0.22061374   -2.4208743    1.5759724   439061 
  174000    1.0501516   -2.4223334   -2.4223334  -0.84710963    0.2159689   -2.4223334    1.5752237   439061 
  175000    1.0521259   -2.4269274   -2.4269274  -0.84874223   0.21401386   -2.4269274    1.5781852   439061 
  176000    1.0504516   -2.4251852   -2.4251852  -0.84951129   0.22061204   -2.4251852    1.5756739   439061 
  177000    1.0512362   -2.4281574   -2.4281574  -0.85130671   0.22032322   -2.4281574    1.5768507   439061 
  178000    1.0508411   -2.4293704   -2.4293704   -0.8531123   0.22007467   -2.4293704    1.5762581   439061 
  179000     1.050462   -2.4321577   -2.4321577  -0.85646834   0.21376428   -2.4321577    1.5756893   439061 
  180000    1.0488265   -2.4315461   -2.4315461     -0.85831    0.2223793   -2.4315461    1.5732361   439061 
  181000    1.0489499   -2.4341138   -2.4341138  -0.86069263   0.21837439   -2.4341138    1.5734212   439061 
  182000    1.0471142   -2.4335872   -2.4335872  -0.86291948   0.22007947   -2.4335872    1.5706677   439061 
  183000     1.047227   -2.4359512   -2.4359512  -0.86511424    0.2201876   -2.4359512    1.5708369   439061 
  184000    1.0478721   -2.4372328   -2.4372328  -0.86542833   0.22461841   -2.4372328    1.5718045   439061 
  185000    1.0467435   -2.4369683   -2.4369683  -0.86685669   0.22195075   -2.4369683    1.5701116   439061 
  186000    1.0464326   -2.4380551   -2.4380551  -0.86840978    0.2177762   -2.4380551    1.5696453   439061 
  187000    1.0466277   -2.4383152   -2.4383152  -0.86837716   0.21488867   -2.4383152     1.569938   439061 
  188000    1.0446546   -2.4355605   -2.4355605  -0.86858216   0.22045389   -2.4355605    1.5669784   439061 
  189000    1.0460677   -2.4387406   -2.4387406  -0.86964262    0.2131848   -2.4387406    1.5690979   439061 
  190000    1.0431845   -2.4360886   -2.4360886  -0.87131539   0.21638976   -2.4360886    1.5647732   439061 
  191000    1.0432975   -2.4349348   -2.4349348  -0.86999212   0.21555542   -2.4349348    1.5649426   439061 
  192000    1.0419035   -2.4347439   -2.4347439  -0.87189213   0.21339797   -2.4347439    1.5628518   439061 
  193000    1.0437709   -2.4368897   -2.4368897  -0.87123684   0.21101775   -2.4368897    1.5656529   439061 
  194000    1.0433434    -2.437751    -2.437751  -0.87273948    0.2077217    -2.437751    1.5650115   439061 
  195000    1.0414296   -2.4342235   -2.4342235  -0.87208267   0.21158951   -2.4342235    1.5621408   439061 
  196000    1.0433036   -2.4362504   -2.4362504  -0.87129849    0.2097508   -2.4362504    1.5649519   439061 
  197000    1.0420187   -2.4355205   -2.4355205  -0.87249606   0.20945995   -2.4355205    1.5630245   439061 
  198000    1.0417087   -2.4360947   -2.4360947  -0.87353516   0.20636742   -2.4360947    1.5625595   439061 
  199000     1.040679    -2.435925    -2.435925  -0.87491005   0.20582864    -2.435925    1.5610149   439061 
  200000    1.0400593   -2.4349169   -2.4349169  -0.87483156   0.20952968   -2.4349169    1.5600854   439061 
  201000    1.0391054   -2.4334567   -2.4334567  -0.87480216    0.2073684   -2.4334567    1.5586546   439061 
  202000    1.0399227   -2.4350227   -2.4350227  -0.87514227   0.20644238   -2.4350227    1.5598804   439061 
  203000    1.0397054   -2.4355992   -2.4355992  -0.87604461   0.20923816   -2.4355992    1.5595546   439061 
  204000    1.0419498   -2.4396009   -2.4396009  -0.87667972   0.20246788   -2.4396009    1.5629212   439061 
  205000    1.0374561    -2.434357    -2.434357  -0.87817641   0.20263238    -2.434357    1.5561806   439061 
  206000     1.038994   -2.4373763   -2.4373763  -0.87888877   0.20670509   -2.4373763    1.5584875   439061 
  207000    1.0383617   -2.4372221   -2.4372221  -0.87968299   0.20685425   -2.4372221    1.5575391   439061 
  208000    1.0379514   -2.4371674   -2.4371674  -0.88024394   0.20981794   -2.4371674    1.5569235   439061 
  209000    1.0379737   -2.4383186   -2.4383186  -0.88136163   0.21034756   -2.4383186    1.5569569   439061 
  210000    1.0393561   -2.4399319   -2.4399319  -0.88090135   0.20604326   -2.4399319    1.5590306   439061 
  211000    1.0383018    -2.439228    -2.439228  -0.88177883   0.20672654    -2.439228    1.5574492   439061 
  212000    1.0401013   -2.4430755   -2.4430755  -0.88292719   0.20535503   -2.4430755    1.5601483   439061 
  213000    1.0387373   -2.4419519   -2.4419519  -0.88384947   0.20969086   -2.4419519    1.5581025   439061 
  214000    1.0385742   -2.4431877   -2.4431877  -0.88533001   0.20372743   -2.4431877    1.5578577   439061 
  215000    1.0393199   -2.4449311   -2.4449311   -0.8859548   0.20426166   -2.4449311    1.5589763   439061 
  216000    1.0358948   -2.4403356   -2.4403356  -0.88649697   0.20422298   -2.4403356    1.5538387   439061 
  217000    1.0356458    -2.441872    -2.441872  -0.88840684   0.21251541    -2.441872    1.5534651   439061 
  218000    1.0354972   -2.4427687   -2.4427687  -0.88952644   0.20352189   -2.4427687    1.5532423   439061 
  219000    1.0343987   -2.4433721   -2.4433721  -0.89177762   0.20415372   -2.4433721    1.5515945   439061 
  220000    1.0355262   -2.4443915   -2.4443915  -0.89110583   0.20386094   -2.4443915    1.5532857   439061 
  221000    1.0358615   -2.4448762   -2.4448762  -0.89108739   0.20266358   -2.4448762    1.5537888   439061 
  222000    1.0350498   -2.4457825   -2.4457825  -0.89321137   0.20489523   -2.4457825    1.5525711   439061 
  223000    1.0342091   -2.4452947   -2.4452947  -0.89398452   0.20290497   -2.4452947    1.5513102   439061 
  224000    1.0343835   -2.4456131   -2.4456131  -0.89404137   0.20592211   -2.4456131    1.5515717   439061 
  225000    1.0332706   -2.4440528   -2.4440528  -0.89415037   0.20251404   -2.4440528    1.5499024   439061 
  226000    1.0320178   -2.4435527   -2.4435527  -0.89552959   0.20447457   -2.4435527    1.5480231   439061 
  227000    1.0316048   -2.4443002   -2.4443002  -0.89689652   0.19792288   -2.4443002    1.5474037   439061 
  228000    1.0320171   -2.4445888   -2.4445888  -0.89656678   0.19978198   -2.4445888    1.5480221   439061 
  229000    1.0327997   -2.4454011   -2.4454011  -0.89620514   0.19970249   -2.4454011     1.549196   439061 
  230000    1.0328782   -2.4449961   -2.4449961  -0.89568231   0.20057312   -2.4449961    1.5493138   439061 
  231000    1.0322022   -2.4443423   -2.4443423  -0.89604245   0.19356009   -2.4443423    1.5482998   439061 
  232000    1.0315745   -2.4437903   -2.4437903  -0.89643211   0.20299412   -2.4437903    1.5473582   439061 
  233000    1.0313747   -2.4443424   -2.4443424  -0.89728398   0.19371193   -2.4443424    1.5470585   439061 
  234000    1.0321968   -2.4448889   -2.4448889  -0.89659718   0.19685308   -2.4448889    1.5482917   439061 
  235000    1.0324941    -2.445186    -2.445186   -0.8964484   0.19751829    -2.445186    1.5487376   439061 
  236000    1.0300124   -2.4423625   -2.4423625   -0.8973474   0.20054661   -2.4423625    1.5450151   439061 
  237000     1.029904    -2.443125    -2.443125  -0.89827249   0.20116421    -2.443125    1.5448525   439061 
  238000    1.0308974   -2.4445464   -2.4445464  -0.89820378   0.20015839   -2.4445464    1.5463426   439061 
  239000    1.0299697   -2.4439289   -2.4439289   -0.8989779   0.19766373   -2.4439289     1.544951   439061 
  240000    1.0310935   -2.4461541   -2.4461541  -0.89951738   0.19405416   -2.4461541    1.5466367   439061 
  241000    1.0294804   -2.4437645   -2.4437645  -0.89954747   0.20575497   -2.4437645     1.544217   439061 
  242000    1.0283642   -2.4442512   -2.4442512  -0.90170847   0.20080363   -2.4442512    1.5425427   439061 
  243000    1.0295742   -2.4467525   -2.4467525  -0.90239478   0.20125136   -2.4467525    1.5443577   439061 
  244000    1.0291317   -2.4488582   -2.4488582  -0.90516415   0.19606646   -2.4488582     1.543694   439061 
  245000    1.0293309   -2.4494774   -2.4494774  -0.90548459   0.20012588   -2.4494774    1.5439928   439061 
  246000    1.0270564   -2.4475182   -2.4475182  -0.90693715   0.19787113   -2.4475182    1.5405811   439061 
  247000    1.0275774   -2.4491686   -2.4491686    -0.907806   0.19596808   -2.4491686    1.5413626   439061 
  248000    1.0279395   -2.4506194   -2.4506194  -0.90871361   0.19500723   -2.4506194    1.5419058   439061 
  249000    1.0275427   -2.4505247   -2.4505247   -0.9092142    0.1982933   -2.4505247    1.5413105   439061 
  250000    1.0266592   -2.4497832   -2.4497832  -0.90979783   0.19869711   -2.4497832    1.5399854   439061 
  251000    1.0285247    -2.451779    -2.451779  -0.90899544   0.19446698    -2.451779    1.5427835   439061 
  252000    1.0259396   -2.4496671   -2.4496671  -0.91076127   0.19799569   -2.4496671    1.5389059   439061 
  253000    1.0271904   -2.4523853   -2.4523853  -0.91160326   0.19571507   -2.4523853     1.540782   439061 
  254000    1.0259172   -2.4505624   -2.4505624  -0.91169016   0.19297451   -2.4505624    1.5388723   439061 
  255000    1.0253851   -2.4507011   -2.4507011  -0.91262691   0.19799545   -2.4507011    1.5380742   439061 
  256000    1.0266413   -2.4528944   -2.4528944  -0.91293593   0.19251589   -2.4528944    1.5399585   439061 
  257000    1.0254186   -2.4521566   -2.4521566  -0.91403225   0.19680704   -2.4521566    1.5381244   439061 
  258000    1.0248316   -2.4527899   -2.4527899  -0.91554596   0.19131187   -2.4527899    1.5372439   439061 
  259000    1.0236369   -2.4510728   -2.4510728  -0.91562093   0.19989404   -2.4510728    1.5354518   439061 
  260000     1.024476   -2.4533016   -2.4533016  -0.91659107   0.19835775   -2.4533016    1.5367105   439061 
  261000    1.0240425   -2.4537313   -2.4537313  -0.91767109   0.19552426   -2.4537313    1.5360603   439061 
  262000    1.0251729   -2.4560951   -2.4560951  -0.91833933    0.1893168   -2.4560951    1.5377558   439061 
  263000    1.0231736    -2.453381    -2.453381  -0.91862405   0.19731549    -2.453381    1.5347569   439061 
  264000    1.0234553   -2.4542628   -2.4542628  -0.91908328   0.19146384   -2.4542628    1.5351795   439061 
  265000    1.0220462   -2.4525458   -2.4525458  -0.91947998   0.19025437   -2.4525458    1.5330658   439061 
  266000    1.0219454   -2.4539904   -2.4539904  -0.92107582    0.1932416   -2.4539904    1.5329146   439061 
  267000    1.0219261   -2.4534092   -2.4534092  -0.92052361   0.18813413   -2.4534092    1.5328856   439061 
  268000    1.0245646   -2.4573676   -2.4573676  -0.92052411   0.18992386   -2.4573676    1.5368435   439061 
  269000    1.0217703   -2.4532769   -2.4532769  -0.92062495   0.18832808   -2.4532769    1.5326519   439061 
  270000    1.0216105   -2.4540261   -2.4540261  -0.92161379   0.19043781   -2.4540261    1.5324123   439061 
  271000    1.0237528   -2.4563399   -2.4563399  -0.92071424   0.19438025   -2.4563399    1.5356257   439061 
  272000    1.0209375   -2.4534967   -2.4534967    -0.922094   0.19278218   -2.4534967    1.5314027   439061 
  273000    1.0210817   -2.4525002   -2.4525002  -0.92088109   0.19440471   -2.4525002    1.5316191   439061 
  274000    1.0211628   -2.4551705   -2.4551705  -0.92342978   0.18764208   -2.4551705    1.5317408   439061 
  275000    1.0215386   -2.4555311   -2.4555311  -0.92322671    0.1919149   -2.4555311    1.5323044   439061 
  276000    1.0211595   -2.4566565   -2.4566565  -0.92492075   0.19066508   -2.4566565    1.5317358   439061 
  277000    1.0222599   -2.4590204   -2.4590204  -0.92563406   0.18723049   -2.4590204    1.5333863   439061 
  278000    1.0196488   -2.4562763   -2.4562763  -0.92680654   0.18552956   -2.4562763    1.5294698   439061 
  279000    1.0183362   -2.4548467   -2.4548467  -0.92734594   0.19186863   -2.4548467    1.5275008   439061 
  280000    1.0192297   -2.4568812   -2.4568812  -0.92804008   0.18881328   -2.4568812    1.5288411   439061 
  281000    1.0181432   -2.4578965   -2.4578965  -0.93068525   0.19025327   -2.4578965    1.5272112   439061 
  282000    1.0188391   -2.4602341   -2.4602341   -0.9319789   0.18989028   -2.4602341    1.5282552   439061 
  283000    1.0195725   -2.4594043   -2.4594043  -0.93004897   0.18900215   -2.4594043    1.5293553   439061 
  284000    1.0184102   -2.4591198   -2.4591198  -0.93150791   0.18592016   -2.4591198    1.5276118   439061 
  285000    1.0187594   -2.4602931   -2.4602931  -0.93215754   0.18242207   -2.4602931    1.5281356   439061 
  286000    1.0180868   -2.4588554   -2.4588554  -0.93172869   0.19368484   -2.4588554    1.5271268   439061 
  287000    1.0187373    -2.460984    -2.460984  -0.93288147   0.18867473    -2.460984    1.5281025   439061 
  288000    1.0196707   -2.4621304   -2.4621304  -0.93262788    0.1905761   -2.4621304    1.5295025   439061 
  289000    1.0186335   -2.4613966   -2.4613966  -0.93344975   0.18368528   -2.4613966    1.5279468   439061 
  290000    1.0197985   -2.4628548   -2.4628548  -0.93316048   0.18789212   -2.4628548    1.5296943   439061 
  291000    1.0175165   -2.4600707   -2.4600707  -0.93379945   0.19024092   -2.4600707    1.5262713   439061 
  292000    1.0172414   -2.4598457   -2.4598457  -0.93398711   0.18804969   -2.4598457    1.5258586   439061 
  293000    1.0170633   -2.4599348   -2.4599348   -0.9343433   0.18609345   -2.4599348    1.5255915   439061 
  294000     1.017482    -2.460322    -2.460322  -0.93410255    0.1847258    -2.460322    1.5262195   439061 
  295000     1.017259   -2.4604259   -2.4604259  -0.93454092   0.18682638   -2.4604259     1.525885   439061 
  296000    1.0159274   -2.4588094   -2.4588094  -0.93492174    0.1890311   -2.4588094    1.5238877   439061 
  297000    1.0172721   -2.4607254   -2.4607254  -0.93482073    0.1863706   -2.4607254    1.5259047   439061 
  298000    1.0147682   -2.4573172   -2.4573172  -0.93516833   0.18476855   -2.4573172    1.5221489   439061 
  299000     1.015117    -2.457539    -2.457539  -0.93486704   0.18715117    -2.457539     1.522672   439061 
  300000    1.0155337   -2.4574588   -2.4574588  -0.93416168   0.18376008   -2.4574588    1.5232971   439061 
  301000    1.0145526   -2.4557223   -2.4557223  -0.93389676   0.18477698   -2.4557223    1.5218255   439061 
  302000    1.0164784   -2.4598753   -2.4598753  -0.93516121   0.18248204   -2.4598753    1.5247141   439061 
  303000    1.0168031   -2.4603788   -2.4603788  -0.93517766   0.18050042   -2.4603788    1.5252012   439061 
  304000    1.0149325   -2.4597052   -2.4597052  -0.93730992   0.18346662   -2.4597052    1.5223953   439061 
  305000    1.0152662   -2.4603759   -2.4603759  -0.93748007   0.17919821   -2.4603759    1.5228958   439061 
  306000     1.013646   -2.4604042   -2.4604042  -0.93993857   0.18228538   -2.4604042    1.5204656   439061 
  307000    1.0133561   -2.4589272   -2.4589272  -0.93889662   0.18396349   -2.4589272    1.5200306   439061 
  308000    1.0134857   -2.4590361   -2.4590361  -0.93881105   0.18116422   -2.4590361    1.5202251   439061 
  309000    1.0124845   -2.4593693   -2.4593693  -0.94064593   0.17635305   -2.4593693    1.5187233   439061 
  310000     1.012021   -2.4581581   -2.4581581  -0.94013004   0.17942406   -2.4581581     1.518028   439061 
  311000    1.0120207   -2.4592784   -2.4592784  -0.94125078   0.18416368   -2.4592784    1.5180276   439061 
  312000    1.0133195   -2.4616292   -2.4616292   -0.9416534   0.17996255   -2.4616292    1.5199758   439061 
  313000    1.0137922   -2.4636434   -2.4636434  -0.94295851   0.18414386   -2.4636434    1.5206849   439061 
  314000     1.012128   -2.4626325   -2.4626325  -0.94444405   0.18172398   -2.4626325    1.5181885   439061 
  315000    1.0132146    -2.464684    -2.464684  -0.94486557   0.17982213    -2.464684    1.5198184   439061 
  316000    1.0128817   -2.4654931   -2.4654931   -0.9461741   0.17756279   -2.4654931     1.519319   439061 
  317000    1.0117077   -2.4638257   -2.4638257  -0.94626761   0.18228152   -2.4638257    1.5175581   439061 
  318000    1.0110978   -2.4629396   -2.4629396  -0.94629639   0.18354524   -2.4629396    1.5166432   439061 
  319000    1.0118835   -2.4645965   -2.4645965  -0.94677476   0.17919682   -2.4645965    1.5178218   439061 
  320000     1.010624   -2.4645656   -2.4645656    -0.948633   0.18584961   -2.4645656    1.5159326   439061 
  321000     1.011671   -2.4663509   -2.4663509  -0.94884795    0.1788836   -2.4663509     1.517503   439061 
  322000    1.0102683   -2.4649147   -2.4649147  -0.94951571   0.18197009   -2.4649147     1.515399   439061 
  323000    1.0119772   -2.4675513   -2.4675513  -0.94958897   0.18028972   -2.4675513    1.5179624   439061 
  324000    1.0102662   -2.4668475   -2.4668475  -0.95145171   0.18373824   -2.4668475    1.5153958   439061 
  325000    1.0109484   -2.4691816   -2.4691816  -0.95276251   0.18036154   -2.4691816    1.5164191   439061 
  326000    1.0099785   -2.4669523   -2.4669523  -0.95198793   0.18498823   -2.4669523    1.5149643   439061 
  327000    1.0095829   -2.4672147   -2.4672147  -0.95284386   0.18187414   -2.4672147    1.5143708   439061 
  328000    1.0099763   -2.4681064   -2.4681064  -0.95314536    0.1797655   -2.4681064     1.514961   439061 
  329000     1.010432   -2.4696918   -2.4696918  -0.95404717    0.1854677   -2.4696918    1.5156446   439061 
  330000    1.0092761   -2.4684575   -2.4684575  -0.95454671   0.17715392   -2.4684575    1.5139108   439061 
  331000    1.0085557   -2.4687203   -2.4687203   -0.9558901   0.18248412   -2.4687203    1.5128302   439061 
  332000    1.0085843    -2.469661    -2.469661  -0.95678796   0.18203685    -2.469661     1.512873   439061 
  333000    1.0081013   -2.4689175   -2.4689175  -0.95676896    0.1794078   -2.4689175    1.5121486   439061 
  334000    1.0076631    -2.468141    -2.468141  -0.95664972   0.17925496    -2.468141    1.5114912   439061 
  335000    1.0080433   -2.4691038   -2.4691038  -0.95704226   0.17685887   -2.4691038    1.5120616   439061 
  336000    1.0070287   -2.4678079   -2.4678079   -0.9572683   0.17774904   -2.4678079    1.5105396   439061 
  337000     1.007287   -2.4685142   -2.4685142  -0.95758726   0.17546103   -2.4685142     1.510927   439061 
  338000    1.0087136    -2.470532    -2.470532  -0.95746496   0.17359756    -2.470532     1.513067   439061 
  339000    1.0080231   -2.4689829   -2.4689829  -0.95695162   0.17848101   -2.4689829    1.5120312   439061 
  340000    1.0058653   -2.4670782   -2.4670782  -0.95828375   0.17628449   -2.4670782    1.5087944   439061 
  341000    1.0077222   -2.4688327   -2.4688327  -0.95725276   0.17394846   -2.4688327    1.5115799   439061 
  342000    1.0064644   -2.4675537   -2.4675537  -0.95786048   0.17334987   -2.4675537    1.5096932   439061 
  343000    1.0067599    -2.468231    -2.468231  -0.95809459   0.17747329    -2.468231    1.5101364   439061 
  344000    1.0067564   -2.4673982   -2.4673982  -0.95726702   0.17712658   -2.4673982    1.5101312   439061 
  345000    1.0063419    -2.467861    -2.467861  -0.95835157   0.17916326    -2.467861    1.5095095   439061 
  346000    1.0054407   -2.4683254   -2.4683254  -0.96016782   0.17280469   -2.4683254    1.5081576   439061 
  347000    1.0062665   -2.4691611   -2.4691611  -0.95976478   0.17483817   -2.4691611    1.5093963   439061 
  348000    1.0068929    -2.470411    -2.470411  -0.96007513   0.17066391    -2.470411    1.5103359   439061 
  349000    1.0051137   -2.4691856   -2.4691856  -0.96151846   0.17130734   -2.4691856    1.5076672   439061 
  350000    1.0045399   -2.4691311   -2.4691311  -0.96232464   0.17515607   -2.4691311    1.5068065   439061 
  351000    1.0035145   -2.4677538   -2.4677538  -0.96248554   0.18313499   -2.4677538    1.5052683   439061 
  352000    1.0044983   -2.4693806   -2.4693806  -0.96263658   0.17330896   -2.4693806     1.506744   439061 
  353000    1.0053672   -2.4704511   -2.4704511  -0.96240383    0.1750476   -2.4704511    1.5080473   439061 
  354000    1.0059964   -2.4727249   -2.4727249  -0.96373368   0.17628584   -2.4727249    1.5089912   439061 
  355000    1.0057412   -2.4724584   -2.4724584  -0.96385001    0.1754623   -2.4724584    1.5086084   439061 
  356000    1.0038091    -2.470078    -2.470078  -0.96436779   0.17742177    -2.470078    1.5057102   439061 
  357000    1.0065498   -2.4736878   -2.4736878  -0.96386659   0.17649376   -2.4736878    1.5098212   439061 
  358000    1.0054727   -2.4728721   -2.4728721  -0.96466649   0.16942517   -2.4728721    1.5082056   439061 
  359000    1.0062699   -2.4747777   -2.4747777  -0.96537625   0.17831051   -2.4747777    1.5094014   439061 
  360000    1.0045987   -2.4727702   -2.4727702  -0.96587565   0.17514756   -2.4727702    1.5068946   439061 
  361000    1.0041657   -2.4722864   -2.4722864   -0.9660413   0.17648999   -2.4722864    1.5062451   439061 
  362000    1.0061424   -2.4754011   -2.4754011  -0.96619092   0.17096733   -2.4754011    1.5092102   439061 
  363000    1.0046739   -2.4739345   -2.4739345  -0.96692705   0.17341736   -2.4739345    1.5070074   439061 
  364000    1.0038817   -2.4735655   -2.4735655  -0.96774643   0.16981222   -2.4735655    1.5058191   439061 
  365000    1.0045267   -2.4748705   -2.4748705  -0.96808391   0.17436049   -2.4748705    1.5067866   439061 
  366000    1.0028987   -2.4745973   -2.4745973  -0.97025262   0.16836442   -2.4745973    1.5043447   439061 
  367000    1.0035723   -2.4748829   -2.4748829  -0.96952792   0.17117031   -2.4748829     1.505355   439061 
  368000    1.0033747   -2.4745103   -2.4745103  -0.96945168   0.17294077   -2.4745103    1.5050586   439061 
  369000    1.0029203   -2.4728699   -2.4728699   -0.9684928   0.16881726   -2.4728699    1.5043771   439061 
  370000    1.0010444   -2.4706609   -2.4706609   -0.9690977   0.16905976   -2.4706609    1.5015632   439061 
  371000    1.0013059    -2.471301    -2.471301  -0.96934559   0.17427595    -2.471301    1.5019555   439061 
  372000    1.0011919   -2.4733233   -2.4733233   -0.9715388   0.17423806   -2.4733233    1.5017845   439061 
  373000    1.0011952   -2.4740665   -2.4740665   -0.9722772   0.17246302   -2.4740665    1.5017893   439061 
  374000    1.0025426   -2.4749464   -2.4749464  -0.97113587   0.17150933   -2.4749464    1.5038105   439061 
  375000    1.0008627   -2.4734403   -2.4734403  -0.97214957   0.16993375   -2.4734403    1.5012907   439061 
  376000    1.0011923   -2.4744133   -2.4744133  -0.97262827   0.17297513   -2.4744133    1.5017851   439061 
  377000    1.0015359   -2.4736425   -2.4736425   -0.9713421   0.17461323   -2.4736425    1.5023004   439061 
  378000    1.0017565   -2.4744705   -2.4744705  -0.97183913   0.17157103   -2.4744705    1.5026314   439061 
  379000    1.0018713   -2.4764704   -2.4764704  -0.97366692   0.17302663   -2.4764704    1.5028035   439061 
  380000    1.0006281   -2.4751134   -2.4751134  -0.97417466   0.17239002   -2.4751134    1.5009388   439061 
  381000   0.99937648   -2.4735699   -2.4735699  -0.97450858    0.1698619   -2.4735699    1.4990613   439061 
  382000    1.0006829   -2.4759307   -2.4759307  -0.97490986   0.17277949   -2.4759307    1.5010209   439061 
  383000    1.0001812   -2.4750895   -2.4750895  -0.97482116   0.16762778   -2.4750895    1.5002684   439061 
  384000    1.0003347   -2.4771421   -2.4771421  -0.97664357   0.17193012   -2.4771421    1.5004986   439061 
  385000   0.99939547   -2.4757297   -2.4757297  -0.97663994   0.16698281   -2.4757297    1.4990898   439061 
  386000   0.99995535   -2.4772124   -2.4772124  -0.97728283    0.1681613   -2.4772124    1.4999296   439061 
  387000   0.99993655   -2.4766134   -2.4766134  -0.97671198   0.17237584   -2.4766134    1.4999014   439061 
  388000    1.0005643   -2.4789422   -2.4789422  -0.97809923   0.16704919   -2.4789422     1.500843   439061 
  389000    1.0005068   -2.4792004   -2.4792004  -0.97844363   0.16967306   -2.4792004    1.5007568   439061 
  390000   0.99968244   -2.4775533   -2.4775533  -0.97803306   0.16839587   -2.4775533    1.4995202   439061 
  391000   0.99946873   -2.4782246   -2.4782246   -0.9790249   0.16847897   -2.4782246    1.4991997   439061 
  392000   0.99940359   -2.4795485   -2.4795485  -0.98044652   0.16927201   -2.4795485     1.499102   439061 
  393000   0.99877623   -2.4785613   -2.4785613  -0.98040038   0.16879311   -2.4785613    1.4981609   439061 
  394000      0.99911   -2.4796477   -2.4796477  -0.98098613   0.17163303   -2.4796477    1.4986616   439061 
  395000   0.99947213   -2.4807863   -2.4807863  -0.98158155   0.16513491   -2.4807863    1.4992048   439061 
  396000   0.99848319    -2.482208    -2.482208  -0.98448665   0.16547912    -2.482208    1.4977214   439061 
  397000   0.99750856   -2.4812152   -2.4812152  -0.98495575   0.16682609   -2.4812152    1.4962594   439061 
  398000   0.99963258   -2.4853081   -2.4853081  -0.98586264   0.16610156   -2.4853081    1.4994455   439061 
  399000   0.99736534   -2.4817886   -2.4817886  -0.98574402   0.16635482   -2.4817886    1.4960446   439061 
  400000   0.99577923   -2.4794214   -2.4794214  -0.98575596   0.16918604   -2.4794214    1.4936654   439061 
  401000   0.99684104   -2.4816678   -2.4816678   -0.9864096   0.16647758   -2.4816678    1.4952582   439061 
  402000   0.99658785   -2.4811112   -2.4811112  -0.98623287   0.16857599   -2.4811112    1.4948784   439061 
  403000   0.99674825   -2.4814258   -2.4814258  -0.98630682   0.16782422   -2.4814258     1.495119   439061 
  404000   0.99664659   -2.4814899   -2.4814899  -0.98652342    0.1602663   -2.4814899    1.4949665   439061 
  405000   0.99605961   -2.4791656   -2.4791656  -0.98507955   0.16625418   -2.4791656     1.494086   439061 
  406000   0.99555436   -2.4785362   -2.4785362  -0.98520809   0.16579969   -2.4785362    1.4933281   439061 
  407000   0.99602598   -2.4801699   -2.4801699  -0.98613439   0.16240929   -2.4801699    1.4940356   439061 
  408000   0.99617534   -2.4804353   -2.4804353  -0.98617571   0.16004034   -2.4804353    1.4942596   439061 
  409000   0.99624037   -2.4793305   -2.4793305  -0.98497332   0.16580885   -2.4793305    1.4943572   439061 
  410000   0.99697854    -2.480397    -2.480397  -0.98493261   0.16353095    -2.480397    1.4954644   439061 
  411000   0.99524333   -2.4771201   -2.4771201  -0.98425851    0.1632569   -2.4771201    1.4928616   439061 
  412000   0.99628987    -2.478684    -2.478684  -0.98425259   0.16825895    -2.478684    1.4944314   439061 
  413000   0.99556613   -2.4790368   -2.4790368  -0.98569105   0.16115586   -2.4790368    1.4933458   439061 
  414000   0.99642272    -2.480628    -2.480628  -0.98599733   0.16604169    -2.480628    1.4946307   439061 
  415000   0.99543052   -2.4780879   -2.4780879  -0.98494552   0.16385383   -2.4780879    1.4931424   439061 
  416000   0.99500867    -2.479096    -2.479096  -0.98658635   0.16571892    -2.479096    1.4925096   439061 
  417000   0.99619473   -2.4815961   -2.4815961  -0.98730742   0.16138943   -2.4815961    1.4942887   439061 
  418000   0.99577698   -2.4808338   -2.4808338  -0.98717172   0.16789025   -2.4808338    1.4936621   439061 
  419000   0.99516273   -2.4806775   -2.4806775   -0.9879368   0.17242446   -2.4806775    1.4927407   439061 
  420000   0.99518706   -2.4816584   -2.4816584  -0.98888122   0.16458641   -2.4816584    1.4927772   439061 
  421000   0.99379761   -2.4813107   -2.4813107  -0.99061772   0.16233777   -2.4813107     1.490693   439061 
  422000   0.99457939   -2.4840993   -2.4840993  -0.99223364   0.15942863   -2.4840993    1.4918657   439061 
  423000    0.9935633   -2.4821171   -2.4821171  -0.99177557   0.16390297   -2.4821171    1.4903416   439061 
  424000   0.99624145   -2.4851825   -2.4851825  -0.99082371   0.16088833   -2.4851825    1.4943588   439061 
  425000   0.99454272   -2.4831958   -2.4831958  -0.99138508   0.16049753   -2.4831958    1.4918107   439061 
  426000   0.99543682   -2.4835693   -2.4835693  -0.99041747   0.16297058   -2.4835693    1.4931518   439061 
  427000   0.99410546   -2.4824055   -2.4824055   -0.9912507   0.16263085   -2.4824055    1.4911548   439061 
  428000   0.99504552   -2.4833709   -2.4833709  -0.99080602    0.1647597   -2.4833709    1.4925649   439061 
  429000    0.9931633   -2.4816402   -2.4816402  -0.99189861   0.16626989   -2.4816402    1.4897416   439061 
  430000   0.99512876   -2.4861056   -2.4861056  -0.99341586   0.15910401   -2.4861056    1.4926897   439061 
  431000   0.99277231   -2.4830321   -2.4830321  -0.99387703   0.16769054   -2.4830321    1.4891551   439061 
  432000   0.99220427   -2.4824056   -2.4824056  -0.99410256   0.16259941   -2.4824056     1.488303   439061 
  433000   0.99285632   -2.4831152   -2.4831152  -0.99383408   0.16399543   -2.4831152    1.4892811   439061 
  434000   0.99192401   -2.4822649   -2.4822649  -0.99438232   0.16111163   -2.4822649    1.4878826   439061 
  435000   0.99360411    -2.485147    -2.485147  -0.99474421   0.15833667    -2.485147    1.4904028   439061 
  436000   0.99176631   -2.4822925   -2.4822925  -0.99464637   0.16317928   -2.4822925    1.4876461   439061 
  437000   0.99321552   -2.4833949   -2.4833949  -0.99357503   0.16096045   -2.4833949    1.4898199   439061 
  438000   0.99338439   -2.4832297   -2.4832297  -0.99315653   0.16347653   -2.4832297    1.4900732   439061 
  439000   0.99204475    -2.482288    -2.482288  -0.99422428   0.16138709    -2.482288    1.4880637   439061 
  440000   0.99239047    -2.482562    -2.482562  -0.99397968   0.16523719    -2.482562    1.4885823   439061 
  441000    0.9927962   -2.4838654   -2.4838654  -0.99467449   0.15902922   -2.4838654    1.4891909   439061 
  442000    0.9924238   -2.4829404   -2.4829404  -0.99430804   0.16279131   -2.4829404    1.4886323   439061 
  443000    0.9926494   -2.4839456   -2.4839456  -0.99497491   0.16140146   -2.4839456    1.4889707   439061 
  444000   0.99165971    -2.482898    -2.482898  -0.99541183   0.15808692    -2.482898    1.4874862   439061 
  445000   0.99165146   -2.4827871   -2.4827871  -0.99531326   0.16195021   -2.4827871    1.4874738   439061 
  446000   0.99098329   -2.4823222   -2.4823222  -0.99585068   0.15909779   -2.4823222    1.4864715   439061 
  447000   0.99308266   -2.4857596   -2.4857596  -0.99613905   0.16042234   -2.4857596    1.4896206   439061 
  448000   0.99065915   -2.4827057   -2.4827057  -0.99672037   0.16053686   -2.4827057    1.4859853   439061 
  449000   0.99125112   -2.4839324   -2.4839324  -0.99705911   0.16184189   -2.4839324    1.4868733   439061 
  450000   0.99139606   -2.4837616   -2.4837616  -0.99667091   0.16341328   -2.4837616    1.4870907   439061 
  451000   0.99100795   -2.4844014   -2.4844014  -0.99789284    0.1578013   -2.4844014    1.4865085   439061 
  452000   0.99132081   -2.4857626   -2.4857626  -0.99878478   0.15660123   -2.4857626    1.4869778   439061 
  453000   0.99078855   -2.4841599   -2.4841599  -0.99798046   0.16157971   -2.4841599    1.4861794   439061 
  454000   0.98972847   -2.4858173   -2.4858173   -1.0012279   0.15570189   -2.4858173    1.4845893   439061 
  455000   0.99085803   -2.4888534   -2.4888534   -1.0025698    0.1574121   -2.4888534    1.4862837   439061 
  456000   0.98927741   -2.4848589   -2.4848589   -1.0009462   0.15936511   -2.4848589    1.4839127   439061 
  457000   0.98847577   -2.4849047   -2.4849047   -1.0021944    0.1580196   -2.4849047    1.4827103   439061 
  458000   0.98903212   -2.4867187   -2.4867187   -1.0031739    0.1579728   -2.4867187    1.4835448   439061 
  459000   0.98931384   -2.4880588   -2.4880588   -1.0040914   0.16003701   -2.4880588    1.4839674   439061 
  460000   0.98890026   -2.4876224   -2.4876224   -1.0042754   0.15970432   -2.4876224     1.483347   439061 
  461000   0.98822785   -2.4866624   -2.4866624    -1.004324     0.159713   -2.4866624    1.4823384   439061 
  462000   0.98958997    -2.488351    -2.488351   -1.0039695   0.15844857    -2.488351    1.4843816   439061 
  463000   0.98994695   -2.4878969   -2.4878969   -1.0029799   0.15971537   -2.4878969     1.484917   439061 
  464000   0.98930761   -2.4882527   -2.4882527   -1.0042946   0.15732083   -2.4882527     1.483958   439061 
  465000    0.9877955   -2.4876253   -2.4876253   -1.0059354   0.15322205   -2.4876253    1.4816899   439061 
  466000   0.98789792   -2.4887505   -2.4887505    -1.006907   0.15965933   -2.4887505    1.4818435   439061 
  467000    0.9874233   -2.4873517   -2.4873517   -1.0062201   0.15635292   -2.4873517    1.4811316   439061 
  468000   0.98704207   -2.4874895   -2.4874895   -1.0069298   0.15844842   -2.4874895    1.4805597   439061 
  469000    0.9869389   -2.4875441   -2.4875441   -1.0071392   0.15920465   -2.4875441     1.480405   439061 
  470000    0.9874335   -2.4887773   -2.4887773   -1.0076304   0.16243123   -2.4887773    1.4811469   439061 
  471000   0.98735452    -2.487173    -2.487173   -1.0061446   0.16113082    -2.487173    1.4810284   439061 
  472000    0.9873853   -2.4872233   -2.4872233   -1.0061488   0.15867084   -2.4872233    1.4810746   439061 
  473000   0.98858957    -2.488673    -2.488673    -1.005792   0.15862909    -2.488673     1.482881   439061 
  474000   0.98767912   -2.4889109   -2.4889109   -1.0073955   0.16349549   -2.4889109    1.4815153   439061 
  475000   0.98791967   -2.4893661   -2.4893661   -1.0074899   0.15658157   -2.4893661    1.4818761   439061 
  476000   0.98832365   -2.4912971   -2.4912971    -1.008815    0.1568948   -2.4912971    1.4824821   439061 
  477000   0.98813057   -2.4911137   -2.4911137   -1.0089212   0.15935371   -2.4911137    1.4821925   439061 
  478000   0.98599615   -2.4881438   -2.4881438    -1.009153    0.1550157   -2.4881438    1.4789909   439061 
  479000   0.98644241   -2.4887633   -2.4887633    -1.009103   0.15607131   -2.4887633    1.4796602   439061 
  480000   0.98567154   -2.4884561   -2.4884561   -1.0099521   0.15600284   -2.4884561    1.4785039   439061 
  481000   0.98697383   -2.4886937   -2.4886937   -1.0082363    0.1608188   -2.4886937    1.4804574   439061 
  482000   0.98718361   -2.4880288   -2.4880288   -1.0072568   0.15551615   -2.4880288     1.480772   439061 
  483000   0.98674039    -2.488072    -2.488072   -1.0079647   0.15752586    -2.488072    1.4801072   439061 
  484000   0.98811635   -2.4900307   -2.4900307   -1.0078596   0.15182691   -2.4900307    1.4821712   439061 
  485000   0.98765979   -2.4899798   -2.4899798   -1.0084935   0.15071823   -2.4899798    1.4814863   439061 
  486000   0.98542059    -2.487676    -2.487676   -1.0095485   0.15695497    -2.487676    1.4781275   439061 
  487000   0.98643926   -2.4899229   -2.4899229   -1.0102674   0.15644633   -2.4899229    1.4796555   439061 
  488000   0.98697973   -2.4897466   -2.4897466   -1.0092804   0.14978339   -2.4897466    1.4804662   439061 
  489000   0.98599752   -2.4900853   -2.4900853   -1.0110924   0.15521471   -2.4900853    1.4789929   439061 
  490000   0.98481057   -2.4893931   -2.4893931   -1.0121806   0.15527501   -2.4893931    1.4772125   439061 
  491000    0.9864981   -2.4899767   -2.4899767   -1.0102329   0.15244462   -2.4899767    1.4797438   439061 
  492000   0.98645481   -2.4887823   -2.4887823   -1.0091035   0.15710651   -2.4887823    1.4796788   439061 
  493000   0.98637888   -2.4882495   -2.4882495   -1.0086845   0.15795622   -2.4882495     1.479565   439061 
  494000   0.98694508   -2.4900701   -2.4900701   -1.0096558   0.14942767   -2.4900701    1.4804143   439061 
  495000     0.987221   -2.4895736   -2.4895736   -1.0087455   0.15417969   -2.4895736    1.4808281   439061 
  496000   0.98582837   -2.4875749   -2.4875749   -1.0088357   0.15969928   -2.4875749    1.4787392   439061 
  497000   0.98656611   -2.4895189   -2.4895189   -1.0096731   0.15489117   -2.4895189    1.4798458   439061 
  498000    0.9854947    -2.489432    -2.489432   -1.0111933   0.15082715    -2.489432    1.4782387   439061 
  499000   0.98499706   -2.4899075   -2.4899075   -1.0124153   0.15157699   -2.4899075    1.4774922   439061 
  500000   0.98471266   -2.4888175   -2.4888175   -1.0117519   0.15670776   -2.4888175    1.4770656   439061 
  501000   0.98549446    -2.490214    -2.490214   -1.0119757   0.15382688    -2.490214    1.4782383   439061 
  502000   0.98469892   -2.4889216   -2.4889216   -1.0118766   0.15009254   -2.4889216     1.477045   439061 
  503000   0.98348102    -2.488535    -2.488535   -1.0133168   0.15490584    -2.488535    1.4752182   439061 
  504000   0.98393753   -2.4890007   -2.4890007   -1.0130977   0.15237804   -2.4890007    1.4759029   439061 
  505000   0.98651151   -2.4929966   -2.4929966   -1.0132327   0.14843541   -2.4929966    1.4797639   439061 
  506000   0.98517627   -2.4934676   -2.4934676   -1.0157066   0.15260936   -2.4934676     1.477761   439061 
  507000   0.98306791   -2.4899033   -2.4899033   -1.0153048   0.15594859   -2.4899033    1.4745985   439061 
  508000   0.98342638   -2.4914522   -2.4914522    -1.016316    0.1571081   -2.4914522    1.4751362   439061 
  509000   0.98335135   -2.4914614   -2.4914614   -1.0164377   0.15594562   -2.4914614    1.4750237   439061 
  510000   0.98366417   -2.4917146   -2.4917146   -1.0162218   0.15795345   -2.4917146    1.4754929   439061 
  511000   0.98385742   -2.4928889   -2.4928889   -1.0171061   0.15314019   -2.4928889    1.4757828   439061 
  512000    0.9843719   -2.4932668   -2.4932668   -1.0167123    0.1536503   -2.4932668    1.4765545   439061 
  513000   0.98411545   -2.4946914   -2.4946914   -1.0185216   0.15064802   -2.4946914    1.4761698   439061 
  514000    0.9818529   -2.4907647   -2.4907647   -1.0179887   0.15641982   -2.4907647     1.472776   439061 
  515000   0.98256124   -2.4931345   -2.4931345    -1.019296    0.1566268   -2.4931345    1.4738385   439061 
  516000   0.98254773   -2.4919887   -2.4919887   -1.0181705   0.15270438   -2.4919887    1.4738182   439061 
  517000   0.98252253    -2.493355    -2.493355   -1.0195745   0.15438087    -2.493355    1.4737804   439061 
  518000   0.98275365   -2.4946798   -2.4946798   -1.0205527   0.14700935   -2.4946798    1.4741271   439061 
  519000   0.98358159   -2.4952349   -2.4952349   -1.0198659   0.15179248   -2.4952349     1.475369   439061 
  520000   0.98342339   -2.4948065   -2.4948065   -1.0196747   0.15541616   -2.4948065    1.4751317   439061 
  521000   0.98190077   -2.4934643   -2.4934643   -1.0206165   0.14794326   -2.4934643    1.4728478   439061 
  522000   0.98341506   -2.4952025   -2.4952025   -1.0200833   0.15079519   -2.4952025    1.4751192   439061 
  523000    0.9815061   -2.4924441   -2.4924441   -1.0201883   0.15443765   -2.4924441    1.4722558   439061 
  524000   0.98172276   -2.4937223   -2.4937223   -1.0211415    0.1523023   -2.4937223    1.4725808   439061 
  525000    0.9815764   -2.4948942   -2.4948942   -1.0225329   0.15019995   -2.4948942    1.4723612   439061 
  526000    0.9813861   -2.4952169   -2.4952169   -1.0231411   0.15290335   -2.4952169    1.4720758   439061 
  527000   0.98091238    -2.495065    -2.495065   -1.0236998   0.14625936    -2.495065    1.4713652   439061 
  528000   0.98055011   -2.4939411   -2.4939411   -1.0231193   0.14952541   -2.4939411    1.4708218   439061 
  529000   0.98085589   -2.4958116   -2.4958116   -1.0245311    0.1539225   -2.4958116    1.4712805   439061 
  530000   0.97928003   -2.4947682   -2.4947682   -1.0258515   0.15086415   -2.4947682    1.4689167   439061 
  531000   0.98026441   -2.4981043   -2.4981043    -1.027711   0.15064564   -2.4981043    1.4703933   439061 
  532000   0.97964877   -2.4968777   -2.4968777   -1.0274079   0.15000774   -2.4968777    1.4694698   439061 
  533000   0.97970703   -2.4967468   -2.4967468   -1.0271896   0.15375783   -2.4967468    1.4695572   439061 
  534000   0.98035384   -2.4982025   -2.4982025   -1.0276751   0.14852834   -2.4982025    1.4705274   439061 
  535000   0.98051318   -2.4995729   -2.4995729   -1.0288065   0.15190091   -2.4995729    1.4707664   439061 
  536000   0.98059585   -2.4998947   -2.4998947   -1.0290042   0.14651481   -2.4998947    1.4708904   439061 
  537000   0.97980328   -2.4983334   -2.4983334   -1.0286318    0.1493469   -2.4983334    1.4697016   439061 
  538000   0.97966763   -2.4987475   -2.4987475   -1.0292495   0.15114488   -2.4987475    1.4694981   439061 
  539000   0.97889894   -2.4986948   -2.4986948   -1.0303498   0.14402238   -2.4986948    1.4683451   439061 
  540000   0.97905113   -2.4987086   -2.4987086   -1.0301352   0.14331555   -2.4987086    1.4685734   439061 
  541000   0.97863616   -2.4961336   -2.4961336   -1.0281827   0.15321464   -2.4961336    1.4679509   439061 
  542000   0.97878808   -2.4981453   -2.4981453   -1.0299665   0.15080528   -2.4981453    1.4681788   439061 
  543000   0.97940834   -2.4993403   -2.4993403   -1.0302311   0.14841499   -2.4993403    1.4691092   439061 
  544000   0.97917305   -2.4989056   -2.4989056   -1.0301494   0.14954613   -2.4989056    1.4687562   439061 
  545000   0.97979668   -2.4989064   -2.4989064   -1.0292148   0.15510366   -2.4989064    1.4696917   439061 
  546000   0.97842266   -2.4974959   -2.4974959   -1.0298653   0.14968854   -2.4974959    1.4676306   439061 
  547000   0.97926441   -2.4993809   -2.4993809   -1.0304877   0.14827859   -2.4993809    1.4688933   439061 
  548000   0.97874908   -2.4996151   -2.4996151   -1.0314949   0.14792728   -2.4996151    1.4681203   439061 
  549000   0.97912176   -2.4996871   -2.4996871   -1.0310078   0.14777789   -2.4996871    1.4686793   439061 
  550000   0.97806699   -2.4992652   -2.4992652   -1.0321681   0.14986796   -2.4992652    1.4670971   439061 
  551000   0.97866413   -2.5001793   -2.5001793   -1.0321864   0.15170308   -2.5001793    1.4679928   439061 
  552000   0.97848584   -2.5012833   -2.5012833   -1.0335579   0.14238196   -2.5012833    1.4677254   439061 
  553000   0.97769954   -2.5004201   -2.5004201   -1.0338742   0.14725969   -2.5004201     1.466546   439061 
  554000   0.97750066   -2.5007539   -2.5007539   -1.0345063   0.14925988   -2.5007539    1.4662477   439061 
  555000   0.97629492   -2.4988887   -2.4988887   -1.0344496   0.14681031   -2.4988887     1.464439   439061 
  556000   0.97684962   -2.4994592   -2.4994592   -1.0341881   0.14624702   -2.4994592    1.4652711   439061 
  557000   0.97862475   -2.5027762   -2.5027762   -1.0348424   0.14536182   -2.5027762    1.4679338   439061 
  558000   0.97655532   -2.4999102   -2.4999102   -1.0350805   0.14865975   -2.4999102    1.4648296   439061 
  559000    0.9797518   -2.5031826   -2.5031826   -1.0335582   0.14327165   -2.5031826    1.4696244   439061 
  560000   0.97763695   -2.5000309   -2.5000309   -1.0335788    0.1423422   -2.5000309    1.4664521   439061 
  561000   0.97778184   -2.4990809   -2.4990809   -1.0324115   0.14892924   -2.4990809    1.4666694   439061 
  562000   0.97725225   -2.4988693   -2.4988693   -1.0329943   0.14613045   -2.4988693     1.465875   439061 
  563000   0.97685577   -2.4990681   -2.4990681   -1.0337878   0.14776695   -2.4990681    1.4652803   439061 
  564000   0.97571737   -2.4979538   -2.4979538   -1.0343811   0.15012241   -2.4979538    1.4635727   439061 
  565000   0.97897889   -2.5019638   -2.5019638   -1.0334988   0.14614582   -2.5019638     1.468465   439061 
  566000   0.97754276   -2.5012856   -2.5012856   -1.0349748   0.14718101   -2.5012856    1.4663108   439061 
  567000   0.97557105   -2.4982428   -2.4982428   -1.0348895    0.1510286   -2.4982428    1.4633532   439061 
  568000   0.97788026   -2.5013132   -2.5013132   -1.0344962   0.15084113   -2.5013132    1.4668171   439061 
  569000   0.97652456   -2.4989854   -2.4989854   -1.0342019   0.14390517   -2.4989854    1.4647835   439061 
  570000   0.97745597   -2.5004669   -2.5004669   -1.0342863   0.14551706   -2.5004669    1.4661806   439061 
  571000   0.97677964    -2.499955    -2.499955   -1.0347888   0.14663137    -2.499955    1.4651661   439061 
  572000    0.9764703   -2.5010139   -2.5010139   -1.0363118    0.1450413   -2.5010139    1.4647021   439061 
  573000   0.97582583   -2.5007815   -2.5007815   -1.0370461   0.14752023   -2.5007815    1.4637354   439061 
  574000   0.97619069   -2.5015582   -2.5015582   -1.0372755   0.14859371   -2.5015582    1.4642827   439061 
  575000   0.97402865   -2.4984599   -2.4984599   -1.0374202   0.14501348   -2.4984599    1.4610397   439061 
  576000   0.97554589   -2.4999716   -2.4999716   -1.0366561    0.1512354   -2.4999716    1.4633155   439061 
  577000   0.97569022   -2.5022167   -2.5022167   -1.0386847   0.14540061   -2.5022167     1.463532   439061 
  578000   0.97436269   -2.5015673   -2.5015673   -1.0400266   0.14644588   -2.5015673    1.4615407   439061 
  579000   0.97423445   -2.5000071   -2.5000071   -1.0386587   0.14518167   -2.5000071    1.4613483   439061 
  580000    0.9744168   -2.5008157   -2.5008157   -1.0391938   0.14478577   -2.5008157    1.4616219   439061 
  581000   0.97406134   -2.5011989   -2.5011989   -1.0401102    0.1437536   -2.5011989    1.4610887   439061 
  582000   0.97545244   -2.5025104   -2.5025104   -1.0393351   0.14563867   -2.5025104    1.4631753   439061 
  583000   0.97492955   -2.5016893   -2.5016893   -1.0392983   0.14174739   -2.5016893     1.462391   439061 
  584000   0.97433344   -2.5004579   -2.5004579    -1.038961   0.14496977   -2.5004579    1.4614968   439061 
  585000   0.97474144   -2.5012777   -2.5012777   -1.0391689   0.14704946   -2.5012777    1.4621088   439061 
  586000   0.97513619   -2.5021751   -2.5021751   -1.0394741   0.14076743   -2.5021751     1.462701   439061 
  587000   0.97520675   -2.5028272   -2.5028272   -1.0400204    0.1440755   -2.5028272    1.4628068   439061 
  588000   0.97423314    -2.500495    -2.500495   -1.0391487   0.14336068    -2.500495    1.4613464   439061 
  589000   0.97404783   -2.5010415   -2.5010415   -1.0399731   0.14907129   -2.5010415    1.4610684   439061 
  590000   0.97288297   -2.5006588   -2.5006588   -1.0413377   0.14191038   -2.5006588    1.4593211   439061 
  591000   0.97405944   -2.5017278   -2.5017278   -1.0406419   0.14236631   -2.5017278    1.4610858   439061 
  592000    0.9726386   -2.5006272   -2.5006272   -1.0416726   0.14510127   -2.5006272    1.4589546   439061 
  593000   0.97316173   -2.5024323   -2.5024323   -1.0426931   0.14484519   -2.5024323    1.4597393   439061 
  594000   0.97240396   -2.5001417   -2.5001417    -1.041539    0.1476399   -2.5001417    1.4586026   439061 
  595000   0.97226065   -2.5009914   -2.5009914   -1.0426038   0.14094903   -2.5009914    1.4583877   439061 
  596000   0.97296319   -2.5013584   -2.5013584   -1.0419169   0.14192028   -2.5013584    1.4594415   439061 
  597000   0.97362991   -2.5027123   -2.5027123   -1.0422708   0.14315707   -2.5027123    1.4604415   439061 
  598000   0.97517096   -2.5040838   -2.5040838   -1.0413307   0.14277635   -2.5040838    1.4627531   439061 
  599000   0.97300778   -2.5027259   -2.5027259   -1.0432175   0.14690506   -2.5027259    1.4595084   439061 
  600000   0.97340358   -2.5034725   -2.5034725   -1.0433704   0.13967473   -2.5034725     1.460102   439061 
  601000   0.97338037   -2.5036344   -2.5036344   -1.0435671   0.14579103   -2.5036344    1.4600672   439061 
  602000   0.97213179   -2.5029948   -2.5029948   -1.0448005   0.14100818   -2.5029948    1.4581944   439061 
  603000   0.97294091   -2.5036208   -2.5036208   -1.0442127   0.13923839   -2.5036208     1.459408   439061 
  604000   0.97203249     -2.50295     -2.50295   -1.0449046   0.14156794     -2.50295    1.4580454   439061 
  605000   0.97233688   -2.5029674   -2.5029674   -1.0444654   0.14653769   -2.5029674     1.458502   439061 
  606000   0.97148641   -2.5018207   -2.5018207   -1.0445944   0.14320629   -2.5018207    1.4572263   439061 
  607000    0.9717746   -2.5021268   -2.5021268   -1.0444682   0.14614669   -2.5021268    1.4576586   439061 
  608000   0.97250516   -2.5024143   -2.5024143   -1.0436599   0.13916853   -2.5024143    1.4587544   439061 
  609000   0.97103821   -2.5011185   -2.5011185   -1.0445645   0.14242975   -2.5011185     1.456554   439061 
  610000   0.97196934    -2.502691    -2.502691   -1.0447403   0.14146203    -2.502691    1.4579507   439061 
  611000   0.97169438   -2.5031122   -2.5031122   -1.0455739   0.13929057   -2.5031122    1.4575383   439061 
  612000   0.97201781   -2.5030731   -2.5030731   -1.0450498    0.1375192   -2.5030731    1.4580234   439061 
  613000    0.9712657   -2.5028556   -2.5028556   -1.0459603   0.14196537   -2.5028556    1.4568952   439061 
  614000   0.97300245   -2.5051678   -2.5051678   -1.0456675   0.14247103   -2.5051678    1.4595004   439061 
  615000   0.97221041   -2.5043937   -2.5043937   -1.0460814   0.14501436   -2.5043937    1.4583123   439061 
  616000    0.9723604    -2.502894    -2.502894   -1.0443567    0.1453641    -2.502894    1.4585373   439061 
  617000   0.97211108   -2.5023294   -2.5023294   -1.0441661   0.13966485   -2.5023294    1.4581633   439061 
  618000   0.97306443   -2.5044989   -2.5044989   -1.0449056   0.13844757   -2.5044989    1.4595933   439061 
  619000   0.97353745   -2.5054318   -2.5054318    -1.045129   0.14238571   -2.5054318    1.4603029   439061 
  620000   0.97219872   -2.5040596   -2.5040596   -1.0457648   0.14135474   -2.5040596    1.4582948   439061 
  621000   0.97252966   -2.5061659   -2.5061659   -1.0473747   0.13960633   -2.5061659    1.4587912   439061 
  622000   0.97147093   -2.5038886   -2.5038886   -1.0466855   0.14253342   -2.5038886    1.4572031   439061 
  623000   0.97231674   -2.5063154   -2.5063154   -1.0478436   0.13868423   -2.5063154    1.4584718   439061 
  624000   0.96981282   -2.5036207   -2.5036207   -1.0489048    0.1375336   -2.5036207    1.4547159   439061 
  625000   0.97071268   -2.5033898   -2.5033898   -1.0473241   0.14106084   -2.5033898    1.4560657   439061 
  626000   0.97086813   -2.5050368   -2.5050368   -1.0487379   0.13815903   -2.5050368    1.4562989   439061 
  627000   0.96961783   -2.5027562   -2.5027562   -1.0483327   0.13749935   -2.5027562    1.4544234   439061 
  628000   0.96864381   -2.5017728   -2.5017728   -1.0488104   0.14486315   -2.5017728    1.4529624   439061 
  629000   0.97115112    -2.505069    -2.505069   -1.0483456   0.14120123    -2.505069    1.4567234   439061 
  630000   0.96971276   -2.5042057   -2.5042057   -1.0496398   0.13212026   -2.5042057    1.4545658   439061 
  631000   0.96936653   -2.5049572   -2.5049572   -1.0509107   0.13845449   -2.5049572    1.4540465   439061 
  632000   0.96961146   -2.5060818   -2.5060818   -1.0516679   0.13981093   -2.5060818    1.4544139   439061 
  633000   0.96903357    -2.505516    -2.505516   -1.0519689   0.14049887    -2.505516     1.453547   439061 
  634000   0.96818562   -2.5044736   -2.5044736   -1.0521985   0.14022474   -2.5044736    1.4522751   439061 
  635000   0.96955875   -2.5055375   -2.5055375   -1.0512027   0.13819786   -2.5055375    1.4543348   439061 
  636000   0.96987073   -2.5058726   -2.5058726   -1.0510698    0.1382259   -2.5058726    1.4548028   439061 
  637000   0.96940647   -2.5058676   -2.5058676   -1.0517612   0.13602567   -2.5058676    1.4541064   439061 
  638000   0.96926656   -2.5052242   -2.5052242   -1.0513277   0.14147923   -2.5052242    1.4538965   439061 
  639000   0.97037662   -2.5072128   -2.5072128   -1.0516512   0.13854113   -2.5072128    1.4555616   439061 
  640000   0.96905358   -2.5066963   -2.5066963   -1.0531192   0.13861105   -2.5066963    1.4535771   439061 
  641000   0.96917284   -2.5084017   -2.5084017   -1.0546458   0.13541131   -2.5084017     1.453756   439061 
  642000    0.9696064   -2.5091814   -2.5091814   -1.0547752   0.13916717   -2.5091814    1.4544063   439061 
  643000    0.9680448   -2.5082894   -2.5082894   -1.0562255   0.14006636   -2.5082894    1.4520639   439061 
  644000   0.96830477     -2.50848     -2.50848   -1.0560261   0.13788737     -2.50848    1.4524539   439061 
  645000    0.9677827   -2.5086111   -2.5086111   -1.0569404   0.14038115   -2.5086111    1.4516707   439061 
  646000   0.96745801   -2.5077044   -2.5077044   -1.0565207    0.1394273   -2.5077044    1.4511837   439061 
  647000   0.96918776   -2.5106435   -2.5106435   -1.0568652   0.13999992   -2.5106435    1.4537783   439061 
  648000   0.96884458   -2.5105749   -2.5105749   -1.0573114   0.13712284   -2.5105749    1.4532636   439061 
  649000   0.96695512   -2.5085891   -2.5085891   -1.0581597   0.13913869   -2.5085891    1.4504294   439061 
  650000   0.96716099   -2.5111721   -2.5111721   -1.0604339   0.13483137   -2.5111721    1.4507382   439061 
  651000   0.96672339   -2.5102183   -2.5102183   -1.0601365   0.13321267   -2.5102183    1.4500818   439061 
  652000   0.96813811   -2.5120478   -2.5120478   -1.0598439   0.13491307   -2.5120478    1.4522039   439061 
  653000   0.96723068   -2.5107677   -2.5107677    -1.059925   0.13385443   -2.5107677    1.4508427   439061 
  654000    0.9690554   -2.5120107   -2.5120107   -1.0584309   0.13742889   -2.5120107    1.4535798   439061 
  655000   0.96722198   -2.5108013   -2.5108013   -1.0599716   0.13825367   -2.5108013    1.4508297   439061 
  656000   0.96710071   -2.5092686   -2.5092686   -1.0586208   0.13903388   -2.5092686    1.4506478   439061 
  657000   0.96824715   -2.5104925   -2.5104925   -1.0581251   0.13885575   -2.5104925    1.4523674   439061 
  658000    0.9670186   -2.5089757   -2.5089757   -1.0584511   0.13895555   -2.5089757    1.4505246   439061 
  659000   0.96951081   -2.5107388   -2.5107388   -1.0564759   0.13912244   -2.5107388    1.4542629   439061 
  660000   0.97044199   -2.5104997   -2.5104997     -1.05484   0.13641749   -2.5104997    1.4556597   439061 
  661000   0.96819763    -2.508239    -2.508239   -1.0559458   0.14091369    -2.508239    1.4522931   439061 
  662000   0.96653436   -2.5069027   -2.5069027   -1.0571044    0.1362074   -2.5069027    1.4497982   439061 
  663000   0.96784484   -2.5096411   -2.5096411   -1.0578771   0.13753189   -2.5096411     1.451764   439061 
  664000    0.9676522   -2.5090873   -2.5090873   -1.0576123   0.13554391   -2.5090873     1.451475   439061 
  665000   0.96659488   -2.5072612   -2.5072612   -1.0573722   0.12970417   -2.5072612     1.449889   439061 
  666000   0.96596877   -2.5064326   -2.5064326   -1.0574827     0.137768   -2.5064326    1.4489498   439061 
  667000   0.96698829   -2.5066844   -2.5066844   -1.0562053   0.13384194   -2.5066844    1.4504791   439061 
  668000   0.96732168    -2.507771    -2.507771   -1.0567918   0.13630798    -2.507771    1.4509792   439061 
  669000   0.96692227   -2.5055288   -2.5055288   -1.0551487   0.13495765   -2.5055288    1.4503801   439061 
  670000   0.96763256   -2.5071948   -2.5071948   -1.0557492   0.13659325   -2.5071948    1.4514455   439061 
  671000   0.96715779    -2.507442    -2.507442   -1.0567086   0.13773608    -2.507442    1.4507334   439061 
  672000   0.96749243   -2.5085769   -2.5085769   -1.0573416   0.13649164   -2.5085769    1.4512353   439061 
  673000   0.96683679   -2.5076391   -2.5076391   -1.0573872    0.1394033   -2.5076391    1.4502519   439061 
  674000   0.96601482   -2.5068517   -2.5068517   -1.0578328   0.13597262   -2.5068517    1.4490189   439061 
  675000   0.96601988   -2.5078275   -2.5078275    -1.058801   0.13611984   -2.5078275    1.4490265   439061 
  676000    0.9661751   -2.5086684   -2.5086684    -1.059409   0.13243664   -2.5086684    1.4492594   439061 
  677000   0.96642168   -2.5094086   -2.5094086   -1.0597794   0.13438739   -2.5094086    1.4496292   439061 
  678000   0.96406959   -2.5058343   -2.5058343   -1.0597332   0.13618582   -2.5058343    1.4461011   439061 
  679000   0.96481652   -2.5077404   -2.5077404   -1.0605189   0.13552242   -2.5077404    1.4472215   439061 
  680000   0.96445246   -2.5072452   -2.5072452   -1.0605698   0.13632434   -2.5072452    1.4466754   439061 
  681000   0.96530917   -2.5090238   -2.5090238   -1.0610634   0.13071243   -2.5090238    1.4479605   439061 
  682000   0.96580013    -2.510777    -2.510777   -1.0620801   0.13456997    -2.510777    1.4486969   439061 
  683000   0.96514209   -2.5091499   -2.5091499     -1.06144   0.13565932   -2.5091499    1.4477098   439061 
  684000   0.96543517   -2.5103769   -2.5103769   -1.0622275    0.1342451   -2.5103769    1.4481495   439061 
  685000   0.96527015   -2.5105692   -2.5105692   -1.0626672    0.1349111   -2.5105692    1.4479019   439061 
  686000   0.96594164    -2.510128    -2.510128   -1.0612188   0.13709858    -2.510128    1.4489092   439061 
  687000   0.96577635   -2.5111664   -2.5111664   -1.0625052    0.1313284   -2.5111664    1.4486612   439061 
  688000   0.96469884   -2.5092869   -2.5092869   -1.0622419   0.13944172   -2.5092869     1.447045   439061 
  689000   0.96630461   -2.5132244   -2.5132244   -1.0637708   0.13507549   -2.5132244    1.4494536   439061 
  690000   0.96655364    -2.513545    -2.513545   -1.0637179   0.13751148    -2.513545    1.4498272   439061 
  691000   0.96421123   -2.5123709   -2.5123709   -1.0660574    0.1401242   -2.5123709    1.4463135   439061 
  692000   0.96467423   -2.5125342   -2.5125342   -1.0655262   0.13659034   -2.5125342     1.447008   439061 
  693000   0.96457434   -2.5127009   -2.5127009   -1.0658427   0.13943118   -2.5127009    1.4468582   439061 
  694000   0.96500476   -2.5136079   -2.5136079   -1.0661041     0.134326   -2.5136079    1.4475038   439061 
  695000   0.96434463   -2.5144295   -2.5144295   -1.0679159   0.13842274   -2.5144295    1.4465137   439061 
  696000    0.9642585   -2.5146656   -2.5146656   -1.0682811   0.13404352   -2.5146656    1.4463845   439061 
  697000   0.96424108   -2.5136837   -2.5136837   -1.0673254   0.12922026   -2.5136837    1.4463583   439061 
  698000   0.96376407   -2.5131735   -2.5131735   -1.0675307   0.13485737   -2.5131735    1.4456428   439061 
  699000   0.96493579   -2.5142864   -2.5142864    -1.066886   0.13368371   -2.5142864    1.4474004   439061 
  700000   0.96497357   -2.5139747   -2.5139747   -1.0665177   0.13185572   -2.5139747    1.4474571   439061 
  701000   0.96623123   -2.5156185   -2.5156185    -1.066275    0.1350914   -2.5156185    1.4493435   439061 
  702000   0.96486551   -2.5130842   -2.5130842   -1.0657893   0.13610176   -2.5130842     1.447295   439061 
  703000   0.96464988   -2.5137044   -2.5137044   -1.0667328   0.13722742   -2.5137044    1.4469715   439061 
  704000   0.96457858   -2.5117985   -2.5117985   -1.0649339   0.13769883   -2.5117985    1.4468646   439061 
  705000   0.96412789   -2.5133442   -2.5133442   -1.0671556   0.13217427   -2.5133442    1.4461885   439061 
  706000   0.96435176     -2.51404     -2.51404   -1.0675157   0.13022136     -2.51404    1.4465243   439061 
  707000   0.96453954    -2.514456    -2.514456     -1.06765     0.132433    -2.514456     1.446806   439061 
  708000    0.9634856   -2.5150553   -2.5150553   -1.0698302   0.12564649   -2.5150553    1.4452251   439061 
  709000    0.9637396   -2.5148679   -2.5148679   -1.0692618   0.13048666   -2.5148679    1.4456061   439061 
  710000   0.96223406   -2.5131062   -2.5131062   -1.0697584    0.1314628   -2.5131062    1.4433478   439061 
  711000   0.96069789   -2.5103213   -2.5103213   -1.0692777    0.1348378   -2.5103213    1.4410435   439061 
  712000   0.96305692   -2.5137065   -2.5137065   -1.0691244   0.13029109   -2.5137065    1.4445821   439061 
  713000   0.96236831    -2.512491    -2.512491   -1.0689418   0.13375038    -2.512491    1.4435492   439061 
  714000   0.96305279   -2.5129547   -2.5129547   -1.0683788   0.12744211   -2.5129547    1.4445759   439061 
  715000   0.96182108   -2.5112762   -2.5112762   -1.0685478   0.13231623   -2.5112762    1.4427283   439061 
  716000   0.96268569    -2.513559    -2.513559   -1.0695337   0.13553776    -2.513559    1.4440252   439061 
  717000   0.96123118   -2.5127115   -2.5127115    -1.070868   0.13322539   -2.5127115    1.4418435   439061 
  718000    0.9622963   -2.5147008   -2.5147008   -1.0712596   0.12566638   -2.5147008    1.4434412   439061 
  719000   0.96099984   -2.5130259   -2.5130259   -1.0715294   0.13541868   -2.5130259    1.4414965   439061 
  720000   0.96129919   -2.5130086   -2.5130086   -1.0710631   0.12821924   -2.5130086    1.4419455   439061 
  721000   0.96137954   -2.5140469   -2.5140469   -1.0719808   0.12818293   -2.5140469     1.442066   439061 
  722000   0.96075849   -2.5142271   -2.5142271   -1.0730927   0.12868223   -2.5142271    1.4411344   439061 
  723000   0.96063361    -2.513948    -2.513948   -1.0730008   0.13352486    -2.513948    1.4409471   439061 
  724000   0.96254749   -2.5156101   -2.5156101   -1.0717921   0.12574897   -2.5156101    1.4438179   439061 
  725000   0.96166344    -2.514699    -2.514699   -1.0722072   0.13207013    -2.514699    1.4424919   439061 
  726000   0.96255592   -2.5158117   -2.5158117   -1.0719812   0.12988095   -2.5158117    1.4438306   439061 
  727000   0.96152062   -2.5133929   -2.5133929   -1.0711152   0.12743983   -2.5133929    1.4422776   439061 
  728000    0.9610621   -2.5125869   -2.5125869    -1.070997   0.13042231   -2.5125869    1.4415899   439061 
  729000   0.96206565    -2.515057    -2.515057   -1.0719618   0.12462485    -2.515057    1.4430952   439061 
  730000   0.96146845   -2.5139621   -2.5139621   -1.0717627   0.12784039   -2.5139621    1.4421994   439061 
  731000    0.9617742   -2.5142073   -2.5142073   -1.0715493   0.13425694   -2.5142073     1.442658   439061 
  732000    0.9626656   -2.5151722   -2.5151722   -1.0711771   0.13127291   -2.5151722    1.4439951   439061 
  733000   0.96134713    -2.514395    -2.514395   -1.0723775   0.12857335    -2.514395    1.4420174   439061 
  734000   0.96252969    -2.514428    -2.514428   -1.0706368   0.13417844    -2.514428    1.4437913   439061 
  735000   0.96143784   -2.5150434   -2.5150434   -1.0728899   0.12800119   -2.5150434    1.4421535   439061 
  736000   0.96073777   -2.5142221   -2.5142221   -1.0731187   0.13099772   -2.5142221    1.4411034   439061 
  737000   0.96191962   -2.5164715   -2.5164715   -1.0735954   0.12731227   -2.5164715    1.4428761   439061 
  738000   0.96111748   -2.5166811   -2.5166811   -1.0750082   0.12543327   -2.5166811    1.4416729   439061 
  739000   0.96054371   -2.5152955   -2.5152955   -1.0744832   0.13044295   -2.5152955    1.4408123   439061 
  740000   0.96129243   -2.5173581   -2.5173581   -1.0754227   0.12596652   -2.5173581    1.4419354   439061 
  741000    0.9612419   -2.5167995   -2.5167995     -1.07494   0.12855063   -2.5167995    1.4418596   439061 
  742000    0.9618795    -2.515919    -2.515919    -1.073103   0.13130928    -2.515919     1.442816   439061 
  743000   0.96143296   -2.5164662   -2.5164662   -1.0743201   0.13391371   -2.5164662    1.4421462   439061 
  744000   0.96149187   -2.5166499   -2.5166499   -1.0744153   0.12954193   -2.5166499    1.4422345   439061 
  745000   0.96143538   -2.5172103   -2.5172103   -1.0750605   0.12945613   -2.5172103    1.4421498   439061 
  746000   0.96044144   -2.5149814   -2.5149814   -1.0743225   0.13221306   -2.5149814    1.4406589   439061 
  747000   0.95884552   -2.5131202   -2.5131202   -1.0748552   0.12831641   -2.5131202     1.438265   439061 
  748000   0.96206846   -2.5171299   -2.5171299   -1.0740305   0.12927981   -2.5171299    1.4430994   439061 
  749000   0.96094381   -2.5159984   -2.5159984    -1.074586   0.12857174   -2.5159984    1.4414124   439061 
  750000   0.95946554   -2.5153477   -2.5153477   -1.0761526   0.12399337   -2.5153477     1.439195   439061 
  751000   0.95967677   -2.5153238   -2.5153238   -1.0758119   0.13341743   -2.5153238    1.4395119   439061 
  752000   0.95925497   -2.5154967   -2.5154967   -1.0766175   0.12260621   -2.5154967    1.4388792   439061 
  753000   0.95932853   -2.5159761   -2.5159761   -1.0769866   0.12812694   -2.5159761    1.4389895   439061 
  754000   0.95976502   -2.5155373   -2.5155373   -1.0758931   0.12981836   -2.5155373    1.4396443   439061 
  755000   0.95915461    -2.513595    -2.513595   -1.0748664   0.13140348    -2.513595    1.4387286   439061 
  756000   0.96006284   -2.5153491   -2.5153491   -1.0752582   0.12961209   -2.5153491     1.440091   439061 
  757000    0.9603353   -2.5159856   -2.5159856   -1.0754859   0.12887825   -2.5159856    1.4404997   439061 
  758000   0.95929726   -2.5166582   -2.5166582   -1.0777156   0.12776485   -2.5166582    1.4389426   439061 
  759000   0.95848676   -2.5157677   -2.5157677   -1.0780408   0.12636723   -2.5157677    1.4377269   439061 
  760000    0.9603565   -2.5186893   -2.5186893   -1.0781578     0.130291   -2.5186893    1.4405315   439061 
  761000   0.95991416   -2.5178981   -2.5178981   -1.0780301    0.1255313   -2.5178981     1.439868   439061 
  762000   0.95946486   -2.5169714   -2.5169714   -1.0777774   0.12826408   -2.5169714     1.439194   439061 
  763000   0.95857737   -2.5167238   -2.5167238    -1.078861   0.13619275   -2.5167238    1.4378628   439061 
  764000   0.95880778   -2.5173108   -2.5173108   -1.0791024   0.13071431   -2.5173108    1.4382084   439061 
  765000   0.96000121   -2.5198172   -2.5198172   -1.0798187   0.13002227   -2.5198172    1.4399985   439061 
  766000   0.95897813   -2.5178838   -2.5178838   -1.0794199   0.12881978   -2.5178838    1.4384639   439061 
  767000    0.9587853   -2.5178562   -2.5178562   -1.0796815    0.1305744   -2.5178562    1.4381747   439061 
  768000   0.95857078   -2.5198017   -2.5198017   -1.0819488   0.12896978   -2.5198017    1.4378529   439061 
  769000   0.95877335   -2.5183643   -2.5183643   -1.0802076   0.12653455   -2.5183643    1.4381567   439061 
  770000   0.95939733   -2.5185876   -2.5185876   -1.0794948   0.12445984   -2.5185876    1.4390927   439061 
  771000   0.95718997   -2.5160158   -2.5160158   -1.0802341   0.12924503   -2.5160158    1.4357817   439061 
  772000   0.95810084   -2.5169932   -2.5169932   -1.0798452   0.12927535   -2.5169932     1.437148   439061 
  773000   0.95972541   -2.5189447   -2.5189447   -1.0793599   0.13049092   -2.5189447    1.4395848   439061 
  774000   0.95727094   -2.5170218   -2.5170218   -1.0811187   0.12619286   -2.5170218    1.4359031   439061 
  775000   0.95867846   -2.5187181   -2.5187181   -1.0807037   0.12747958   -2.5187181    1.4380144   439061 
  776000   0.95782349   -2.5189455   -2.5189455   -1.0822135   0.12655476   -2.5189455     1.436732   439061 
  777000   0.95864492   -2.5197903   -2.5197903   -1.0818262   0.12485649   -2.5197903    1.4379641   439061 
  778000    0.9573903   -2.5182086   -2.5182086   -1.0821264   0.12407486   -2.5182086    1.4360822   439061 
  779000   0.95854103   -2.5217033   -2.5217033    -1.083895   0.12242152   -2.5217033    1.4378083   439061 
  780000   0.95531395   -2.5173633   -2.5173633   -1.0843956   0.12813786   -2.5173633    1.4329677   439061 
  781000   0.95722894   -2.5186523   -2.5186523   -1.0828122   0.12980903   -2.5186523    1.4358401   439061 
  782000   0.95756039   -2.5180898   -2.5180898   -1.0817525   0.12533085   -2.5180898    1.4363373   439061 
  783000   0.95619259   -2.5173568   -2.5173568   -1.0830712   0.12826568   -2.5173568    1.4342856   439061 
  784000   0.95743922   -2.5183262   -2.5183262   -1.0821706   0.12676629   -2.5183262    1.4361556   439061 
  785000   0.95794498   -2.5193192   -2.5193192   -1.0824051   0.12369569   -2.5193192    1.4369142   439061 
  786000   0.95633653   -2.5163309   -2.5163309   -1.0818293   0.13137154   -2.5163309    1.4345015   439061 
  787000   0.95878589   -2.5201231   -2.5201231   -1.0819475    0.1242171   -2.5201231    1.4381756   439061 
  788000   0.95665951   -2.5153686   -2.5153686   -1.0803826   0.13140934   -2.5153686     1.434986   439061 
  789000   0.95673075   -2.5161644   -2.5161644   -1.0810715   0.12821633   -2.5161644    1.4350929   439061 
  790000   0.95608585   -2.5153135   -2.5153135    -1.081188   0.12751003   -2.5153135    1.4341255   439061 
  791000   0.95729603   -2.5175679   -2.5175679   -1.0816271   0.12014355   -2.5175679    1.4359408   439061 
  792000   0.95678573   -2.5182306   -2.5182306   -1.0830552   0.12442645   -2.5182306    1.4351753   439061 
  793000   0.95521824   -2.5160512   -2.5160512   -1.0832271   0.12606274   -2.5160512    1.4328241   439061 
  794000   0.95392047   -2.5146767   -2.5146767   -1.0837992   0.12701289   -2.5146767    1.4308775   439061 
  795000   0.95463838   -2.5154221   -2.5154221   -1.0834678   0.12208825   -2.5154221    1.4319543   439061 
  796000   0.95675912   -2.5185515   -2.5185515   -1.0834161    0.1240164   -2.5185515    1.4351354   439061 
  797000   0.95776284   -2.5195565   -2.5195565   -1.0829155   0.12197546   -2.5195565     1.436641   439061 
  798000   0.95712673   -2.5188718   -2.5188718    -1.083185   0.12712195   -2.5188718    1.4356868   439061 
  799000   0.95609691   -2.5164278   -2.5164278   -1.0822857   0.12524832   -2.5164278    1.4341421   439061 
  800000   0.95640441   -2.5179225   -2.5179225   -1.0833191    0.1287679   -2.5179225    1.4346033   439061 
  801000   0.95729013   -2.5192071   -2.5192071   -1.0832751   0.12909625   -2.5192071    1.4359319   439061 
  802000   0.95893111   -2.5220553   -2.5220553    -1.083662   0.12560195   -2.5220553    1.4383934   439061 
  803000   0.95615591   -2.5177959   -2.5177959   -1.0835653   0.12612577   -2.5177959    1.4342306   439061 
  804000   0.95672592   -2.5199217   -2.5199217   -1.0848361   0.12840364   -2.5199217    1.4350856   439061 
  805000   0.95756972   -2.5210034   -2.5210034   -1.0846521   0.12362639   -2.5210034    1.4363513   439061 
  806000   0.95680334   -2.5208992   -2.5208992   -1.0856974   0.12571556   -2.5208992    1.4352017   439061 
  807000   0.95598056   -2.5197012   -2.5197012   -1.0857336    0.1243719   -2.5197012    1.4339676   439061 
  808000   0.95599886   -2.5212537   -2.5212537   -1.0872586   0.12159622   -2.5212537     1.433995   439061 
  809000    0.9558867   -2.5197857   -2.5197857   -1.0859589    0.1273003   -2.5197857    1.4338268   439061 
  810000    0.9551821   -2.5193446   -2.5193446   -1.0865747    0.1255299   -2.5193446    1.4327699   439061 
  811000   0.95554513   -2.5204373   -2.5204373   -1.0871228   0.12590947   -2.5204373    1.4333144   439061 
  812000   0.95460171   -2.5190731   -2.5190731   -1.0871738   0.12245184   -2.5190731    1.4318993   439061 
  813000   0.95529186   -2.5215859   -2.5215859   -1.0886514   0.12210398   -2.5215859    1.4329345   439061 
  814000   0.95609875   -2.5214954   -2.5214954   -1.0873505   0.12420181   -2.5214954    1.4341449   439061 
  815000   0.95543089   -2.5200182   -2.5200182   -1.0868752    0.1196369   -2.5200182    1.4331431   439061 
  816000   0.95547798   -2.5197383   -2.5197383   -1.0865246   0.12113708   -2.5197383    1.4332137   439061 
  817000   0.95474043   -2.5203026   -2.5203026   -1.0881952   0.11968822   -2.5203026    1.4321074   439061 
  818000   0.95460198    -2.519648    -2.519648   -1.0877483   0.11959314    -2.519648    1.4318997   439061 
  819000   0.95555945   -2.5208378   -2.5208378   -1.0875019   0.12443014   -2.5208378    1.4333359   439061 
  820000    0.9561627   -2.5203356   -2.5203356   -1.0860948   0.12552305   -2.5203356    1.4342408   439061 
  821000   0.95679376   -2.5215358   -2.5215358   -1.0863484   0.12493707   -2.5215358    1.4351874   439061 
  822000   0.95688177    -2.522516    -2.522516   -1.0871966   0.12297514    -2.522516    1.4353194   439061 
  823000   0.95643922   -2.5223881   -2.5223881   -1.0877325   0.12567165   -2.5223881    1.4346556   439061 
  824000   0.95573159   -2.5214495   -2.5214495   -1.0878553   0.12394697   -2.5214495    1.4335941   439061 
  825000   0.95514532     -2.51974     -2.51974   -1.0870252   0.12559464     -2.51974    1.4327147   439061 
  826000    0.9554262   -2.5196328   -2.5196328   -1.0864968    0.1253899   -2.5196328     1.433136   439061 
  827000   0.95446064   -2.5190981   -2.5190981   -1.0874104   0.12262451   -2.5190981    1.4316877   439061 
  828000   0.95539641   -2.5203461   -2.5203461   -1.0872548   0.12252866   -2.5203461    1.4330913   439061 
  829000   0.95472067   -2.5196933   -2.5196933   -1.0876156   0.11972802   -2.5196933    1.4320777   439061 
  830000   0.95516227    -2.520084    -2.520084   -1.0873438   0.12239273    -2.520084    1.4327401   439061 
  831000   0.95415638   -2.5188522   -2.5188522   -1.0876208    0.1237654   -2.5188522    1.4312313   439061 
  832000    0.9551956   -2.5196685   -2.5196685   -1.0868783   0.11874946   -2.5196685    1.4327901   439061 
  833000    0.9555003   -2.5201563   -2.5201563   -1.0869092    0.1249248   -2.5201563    1.4332472   439061 
  834000   0.95663299   -2.5219546   -2.5219546   -1.0870084   0.12241685   -2.5219546    1.4349462   439061 
  835000   0.95418544   -2.5198277   -2.5198277   -1.0885528   0.12110428   -2.5198277    1.4312749   439061 
  836000    0.9560751   -2.5217073   -2.5217073    -1.087598   0.12027012   -2.5217073    1.4341094   439061 
  837000   0.95439204   -2.5200743   -2.5200743   -1.0884895   0.12178078   -2.5200743    1.4315848   439061 
  838000   0.95353178   -2.5189408   -2.5189408   -1.0886464   0.12339003   -2.5189408    1.4302944   439061 
  839000   0.95509127    -2.520412    -2.520412   -1.0877784     0.123157    -2.520412    1.4326336   439061 
  840000   0.95475479   -2.5202275   -2.5202275   -1.0880986    0.1218581   -2.5202275    1.4321289   439061 
  841000   0.95466603   -2.5201645   -2.5201645   -1.0881687   0.12301161   -2.5201645    1.4319958   439061 
  842000   0.95401225   -2.5188148   -2.5188148   -1.0877997   0.12732432   -2.5188148    1.4310151   439061 
  843000   0.95466482   -2.5205422   -2.5205422   -1.0885483   0.11862024   -2.5205422     1.431994   439061 
  844000   0.95401953   -2.5197889   -2.5197889   -1.0887629    0.1209064   -2.5197889     1.431026   439061 
  845000   0.95475586   -2.5208164   -2.5208164   -1.0886859   0.12033795   -2.5208164    1.4321305   439061 
  846000   0.95314725   -2.5171621   -2.5171621   -1.0874445   0.12483998   -2.5171621    1.4297176   439061 
  847000   0.95523186   -2.5206936   -2.5206936   -1.0878491   0.12107366   -2.5206936    1.4328445   439061 
  848000   0.95295374   -2.5185449   -2.5185449   -1.0891175   0.12451746   -2.5185449    1.4294274   439061 
  849000   0.95548415   -2.5227816   -2.5227816   -1.0895586   0.11805383   -2.5227816     1.433223   439061 
  850000   0.95370901   -2.5215683   -2.5215683   -1.0910081    0.1166065   -2.5215683    1.4305603   439061 
  851000   0.95357689   -2.5221903   -2.5221903   -1.0918282   0.11524717   -2.5221903    1.4303621   439061 
  852000   0.95321689   -2.5210362   -2.5210362   -1.0912141   0.11820228   -2.5210362    1.4298221   439061 
  853000    0.9538389   -2.5211893   -2.5211893   -1.0904343   0.11849694   -2.5211893    1.4307551   439061 
  854000   0.95422916   -2.5203731   -2.5203731   -1.0890327   0.12346685   -2.5203731    1.4313405   439061 
  855000   0.95308351   -2.5205143   -2.5205143   -1.0908922   0.12426557   -2.5205143     1.429622   439061 
  856000   0.95386552   -2.5210835   -2.5210835   -1.0902884   0.12283445   -2.5210835     1.430795   439061 
  857000   0.95218998    -2.519756    -2.519756   -1.0914743    0.1228398    -2.519756    1.4282817   439061 
  858000   0.95292225   -2.5216654   -2.5216654   -1.0922853   0.11853625   -2.5216654    1.4293801   439061 
  859000   0.95363945   -2.5221914   -2.5221914   -1.0917355   0.12363849   -2.5221914    1.4304559   439061 
  860000    0.9537795   -2.5221729   -2.5221729   -1.0915069   0.11711692   -2.5221729     1.430666   439061 
  861000   0.95387121   -2.5220294   -2.5220294   -1.0912258   0.12210522   -2.5220294    1.4308036   439061 
  862000   0.95253469   -2.5191373   -2.5191373   -1.0903385   0.12712132   -2.5191373    1.4287988   439061 
  863000   0.95427283   -2.5222316   -2.5222316   -1.0908256   0.12562076   -2.5222316     1.431406   439061 
  864000   0.95311099   -2.5207323   -2.5207323   -1.0910691   0.12232994   -2.5207323    1.4296632   439061 
  865000    0.9530731    -2.519122    -2.519122   -1.0895156   0.12322656    -2.519122    1.4296064   439061 
  866000   0.95441232   -2.5228462   -2.5228462    -1.091231   0.11952078   -2.5228462    1.4316152   439061 
  867000   0.95276525   -2.5220665   -2.5220665   -1.0929219   0.12090831   -2.5220665    1.4291446   439061 
  868000   0.95453308   -2.5254056   -2.5254056   -1.0936092   0.11586389   -2.5254056    1.4317964   439061 
  869000   0.95263488   -2.5222793   -2.5222793   -1.0933303   0.12185592   -2.5222793    1.4289491   439061 
  870000   0.95283205    -2.523752    -2.523752   -1.0945072   0.11933163    -2.523752    1.4292448   439061 
  871000    0.9521627   -2.5230319   -2.5230319   -1.0947911   0.11844969   -2.5230319    1.4282408   439061 
  872000   0.95123797   -2.5223212   -2.5223212   -1.0954675   0.11981391   -2.5223212    1.4268537   439061 
  873000   0.95177117   -2.5241605   -2.5241605    -1.096507   0.11827332   -2.5241605    1.4276535   439061 
  874000   0.95355832   -2.5279655   -2.5279655   -1.0976313   0.11997945   -2.5279655    1.4303342   439061 
  875000   0.95116699   -2.5240123   -2.5240123    -1.097265   0.12320752   -2.5240123    1.4267472   439061 
  876000   0.95018242   -2.5224832   -2.5224832   -1.0972128   0.11734333   -2.5224832    1.4252704   439061 
  877000    0.9509554   -2.5230247   -2.5230247   -1.0965948    0.1179416   -2.5230247    1.4264299   439061 
  878000   0.94977399   -2.5221428   -2.5221428   -1.0974851   0.12153122   -2.5221428    1.4246577   439061 
  879000   0.95036049   -2.5222261   -2.5222261   -1.0966886    0.1194384   -2.5222261    1.4255375   439061 
  880000   0.95126422   -2.5238508   -2.5238508   -1.0969577   0.12138182   -2.5238508    1.4268931   439061 
  881000   0.95090873   -2.5250291   -2.5250291   -1.0986693   0.11405518   -2.5250291    1.4263599   439061 
  882000   0.95117707   -2.5248416   -2.5248416   -1.0980792    0.1225373   -2.5248416    1.4267623   439061 
  883000   0.95262268   -2.5269649   -2.5269649   -1.0980342   0.12181648   -2.5269649    1.4289308   439061 
  884000   0.95242652   -2.5268383   -2.5268383   -1.0982018    0.1206341   -2.5268383    1.4286365   439061 
  885000   0.95032656   -2.5244179   -2.5244179   -1.0989313   0.12233485   -2.5244179    1.4254866   439061 
  886000   0.95264893   -2.5272634   -2.5272634   -1.0982933   0.11765549   -2.5272634    1.4289701   439061 
  887000   0.95034733   -2.5246954   -2.5246954   -1.0991776    0.1210655   -2.5246954    1.4255177   439061 
  888000   0.95242335   -2.5268769   -2.5268769   -1.0982451   0.12311902   -2.5268769    1.4286318   439061 
  889000   0.95089754   -2.5263961   -2.5263961    -1.100053   0.12012277   -2.5263961    1.4263431   439061 
  890000   0.95022959   -2.5260726   -2.5260726   -1.1007314   0.12149338   -2.5260726    1.4253411   439061 
  891000   0.95054028   -2.5269738   -2.5269738   -1.1011666   0.12177319   -2.5269738    1.4258072   439061 
  892000   0.94931816   -2.5261994   -2.5261994   -1.1022254   0.12105043   -2.5261994     1.423974   439061 
  893000   0.94990611   -2.5278519   -2.5278519    -1.102996   0.11881938   -2.5278519    1.4248559   439061 
  894000   0.94927745   -2.5273635   -2.5273635   -1.1034506   0.11848813   -2.5273635    1.4239129   439061 
  895000   0.95084083   -2.5292795   -2.5292795   -1.1030215   0.11717744   -2.5292795     1.426258   439061 
  896000    0.9488161   -2.5260039   -2.5260039    -1.102783     0.116355   -2.5260039    1.4232209   439061 
  897000   0.95022121    -2.527912    -2.527912   -1.1025835   0.12072366    -2.527912    1.4253286   439061 
  898000   0.94994264   -2.5278945   -2.5278945   -1.1029838   0.11692527   -2.5278945    1.4249107   439061 
  899000   0.94967131   -2.5267652   -2.5267652   -1.1022615   0.11881863   -2.5267652    1.4245037   439061 
  900000   0.95122022   -2.5289616   -2.5289616   -1.1021345   0.11996541   -2.5289616    1.4268271   439061 
  901000   0.95089514   -2.5271471   -2.5271471   -1.1008076   0.12174419   -2.5271471    1.4263395   439061 
  902000   0.95089503   -2.5266524   -2.5266524   -1.1003131   0.12112372   -2.5266524    1.4263393   439061 
  903000   0.95025378   -2.5252317   -2.5252317   -1.0998543   0.12235806   -2.5252317    1.4253774   439061 
  904000   0.95162827   -2.5281015   -2.5281015   -1.1006624   0.11853009   -2.5281015    1.4274392   439061 
  905000   0.95067285   -2.5277923   -2.5277923   -1.1017863     0.121603   -2.5277923     1.426006   439061 
  906000   0.95047148   -2.5282422   -2.5282422   -1.1025382    0.1210048   -2.5282422     1.425704   439061 
  907000   0.94990324   -2.5271708   -2.5271708   -1.1023192   0.11565453   -2.5271708    1.4248516   439061 
  908000   0.94944708   -2.5268222   -2.5268222   -1.1026548   0.12022095   -2.5268222    1.4241674   439061 
  909000   0.94993259   -2.5273465   -2.5273465   -1.1024509   0.11988328   -2.5273465    1.4248956   439061 
  910000   0.94962837   -2.5266348   -2.5266348   -1.1021955   0.12068778   -2.5266348    1.4244393   439061 
  911000   0.94980049   -2.5264104   -2.5264104   -1.1017129   0.12077867   -2.5264104    1.4246975   439061 
  912000   0.95035357   -2.5276684   -2.5276684   -1.1021413   0.11732914   -2.5276684    1.4255271   439061 
  913000   0.95137154   -2.5294547   -2.5294547   -1.1024006   0.12017275   -2.5294547    1.4270541   439061 
  914000   0.95016651   -2.5268164   -2.5268164   -1.1015699   0.11876219   -2.5268164    1.4252465   439061 
  915000   0.95030914   -2.5270496   -2.5270496   -1.1015891   0.11552935   -2.5270496    1.4254605   439061 
  916000   0.94995376   -2.5272006   -2.5272006   -1.1022732   0.12025968   -2.5272006    1.4249274   439061 
  917000   0.94944604   -2.5250509   -2.5250509   -1.1008851   0.11878767   -2.5250509    1.4241658   439061 
  918000   0.95154929   -2.5291064   -2.5291064   -1.1017857    0.1190085   -2.5291064    1.4273207   439061 
  919000   0.94964919   -2.5270596   -2.5270596   -1.1025891    0.1182104   -2.5270596    1.4244705   439061 
  920000   0.94978862   -2.5264665   -2.5264665   -1.1017868   0.12043518   -2.5264665    1.4246797   439061 
  921000   0.95012414   -2.5277991   -2.5277991   -1.1026161    0.1218055   -2.5277991     1.425183   439061 
  922000   0.95009763   -2.5289105   -2.5289105   -1.1037673   0.11449355   -2.5289105    1.4251432   439061 
  923000   0.94966117   -2.5271811   -2.5271811   -1.1026926    0.1142525   -2.5271811    1.4244885   439061 
  924000    0.9483429   -2.5267585   -2.5267585   -1.1042474   0.11144666   -2.5267585    1.4225111   439061 
  925000   0.94973002   -2.5282684   -2.5282684   -1.1036766    0.1147135   -2.5282684    1.4245918   439061 
  926000   0.94776862   -2.5265374   -2.5265374   -1.1048877   0.11452604   -2.5265374    1.4216497   439061 
  927000   0.94975853   -2.5288433   -2.5288433   -1.1042088   0.11694492   -2.5288433    1.4246346   439061 
  928000   0.94747763   -2.5272077   -2.5272077   -1.1059945   0.11552426   -2.5272077    1.4212132   439061 
  929000   0.94800826   -2.5282587   -2.5282587   -1.1062496     0.112141   -2.5282587    1.4220092   439061 
  930000   0.94726681   -2.5278356   -2.5278356   -1.1069386   0.11671546   -2.5278356     1.420897   439061 
  931000   0.94755845   -2.5279196   -2.5279196   -1.1065852     0.116913   -2.5279196    1.4213344   439061 
  932000   0.94721221   -2.5285641   -2.5285641    -1.107749   0.10968396   -2.5285641    1.4208151   439061 
  933000     0.945626    -2.524616    -2.524616   -1.1061802   0.11667069    -2.524616    1.4184358   439061 
  934000   0.94841052   -2.5298085   -2.5298085    -1.107196   0.11554647   -2.5298085    1.4226125   439061 
  935000   0.94718116    -2.528881    -2.528881   -1.1081125    0.1125539    -2.528881    1.4207685   439061 
  936000   0.94713785   -2.5287381   -2.5287381   -1.1080346   0.11893771   -2.5287381    1.4207035   439061 
  937000   0.94888993   -2.5309221   -2.5309221   -1.1075904    0.1154847   -2.5309221    1.4233317   439061 
  938000   0.94847844   -2.5298051   -2.5298051   -1.1070907   0.11887806   -2.5298051    1.4227144   439061 
  939000   0.94788678   -2.5291078   -2.5291078   -1.1072809   0.11772457   -2.5291078    1.4218269   439061 
  940000   0.94849502   -2.5297691   -2.5297691   -1.1070298   0.12024676   -2.5297691    1.4227393   439061 
  941000   0.94771013   -2.5294183   -2.5294183   -1.1078564   0.11890177   -2.5294183     1.421562   439061 
  942000    0.9476883   -2.5291319   -2.5291319   -1.1076027   0.11763133   -2.5291319    1.4215292   439061 
  943000   0.94750145   -2.5285548   -2.5285548   -1.1073059   0.12015443   -2.5285548    1.4212489   439061 
  944000   0.94823079   -2.5287829   -2.5287829     -1.10644   0.11555885   -2.5287829    1.4223429   439061 
  945000   0.94876959   -2.5301216   -2.5301216   -1.1069704   0.11321613   -2.5301216    1.4231511   439061 
  946000   0.94819251   -2.5289637   -2.5289637   -1.1066782   0.11961008   -2.5289637    1.4222855   439061 
  947000   0.94882849   -2.5303596   -2.5303596   -1.1071201    0.1184452   -2.5303596    1.4232395   439061 
  948000   0.94822984   -2.5292723   -2.5292723   -1.1069307   0.11481714   -2.5292723    1.4223415   439061 
  949000   0.94803026   -2.5300346   -2.5300346   -1.1079925   0.11723978   -2.5300346    1.4220421   439061 
  950000   0.94840834    -2.530745    -2.530745   -1.1081357   0.11294496    -2.530745    1.4226093   439061 
  951000   0.94748028    -2.529593    -2.529593   -1.1083758   0.11664252    -2.529593    1.4212172   439061 
  952000   0.94630606   -2.5277298   -2.5277298    -1.108274   0.11709875   -2.5277298    1.4194559   439061 
  953000   0.94588741   -2.5282898   -2.5282898   -1.1094619    0.1156188   -2.5282898    1.4188279   439061 
  954000   0.94613714   -2.5293934   -2.5293934   -1.1101909   0.11475394   -2.5293934    1.4192025   439061 
  955000   0.94777968   -2.5304678   -2.5304678   -1.1088015   0.11539755   -2.5304678    1.4216663   439061 
  956000   0.94783305   -2.5304383   -2.5304383   -1.1086919   0.11590923   -2.5304383    1.4217463   439061 
  957000   0.94664957   -2.5297883   -2.5297883   -1.1098172   0.11527379   -2.5297883    1.4199711   439061 
  958000   0.94707134   -2.5291954   -2.5291954   -1.1085916   0.11435809   -2.5291954    1.4206038   439061 
  959000   0.94702191   -2.5283324   -2.5283324   -1.1078028   0.11381304   -2.5283324    1.4205296   439061 
  960000   0.94839958   -2.5306403   -2.5306403   -1.1080442   0.11385233   -2.5306403    1.4225961   439061 
  961000   0.94803792   -2.5297054   -2.5297054   -1.1076518   0.11571479   -2.5297054    1.4220536   439061 
  962000   0.94829789   -2.5294546   -2.5294546    -1.107011   0.11418746   -2.5294546    1.4224436   439061 
  963000   0.94815813   -2.5284337   -2.5284337   -1.1061998   0.11585925   -2.5284337     1.422234   439061 
  964000   0.94768075   -2.5282064   -2.5282064   -1.1066885   0.11712503   -2.5282064    1.4215179   439061 
  965000   0.94732701   -2.5270864   -2.5270864   -1.1060991   0.11172548   -2.5270864    1.4209873   439061 
  966000   0.94639522   -2.5272777   -2.5272777   -1.1076881   0.11464312   -2.5272777    1.4195896   439061 
  967000   0.94600299   -2.5282237   -2.5282237   -1.1092224   0.10902673   -2.5282237    1.4190012   439061 
  968000   0.94760635   -2.5292293   -2.5292293    -1.107823   0.11155906   -2.5292293    1.4214063   439061 
  969000   0.94882155   -2.5299321   -2.5299321    -1.106703   0.11536512   -2.5299321    1.4232291   439061 
  970000   0.94706731   -2.5282977   -2.5282977      -1.1077   0.11354899   -2.5282977    1.4205977   439061 
  971000   0.94675974   -2.5270053   -2.5270053   -1.1068689   0.11215109   -2.5270053    1.4201364   439061 
  972000   0.94802888   -2.5296335   -2.5296335   -1.1075934   0.10924969   -2.5296335    1.4220401   439061 
  973000   0.94661266   -2.5286904   -2.5286904   -1.1087746   0.11207188   -2.5286904    1.4199158   439061 
  974000   0.94611065   -2.5278238   -2.5278238   -1.1086611   0.11090458   -2.5278238    1.4191627   439061 
  975000     0.946676   -2.5275797   -2.5275797   -1.1075689   0.11396961   -2.5275797    1.4200108   439061 
  976000   0.94672348   -2.5279499   -2.5279499   -1.1078679   0.11618613   -2.5279499     1.420082   439061 
  977000   0.94616543   -2.5278008   -2.5278008   -1.1085559   0.11466158   -2.5278008    1.4192449   439061 
  978000   0.94530854   -2.5268687   -2.5268687   -1.1089092   0.10770028   -2.5268687    1.4179596   439061 
  979000    0.9469044   -2.5301304   -2.5301304    -1.109777   0.11350935   -2.5301304    1.4203534   439061 
  980000   0.94493957   -2.5275776   -2.5275776   -1.1101715   0.11031391   -2.5275776    1.4174061   439061 
  981000   0.94609593   -2.5292024   -2.5292024   -1.1100618   0.11264469   -2.5292024    1.4191407   439061 
  982000   0.94670636   -2.5291351   -2.5291351   -1.1090788   0.12331607   -2.5291351    1.4200563   439061 
  983000     0.946688   -2.5283704   -2.5283704   -1.1083416    0.1116532   -2.5283704    1.4200288   439061 
  984000   0.94697902   -2.5295032   -2.5295032   -1.1090379   0.11419635   -2.5295032    1.4204653   439061 
  985000   0.94685399   -2.5304372   -2.5304372   -1.1101594   0.11497624   -2.5304372    1.4202777   439061 
  986000   0.94816337   -2.5324579   -2.5324579    -1.110216   0.10965795   -2.5324579    1.4222418   439061 
  987000   0.94635274   -2.5294684   -2.5294684   -1.1099425   0.11108346   -2.5294684    1.4195259   439061 
  988000   0.94591258   -2.5296629   -2.5296629   -1.1107973   0.11237845   -2.5296629    1.4188656   439061 
  989000   0.94511495   -2.5304263   -2.5304263   -1.1127571    0.1123977   -2.5304263    1.4176692   439061 
  990000   0.94545019   -2.5300997   -2.5300997   -1.1119276   0.11412548   -2.5300997    1.4181721   439061 
  991000   0.94568377   -2.5295389   -2.5295389   -1.1110165   0.11212565   -2.5295389    1.4185224   439061 
  992000    0.9460563   -2.5300996   -2.5300996   -1.1110184   0.11507166   -2.5300996    1.4190812   439061 
  993000   0.94711071   -2.5308826   -2.5308826   -1.1102198   0.11520048   -2.5308826    1.4206628   439061 
  994000   0.94664559   -2.5286392   -2.5286392    -1.108674    0.1129218   -2.5286392    1.4199651   439061 
  995000   0.94876372   -2.5318741   -2.5318741   -1.1087317   0.11472664   -2.5318741    1.4231423   439061 
  996000   0.94793545   -2.5331254   -2.5331254   -1.1112255   0.11251408   -2.5331254    1.4218999   439061 
  997000   0.94641199   -2.5301413   -2.5301413   -1.1105266   0.11465178   -2.5301413    1.4196147   439061 
  998000   0.94707565   -2.5312924   -2.5312924   -1.1106821   0.11625209   -2.5312924    1.4206102   439061 
  999000   0.94589711   -2.5322443   -2.5322443   -1.1134019   0.11213858   -2.5322443    1.4188424   439061 
 1000000   0.94574957   -2.5319627   -2.5319627   -1.1133416   0.11687695   -2.5319627    1.4186211   439061 
 1001000   0.94556777    -2.531365    -2.531365   -1.1130165    0.1141703    -2.531365    1.4183484   439061 
 1002000   0.94535067    -2.532323    -2.532323   -1.1143003   0.11388526    -2.532323    1.4180228   439061 
 1003000   0.94551901   -2.5322425   -2.5322425   -1.1139672   0.11157002   -2.5322425    1.4182753   439061 
 1004000   0.94530761    -2.532185    -2.532185   -1.1142268   0.11371966    -2.532185    1.4179582   439061 
 1005000    0.9458154   -2.5325956   -2.5325956   -1.1138757   0.11303609   -2.5325956    1.4187199   439061 
 1006000   0.94629039   -2.5333077   -2.5333077   -1.1138753    0.1082026   -2.5333077    1.4194324   439061 
 1007000   0.94476496   -2.5304093   -2.5304093   -1.1132651   0.11505931   -2.5304093    1.4171442   439061 
 1008000   0.94428239   -2.5304922   -2.5304922   -1.1140718   0.11270241   -2.5304922    1.4164204   439061 
 1009000   0.94418393    -2.530112    -2.530112   -1.1138394   0.11047869    -2.530112    1.4162727   439061 
 1010000   0.94447091   -2.5301461   -2.5301461    -1.113443   0.11367053   -2.5301461    1.4167031   439061 
 1011000   0.94491531   -2.5303235   -2.5303235   -1.1129538   0.10855531   -2.5303235    1.4173697   439061 
 1012000   0.94416098   -2.5298632   -2.5298632    -1.113625   0.11305284   -2.5298632    1.4162382   439061 
 1013000   0.94443763   -2.5292379   -2.5292379   -1.1125846   0.10970812   -2.5292379    1.4166532   439061 
 1014000   0.94401909   -2.5288301   -2.5288301   -1.1128047   0.11429194   -2.5288301    1.4160254   439061 
 1015000   0.94423033   -2.5289164   -2.5289164   -1.1125742   0.11249719   -2.5289164    1.4163423   439061 
 1016000   0.94367184   -2.5285117   -2.5285117   -1.1130071   0.10713105   -2.5285117    1.4155045   439061 
 1017000   0.94400668   -2.5282876   -2.5282876   -1.1122808   0.11315524   -2.5282876    1.4160068   439061 
 1018000   0.94575047   -2.5304743   -2.5304743   -1.1118518   0.11517585   -2.5304743    1.4186225   439061 
 1019000   0.94518201   -2.5298046   -2.5298046   -1.1120348   0.11091382   -2.5298046    1.4177698   439061 
 1020000   0.94511076   -2.5300551   -2.5300551   -1.1123921   0.11156567   -2.5300551    1.4176629   439061 
 1021000    0.9444204    -2.530277    -2.530277   -1.1136496   0.11340998    -2.530277    1.4166274   439061 
 1022000   0.94480083   -2.5314949   -2.5314949   -1.1142969   0.11208461   -2.5314949     1.417198   439061 
 1023000    0.9448986   -2.5324572   -2.5324572   -1.1151126   0.11195713   -2.5324572    1.4173447   439061 
 1024000   0.94335513   -2.5314351   -2.5314351   -1.1164056   0.10388483   -2.5314351    1.4150295   439061 
 1025000   0.94376015   -2.5325605   -2.5325605   -1.1169235   0.10942848   -2.5325605     1.415637   439061 
 1026000   0.94313103   -2.5314045   -2.5314045   -1.1167112   0.11248327   -2.5314045    1.4146933   439061 
 1027000   0.94439191   -2.5325103   -2.5325103   -1.1159256   0.11284992   -2.5325103    1.4165846   439061 
 1028000   0.94250322   -2.5314415   -2.5314415   -1.1176899   0.11031137   -2.5314415    1.4137516   439061 
 1029000   0.94393856   -2.5341187   -2.5341187   -1.1182141   0.10932177   -2.5341187    1.4159046   439061 
 1030000   0.94145606   -2.5314694   -2.5314694   -1.1192885   0.11159059   -2.5314694    1.4121809   439061 
 1031000   0.94326636   -2.5327322   -2.5327322   -1.1178359    0.1112134   -2.5327322    1.4148963   439061 
 1032000   0.94329497   -2.5333517   -2.5333517   -1.1184125   0.11221029   -2.5333517    1.4149392   439061 
 1033000   0.94317811    -2.533166    -2.533166   -1.1184021   0.10774729    -2.533166    1.4147639   439061 
 1034000   0.94309921    -2.532903    -2.532903   -1.1182574   0.11336952    -2.532903    1.4146456   439061 
 1035000    0.9450502   -2.5360934   -2.5360934   -1.1185214   0.11230213   -2.5360934    1.4175721   439061 
 1036000   0.94401052   -2.5347345   -2.5347345   -1.1187219   0.10778665   -2.5347345    1.4160126   439061 
 1037000   0.94431501   -2.5329494   -2.5329494   -1.1164801   0.11686316   -2.5329494    1.4164693   439061 
 1038000   0.94405852   -2.5330228   -2.5330228   -1.1169383   0.11041398   -2.5330228    1.4160845   439061 
 1039000    0.9436109   -2.5324225   -2.5324225   -1.1170094   0.11580467   -2.5324225    1.4154131   439061 
 1040000   0.94390471   -2.5341768   -2.5341768    -1.118323   0.11134781   -2.5341768    1.4158538   439061 
 1041000   0.94420071   -2.5331406   -2.5331406   -1.1168428   0.11311369   -2.5331406    1.4162978   439061 
 1042000    0.9431728   -2.5315044   -2.5315044   -1.1167484   0.11195162   -2.5315044     1.414756   439061 
 1043000   0.94441878   -2.5339502   -2.5339502   -1.1173253   0.11263701   -2.5339502    1.4166249   439061 
 1044000      0.94247   -2.5321553   -2.5321553   -1.1184535   0.11087441   -2.5321553    1.4137018   439061 
 1045000    0.9424194   -2.5326533   -2.5326533   -1.1190274   0.11040854   -2.5326533    1.4136259   439061 
 1046000   0.94259489    -2.533271    -2.533271   -1.1193818   0.10882895    -2.533271    1.4138891   439061 
 1047000    0.9423791   -2.5330457   -2.5330457   -1.1194802    0.1093655   -2.5330457    1.4135654   439061 
 1048000   0.94300748   -2.5325802   -2.5325802   -1.1180722   0.10501386   -2.5325802     1.414508   439061 
 1049000   0.94388482   -2.5341707   -2.5341707   -1.1183467   0.10718803   -2.5341707     1.415824   439061 
 1050000   0.94385062   -2.5336978   -2.5336978   -1.1179251   0.11133661   -2.5336978    1.4157727   439061 
 1051000   0.94362677   -2.5328208   -2.5328208   -1.1173839   0.11045585   -2.5328208    1.4154369   439061 
 1052000   0.94280545   -2.5303462   -2.5303462   -1.1161412   0.10938733   -2.5303462     1.414205   439061 
 1053000   0.94228677   -2.5292676   -2.5292676   -1.1158407   0.11165649   -2.5292676    1.4134269   439061 
 1054000   0.94542727   -2.5330889   -2.5330889   -1.1149512   0.10966306   -2.5330889    1.4181377   439061 
 1055000   0.94392279   -2.5294695   -2.5294695   -1.1135886   0.11339352   -2.5294695     1.415881   439061 
 1056000   0.94477408   -2.5319075   -2.5319075   -1.1147496   0.11333429   -2.5319075    1.4171579   439061 
 1057000   0.94343076   -2.5296477   -2.5296477   -1.1145047    0.1105504   -2.5296477    1.4151429   439061 
 1058000   0.94461384   -2.5310776   -2.5310776   -1.1141601   0.11291961   -2.5310776    1.4169175   439061 
 1059000   0.94386482   -2.5295454   -2.5295454   -1.1137513   0.10880688   -2.5295454     1.415794   439061 
 1060000   0.94291438   -2.5277437   -2.5277437   -1.1133753   0.10766237   -2.5277437    1.4143684   439061 
 1061000   0.94266144   -2.5277947   -2.5277947   -1.1138057    0.1063844   -2.5277947    1.4139889   439061 
 1062000   0.94236938   -2.5278825   -2.5278825   -1.1143317   0.11027382   -2.5278825    1.4135508   439061 
 1063000   0.94359538   -2.5293097   -2.5293097   -1.1139199   0.11293529   -2.5293097    1.4153898   439061 
 1064000   0.94374048    -2.528919    -2.528919   -1.1133115   0.10684051    -2.528919    1.4156075   439061 
 1065000   0.94286436   -2.5283426   -2.5283426   -1.1140492   0.11044881   -2.5283426    1.4142933   439061 
 1066000    0.9424148   -2.5284843   -2.5284843   -1.1148653   0.10966574   -2.5284843     1.413619   439061 
 1067000   0.94434194   -2.5300847   -2.5300847    -1.113575   0.11004727   -2.5300847    1.4165097   439061 
 1068000   0.94466552   -2.5317579   -2.5317579   -1.1147628   0.11230282   -2.5317579    1.4169951   439061 
 1069000    0.9435815   -2.5301891   -2.5301891   -1.1148201   0.10661604   -2.5301891     1.415369   439061 
 1070000   0.94310006   -2.5289519   -2.5289519    -1.114305   0.10918819   -2.5289519    1.4146469   439061 
 1071000    0.9423461   -2.5284542   -2.5284542   -1.1149383   0.10991863   -2.5284542    1.4135159   439061 
 1072000   0.94353465   -2.5298396   -2.5298396   -1.1145409   0.10797298   -2.5298396    1.4152988   439061 
 1073000   0.94185468   -2.5286678   -2.5286678    -1.115889   0.10890955   -2.5286678    1.4127788   439061 
 1074000   0.94284847   -2.5307773   -2.5307773   -1.1165078   0.10418157   -2.5307773    1.4142695   439061 
 1075000   0.94106011   -2.5297565   -2.5297565   -1.1181696   0.11336487   -2.5297565     1.411587   439061 
 1076000   0.94234098   -2.5321333   -2.5321333    -1.118625   0.10732158   -2.5321333    1.4135083   439061 
 1077000   0.94187446   -2.5312421   -2.5312421   -1.1184336   0.10923829   -2.5312421    1.4128085   439061 
 1078000   0.94287131   -2.5338426   -2.5338426   -1.1195388   0.10527837   -2.5338426    1.4143037   439061 
 1079000   0.94102993   -2.5304135   -2.5304135   -1.1188718   0.10743019   -2.5304135    1.4115417   439061 
 1080000   0.94312346   -2.5323811   -2.5323811   -1.1176992   0.11145218   -2.5323811     1.414682   439061 
 1081000   0.94330187   -2.5332841   -2.5332841   -1.1183346   0.11062605   -2.5332841    1.4149496   439061 
 1082000   0.94278821   -2.5333238   -2.5333238   -1.1191447   0.11282707   -2.5333238    1.4141791   439061 
 1083000   0.94366638   -2.5346004   -2.5346004    -1.119104   0.11228184   -2.5346004    1.4154963   439061 
 1084000   0.94488954   -2.5365593   -2.5365593   -1.1192282   0.10981805   -2.5365593    1.4173311   439061 
 1085000   0.94315396   -2.5346237   -2.5346237    -1.119896    0.1126525   -2.5346237    1.4147277   439061 
 1086000   0.94420949   -2.5372848   -2.5372848   -1.1209738   0.11164205   -2.5372848     1.416311   439061 
 1087000   0.94462692   -2.5381385   -2.5381385   -1.1212014   0.11211194   -2.5381385    1.4169372   439061 
 1088000   0.94379736   -2.5352149   -2.5352149   -1.1195221   0.11045722   -2.5352149    1.4156928   439061 
 1089000   0.94434995   -2.5353688   -2.5353688   -1.1188471   0.11518313   -2.5353688    1.4165217   439061 
 1090000   0.94422683    -2.536688    -2.536688    -1.120351   0.11140668    -2.536688     1.416337   439061 
 1091000   0.94421291   -2.5381277   -2.5381277   -1.1218116   0.10850871   -2.5381277    1.4163161   439061 
 1092000   0.94234747   -2.5349753   -2.5349753   -1.1214573   0.11212372   -2.5349753     1.413518   439061 
 1093000   0.94393625    -2.538476    -2.538476   -1.1225749   0.10861324    -2.538476    1.4159011   439061 
 1094000   0.94377592   -2.5369676   -2.5369676    -1.121307   0.11336761   -2.5369676    1.4156607   439061 
 1095000   0.94266537   -2.5359978   -2.5359978    -1.122003   0.10917342   -2.5359978    1.4139948   439061 
 1096000   0.94270285   -2.5365835   -2.5365835   -1.1225325   0.10759848   -2.5365835    1.4140511   439061 
 1097000   0.94209392   -2.5373545   -2.5373545   -1.1242169   0.10484477   -2.5373545    1.4131377   439061 
 1098000   0.94229146   -2.5359997   -2.5359997   -1.1225657   0.10748143   -2.5359997     1.413434   439061 
 1099000   0.94120192   -2.5345157   -2.5345157   -1.1227161   0.10389347   -2.5345157    1.4117997   439061 
 1100000   0.94082727   -2.5353526   -2.5353526   -1.1241149   0.11056815   -2.5353526    1.4112377   439061 
 1101000   0.93972374   -2.5338381   -2.5338381   -1.1242557   0.10418455   -2.5338381    1.4095824   439061 
 1102000    0.9389878   -2.5325105   -2.5325105    -1.124032   0.11369946   -2.5325105    1.4084785   439061 
 1103000   0.93993199   -2.5345223   -2.5345223   -1.1246275   0.10837708   -2.5345223    1.4098948   439061 
 1104000   0.94066075   -2.5337411   -2.5337411   -1.1227532   0.10849713   -2.5337411    1.4109879   439061 
 1105000   0.93966166   -2.5330562   -2.5330562    -1.123567   0.10575611   -2.5330562    1.4094893   439061 
 1106000   0.93981633   -2.5333624   -2.5333624   -1.1236411    0.1052195   -2.5333624    1.4097213   439061 
 1107000   0.93914851    -2.533209    -2.533209   -1.1244894   0.10995775    -2.533209    1.4087196   439061 
 1108000    0.9402606   -2.5333976   -2.5333976     -1.12301   0.10262409   -2.5333976    1.4103877   439061 
 1109000   0.94049698   -2.5344345   -2.5344345   -1.1236923   0.10237781   -2.5344345    1.4107423   439061 
 1110000   0.93993021   -2.5341466   -2.5341466   -1.1242545   0.10673459   -2.5341466    1.4098921   439061 
 1111000   0.93810802   -2.5312141   -2.5312141   -1.1240552   0.10655294   -2.5312141    1.4071588   439061 
 1112000   0.94033964   -2.5346942   -2.5346942   -1.1241879   0.10446663   -2.5346942    1.4105062   439061 
 1113000   0.94028325   -2.5327881   -2.5327881   -1.1223664   0.10346496   -2.5327881    1.4104217   439061 
 1114000   0.94096739   -2.5337274   -2.5337274   -1.1222795   0.10813056   -2.5337274    1.4114479   439061 
 1115000   0.94051724   -2.5328514   -2.5328514   -1.1220787   0.10975638   -2.5328514    1.4107727   439061 
 1116000   0.94042459   -2.5332327   -2.5332327    -1.122599   0.10680843   -2.5332327    1.4106337   439061 
 1117000   0.94126109   -2.5338864   -2.5338864    -1.121998   0.10654344   -2.5338864    1.4118884   439061 
 1118000   0.94059923   -2.5342725   -2.5342725   -1.1233768   0.10746497   -2.5342725    1.4108956   439061 
 1119000   0.94094744   -2.5339558   -2.5339558   -1.1225378   0.10547599   -2.5339558    1.4114179   439061 
 1120000   0.94048433   -2.5335571   -2.5335571   -1.1228338   0.10071998   -2.5335571    1.4107233   439061 
 1121000   0.94092807   -2.5336899   -2.5336899    -1.122301   0.10843881   -2.5336899    1.4113889   439061 
 1122000   0.94178002   -2.5351631   -2.5351631   -1.1224963   0.11108259   -2.5351631    1.4126668   439061 
 1123000   0.94079953   -2.5339853   -2.5339853   -1.1227892   0.10630433   -2.5339853    1.4111961   439061 
 1124000   0.94207913   -2.5358501   -2.5358501   -1.1227346   0.10846673   -2.5358501    1.4131155   439061 
 1125000   0.94072777     -2.53379     -2.53379   -1.1227016   0.10833621     -2.53379    1.4110884   439061 
 1126000   0.94115932   -2.5351562   -2.5351562   -1.1234205   0.10833874   -2.5351562    1.4117358   439061 
 1127000   0.94170132   -2.5365301   -2.5365301   -1.1239813   0.10615724   -2.5365301    1.4125488   439061 
 1128000   0.93949031   -2.5350026   -2.5350026   -1.1257703   0.11104933   -2.5350026    1.4092323   439061 
 1129000   0.94241327   -2.5379295   -2.5379295   -1.1243128   0.11217176   -2.5379295    1.4136167   439061 
 1130000   0.94085237   -2.5365413   -2.5365413    -1.125266   0.11313251   -2.5365413    1.4112753   439061 
 1131000   0.94308241   -2.5396067   -2.5396067   -1.1249863   0.10806841   -2.5396067    1.4146204   439061 
 1132000   0.94085363   -2.5365147   -2.5365147   -1.1252375   0.10757019   -2.5365147    1.4112772   439061 
 1133000   0.93983223   -2.5376672   -2.5376672    -1.127922   0.10863942   -2.5376672    1.4097451   439061 
 1134000   0.94063997   -2.5380641   -2.5380641   -1.1271073   0.10875733   -2.5380641    1.4109567   439061 
 1135000   0.94009746   -2.5388058   -2.5388058   -1.1286628   0.10863111   -2.5388058     1.410143   439061 
 1136000   0.93773163   -2.5359915   -2.5359915   -1.1293973    0.1072952   -2.5359915    1.4065942   439061 
 1137000   0.94107988   -2.5400524   -2.5400524   -1.1284358   0.11028605   -2.5400524    1.4116166   439061 
 1138000   0.93918556   -2.5368553   -2.5368553   -1.1280801   0.10798874   -2.5368553    1.4087751   439061 
 1139000   0.93901701   -2.5391287   -2.5391287   -1.1306064   0.10686803   -2.5391287    1.4085223   439061 
 1140000   0.93941662    -2.538616    -2.538616   -1.1294943   0.10917841    -2.538616    1.4091217   439061 
 1141000   0.93924411     -2.53932     -2.53932    -1.130457   0.10756391     -2.53932     1.408863   439061 
 1142000   0.93843712    -2.537986    -2.537986   -1.1303335   0.10593776    -2.537986    1.4076525   439061 
 1143000    0.9392466   -2.5380877   -2.5380877    -1.129221   0.11048239   -2.5380877    1.4088667   439061 
 1144000   0.93886149   -2.5364194   -2.5364194   -1.1281304   0.10376947   -2.5364194     1.408289   439061 
 1145000   0.93898376   -2.5360626   -2.5360626   -1.1275902   0.10947785   -2.5360626    1.4084724   439061 
 1146000   0.94007901   -2.5376083   -2.5376083    -1.127493   0.10732532   -2.5376083    1.4101153   439061 
 1147000   0.93996666   -2.5375157   -2.5375157   -1.1275689   0.10502761   -2.5375157    1.4099468   439061 
 1148000   0.94012796   -2.5387709   -2.5387709   -1.1285822    0.1075091   -2.5387709    1.4101887   439061 
 1149000   0.93934158   -2.5373095   -2.5373095   -1.1283003   0.10684169   -2.5373095    1.4090092   439061 
 1150000   0.93914563   -2.5371945   -2.5371945   -1.1284792   0.10575905   -2.5371945    1.4087152   439061 
 1151000   0.93799974   -2.5358356   -2.5358356   -1.1288392    0.1070811   -2.5358356    1.4069964   439061 
 1152000   0.93865319   -2.5357713   -2.5357713   -1.1277947   0.10602276   -2.5357713    1.4079766   439061 
 1153000   0.93803696   -2.5358772   -2.5358772    -1.128825   0.10409575   -2.5358772    1.4070522   439061 
 1154000   0.93996313   -2.5388024   -2.5388024   -1.1288609   0.10700658   -2.5388024    1.4099415   439061 
 1155000   0.93904141   -2.5376826   -2.5376826   -1.1291237    0.1094755   -2.5376826    1.4085589   439061 
 1156000   0.93939359   -2.5392209   -2.5392209   -1.1301337   0.10086983   -2.5392209    1.4090872   439061 
 1157000   0.93926765    -2.538774    -2.538774   -1.1298757   0.10931706    -2.538774    1.4088983   439061 
 1158000   0.93984826   -2.5386147   -2.5386147   -1.1288456   0.10350547   -2.5386147    1.4097692   439061 
 1159000   0.93953744   -2.5379942   -2.5379942   -1.1286912   0.10530346   -2.5379942    1.4093029   439061 
 1160000   0.93890709   -2.5372057   -2.5372057   -1.1288483   0.10449989   -2.5372057    1.4083574   439061 
 1161000   0.93915647   -2.5373447   -2.5373447   -1.1286132   0.11001021   -2.5373447    1.4087315   439061 
 1162000   0.94003454   -2.5385822   -2.5385822   -1.1285336   0.10348185   -2.5385822    1.4100486   439061 
 1163000   0.93901964   -2.5395728   -2.5395728   -1.1310465   0.10485671   -2.5395728    1.4085262   439061 
 1164000   0.93864015   -2.5397142   -2.5397142   -1.1317572   0.10185426   -2.5397142     1.407957   439061 
 1165000   0.93909104   -2.5397451   -2.5397451   -1.1311117   0.10490998   -2.5397451    1.4086333   439061 
 1166000    0.9397483   -2.5407302   -2.5407302   -1.1311109   0.10934854   -2.5407302    1.4096192   439061 
 1167000   0.93851621   -2.5394931   -2.5394931    -1.131722   0.10724793   -2.5394931    1.4077711   439061 
 1168000   0.93756688   -2.5390138   -2.5390138   -1.1326667   0.10778634   -2.5390138    1.4063471   439061 
 1169000   0.93827027   -2.5407879   -2.5407879   -1.1333857   0.10569562   -2.5407879    1.4074022   439061 
 1170000   0.93933075   -2.5428933   -2.5428933   -1.1339003   0.10891632   -2.5428933    1.4089929   439061 
 1171000   0.93724931   -2.5388913   -2.5388913   -1.1330205   0.10768285   -2.5388913    1.4058708   439061 
 1172000    0.9390511   -2.5414001   -2.5414001   -1.1328267  0.099055576   -2.5414001    1.4085734   439061 
 1173000   0.93977033   -2.5405756   -2.5405756   -1.1309233   0.10798967   -2.5405756    1.4096523   439061 
 1174000   0.93922384   -2.5402705   -2.5402705   -1.1314379   0.10327887   -2.5402705    1.4088326   439061 
 1175000   0.93838218   -2.5398075   -2.5398075   -1.1322374   0.10369142   -2.5398075    1.4075701   439061 
 1176000   0.93826154   -2.5389257   -2.5389257   -1.1315366   0.11177613   -2.5389257    1.4073891   439061 
 1177000   0.93816187   -2.5405385   -2.5405385   -1.1332989    0.1048491   -2.5405385    1.4072396   439061 
 1178000   0.93818028   -2.5406909   -2.5406909   -1.1334237   0.10681503   -2.5406909    1.4072672   439061 
 1179000     0.938323    -2.539475    -2.539475   -1.1319937   0.10917466    -2.539475    1.4074813   439061 
 1180000   0.93862799   -2.5396466   -2.5396466   -1.1317078   0.10326133   -2.5396466    1.4079388   439061 
 1181000   0.93839056   -2.5399013   -2.5399013   -1.1323187   0.10520728   -2.5399013    1.4075826   439061 
 1182000   0.93858903   -2.5408086   -2.5408086   -1.1329283   0.10628578   -2.5408086    1.4078803   439061 
 1183000   0.93898844    -2.540513    -2.540513   -1.1320335    0.1054762    -2.540513    1.4084795   439061 
 1184000   0.93892904   -2.5399175   -2.5399175   -1.1315271   0.10364592   -2.5399175    1.4083903   439061 
 1185000   0.93808607   -2.5393561   -2.5393561   -1.1322302   0.10613539   -2.5393561    1.4071259   439061 
 1186000   0.93899013   -2.5419986   -2.5419986   -1.1335167   0.10468732   -2.5419986     1.408482   439061 
 1187000   0.93917855   -2.5416842   -2.5416842   -1.1329196   0.10382315   -2.5416842    1.4087646   439061 
 1188000   0.94002681   -2.5422335   -2.5422335   -1.1321965   0.11092659   -2.5422335     1.410037   439061 
 1189000   0.93760985   -2.5396806   -2.5396806    -1.133269   0.10734513   -2.5396806    1.4064116   439061 
 1190000   0.93820012   -2.5409942   -2.5409942   -1.1336973   0.10591597   -2.5409942     1.407297   439061 
 1191000   0.93717899   -2.5401009   -2.5401009   -1.1343356   0.10282864   -2.5401009    1.4057653   439061 
 1192000   0.93757525   -2.5386745   -2.5386745   -1.1323149   0.10568929   -2.5386745    1.4063597   439061 
 1193000   0.93680859    -2.537527    -2.537527   -1.1323173   0.10563382    -2.537527    1.4052097   439061 
 1194000   0.93767982   -2.5392165   -2.5392165      -1.1327   0.10562901   -2.5392165    1.4065165   439061 
 1195000   0.93649575    -2.537325    -2.537325   -1.1325846   0.11059377    -2.537325    1.4047404   439061 
 1196000   0.93796257   -2.5394897   -2.5394897   -1.1325491   0.10530714   -2.5394897    1.4069407   439061 
 1197000   0.93716102    -2.539041    -2.539041   -1.1333027   0.10825896    -2.539041    1.4057383   439061 
 1198000   0.93868352   -2.5410068   -2.5410068   -1.1329847   0.10428597   -2.5410068    1.4080221   439061 
 1199000   0.93750363   -2.5401062   -2.5401062    -1.133854   0.10321637   -2.5401062    1.4062522   439061 
 1200000   0.93806824   -2.5409768   -2.5409768   -1.1338776   0.10081806   -2.5409768    1.4070992   439061 
 1201000   0.93577967   -2.5378321   -2.5378321   -1.1341657   0.10882045   -2.5378321    1.4036663   439061 
 1202000    0.9369433   -2.5397326   -2.5397326   -1.1343208    0.1013287   -2.5397326    1.4054117   439061 
 1203000   0.93729565   -2.5398259   -2.5398259   -1.1338856   0.10399377   -2.5398259    1.4059403   439061 
 1204000   0.93757637   -2.5394155   -2.5394155   -1.1330541   0.10413074   -2.5394155    1.4063614   439061 
 1205000   0.93768649   -2.5409707   -2.5409707   -1.1344441   0.10058841   -2.5409707    1.4065265   439061 
 1206000      0.93717   -2.5402767   -2.5402767   -1.1345249    0.1032154   -2.5402767    1.4057518   439061 
 1207000   0.93630863   -2.5399584   -2.5399584   -1.1354986   0.10046084   -2.5399584    1.4044597   439061 
 1208000   0.93599041   -2.5410835   -2.5410835   -1.1371011   0.10272724   -2.5410835    1.4039824   439061 
 1209000   0.93793124    -2.542662    -2.542662   -1.1357683   0.10537255    -2.542662    1.4068936   439061 
 1210000   0.93824506   -2.5408063   -2.5408063    -1.133442   0.10469062   -2.5408063    1.4073644   439061 
 1211000   0.93882657   -2.5418934   -2.5418934   -1.1336567   0.10328383   -2.5418934    1.4082367   439061 
 1212000   0.93642957   -2.5391176   -2.5391176   -1.1344764   0.11090768   -2.5391176    1.4046412   439061 
 1213000    0.9378111    -2.541627    -2.541627   -1.1349136   0.10058584    -2.541627    1.4067135   439061 
 1214000   0.93751948   -2.5407723   -2.5407723   -1.1344962   0.10161894   -2.5407723     1.406276   439061 
 1215000   0.93813016   -2.5406103   -2.5406103   -1.1334182    0.1059997   -2.5406103     1.407192   439061 
 1216000   0.93701583    -2.539688    -2.539688   -1.1341675     0.105453    -2.539688    1.4055206   439061 
 1217000   0.93630542   -2.5398338   -2.5398338   -1.1353789   0.10420312   -2.5398338    1.4044549   439061 
 1218000   0.93546003    -2.539243    -2.539243   -1.1360561   0.10673578    -2.539243    1.4031868   439061 
 1219000   0.93677943   -2.5409587   -2.5409587   -1.1357927   0.10832911   -2.5409587     1.405166   439061 
 1220000   0.93699256   -2.5407065   -2.5407065   -1.1352209    0.1078165   -2.5407065    1.4054856   439061 
 1221000   0.93706038   -2.5399841   -2.5399841   -1.1343967   0.10546781   -2.5399841    1.4055874   439061 
 1222000   0.93765929   -2.5410863   -2.5410863   -1.1346006   0.10023009   -2.5410863    1.4064857   439061 
 1223000   0.93713106   -2.5397127   -2.5397127   -1.1340193   0.10545459   -2.5397127    1.4056934   439061 
 1224000   0.93729947   -2.5398858   -2.5398858   -1.1339398    0.1068961   -2.5398858     1.405946   439061 
 1225000   0.93849977     -2.54232     -2.54232   -1.1345736   0.10444428     -2.54232    1.4077464   439061 
 1226000   0.93828839   -2.5433129   -2.5433129   -1.1358835     0.104358   -2.5433129    1.4074294   439061 
 1227000   0.93705909   -2.5414689   -2.5414689   -1.1358835   0.10271622   -2.5414689    1.4055854   439061 
 1228000   0.93603661   -2.5414668   -2.5414668   -1.1374151   0.10298898   -2.5414668    1.4040517   439061 
 1229000   0.93497734   -2.5404672   -2.5404672   -1.1380044   0.10394419   -2.5404672    1.4024628   439061 
 1230000   0.93584072   -2.5418503   -2.5418503   -1.1380924  0.096594271   -2.5418503    1.4037579   439061 
 1231000   0.93541491   -2.5412689   -2.5412689   -1.1381497   0.10417923   -2.5412689    1.4031192   439061 
 1232000   0.93581544   -2.5412782   -2.5412782   -1.1375583   0.10519603   -2.5412782      1.40372   439061 
 1233000   0.93678137   -2.5430284   -2.5430284   -1.1378595   0.10246779   -2.5430284    1.4051689   439061 
 1234000    0.9365109   -2.5426284   -2.5426284   -1.1378653   0.10377848   -2.5426284    1.4047632   439061 
 1235000   0.93709404   -2.5436669   -2.5436669    -1.138029   0.10209988   -2.5436669    1.4056379   439061 
 1236000   0.93418586   -2.5412293   -2.5412293   -1.1399537   0.10494337   -2.5412293    1.4012756   439061 
 1237000   0.93632067   -2.5434446   -2.5434446   -1.1389668   0.10142499   -2.5434446    1.4044778   439061 
 1238000   0.93701398   -2.5447138   -2.5447138    -1.139196   0.10399581   -2.5447138    1.4055178   439061 
 1239000   0.93683521   -2.5431163   -2.5431163   -1.1378666   0.10378842   -2.5431163    1.4052496   439061 
 1240000   0.93732449   -2.5443184   -2.5443184   -1.1383349   0.09880481   -2.5443184    1.4059835   439061 
 1241000   0.93664141   -2.5451031   -2.5451031   -1.1401442   0.10693087   -2.5451031    1.4049589   439061 
 1242000   0.93636148   -2.5444371   -2.5444371   -1.1398981   0.10371364   -2.5444371     1.404539   439061 
 1243000   0.93710778   -2.5464136   -2.5464136   -1.1407551   0.10083566   -2.5464136    1.4056585   439061 
 1244000   0.93549215   -2.5445077   -2.5445077   -1.1412727   0.10167678   -2.5445077     1.403235   439061 
 1245000   0.93592263   -2.5449225   -2.5449225   -1.1410418   0.10579321   -2.5449225    1.4038807   439061 
 1246000   0.93559341   -2.5462772   -2.5462772   -1.1428903   0.10255309   -2.5462772    1.4033869   439061 
 1247000   0.93448314    -2.544915    -2.544915   -1.1431934   0.10176304    -2.544915    1.4017215   439061 
 1248000   0.93446433   -2.5463509   -2.5463509   -1.1446576   0.10450358   -2.5463509    1.4016933   439061 
 1249000   0.93527093   -2.5482441   -2.5482441   -1.1453409   0.10030427   -2.5482441    1.4029032   439061 
 1250000   0.93409234   -2.5460443   -2.5460443    -1.144909   0.10233847   -2.5460443    1.4011353   439061 
 1251000   0.93455484   -2.5470008   -2.5470008   -1.1451717   0.10884527   -2.5470008    1.4018291   439061 
 1252000   0.93526984   -2.5485558   -2.5485558   -1.1456542   0.10190809   -2.5485558    1.4029016   439061 
 1253000   0.93379523   -2.5462121   -2.5462121   -1.1455225   0.10129708   -2.5462121    1.4006897   439061 
 1254000   0.93513472   -2.5475576   -2.5475576   -1.1448587   0.10548894   -2.5475576    1.4026989   439061 
 1255000   0.93379645   -2.5459413   -2.5459413   -1.1452498  0.099894099   -2.5459413    1.4006915   439061 
 1256000   0.93545643   -2.5463908   -2.5463908   -1.1432093    0.1051433   -2.5463908    1.4031814   439061 
 1257000   0.93516613   -2.5473324   -2.5473324   -1.1445864   0.10101953   -2.5473324     1.402746   439061 
 1258000    0.9344787   -2.5464017   -2.5464017   -1.1446868   0.10359621   -2.5464017    1.4017149   439061 
 1259000   0.93637933   -2.5485903   -2.5485903   -1.1440245   0.11072446   -2.5485903    1.4045658   439061 
 1260000   0.93720358   -2.5488889   -2.5488889   -1.1430867    0.1046064   -2.5488889    1.4058022   439061 
 1261000   0.93474524   -2.5476928   -2.5476928   -1.1455781   0.10449764   -2.5476928    1.4021147   439061 
 1262000   0.93581553   -2.5470344   -2.5470344   -1.1433143   0.10667532   -2.5470344    1.4037201   439061 
 1263000   0.93570296    -2.547923    -2.547923   -1.1443718   0.10025444    -2.547923    1.4035512   439061 
 1264000   0.93510396   -2.5477987   -2.5477987    -1.145146  0.098851328   -2.5477987    1.4026527   439061 
 1265000   0.93395529   -2.5469791   -2.5469791   -1.1460493   0.10295471   -2.5469791    1.4009297   439061 
 1266000   0.93591193   -2.5483709   -2.5483709   -1.1445062  0.099940458   -2.5483709    1.4038647   439061 
 1267000   0.93508644   -2.5466762   -2.5466762   -1.1440497   0.10380623   -2.5466762    1.4026265   439061 
 1268000    0.9354196   -2.5462932   -2.5462932    -1.143167   0.10280201   -2.5462932    1.4031262   439061 
 1269000   0.93526635   -2.5474618   -2.5474618   -1.1445654   0.10072779   -2.5474618    1.4028963   439061 
 1270000   0.93559759   -2.5475444   -2.5475444   -1.1441512   0.10250731   -2.5475444    1.4033932   439061 
 1271000   0.93521225   -2.5459569   -2.5459569   -1.1431417   0.10185942   -2.5459569    1.4028152   439061 
 1272000   0.93408045   -2.5441314   -2.5441314    -1.143014   0.10386371   -2.5441314    1.4011175   439061 
 1273000   0.93530606   -2.5457023   -2.5457023   -1.1427464   0.10395937   -2.5457023    1.4029559   439061 
 1274000   0.93629496   -2.5463915   -2.5463915   -1.1419523   0.10113679   -2.5463915    1.4044392   439061 
 1275000   0.93565614   -2.5465404   -2.5465404   -1.1430593   0.10549647   -2.5465404     1.403481   439061 
 1276000   0.93508805   -2.5463617   -2.5463617   -1.1437328   0.10440067   -2.5463617    1.4026289   439061 
 1277000   0.93524858   -2.5464861   -2.5464861   -1.1436164   0.10730441   -2.5464861    1.4028697   439061 
 1278000   0.93519719   -2.5462312   -2.5462312   -1.1434386    0.1012649   -2.5462312    1.4027926   439061 
 1279000   0.93483897   -2.5457839   -2.5457839   -1.1435286  0.099003997   -2.5457839    1.4022553   439061 
 1280000   0.93492787   -2.5453349   -2.5453349   -1.1429463  0.099717355   -2.5453349    1.4023886   439061 
 1281000    0.9345174    -2.544867    -2.544867   -1.1430941   0.09773563    -2.544867    1.4017729   439061 
 1282000   0.93240292   -2.5415225   -2.5415225   -1.1429213    0.1070916   -2.5415225    1.3986012   439061 
 1283000   0.93246815    -2.544293    -2.544293    -1.145594  0.094679403    -2.544293     1.398699   439061 
 1284000   0.93272173   -2.5435105   -2.5435105   -1.1444311   0.10052111   -2.5435105    1.3990794   439061 
 1285000   0.93382293   -2.5451634   -2.5451634   -1.1444322  0.096200795   -2.5451634    1.4007312   439061 
 1286000    0.9325835    -2.543279    -2.543279    -1.144407  0.098957873    -2.543279    1.3988721   439061 
 1287000   0.93195404   -2.5424249   -2.5424249    -1.144497  0.099147256   -2.5424249    1.3979279   439061 
 1288000   0.93228033   -2.5427478   -2.5427478   -1.1443305  0.098041011   -2.5427478    1.3984173   439061 
 1289000   0.93303005   -2.5431017   -2.5431017   -1.1435598   0.09879014   -2.5431017    1.3995419   439061 
 1290000   0.93452103    -2.545655    -2.545655   -1.1438766  0.097532178    -2.545655    1.4017784   439061 
 1291000   0.93357374   -2.5449631   -2.5449631   -1.1446057   0.10176082   -2.5449631    1.4003574   439061 
 1292000   0.93257726   -2.5445131   -2.5445131   -1.1456504   0.10069794   -2.5445131    1.3988627   439061 
 1293000   0.93323255   -2.5450285   -2.5450285   -1.1451829   0.10407343   -2.5450285    1.3998456   439061 
 1294000   0.93346374   -2.5469894   -2.5469894    -1.146797  0.096113621   -2.5469894    1.4001924   439061 
 1295000    0.9332088   -2.5452857   -2.5452857   -1.1454757   0.10059427   -2.5452857      1.39981   439061 
 1296000   0.93395041   -2.5471175   -2.5471175    -1.146195  0.098534787   -2.5471175    1.4009224   439061 
 1297000   0.93401035   -2.5468707   -2.5468707   -1.1458584   0.10304623   -2.5468707    1.4010123   439061 
 1298000   0.93349302   -2.5462073   -2.5462073    -1.145971   0.10047703   -2.5462073    1.4002363   439061 
 1299000   0.93256069   -2.5464096   -2.5464096   -1.1475717   0.10036308   -2.5464096    1.3988378   439061 
 1300000   0.93431441   -2.5491906   -2.5491906   -1.1477222   0.09927678   -2.5491906    1.4014684   439061 
 1301000   0.93392376   -2.5479321   -2.5479321   -1.1470496  0.095564656   -2.5479321    1.4008824   439061 
 1302000   0.93245133   -2.5461573   -2.5461573   -1.1474835   0.10161036   -2.5461573    1.3986738   439061 
 1303000    0.9338017   -2.5473222   -2.5473222   -1.1466228   0.10432612   -2.5473222    1.4006994   439061 
 1304000   0.93431477   -2.5501685   -2.5501685   -1.1486995   0.10068101   -2.5501685     1.401469   439061 
 1305000   0.93407384   -2.5492943   -2.5492943   -1.1481867    0.1010834   -2.5492943    1.4011076   439061 
 1306000   0.93318223   -2.5488825   -2.5488825   -1.1491123   0.10043827   -2.5488825    1.3997702   439061 
 1307000   0.93350775   -2.5484821   -2.5484821   -1.1482237  0.098985095   -2.5484821    1.4002584   439061 
 1308000   0.93371945   -2.5488255   -2.5488255   -1.1482495   0.10131924   -2.5488255     1.400576   439061 
 1309000   0.93371179   -2.5482769   -2.5482769   -1.1477124   0.10045042   -2.5482769    1.4005645   439061 
 1310000   0.93393089   -2.5494519   -2.5494519   -1.1485588   0.10099744   -2.5494519    1.4008931   439061 
 1311000   0.93320499   -2.5482586   -2.5482586   -1.1484543   0.10170369   -2.5482586    1.3998043   439061 
 1312000   0.93284514   -2.5487829   -2.5487829   -1.1495184   0.10201214   -2.5487829    1.3992645   439061 
 1313000    0.9335329   -2.5493824   -2.5493824   -1.1490863  0.099593033   -2.5493824    1.4002962   439061 
 1314000   0.93384054   -2.5508109   -2.5508109   -1.1500533   0.10099926   -2.5508109    1.4007576   439061 
 1315000   0.93317513   -2.5503568   -2.5503568   -1.1505973  0.099681211   -2.5503568    1.3997595   439061 
 1316000   0.93171905   -2.5474924   -2.5474924    -1.149917   0.10329782   -2.5474924    1.3975754   439061 
 1317000   0.93308539   -2.5485697   -2.5485697   -1.1489448  0.096044486   -2.5485697    1.3996249   439061 
 1318000   0.93473267   -2.5501603   -2.5501603   -1.1480645  0.099670466   -2.5501603    1.4020958   439061 
 1319000   0.93412702   -2.5497085   -2.5497085   -1.1485212   0.10310825   -2.5497085    1.4011873   439061 
 1320000    0.9327999   -2.5473444   -2.5473444   -1.1481477   0.10111826   -2.5473444    1.3991967   439061 
 1321000   0.93287887   -2.5480172   -2.5480172    -1.148702   0.10419911   -2.5480172    1.3993151   439061 
 1322000   0.93218239   -2.5457171   -2.5457171   -1.1474467   0.10005686   -2.5457171    1.3982704   439061 
 1323000   0.93410055   -2.5485775   -2.5485775   -1.1474298   0.10190937   -2.5485775    1.4011476   439061 
 1324000     0.933925   -2.5494733   -2.5494733    -1.148589  0.097983802   -2.5494733    1.4008843   439061 
 1325000   0.93330535   -2.5484043   -2.5484043   -1.1484494  0.097281407   -2.5484043    1.3999548   439061 
 1326000   0.93245198   -2.5472855   -2.5472855   -1.1486107  0.091282156   -2.5472855    1.3986748   439061 
 1327000   0.93233376   -2.5467492   -2.5467492   -1.1482518   0.10233775   -2.5467492    1.3984975   439061 
 1328000   0.93389912   -2.5478162   -2.5478162   -1.1469707   0.10241284   -2.5478162    1.4008455   439061 
 1329000   0.93333063   -2.5476291   -2.5476291   -1.1476363   0.10338382   -2.5476291    1.3999927   439061 
 1330000   0.93429971   -2.5474641   -2.5474641   -1.1460177   0.10317459   -2.5474641    1.4014464   439061 
 1331000   0.93364409    -2.546919    -2.546919    -1.146456   0.10080885    -2.546919     1.400463   439061 
 1332000   0.93339775   -2.5475723   -2.5475723   -1.1474788  0.094349764   -2.5475723    1.4000934   439061 
 1333000   0.93472185    -2.550063    -2.550063   -1.1479834   0.10302256    -2.550063    1.4020796   439061 
 1334000   0.93309169   -2.5470758   -2.5470758   -1.1474414  0.095248079   -2.5470758    1.3996343   439061 
 1335000   0.93185109   -2.5459434   -2.5459434     -1.14817    0.1010753   -2.5459434    1.3977735   439061 
 1336000   0.93256068   -2.5470551   -2.5470551   -1.1482172   0.09775855   -2.5470551    1.3988378   439061 
 1337000    0.9324259   -2.5465114   -2.5465114   -1.1478757   0.10159202   -2.5465114    1.3986357   439061 
 1338000   0.93302585   -2.5459043   -2.5459043   -1.1463687  0.096721974   -2.5459043    1.3995356   439061 
 1339000   0.93379616    -2.545937    -2.545937   -1.1452459  0.098423409    -2.545937     1.400691   439061 
 1340000   0.93343792   -2.5449425   -2.5449425   -1.1447888   0.10459814   -2.5449425    1.4001537   439061 
 1341000   0.93358836   -2.5468111   -2.5468111   -1.1464318   0.10082296   -2.5468111    1.4003793   439061 
 1342000   0.93248881   -2.5465381   -2.5465381   -1.1478081  0.097251421   -2.5465381      1.39873   439061 
 1343000   0.93277484   -2.5445132   -2.5445132   -1.1453541  0.097553313   -2.5445132    1.3991591   439061 
 1344000   0.93315739   -2.5461305   -2.5461305   -1.1463976   0.10048112   -2.5461305    1.3997329   439061 
 1345000   0.93243648   -2.5461025   -2.5461025   -1.1474509  0.099590129   -2.5461025    1.3986515   439061 
 1346000   0.93238518   -2.5460486   -2.5460486    -1.147474   0.10006944   -2.5460486    1.3985746   439061 
 1347000   0.93212999   -2.5466824   -2.5466824   -1.1484906   0.10239772   -2.5466824    1.3981918   439061 
 1348000    0.9326106   -2.5467289   -2.5467289   -1.1478162  0.093747001   -2.5467289    1.3989127   439061 
 1349000   0.93304067   -2.5469345   -2.5469345   -1.1473767  0.095461558   -2.5469345    1.3995578   439061 
 1350000    0.9326482   -2.5474109   -2.5474109   -1.1484417   0.10241298   -2.5474109    1.3989691   439061 
 1351000   0.93484824   -2.5499314   -2.5499314   -1.1476623  0.095337368   -2.5499314    1.4022692   439061 
 1352000   0.93169361   -2.5447513   -2.5447513   -1.1472141  0.092549527   -2.5447513    1.3975372   439061 
 1353000   0.93138224   -2.5457273   -2.5457273   -1.1486571  0.096277405   -2.5457273    1.3970702   439061 
 1354000   0.93272957   -2.5462546   -2.5462546   -1.1471635  0.099016999   -2.5462546    1.3990912   439061 
 1355000   0.93245953   -2.5461634   -2.5461634   -1.1474773   0.10171292   -2.5461634    1.3986861   439061 
 1356000   0.93332239    -2.547013    -2.547013   -1.1470326  0.099289087    -2.547013    1.3999804   439061 
 1357000   0.93290725   -2.5460024   -2.5460024   -1.1466447  0.099860042   -2.5460024    1.3993577   439061 
 1358000   0.93270965   -2.5464115   -2.5464115   -1.1473503  0.098324433   -2.5464115    1.3990613   439061 
 1359000   0.93256385   -2.5460774   -2.5460774   -1.1472348  0.099631259   -2.5460774    1.3988426   439061 
 1360000   0.93233222   -2.5446947   -2.5446947   -1.1461995  0.099600901   -2.5446947    1.3984951   439061 
 1361000   0.93386499   -2.5476349   -2.5476349   -1.1468406   0.09908633   -2.5476349    1.4007943   439061 
 1362000   0.93250201   -2.5463552   -2.5463552   -1.1476054   0.09283133   -2.5463552    1.3987498   439061 
 1363000   0.93251539   -2.5475755   -2.5475755   -1.1488056   0.10214031   -2.5475755    1.3987699   439061 
 1364000   0.93314147   -2.5478782   -2.5478782   -1.1481692  0.094650659   -2.5478782     1.399709   439061 
 1365000   0.93292246   -2.5477668   -2.5477668   -1.1483863   0.10295368   -2.5477668    1.3993805   439061 
 1366000   0.93309041   -2.5493698   -2.5493698   -1.1497374  0.098284498   -2.5493698    1.3996324   439061 
 1367000   0.93323474   -2.5494286   -2.5494286   -1.1495797    0.1015312   -2.5494286    1.3998489   439061 
 1368000   0.93174506   -2.5476621   -2.5476621   -1.1500477  0.098807858   -2.5476621    1.3976144   439061 
 1369000   0.93168994   -2.5468657   -2.5468657    -1.149334  0.098764032   -2.5468657    1.3975317   439061 
 1370000   0.93216511    -2.548181    -2.548181   -1.1499365   0.10182191    -2.548181    1.3982445   439061 
 1371000    0.9311938   -2.5474614   -2.5474614   -1.1506739  0.098507834   -2.5474614    1.3967875   439061 
 1372000   0.93300175   -2.5504371   -2.5504371   -1.1509377  0.096097297   -2.5504371    1.3994994   439061 
 1373000   0.93113588   -2.5482431   -2.5482431   -1.1515424  0.098966191   -2.5482431    1.3967006   439061 
 1374000   0.93045877   -2.5478121   -2.5478121   -1.1521271  0.098706295   -2.5478121     1.395685   439061 
 1375000   0.93218592   -2.5503766   -2.5503766   -1.1521009  0.095930857   -2.5503766    1.3982757   439061 
 1376000   0.93174323   -2.5497545   -2.5497545   -1.1521429   0.10030903   -2.5497545    1.3976117   439061 
 1377000   0.93190573   -2.5499065   -2.5499065   -1.1520511  0.094909949   -2.5499065    1.3978554   439061 
 1378000   0.93127685     -2.54837     -2.54837   -1.1514579   0.10046227     -2.54837    1.3969121   439061 
 1379000   0.93304573   -2.5497673   -2.5497673   -1.1502018  0.096330161   -2.5497673    1.3995654   439061 
 1380000   0.93120865   -2.5466677   -2.5466677   -1.1498579   0.10149662   -2.5466677    1.3968098   439061 
 1381000   0.93321843   -2.5502553   -2.5502553   -1.1504308  0.096965949   -2.5502553    1.3998245   439061 
 1382000   0.93237096   -2.5489974   -2.5489974   -1.1504441  0.097167268   -2.5489974    1.3985532   439061 
 1383000    0.9325312    -2.548117    -2.548117   -1.1493234  0.096462848    -2.548117    1.3987936   439061 
 1384000   0.93236168   -2.5482766   -2.5482766   -1.1497373  0.099004303   -2.5482766    1.3985393   439061 
 1385000   0.93220445   -2.5477249   -2.5477249   -1.1494214   0.10220554   -2.5477249    1.3983035   439061 
 1386000     0.932674   -2.5475696   -2.5475696   -1.1485618   0.10037832   -2.5475696    1.3990078   439061 
 1387000   0.93197974   -2.5471921   -2.5471921   -1.1492257  0.095273375   -2.5471921    1.3979664   439061 
 1388000   0.93142419   -2.5475162   -2.5475162   -1.1503831  0.095628838   -2.5475162    1.3971331   439061 
 1389000      0.93164   -2.5486681   -2.5486681   -1.1512113  0.095532062   -2.5486681    1.3974568   439061 
 1390000    0.9305601   -2.5467486   -2.5467486   -1.1509116   0.10190255   -2.5467486     1.395837   439061 
 1391000   0.93053653   -2.5475631   -2.5475631   -1.1517615   0.10087626   -2.5475631    1.3958016   439061 
 1392000   0.93161341    -2.547686    -2.547686    -1.150269  0.092657876    -2.547686    1.3974169   439061 
 1393000   0.93214117   -2.5484996   -2.5484996    -1.150291  0.097636407   -2.5484996    1.3982086   439061 
 1394000   0.93091743   -2.5468929   -2.5468929     -1.15052  0.095075695   -2.5468929     1.396373   439061 
 1395000    0.9320493   -2.5486172   -2.5486172   -1.1505464  0.099532268   -2.5486172    1.3980708   439061 
 1396000   0.93173823   -2.5479385   -2.5479385   -1.1503344  0.097213348   -2.5479385    1.3976042   439061 
 1397000   0.93205887   -2.5490867   -2.5490867   -1.1510015   0.10196063   -2.5490867    1.3980851   439061 
 1398000   0.93134912     -2.54889     -2.54889   -1.1518695  0.093134274     -2.54889    1.3970205   439061 
 1399000   0.92934867   -2.5456679   -2.5456679   -1.1516481  0.096419087   -2.5456679    1.3940198   439061 
 1400000   0.93105011   -2.5476468   -2.5476468   -1.1510748  0.099957113   -2.5476468     1.396572   439061 
 1401000   0.93112568   -2.5486877   -2.5486877   -1.1520023  0.098167496   -2.5486877    1.3966853   439061 
 1402000    0.9311292   -2.5497645   -2.5497645   -1.1530739  0.098933313   -2.5497645    1.3966906   439061 
 1403000   0.93092212     -2.54796     -2.54796     -1.15158  0.096314732     -2.54796      1.39638   439061 
 1404000   0.93098994   -2.5481027   -2.5481027    -1.151621  0.097888241   -2.5481027    1.3964817   439061 
 1405000   0.93137551   -2.5494318   -2.5494318   -1.1523717  0.096657785   -2.5494318    1.3970601   439061 
 1406000    0.9319054   -2.5499292   -2.5499292   -1.1520743  0.098808126   -2.5499292    1.3978549   439061 
 1407000   0.93010473    -2.548808    -2.548808   -1.1536541  0.093883324    -2.548808    1.3951539   439061 
 1408000   0.93001267   -2.5490929   -2.5490929    -1.154077  0.090909526   -2.5490929    1.3950158   439061 
 1409000   0.93136952   -2.5519426   -2.5519426   -1.1548914  0.098806523   -2.5519426    1.3970511   439061 
 1410000   0.93162148   -2.5531817   -2.5531817   -1.1557526  0.095453605   -2.5531817     1.397429   439061 
 1411000   0.93025476   -2.5509139   -2.5509139   -1.1555349  0.099758743   -2.5509139     1.395379   439061 
 1412000   0.93004121   -2.5511761   -2.5511761   -1.1561174  0.095294977   -2.5511761    1.3950586   439061 
 1413000   0.93091307   -2.5516277   -2.5516277   -1.1552613  0.099118053   -2.5516277    1.3963664   439061 
 1414000   0.93067571   -2.5513472   -2.5513472   -1.1553368  0.091586268   -2.5513472    1.3960104   439061 
 1415000   0.92963163   -2.5491521   -2.5491521   -1.1547078  0.096450748   -2.5491521    1.3944443   439061 
 1416000   0.93043363   -2.5495339   -2.5495339   -1.1538866  0.097453494   -2.5495339    1.3956473   439061 
 1417000   0.93030038   -2.5505837   -2.5505837   -1.1551363    0.0930405   -2.5505837    1.3954474   439061 
 1418000   0.93068981    -2.552727    -2.552727   -1.1566955   0.10155614    -2.552727    1.3960315   439061 
 1419000    0.9313637   -2.5536955   -2.5536955   -1.1566532   0.09835918   -2.5536955    1.3970424   439061 
 1420000   0.92983505   -2.5518964   -2.5518964    -1.157147  0.097944793   -2.5518964    1.3947494   439061 
 1421000    0.9308656   -2.5524463   -2.5524463   -1.1561511   0.10217356   -2.5524463    1.3962952   439061 
 1422000   0.93154459   -2.5533346   -2.5533346   -1.1560209  0.093520276   -2.5533346    1.3973137   439061 
 1423000   0.93132673   -2.5526597   -2.5526597   -1.1556728  0.099554756   -2.5526597    1.3969869   439061 
 1424000   0.92988134   -2.5516574   -2.5516574   -1.1568386  0.098152169   -2.5516574    1.3948188   439061 
 1425000   0.93055569   -2.5529791   -2.5529791   -1.1571487  0.098022391   -2.5529791    1.3958304   439061 
 1426000   0.93065025   -2.5533559   -2.5533559   -1.1573837  0.098183158   -2.5533559    1.3959722   439061 
 1427000   0.93026375   -2.5528497   -2.5528497   -1.1574573  0.098960007   -2.5528497    1.3953924   439061 
 1428000     0.931638   -2.5545163   -2.5545163   -1.1570625  0.091183014   -2.5545163    1.3974538   439061 
 1429000   0.92977208   -2.5522305   -2.5522305   -1.1575756  0.096596667   -2.5522305     1.394655   439061 
 1430000   0.92955812   -2.5525806   -2.5525806   -1.1582466  0.099360653   -2.5525806     1.394334   439061 
 1431000   0.93079945   -2.5532469   -2.5532469   -1.1570509  0.098796936   -2.5532469     1.396196   439061 
 1432000   0.93140846   -2.5532326   -2.5532326   -1.1561231   0.09863761   -2.5532326    1.3971095   439061 
 1433000   0.92853541   -2.5511386   -2.5511386   -1.1583387  0.097799277   -2.5511386    1.3927999   439061 
 1434000   0.93031708   -2.5531904   -2.5531904    -1.157718    0.1033624   -2.5531904    1.3954724   439061 
 1435000   0.93095239   -2.5536756   -2.5536756   -1.1572502   0.09540107   -2.5536756    1.3964254   439061 
 1436000   0.92922434   -2.5510297   -2.5510297   -1.1571964   0.10012708   -2.5510297    1.3938333   439061 
 1437000   0.92899512   -2.5515467   -2.5515467   -1.1580572   0.10404075   -2.5515467    1.3934895   439061 
 1438000   0.92859758   -2.5505144   -2.5505144   -1.1576212  0.096312633   -2.5505144    1.3928932   439061 
 1439000   0.92804791   -2.5495011   -2.5495011   -1.1574324  0.096145996   -2.5495011    1.3920687   439061 
 1440000   0.93022144   -2.5528937   -2.5528937   -1.1575648  0.096053077   -2.5528937     1.395329   439061 
 1441000   0.92972671   -2.5525554   -2.5525554   -1.1579685  0.098961042   -2.5525554    1.3945869   439061 
 1442000   0.93048665   -2.5541945   -2.5541945   -1.1584677  0.096739624   -2.5541945    1.3957268   439061 
 1443000   0.92946437    -2.552527    -2.552527   -1.1583336  0.094938698    -2.552527    1.3941934   439061 
 1444000   0.92957086   -2.5514581   -2.5514581    -1.157105  0.098703263   -2.5514581    1.3943531   439061 
 1445000   0.92827831   -2.5497936   -2.5497936   -1.1573793  0.097419435   -2.5497936    1.3924143   439061 
 1446000   0.92661071   -2.5482302   -2.5482302   -1.1583173  0.094730611   -2.5482302    1.3899129   439061 
 1447000    0.9288911   -2.5517325   -2.5517325   -1.1583991  0.086692403   -2.5517325    1.3933335   439061 
 1448000   0.92899167   -2.5506889   -2.5506889   -1.1572046  0.091916977   -2.5506889    1.3934843   439061 
 1449000   0.92805745   -2.5484547   -2.5484547   -1.1563717   0.10024559   -2.5484547     1.392083   439061 
 1450000   0.92917224   -2.5496965   -2.5496965   -1.1559413  0.094079573   -2.5496965    1.3937552   439061 
 1451000   0.93104542   -2.5521151   -2.5521151   -1.1555502    0.1012671   -2.5521151     1.396565   439061 
 1452000   0.93005793   -2.5513389   -2.5513389   -1.1562552  0.091515268   -2.5513389    1.3950837   439061 
 1453000   0.93000008   -2.5523399   -2.5523399   -1.1573429  0.092842795   -2.5523399    1.3949969   439061 
 1454000   0.92897259   -2.5493237   -2.5493237    -1.155868  0.094304281   -2.5493237    1.3934557   439061 
 1455000   0.92894189   -2.5495251   -2.5495251   -1.1561154  0.095599145   -2.5495251    1.3934097   439061 
 1456000   0.92927293   -2.5509124   -2.5509124   -1.1570061  0.096096824   -2.5509124    1.3939062   439061 
 1457000   0.92980447   -2.5508609   -2.5508609   -1.1561574  0.096439155   -2.5508609    1.3947035   439061 
 1458000   0.93035769   -2.5523181   -2.5523181   -1.1567848  0.093604786   -2.5523181    1.3955334   439061 
 1459000   0.92917402   -2.5503705   -2.5503705   -1.1566127  0.097975272   -2.5503705    1.3937579   439061 
 1460000   0.92964465   -2.5498704   -2.5498704   -1.1554066  0.098694978   -2.5498704    1.3944638   439061 
 1461000   0.93027188   -2.5523416   -2.5523416   -1.1569369  0.096343025   -2.5523416    1.3954046   439061 
 1462000   0.93113837   -2.5527541   -2.5527541   -1.1560497  0.092308841   -2.5527541    1.3967044   439061 
 1463000   0.92915508    -2.550594    -2.550594   -1.1568645  0.099383534    -2.550594    1.3937295   439061 
 1464000   0.93166974   -2.5532066   -2.5532066   -1.1557052   0.10037434   -2.5532066    1.3975014   439061 
 1465000   0.92998722    -2.551232    -2.551232   -1.1562544  0.099370048    -2.551232    1.3949777   439061 
 1466000   0.93114099   -2.5534588   -2.5534588   -1.1567505  0.095511963   -2.5534588    1.3967083   439061 
 1467000   0.92934924   -2.5508107   -2.5508107     -1.15679  0.095289337   -2.5508107    1.3940207   439061 
 1468000   0.92923068   -2.5510533   -2.5510533   -1.1572104  0.099503322   -2.5510533    1.3938429   439061 
 1469000   0.92963844   -2.5518048   -2.5518048   -1.1573503  0.098686801   -2.5518048    1.3944545   439061 
 1470000   0.93009475   -2.5519277   -2.5519277   -1.1567887  0.097834418   -2.5519277    1.3951389   439061 
 1471000   0.92998391   -2.5514061   -2.5514061   -1.1564334  0.098453131   -2.5514061    1.3949727   439061 
 1472000   0.92885637   -2.5503404   -2.5503404    -1.157059  0.094482752   -2.5503404    1.3932814   439061 
 1473000   0.92915572   -2.5506646   -2.5506646   -1.1569342  0.095779315   -2.5506646    1.3937304   439061 
 1474000   0.92892295   -2.5496495   -2.5496495   -1.1562682   0.10015337   -2.5496495    1.3933812   439061 
 1475000   0.92911949   -2.5515274   -2.5515274   -1.1578514  0.094913851   -2.5515274    1.3936761   439061 
 1476000   0.93020413   -2.5543485   -2.5543485   -1.1590455  0.094136433   -2.5543485     1.395303   439061 
 1477000    0.9287204   -2.5532019   -2.5532019   -1.1601245   0.09818017   -2.5532019    1.3930774   439061 
 1478000    0.9299173   -2.5532988   -2.5532988    -1.158426  0.098086643   -2.5532988    1.3948728   439061 
 1479000   0.92973232   -2.5536388   -2.5536388   -1.1590435  0.091488367   -2.5536388    1.3945953   439061 
 1480000   0.92753388    -2.551059    -2.551059   -1.1597614  0.093482111    -2.551059    1.3912977   439061 
 1481000    0.9287655   -2.5524551   -2.5524551     -1.15931  0.098733744   -2.5524551    1.3931451   439061 
 1482000   0.92755858   -2.5509679   -2.5509679   -1.1596332  0.096329795   -2.5509679    1.3913347   439061 
 1483000    0.9281908   -2.5530534   -2.5530534   -1.1607704  0.095464394   -2.5530534     1.392283   439061 
 1484000   0.92691396   -2.5494087   -2.5494087   -1.1590409  0.099067568   -2.5494087    1.3903678   439061 
 1485000   0.92898839   -2.5526345   -2.5526345   -1.1591551  0.097485775   -2.5526345    1.3934794   439061 
 1486000   0.92869281   -2.5515798   -2.5515798   -1.1585437  0.092925381   -2.5515798     1.393036   439061 
 1487000   0.92919061   -2.5526497   -2.5526497   -1.1588669   0.09273134   -2.5526497    1.3937827   439061 
 1488000   0.92824796   -2.5511741   -2.5511741   -1.1588053  0.098003252   -2.5511741    1.3923688   439061 
 1489000    0.9287002   -2.5513453   -2.5513453   -1.1582982  0.096232577   -2.5513453    1.3930471   439061 
 1490000    0.9286124   -2.5530767   -2.5530767   -1.1601613  0.093085846   -2.5530767    1.3929154   439061 
 1491000   0.93010058   -2.5537218   -2.5537218   -1.1585741  0.092849263   -2.5537218    1.3951477   439061 
 1492000   0.92945762    -2.552336    -2.552336   -1.1581527  0.094563676    -2.552336    1.3941833   439061 
 1493000   0.92886627   -2.5518011   -2.5518011   -1.1585048   0.09434399   -2.5518011    1.3932962   439061 
 1494000   0.92875245   -2.5523467   -2.5523467   -1.1592212  0.095228813   -2.5523467    1.3931255   439061 
 1495000   0.92887976   -2.5521405   -2.5521405   -1.1588241  0.096305544   -2.5521405    1.3933165   439061 
 1496000   0.92851533   -2.5516754   -2.5516754   -1.1589056   0.09611387   -2.5516754    1.3927698   439061 
 1497000   0.92878212   -2.5519331   -2.5519331   -1.1587631  0.096255363   -2.5519331      1.39317   439061 
 1498000   0.92945972   -2.5527515   -2.5527515   -1.1585651  0.093749579   -2.5527515    1.3941864   439061 
 1499000   0.92832441    -2.552029    -2.552029   -1.1595456  0.094835397    -2.552029    1.3924834   439061 
 1500000   0.92783662   -2.5533612   -2.5533612   -1.1616094  0.091922324   -2.5533612    1.3917518   439061 
 1501000   0.92689061   -2.5523418   -2.5523418   -1.1620091  0.089355925   -2.5523418    1.3903328   439061 
 1502000   0.92797463   -2.5532832   -2.5532832   -1.1613244  0.094596527   -2.5532832    1.3919588   439061 
 1503000   0.92777316   -2.5527115   -2.5527115   -1.1610549  0.096892966   -2.5527115    1.3916566   439061 
 1504000   0.92847914   -2.5532273   -2.5532273   -1.1605118  0.095491916   -2.5532273    1.3927155   439061 
 1505000   0.92897935   -2.5545227   -2.5545227   -1.1610569   0.09719261   -2.5545227    1.3934658   439061 
 1506000   0.92982137   -2.5561168   -2.5561168   -1.1613879  0.096293256   -2.5561168    1.3947289   439061 
 1507000   0.92862051   -2.5547665   -2.5547665    -1.161839  0.095805143   -2.5547665    1.3929276   439061 
 1508000   0.92866661   -2.5559812   -2.5559812   -1.1629845  0.087643851   -2.5559812    1.3929967   439061 
 1509000   0.92781577   -2.5543696   -2.5543696   -1.1626491  0.096007356   -2.5543696    1.3917205   439061 
 1510000   0.92930323   -2.5553736   -2.5553736   -1.1614219  0.095374166   -2.5553736    1.3939517   439061 
 1511000   0.92765958   -2.5519658   -2.5519658   -1.1604796  0.096222461   -2.5519658    1.3914862   439061 
 1512000   0.92971743   -2.5566384   -2.5566384   -1.1620654  0.094229765   -2.5566384     1.394573   439061 
 1513000   0.92748668    -2.554561    -2.554561   -1.1633341  0.094521909    -2.554561    1.3912269   439061 
 1514000   0.92822074   -2.5561967   -2.5561967   -1.1638687  0.096121725   -2.5561967    1.3923279   439061 
 1515000     0.928869   -2.5575082   -2.5575082   -1.1642078   0.09819754   -2.5575082    1.3933003   439061 
 1516000   0.92738651   -2.5557006   -2.5557006    -1.164624  0.094203351   -2.5557006    1.3910766   439061 
 1517000   0.92868093   -2.5576087   -2.5576087   -1.1645904  0.096073294   -2.5576087    1.3930182   439061 
 1518000   0.92771545   -2.5571984   -2.5571984   -1.1656284  0.094840068   -2.5571984      1.39157   439061 
 1519000   0.92770409   -2.5575087   -2.5575087   -1.1659557  0.094478715   -2.5575087     1.391553   439061 
 1520000   0.92967868   -2.5587789   -2.5587789    -1.164264  0.095911844   -2.5587789    1.3945148   439061 
 1521000   0.92853676   -2.5580931   -2.5580931   -1.1652912  0.090413436   -2.5580931     1.392802   439061 
 1522000   0.92690707   -2.5567428   -2.5567428   -1.1663853  0.098348811   -2.5567428    1.3903574   439061 
 1523000    0.9273529   -2.5575075   -2.5575075   -1.1664813  0.097355154   -2.5575075    1.3910262   439061 
 1524000   0.92753867   -2.5592901   -2.5592901   -1.1679852  0.093562611   -2.5592901    1.3913048   439061 
 1525000   0.92813297   -2.5599094   -2.5599094   -1.1677131  0.089907602   -2.5599094    1.3921963   439061 
 1526000   0.92651764   -2.5573696   -2.5573696   -1.1675963  0.092685877   -2.5573696    1.3897733   439061 
 1527000   0.92740064   -2.5584331   -2.5584331   -1.1673353  0.096581526   -2.5584331    1.3910978   439061 
 1528000   0.92584214   -2.5565434   -2.5565434   -1.1677834  0.094374116   -2.5565434      1.38876   439061 
 1529000   0.92745704   -2.5581118   -2.5581118   -1.1669294  0.097116539   -2.5581118    1.3911824   439061 
 1530000   0.92712872   -2.5575804   -2.5575804   -1.1668905   0.09745642   -2.5575804    1.3906899   439061 
 1531000   0.92821338   -2.5601271   -2.5601271   -1.1678102  0.091778818   -2.5601271    1.3923169   439061 
 1532000   0.92869095   -2.5583298   -2.5583298   -1.1652966   0.09466712   -2.5583298    1.3930332   439061 
 1533000   0.92657321   -2.5564112   -2.5564112   -1.1665545  0.094564554   -2.5564112    1.3898566   439061 
 1534000   0.92915946   -2.5597601   -2.5597601   -1.1660241  0.094900355   -2.5597601     1.393736   439061 
 1535000   0.92834303   -2.5590175   -2.5590175   -1.1665061  0.091446384   -2.5590175    1.3925114   439061 
 1536000   0.92781137   -2.5588527   -2.5588527   -1.1671388  0.096280986   -2.5588527    1.3917139   439061 
 1537000   0.92671069   -2.5586365   -2.5586365   -1.1685736   0.09292239   -2.5586365    1.3900629   439061 
 1538000   0.92760277   -2.5595291   -2.5595291   -1.1681281  0.092113826   -2.5595291     1.391401   439061 
 1539000   0.92650975   -2.5577509   -2.5577509   -1.1679894  0.094039345   -2.5577509    1.3897615   439061 
 1540000   0.92656136   -2.5586574   -2.5586574   -1.1688186  0.092374407   -2.5586574    1.3898389   439061 
 1541000   0.92603942   -2.5586699   -2.5586699   -1.1696139  0.093317859   -2.5586699     1.389056   439061 
 1542000   0.92690943   -2.5605306   -2.5605306   -1.1701696  0.092463566   -2.5605306     1.390361   439061 
 1543000    0.9249742   -2.5566842   -2.5566842   -1.1692261  0.096078954   -2.5566842    1.3874581   439061 
 1544000   0.92480928   -2.5567393   -2.5567393   -1.1695286  0.093749726   -2.5567393    1.3872108   439061 
 1545000   0.92675785   -2.5592881   -2.5592881   -1.1691545  0.092528662   -2.5592881    1.3901336   439061 
 1546000   0.92624619   -2.5590348   -2.5590348   -1.1696687  0.091933727   -2.5590348    1.3893661   439061 
 1547000   0.92722524   -2.5607197   -2.5607197    -1.169885  0.095143166   -2.5607197    1.3908347   439061 
 1548000   0.92762735   -2.5610107   -2.5610107   -1.1695728   0.09699322   -2.5610107    1.3914379   439061 
 1549000   0.92785402    -2.559758    -2.559758   -1.1679801  0.093227541    -2.559758    1.3917779   439061 
 1550000   0.92800043   -2.5595229   -2.5595229   -1.1675254  0.093124931   -2.5595229    1.3919975   439061 
 1551000    0.9263251   -2.5596385   -2.5596385    -1.170154  0.096564255   -2.5596385    1.3894845   439061 
 1552000   0.92684573   -2.5583944   -2.5583944    -1.168129  0.094524839   -2.5583944    1.3902654   439061 
 1553000   0.92658093   -2.5597532   -2.5597532    -1.169885  0.092958032   -2.5597532    1.3898682   439061 
 1554000   0.92612228   -2.5600472   -2.5600472    -1.170867  0.093693157   -2.5600472    1.3891803   439061 
 1555000   0.92500198   -2.5579433   -2.5579433   -1.1704435  0.094322899   -2.5579433    1.3874998   439061 
 1556000   0.92742706   -2.5602476   -2.5602476   -1.1691101  0.091060688   -2.5602476    1.3911374   439061 
 1557000   0.92750445     -2.56106     -2.56106   -1.1698065  0.096198743     -2.56106    1.3912535   439061 
 1558000   0.92799252   -2.5615205   -2.5615205   -1.1695349  0.093211069   -2.5615205    1.3919856   439061 
 1559000   0.92531211   -2.5583706   -2.5583706   -1.1704056  0.094489863   -2.5583706     1.387965   439061 
 1560000   0.92616173   -2.5603776   -2.5603776   -1.1711382  0.097413544   -2.5603776    1.3892394   439061 
 1561000   0.92640793   -2.5606934   -2.5606934   -1.1710847  0.095220922   -2.5606934    1.3896087   439061 
 1562000   0.92683601   -2.5617163   -2.5617163   -1.1714654  0.095158594   -2.5617163    1.3902509   439061 
 1563000   0.92660683   -2.5608843   -2.5608843   -1.1709772  0.095556671   -2.5608843    1.3899071   439061 
 1564000   0.92622919   -2.5604522   -2.5604522   -1.1711116  0.091251431   -2.5604522    1.3893406   439061 
 1565000   0.92636703   -2.5615806   -2.5615806   -1.1720332  0.094408731   -2.5615806    1.3895474   439061 
 1566000   0.92787236   -2.5631177   -2.5631177   -1.1713123   0.09538774   -2.5631177    1.3918054   439061 
 1567000   0.92630177   -2.5609437   -2.5609437   -1.1714942  0.092059001   -2.5609437    1.3894495   439061 
 1568000   0.92683607   -2.5611992   -2.5611992   -1.1709482  0.092779456   -2.5611992    1.3902509   439061 
 1569000   0.92651586   -2.5611143   -2.5611143   -1.1713436  0.096714632   -2.5611143    1.3897706   439061 
 1570000   0.92828473   -2.5630234   -2.5630234   -1.1705995  0.094497147   -2.5630234    1.3924239   439061 
 1571000   0.92699837   -2.5606894   -2.5606894    -1.170195  0.095731499   -2.5606894    1.3904944   439061 
 1572000   0.92691796   -2.5604792   -2.5604792   -1.1701054  0.094415288   -2.5604792    1.3903738   439061 
 1573000   0.92742871   -2.5614966   -2.5614966   -1.1703567  0.094202099   -2.5614966    1.3911399   439061 
 1574000   0.92671232    -2.560929    -2.560929   -1.1708637  0.091313266    -2.560929    1.3900653   439061 
 1575000   0.92670742   -2.5630867   -2.5630867   -1.1730287  0.093993368   -2.5630867     1.390058   439061 
 1576000   0.92681754   -2.5619966   -2.5619966   -1.1717734  0.095719367   -2.5619966    1.3902232   439061 
 1577000    0.9274606   -2.5622665   -2.5622665   -1.1710787  0.095655771   -2.5622665    1.3911877   439061 
 1578000   0.92637406   -2.5617872   -2.5617872   -1.1722293  0.096207512   -2.5617872    1.3895579   439061 
 1579000    0.9249174   -2.5604105   -2.5604105   -1.1730376   0.09476784   -2.5604105    1.3873729   439061 
 1580000   0.92522177   -2.5610261   -2.5610261   -1.1731966  0.089339052   -2.5610261    1.3878295   439061 
 1581000     0.926301   -2.5620751   -2.5620751   -1.1726267   0.09184841   -2.5620751    1.3894483   439061 
 1582000   0.92704252   -2.5609732   -2.5609732   -1.1704126   0.09119568   -2.5609732    1.3905606   439061 
 1583000   0.92629445   -2.5603024   -2.5603024   -1.1708639  0.095078793   -2.5603024    1.3894385   439061 
 1584000   0.92717358   -2.5597495   -2.5597495   -1.1689923  0.089738922   -2.5597495    1.3907572   439061 
 1585000   0.92737588   -2.5603199   -2.5603199   -1.1692592  0.095947715   -2.5603199    1.3910607   439061 
 1586000   0.92845225   -2.5614414   -2.5614414   -1.1687662   0.09463589   -2.5614414    1.3926752   439061 
 1587000    0.9279876   -2.5596163   -2.5596163   -1.1676381   0.09867835   -2.5596163    1.3919782   439061 
 1588000   0.92851702   -2.5601375   -2.5601375   -1.1673651  0.094792728   -2.5601375    1.3927724   439061 
 1589000    0.9283957   -2.5591416   -2.5591416   -1.1665512  0.095527867   -2.5591416    1.3925904   439061 
 1590000   0.92871094   -2.5594405   -2.5594405   -1.1663772  0.094697481   -2.5594405    1.3930632   439061 
 1591000   0.92769182   -2.5583517   -2.5583517   -1.1668171   0.09601613   -2.5583517    1.3915346   439061 
 1592000   0.92639648   -2.5572016   -2.5572016   -1.1676101  0.088924564   -2.5572016    1.3895916   439061 
 1593000   0.92707988   -2.5581431   -2.5581431   -1.1675264  0.094603808   -2.5581431    1.3906167   439061 
 1594000   0.92661746   -2.5579446   -2.5579446   -1.1680216  0.091579361   -2.5579446     1.389923   439061 
 1595000   0.92592016   -2.5579822   -2.5579822   -1.1691051  0.093676171   -2.5579822    1.3888771   439061 
 1596000   0.92575434   -2.5575044   -2.5575044   -1.1688761  0.089750065   -2.5575044    1.3886284   439061 
 1597000   0.92482976   -2.5577578   -2.5577578   -1.1705164  0.094255743   -2.5577578    1.3872415   439061 
 1598000    0.9263475   -2.5576337   -2.5576337   -1.1681156  0.091559513   -2.5576337    1.3895181   439061 
 1599000   0.92534538   -2.5570337   -2.5570337   -1.1690187  0.092603818   -2.5570337    1.3880149   439061 
 1600000   0.92627082   -2.5593902   -2.5593902   -1.1699871  0.088756046   -2.5593902    1.3894031   439061 
 1601000   0.92577137   -2.5579977   -2.5579977   -1.1693438  0.089965592   -2.5579977    1.3886539   439061 
 1602000   0.92669241   -2.5587816   -2.5587816   -1.1687461  0.089921259   -2.5587816    1.3900354   439061 
 1603000   0.92549841   -2.5581582   -2.5581582   -1.1699137   0.09081718   -2.5581582    1.3882445   439061 
 1604000    0.9257563   -2.5587532   -2.5587532   -1.1701219  0.091153329   -2.5587532    1.3886313   439061 
 1605000   0.92466107   -2.5566562   -2.5566562   -1.1696677  0.093624073   -2.5566562    1.3869884   439061 
 1606000   0.92644554   -2.5598804   -2.5598804   -1.1702152  0.092105162   -2.5598804    1.3896651   439061 
 1607000   0.92530965   -2.5589779   -2.5589779   -1.1710166  0.091932245   -2.5589779    1.3879613   439061 
 1608000   0.92596364   -2.5586141   -2.5586141   -1.1696718  0.089601726   -2.5586141    1.3889423   439061 
 1609000   0.92495946   -2.5568166   -2.5568166   -1.1693806  0.092586645   -2.5568166     1.387436   439061 
 1610000   0.92691096   -2.5578763   -2.5578763    -1.167513  0.089532092   -2.5578763    1.3903633   439061 
 1611000   0.92781004   -2.5587552   -2.5587552   -1.1670433  0.096498106   -2.5587552    1.3917119   439061 
 1612000   0.92677789    -2.557845    -2.557845   -1.1676814    0.1019056    -2.557845    1.3901637   439061 
 1613000   0.92650191   -2.5586976   -2.5586976   -1.1689479  0.090749653   -2.5586976    1.3897497   439061 
 1614000   0.92869386   -2.5596103   -2.5596103   -1.1665726  0.091183317   -2.5596103    1.3930376   439061 
 1615000   0.92910263   -2.5605758   -2.5605758   -1.1669251  0.095199931   -2.5605758    1.3936508   439061 
 1616000   0.92743872    -2.559027    -2.559027   -1.1678721  0.096518105    -2.559027    1.3911549   439061 
 1617000   0.92841055   -2.5608621   -2.5608621   -1.1682494  0.093790801   -2.5608621    1.3926127   439061 
 1618000   0.92776929   -2.5609243   -2.5609243   -1.1692735  0.092512947   -2.5609243    1.3916508   439061 
 1619000   0.92619563   -2.5587138   -2.5587138   -1.1694235  0.093216332   -2.5587138    1.3892903   439061 
 1620000   0.92696939   -2.5602296   -2.5602296   -1.1697787  0.095500075   -2.5602296    1.3904509   439061 
 1621000   0.92635996   -2.5597699   -2.5597699   -1.1702331  0.094067773   -2.5597699    1.3895368   439061 
 1622000   0.92582969   -2.5594362   -2.5594362   -1.1706948  0.094541382   -2.5594362    1.3887414   439061 
 1623000   0.92760525   -2.5631361   -2.5631361   -1.1717314  0.092196996   -2.5631361    1.3914047   439061 
 1624000   0.92634553   -2.5615839   -2.5615839   -1.1720688  0.092066243   -2.5615839    1.3895151   439061 
 1625000   0.92685345   -2.5627638   -2.5627638   -1.1724868  0.092698047   -2.5627638     1.390277   439061 
 1626000   0.92586379    -2.560552    -2.560552   -1.1717595  0.091049569    -2.560552    1.3887925   439061 
 1627000   0.92591605   -2.5614435   -2.5614435   -1.1725726  0.092982808   -2.5614435    1.3888709   439061 
 1628000   0.92698508   -2.5623265   -2.5623265    -1.171852  0.089350339   -2.5623265    1.3904745   439061 
 1629000   0.92615609   -2.5617016   -2.5617016   -1.1724706   0.09241088   -2.5617016     1.389231   439061 
 1630000   0.92635715   -2.5627913   -2.5627913   -1.1732587  0.092126153   -2.5627913    1.3895326   439061 
 1631000   0.92571635     -2.56154     -2.56154   -1.1729686  0.089860189     -2.56154    1.3885714   439061 
 1632000   0.92625098   -2.5616687   -2.5616687   -1.1722954   0.09223557   -2.5616687    1.3893733   439061 
 1633000   0.92617219   -2.5616923   -2.5616923   -1.1724371  0.093409403   -2.5616923    1.3892551   439061 
 1634000   0.92567075   -2.5595538   -2.5595538   -1.1710508  0.091420045   -2.5595538     1.388503   439061 
 1635000   0.92577095   -2.5606181   -2.5606181   -1.1719648  0.090814506   -2.5606181    1.3886533   439061 
 1636000   0.92640358   -2.5625317   -2.5625317   -1.1729295  0.092906752   -2.5625317    1.3896022   439061 
 1637000   0.92647601   -2.5612891   -2.5612891   -1.1715782  0.095606923   -2.5612891    1.3897108   439061 
 1638000   0.92524224   -2.5599515   -2.5599515   -1.1720913  0.091396046   -2.5599515    1.3878602   439061 
 1639000   0.92382197   -2.5582983   -2.5582983   -1.1725685  0.092245103   -2.5582983    1.3857298   439061 
 1640000   0.92402832    -2.558802    -2.558802   -1.1727627  0.085664738    -2.558802    1.3860393   439061 
 1641000   0.92446699   -2.5571158   -2.5571158   -1.1704184   0.09265302   -2.5571158    1.3866973   439061 
 1642000   0.92369659   -2.5563175   -2.5563175   -1.1707758  0.092181677   -2.5563175    1.3855417   439061 
 1643000   0.92513393   -2.5598673   -2.5598673   -1.1721695  0.089480111   -2.5598673    1.3876977   439061 
 1644000   0.92531557   -2.5595593   -2.5595593   -1.1715891  0.090181912   -2.5595593    1.3879702   439061 
 1645000    0.9252096   -2.5590799   -2.5590799   -1.1712686  0.095008616   -2.5590799    1.3878112   439061 
 1646000    0.9258252   -2.5588169   -2.5588169   -1.1700822  0.093009866   -2.5588169    1.3887346   439061 
 1647000   0.92540915   -2.5595042   -2.5595042   -1.1713936  0.090415166   -2.5595042    1.3881106   439061 
 1648000   0.92593012   -2.5599177   -2.5599177   -1.1710257   0.09684744   -2.5599177     1.388892   439061 
 1649000   0.92459315    -2.558544    -2.558544   -1.1716575  0.089630982    -2.558544    1.3868866   439061 
 1650000   0.92545299    -2.559973    -2.559973   -1.1717966  0.089060872    -2.559973    1.3881763   439061 
 1651000   0.92555963   -2.5610377   -2.5610377   -1.1727015  0.088981461   -2.5610377    1.3883363   439061 
 1652000   0.92567321   -2.5604341   -2.5604341   -1.1719274  0.090395939   -2.5604341    1.3885067   439061 
 1653000   0.92558448   -2.5606982   -2.5606982   -1.1723246  0.092747796   -2.5606982    1.3883736   439061 
 1654000   0.92579475    -2.561202    -2.561202    -1.172513  0.092465929    -2.561202     1.388689   439061 
 1655000   0.92684014    -2.562405    -2.562405    -1.172148  0.089478988    -2.562405     1.390257   439061 
 1656000   0.92588262   -2.5611248   -2.5611248   -1.1723041  0.088983188   -2.5611248    1.3888208   439061 
 1657000   0.92684913   -2.5625744   -2.5625744   -1.1723039  0.090011759   -2.5625744    1.3902705   439061 
 1658000   0.92561032    -2.561802    -2.561802   -1.1733897  0.094523973    -2.561802    1.3884123   439061 
 1659000   0.92482803   -2.5610127   -2.5610127   -1.1737738  0.093787623   -2.5610127    1.3872389   439061 
 1660000   0.92622704    -2.561835    -2.561835   -1.1724976  0.094413743    -2.561835    1.3893374   439061 
 1661000   0.92546425   -2.5615801   -2.5615801   -1.1733868  0.093468866   -2.5615801    1.3881932   439061 
 1662000   0.92533959   -2.5623712   -2.5623712    -1.174365  0.094881113   -2.5623712    1.3880062   439061 
 1663000   0.92567748   -2.5634817   -2.5634817   -1.1749687  0.094441617   -2.5634817    1.3885131   439061 
 1664000   0.92472673   -2.5618005   -2.5618005   -1.1747136  0.096052426   -2.5618005    1.3870869   439061 
 1665000   0.92756853   -2.5663134   -2.5663134   -1.1749638  0.094082957   -2.5663134    1.3913496   439061 
 1666000   0.92545288   -2.5639649   -2.5639649   -1.1757887  0.092541206   -2.5639649    1.3881762   439061 
 1667000   0.92431383   -2.5623844   -2.5623844   -1.1759168  0.097914197   -2.5623844    1.3864676   439061 
 1668000   0.92617554   -2.5644105   -2.5644105   -1.1751503  0.090769062   -2.5644105    1.3892601   439061 
 1669000   0.92538281   -2.5644028   -2.5644028   -1.1763317  0.090841639   -2.5644028     1.388071   439061 
 1670000   0.92458631   -2.5638397   -2.5638397   -1.1769634  0.092935777   -2.5638397    1.3868763   439061 
 1671000   0.92484614   -2.5633989   -2.5633989   -1.1761329  0.092587541   -2.5633989    1.3872661   439061 
 1672000   0.92446015   -2.5623227   -2.5623227   -1.1756356  0.091827715   -2.5623227    1.3866871   439061 
 1673000   0.92612003   -2.5651268   -2.5651268   -1.1759499  0.092810318   -2.5651268    1.3891769   439061 
 1674000   0.92567541   -2.5631399   -2.5631399   -1.1746299  0.089538396   -2.5631399      1.38851   439061 
 1675000    0.9265054   -2.5643681   -2.5643681   -1.1746132  0.091882515   -2.5643681    1.3897549   439061 
 1676000   0.92537447   -2.5630421   -2.5630421   -1.1749836  0.094931345   -2.5630421    1.3880585   439061 
 1677000   0.92527098   -2.5635818   -2.5635818   -1.1756785  0.097668638   -2.5635818    1.3879033   439061 
 1678000   0.92589189   -2.5649252   -2.5649252   -1.1760906    0.0968699   -2.5649252    1.3888347   439061 
 1679000   0.92434284   -2.5620363   -2.5620363   -1.1755252  0.090342696   -2.5620363    1.3865111   439061 
 1680000   0.92480567   -2.5637407   -2.5637407   -1.1765354  0.094620839   -2.5637407    1.3872054   439061 
 1681000   0.92666271   -2.5658603   -2.5658603   -1.1758694  0.092371807   -2.5658603    1.3899909   439061 
 1682000   0.92540643   -2.5644739   -2.5644739   -1.1763674  0.093089147   -2.5644739    1.3881065   439061 
 1683000   0.92486755   -2.5627179   -2.5627179   -1.1754197  0.093454755   -2.5627179    1.3872982   439061 
 1684000   0.92580413    -2.565068    -2.565068    -1.176365  0.089777014    -2.565068     1.388703   439061 
 1685000   0.92442876   -2.5632643   -2.5632643   -1.1766243  0.090106459   -2.5632643      1.38664   439061 
 1686000   0.92629903   -2.5649244   -2.5649244   -1.1754791  0.087081928   -2.5649244    1.3894454   439061 
 1687000   0.92619821   -2.5643925   -2.5643925   -1.1750983  0.092118106   -2.5643925    1.3892941   439061 
 1688000   0.92547925   -2.5631392   -2.5631392   -1.1749234  0.092858234   -2.5631392    1.3882157   439061 
 1689000   0.92703867   -2.5657877   -2.5657877   -1.1752328  0.093045126   -2.5657877    1.3905548   439061 
 1690000   0.92577945   -2.5625594   -2.5625594   -1.1738934  0.092268094   -2.5625594     1.388666   439061 
 1691000   0.92399117    -2.561299    -2.561299   -1.1753154  0.089302002    -2.561299    1.3859836   439061 
 1692000   0.92549891   -2.5650683   -2.5650683   -1.1768231  0.090156679   -2.5650683    1.3882452   439061 
 1693000   0.92336248   -2.5636063   -2.5636063   -1.1785657  0.088394902   -2.5636063    1.3850406   439061 
 1694000   0.92436572   -2.5627369   -2.5627369   -1.1761915  0.089300551   -2.5627369    1.3865454   439061 
 1695000   0.92506623   -2.5620015   -2.5620015   -1.1744054  0.090256538   -2.5620015    1.3875962   439061 
 1696000   0.92466714   -2.5613413   -2.5613413   -1.1743438  0.091504462   -2.5613413    1.3869976   439061 
 1697000   0.92442647   -2.5612148   -2.5612148   -1.1745783  0.089113755   -2.5612148    1.3866366   439061 
 1698000   0.92527705     -2.56222     -2.56222   -1.1743076  0.090732476     -2.56222    1.3879124   439061 
 1699000   0.92541609   -2.5617994   -2.5617994   -1.1736784  0.091293067   -2.5617994     1.388121   439061 
 1700000   0.92415183   -2.5604667   -2.5604667   -1.1742421  0.091893607   -2.5604667    1.3862246   439061 
 1701000    0.9248696   -2.5615835   -2.5615835   -1.1742823  0.092451291   -2.5615835    1.3873012   439061 
 1702000   0.92512314    -2.561892    -2.561892   -1.1742105   0.09359816    -2.561892    1.3876816   439061 
 1703000   0.92394908   -2.5610158   -2.5610158   -1.1750954  0.087696834   -2.5610158    1.3859205   439061 
 1704000   0.92510525   -2.5611099   -2.5611099   -1.1734552  0.094217094   -2.5611099    1.3876547   439061 
 1705000    0.9239955   -2.5617633   -2.5617633   -1.1757732   0.09623066   -2.5617633    1.3859901   439061 
 1706000   0.92445452   -2.5624486   -2.5624486     -1.17577  0.083655174   -2.5624486    1.3866786   439061 
 1707000   0.92497888   -2.5631195   -2.5631195   -1.1756543  0.086263288   -2.5631195    1.3874652   439061 
 1708000   0.92468612   -2.5606803   -2.5606803   -1.1736543  0.088190534   -2.5606803     1.387026   439061 
 1709000   0.92474946   -2.5613443   -2.5613443   -1.1742232  0.091950324   -2.5613443     1.387121   439061 
 1710000   0.92348708   -2.5601535   -2.5601535   -1.1749261  0.088256018   -2.5601535    1.3852275   439061 
 1711000    0.9238254   -2.5621482   -2.5621482   -1.1764133  0.087381333   -2.5621482    1.3857349   439061 
 1712000   0.92532992   -2.5621852   -2.5621852   -1.1741935  0.092417312   -2.5621852    1.3879917   439061 
 1713000   0.92371954   -2.5609411   -2.5609411   -1.1753649  0.094371676   -2.5609411    1.3855762   439061 
 1714000   0.92463619   -2.5620521   -2.5620521    -1.175101  0.083679098   -2.5620521    1.3869511   439061 
 1715000     0.923564   -2.5604709   -2.5604709   -1.1751281  0.091972628   -2.5604709    1.3853429   439061 
 1716000   0.92411232    -2.560687    -2.560687   -1.1745217  0.089442509    -2.560687    1.3861653   439061 
 1717000   0.92484425   -2.5599741   -2.5599741   -1.1727109  0.089254254   -2.5599741    1.3872632   439061 
 1718000   0.92717655   -2.5627263   -2.5627263   -1.1719647  0.089440038   -2.5627263    1.3907617   439061 
 1719000   0.92477056   -2.5611514   -2.5611514   -1.1739987  0.091519286   -2.5611514    1.3871527   439061 
 1720000   0.92382086   -2.5596246   -2.5596246   -1.1738965  0.088545231   -2.5596246    1.3857281   439061 
 1721000   0.92474945   -2.5604529   -2.5604529   -1.1733319  0.089587945   -2.5604529     1.387121   439061 
 1722000   0.92543173   -2.5622414   -2.5622414   -1.1740969   0.08901389   -2.5622414    1.3881444   439061 
 1723000   0.92414788   -2.5613233   -2.5613233   -1.1751047  0.089330303   -2.5613233    1.3862187   439061 
 1724000   0.92490199   -2.5623956   -2.5623956   -1.1750458  0.093863136   -2.5623956    1.3873498   439061 
 1725000   0.92703526   -2.5640578   -2.5640578   -1.1735081  0.086086495   -2.5640578    1.3905497   439061 
 1726000   0.92630463   -2.5630571   -2.5630571   -1.1736033  0.089978232   -2.5630571    1.3894538   439061 
 1727000   0.92390626   -2.5608829   -2.5608829   -1.1750267  0.090565662   -2.5608829    1.3858562   439061 
 1728000   0.92500214   -2.5629852   -2.5629852   -1.1754852  0.090912036   -2.5629852       1.3875   439061 
 1729000   0.92440525   -2.5614501   -2.5614501   -1.1748453  0.094448114   -2.5614501    1.3866047   439061 
 1730000   0.92447537   -2.5622931   -2.5622931   -1.1755832  0.092895678   -2.5622931    1.3867099   439061 
 1731000   0.92466714   -2.5631591   -2.5631591   -1.1761615  0.092494734   -2.5631591    1.3869976   439061 
 1732000   0.92476145   -2.5649645   -2.5649645   -1.1778255   0.08985911   -2.5649645     1.387139   439061 
 1733000   0.92498993   -2.5658578   -2.5658578   -1.1783761  0.092014738   -2.5658578    1.3874817   439061 
 1734000   0.92449302   -2.5654123   -2.5654123   -1.1786759  0.093230085   -2.5654123    1.3867364   439061 
 1735000    0.9245953   -2.5659242   -2.5659242   -1.1790345  0.088562046   -2.5659242    1.3868898   439061 
 1736000   0.92419619   -2.5649878   -2.5649878   -1.1786967  0.091191136   -2.5649878    1.3862911   439061 
 1737000    0.9240455   -2.5658131   -2.5658131   -1.1797481  0.091217226   -2.5658131    1.3860651   439061 
 1738000   0.92428498   -2.5661949   -2.5661949   -1.1797706  0.089105732   -2.5661949    1.3864243   439061 
 1739000   0.92516822   -2.5667309   -2.5667309   -1.1789817  0.092507265   -2.5667309    1.3877492   439061 
 1740000   0.92420472   -2.5653082   -2.5653082   -1.1790043  0.094246305   -2.5653082    1.3863039   439061 
 1741000   0.92480505   -2.5663696   -2.5663696   -1.1791652  0.092402898   -2.5663696    1.3872044   439061 
 1742000    0.9238369   -2.5645299   -2.5645299   -1.1787777  0.089072942   -2.5645299    1.3857522   439061 
 1743000      0.92447   -2.5654913   -2.5654913   -1.1787894  0.091887563   -2.5654913    1.3867018   439061 
 1744000   0.92637156   -2.5663338   -2.5663338   -1.1767796  0.090700419   -2.5663338    1.3895542   439061 
 1745000   0.92463802   -2.5654934   -2.5654934   -1.1785395  0.091250504   -2.5654934    1.3869539   439061 
 1746000    0.9235626   -2.5647712   -2.5647712   -1.1794305  0.088814226   -2.5647712    1.3853407   439061 
 1747000   0.92558271    -2.567268    -2.567268   -1.1788971  0.090557969    -2.567268    1.3883709   439061 
 1748000   0.92355329   -2.5645643   -2.5645643   -1.1792375  0.090291197   -2.5645643    1.3853268   439061 
 1749000   0.92430648   -2.5652399   -2.5652399   -1.1787834  0.088214103   -2.5652399    1.3864566   439061 
 1750000   0.92500132   -2.5654648   -2.5654648    -1.177966  0.090904738   -2.5654648    1.3874988   439061 
 1751000   0.92486699    -2.566371    -2.566371   -1.1790737  0.091445948    -2.566371    1.3872973   439061 
 1752000   0.92489625   -2.5657816   -2.5657816   -1.1784404  0.092737529   -2.5657816    1.3873412   439061 
 1753000   0.92499683   -2.5662411   -2.5662411    -1.178749  0.086850884   -2.5662411    1.3874921   439061 
 1754000   0.92541285   -2.5661851   -2.5661851   -1.1780689  0.093289258   -2.5661851    1.3881161   439061 
 1755000   0.92393479   -2.5639129   -2.5639129   -1.1780139   0.08622029   -2.5639129     1.385899   439061 
 1756000   0.92426973   -2.5655046   -2.5655046   -1.1791032  0.090672787   -2.5655046    1.3864014   439061 
 1757000    0.9223843   -2.5635581   -2.5635581   -1.1799848  0.090733375   -2.5635581    1.3835733   439061 
 1758000   0.92348318   -2.5661776   -2.5661776    -1.180956  0.088340015   -2.5661776    1.3852216   439061 
 1759000   0.92242285   -2.5639932   -2.5639932   -1.1803621  0.083053106   -2.5639932    1.3836311   439061 
 1760000   0.92348987   -2.5646463   -2.5646463   -1.1794147  0.091081419   -2.5646463    1.3852317   439061 
 1761000   0.92350856   -2.5649691   -2.5649691   -1.1797094  0.090718743   -2.5649691    1.3852597   439061 
 1762000   0.92306775   -2.5663785   -2.5663785   -1.1817801  0.087411712   -2.5663785    1.3845985   439061 
 1763000    0.9222597   -2.5652359   -2.5652359   -1.1818495  0.091066862   -2.5652359    1.3833864   439061 
 1764000   0.92265315   -2.5663537   -2.5663537   -1.1823771  0.089210926   -2.5663537    1.3839766   439061 
 1765000    0.9227625   -2.5674937   -2.5674937   -1.1833531   0.08719356   -2.5674937    1.3841406   439061 
 1766000   0.92154714   -2.5649168   -2.5649168   -1.1825992  0.096358331   -2.5649168    1.3823176   439061 
 1767000   0.92235212   -2.5666223   -2.5666223   -1.1830973  0.087567526   -2.5666223     1.383525   439061 
 1768000   0.92371269   -2.5679211   -2.5679211   -1.1823553  0.088604084   -2.5679211    1.3855659   439061 
 1769000    0.9227955   -2.5667818   -2.5667818   -1.1825917  0.089667669   -2.5667818    1.3841901   439061 
 1770000   0.92437356   -2.5684759   -2.5684759   -1.1819187   0.09150987   -2.5684759    1.3865572   439061 
 1771000   0.92261679   -2.5669466   -2.5669466   -1.1830246  0.088826987   -2.5669466     1.383922   439061 
 1772000   0.92316517   -2.5674448   -2.5674448   -1.1827002  0.090725762   -2.5674448    1.3847446   439061 
 1773000   0.92379612    -2.568437    -2.568437    -1.182746  0.088907141    -2.568437     1.385691   439061 
 1774000   0.92320901   -2.5665777   -2.5665777   -1.1817673   0.09318234   -2.5665777    1.3848104   439061 
 1775000   0.92376869   -2.5683276   -2.5683276   -1.1826777  0.089141178   -2.5683276    1.3856499   439061 
 1776000   0.92358009   -2.5681172   -2.5681172   -1.1827502  0.092413996   -2.5681172     1.385367   439061 
 1777000    0.9236211   -2.5681714   -2.5681714   -1.1827429  0.094183987   -2.5681714    1.3854285   439061 
 1778000   0.92384272   -2.5695461   -2.5695461   -1.1837852  0.091242215   -2.5695461    1.3857609   439061 
 1779000    0.9227116   -2.5682867   -2.5682867   -1.1842225  0.087301179   -2.5682867    1.3840642   439061 
 1780000   0.92134893   -2.5668819   -2.5668819   -1.1848616  0.091840169   -2.5668819    1.3820202   439061 
 1781000    0.9248435   -2.5710451   -2.5710451    -1.183783  0.087941877   -2.5710451    1.3872621   439061 
 1782000   0.92142236   -2.5672056   -2.5672056   -1.1850753  0.090497447   -2.5672056    1.3821304   439061 
 1783000   0.92374284   -2.5693677   -2.5693677   -1.1837566  0.095826091   -2.5693677    1.3856111   439061 
 1784000   0.92469436   -2.5709934   -2.5709934    -1.183955  0.089886861   -2.5709934    1.3870384   439061 
 1785000   0.92378398   -2.5700844   -2.5700844   -1.1844116  0.092879444   -2.5700844    1.3856728   439061 
 1786000   0.92348857   -2.5697751   -2.5697751   -1.1845454  0.086912562   -2.5697751    1.3852297   439061 
 1787000   0.92206963   -2.5680963   -2.5680963    -1.184995  0.088226579   -2.5680963    1.3831013   439061 
 1788000   0.92328077   -2.5710295   -2.5710295   -1.1861115  0.087235178   -2.5710295     1.384918   439061 
 1789000   0.92160595   -2.5675579   -2.5675579   -1.1851521  0.089535067   -2.5675579    1.3824058   439061 
 1790000   0.92202993   -2.5685638   -2.5685638    -1.185522  0.092917141   -2.5685638    1.3830417   439061 
 1791000   0.92215482   -2.5678774   -2.5678774   -1.1846483  0.090852996   -2.5678774    1.3832291   439061 
 1792000   0.92352054   -2.5694401   -2.5694401   -1.1841624  0.087995565   -2.5694401    1.3852777   439061 
 1793000   0.92312811   -2.5696371   -2.5696371   -1.1849481  0.087979752   -2.5696371     1.384689   439061 
 1794000   0.92350063   -2.5692068   -2.5692068    -1.183959  0.091660203   -2.5692068    1.3852478   439061 
 1795000   0.92205612   -2.5670002   -2.5670002   -1.1839192   0.08963716   -2.5670002     1.383081   439061 
 1796000   0.92175397   -2.5664783   -2.5664783   -1.1838505  0.087993777   -2.5664783    1.3826278   439061 
 1797000   0.92197085   -2.5668061   -2.5668061   -1.1838529  0.089324374   -2.5668061    1.3829531   439061 
 1798000   0.92292569   -2.5676271   -2.5676271   -1.1832417  0.090342143   -2.5676271    1.3843854   439061 
 1799000   0.92247033   -2.5683126   -2.5683126   -1.1846103  0.090316908   -2.5683126    1.3837023   439061 
 1800000   0.92233446   -2.5680221   -2.5680221   -1.1845235  0.087430343   -2.5680221    1.3834985   439061 
 1801000   0.92191619   -2.5673624   -2.5673624   -1.1844913  0.090434306   -2.5673624    1.3828711   439061 
 1802000   0.92254552   -2.5678207   -2.5678207   -1.1840056  0.085859531   -2.5678207    1.3838151   439061 
 1803000   0.92340097   -2.5668496   -2.5668496   -1.1817513   0.09008373   -2.5668496    1.3850983   439061 
 1804000   0.92408681   -2.5681807   -2.5681807   -1.1820537  0.090412277   -2.5681807    1.3861271   439061 
 1805000   0.92255592   -2.5661062   -2.5661062   -1.1822755  0.089783364   -2.5661062    1.3838307   439061 
 1806000   0.92329185   -2.5681511   -2.5681511   -1.1832164    0.0910696   -2.5681511    1.3849346   439061 
 1807000   0.92195648    -2.566645    -2.566645   -1.1837134  0.089772745    -2.566645    1.3829316   439061 
 1808000   0.92213012   -2.5694925   -2.5694925   -1.1863005  0.088242373   -2.5694925     1.383192   439061 
 1809000   0.92077018   -2.5677652   -2.5677652   -1.1866131  0.084936782   -2.5677652    1.3811521   439061 
 1810000    0.9216474    -2.568216    -2.568216    -1.185748  0.092622478    -2.568216     1.382468   439061 
 1811000   0.92265276   -2.5679909   -2.5679909   -1.1840149  0.090665325   -2.5679909     1.383976   439061 
 1812000   0.92407108   -2.5691563   -2.5691563   -1.1830529  0.088576429   -2.5691563    1.3861035   439061 
 1813000   0.92423235   -2.5687271   -2.5687271   -1.1823817  0.090031246   -2.5687271    1.3863454   439061 
 1814000   0.92430703   -2.5701259   -2.5701259   -1.1836685  0.088265026   -2.5701259    1.3864574   439061 
 1815000   0.92330223   -2.5679825   -2.5679825   -1.1830323  0.089068456   -2.5679825    1.3849502   439061 
 1816000   0.92366483   -2.5698032   -2.5698032   -1.1843091  0.093777067   -2.5698032    1.3854941   439061 
 1817000   0.92378668   -2.5695553   -2.5695553   -1.1838784  0.091098687   -2.5695553    1.3856769   439061 
 1818000   0.92314827   -2.5696163   -2.5696163    -1.184897  0.091509281   -2.5696163    1.3847192   439061 
 1819000   0.92317623   -2.5695471   -2.5695471   -1.1847859  0.088865601   -2.5695471    1.3847612   439061 
 1820000   0.92243566    -2.568389    -2.568389   -1.1847387  0.088144982    -2.568389    1.3836503   439061 
 1821000   0.92299008   -2.5695994   -2.5695994   -1.1851175  0.088303729   -2.5695994     1.384482   439061 
 1822000   0.92180447   -2.5682369   -2.5682369   -1.1855334  0.090832742   -2.5682369    1.3827036   439061 
 1823000   0.92291143    -2.570168    -2.570168   -1.1858041  0.088194941    -2.570168     1.384364   439061 
 1824000   0.92372932   -2.5702762   -2.5702762   -1.1846854  0.094234497   -2.5702762    1.3855908   439061 
 1825000   0.92244775    -2.568929    -2.568929   -1.1852605  0.087831247    -2.568929    1.3836685   439061 
 1826000   0.92225721   -2.5691482   -2.5691482   -1.1857655  0.091755015   -2.5691482    1.3833827   439061 
 1827000     0.921614    -2.568831    -2.568831   -1.1864131  0.088991555    -2.568831    1.3824178   439061 
 1828000   0.92225354   -2.5695673   -2.5695673   -1.1861901  0.092137131   -2.5695673    1.3833772   439061 
 1829000   0.92268468   -2.5702796   -2.5702796   -1.1862558  0.087330266   -2.5702796    1.3840239   439061 
 1830000    0.9240429   -2.5725477   -2.5725477   -1.1864865  0.093937481   -2.5725477    1.3860612   439061 
 1831000   0.92411865   -2.5722544   -2.5722544   -1.1860795  0.091349444   -2.5722544    1.3861748   439061 
 1832000   0.92276673   -2.5712314   -2.5712314   -1.1870845  0.088970787   -2.5712314    1.3841469   439061 
 1833000   0.92210895   -2.5696484   -2.5696484   -1.1864882  0.092930088   -2.5696484    1.3831603   439061 
 1834000   0.92339093   -2.5712723   -2.5712723   -1.1861891  0.093585522   -2.5712723    1.3850832   439061 
 1835000    0.9226195   -2.5713281   -2.5713281    -1.187402  0.092253513   -2.5713281    1.3839261   439061 
 1836000   0.92254879   -2.5726225   -2.5726225   -1.1888025  0.090677276   -2.5726225      1.38382   439061 
 1837000   0.92294661   -2.5736641   -2.5736641   -1.1892473   0.08891618   -2.5736641    1.3844168   439061 
 1838000   0.92309337   -2.5741139   -2.5741139    -1.189477  0.087279237   -2.5741139    1.3846369   439061 
 1839000   0.92193952   -2.5715961   -2.5715961     -1.18869  0.090097898   -2.5715961    1.3829061   439061 
 1840000   0.92258556   -2.5723619   -2.5723619   -1.1884867  0.088992394   -2.5723619    1.3838752   439061 
 1841000   0.92184043   -2.5725816   -2.5725816   -1.1898241  0.088194595   -2.5725816    1.3827575   439061 
 1842000   0.92072594   -2.5707504   -2.5707504   -1.1896647  0.086808904   -2.5707504    1.3810858   439061 
 1843000    0.9201024   -2.5707051   -2.5707051   -1.1905546  0.091980163   -2.5707051    1.3801504   439061 
 1844000   0.92314619   -2.5744436   -2.5744436   -1.1897275  0.087907125   -2.5744436    1.3847161   439061 
 1845000   0.92042076   -2.5707761   -2.5707761   -1.1901481  0.088561614   -2.5707761     1.380628   439061 
 1846000   0.92116058   -2.5718508   -2.5718508   -1.1901131  0.089900325   -2.5718508    1.3817377   439061 
 1847000   0.92482644   -2.5749947   -2.5749947   -1.1877582  0.093732425   -2.5749947    1.3872365   439061 
 1848000   0.92299129   -2.5723239   -2.5723239   -1.1878401  0.090146151   -2.5723239    1.3844838   439061 
 1849000    0.9226759   -2.5729858   -2.5729858   -1.1889751  0.088933941   -2.5729858    1.3840107   439061 
 1850000   0.92342456   -2.5738007   -2.5738007    -1.188667  0.091462445   -2.5738007    1.3851337   439061 
 1851000   0.92309813   -2.5733184   -2.5733184   -1.1886743  0.090620693   -2.5733184     1.384644   439061 
 1852000   0.92179265   -2.5720158   -2.5720158     -1.18933  0.090090303   -2.5720158    1.3826858   439061 
 1853000   0.92132516   -2.5714562   -2.5714562   -1.1894716  0.090363609   -2.5714562    1.3819846   439061 
 1854000   0.92307392   -2.5744726   -2.5744726   -1.1898649  0.085595942   -2.5744726    1.3846077   439061 
 1855000   0.92199053   -2.5723184   -2.5723184   -1.1893358  0.088238044   -2.5723184    1.3829826   439061 
 1856000   0.92169821   -2.5717312   -2.5717312   -1.1891871  0.091009635   -2.5717312    1.3825442   439061 
 1857000   0.92472042   -2.5750354   -2.5750354   -1.1879579  0.089721377   -2.5750354    1.3870775   439061 
 1858000   0.92247239   -2.5718988   -2.5718988   -1.1881934  0.092117041   -2.5718988    1.3837054   439061 
 1859000   0.92266236   -2.5718262   -2.5718262   -1.1878358  0.091139864   -2.5718262    1.3839904   439061 
 1860000   0.92216273   -2.5706641   -2.5706641   -1.1874232  0.088537869   -2.5706641    1.3832409   439061 
 1861000   0.92245751   -2.5693416   -2.5693416   -1.1856585  0.090637185   -2.5693416    1.3836831   439061 
 1862000   0.92273358   -2.5718641   -2.5718641   -1.1877669  0.086524204   -2.5718641    1.3840972   439061 
 1863000    0.9219609   -2.5707653   -2.5707653   -1.1878271  0.090039991   -2.5707653    1.3829382   439061 
 1864000   0.92219896   -2.5705177   -2.5705177   -1.1872224  0.088142692   -2.5705177    1.3832953   439061 
 1865000    0.9217621   -2.5698044   -2.5698044   -1.1871644  0.087227107   -2.5698044      1.38264   439061 
 1866000   0.92330721   -2.5715421   -2.5715421   -1.1865844  0.090845001   -2.5715421    1.3849577   439061 
 1867000   0.92186895   -2.5700943   -2.5700943    -1.187294  0.092424849   -2.5700943    1.3828003   439061 
 1868000   0.92122632   -2.5690827   -2.5690827   -1.1872464  0.089571178   -2.5690827    1.3818363   439061 
 1869000   0.92191669   -2.5699385   -2.5699385   -1.1870666  0.087729984   -2.5699385    1.3828719   439061 
 1870000   0.92100492   -2.5684452   -2.5684452    -1.186941  0.090059241   -2.5684452    1.3815042   439061 
 1871000   0.91997793   -2.5673192   -2.5673192   -1.1873555  0.086961006   -2.5673192    1.3799638   439061 
 1872000   0.92226823   -2.5717556   -2.5717556   -1.1883564  0.090204815   -2.5717556    1.3833992   439061 
 1873000   0.92196388   -2.5710833   -2.5710833   -1.1881406  0.084549011   -2.5710833    1.3829427   439061 
 1874000    0.9235454   -2.5722379   -2.5722379   -1.1869229     0.084558   -2.5722379    1.3853149   439061 
 1875000   0.92011345   -2.5678851   -2.5678851   -1.1877181  0.085496421   -2.5678851     1.380167   439061 
 1876000   0.92085025   -2.5688343   -2.5688343   -1.1875621  0.086226449   -2.5688343    1.3812722   439061 
 1877000   0.92142572   -2.5691108   -2.5691108   -1.1869754  0.088556856   -2.5691108    1.3821354   439061 
 1878000   0.92189965    -2.570163    -2.570163   -1.1873167  0.088031516    -2.570163    1.3828463   439061 
 1879000    0.9217207   -2.5692775   -2.5692775   -1.1866996  0.088703456   -2.5692775    1.3825779   439061 
 1880000   0.92341115   -2.5714551   -2.5714551   -1.1863415  0.087868954   -2.5714551    1.3851136   439061 
 1881000   0.92207637    -2.569703    -2.569703   -1.1865916  0.085538495    -2.569703    1.3831114   439061 
 1882000   0.92243156   -2.5710921   -2.5710921   -1.1874479  0.089435246   -2.5710921    1.3836442   439061 
 1883000   0.92176318    -2.570205    -2.570205   -1.1875633  0.084455835    -2.570205    1.3826416   439061 
 1884000   0.92102038   -2.5680807   -2.5680807   -1.1865533  0.090105825   -2.5680807    1.3815274   439061 
 1885000   0.92280852   -2.5702877   -2.5702877   -1.1860781  0.091117122   -2.5702877    1.3842096   439061 
 1886000   0.92241286   -2.5701598   -2.5701598   -1.1865437  0.086195033   -2.5701598    1.3836161   439061 
 1887000   0.92157836   -2.5690101   -2.5690101   -1.1866457  0.087207891   -2.5690101    1.3823644   439061 
 1888000   0.92239411   -2.5695033   -2.5695033   -1.1859153  0.085005472   -2.5695033     1.383588   439061 
 1889000   0.92368479   -2.5713566   -2.5713566   -1.1858326   0.08707759   -2.5713566     1.385524   439061 
 1890000   0.92407377   -2.5719846   -2.5719846   -1.1858771  0.086440257   -2.5719846    1.3861075   439061 
 1891000   0.92385557   -2.5706702   -2.5706702     -1.18489  0.089500682   -2.5706702    1.3857802   439061 
 1892000   0.92373435   -2.5706235   -2.5706235   -1.1850251  0.091615037   -2.5706235    1.3855984   439061 
 1893000   0.92496931    -2.573292    -2.573292   -1.1858412  0.090587381    -2.573292    1.3874508   439061 
 1894000   0.92261402   -2.5698313   -2.5698313   -1.1859134  0.090864401   -2.5698313    1.3839179   439061 
 1895000   0.92330866    -2.572957    -2.572957   -1.1879972  0.086598276    -2.572957    1.3849598   439061 
 1896000   0.92348968   -2.5715047   -2.5715047   -1.1862734  0.086230173   -2.5715047    1.3852314   439061 
 1897000   0.92247414   -2.5707742   -2.5707742   -1.1870661  0.090591237   -2.5707742    1.3837081   439061 
 1898000   0.92187706   -2.5691846   -2.5691846   -1.1863721  0.088808584   -2.5691846    1.3828124   439061 
 1899000   0.92411723    -2.572064    -2.572064   -1.1858914  0.087450475    -2.572064    1.3861727   439061 
 1900000   0.92258875   -2.5698882   -2.5698882   -1.1860082  0.089980907   -2.5698882      1.38388   439061 
 1901000   0.92088345   -2.5677182   -2.5677182   -1.1863962  0.084099246   -2.5677182     1.381322   439061 
 1902000   0.92074674   -2.5692514   -2.5692514   -1.1881345  0.090283366   -2.5692514     1.381117   439061 
 1903000   0.92183495   -2.5720538   -2.5720538   -1.1893045  0.086971989   -2.5720538    1.3827493   439061 
 1904000   0.92125077   -2.5712815   -2.5712815   -1.1894085  0.089535494   -2.5712815     1.381873   439061 
 1905000   0.92078089   -2.5704637   -2.5704637   -1.1892955  0.088442211   -2.5704637    1.3811682   439061 
 1906000   0.91820646   -2.5664584   -2.5664584   -1.1891518   0.08862975   -2.5664584    1.3773065   439061 
 1907000   0.92226121    -2.572171    -2.572171   -1.1887823  0.086636363    -2.572171    1.3833887   439061 
 1908000   0.92205129   -2.5717445   -2.5717445   -1.1886707   0.08882613   -2.5717445    1.3830738   439061 
 1909000   0.92163919   -2.5713331   -2.5713331   -1.1888775  0.086349997   -2.5713331    1.3824556   439061 
 1910000   0.92219548    -2.570684    -2.570684   -1.1873939  0.087576293    -2.570684    1.3832901   439061 
 1911000   0.92174208   -2.5701311   -2.5701311   -1.1875212  0.090622727   -2.5701311      1.38261   439061 
 1912000   0.92185068   -2.5697459   -2.5697459    -1.186973  0.090395788   -2.5697459    1.3827729   439061 
 1913000   0.92312454   -2.5708587   -2.5708587    -1.186175  0.087236064   -2.5708587    1.3846837   439061 
 1914000   0.92102585   -2.5677437   -2.5677437    -1.186208  0.090313287   -2.5677437    1.3815356   439061 
 1915000   0.92171341    -2.569733    -2.569733    -1.187166  0.090575463    -2.569733     1.382567   439061 
 1916000   0.92236696   -2.5713935   -2.5713935   -1.1878462  0.088449364   -2.5713935    1.3835473   439061 
 1917000   0.92039239   -2.5690614   -2.5690614   -1.1884759  0.082150559   -2.5690614    1.3805854   439061 
 1918000   0.92019864   -2.5685284   -2.5685284   -1.1882336  0.085717301   -2.5685284    1.3802948   439061 
 1919000   0.92260289   -2.5707886   -2.5707886   -1.1868874  0.087654345   -2.5707886    1.3839012   439061 
 1920000   0.92195433   -2.5695716   -2.5695716   -1.1866432  0.088275956   -2.5695716    1.3829283   439061 
 1921000    0.9226334   -2.5711799   -2.5711799    -1.187233  0.093536613   -2.5711799    1.3839469   439061 
 1922000   0.92280725   -2.5716231   -2.5716231   -1.1874153  0.092107325   -2.5716231    1.3842077   439061 
 1923000   0.92132827    -2.568911    -2.568911   -1.1869217  0.091772215    -2.568911    1.3819893   439061 
 1924000    0.9224841   -2.5710366   -2.5710366   -1.1873136  0.091349602   -2.5710366     1.383723   439061 
 1925000   0.92003584   -2.5678105   -2.5678105   -1.1877599  0.085613911   -2.5678105    1.3800506   439061 
 1926000   0.92317083   -2.5707621   -2.5707621    -1.186009  0.089498234   -2.5707621    1.3847531   439061 
 1927000   0.92198229   -2.5694002   -2.5694002   -1.1864299  0.087179848   -2.5694002    1.3829703   439061 
 1928000   0.92262828   -2.5709582   -2.5709582   -1.1870189  0.091064412   -2.5709582    1.3839393   439061 
 1929000    0.9199553   -2.5685911   -2.5685911   -1.1886613  0.082608449   -2.5685911    1.3799298   439061 
 1930000   0.92165564   -2.5718047   -2.5718047   -1.1893244  0.083243075   -2.5718047    1.3824803   439061 
 1931000   0.92026951   -2.5690159   -2.5690159   -1.1886148  0.090020535   -2.5690159    1.3804011   439061 
 1932000    0.9206034   -2.5687804   -2.5687804   -1.1878785  0.088658302   -2.5687804     1.380902   439061 
 1933000   0.92118645    -2.569388    -2.569388   -1.1876115  0.088308711    -2.569388    1.3817765   439061 
 1934000   0.92140748   -2.5693608   -2.5693608   -1.1872527  0.087404667   -2.5693608    1.3821081   439061 
 1935000   0.92203876   -2.5704092   -2.5704092   -1.1873542  0.087589706   -2.5704092     1.383055   439061 
 1936000   0.92174317   -2.5699744   -2.5699744   -1.1873628  0.091694569   -2.5699744    1.3826116   439061 
 1937000   0.92128768   -2.5687788   -2.5687788   -1.1868504  0.092154851   -2.5687788    1.3819284   439061 
 1938000   0.92209885   -2.5695088   -2.5695088   -1.1863637  0.087780388   -2.5695088    1.3831451   439061 
 1939000   0.92196316   -2.5699252   -2.5699252   -1.1869836  0.092945107   -2.5699252    1.3829416   439061 
 1940000   0.92202242   -2.5691151   -2.5691151   -1.1860847  0.089533984   -2.5691151    1.3830305   439061 
 1941000   0.92310204   -2.5706444   -2.5706444   -1.1859945  0.090925513   -2.5706444    1.3846499   439061 
 1942000   0.92390778   -2.5718638   -2.5718638   -1.1860053  0.090841682   -2.5718638    1.3858585   439061 
 1943000    0.9238028   -2.5715524   -2.5715524   -1.1858514  0.091364958   -2.5715524     1.385701   439061 
 1944000   0.92373352   -2.5721102   -2.5721102    -1.186513  0.088861774   -2.5721102    1.3855971   439061 
 1945000   0.92199561    -2.570426    -2.570426   -1.1874357  0.088096388    -2.570426    1.3829903   439061 
 1946000   0.92262643   -2.5716084   -2.5716084   -1.1876719  0.087064629   -2.5716084    1.3839365   439061 
 1947000   0.92278483   -2.5723161   -2.5723161    -1.188142  0.088537973   -2.5723161    1.3841741   439061 
 1948000   0.92255867   -2.5718489   -2.5718489   -1.1880141  0.086569484   -2.5718489    1.3838348   439061 
 1949000   0.92257137   -2.5717124   -2.5717124   -1.1878585  0.092027469   -2.5717124    1.3838539   439061 
 1950000   0.92326884   -2.5709575   -2.5709575   -1.1860574  0.088164651   -2.5709575    1.3849001   439061 
 1951000   0.92309232   -2.5713273   -2.5713273   -1.1866919  0.092419491   -2.5713273    1.3846353   439061 
 1952000   0.92314103   -2.5716583   -2.5716583   -1.1869499  0.089697739   -2.5716583    1.3847084   439061 
 1953000    0.9223273   -2.5721571   -2.5721571   -1.1886693    0.0890113   -2.5721571    1.3834878   439061 
 1954000   0.92190929   -2.5714797   -2.5714797   -1.1886189  0.088892586   -2.5714797    1.3828608   439061 
 1955000   0.92234167   -2.5730201   -2.5730201   -1.1895107  0.085160861   -2.5730201    1.3835094   439061 
 1956000   0.91951211   -2.5704109   -2.5704109   -1.1911459  0.088931083   -2.5704109     1.379265   439061 
 1957000    0.9200137   -2.5697614   -2.5697614    -1.189744  0.084305527   -2.5697614    1.3800174   439061 
 1958000   0.92200292   -2.5721391   -2.5721391   -1.1891379  0.085922117   -2.5721391    1.3830012   439061 
 1959000   0.92059676   -2.5703397   -2.5703397   -1.1894477  0.084846584   -2.5703397     1.380892   439061 
 1960000   0.92106457   -2.5718578   -2.5718578   -1.1902641  0.084649842   -2.5718578    1.3815937   439061 
 1961000   0.92020584   -2.5713019   -2.5713019   -1.1909963  0.083020979   -2.5713019    1.3803056   439061 
 1962000   0.92170298   -2.5727842   -2.5727842   -1.1902329  0.085140427   -2.5727842    1.3825513   439061 
 1963000   0.92119649   -2.5721964   -2.5721964   -1.1904048  0.088382952   -2.5721964    1.3817916   439061 
 1964000   0.92194571   -2.5730293   -2.5730293   -1.1901139  0.090687222   -2.5730293    1.3829154   439061 
 1965000   0.91942754   -2.5710098   -2.5710098   -1.1918716  0.090667485   -2.5710098    1.3791382   439061 
 1966000   0.92007745   -2.5709679   -2.5709679   -1.1908548  0.091417644   -2.5709679     1.380113   439061 
 1967000    0.9205624   -2.5717859   -2.5717859   -1.1909455  0.094924792   -2.5717859    1.3808405   439061 
 1968000   0.92312368   -2.5729661   -2.5729661   -1.1882837  0.088084484   -2.5729661    1.3846824   439061 
 1969000   0.92277682   -2.5727035   -2.5727035   -1.1885415  0.089984936   -2.5727035    1.3841621   439061 
 1970000   0.92126876   -2.5721817   -2.5721817   -1.1902817  0.086226902   -2.5721817       1.3819   439061 
 1971000   0.92125051   -2.5731697   -2.5731697    -1.191297  0.087498073   -2.5731697    1.3818726   439061 
 1972000   0.92083866   -2.5730565   -2.5730565   -1.1918016  0.087206723   -2.5730565    1.3812548   439061 
 1973000   0.92097546   -2.5724911   -2.5724911    -1.191031  0.088364346   -2.5724911      1.38146   439061 
 1974000   0.92252127   -2.5754014   -2.5754014   -1.1916227  0.089293275   -2.5754014    1.3837788   439061 
 1975000   0.92122539   -2.5738727   -2.5738727   -1.1920378  0.087163981   -2.5738727    1.3818349   439061 
 1976000   0.92267386   -2.5764172   -2.5764172   -1.1924095  0.086574898   -2.5764172    1.3840076   439061 
 1977000   0.92204359   -2.5759241   -2.5759241   -1.1928619   0.08884494   -2.5759241    1.3830622   439061 
 1978000   0.92227532   -2.5752076   -2.5752076   -1.1917977  0.087776725   -2.5752076    1.3834098   439061 
 1979000    0.9216613   -2.5747385   -2.5747385   -1.1922497  0.085037996   -2.5747385    1.3824888   439061 
 1980000   0.92234355   -2.5757454   -2.5757454   -1.1922332  0.087909254   -2.5757454    1.3835122   439061 
 1981000   0.92178577   -2.5753138   -2.5753138   -1.1926383  0.085587299   -2.5753138    1.3826755   439061 
 1982000   0.92170627   -2.5758941   -2.5758941   -1.1933378  0.093991569   -2.5758941    1.3825563   439061 
 1983000   0.92182755   -2.5769439   -2.5769439   -1.1942057  0.089461375   -2.5769439    1.3827382   439061 
 1984000   0.92185091   -2.5775388   -2.5775388   -1.1947656  0.085703798   -2.5775388    1.3827732   439061 
 1985000   0.92157594   -2.5780351   -2.5780351   -1.1956744  0.083870815   -2.5780351    1.3823608   439061 
 1986000   0.92144797   -2.5775774   -2.5775774   -1.1954086  0.085574887   -2.5775774    1.3821688   439061 
 1987000   0.92158384   -2.5764253   -2.5764253   -1.1940527   0.08886135   -2.5764253    1.3823726   439061 
 1988000   0.92161187   -2.5782342   -2.5782342   -1.1958196  0.088769034   -2.5782342    1.3824147   439061 
 1989000   0.92039194   -2.5772882   -2.5772882   -1.1967034  0.091902047   -2.5772882    1.3805848   439061 
 1990000   0.91985602   -2.5757796   -2.5757796   -1.1959987  0.091402277   -2.5757796    1.3797809   439061 
 1991000   0.92277298    -2.580258    -2.580258   -1.1961017  0.086882822    -2.580258    1.3841563   439061 
 1992000   0.92064172   -2.5765537   -2.5765537   -1.1955943  0.091170139   -2.5765537    1.3809594   439061 
 1993000    0.9206242     -2.57615     -2.57615   -1.1952169  0.085683813     -2.57615    1.3809331   439061 
 1994000   0.92090818   -2.5773982   -2.5773982   -1.1960391  0.084852715   -2.5773982    1.3813591   439061 
 1995000   0.92046809   -2.5768478   -2.5768478   -1.1961488  0.091501634   -2.5768478     1.380699   439061 
 1996000   0.92061457   -2.5773892   -2.5773892   -1.1964705  0.089051422   -2.5773892    1.3809187   439061 
 1997000   0.92039719   -2.5774948   -2.5774948   -1.1969021  0.087736687   -2.5774948    1.3805926   439061 
 1998000   0.92100147   -2.5783874   -2.5783874   -1.1968883  0.083914034   -2.5783874    1.3814991   439061 
 1999000   0.92132403   -2.5789188   -2.5789188   -1.1969359  0.078682492   -2.5789188    1.3819829   439061 
 2000000   0.92014561   -2.5767383   -2.5767383    -1.196523  0.088141947   -2.5767383    1.3802153   439061 
 2001000   0.92027833   -2.5768915   -2.5768915   -1.1964771  0.088898752   -2.5768915    1.3804144   439061 
 2002000   0.92067165   -2.5769454   -2.5769454   -1.1959411  0.086198647   -2.5769454    1.3810043   439061 
 2003000    0.9213267   -2.5775314   -2.5775314   -1.1955445   0.09052601   -2.5775314    1.3819869   439061 
 2004000    0.9206003   -2.5764223   -2.5764223    -1.195525  0.092521134   -2.5764223    1.3808973   439061 
 2005000   0.92075265   -2.5756624   -2.5756624   -1.1945366  0.086879111   -2.5756624    1.3811258   439061 
 2006000   0.91978491   -2.5747753   -2.5747753   -1.1951011  0.091415553   -2.5747753    1.3796742   439061 
 2007000   0.92081423   -2.5758343   -2.5758343   -1.1946161  0.087549265   -2.5758343    1.3812182   439061 
 2008000   0.92034205   -2.5745452   -2.5745452   -1.1940352  0.089917569   -2.5745452    1.3805099   439061 
 2009000   0.92058946   -2.5750051   -2.5750051    -1.194124  0.087620858   -2.5750051    1.3808811   439061 
 2010000   0.92159475   -2.5765524   -2.5765524   -1.1941635  0.083862293   -2.5765524     1.382389   439061 
 2011000   0.92071078   -2.5748748   -2.5748748   -1.1938118  0.089056615   -2.5748748     1.381063   439061 
 2012000   0.92118966   -2.5755181   -2.5755181   -1.1937367  0.086275412   -2.5755181    1.3817813   439061 
 2013000   0.92175365    -2.578331    -2.578331   -1.1957037  0.085097829    -2.578331    1.3826273   439061 
 2014000   0.92060329   -2.5768564   -2.5768564   -1.1959546  0.087658997   -2.5768564    1.3809018   439061 
 2015000   0.92002109   -2.5754121   -2.5754121   -1.1953837  0.079958068   -2.5754121    1.3800285   439061 
 2016000   0.92112397   -2.5771913   -2.5771913   -1.1955085  0.083815579   -2.5771913    1.3816828   439061 
 2017000   0.91917847   -2.5753055   -2.5753055    -1.196541  0.088779372   -2.5753055    1.3787646   439061 
 2018000   0.91990392   -2.5759978   -2.5759978   -1.1961451  0.083981018   -2.5759978    1.3798527   439061 
 2019000   0.92029193   -2.5751243   -2.5751243   -1.1946896  0.087501058   -2.5751243    1.3804347   439061 
 2020000   0.91968859   -2.5738733   -2.5738733   -1.1943436  0.085371902   -2.5738733    1.3795298   439061 
 2021000   0.92045315   -2.5743642   -2.5743642   -1.1936876  0.084312992   -2.5743642    1.3806766   439061 
 2022000   0.91856693   -2.5723015   -2.5723015   -1.1944542   0.08727909   -2.5723015    1.3778473   439061 
 2023000   0.92148316   -2.5766979   -2.5766979   -1.1944763  0.084479126   -2.5766979    1.3822216   439061 
 2024000   0.91956394   -2.5746032   -2.5746032   -1.1952604  0.087302161   -2.5746032    1.3793428   439061 
 2025000    0.9198653   -2.5755319   -2.5755319   -1.1957371  0.083088591   -2.5755319    1.3797948   439061 
 2026000   0.91977786   -2.5741796   -2.5741796    -1.194516  0.086783844   -2.5741796    1.3796636   439061 
 2027000   0.91766603   -2.5731293   -2.5731293   -1.1966334  0.085609163   -2.5731293    1.3764959   439061 
 2028000   0.91887213   -2.5740314   -2.5740314   -1.1957264  0.082735216   -2.5740314    1.3783051   439061 
 2029000   0.91960188   -2.5762554   -2.5762554   -1.1968558  0.086165983   -2.5762554    1.3793997   439061 
 2030000   0.91971534   -2.5757291   -2.5757291   -1.1961592  0.086618803   -2.5757291    1.3795699   439061 
 2031000   0.92061981   -2.5772709   -2.5772709   -1.1963443  0.086042083   -2.5772709    1.3809266   439061 
 2032000   0.91860315   -2.5742251   -2.5742251   -1.1963236  0.082578823   -2.5742251    1.3779016   439061 
 2033000   0.92018054   -2.5771264   -2.5771264   -1.1968587  0.090044808   -2.5771264    1.3802677   439061 
 2034000   0.91954924   -2.5772071   -2.5772071   -1.1978864  0.086695692   -2.5772071    1.3793207   439061 
 2035000   0.91865421   -2.5778235   -2.5778235   -1.1998454  0.085030321   -2.5778235    1.3779782   439061 
 2036000   0.91911708   -2.5783477   -2.5783477   -1.1996752  0.087996274   -2.5783477    1.3786725   439061 
 2037000   0.92013971   -2.5779348   -2.5779348   -1.1977284  0.087621141   -2.5779348    1.3802064   439061 
 2038000   0.91991258   -2.5772669   -2.5772669   -1.1974012  0.089820056   -2.5772669    1.3798657   439061 
 2039000   0.92047576   -2.5790665   -2.5790665    -1.198356  0.083286973   -2.5790665    1.3807105   439061 
 2040000   0.91908278   -2.5770777   -2.5770777   -1.1984566  0.086455678   -2.5770777     1.378621   439061 
 2041000    0.9198653   -2.5784961   -2.5784961   -1.1987013   0.09008666   -2.5784961    1.3797948   439061 
 2042000   0.92099316   -2.5801153   -2.5801153   -1.1986287  0.090429671   -2.5801153    1.3814866   439061 
 2043000   0.91959607   -2.5784577   -2.5784577   -1.1990667  0.085732413   -2.5784577     1.379391   439061 
 2044000   0.91944729   -2.5781388   -2.5781388    -1.198971  0.087387522   -2.5781388    1.3791678   439061 
 2045000   0.92084959   -2.5817521   -2.5817521   -1.2004809  0.084889837   -2.5817521    1.3812712   439061 
 2046000   0.91893205    -2.579774    -2.579774    -1.201379  0.086380684    -2.579774    1.3783949   439061 
 2047000   0.91869582   -2.5794845   -2.5794845   -1.2014439  0.085094094   -2.5794845    1.3780406   439061 
 2048000   0.92032363   -2.5795427   -2.5795427   -1.1990604  0.087002198   -2.5795427    1.3804823   439061 
 2049000   0.92181909   -2.5828094   -2.5828094   -1.2000839   0.08511855   -2.5828094    1.3827255   439061 
 2050000   0.91914818   -2.5792961   -2.5792961    -1.200577  0.087083079   -2.5792961    1.3787191   439061 
 2051000   0.92044328   -2.5811072   -2.5811072   -1.2004454  0.092684736   -2.5811072    1.3806618   439061 
 2052000   0.91996039   -2.5792856   -2.5792856   -1.1993482  0.081133504   -2.5792856    1.3799374   439061 
 2053000   0.92138278   -2.5808331   -2.5808331    -1.198762  0.089291042   -2.5808331     1.382071   439061 
 2054000   0.92200442   -2.5814246   -2.5814246   -1.1984211  0.083496784   -2.5814246    1.3830035   439061 
 2055000    0.9205523   -2.5798315   -2.5798315   -1.1990062  0.089248107   -2.5798315    1.3808253   439061 
 2056000   0.92124546   -2.5816254   -2.5816254   -1.1997604  0.092169229   -2.5816254     1.381865   439061 
 2057000   0.92027562   -2.5803751   -2.5803751   -1.1999648  0.083272645   -2.5803751    1.3804103   439061 
 2058000    0.9191455   -2.5779186   -2.5779186   -1.1992035  0.085357617   -2.5779186    1.3787151   439061 
 2059000   0.91996084   -2.5781582   -2.5781582     -1.19822  0.084137929   -2.5781582    1.3799381   439061 
 2060000   0.92159505   -2.5803659   -2.5803659   -1.1979765  0.093389884   -2.5803659    1.3823894   439061 
 2061000   0.91969275   -2.5787239   -2.5787239   -1.1991879  0.084203141   -2.5787239     1.379536   439061 
 2062000   0.91954059   -2.5785422   -2.5785422   -1.1992344  0.086069221   -2.5785422    1.3793077   439061 
 2063000   0.92033087   -2.5791769   -2.5791769   -1.1986838  0.086275329   -2.5791769    1.3804932   439061 
 2064000   0.91963701   -2.5771872   -2.5771872   -1.1977348  0.090938542   -2.5771872    1.3794524   439061 
 2065000   0.92146887   -2.5797886   -2.5797886   -1.1975884  0.084914721   -2.5797886    1.3822002   439061 
 2066000   0.91958431   -2.5771434   -2.5771434   -1.1977701   0.08492908   -2.5771434    1.3793733   439061 
 2067000   0.92116933   -2.5795802   -2.5795802   -1.1978293   0.08786526   -2.5795802    1.3817508   439061 
 2068000   0.91998397   -2.5783502   -2.5783502   -1.1983773  0.083623949   -2.5783502    1.3799728   439061 
 2069000   0.92050387   -2.5797164   -2.5797164   -1.1989637  0.087435379   -2.5797164    1.3807527   439061 
 2070000   0.91980635   -2.5791245   -2.5791245   -1.1994181  0.080337554   -2.5791245    1.3797064   439061 
 2071000   0.91933572   -2.5773321   -2.5773321   -1.1983316  0.084617921   -2.5773321    1.3790004   439061 
 2072000   0.91865218    -2.577277    -2.577277   -1.1993019  0.093163912    -2.577277    1.3779751   439061 
 2073000   0.91905659    -2.577711    -2.577711   -1.1991292  0.082251754    -2.577711    1.3785817   439061 
 2074000    0.9205388   -2.5797708   -2.5797708   -1.1989657  0.085390945   -2.5797708    1.3808051   439061 
 2075000   0.91978254   -2.5783952   -2.5783952   -1.1987245  0.085346604   -2.5783952    1.3796707   439061 
 2076000   0.91996556   -2.5777009   -2.5777009   -1.1977557  0.089166519   -2.5777009    1.3799452   439061 
 2077000   0.92012118   -2.5786786   -2.5786786      -1.1985  0.084127414   -2.5786786    1.3801786   439061 
 2078000   0.91915932   -2.5765671   -2.5765671   -1.1978312  0.086898007   -2.5765671    1.3787358   439061 
 2079000    0.9199051   -2.5777094   -2.5777094   -1.1978549  0.086598366   -2.5777094    1.3798545   439061 
 2080000   0.92024415   -2.5784833   -2.5784833   -1.1981202  0.079303802   -2.5784833    1.3803631   439061 
 2081000   0.92021332   -2.5782178   -2.5782178    -1.197901  0.081727014   -2.5782178    1.3803168   439061 
 2082000   0.92158905   -2.5797569   -2.5797569   -1.1973764  0.089296113   -2.5797569    1.3823804   439061 
 2083000   0.91926068   -2.5778972   -2.5778972   -1.1990093  0.086503287   -2.5778972    1.3788879   439061 
 2084000   0.91919317   -2.5766075   -2.5766075   -1.1978209  0.084173312   -2.5766075    1.3787866   439061 
 2085000   0.92061486   -2.5790702   -2.5790702    -1.198151  0.089491584   -2.5790702    1.3809191   439061 
 2086000   0.91860493     -2.57604     -2.57604   -1.1981358  0.086167097     -2.57604    1.3779043   439061 
 2087000   0.91746001   -2.5756242   -2.5756242   -1.1994374  0.086883838   -2.5756242    1.3761869   439061 
 2088000   0.91872281   -2.5777765   -2.5777765   -1.1996954  0.081674874   -2.5777765    1.3780811   439061 
 2089000   0.91864397   -2.5778053   -2.5778053   -1.1998425  0.082677509   -2.5778053    1.3779628   439061 
 2090000   0.91904297   -2.5779088   -2.5779088   -1.1993474  0.084264318   -2.5779088    1.3785613   439061 
 2091000   0.91931587   -2.5790838   -2.5790838   -1.2001132  0.084383351   -2.5790838    1.3789707   439061 
 2092000   0.92030474   -2.5803216   -2.5803216   -1.1998677  0.084532403   -2.5803216     1.380454   439061 
 2093000   0.91946957   -2.5789575   -2.5789575   -1.1997563  0.086272211   -2.5789575    1.3792012   439061 
 2094000    0.9190652     -2.57785     -2.57785   -1.1992554  0.086998646     -2.57785    1.3785947   439061 
 2095000   0.92137882   -2.5806497   -2.5806497   -1.1985846   0.08607901   -2.5806497    1.3820651   439061 
 2096000    0.9192317   -2.5791308   -2.5791308   -1.2002864  0.085826444   -2.5791308    1.3788444   439061 
 2097000   0.92049347   -2.5791695   -2.5791695   -1.1984325  0.086442798   -2.5791695    1.3807371   439061 
 2098000   0.92107884   -2.5828717   -2.5828717   -1.2012566   0.08811509   -2.5828717    1.3816151   439061 
 2099000   0.91993013   -2.5811677   -2.5811677   -1.2012756  0.091212824   -2.5811677     1.379892   439061 
 2100000    0.9198013   -2.5796912   -2.5796912   -1.1999924  0.090972404   -2.5796912    1.3796988   439061 
 2101000   0.92203615   -2.5827686   -2.5827686   -1.1997175  0.086634878   -2.5827686    1.3830511   439061 
 2102000   0.92015093   -2.5816427   -2.5816427   -1.2014194  0.084670069   -2.5816427    1.3802233   439061 
 2103000   0.92015407   -2.5828038   -2.5828038   -1.2025758  0.087410811   -2.5828038     1.380228   439061 
 2104000   0.91970153   -2.5803135   -2.5803135   -1.2007643   0.08352125   -2.5803135    1.3795492   439061 
 2105000   0.91922866   -2.5793802   -2.5793802   -1.2005403  0.091250554   -2.5793802    1.3788398   439061 
 2106000   0.92007608   -2.5802847   -2.5802847   -1.2001737  0.083018123   -2.5802847     1.380111   439061 
 2107000   0.92116469   -2.5824135   -2.5824135   -1.2006696  0.084353692   -2.5824135    1.3817439   439061 
 2108000   0.91920458   -2.5795628   -2.5795628   -1.2007591  0.090279858   -2.5795628    1.3788037   439061 
 2109000   0.91907712   -2.5804348   -2.5804348   -1.2018223  0.087939457   -2.5804348    1.3786125   439061 
 2110000   0.91972283   -2.5816471   -2.5816471    -1.202066   0.08389264   -2.5816471    1.3795811   439061 
 2111000   0.91921578   -2.5815194   -2.5815194   -1.2026988    0.0794898   -2.5815194    1.3788205   439061 
 2112000   0.91819783   -2.5799884   -2.5799884   -1.2026948  0.085625145   -2.5799884    1.3772936   439061 
 2113000   0.91805372   -2.5804869   -2.5804869   -1.2034095   0.08438386   -2.5804869    1.3770774   439061 
 2114000   0.91846427   -2.5812945   -2.5812945   -1.2036012  0.079697412   -2.5812945    1.3776933   439061 
 2115000   0.91849738   -2.5801145   -2.5801145   -1.2023716  0.086813167   -2.5801145    1.3777429   439061 
 2116000   0.92007399   -2.5816547   -2.5816547   -1.2015468  0.082384581   -2.5816547    1.3801078   439061 
 2117000   0.91982637   -2.5823094   -2.5823094    -1.202573  0.081350943   -2.5823094    1.3797364   439061 
 2118000   0.92000091   -2.5818618   -2.5818618   -1.2018636  0.090783595   -2.5818618    1.3799982   439061 
 2119000   0.92035472    -2.581676    -2.581676    -1.201147  0.085880892    -2.581676    1.3805289   439061 
 2120000   0.92165558   -2.5828231   -2.5828231   -1.2003429  0.089602825   -2.5828231    1.3824802   439061 
 2121000    0.9191286     -2.58078     -2.58078   -1.2020902   0.08940606     -2.58078    1.3786898   439061 
 2122000   0.91952822   -2.5812028   -2.5812028   -1.2019136  0.088219214   -2.5812028    1.3792892   439061 
 2123000   0.92006543   -2.5815363   -2.5815363   -1.2014413  0.090351514   -2.5815363     1.380095   439061 
 2124000   0.92089588   -2.5819246   -2.5819246    -1.200584  0.086576761   -2.5819246    1.3813407   439061 
 2125000   0.92070933   -2.5813307   -2.5813307   -1.2002698  0.086640943   -2.5813307    1.3810608   439061 
 2126000   0.92010467   -2.5813468   -2.5813468   -1.2011929  0.087914785   -2.5813468    1.3801539   439061 
 2127000   0.92117189    -2.581571    -2.581571   -1.1998163  0.087482591    -2.581571    1.3817547   439061 
 2128000    0.9203417   -2.5819712   -2.5819712   -1.2014618  0.089819696   -2.5819712    1.3805094   439061 
 2129000    0.9196607   -2.5808266   -2.5808266   -1.2013387  0.088621267   -2.5808266    1.3794879   439061 
 2130000   0.92065921   -2.5819134   -2.5819134   -1.2009277  0.085860626   -2.5819134    1.3809857   439061 
 2131000   0.92066797   -2.5826248   -2.5826248    -1.201626  0.082622555   -2.5826248    1.3809988   439061 
 2132000   0.92123337   -2.5834762   -2.5834762   -1.2016293   0.08937015   -2.5834762    1.3818469   439061 
 2133000   0.91982108   -2.5812551   -2.5812551   -1.2015266  0.087128246   -2.5812551    1.3797285   439061 
 2134000   0.92041458   -2.5840065   -2.5840065   -1.2033878  0.087723006   -2.5840065    1.3806187   439061 
 2135000   0.91905816   -2.5823756   -2.5823756   -1.2037915  0.089826781   -2.5823756    1.3785841   439061 
 2136000   0.91940135    -2.581906    -2.581906   -1.2028071  0.081649201    -2.581906    1.3790989   439061 
 2137000   0.92039842    -2.582477    -2.582477   -1.2018825  0.084090762    -2.582477    1.3805945   439061 
 2138000   0.92078848   -2.5832733   -2.5832733   -1.2020938  0.084216253   -2.5832733    1.3811796   439061 
 2139000   0.92060604   -2.5842577   -2.5842577   -1.2033518  0.085295921   -2.5842577    1.3809059   439061 
 2140000   0.91988034   -2.5822571   -2.5822571   -1.2024397  0.084548083   -2.5822571    1.3798174   439061 
 2141000   0.91970601   -2.5815422   -2.5815422   -1.2019863  0.084746329   -2.5815422    1.3795559   439061 
 2142000   0.91973903   -2.5817074   -2.5817074    -1.202102  0.081797972   -2.5817074    1.3796054   439061 
 2143000   0.91973748   -2.5812988   -2.5812988   -1.2016957  0.087978702   -2.5812988    1.3796031   439061 
 2144000   0.92176048   -2.5836276   -2.5836276   -1.2009901  0.082131209   -2.5836276    1.3826376   439061 
 2145000   0.91958919   -2.5815258   -2.5815258   -1.2021452  0.090432408   -2.5815258    1.3793806   439061 
 2146000   0.91986827   -2.5817594   -2.5817594   -1.2019602  0.086520233   -2.5817594    1.3797993   439061 
 2147000    0.9204674   -2.5829636   -2.5829636   -1.2022657  0.087091825   -2.5829636    1.3806979   439061 
 2148000   0.91975803   -2.5809345   -2.5809345   -1.2013006  0.082926841   -2.5809345    1.3796339   439061 
 2149000   0.92118796   -2.5820461   -2.5820461   -1.2002673  0.084824069   -2.5820461    1.3817788   439061 
 2150000   0.91913603   -2.5806803   -2.5806803   -1.2019794  0.083735192   -2.5806803    1.3787009   439061 
 2151000   0.92021282   -2.5828842   -2.5828842   -1.2025681  0.089842831   -2.5828842    1.3803161   439061 
 2152000   0.91855318   -2.5806123   -2.5806123   -1.2027857  0.082258161   -2.5806123    1.3778266   439061 
 2153000   0.91857246   -2.5817468   -2.5817468   -1.2038912  0.086109819   -2.5817468    1.3778556   439061 
 2154000   0.91954907   -2.5824569   -2.5824569   -1.2031364  0.085330113   -2.5824569    1.3793205   439061 
 2155000   0.91960899   -2.5825309   -2.5825309   -1.2031205  0.084810755   -2.5825309    1.3794103   439061 
 2156000   0.92056536   -2.5832073   -2.5832073   -1.2023624   0.08321017   -2.5832073    1.3808449   439061 
 2157000   0.92004154   -2.5825783   -2.5825783   -1.2025191  0.084032743   -2.5825783    1.3800592   439061 
 2158000   0.91793865   -2.5781668   -2.5781668    -1.201262  0.083741726   -2.5781668    1.3769048   439061 
 2159000   0.91898945   -2.5824814   -2.5824814   -1.2040004  0.086077369   -2.5824814     1.378481   439061 
 2160000   0.91902549   -2.5825292   -2.5825292   -1.2039941   0.08238345   -2.5825292    1.3785351   439061 
 2161000   0.91948906   -2.5820204   -2.5820204   -1.2027899  0.087286379   -2.5820204    1.3792304   439061 
 2162000   0.91838165   -2.5804982   -2.5804982   -1.2029289  0.088691396   -2.5804982    1.3775693   439061 
 2163000   0.91860125   -2.5812431   -2.5812431   -1.2033444  0.085766006   -2.5812431    1.3778987   439061 
 2164000   0.92012599   -2.5812795   -2.5812795   -1.2010936  0.084275298   -2.5812795    1.3801858   439061 
 2165000   0.92080427   -2.5831103   -2.5831103    -1.201907  0.083771996   -2.5831103    1.3812033   439061 
 2166000   0.92044796   -2.5824803   -2.5824803   -1.2018115  0.086310165   -2.5824803    1.3806688   439061 
 2167000   0.92018385   -2.5831487   -2.5831487    -1.202876  0.084760707   -2.5831487    1.3802726   439061 
 2168000   0.91940198   -2.5833226   -2.5833226   -1.2042228  0.085160563   -2.5833226    1.3790998   439061 
 2169000   0.92003523   -2.5838177   -2.5838177    -1.203768  0.087858341   -2.5838177    1.3800497   439061 
 2170000   0.92028513   -2.5849842   -2.5849842   -1.2045596  0.081024093   -2.5849842    1.3804245   439061 
 2171000   0.91901916   -2.5838054   -2.5838054   -1.2052798   0.08474741   -2.5838054    1.3785256   439061 
 2172000   0.91989928   -2.5845888   -2.5845888    -1.204743   0.08658708   -2.5845888    1.3798458   439061 
 2173000   0.91984252   -2.5847565   -2.5847565   -1.2049959  0.087665803   -2.5847565    1.3797606   439061 
 2174000   0.92010659   -2.5848577   -2.5848577    -1.204701   0.08609637   -2.5848577    1.3801567   439061 
 2175000   0.91923333   -2.5832514   -2.5832514   -1.2044046  0.087848142   -2.5832514    1.3788469   439061 
 2176000     0.919288   -2.5828085   -2.5828085   -1.2038797  0.087417031   -2.5828085    1.3789289   439061 
 2177000   0.92121943   -2.5846981   -2.5846981   -1.2028721  0.087436061   -2.5846981     1.381826   439061 
 2178000   0.92004056   -2.5859897   -2.5859897    -1.205932  0.084328829   -2.5859897    1.3800577   439061 
 2179000   0.91992226   -2.5869758   -2.5869758   -1.2070955  0.082772156   -2.5869758    1.3798803   439061 
 2180000   0.91990316    -2.586088    -2.586088   -1.2062364  0.086847558    -2.586088    1.3798516   439061 
 2181000   0.91864906    -2.585306    -2.585306   -1.2073356  0.087362333    -2.585306    1.3779705   439061 
 2182000   0.91880502   -2.5855135   -2.5855135   -1.2073091  0.079369417   -2.5855135    1.3782044   439061 
 2183000   0.91802442   -2.5852358   -2.5852358   -1.2082023  0.081906762   -2.5852358    1.3770335   439061 
 2184000    0.9187424   -2.5855996   -2.5855996   -1.2074891  0.087540379   -2.5855996    1.3781105   439061 
 2185000   0.91885758   -2.5852045   -2.5852045   -1.2069212  0.081498752   -2.5852045    1.3782832   439061 
 2186000    0.9182874   -2.5851377   -2.5851377   -1.2077097  0.085895604   -2.5851377     1.377428   439061 
 2187000    0.9184238   -2.5848815   -2.5848815   -1.2072489  0.088037237   -2.5848815    1.3776326   439061 
 2188000   0.91980265   -2.5863597   -2.5863597   -1.2066589  0.086760324   -2.5863597    1.3797008   439061 
 2189000   0.91976281   -2.5860856   -2.5860856   -1.2064446   0.08734913   -2.5860856    1.3796411   439061 
 2190000   0.92002862   -2.5865179   -2.5865179   -1.2064781  0.088637476   -2.5865179    1.3800398   439061 
 2191000   0.91997286    -2.586201    -2.586201   -1.2062448  0.080182581    -2.586201    1.3799561   439061 
 2192000   0.91957638   -2.5848243   -2.5848243   -1.2054629  0.092068116   -2.5848243    1.3793614   439061 
 2193000   0.92041229   -2.5855799   -2.5855799   -1.2049646   0.08725337   -2.5855799    1.3806153   439061 
 2194000    0.9199982   -2.5853843   -2.5853843   -1.2053902  0.084111401   -2.5853843    1.3799942   439061 
 2195000   0.92053742   -2.5855927   -2.5855927   -1.2047897  0.085008534   -2.5855927     1.380803   439061 
 2196000   0.92077229   -2.5860147   -2.5860147   -1.2048594  0.087311513   -2.5860147    1.3811553   439061 
 2197000   0.91903818   -2.5854346   -2.5854346   -1.2068804   0.09072211   -2.5854346    1.3785541   439061 
 2198000   0.91865377   -2.5853887   -2.5853887   -1.2074112  0.087870643   -2.5853887    1.3779775   439061 
 2199000   0.91950536   -2.5856453   -2.5856453   -1.2063904  0.088113108   -2.5856453    1.3792549   439061 
 2200000   0.91933751    -2.585842    -2.585842   -1.2068389  0.089795428    -2.585842    1.3790031   439061 
 2201000   0.91994309   -2.5862693   -2.5862693   -1.2063578  0.086838483   -2.5862693    1.3799115   439061 
 2202000    0.9193244    -2.586239    -2.586239   -1.2072555  0.087377689    -2.586239    1.3789835   439061 
 2203000   0.92045936   -2.5872131   -2.5872131   -1.2065272  0.082145959   -2.5872131    1.3806859   439061 
 2204000   0.91916533    -2.584062    -2.584062   -1.2053172  0.083739058    -2.584062    1.3787448   439061 
 2205000   0.91866352    -2.583855    -2.583855   -1.2058629  0.089834151    -2.583855    1.3779921   439061 
 2206000   0.91932491   -2.5853468   -2.5853468   -1.2063625  0.081920574   -2.5853468    1.3789842   439061 
 2207000   0.92007773   -2.5848939   -2.5848939   -1.2047805  0.087220612   -2.5848939    1.3801135   439061 
 2208000   0.91766203    -2.582032    -2.582032   -1.2055421  0.085536354    -2.582032    1.3764899   439061 
 2209000   0.91898712   -2.5839722   -2.5839722   -1.2054947  0.082841421   -2.5839722    1.3784775   439061 
 2210000   0.91998355   -2.5838201   -2.5838201   -1.2038479  0.087399622   -2.5838201    1.3799722   439061 
 2211000   0.91948896   -2.5836272   -2.5836272   -1.2043969  0.084815009   -2.5836272    1.3792303   439061 
 2212000   0.91952046    -2.583878    -2.583878   -1.2046005  0.081209007    -2.583878    1.3792776   439061 
 2213000   0.91911445   -2.5842921   -2.5842921   -1.2056235  0.088373049   -2.5842921    1.3786685   439061 
 2214000     0.918932   -2.5836293   -2.5836293   -1.2052344  0.088064778   -2.5836293    1.3783949   439061 
 2215000   0.91832945   -2.5832785   -2.5832785   -1.2057874  0.082262492   -2.5832785     1.377491   439061 
 2216000   0.91783022    -2.581699    -2.581699   -1.2049568  0.081067066    -2.581699    1.3767422   439061 
 2217000   0.91905942   -2.5843487   -2.5843487   -1.2057627  0.084381012   -2.5843487     1.378586   439061 
 2218000   0.91846107   -2.5836639   -2.5836639   -1.2059755  0.083572735   -2.5836639    1.3776885   439061 
 2219000   0.91874584   -2.5831928   -2.5831928   -1.2050772  0.083498508   -2.5831928    1.3781156   439061 
 2220000   0.91864378   -2.5834933   -2.5834933   -1.2055308  0.084979737   -2.5834933    1.3779625   439061 
 2221000   0.91800041   -2.5824718   -2.5824718   -1.2054743   0.08422007   -2.5824718    1.3769975   439061 
 2222000   0.91848792   -2.5823008   -2.5823008    -1.204572  0.080034584   -2.5823008    1.3777287   439061 
 2223000   0.91877521   -2.5822556   -2.5822556   -1.2040959  0.086241781   -2.5822556    1.3781597   439061 
 2224000    0.9189391   -2.5815774   -2.5815774   -1.2031719  0.087736629   -2.5815774    1.3784055   439061 
 2225000   0.91853203   -2.5817501   -2.5817501   -1.2039552  0.086622264   -2.5817501    1.3777949   439061 
 2226000   0.91925453   -2.5822362   -2.5822362   -1.2033575  0.081783467   -2.5822362    1.3788787   439061 
 2227000   0.91874702   -2.5828263   -2.5828263   -1.2047089  0.091018926   -2.5828263    1.3781174   439061 
 2228000   0.91927821   -2.5842076   -2.5842076   -1.2052934  0.083734781   -2.5842076    1.3789142   439061 
 2229000   0.91947231   -2.5842218   -2.5842218   -1.2050164  0.080914495   -2.5842218    1.3792053   439061 
 2230000   0.92015213   -2.5854606   -2.5854606   -1.2052355  0.080356396   -2.5854606    1.3802251   439061 
 2231000   0.92005708   -2.5846221   -2.5846221   -1.2045396  0.083287154   -2.5846221    1.3800825   439061 
 2232000    0.9195099   -2.5839113   -2.5839113   -1.2046496  0.086499827   -2.5839113    1.3792617   439061 
 2233000   0.91976029   -2.5844366   -2.5844366   -1.2047993  0.087792122   -2.5844366    1.3796373   439061 
 2234000    0.9205038   -2.5859238   -2.5859238   -1.2051712  0.084771537   -2.5859238    1.3807526   439061 
 2235000   0.92056157   -2.5866245   -2.5866245   -1.2057853  0.082027656   -2.5866245    1.3808392   439061 
 2236000   0.91946682   -2.5854816   -2.5854816   -1.2062845  0.083096715   -2.5854816    1.3791971   439061 
 2237000   0.92053067   -2.5872763   -2.5872763   -1.2064834  0.083104293   -2.5872763    1.3807929   439061 
 2238000   0.91926002   -2.5852085   -2.5852085   -1.2063216  0.083815127   -2.5852085    1.3788869   439061 
 2239000   0.92089025   -2.5868098   -2.5868098   -1.2054776  0.084990773   -2.5868098    1.3813322   439061 
 2240000   0.92056898   -2.5867473   -2.5867473    -1.205897  0.090717049   -2.5867473    1.3808503   439061 
 2241000   0.92007666   -2.5866027   -2.5866027   -1.2064908  0.087233938   -2.5866027    1.3801118   439061 
 2242000   0.92160453   -2.5888032   -2.5888032   -1.2063995  0.087185297   -2.5888032    1.3824036   439061 
 2243000    0.9224187   -2.5893052   -2.5893052   -1.2056803  0.087679964   -2.5893052    1.3836249   439061 
 2244000   0.91917267   -2.5852165   -2.5852165   -1.2064606  0.082379636   -2.5852165    1.3787559   439061 
 2245000   0.91888473   -2.5857797   -2.5857797   -1.2074557  0.086511983   -2.5857797     1.378324   439061 
 2246000   0.91933638   -2.5868259   -2.5868259   -1.2078244  0.083617133   -2.5868259    1.3790014   439061 
 2247000   0.91697331   -2.5839366   -2.5839366   -1.2084798   0.09155916   -2.5839366    1.3754568   439061 
 2248000   0.92004982   -2.5893086   -2.5893086    -1.209237  0.082209691   -2.5893086    1.3800716   439061 
 2249000   0.91793593   -2.5872982   -2.5872982   -1.2103975  0.085856132   -2.5872982    1.3769008   439061 
 2250000   0.91913653   -2.5888401   -2.5888401   -1.2101385  0.089730898   -2.5888401    1.3787017   439061 
 2251000   0.91679876   -2.5871437   -2.5871437   -1.2119487  0.082899986   -2.5871437     1.375195   439061 
 2252000   0.91781077   -2.5877219   -2.5877219   -1.2110089  0.085301821   -2.5877219     1.376713   439061 
 2253000   0.91826801   -2.5888733   -2.5888733   -1.2114744  0.084592396   -2.5888733    1.3773989   439061 
 2254000   0.91841477   -2.5882634   -2.5882634   -1.2106444  0.086856023   -2.5882634     1.377619   439061 
 2255000   0.91783425   -2.5876098   -2.5876098   -1.2108615  0.082825042   -2.5876098    1.3767482   439061 
 2256000   0.91868431   -2.5901962   -2.5901962   -1.2121729   0.08404971   -2.5901962    1.3780233   439061 
 2257000   0.91748355    -2.587603    -2.587603   -1.2113808  0.084685467    -2.587603    1.3762222   439061 
 2258000   0.91669952   -2.5859395   -2.5859395   -1.2108934  0.085276356   -2.5859395    1.3750462   439061 
 2259000    0.9182625   -2.5877092   -2.5877092   -1.2103185  0.085338344   -2.5877092    1.3773906   439061 
 2260000   0.91864513   -2.5875307   -2.5875307   -1.2095661  0.090057101   -2.5875307    1.3779646   439061 
 2261000   0.91724098   -2.5855653   -2.5855653    -1.209707  0.086290027   -2.5855653    1.3758583   439061 
 2262000   0.91956087   -2.5867507   -2.5867507   -1.2074125  0.086873897   -2.5867507    1.3793382   439061 
 2263000   0.91755087   -2.5857912   -2.5857912   -1.2094681  0.084196066   -2.5857912    1.3763232   439061 
 2264000   0.91790379   -2.5855165   -2.5855165   -1.2086639   0.08760491   -2.5855165    1.3768526   439061 
 2265000   0.91880638   -2.5863503   -2.5863503   -1.2081439  0.087862909   -2.5863503    1.3782064   439061 
 2266000   0.91708469   -2.5849001   -2.5849001   -1.2092762  0.087143993   -2.5849001    1.3756239   439061 
 2267000   0.91792593   -2.5855881   -2.5855881   -1.2087023  0.082309614   -2.5855881    1.3768858   439061 
 2268000   0.91678847   -2.5841961   -2.5841961   -1.2090165  0.083406305   -2.5841961    1.3751796   439061 
 2269000   0.91677602   -2.5852426   -2.5852426   -1.2100817  0.086685049   -2.5852426    1.3751609   439061 
 2270000   0.91788506   -2.5879656   -2.5879656   -1.2111411  0.082494979   -2.5879656    1.3768245   439061 
 2271000   0.91761294   -2.5863209   -2.5863209   -1.2099046  0.085594354   -2.5863209    1.3764163   439061 
 2272000   0.91622768   -2.5854572   -2.5854572   -1.2111188  0.086233526   -2.5854572    1.3743384   439061 
 2273000   0.91643226   -2.5860578   -2.5860578   -1.2114125  0.075110345   -2.5860578    1.3746453   439061 
 2274000   0.91577142   -2.5849328   -2.5849328   -1.2112788  0.087261783   -2.5849328     1.373654   439061 
 2275000   0.91693971   -2.5866406   -2.5866406   -1.2112342  0.087590922   -2.5866406    1.3754064   439061 
 2276000   0.91741766   -2.5860644   -2.5860644    -1.209941  0.080767564   -2.5860644    1.3761234   439061 
 2277000   0.91685592   -2.5854282   -2.5854282   -1.2101474   0.08538558   -2.5854282    1.3752808   439061 
 2278000   0.91802055   -2.5868744   -2.5868744   -1.2098467  0.085543637   -2.5868744    1.3770277   439061 
 2279000    0.9166515   -2.5852551   -2.5852551    -1.210281  0.082482633   -2.5852551    1.3749741   439061 
 2280000   0.91746028   -2.5862452   -2.5862452   -1.2100579  0.078999377   -2.5862452    1.3761873   439061 
 2281000   0.91759966   -2.5865454   -2.5865454    -1.210149  0.086219922   -2.5865454    1.3763964   439061 
 2282000   0.91684813   -2.5855514   -2.5855514   -1.2102823  0.085357245   -2.5855514    1.3752691   439061 
 2283000   0.91869193   -2.5880022   -2.5880022   -1.2099674  0.083682604   -2.5880022    1.3780348   439061 
 2284000    0.9181431   -2.5873008   -2.5873008   -1.2100893  0.085313252   -2.5873008    1.3772115   439061 
 2285000   0.91851422   -2.5880198   -2.5880198   -1.2102516  0.087172588   -2.5880198    1.3777682   439061 
 2286000   0.91860904   -2.5880447   -2.5880447   -1.2101342  0.084094961   -2.5880447    1.3779104   439061 
 2287000   0.91799469   -2.5881527   -2.5881527   -1.2111638  0.081398898   -2.5881527    1.3769889   439061 
 2288000   0.91878387   -2.5891582   -2.5891582   -1.2109855  0.083721271   -2.5891582    1.3781727   439061 
 2289000   0.91890994   -2.5880156   -2.5880156   -1.2096538  0.082817003   -2.5880156    1.3783618   439061 
 2290000   0.91868856   -2.5883406   -2.5883406   -1.2103109  0.087276643   -2.5883406    1.3780297   439061 
 2291000   0.91866353   -2.5901106   -2.5901106   -1.2121184  0.084345541   -2.5901106    1.3779922   439061 
 2292000   0.91889045    -2.589422    -2.589422   -1.2110895  0.086231934    -2.589422    1.3783325   439061 
 2293000   0.91988162   -2.5899246   -2.5899246   -1.2101053  0.083640778   -2.5899246    1.3798193   439061 
 2294000   0.91939765   -2.5883664   -2.5883664    -1.209273   0.08508729   -2.5883664    1.3790933   439061 
 2295000   0.91959356   -2.5887216   -2.5887216   -1.2093344  0.087785234   -2.5887216    1.3793872   439061 
 2296000    0.9198741   -2.5900835   -2.5900835   -1.2102755  0.090870204   -2.5900835     1.379808   439061 
 2297000   0.91916473   -2.5892964   -2.5892964   -1.2105524  0.086032464   -2.5892964     1.378744   439061 
 2298000   0.91941956   -2.5885587   -2.5885587   -1.2094325  0.086891736   -2.5885587    1.3791262   439061 
 2299000   0.91959636   -2.5900029   -2.5900029   -1.2106115  0.082180338   -2.5900029    1.3793914   439061 
 2300000   0.91951971   -2.5902381   -2.5902381   -1.2109616   0.08630766   -2.5902381    1.3792764   439061 
 2301000   0.91703849   -2.5880354   -2.5880354   -1.2124808   0.08587095   -2.5880354    1.3755546   439061 
 2302000   0.91955261   -2.5901358   -2.5901358     -1.21081  0.085573305   -2.5901358    1.3793258   439061 
 2303000   0.92000947   -2.5890526   -2.5890526   -1.2090416  0.085059241   -2.5890526    1.3800111   439061 
 2304000   0.91824852   -2.5873698   -2.5873698   -1.2100002  0.081582976   -2.5873698    1.3773696   439061 
 2305000   0.92012752   -2.5896707   -2.5896707   -1.2094826  0.087761166   -2.5896707    1.3801881   439061 
 2306000   0.92011552   -2.5909756   -2.5909756   -1.2108055  0.083560923   -2.5909756    1.3801701   439061 
 2307000   0.91854896   -2.5890123   -2.5890123    -1.211192  0.089242964   -2.5890123    1.3778203   439061 
 2308000   0.91739313   -2.5876584   -2.5876584   -1.2115719  0.086602218   -2.5876584    1.3760866   439061 
 2309000    0.9186061   -2.5897702   -2.5897702   -1.2118642  0.082206817   -2.5897702     1.377906   439061 
 2310000   0.91821787   -2.5894825   -2.5894825   -1.2121588  0.082507154   -2.5894825    1.3773237   439061 
 2311000   0.91892319    -2.590568    -2.590568   -1.2121863  0.083354236    -2.590568    1.3783817   439061 
 2312000   0.91849671   -2.5902277   -2.5902277   -1.2124858  0.079682971   -2.5902277    1.3777419   439061 
 2313000   0.91802978   -2.5899167   -2.5899167   -1.2128751  0.084491035   -2.5899167    1.3770415   439061 
 2314000   0.91672891   -2.5884534   -2.5884534   -1.2133632  0.083027496   -2.5884534    1.3750902   439061 
 2315000   0.91847907   -2.5888234   -2.5888234    -1.211108  0.087018408   -2.5888234    1.3777155   439061 
 2316000   0.91800847   -2.5882488   -2.5882488   -1.2112392   0.08458497   -2.5882488    1.3770096   439061 
 2317000   0.91879628   -2.5892135   -2.5892135   -1.2110223  0.084465083   -2.5892135    1.3781913   439061 
 2318000   0.91866516   -2.5886039   -2.5886039   -1.2106093  0.083665439   -2.5886039    1.3779946   439061 
 2319000   0.91764137   -2.5887705   -2.5887705   -1.2123116  0.086841918   -2.5887705    1.3764589   439061 
 2320000   0.91778906   -2.5884066   -2.5884066   -1.2117261   0.08542526   -2.5884066    1.3766805   439061 
 2321000   0.91860627   -2.5879505   -2.5879505   -1.2100443  0.086678467   -2.5879505    1.3779063   439061 
 2322000   0.91960647   -2.5904433   -2.5904433   -1.2110367  0.078335159   -2.5904433    1.3794066   439061 
 2323000   0.92023672   -2.5910348   -2.5910348   -1.2106829  0.088240521   -2.5910348    1.3803519   439061 
 2324000   0.91923181   -2.5891633   -2.5891633   -1.2103187  0.085255769   -2.5891633    1.3788446   439061 
 2325000   0.91849164   -2.5884174   -2.5884174   -1.2106831  0.081496067   -2.5884174    1.3777343   439061 
 2326000   0.91960112   -2.5897837   -2.5897837   -1.2103852  0.084910269   -2.5897837    1.3793985   439061 
 2327000   0.91861076    -2.589085    -2.589085    -1.211172  0.085290962    -2.589085     1.377913   439061 
 2328000   0.91820131   -2.5876888   -2.5876888   -1.2103899  0.085298965   -2.5876888    1.3772988   439061 
 2329000   0.91890918   -2.5881275   -2.5881275   -1.2097668  0.085369242   -2.5881275    1.3783606   439061 
 2330000   0.91865451   -2.5891214   -2.5891214   -1.2111427  0.080337086   -2.5891214    1.3779786   439061 
 2331000   0.91911653   -2.5901038   -2.5901038   -1.2114321  0.086586649   -2.5901038    1.3786717   439061 
 2332000   0.91769012   -2.5875267   -2.5875267   -1.2109947  0.084124764   -2.5875267     1.376532   439061 
 2333000   0.91790702   -2.5891585   -2.5891585   -1.2123011    0.0838552   -2.5891585    1.3768574   439061 
 2334000   0.91699941   -2.5885695   -2.5885695   -1.2130735  0.082871923   -2.5885695     1.375496   439061 
 2335000   0.91730299   -2.5896357   -2.5896357   -1.2136843  0.081350279   -2.5896357    1.3759513   439061 
 2336000   0.91978854   -2.5921336   -2.5921336   -1.2124539  0.083843317   -2.5921336    1.3796797   439061 
 2337000   0.91783469   -2.5896332   -2.5896332   -1.2128843   0.08213176   -2.5896332    1.3767489   439061 
 2338000   0.91934485   -2.5917376   -2.5917376   -1.2127234  0.085098777   -2.5917376    1.3790141   439061 
 2339000    0.9189983   -2.5905579   -2.5905579   -1.2120636  0.086302163   -2.5905579    1.3784943   439061 
 2340000   0.92025181   -2.5930034   -2.5930034   -1.2126288  0.081299904   -2.5930034    1.3803746   439061 
 2341000   0.91835149   -2.5910163   -2.5910163   -1.2134922  0.082612662   -2.5910163    1.3775241   439061 
 2342000   0.91905337   -2.5917966   -2.5917966   -1.2132197  0.086627252   -2.5917966    1.3785769   439061 
 2343000   0.91785636   -2.5898782   -2.5898782   -1.2130968  0.079299799   -2.5898782    1.3767814   439061 
 2344000   0.91658494   -2.5886219   -2.5886219   -1.2137477  0.082432726   -2.5886219    1.3748743   439061 
 2345000   0.91658333   -2.5880958   -2.5880958    -1.213224  0.082815828   -2.5880958    1.3748719   439061 
 2346000   0.91794381   -2.5916634   -2.5916634   -1.2147508   0.08335296   -2.5916634    1.3769126   439061 
 2347000   0.91844765   -2.5933269   -2.5933269   -1.2156586  0.084286967   -2.5933269    1.3776683   439061 
 2348000    0.9186551   -2.5921821   -2.5921821   -1.2142026  0.081272286   -2.5921821    1.3779795   439061 
 2349000   0.91949744     -2.59281     -2.59281    -1.213567  0.086727441     -2.59281     1.379243   439061 
 2350000   0.91823359   -2.5912444   -2.5912444   -1.2138971  0.082755597   -2.5912444    1.3773473   439061 
 2351000   0.91782328   -2.5906356   -2.5906356   -1.2139038  0.086647095   -2.5906356    1.3767318   439061 
 2352000   0.91950687    -2.592627    -2.592627   -1.2133698  0.082376563    -2.592627    1.3792572   439061 
 2353000   0.91787261    -2.590333    -2.590333   -1.2135272  0.087069716    -2.590333    1.3768058   439061 
 2354000   0.91525356   -2.5870895   -2.5870895   -1.2142123   0.08218466   -2.5870895    1.3728772   439061 
 2355000   0.91737215   -2.5906128   -2.5906128   -1.2145577  0.079275274   -2.5906128    1.3760551   439061 
 2356000   0.91760341   -2.5893578   -2.5893578   -1.2129558  0.084575188   -2.5893578     1.376402   439061 
 2357000   0.91801058   -2.5902953   -2.5902953   -1.2132825   0.07894359   -2.5902953    1.3770127   439061 
 2358000   0.91724703   -2.5882427   -2.5882427   -1.2123753  0.081753111   -2.5882427    1.3758674   439061 
 2359000   0.91591645   -2.5883915   -2.5883915   -1.2145199  0.083821583   -2.5883915    1.3738716   439061 
 2360000   0.91881704   -2.5925958   -2.5925958   -1.2143733  0.081700812   -2.5925958    1.3782224   439061 
 2361000    0.9180744   -2.5907059   -2.5907059   -1.2135974  0.082928373   -2.5907059    1.3771085   439061 
 2362000   0.91777295    -2.590653    -2.590653   -1.2139967  0.081904451    -2.590653    1.3766563   439061 
 2363000   0.91889064   -2.5913338   -2.5913338   -1.2130009  0.081790483   -2.5913338    1.3783328   439061 
 2364000   0.91799097   -2.5911494   -2.5911494   -1.2141661  0.080599548   -2.5911494    1.3769833   439061 
 2365000   0.91761261   -2.5925702   -2.5925702   -1.2161544  0.081415647   -2.5925702    1.3764158   439061 
 2366000   0.91714946   -2.5895539   -2.5895539   -1.2138329  0.085103136   -2.5895539    1.3757211   439061 
 2367000   0.91708932    -2.589758    -2.589758   -1.2141272  0.083470722    -2.589758    1.3756308   439061 
 2368000   0.91852563   -2.5914394   -2.5914394   -1.2136541  0.091319056   -2.5914394    1.3777853   439061 
 2369000   0.91780574   -2.5903293   -2.5903293   -1.2136238  0.086696499   -2.5903293    1.3767055   439061 
 2370000   0.91712051    -2.590239    -2.590239   -1.2145614  0.083371775    -2.590239    1.3756776   439061 
 2371000   0.91692335    -2.589641    -2.589641   -1.2142591  0.089659573    -2.589641    1.3753819   439061 
 2372000   0.91739616   -2.5907251   -2.5907251    -1.214634  0.088274844   -2.5907251    1.3760911   439061 
 2373000   0.91786102   -2.5908437   -2.5908437   -1.2140553  0.080394354   -2.5908437    1.3767884   439061 
 2374000   0.91747236   -2.5905622   -2.5905622   -1.2143568  0.080066749   -2.5905622    1.3762054   439061 
 2375000   0.91786396   -2.5901051   -2.5901051   -1.2133123  0.084332069   -2.5901051    1.3767928   439061 
 2376000   0.91872884   -2.5916314   -2.5916314   -1.2135412  0.080226868   -2.5916314    1.3780901   439061 
 2377000   0.91811437    -2.589726    -2.589726   -1.2125576  0.082632011    -2.589726    1.3771684   439061 
 2378000   0.91984255   -2.5927728   -2.5927728   -1.2130121  0.084039695   -2.5927728    1.3797607   439061 
 2379000   0.91906866   -2.5921079   -2.5921079    -1.213508  0.090545479   -2.5921079    1.3785998   439061 
 2380000   0.91880182   -2.5922761   -2.5922761   -1.2140765  0.084740622   -2.5922761    1.3781996   439061 
 2381000   0.91642735   -2.5887746   -2.5887746   -1.2141368  0.083783987   -2.5887746    1.3746379   439061 
 2382000   0.91828837   -2.5926505   -2.5926505   -1.2152211  0.079155284   -2.5926505    1.3774294   439061 
 2383000    0.9178305   -2.5919289   -2.5919289   -1.2151863  0.082187814   -2.5919289    1.3767426   439061 
 2384000   0.91938674   -2.5931507   -2.5931507   -1.2140737  0.084023284   -2.5931507     1.379077   439061 
 2385000   0.91856067   -2.5931984   -2.5931984   -1.2153605  0.083224033   -2.5931984    1.3778379   439061 
 2386000    0.9168599   -2.5908237   -2.5908237    -1.215537  0.080381591   -2.5908237    1.3752867   439061 
 2387000   0.91662778   -2.5910371   -2.5910371   -1.2160986  0.083409634   -2.5910371    1.3749385   439061 
 2388000   0.91725965   -2.5909438   -2.5909438   -1.2150575  0.084242789   -2.5909438    1.3758863   439061 
 2389000   0.91782476   -2.5902695   -2.5902695   -1.2135355  0.084984178   -2.5902695     1.376734   439061 
 2390000   0.91908663   -2.5914476   -2.5914476   -1.2128208  0.084569082   -2.5914476    1.3786268   439061 
 2391000    0.9183968   -2.5896959   -2.5896959   -1.2121039  0.084381853   -2.5896959    1.3775921   439061 
 2392000   0.91820135   -2.5901458   -2.5901458   -1.2128469  0.086391068   -2.5901458    1.3772989   439061 
 2393000   0.91870163   -2.5918337   -2.5918337   -1.2137844  0.083055877   -2.5918337    1.3780493   439061 
 2394000   0.91853237   -2.5922267   -2.5922267   -1.2144312  0.079989372   -2.5922267    1.3777954   439061 
 2395000   0.91712418   -2.5904917   -2.5904917   -1.2148085  0.083424941   -2.5904917    1.3756831   439061 
 2396000    0.9183529   -2.5906044   -2.5906044   -1.2130782  0.085063316   -2.5906044    1.3775262   439061 
 2397000   0.91812763   -2.5905471   -2.5905471   -1.2133587   0.08461403   -2.5905471    1.3771883   439061 
 2398000   0.91887636   -2.5910468   -2.5910468   -1.2127354  0.084934872   -2.5910468    1.3783114   439061 
 2399000   0.91843856   -2.5912212   -2.5912212   -1.2135665  0.085886249   -2.5912212    1.3776547   439061 
 2400000   0.91825517   -2.5900378   -2.5900378   -1.2126581  0.079586876   -2.5900378    1.3773796   439061 
 2401000   0.91872239    -2.591726    -2.591726   -1.2136455  0.080674638    -2.591726    1.3780805   439061 
 2402000   0.91867351   -2.5900102   -2.5900102   -1.2120031   0.08751206   -2.5900102    1.3780071   439061 
 2403000   0.91868384   -2.5888116   -2.5888116    -1.210789  0.084063329   -2.5888116    1.3780226   439061 
 2404000   0.91830048   -2.5900609   -2.5900609   -1.2126133  0.086273918   -2.5900609    1.3774476   439061 
 2405000   0.91755681   -2.5894718   -2.5894718   -1.2131397    0.0813026   -2.5894718    1.3763321   439061 
 2406000   0.91852665   -2.5920949   -2.5920949   -1.2143081  0.077901465   -2.5920949    1.3777868   439061 
 2407000   0.91776195   -2.5894317   -2.5894317   -1.2127919  0.084780302   -2.5894317    1.3766398   439061 
 2408000   0.91843686   -2.5902461   -2.5902461   -1.2125939  0.083918658   -2.5902461    1.3776522   439061 
 2409000   0.91689046   -2.5882714   -2.5882714   -1.2129388  0.079659937   -2.5882714    1.3753326   439061 
 2410000   0.91797657   -2.5896633   -2.5896633   -1.2127015  0.081218511   -2.5896633    1.3769617   439061 
 2411000   0.91649478   -2.5881888   -2.5881888   -1.2134497  0.083511341   -2.5881888     1.374739   439061 
 2412000   0.91882631   -2.5920541   -2.5920541   -1.2138177  0.084487834   -2.5920541    1.3782363   439061 
 2413000   0.91834326   -2.5918785   -2.5918785   -1.2143667   0.08136678   -2.5918785    1.3775118   439061 
 2414000    0.9179246   -2.5900548   -2.5900548   -1.2131711  0.086564055   -2.5900548    1.3768838   439061 
 2415000   0.91792835   -2.5904848   -2.5904848   -1.2135954  0.080213283   -2.5904848    1.3768894   439061 
 2416000   0.91739935    -2.590195    -2.590195   -1.2140992  0.086571972    -2.590195    1.3760959   439061 
 2417000   0.91806627   -2.5916372   -2.5916372    -1.214541  0.080184975   -2.5916372    1.3770963   439061 
 2418000   0.91725453   -2.5907436   -2.5907436    -1.214865  0.088031577   -2.5907436    1.3758787   439061 
 2419000   0.91807629   -2.5928066   -2.5928066   -1.2156953  0.081051609   -2.5928066    1.3771113   439061 
 2420000   0.91831199   -2.5926123   -2.5926123   -1.2151474  0.082866003   -2.5926123    1.3774649   439061 
 2421000   0.91731199   -2.5923053   -2.5923053   -1.2163405  0.087265608   -2.5923053    1.3759649   439061 
 2422000   0.91721727   -2.5927173   -2.5927173   -1.2168945  0.083705956   -2.5927173    1.3758228   439061 
 2423000   0.91801995   -2.5942569   -2.5942569   -1.2172302  0.084365956   -2.5942569    1.3770268   439061 
 2424000   0.91817594   -2.5936447   -2.5936447   -1.2163839  0.083101403   -2.5936447    1.3772608   439061 
 2425000   0.91721232   -2.5929125   -2.5929125   -1.2170971  0.084431712   -2.5929125    1.3758153   439061 
 2426000   0.91694355   -2.5924993   -2.5924993   -1.2170871  0.083436892   -2.5924993    1.3754122   439061 
 2427000   0.91925408   -2.5963457   -2.5963457   -1.2174677  0.084681394   -2.5963457     1.378878   439061 
 2428000   0.91806056   -2.5950766   -2.5950766   -1.2179889  0.086038042   -2.5950766    1.3770877   439061 
 2429000   0.91853799   -2.5954043   -2.5954043   -1.2176004  0.085779715   -2.5954043    1.3778039   439061 
 2430000   0.91813811   -2.5955082   -2.5955082   -1.2183042  0.084491642   -2.5955082     1.377204   439061 
 2431000   0.91648241   -2.5943779   -2.5943779   -1.2196574  0.084450633   -2.5943779    1.3747205   439061 
 2432000    0.9192039   -2.5963006   -2.5963006   -1.2174979  0.082192114   -2.5963006    1.3788027   439061 
 2433000    0.9174744   -2.5947504   -2.5947504   -1.2185419  0.086113427   -2.5947504    1.3762085   439061 
 2434000   0.91785946    -2.596308    -2.596308   -1.2195219  0.081902857    -2.596308    1.3767861   439061 
 2435000   0.91747087   -2.5961757   -2.5961757   -1.2199725  0.083752059   -2.5961757    1.3762032   439061 
 2436000   0.91668253   -2.5941774   -2.5941774   -1.2191568  0.086272637   -2.5941774    1.3750207   439061 
 2437000   0.91692655   -2.5948121   -2.5948121   -1.2194254  0.081302091   -2.5948121    1.3753867   439061 
 2438000   0.91670101   -2.5952035   -2.5952035   -1.2201551  0.082966207   -2.5952035    1.3750484   439061 
 2439000   0.91706887   -2.5948967   -2.5948967   -1.2192965  0.078747566   -2.5948967    1.3756002   439061 
 2440000   0.91750527   -2.5953079   -2.5953079   -1.2190532  0.081716769   -2.5953079    1.3762548   439061 
 2441000   0.91713407   -2.5950412   -2.5950412   -1.2193432  0.083670802   -2.5950412     1.375698   439061 
 2442000   0.91517924   -2.5934215   -2.5934215   -1.2206558  0.081938466   -2.5934215    1.3727657   439061 
 2443000   0.91739035   -2.5969582   -2.5969582   -1.2208758  0.079931345   -2.5969582    1.3760824   439061 
 2444000   0.91628659   -2.5951433   -2.5951433   -1.2207165  0.084711433   -2.5951433    1.3744268   439061 
 2445000   0.91749906   -2.5964206   -2.5964206   -1.2201751  0.082737246   -2.5964206    1.3762454   439061 
 2446000   0.91649731   -2.5952586   -2.5952586   -1.2205158  0.085747966   -2.5952586    1.3747428   439061 
 2447000   0.91647305    -2.594149    -2.594149   -1.2194426  0.081671217    -2.594149    1.3747064   439061 
 2448000   0.91519875   -2.5924211   -2.5924211   -1.2196261  0.085613293   -2.5924211     1.372795   439061 
 2449000   0.91743153   -2.5960784   -2.5960784   -1.2199342  0.083415088   -2.5960784    1.3761442   439061 
 2450000   0.91547798   -2.5925561   -2.5925561   -1.2193423  0.079745276   -2.5925561    1.3732138   439061 
 2451000   0.91721145   -2.5942611   -2.5942611   -1.2184471  0.083861823   -2.5942611     1.375814   439061 
 2452000   0.91784537   -2.5954569   -2.5954569    -1.218692  0.079819096   -2.5954569    1.3767649   439061 
 2453000   0.91714718   -2.5942347   -2.5942347   -1.2185171  0.086026453   -2.5942347    1.3757176   439061 
 2454000   0.91806401   -2.5952852   -2.5952852   -1.2181923  0.081378807   -2.5952852    1.3770929   439061 
 2455000   0.91807176   -2.5952206   -2.5952206   -1.2181161  0.082655377   -2.5952206    1.3771045   439061 
 2456000   0.91805475   -2.5946505   -2.5946505   -1.2175716  0.086026836   -2.5946505     1.377079   439061 
 2457000   0.91755205   -2.5952108   -2.5952108   -1.2188858  0.082227627   -2.5952108    1.3763249   439061 
 2458000    0.9178658   -2.5953761   -2.5953761   -1.2185806  0.081054579   -2.5953761    1.3767956   439061 
 2459000   0.91745435   -2.5939225   -2.5939225   -1.2177442  0.083541131   -2.5939225    1.3761784   439061 
 2460000   0.91714495   -2.5937161   -2.5937161   -1.2180019    0.0851064   -2.5937161    1.3757143   439061 
 2461000   0.91707564   -2.5939526   -2.5939526   -1.2183422  0.083093596   -2.5939526    1.3756103   439061 
 2462000    0.9176358   -2.5942466   -2.5942466    -1.217796  0.080479531   -2.5942466    1.3764506   439061 
 2463000   0.91625263   -2.5936948   -2.5936948    -1.219319   0.07918288   -2.5936948    1.3743758   439061 
 2464000    0.9164896   -2.5930475   -2.5930475   -1.2183162  0.085527752   -2.5930475    1.3747313   439061 
 2465000    0.9167097     -2.59302     -2.59302   -1.2179586  0.078532567     -2.59302    1.3750614   439061 
 2466000   0.91625264   -2.5925165   -2.5925165   -1.2181406  0.080574537   -2.5925165    1.3743758   439061 
 2467000   0.91650451    -2.593093    -2.593093   -1.2183394  0.080626356    -2.593093    1.3747536   439061 
 2468000   0.91651178    -2.592733    -2.592733   -1.2179685  0.085959281    -2.592733    1.3747645   439061 
 2469000   0.91646843   -2.5929032   -2.5929032   -1.2182037  0.085077002   -2.5929032    1.3746995   439061 
 2470000   0.91769714    -2.594373    -2.594373   -1.2178305  0.082883238    -2.594373    1.3765426   439061 
 2471000   0.91747236   -2.5922995   -2.5922995   -1.2160941  0.081348512   -2.5922995    1.3762054   439061 
 2472000   0.91647139   -2.5906891   -2.5906891   -1.2159851  0.085003901   -2.5906891     1.374704   439061 
 2473000   0.91798562   -2.5921009   -2.5921009   -1.2151256  0.080730812   -2.5921009    1.3769753   439061 
 2474000   0.91784277   -2.5915489   -2.5915489   -1.2147879  0.088592453   -2.5915489     1.376761   439061 
 2475000   0.91867437   -2.5929523   -2.5929523   -1.2149439  0.081864805   -2.5929523    1.3780084   439061 
 2476000   0.91697178   -2.5904982   -2.5904982   -1.2150436  0.086930675   -2.5904982    1.3754545   439061 
 2477000   0.91716968   -2.5912601   -2.5912601   -1.2155087  0.084059411   -2.5912601    1.3757514   439061 
 2478000   0.91831072   -2.5933469   -2.5933469    -1.215884  0.079233166   -2.5933469    1.3774629   439061 
 2479000   0.91728368   -2.5920865   -2.5920865   -1.2161641  0.081888966   -2.5920865    1.3759224   439061 
 2480000   0.91780228     -2.59225     -2.59225   -1.2155497  0.086456444     -2.59225    1.3767003   439061 
 2481000   0.91898548   -2.5943174   -2.5943174   -1.2158423  0.081303684   -2.5943174    1.3784751   439061 
 2482000   0.91676175   -2.5910951   -2.5910951   -1.2159556  0.084023144   -2.5910951    1.3751395   439061 
 2483000   0.91747692   -2.5921394   -2.5921394   -1.2159272  0.086681086   -2.5921394    1.3762122   439061 
 2484000   0.91746588    -2.592081    -2.592081   -1.2158853  0.083489437    -2.592081    1.3761957   439061 
 2485000   0.91670952   -2.5917796   -2.5917796   -1.2167185  0.079353637   -2.5917796    1.3750611   439061 
 2486000   0.91799528   -2.5931636   -2.5931636   -1.2161738  0.084676301   -2.5931636    1.3769898   439061 
 2487000   0.91635517    -2.591315    -2.591315   -1.2167854  0.081833594    -2.591315    1.3745296   439061 
 2488000   0.91768001   -2.5932493   -2.5932493   -1.2167325   0.08436723   -2.5932493    1.3765169   439061 
 2489000   0.91820171   -2.5924675   -2.5924675    -1.215168  0.084885484   -2.5924675    1.3772994   439061 
 2490000   0.91882629   -2.5932848   -2.5932848   -1.2150485  0.079618444   -2.5932848    1.3782363   439061 
 2491000   0.91732657   -2.5913553   -2.5913553   -1.2153686  0.080416592   -2.5913553    1.3759867   439061 
 2492000    0.9170042   -2.5912874   -2.5912874   -1.2157842  0.081452124   -2.5912874    1.3755032   439061 
 2493000   0.91703002   -2.5905955   -2.5905955   -1.2150536   0.08350638   -2.5905955    1.3755419   439061 
 2494000    0.9180152   -2.5921317   -2.5921317    -1.215112  0.080996588   -2.5921317    1.3770197   439061 
 2495000   0.92013206   -2.5951641   -2.5951641   -1.2149691  0.080934929   -2.5951641    1.3801949   439061 
 2496000   0.91838945   -2.5936196   -2.5936196   -1.2160385  0.080049214   -2.5936196     1.377581   439061 
 2497000    0.9167031   -2.5909545   -2.5909545    -1.215903  0.089695871   -2.5909545    1.3750515   439061 
 2498000   0.91610059   -2.5900286   -2.5900286   -1.2158808  0.085450453   -2.5900286    1.3741478   439061 
 2499000    0.9183378   -2.5938619   -2.5938619   -1.2163583  0.084247973   -2.5938619    1.3775036   439061 
 2500000   0.91799169   -2.5933163   -2.5933163   -1.2163319  0.081051726   -2.5933163    1.3769844   439061 
 2501000   0.91783708   -2.5928477   -2.5928477   -1.2160952  0.081418979   -2.5928477    1.3767525   439061 
 2502000   0.92000578   -2.5956608   -2.5956608   -1.2156553  0.079358475   -2.5956608    1.3800055   439061 
 2503000   0.91722347   -2.5921057   -2.5921057   -1.2162736  0.081854311   -2.5921057    1.3758321   439061 
 2504000   0.91708029   -2.5922619   -2.5922619   -1.2166446  0.084915193   -2.5922619    1.3756173   439061 
 2505000   0.91811093   -2.5942292   -2.5942292   -1.2170659   0.08192424   -2.5942292    1.3771633   439061 
 2506000   0.91804763    -2.594744    -2.594744   -1.2176757  0.082578434    -2.594744    1.3770683   439061 
 2507000   0.91664375   -2.5922024   -2.5922024   -1.2172399  0.083837114   -2.5922024    1.3749625   439061 
 2508000   0.91701378   -2.5927277   -2.5927277   -1.2172101  0.088474025   -2.5927277    1.3755175   439061 
 2509000   0.91873875   -2.5956051   -2.5956051   -1.2175001  0.082670684   -2.5956051     1.378105   439061 
 2510000   0.91727645   -2.5937917   -2.5937917   -1.2178802  0.085301369   -2.5937917    1.3759115   439061 
 2511000   0.91739771   -2.5928302   -2.5928302   -1.2167367  0.082744593   -2.5928302    1.3760934   439061 
 2512000   0.91835469   -2.5941228   -2.5941228   -1.2165939  0.087539476   -2.5941228    1.3775289   439061 
 2513000   0.91824586   -2.5940675   -2.5940675   -1.2167019  0.087215119   -2.5940675    1.3773656   439061 
 2514000   0.91745898   -2.5937112   -2.5937112   -1.2175258  0.084103704   -2.5937112    1.3761853   439061 
 2515000   0.91736911   -2.5936427   -2.5936427   -1.2175922  0.081973172   -2.5936427    1.3760505   439061 
 2516000   0.91671699   -2.5924549   -2.5924549   -1.2173825  0.083823726   -2.5924549    1.3750724   439061 
 2517000   0.91842232   -2.5955597   -2.5955597   -1.2179294  0.082936803   -2.5955597    1.3776303   439061 
 2518000   0.91579519   -2.5920655   -2.5920655   -1.2183759   0.08504186   -2.5920655    1.3736896   439061 
 2519000   0.91688319   -2.5937759   -2.5937759   -1.2184542  0.079760061   -2.5937759    1.3753217   439061 
 2520000   0.91597604    -2.592079    -2.592079   -1.2181181  0.076437618    -2.592079    1.3739609   439061 
 2521000   0.91683238   -2.5931226   -2.5931226   -1.2178771  0.078832989   -2.5931226    1.3752454   439061 
 2522000   0.91640528   -2.5914943   -2.5914943   -1.2168895  0.082994522   -2.5914943    1.3746048   439061 
 2523000   0.91680348    -2.592932    -2.592932   -1.2177299  0.082257903    -2.592932    1.3752021   439061 
 2524000   0.91598992   -2.5928969   -2.5928969   -1.2189152  0.082481135   -2.5928969    1.3739817   439061 
 2525000   0.91711046   -2.5941895   -2.5941895   -1.2185269  0.084770684   -2.5941895    1.3756626   439061 
 2526000   0.91627182   -2.5927496   -2.5927496    -1.218345  0.084090543   -2.5927496    1.3744046   439061 
 2527000   0.91674861   -2.5939061   -2.5939061   -1.2187864  0.082092851   -2.5939061    1.3751198   439061 
 2528000     0.916944   -2.5956008   -2.5956008    -1.220188  0.081763392   -2.5956008    1.3754129   439061 
 2529000    0.9159119   -2.5939555   -2.5939555   -1.2200908  0.080124182   -2.5939555    1.3738647   439061 
 2530000    0.9157521   -2.5928277   -2.5928277   -1.2192027  0.084391876   -2.5928277     1.373625   439061 
 2531000   0.91705599   -2.5944549   -2.5944549   -1.2188741  0.078671502   -2.5944549    1.3755809   439061 
 2532000   0.91733155   -2.5938432   -2.5938432    -1.217849  0.082352877   -2.5938432    1.3759942   439061 
 2533000   0.91719936   -2.5938774   -2.5938774   -1.2180815  0.079217616   -2.5938774    1.3757959   439061 
 2534000   0.91761733   -2.5941877   -2.5941877   -1.2177648  0.077599528   -2.5941877    1.3764229   439061 
 2535000   0.91887533    -2.595517    -2.595517   -1.2172071  0.083809469    -2.595517    1.3783099   439061 
 2536000   0.91631403   -2.5921445   -2.5921445   -1.2176765  0.084393723   -2.5921445    1.3744679   439061 
 2537000   0.91854893   -2.5949214   -2.5949214   -1.2171011  0.080383104   -2.5949214    1.3778203   439061 
 2538000   0.91749451   -2.5949898   -2.5949898   -1.2187512  0.083217263   -2.5949898    1.3762386   439061 
 2539000   0.91713515   -2.5952217   -2.5952217   -1.2195222  0.078629121   -2.5952217    1.3756996   439061 
 2540000   0.91796713   -2.5962493   -2.5962493   -1.2193017   0.08407671   -2.5962493    1.3769476   439061 
 2541000   0.91806265   -2.5953833   -2.5953833   -1.2182925  0.089842282   -2.5953833    1.3770908   439061 
 2542000   0.91781344   -2.5954744   -2.5954744   -1.2187573  0.081630556   -2.5954744     1.376717   439061 
 2543000    0.9184192   -2.5960375   -2.5960375   -1.2184119  0.086429162   -2.5960375    1.3776257   439061 
 2544000   0.91724751   -2.5954103   -2.5954103   -1.2195422  0.082913811   -2.5954103    1.3758681   439061 
 2545000   0.91722147   -2.5967847   -2.5967847   -1.2209556  0.084287112   -2.5967847    1.3758291   439061 
 2546000   0.91661327   -2.5958822   -2.5958822   -1.2209655  0.082537768   -2.5958822    1.3749168   439061 
 2547000   0.91724842   -2.5967431   -2.5967431   -1.2208736  0.084085318   -2.5967431    1.3758695   439061 
 2548000   0.91680925   -2.5961714   -2.5961714   -1.2209606  0.080683978   -2.5961714    1.3752107   439061 
 2549000   0.91761736   -2.5972709   -2.5972709    -1.220848  0.078952143   -2.5972709    1.3764229   439061 
 2550000   0.91705382   -2.5972268   -2.5972268   -1.2216492  0.085110627   -2.5972268    1.3755776   439061 
 2551000   0.91717996   -2.5982298   -2.5982298    -1.222463  0.082000035   -2.5982298    1.3757668   439061 
 2552000   0.91546652   -2.5946015   -2.5946015   -1.2214049  0.089855203   -2.5946015    1.3731967   439061 
 2553000   0.91674777   -2.5973882   -2.5973882   -1.2222696  0.082374185   -2.5973882    1.3751185   439061 
 2554000   0.91669553   -2.5972635   -2.5972635   -1.2222234  0.087291475   -2.5972635    1.3750402   439061 
 2555000   0.91606018   -2.5981574   -2.5981574   -1.2240703  0.075442522   -2.5981574    1.3740871   439061 
 2556000   0.91674528   -2.5974193   -2.5974193   -1.2223046  0.089335523   -2.5974193    1.3751148   439061 
 2557000   0.91725458   -2.5985076   -2.5985076   -1.2226289  0.081468693   -2.5985076    1.3758787   439061 
 2558000   0.91744335   -2.5984232   -2.5984232   -1.2222613  0.079690164   -2.5984232    1.3761619   439061 
 2559000   0.91770191   -2.6001846   -2.6001846   -1.2236349  0.084479419   -2.6001846    1.3765497   439061 
 2560000   0.91660043   -2.5982384   -2.5982384   -1.2233409  0.085824642   -2.5982384    1.3748975   439061 
 2561000   0.91841161   -2.6006726   -2.6006726   -1.2230584  0.082809856   -2.6006726    1.3776143   439061 
 2562000   0.91722364   -2.5984932   -2.5984932   -1.2226609  0.086075772   -2.5984932    1.3758323   439061 
 2563000   0.91808535   -2.5987975   -2.5987975   -1.2216726  0.083048397   -2.5987975    1.3771249   439061 
 2564000   0.91753064   -2.5993337   -2.5993337   -1.2230409  0.081658805   -2.5993337    1.3762928   439061 
 2565000   0.91863733   -2.6002437   -2.6002437   -1.2222908  0.082506224   -2.6002437    1.3779529   439061 
 2566000   0.91798316   -2.6000416   -2.6000416     -1.22307  0.086545574   -2.6000416    1.3769716   439061 
 2567000   0.91755512   -2.5995993   -2.5995993   -1.2232698  0.082805016   -2.5995993    1.3763295   439061 
 2568000   0.91694251   -2.5986616   -2.5986616    -1.223251  0.082962887   -2.5986616    1.3754106   439061 
 2569000   0.91616068    -2.598336    -2.598336   -1.2240981  0.081380471    -2.598336    1.3742379   439061 
 2570000   0.91492223   -2.5958114   -2.5958114   -1.2234312  0.086840714   -2.5958114    1.3723802   439061 
 2571000   0.91737038    -2.598485    -2.598485   -1.2224326  0.083918929    -2.598485    1.3760524   439061 
 2572000   0.91741658   -2.5986998   -2.5986998   -1.2225781  0.082115352   -2.5986998    1.3761217   439061 
 2573000   0.91712812   -2.5985175   -2.5985175   -1.2228285  0.084159007   -2.5985175     1.375689   439061 
 2574000    0.9164373    -2.597775    -2.597775   -1.2231222  0.081990708    -2.597775    1.3746528   439061 
 2575000   0.91660705   -2.5982955   -2.5982955   -1.2233881  0.084295596   -2.5982955    1.3749074   439061 
 2576000   0.91596414   -2.5984876   -2.5984876   -1.2245445  0.083977531   -2.5984876    1.3739431   439061 
 2577000   0.91668678    -2.598533    -2.598533   -1.2235059  0.079698865    -2.598533     1.375027   439061 
 2578000   0.91539844   -2.5968777   -2.5968777   -1.2237832  0.082047871   -2.5968777    1.3730945   439061 
 2579000   0.91688251   -2.5978028   -2.5978028   -1.2224822  0.085349573   -2.5978028    1.3753206   439061 
 2580000   0.91632464   -2.5964674   -2.5964674   -1.2219835  0.084096731   -2.5964674    1.3744838   439061 
 2581000   0.91677753   -2.5984381   -2.5984381   -1.2232749  0.085346644   -2.5984381    1.3751632   439061 
 2582000   0.91593954   -2.5978853   -2.5978853   -1.2239792  0.083562326   -2.5978853    1.3739062   439061 
 2583000   0.91462367   -2.5969871   -2.5969871   -1.2250548  0.082247038   -2.5969871    1.3719324   439061 
 2584000   0.91512039   -2.5967273   -2.5967273   -1.2240498  0.078475681   -2.5967273    1.3726775   439061 
 2585000   0.91523989   -2.5972537   -2.5972537    -1.224397  0.082574248   -2.5972537    1.3728567   439061 
 2586000   0.91477202   -2.5959893   -2.5959893   -1.2238344  0.084383394   -2.5959893    1.3721549   439061 
 2587000   0.91566443   -2.5967064   -2.5967064   -1.2232129  0.077835322   -2.5967064    1.3734935   439061 
 2588000    0.9161194   -2.5982995   -2.5982995   -1.2241236  0.081726737   -2.5982995     1.374176   439061 
 2589000   0.91683793   -2.5981739   -2.5981739   -1.2229201  0.084650383   -2.5981739    1.3752538   439061 
 2590000   0.91548936   -2.5974506   -2.5974506   -1.2242197   0.08117088   -2.5974506    1.3732309   439061 
 2591000   0.91476553   -2.5960577   -2.5960577   -1.2239125   0.08122633   -2.5960577    1.3721452   439061 
 2592000   0.91492413   -2.5964029   -2.5964029   -1.2240199  0.080064106   -2.5964029    1.3723831   439061 
 2593000   0.91684124   -2.5989835   -2.5989835   -1.2237248   0.08062531   -2.5989835    1.3752587   439061 
 2594000   0.91566774   -2.5982293   -2.5982293   -1.2247308  0.080581685   -2.5982293    1.3734985   439061 
 2595000    0.9171632   -2.5998422   -2.5998422   -1.2241005  0.081783041   -2.5998422    1.3757417   439061 
 2596000   0.91667486   -2.5992686   -2.5992686   -1.2242595  0.081045988   -2.5992686    1.3750092   439061 
 2597000   0.91657359    -2.599444    -2.599444   -1.2245867  0.084248945    -2.599444    1.3748573   439061 
 2598000   0.91579543   -2.5977208   -2.5977208   -1.2240308   0.08508219   -2.5977208      1.37369   439061 
 2599000   0.91782229   -2.6007985   -2.6007985   -1.2240682   0.08102991   -2.6007985    1.3767303   439061 
 2600000   0.91702839   -2.5987294   -2.5987294   -1.2231899  0.080776711   -2.5987294    1.3755394   439061 
 2601000   0.91678934   -2.6002285   -2.6002285   -1.2250476  0.085279375   -2.6002285    1.3751809   439061 
 2602000   0.91711047   -2.6002333   -2.6002333   -1.2245707  0.084995509   -2.6002333    1.3756626   439061 
 2603000   0.91740872   -2.6013852   -2.6013852   -1.2252753  0.080969136   -2.6013852    1.3761099   439061 
 2604000   0.91646791   -2.6004284   -2.6004284   -1.2257297  0.084405738   -2.6004284    1.3746987   439061 
 2605000   0.91663504   -2.6002377   -2.6002377   -1.2252882  0.083187366   -2.6002377    1.3749494   439061 
 2606000   0.91695466   -2.6006086   -2.6006086   -1.2251798  0.086376992   -2.6006086    1.3754289   439061 
 2607000   0.91513799   -2.5990475   -2.5990475   -1.2263436  0.082244557   -2.5990475    1.3727039   439061 
 2608000   0.91567056   -2.5988029   -2.5988029   -1.2253002  0.078911236   -2.5988029    1.3735027   439061 
 2609000   0.91658442   -2.5999761   -2.5999761   -1.2251026  0.080193786   -2.5999761    1.3748735   439061 
 2610000   0.91580619   -2.5996114   -2.5996114   -1.2259052  0.079106294   -2.5996114    1.3737062   439061 
 2611000   0.91554633   -2.5987749   -2.5987749   -1.2254585  0.088985308   -2.5987749    1.3733164   439061 
 2612000   0.91602518   -2.5992124   -2.5992124   -1.2251778  0.084043808   -2.5992124    1.3740346   439061 
 2613000   0.91561017   -2.5982981   -2.5982981    -1.224886  0.083292093   -2.5982981    1.3734121   439061 
 2614000   0.91667782   -2.6006183   -2.6006183   -1.2256047  0.084079733   -2.6006183    1.3750136   439061 
 2615000    0.9155454    -2.599734    -2.599734    -1.226419  0.083992325    -2.599734     1.373315   439061 
 2616000   0.91574398   -2.6000905   -2.6000905   -1.2264776  0.080882257   -2.6000905    1.3736128   439061 
 2617000   0.91585793   -2.6003344   -2.6003344   -1.2265507  0.085095127   -2.6003344    1.3737838   439061 
 2618000   0.91455469   -2.5983457   -2.5983457   -1.2265168  0.083917296   -2.5983457    1.3718289   439061 
 2619000   0.91642177   -2.6008789   -2.6008789   -1.2262494  0.080737133   -2.6008789    1.3746295   439061 
 2620000   0.91623317   -2.6002745   -2.6002745   -1.2259278   0.08306507   -2.6002745    1.3743466   439061 
 2621000   0.91592945   -2.5998942   -2.5998942   -1.2260032  0.080445409   -2.5998942     1.373891   439061 
 2622000   0.91588511   -2.6000883   -2.6000883   -1.2262638  0.082600727   -2.6000883    1.3738245   439061 
 2623000   0.91738406   -2.6013206   -2.6013206   -1.2252476  0.079423796   -2.6013206     1.376073   439061 
 2624000    0.9164886   -2.6010334   -2.6010334   -1.2263036  0.082623803   -2.6010334    1.3747298   439061 
 2625000   0.91522986   -2.5986453   -2.5986453   -1.2258037  0.083548959   -2.5986453    1.3728417   439061 
 2626000   0.91608997   -2.6009586   -2.6009586   -1.2268268  0.082312007   -2.6009586    1.3741318   439061 
 2627000   0.91677226   -2.6012005   -2.6012005   -1.2260453  0.086593852   -2.6012005    1.3751553   439061 
 2628000   0.91667489   -2.6012351   -2.6012351   -1.2262259  0.087320339   -2.6012351    1.3750092   439061 
 2629000   0.91528527   -2.6003993   -2.6003993   -1.2274746  0.084404437   -2.6003993    1.3729248   439061 
 2630000   0.91546866   -2.6006581   -2.6006581   -1.2274583  0.079534875   -2.6006581    1.3731999   439061 
 2631000   0.91535467   -2.5996822   -2.5996822   -1.2266533  0.079779288   -2.5996822    1.3730289   439061 
 2632000   0.91540203   -2.6011488   -2.6011488   -1.2280489  0.084601901   -2.6011488    1.3730999   439061 
 2633000   0.91702395   -2.6036789   -2.6036789   -1.2281461   0.08060105   -2.6036789    1.3755328   439061 
 2634000   0.91604065   -2.6028223   -2.6028223   -1.2287644  0.087649175   -2.6028223    1.3740578   439061 
 2635000    0.9147822   -2.6000354   -2.6000354   -1.2278652  0.088085484   -2.6000354    1.3721702   439061 
 2636000   0.91655424   -2.6021568   -2.6021568   -1.2273286  0.079853593   -2.6021568    1.3748282   439061 
 2637000   0.91571722   -2.6007218   -2.6007218   -1.2271491   0.08223219   -2.6007218    1.3735727   439061 
 2638000   0.91551446   -2.6001972   -2.6001972   -1.2269286  0.083890977   -2.6001972    1.3732686   439061 
 2639000   0.91525322   -2.5999197   -2.5999197    -1.227043  0.082687513   -2.5999197    1.3728767   439061 
 2640000   0.91424889   -2.5991887   -2.5991887   -1.2278185  0.084579582   -2.5991887    1.3713702   439061 
 2641000   0.91687646    -2.601859    -2.601859   -1.2265474  0.084992743    -2.601859    1.3753116   439061 
 2642000   0.91797416   -2.6023497   -2.6023497   -1.2253916  0.083986327   -2.6023497    1.3769581   439061 
 2643000   0.91648348   -2.6000811   -2.6000811    -1.225359  0.080543687   -2.6000811    1.3747221   439061 
 2644000   0.91561742   -2.6000246   -2.6000246   -1.2266016  0.081299301   -2.6000246     1.373423   439061 
 2645000   0.91617071   -2.6004709   -2.6004709   -1.2262179   0.08305296   -2.6004709    1.3742529   439061 
 2646000   0.91627655   -2.6009005   -2.6009005   -1.2264888  0.081986381   -2.6009005    1.3744117   439061 
 2647000   0.91562517   -2.6002807   -2.6002807   -1.2268461  0.081273077   -2.6002807    1.3734346   439061 
 2648000   0.91640747   -2.6014008   -2.6014008   -1.2267927  0.082421431   -2.6014008    1.3746081   439061 
 2649000   0.91403522   -2.5979999   -2.5979999   -1.2269502  0.075457165   -2.5979999    1.3710497   439061 
 2650000   0.91514328   -2.6004852   -2.6004852   -1.2277734   0.07915515   -2.6004852    1.3727118   439061 
 2651000   0.91482517   -2.5999462   -2.5999462   -1.2277116  0.079112036   -2.5999462    1.3722346   439061 
 2652000   0.91495717   -2.5990572   -2.5990572   -1.2266246  0.084900101   -2.5990572    1.3724326   439061 
 2653000   0.91651494   -2.6023499   -2.6023499   -1.2275806  0.078120841   -2.6023499    1.3747693   439061 
 2654000   0.91596841   -2.6006139   -2.6006139   -1.2266644  0.082988861   -2.6006139    1.3739495   439061 
 2655000   0.91628713   -2.6001476   -2.6001476     -1.22572   0.08281815   -2.6001476    1.3744276   439061 
 2656000   0.91670054   -2.5999664   -2.5999664   -1.2249187  0.081975448   -2.5999664    1.3750477   439061 
 2657000   0.91488933   -2.5962341   -2.5962341   -1.2239032  0.082726277   -2.5962341    1.3723309   439061 
 2658000   0.91603268   -2.5987285   -2.5987285   -1.2246826  0.084805999   -2.5987285    1.3740459   439061 
 2659000   0.91692328   -2.6014676   -2.6014676   -1.2260859  0.083008255   -2.6014676    1.3753818   439061 
 2660000   0.91617272   -2.5997547   -2.5997547   -1.2254988  0.080876914   -2.5997547    1.3742559   439061 
 2661000   0.91762708   -2.6014214   -2.6014214   -1.2249839  0.081116845   -2.6014214    1.3764375   439061 
 2662000   0.91651706   -2.5995535   -2.5995535    -1.224781  0.082282909   -2.5995535    1.3747725   439061 
 2663000   0.91662076   -2.6003324   -2.6003324   -1.2254043  0.082956906   -2.6003324     1.374928   439061 
 2664000   0.91577731      -2.5995      -2.5995   -1.2258371  0.080577961      -2.5995    1.3736628   439061 
 2665000   0.91574638   -2.5989134   -2.5989134   -1.2252969  0.081051637   -2.5989134    1.3736164   439061 
 2666000    0.9160049   -2.5987795   -2.5987795   -1.2247753  0.087238132   -2.5987795    1.3740042   439061 
 2667000   0.91599016   -2.5984335   -2.5984335   -1.2244514  0.084724181   -2.5984335    1.3739821   439061 
 2668000   0.91703995   -2.5996987   -2.5996987   -1.2241419  0.081694941   -2.5996987    1.3755568   439061 
 2669000   0.91551022   -2.5989296   -2.5989296   -1.2256674  0.084024856   -2.5989296    1.3732622   439061 
 2670000   0.91561089   -2.5983554   -2.5983554   -1.2249422  0.078935228   -2.5983554    1.3734132   439061 
 2671000   0.91512125   -2.5986452   -2.5986452   -1.2259664  0.086957047   -2.5986452    1.3726787   439061 
 2672000    0.9158389   -2.6009957   -2.6009957   -1.2272405  0.076583261   -2.6009957    1.3737552   439061 
 2673000   0.91467022   -2.5992652   -2.5992652    -1.227263  0.079212424   -2.5992652    1.3720022   439061 
 2674000   0.91439006   -2.5988895   -2.5988895   -1.2273075  0.081914151   -2.5988895     1.371582   439061 
 2675000    0.9135129   -2.5974761   -2.5974761   -1.2272099  0.078510811   -2.5974761    1.3702662   439061 
 2676000   0.91378641   -2.5964261   -2.5964261   -1.2257496  0.084276532   -2.5964261    1.3706765   439061 
 2677000   0.91486595   -2.5982465   -2.5982465   -1.2259507  0.082489741   -2.5982465    1.3722958   439061 
 2678000   0.91394778   -2.5995288   -2.5995288   -1.2286102  0.080694878   -2.5995288    1.3709185   439061 
 2679000   0.91381439   -2.5997959   -2.5997959   -1.2290774  0.081775454   -2.5997959    1.3707185   439061 
 2680000   0.91512109   -2.6019395   -2.6019395    -1.229261    0.0754685   -2.6019395    1.3726785   439061 
 2681000   0.91279154   -2.5978738   -2.5978738   -1.2286896  0.081010413   -2.5978738    1.3691842   439061 
 2682000   0.91350349   -2.6006997   -2.6006997   -1.2304476  0.077750805   -2.6006997    1.3702521   439061 
 2683000   0.91343999   -2.5993721   -2.5993721   -1.2292152  0.079229282   -2.5993721    1.3701569   439061 
 2684000   0.91279194   -2.5993688   -2.5993688    -1.230184  0.079568256   -2.5993688    1.3691848   439061 
 2685000    0.9137953   -2.6005791   -2.6005791   -1.2298893    0.0794418   -2.6005791    1.3706898   439061 
 2686000   0.91363648   -2.6007458   -2.6007458   -1.2302942  0.078440573   -2.6007458    1.3704516   439061 
 2687000   0.91240847   -2.5989204   -2.5989204   -1.2303108  0.079899193   -2.5989204    1.3686096   439061 
 2688000   0.91263966   -2.5987017   -2.5987017   -1.2297453  0.081092611   -2.5987017    1.3689564   439061 
 2689000   0.91477939   -2.6016345   -2.6016345   -1.2294685  0.078283459   -2.6016345     1.372166   439061 
 2690000   0.91446313   -2.6010231   -2.6010231   -1.2293315  0.078539063   -2.6010231    1.3716916   439061 
 2691000   0.91431864   -2.6005273   -2.6005273   -1.2290525  0.080358368   -2.6005273    1.3714748   439061 
 2692000   0.91369068   -2.5998981   -2.5998981   -1.2293652  0.083907723   -2.5998981    1.3705329   439061 
 2693000   0.91552726   -2.6007642   -2.6007642   -1.2274764  0.078957311   -2.6007642    1.3732878   439061 
 2694000   0.91636067   -2.6016857   -2.6016857   -1.2271478  0.081248089   -2.6016857    1.3745379   439061 
 2695000   0.91660613   -2.6007849   -2.6007849   -1.2258789  0.085938672   -2.6007849    1.3749061   439061 
 2696000   0.91532682   -2.5999237   -2.5999237   -1.2269366  0.082911889   -2.5999237    1.3729871   439061 
 2697000   0.91693341   -2.6018222   -2.6018222   -1.2264252  0.084176271   -2.6018222     1.375397   439061 
 2698000   0.91698174    -2.602844    -2.602844   -1.2273745  0.081836238    -2.602844    1.3754695   439061 
 2699000   0.91697496   -2.6031814   -2.6031814    -1.227722  0.080857566   -2.6031814    1.3754593   439061 
 2700000   0.91778462   -2.6045916   -2.6045916   -1.2279178  0.082769547   -2.6045916    1.3766738   439061 
 2701000   0.91619667    -2.601662    -2.601662   -1.2273701  0.087020816    -2.601662    1.3742919   439061 
 2702000   0.91627189   -2.6026443   -2.6026443   -1.2282396  0.080960834   -2.6026443    1.3744047   439061 
 2703000   0.91555953   -2.6017844   -2.6017844   -1.2284482  0.084509782   -2.6017844    1.3733362   439061 
 2704000   0.91554305   -2.6020751   -2.6020751   -1.2287637  0.079341079   -2.6020751    1.3733114   439061 
 2705000   0.91405281   -2.6022829   -2.6022829   -1.2312068  0.082911501   -2.6022829    1.3710761   439061 
 2706000   0.91477821   -2.6032355   -2.6032355   -1.2310713  0.083682799   -2.6032355    1.3721642   439061 
 2707000   0.91628306   -2.6050905   -2.6050905   -1.2306691  0.084658736   -2.6050905    1.3744215   439061 
 2708000   0.91427438   -2.6030212   -2.6030212   -1.2316128  0.075969309   -2.6030212    1.3714084   439061 
 2709000   0.91365071   -2.6020668   -2.6020668   -1.2315938  0.085041823   -2.6020668    1.3704729   439061 
 2710000   0.91353055   -2.6026458   -2.6026458   -1.2323531  0.085333962   -2.6026458    1.3702927   439061 
 2711000   0.91282661   -2.6010312   -2.6010312   -1.2317944  0.085017856   -2.6010312    1.3692368   439061 
 2712000   0.91415528   -2.6025094   -2.6025094   -1.2312796  0.079000284   -2.6025094    1.3712298   439061 
 2713000   0.91621795   -2.6043484   -2.6043484   -1.2300246  0.076417751   -2.6043484    1.3743238   439061 
 2714000   0.91411762   -2.6025102   -2.6025102   -1.2313369  0.081173637   -2.6025102    1.3711733   439061 
 2715000   0.91419209    -2.602563    -2.602563    -1.231278  0.077263117    -2.602563     1.371285   439061 
 2716000   0.91400601   -2.6033495   -2.6033495   -1.2323436  0.082858808   -2.6033495    1.3710059   439061 
 2717000   0.91474772    -2.604379    -2.604379   -1.2322605  0.079799299    -2.604379    1.3721185   439061 
 2718000   0.91450026   -2.6033293   -2.6033293    -1.231582  0.080194292   -2.6033293    1.3717473   439061 
 2719000   0.91549081   -2.6041458   -2.6041458   -1.2309127  0.081023488   -2.6041458    1.3732331   439061 
 2720000   0.91379672    -2.602439    -2.602439    -1.231747  0.080734572    -2.602439     1.370692   439061 
 2721000   0.91588006   -2.6057697   -2.6057697   -1.2319527  0.077187891   -2.6057697     1.373817   439061 
 2722000   0.91513309   -2.6056305   -2.6056305    -1.232934  0.078615421   -2.6056305    1.3726965   439061 
 2723000   0.91570086   -2.6052385   -2.6052385   -1.2316903  0.078783932   -2.6052385    1.3735482   439061 
 2724000   0.91352954   -2.6024167   -2.6024167   -1.2321255  0.077220353   -2.6024167    1.3702912   439061 
 2725000   0.91419427   -2.6018598   -2.6018598   -1.2305716  0.087425196   -2.6018598    1.3712883   439061 
 2726000   0.91548463   -2.6038484   -2.6038484   -1.2306246  0.083986536   -2.6038484    1.3732238   439061 
 2727000    0.9164883   -2.6044189   -2.6044189   -1.2296896  0.081381605   -2.6044189    1.3747293   439061 
 2728000   0.91577878   -2.6043099   -2.6043099   -1.2306448  0.076883539   -2.6043099     1.373665   439061 
 2729000   0.91414756   -2.6024548   -2.6024548   -1.2312366  0.079679711   -2.6024548    1.3712182   439061 
 2730000    0.9141431   -2.6020497   -2.6020497   -1.2308382  0.078355713   -2.6020497    1.3712115   439061 
 2731000   0.91541641   -2.6026535   -2.6026535   -1.2295321  0.078351796   -2.6026535    1.3731215   439061 
 2732000   0.91645383   -2.6032511   -2.6032511   -1.2285734  0.084798795   -2.6032511    1.3746776   439061 
 2733000   0.91524678   -2.6020304   -2.6020304   -1.2291633  0.086738897   -2.6020304    1.3728671   439061 
 2734000   0.91459812   -2.6009162   -2.6009162   -1.2290221  0.080599379   -2.6009162    1.3718941   439061 
 2735000   0.91509802   -2.6015568   -2.6015568   -1.2289128  0.080075275   -2.6015568    1.3726439   439061 
 2736000   0.91635113   -2.6046252   -2.6046252   -1.2301016  0.086797662   -2.6046252    1.3745236   439061 
 2737000   0.91487774   -2.6033836   -2.6033836   -1.2310701  0.077715185   -2.6033836    1.3723135   439061 
 2738000   0.91568356   -2.6054223   -2.6054223   -1.2319001  0.080264758   -2.6054223    1.3735222   439061 
 2739000    0.9149139   -2.6043544   -2.6043544   -1.2319867  0.080708998   -2.6043544    1.3723677   439061 
 2740000   0.91315828   -2.6008683   -2.6008683    -1.231134  0.080530792   -2.6008683    1.3697343   439061 
 2741000   0.91553806   -2.6039877   -2.6039877   -1.2306837  0.075960579   -2.6039877     1.373304   439061 
 2742000     0.914389   -2.6026204   -2.6026204     -1.23104  0.082610567   -2.6026204    1.3715804   439061 
 2743000   0.91505111   -2.6027027   -2.6027027   -1.2301292  0.080106559   -2.6027027    1.3725735   439061 
 2744000   0.91300165   -2.6011642   -2.6011642   -1.2316649  0.083204995   -2.6011642    1.3694994   439061 
 2745000   0.91312597   -2.6009825   -2.6009825   -1.2312967  0.082306247   -2.6009825    1.3696858   439061 
 2746000   0.91540175   -2.6034862   -2.6034862   -1.2303867   0.07893762   -2.6034862    1.3730995   439061 
 2747000   0.91590187   -2.6045807   -2.6045807    -1.230731  0.084917501   -2.6045807    1.3738497   439061 
 2748000   0.91394412   -2.6018693   -2.6018693   -1.2309562   0.08515838   -2.6018693    1.3709131   439061 
 2749000   0.91515557   -2.6031608   -2.6031608   -1.2304306  0.081680775   -2.6031608    1.3727302   439061 
 2750000   0.91501105   -2.6030034   -2.6030034   -1.2304899  0.076196486   -2.6030034    1.3725135   439061 
 2751000   0.91452957   -2.6020046   -2.6020046   -1.2302133   0.08176538   -2.6020046    1.3717912   439061 
 2752000   0.91544409   -2.6022871   -2.6022871   -1.2291241  0.075481194   -2.6022871     1.373163   439061 
 2753000    0.9154979   -2.6032133   -2.6032133   -1.2299696  0.083243628   -2.6032133    1.3732437   439061 
 2754000   0.91629978   -2.6030171   -2.6030171   -1.2285706  0.078697543   -2.6030171    1.3744465   439061 
 2755000   0.91631558   -2.6042775   -2.6042775   -1.2298072  0.082304374   -2.6042775    1.3744702   439061 
 2756000   0.91537435   -2.6017551   -2.6017551   -1.2286967  0.078339043   -2.6017551    1.3730584   439061 
 2757000   0.91455002   -2.6013519   -2.6013519     -1.22953  0.088186521   -2.6013519    1.3718219   439061 
 2758000   0.91620353   -2.6038057   -2.6038057   -1.2295035   0.08235052   -2.6038057    1.3743022   439061 
 2759000   0.91525677   -2.6033335   -2.6033335   -1.2304514  0.081523872   -2.6033335     1.372882   439061 
 2760000   0.91390429   -2.6007451   -2.6007451   -1.2298918  0.084169305   -2.6007451    1.3708533   439061 
 2761000   0.91592486   -2.6038618   -2.6038618   -1.2299776  0.081926721   -2.6038618    1.3738842   439061 
 2762000   0.91582237   -2.6026647   -2.6026647   -1.2289343    0.0831829   -2.6026647    1.3737304   439061 
 2763000   0.91610226   -2.6049483   -2.6049483   -1.2307981  0.073648402   -2.6049483    1.3741503   439061 
 2764000   0.91498192   -2.6036931   -2.6036931   -1.2312234  0.079563036   -2.6036931    1.3724698   439061 
 2765000   0.91615385   -2.6038222   -2.6038222   -1.2295946  0.081906453   -2.6038222    1.3742276   439061 
 2766000   0.91728889   -2.6056998   -2.6056998   -1.2297696  0.081036995   -2.6056998    1.3759302   439061 
 2767000   0.91484962   -2.6020136   -2.6020136   -1.2297423   0.08466178   -2.6020136    1.3722713   439061 
 2768000    0.9152711   -2.6022316   -2.6022316   -1.2293281  0.080740573   -2.6022316    1.3729035   439061 
 2769000   0.91593597   -2.6024675   -2.6024675   -1.2285666  0.085085515   -2.6024675    1.3739008   439061 
 2770000   0.91482984   -2.6013736   -2.6013736    -1.229132  0.080572661   -2.6013736    1.3722416   439061 
 2771000   0.91497985   -2.6026354   -2.6026354   -1.2301687  0.082102661   -2.6026354    1.3724667   439061 
 2772000   0.91565098   -2.6029317   -2.6029317   -1.2294584  0.078254526   -2.6029317    1.3734733   439061 
 2773000   0.91518019   -2.6025632   -2.6025632    -1.229796  0.083282719   -2.6025632    1.3727672   439061 
 2774000   0.91519042   -2.6020683   -2.6020683   -1.2292858  0.082127735   -2.6020683    1.3727825   439061 
 2775000    0.9146621   -2.6019495   -2.6019495   -1.2299595  0.080137017   -2.6019495      1.37199   439061 
 2776000    0.9155599   -2.6031182   -2.6031182   -1.2297815  0.085910577   -2.6031182    1.3733367   439061 
 2777000   0.91404938   -2.6010377   -2.6010377   -1.2299668  0.083921564   -2.6010377     1.371071   439061 
 2778000   0.91493866   -2.6027934   -2.6027934   -1.2303886  0.080080192   -2.6027934    1.3724049   439061 
 2779000   0.91635373   -2.6054652   -2.6054652   -1.2309378  0.077675692   -2.6054652    1.3745275   439061 
 2780000   0.91494573   -2.6027511   -2.6027511   -1.2303357  0.083424321   -2.6027511    1.3724155   439061 
 2781000    0.9162461   -2.6045653   -2.6045653   -1.2301993  0.079635632   -2.6045653     1.374366   439061 
 2782000    0.9160029   -2.6033462   -2.6033462    -1.229345  0.086748213   -2.6033462    1.3740012   439061 
 2783000   0.91623257   -2.6039112   -2.6039112   -1.2295655  0.082183302   -2.6039112    1.3743457   439061 
 2784000   0.91559306   -2.6020381   -2.6020381   -1.2286517   0.08674417   -2.6020381    1.3733865   439061 
 2785000   0.91440452   -2.5997875   -2.5997875   -1.2281839  0.081304447   -2.5997875    1.3716037   439061 
 2786000   0.91522778   -2.6028405   -2.6028405    -1.230002  0.082407164   -2.6028405    1.3728385   439061 
 2787000   0.91527676   -2.6024513   -2.6024513   -1.2295393  0.078637098   -2.6024513     1.372912   439061 
 2788000   0.91626525   -2.6024529   -2.6024529   -1.2280581  0.083789309   -2.6024529    1.3743947   439061 
 2789000   0.91612873     -2.60278     -2.60278     -1.22859  0.079700189     -2.60278      1.37419   439061 
 2790000   0.91637322   -2.6031752   -2.6031752   -1.2286185  0.078917739   -2.6031752    1.3745567   439061 
 2791000   0.91471229   -2.6007279   -2.6007279   -1.2286626  0.088823967   -2.6007279    1.3720653   439061 
 2792000   0.91621377    -2.603134    -2.603134   -1.2288165  0.083538746    -2.603134    1.3743175   439061 
 2793000   0.91610254   -2.6043996   -2.6043996   -1.2302489  0.080135542   -2.6043996    1.3741507   439061 
 2794000   0.91676416    -2.604924    -2.604924   -1.2297809  0.080276077    -2.604924    1.3751431   439061 
 2795000   0.91691952   -2.6051091   -2.6051091   -1.2297329  0.079221372   -2.6051091    1.3753762   439061 
 2796000    0.9167165   -2.6046368   -2.6046368   -1.2295652  0.080289552   -2.6046368    1.3750716   439061 
 2797000    0.9166368   -2.6047893   -2.6047893   -1.2298373  0.079001713   -2.6047893    1.3749521   439061 
 2798000    0.9163179   -2.6056342   -2.6056342   -1.2311605  0.078822421   -2.6056342    1.3744737   439061 
 2799000   0.91599531   -2.6053673   -2.6053673   -1.2313775  0.081791435   -2.6053673    1.3739898   439061 
 2800000   0.91468898   -2.6039177   -2.6039177   -1.2318873  0.082404796   -2.6039177    1.3720303   439061 
 2801000   0.91561266   -2.6055267   -2.6055267   -1.2321108  0.077908346   -2.6055267    1.3734159   439061 
 2802000    0.9148345   -2.6033834   -2.6033834   -1.2311348   0.08094604   -2.6033834    1.3722486   439061 
 2803000   0.91724387   -2.6069991   -2.6069991   -1.2311364  0.086282934   -2.6069991    1.3758627   439061 
 2804000   0.91585842   -2.6055582   -2.6055582   -1.2317737  0.084485206   -2.6055582    1.3737845   439061 
 2805000   0.91513215   -2.6042348   -2.6042348   -1.2315397   0.08833468   -2.6042348    1.3726951   439061 
 2806000    0.9159455   -2.6055117   -2.6055117   -1.2315966  0.085893309   -2.6055117    1.3739151   439061 
 2807000   0.91609703   -2.6054514   -2.6054514    -1.231309  0.082636461   -2.6054514    1.3741424   439061 
 2808000    0.9152302   -2.6058015   -2.6058015   -1.2329593  0.078852067   -2.6058015    1.3728422   439061 
 2809000   0.91487422   -2.6040481   -2.6040481   -1.2317399  0.083292889   -2.6040481    1.3723082   439061 
 2810000   0.91596776   -2.6052902   -2.6052902   -1.2313417  0.084567519   -2.6052902    1.3739485   439061 
 2811000     0.915754   -2.6057062   -2.6057062   -1.2320783  0.081261253   -2.6057062    1.3736279   439061 
 2812000   0.91532691   -2.6057239   -2.6057239   -1.2327366  0.078861732   -2.6057239    1.3729872   439061 
 2813000   0.91615505    -2.606281    -2.606281   -1.2320516  0.081317987    -2.606281    1.3742294   439061 
 2814000    0.9152038   -2.6057898   -2.6057898   -1.2329872  0.083004676   -2.6057898    1.3728026   439061 
 2815000   0.91518088   -2.6060815   -2.6060815   -1.2333133  0.080834671   -2.6060815    1.3727682   439061 
 2816000   0.91417054   -2.6042723   -2.6042723   -1.2330196  0.078215574   -2.6042723    1.3712527   439061 
 2817000   0.91463972   -2.6072353   -2.6072353   -1.2352789  0.080079001   -2.6072353    1.3719565   439061 
 2818000   0.91327346   -2.6038006   -2.6038006   -1.2338936  0.076340434   -2.6038006    1.3699071   439061 
 2819000   0.91442349   -2.6049782   -2.6049782   -1.2333461   0.08147892   -2.6049782    1.3716321   439061 
 2820000   0.91389753    -2.604755    -2.604755   -1.2339118   0.08002019    -2.604755    1.3708432   439061 
 2821000   0.91425857   -2.6055707   -2.6055707   -1.2341859  0.079900734   -2.6055707    1.3713847   439061 
 2822000   0.91453863   -2.6051313   -2.6051313   -1.2333264  0.080710519   -2.6051313    1.3718048   439061 
 2823000   0.91565824   -2.6064262   -2.6064262    -1.232942   0.07957309   -2.6064262    1.3734842   439061 
 2824000   0.91560117   -2.6052896   -2.6052896    -1.231891  0.081077554   -2.6052896    1.3733986   439061 
 2825000   0.91416777   -2.6052931   -2.6052931   -1.2340445   0.08370122   -2.6052931    1.3712485   439061 
 2826000   0.91356711   -2.6048369   -2.6048369   -1.2344894  0.080485322   -2.6048369    1.3703475   439061 
 2827000   0.91568064   -2.6063746   -2.6063746   -1.2328568  0.083378016   -2.6063746    1.3735178   439061 
 2828000   0.91508347   -2.6064866   -2.6064866   -1.2338645  0.079476786   -2.6064866    1.3726221   439061 
 2829000   0.91549989   -2.6074373   -2.6074373   -1.2341906  0.079182305   -2.6074373    1.3732467   439061 
 2830000   0.91414482   -2.6063386   -2.6063386   -1.2351245  0.084492351   -2.6063386    1.3712141   439061 
 2831000   0.91449746   -2.6075871   -2.6075871    -1.235844  0.077353251   -2.6075871    1.3717431   439061 
 2832000   0.91495736   -2.6080708   -2.6080708   -1.2356379  0.081915923   -2.6080708    1.3724329   439061 
 2833000   0.91495756   -2.6081105   -2.6081105   -1.2356773   0.07932002   -2.6081105    1.3724332   439061 
 2834000   0.91568145   -2.6092222   -2.6092222   -1.2357031  0.078815919   -2.6092222    1.3735191   439061 
 2835000   0.91382863   -2.6065688   -2.6065688    -1.235829  0.078851255   -2.6065688    1.3707398   439061 
 2836000    0.9131318   -2.6057896   -2.6057896   -1.2360951  0.078017157   -2.6057896    1.3696946   439061 
 2837000   0.91322224   -2.6058428   -2.6058428   -1.2360125  0.078691291   -2.6058428    1.3698302   439061 
 2838000   0.91380835   -2.6075153   -2.6075153   -1.2368059   0.08279277   -2.6075153    1.3707094   439061 
 2839000   0.91504424   -2.6084856   -2.6084856   -1.2359224  0.081465201   -2.6084856    1.3725632   439061 
 2840000   0.91370347   -2.6056059   -2.6056059   -1.2350538   0.07872969   -2.6056059    1.3705521   439061 
 2841000   0.91443899   -2.6071274   -2.6071274    -1.235472  0.083936468   -2.6071274    1.3716554   439061 
 2842000   0.91509581   -2.6084239   -2.6084239   -1.2357833  0.078051969   -2.6084239    1.3726406   439061 
 2843000   0.91538623   -2.6084195   -2.6084195   -1.2353433  0.079963357   -2.6084195    1.3730762   439061 
 2844000   0.91559587   -2.6092725   -2.6092725   -1.2358818  0.085158215   -2.6092725    1.3733907   439061 
 2845000   0.91563566   -2.6099147   -2.6099147   -1.2364644  0.079486904   -2.6099147    1.3734504   439061 
 2846000   0.91446141   -2.6080402   -2.6080402   -1.2363512  0.082593887   -2.6080402     1.371689   439061 
 2847000   0.91483122   -2.6077935   -2.6077935   -1.2355498  0.081197648   -2.6077935    1.3722437   439061 
 2848000   0.91464164   -2.6081855   -2.6081855   -1.2362261  0.081920808   -2.6081855    1.3719593   439061 
 2849000   0.91353095   -2.6065377   -2.6065377   -1.2362444  0.082333466   -2.6065377    1.3702933   439061 
 2850000   0.91516412   -2.6093451   -2.6093451    -1.236602  0.085862055   -2.6093451     1.372743   439061 
 2851000   0.91464256   -2.6076377   -2.6076377    -1.235677  0.088034286   -2.6076377    1.3719607   439061 
 2852000   0.91452881   -2.6082843   -2.6082843   -1.2364942  0.081888022   -2.6082843    1.3717901   439061 
 2853000   0.91488964   -2.6081508   -2.6081508   -1.2358194  0.077962003   -2.6081508    1.3723313   439061 
 2854000   0.91440236   -2.6061296   -2.6061296   -1.2345291  0.085099808   -2.6061296    1.3716004   439061 
 2855000   0.91436998   -2.6077741   -2.6077741   -1.2362222  0.080046091   -2.6077741    1.3715518   439061 
 2856000   0.91620252   -2.6102634   -2.6102634   -1.2359628  0.081036069   -2.6102634    1.3743006   439061 
 2857000   0.91594936   -2.6086909   -2.6086909     -1.23477   0.08307833   -2.6086909    1.3739209   439061 
 2858000   0.91503529   -2.6064936   -2.6064936   -1.2339438  0.084052761   -2.6064936    1.3725498   439061 
 2859000   0.91558137   -2.6087507   -2.6087507   -1.2353817  0.084692843   -2.6087507    1.3733689   439061 
 2860000   0.91488992   -2.6079986   -2.6079986   -1.2356668  0.079593173   -2.6079986    1.3723318   439061 
 2861000   0.91426603   -2.6061902   -2.6061902   -1.2347943  0.082070416   -2.6061902    1.3713959   439061 
 2862000   0.91459265   -2.6080522   -2.6080522   -1.2361663  0.082010511   -2.6080522    1.3718859   439061 
 2863000    0.9135573   -2.6074257   -2.6074257   -1.2370929  0.075606502   -2.6074257    1.3703328   439061 
 2864000   0.91448421   -2.6077559   -2.6077559   -1.2360327  0.082212937   -2.6077559    1.3717232   439061 
 2865000   0.91470562   -2.6068215   -2.6068215   -1.2347662  0.083059759   -2.6068215    1.3720553   439061 
 2866000    0.9147162   -2.6066534   -2.6066534   -1.2345822  0.083137389   -2.6066534    1.3720712   439061 
 2867000   0.91531584   -2.6077345   -2.6077345   -1.2347639  0.081464287   -2.6077345    1.3729706   439061 
 2868000   0.91470468   -2.6073915   -2.6073915   -1.2353376   0.07933336   -2.6073915    1.3720539   439061 
 2869000   0.91483343   -2.6083041   -2.6083041   -1.2360571  0.077267764   -2.6083041     1.372247   439061 
 2870000   0.91257905   -2.6065716   -2.6065716   -1.2377061  0.081029833   -2.6065716    1.3688655   439061 
 2871000   0.91459614   -2.6076529   -2.6076529   -1.2357618  0.080436792   -2.6076529    1.3718911   439061 
 2872000   0.91611917   -2.6096024   -2.6096024   -1.2354268  0.084618071   -2.6096024    1.3741756   439061 
 2873000   0.91401743   -2.6066426   -2.6066426   -1.2356196  0.083582337   -2.6066426     1.371023   439061 
 2874000    0.9152477   -2.6072231   -2.6072231   -1.2343547  0.075931308   -2.6072231    1.3728684   439061 
 2875000   0.91635719    -2.609951    -2.609951   -1.2354183  0.077465408    -2.609951    1.3745327   439061 
 2876000   0.91387159   -2.6059788   -2.6059788   -1.2351745  0.081374644   -2.6059788    1.3708043   439061 
 2877000   0.91348032   -2.6059167   -2.6059167   -1.2356993  0.080311509   -2.6059167    1.3702174   439061 
 2878000   0.91316384   -2.6043619   -2.6043619   -1.2346192  0.081327355   -2.6043619    1.3697426   439061 
 2879000   0.91466749   -2.6074538   -2.6074538   -1.2354557  0.078997926   -2.6074538    1.3719981   439061 
 2880000    0.9130329   -2.6061128   -2.6061128   -1.2365666  0.081484615   -2.6061128    1.3695462   439061 
 2881000   0.91383515   -2.6063217   -2.6063217   -1.2355721   0.08180206   -2.6063217    1.3707496   439061 
 2882000   0.91417504    -2.606249    -2.606249   -1.2349895  0.079891633    -2.606249    1.3712594   439061 
 2883000   0.91315354   -2.6059215   -2.6059215   -1.2361943  0.081041048   -2.6059215    1.3697272   439061 
 2884000   0.91498691   -2.6080438   -2.6080438   -1.2355665  0.078219925   -2.6080438    1.3724772   439061 
 2885000   0.91422275   -2.6077562   -2.6077562   -1.2364252  0.080732623   -2.6077562     1.371331   439061 
 2886000   0.91306169    -2.606108    -2.606108   -1.2365186  0.081417778    -2.606108    1.3695894   439061 
 2887000   0.91396083   -2.6057203   -2.6057203   -1.2347822  0.080158503   -2.6057203    1.3709381   439061 
 2888000   0.91595359   -2.6092012   -2.6092012   -1.2352739  0.079057875   -2.6092012    1.3739273   439061 
 2889000   0.91306519   -2.6064727   -2.6064727   -1.2368781  0.080681081   -2.6064727    1.3695947   439061 
 2890000   0.91436784   -2.6089283   -2.6089283   -1.2373796  0.081326558   -2.6089283    1.3715486   439061 
 2891000   0.91447623   -2.6096387   -2.6096387   -1.2379275  0.078268517   -2.6096387    1.3717112   439061 
 2892000    0.9143699   -2.6085505   -2.6085505   -1.2369987  0.080448275   -2.6085505    1.3715517   439061 
 2893000   0.91276738   -2.6061985   -2.6061985   -1.2370506   0.07783037   -2.6061985    1.3691479   439061 
 2894000   0.91509606   -2.6097047   -2.6097047   -1.2370638  0.082289407   -2.6097047     1.372641   439061 
 2895000    0.9144822   -2.6101123   -2.6101123   -1.2383922  0.079332474   -2.6101123    1.3717202   439061 
 2896000   0.91296583   -2.6079961   -2.6079961   -1.2385504  0.078252609   -2.6079961    1.3694456   439061 
 2897000   0.91301842   -2.6077905   -2.6077905    -1.238266  0.080888193   -2.6077905    1.3695245   439061 
 2898000   0.91381854   -2.6095095   -2.6095095   -1.2387848  0.083905968   -2.6095095    1.3707247   439061 
 2899000   0.91362035   -2.6080455   -2.6080455   -1.2376181  0.078977841   -2.6080455    1.3704274   439061 
 2900000   0.91392661   -2.6095571   -2.6095571   -1.2386703  0.076724626   -2.6095571    1.3708868   439061 
 2901000   0.91237545   -2.6076408   -2.6076408   -1.2390808  0.082278009   -2.6076408    1.3685601   439061 
 2902000    0.9143189   -2.6108677   -2.6108677   -1.2393924  0.078255837   -2.6108677    1.3714752   439061 
 2903000    0.9145902   -2.6114877   -2.6114877   -1.2396055  0.084757525   -2.6114877    1.3718822   439061 
 2904000   0.91410122   -2.6102389   -2.6102389   -1.2390902  0.086697156   -2.6102389    1.3711487   439061 
 2905000   0.91489981   -2.6116776   -2.6116776    -1.239331  0.081310887   -2.6116776    1.3723466   439061 
 2906000   0.91382381   -2.6106248   -2.6106248   -1.2398922  0.083097313   -2.6106248    1.3707326   439061 
 2907000   0.91568329   -2.6136921   -2.6136921   -1.2401703  0.082814827   -2.6136921    1.3735218   439061 
 2908000   0.91425562    -2.611067    -2.611067   -1.2396867  0.086094018    -2.611067    1.3713803   439061 
 2909000   0.91508165   -2.6130731   -2.6130731   -1.2404537  0.083518544   -2.6130731    1.3726194   439061 
 2910000   0.91370282    -2.609846    -2.609846   -1.2392949  0.081506642    -2.609846    1.3705511   439061 
 2911000   0.91498356   -2.6127766   -2.6127766   -1.2403044  0.081227768   -2.6127766    1.3724722   439061 
 2912000   0.91516476   -2.6132211   -2.6132211   -1.2404771  0.079731746   -2.6132211     1.372744   439061 
 2913000   0.91500013   -2.6134652   -2.6134652   -1.2409681   0.08175237   -2.6134652    1.3724971   439061 
 2914000    0.9138073   -2.6108877   -2.6108877   -1.2401799  0.078448385   -2.6108877    1.3707078   439061 
 2915000   0.91436577   -2.6114381   -2.6114381   -1.2398926  0.080943992   -2.6114381    1.3715455   439061 
 2916000   0.91514699    -2.611611    -2.611611   -1.2388936  0.076686339    -2.611611    1.3727174   439061 
 2917000    0.9144534    -2.610366    -2.610366    -1.238689  0.083676348    -2.610366     1.371677   439061 
 2918000   0.91480651   -2.6112558   -2.6112558   -1.2390491  0.079921937   -2.6112558    1.3722066   439061 
 2919000   0.91364591   -2.6093899   -2.6093899   -1.2389241  0.080281131   -2.6093899    1.3704657   439061 
 2920000   0.91292449   -2.6089413   -2.6089413   -1.2395577  0.082922957   -2.6089413    1.3693836   439061 
 2921000   0.91487152   -2.6117358   -2.6117358   -1.2394316  0.082924828   -2.6117358    1.3723042   439061 
 2922000   0.91350257   -2.6095877   -2.6095877   -1.2393369  0.082020931   -2.6095877    1.3702507   439061 
 2923000   0.91390068   -2.6103587   -2.6103587   -1.2395108  0.081712671   -2.6103587    1.3708479   439061 
 2924000   0.91422779   -2.6116274   -2.6116274   -1.2402889  0.083674696   -2.6116274    1.3713386   439061 
 2925000   0.91416967   -2.6116988   -2.6116988   -1.2404475  0.079421213   -2.6116988    1.3712514   439061 
 2926000   0.91386804   -2.6122102   -2.6122102   -1.2414112  0.075564469   -2.6122102    1.3707989   439061 
 2927000   0.91372758   -2.6116884   -2.6116884   -1.2411001  0.079579618   -2.6116884    1.3705883   439061 
 2928000   0.91317075   -2.6112913   -2.6112913   -1.2415383   0.08056636   -2.6112913     1.369753   439061 
 2929000   0.91337881    -2.611739    -2.611739   -1.2416739  0.078618881    -2.611739    1.3700651   439061 
 2930000    0.9138595   -2.6102044   -2.6102044   -1.2394183     0.081723   -2.6102044    1.3707861   439061 
 2931000   0.91414474   -2.6105743   -2.6105743   -1.2393603  0.083914999   -2.6105743     1.371214   439061 
 2932000   0.91381433   -2.6101028   -2.6101028   -1.2393844  0.081965319   -2.6101028    1.3707184   439061 
 2933000   0.91411031   -2.6104919   -2.6104919   -1.2393296  0.078802675   -2.6104919    1.3711623   439061 
 2934000   0.91495526    -2.612313    -2.612313   -1.2398832  0.079546776    -2.612313    1.3724298   439061 
 2935000   0.91397657   -2.6097526   -2.6097526   -1.2387908  0.081028521   -2.6097526    1.3709617   439061 
 2936000   0.91630626    -2.612388    -2.612388   -1.2379317  0.080985944    -2.612388    1.3744563   439061 
 2937000   0.91331383   -2.6079956   -2.6079956    -1.238028  0.082373481   -2.6079956    1.3699676   439061 
 2938000   0.91446543   -2.6107602   -2.6107602   -1.2390652  0.076341863   -2.6107602     1.371695   439061 
 2939000   0.91335191   -2.6086026   -2.6086026   -1.2385779  0.077497607   -2.6086026    1.3700247   439061 
 2940000   0.91573769    -2.611517    -2.611517   -1.2379136  0.079072887    -2.611517    1.3736034   439061 
 2941000   0.91436011   -2.6096517   -2.6096517   -1.2381147  0.083587305   -2.6096517     1.371537   439061 
 2942000   0.91521329   -2.6107943   -2.6107943   -1.2379775  0.080219176   -2.6107943    1.3728168   439061 
 2943000   0.91501191   -2.6114882   -2.6114882   -1.2389735  0.078263186   -2.6114882    1.3725147   439061 
 2944000    0.9136342   -2.6106351   -2.6106351   -1.2401869  0.076643428   -2.6106351    1.3704482   439061 
 2945000   0.91514456   -2.6118236   -2.6118236   -1.2391099  0.078821227   -2.6118236    1.3727137   439061 
 2946000   0.91487032   -2.6112453   -2.6112453    -1.238943  0.078376136   -2.6112453    1.3723023   439061 
 2947000   0.91407716   -2.6099259   -2.6099259   -1.2388133   0.08651857   -2.6099259    1.3711126   439061 
 2948000   0.91376044   -2.6100138   -2.6100138   -1.2393763  0.080926382   -2.6100138    1.3706375   439061 
 2949000   0.91619584   -2.6136674   -2.6136674   -1.2393768  0.078801804   -2.6136674    1.3742906   439061 
 2950000   0.91416068    -2.611391    -2.611391   -1.2401531  0.083082162    -2.611391    1.3712379   439061 
 2951000    0.9154716   -2.6145464   -2.6145464   -1.2413421  0.076375492   -2.6145464    1.3732043   439061 
 2952000   0.91333305   -2.6126964   -2.6126964      -1.2427    0.0793652   -2.6126964    1.3699965   439061 
 2953000    0.9136212   -2.6132804   -2.6132804   -1.2428517  0.083201191   -2.6132804    1.3704287   439061 
 2954000   0.91542702    -2.615117    -2.615117   -1.2419796  0.078958127    -2.615117    1.3731374   439061 
 2955000   0.91370983   -2.6133911   -2.6133911   -1.2428295  0.074379853   -2.6133911    1.3705616   439061 
 2956000   0.91376274   -2.6132312   -2.6132312   -1.2425902  0.078754937   -2.6132312     1.370641   439061 
 2957000   0.91250947   -2.6116152   -2.6116152   -1.2428541  0.074344442   -2.6116152    1.3687611   439061 
 2958000   0.91356842   -2.6122772   -2.6122772   -1.2419276  0.079868355   -2.6122772    1.3703495   439061 
 2959000   0.91292579   -2.6120646   -2.6120646   -1.2426791  0.084547843   -2.6120646    1.3693856   439061 
 2960000    0.9132717   -2.6131687   -2.6131687   -1.2432642  0.080695016   -2.6131687    1.3699044   439061 
 2961000   0.91344956   -2.6129631   -2.6129631   -1.2427919  0.078305497   -2.6129631    1.3701712   439061 
 2962000   0.91504906   -2.6152834   -2.6152834   -1.2427129  0.081946536   -2.6152834    1.3725705   439061 
 2963000   0.91453314   -2.6157662   -2.6157662   -1.2439697  0.084611199   -2.6157662    1.3717966   439061 
 2964000   0.91251241   -2.6130107   -2.6130107   -1.2442452  0.078216325   -2.6130107    1.3687655   439061 
 2965000   0.91379639   -2.6149356   -2.6149356   -1.2442441  0.078063788   -2.6149356    1.3706915   439061 
 2966000   0.91363593   -2.6140366   -2.6140366   -1.2435858  0.083665779   -2.6140366    1.3704508   439061 
 2967000   0.91381057   -2.6140798   -2.6140798   -1.2433671  0.076098118   -2.6140798    1.3707127   439061 
 2968000   0.91382735   -2.6137551   -2.6137551   -1.2430172  0.079570649   -2.6137551    1.3707379   439061 
 2969000   0.91500856   -2.6147511   -2.6147511   -1.2422414  0.077037739   -2.6147511    1.3725097   439061 
 2970000    0.9137156   -2.6119857   -2.6119857   -1.2414154  0.081522685   -2.6119857    1.3705703   439061 
 2971000   0.91384133   -2.6127479   -2.6127479    -1.241989  0.080215574   -2.6127479    1.3707589   439061 
 2972000   0.91415939   -2.6137438   -2.6137438   -1.2425078  0.079887291   -2.6137438     1.371236   439061 
 2973000   0.91423804   -2.6145146   -2.6145146   -1.2431606   0.08234024   -2.6145146    1.3713539   439061 
 2974000    0.9146075   -2.6141689   -2.6141689   -1.2422607  0.082608567   -2.6141689    1.3719081   439061 
 2975000   0.91374062   -2.6133215   -2.6133215   -1.2427136  0.081390575   -2.6133215    1.3706078   439061 
 2976000   0.91301047   -2.6131576   -2.6131576    -1.243645    0.0789697   -2.6131576    1.3695126   439061 
 2977000   0.91546713   -2.6155025   -2.6155025    -1.242305  0.081259828   -2.6155025    1.3731976   439061 
 2978000   0.91318118   -2.6122006   -2.6122006   -1.2424319   0.08335803   -2.6122006    1.3697686   439061 
 2979000   0.91487882    -2.613319    -2.613319   -1.2410038  0.083740504    -2.613319    1.3723151   439061 
 2980000   0.91563167   -2.6142202   -2.6142202   -1.2407758  0.077495195   -2.6142202    1.3734444   439061 
 2981000   0.91577769   -2.6127534   -2.6127534     -1.23909  0.083414634   -2.6127534    1.3736634   439061 
 2982000   0.91432251   -2.6115717   -2.6115717    -1.240091  0.083042336   -2.6115717    1.3714806   439061 
 2983000    0.9141876    -2.612294    -2.612294   -1.2410157  0.081694274    -2.612294    1.3712783   439061 
 2984000   0.91381325   -2.6115028   -2.6115028    -1.240786  0.079785832   -2.6115028    1.3707168   439061 
 2985000   0.91357434   -2.6122251   -2.6122251   -1.2418667  0.075573369   -2.6122251    1.3703584   439061 
 2986000   0.91363179   -2.6120711   -2.6120711   -1.2416265  0.079608773   -2.6120711    1.3704446   439061 
 2987000   0.91308694   -2.6112876   -2.6112876   -1.2416603  0.078004576   -2.6112876    1.3696273   439061 
 2988000   0.91467931   -2.6127046   -2.6127046   -1.2406888  0.081244339   -2.6127046    1.3720158   439061 
 2989000   0.91435652   -2.6117822   -2.6117822   -1.2402505  0.081027205   -2.6117822    1.3715316   439061 
 2990000   0.91396873   -2.6103921   -2.6103921   -1.2394421  0.079645324   -2.6103921      1.37095   439061 
 2991000   0.91537019   -2.6129378   -2.6129378   -1.2398857  0.076950489   -2.6129378    1.3730522   439061 
 2992000   0.91317686   -2.6105098   -2.6105098   -1.2407476  0.080460918   -2.6105098    1.3697622   439061 
 2993000   0.91241193   -2.6105193   -2.6105193   -1.2419045  0.080060709   -2.6105193    1.3686148   439061 
 2994000    0.9127604   -2.6108277   -2.6108277   -1.2416902  0.078229233   -2.6108277    1.3691375   439061 
 2995000    0.9137319   -2.6120312   -2.6120312   -1.2414365  0.084004167   -2.6120312    1.3705947   439061 
 2996000   0.91397563   -2.6129456   -2.6129456   -1.2419852  0.081393521   -2.6129456    1.3709603   439061 
 2997000   0.91411693   -2.6138309   -2.6138309   -1.2426587  0.077328812   -2.6138309    1.3711723   439061 
 2998000   0.91339204   -2.6122706   -2.6122706   -1.2421857  0.077732053   -2.6122706    1.3700849   439061 
 2999000   0.91334954   -2.6129614   -2.6129614   -1.2429402  0.083128059   -2.6129614    1.3700212   439061 
 3000000   0.91359107   -2.6130157   -2.6130157   -1.2426322  0.081603126   -2.6130157    1.3703835   439061 
Loop time of 4935.95 on 192 procs for 3000000 steps with 439061 atoms

Performance: 262563.213 tau/day, 607.785 timesteps/s
88.5% CPU use with 192 MPI tasks x 1 OpenMP threads

MPI task timing breakdown:
Section |  min time  |  avg time  |  max time  |%varavg|  %CPU | %total
-----------------------------------------------------------------------
Pair    | 1233.2     | 2190.7     | 2773       | 905.3 |  90.8 | 44.38
Bond    | 1.8237     | 1.9791     | 2.11       |   4.3 | 100.0 |  0.04
Neigh   | 628.26     | 856.13     | 991.5      | 308.6 |  98.1 | 17.34
Comm    | 604.05     | 1467       | 2584.7     |1315.2 |  84.0 | 29.72
Output  | 166.07     | 166.31     | 166.32     |   0.1 |  67.2 |  3.37
Modify  | 78.341     | 130.63     | 401.37     | 826.9 |  87.8 |  2.65
Other   |            | 123.2      |            |       |       |  2.50

Nlocal:        2286.78 ave        2953 max        1862 min
Histogram: 3 4 14 89 71 7 1 0 1 2
Nghost:        3184.31 ave        3614 max        2090 min
Histogram: 4 4 6 12 23 6 11 14 68 44
Neighs:        55823.7 ave       69531 max       19491 min
Histogram: 7 8 5 2 2 9 15 43 81 20

Total # of neighbors = 10718144
Ave neighs/atom = 24.411515
Ave special neighs/atom = 0.0000000
Neighbor list builds = 300000
Dangerous builds = 297000
write_data	data.lj
System init for write_data ...


## Evaporation
region          regevap block EDGE EDGE EDGE EDGE 140 EDGE units box
fix             4 solvent evaporate ${evap} 1 regevap 156415
fix             4 solvent evaporate 0 1 regevap 156415
ERROR: Illegal fix evaporate command (src/MISC/fix_evaporate.cpp:53)
Last command: fix             4 solvent evaporate ${evap} 1 regevap 156415
