LAMMPS (24 Dec 2020)
OMP_NUM_THREADS environment is not set. Defaulting to 1 thread. (src/comm.cpp:94)
  using 1 OpenMP thread(s) per MPI task
# Simple rigid body system
# needed variables: startTemp, temp

units		lj
atom_style	full
dimension 	3
boundary	p p f
pair_style	lj/cut/opt 2.5

variable 	gcmcdisplace	equal 0
variable 	sigma		equal 1.0
variable 	epsilon 	equal 1.0


read_restart	restart.dat.3000000
Reading restart file ...
  restart file = 24 Dec 2020, LAMMPS = 24 Dec 2020
WARNING: Restart file used different # of processors: 48 vs. 192 (src/read_restart.cpp:697)
  restoring atom style full from restart
  orthogonal box = (0.0000000 0.0000000 0.0000000) to (80.000000 80.000000 160.00000)
  6 by 4 by 8 MPI processor grid
  restoring pair style lj/cut/opt from restart
  439061 atoms
Finding 1-2 1-3 1-4 neighbors ...
  special bond factors lj:    0        0        0       
  special bond factors coul:  0        0        0       
     0 = max # of 1-2 neighbors
     0 = max # of 1-3 neighbors
     0 = max # of 1-4 neighbors
     1 = max # of special neighbors
  special bonds CPU = 1.420 seconds
  read_restart CPU = 1.725 seconds

mass		1 1.0
mass		2 1.0
mass		3 1.0


group		solvent type 1
439061 atoms in group solvent


neighbor 	0.4 bin

pair_coeff	1 1 1.0 1.0
pair_coeff	2 2 0.0 0.0
pair_coeff	3 3 0.0 0.0
pair_coeff	2 3 0.0 0.0
pair_coeff	1 2*3 0.0 0.0

pair_modify 	shift yes


balance 	1.05 shift z 10 1.05
Balancing ...
Neighbor list info ...
  update every 1 steps, delay 10 steps, check yes
  max neighbors/atom: 2000, page size: 100000
  master list distance cutoff = 2.9
  ghost atom cutoff = 2.9
  binsize = 1.45, bins = 56 56 111
  1 neighbor lists, perpetual/occasional/extra = 1 0 0
  (1) pair lj/cut/opt, perpetual
      attributes: half, newton on
      pair build: half/bin/newton
      stencil: half/bin/3d/newton
      bin: standard
 rebalancing time: 0.025 seconds
  iteration count = 5
  initial/final maximal load/proc = 3162.0000 2575.0000
  initial/final imbalance factor  = 1.3827327 1.1260394
  x cuts: 0.0000000 0.16666667 0.33333333 0.50000000 0.66666667 0.83333333 1.0000000
  y cuts: 0.0000000 0.25000000 0.50000000 0.75000000 1.0000000
  z cuts: 0.0000000 0.097656250 0.18359375 0.27734375 0.37890625 0.47656250 0.57031250 0.67968750 1.0000000


####################### WALLS ###########################


variable       epsilonWall equal 2*${epsilon}
variable       epsilonWall equal 2*1

variable       cutoffTop   equal   0.7147*${sigma}
variable       cutoffTop   equal   0.7147*1

variable       cutoffLow   equal   3*${sigma}
variable       cutoffLow   equal   3*1


fix            topWall all wall/lj93 zhi EDGE                ${epsilonWall} ${sigma} ${cutoffTop} units box
fix            topWall all wall/lj93 zhi EDGE                2 ${sigma} ${cutoffTop} units box
fix            topWall all wall/lj93 zhi EDGE                2 1 ${cutoffTop} units box
fix            topWall all wall/lj93 zhi EDGE                2 1 0.7147 units box

fix            lowWall all wall/lj93 zlo EDGE                ${epsilonWall} ${sigma} ${cutoffLow} units box
fix            lowWall all wall/lj93 zlo EDGE                2 ${sigma} ${cutoffLow} units box
fix            lowWall all wall/lj93 zlo EDGE                2 1 ${cutoffLow} units box
fix            lowWall all wall/lj93 zlo EDGE                2 1 3 units box


###################### COMPUTES ##########################

compute        bin1 solvent chunk/atom bin/1d z upper 1.0



######################	FIXES ############################


fix 		peclet solvent ave/chunk 1000 1 1000 bin1 density/number norm 		 none ave one file density.profile

fix 		 temp solvent ave/chunk 1000 1 1000 bin1 temp norm none ave one file temp.profile

fix 		2 solvent nve

## Thermostat


region		regthermo block EDGE EDGE EDGE EDGE 0 20

group 		thermo dynamic solvent region regthermo every 1000
dynamic group thermo defined

fix 		3 thermo langevin ${startTemp} ${temp} 10 156453
fix 		3 thermo langevin 1.0 ${temp} 10 156453
fix 		3 thermo langevin 1.0 1.0 10 156453


## Evaporation

region		regevap block EDGE EDGE EDGE EDGE 140 158
#fix 		gcmc solvent gcmc 100 100 0 1 780493 ${temp} ${mu} ${gcmcdisplace} region regevap
fix 		evap solvent evaporate ${evap} 1 regevap 4379103
fix 		evap solvent evaporate 50 1 regevap 4379103

#### Load balancing

fix 		bal all balance 1000 1.05 shift z 10 1.05

############### Diagnostics and computes ###################
#compute 	com cube	  rigid/local	1 mol x y z
#compute 	quat cube	  rigid/local	1 mol quatw quati quatj quatk

thermo 		1000
thermo_style 	custom step temp epair etotal press pe ke atoms

dump		1 all custom 100000 dump.lammpstrj id mol type x y z
dump 		2 all image 10000 image.*.png type type
dump 		3 all movie 1000 movie.avi type type
#dump 		com cube local 1000 dump.*.xyz c_com[*]
#dump		quat cube      local 1000 dump.*.quat c_quat[*]


restart 	1000000 restart.dat
timestep 	0.005
timer 		full
New timer settings: style=full  mode=nosync  timeout=off


run		5000000
Per MPI rank memory allocation (min/avg/max) = 9.923 | 9.986 | 10.01 Mbytes
Step Temp E_pair TotEng Press PotEng KinEng Atoms 
 3000000     1.016004   -3.1352716   -1.6112691  0.079025997   -3.1352716    1.5240025   439061 
 3001000    1.0147605   -3.1342933   -1.6120867  0.079003899   -3.1342933    1.5222066   439041 
 3002000    1.0159104   -3.1361624   -1.6121615  0.076597024   -3.1361624    1.5240009   439021 
 3003000    1.0159444   -3.1369585   -1.6128371   0.07431201   -3.1369585    1.5241214   439001 
 3004000    1.0147689   -3.1358062    -1.613379  0.074235888   -3.1358062    1.5224273   438981 
 3005000    1.0136734   -3.1352661   -1.6144131  0.078808035   -3.1352661     1.520853   438961 
 3006000     1.014362   -3.1341205   -1.6121649  0.079167089   -3.1341205    1.5219555   438941 
 3007000    1.0151259   -3.1360992   -1.6129281  0.071552633   -3.1360992     1.523171   438921 
 3008000    1.0155311   -3.1360114    -1.612163  0.080285397   -3.1360114    1.5238485   438901 
 3009000    1.0157339   -3.1362571   -1.6120348  0.077718455   -3.1362571    1.5242223   438881 
 3010000    1.0143801    -3.135004   -1.6127439  0.074698694    -3.135004    1.5222601   438861 
 3011000    1.0161145   -3.1370279   -1.6120954  0.071598072   -3.1370279    1.5249324   438841 
 3012000    1.0157471    -3.137403   -1.6129525    0.0788154    -3.137403    1.5244505   438821 
 3013000    1.0123743   -3.1337079   -1.6142501  0.075398373   -3.1337079    1.5194577   438801 
 3014000    1.0140759   -3.1362625   -1.6141815     0.073589   -3.1362625     1.522081   438781 
 3015000    1.0172413   -3.1390471   -1.6121453  0.072114624   -3.1390471    1.5269018   438761 
 3016000    1.0143285   -3.1349001   -1.6123011  0.081739911   -3.1349001    1.5225991   438741 
 3017000    1.0151788     -3.13538   -1.6114352  0.072588356     -3.13538    1.5239448   438721 
 3018000    1.0132006   -3.1346972   -1.6136526  0.076746403   -3.1346972    1.5210445   438701 
 3019000    1.0144058   -3.1359897   -1.6130664  0.076502726   -3.1359897    1.5229233   438681 
 3020000    1.0140183   -3.1351747   -1.6127638  0.076177237   -3.1351747     1.522411   438661 
 3021000    1.0147405   -3.1355015   -1.6119368  0.074533094   -3.1355015    1.5235647   438641 
 3022000    1.0133628   -3.1339466    -1.612381  0.079164418   -3.1339466    1.5215656   438621 
 3023000    1.0150376   -3.1375868   -1.6134369  0.072416596   -3.1375868    1.5241498   438601 
 3024000    1.0172606   -3.1384889   -1.6109315   0.07988413   -3.1384889    1.5275574   438581 
 3025000     1.013051   -3.1342881   -1.6129827  0.077470018   -3.1342881    1.5213054   438561 
 3026000    1.0144513    -3.137389   -1.6139113  0.076061374    -3.137389    1.5234778   438541 
 3027000    1.0127664   -3.1349316   -1.6139147  0.077904833   -3.1349316    1.5210169   438521 
 3028000    1.0135537    -3.136507   -1.6142384  0.077583352    -3.136507    1.5222686   438501 
 3029000    1.0138833   -3.1379076   -1.6150744  0.076241038   -3.1379076    1.5228332   438481 
 3030000    1.0132962   -3.1358406   -1.6138199  0.074829891   -3.1358406    1.5220208   438461 
 3031000    1.0147456    -3.138013   -1.6137457  0.071091243    -3.138013    1.5242673   438441 
 3032000    1.0147082   -3.1389727   -1.6146921  0.078275102   -3.1389727    1.5242807   438421 
 3033000    1.0136305    -3.136627   -1.6138957  0.074169581    -3.136627    1.5227313   438401 
 3034000    1.0157495   -3.1402625   -1.6142783  0.073851696   -3.1402625    1.5259842   438381 
 3035000    1.0150209   -3.1392475   -1.6142884  0.074062269   -3.1392475    1.5249591   438361 
 3036000    1.0133144    -3.137696   -1.6152312  0.076411904    -3.137696    1.5224648   438341 
 3037000    1.0134418   -3.1381283   -1.6154027  0.076222851   -3.1381283    1.5227257   438321 
 3038000    1.0146284   -3.1390337   -1.6144556  0.073559432   -3.1390337    1.5245781   438301 
 3039000    1.0136964   -3.1396766   -1.6164294  0.071857481   -3.1396766    1.5232472   438281 
 3040000    1.0134315   -3.1377879   -1.6148693  0.081341472   -3.1377879    1.5229187   438261 
 3041000    1.0137742   -3.1376432     -1.61414  0.077861018   -3.1376432    1.5235032   438241 
 3042000    1.0123457   -3.1364672   -1.6150413  0.075568837   -3.1364672    1.5214259   438221 
 3043000    1.0128332   -3.1373521   -1.6151241   0.07674052   -3.1373521     1.522228   438201 
 3044000    1.0132067   -3.1375104   -1.6146516  0.065816172   -3.1375104    1.5228588   438181 
 3045000    1.0145412   -3.1391408   -1.6142066  0.073365507   -3.1391408    1.5249342   438161 
 3046000    1.0156478   -3.1395783   -1.6129112  0.075425918   -3.1395783    1.5266671   438141 
 3047000    1.0137397   -3.1372744   -1.6134057  0.080526933   -3.1372744    1.5238687   438121 
 3048000    1.0132077   -3.1366187   -1.6134803  0.077408014   -3.1366187    1.5231384   438101 
 3049000    1.0154276   -3.1399251   -1.6133798  0.072945203   -3.1399251    1.5265453   438081 
 3050000    1.0146063   -3.1383457   -1.6129655  0.077231305   -3.1383457    1.5253801   438061 
 3051000     1.014575   -3.1381541   -1.6127513  0.081773015   -3.1381541    1.5254027   438041 
 3052000    1.0141754   -3.1386255   -1.6137538  0.074923444   -3.1386255    1.5248716   438021 
 3053000    1.0139046    -3.137883   -1.6133489  0.082735923    -3.137883    1.5245341   438001 
 3054000    1.0147268   -3.1381166   -1.6122766   0.07587421   -3.1381166      1.52584   437981 
 3055000    1.0150004    -3.138896   -1.6125749  0.072287669    -3.138896    1.5263211   437961 
 3056000    1.0120284   -3.1362665    -1.614345  0.073915037   -3.1362665    1.5219215   437941 
 3057000    1.0128488   -3.1372058   -1.6139811  0.073279739   -3.1372058    1.5232247   437921 
 3058000    1.0130926   -3.1382001   -1.6145391  0.069566386   -3.1382001     1.523661   437901 
 3059000    1.0127735   -3.1374376    -1.614187  0.076042555   -3.1374376    1.5232506   437881 
 3060000    1.0119777   -3.1374869   -1.6153637   0.06790881   -3.1374869    1.5221233   437861 
 3061000    1.0122117   -3.1385013   -1.6159565  0.074155716   -3.1385013    1.5225448   437841 
 3062000    1.0113661   -3.1366651   -1.6153228   0.07611286   -3.1366651    1.5213423   437821 
 3063000    1.0101883   -3.1369734   -1.6173333  0.072549868   -3.1369734    1.5196401   437801 
 3064000     1.012357   -3.1381761    -1.615204  0.074549007   -3.1381761     1.522972   437781 
 3065000    1.0118763   -3.1371281   -1.6148097  0.073262599   -3.1371281    1.5223184   437761 
 3066000    1.0105086   -3.1362053   -1.6158751  0.075322966   -3.1362053    1.5203301   437741 
 3067000    1.0116158   -3.1369798   -1.6149142  0.070716634   -3.1369798    1.5220656   437721 
 3068000    1.0113741   -3.1367615   -1.6149901  0.073698145   -3.1367615    1.5217715   437701 
 3069000    1.0113801   -3.1367109    -1.614861  0.071541412   -3.1367109      1.52185   437681 
 3070000     1.011042   -3.1369837   -1.6155729  0.075008513   -3.1369837    1.5214108   437661 
 3071000    1.0118188   -3.1378306   -1.6151813  0.074569596   -3.1378306    1.5226493   437641 
 3072000    1.0126152   -3.1384048   -1.6144875  0.076558587   -3.1384048    1.5239173   437621 
 3073000    1.0120857   -3.1385616   -1.6153715  0.077313541   -3.1385616    1.5231901   437601 
 3074000    1.0129851   -3.1399753   -1.6153619  0.074577011   -3.1399753    1.5246134   437581 
 3075000    1.0141371   -3.1411746   -1.6147575  0.076358248   -3.1411746    1.5264171   437561 
 3076000    1.0122835   -3.1384406   -1.6147439  0.078547275   -3.1384406    1.5236967   437541 
 3077000    1.0129829   -3.1390093   -1.6141901   0.08184283   -3.1390093    1.5248192   437521 
 3078000    1.0137704     -3.13911   -1.6130357  0.077279686     -3.13911    1.5260743   437501 
 3079000    1.0141215   -3.1396458   -1.6129732   0.07902289   -3.1396458    1.5266726   437481 
 3080000    1.0127154   -3.1380845   -1.6134589  0.071826333   -3.1380845    1.5246255   437461 
 3081000    1.0116898   -3.1375588   -1.6144077  0.077146571   -3.1375588    1.5231512   437441 
 3082000    1.0123679   -3.1401687    -1.615927  0.074822841   -3.1401687    1.5242417   437421 
 3083000    1.0112462   -3.1383899   -1.6157674  0.075375639   -3.1383899    1.5226225   437401 
 3084000    1.0109571    -3.137868   -1.6156111  0.072680595    -3.137868    1.5222569   437381 
 3085000    1.0121114   -3.1404386   -1.6163739  0.070585975   -3.1404386    1.5240647   437361 
 3086000    1.0110532   -3.1390629   -1.6165221  0.073465319   -3.1390629    1.5225408   437341 
 3087000    1.0102529   -3.1386308   -1.6172256  0.073535478   -3.1386308    1.5214053   437321 
 3088000    1.0087144   -3.1373673   -1.6182096  0.075574536   -3.1373673    1.5191578   437301 
 3089000    1.0088715   -3.1367831   -1.6173193  0.072950758   -3.1367831    1.5194638   437281 
 3090000    1.0081703   -3.1369077   -1.6184304  0.072994316   -3.1369077    1.5184773   437261 
 3091000    1.0087407   -3.1373587   -1.6179528  0.071668558   -3.1373587    1.5194059   437241 
 3092000    1.0106231   -3.1398607   -1.6175499  0.066793013   -3.1398607    1.5223108   437221 
 3093000    1.0109647    -3.140265   -1.6173699  0.077350212    -3.140265     1.522895   437201 
 3094000    1.0108177   -3.1388295   -1.6160862  0.075082341   -3.1388295    1.5227434   437181 
 3095000    1.0106254   -3.1398109   -1.6172876  0.069329039   -3.1398109    1.5225233   437161 
 3096000    1.0089839   -3.1366381   -1.6165183  0.073725787   -3.1366381    1.5201198   437141 
 3097000    1.0103168   -3.1396293   -1.6174317  0.072798224   -3.1396293    1.5221977   437121 
 3098000    1.0092398   -3.1384711   -1.6178266  0.075487815   -3.1384711    1.5206445   437101 
 3099000    1.0089112   -3.1367656   -1.6165467  0.079747633   -3.1367656    1.5202189   437081 
 3100000    1.0103305   -3.1404677   -1.6180404  0.074091425   -3.1404677    1.5224273   437061 
 3101000    1.0093265   -3.1399492   -1.6189653  0.066957727   -3.1399492     1.520984   437041 
 3102000    1.0100447   -3.1402948   -1.6181589  0.071239597   -3.1402948    1.5221358   437021 
 3103000    1.0107055    -3.141256   -1.6180546  0.073053644    -3.141256    1.5232014   437001 
 3104000    1.0106753   -3.1406993   -1.6174737  0.073990022   -3.1406993    1.5232256   436981 
 3105000    1.0102294    -3.140567   -1.6179438  0.072057461    -3.140567    1.5226233   436961 
 3106000    1.0109881   -3.1426502   -1.6188137    0.0709722   -3.1426502    1.5238365   436941 
 3107000    1.0097794   -3.1425265   -1.6204422  0.069437164   -3.1425265    1.5220843   436921 
 3108000    1.0083254   -3.1411302    -1.621168  0.073726574   -3.1411302    1.5199622   436901 
 3109000    1.0091512    -3.143135   -1.6218583  0.076733987    -3.143135    1.5212767   436881 
 3110000    1.0090761   -3.1441051    -1.622872  0.073955638   -3.1441051    1.5212331   436861 
 3111000    1.0083104   -3.1431425   -1.6229941  0.074063848   -3.1431425    1.5201484   436841 
 3112000    1.0094753    -3.145471   -1.6234967  0.071562345    -3.145471    1.5219743   436821 
 3113000    1.0096692   -3.1441407   -1.6218044  0.077095951   -3.1441407    1.5223363   436801 
 3114000    1.0082197   -3.1423168   -1.6220964  0.072257598   -3.1423168    1.5202204   436781 
 3115000    1.0089385   -3.1437095   -1.6223355  0.071755476   -3.1437095    1.5213739   436761 
 3116000      1.00848   -3.1428977   -1.6221456  0.077921249   -3.1428977    1.5207522   436741 
 3117000    1.0111259   -3.1460658   -1.6212538   0.07757838   -3.1460658     1.524812   436721 
 3118000    1.0115262   -3.1464108   -1.6209253  0.075313373   -3.1464108    1.5254856   436701 
 3119000    1.0109696    -3.146561   -1.6218451  0.078963333    -3.146561    1.5247158   436681 
 3120000    1.0106787   -3.1463947   -1.6220478  0.075341498   -3.1463947     1.524347   436661 
 3121000    1.0114143   -3.1473579   -1.6218316  0.072750525   -3.1473579    1.5255264   436641 
 3122000    1.0087583   -3.1438234   -1.6222334  0.077123868   -3.1438234      1.52159   436621 
 3123000    1.0093997   -3.1453416   -1.6227144  0.076717815   -3.1453416    1.5226272   436601 
 3124000    1.0086014   -3.1455548   -1.6240621  0.069820972   -3.1455548    1.5214928   436581 
 3125000    1.0090767   -3.1447388   -1.6224594   0.07292338   -3.1447388    1.5222794   436561 
 3126000    1.0088209   -3.1438906   -1.6219273  0.073594872   -3.1438906    1.5219632   436541 
 3127000    1.0098342   -3.1458243   -1.6222624  0.072571983   -3.1458243    1.5235618   436521 
 3128000    1.0087636   -3.1434111   -1.6213948  0.075417094   -3.1434111    1.5220163   436501 
 3129000    1.0082251   -3.1447993   -1.6235259  0.073244206   -3.1447993    1.5212734   436481 
 3130000    1.0092704   -3.1441374    -1.621217  0.077837176   -3.1441374    1.5229205   436461 
 3131000    1.0096485   -3.1465944   -1.6230336   0.07760437   -3.1465944    1.5235608   436441 
 3132000    1.0092819   -3.1469045   -1.6238271  0.072587558   -3.1469045    1.5230774   436421 
 3133000    1.0088935   -3.1456949   -1.6231339  0.074963358   -3.1456949     1.522561   436401 
 3134000    1.0074311   -3.1458158   -1.6253921  0.075516745   -3.1458158    1.5204237   436381 
 3135000    1.0081676    -3.146275     -1.62467  0.070885838    -3.146275    1.5216051   436361 
 3136000    1.0069468   -3.1446402   -1.6248081  0.073732277   -3.1446402    1.5198322   436341 
 3137000    1.0092653   -3.1472296   -1.6238281  0.074217057   -3.1472296    1.5234015   436321 
 3138000    1.0086958   -3.1469478   -1.6243362  0.073235207   -3.1469478    1.5226116   436301 
 3139000    1.0082054   -3.1453605   -1.6234194  0.081277181   -3.1453605    1.5219411   436281 
 3140000    1.0088792   -3.1466711    -1.623643  0.075950804   -3.1466711    1.5230282   436261 
 3141000    1.0091386     -3.14894   -1.6254505  0.075225265     -3.14894    1.5234896   436241 
 3142000    1.0080878   -3.1468416   -1.6248687  0.076098398   -3.1468416    1.5219729   436221 
 3143000    1.0084203   -3.1462201   -1.6236754  0.072027673   -3.1462201    1.5225447   436201 
 3144000    1.0091734   -3.1473543   -1.6236027  0.074905501   -3.1473543    1.5237516   436181 
 3145000    1.0082987   -3.1484408     -1.62594  0.072154938   -3.1484408    1.5225008   436161 
 3146000    1.0094498   -3.1501337    -1.625825  0.075485994   -3.1501337    1.5243087   436141 
 3147000    1.0082709    -3.148067   -1.6254686  0.070905178    -3.148067    1.5225984   436121 
 3148000    1.0071373   -3.1477742   -1.6268179  0.070133783   -3.1477742    1.5209564   436101 
 3149000    1.0078753   -3.1488485   -1.6267079  0.069011359   -3.1488485    1.5221407   436081 
 3150000    1.0074868    -3.147946   -1.6263223  0.069640613    -3.147946    1.5216237   436061 
 3151000     1.008679   -3.1473544   -1.6238602  0.076029253   -3.1473544    1.5234942   436041 
 3152000    1.0064711   -3.1482647   -1.6280357  0.079045538   -3.1482647     1.520229   436021 
 3153000    1.0082821   -3.1510543     -1.62802  0.076230355   -3.1510543    1.5230343   436001 
 3154000    1.0085452   -3.1496576    -1.626156  0.080926358   -3.1496576    1.5235016   435981 
 3155000    1.0070252   -3.1476437   -1.6263683  0.074216839   -3.1476437    1.5212754   435961 
 3156000    1.0065098   -3.1468515    -1.626285  0.074792466   -3.1468515    1.5205665   435941 
 3157000    1.0076391   -3.1489716   -1.6266292  0.069747704   -3.1489716    1.5223424   435921 
 3158000     1.007198   -3.1480935   -1.6263476  0.075092579   -3.1480935    1.5217459   435901 
 3159000    1.0061589   -3.1472342   -1.6269885  0.074416607   -3.1472342    1.5202457   435881 
 3160000    1.0072542   -3.1477172   -1.6257468  0.069709686   -3.1477172    1.5219704   435861 
 3161000    1.0073312    -3.147224   -1.6250675  0.074533978    -3.147224    1.5221566   435841 
 3162000    1.0067835   -3.1482008   -1.6268019  0.073214134   -3.1482008    1.5213989   435821 
 3163000    1.0077054   -3.1499835   -1.6271217  0.071248575   -3.1499835    1.5228617   435801 
 3164000    1.0052638   -3.1462966   -1.6270549  0.072237585   -3.1462966    1.5192417   435781 
 3165000    1.0065245   -3.1484963   -1.6272795  0.075365518   -3.1484963    1.5212168   435761 
 3166000    1.0043504   -3.1460999   -1.6280992  0.074544067   -3.1460999    1.5180007   435741 
 3167000    1.0056976   -3.1484425   -1.6283359    0.0713891   -3.1484425    1.5201066   435721 
 3168000     1.006863   -3.1495589   -1.6276209  0.072013025   -3.1495589     1.521938   435701 
 3169000    1.0057559   -3.1477593    -1.627425  0.073324735   -3.1477593    1.5203343   435681 
 3170000    1.0059515   -3.1477504   -1.6270506  0.068556556   -3.1477504    1.5206998   435661 
 3171000    1.0073854   -3.1495856   -1.6266482  0.074058257   -3.1495856    1.5229374   435641 
 3172000    1.0056128    -3.148771   -1.6284436  0.074086002    -3.148771    1.5203274   435621 
 3173000    1.0058347   -3.1483328      -1.6276  0.074659814   -3.1483328    1.5207328   435601 
 3174000     1.006004   -3.1494282   -1.6283697  0.072182373   -3.1494282    1.5210585   435581 
 3175000    1.0046915   -3.1474893   -1.6283455  0.080514326   -3.1474893    1.5191438   435561 
 3176000    1.0043691   -3.1473633   -1.6286372  0.072542877   -3.1473633    1.5187261   435541 
 3177000    1.0073214    -3.152378   -1.6291178  0.073436179    -3.152378    1.5232602   435521 
 3178000    1.0045765   -3.1480081   -1.6288289   0.07540477   -3.1480081    1.5191792   435501 
 3179000     1.008145   -3.1534753   -1.6288296  0.073262179   -3.1534753    1.5246457   435481 
 3180000    1.0053473    -3.149783   -1.6292986  0.074950859    -3.149783    1.5204845   435461 
 3181000    1.0058367   -3.1496181   -1.6283236  0.078936115   -3.1496181    1.5212946   435441 
 3182000    1.0044708   -3.1484827   -1.6291843  0.076993371   -3.1484827    1.5192984   435421 
 3183000    1.0045932   -3.1492698   -1.6297164  0.072889427   -3.1492698    1.5195534   435401 
 3184000     1.007331   -3.1516336    -1.627869  0.077212228   -3.1516336    1.5237646   435381 
 3185000    1.0059269   -3.1494176   -1.6277072  0.079007113   -3.1494176    1.5217105   435361 
 3186000    1.0063958   -3.1512781   -1.6287884  0.075297891   -3.1512781    1.5224897   435341 
 3187000     1.006246   -3.1502845   -1.6279515  0.074343747   -3.1502845    1.5223331   435321 
 3188000    1.0084396   -3.1535103   -1.6277886  0.072246554   -3.1535103    1.5257218   435301 
 3189000    1.0070976   -3.1521363   -1.6283749  0.073390796   -3.1521363    1.5237614   435281 
 3190000    1.0061642   -3.1494025   -1.6269834  0.080599733   -3.1494025    1.5224192   435261 
 3191000    1.0074241    -3.152695   -1.6282994  0.071687256    -3.152695    1.5243956   435241 
 3192000    1.0075691   -3.1523078   -1.6276227  0.073181668   -3.1523078    1.5246851   435221 
 3193000    1.0053611   -3.1483515   -1.6269378   0.06783616   -3.1483515    1.5214137   435201 
 3194000    1.0051649   -3.1494401   -1.6282534  0.077872619   -3.1494401    1.5211866   435181 
 3195000    1.0064768   -3.1517467   -1.6285045  0.071853727   -3.1517467    1.5232422   435161 
 3196000    1.0055333   -3.1505092    -1.628625  0.076957836   -3.1505092    1.5218842   435141 
 3197000    1.0072307   -3.1537222   -1.6291989  0.074645335   -3.1537222    1.5245232   435121 
 3198000    1.0060355   -3.1520171    -1.629233  0.072131103   -3.1520171    1.5227841   435101 
 3199000    1.0054498   -3.1503702   -1.6284026  0.073456991   -3.1503702    1.5219676   435081 
 3200000    1.0057072   -3.1508824   -1.6284552  0.075871753   -3.1508824    1.5224273   435061 
 3201000    1.0058454   -3.1518272   -1.6291209  0.074183637   -3.1518272    1.5227063   435041 
 3202000    1.0048426   -3.1514498   -1.6301916  0.071186412   -3.1514498    1.5212583   435021 
 3203000    1.0036761   -3.1490186   -1.6294565  0.070842837   -3.1490186    1.5195622   435001 
 3204000    1.0059939   -3.1507487   -1.6276074  0.077591784   -3.1507487    1.5231413   434981 
 3205000    1.0046879    -3.149784     -1.62855  0.072206157    -3.149784    1.5212339   434961 
 3206000     1.004392   -3.1511543   -1.6302985  0.071785634   -3.1511543    1.5208558   434941 
 3207000    1.0050151   -3.1517672    -1.629898  0.074358988   -3.1517672    1.5218692   434921 
 3208000    1.0051322   -3.1520237   -1.6299071  0.075941833   -3.1520237    1.5221166   434901 
 3209000    1.0050388   -3.1526024   -1.6305573  0.077005346   -3.1526024    1.5220451   434881 
 3210000    1.0044047   -3.1513966   -1.6302419  0.074353014   -3.1513966    1.5211548   434861 
 3211000    1.0046642   -3.1528575   -1.6312397  0.073107678   -3.1528575    1.5216177   434841 
 3212000    1.0058471   -3.1531881   -1.6297087  0.074694642   -3.1531881    1.5234794   434821 
 3213000    1.0044479   -3.1510586   -1.6296285  0.072129256   -3.1510586    1.5214302   434801 
 3214000    1.0033722   -3.1505163   -1.6306456  0.073893409   -3.1505163    1.5198707   434781 
 3215000    1.0045215   -3.1514289   -1.6297474  0.074402903   -3.1514289    1.5216816   434761 
 3216000    1.0073823    -3.155076   -1.6289905   0.07008062    -3.155076    1.5260855   434741 
 3217000    1.0066229   -3.1543327   -1.6293276  0.072839612   -3.1543327    1.5250051   434721 
 3218000    1.0053181   -3.1526236   -1.6295251  0.074707349   -3.1526236    1.5230985   434701 
 3219000    1.0061598   -3.1542206   -1.6297767  0.078796258   -3.1542206    1.5244439   434681 
 3220000    1.0049651   -3.1531059    -1.630402  0.074648459   -3.1531059    1.5227039   434661 
 3221000    1.0047786   -3.1537485   -1.6312572  0.074305967   -3.1537485    1.5224913   434641 
 3222000     1.004443   -3.1536914   -1.6316386  0.073697623   -3.1536914    1.5220528   434621 
 3223000    1.0050445   -3.1562549   -1.6332204  0.072717332   -3.1562549    1.5230344   434601 
 3224000    1.0034982   -3.1527565   -1.6319953  0.076747793   -3.1527565    1.5207612   434581 
 3225000    1.0044313   -3.1547151   -1.6324698  0.073288516   -3.1547151    1.5222453   434561 
 3226000    1.0040443   -3.1528731   -1.6311443  0.074342232   -3.1528731    1.5217288   434541 
 3227000     1.004796   -3.1561283   -1.6331902  0.069678125   -3.1561283    1.5229381   434521 
 3228000    1.0060692   -3.1569296   -1.6319915  0.075283204   -3.1569296    1.5249381   434501 
 3229000    1.0040656   -3.1530692    -1.631098  0.071680201   -3.1530692    1.5219712   434481 
 3230000    1.0049509   -3.1545056   -1.6311223  0.073056014   -3.1545056    1.5233832   434461 
 3231000    1.0028349   -3.1521734   -1.6319278  0.076857418   -3.1521734    1.5202457   434441 
 3232000    1.0030706   -3.1524113   -1.6317384  0.072353156   -3.1524113    1.5206729   434421 
 3233000    1.0046395   -3.1542745    -1.631153  0.072783659   -3.1542745    1.5231215   434401 
 3234000    1.0032279   -3.1520716   -1.6310201  0.073147301   -3.1520716    1.5210515   434381 
 3235000    1.0033885   -3.1533772   -1.6320122  0.074537969   -3.1533772     1.521365   434361 
 3236000    1.0023916   -3.1510699   -1.6311465  0.076077448   -3.1510699    1.5199235   434341 
 3237000    1.0043793   -3.1544072   -1.6313997  0.071988218   -3.1544072    1.5230075   434321 
 3238000     1.003155   -3.1531733   -1.6319521  0.075477087   -3.1531733    1.5212212   434301 
 3239000    1.0026408   -3.1519267   -1.6314153   0.07397075   -3.1519267    1.5205114   434281 
 3240000     1.004965   -3.1555757   -1.6314695  0.070497494   -3.1555757    1.5241062   434261 
 3241000    1.0035058    -3.153277   -1.6313137  0.075066378    -3.153277    1.5219633   434241 
 3242000    1.0030955      -3.1539   -1.6324889   0.07044508      -3.1539    1.5214111   434221 
 3243000    1.0021369   -3.1530637   -1.6330365  0.070127873   -3.1530637    1.5200272   434201 
 3244000    1.0026715   -3.1538396   -1.6329315  0.071880343   -3.1538396    1.5209082   434181 
 3245000    1.0020164   -3.1518429   -1.6318584  0.072792265   -3.1518429    1.5199845   434161 
 3246000    1.0044087   -3.1557482   -1.6320646  0.069702959   -3.1557482    1.5236837   434141 
 3247000    1.0025271    -3.153424   -1.6325247  0.072501478    -3.153424    1.5208993   434121 
 3248000    1.0030126   -3.1554857   -1.6337797  0.073410514   -3.1554857     1.521706   434101 
 3249000    1.0023687   -3.1546808   -1.6338817  0.072723535   -3.1546808    1.5207991   434081 
 3250000    1.0021672   -3.1541584    -1.633595  0.071026331   -3.1541584    1.5205634   434061 
 3251000    1.0012805   -3.1529387   -1.6336506  0.076854741   -3.1529387     1.519288   434041 
 3252000    1.0012149   -3.1533455    -1.634087  0.076675145   -3.1533455    1.5192585   434021 
 3253000     1.002827   -3.1558009    -1.634026  0.074423201   -3.1558009    1.5217749   434001 
 3254000    1.0007206   -3.1534211   -1.6347727  0.070465954   -3.1534211    1.5186484   433981 
 3255000    1.0012847   -3.1549884   -1.6354139  0.075166338   -3.1549884    1.5195745   433961 
 3256000    1.0009994    -3.154877   -1.6356654  0.070865866    -3.154877    1.5192116   433941 
 3257000   0.99879223    -3.151407   -1.6354753  0.068541226    -3.151407    1.5159316   433921 
 3258000    1.0003857    -3.154537   -1.6361169  0.076998902    -3.154537    1.5184201   433901 
 3259000    1.0013889   -3.1565091   -1.6364961  0.072195013   -3.1565091    1.5200129   433881 
 3260000    1.0012593   -3.1566289   -1.6367428  0.071675529   -3.1566289    1.5198862   433861 
 3261000    1.0011059   -3.1572661   -1.6375426   0.06542429   -3.1572661    1.5197235   433841 
 3262000   0.99952675   -3.1560815   -1.6386854  0.073726483   -3.1560815    1.5173962   433821 
 3263000    1.0017458   -3.1572673   -1.6364322  0.071525077   -3.1572673    1.5208351   433801 
 3264000    1.0009278   -3.1574377   -1.6377745  0.073177863   -3.1574377    1.5196632   433781 
 3265000    1.0001877   -3.1566592   -1.6380495  0.071617785   -3.1566592    1.5186097   433761 
 3266000    1.0001509   -3.1569317   -1.6383079  0.072212614   -3.1569317    1.5186238   433741 
 3267000    1.0008454   -3.1589815   -1.6392332  0.068648939   -3.1589815    1.5197483   433721 
 3268000    1.0013718   -3.1587034   -1.6380856  0.074888661   -3.1587034    1.5206178   433701 
 3269000    1.0015811   -3.1598151   -1.6388094  0.070949009   -3.1598151    1.5210058   433681 
 3270000    1.0004558   -3.1593681   -1.6400013  0.073666047   -3.1593681    1.5193669   433661 
 3271000   0.99968636   -3.1582639   -1.6399955  0.073580848   -3.1582639    1.5182684   433641 
 3272000    1.0018458   -3.1612024   -1.6395841  0.073273243   -3.1612024    1.5216182   433621 
 3273000    1.0001724   -3.1585584   -1.6394116  0.075680842   -3.1585584    1.5191468   433601 
 3274000    1.0007992   -3.1601312   -1.6399624  0.073689723   -3.1601312    1.5201688   433581 
 3275000   0.99965311   -3.1594368   -1.6409388  0.070301108   -3.1594368    1.5184981   433561 
 3276000    1.0007224   -3.1620837   -1.6418912  0.073444745   -3.1620837    1.5201925   433541 
 3277000   0.99879753   -3.1598996   -1.6425612  0.076690277   -3.1598996    1.5173384   433521 
 3278000   0.99966999   -3.1619604   -1.6432265  0.070789758   -3.1619604    1.5187339   433501 
 3279000    1.0001948   -3.1619874   -1.6423861  0.076574296   -3.1619874    1.5196013   433481 
 3280000     1.001405   -3.1642065   -1.6426963  0.071967467   -3.1642065    1.5215102   433461 
 3281000   0.99851274   -3.1604356   -1.6432498  0.072876261   -3.1604356    1.5171857   433441 
 3282000   0.99872347   -3.1598677   -1.6422918  0.076980714   -3.1598677     1.517576   433421 
 3283000   0.99902256    -3.161076   -1.6429755  0.066166679    -3.161076    1.5181005   433401 
 3284000   0.99991964   -3.1622714   -1.6427376  0.071310083   -3.1622714    1.5195338   433381 
 3285000    1.0005279   -3.1623435   -1.6418152  0.071584159   -3.1623435    1.5205283   433361 
 3286000    1.0009549   -3.1630352   -1.6417877  0.076776947   -3.1630352    1.5212475   433341 
 3287000    1.0003126    -3.163402   -1.6430605  0.072158291    -3.163402    1.5203414   433321 
 3288000     1.000852   -3.1651394   -1.6439078  0.075235849   -3.1651394    1.5212315   433301 
 3289000    0.9987049   -3.1622034   -1.6441653  0.072173586   -3.1622034    1.5180381   433281 
 3290000   0.99908924   -3.1625764   -1.6438841   0.07057361   -3.1625764    1.5186924   433261 
 3291000    1.0002459   -3.1625605   -1.6420398  0.067872004   -3.1625605    1.5205208   433241 
 3292000   0.99959568   -3.1624507   -1.6428482  0.072816924   -3.1624507    1.5196025   433221 
 3293000    0.9992389   -3.1627073   -1.6435771   0.06858888   -3.1627073    1.5191303   433201 
 3294000    1.0001298   -3.1641436   -1.6435888  0.070349418   -3.1641436    1.5205548   433181 
 3295000   0.99934594   -3.1620898   -1.6426565  0.075229716   -3.1620898    1.5194333   433161 
 3296000   0.99766575   -3.1607991   -1.6438504  0.074022476   -3.1607991    1.5169487   433141 
 3297000   0.99770014   -3.1602016   -1.6431306  0.068577959   -3.1602016    1.5170711   433121 
 3298000   0.99796121   -3.1616754   -1.6441373  0.064803279   -3.1616754    1.5175381   433101 
 3299000   0.99738291   -3.1617644   -1.6450357  0.066760184   -3.1617644    1.5167288   433081 
 3300000   0.99782887   -3.1616674   -1.6441904  0.071589544   -3.1616674     1.517477   433061 
 3301000   0.99766065    -3.160619   -1.6433277  0.066596613    -3.160619    1.5172913   433041 
 3302000   0.99813762   -3.1613049   -1.6432181  0.072873558   -3.1613049    1.5180868   433021 
 3303000   0.99794449   -3.1614048   -1.6435416  0.067606708   -3.1614048    1.5178631   433001 
 3304000   0.99756358   -3.1613598   -1.6440059  0.070902542   -3.1613598    1.5173539   432981 
 3305000   0.99722131   -3.1603506   -1.6434472  0.075033766   -3.1603506    1.5169033   432961 
 3306000   0.99608198   -3.1605027   -1.6452624  0.067285133   -3.1605027    1.5152403   432941 
 3307000   0.99756795   -3.1622369    -1.644666  0.062528004   -3.1622369    1.5175708   432921 
 3308000   0.99754295   -3.1619266   -1.6443237  0.073631008   -3.1619266    1.5176029   432901 
 3309000   0.99802684   -3.1626865   -1.6442773  0.073578457   -3.1626865    1.5184092   432881 
 3310000    0.9983265   -3.1630034   -1.6440681  0.070876353   -3.1630034    1.5189353   432861 
 3311000   0.99846101   -3.1636081    -1.644398  0.073840186   -3.1636081    1.5192101   432841 
 3312000      0.99982    -3.163906   -1.6425578   0.07446595    -3.163906    1.5213482   432821 
 3313000   0.99796263   -3.1624002   -1.6438081  0.076054185   -3.1624002    1.5185922   432801 
 3314000   0.99751788   -3.1632947   -1.6453091  0.067163169   -3.1632947    1.5179855   432781 
 3315000   0.99683248   -3.1623371   -1.6453244  0.068933113   -3.1623371    1.5170126   432761 
 3316000   0.99704853   -3.1628144   -1.6454029   0.06871156   -3.1628144    1.5174116   432741 
 3317000   0.99724298   -3.1640639   -1.6462863  0.072906128   -3.1640639    1.5177776   432721 
 3318000   0.99781906   -3.1640813   -1.6453567  0.070379761   -3.1640813    1.5187246   432701 
 3319000   0.99667317   -3.1625669   -1.6455163  0.078980876   -3.1625669    1.5170506   432681 
 3320000   0.99803679   -3.1638374   -1.6446409  0.074276313   -3.1638374    1.5191964   432661 
 3321000   0.99812354   -3.1638982   -1.6444995  0.072480809   -3.1638982    1.5193987   432641 
 3322000   0.99819796   -3.1661555   -1.6465732  0.072500971   -3.1661555    1.5195823   432621 
 3323000   0.99647667   -3.1641003   -1.6470682  0.074175076   -3.1641003     1.517032   432601 
 3324000   0.99780211   -3.1655941    -1.646474  0.065245615   -3.1655941    1.5191201   432581 
 3325000    0.9963421   -3.1650418   -1.6480744  0.072894749   -3.1650418    1.5169674   432561 
 3326000   0.99538909   -3.1635128   -1.6479263  0.071413522   -3.1635128    1.5155865   432541 
 3327000   0.99591415   -3.1646863   -1.6482302   0.07064845   -3.1646863    1.5164561   432521 
 3328000   0.99635784   -3.1649492   -1.6477474  0.064455756   -3.1649492    1.5172018   432501 
 3329000   0.99710873   -3.1651738   -1.6467583   0.06662859   -3.1651738    1.5184155   432481 
 3330000   0.99585125   -3.1639033   -1.6473326  0.072024081   -3.1639033    1.5165707   432461 
 3331000   0.99665514   -3.1640683   -1.6462032  0.070530767   -3.1640683    1.5178651   432441 
 3332000   0.99511617   -3.1632213   -1.6476299  0.066713494   -3.1632213    1.5155914   432421 
 3333000   0.99461678    -3.162884   -1.6479831  0.068319478    -3.162884    1.5149009   432401 
 3334000   0.99452278    -3.162499   -1.6476712  0.069264804    -3.162499    1.5148278   432381 
 3335000   0.99625027   -3.1652541   -1.6477248  0.068044348   -3.1652541    1.5175292   432361 
 3336000   0.99704068   -3.1660906   -1.6472871  0.071608353   -3.1660906    1.5188035   432341 
 3337000   0.99462865   -3.1635133    -1.648314  0.069004301   -3.1635133    1.5151993   432321 
 3338000   0.99429446   -3.1628941   -1.6481338  0.070539142   -3.1628941    1.5147603   432301 
 3339000   0.99691885   -3.1645355   -1.6457068  0.067753298   -3.1645355    1.5188287   432281 
 3340000   0.99516622   -3.1643641   -1.6481354  0.069710659   -3.1643641    1.5162287   432261 
 3341000   0.99520148   -3.1639055    -1.647553  0.070974005   -3.1639055    1.5163526   432241 
 3342000   0.99538996   -3.1655616   -1.6488517  0.067143578   -3.1655616    1.5167099   432221 
 3343000    0.9954589   -3.1663384   -1.6494533  0.069586446   -3.1663384    1.5168851   432201 
 3344000    0.9957555    -3.167663   -1.6502556  0.070945541    -3.167663    1.5174073   432181 
 3345000   0.99548394   -3.1661308   -1.6490671  0.072306216   -3.1661308    1.5170637   432161 
 3346000   0.99565173   -3.1664109   -1.6490213  0.065478387   -3.1664109    1.5173896   432141 
 3347000   0.99452794   -3.1657631    -1.650016  0.063479005   -3.1657631    1.5157471   432121 
 3348000   0.99305138   -3.1636628   -1.6500961  0.067896544   -3.1636628    1.5135668   432101 
 3349000   0.99434149   -3.1665159   -1.6509126  0.073106649   -3.1665159    1.5156032   432081 
 3350000   0.99424339   -3.1650338   -1.6495099  0.068030073   -3.1650338    1.5155239   432061 
 3351000   0.99289648   -3.1655709   -1.6520301  0.066694435   -3.1655709    1.5135408   432041 
 3352000   0.99136012   -3.1643836   -1.6531148  0.066775907   -3.1643836    1.5112688   432021 
 3353000   0.99306518   -3.1665697   -1.6526316  0.071043799   -3.1665697    1.5139382   432001 
 3354000   0.99345722   -3.1677147   -1.6531088  0.067514703   -3.1677147    1.5146059   431981 
 3355000   0.99428303   -3.1667549   -1.6508197  0.070048107   -3.1667549    1.5159351   431961 
 3356000   0.99442801   -3.1670739   -1.6508475  0.073220438   -3.1670739    1.5162264   431941 
 3357000     0.994601   -3.1680077   -1.6514473  0.072588249   -3.1680077    1.5165604   431921 
 3358000    0.9963856   -3.1696832   -1.6503313  0.072036443   -3.1696832    1.5193519   431901 
 3359000   0.99673892   -3.1696363   -1.6496753  0.066320599   -3.1696363     1.519961   431881 
 3360000   0.99514713    -3.168776    -1.651172  0.070910857    -3.168776    1.5176039   431861 
 3361000   0.99577745   -3.1692219   -1.6505864  0.072587375   -3.1692219    1.5186355   431841 
 3362000    0.9953261    -3.169249   -1.6512315  0.069045147    -3.169249    1.5180175   431821 
 3363000    0.9959404   -3.1679824   -1.6489577  0.072641163   -3.1679824    1.5190247   431801 
 3364000   0.99805287   -3.1727692    -1.650452  0.067426706   -3.1727692    1.5223172   431781 
 3365000   0.99531052   -3.1692162   -1.6510116  0.068817754   -3.1692162    1.5182046   431761 
 3366000   0.99443251   -3.1692253   -1.6522897  0.070706965   -3.1692253    1.5169356   431741 
 3367000    0.9949943   -3.1679219    -1.650059  0.067833016   -3.1679219    1.5178629   431721 
 3368000   0.99506158   -3.1672408   -1.6492049  0.070261982   -3.1672408    1.5180359   431701 
 3369000   0.99571954   -3.1694472   -1.6503372  0.069919155   -3.1694472      1.51911   431681 
 3370000   0.99540161   -3.1690993    -1.650404  0.070701342   -3.1690993    1.5186953   431661 
 3371000   0.99524054   -3.1686522   -1.6501322  0.071073544   -3.1686522      1.51852   431641 
 3372000   0.99385278   -3.1663449   -1.6498721  0.067083931   -3.1663449    1.5164728   431621 
 3373000   0.99340183   -3.1675787   -1.6517238  0.069355086   -3.1675787     1.515855   431601 
 3374000   0.99217565   -3.1660193   -1.6519652  0.068823025   -3.1660193    1.5140541   431581 
 3375000   0.99338285   -3.1670469   -1.6510804  0.065719903   -3.1670469    1.5159665   431561 
 3376000   0.99261128   -3.1654395   -1.6505803  0.065596427   -3.1654395    1.5148592   431541 
 3377000    0.9926609   -3.1659908   -1.6509856  0.067043346   -3.1659908    1.5150052   431521 
 3378000   0.99264448   -3.1667612   -1.6517109  0.065426697   -3.1667612    1.5150503   431501 
 3379000   0.99242673     -3.16532   -1.6505319  0.066119732     -3.16532    1.5147882   431481 
 3380000   0.99229923   -3.1655279   -1.6508641  0.064683415   -3.1655279    1.5146638   431461 
 3381000   0.99189632   -3.1641174   -1.6499985  0.066901098   -3.1641174     1.514119   431441 
 3382000   0.99200176   -3.1641807   -1.6498306  0.073932768   -3.1641807    1.5143501   431421 
 3383000   0.99223537   -3.1653249   -1.6505479  0.068469481   -3.1653249    1.5147769   431401 
 3384000   0.99141022   -3.1645454   -1.6509579  0.071425825   -3.1645454    1.5135874   431381 
 3385000   0.99125437   -3.1648682   -1.6514485  0.071202259   -3.1648682    1.5134197   431361 
 3386000   0.99217956   -3.1664872   -1.6515848  0.071090953   -3.1664872    1.5149024   431341 
 3387000   0.99164421   -3.1663846   -1.6522294  0.066431772   -3.1663846    1.5141553   431321 
 3388000   0.99182829    -3.167322   -1.6528154  0.067641471    -3.167322    1.5145066   431301 
 3389000   0.99150361   -3.1664187   -1.6523377  0.066741671   -3.1664187     1.514081   431281 
 3390000   0.99101238   -3.1666321   -1.6532311  0.066903288   -3.1666321     1.513401   431261 
 3391000   0.99091543   -3.1673608   -1.6540377  0.069405882   -3.1673608    1.5133232   431241 
 3392000    0.9911658   -3.1676363   -1.6538606  0.068488279   -3.1676363    1.5137757   431221 
 3393000   0.99146068   -3.1690455   -1.6547492  0.066653267   -3.1690455    1.5142963   431201 
 3394000   0.99170376   -3.1700723   -1.6553345  0.067428562   -3.1700723    1.5147378   431181 
 3395000   0.99290619   -3.1719097   -1.6552649  0.072923047   -3.1719097    1.5166448   431161 
 3396000   0.99322789    -3.171651   -1.6544444  0.072529426    -3.171651    1.5172066   431141 
 3397000   0.99349107   -3.1710663   -1.6533873   0.07053889   -3.1710663     1.517679   431121 
 3398000   0.99417334   -3.1719972   -1.6532056  0.070949097   -3.1719972    1.5187917   431101 
 3399000   0.99508435   -3.1722441   -1.6519901  0.073853732   -3.1722441     1.520254   431081 
 3400000   0.99445758   -3.1744278   -1.6550608  0.063744987   -3.1744278    1.5193669   431061 
 3401000   0.99373318   -3.1729638   -1.6546332  0.068249401   -3.1729638    1.5183306   431041 
 3402000   0.99276295   -3.1720909   -1.6551723  0.073889906   -3.1720909    1.5169186   431021 
 3403000   0.99180122    -3.171376   -1.6558566  0.070612556    -3.171376    1.5155194   431001 
 3404000   0.99202249   -3.1717638   -1.6558359  0.072747732   -3.1717638    1.5159278   430981 
 3405000   0.99230966   -3.1717569   -1.6553198  0.073635557   -3.1717569     1.516437   430961 
 3406000    0.9922632   -3.1729264     -1.65649  0.068377836   -3.1729264    1.5164364   430941 
 3407000   0.99063198   -3.1708949   -1.6568811  0.069887292   -3.1708949    1.5140137   430921 
 3408000   0.98947189   -3.1698233   -1.6575124  0.066354125   -3.1698233    1.5123109   430901 
 3409000   0.98887656    -3.168696   -1.6572248  0.073796918    -3.168696    1.5114712   430881 
 3410000    0.9896209   -3.1697539   -1.6570748  0.071973089   -3.1697539    1.5126791   430861 
 3411000   0.99011917   -3.1703337   -1.6568228  0.069261595   -3.1703337     1.513511   430841 
 3412000   0.98847846   -3.1679364   -1.6568633  0.071726985   -3.1679364    1.5110731   430821 
 3413000   0.99037403   -3.1703738   -1.6563327  0.069103181   -3.1703738    1.5140411   430801 
 3414000   0.98962509   -3.1696769   -1.6567105  0.066877204   -3.1696769    1.5129664   430781 
 3415000   0.99078625   -3.1693178   -1.6545059   0.06632385   -3.1693178     1.514812   430761 
 3416000   0.99200958   -3.1720165   -1.6552638  0.066802003   -3.1720165    1.5167527   430741 
 3417000   0.99053877   -3.1707555   -1.6561813   0.06277924   -3.1707555    1.5145742   430721 
 3418000   0.99079215   -3.1710928   -1.6560608  0.071422173   -3.1710928     1.515032   430701 
 3419000   0.99220893   -3.1733732   -1.6561044  0.067253621   -3.1733732    1.5172689   430681 
 3420000   0.99249742    -3.172708   -1.6549275   0.06420254    -3.172708    1.5177805   430661 
 3421000   0.99072401   -3.1702021   -1.6550632  0.071410111   -3.1702021    1.5151389   430641 
 3422000   0.99092495   -3.1722727   -1.6567561  0.064507324   -3.1722727    1.5155166   430621 
 3423000   0.99005497   -3.1722533    -1.657997  0.061833705   -3.1722533    1.5142564   430601 
 3424000   0.98897867   -3.1709407   -1.6582603  0.065539504   -3.1709407    1.5126804   430581 
 3425000   0.98908164    -3.168918   -1.6560098  0.068385877    -3.168918    1.5129082   430561 
 3426000   0.98829345   -3.1679704   -1.6561976  0.071493628   -3.1679704    1.5117728   430541 
 3427000    0.9901602   -3.1712905   -1.6565918   0.07138348   -3.1712905    1.5146987   430521 
 3428000    0.9898994   -3.1711892   -1.6568191  0.067775144   -3.1711892    1.5143701   430501 
 3429000   0.99059523   -3.1730923   -1.6575873  0.062051468   -3.1730923     1.515505   430481 
 3430000   0.98904044   -3.1705513   -1.6573547  0.070856202   -3.1705513    1.5131967   430461 
 3431000   0.99065443   -3.1722773   -1.6565409  0.073703421   -3.1722773    1.5157364   430441 
 3432000   0.99130318   -3.1727621   -1.6559626  0.068893374   -3.1727621    1.5167995   430421 
 3433000   0.99065525   -3.1729223   -1.6570438  0.076316354   -3.1729223    1.5158785   430401 
 3434000   0.99215185   -3.1753996   -1.6571605  0.070706478   -3.1753996    1.5182392   430381 
 3435000   0.99133961   -3.1747168   -1.6576501  0.070153677   -3.1747168    1.5170667   430361 
 3436000   0.99089422   -3.1735424   -1.6570868  0.070510871   -3.1735424    1.5164556   430341 
 3437000   0.98989471   -3.1742025   -1.6592061  0.071735718   -3.1742025    1.5149964   430321 
 3438000    0.9905664   -3.1749993   -1.6589045   0.06829284   -3.1749993    1.5160948   430301 
 3439000   0.98965335   -3.1737094   -1.6589416  0.063854234   -3.1737094    1.5147678   430281 
 3440000   0.98910039   -3.1736043   -1.6596125  0.069040191   -3.1736043    1.5139918   430261 
 3441000   0.99012287   -3.1750378   -1.6594104  0.068466511   -3.1750378    1.5156273   430241 
 3442000   0.99134039   -3.1765268   -1.6589652  0.071684998   -3.1765268    1.5175616   430221 
 3443000   0.98905369   -3.1747877   -1.6606563  0.069045477   -3.1747877    1.5141315   430201 
 3444000   0.99140925   -3.1784789   -1.6606708  0.065281887   -3.1784789    1.5178081   430181 
 3445000   0.99005293     -3.17595   -1.6601479  0.065585365     -3.17595    1.5158021   430161 
 3446000   0.99001829   -3.1742433   -1.6584238  0.065882946   -3.1742433    1.5158196   430141 
 3447000    0.9890461    -3.174012   -1.6596105  0.071983107    -3.174012    1.5144015   430121 
 3448000   0.98992234   -3.1746193   -1.6588057  0.065409587   -3.1746193    1.5158136   430101 
 3449000   0.99093958   -3.1756735   -1.6582316  0.070146823   -3.1756735    1.5174418   430081 
 3450000   0.98997089   -3.1755996   -1.6595706   0.06334734   -3.1755996     1.516029   430061 
 3451000   0.98981634   -3.1756495   -1.6597867  0.068091758   -3.1756495    1.5158628   430041 
 3452000   0.98917136   -3.1733408   -1.6583954  0.067123003   -3.1733408    1.5149455   430021 
 3453000   0.98905137    -3.174784   -1.6599519  0.067263624    -3.174784    1.5148322   430001 
 3454000   0.98897672   -3.1738776   -1.6590893  0.067699513   -3.1738776    1.5147883   429981 
 3455000   0.98893972   -3.1731409   -1.6583388  0.068744481   -3.1731409    1.5148021   429961 
 3456000   0.99021002   -3.1731577   -1.6563393  0.071075854   -3.1731577    1.5168184   429941 
 3457000   0.98806046    -3.170915   -1.6573189  0.067082225    -3.170915    1.5135961   429921 
 3458000   0.98762871   -3.1707956   -1.6577905  0.069932731   -3.1707956    1.5130051   429901 
 3459000   0.98705326   -3.1708199   -1.6586261  0.069656629   -3.1708199    1.5121939   429881 
 3460000   0.98913358    -3.172854   -1.6574025  0.067894543    -3.172854    1.5154515   429861 
 3461000   0.98849099   -3.1720852   -1.6575478  0.067292586   -3.1720852    1.5145374   429841 
 3462000    0.9880383    -3.172166   -1.6582517  0.068957358    -3.172166    1.5139143   429821 
 3463000   0.98731121   -3.1717018   -1.6588312  0.063037183   -3.1717018    1.5128706   429801 
 3464000   0.98820334   -3.1732437   -1.6589356   0.06313135   -3.1732437    1.5143081   429781 
 3465000   0.98776222   -3.1718583   -1.6581557  0.066319204   -3.1718583    1.5137025   429761 
 3466000   0.98822616   -3.1734643   -1.6589803  0.066334933   -3.1734643     1.514484   429741 
 3467000   0.98685021   -3.1718674   -1.6594217  0.067912591   -3.1718674    1.5124457   429721 
 3468000   0.98648378   -3.1724926   -1.6605381  0.065901569   -3.1724926    1.5119545   429701 
 3469000   0.98773327   -3.1737596   -1.6598196  0.070205618   -3.1737596      1.51394   429681 
 3470000   0.98779401   -3.1727524   -1.6586489  0.069980276   -3.1727524    1.5141036   429661 
 3471000   0.98860213   -3.1743403   -1.6589274  0.069034417   -3.1743403    1.5154128   429641 
 3472000   0.98806957   -3.1751717   -1.6605048  0.069490322   -3.1751717     1.514667   429621 
 3473000   0.98777916   -3.1738558   -1.6595635  0.069910778   -3.1738558    1.5142923   429601 
 3474000   0.98656452   -3.1730841   -1.6605835  0.070420265   -3.1730841    1.5125006   429581 
 3475000    0.9876666   -3.1758192   -1.6615585  0.070377428   -3.1758192    1.5142607   429561 
 3476000   0.98745648   -3.1767151   -1.6627061  0.067238312   -3.1767151     1.514009   429541 
 3477000   0.99079626   -3.1806409   -1.6614404   0.06636799   -3.1806409    1.5192005   429521 
 3478000   0.98852869   -3.1768121   -1.6610179  0.072324004   -3.1768121    1.5157942   429501 
 3479000   0.98911115   -3.1778577   -1.6610998  0.073274308   -3.1778577    1.5167579   429481 
 3480000   0.98837541   -3.1757402     -1.66004  0.072885596   -3.1757402    1.5157003   429461 
 3481000   0.98804673   -3.1777294   -1.6624625  0.074181288   -3.1777294    1.5152668   429441 
 3482000   0.98819099   -3.1778905   -1.6623318  0.074808996   -3.1778905    1.5155586   429421 
 3483000   0.98924865   -3.1794633   -1.6622119  0.068308128   -3.1794633    1.5172514   429401 
 3484000   0.98803857   -3.1781423   -1.6626763  0.072650926   -3.1781423     1.515466   429381 
 3485000   0.98843622    -3.179098   -1.6629514   0.07069339    -3.179098    1.5161466   429361 
 3486000   0.98999256    -3.182644   -1.6640394  0.068899003    -3.182644    1.5186046   429341 
 3487000   0.98877318    -3.179772   -1.6629673  0.070501086    -3.179772    1.5168047   429321 
 3488000   0.98862217   -3.1798773   -1.6632335  0.069432235   -3.1798773    1.5166437   429301 
 3489000   0.98732332   -3.1773422   -1.6626204  0.071751126   -3.1773422    1.5147217   429281 
 3490000    0.9871957    -3.177728   -1.6631314  0.071128157    -3.177728    1.5145965   429261 
 3491000   0.98695882    -3.177466   -1.6631623  0.067765603    -3.177466    1.5143036   429241 
 3492000   0.98874285   -3.1784994   -1.6613878  0.076424666   -3.1784994    1.5171116   429221 
 3493000   0.98725794   -3.1778657   -1.6629619  0.063292723   -3.1778657    1.5149038   429201 
 3494000   0.98564051   -3.1762857   -1.6637934   0.07184818   -3.1762857    1.5124924   429181 
 3495000   0.98543041   -3.1768602   -1.6646197  0.069522271   -3.1768602    1.5122404   429161 
 3496000   0.98502865   -3.1775692   -1.6658749  0.065333984   -3.1775692    1.5116943   429141 
 3497000   0.98456988   -3.1772419   -1.6661812   0.06948388   -3.1772419    1.5110607   429121 
 3498000   0.98559318   -3.1782682   -1.6655665   0.06696657   -3.1782682    1.5127017   429101 
 3499000    0.9842787   -3.1764892   -1.6657346  0.071459251   -3.1764892    1.5107546   429081 
 3500000   0.98492997   -3.1780114   -1.6661866  0.064431374   -3.1780114    1.5118247   429061 
 3501000   0.98597348   -3.1783026   -1.6648056  0.069808593   -3.1783026     1.513497   429041 
 3502000   0.98523625   -3.1767583   -1.6643225  0.071259035   -3.1767583    1.5124359   429021 
 3503000   0.98650563   -3.1794779   -1.6650229  0.065212216   -3.1794779    1.5144551   429001 
 3504000   0.98474388   -3.1766296   -1.6648086  0.070820089   -3.1766296     1.511821   428981 
 3505000   0.98463078   -3.1760432   -1.6643253   0.07227842   -3.1760432    1.5117178   428961 
 3506000    0.9866057   -3.1785366   -1.6637161  0.070528773   -3.1785366    1.5148206   428941 
 3507000   0.98738942   -3.1798199   -1.6637253  0.066231328   -3.1798199    1.5160946   428921 
 3508000   0.98554744   -3.1777345   -1.6643976  0.070203422   -3.1777345    1.5133368   428901 
 3509000   0.98721911   -3.1802146   -1.6642401  0.066574255   -3.1802146    1.5159744   428881 
 3510000   0.98569304   -3.1778591   -1.6641575  0.073208039   -3.1778591    1.5137016   428861 
 3511000   0.98437306   -3.1786305   -1.6668855  0.068921419   -3.1786305     1.511745   428841 
 3512000   0.98687043   -3.1821271   -1.6664761  0.065495444   -3.1821271     1.515651   428821 
 3513000   0.98713896   -3.1822457   -1.6661116   0.06656671   -3.1822457    1.5161342   428801 
 3514000   0.98528516   -3.1793534   -1.6659959   0.06613521   -3.1793534    1.5133575   428781 
 3515000   0.98566288   -3.1785606   -1.6645523   0.06765404   -3.1785606    1.5140083   428761 
 3516000   0.98624279   -3.1811774   -1.6662077  0.076105954   -3.1811774    1.5149697   428741 
 3517000   0.98715676   -3.1820578   -1.6656134  0.067295846   -3.1820578    1.5164444   428721 
 3518000   0.98686672   -3.1815735   -1.6655039  0.067998751   -3.1815735    1.5160696   428701 
 3519000   0.98574182   -3.1806943   -1.6662821  0.069054161   -3.1806943    1.5144121   428681 
 3520000   0.98527894   -3.1816535   -1.6678819  0.065785748   -3.1816535    1.5137716   428661 
 3521000   0.98539892   -3.1811615   -1.6671349  0.065885689   -3.1811615    1.5140266   428641 
 3522000   0.98474479   -3.1793943   -1.6663021  0.067988791   -3.1793943    1.5130921   428621 
 3523000   0.98478941   -3.1793304   -1.6660991  0.074350373   -3.1793304    1.5132313   428601 
 3524000   0.98524887   -3.1806401   -1.6666321  0.067905061   -3.1806401     1.514008   428581 
 3525000   0.98420988   -3.1791498   -1.6666679  0.067811407   -3.1791498     1.512482   428561 
 3526000   0.98501311   -3.1811651   -1.6673781  0.060982767   -3.1811651     1.513787   428541 
 3527000   0.98502346   -3.1806336   -1.6667601  0.065676881   -3.1806336    1.5138735   428521 
 3528000   0.98299543   -3.1780416   -1.6672144   0.07168111   -3.1780416    1.5108272   428501 
 3529000   0.98580017   -3.1821268   -1.6669181  0.061612416   -3.1821268    1.5152087   428481 
 3530000   0.98396544    -3.180564   -1.6681047  0.063035744    -3.180564    1.5124592   428461 
 3531000   0.98368822   -3.1794174   -1.6673136  0.063760799   -3.1794174    1.5121037   428441 
 3532000   0.98402212    -3.178644   -1.6659565  0.067163774    -3.178644    1.5126876   428421 
 3533000    0.9852555   -3.1804862   -1.6658319  0.068861679   -3.1804862    1.5146543   428401 
 3534000   0.98415036   -3.1795211   -1.6664951   0.06936589   -3.1795211     1.513026   428381 
 3535000   0.98451004   -3.1811891   -1.6675395  0.073798639   -3.1811891    1.5136496   428361 
 3536000   0.98514257    -3.181963   -1.6672702   0.06656416    -3.181963    1.5146928   428341 
 3537000   0.98349112   -3.1808442   -1.6686199  0.068804962   -3.1808442    1.5122243   428321 
 3538000   0.98315316   -3.1811608   -1.6693856  0.067000004   -3.1811608    1.5117752   428301 
 3539000   0.98293295   -3.1808015   -1.6692943  0.067066284   -3.1808015    1.5115072   428281 
 3540000   0.98266727   -3.1812371   -1.6700679  0.069701912   -3.1812371    1.5111692   428261 
 3541000   0.98195066   -3.1808424   -1.6707047  0.066901251   -3.1808424    1.5101377   428241 
 3542000   0.98236993   -3.1827331     -1.67188  0.065989879   -3.1827331    1.5108531   428221 
 3543000   0.98197462   -3.1816359   -1.6713202  0.066309263   -3.1816359    1.5103156   428201 
 3544000   0.98171235     -3.18176   -1.6717772   0.06439383     -3.18176    1.5099828   428181 
 3545000   0.98219646   -3.1818265   -1.6710285  0.068005147   -3.1818265     1.510798   428161 
 3546000   0.98258502   -3.1830749   -1.6716086  0.066331635   -3.1830749    1.5114662   428141 
 3547000   0.98414078   -3.1839891    -1.670059  0.062996335   -3.1839891    1.5139301   428121 
 3548000   0.98431913   -3.1846084   -1.6703332  0.066175769   -3.1846084    1.5142752   428101 
 3549000   0.98352091   -3.1839939    -1.670876  0.066532872   -3.1839939    1.5131179   428081 
 3550000   0.98310156     -3.18433   -1.6717865  0.071280064     -3.18433    1.5125434   428061 
 3551000   0.98146359   -3.1829021   -1.6728082  0.069897637   -3.1829021    1.5100939   428041 
 3552000   0.98358271   -3.1858368   -1.6724116  0.066133259   -3.1858368    1.5134251   428021 
 3553000   0.98380451   -3.1854901   -1.6716529  0.070302259   -3.1854901    1.5138371   428001 
 3554000   0.98253617   -3.1838504   -1.6718942  0.066740439   -3.1838504    1.5119561   427981 
 3555000   0.98241827   -3.1854094    -1.673564   0.06673957   -3.1854094    1.5118454   427961 
 3556000   0.98280953   -3.1848831    -1.672365  0.073231584   -3.1848831    1.5125182   427941 
 3557000   0.98373519     -3.18638   -1.6723665  0.068410978     -3.18638    1.5140135   427921 
 3558000   0.98370213   -3.1857236   -1.6716903  0.068056516   -3.1857236    1.5140333   427901 
 3559000   0.98365127   -3.1873176   -1.6732918  0.066961093   -3.1873176    1.5140258   427881 
 3560000   0.98183664   -3.1855559   -1.6742525   0.06914514   -3.1855559    1.5113034   427861 
 3561000   0.98490133   -3.1898465   -1.6737548  0.068994633   -3.1898465    1.5160916   427841 
 3562000   0.98207877   -3.1865925    -1.674775  0.067927224   -3.1865925    1.5118175   427821 
 3563000   0.98168581   -3.1854341   -1.6741509  0.063694501   -3.1854341    1.5112832   427801 
 3564000   0.98094779   -3.1841855   -1.6739678  0.065739519   -3.1841855    1.5102176   427781 
 3565000   0.97962552   -3.1836014    -1.675349  0.069617689   -3.1836014    1.5082524   427761 
 3566000   0.98244093   -3.1880778     -1.67542  0.065142001   -3.1880778    1.5126578   427741 
 3567000   0.98079068   -3.1863463   -1.6761587   0.06901088   -3.1863463    1.5101876   427721 
 3568000    0.9804884   -3.1867154   -1.6769227  0.067983044   -3.1867154    1.5097927   427701 
 3569000    0.9822417   -3.1888017   -1.6762385  0.066198816   -3.1888017    1.5125632   427681 
 3570000   0.98089308   -3.1868923   -1.6763352  0.066970524   -3.1868923    1.5105571   427661 
 3571000   0.98031572   -3.1863846    -1.676646  0.067448564   -3.1863846    1.5097386   427641 
 3572000   0.97960248   -3.1853155   -1.6766047  0.070159225   -3.1853155    1.5087107   427621 
 3573000    0.9805891   -3.1873177   -1.6770168  0.067117583   -3.1873177    1.5103009   427601 
 3574000   0.98092477   -3.1861791   -1.6752905  0.068310422   -3.1861791    1.5108886   427581 
 3575000   0.97936362   -3.1861927   -1.6776381  0.061222097   -3.1861927    1.5085545   427561 
 3576000   0.98008202   -3.1862921   -1.6765603  0.067210907   -3.1862921    1.5097317   427541 
 3577000   0.98014117   -3.1874594   -1.6775659  0.068889244   -3.1874594    1.5098935   427521 
 3578000   0.98045085   -3.1878533   -1.6774121  0.069799446   -3.1878533    1.5104412   427501 
 3579000   0.97927239   -3.1869213    -1.678225  0.067685902   -3.1869213    1.5086963   427481 
 3580000     0.979374   -3.1866132   -1.6776898   0.06865619   -3.1866132    1.5089234   427461 
 3581000    0.9800214   -3.1863362   -1.6763447  0.069477166   -3.1863362    1.5099915   427441 
 3582000   0.98065678    -3.186084   -1.6750428  0.068476283    -3.186084    1.5110412   427421 
 3583000   0.98141494   -3.1896762    -1.677396  0.072762727   -3.1896762    1.5122802   427401 
 3584000   0.98153091   -3.1884878   -1.6759582  0.069984665   -3.1884878    1.5125297   427381 
 3585000    0.9808247   -3.1864973   -1.6749852  0.069572788   -3.1864973    1.5115121   427361 
 3586000   0.98195031   -3.1889479   -1.6756303    0.0653483   -3.1889479    1.5133176   427341 
 3587000   0.98131992   -3.1867665   -1.6743497  0.075307038   -3.1867665    1.5124169   427321 
 3588000   0.98113273   -3.1880788   -1.6758797  0.068582983   -3.1880788    1.5121991   427301 
 3589000   0.98165675   -3.1893697   -1.6762921   0.06725876   -3.1893697    1.5130776   427281 
 3590000   0.98209773   -3.1906763   -1.6768481  0.063970967   -3.1906763    1.5138282   427261 
 3591000   0.98065157   -3.1894116   -1.6777418  0.066429714   -3.1894116    1.5116698   427241 
 3592000   0.98141068   -3.1898211   -1.6769103  0.070541007   -3.1898211    1.5129108   427221 
 3593000   0.98132762   -3.1898523   -1.6769987   0.07533168   -3.1898523    1.5128536   427201 
 3594000   0.98180639   -3.1913362   -1.6776737  0.070741934   -3.1913362    1.5136625   427181 
 3595000   0.98078831    -3.192284   -1.6801203  0.063757521    -3.192284    1.5121637   427161 
 3596000   0.97911698   -3.1897943   -1.6801367  0.068293242   -3.1897943    1.5096576   427141 
 3597000   0.97949906    -3.189047   -1.6787295  0.066800658    -3.189047    1.5103174   427121 
 3598000   0.98073808   -3.1910966   -1.6787979    0.0696572   -3.1910966    1.5122987   427101 
 3599000   0.97927845   -3.1902947    -1.680176  0.064011916   -3.1902947    1.5101187   427081 
 3600000   0.97999707   -3.1896871   -1.6783895  0.065301123   -3.1896871    1.5112976   427061 
 3601000   0.97942415   -3.1894417   -1.6789569  0.064773091   -3.1894417    1.5104848   427041 
 3602000   0.97911495   -3.1896582   -1.6795795  0.060595217   -3.1896582    1.5100787   427021 
 3603000   0.98011846   -3.1911462    -1.679449   0.06607809   -3.1911462    1.5116972   427001 
 3604000   0.97891493   -3.1903293   -1.6804177  0.058775381   -3.1903293    1.5099116   426981 
 3605000     0.977935   -3.1880375   -1.6795666  0.066533583   -3.1880375    1.5084708   426961 
 3606000   0.97931953   -3.1904413    -1.679764  0.069232226   -3.1904413    1.5106772   426941 
 3607000   0.98019714   -3.1917808   -1.6796789   0.06489427   -3.1917808    1.5121019   426921 
 3608000   0.97977465   -3.1899878   -1.6784669  0.067876694   -3.1899878    1.5115209   426901 
 3609000    0.9800144    -3.191833   -1.6798714  0.069829694    -3.191833    1.5119616   426881 
 3610000   0.97941368   -3.1901228   -1.6790172  0.063620279   -3.1901228    1.5111056   426861 
 3611000    0.9802771   -3.1903991   -1.6778905  0.066814008   -3.1903991    1.5125086   426841 
 3612000   0.98036155   -3.1901821   -1.6774722  0.065650705   -3.1901821    1.5127098   426821 
 3613000    0.9809497   -3.1913594   -1.6776712  0.063274049   -3.1913594    1.5136883   426801 
 3614000   0.97906204   -3.1892724   -1.6784262  0.065882424   -3.1892724    1.5108462   426781 
 3615000   0.97975806   -3.1900958   -1.6781047  0.072008436   -3.1900958    1.5119912   426761 
 3616000   0.98245115    -3.193618   -1.6773997  0.061737551    -3.193618    1.5162183   426741 
 3617000   0.97994871   -3.1895696   -1.6771425  0.066789279   -3.1895696    1.5124271   426721 
 3618000   0.98028438   -3.1913951    -1.678379  0.068156402   -3.1913951    1.5130161   426701 
 3619000   0.97832955   -3.1879992   -1.6779295  0.068419082   -3.1879992    1.5100697   426681 
 3620000   0.97708854   -3.1865028   -1.6782779   0.07350504   -3.1865028    1.5082249   426661 
 3621000   0.97695476   -3.1862045   -1.6781154  0.068699646   -3.1862045    1.5080891   426641 
 3622000   0.97825541   -3.1899421   -1.6797744  0.056632155   -3.1899421    1.5101676   426621 
 3623000   0.97809178   -3.1884712   -1.6784854  0.066226968   -3.1884712    1.5099858   426601 
 3624000    0.9768718   -3.1888603   -1.6806871   0.06864411   -3.1888603    1.5081731   426581 
 3625000   0.97691939   -3.1895159   -1.6811986  0.065772968   -3.1895159    1.5083173   426561 
 3626000   0.97722168   -3.1889311   -1.6800764  0.066654606   -3.1889311    1.5088548   426541 
 3627000   0.97730803   -3.1892285   -1.6801697  0.065196375   -3.1892285    1.5090589   426521 
 3628000   0.97750986   -3.1892391   -1.6797978  0.066265922   -3.1892391    1.5094413   426501 
 3629000   0.97746169   -3.1896423   -1.6802047  0.071430205   -3.1896423    1.5094377   426481 
 3630000   0.97685714   -3.1883262   -1.6797514  0.066155836   -3.1883262    1.5085749   426461 
 3631000   0.97750737   -3.1895367   -1.6798869  0.063947521   -3.1895367    1.5096498   426441 
 3632000   0.97903081   -3.1924067   -1.6803331  0.061162487   -3.1924067    1.5120735   426421 
 3633000   0.97795828   -3.1908653   -1.6803775  0.061557914   -3.1908653    1.5104879   426401 
 3634000   0.97768985    -3.189822   -1.6796779  0.067024624    -3.189822    1.5101441   426381 
 3635000   0.97668805   -3.1886359   -1.6799684  0.069372053   -3.1886359    1.5086675   426361 
 3636000   0.97751292   -3.1898987   -1.6798863  0.065834934   -3.1898987    1.5100125   426341 
 3637000   0.97688608   -3.1892667   -1.6801517   0.06100654   -3.1892667     1.509115   426321 
 3638000   0.97741317    -3.190653    -1.680653  0.068784516    -3.190653    1.5100001   426301 
 3639000   0.97789547   -3.1922605   -1.6814444  0.064960317   -3.1922605     1.510816   426281 
 3640000   0.97875481   -3.1925817   -1.6803671  0.065773562   -3.1925817    1.5122146   426261 
 3641000    0.9786735   -3.1916513   -1.6794913  0.067967331   -3.1916513      1.51216   426241 
 3642000   0.97813288   -3.1927995    -1.681404  0.066599594   -3.1927995    1.5113956   426221 
 3643000   0.97812167   -3.1933081   -1.6818589  0.071590407   -3.1933081    1.5114492   426201 
 3644000   0.97709581   -3.1933896   -1.6834548  0.065664563   -3.1933896    1.5099348   426181 
 3645000   0.97609667   -3.1920329   -1.6835713  0.062744487   -3.1920329    1.5084616   426161 
 3646000   0.97578955   -3.1917245   -1.6836667  0.068020612   -3.1917245    1.5080577   426141 
 3647000   0.97513517   -3.1917707   -1.6846536  0.065671324   -3.1917707    1.5071172   426121 
 3648000   0.97499035    -3.191076    -1.684112  0.065854416    -3.191076    1.5069641   426101 
 3649000   0.97460098   -3.1904397   -1.6840067  0.069359084   -3.1904397     1.506433   426081 
 3650000   0.97625309   -3.1901238   -1.6810664  0.070155777   -3.1901238    1.5090574   426061 
 3651000   0.97424651   -3.1890702   -1.6830438  0.062633766   -3.1890702    1.5060264   426041 
 3652000   0.97678786     -3.19419   -1.6841642  0.064560922     -3.19419    1.5100258   426021 
 3653000   0.97591599   -3.1914811   -1.6827323   0.06768714   -3.1914811    1.5087488   426001 
 3654000   0.97706193   -3.1934876   -1.6828962  0.062343997   -3.1934876    1.5105914   425981 
 3655000   0.97657761   -3.1915624   -1.6816489  0.066284591   -3.1915624    1.5099135   425961 
 3656000   0.97615747   -3.1915058    -1.682171  0.064468707   -3.1915058    1.5093347   425941 
 3657000   0.97584534   -3.1918878   -1.6829648  0.065813834   -3.1918878     1.508923   425921 
 3658000   0.97582358   -3.1918294   -1.6828692  0.070386355   -3.1918294    1.5089602   425901 
 3659000   0.97641222   -3.1934287   -1.6834873  0.064361237   -3.1934287    1.5099413   425881 
 3660000   0.97427464   -3.1906072   -1.6839007  0.065746465   -3.1906072    1.5067065   425861 
 3661000   0.97455817   -3.1918056   -1.6845898  0.064975213   -3.1918056    1.5072158   425841 
 3662000   0.97477896   -3.1920593   -1.6844313  0.063709016   -3.1920593     1.507628   425821 
 3663000   0.97499165   -3.1920375   -1.6840097  0.070107601   -3.1920375    1.5080278   425801 
 3664000   0.97585744   -3.1929414   -1.6835036  0.070040707   -3.1929414    1.5094378   425781 
 3665000   0.97568096   -3.1929539   -1.6837182  0.067910255   -3.1929539    1.5092357   425761 
 3666000   0.97465674   -3.1913333    -1.683611  0.064150006   -3.1913333    1.5077223   425741 
 3667000   0.97379538   -3.1904179   -1.6839573  0.062088353   -3.1904179    1.5064606   425721 
 3668000   0.97484576   -3.1909886   -1.6828323  0.069045724   -3.1909886    1.5081563   425701 
 3669000   0.97368349   -3.1896517   -1.6832227  0.067948676   -3.1896517     1.506429   425681 
 3670000   0.97690195   -3.1941417   -1.6826623  0.063584976   -3.1941417    1.5114795   425661 
 3671000   0.97436385   -3.1902038   -1.6825805  0.064521433   -3.1902038    1.5076233   425641 
 3672000   0.97427754   -3.1909114   -1.6833508  0.067185942   -3.1909114    1.5075606   425621 
 3673000   0.97658103   -3.1936013   -1.6824053  0.062596766   -3.1936013    1.5111959   425601 
 3674000    0.9744323   -3.1892819   -1.6813401  0.067536572   -3.1892819    1.5079418   425581 
 3675000    0.9743601   -3.1908991   -1.6829982  0.064068168   -3.1908991    1.5079009   425561 
 3676000    0.9748631   -3.1915758   -1.6828255  0.063026982   -3.1915758    1.5087502   425541 
 3677000   0.97358899   -3.1907408   -1.6838916  0.066081511   -3.1907408    1.5068492   425521 
 3678000   0.97324347   -3.1902952   -1.6839099  0.066251797   -3.1902952    1.5063852   425501 
 3679000   0.97352155   -3.1920312   -1.6851447  0.062852601   -3.1920312    1.5068865   425481 
 3680000   0.97206826   -3.1898349   -1.6851272  0.067671529   -3.1898349    1.5047077   425461 
 3681000    0.9733762   -3.1917967   -1.6849935  0.063934202   -3.1917967    1.5068031   425441 
 3682000   0.97424863   -3.1930558   -1.6848312  0.060590074   -3.1930558    1.5082246   425421 
 3683000   0.97219919   -3.1904897   -1.6853671  0.065423161   -3.1904897    1.5051226   425401 
 3684000   0.97325729   -3.1916304   -1.6847988  0.067823716   -3.1916304    1.5068316   425381 
 3685000   0.97400023   -3.1932391   -1.6851864  0.065769252   -3.1932391    1.5080527   425361 
 3686000   0.97432435   -3.1938458   -1.6852203  0.062600012   -3.1938458    1.5086255   425341 
 3687000   0.97289555   -3.1920139   -1.6855299  0.067635035   -3.1920139     1.506484   425321 
 3688000   0.97257208   -3.1924164   -1.6863624  0.066942304   -3.1924164    1.5060539   425301 
 3689000   0.97192911   -3.1918983   -1.6867692  0.065182397   -3.1918983    1.5051291   425281 
 3690000   0.97198477   -3.1927134   -1.6874273  0.063382877   -3.1927134     1.505286   425261 
 3691000   0.97398658   -3.1949012   -1.6864441   0.06764197   -3.1949012    1.5084571   425241 
 3692000   0.97256516   -3.1926313   -1.6863047  0.068788306   -3.1926313    1.5063266   425221 
 3693000   0.97419294   -3.1951049   -1.6861862  0.070986847   -3.1951049    1.5089187   425201 
 3694000   0.97343218   -3.1951217   -1.6873105  0.068196004   -3.1951217    1.5078113   425181 
 3695000   0.97437721   -3.1964071    -1.687061  0.067353957   -3.1964071    1.5093461   425161 
 3696000   0.97359295   -3.1945469   -1.6863447  0.067068996   -3.1945469    1.5082022   425141 
 3697000   0.97424936   -3.1944267   -1.6851367  0.070995322   -3.1944267      1.50929   425121 
 3698000   0.97504032   -3.1969473   -1.6863609  0.064647967   -3.1969473    1.5105864   425101 
 3699000   0.97551099   -3.1973856   -1.6859989  0.064703308   -3.1973856    1.5113867   425081 
 3700000     0.975082   -3.1977377   -1.6869445  0.063162083   -3.1977377    1.5107932   425061 
 3701000   0.97314499   -3.1949728   -1.6871099  0.061696104   -3.1949728    1.5078629   425041 
 3702000   0.97236422   -3.1943176   -1.6875936  0.072153753   -3.1943176     1.506724   425021 
 3703000   0.97355401   -3.1956466   -1.6870079   0.06885902   -3.1956466    1.5086387   425001 
 3704000   0.97163231   -3.1933104   -1.6875788  0.068523987   -3.1933104    1.5057316   424981 
 3705000    0.9727495   -3.1955865   -1.6880526  0.063331782   -3.1955865    1.5075338   424961 
 3706000   0.97327938   -3.1964368   -1.6880107  0.062384726   -3.1964368     1.508426   424941 
 3707000    0.9722016   -3.1958611   -1.6890346  0.067627719   -3.1958611    1.5068266   424921 
 3708000   0.97241028   -3.1961648   -1.6889439   0.06867298   -3.1961648    1.5072209   424901 
 3709000   0.97358685   -3.1972801   -1.6881645  0.064901549   -3.1972801    1.5091156   424881 
 3710000   0.97268858   -3.1957879   -1.6879937  0.068256884   -3.1957879    1.5077943   424861 
 3711000   0.97460183   -3.1985779   -1.6877467  0.065907759   -3.1985779    1.5108312   424841 
 3712000   0.97259176   -3.1959754   -1.6881893  0.064770577   -3.1959754    1.5077861   424821 
 3713000    0.9732371    -3.196978   -1.6881204  0.066116066    -3.196978    1.5088576   424801 
 3714000   0.97146408   -3.1947885   -1.6886087  0.066488005   -3.1947885    1.5061797   424781 
 3715000   0.97043699   -3.1929154   -1.6882572  0.066091987   -3.1929154    1.5046581   424761 
 3716000   0.97038347   -3.1955338   -1.6908878   0.06446288   -3.1955338     1.504646   424741 
 3717000   0.97151874    -3.196906   -1.6904288  0.065225113    -3.196906    1.5064773   424721 
 3718000   0.97155948   -3.1964412   -1.6898298   0.06483844   -3.1964412    1.5066114   424701 
 3719000   0.97187771   -3.1956914   -1.6885156  0.064125503   -3.1956914    1.5071758   424681 
 3720000   0.97044643   -3.1947714   -1.6897443  0.066028494   -3.1947714    1.5050271   424661 
 3721000    0.9716263   -3.1972959    -1.690368  0.063577454   -3.1972959    1.5069279   424641 
 3722000   0.97212809    -3.197509   -1.6897319  0.067358853    -3.197509    1.5077771   424621 
 3723000   0.97205496   -3.1962589   -1.6885241  0.070711146   -3.1962589    1.5077347   424601 
 3724000   0.97369087   -3.1995818   -1.6892385   0.06752676   -3.1995818    1.5103433   424581 
 3725000   0.97108508   -3.1955975   -1.6892252  0.064113976   -3.1955975    1.5063723   424561 
 3726000   0.97047398   -3.1962216   -1.6907264  0.063069985   -3.1962216    1.5054953   424541 
 3727000   0.97231095   -3.1978961   -1.6894801   0.06037519   -3.1978961     1.508416   424521 
 3728000   0.97018445   -3.1962747   -1.6910868  0.066568109   -3.1962747    1.5051879   424501 
 3729000   0.97093524   -3.1972954   -1.6908717  0.067839537   -3.1972954    1.5064237   424481 
 3730000   0.96848346   -3.1949247   -1.6922342  0.056801071   -3.1949247    1.5026905   424461 
 3731000   0.97054453   -3.1966887   -1.6907293  0.066244402   -3.1966887    1.5059594   424441 
 3732000   0.97175982   -3.1973016   -1.6893854  0.066407937   -3.1973016    1.5079162   424421 
 3733000   0.97127461   -3.1975569   -1.6903226  0.067090344   -3.1975569    1.5072343   424401 
 3734000   0.97087395   -3.1969798   -1.6902962  0.060480692   -3.1969798    1.5066836   424381 
 3735000   0.96985977   -3.1965126    -1.691332  0.066477421   -3.1965126    1.5051806   424361 
 3736000   0.97052203   -3.1971572   -1.6908778  0.065979761   -3.1971572    1.5062794   424341 
 3737000   0.97091279   -3.1965211   -1.6895642  0.062168562   -3.1965211    1.5069569   424321 
 3738000   0.97060392   -3.1974566   -1.6909081   0.06814145   -3.1974566    1.5065485   424301 
 3739000   0.97081485   -3.1993126   -1.6923657  0.060852457   -3.1993126    1.5069469   424281 
 3740000   0.96914263   -3.1971479   -1.6927258  0.062655166   -3.1971479    1.5044221   424261 
 3741000    0.9696127   -3.1989871   -1.6937643  0.057698569   -3.1989871    1.5052228   424241 
 3742000   0.96952775   -3.1976222   -1.6924603    0.0632096   -3.1976222    1.5051619   424221 
 3743000   0.96943843   -3.1980315   -1.6929374  0.063030082   -3.1980315    1.5050942   424201 
 3744000   0.96849492   -3.1982712   -1.6945709  0.062602441   -3.1982712    1.5037002   424181 
 3745000   0.96861743   -3.1982501   -1.6942888  0.064839106   -3.1982501    1.5039614   424161 
 3746000   0.96876154   -3.1987625   -1.6945064  0.064799302   -3.1987625     1.504256   424141 
 3747000   0.96859091   -3.1981896   -1.6941275  0.067477519   -3.1981896     1.504062   424121 
 3748000   0.96993842   -3.2005383   -1.6943128  0.064093825   -3.2005383    1.5062255   424101 
 3749000   0.96915518   -3.2008829   -1.6958027  0.058965766   -3.2008829    1.5050802   424081 
 3750000   0.96811894   -3.1995162   -1.6959744  0.062528039   -3.1995162    1.5035418   424061 
 3751000   0.96845828   -3.2002776   -1.6961378  0.068010587   -3.2002776    1.5041398   424041 
 3752000   0.97005268   -3.2018313   -1.6951441  0.057810987   -3.2018313    1.5066872   424021 
 3753000   0.96898674    -3.201551   -1.6964484  0.063362922    -3.201551    1.5051025   424001 
 3754000   0.96899324    -3.202664   -1.6974804  0.063708642    -3.202664    1.5051836   423981 
 3755000    0.9696949   -3.2053486    -1.699004  0.065628074   -3.2053486    1.5063446   423961 
 3756000    0.9698338   -3.2052241   -1.6985927  0.061619957   -3.2052241    1.5066314   423941 
 3757000   0.97058178   -3.2050557   -1.6971912  0.061978392   -3.2050557    1.5078646   423921 
 3758000   0.96988431   -3.2058314   -1.6989793   0.06849546   -3.2058314    1.5068521   423901 
 3759000   0.96998516   -3.2066659    -1.699586  0.066153151   -3.2066659    1.5070799   423881 
 3760000   0.96964821   -3.2061166   -1.6994892  0.070817314   -3.2061166    1.5066275   423861 
 3761000   0.96964861   -3.2060155   -1.6993164  0.063718066   -3.2060155    1.5066992   423841 
 3762000   0.96920466    -3.205285   -1.6992046  0.063441497    -3.205285    1.5060804   423821 
 3763000   0.96949077   -3.2051091    -1.698513   0.06537945   -3.2051091    1.5065961   423801 
 3764000   0.96930962   -3.2035668   -1.6971812  0.068048467   -3.2035668    1.5063857   423781 
 3765000   0.96977745   -3.2038916   -1.6967077   0.06213788   -3.2038916    1.5071838   423761 
 3766000   0.97120156     -3.20501   -1.6955417  0.066541376     -3.20501    1.5094684   423741 
 3767000   0.96973789   -3.2047638   -1.6974991  0.060866843   -3.2047638    1.5072646   423721 
 3768000   0.96874629   -3.2035192   -1.6977248  0.067801994   -3.2035192    1.5057945   423701 
 3769000   0.96849447   -3.2047681    -1.699294   0.06035714   -3.2047681    1.5054741   423681 
 3770000   0.96855146   -3.2045513   -1.6989175  0.066705505   -3.2045513    1.5056338   423661 
 3771000   0.96715869     -3.20263   -1.6990904  0.063646279     -3.20263    1.5035396   423641 
 3772000   0.96879448   -3.2036681   -1.6975143  0.061597298   -3.2036681    1.5061537   423621 
 3773000   0.96749404    -3.203256    -1.699053  0.062178277    -3.203256     1.504203   423601 
 3774000   0.96900565   -3.2037233    -1.697099   0.06592071   -3.2037233    1.5066243   423581 
 3775000   0.96801798    -3.204188   -1.6990283  0.063775012    -3.204188    1.5051597   423561 
 3776000   0.96840576   -3.2042608    -1.698427  0.058438406   -3.2042608    1.5058338   423541 
 3777000   0.96711092   -3.2030736   -1.6991822  0.064615749   -3.2030736    1.5038914   423521 
 3778000    0.9670432   -3.2026014   -1.6987443  0.061814762   -3.2026014    1.5038571   423501 
 3779000    0.9661375   -3.2025866    -1.700067  0.061841612   -3.2025866    1.5025196   423481 
 3780000   0.96680252   -3.2040125   -1.7003877  0.055198367   -3.2040125    1.5036248   423461 
 3781000   0.96658323   -3.2014444   -1.6980896  0.061736759   -3.2014444    1.5033548   423441 
 3782000   0.96555748   -3.2016087   -1.6997784  0.059118465   -3.2016087    1.5018303   423421 
 3783000   0.96568253   -3.2015768    -1.699481  0.057292862   -3.2015768    1.5020958   423401 
 3784000   0.96556756   -3.2015329    -1.699545  0.056913648   -3.2015329    1.5019879   423381 
 3785000    0.9663176   -3.2023923   -1.6991667  0.060633535   -3.2023923    1.5032256   423361 
 3786000   0.96726794   -3.2027504   -1.6979754  0.064823098   -3.2027504    1.5047751   423341 
 3787000    0.9667139   -3.2021243   -1.6981401  0.065010045   -3.2021243    1.5039842   423321 
 3788000   0.96745294    -3.203215   -1.6980099  0.064989398    -3.203215    1.5052051   423301 
 3789000   0.96798116   -3.2036463   -1.6975482  0.066208717   -3.2036463    1.5060981   423281 
 3790000   0.96923985   -3.2050092   -1.6968814  0.069667385   -3.2050092    1.5081278   423261 
 3791000   0.96846553   -3.2049069   -1.6979128  0.062969985   -3.2049069    1.5069942   423241 
 3792000   0.96772303   -3.2030204   -1.6971104  0.063876484   -3.2030204    1.5059099   423221 
 3793000   0.97037986   -3.2060587    -1.695943  0.059467732   -3.2060587    1.5101157   423201 
 3794000   0.97043587   -3.2059278   -1.6956536  0.068086434   -3.2059278    1.5102742   423181 
 3795000   0.96856231   -3.2045032   -1.6970735  0.064644597   -3.2045032    1.5074297   423161 
 3796000    0.9689238   -3.2054784   -1.6974149  0.062505697   -3.2054784    1.5080636   423141 
 3797000   0.96815125   -3.2055078   -1.6985754  0.061120379   -3.2055078    1.5069324   423121 
 3798000   0.96642537   -3.2026046   -1.6982875  0.059001464   -3.2026046    1.5043171   423101 
 3799000   0.96690674   -3.2033758   -1.6982383  0.063372256   -3.2033758    1.5051376   423081 
 3800000    0.9656188   -3.2015873   -1.6983836  0.060464031   -3.2015873    1.5032038   423061 
 3801000   0.96472231    -3.200125   -1.6982458  0.058926438    -3.200125    1.5018792   423041 
 3802000   0.96545165   -3.2027665   -1.6996809  0.065283731   -3.2027665    1.5030857   423021 
 3803000   0.96496681    -3.202656   -1.7002541  0.059252626    -3.202656    1.5024019   423001 
 3804000   0.96501379   -3.2031509   -1.7006048   0.06513143   -3.2031509    1.5025461   422981 
 3805000   0.96660841    -3.204406   -1.6993059  0.057163122    -3.204406    1.5051001   422961 
 3806000   0.96535046   -3.2025878   -1.6993754  0.061566627   -3.2025878    1.5032124   422941 
 3807000   0.96599747   -3.2028339   -1.6985429  0.062236932   -3.2028339     1.504291   422921 
 3808000    0.9654245   -3.2021078   -1.6986379   0.06823555   -3.2021078    1.5034699   422901 
 3809000   0.96600098   -3.2018129   -1.6973741   0.06081108   -3.2018129    1.5044388   422881 
 3810000   0.96595067   -3.2027918   -1.6983602  0.068888695   -3.2027918    1.5044316   422861 
 3811000   0.96780282   -3.2053933   -1.6980057  0.062731904   -3.2053933    1.5073875   422841 
 3812000   0.96613537   -3.2034742   -1.6986126  0.068722959   -3.2034742    1.5048616   422821 
 3813000    0.9676183   -3.2040002   -1.6967575  0.067967599   -3.2040002    1.5072427   422801 
 3814000   0.96672736   -3.2041562     -1.69823  0.065216043   -3.2041562    1.5059262   422781 
 3815000   0.96597696   -3.2042554    -1.699427    0.0645408   -3.2042554    1.5048284   422761 
 3816000   0.96530647   -3.2029381    -1.699083  0.070219966   -3.2029381    1.5038551   422741 
 3817000   0.96389804    -3.202855   -1.7011231  0.060702042    -3.202855    1.5017319   422721 
 3818000    0.9658436   -3.2048547   -1.7000205  0.068155554   -3.2048547    1.5048342   422701 
 3819000   0.96528828   -3.2050739   -1.7010337  0.062742116   -3.2050739    1.5040402   422681 
 3820000   0.96518082   -3.2041303   -1.7001864  0.062930477   -3.2041303    1.5039439   422661 
 3821000   0.96462707   -3.2039664   -1.7008142  0.062038026   -3.2039664    1.5031522   422641 
 3822000    0.9636805   -3.2023958   -1.7006475  0.065798669   -3.2023958    1.5017482   422621 
 3823000   0.96536974    -3.205335   -1.7008831  0.059830478    -3.205335    1.5044519   422601 
 3824000   0.96432553   -3.2057712   -1.7028755  0.060438161   -3.2057712    1.5028957   422581 
 3825000   0.96406673   -3.2055468   -1.7029834  0.061839332   -3.2055468    1.5025634   422561 
 3826000   0.96317022   -3.2046606   -1.7034234  0.059484324   -3.2046606    1.5012372   422541 
 3827000   0.96325839   -3.2056675   -1.7042218  0.067313719   -3.2056675    1.5014457   422521 
 3828000    0.9629055   -3.2054803   -1.7045136  0.064614366   -3.2054803    1.5009667   422501 
 3829000   0.96563328   -3.2095556   -1.7042656  0.065277275   -3.2095556      1.50529   422481 
 3830000   0.96483835   -3.2085634   -1.7044414  0.059114981   -3.2085634     1.504122   422461 
 3831000   0.96300946   -3.2051617   -1.7038197  0.068283141   -3.2051617     1.501342   422441 
 3832000   0.96437581   -3.2078544   -1.7043111  0.065952883   -3.2078544    1.5035433   422421 
 3833000   0.96562822   -3.2100687   -1.7045015  0.064547334   -3.2100687    1.5055672   422401 
 3834000   0.96582489   -3.2108382    -1.704893  0.059877313   -3.2108382    1.5059451   422381 
 3835000   0.96591914   -3.2101702   -1.7040068  0.065695621   -3.2101702    1.5061634   422361 
 3836000   0.96463051   -3.2080824   -1.7038571   0.06718757   -3.2080824    1.5042253   422341 
 3837000    0.9642529    -3.208029   -1.7043214  0.067730404    -3.208029    1.5037077   422321 
 3838000   0.96345578    -3.207213   -1.7046773  0.065461319    -3.207213    1.5025357   422301 
 3839000   0.96241236   -3.2069718   -1.7059922  0.064798546   -3.2069718    1.5009796   422281 
 3840000    0.9632079   -3.2085856   -1.7062941  0.070696123   -3.2085856    1.5022915   422261 
 3841000   0.96506675   -3.2115317   -1.7062697  0.056891697   -3.2115317     1.505262   422241 
 3842000     0.963419   -3.2088356   -1.7060726  0.068238522   -3.2088356    1.5027631   422221 
 3843000   0.96586075   -3.2104034   -1.7037603  0.064453699   -3.2104034    1.5066431   422201 
 3844000   0.96317627   -3.2079036   -1.7053769  0.065183296   -3.2079036    1.5025268   422181 
 3845000   0.96356994   -3.2091639   -1.7059518   0.06438339   -3.2091639    1.5032121   422161 
 3846000    0.9647212   -3.2103249   -1.7052454  0.060235397   -3.2103249    1.5050794   422141 
 3847000   0.96465909   -3.2105271   -1.7054733  0.061297317   -3.2105271    1.5050538   422121 
 3848000   0.96415759   -3.2092136   -1.7048709  0.060908091   -3.2092136    1.5043427   422101 
 3849000    0.9627341   -3.2079214   -1.7057285  0.063795112   -3.2079214    1.5021928   422081 
 3850000   0.96243931   -3.2064649   -1.7046609  0.058854229   -3.2064649     1.501804   422061 
 3851000   0.96238758   -3.2063403   -1.7045458   0.05808572   -3.2063403    1.5017945   422041 
 3852000   0.96081329   -3.2048764   -1.7054676  0.063026971   -3.2048764    1.4994089   422021 
 3853000   0.96144119   -3.2042233   -1.7037635   0.06597681   -3.2042233    1.5004598   422001 
 3854000   0.96145498   -3.2054801   -1.7049276  0.061465113   -3.2054801    1.5005525   421981 
 3855000   0.96113799   -3.2055636   -1.7054347  0.062071396   -3.2055636    1.5001288   421961 
 3856000   0.96058987   -3.2050466   -1.7057022    0.0552252   -3.2050466    1.4993444   421941 
 3857000   0.96102777   -3.2049843   -1.7048853  0.057564486   -3.2049843     1.500099   421921 
 3858000   0.96151554   -3.2054065    -1.704475  0.060721148   -3.2054065    1.5009315   421901 
 3859000   0.96209939   -3.2052588   -1.7033446  0.059965959   -3.2052588    1.5019141   421881 
 3860000   0.96192472    -3.204433   -1.7027203   0.06221996    -3.204433    1.5017127   421861 
 3861000   0.96146103   -3.2051708   -1.7041109  0.059571407   -3.2051708    1.5010599   421841 
 3862000   0.96290169   -3.2081523   -1.7047719  0.059938613   -3.2081523    1.5033804   421821 
 3863000   0.96044541   -3.2050241   -1.7054076  0.063692216   -3.2050241    1.4996165   421801 
 3864000   0.96111655   -3.2054734   -1.7047378  0.063230003   -3.2054734    1.5007356   421781 
 3865000   0.96197502   -3.2074557   -1.7053084  0.062045524   -3.2074557    1.5021473   421761 
 3866000    0.9629261   -3.2092132   -1.7055095  0.055574051   -3.2092132    1.5037037   421741 
 3867000   0.96130971   -3.2080086   -1.7067578  0.061345678   -3.2080086    1.5012507   421721 
 3868000   0.96103722   -3.2075464     -1.70665  0.060732297   -3.2075464    1.5008964   421701 
 3869000   0.96261088   -3.2101795   -1.7067542  0.061889308   -3.2101795    1.5034253   421681 
 3870000   0.96146578   -3.2091613   -1.7074532  0.062122973   -3.2091613    1.5017081   421661 
 3871000   0.96198546   -3.2094822   -1.7068911  0.066514847   -3.2094822    1.5025911   421641 
 3872000   0.96110328   -3.2081702   -1.7068858   0.06976885   -3.2081702    1.5012844   421621 
 3873000   0.96310515   -3.2115643   -1.7070816  0.059360002   -3.2115643    1.5044827   421601 
 3874000   0.96416884   -3.2121139   -1.7058981  0.063262537   -3.2121139    1.5062158   421581 
 3875000   0.96364717   -3.2115264   -1.7060541  0.059702442   -3.2115264    1.5054723   421561 
 3876000   0.96417134   -3.2128594   -1.7064968  0.067776869   -3.2128594    1.5063626   421541 
 3877000   0.96471255     -3.21475   -1.7074703  0.063550516     -3.21475    1.5072797   421521 
 3878000   0.96292813    -3.211315   -1.7067519   0.06486171    -3.211315    1.5045631   421501 
 3879000   0.96383403   -3.2127836   -1.7067336  0.068735957   -3.2127836      1.50605   421481 
 3880000   0.96165981   -3.2114917   -1.7087677  0.069388283   -3.2114917    1.5027239   421461 
 3881000     0.962532   -3.2126593    -1.708501  0.071475032   -3.2126593    1.5041582   421441 
 3882000   0.96305337   -3.2124099   -1.7073655  0.067612976   -3.2124099    1.5050444   421421 
 3883000   0.96128993   -3.2103161   -1.7079563  0.062438674   -3.2103161    1.5023598   421401 
 3884000   0.96159675    -3.211401   -1.7084904  0.064668625    -3.211401    1.5029107   421381 
 3885000    0.9615012   -3.2108532   -1.7080205  0.061937638   -3.2108532    1.5028327   421361 
 3886000   0.96098176   -3.2105729   -1.7084808  0.064937235   -3.2105729    1.5020921   421341 
 3887000   0.96158815   -3.2116025   -1.7084912  0.066216235   -3.2116025    1.5031113   421321 
 3888000   0.96209837   -3.2118225   -1.7078423  0.062904837   -3.2118225    1.5039802   421301 
 3889000    0.9602196   -3.2094051   -1.7082906  0.062016269   -3.2094051    1.5011145   421281 
 3890000   0.96071045   -3.2110193   -1.7090661  0.057101611   -3.2110193    1.5019532   421261 
 3891000   0.96011935   -3.2096799   -1.7085796  0.054853119   -3.2096799    1.5011003   421241 
 3892000   0.95875007    -3.206985   -1.7079543  0.057511024    -3.206985    1.4990307   421221 
 3893000   0.95991997    -3.208212   -1.7072808  0.062924531    -3.208212    1.5009311   421201 
 3894000   0.96018509   -3.2085615   -1.7071446  0.057806589   -3.2085615     1.501417   421181 
 3895000   0.96049287   -3.2092405   -1.7072709  0.058007218   -3.2092405    1.5019696   421161 
 3896000   0.96012254   -3.2090505   -1.7075887  0.055975259   -3.2090505    1.5014618   421141 
 3897000   0.95985666   -3.2093564   -1.7082392  0.062304693   -3.2093564    1.5011172   421121 
 3898000   0.96127853    -3.211443   -1.7080307  0.059049985    -3.211443    1.5034123   421101 
 3899000   0.95964616   -3.2088675   -1.7079368  0.066659883   -3.2088675    1.5009306   421081 
 3900000   0.95927373   -3.2091394     -1.70872    0.0629498   -3.2091394    1.5004194   421061 
 3901000   0.95905365   -3.2084129   -1.7082665  0.062143377   -3.2084129    1.5001464   421041 
 3902000    0.9596681   -3.2086144   -1.7074356  0.063075543   -3.2086144    1.5011788   421021 
 3903000   0.96052969   -3.2088785   -1.7062805  0.067033391   -3.2088785     1.502598   421001 
 3904000   0.96119844   -3.2101686   -1.7064531  0.062156576   -3.2101686    1.5037156   420981 
 3905000   0.96210049   -3.2122439   -1.7070457  0.061138204   -3.2122439    1.5051983   420961 
 3906000   0.96273041   -3.2118916   -1.7056362  0.058134958   -3.2118916    1.5062553   420941 
 3907000   0.96179194   -3.2125457   -1.7076871  0.066995545   -3.2125457    1.5048585   420921 
 3908000   0.96016356   -3.2111509   -1.7087688  0.067701644   -3.2111509    1.5023821   420901 
 3909000   0.96175578   -3.2126482   -1.7077033  0.069470393   -3.2126482     1.504945   420881 
 3910000   0.96199718   -3.2130112    -1.707617  0.063339498   -3.2130112    1.5053942   420861 
 3911000   0.96159678   -3.2110448   -1.7062056  0.068279404   -3.2110448    1.5048392   420841 
 3912000   0.95999607   -3.2098862   -1.7074806  0.065422567   -3.2098862    1.5024056   420821 
 3913000   0.95974239    -3.210832   -1.7087521  0.059464089    -3.210832    1.5020799   420801 
 3914000   0.96054893   -3.2126649   -1.7092512  0.058549787   -3.2126649    1.5034137   420781 
 3915000   0.95989974   -3.2117938   -1.7093247  0.063592341   -3.2117938     1.502469   420761 
 3916000   0.95808137    -3.209557   -1.7098629  0.064153135    -3.209557    1.4996941   420741 
 3917000   0.95844179   -3.2097591   -1.7094295  0.064342118   -3.2097591    1.5003296   420721 
 3918000   0.95973194   -3.2117289   -1.7093083  0.058109915   -3.2117289    1.5024206   420701 
 3919000   0.95951249   -3.2119243   -1.7097758  0.056439048   -3.2119243    1.5021485   420681 
 3920000   0.95910868   -3.2121164   -1.7105287  0.060758651   -3.2121164    1.5015877   420661 
 3921000   0.95882457    -3.211141   -1.7099267  0.063382557    -3.211141    1.5012143   420641 
 3922000   0.95788337    -3.211315    -1.711503  0.056313451    -3.211315     1.499812   420621 
 3923000    0.9586645    -3.211434   -1.7103276  0.061037251    -3.211434    1.5011064   420601 
 3924000      0.95796   -3.2109649   -1.7108903  0.057203635   -3.2109649    1.5000746   420581 
 3925000   0.95831012   -3.2117606   -1.7110664  0.055157504   -3.2117606    1.5006942   420561 
 3926000   0.95718927   -3.2103247   -1.7113144  0.057638802   -3.2103247    1.4990103   420541 
 3927000   0.95935862     -3.21309   -1.7106109   0.06137523     -3.21309    1.5024791   420521 
 3928000   0.95720058   -3.2111113   -1.7119407  0.064128888   -3.2111113    1.4991706   420501 
 3929000   0.95833808   -3.2125521   -1.7115286  0.057012153   -3.2125521    1.5010235   420481 
 3930000    0.9571711   -3.2105299   -1.7112629  0.065325286   -3.2105299     1.499267   420461 
 3931000   0.95885746   -3.2118079   -1.7098279  0.059972698   -3.2118079    1.5019799   420441 
 3932000   0.95831253   -3.2118046   -1.7106068   0.06880454   -3.2118046    1.5011977   420421 
 3933000   0.95990933   -3.2133569   -1.7095862  0.061942276   -3.2133569    1.5037706   420401 
 3934000    0.9589115   -3.2130796   -1.7108007  0.060024234   -3.2130796    1.5022789   420381 
 3935000   0.95936549   -3.2153243   -1.7122626  0.065856982   -3.2153243    1.5030617   420361 
 3936000   0.95879312   -3.2143355   -1.7120991  0.062319816   -3.2143355    1.5022364   420341 
 3937000   0.95881305   -3.2138698   -1.7115306  0.063828538   -3.2138698    1.5023391   420321 
 3938000   0.95965376   -3.2153706   -1.7116426  0.065534446   -3.2153706     1.503728   420301 
 3939000   0.95895524   -3.2159655   -1.7132606  0.067991617   -3.2159655    1.5027049   420281 
 3940000   0.95965612   -3.2166141   -1.7127393  0.065970428   -3.2166141    1.5038748   420261 
 3941000   0.95838856   -3.2149941   -1.7130343  0.062317727   -3.2149941    1.5019599   420241 
 3942000   0.95711384   -3.2127562   -1.7127226  0.063660411   -3.2127562    1.5000336   420221 
 3943000   0.95688722   -3.2135226   -1.7137728  0.068337453   -3.2135226    1.4997498   420201 
 3944000   0.95810379    -3.214576    -1.712848  0.059735745    -3.214576     1.501728   420181 
 3945000   0.95761143   -3.2140375   -1.7130097  0.066561935   -3.2140375    1.5010277   420161 
 3946000   0.95753991   -3.2143167   -1.7133296  0.057411606   -3.2143167    1.5009871   420141 
 3947000   0.95782018   -3.2152838   -1.7137859  0.057277469   -3.2152838    1.5014979   420121 
 3948000   0.95783864   -3.2145706   -1.7129723  0.063661634   -3.2145706    1.5015983   420101 
 3949000   0.95853624   -3.2166687   -1.7139052  0.058110804   -3.2166687    1.5027635   420081 
 3950000   0.95827884   -3.2152522   -1.7128207  0.059484967   -3.2152522    1.5024315   420061 
 3951000   0.95785503   -3.2149036   -1.7130651  0.061071759   -3.2149036    1.5018385   420041 
 3952000   0.95781837   -3.2150341   -1.7131816  0.061608775   -3.2150341    1.5018525   420021 
 3953000    0.9569233    -3.214852   -1.7143315  0.058509262    -3.214852    1.5005205   420001 
 3954000   0.95619668   -3.2132201   -1.7137675  0.059730054   -3.2132201    1.4994525   419981 
 3955000   0.95652012    -3.214895   -1.7148639  0.057383905    -3.214895    1.5000312   419961 
 3956000   0.95577321   -3.2124668   -1.7135355   0.05811136   -3.2124668    1.4989312   419941 
 3957000   0.95605248   -3.2137264   -1.7142858  0.057326346   -3.2137264    1.4994406   419921 
 3958000     0.955033   -3.2127323   -1.7148193  0.062880771   -3.2127323     1.497913   419901 
 3959000   0.95668446   -3.2137026   -1.7131279  0.060624865   -3.2137026    1.5005747   419881 
 3960000   0.95636068   -3.2137828   -1.7136445  0.065258204   -3.2137828    1.5001383   419861 
 3961000   0.95648291   -3.2142742   -1.7138727  0.064964012   -3.2142742    1.5004015   419841 
 3962000   0.95699422   -3.2146588   -1.7133837  0.061709388   -3.2146588    1.5012751   419821 
 3963000   0.95761273   -3.2152459   -1.7129289  0.065191773   -3.2152459     1.502317   419801 
 3964000   0.95755783   -3.2150752   -1.7127728  0.065916354   -3.2150752    1.5023024   419781 
 3965000   0.95690314    -3.215178   -1.7138312  0.062659282    -3.215178    1.5013468   419761 
 3966000   0.95721891   -3.2158578    -1.713944  0.057222495   -3.2158578    1.5019138   419741 
 3967000   0.95723951   -3.2163464   -1.7143287  0.061616237   -3.2163464    1.5020177   419721 
 3968000   0.95675319   -3.2145845   -1.7132583  0.065073757   -3.2145845    1.5013261   419701 
 3969000   0.95666979   -3.2154089   -1.7141421  0.064800454   -3.2154089    1.5012668   419681 
 3970000   0.95597771   -3.2148051   -1.7145528   0.06388601   -3.2148051    1.5002523   419661 
 3971000   0.95673336   -3.2160021   -1.7144924  0.064460627   -3.2160021    1.5015097   419641 
 3972000    0.9562952   -3.2161737   -1.7152801  0.064114186   -3.2161737    1.5008936   419621 
 3973000   0.95786105   -3.2167612   -1.7133384  0.060205169   -3.2167612    1.5034228   419601 
 3974000   0.95772723   -3.2160046   -1.7127202  0.068711447   -3.2160046    1.5032844   419581 
 3975000   0.95869075   -3.2167726   -1.7119041  0.064700979   -3.2167726    1.5048685   419561 
 3976000   0.95941279   -3.2169019   -1.7108282  0.066404698   -3.2169019    1.5060737   419541 
 3977000   0.95791417   -3.2154825   -1.7116896  0.065886618   -3.2154825    1.5037929   419521 
 3978000   0.95728809   -3.2147717     -1.71189  0.065398925   -3.2147717    1.5028817   419501 
 3979000   0.95729259   -3.2136649   -1.7107045  0.068817844   -3.2136649    1.5029604   419481 
 3980000   0.95739414   -3.2151006   -1.7119091  0.064719233   -3.2151006    1.5031915   419461 
 3981000   0.95600836   -3.2142308   -1.7131435  0.064623144   -3.2142308    1.5010873   419441 
 3982000   0.95641997   -3.2137419   -1.7119367  0.064460227   -3.2137419    1.5018052   419421 
 3983000   0.95351081   -3.2093857   -1.7120772  0.064106267   -3.2093857    1.4973085   419401 
 3984000   0.95546192   -3.2125784   -1.7121345  0.060683901   -3.2125784    1.5004439   419381 
 3985000   0.95512828   -3.2103007   -1.7103092   0.06326894   -3.2103007    1.4999915   419361 
 3986000   0.95434808   -3.2098684   -1.7110307  0.058705337   -3.2098684    1.4988377   419341 
 3987000   0.95530457   -3.2114492   -1.7110377  0.062088383   -3.2114492    1.5004115   419321 
 3988000   0.95492253   -3.2113585   -1.7114755  0.059753775   -3.2113585     1.499883   419301 
 3989000   0.95495944   -3.2115169   -1.7115044  0.059598705   -3.2115169    1.5000125   419281 
 3990000    0.9547325   -3.2103257   -1.7105982  0.059255783   -3.2103257    1.4997276   419261 
 3991000   0.95349234   -3.2079204   -1.7100695  0.064688768   -3.2079204    1.4978509   419241 
 3992000   0.95407167   -3.2102125   -1.7113799  0.059377569   -3.2102125    1.4988325   419221 
 3993000   0.95523154   -3.2102656   -1.7095394  0.062028176   -3.2102656    1.5007262   419201 
 3994000   0.95473006   -3.2103951   -1.7103851   0.06032035   -3.2103951    1.5000099   419181 
 3995000   0.95238726   -3.2068678   -1.7104674  0.057816511   -3.2068678    1.4964005   419161 
 3996000   0.95399685    -3.209945   -1.7109439  0.056287007    -3.209945     1.499001   419141 
 3997000   0.95290517   -3.2098193   -1.7124622  0.055904954   -3.2098193    1.4973571   419121 
 3998000   0.95307273   -3.2099498   -1.7122579  0.060464419   -3.2099498    1.4976919   419101 
 3999000   0.95457772   -3.2114937   -1.7113652  0.057990444   -3.2114937    1.5001285   419081 
 4000000   0.95417207   -3.2106197   -1.7110571  0.061675871   -3.2106197    1.4995626   419061 
 4001000   0.95732283   -3.2141036   -1.7095176  0.061480669   -3.2141036     1.504586   419041 
 4002000   0.95665187   -3.2124932   -1.7088899  0.067516101   -3.2124932    1.5036033   419021 
 4003000     0.957558    -3.215398   -1.7102986  0.060641404    -3.215398    1.5050993   419001 
 4004000   0.95570437   -3.2120589   -1.7098014   0.06013819   -3.2120589    1.5022575   418981 
 4005000   0.95754839   -3.2142795   -1.7090516  0.061017189   -3.2142795    1.5052279   418961 
 4006000   0.95670826   -3.2143005   -1.7103214  0.058286027   -3.2143005    1.5039791   418941 
 4007000    0.9567188   -3.2132578   -1.7091904  0.066779874   -3.2132578    1.5040674   418921 
 4008000   0.95652333   -3.2144787   -1.7106468  0.067786635   -3.2144787    1.5038319   418901 
 4009000   0.95602254   -3.2146234    -1.711507  0.061565615   -3.2146234    1.5031164   418881 
 4010000   0.95433339   -3.2131827   -1.7126504  0.062288732   -3.2131827    1.5005322   418861 
 4011000   0.95546324   -3.2142568   -1.7118763  0.063069912   -3.2142568    1.5023805   418841 
 4012000   0.95524087   -3.2140988   -1.7119962  0.070466658   -3.2140988    1.5021025   418821 
 4013000   0.95567194   -3.2147235   -1.7118713  0.067238556   -3.2147235    1.5028521   418801 
 4014000   0.95530937   -3.2147266   -1.7123729  0.062938942   -3.2147266    1.5023537   418781 
 4015000   0.95707242   -3.2185428   -1.7133446  0.062939487   -3.2185428    1.5051983   418761 
 4016000   0.95594868   -3.2178158    -1.714313  0.063846839   -3.2178158    1.5035027   418741 
 4017000   0.95484244   -3.2170776    -1.715243  0.066575707   -3.2170776    1.5018346   418721 
 4018000   0.95294524   -3.2146939   -1.7157718  0.064213656   -3.2146939    1.4989222   418701 
 4019000   0.95607926   -3.2178931   -1.7139695  0.055195182   -3.2178931    1.5039236   418681 
 4020000   0.95393735   -3.2153918   -1.7147658  0.065621714   -3.2153918     1.500626   418661 
 4021000   0.95278531   -3.2145627   -1.7156773  0.063856162   -3.2145627    1.4988854   418641 
 4022000   0.95378853   -3.2155748   -1.7150395  0.060080571   -3.2155748    1.5005353   418621 
 4023000    0.9529696   -3.2156878   -1.7163692  0.063751732   -3.2156878    1.4993186   418601 
 4024000   0.95291872   -3.2159022    -1.716592  0.060529512   -3.2159022    1.4993101   418581 
 4025000   0.95253633    -3.214953   -1.7161729  0.068265721    -3.214953    1.4987801   418561 
 4026000   0.95339279   -3.2164029   -1.7162035  0.060678014   -3.2164029    1.5001994   418541 
 4027000   0.95405449   -3.2160866   -1.7147743  0.060565189   -3.2160866    1.5013124   418521 
 4028000   0.95414011   -3.2164447   -1.7149258  0.059762396   -3.2164447    1.5015188   418501 
 4029000   0.95420664    -3.217088   -1.7153927  0.058818604    -3.217088    1.5016953   418481 
 4030000   0.95450194   -3.2161433   -1.7139115  0.062756667   -3.2161433    1.5022318   418461 
 4031000   0.95364158   -3.2141588   -1.7132093  0.057753315   -3.2141588    1.5009495   418441 
 4032000   0.95538898   -3.2173198   -1.7135482  0.065693301   -3.2173198    1.5037716   418421 
 4033000   0.95505644   -3.2160781    -1.712758  0.064503483   -3.2160781    1.5033201   418401 
 4034000   0.95522272   -3.2166049   -1.7129512  0.061983334   -3.2166049    1.5036537   418381 
 4035000   0.95418165   -3.2142442   -1.7121575  0.064077925   -3.2142442    1.5020867   418361 
 4036000   0.95459727   -3.2157845   -1.7129717  0.062792501   -3.2157845    1.5028128   418341 
 4037000    0.9532621   -3.2146709   -1.7138883  0.056244285   -3.2146709    1.5007826   418321 
 4038000   0.95213541   -3.2152337   -1.7161533  0.059576422   -3.2152337    1.4990805   418301 
 4039000   0.95092412   -3.2132385   -1.7159935  0.059300298   -3.2132385     1.497245   418281 
 4040000   0.95245037   -3.2156629   -1.7159432   0.05181953   -3.2156629    1.4997198   418261 
 4041000    0.9522328   -3.2139156   -1.7144667  0.056788212   -3.2139156    1.4994489   418241 
 4042000   0.95421748   -3.2176671   -1.7150211  0.060548816   -3.2176671    1.5026459   418221 
 4043000   0.95263235   -3.2168812   -1.7166597  0.058682401   -3.2168812    1.5002215   418201 
 4044000   0.95199905   -3.2137007   -1.7144048  0.057268123   -3.2137007    1.4992959   418181 
 4045000   0.95075688   -3.2128299   -1.7154187  0.066546148   -3.2128299    1.4974112   418161 
 4046000   0.95223274   -3.2158721   -1.7160648  0.059048347   -3.2158721    1.4998074   418141 
 4047000   0.95426107   -3.2182776   -1.7152036   0.06245988   -3.2182776     1.503074   418121 
 4048000   0.95283207   -3.2141505   -1.7132556  0.061401593   -3.2141505    1.5008949   418101 
 4049000   0.95257325    -3.214432   -1.7138729  0.065436613    -3.214432     1.500559   418081 
 4050000    0.9519755    -3.215303   -1.7156138  0.061883077    -3.215303    1.4996891   418061 
 4051000   0.95324352   -3.2163765    -1.714618  0.065816191   -3.2163765    1.5017586   418041 
 4052000   0.95343762   -3.2173128   -1.7151765  0.063282781   -3.2173128    1.5021362   418021 
 4053000   0.95382308   -3.2179427   -1.7151273  0.057125877   -3.2179427    1.5028154   418001 
 4054000   0.95274756    -3.216358   -1.7151654  0.061151397    -3.216358    1.5011927   417981 
 4055000   0.95192892   -3.2164185    -1.716444  0.061336647   -3.2164185    1.4999746   417961 
 4056000   0.95249376   -3.2179025   -1.7169661   0.06318247   -3.2179025    1.5009364   417941 
 4057000   0.95284701   -3.2186282   -1.7170633  0.059016685   -3.2186282    1.5015649   417921 
 4058000   0.95103856   -3.2154216   -1.7166348  0.056923404   -3.2154216    1.4987868   417901 
 4059000   0.95130554    -3.216524   -1.7172448  0.060763435    -3.216524    1.4992793   417881 
 4060000   0.95134799   -3.2162306   -1.7168127  0.061748877   -3.2162306    1.4994179   417861 
 4061000   0.95334104   -3.2189608   -1.7163297   0.05950233   -3.2189608    1.5026311   417841 
 4062000   0.95202044   -3.2180583   -1.7174368   0.06151522   -3.2180583    1.5006214   417821 
 4063000   0.95307722   -3.2181656   -1.7158065  0.065826788   -3.2181656    1.5023591   417801 
 4064000   0.95255734   -3.2187929   -1.7171814  0.066384515   -3.2187929    1.5016115   417781 
 4065000    0.9529303   -3.2206212   -1.7183498   0.06570465   -3.2206212    1.5022713   417761 
 4066000   0.95311825   -3.2214012   -1.7187616   0.05861065   -3.2214012    1.5026395   417741 
 4067000    0.9519661   -3.2191986   -1.7183036  0.059773288   -3.2191986     1.500895   417721 
 4068000    0.9529851    -3.219572   -1.7169985  0.059337663    -3.219572    1.5025735   417701 
 4069000   0.95191205   -3.2201388   -1.7191853  0.065114157   -3.2201388    1.5009535   417681 
 4070000   0.95245698   -3.2205083   -1.7186236  0.061392595   -3.2205083    1.5018847   417661 
 4071000   0.95188802   -3.2210022   -1.7199428  0.060549679   -3.2210022    1.5010594   417641 
 4072000   0.95106499   -3.2193192   -1.7194858  0.059705845   -3.2193192    1.4998333   417621 
 4073000   0.95119788   -3.2207785   -1.7206638  0.063916097   -3.2207785    1.5001147   417601 
 4074000   0.95119829   -3.2221798   -1.7219926  0.060242538   -3.2221798    1.5001872   417581 
 4075000   0.95098753   -3.2212443   -1.7213177  0.060169495   -3.2212443    1.4999267   417561 
 4076000   0.95191096   -3.2220803   -1.7206253  0.064101283   -3.2220803     1.501455   417541 
 4077000   0.95228596   -3.2227236   -1.7206051  0.062064809   -3.2227236    1.5021185   417521 
 4078000   0.94874181   -3.2180182   -1.7214185  0.062946777   -3.2180182    1.4965997   417501 
 4079000   0.94989448   -3.2180593   -1.7195696  0.060210534   -3.2180593    1.4984898   417481 
 4080000   0.94923365   -3.2188698   -1.7213508  0.062705078   -3.2188698     1.497519   417461 
 4081000   0.95051981   -3.2222428   -1.7226229  0.060848834   -3.2222428    1.4996199   417441 
 4082000   0.95131546   -3.2235043   -1.7225572  0.061539224   -3.2235043    1.5009471   417421 
 4083000   0.95058667   -3.2214147   -1.7215455  0.067080554   -3.2214147    1.4998691   417401 
 4084000   0.94875716   -3.2199882    -1.722934  0.060169207   -3.2199882    1.4970542   417381 
 4085000   0.94842826    -3.219321    -1.722714  0.063113772    -3.219321    1.4966069   417361 
 4086000   0.94902913   -3.2195638   -1.7219369  0.063564355   -3.2195638    1.4976269   417341 
 4087000   0.94960613    -3.221094   -1.7224847  0.060466916    -3.221094    1.4986092   417321 
 4088000   0.94889419   -3.2190196   -1.7214622   0.05870644   -3.2190196    1.4975575   417301 
 4089000    0.9490691   -3.2197332    -1.721828  0.054754269   -3.2197332    1.4979053   417281 
 4090000   0.94837045   -3.2192761   -1.7224018  0.058937409   -3.2192761    1.4968744   417261 
 4091000   0.94874174   -3.2187564   -1.7212242  0.063865875   -3.2187564    1.4975322   417241 
 4092000   0.94851175   -3.2192656   -1.7220247  0.058959841   -3.2192656    1.4972409   417221 
 4093000   0.94915789   -3.2198936   -1.7215609  0.059184281   -3.2198936    1.4983327   417201 
 4094000   0.94931906   -3.2192685   -1.7206096  0.067264218   -3.2192685     1.498659   417181 
 4095000   0.95022664   -3.2198419   -1.7196782  0.054993963   -3.2198419    1.5001636   417161 
 4096000   0.94962838   -3.2197922   -1.7205011  0.060520828   -3.2197922     1.499291   417141 
 4097000   0.95033811   -3.2199041   -1.7194206  0.059026667   -3.2199041    1.5004835   417121 
 4098000   0.95053214   -3.2202492   -1.7193874   0.06102324   -3.2202492    1.5008618   417101 
 4099000   0.94938078   -3.2208586   -1.7217429  0.060524392   -3.2208586    1.4991157   417081 
 4100000    0.9501077   -3.2202636   -1.7199281  0.060957119   -3.2202636    1.5003355   417061 
 4101000    0.9502751   -3.2207218     -1.72005  0.057924574   -3.2207218    1.5006718   417041 
 4102000   0.94966206   -3.2194289   -1.7196532  0.056996466   -3.2194289    1.4997756   417021 
 4103000   0.94943254   -3.2180189   -1.7185338  0.057899345   -3.2180189    1.4994851   417001 
 4104000    0.9471868   -3.2148108   -1.7188008  0.059341642   -3.2148108      1.49601   416981 
 4105000   0.94814365   -3.2155965   -1.7180034  0.065978203   -3.2155965    1.4975931   416961 
 4106000   0.94881616   -3.2179941   -1.7192669  0.059382349   -3.2179941    1.4987272   416941 
 4107000   0.94968057   -3.2190479   -1.7188833  0.062100267   -3.2190479    1.5001646   416921 
 4108000   0.95009385   -3.2183771   -1.7174877  0.064455786   -3.2183771    1.5008894   416901 
 4109000   0.94929827   -3.2191708   -1.7194662   0.05680351   -3.2191708    1.4997046   416881 
 4110000   0.94959707   -3.2207592   -1.7205106  0.053347954   -3.2207592    1.5002486   416861 
 4111000   0.94693699   -3.2170595   -1.7209418  0.060864345   -3.2170595    1.4961178   416841 
 4112000   0.94721399    -3.217517   -1.7208898   0.05928927    -3.217517    1.4966272   416821 
 4113000   0.94674298    -3.215734   -1.7197792  0.057757836    -3.215734    1.4959548   416801 
 4114000   0.94702469   -3.2183911   -1.7219194  0.063794487   -3.2183911    1.4964718   416781 
 4115000   0.94729193   -3.2193491   -1.7223833  0.060106369   -3.2193491    1.4969659   416761 
 4116000   0.94764636   -3.2201338    -1.722536  0.054032844   -3.2201338    1.4975978   416741 
 4117000   0.94769518   -3.2204401   -1.7226933  0.057092201   -3.2204401    1.4977469   416721 
 4118000   0.94710724    -3.218764   -1.7218745  0.058536922    -3.218764    1.4968895   416701 
 4119000   0.94853044   -3.2197677   -1.7205569  0.060984499   -3.2197677    1.4992108   416681 
 4120000   0.94749736   -3.2189117   -1.7212619   0.06162969   -3.2189117    1.4976499   416661 
 4121000   0.94758425   -3.2210718   -1.7232127   0.05917148   -3.2210718    1.4978591   416641 
 4122000   0.94694753   -3.2198416   -1.7229172  0.055760169   -3.2198416    1.4969245   416621 
 4123000   0.94742411   -3.2210251   -1.7232753  0.060457996   -3.2210251    1.4977497   416601 
 4124000   0.94841246   -3.2221709   -1.7227867   0.05962656   -3.2221709    1.4993842   416581 
 4125000   0.94838528   -3.2235426   -1.7241294  0.062664887   -3.2235426    1.4994132   416561 
 4126000   0.94784647   -3.2208582   -1.7222249  0.062661231   -3.2208582    1.4986333   416541 
 4127000   0.94765158   -3.2222335   -1.7238364  0.059958653   -3.2222335    1.4983971   416521 
 4128000    0.9474628    -3.223199   -1.7250285  0.058656348    -3.223199    1.4981705   416501 
 4129000   0.94747188   -3.2242267   -1.7259699  0.057896467   -3.2242267    1.4982568   416481 
 4130000   0.94759829   -3.2240966   -1.7255679  0.057522579   -3.2240966    1.4985287   416461 
 4131000   0.94681252   -3.2243994   -1.7270414  0.054985142   -3.2243994     1.497358   416441 
 4132000   0.94692559   -3.2244447    -1.726836  0.059378161   -3.2244447    1.4976087   416421 
 4133000   0.94554349   -3.2225119   -1.7270172  0.062896801   -3.2225119    1.4954947   416401 
 4134000   0.94544987   -3.2239775    -1.728559  0.056400429   -3.2239775    1.4954185   416381 
 4135000   0.94695108   -3.2247775   -1.7269126  0.061551777   -3.2247775    1.4978649   416361 
 4136000   0.94710714   -3.2258556   -1.7276719  0.062116513   -3.2258556    1.4981837   416341 
 4137000   0.94880309   -3.2277425    -1.726804  0.062306411   -3.2277425    1.5009385   416321 
 4138000   0.94806083   -3.2279274    -1.728091  0.057886807   -3.2279274    1.4998364   416301 
 4139000   0.94830571   -3.2256035   -1.7253077  0.064757542   -3.2256035    1.5002959   416281 
 4140000     0.950033   -3.2288927   -1.7257919  0.060681478   -3.2288927    1.5031008   416261 
 4141000   0.94859854     -3.22764   -1.7267366  0.063437368     -3.22764    1.5009034   416241 
 4142000   0.94890749   -3.2272027   -1.7257384  0.067737111   -3.2272027    1.5014643   416221 
 4143000   0.94810737   -3.2274199   -1.7271496  0.059788627   -3.2274199    1.5002704   416201 
 4144000   0.94671788   -3.2264133   -1.7282696  0.057181989   -3.2264133    1.4981437   416181 
 4145000   0.94595694   -3.2255025    -1.728491  0.058195473   -3.2255025    1.4970115   416161 
 4146000   0.94646283   -3.2261225   -1.7282385  0.066763257   -3.2261225     1.497884   416141 
 4147000    0.9473859   -3.2288781   -1.7294612  0.058014616   -3.2288781     1.499417   416121 
 4148000   0.94716249   -3.2267169   -1.7275815   0.06341621   -3.2267169    1.4991354   416101 
 4149000   0.94528502    -3.222691   -1.7264552  0.067118078    -3.222691    1.4962357   416081 
 4150000    0.9470067   -3.2269703   -1.7279374   0.06375287   -3.2269703    1.4990329   416061 
 4151000   0.94808973   -3.2268116   -1.7259922  0.060750122   -3.2268116    1.5008194   416041 
 4152000   0.94727899   -3.2264091    -1.726801  0.060642169   -3.2264091    1.4996081   416021 
 4153000   0.94758598   -3.2260563   -1.7258901  0.058451245   -3.2260563    1.5001662   416001 
 4154000   0.94641909   -3.2245891   -1.7261982  0.055970138   -3.2245891    1.4983909   415981 
 4155000   0.94677909   -3.2248053   -1.7257724  0.062414588   -3.2248053    1.4990329   415961 
 4156000     0.946026   -3.2256179   -1.7277053  0.058668624   -3.2256179    1.4979126   415941 
 4157000   0.94640374   -3.2258651   -1.7272823  0.060755076   -3.2258651    1.4985828   415921 
 4158000   0.94561121   -3.2237433   -1.7263435   0.06255342   -3.2237433    1.4973998   415901 
 4159000   0.94501242   -3.2243783   -1.7278547  0.057569548   -3.2243783    1.4965236   415881 
 4160000   0.94485101   -3.2242013   -1.7278613  0.061093203   -3.2242013      1.49634   415861 
 4161000   0.94646786   -3.2253806    -1.726408  0.051986091   -3.2253806    1.4989726   415841 
 4162000   0.94554814   -3.2224184   -1.7248304   0.06173998   -3.2224184     1.497588   415821 
 4163000   0.94462185   -3.2221279    -1.725935  0.059831373   -3.2221279    1.4961929   415801 
 4164000   0.94542446    -3.222611   -1.7250748  0.057661812    -3.222611    1.4975362   415781 
 4165000   0.94507441   -3.2213685   -1.7243148  0.065760649   -3.2213685    1.4970537   415761 
 4166000   0.94655208   -3.2252908   -1.7258243  0.053402843   -3.2252908    1.4994666   415741 
 4167000   0.94512591   -3.2239749   -1.7266955  0.057935539   -3.2239749    1.4972794   415721 
 4168000   0.94339026   -3.2203871   -1.7257854  0.056947705   -3.2203871    1.4946016   415701 
 4169000   0.94513612   -3.2233909   -1.7259513  0.052395376   -3.2233909    1.4974396   415681 
 4170000   0.94563117   -3.2237117   -1.7254156  0.057640048   -3.2237117     1.498296   415661 
 4171000   0.94591829   -3.2243716   -1.7255485  0.057014847   -3.2243716    1.4988231   415641 
 4172000   0.94460093   -3.2231108    -1.726303  0.061211859   -3.2231108    1.4968077   415621 
 4173000   0.94247672   -3.2206082   -1.7270946  0.056047459   -3.2206082    1.4935136   415601 
 4174000   0.94234693   -3.2210402   -1.7276604  0.058651867   -3.2210402    1.4933798   415581 
 4175000      0.94289   -3.2217499   -1.7274376  0.057257319   -3.2217499    1.4943123   415561 
 4176000   0.94441744   -3.2241956   -1.7273905  0.050985667   -3.2241956    1.4968051   415541 
 4177000   0.94343636   -3.2218133   -1.7264912  0.061262068   -3.2218133    1.4953221   415521 
 4178000   0.94389049    -3.221956   -1.7258421  0.057857335    -3.221956    1.4961139   415501 
 4179000   0.94354127   -3.2236702   -1.7280378  0.061631354   -3.2236702    1.4956324   415481 
 4180000    0.9441802   -3.2239527   -1.7272354  0.060171586   -3.2239527    1.4967172   415461 
 4181000   0.94374137   -3.2232153   -1.7271216  0.060869293   -3.2232153    1.4960936   415441 
 4182000   0.94413146   -3.2232256   -1.7264415  0.063881209   -3.2232256    1.4967841   415421 
 4183000    0.9453356   -3.2257378   -1.7269726  0.064112793   -3.2257378    1.4987652   415401 
 4184000   0.94510142   -3.2251873   -1.7267212  0.059249189   -3.2251873    1.4984661   415381 
 4185000   0.94793309   -3.2300619   -1.7270338  0.060573525   -3.2300619    1.5030281   415361 
 4186000   0.94576236   -3.2270105    -1.727352  0.058795347   -3.2270105    1.4996584   415341 
 4187000   0.94577351   -3.2266676   -1.7269193   0.06273667   -3.2266676    1.4997483   415321 
 4188000    0.9458169   -3.2287032   -1.7288138  0.059589401   -3.2287032    1.4998894   415301 
 4189000   0.94635548   -3.2291861   -1.7283704  0.055873456   -3.2291861    1.5008157   415281 
 4190000   0.94410167   -3.2271512   -1.7298377  0.056386837   -3.2271512    1.4973135   415261 
 4191000    0.9448688   -3.2282481   -1.7296458  0.058743121   -3.2282481    1.4986024   415241 
 4192000   0.94567679   -3.2289034   -1.7289472   0.05676194   -3.2289034    1.4999561   415221 
 4193000   0.94569408    -3.228578   -1.7285223  0.062060565    -3.228578    1.5000558   415201 
 4194000   0.94653119   -3.2291087   -1.7276527  0.060384023   -3.2291087    1.5014559   415181 
 4195000   0.94546505   -3.2261058   -1.7262688  0.061063002   -3.2261058     1.499837   415161 
 4196000   0.94687138   -3.2290059   -1.7268656  0.062758847   -3.2290059    1.5021403   415141 
 4197000   0.94506231   -3.2270509   -1.7277083  0.064901044   -3.2270509    1.4993426   415121 
 4198000   0.94502767   -3.2263474   -1.7269876  0.063320669   -3.2263474    1.4993599   415101 
 4199000   0.94448468   -3.2261234   -1.7275528  0.062583307   -3.2261234    1.4985706   415081 
 4200000   0.94195821   -3.2226818   -1.7280479  0.060224926   -3.2226818    1.4946339   415061 
 4201000   0.94406203   -3.2248744   -1.7268301  0.058409784   -3.2248744    1.4980443   415041 
 4202000   0.94353296   -3.2248875   -1.7276105  0.063156391   -3.2248875    1.4972769   415021 
 4203000   0.94398402   -3.2248187   -1.7267538  0.053430557   -3.2248187    1.4980649   415001 
 4204000   0.94452401   -3.2255509   -1.7265568  0.061685202   -3.2255509    1.4989941   414981 
 4205000   0.94359261    -3.224454   -1.7268659  0.060311454    -3.224454    1.4975881   414961 
 4206000   0.94331922   -3.2244533    -1.727227  0.055357903   -3.2244533    1.4972264   414941 
 4207000   0.94311264    -3.224152   -1.7271814  0.055093212    -3.224152    1.4969706   414921 
 4208000   0.94212394   -3.2235861   -1.7281127  0.059753821   -3.2235861    1.4954734   414901 
 4209000   0.94387654   -3.2254253   -1.7270977  0.060337301   -3.2254253    1.4983276   414881 
 4210000   0.94421767   -3.2266657   -1.7277243  0.056665332   -3.2266657    1.4989414   414861 
 4211000   0.94304274   -3.2242956   -1.7271472  0.061623725   -3.2242956    1.4971484   414841 
 4212000   0.94180181   -3.2224251   -1.7271748  0.060763794   -3.2224251    1.4952504   414821 
 4213000   0.94142298   -3.2220345   -1.7273135  0.059431779   -3.2220345     1.494721   414801 
 4214000   0.94206881   -3.2238815    -1.728063  0.056579853   -3.2238815    1.4958185   414781 
 4215000   0.94353638   -3.2264133   -1.7281923  0.061215124   -3.2264133     1.498221   414761 
 4216000   0.94246769   -3.2261643   -1.7295681  0.058304966   -3.2261643    1.4965962   414741 
 4217000    0.9415417   -3.2240827   -1.7288848  0.063681901   -3.2240827    1.4951979   414721 
 4218000    0.9436198   -3.2262662    -1.727696  0.056494183   -3.2262662    1.4985702   414701 
 4219000   0.94215265   -3.2250762   -1.7287638  0.060478018   -3.2250762    1.4963124   414681 
 4220000   0.94257862   -3.2248799   -1.7278188  0.058810564   -3.2248799    1.4970611   414661 
 4221000    0.9431736   -3.2248808   -1.7268025  0.059682399   -3.2248808    1.4980783   414641 
 4222000   0.94286384   -3.2260002   -1.7283416  0.061201764   -3.2260002    1.4976586   414621 
 4223000   0.94150133   -3.2245803   -1.7290138  0.056343253   -3.2245803    1.4955665   414601 
 4224000   0.94315063   -3.2274786     -1.72922  0.058723579   -3.2274786    1.4982587   414581 
 4225000   0.94276721   -3.2258295   -1.7281076  0.063691461   -3.2258295    1.4977218   414561 
 4226000   0.94238358    -3.226912   -1.7297274  0.058612042    -3.226912    1.4971846   414541 
 4227000   0.94222565   -3.2259713   -1.7289654  0.057079682   -3.2259713    1.4970059   414521 
 4228000   0.94199183   -3.2259869   -1.7292803   0.06377706   -3.2259869    1.4967066   414501 
 4229000   0.94293295   -3.2272726   -1.7289983  0.059133385   -3.2272726    1.4982743   414481 
 4230000   0.94263871   -3.2278974   -1.7300184   0.05904806   -3.2278974     1.497879   414461 
 4231000   0.94272862   -3.2280569   -1.7299628  0.062010308   -3.2280569    1.4980942   414441 
 4232000    0.9421246   -3.2260961   -1.7288896  0.062535856   -3.2260961    1.4972066   414421 
 4233000   0.94238154   -3.2292294   -1.7315423  0.060864413   -3.2292294    1.4976872   414401 
 4234000   0.94201228   -3.2278075   -1.7306349  0.059074482   -3.2278075    1.4971726   414381 
 4235000    0.9419202   -3.2274905    -1.730392  0.062504946   -3.2274905    1.4970985   414361 
 4236000   0.94234912    -3.228466   -1.7306135  0.059419606    -3.228466    1.4978525   414341 
 4237000   0.94152763   -3.2282104   -1.7315914  0.061364359   -3.2282104     1.496619   414321 
 4238000   0.94135296   -3.2280571   -1.7316436  0.063030096   -3.2280571    1.4964136   414301 
 4239000   0.94109595   -3.2290581   -1.7329809  0.055961852   -3.2290581    1.4960773   414281 
 4240000   0.94057068   -3.2285551   -1.7332407  0.056070052   -3.2285551    1.4953144   414261 
 4241000    0.9404311   -3.2298804   -1.7347157  0.057773691   -3.2298804    1.4951647   414241 
 4242000   0.93882897   -3.2276817   -1.7349921  0.057956083   -3.2276817    1.4926896   414221 
 4243000   0.93994828   -3.2297066   -1.7351652  0.061904292   -3.2297066    1.4945414   414201 
 4244000   0.94187065   -3.2317042   -1.7340339  0.058980476   -3.2317042    1.4976703   414181 
 4245000   0.93968902   -3.2288014   -1.7345279   0.06083333   -3.2288014    1.4942735   414161 
 4246000   0.94220026   -3.2313968   -1.7330576  0.061195078   -3.2313968    1.4983391   414141 
 4247000   0.94217957   -3.2306705   -1.7322919  0.061070674   -3.2306705    1.4983786   414121 
 4248000   0.94159095   -3.2302292   -1.7327144  0.060530084   -3.2302292    1.4975148   414101 
 4249000    0.9423218   -3.2307166    -1.731967  0.060878983   -3.2307166    1.4987496   414081 
 4250000   0.94121691   -3.2302225   -1.7331579  0.065545073   -3.2302225    1.4970645   414061 
 4251000   0.94054396   -3.2276963   -1.7316299  0.062913611   -3.2276963    1.4960665   414041 
 4252000   0.94080046   -3.2281296   -1.7315829  0.062499882   -3.2281296    1.4965467   414021 
 4253000   0.94082304   -3.2280702   -1.7314153  0.062075706   -3.2280702     1.496655   414001 
 4254000   0.94132838   -3.2288799   -1.7313487  0.057348611   -3.2288799    1.4975312   413981 
 4255000   0.93939261   -3.2258781   -1.7313542  0.060762814   -3.2258781    1.4945238   413961 
 4256000   0.93930747   -3.2267318   -1.7322712  0.060633546   -3.2267318    1.4944606   413941 
 4257000   0.94089858   -3.2304399   -1.7333755   0.06034371   -3.2304399    1.4970644   413921 
 4258000   0.93932293   -3.2284719   -1.7338423  0.059509708   -3.2284719    1.4946296   413901 
 4259000   0.93987442   -3.2291633   -1.7335839  0.059118211   -3.2291633    1.4955794   413881 
 4260000   0.93920641    -3.229223   -1.7346344  0.057900154    -3.229223    1.4945886   413861 
 4261000   0.93961049   -3.2290542   -1.7337502  0.057820922   -3.2290542    1.4953039   413841 
 4262000   0.93825953   -3.2268834   -1.7336572  0.056038029   -3.2268834    1.4932262   413821 
 4263000   0.93953682   -3.2288964   -1.7335652  0.057915235   -3.2288964    1.4953312   413801 
 4264000   0.93957184   -3.2284209   -1.7329616   0.05406564   -3.2284209    1.4954592   413781 
 4265000   0.93999084   -3.2278993   -1.7317009  0.062011681   -3.2278993    1.4961985   413761 
 4266000   0.93991164   -3.2286338   -1.7324891  0.054960239   -3.2286338    1.4961447   413741 
 4267000   0.94081638   -3.2291525   -1.7314953  0.058999058   -3.2291525    1.4976573   413721 
 4268000   0.94179768   -3.2304619     -1.73117  0.056952295   -3.2304619    1.4992918   413701 
 4269000   0.94205123   -3.2310679   -1.7312999  0.056459019   -3.2310679     1.499768   413681 
 4270000   0.94221666   -3.2292531   -1.7291492  0.062915329   -3.2292531    1.5001039   413661 
 4271000   0.94009391   -3.2261189   -1.7293223   0.06422896   -3.2261189    1.4967966   413641 
 4272000   0.93964337   -3.2280367   -1.7318851  0.057533266   -3.2280367    1.4961516   413621 
 4273000   0.93948657   -3.2281934   -1.7322191   0.06003388   -3.2281934    1.4959743   413601 
 4274000   0.94052798   -3.2298982   -1.7321932  0.054410105   -3.2298982     1.497705   413581 
 4275000   0.93947408   -3.2288703   -1.7327712  0.056451647   -3.2288703    1.4960991   413561 
 4276000   0.93804015   -3.2290178     -1.73513  0.055795954   -3.2290178    1.4938878   413541 
 4277000   0.93820412   -3.2304636   -1.7362424  0.059453409   -3.2304636    1.4942212   413521 
 4278000   0.93792888   -3.2295764   -1.7357213    0.0558158   -3.2295764    1.4938551   413501 
 4279000   0.93780245   -3.2284231   -1.7346971  0.059461178   -3.2284231     1.493726   413481 
 4280000   0.93879219   -3.2316982   -1.7363234   0.05317212   -3.2316982    1.4953748   413461 
 4281000   0.93888116   -3.2340558    -1.738467   0.05404779   -3.2340558    1.4955888   413441 
 4282000   0.93945242   -3.2329511   -1.7363799  0.059198888   -3.2329511    1.4965712   413421 
 4283000   0.93926892   -3.2306133    -1.734262  0.058236891   -3.2306133    1.4963513   413401 
 4284000   0.93970477   -3.2318155   -1.7346974  0.053338729   -3.2318155    1.4971181   413381 
 4285000   0.93968883   -3.2321616   -1.7349965  0.057598929   -3.2321616    1.4971651   413361 
 4286000   0.93907956    -3.231508   -1.7352412  0.058607502    -3.231508    1.4962668   413341 
 4287000   0.94005024   -3.2315403   -1.7336544   0.05875774   -3.2315403    1.4978859   413321 
 4288000   0.93964129   -3.2316545   -1.7343478  0.062205455   -3.2316545    1.4973067   413301 
 4289000    0.9396251    -3.232607   -1.7352536  0.060559383    -3.232607    1.4973534   413281 
 4290000   0.93891153   -3.2318956    -1.735607  0.061681048   -3.2318956    1.4962886   413261 
 4291000   0.93988051   -3.2343452   -1.7364399   0.05698442   -3.2343452    1.4979054   413241 
 4292000   0.93948245   -3.2317073   -1.7343639  0.060344212   -3.2317073    1.4973434   413221 
 4293000   0.93996089    -3.234053   -1.7358745  0.056947266    -3.234053    1.4981785   413201 
 4294000    0.9390396   -3.2316868   -1.7349043  0.060272272   -3.2316868    1.4967825   413181 
 4295000   0.93903424   -3.2324674    -1.735621  0.064390482   -3.2324674    1.4968464   413161 
 4296000   0.93945265   -3.2335432   -1.7359573  0.057463211   -3.2335432    1.4975859   413141 
 4297000   0.93939223   -3.2325366   -1.7349745  0.059338406   -3.2325366     1.497562   413121 
 4298000   0.93885253   -3.2321266   -1.7353525  0.060293022   -3.2321266    1.4967741   413101 
 4299000   0.93781325   -3.2302604   -1.7350708  0.057096525   -3.2302604    1.4951896   413081 
 4300000   0.93858602   -3.2301329   -1.7336388  0.060349143   -3.2301329    1.4964941   413061 
 4301000   0.93835546   -3.2295768   -1.7333778  0.062978584   -3.2295768     1.496199   413041 
 4302000    0.9390809   -3.2313448   -1.7339166  0.053739093   -3.2313448    1.4974282   413021 
 4303000   0.93807337   -3.2303659   -1.7344718  0.057118626   -3.2303659     1.495894   413001 
 4304000     0.938876   -3.2335121   -1.7362657  0.058838534   -3.2335121    1.4972465   412981 
 4305000   0.93896026   -3.2319085   -1.7344552  0.059484802   -3.2319085    1.4974534   412961 
 4306000   0.93924969   -3.2330501   -1.7350626  0.053657963   -3.2330501    1.4979875   412941 
 4307000   0.93882114   -3.2333461   -1.7359695  0.060495961   -3.2333461    1.4973765   412921 
 4308000   0.93757183   -3.2319016   -1.7364452  0.058251862   -3.2319016    1.4954564   412901 
 4309000   0.93814014   -3.2302955   -1.7338601  0.060454383   -3.2302955    1.4964353   412881 
 4310000   0.93916512    -3.232162   -1.7340192  0.054378161    -3.232162    1.4981429   412861 
 4311000   0.93722044   -3.2287906   -1.7336775  0.058302583   -3.2287906    1.4951131   412841 
 4312000   0.93794002   -3.2305961   -1.7342626  0.059773842   -3.2305961    1.4963336   412821 
 4313000   0.93793043   -3.2312424   -1.7348516  0.059452053   -3.2312424    1.4963908   412801 
 4314000   0.93871645   -3.2330161   -1.7352987  0.058030958   -3.2330161    1.4977174   412781 
 4315000   0.93699283   -3.2301863   -1.7351465  0.054571134   -3.2301863    1.4950398   412761 
 4316000   0.93815328   -3.2301655   -1.7332016   0.05427117   -3.2301655    1.4969639   412741 
 4317000   0.93744146   -3.2301388   -1.7342383  0.059936859   -3.2301388    1.4959006   412721 
 4318000   0.93975736   -3.2316365   -1.7319677  0.059745946   -3.2316365    1.4996688   412701 
 4319000   0.93965753   -3.2324854   -1.7329033  0.061994943   -3.2324854    1.4995821   412681 
 4320000   0.93761298   -3.2302243   -1.7338325  0.063591599   -3.2302243    1.4963918   412661 
 4321000   0.93747174   -3.2303862   -1.7341473  0.054427832   -3.2303862    1.4962389   412641 
 4322000   0.93816302   -3.2317366   -1.7343218  0.057200209   -3.2317366    1.4974148   412621 
 4323000   0.93772347   -3.2301702   -1.7333844  0.058830765   -3.2301702    1.4967858   412601 
 4324000   0.93652898   -3.2300697   -1.7351181  0.057611432   -3.2300697    1.4949516   412581 
 4325000   0.93689558   -3.2308848   -1.7352755  0.056917596   -3.2308848    1.4956093   412561 
 4326000   0.93671893    -3.231017   -1.7356173  0.055294576    -3.231017    1.4953998   412541 
 4327000   0.93544679   -3.2313457   -1.7379044  0.055561819   -3.2313457    1.4934413   412521 
 4328000   0.93512939   -3.2303014   -1.7372945  0.055121673   -3.2303014     1.493007   412501 
 4329000   0.93566992   -3.2307838   -1.7368414   0.05616032   -3.2307838    1.4939424   412481 
 4330000    0.9359473   -3.2310734   -1.7366157  0.056703328   -3.2310734    1.4944577   412461 
 4331000   0.93511783   -3.2311264   -1.7379207  0.059071679   -3.2311264    1.4932057   412441 
 4332000   0.93547123   -3.2311243   -1.7372818  0.060589082   -3.2311243    1.4938425   412421 
 4333000   0.93612298   -3.2325345   -1.7375788  0.054705775   -3.2325345    1.4949557   412401 
 4334000   0.93595045   -3.2331866   -1.7384339  0.059797786   -3.2331866    1.4947527   412381 
 4335000   0.93683751   -3.2356019     -1.73936  0.060143155   -3.2356019    1.4962419   412361 
 4336000    0.9350024   -3.2332055   -1.7398221  0.062387636   -3.2332055    1.4933835   412341 
 4337000   0.93767445   -3.2364093   -1.7386854  0.059982158   -3.2364093    1.4977239   412321 
 4338000   0.93744008   -3.2356603   -1.7382381  0.059123263   -3.2356603    1.4974222   412301 
 4339000   0.93803614   -3.2352127   -1.7367657  0.062743262   -3.2352127     1.498447   412281 
 4340000    0.9366998   -3.2355684   -1.7391836  0.061348914   -3.2355684    1.4963849   412261 
 4341000     0.937176   -3.2369027   -1.7396844  0.054785853   -3.2369027    1.4972182   412241 
 4342000   0.93825618   -3.2387341   -1.7397175  0.057035607   -3.2387341    1.4990166   412221 
 4343000   0.93547244   -3.2352848   -1.7406431  0.057829693   -3.2352848    1.4946417   412201 
 4344000   0.93648392   -3.2362949   -1.7399646  0.060136278   -3.2362949    1.4963304   412181 
 4345000   0.93647825   -3.2366725   -1.7402786  0.060942041   -3.2366725    1.4963939   412161 
 4346000   0.93705855   -3.2370779    -1.739684  0.057936778   -3.2370779    1.4973938   412141 
 4347000   0.93639411   -3.2373332   -1.7409285  0.060330703   -3.2373332    1.4964047   412121 
 4348000   0.93677456   -3.2378052   -1.7407199  0.063545922   -3.2378052    1.4970853   412101 
 4349000   0.93577523   -3.2372458   -1.7416849  0.057046756   -3.2372458    1.4955608   412081 
 4350000   0.93515618   -3.2365128   -1.7418688    0.0612355   -3.2365128     1.494644   412061 
 4351000   0.93588318   -3.2381546    -1.742276  0.056026956   -3.2381546    1.4958786   412041 
 4352000    0.9340548   -3.2338018   -1.7407731  0.061714088   -3.2338018    1.4930286   412021 
 4353000   0.93486254   -3.2359185   -1.7415262  0.058601827   -3.2359185    1.4943923   412001 
 4354000   0.93488622   -3.2358539   -1.7413512  0.057741188   -3.2358539    1.4945027   411981 
 4355000   0.93456849     -3.23457   -1.7405027  0.058274284     -3.23457    1.4940673   411961 
 4356000   0.93499495    -3.236501   -1.7416793  0.055567899    -3.236501    1.4948216   411941 
 4357000   0.93495478   -3.2353066   -1.7404766  0.059825738   -3.2353066      1.49483   411921 
 4358000   0.93379728   -3.2355982   -1.7425463   0.05954917   -3.2355982    1.4930519   411901 
 4359000   0.93449178    -3.238386   -1.7441511  0.060536945    -3.238386    1.4942349   411881 
 4360000   0.93385993   -3.2360379   -1.7427408  0.055524475   -3.2360379     1.493297   411861 
 4361000   0.93378355   -3.2354492   -1.7422017  0.057867477   -3.2354492    1.4932474   411841 
 4362000   0.93162082    -3.233684   -1.7438227  0.054288906    -3.233684    1.4898613   411821 
 4363000   0.93309887   -3.2343484    -1.742051  0.058770452   -3.2343484    1.4922975   411801 
 4364000   0.93460429   -3.2373565   -1.7425788  0.056633818   -3.2373565    1.4947777   411781 
 4365000   0.93431831   -3.2381761   -1.7437832  0.059463353   -3.2381761    1.4943929   411761 
 4366000   0.93340099   -3.2365927   -1.7435945  0.061859983   -3.2365927    1.4929982   411741 
 4367000   0.93368067   -3.2380092   -1.7444911  0.057362323   -3.2380092    1.4935181   411721 
 4368000   0.93446259   -3.2384176   -1.7435762  0.059778274   -3.2384176    1.4948414   411701 
 4369000    0.9335526   -3.2385743    -1.745116  0.062347183   -3.2385743    1.4934583   411681 
 4370000    0.9354765   -3.2404314   -1.7438226  0.055358583   -3.2404314    1.4966088   411661 
 4371000   0.93303936    -3.237311   -1.7445287  0.062785827    -3.237311    1.4927823   411641 
 4372000   0.93453216   -3.2401615   -1.7449182  0.058111427   -3.2401615    1.4952433   411621 
 4373000   0.93339487   -3.2388066   -1.7453104  0.058895452   -3.2388066    1.4934962   411601 
 4374000   0.93482689   -3.2421261   -1.7462659  0.059087461   -3.2421261    1.4958602   411581 
 4375000   0.93189343   -3.2378033   -1.7465646  0.062885512   -3.2378033    1.4912387   411561 
 4376000   0.93209165   -3.2378563   -1.7462279  0.057240066   -3.2378563    1.4916284   411541 
 4377000   0.93439765   -3.2403974    -1.745006  0.055758725   -3.2403974    1.4953914   411521 
 4378000   0.93326079   -3.2394002   -1.7457557  0.059193043   -3.2394002    1.4936445   411501 
 4379000   0.93352592     -3.24011   -1.7459685  0.061659219     -3.24011    1.4941415   411481 
 4380000   0.93469535    -3.242627   -1.7465411  0.058633015    -3.242627    1.4960859   411461 
 4381000   0.93359043   -3.2416615   -1.7472715   0.06178165   -3.2416615      1.49439   411441 
 4382000    0.9338003   -3.2427426    -1.747944  0.060587174   -3.2427426    1.4947986   411421 
 4383000   0.93300986   -3.2412244   -1.7476185  0.059311018   -3.2412244    1.4936059   411401 
 4384000   0.93253054   -3.2404044   -1.7474933  0.056317203   -3.2404044    1.4929112   411381 
 4385000   0.93147892    -3.239925   -1.7486249  0.058329563    -3.239925    1.4913001   411361 
 4386000   0.93228344   -3.2401822   -1.7475215   0.05933717   -3.2401822    1.4926607   411341 
 4387000   0.93144045   -3.2406205    -1.749237  0.054077369   -3.2406205    1.4913835   411321 
 4388000   0.93233496   -3.2416832   -1.7487948  0.058167442   -3.2416832    1.4928884   411301 
 4389000   0.93058611   -3.2394939   -1.7493334  0.053961251   -3.2394939    1.4901605   411281 
 4390000   0.93220675   -3.2422809   -1.7494527  0.055574852   -3.2422809    1.4928283   411261 
 4391000   0.93297627   -3.2429356   -1.7488023  0.055461276   -3.2429356    1.4941332   411241 
 4392000   0.93255201    -3.240716   -1.7471896  0.065347083    -3.240716    1.4935264   411221 
 4393000   0.93320047   -3.2424409   -1.7478032  0.058816617   -3.2424409    1.4946376   411201 
 4394000   0.93266296   -3.2416242   -1.7477748  0.055927095   -3.2416242    1.4938494   411181 
 4395000   0.93212009   -3.2412753   -1.7482228   0.05603253   -3.2412753    1.4930525   411161 
 4396000   0.93198493   -3.2421808   -1.7492722   0.05745355   -3.2421808    1.4929086   411141 
 4397000   0.93244976   -3.2416047   -1.7478788  0.055008354   -3.2416047    1.4937259   411121 
 4398000   0.93187005   -3.2412444   -1.7483745  0.054762725   -3.2412444    1.4928699   411101 
 4399000   0.93137533   -3.2393387   -1.7471888  0.060823283   -3.2393387    1.4921499   411081 
 4400000   0.93222036   -3.2407161   -1.7471397  0.059122093   -3.2407161    1.4935764   411061 
 4401000   0.93213625   -3.2420523    -1.748538  0.057541707   -3.2420523    1.4935143   411041 
 4402000   0.93157155   -3.2414273   -1.7487451  0.053510974   -3.2414273    1.4926821   411021 
 4403000   0.93087155   -3.2405723   -1.7489392  0.061440832   -3.2405723    1.4916331   411001 
 4404000   0.93125318   -3.2415863   -1.7492691  0.054452789   -3.2415863    1.4923172   410981 
 4405000   0.93179313   -3.2413216   -1.7480665  0.058211053   -3.2413216    1.4932552   410961 
 4406000   0.93218375   -3.2419012   -1.7479473  0.061176228   -3.2419012    1.4939539   410941 
 4407000   0.93129788   -3.2400796   -1.7474728  0.063240197   -3.2400796    1.4926068   410921 
 4408000   0.93346998   -3.2430558    -1.746895  0.062141822   -3.2430558    1.4961609   410901 
 4409000   0.93282698   -3.2420038   -1.7468008  0.057509485   -3.2420038     1.495203   410881 
 4410000   0.93130416   -3.2400026   -1.7471677  0.058884537   -3.2400026    1.4928348   410861 
 4411000    0.9311381   -3.2403264   -1.7476851   0.05789052   -3.2403264    1.4926413   410841 
 4412000   0.93082766   -3.2405382   -1.7483219  0.055030568   -3.2405382    1.4922163   410821 
 4413000   0.93161707   -3.2415602   -1.7480057  0.059207784   -3.2415602    1.4935545   410801 
 4414000   0.93040934   -3.2404037   -1.7487128  0.062581721   -3.2404037    1.4916909   410781 
 4415000   0.92960107   -3.2392672   -1.7487996   0.05712471   -3.2392672    1.4904676   410761 
 4416000   0.92979977   -3.2391523   -1.7482935  0.061148173   -3.2391523    1.4908588   410741 
 4417000   0.93088687   -3.2405893   -1.7479148  0.056383509   -3.2405893    1.4926745   410721 
 4418000   0.93002739   -3.2391077   -1.7477387  0.056675955   -3.2391077     1.491369   410701 
 4419000   0.93057255    -3.240725   -1.7484091   0.05733546    -3.240725    1.4923159   410681 
 4420000   0.93105334   -3.2412079   -1.7480483   0.05530468   -3.2412079    1.4931596   410661 
 4421000   0.93035004   -3.2403379   -1.7482335  0.061777804   -3.2403379    1.4921044   410641 
 4422000   0.93019624   -3.2407105   -1.7487801  0.058745508   -3.2407105    1.4919304   410621 
 4423000   0.93016016   -3.2414425   -1.7494973  0.057012304   -3.2414425    1.4919452   410601 
 4424000   0.93080629   -3.2414241   -1.7483698  0.053004349   -3.2414241    1.4930543   410581 
 4425000   0.93031343   -3.2403658   -1.7480294  0.054549963   -3.2403658    1.4923364   410561 
 4426000   0.92976694   -3.2413671   -1.7498347  0.054590343   -3.2413671    1.4915324   410541 
 4427000   0.92985447   -3.2420065    -1.750261  0.050980134   -3.2420065    1.4917455   410521 
 4428000   0.92952692   -3.2418338   -1.7505411  0.051779455   -3.2418338    1.4912927   410501 
 4429000   0.92887938   -3.2414712   -1.7511448   0.05424951   -3.2414712    1.4903264   410481 
 4430000   0.92950751   -3.2416669     -1.75026  0.056462323   -3.2416669    1.4914069   410461 
 4431000   0.93075498   -3.2424775   -1.7489963   0.05378345   -3.2424775    1.4934812   410441 
 4432000   0.93124359   -3.2431814   -1.7488433  0.054802599   -3.2431814    1.4943381   410421 
 4433000   0.93258797   -3.2459556   -1.7493873  0.057882357   -3.2459556    1.4965683   410401 
 4434000   0.92968818     -3.24099   -1.7490025  0.060931979     -3.24099    1.4919875   410381 
 4435000    0.9315396   -3.2445366   -1.7495049  0.056365819   -3.2445366    1.4950316   410361 
 4436000    0.9318352   -3.2458901   -1.7503112  0.057535243   -3.2458901    1.4955789   410341 
 4437000   0.93090048    -3.244866   -1.7507145  0.060557343    -3.244866    1.4941515   410321 
 4438000   0.93029006   -3.2451061   -1.7518616  0.059856267   -3.2451061    1.4932445   410301 
 4439000    0.9297883   -3.2441422   -1.7516303  0.059427473   -3.2441422    1.4925119   410281 
 4440000   0.92947972   -3.2444845   -1.7523952  0.057806756   -3.2444845    1.4920893   410261 
 4441000   0.92960606   -3.2449743   -1.7526094  0.057609542   -3.2449743    1.4923649   410241 
 4442000   0.93013918    -3.244765   -1.7514714  0.060642391    -3.244765    1.4932935   410221 
 4443000    0.9296944    -3.245558   -1.7529058  0.058762734    -3.245558    1.4926522   410201 
 4444000   0.92947254   -3.2454968    -1.753128  0.059837341   -3.2454968    1.4923688   410181 
 4445000   0.93035645    -3.247826   -1.7539651  0.061190225    -3.247826    1.4938608   410161 
 4446000   0.92958773   -3.2465086   -1.7538093  0.056906469   -3.2465086    1.4926993   410141 
 4447000   0.93060097   -3.2465844   -1.7521852  0.053512696   -3.2465844    1.4943992   410121 
 4448000   0.92911354   -3.2448469   -1.7527635  0.054346156   -3.2448469    1.4920834   410101 
 4449000   0.92921315     -3.24494   -1.7526239  0.057428253     -3.24494    1.4923161   410081 
 4450000   0.93011464   -3.2459719   -1.7521351  0.061016788   -3.2459719    1.4938368   410061 
 4451000   0.92803492   -3.2437335   -1.7531642  0.055451338   -3.2437335    1.4905693   410041 
 4452000   0.92806972   -3.2437903   -1.7530924  0.054591118   -3.2437903    1.4906979   410021 
 4453000   0.92801587   -3.2415736   -1.7508895  0.056122972   -3.2415736    1.4906841   410001 
 4454000   0.92856755   -3.2447314   -1.7530883  0.055577512   -3.2447314     1.491643   409981 
 4455000   0.93029607   -3.2447843   -1.7502917  0.058010902   -3.2447843    1.4944926   409961 
 4456000   0.92974219   -3.2435117    -1.749836   0.05645355   -3.2435117    1.4936757   409941 
 4457000   0.92941983   -3.2440435   -1.7508128  0.057629089   -3.2440435    1.4932307   409921 
 4458000   0.92734589   -3.2418506   -1.7518793  0.054502343   -3.2418506    1.4899713   409901 
 4459000   0.92798895   -3.2417716   -1.7506943  0.056931044   -3.2417716    1.4910773   409881 
 4460000    0.9286017   -3.2433476   -1.7512129   0.05603061   -3.2433476    1.4921346   409861 
 4461000   0.92759945   -3.2420243   -1.7514275  0.054972362   -3.2420243    1.4905969   409841 
 4462000   0.92873622   -3.2442392   -1.7517428  0.054638951   -3.2442392    1.4924965   409821 
 4463000   0.92824016   -3.2433221     -1.75155  0.055276403   -3.2433221    1.4917721   409801 
 4464000   0.92745875    -3.242306   -1.7517169  0.054263058    -3.242306     1.490589   409781 
 4465000   0.92696569   -3.2410385   -1.7511692  0.053725505   -3.2410385    1.4898693   409761 
 4466000   0.92675796   -3.2402179   -1.7506098  0.056773297   -3.2402179    1.4896081   409741 
 4467000   0.92729658   -3.2413999   -1.7508533  0.052622825   -3.2413999    1.4905466   409721 
 4468000   0.92671886   -3.2420641   -1.7523734  0.055749438   -3.2420641    1.4896907   409701 
 4469000   0.92792697   -3.2439535    -1.752248  0.055409877   -3.2439535    1.4917055   409681 
 4470000   0.92633597   -3.2418828   -1.7526622  0.054519049   -3.2418828    1.4892206   409661 
 4471000    0.9274972    -3.243475   -1.7523147  0.056490692    -3.243475    1.4911603   409641 
 4472000   0.92773396   -3.2430164   -1.7514027  0.062240348   -3.2430164    1.4916137   409621 
 4473000   0.92802685    -3.244116   -1.7519585  0.055966457    -3.244116    1.4921575   409601 
 4474000   0.92810164   -3.2450854   -1.7527348  0.061836466   -3.2450854    1.4923506   409581 
 4475000    0.9274987   -3.2445007   -1.7530468  0.057695823   -3.2445007    1.4914539   409561 
 4476000   0.92635909    -3.243509   -1.7538148  0.059365687    -3.243509    1.4896941   409541 
 4477000   0.92695305   -3.2446585   -1.7539364  0.060304076   -3.2446585    1.4907221   409521 
 4478000   0.92719092   -3.2449526   -1.7537751   0.05823937   -3.2449526    1.4911775   409501 
 4479000   0.92865515   -3.2467359   -1.7531306  0.057888118   -3.2467359    1.4936053   409481 
 4480000   0.92816505   -3.2455895   -1.7526995  0.062053565   -3.2455895      1.49289   409461 
 4481000   0.92826208    -3.245613    -1.752494  0.058192499    -3.245613     1.493119   409441 
 4482000   0.92786288   -3.2475444   -1.7549947  0.056325814   -3.2475444    1.4925498   409421 
 4483000   0.92684618   -3.2454754   -1.7544883  0.062578345   -3.2454754    1.4909871   409401 
 4484000   0.92830468   -3.2470415   -1.7536352  0.053238439   -3.2470415    1.4934063   409381 
 4485000   0.92610774   -3.2445608    -1.754616  0.057597589   -3.2445608    1.4899448   409361 
 4486000   0.92668686   -3.2459252   -1.7549758  0.055371618   -3.2459252    1.4909493   409341 
 4487000   0.92660751    -3.247063   -1.7561685  0.052465262    -3.247063    1.4908945   409321 
 4488000   0.92652253   -3.2467499   -1.7559193  0.054141323   -3.2467499    1.4908306   409301 
 4489000   0.92577509   -3.2455231   -1.7558223  0.062312888   -3.2455231    1.4897008   409281 
 4490000   0.92713597   -3.2466663   -1.7547028  0.057665369   -3.2466663    1.4919635   409261 
 4491000   0.92600236   -3.2439632   -1.7537511  0.056710378   -3.2439632    1.4902121   409241 
 4492000   0.92672066   -3.2459765   -1.7545356  0.054698809   -3.2459765     1.491441   409221 
 4493000   0.92600911   -3.2459035   -1.7555348  0.058102897   -3.2459035    1.4903686   409201 
 4494000   0.92716782   -3.2466893   -1.7543828  0.055258125   -3.2466893    1.4923065   409181 
 4495000   0.92628772   -3.2455869   -1.7546241  0.059939249   -3.2455869    1.4909628   409161 
 4496000   0.92653874   -3.2460769   -1.7546372   0.05385315   -3.2460769    1.4914397   409141 
 4497000   0.92586405     -3.24549   -1.7550634  0.059906373     -3.24549    1.4904266   409121 
 4498000   0.92623473   -3.2451461   -1.7540499  0.060425366   -3.2451461    1.4910962   409101 
 4499000   0.92624279   -3.2456837   -1.7545017   0.05950751   -3.2456837     1.491182   409081 
 4500000   0.92672843   -3.2459669   -1.7539301  0.054599186   -3.2459669    1.4920368   409061 
 4501000   0.92682255   -3.2462326   -1.7539712  0.053752714   -3.2462326    1.4922613   409041 
 4502000   0.92714598    -3.246376   -1.7535209  0.058156047    -3.246376    1.4928551   409021 
 4503000   0.92736548   -3.2460814   -1.7527999  0.059559311   -3.2460814    1.4932815   409001 
 4504000   0.92746992   -3.2450062   -1.7514835  0.056768105   -3.2450062    1.4935227   408981 
 4505000   0.92592009   -3.2438382   -1.7527383  0.054656861   -3.2438382    1.4910999   408961 
 4506000   0.92642132   -3.2429921    -1.751012  0.058020953   -3.2429921    1.4919801   408941 
 4507000   0.92554845   -3.2427163    -1.752069  0.057396691   -3.2427163    1.4906472   408921 
 4508000   0.92498583   -3.2421128   -1.7522988  0.057484221   -3.2421128     1.489814   408901 
 4509000   0.92490599   -3.2413846   -1.7516264  0.054317323   -3.2413846    1.4897582   408881 
 4510000   0.92506624   -3.2424263   -1.7523371   0.05496126   -3.2424263    1.4900892   408861 
 4511000    0.9255806   -3.2444739   -1.7534832  0.054637874   -3.2444739    1.4909907   408841 
 4512000   0.92353276   -3.2423518   -1.7545871  0.053077548   -3.2423518    1.4877647   408821 
 4513000   0.92410839   -3.2418715   -1.7531067  0.059986392   -3.2418715    1.4887648   408801 
 4514000   0.92504816   -3.2424136   -1.7520619  0.056997368   -3.2424136    1.4903517   408781 
 4515000   0.92539744   -3.2400339   -1.7490465  0.059117345   -3.2400339    1.4909874   408761 
 4516000   0.92826946   -3.2440556   -1.7483677   0.05249137   -3.2440556    1.4956879   408741 
 4517000   0.92635469   -3.2408771   -1.7482013   0.05744883   -3.2408771    1.4926758   408721 
 4518000   0.92604904   -3.2396268   -1.7473705  0.061105889   -3.2396268    1.4922563   408701 
 4519000   0.92571895   -3.2395843    -1.747787  0.059279005   -3.2395843    1.4917974   408681 
 4520000   0.92498719   -3.2398488   -1.7491577  0.057792413   -3.2398488    1.4906911   408661 
 4521000   0.92510294   -3.2419497   -1.7509991   0.05276737   -3.2419497    1.4909506   408641 
 4522000   0.92527031   -3.2416272   -1.7503339  0.053734726   -3.2416272    1.4912933   408621 
 4523000   0.92487543   -3.2422241   -1.7514943  0.058817184   -3.2422241    1.4907299   408601 
 4524000   0.92367414   -3.2395923   -1.7507258  0.051264637   -3.2395923    1.4888665   408581 
 4525000   0.92334263   -3.2378236   -1.7494186  0.054633555   -3.2378236     1.488405   408561 
 4526000   0.92422887   -3.2395994   -1.7496929   0.05509543   -3.2395994    1.4899065   408541 
 4527000   0.92203828   -3.2371846   -1.7507367  0.055330843   -3.2371846    1.4864479   408521 
 4528000   0.92258761   -3.2385869   -1.7511806  0.053128499   -3.2385869    1.4874063   408501 
 4529000   0.92422579   -3.2388673    -1.748747  0.050065178   -3.2388673    1.4901204   408481 
 4530000   0.92368347   -3.2377352   -1.7484162  0.055940474   -3.2377352    1.4893189   408461 
 4531000   0.92284198   -3.2381582   -1.7501232  0.053271134   -3.2381582     1.488035   408441 
 4532000   0.92363442   -3.2402215   -1.7508358  0.055504133   -3.2402215    1.4893857   408421 
 4533000   0.92428497   -3.2413208   -1.7508131  0.054504592   -3.2413208    1.4905077   408401 
 4534000   0.92484009    -3.241558   -1.7500821  0.054177159    -3.241558    1.4914759   408381 
 4535000   0.92437018    -3.240279   -1.7494878  0.063451132    -3.240279    1.4907911   408361 
 4536000   0.92436185   -3.2412742   -1.7504235  0.054917282   -3.2412742    1.4908507   408341 
 4537000   0.92543167   -3.2431184   -1.7504691  0.052992337   -3.2431184    1.4926493   408321 
 4538000   0.92342264   -3.2398309   -1.7503491  0.057555242   -3.2398309    1.4894818   408301 
 4539000   0.92620741   -3.2433411   -1.7492942  0.062950132   -3.2433411    1.4940468   408281 
 4540000   0.92471362   -3.2411688   -1.7494585  0.060581281   -3.2411688    1.4917103   408261 
 4541000   0.92517952   -3.2425535   -1.7500184  0.058823491   -3.2425535     1.492535   408241 
 4542000   0.92451151   -3.2413449   -1.7498145  0.058220244   -3.2413449    1.4915304   408221 
 4543000   0.92522112   -3.2433978   -1.7506495  0.062592514   -3.2433978    1.4927484   408201 
 4544000    0.9255585   -3.2447681   -1.7514022  0.056516035   -3.2447681    1.4933659   408181 
 4545000   0.92633748   -3.2453249   -1.7506289  0.063054408   -3.2453249     1.494696   408161 
 4546000   0.92652182   -3.2465421   -1.7514754  0.061588838   -3.2465421    1.4950667   408141 
 4547000   0.92598658   -3.2457665   -1.7514903  0.059942869   -3.2457665    1.4942762   408121 
 4548000   0.92484819   -3.2433947   -1.7508824  0.059591389   -3.2433947    1.4925123   408101 
 4549000   0.92375229   -3.2425881   -1.7517712  0.055814878   -3.2425881    1.4908168   408081 
 4550000   0.92528049   -3.2452211   -1.7518648  0.053720673   -3.2452211    1.4933563   408061 
 4551000   0.92494847   -3.2457372   -1.7528436  0.057132557   -3.2457372    1.4928936   408041 
 4552000   0.92409867   -3.2442335   -1.7526384  0.061363598   -3.2442335    1.4915951   408021 
 4553000   0.92604672   -3.2478446   -1.7530318  0.056365142   -3.2478446    1.4948128   408001 
 4554000   0.92226073   -3.2431324    -1.754358  0.060648199   -3.2431324    1.4887745   407981 
 4555000   0.92247715   -3.2449578    -1.755761   0.05656182   -3.2449578    1.4891968   407961 
 4556000   0.92282907   -3.2436751   -1.7538371  0.059241394   -3.2436751     1.489838   407941 
 4557000   0.92274863   -3.2439432    -1.754162  0.054514099   -3.2439432    1.4897812   407921 
 4558000   0.92192837    -3.243608   -1.7550782   0.05280685    -3.243608    1.4885298   407901 
 4559000   0.92306229   -3.2452116   -1.7547778  0.055997209   -3.2452116    1.4904337   407881 
 4560000   0.92227713   -3.2444245   -1.7551856  0.052069643   -3.2444245     1.489239   407861 
 4561000   0.92162307   -3.2437812   -1.7555254  0.056610474   -3.2437812    1.4882558   407841 
 4562000   0.92151556    -3.244147   -1.7559918  0.055136276    -3.244147    1.4881552   407821 
 4563000   0.92283134   -3.2451357   -1.7547826  0.057481807   -3.2451357    1.4903531   407801 
 4564000   0.92198225   -3.2446231   -1.7555682  0.058126508   -3.2446231    1.4890549   407781 
 4565000   0.92197817     -3.24411   -1.7549887   0.06135527     -3.24411    1.4891213   407761 
 4566000   0.92326138   -3.2466469   -1.7553799  0.057464406   -3.2466469     1.491267   407741 
 4567000   0.92304367    -3.245624   -1.7546355  0.055149396    -3.245624    1.4909885   407721 
 4568000   0.92356018   -3.2436922   -1.7517961  0.056473142   -3.2436922     1.491896   407701 
 4569000   0.92490434   -3.2464475   -1.7523069    0.0562691   -3.2464475    1.4941406   407681 
 4570000   0.92274198    -3.244943   -1.7542224   0.06318472    -3.244943    1.4907206   407661 
 4571000   0.92385384   -3.2451946   -1.7526045  0.061392387   -3.2451946      1.49259   407641 
 4572000   0.92174884   -3.2432943    -1.754032   0.05585295   -3.2432943    1.4892623   407621 
 4573000   0.92143701   -3.2430698   -1.7542383   0.06165148   -3.2430698    1.4888315   407601 
 4574000   0.92428473   -3.2476648   -1.7541588  0.054710889   -3.2476648     1.493506   407581 
 4575000   0.92226517   -3.2442475   -1.7539316  0.056394504   -3.2442475    1.4903158   407561 
 4576000   0.92320042   -3.2459769   -1.7540766  0.057765245   -3.2459769    1.4919004   407541 
 4577000   0.92303423   -3.2470092   -1.7553042  0.057122692   -3.2470092     1.491705   407521 
 4578000   0.92271066   -3.2469403   -1.7556851  0.055787283   -3.2469403    1.4912553   407501 
 4579000    0.9210519   -3.2443426   -1.7556951  0.056327924   -3.2443426    1.4886475   407481 
 4580000   0.92316092   -3.2487332   -1.7566038    0.0546705   -3.2487332    1.4921294   407461 
 4581000   0.92259312   -3.2474654   -1.7561805  0.062063797   -3.2474654    1.4912849   407441 
 4582000   0.92311458   -3.2476234   -1.7554224  0.057412353   -3.2476234     1.492201   407421 
 4583000   0.92245462   -3.2479934    -1.756786  0.059699631   -3.2479934    1.4912074   407401 
 4584000   0.92316704   -3.2478364    -1.755404  0.058255695   -3.2478364    1.4924323   407381 
 4585000   0.92234071   -3.2476119   -1.7564422  0.055043809   -3.2476119    1.4911697   407361 
 4586000   0.92037873   -3.2442741   -1.7562034  0.060094814   -3.2442741    1.4880708   407341 
 4587000   0.92065704   -3.2457334   -1.7571396  0.053689887   -3.2457334    1.4885938   407321 
 4588000   0.92104568   -3.2456666   -1.7563712  0.058912834   -3.2456666    1.4892953   407301 
 4589000   0.92122145   -3.2463213   -1.7566686   0.05538071   -3.2463213    1.4896527   407281 
 4590000   0.91946557   -3.2444972   -1.7576108  0.053981902   -3.2444972    1.4868864   407261 
 4591000   0.92060049    -3.247416   -1.7586212  0.053856988    -3.247416    1.4887948   407241 
 4592000   0.92173386   -3.2475386   -1.7568377  0.058147143   -3.2475386    1.4907009   407221 
 4593000   0.92213583   -3.2474736   -1.7560494  0.052951978   -3.2474736    1.4914242   407201 
 4594000   0.92073773   -3.2473956   -1.7581594  0.055627545   -3.2473956    1.4892361   407181 
 4595000   0.91987769   -3.2474406   -1.7595224   0.05545924   -3.2474406    1.4879182   407161 
 4596000   0.91837873   -3.2448024   -1.7592358  0.057347393   -3.2448024    1.4855665   407141 
 4597000   0.92050624   -3.2461698   -1.7570887  0.052976194   -3.2461698    1.4890811   407121 
 4598000   0.92010931   -3.2453405   -1.7568284  0.057147343   -3.2453405    1.4885122   407101 
 4599000   0.92091902   -3.2478625   -1.7579672  0.057854505   -3.2478625    1.4898953   407081 
 4600000   0.92135114   -3.2477552   -1.7570876  0.056277871   -3.2477552    1.4906676   407061 
 4601000   0.92117808   -3.2476391   -1.7571783  0.054019728   -3.2476391    1.4904608   407041 
 4602000   0.92103484   -3.2482151   -1.7579128  0.055814927   -3.2482151    1.4903023   407021 
 4603000   0.92239873    -3.251038   -1.7584555  0.056504741    -3.251038    1.4925825   407001 
 4604000   0.92166247   -3.2498825   -1.7584181  0.053718213   -3.2498825    1.4914644   406981 
 4605000   0.92105723   -3.2491169   -1.7585587  0.057413661   -3.2491169    1.4905583   406961 
 4606000   0.92154689   -3.2494563   -1.7580324  0.056483982   -3.2494563     1.491424   406941 
 4607000   0.92136292   -3.2494285   -1.7582289  0.049913008   -3.2494285    1.4911995   406921 
 4608000   0.91977613   -3.2465552   -1.7578506  0.058544065   -3.2465552    1.4887045   406901 
 4609000   0.91961993   -3.2470059    -1.758481  0.060057169   -3.2470059    1.4885249   406881 
 4610000   0.92126936   -3.2483833   -1.7571153  0.056937444   -3.2483833     1.491268   406861 
 4611000   0.91917144   -3.2475845   -1.7596393  0.056081382   -3.2475845    1.4879452   406841 
 4612000   0.92088147   -3.2508919   -1.7601053  0.056561766   -3.2508919    1.4907867   406821 
 4613000   0.92096976    -3.251258   -1.7602551  0.052895104    -3.251258    1.4910029   406801 
 4614000   0.92040387   -3.2508414   -1.7606814  0.053133004   -3.2508414      1.49016   406781 
 4615000   0.91997262   -3.2480101   -1.7584751  0.055549239   -3.2480101     1.489535   406761 
 4616000   0.92252406   -3.2524025    -1.758663  0.057220427   -3.2524025    1.4937396   406741 
 4617000   0.92148885   -3.2505101   -1.7583733  0.061873462   -3.2505101    1.4921367   406721 
 4618000   0.92101524   -3.2487235   -1.7572803   0.06125424   -3.2487235    1.4914432   406701 
 4619000   0.92034012   -3.2481951   -1.7577719  0.058851654   -3.2481951    1.4904232   406681 
 4620000   0.92099858   -3.2501744   -1.7586116  0.055563083   -3.2501744    1.4915629   406661 
 4621000   0.91958485   -3.2486946    -1.759348  0.050249659   -3.2486946    1.4893466   406641 
 4622000   0.92012152   -3.2494127   -1.7591236  0.055039099   -3.2494127    1.4902891   406621 
 4623000   0.92124192   -3.2499763   -1.7577992  0.056574997   -3.2499763    1.4921771   406601 
 4624000   0.92067042   -3.2483209   -1.7569961  0.058118214   -3.2483209    1.4913248   406581 
 4625000   0.91955443   -3.2465494    -1.756959  0.052280796   -3.2465494    1.4895904   406561 
 4626000   0.91952178   -3.2465462   -1.7569354  0.056903689   -3.2465462    1.4896108   406541 
 4627000   0.91996296    -3.247109   -1.7567102  0.055874297    -3.247109    1.4903988   406521 
 4628000   0.91840846   -3.2455183   -1.7575647  0.053533018   -3.2455183    1.4879536   406501 
 4629000    0.9186347   -3.2455501   -1.7571567  0.056370976   -3.2455501    1.4883934   406481 
 4630000   0.92028005   -3.2477534   -1.7566208  0.051600172   -3.2477534    1.4911326   406461 
 4631000   0.91943009   -3.2453766   -1.7555479  0.055620554   -3.2453766    1.4898287   406441 
 4632000   0.92021103   -3.2476878   -1.7565203  0.055515353   -3.2476878    1.4911675   406421 
 4633000   0.91913725   -3.2450069   -1.7555062  0.051356974   -3.2450069    1.4895008   406401 
 4634000   0.91901526   -3.2452629   -1.7558866   0.05899668   -3.2452629    1.4893764   406381 
 4635000   0.92003066   -3.2464147   -1.7553194  0.054427034   -3.2464147    1.4910953   406361 
 4636000   0.92037967   -3.2463697   -1.7546353  0.054681562   -3.2463697    1.4917344   406341 
 4637000    0.9194621   -3.2453751   -1.7550545  0.050293653   -3.2453751    1.4903206   406321 
 4638000   0.91960134   -3.2460794   -1.7554598  0.053333319   -3.2460794    1.4906196   406301 
 4639000   0.91740931   -3.2448389   -1.7576992  0.054830779   -3.2448389    1.4871397   406281 
 4640000   0.91985879   -3.2463679   -1.7551842  0.054071077   -3.2463679    1.4911838   406261 
 4641000   0.91972791   -3.2444739   -1.7534289  0.053910107   -3.2444739     1.491045   406241 
 4642000   0.91848821   -3.2440482   -1.7549397  0.054745875   -3.2440482    1.4891085   406221 
 4643000    0.9211352   -3.2468258   -1.7533522  0.057701969   -3.2468258    1.4934735   406201 
 4644000    0.9221529     -3.24774   -1.7525429  0.054226262     -3.24774    1.4951972   406181 
 4645000   0.92162413   -3.2484043    -1.753991  0.056427549   -3.2484043    1.4944134   406161 
 4646000   0.91946629   -3.2455968   -1.7546089  0.056969429   -3.2455968    1.4909879   406141 
 4647000   0.91926652   -3.2446513    -1.753914  0.057939528   -3.2446513    1.4907373   406121 
 4648000   0.92042384   -3.2459486    -1.753261  0.050395884   -3.2459486    1.4926876   406101 
 4649000   0.91811568   -3.2434715   -1.7544538  0.053429632   -3.2434715    1.4890177   406081 
 4650000   0.91758485   -3.2435077   -1.7552776  0.056633117   -3.2435077    1.4882301   406061 
 4651000   0.91832597   -3.2459151   -1.7564096  0.051805854   -3.2459151    1.4895055   406041 
 4652000   0.91799016   -3.2444299   -1.7553957  0.056891518   -3.2444299    1.4890342   406021 
 4653000   0.91705941   -3.2442882   -1.7566905  0.052870648   -3.2442882    1.4875977   406001 
 4654000   0.91649672   -3.2441959   -1.7574377  0.054507638   -3.2441959    1.4867582   405981 
 4655000   0.91660956   -3.2451602   -1.7581457  0.052152102   -3.2451602    1.4870145   405961 
 4656000   0.91838183   -3.2466775   -1.7567145  0.053025516   -3.2466775    1.4899631   405941 
 4657000   0.91896316   -3.2474302   -1.7564505  0.055161341   -3.2474302    1.4909796   405921 
 4658000   0.91926041   -3.2466481   -1.7551127   0.05667717   -3.2466481    1.4915354   405901 
 4659000   0.91779478   -3.2454305   -1.7561998  0.061419809   -3.2454305    1.4892307   405881 
 4660000   0.91817766    -3.245893   -1.7559675  0.057318656    -3.245893    1.4899254   405861 
 4661000   0.91800539    -3.245024   -1.7553047  0.056079004    -3.245024    1.4897193   405841 
 4662000   0.91863002   -3.2466389   -1.7558325  0.054283967   -3.2466389    1.4908064   405821 
 4663000   0.91770096   -3.2450915   -1.7557194  0.058743673   -3.2450915    1.4893721   405801 
 4664000   0.91641104    -3.243575   -1.7562231   0.06077127    -3.243575    1.4873519   405781 
 4665000    0.9170488    -3.245989   -1.7575287  0.056446031    -3.245989    1.4884604   405761 
 4666000   0.91995531   -3.2497723   -1.7565208  0.051630631   -3.2497723    1.4932515   405741 
 4667000      0.91716   -3.2459124   -1.7571248  0.056027593   -3.2459124    1.4887876   405721 
 4668000   0.91681474   -3.2459287   -1.7576281  0.054411425   -3.2459287    1.4883006   405701 
 4669000   0.91758275   -3.2475742   -1.7579534  0.058650856   -3.2475742    1.4896207   405681 
 4670000   0.91875957   -3.2500614   -1.7584567   0.05840327   -3.2500614    1.4916047   405661 
 4671000    0.9185278   -3.2502297   -1.7589277  0.059537338   -3.2502297     1.491302   405641 
 4672000   0.91683691   -3.2475094   -1.7588793  0.056488675   -3.2475094    1.4886301   405621 
 4673000   0.91770821   -3.2473343   -1.7572161  0.060379996   -3.2473343    1.4901182   405601 
 4674000   0.91897221   -3.2503129   -1.7580686  0.054049447   -3.2503129    1.4922442   405581 
 4675000    0.9181628   -3.2497297   -1.7587263  0.060208762   -3.2497297    1.4910034   405561 
 4676000   0.91805652   -3.2502533   -1.7593489   0.05606585   -3.2502533    1.4909044   405541 
 4677000   0.91781496   -3.2505033   -1.7599178   0.05023397   -3.2505033    1.4905856   405521 
 4678000   0.91972724   -3.2527552   -1.7589903  0.056592062   -3.2527552    1.4937649   405501 
 4679000   0.91758262   -3.2501645   -1.7598092  0.061084974   -3.2501645    1.4903553   405481 
 4680000   0.91845038   -3.2516234   -1.7597852  0.055216183   -3.2516234    1.4918383   405461 
 4681000   0.91711731   -3.2488089   -1.7590624  0.056459853   -3.2488089    1.4897465   405441 
 4682000    0.9173229   -3.2490788   -1.7589249  0.054775199   -3.2490788    1.4901539   405421 
 4683000   0.91637396   -3.2486363   -1.7599504  0.051857103   -3.2486363    1.4886858   405401 
 4684000   0.91603963   -3.2496359   -1.7614197  0.054346647   -3.2496359    1.4882161   405381 
 4685000   0.91537454   -3.2483904   -1.7611814  0.057103735   -3.2483904     1.487209   405361 
 4686000   0.91525375   -3.2480346   -1.7609485   0.05179146   -3.2480346    1.4870861   405341 
 4687000   0.91644793   -3.2518154   -1.7627155  0.050755764   -3.2518154    1.4890998   405321 
 4688000   0.91547381   -3.2509676   -1.7633771  0.052674813   -3.2509676    1.4875904   405301 
 4689000   0.91554887    -3.250959   -1.7631731  0.055386191    -3.250959    1.4877858   405281 
 4690000   0.91539663   -3.2494878   -1.7618759  0.054342477   -3.2494878    1.4876119   405261 
 4691000    0.9169123   -3.2519018   -1.7617533  0.054347852   -3.2519018    1.4901485   405241 
 4692000   0.91458572   -3.2482799   -1.7618392  0.053230153   -3.2482799    1.4864408   405221 
 4693000   0.91602818   -3.2496153   -1.7607567  0.052957438   -3.2496153    1.4888586   405201 
 4694000   0.91480946   -3.2476754   -1.7607242  0.050789004   -3.2476754    1.4869512   405181 
 4695000   0.91611937    -3.249326   -1.7601722  0.058130933    -3.249326    1.4891538   405161 
 4696000    0.9145135   -3.2476659    -1.761049   0.05592131   -3.2476659    1.4866169   405141 
 4697000    0.9150721   -3.2496696   -1.7620712  0.056599164   -3.2496696    1.4875984   405121 
 4698000    0.9146431   -3.2496829   -1.7627086  0.053808212   -3.2496829    1.4869744   405101 
 4699000   0.91602453   -3.2519262   -1.7626324  0.053957666   -3.2519262    1.4892937   405081 
 4700000   0.91521271   -3.2513307   -1.7632834  0.053095577   -3.2513307    1.4880473   405061 
 4701000   0.91446776    -3.249206   -1.7622965  0.052537489    -3.249206    1.4869095   405041 
 4702000   0.91434482   -3.2489357   -1.7621526  0.060809475   -3.2489357     1.486783   405021 
 4703000   0.91620105   -3.2522239   -1.7623489  0.051260108   -3.2522239     1.489875   405001 
 4704000   0.91462214   -3.2506456   -1.7632647  0.052751241   -3.2506456    1.4873809   404981 
 4705000   0.91434206   -3.2515677   -1.7645688  0.055369273   -3.2515677    1.4869988   404961 
 4706000   0.91450832   -3.2526003   -1.7652576  0.050522244   -3.2526003    1.4873427   404941 
 4707000   0.91498232   -3.2515064   -1.7633194  0.060949899   -3.2515064    1.4881871   404921 
 4708000   0.91525603   -3.2533957   -1.7646899  0.054015512   -3.2533957    1.4887058   404901 
 4709000   0.91566207    -3.255053   -1.7656132  0.057480683    -3.255053    1.4894398   404881 
 4710000   0.91524917   -3.2534619   -1.7646201  0.057362339   -3.2534619    1.4888417   404861 
 4711000   0.91582957   -3.2551351   -1.7652757  0.048571462   -3.2551351    1.4898595   404841 
 4712000   0.91406995   -3.2535183   -1.7664479  0.052711499   -3.2535183    1.4870704   404821 
 4713000   0.91454999   -3.2540295   -1.7661046   0.05964838   -3.2540295    1.4879249   404801 
 4714000    0.9149433    -3.254692   -1.7660536  0.051863539    -3.254692    1.4886383   404781 
 4715000    0.9164684   -3.2546805   -1.7634872  0.058092173   -3.2546805    1.4911934   404761 
 4716000   0.91541183   -3.2542357   -1.7646879  0.057684011   -3.2542357    1.4895478   404741 
 4717000   0.91701308   -3.2562773   -1.7640502  0.058918282   -3.2562773    1.4922271   404721 
 4718000    0.9141304   -3.2527225   -1.7651128  0.058004922   -3.2527225    1.4876097   404701 
 4719000   0.91529244   -3.2551209   -1.7655465  0.061900211   -3.2551209    1.4895744   404681 
 4720000   0.91587073   -3.2560375   -1.7654483  0.057964589   -3.2560375    1.4905892   404661 
 4721000   0.91614842   -3.2572359    -1.766121  0.056751174   -3.2572359    1.4911148   404641 
 4722000   0.91577511   -3.2546295   -1.7640486  0.058300293   -3.2546295    1.4905809   404621 
 4723000   0.91552313   -3.2550174    -1.764773  0.056590297   -3.2550174    1.4902444   404601 
 4724000   0.91554837   -3.2559715   -1.7656124  0.051263306   -3.2559715    1.4903592   404581 
 4725000    0.9140408   -3.2537637    -1.765785  0.057079792   -3.2537637    1.4879787   404561 
 4726000   0.91393991   -3.2545301   -1.7666421   0.05665089   -3.2545301     1.487888   404541 
 4727000    0.9136942   -3.2542618   -1.7667003  0.054586973   -3.2542618    1.4875615   404521 
 4728000   0.91362006   -3.2547892   -1.7672748  0.053546114   -3.2547892    1.4875143   404501 
 4729000   0.91353291    -3.255668   -1.7682221  0.058075575    -3.255668     1.487446   404481 
 4730000   0.91438345   -3.2549075    -1.766003  0.055816502   -3.2549075    1.4889045   404461 
 4731000   0.91607235   -3.2573392   -1.7656109  0.049031904   -3.2573392    1.4917283   404441 
 4732000   0.91341321   -3.2538804   -1.7664087  0.050374372   -3.2538804    1.4874717   404421 
 4733000   0.91363506   -3.2532521   -1.7653455    0.0523544   -3.2532521    1.4879066   404401 
 4734000   0.91392283   -3.2550289     -1.76658  0.052008659   -3.2550289    1.4884488   404381 
 4735000   0.91284799   -3.2529395   -1.7661677   0.05635548   -3.2529395    1.4867719   404361 
 4736000   0.91286141   -3.2531002   -1.7662329  0.052987534   -3.2531002    1.4868673   404341 
 4737000   0.91449561   -3.2541493   -1.7645465  0.053229627   -3.2541493    1.4896027   404321 
 4738000   0.91422928   -3.2537491   -1.7645066  0.056751267   -3.2537491    1.4892426   404301 
 4739000   0.91350774   -3.2534225   -1.7652817  0.056608115   -3.2534225    1.4881408   404281 
 4740000   0.91304512   -3.2534651   -1.7660043  0.060029586   -3.2534651    1.4874608   404261 
 4741000   0.91272461   -3.2540792    -1.767067  0.060731502   -3.2540792    1.4870122   404241 
 4742000   0.91181079    -3.252825   -1.7672281  0.057412274    -3.252825    1.4855969   404221 
 4743000    0.9129323   -3.2530591   -1.7655613  0.057628791   -3.2530591    1.4874978   404201 
 4744000   0.91233814   -3.2520673    -1.765464  0.054123639   -3.2520673    1.4866032   404181 
 4745000   0.91304638   -3.2548141   -1.7669832  0.050303005   -3.2548141    1.4878309   404161 
 4746000   0.91145916   -3.2532946   -1.7679766  0.055376935   -3.2532946     1.485318   404141 
 4747000   0.90994578   -3.2514464   -1.7685212  0.046524506   -3.2514464    1.4829251   404121 
 4748000   0.91308596   -3.2553256   -1.7672094  0.052730731   -3.2553256    1.4881163   404101 
 4749000   0.91198874   -3.2540769   -1.7676753  0.053387001   -3.2540769    1.4864016   404081 
 4750000   0.91215062   -3.2545398   -1.7678008  0.050701255   -3.2545398    1.4867391   404061 
 4751000   0.91186952   -3.2550478   -1.7686934  0.056197397   -3.2550478    1.4863545   404041 
 4752000   0.91223853   -3.2557604   -1.7687308  0.059067175   -3.2557604    1.4870296   404021 
 4753000   0.91272077   -3.2553551   -1.7674658  0.055596392   -3.2553551    1.4878893   404001 
 4754000   0.91416754   -3.2572764   -1.7669549  0.055961434   -3.2572764    1.4903216   403981 
 4755000   0.91298866   -3.2562883   -1.7678149  0.055170124   -3.2562883    1.4884734   403961 
 4756000   0.91296726   -3.2553725   -1.7668603  0.052933944   -3.2553725    1.4885122   403941 
 4757000   0.91271833   -3.2547667   -1.7665867  0.053031151   -3.2547667      1.48818   403921 
 4758000   0.91165623   -3.2536096   -1.7670877  0.056221735   -3.2536096    1.4865219   403901 
 4759000   0.91345185   -3.2561073   -1.7665837   0.05729676   -3.2561073    1.4895235   403881 
 4760000   0.91154202    -3.254842   -1.7683592  0.055265674    -3.254842    1.4864829   403861 
 4761000   0.91224715   -3.2578069   -1.7701005  0.059922247   -3.2578069    1.4877064   403841 
 4762000   0.91051648   -3.2561652   -1.7712076  0.056836704   -3.2561652    1.4849576   403821 
 4763000   0.90974544   -3.2553904   -1.7716168  0.061947957   -3.2553904    1.4837736   403801 
 4764000   0.91012075   -3.2556484   -1.7711891  0.054996383   -3.2556484    1.4844592   403781 
 4765000   0.91065639   -3.2565172   -1.7711108   0.05351525   -3.2565172    1.4854064   403761 
 4766000   0.91133176   -3.2565002   -1.7699185  0.055567672   -3.2565002    1.4865817   403741 
 4767000   0.91267533   -3.2591377   -1.7702906  0.053384151   -3.2591377    1.4888471   403721 
 4768000   0.91339828   -3.2587594   -1.7686591  0.059977483   -3.2587594    1.4901003   403701 
 4769000   0.91247638   -3.2554566   -1.7667865  0.059876918   -3.2554566    1.4886701   403681 
 4770000   0.91288652   -3.2570611   -1.7676481  0.058878125   -3.2570611     1.489413   403661 
 4771000   0.91283292   -3.2580468   -1.7686475  0.059161306   -3.2580468    1.4893993   403641 
 4772000   0.91266351   -3.2577072   -1.7685105  0.055789742   -3.2577072    1.4891967   403621 
 4773000   0.91197065   -3.2568226   -1.7686827  0.055826414   -3.2568226    1.4881399   403601 
 4774000   0.91254716   -3.2567703   -1.7676159  0.055487611   -3.2567703    1.4891544   403581 
 4775000   0.91184661   -3.2562888   -1.7682038  0.056263922   -3.2562888     1.488085   403561 
 4776000   0.91183187   -3.2566761   -1.7685414  0.054640688   -3.2566761    1.4881347   403541 
 4777000   0.91141799   -3.2549068   -1.7673738  0.059485677   -3.2549068    1.4875329   403521 
 4778000   0.91005137   -3.2549071    -1.769531  0.055508452   -3.2549071    1.4853761   403501 
 4779000   0.91053437   -3.2546936   -1.7684555  0.054581657   -3.2546936    1.4862381   403481 
 4780000   0.91090158   -3.2543236   -1.7674124  0.055454215   -3.2543236    1.4869112   403461 
 4781000   0.91055242   -3.2544964   -1.7680815  0.053092629   -3.2544964    1.4864149   403441 
 4782000   0.90991564   -3.2530884   -1.7676393  0.057189279   -3.2530884    1.4854491   403421 
 4783000   0.91074295   -3.2551206   -1.7682472  0.053957469   -3.2551206    1.4868734   403401 
 4784000   0.90951911   -3.2536339   -1.7686849  0.058094413   -3.2536339    1.4849489   403381 
 4785000    0.9107025   -3.2547925   -1.7678378   0.05348571   -3.2547925    1.4869548   403361 
 4786000   0.90854434   -3.2515811   -1.7680765  0.056785467   -3.2515811    1.4835046   403341 
 4787000   0.90877526   -3.2512679   -1.7673127  0.052489314   -3.2512679    1.4839552   403321 
 4788000   0.90978606    -3.252093   -1.7664136  0.052065726    -3.252093    1.4856794   403301 
 4789000   0.90939012   -3.2519771   -1.7668706  0.053416981   -3.2519771    1.4851065   403281 
 4790000   0.90893091   -3.2527573   -1.7683271  0.052598329   -3.2527573    1.4844302   403261 
 4791000    0.9092856   -3.2538936   -1.7688105  0.049161603   -3.2538936    1.4850831   403241 
 4792000   0.90986573   -3.2547606   -1.7686563  0.055333659   -3.2547606    1.4861043   403221 
 4793000   0.91046842   -3.2548861   -1.7677236  0.053409166   -3.2548861    1.4871625   403201 
 4794000   0.91043322   -3.2551819   -1.7680032  0.054048545   -3.2551819    1.4871787   403181 
 4795000   0.90982827   -3.2547472   -1.7684829  0.053719923   -3.2547472    1.4862643   403161 
 4796000   0.91114672   -3.2560058   -1.7675139  0.050407437   -3.2560058    1.4884919   403141 
 4797000   0.91100211   -3.2563657   -1.7680362   0.05098989   -3.2563657    1.4883295   403121 
 4798000   0.90989588   -3.2550619   -1.7684659  0.055453419   -3.2550619     1.486596   403101 
 4799000   0.90978284   -3.2550896   -1.7686046  0.054597579   -3.2550896    1.4864851   403081 
 4800000   0.90940587   -3.2544741   -1.7685313  0.053400898   -3.2544741    1.4859428   403061 
 4801000   0.90956362   -3.2561782   -1.7699039  0.053256298   -3.2561782    1.4862744   403041 
 4802000   0.91056938    -3.256712   -1.7687204   0.05624901    -3.256712    1.4879917   403021 
 4803000   0.91054162   -3.2570904   -1.7690702  0.052906619   -3.2570904    1.4880201   403001 
 4804000   0.91041007   -3.2574661    -1.769587  0.059771166   -3.2574661     1.487879   402981 
 4805000   0.91134036   -3.2591041   -1.7696308  0.052677619   -3.2591041    1.4894733   402961 
 4806000   0.91083136   -3.2579173   -1.7692021  0.056766884   -3.2579173    1.4887153   402941 
 4807000   0.91084007   -3.2580342   -1.7692308  0.053138071   -3.2580342    1.4888034   402921 
 4808000   0.91042362   -3.2568212   -1.7686246  0.062664142   -3.2568212    1.4881966   402901 
 4809000   0.90879614   -3.2549348   -1.7693248  0.056975565   -3.2549348      1.48561   402881 
 4810000   0.90919962   -3.2566956   -1.7703522  0.055476557   -3.2566956    1.4863434   402861 
 4811000   0.90836006    -3.256402   -1.7713575  0.052482163    -3.256402    1.4850446   402841 
 4812000   0.90790164   -3.2572912   -1.7729223  0.050075691   -3.2572912    1.4843688   402821 
 4813000   0.90878124   -3.2585353   -1.7726546  0.057773859   -3.2585353    1.4858807   402801 
 4814000   0.90989578   -3.2596387   -1.7718618  0.056021812   -3.2596387    1.4877769   402781 
 4815000   0.90943315   -3.2596469   -1.7725526   0.05207457   -3.2596469    1.4870943   402761 
 4816000   0.90828609   -3.2573183   -1.7720259  0.051121008   -3.2573183    1.4852924   402741 
 4817000   0.90944342   -3.2589602   -1.7717014  0.051260281   -3.2589602    1.4872588   402721 
 4818000   0.90965637   -3.2594347   -1.7717538  0.049910692   -3.2594347    1.4876809   402701 
 4819000   0.91010528   -3.2591923   -1.7707034  0.054866451   -3.2591923     1.488489   402681 
 4820000   0.90833697   -3.2564695   -1.7707988  0.057891495   -3.2564695    1.4856707   402661 
 4821000   0.91002118   -3.2573598   -1.7688605  0.056723615   -3.2573598    1.4884993   402641 
 4822000   0.91110125   -3.2597038   -1.7693639  0.059682764   -3.2597038      1.49034   402621 
 4823000   0.90847113   -3.2567881   -1.7706766  0.058348792   -3.2567881    1.4861116   402601 
 4824000   0.90931096   -3.2581442   -1.7705849  0.051867052   -3.2581442    1.4875593   402581 
 4825000   0.90997058   -3.2569443    -1.768232   0.06532366   -3.2569443    1.4887123   402561 
 4826000   0.91032469   -3.2576928   -1.7683272  0.055640916   -3.2576928    1.4893656   402541 
 4827000   0.91090079   -3.2590416   -1.7686593  0.055842169   -3.2590416    1.4903822   402521 
 4828000   0.91004097   -3.2590611   -1.7700116  0.055337097   -3.2590611    1.4890494   402501 
 4829000   0.91090177   -3.2582615   -1.7677295  0.053378072   -3.2582615     1.490532   402481 
 4830000   0.90980569   -3.2575523   -1.7687399  0.057038282   -3.2575523    1.4888124   402461 
 4831000   0.90895018   -3.2564862   -1.7689999  0.057626818   -3.2564862    1.4874864   402441 
 4832000   0.91005726   -3.2574527   -1.7680806  0.057484472   -3.2574527    1.4893721   402421 
 4833000   0.91050301   -3.2594185   -1.7692429  0.053038698   -3.2594185    1.4901757   402401 
 4834000   0.91025348   -3.2582805   -1.7684392  0.054377499   -3.2582805    1.4898413   402381 
 4835000   0.90969509    -3.257205   -1.7682036  0.060695925    -3.257205    1.4890014   402361 
 4836000   0.90834736   -3.2547927   -1.7679234  0.059757402   -3.2547927    1.4868693   402341 
 4837000   0.90800988   -3.2541113   -1.7677205  0.053582561   -3.2541113    1.4863908   402321 
 4838000   0.90568068   -3.2520153   -1.7693637  0.052922422   -3.2520153    1.4826516   402301 
 4839000   0.90655069   -3.2523682   -1.7682186  0.053465285   -3.2523682    1.4841497   402281 
 4840000    0.9089377   -3.2547321   -1.7666005  0.051922045   -3.2547321    1.4881315   402261 
 4841000    0.9088953   -3.2533654   -1.7652293  0.051890653   -3.2533654    1.4881361   402241 
 4842000   0.90863453   -3.2535036   -1.7657205  0.051025855   -3.2535036    1.4877831   402221 
 4843000   0.90697312    -3.251027   -1.7658904  0.052938963    -3.251027    1.4851366   402201 
 4844000   0.90677533    -3.253071   -1.7681845  0.053595735    -3.253071    1.4848866   402181 
 4845000    0.9055248    -3.251778   -1.7688654  0.053313052    -3.251778    1.4829125   402161 
 4846000   0.90782565   -3.2542578   -1.7675034  0.049967551   -3.2542578    1.4867544   402141 
 4847000   0.90620912   -3.2516399   -1.7674591  0.048759953   -3.2516399    1.4841808   402121 
 4848000   0.90714822   -3.2521597    -1.766367   0.05017461   -3.2521597    1.4857927   402101 
 4849000   0.90716746   -3.2518213   -1.7659231  0.053511155   -3.2518213    1.4858982   402081 
 4850000   0.90672997   -3.2513722   -1.7661167    0.0541759   -3.2513722    1.4852554   402061 
 4851000   0.90725613   -3.2531814   -1.7669902  0.051057166   -3.2531814    1.4861912   402041 
 4852000   0.90690669   -3.2532437    -1.767551  0.051655738   -3.2532437    1.4856927   402021 
 4853000   0.90659498   -3.2517082   -1.7664522  0.051577656   -3.2517082     1.485256   402001 
 4854000   0.90799312   -3.2534159   -1.7657954  0.052288473   -3.2534159    1.4876205   401981 
 4855000   0.90621001   -3.2519996   -1.7672266  0.058131051   -3.2519996     1.484773   401961 
 4856000   0.90975193   -3.2575585   -1.7669081   0.05236129   -3.2575585    1.4906504   401941 
 4857000   0.90704932   -3.2529325   -1.7666364  0.056690995   -3.2529325    1.4862961   401921 
 4858000   0.90799961   -3.2540265   -1.7660992  0.055441756   -3.2540265    1.4879273   401901 
 4859000   0.90729413   -3.2551481   -1.7683029  0.060575781   -3.2551481    1.4868452   401881 
 4860000   0.90694971   -3.2559918    -1.769637  0.053084888   -3.2559918    1.4863548   401861 
 4861000   0.90738777   -3.2570118   -1.7698651  0.057092824   -3.2570118    1.4871467   401841 
 4862000   0.90899071   -3.2602165   -1.7703686  0.052539113   -3.2602165     1.489848   401821 
 4863000   0.90672894   -3.2574126   -1.7711978  0.053243655   -3.2574126    1.4862148   401801 
 4864000   0.90617762   -3.2561046   -1.7707194  0.057389498   -3.2561046    1.4853851   401781 
 4865000   0.90749715   -3.2573787   -1.7697566  0.051585639   -3.2573787    1.4876221   401761 
 4866000   0.90687098   -3.2581621   -1.7714924  0.050586245   -3.2581621    1.4866697   401741 
 4867000   0.90707207   -3.2590783   -1.7720049  0.052645173   -3.2590783    1.4870733   401721 
 4868000   0.90670439   -3.2575953   -1.7710507  0.053676188   -3.2575953    1.4865446   401701 
 4869000   0.90648557   -3.2568003   -1.7705405  0.059331923   -3.2568003    1.4862598   401681 
 4870000   0.90822949   -3.2590624   -1.7698691  0.058594076   -3.2590624    1.4891933   401661 
 4871000   0.90711041    -3.258295   -1.7708626  0.055575305    -3.258295    1.4874324   401641 
 4872000   0.90862021   -3.2608729   -1.7708906  0.055431007   -3.2608729    1.4899823   401621 
 4873000    0.9077316   -3.2581586   -1.7695593  0.051514265   -3.2581586    1.4885993   401601 
 4874000   0.90714169   -3.2590248   -1.7713189   0.05624241   -3.2590248     1.487706   401581 
 4875000   0.90587962   -3.2573226   -1.7716124  0.056632857   -3.2573226    1.4857102   401561 
 4876000   0.90652983   -3.2569328   -1.7700822  0.054666684   -3.2569328    1.4868506   401541 
 4877000   0.90648517   -3.2564855    -1.769634  0.057001924   -3.2564855    1.4868514   401521 
 4878000   0.90624627   -3.2558356   -1.7693019  0.057337764   -3.2558356    1.4865336   401501 
 4879000   0.90810535   -3.2569384   -1.7672811  0.053941278   -3.2569384    1.4896573   401481 
 4880000   0.90712805    -3.256682   -1.7685537  0.054852534    -3.256682    1.4881283   401461 
 4881000   0.90704581   -3.2579865    -1.769919  0.056559824   -3.2579865    1.4880675   401441 
 4882000   0.90782464   -3.2591151   -1.7696957  0.054522409   -3.2591151    1.4894194   401421 
 4883000   0.90562969   -3.2546157   -1.7687234  0.054688279   -3.2546157    1.4858923   401401 
 4884000   0.90626178   -3.2547818   -1.7677783   0.05518929   -3.2547818    1.4870035   401381 
 4885000   0.90646271   -3.2561673     -1.76876  0.050630858   -3.2561673    1.4874073   401361 
 4886000   0.90450173   -3.2538763   -1.7696128  0.053709292   -3.2538763    1.4842635   401341 
 4887000   0.90506583   -3.2560517   -1.7707885  0.048202411   -3.2560517    1.4852632   401321 
 4888000   0.90514251   -3.2555399   -1.7700769  0.055786534   -3.2555399    1.4854631   401301 
 4889000   0.90456796   -3.2552222   -1.7706281  0.051923384   -3.2552222    1.4845941   401281 
 4890000   0.90469939   -3.2561885   -1.7713046  0.054019537   -3.2561885    1.4848838   401261 
 4891000    0.9037656   -3.2538611    -1.770436  0.053398543   -3.2538611    1.4834251   401241 
 4892000   0.90509259   -3.2545038   -1.7688266   0.05256207   -3.2545038    1.4856773   401221 
 4893000   0.90420633   -3.2534268   -1.7691303  0.050787303   -3.2534268    1.4842965   401201 
 4894000   0.90525776   -3.2541631   -1.7680665  0.056471817   -3.2541631    1.4860966   401181 
 4895000   0.90493016   -3.2537628   -1.7681299  0.058690766   -3.2537628    1.4856328   401161 
 4896000   0.90609247   -3.2537697   -1.7661545  0.056992653   -3.2537697    1.4876152   401141 
 4897000    0.9051216   -3.2532336   -1.7671383  0.055896188   -3.2532336    1.4860953   401121 
 4898000   0.90604122   -3.2546775   -1.7669981  0.051384674   -3.2546775    1.4876794   401101 
 4899000   0.90587541   -3.2545064   -1.7670251  0.055354732   -3.2545064    1.4874813   401081 
 4900000   0.90496381   -3.2526128   -1.7665543  0.055763154   -3.2526128    1.4860585   401061 
 4901000   0.90637164   -3.2555877   -1.7671431  0.053574882   -3.2555877    1.4884446   401041 
 4902000   0.90615464   -3.2557074   -1.7675449  0.051489758   -3.2557074    1.4881624   401021 
 4903000    0.9056756   -3.2552125   -1.7677626  0.052944915   -3.2552125    1.4874499   401001 
 4904000   0.90606611   -3.2557249   -1.7675594  0.055375492   -3.2557249    1.4881655   400981 
 4905000    0.9051927   -3.2541414   -1.7673363  0.053891754   -3.2541414    1.4868051   400961 
 4906000   0.90541888   -3.2553326   -1.7680818  0.057153606   -3.2553326    1.4872508   400941 
 4907000   0.90407732   -3.2551615   -1.7700403  0.060589554   -3.2551615    1.4851212   400921 
 4908000   0.90490748   -3.2567605   -1.7702015  0.053577839   -3.2567605    1.4865591   400901 
 4909000   0.90403829   -3.2546898   -1.7694845  0.052682008   -3.2546898    1.4852053   400881 
 4910000   0.90439563   -3.2550855    -1.769219  0.048129557   -3.2550855    1.4858665   400861 
 4911000   0.90325526   -3.2531213   -1.7690544  0.048968705   -3.2531213     1.484067   400841 
 4912000    0.9027397    -3.252638   -1.7693442  0.053351769    -3.252638    1.4832939   400821 
 4913000   0.90574286   -3.2562262   -1.7679235    0.0576093   -3.2562262    1.4883027   400801 
 4914000    0.9054412   -3.2552054   -1.7673241  0.054984955   -3.2552054    1.4878812   400781 
 4915000   0.90465167    -3.254615    -1.767957  0.049634925    -3.254615     1.486658   400761 
 4916000   0.90431552   -3.2547414   -1.7685616  0.052963727   -3.2547414    1.4861798   400741 
 4917000    0.9055885     -3.25751   -1.7691639  0.056035539     -3.25751    1.4883461   400721 
 4918000   0.90453959   -3.2558874    -1.769191  0.056831562   -3.2558874    1.4866964   400701 
 4919000   0.90598627   -3.2574696   -1.7683212  0.052170293   -3.2574696    1.4891485   400681 
 4920000   0.90359767   -3.2544107   -1.7691141  0.056705708   -3.2544107    1.4852965   400661 
 4921000   0.90551898   -3.2585125   -1.7699835  0.054212566   -3.2585125     1.488529   400641 
 4922000   0.90303368   -3.2556986    -1.771181  0.052669393   -3.2556986    1.4845177   400621 
 4923000    0.9040022   -3.2563123   -1.7701283  0.054391896   -3.2563123     1.486184   400601 
 4924000   0.90418538    -3.256168   -1.7696086  0.056788398    -3.256168    1.4865594   400581 
 4925000   0.90315479   -3.2559128   -1.7709736  0.059815752   -3.2559128    1.4849392   400561 
 4926000   0.90369079   -3.2582869   -1.7723923  0.050686495   -3.2582869    1.4858946   400541 
 4927000   0.90412307   -3.2570806   -1.7704009  0.055528212   -3.2570806    1.4866796   400521 
 4928000   0.90559244   -3.2582667   -1.7690966   0.05437371   -3.2582667    1.4891701   400501 
 4929000    0.9050859   -3.2564113   -1.7679998  0.053721132   -3.2564113    1.4884115   400481 
 4930000   0.90507574   -3.2575678   -1.7690987  0.054348942   -3.2575678    1.4884691   400461 
 4931000   0.90544446   -3.2582242   -1.7690743  0.061239668   -3.2582242    1.4891499   400441 
 4932000   0.90274506   -3.2551544     -1.77037  0.058329655   -3.2551544    1.4847844   400421 
 4933000   0.90145628   -3.2537502   -1.7710114  0.059887005   -3.2537502    1.4827388   400401 
 4934000   0.90379499   -3.2578785   -1.7712187  0.053065007   -3.2578785    1.4866598   400381 
 4935000    0.9026017   -3.2561286   -1.7713575  0.056171813   -3.2561286    1.4847711   400361 
 4936000   0.90214718   -3.2557244   -1.7716268  0.056118485   -3.2557244    1.4840976   400341 
 4937000   0.90264162    -3.256681   -1.7716958  0.052699629    -3.256681    1.4849852   400321 
 4938000   0.90357476   -3.2584345   -1.7718399  0.050004865   -3.2584345    1.4865946   400301 
 4939000   0.90226206   -3.2558284   -1.7713194  0.057679673   -3.2558284    1.4845091   400281 
 4940000   0.90289883   -3.2564228   -1.7707918  0.054072604   -3.2564228     1.485631   400261 
 4941000   0.90170375    -3.255706   -1.7719672  0.051293621    -3.255706    1.4837387   400241 
 4942000   0.90407263   -3.2602736   -1.7725626  0.049774955   -3.2602736     1.487711   400221 
 4943000   0.90361659   -3.2584251   -1.7713903  0.056226529   -3.2584251    1.4870349   400201 
 4944000   0.90468691    -3.259907   -1.7710364  0.052776463    -3.259907    1.4888707   400181 
 4945000   0.90362856   -3.2585791   -1.7713758  0.051650508   -3.2585791    1.4872032   400161 
 4946000   0.90137367   -3.2557811   -1.7722149  0.056409523   -3.2557811    1.4835663   400141 
 4947000   0.90154551   -3.2556401   -1.7717168  0.051153527   -3.2556401    1.4839233   400121 
 4948000    0.9030387   -3.2582675   -1.7718122  0.058172354   -3.2582675    1.4864553   400101 
 4949000   0.90374005   -3.2586876   -1.7710034   0.05680586   -3.2586876    1.4876841   400081 
 4950000   0.90330108   -3.2556662   -1.7686303  0.060880684   -3.2556662    1.4870359   400061 
 4951000   0.90447388   -3.2578551   -1.7688141  0.054206485   -3.2578551     1.489041   400041 
 4952000   0.90350124   -3.2577526   -1.7702385  0.057248721   -3.2577526    1.4875141   400021 
 4953000    0.9042523   -3.2598269   -1.7710018  0.050415254   -3.2598269    1.4888251   400001 
 4954000   0.90181799   -3.2559191   -1.7710277  0.054866234   -3.2559191    1.4848913   399981 
 4955000   0.90204887    -3.257238   -1.7718922  0.052235814    -3.257238    1.4853457   399961 
 4956000   0.90103192   -3.2553425   -1.7715971   0.05062523   -3.2553425    1.4837454   399941 
 4957000   0.90066713   -3.2552532   -1.7720344  0.054564398   -3.2552532    1.4832188   399921 
 4958000   0.90200144   -3.2566316   -1.7711411  0.050661613   -3.2566316    1.4854905   399901 
 4959000   0.90151221   -3.2559293   -1.7711702  0.052053381   -3.2559293     1.484759   399881 
 4960000   0.90044985   -3.2531439   -1.7700604   0.05206228   -3.2531439    1.4830835   399861 
 4961000   0.90032148   -3.2527785   -1.7698322  0.055737171   -3.2527785    1.4829463   399841 
 4962000   0.90262383   -3.2558946   -1.7690817   0.05376126   -3.2558946    1.4868129   399821 
 4963000   0.90278516   -3.2557403   -1.7685872   0.06019037   -3.2557403    1.4871531   399801 
 4964000   0.90194683    -3.255971   -1.7701246  0.055297561    -3.255971    1.4858464   399781 
 4965000   0.90144628   -3.2561447   -1.7710486  0.053547835   -3.2561447    1.4850961   399761 
 4966000   0.90047396   -3.2571876   -1.7736192  0.055701896   -3.2571876    1.4835685   399741 
 4967000   0.90140151   -3.2585238   -1.7733529  0.047743719   -3.2585238     1.485171   399721 
 4968000   0.90144709   -3.2581001   -1.7727797  0.051358792   -3.2581001    1.4853204   399701 
 4969000   0.90080562   -3.2570233   -1.7726856  0.051088898   -3.2570233    1.4843377   399681 
 4970000   0.89999018   -3.2558057   -1.7727374  0.050889465   -3.2558057    1.4830682   399661 
 4971000   0.90006925   -3.2562306   -1.7729578   0.05273554   -3.2562306    1.4832728   399641 
 4972000   0.90163791   -3.2591724   -1.7732402  0.051956983   -3.2591724    1.4859322   399621 
 4973000   0.90048987   -3.2603451   -1.7762306  0.057928954   -3.2603451    1.4841145   399601 
 4974000   0.90010494     -3.25904   -1.7754857  0.057741855     -3.25904    1.4835543   399581 
 4975000    0.9007859    -3.260509    -1.775758  0.057856028    -3.260509     1.484751   399561 
 4976000   0.90080463   -3.2604601   -1.7756039  0.054240708   -3.2604601    1.4848562   399541 
 4977000   0.90300489   -3.2620494   -1.7734919   0.05462781   -3.2620494    1.4885575   399521 
 4978000    0.9026626   -3.2601724   -1.7721047  0.056352004   -3.2601724    1.4880678   399501 
 4979000   0.90204693   -3.2604907   -1.7733634  0.054053185   -3.2604907    1.4871273   399481 
 4980000    0.9023965   -3.2612645   -1.7734864  0.055621225   -3.2612645    1.4877781   399461 
 4981000   0.90220424   -3.2610657   -1.7735302  0.062737465   -3.2610657    1.4875356   399441 
 4982000    0.9029193   -3.2625739   -1.7737848  0.056457797   -3.2625739    1.4887891   399421 
 4983000   0.90250135   -3.2622374   -1.7740629  0.059474942   -3.2622374    1.4881744   399401 
 4984000   0.90346626     -3.26372   -1.7738798  0.056556481     -3.26372    1.4898401   399381 
 4985000   0.90205929   -3.2621767   -1.7745822  0.055995655   -3.2621767    1.4875945   399361 
 4986000    0.9006525   -3.2608619    -1.775513  0.055178643   -3.2608619    1.4853489   399341 
 4987000   0.90036835   -3.2615495   -1.7765948  0.056541977   -3.2615495    1.4849547   399321 
 4988000   0.89925987   -3.2601053   -1.7769045  0.055237664   -3.2601053    1.4832008   399301 
 4989000   0.90010997   -3.2614922   -1.7768149  0.050717115   -3.2614922    1.4846773   399281 
 4990000   0.90075905   -3.2624692   -1.7766469  0.051902658   -3.2624692    1.4858223   399261 
 4991000   0.90173944   -3.2641732   -1.7766592  0.048827707   -3.2641732     1.487514   399241 
 4992000   0.89864997   -3.2598321   -1.7773403  0.050803874   -3.2598321    1.4824919   399221 
 4993000   0.89769173   -3.2575679   -1.7765826  0.053223675   -3.2575679    1.4809853   399201 
 4994000   0.89967033   -3.2603895   -1.7760657  0.054543075   -3.2603895    1.4843239   399181 
 4995000   0.89854078   -3.2585349   -1.7760004  0.053672642   -3.2585349    1.4825345   399161 
 4996000    0.8985385   -3.2583405   -1.7757354  0.050246906   -3.2583405    1.4826051   399141 
 4997000   0.89972581   -3.2616708   -1.7770322  0.051749262   -3.2616708    1.4846385   399121 
 4998000   0.89925517   -3.2594815   -1.7755452   0.05658117   -3.2594815    1.4839363   399101 
 4999000   0.90051184    -3.259988   -1.7739035  0.056993873    -3.259988    1.4860845   399081 
 5000000   0.90104658    -3.262603   -1.7755615  0.056715562    -3.262603    1.4870415   399061 
 5001000   0.90012921   -3.2615553   -1.7759534  0.050766657   -3.2615553     1.485602   399041 
 5002000   0.90189573   -3.2628774   -1.7742853  0.053040173   -3.2628774    1.4885921   399021 
 5003000   0.90024988   -3.2613565   -1.7754064   0.05563991   -3.2613565    1.4859501   399001 
 5004000   0.90089491   -3.2623097   -1.7752204  0.050836871   -3.2623097    1.4870893   398981 
 5005000   0.90055988   -3.2614001   -1.7747893  0.053559094   -3.2614001    1.4866108   398961 
 5006000   0.90029905   -3.2618632   -1.7756085    0.0545667   -3.2618632    1.4862547   398941 
 5007000   0.89998864    -3.261876   -1.7760592  0.054909157    -3.261876    1.4858168   398921 
 5008000   0.90097436   -3.2647364   -1.7772177  0.054707067   -3.2647364    1.4875187   398901 
 5009000    0.8993465   -3.2612916    -1.776386  0.055253263   -3.2612916    1.4849055   398881 
 5010000   0.89984902     -3.26232   -1.7765103   0.05180859     -3.26232    1.4858098   398861 
 5011000    0.9008548   -3.2626335   -1.7750885  0.056287169   -3.2626335    1.4875451   398841 
 5012000   0.90078498   -3.2617665   -1.7742621  0.054978353   -3.2617665    1.4875044   398821 
 5013000    0.9013901   -3.2629531   -1.7743749  0.056910086   -3.2629531    1.4885783   398801 
 5014000   0.90018628   -3.2616704   -1.7750055  0.060879901   -3.2616704    1.4866648   398781 
 5015000   0.90082695   -3.2630557   -1.7752582  0.054223975   -3.2630557    1.4877975   398761 
 5016000   0.90064199   -3.2629848   -1.7754182  0.055141685   -3.2629848    1.4875666   398741 
 5017000   0.89970114   -3.2630909   -1.7770037  0.058244017   -3.2630909    1.4860872   398721 
 5018000   0.89899334   -3.2624443   -1.7774517  0.053551498   -3.2624443    1.4849926   398701 
 5019000   0.89875499   -3.2620895   -1.7774162  0.055189162   -3.2620895    1.4846733   398681 
 5020000   0.89874535   -3.2609545   -1.7762226  0.057441392   -3.2609545    1.4847319   398661 
 5021000   0.89869143   -3.2612957   -1.7765784  0.052350967   -3.2612957    1.4847173   398641 
 5022000   0.89768612   -3.2587177   -1.7755869  0.051901985   -3.2587177    1.4831308   398621 
 5023000   0.89817874   -3.2604334   -1.7764142  0.051441533   -3.2604334    1.4840192   398601 
 5024000   0.89808172   -3.2609662   -1.7770328  0.051832555   -3.2609662    1.4839334   398581 
 5025000   0.89711632   -3.2575054   -1.7750928  0.056373267   -3.2575054    1.4824126   398561 
 5026000    0.8977602   -3.2591802   -1.7756292  0.050725854   -3.2591802     1.483551   398541 
 5027000   0.89852368   -3.2602952   -1.7754081  0.056528601   -3.2602952    1.4848872   398521 
 5028000   0.89852224   -3.2600661   -1.7751068  0.049029527   -3.2600661    1.4849593   398501 
 5029000   0.89713636   -3.2579868   -1.7752435  0.052669217   -3.2579868    1.4827433   398481 
 5030000   0.89720626   -3.2569452   -1.7740119  0.055638711   -3.2569452    1.4829333   398461 
 5031000   0.89777805    -3.258748   -1.7747952  0.054398809    -3.258748    1.4839528   398441 
 5032000   0.89768904    -3.260191   -1.7763108  0.055105235    -3.260191    1.4838802   398421 
 5033000   0.89794518   -3.2613934   -1.7770153  0.058715255   -3.2613934    1.4843781   398401 
 5034000   0.89944609    -3.261755   -1.7748211  0.056730147    -3.261755    1.4869339   398381 
 5035000   0.89901697   -3.2610239   -1.7747248  0.053745558   -3.2610239    1.4862991   398361 
 5036000   0.89910759    -3.261274   -1.7747505   0.05104676    -3.261274    1.4865235   398341 
 5037000    0.8977838   -3.2601629   -1.7757535  0.058516133   -3.2601629    1.4844094   398321 
 5038000   0.89830292   -3.2612547   -1.7759125  0.057900082   -3.2612547    1.4853423   398301 
 5039000   0.89818096   -3.2608605   -1.7756453  0.057683301   -3.2608605    1.4852152   398281 
 5040000   0.89851665   -3.2626701   -1.7768251  0.057655747   -3.2626701    1.4858449   398261 
 5041000    0.8983655   -3.2632447   -1.7775751  0.053888226   -3.2632447    1.4856696   398241 
 5042000   0.89654703   -3.2604133   -1.7776765  0.057370009   -3.2604133    1.4827367   398221 
 5043000   0.89918634   -3.2627699   -1.7755935  0.058293614   -3.2627699    1.4871764   398201 
 5044000   0.89958311   -3.2633835   -1.7754761  0.055859259   -3.2633835    1.4879074   398181 
 5045000   0.89782168   -3.2616239   -1.7765554  0.055985265   -3.2616239    1.4850685   398161 
 5046000   0.89914591   -3.2633051   -1.7759714   0.05151803   -3.2633051    1.4873336   398141 
 5047000   0.89771293   -3.2608273   -1.7757895   0.05563232   -3.2608273    1.4850379   398121 
 5048000   0.89672344   -3.2578842   -1.7744087  0.057690271   -3.2578842    1.4834755   398101 
 5049000   0.89918874   -3.2625252   -1.7748965  0.048746446   -3.2625252    1.4876287   398081 
 5050000   0.89712359    -3.258952   -1.7746653  0.057852696    -3.258952    1.4842866   398061 
 5051000    0.8987441   -3.2614906   -1.7744481  0.052588665   -3.2614906    1.4870425   398041 
 5052000   0.89723267   -3.2604178   -1.7758015  0.055298495   -3.2604178    1.4846163   398021 
 5053000   0.89646794   -3.2590198   -1.7755943  0.053291698   -3.2590198    1.4834255   398001 
 5054000   0.89658101   -3.2590287   -1.7753416  0.054267577   -3.2590287    1.4836871   397981 
 5055000   0.89772368   -3.2582485   -1.7725958  0.056373944   -3.2582485    1.4856527   397961 
 5056000   0.89665778   -3.2577579   -1.7737946  0.053529662   -3.2577579    1.4839633   397941 
 5057000   0.89726467   -3.2593661   -1.7743237  0.052598413   -3.2593661    1.4850424   397921 
 5058000   0.89676814   -3.2585056   -1.7742104  0.054924977   -3.2585056    1.4842952   397901 
 5059000   0.89544072   -3.2575665    -1.775394   0.05055349   -3.2575665    1.4821726   397881 
 5060000   0.89443249   -3.2561937   -1.7756156  0.057477808   -3.2561937    1.4805781   397861 
 5061000   0.89676088   -3.2588591   -1.7743521  0.048541376   -3.2588591     1.484507   397841 
 5062000   0.89561501   -3.2578692   -1.7751845  0.049096382   -3.2578692    1.4826847   397821 
 5063000    0.8958087    -3.257936   -1.7748561  0.050335588    -3.257936    1.4830799   397801 
 5064000   0.89716529   -3.2587329   -1.7733324  0.048236885   -3.2587329    1.4854005   397781 
 5065000   0.89711295   -3.2601757   -1.7747872    0.0545545   -3.2601757    1.4853885   397761 
 5066000   0.89539207   -3.2572153   -1.7746016  0.057024504   -3.2572153    1.4826137   397741 
 5067000   0.89737551   -3.2585324   -1.7725597  0.052354601   -3.2585324    1.4859727   397721 
 5068000   0.89904527   -3.2608222   -1.7720097   0.05187282   -3.2608222    1.4888125   397701 
 5069000   0.89769066   -3.2603526   -1.7737086  0.053734507   -3.2603526    1.4866441   397681 
 5070000   0.89664618   -3.2583464   -1.7733574  0.054574761   -3.2583464     1.484989   397661 
 5071000   0.89680071    -3.258454   -1.7731344  0.058103022    -3.258454    1.4853196   397641 
 5072000   0.89590714   -3.2572151   -1.7733008  0.058222163   -3.2572151    1.4839143   397621 
 5073000   0.89699188   -3.2585134   -1.7727277   0.05343034   -3.2585134    1.4857857   397601 
 5074000   0.89605573   -3.2577393   -1.7734296  0.052060905   -3.2577393    1.4843097   397581 
 5075000    0.8962181   -3.2591622   -1.7745088  0.052917346   -3.2591622    1.4846534   397561 
 5076000   0.89516233     -3.25916    -1.776181  0.054254074     -3.25916     1.482979   397541 
 5077000   0.89643359   -3.2605035   -1.7753437  0.051693876   -3.2605035    1.4851598   397521 
 5078000   0.89561124   -3.2595163   -1.7756443  0.056017738   -3.2595163     1.483872   397501 
 5079000   0.89483566   -3.2563492   -1.7736876  0.053631787   -3.2563492    1.4826616   397481 
 5080000   0.89496479   -3.2573945   -1.7744443  0.054737885   -3.2573945    1.4829502   397461 
 5081000    0.8963486   -3.2599544   -1.7746365  0.050584427   -3.2599544    1.4853179   397441 
 5082000    0.8944518   -3.2578491   -1.7755998  0.054857544   -3.2578491    1.4822493   397421 
 5083000   0.89510198   -3.2583194    -1.774918  0.053370088   -3.2583194    1.4834014   397401 
 5084000   0.89656263   -3.2601897   -1.7742928  0.056285429   -3.2601897    1.4858969   397381 
 5085000   0.89528752   -3.2584051   -1.7745468  0.051703978   -3.2584051    1.4838583   397361 
 5086000   0.89728654   -3.2599667   -1.7727203  0.050990992   -3.2599667    1.4872463   397341 
 5087000   0.89568736   -3.2584986   -1.7738281  0.053874001   -3.2584986    1.4846704   397321 
 5088000    0.8953478   -3.2598843    -1.775702  0.052003077   -3.2598843    1.4841823   397301 
 5089000   0.89590132   -3.2597093   -1.7745347   0.05623542   -3.2597093    1.4851746   397281 
 5090000   0.89490082   -3.2591754   -1.7755847   0.05375102   -3.2591754    1.4835907   397261 
 5091000    0.8953025   -3.2582779   -1.7739466  0.057620223   -3.2582779    1.4843314   397241 
 5092000   0.89564413   -3.2576794   -1.7727069  0.051219228   -3.2576794    1.4849725   397221 
 5093000   0.89412778   -3.2556825   -1.7731495  0.055027953   -3.2556825    1.4825331   397201 
 5094000   0.89534259   -3.2575612   -1.7729392  0.051749614   -3.2575612    1.4846221   397181 
 5095000   0.89489238   -3.2582271   -1.7742768  0.051982539   -3.2582271    1.4839503   397161 
 5096000   0.89623354   -3.2590422   -1.7727931  0.049990705   -3.2590422    1.4862491   397141 
 5097000   0.89393248   -3.2552089   -1.7727011  0.054803931   -3.2552089    1.4825078   397121 
 5098000    0.8946362   -3.2561587   -1.7724091  0.053734117   -3.2561587    1.4837496   397101 
 5099000   0.89566699   -3.2583324   -1.7727985  0.051997459   -3.2583324     1.485534   397081 
 5100000   0.89443986   -3.2580544    -1.774481  0.049954786   -3.2580544    1.4835734   397061 
 5101000   0.89483062   -3.2580217   -1.7737253  0.053550795   -3.2580217    1.4842963   397041 
 5102000   0.89415251   -3.2553205   -1.7720742  0.057112457   -3.2553205    1.4832462   397021 
 5103000   0.89568577   -3.2582378   -1.7723733  0.055168766   -3.2582378    1.4858645   397001 
 5104000   0.89491828   -3.2563969   -1.7717308  0.054847664   -3.2563969    1.4846661   396981 
 5105000   0.89504582   -3.2575736   -1.7726211  0.051691769   -3.2575736    1.4849525   396961 
 5106000   0.89405692   -3.2570392   -1.7736526  0.056224746   -3.2570392    1.4833866   396941 
 5107000   0.89399024   -3.2570192   -1.7736685  0.053403453   -3.2570192    1.4833507   396921 
 5108000   0.89305933   -3.2558711   -1.7739903   0.05781367   -3.2558711    1.4818807   396901 
 5109000    0.8948923   -3.2575821   -1.7725851  0.049739361   -3.2575821    1.4849971   396881 
 5110000   0.89562929   -3.2604844   -1.7741895  0.052245419   -3.2604844    1.4862949   396861 
 5111000   0.89434873   -3.2574602   -1.7732155  0.054581986   -3.2574602    1.4842446   396841 
 5112000   0.89344444   -3.2561128   -1.7732942  0.055942795   -3.2561128    1.4828186   396821 
 5113000   0.89443122   -3.2577423   -1.7732111  0.051721192   -3.2577423    1.4845312   396801 
 5114000   0.89447448   -3.2590178     -1.77434  0.049928051   -3.2590178    1.4846778   396781 
 5115000   0.89440044   -3.2591983   -1.7745685  0.053353882   -3.2591983    1.4846298   396761 
 5116000   0.89422072   -3.2585921   -1.7741858  0.056136278   -3.2585921    1.4844063   396741 
 5117000   0.89497795   -3.2589074   -1.7731692  0.055402727   -3.2589074    1.4857382   396721 
 5118000   0.89475073   -3.2586076   -1.7731718  0.051230323   -3.2586076    1.4854358   396701 
 5119000   0.89429411   -3.2588207   -1.7740681  0.052285493   -3.2588207    1.4847526   396681 
 5120000    0.8942295   -3.2591774   -1.7744572  0.051712911   -3.2591774    1.4847202   396661 
 5121000     0.893796   -3.2573824   -1.7733071  0.051585963   -3.2573824    1.4840753   396641 
 5122000   0.89202707   -3.2564934   -1.7752806  0.051763167   -3.2564934    1.4812128   396621 
 5123000   0.89182963   -3.2562724   -1.7753128  0.050843082   -3.2562724    1.4809596   396601 
 5124000   0.89365059   -3.2589802   -1.7749218  0.053039945   -3.2589802    1.4840583   396581 
 5125000   0.89422081   -3.2599442    -1.774864  0.052838872   -3.2599442    1.4850802   396561 
 5126000   0.89468131   -3.2597969    -1.773877  0.055100927   -3.2597969    1.4859199   396541 
 5127000   0.89327524   -3.2589503   -1.7752908  0.050854935   -3.2589503    1.4836595   396521 
 5128000   0.89561364   -3.2629215   -1.7753031  0.052300907   -3.2629215    1.4876184   396501 
 5129000   0.89474108   -3.2624711    -1.776227  0.060995222   -3.2624711    1.4862441   396481 
 5130000   0.89512277   -3.2634776   -1.7765245  0.051766612   -3.2634776    1.4869531   396461 
 5131000    0.8947395   -3.2620414     -1.77565   0.05185422   -3.2620414    1.4863914   396441 
 5132000   0.89249595    -3.259597    -1.776858  0.054344565    -3.259597    1.4827391   396421 
 5133000   0.89278376   -3.2617881    -1.778496  0.055810712   -3.2617881    1.4832921   396401 
 5134000   0.89039297   -3.2596321   -1.7802375  0.054528572   -3.2596321    1.4793946   396381 
 5135000   0.89161133   -3.2624948   -1.7810011  0.050029892   -3.2624948    1.4814937   396361 
 5136000   0.89129063   -3.2605949   -1.7795594  0.056266499   -3.2605949    1.4810355   396341 
 5137000   0.89179253   -3.2606541   -1.7787098  0.051181666   -3.2606541    1.4819443   396321 
 5138000   0.89303246    -3.263432   -1.7793524  0.057789835    -3.263432    1.4840797   396301 
 5139000    0.8930168   -3.2621975    -1.778069  0.055652413   -3.2621975    1.4841285   396281 
 5140000   0.89296953   -3.2638088    -1.779684  0.052061237   -3.2638088    1.4841249   396261 
 5141000   0.89222581   -3.2638188   -1.7808552  0.058404685   -3.2638188    1.4829636   396241 
 5142000   0.89363659   -3.2652103   -1.7798268  0.055272934   -3.2652103    1.4853835   396221 
 5143000   0.89161454   -3.2612085   -1.7791112  0.059646407   -3.2612085    1.4820973   396201 
 5144000   0.89225535   -3.2612697   -1.7780324  0.057232868   -3.2612697    1.4832373   396181 
 5145000   0.89364021   -3.2645307   -1.7789163  0.050611546   -3.2645307    1.4856144   396161 
 5146000   0.89306879   -3.2641755   -1.7794361  0.052880535   -3.2641755    1.4847395   396141 
 5147000   0.89374901   -3.2654076   -1.7794622  0.050593604   -3.2654076    1.4859454   396121 
 5148000   0.89343207   -3.2630399   -1.7775465  0.053750467   -3.2630399    1.4854934   396101 
 5149000   0.89402643   -3.2638448   -1.7772881  0.060092106   -3.2638448    1.4865567   396081 
 5150000    0.8939448   -3.2634469   -1.7769509  0.056490376   -3.2634469     1.486496   396061 
 5151000   0.89173713   -3.2607216   -1.7778217   0.05938555   -3.2607216    1.4828999   396041 
 5152000   0.89130478   -3.2621498    -1.779894  0.050091103   -3.2621498    1.4822558   396021 
 5153000   0.89157542   -3.2611904   -1.7784097  0.052518252   -3.2611904    1.4827807   396001 
 5154000   0.89064568   -3.2601904   -1.7788811  0.050349907   -3.2601904    1.4813093   395981 
 5155000   0.89175684    -3.261814   -1.7785817  0.046551243    -3.261814    1.4832323   395961 
 5156000   0.89143137   -3.2628518   -1.7800859  0.049888234   -3.2628518    1.4827658   395941 
 5157000   0.89086711   -3.2606655   -1.7787634  0.055094712   -3.2606655    1.4819021   395921 
 5158000   0.89192241   -3.2630723   -1.7793398  0.050859815   -3.2630723    1.4837325   395901 
 5159000   0.89296191   -3.2618098   -1.7762731  0.052120189   -3.2618098    1.4855368   395881 
 5160000   0.89317567   -3.2621474   -1.7761799  0.052949093   -3.2621474    1.4859675   395861 
 5161000   0.89344368    -3.262263   -1.7757746   0.05579155    -3.262263    1.4864884   395841 
 5162000   0.89250837   -3.2605498   -1.7755425   0.05536947   -3.2605498    1.4850073   395821 
 5163000   0.89275094   -3.2613344   -1.7758484  0.054300204   -3.2613344     1.485486   395801 
 5164000   0.89026356   -3.2597499   -1.7783279  0.054610693   -3.2597499     1.481422   395781 
 5165000   0.89003596   -3.2598236   -1.7787055  0.053083614   -3.2598236    1.4811181   395761 
 5166000   0.89323284   -3.2648124   -1.7782992  0.050599148   -3.2648124    1.4865132   395741 
 5167000    0.8904946    -3.261678   -1.7796468   0.05181443    -3.261678    1.4820311   395721 
 5168000   0.89188568   -3.2631938   -1.7787725  0.053846144   -3.2631938    1.4844213   395701 
 5169000    0.8910928   -3.2618505   -1.7786739  0.052938374   -3.2618505    1.4831766   395681 
 5170000   0.89067419   -3.2619405   -1.7793857  0.050485032   -3.2619405    1.4825548   395661 
 5171000   0.88954419    -3.260925   -1.7801763  0.057356124    -3.260925    1.4807487   395641 
 5172000   0.89094306   -3.2621852   -1.7790329    0.0560202   -3.2621852    1.4831523   395621 
 5173000   0.89163592   -3.2626101   -1.7782293  0.052985399   -3.2626101    1.4843807   395601 
 5174000   0.89099744   -3.2621313   -1.7787386  0.050906017   -3.2621313    1.4833928   395581 
 5175000   0.89171662   -3.2616453   -1.7769801  0.053943369   -3.2616453    1.4846652   395561 
 5176000    0.8917884   -3.2622039   -1.7773441  0.051726699   -3.2622039    1.4848598   395541 
 5177000   0.89199647    -3.263341   -1.7780596  0.053128624    -3.263341    1.4852813   395521 
 5178000   0.89125978    -3.263728   -1.7795983  0.052549246    -3.263728    1.4841297   395501 
 5179000   0.89052882   -3.2623854   -1.7793979   0.05238759   -3.2623854    1.4829875   395481 
 5180000   0.89054523   -3.2614277   -1.7783379     0.054239   -3.2614277    1.4830898   395461 
 5181000   0.89062343   -3.2613236   -1.7780285  0.055786129   -3.2613236    1.4832951   395441 
 5182000   0.88922464    -3.259305   -1.7782647  0.048718201    -3.259305    1.4810403   395421 
 5183000   0.89160642   -3.2625583   -1.7774759  0.050850793   -3.2625583    1.4850824   395401 
 5184000     0.889363   -3.2597612   -1.7783406  0.061366671   -3.2597612    1.4814206   395381 
 5185000   0.89095677   -3.2611989   -1.7770484   0.05651767   -3.2611989    1.4841505   395361 
 5186000   0.89117794   -3.2620631   -1.7774691  0.053123598   -3.2620631     1.484594   395341 
 5187000   0.89099508   -3.2618205    -1.777456  0.052643374   -3.2618205    1.4843645   395321 
 5188000   0.89078274    -3.260279   -1.7761932  0.050455439    -3.260279    1.4840858   395301 
 5189000   0.88943165   -3.2589663   -1.7770565  0.052793193   -3.2589663    1.4819098   395281 
 5190000    0.8908376   -3.2619995   -1.7776721  0.049138144   -3.2619995    1.4843274   395261 
 5191000   0.89100088   -3.2621681   -1.7774935  0.051712719   -3.2621681    1.4846746   395241 
 5192000   0.88967849   -3.2597342   -1.7771881  0.051421056   -3.2597342    1.4825461   395221 
 5193000   0.88983112    -3.262132   -1.7792565  0.049758102    -3.262132    1.4828755   395201 
 5194000   0.88946782   -3.2603027   -1.7779576  0.053738182   -3.2603027    1.4823451   395181 
 5195000   0.88916411   -3.2611524   -1.7792385  0.053898002   -3.2611524    1.4819139   395161 
 5196000   0.89006308   -3.2625744   -1.7790871  0.050298089   -3.2625744    1.4834873   395141 
 5197000   0.88697656   -3.2566982   -1.7782805  0.049946602   -3.2566982    1.4784177   395121 
 5198000   0.88904637   -3.2598855   -1.7779428  0.048916372   -3.2598855    1.4819427   395101 
 5199000   0.88911371   -3.2609758   -1.7788459  0.056233533   -3.2609758      1.48213   395081 
 5200000   0.89054103   -3.2622752   -1.7776907  0.056275873   -3.2622752    1.4845844   395061 
 5201000   0.89009444   -3.2601328   -1.7762177  0.046771174   -3.2601328    1.4839151   395041 
 5202000   0.89019725   -3.2606045   -1.7764428  0.049650425   -3.2606045    1.4841616   395021 
 5203000     0.890768   -3.2604261   -1.7752377  0.053199436   -3.2604261    1.4851884   395001 
 5204000   0.88982934   -3.2598665    -1.776168  0.055794744   -3.2598665    1.4836985   394981 
 5205000   0.89106615   -3.2610841   -1.7752482  0.054696142   -3.2610841     1.485836   394961 
 5206000   0.89122796   -3.2607937   -1.7746127   0.05330562   -3.2607937     1.486181   394941 
 5207000   0.89044054   -3.2594591    -1.774516  0.054345971   -3.2594591    1.4849431   394921 
 5208000   0.88958012   -3.2594396   -1.7758561  0.056401974   -3.2594396    1.4835834   394901 
 5209000   0.88935289   -3.2601137   -1.7768341   0.05323654   -3.2601137    1.4832796   394881 
 5210000   0.89036262   -3.2604733   -1.7754344  0.054603629   -3.2604733    1.4850388   394861 
 5211000   0.88878697   -3.2582734   -1.7757875  0.056344498   -3.2582734    1.4824859   394841 
 5212000   0.89066174   -3.2610404   -1.7753521  0.049631384   -3.2610404    1.4856882   394821 
 5213000   0.88766858   -3.2571345    -1.776364   0.05149758   -3.2571345    1.4807704   394801 
 5214000   0.88756767   -3.2572336   -1.7765565  0.052362085   -3.2572336    1.4806771   394781 
 5215000   0.88785629   -3.2581571   -1.7769235  0.046056466   -3.2581571    1.4812336   394761 
 5216000   0.88885444   -3.2578133   -1.7748393  0.051797056   -3.2578133     1.482974   394741 
 5217000   0.88795639   -3.2573263   -1.7757756  0.051718425   -3.2573263    1.4815508   394721 
 5218000   0.88728956   -3.2571863   -1.7766732   0.04736361   -3.2571863    1.4805132   394701 
 5219000   0.88757617   -3.2582092   -1.7771427  0.049330204   -3.2582092    1.4810665   394681 
 5220000   0.88616136   -3.2567606   -1.7779801  0.054144608   -3.2567606    1.4787806   394661 
 5221000   0.88700252   -3.2574641   -1.7772049   0.05627717   -3.2574641    1.4802592   394641 
 5222000   0.88754483   -3.2585961   -1.7773567  0.051638273   -3.2585961    1.4812393   394621 
 5223000   0.88901957   -3.2607562   -1.7769804  0.048516349   -3.2607562    1.4837758   394601 
 5224000   0.88788332   -3.2590381   -1.7770836  0.053418585   -3.2590381    1.4819545   394581 
 5225000   0.88733467   -3.2576839   -1.7765701  0.056680883   -3.2576839    1.4811138   394561 
 5226000   0.89010633   -3.2611382   -1.7753227  0.050030675   -3.2611382    1.4858155   394541 
 5227000   0.88701598   -3.2582522   -1.7775203  0.054968172   -3.2582522     1.480732   394521 
 5228000   0.88702953   -3.2593891   -1.7785595  0.050379643   -3.2593891    1.4808297   394501 
 5229000   0.88707579   -3.2581146   -1.7771326  0.052857536   -3.2581146     1.480982   394481 
 5230000   0.88908929   -3.2618923   -1.7774736  0.050810422   -3.2618923    1.4844188   394461 
 5231000    0.8892425   -3.2629487   -1.7781989  0.054520937   -3.2629487    1.4847499   394441 
 5232000   0.88687167   -3.2592326   -1.7783662  0.055509996   -3.2592326    1.4808664   394421 
 5233000   0.88899138   -3.2626045   -1.7781234  0.056057546   -3.2626045    1.4844811   394401 
 5234000   0.88686212    -3.258922   -1.7779214  0.055458235    -3.258922    1.4810007   394381 
 5235000   0.88695619   -3.2610697   -1.7798368  0.053584344   -3.2610697    1.4812329   394361 
 5236000   0.88669153   -3.2607169   -1.7798509  0.051917338   -3.2607169     1.480866   394341 
 5237000   0.88848124   -3.2635732   -1.7796429  0.045375285   -3.2635732    1.4839303   394321 
 5238000   0.88779378    -3.261874   -1.7790167  0.048812984    -3.261874    1.4828573   394301 
 5239000   0.88783082   -3.2613921   -1.7783978  0.049727224   -3.2613921    1.4829944   394281 
 5240000   0.88773296    -3.261131   -1.7782249  0.055124167    -3.261131    1.4829061   394261 
 5241000   0.88738819   -3.2603816   -1.7779762  0.053813772   -3.2603816    1.4824054   394241 
 5242000   0.88625514    -3.258267   -1.7776793  0.056076312    -3.258267    1.4805877   394221 
 5243000   0.88851628   -3.2612127   -1.7767722  0.056231784   -3.2612127    1.4844405   394201 
 5244000   0.88652789   -3.2585928   -1.7773991  0.057299451   -3.2585928    1.4811937   394181 
 5245000   0.88770264   -3.2608139   -1.7775822   0.05397458   -3.2608139    1.4832317   394161 
 5246000   0.88746028   -3.2592874   -1.7763854  0.053265422   -3.2592874     1.482902   394141 
 5247000   0.88873754   -3.2622559   -1.7771443  0.051599766   -3.2622559    1.4851116   394121 
 5248000   0.88733291   -3.2612187   -1.7783791  0.050589521   -3.2612187    1.4828396   394101 
 5249000   0.88564577   -3.2579214   -1.7778261  0.051255116   -3.2579214    1.4800953   394081 
 5250000   0.88702931   -3.2583784   -1.7758957  0.052553069   -3.2583784    1.4824828   394061 
 5251000   0.88638221   -3.2583132   -1.7768368  0.048342884   -3.2583132    1.4814764   394041 
 5252000   0.88784615   -3.2597682   -1.7757696  0.059866797   -3.2597682    1.4839986   394021 
 5253000   0.88708042   -3.2590583   -1.7762644  0.054972193   -3.2590583    1.4827939   394001 
 5254000   0.88582226   -3.2586607   -1.7778947  0.056719054   -3.2586607     1.480766   393981 
 5255000    0.8861725   -3.2610276   -1.7796009  0.053505534   -3.2610276    1.4814267   393961 
 5256000   0.88747114   -3.2608024   -1.7771295  0.051760927   -3.2608024     1.483673   393941 
 5257000   0.88691882   -3.2593842   -1.7765593  0.054542601   -3.2593842    1.4828249   393921 
 5258000   0.88706513   -3.2595698    -1.776425  0.050318708   -3.2595698    1.4831448   393901 
 5259000    0.8864726   -3.2575563   -1.7753269  0.050646102   -3.2575563    1.4822294   393881 
 5260000   0.88573087   -3.2576108   -1.7765465  0.052973912   -3.2576108    1.4810644   393861 
 5261000   0.88660764   -3.2585305   -1.7759248  0.053819137   -3.2585305    1.4826057   393841 
 5262000    0.8862643   -3.2600395   -1.7779327  0.052752472   -3.2600395    1.4821069   393821 
 5263000   0.88678447   -3.2605398   -1.7774878  0.055123065   -3.2605398    1.4830521   393801 
 5264000   0.88703304   -3.2608388   -1.7772957  0.048985395   -3.2608388    1.4835431   393781 
 5265000   0.88616605   -3.2595122   -1.7773438  0.057420298   -3.2595122    1.4821684   393761 
 5266000   0.88585584   -3.2583734   -1.7766486  0.055050133   -3.2583734    1.4817248   393741 
 5267000   0.88678108   -3.2609339   -1.7775862  0.053971401   -3.2609339    1.4833477   393721 
 5268000    0.8869871   -3.2627457    -1.778978  0.054574072   -3.2627457    1.4837677   393701 
 5269000   0.88624124   -3.2614951   -1.7788998  0.050485506   -3.2614951    1.4825953   393681 
 5270000   0.88562426   -3.2608181   -1.7791797  0.053170649   -3.2608181    1.4816385   393661 
 5271000   0.88580972   -3.2602909   -1.7782669  0.051589114   -3.2602909     1.482024   393641 
 5272000   0.88692196   -3.2606995   -1.7767392  0.051808062   -3.2606995    1.4839603   393621 
 5273000   0.88648509   -3.2598104   -1.7765057  0.049573828   -3.2598104    1.4833047   393601 
 5274000   0.88737756   -3.2597459   -1.7748724  0.051338289   -3.2597459    1.4848735   393581 
 5275000   0.88776263   -3.2600819   -1.7744886  0.053224538   -3.2600819    1.4855933   393561 
 5276000   0.88659288   -3.2588921   -1.7751808  0.054900431   -3.2588921    1.4837112   393541 
 5277000   0.88892981   -3.2621827    -1.774485  0.053763577   -3.2621827    1.4876977   393521 
 5278000   0.88758981   -3.2602206     -1.77469  0.047870411   -3.2602206    1.4855306   393501 
 5279000   0.88540747   -3.2583199   -1.7763665   0.04983711   -3.2583199    1.4819534   393481 
 5280000   0.88652381   -3.2580756   -1.7741783  0.051736514   -3.2580756    1.4838973   393461 
 5281000   0.88506235    -3.254616   -1.7730897  0.055898281    -3.254616    1.4815264   393441 
 5282000   0.88497258   -3.2545276   -1.7730762  0.050817991   -3.2545276    1.4814514   393421 
 5283000   0.88425168   -3.2555756   -1.7752558  0.051912701   -3.2555756    1.4803199   393401 
 5284000   0.88412032   -3.2567761   -1.7766009  0.050244564   -3.2567761    1.4801752   393381 
 5285000   0.88410641   -3.2573895   -1.7771624  0.043808208   -3.2573895    1.4802272   393361 
 5286000   0.88364977   -3.2552942   -1.7757563  0.046625132   -3.2552942    1.4795379   393341 
 5287000   0.88515973   -3.2567189   -1.7745775  0.051930256   -3.2567189    1.4821414   393321 
 5288000   0.88480914   -3.2549316   -1.7733018  0.052490356   -3.2549316    1.4816297   393301 
 5289000   0.88497346   -3.2551969   -1.7732166  0.053887669   -3.2551969    1.4819802   393281 
 5290000   0.88499394   -3.2567417   -1.7746518  0.052015284   -3.2567417    1.4820899   393261 
 5291000   0.88615249   -3.2572566    -1.773151  0.051519563   -3.2572566    1.4841056   393241 
 5292000    0.8844232   -3.2561974   -1.7749127  0.052823948   -3.2561974    1.4812848   393221 
 5293000   0.88545502   -3.2578571   -1.7747687  0.053818415   -3.2578571    1.4830883   393201 
 5294000   0.88363444   -3.2569464   -1.7768322  0.051500925   -3.2569464    1.4801143   393181 
 5295000   0.88367323    -3.256627   -1.7763725  0.053085024    -3.256627    1.4802545   393161 
 5296000   0.88323241   -3.2563609   -1.7767696  0.051801111   -3.2563609    1.4795914   393141 
 5297000    0.8817184   -3.2567552   -1.7796249  0.053706572   -3.2567552    1.4771303   393121 
 5298000   0.88470536   -3.2619215   -1.7797118  0.050343454   -3.2619215    1.4822097   393101 
 5299000   0.88535438    -3.261783   -1.7784105  0.052621278    -3.261783    1.4833725   393081 
 5300000   0.88690715   -3.2643787    -1.778329  0.053438901   -3.2643787    1.4860497   393061 
 5301000   0.88533034   -3.2638395   -1.7803563  0.055202901   -3.2638395    1.4834832   393041 
 5302000   0.88651236   -3.2649476   -1.7794082  0.055752059   -3.2649476    1.4855394   393021 
 5303000   0.88524393    -3.264248   -1.7807587  0.055493387    -3.264248    1.4834893   393001 
 5304000   0.88603176   -3.2670392    -1.782154  0.048761378   -3.2670392    1.4848852   392981 
 5305000   0.88582462   -3.2645605   -1.7799469  0.051077217   -3.2645605    1.4846136   392961 
 5306000   0.88570225   -3.2651295   -1.7806455  0.057213249   -3.2651295     1.484484   392941 
 5307000   0.88554524   -3.2663516   -1.7820552  0.053960155   -3.2663516    1.4842964   392921 
 5308000   0.88534138   -3.2662787   -1.7822484  0.055513643   -3.2662787    1.4840303   392901 
 5309000   0.88586682   -3.2676727    -1.782686  0.054690767   -3.2676727    1.4849866   392881 
 5310000   0.88445957   -3.2659194   -1.7832162   0.05478149   -3.2659194    1.4827031   392861 
 5311000   0.88394466   -3.2662379   -1.7843225  0.054366032   -3.2662379    1.4819154   392841 
 5312000   0.88548463   -3.2689883   -1.7844157   0.05433294   -3.2689883    1.4845727   392821 
 5313000   0.88489349   -3.2668789   -1.7832218  0.050810589   -3.2668789    1.4836571   392801 
 5314000   0.88467062   -3.2664978   -1.7831388  0.057878874   -3.2664978     1.483359   392781 
 5315000   0.88472346   -3.2673494   -1.7838263  0.053677267   -3.2673494    1.4835231   392761 
 5316000   0.88384057   -3.2664581     -1.78434  0.053079001   -3.2664581    1.4821181   392741 
 5317000    0.8843583   -3.2662564   -1.7831946  0.049886095   -3.2662564    1.4830618   392721 
 5318000   0.88380828   -3.2653084   -1.7830935  0.053440638   -3.2653084     1.482215   392701 
 5319000   0.88511002   -3.2660561   -1.7815824  0.053026608   -3.2660561    1.4844737   392681 
 5320000   0.88550418   -3.2665038   -1.7812934  0.052099567   -3.2665038    1.4852104   392661 
 5321000    0.8837696   -3.2653354   -1.7829588  0.051413452   -3.2653354    1.4823766   392641 
 5322000   0.88168644   -3.2641709   -1.7852132  0.052063852   -3.2641709    1.4789577   392621 
 5323000   0.88016345   -3.2629071   -1.7864289  0.050101847   -3.2629071    1.4764783   392601 
 5324000   0.88174832    -3.264524   -1.7853118  0.050763377    -3.264524    1.4792123   392581 
 5325000   0.88163504   -3.2641754   -1.7850779  0.047008521   -3.2641754    1.4790976   392561 
 5326000   0.88260879   -3.2647814   -1.7839748  0.051271344   -3.2647814    1.4808066   392541 
 5327000   0.88069664   -3.2606523   -1.7829784  0.054770413   -3.2606523    1.4776738   392521 
 5328000   0.88281091   -3.2639365   -1.7826398  0.053773443   -3.2639365    1.4812967   392501 
 5329000   0.88248408   -3.2627608   -1.7819371  0.055908435   -3.2627608    1.4808238   392481 
 5330000   0.88317681   -3.2632738   -1.7812121  0.053222115   -3.2632738    1.4820617   392461 
 5331000   0.88420799   -3.2652822   -1.7814144  0.048663661   -3.2652822    1.4838677   392441 
 5332000   0.88260999   -3.2640324   -1.7827709  0.054497003   -3.2640324    1.4812615   392421 
 5333000   0.88310147   -3.2643002   -1.7821384   0.05330592   -3.2643002    1.4821619   392401 
 5334000   0.88258635   -3.2630273   -1.7816545  0.053260564   -3.2630273    1.4813728   392381 
 5335000   0.88375463   -3.2647288   -1.7813195  0.048499362   -3.2647288    1.4834093   392361 
 5336000     0.884922   -3.2671781   -1.7817336  0.050887334   -3.2671781    1.4854445   392341 
 5337000   0.88419235   -3.2671564   -1.7828611  0.054992203   -3.2671564    1.4842954   392321 
 5338000   0.88397566   -3.2670144   -1.7830071  0.055708176   -3.2670144    1.4840073   392301 
 5339000    0.8837924   -3.2679402   -1.7841649  0.053167166   -3.2679402    1.4837752   392281 
 5340000   0.88393684   -3.2661888   -1.7820954  0.054370074   -3.2661888    1.4840934   392261 
 5341000   0.88260569   -3.2641231   -1.7821891  0.056199333   -3.2641231     1.481934   392241 
 5342000   0.88273125   -3.2661919   -1.7839715  0.049312636   -3.2661919    1.4822204   392221 
 5343000   0.88210892   -3.2652731   -1.7840221  0.051502683   -3.2652731     1.481251   392201 
 5344000   0.88054841   -3.2634652   -1.7847593  0.049264974   -3.2634652    1.4787059   392181 
 5345000   0.88016308   -3.2650266   -1.7868923   0.05185027   -3.2650266    1.4781342   392161 
 5346000    0.8814662   -3.2669463   -1.7865481   0.05304864   -3.2669463    1.4803982   392141 
 5347000   0.88166581    -3.265349     -1.78454  0.052767794    -3.265349    1.4808089   392121 
 5348000   0.88092619   -3.2646316   -1.7849895   0.04973022   -3.2646316    1.4796422   392101 
 5349000   0.88256712   -3.2660948   -1.7836208   0.05185583   -3.2660948     1.482474   392081 
 5350000   0.88230339   -3.2659385   -1.7838319  0.054063913   -3.2659385    1.4821066   392061 
 5351000   0.88219157   -3.2639494   -1.7819551  0.059369891   -3.2639494    1.4819944   392041 
 5352000   0.88267998   -3.2669738   -1.7840833  0.056244696   -3.2669738    1.4828905   392021 
 5353000    0.8834048   -3.2680763   -1.7838924  0.050256618   -3.2680763    1.4841839   392001 
 5354000   0.88267358   -3.2662181    -1.783187  0.053567333   -3.2662181    1.4830311   391981 
 5355000   0.88072265   -3.2648248   -1.7849961  0.052000392   -3.2648248    1.4798287   391961 
 5356000   0.88157789    -3.265884   -1.7845427  0.051381576    -3.265884    1.4813413   391941 
 5357000   0.87989627   -3.2631727   -1.7845816  0.052955884   -3.2631727    1.4785911   391921 
 5358000   0.88131348    -3.265145   -1.7840968  0.046036412    -3.265145    1.4810481   391901 
 5359000    0.8797091   -3.2642589   -1.7858315  0.048604283   -3.2642589    1.4784274   391881 
 5360000   0.87994375   -3.2640138   -1.7851166   0.04831242   -3.2640138    1.4788972   391861 
 5361000   0.88103203   -3.2668675   -1.7860657  0.050880497   -3.2668675    1.4808019   391841 
 5362000   0.88138718   -3.2679531   -1.7864787  0.053989304   -3.2679531    1.4814744   391821 
 5363000   0.87994851   -3.2656088    -1.786477  0.052956208   -3.2656088    1.4791317   391801 
 5364000   0.88101739   -3.2666519   -1.7856479  0.050062529   -3.2666519     1.481004   391781 
 5365000    0.8804847   -3.2647397   -1.7845556  0.052576529   -3.2647397    1.4801841   391761 
 5366000   0.88088585   -3.2660223   -1.7850881  0.054402919   -3.2660223    1.4809341   391741 
 5367000   0.88245024   -3.2690907   -1.7854508   0.05177651   -3.2690907    1.4836399   391721 
 5368000   0.88003103   -3.2659438   -1.7862957  0.051914407   -3.2659438    1.4796481   391701 
 5369000    0.8805721   -3.2688975   -1.7882641  0.054144909   -3.2688975    1.4806334   391681 
 5370000   0.88065386   -3.2687479   -1.7879014  0.050180888   -3.2687479    1.4808465   391661 
 5371000   0.87998308   -3.2673343   -1.7875402  0.056865627   -3.2673343    1.4797941   391641 
 5372000   0.88174553   -3.2700191   -1.7871855  0.051132767   -3.2700191    1.4828336   391621 
 5373000   0.88061975   -3.2693591    -1.788343  0.053966798   -3.2693591     1.481016   391601 
 5374000    0.8804989   -3.2694437   -1.7885552  0.053635304   -3.2694437    1.4808884   391581 
 5375000   0.87995695   -3.2686554   -1.7886029  0.050277818   -3.2686554    1.4800525   391561 
 5376000   0.88033349   -3.2692627   -1.7885012  0.046810508   -3.2692627    1.4807615   391541 
 5377000   0.88022672    -3.269964   -1.7893065  0.055046346    -3.269964    1.4806575   391521 
 5378000   0.88058335     -3.27207   -1.7907369  0.055035099     -3.27207    1.4813331   391501 
 5379000   0.88057548   -3.2727712   -1.7913756  0.056228103   -3.2727712    1.4813955   391481 
 5380000   0.87858843   -3.2702684   -1.7921402  0.057190513   -3.2702684    1.4781282   391461 
 5381000   0.87916467   -3.2711764   -1.7920031  0.049980522   -3.2711764    1.4791733   391441 
 5382000   0.87906086   -3.2705264   -1.7914523  0.051505554   -3.2705264    1.4790742   391421 
 5383000    0.8805585   -3.2716842   -1.7900145  0.052747295   -3.2716842    1.4816698   391401 
 5384000   0.87926365   -3.2709034   -1.7913368  0.059737603   -3.2709034    1.4795666   391381 
 5385000   0.88085012   -3.2725532   -1.7902413  0.052103084   -3.2725532    1.4823119   391361 
 5386000    0.8809494   -3.2721812   -1.7896264  0.055746608   -3.2721812    1.4825548   391341 
 5387000   0.87997907   -3.2705247   -1.7895272  0.054808237   -3.2705247    1.4809975   391321 
 5388000   0.88132817   -3.2724919   -1.7891481  0.057927632   -3.2724919    1.4833438   391301 
 5389000   0.88179773   -3.2727686   -1.7885586  0.057943847   -3.2727686      1.48421   391281 
 5390000   0.88004433   -3.2711224    -1.789788  0.053767113   -3.2711224    1.4813344   391261 
 5391000   0.88072672   -3.2737796   -1.7912207  0.049438367   -3.2737796    1.4825589   391241 
 5392000   0.87988077   -3.2708475    -1.789637  0.051530543   -3.2708475    1.4812106   391221 
 5393000     0.879902   -3.2706439   -1.7893219  0.049258224   -3.2706439     1.481322   391201 
 5394000    0.8790372   -3.2697151   -1.7897733  0.049406746   -3.2697151    1.4799418   391181 
 5395000   0.87742868   -3.2679409   -1.7906316  0.049236531   -3.2679409    1.4773092   391161 
 5396000   0.87787924    -3.267951   -1.7898076  0.050793857    -3.267951    1.4781434   391141 
 5397000   0.87916987   -3.2680195   -1.7876272  0.051769133   -3.2680195    1.4803922   391121 
 5398000   0.87903302   -3.2673163   -1.7870788  0.056722397   -3.2673163    1.4802375   391101 
 5399000   0.87928253   -3.2665819   -1.7858485  0.054547743   -3.2665819    1.4807333   391081 
 5400000   0.88056731   -3.2676815   -1.7847087  0.054913181   -3.2676815    1.4829728   391061 
 5401000    0.8798017   -3.2675187   -1.7857595  0.053947518   -3.2675187    1.4817592   391041 
 5402000   0.87931753   -3.2673395   -1.7863199   0.05323849   -3.2673395    1.4810195   391021 
 5403000   0.87849929   -3.2663463   -1.7866292  0.053958013   -3.2663463    1.4797171   391001 
 5404000   0.87954072   -3.2677886   -1.7862416  0.051892127   -3.2677886     1.481547   390981 
 5405000   0.87683395   -3.2650821    -1.788019  0.050287952   -3.2650821    1.4770631   390961 
 5406000   0.87604173   -3.2635626   -1.7877585  0.050733836   -3.2635626    1.4758041   390941 
 5407000   0.87799321   -3.2658932   -1.7867259  0.051501268   -3.2658932    1.4791673   390921 
 5408000   0.87822241   -3.2644776   -1.7848485  0.053395105   -3.2644776    1.4796291   390901 
 5409000   0.87783129   -3.2645397   -1.7854939  0.053629794   -3.2645397    1.4790458   390881 
 5410000   0.87784176   -3.2648277   -1.7856885  0.043736086   -3.2648277    1.4791391   390861 
 5411000   0.87789304   -3.2635657   -1.7842644   0.05048115   -3.2635657    1.4793012   390841 
 5412000   0.87692538   -3.2643389   -1.7865926  0.047982063   -3.2643389    1.4777463   390821 
 5413000   0.87653257   -3.2636101   -1.7864502  0.050339102   -3.2636101    1.4771599   390801 
 5414000    0.8776503   -3.2648185   -1.7856992  0.048542931   -3.2648185    1.4791193   390781 
 5415000   0.87863714   -3.2678134   -1.7869552  0.050246926   -3.2678134    1.4808582   390761 
 5416000   0.87756525    -3.265029   -1.7859016   0.05632217    -3.265029    1.4791274   390741 
 5417000   0.87789572   -3.2656321    -1.785872  0.058056579   -3.2656321    1.4797601   390721 
 5418000   0.87880728    -3.266183   -1.7848105   0.05293677    -3.266183    1.4813724   390701 
 5419000   0.87818945   -3.2652296   -1.7848228  0.050093571   -3.2652296    1.4804068   390681 
 5420000    0.8796955   -3.2687751   -1.7857537  0.050079304   -3.2687751    1.4830215   390661 
 5421000   0.87797726   -3.2658645   -1.7856639  0.056155195   -3.2658645    1.4802006   390641 
 5422000   0.87752003     -3.26622   -1.7867145    0.0495422     -3.26622    1.4795055   390621 
 5423000   0.87702943   -3.2660989   -1.7873448  0.053420486   -3.2660989    1.4787541   390601 
 5424000   0.87752178   -3.2668745   -1.7872145  0.053355665   -3.2668745      1.47966   390581 
 5425000   0.87777443   -3.2666707    -1.786509  0.052095925   -3.2666707    1.4801618   390561 
 5426000   0.87767931   -3.2674614   -1.7873842  0.049240901   -3.2674614    1.4800772   390541 
 5427000   0.87759219   -3.2669909   -1.7869849  0.054406482   -3.2669909     1.480006   390521 
 5428000   0.87726976   -3.2677963   -1.7882583   0.05124815   -3.2677963    1.4795381   390501 
 5429000   0.87663116    -3.266854   -1.7883172   0.05286872    -3.266854    1.4785368   390481 
 5430000   0.87724758   -3.2669448   -1.7872926  0.052236597   -3.2669448    1.4796522   390461 
 5431000   0.87716105   -3.2669614   -1.7873793  0.050544641   -3.2669614    1.4795821   390441 
 5432000   0.87739076   -3.2679427   -1.7878973   0.05144583   -3.2679427    1.4800453   390421 
 5433000   0.87692163   -3.2672132   -1.7878834  0.052900716   -3.2672132    1.4793297   390401 
 5434000   0.87700499   -3.2681328   -1.7885866  0.048315357   -3.2681328    1.4795462   390381 
 5435000   0.87673166   -3.2660355   -1.7868747   0.05328948   -3.2660355    1.4791608   390361 
 5436000   0.87635377   -3.2663318   -1.7877328  0.051138755   -3.2663318     1.478599   390341 
 5437000   0.87735899   -3.2680818   -1.7877109  0.054425465   -3.2680818    1.4803709   390321 
 5438000   0.87834862   -3.2695934   -1.7874768   0.05052917   -3.2695934    1.4821167   390301 
 5439000   0.87887629   -3.2697048   -1.7866218   0.04792771   -3.2697048     1.483083   390281 
 5440000   0.87803731   -3.2680098   -1.7862666   0.04610258   -3.2680098    1.4817432   390261 
 5441000   0.87839937    -3.268366   -1.7859358  0.052537728    -3.268366    1.4824302   390241 
 5442000   0.87936264    -3.268607   -1.7844751  0.058432008    -3.268607    1.4841319   390221 
 5443000   0.87852884   -3.2674861   -1.7846854  0.056497311   -3.2674861    1.4828007   390201 
 5444000   0.87769545   -3.2667715   -1.7853015  0.053323322   -3.2667715      1.48147   390181 
 5445000   0.87708179   -3.2669995   -1.7864895  0.052207244   -3.2669995    1.4805101   390161 
 5446000   0.87701241   -3.2677051   -1.7872362  0.054259241   -3.2677051    1.4804689   390141 
 5447000   0.87650251   -3.2661233   -1.7864393  0.055224871   -3.2661233     1.479684   390121 
 5448000    0.8768277   -3.2683139   -1.7880051  0.051116956   -3.2683139    1.4803088   390101 
 5449000    0.8758554   -3.2673327   -1.7885895  0.051079688   -3.2673327    1.4787432   390081 
 5450000    0.8763428   -3.2670855   -1.7874436  0.050265783   -3.2670855    1.4796419   390061 
 5451000   0.87655842   -3.2662404   -1.7861585  0.050235305   -3.2662404    1.4800819   390041 
 5452000   0.87577906   -3.2649609   -1.7861191  0.051906467   -3.2649609    1.4788417   390021 
 5453000   0.87735525   -3.2669921   -1.7854128  0.050798016   -3.2669921    1.4815793   390001 
 5454000   0.87535157   -3.2623795    -1.784108  0.053098525   -3.2623795    1.4782715   389981 
 5455000   0.87818597    -3.267799   -1.7846648  0.053804998    -3.267799    1.4831342   389961 
 5456000   0.87694136   -3.2658047   -1.7846965  0.054417466   -3.2658047    1.4811082   389941 
 5457000   0.87815149   -3.2676673   -1.7844392  0.050060057   -3.2676673    1.4832281   389921 
 5458000   0.87774117   -3.2679488   -1.7853377  0.048674905   -3.2679488    1.4826111   389901 
 5459000   0.87611919   -3.2651156   -1.7851683  0.055292375   -3.2651156    1.4799473   389881 
 5460000   0.87607251   -3.2652767   -1.7853323  0.051508752   -3.2652767    1.4799444   389861 
 5461000   0.87405278   -3.2631802    -1.786572  0.049385134   -3.2631802    1.4766082   389841 
 5462000   0.87279679   -3.2621864   -1.7876243   0.05043397   -3.2621864     1.474562   389821 
 5463000   0.87505682   -3.2647951    -1.786339  0.051426224   -3.2647951    1.4784561   389801 
 5464000   0.87543895   -3.2648325   -1.7856549  0.051273849   -3.2648325    1.4791776   389781 
 5465000   0.87544004   -3.2643317   -1.7850763  0.054502793   -3.2643317    1.4792554   389761 
 5466000   0.87573579   -3.2660323   -1.7862012   0.05256979   -3.2660323    1.4798311   389741 
 5467000   0.87656144    -3.267041   -1.7857388  0.058346735    -3.267041    1.4813023   389721 
 5468000   0.87648543   -3.2673248    -1.786075  0.055261627   -3.2673248    1.4812498   389701 
 5469000   0.87648257   -3.2666041   -1.7852831  0.054624214   -3.2666041     1.481321   389681 
 5470000   0.87600825      -3.2663   -1.7857046  0.051366722      -3.2663    1.4805954   389661 
 5471000   0.87532798   -3.2665788   -1.7870573  0.049856663   -3.2665788    1.4795215   389641 
 5472000   0.87582409   -3.2670787   -1.7866427  0.050807903   -3.2670787    1.4804361   389621 
 5473000   0.87500844   -3.2683277   -1.7891944  0.051867289   -3.2683277    1.4791333   389601 
 5474000   0.87435236   -3.2682907   -1.7901906  0.051013914   -3.2682907    1.4781001   389581 
 5475000   0.87380145   -3.2694056    -1.792161  0.050424647   -3.2694056    1.4772446   389561 
 5476000   0.87609592   -3.2711919   -1.7899922   0.05126775   -3.2711919    1.4811997   389541 
 5477000   0.87435138   -3.2670259   -1.7886998  0.055548932   -3.2670259    1.4783261   389521 
 5478000   0.87638965   -3.2689347   -1.7870862  0.052352237   -3.2689347    1.4818485   389501 
 5479000   0.87701464   -3.2714508   -1.7884694  0.051466695   -3.2714508    1.4829814   389481 
 5480000   0.87672432   -3.2723193   -1.7897527  0.049897071   -3.2723193    1.4825666   389461 
 5481000   0.87741516   -3.2712048   -1.7873938  0.055422366   -3.2712048     1.483811   389441 
 5482000   0.87731987   -3.2726529   -1.7889268  0.052852389   -3.2726529    1.4837261   389421 
 5483000   0.87706713   -3.2728245   -1.7894497  0.054374615   -3.2728245    1.4833748   389401 
 5484000   0.87489235   -3.2703723   -1.7905997  0.056826718   -3.2703723    1.4797727   389381 
 5485000   0.87570403   -3.2705907   -1.7893691  0.053984457   -3.2705907    1.4812216   389361 
 5486000   0.87445812   -3.2686403   -1.7894501  0.055888645   -3.2686403    1.4791901   389341 
 5487000   0.87495213   -3.2698729   -1.7897711  0.053013008   -3.2698729    1.4801018   389321 
 5488000   0.87480299   -3.2702741   -1.7903486  0.052220324   -3.2702741    1.4799256   389301 
 5489000   0.87436595   -3.2692545   -1.7899923  0.055397559   -3.2692545    1.4792622   389281 
 5490000   0.87551267   -3.2717396   -1.7904613  0.050481091   -3.2717396    1.4812783   389261 
 5491000   0.87360586   -3.2685267   -1.7903985  0.052422461   -3.2685267    1.4781282   389241 
 5492000   0.87245627   -3.2687239    -1.792465  0.054814261   -3.2687239    1.4762589   389221 
 5493000   0.87238471    -3.267629   -1.7914153  0.050965684    -3.267629    1.4762137   389201 
 5494000   0.87460363   -3.2713504   -1.7913059  0.049475578   -3.2713504    1.4800445   389181 
 5495000   0.87351327   -3.2690209   -1.7907456  0.049602969   -3.2690209    1.4782753   389161 
 5496000   0.87413161   -3.2707254   -1.7913276  0.053766656   -3.2707254    1.4793978   389141 
 5497000   0.87281467   -3.2704222   -1.7931774   0.04972073   -3.2704222    1.4772449   389121 
 5498000   0.87271032   -3.2696069   -1.7924627  0.051309774   -3.2696069    1.4771442   389101 
 5499000   0.87275186   -3.2688334   -1.7915429  0.051280921   -3.2688334    1.4772905   389081 
 5500000   0.87298927   -3.2693406   -1.7915723   0.04721057   -3.2693406    1.4777683   389061 
 5501000   0.87475665   -3.2717087   -1.7908725  0.048528891   -3.2717087    1.4808362   389041 
 5502000   0.87447214   -3.2702543   -1.7898236  0.054129106   -3.2702543    1.4804306   389021 
 5503000   0.87347974   -3.2686564   -1.7898298  0.048342664   -3.2686564    1.4788266   389001 
 5504000   0.87319213   -3.2684148   -1.7899991  0.056265827   -3.2684148    1.4784157   388981 
 5505000   0.87400909     -3.27113    -1.791255  0.052994405     -3.27113     1.479875   388961 
 5506000   0.87250762   -3.2696702   -1.7922616   0.05239449   -3.2696702    1.4774086   388941 
 5507000   0.87535708   -3.2722931   -1.7899833  0.052580808   -3.2722931    1.4823098   388921 
 5508000   0.87466336   -3.2690174   -1.7878062  0.051980539   -3.2690174    1.4812113   388901 
 5509000    0.8735355   -3.2689635   -1.7895861  0.053758476   -3.2689635    1.4793774   388881 
 5510000   0.87381013   -3.2700722   -1.7901537  0.053767185   -3.2700722    1.4799186   388861 
 5511000    0.8739751   -3.2729238   -1.7926497  0.052007195   -3.2729238    1.4802741   388841 
 5512000   0.87379499   -3.2730245   -1.7929793  0.052571756   -3.2730245    1.4800452   388821 
 5513000   0.87277341   -3.2709489   -1.7925581  0.054189761   -3.2709489    1.4783908   388801 
 5514000    0.8733875   -3.2709379   -1.7914307    0.0512672   -3.2709379    1.4795072   388781 
 5515000   0.87279611   -3.2704309   -1.7918495  0.056780953   -3.2704309    1.4785814   388761 
 5516000   0.87247808   -3.2697434   -1.7916247  0.054983343   -3.2697434    1.4781187   388741 
 5517000   0.87314172   -3.2718931    -1.792574   0.05049818   -3.2718931    1.4793191   388721 
 5518000   0.87353879   -3.2720184   -1.7919504   0.05096999   -3.2720184     1.480068   388701 
 5519000   0.87481074   -3.2745209   -1.7922216  0.051306084   -3.2745209    1.4822994   388681 
 5520000   0.87380918   -3.2718111   -1.7911326  0.059796347   -3.2718111    1.4806785   388661 
 5521000   0.87417653   -3.2721088   -1.7907316  0.055248181   -3.2721088    1.4813772   388641 
 5522000   0.87347343   -3.2708866   -1.7906247  0.050723881   -3.2708866    1.4802619   388621 
 5523000   0.87410364    -3.271907   -1.7905008  0.053445053    -3.271907    1.4814062   388601 
 5524000   0.87376347   -3.2706365   -1.7897306  0.053854583   -3.2706365    1.4809059   388581 
 5525000   0.87397124   -3.2716884   -1.7903541   0.05510118   -3.2716884    1.4813342   388561 
 5526000   0.87330023   -3.2700751   -1.7898019   0.05027523   -3.2700751    1.4802731   388541 
 5527000   0.87314497   -3.2714841    -1.791398  0.049467776   -3.2714841    1.4800861   388521 
 5528000   0.87277912   -3.2722675   -1.7927253  0.046333915   -3.2722675    1.4795421   388501 
 5529000   0.87276409   -3.2714685   -1.7918757  0.054961195   -3.2714685    1.4795928   388481 
 5530000   0.87195672   -3.2718137   -1.7935135  0.046056832   -3.2718137    1.4783002   388461 
 5531000   0.87192074   -3.2699245   -1.7916092   0.05289688   -3.2699245    1.4783153   388441 
 5532000   0.87189522   -3.2700106   -1.7916624  0.047719404   -3.2700106    1.4783482   388421 
 5533000   0.87173347   -3.2704714   -1.7923213  0.052735436   -3.2704714      1.47815   388401 
 5534000   0.87283666   -3.2716546   -1.7915578  0.050137737   -3.2716546    1.4800969   388381 
 5535000   0.87324474   -3.2714833   -1.7906182  0.049971286   -3.2714833    1.4808651   388361 
 5536000   0.87255438    -3.270434   -1.7906634  0.049032881    -3.270434    1.4797706   388341 
 5537000   0.87248153   -3.2705043   -1.7907811  0.048663653   -3.2705043    1.4797232   388321 
 5538000   0.87137609   -3.2689898   -1.7910653  0.053002701   -3.2689898    1.4779245   388301 
 5539000   0.87302687   -3.2712184   -1.7904178  0.051214743   -3.2712184    1.4808007   388281 
 5540000   0.87213016    -3.269727   -1.7903711   0.05134365    -3.269727    1.4793559   388261 
 5541000   0.87310002   -3.2717085   -1.7906312  0.051917002   -3.2717085    1.4810773   388241 
 5542000   0.87276652   -3.2717636   -1.7911757  0.053293323   -3.2717636    1.4805879   388221 
 5543000   0.87357689   -3.2728945   -1.7908555  0.051412543   -3.2728945    1.4820389   388201 
 5544000   0.87411266   -3.2742399   -1.7912156  0.048021704   -3.2742399    1.4830243   388181 
 5545000     0.873273   -3.2715831   -1.7899071  0.055661789   -3.2715831    1.4816761   388161 
 5546000   0.87222114   -3.2703951   -1.7904275  0.055893712   -3.2703951    1.4799676   388141 
 5547000   0.87342052    -3.271902   -1.7898229  0.055124428    -3.271902    1.4820791   388121 
 5548000   0.87382248   -3.2719772   -1.7891396  0.058688846   -3.2719772    1.4828376   388101 
 5549000    0.8721907    -3.269637   -1.7894922  0.057257514    -3.269637    1.4801448   388081 
 5550000   0.87187734   -3.2682507   -1.7885614  0.052994333   -3.2682507    1.4796893   388061 
 5551000   0.87206377   -3.2690296   -1.7889477  0.050990887   -3.2690296    1.4800819   388041 
 5552000   0.87246682   -3.2691161   -1.7882737  0.050883232   -3.2691161    1.4808423   388021 
 5553000   0.87210488   -3.2686489   -1.7883446  0.057128825   -3.2686489    1.4803043   388001 
 5554000    0.8719714   -3.2680341   -1.7878801  0.051912857   -3.2680341     1.480154   387981 
 5555000   0.87221459    -3.268141   -1.7874978  0.049776211    -3.268141    1.4806432   387961 
 5556000   0.87202302   -3.2656285   -1.7852342  0.049822285   -3.2656285    1.4803943   387941 
 5557000   0.87177444   -3.2638677   -1.7838192  0.053064927   -3.2638677    1.4800486   387921 
 5558000   0.87119034   -3.2634965   -1.7843633  0.052856073   -3.2634965    1.4791332   387901 
 5559000   0.87416952   -3.2667384   -1.7824705  0.047671843   -3.2667384    1.4842679   387881 
 5560000   0.87133798   -3.2622099   -1.7826734  0.052943331   -3.2622099    1.4795364   387861 
 5561000   0.87304895   -3.2645667   -1.7820486  0.056000856   -3.2645667    1.4825181   387841 
 5562000    0.8704426   -3.2607483   -1.7825798  0.050703332   -3.2607483    1.4781685   387821 
 5563000   0.87014589    -3.260908   -1.7831672  0.047168313    -3.260908    1.4777409   387801 
 5564000   0.87122983   -3.2619354   -1.7822774  0.046833187   -3.2619354     1.479658   387781 
 5565000   0.87154842   -3.2634365   -1.7831611  0.051519996   -3.2634365    1.4802754   387761 
 5566000   0.87095706   -3.2634659   -1.7841185   0.04343461   -3.2634659    1.4793473   387741 
 5567000   0.87061268   -3.2594414   -1.7806028   0.04924133   -3.2594414    1.4788387   387721 
 5568000   0.87044621   -3.2584452   -1.7798131  0.050869048   -3.2584452    1.4786322   387701 
 5569000   0.87101124   -3.2611361   -1.7814678  0.049898259   -3.2611361    1.4796683   387681 
 5570000   0.87034585   -3.2598098   -1.7811956  0.053408944   -3.2598098    1.4786142   387661 
 5571000    0.8710888   -3.2607181   -1.7807653  0.047926529   -3.2607181    1.4799528   387641 
 5572000   0.87210442   -3.2618919   -1.7801371  0.055451232   -3.2618919    1.4817547   387621 
 5573000   0.87102574   -3.2617127   -1.7817143  0.050159329   -3.2617127    1.4799984   387601 
 5574000   0.86951208   -3.2608929   -1.7833903  0.052131639   -3.2608929    1.4775027   387581 
 5575000     0.869778   -3.2604786   -1.7824478  0.046799448   -3.2604786    1.4780308   387561 
 5576000   0.87124881   -3.2611061   -1.7804995  0.050496758   -3.2611061    1.4806066   387541 
 5577000   0.87121066   -3.2608819   -1.7802638  0.050379702   -3.2608819    1.4806182   387521 
 5578000   0.87207716   -3.2634485   -1.7812812  0.046994597   -3.2634485    1.4821673   387501 
 5579000    0.8701032   -3.2607432   -1.7818545  0.053340238   -3.2607432    1.4788887   387481 
 5580000   0.87169862   -3.2624842   -1.7808074  0.050086556   -3.2624842    1.4816769   387461 
 5581000   0.87168209   -3.2631068   -1.7813816  0.051444338   -3.2631068    1.4817252   387441 
 5582000   0.87020469   -3.2616662   -1.7823759  0.051673441   -3.2616662    1.4792902   387421 
 5583000   0.87027035   -3.2631444   -1.7836661  0.046338067   -3.2631444    1.4794782   387401 
 5584000   0.87105427   -3.2635641   -1.7826767  0.049507195   -3.2635641    1.4808874   387381 
 5585000   0.86959305   -3.2627743   -1.7842949  0.052006418   -3.2627743    1.4784795   387361 
 5586000   0.87009657   -3.2649522   -1.7855402  0.055877011   -3.2649522    1.4794119   387341 
 5587000   0.87025737   -3.2649535   -1.7851918  0.049680886   -3.2649535    1.4797617   387321 
 5588000   0.86965633    -3.264944   -1.7861279  0.055504469    -3.264944    1.4788161   387301 
 5589000   0.86955414   -3.2640919   -1.7853732  0.051349052   -3.2640919    1.4787187   387281 
 5590000   0.87129098   -3.2658493   -1.7841004  0.052059599   -3.2658493    1.4817488   387261 
 5591000   0.87151841   -3.2668571   -1.7846449  0.052078138   -3.2668571    1.4822121   387241 
 5592000   0.87238116   -3.2680995   -1.7843434  0.053745912   -3.2680995    1.4837561   387221 
 5593000   0.87198824   -3.2684657   -1.7853013  0.052472542   -3.2684657    1.4831644   387201 
 5594000   0.86955398   -3.2648516   -1.7857513  0.055236426   -3.2648516    1.4791004   387181 
 5595000   0.87038599   -3.2666686   -1.7860765  0.054321619   -3.2666686    1.4805921   387161 
 5596000   0.87150412    -3.268547   -1.7859763  0.053460205    -3.268547    1.4825707   387141 
 5597000   0.86988351    -3.267611   -1.7877208  0.054231702    -3.267611    1.4798902   387121 
 5598000   0.87169712   -3.2703105   -1.7872583  0.052962128   -3.2703105    1.4830522   387101 
 5599000   0.86920272   -3.2663411   -1.7874563  0.050032087   -3.2663411    1.4788848   387081 
 5600000   0.86868495   -3.2647429   -1.7866627  0.053407152   -3.2647429    1.4780803   387061 
 5601000   0.86830611   -3.2663326   -1.7888206  0.052636869   -3.2663326     1.477512   387041 
 5602000   0.87009945   -3.2685536   -1.7879135   0.05306129   -3.2685536    1.4806401   387021 
 5603000   0.86990306   -3.2682945   -1.7879121  0.052913039   -3.2682945    1.4803824   387001 
 5604000   0.87031801   -3.2699759   -1.7888109  0.048424793   -3.2699759    1.4811651   386981 
 5605000   0.86825018    -3.267106   -1.7893837  0.054647916    -3.267106    1.4777223   386961 
 5606000   0.86932128   -3.2675153   -1.7878936  0.050052812   -3.2675153    1.4796217   386941 
 5607000   0.86938503   -3.2658947    -1.786088  0.055368212   -3.2658947    1.4798067   386921 
 5608000   0.86912188   -3.2665016   -1.7870663  0.056431238   -3.2665016    1.4794353   386901 
 5609000    0.8685319    -3.266197   -1.7876896  0.055519154    -3.266197    1.4785074   386881 
 5610000   0.86810775   -3.2654001   -1.7875383  0.049444806   -3.2654001    1.4778618   386861 
 5611000   0.86813147   -3.2648324   -1.7868539  0.054693358   -3.2648324    1.4779786   386841 
 5612000   0.86927672   -3.2655015   -1.7854967  0.047199795   -3.2655015    1.4800048   386821 
 5613000   0.86736663   -3.2632484   -1.7864193  0.052035797   -3.2632484    1.4768291   386801 
 5614000   0.86842992   -3.2644548   -1.7857388  0.044342156   -3.2644548     1.478716   386781 
 5615000   0.87010069   -3.2672567   -1.7856191  0.047729138   -3.2672567    1.4816375   386761 
 5616000   0.86772349   -3.2633977   -1.7857317  0.055781603   -3.2633977     1.477666   386741 
 5617000   0.86928246   -3.2653991   -1.7850017  0.051652571   -3.2653991    1.4803973   386721 
 5618000   0.86875798   -3.2647519   -1.7851713  0.050804476   -3.2647519    1.4795806   386701 
 5619000    0.8690114    -3.265046   -1.7849571  0.052124117    -3.265046    1.4800888   386681 
 5620000   0.86786864   -3.2628759    -1.784657  0.052704197   -3.2628759    1.4782189   386661 
 5621000   0.86847419   -3.2655792   -1.7862524  0.051730414   -3.2655792    1.4793269   386641 
 5622000   0.86806055   -3.2649388     -1.78624  0.054000587   -3.2649388    1.4786988   386621 
 5623000   0.86917091   -3.2676728   -1.7870059  0.048699346   -3.2676728    1.4806668   386601 
 5624000   0.86886261   -3.2650679   -1.7848497  0.055395951   -3.2650679    1.4802182   386581 
 5625000   0.86980642   -3.2658556   -1.7839529  0.054149197   -3.2658556    1.4819028   386561 
 5626000   0.87021186   -3.2670137   -1.7843435   0.05094984   -3.2670137    1.4826702   386541 
 5627000   0.86989529   -3.2659901   -1.7837826  0.058739723   -3.2659901    1.4822075   386521 
 5628000   0.87053714   -3.2667797   -1.7834018  0.057720693   -3.2667797    1.4833779   386501 
 5629000   0.87004488    -3.266396   -1.7837802  0.047059553    -3.266396    1.4826159   386481 
 5630000    0.8687847     -3.26482    -1.784275  0.055003808     -3.26482     1.480545   386461 
 5631000   0.87002996   -3.2675294   -1.7847855   0.05530673   -3.2675294    1.4827439   386441 
 5632000   0.86759791   -3.2646919   -1.7860163  0.051452102   -3.2646919    1.4786756   386421 
 5633000   0.86742452   -3.2640319   -1.7855753  0.050966208   -3.2640319    1.4784566   386401 
 5634000   0.86802355   -3.2642647   -1.7847105  0.056222841   -3.2642647    1.4795542   386381 
 5635000   0.86910322   -3.2662089   -1.7847377   0.04936812   -3.2662089    1.4814712   386361 
 5636000   0.86706702   -3.2633847   -1.7853079  0.053101435   -3.2633847    1.4780768   386341 
 5637000   0.86656524   -3.2645315   -1.7872336  0.052337006   -3.2645315    1.4772979   386321 
 5638000   0.86778859   -3.2655837   -1.7861237  0.051670785   -3.2655837      1.47946   386301 
 5639000   0.86729736   -3.2661526   -1.7874535   0.04807115   -3.2661526    1.4786991   386281 
 5640000   0.86515579   -3.2638106   -1.7886864  0.053872689   -3.2638106    1.4751242   386261 
 5641000   0.86771083   -3.2652255   -1.7856682  0.049678635   -3.2652255    1.4795573   386241 
 5642000   0.86813816   -3.2650528   -1.7846902  0.050038483   -3.2650528    1.4803626   386221 
 5643000   0.86756061   -3.2627198   -1.7832655  0.051881592   -3.2627198    1.4794543   386201 
 5644000   0.86866617   -3.2640726   -1.7826562  0.052587311   -3.2640726    1.4814164   386181 
 5645000   0.86886918   -3.2640957   -1.7822563  0.052262831   -3.2640957    1.4818393   386161 
 5646000   0.86711094   -3.2621841   -1.7832669   0.04771519   -3.2621841    1.4789173   386141 
 5647000   0.86881337   -3.2653923   -1.7834947  0.051568763   -3.2653923    1.4818976   386121 
 5648000   0.86795297   -3.2641172   -1.7836105  0.050288319   -3.2641172    1.4805068   386101 
 5649000   0.86672716   -3.2639712   -1.7854787  0.055743789   -3.2639712    1.4784924   386081 
 5650000   0.86541674    -3.260198   -1.7838644  0.055783254    -3.260198    1.4763336   386061 
 5651000   0.86803336   -3.2645105   -1.7836364  0.050779076   -3.2645105     1.480874   386041 
 5652000   0.86730522    -3.264747   -1.7850385  0.052760755    -3.264747    1.4797085   386021 
 5653000   0.86627015   -3.2645771    -1.786558  0.056310677   -3.2645771    1.4780191   386001 
 5654000   0.86552194   -3.2636647   -1.7868456  0.055800436   -3.2636647    1.4768191   385981 
 5655000   0.86666414   -3.2672819   -1.7884373   0.04796813   -3.2672819    1.4788446   385961 
 5656000   0.86560918   -3.2634587   -1.7863377  0.051309562   -3.2634587     1.477121   385941 
 5657000   0.86534705   -3.2624881   -1.7857379  0.051774299   -3.2624881    1.4767502   385921 
 5658000   0.86590311   -3.2625448   -1.7847691  0.053573941   -3.2625448    1.4777757   385901 
 5659000   0.86722443   -3.2655488   -1.7854413  0.046700836   -3.2655488    1.4801074   385881 
 5660000   0.86719722   -3.2664861   -1.7863484   0.05210898   -3.2664861    1.4801377   385861 
 5661000   0.86694664   -3.2664539   -1.7866672  0.052489124   -3.2664539    1.4797867   385841 
 5662000    0.8673788   -3.2677749   -1.7871738  0.051545124   -3.2677749    1.4806011   385821 
 5663000   0.86648383   -3.2662349   -1.7870848  0.054144878   -3.2662349    1.4791501   385801 
 5664000   0.86752219   -3.2672723   -1.7862728  0.051743748   -3.2672723    1.4809994   385781 
 5665000   0.86646116   -3.2660746   -1.7868098  0.052063339   -3.2660746    1.4792648   385761 
 5666000   0.86640392   -3.2656495   -1.7864057   0.05219531   -3.2656495    1.4792437   385741 
 5667000   0.86631853    -3.265697   -1.7865224  0.050193796    -3.265697    1.4791746   385721 
 5668000   0.86603652    -3.265925   -1.7871552  0.050811349    -3.265925    1.4787698   385701 
 5669000   0.86722428   -3.2667214   -1.7858467   0.05164399   -3.2667214    1.4808747   385681 
 5670000    0.8666065   -3.2651913   -1.7852947  0.048997535   -3.2651913    1.4798965   385661 
 5671000   0.86591331   -3.2652273   -1.7864378  0.058456836   -3.2652273    1.4787895   385641 
 5672000   0.86574071    -3.265631   -1.7870596  0.059434973    -3.265631    1.4785714   385621 
 5673000   0.86679094   -3.2672056   -1.7867637  0.047402062   -3.2672056    1.4804418   385601 
 5674000   0.86595262   -3.2664072   -1.7873205  0.054538426   -3.2664072    1.4790867   385581 
 5675000   0.86548718   -3.2660806   -1.7877122    0.0474348   -3.2660806    1.4783684   385561 
 5676000   0.86413065   -3.2639577   -1.7878299  0.050178157   -3.2639577    1.4761278   385541 
 5677000   0.86456149   -3.2668616   -1.7899211   0.04689612   -3.2668616    1.4769404   385521 
 5678000   0.86554862   -3.2678119   -1.7891085  0.046051608   -3.2678119    1.4787035   385501 
 5679000   0.86385592   -3.2644826   -1.7885943  0.048609445   -3.2644826    1.4758882   385481 
 5680000   0.86468952   -3.2648512   -1.7874621  0.049260854   -3.2648512    1.4773891   385461 
 5681000   0.86514813   -3.2645924   -1.7863431  0.052133988   -3.2645924    1.4782494   385441 
 5682000   0.86620746   -3.2665596   -1.7864235  0.049986673   -3.2665596    1.4801362   385421 
 5683000   0.86607395   -3.2674832   -1.7874984   0.05136151   -3.2674832    1.4799849   385401 
 5684000   0.86449838    -3.265117   -1.7877479  0.056029308    -3.265117    1.4773691   385381 
 5685000   0.86591099   -3.2686847   -1.7888247  0.050377367   -3.2686847      1.47986   385361 
 5686000   0.86490132   -3.2654545   -1.7872434  0.054705139   -3.2654545    1.4782111   385341 
 5687000   0.86545615   -3.2669629   -1.7877267  0.047018094   -3.2669629    1.4792362   385321 
 5688000   0.86549555   -3.2660368   -1.7866565  0.053950107   -3.2660368    1.4793803   385301 
 5689000   0.86540791   -3.2666929   -1.7873856  0.050521299   -3.2666929    1.4793073   385281 
 5690000   0.86476814   -3.2656437   -1.7873533  0.055163501   -3.2656437    1.4782904   385261 
 5691000   0.86368934   -3.2642504   -1.7877275   0.05272978   -3.2642504    1.4765229   385241 
 5692000   0.86536521   -3.2664005   -1.7869358  0.055676412   -3.2664005    1.4794647   385221 
 5693000   0.86543634   -3.2667929   -1.7871298  0.049250816   -3.2667929    1.4796631   385201 
 5694000   0.86613575   -3.2681105   -1.7871747  0.052402854   -3.2681105    1.4809358   385181 
 5695000   0.86605939   -3.2688404   -1.7879582   0.05272081   -3.2688404    1.4808822   385161 
 5696000   0.86623471   -3.2668121   -1.7855532   0.05674072   -3.2668121    1.4812589   385141 
 5697000   0.86579335   -3.2666506   -1.7860696  0.052774814   -3.2666506     1.480581   385121 
 5698000   0.86532541   -3.2672254   -1.7873678  0.050904212   -3.2672254    1.4798576   385101 
 5699000   0.86470772   -3.2663741    -1.787496  0.047388703   -3.2663741    1.4788781   385081 
 5700000    0.8645576   -3.2657957   -1.7870975  0.047461622   -3.2657957    1.4786982   385061 
 5701000   0.86515708   -3.2675515   -1.7877512  0.046847214   -3.2675515    1.4798003   385041 
 5702000   0.86279567   -3.2642271   -1.7883891  0.047730617   -3.2642271    1.4758379   385021 
 5703000   0.86230793   -3.2637556   -1.7886753  0.050895533   -3.2637556    1.4750803   385001 
 5704000   0.86327292   -3.2637646   -1.7869569  0.053876204   -3.2637646    1.4768077   384981 
 5705000   0.86580804   -3.2674698   -1.7862482  0.053414437   -3.2674698    1.4812215   384961 
 5706000   0.86394095   -3.2655843   -1.7874802  0.044845754   -3.2655843    1.4781041   384941 
 5707000   0.86317421     -3.26372    -1.786851  0.053663927     -3.26372     1.476869   384921 
 5708000   0.86567894   -3.2678738   -1.7866422  0.054043562   -3.2678738    1.4812315   384901 
 5709000   0.86538578   -3.2664634   -1.7856566  0.054910862   -3.2664634    1.4808069   384881 
 5710000   0.86511217   -3.2664274   -1.7860118  0.050853418   -3.2664274    1.4804156   384861 
 5711000   0.86401594   -3.2653063   -1.7866898   0.05006758   -3.2653063    1.4786165   384841 
 5712000   0.86469685   -3.2670752   -1.7872165  0.053380083   -3.2670752    1.4798587   384821 
 5713000   0.86556518   -3.2688338   -1.7874121  0.052789563   -3.2688338    1.4814218   384801 
 5714000    0.8644985   -3.2663094   -1.7866364  0.054188472   -3.2663094     1.479673   384781 
 5715000   0.86435245   -3.2670941   -1.7875941  0.050575313   -3.2670941    1.4794999   384761 
 5716000   0.86501087   -3.2673369    -1.786633  0.053069681   -3.2673369    1.4807039   384741 
 5717000   0.86381106   -3.2650077   -1.7862807  0.052198689   -3.2650077     1.478727   384721 
 5718000   0.86460989    -3.265487   -1.7853156  0.053394045    -3.265487    1.4801714   384701 
 5719000   0.86432702   -3.2668623   -1.7870982  0.052391828   -3.2668623    1.4797641   384681 
 5720000   0.86442095   -3.2665315   -1.7865296  0.054861835   -3.2665315    1.4800019   384661 
 5721000    0.8648064   -3.2675273   -1.7867885  0.048914656   -3.2675273    1.4807388   384641 
 5722000   0.86425668   -3.2663762   -1.7865017  0.052377649   -3.2663762    1.4798745   384621 
 5723000   0.86375242   -3.2650781   -1.7859901  0.052936149   -3.2650781     1.479088   384601 
 5724000   0.86239339   -3.2649898   -1.7881522  0.053031983   -3.2649898    1.4768376   384581 
 5725000   0.86289173   -3.2644375   -1.7866696  0.050004001   -3.2644375    1.4777678   384561 
 5726000   0.86191734   -3.2635314   -1.7873555  0.047330777   -3.2635314    1.4761759   384541 
 5727000   0.86182884   -3.2647701    -1.788669  0.052402587   -3.2647701    1.4761011   384521 
 5728000   0.86194477   -3.2659738   -1.7895973  0.047494033   -3.2659738    1.4763764   384501 
 5729000    0.8613208   -3.2647253   -1.7893409  0.045498512   -3.2647253    1.4753844   384481 
 5730000   0.86158581   -3.2642933   -1.7883782  0.049628787   -3.2642933    1.4759151   384461 
 5731000   0.86222744   -3.2641399   -1.7870488  0.049380843   -3.2641399    1.4770911   384441 
 5732000   0.86237202   -3.2642756     -1.78686  0.046640355   -3.2642756    1.4774156   384421 
 5733000   0.86313014   -3.2643189   -1.7855276  0.048120448   -3.2643189    1.4787914   384401 
 5734000   0.86285944   -3.2650583   -1.7866538   0.04914038   -3.2650583    1.4784045   384381 
 5735000   0.86309895   -3.2649513   -1.7860595  0.051355651   -3.2649513    1.4788918   384361 
 5736000   0.86276988    -3.264895   -1.7864901  0.057869971    -3.264895    1.4784049   384341 
 5737000   0.86315947   -3.2650884    -1.785939  0.051946918   -3.2650884    1.4791495   384321 
 5738000   0.86229334   -3.2645533   -1.7868112  0.049918119   -3.2645533    1.4777421   384301 
 5739000   0.86137593   -3.2626695   -1.7864228  0.052380839   -3.2626695    1.4762467   384281 
 5740000   0.86356115   -3.2660751   -1.7860063  0.049601987   -3.2660751    1.4800689   384261 
 5741000    0.8632124   -3.2658794   -1.7863312  0.052469123   -3.2658794    1.4795481   384241 
 5742000   0.86304619   -3.2654071   -1.7860669  0.050515683   -3.2654071    1.4793402   384221 
 5743000   0.86239411    -3.264641   -1.7863415   0.04995636    -3.264641    1.4782995   384201 
 5744000   0.86340752   -3.2656604   -1.7855467  0.050885608   -3.2656604    1.4801137   384181 
 5745000   0.86239981   -3.2629813   -1.7845181  0.051555992   -3.2629813    1.4784632   384161 
 5746000   0.86377114   -3.2650889   -1.7841976  0.050649617   -3.2650889    1.4808912   384141 
 5747000   0.86149387   -3.2622107   -1.7851468  0.051045114   -3.2622107    1.4770639   384121 
 5748000   0.86320896   -3.2640101   -1.7839286  0.048796326   -3.2640101    1.4800815   384101 
 5749000   0.86361867   -3.2660574   -1.7851963  0.052509735   -3.2660574    1.4808611   384081 
 5750000   0.86132212   -3.2628624   -1.7858623  0.049353459   -3.2628624    1.4770001   384061 
 5751000   0.86058296   -3.2611417   -1.7853323  0.055343929   -3.2611417    1.4758094   384041 
 5752000    0.8604889   -3.2622293   -1.7865044  0.046348597   -3.2622293     1.475725   384021 
 5753000   0.86070421   -3.2629221   -1.7867509  0.050297014   -3.2629221    1.4761711   384001 
 5754000   0.85955233   -3.2606581   -1.7863858  0.053883768   -3.2606581    1.4742723   383981 
 5755000   0.86066718   -3.2621997   -1.7859383  0.048597314   -3.2621997    1.4762614   383961 
 5756000   0.86130608   -3.2624324   -1.7849982  0.051117467   -3.2624324    1.4774342   383941 
 5757000   0.86018816    -3.262128   -1.7865345  0.049860725    -3.262128    1.4755935   383921 
 5758000   0.86240339   -3.2651625   -1.7856919   0.05024897   -3.2651625    1.4794706   383901 
 5759000   0.86106189   -3.2623173   -1.7850711  0.048075824   -3.2623173    1.4772462   383881 
 5760000   0.86202033    -3.263485   -1.7845175  0.052395859    -3.263485    1.4789676   383861 
 5761000   0.86154019   -3.2625076   -1.7842868  0.049304503   -3.2625076    1.4782208   383841 
 5762000   0.86075517    -3.261613   -1.7846621  0.047064569    -3.261613    1.4769508   383821 
 5763000   0.86121138   -3.2633949   -1.7855842   0.04858533   -3.2633949    1.4778106   383801 
 5764000    0.8609851   -3.2622127   -1.7847133  0.052481092   -3.2622127    1.4774993   383781 
 5765000    0.8613228    -3.264013   -1.7858571  0.051049977    -3.264013    1.4781559   383761 
 5766000   0.86140442   -3.2635733   -1.7852002  0.052314966   -3.2635733     1.478373   383741 
 5767000   0.86140078   -3.2641711   -1.7857273  0.051342716   -3.2641711    1.4784438   383721 
 5768000   0.86010567   -3.2622007   -1.7859027  0.049154774   -3.2622007    1.4762979   383701 
 5769000   0.85957477   -3.2627261   -1.7872625   0.05092428   -3.2627261    1.4754636   383681 
 5770000   0.85945071   -3.2643043   -1.7889767  0.052639956   -3.2643043    1.4753275   383661 
 5771000    0.8600015   -3.2649203   -1.7885703   0.05019905   -3.2649203      1.47635   383641 
 5772000   0.85998301   -3.2646575   -1.7882622  0.047391951   -3.2646575    1.4763952   383621 
 5773000    0.8591058   -3.2647824   -1.7898162  0.050279701   -3.2647824    1.4749661   383601 
 5774000   0.85966275   -3.2649607   -1.7889614   0.04739619   -3.2649607    1.4759993   383581 
 5775000   0.86001014   -3.2653497    -1.788677   0.05016845   -3.2653497    1.4766727   383561 
 5776000    0.8606612   -3.2676973   -1.7898295  0.052790052   -3.2676973    1.4778677   383541 
 5777000   0.86110491   -3.2688367     -1.79013  0.052107898   -3.2688367    1.4787067   383521 
 5778000   0.85950911   -3.2676157   -1.7915724  0.044336067   -3.2676157    1.4760434   383501 
 5779000   0.86133308   -3.2686748   -1.7894219   0.05111309   -3.2686748    1.4792528   383481 
 5780000   0.86084033   -3.2684703   -1.7899866   0.05137113   -3.2684703    1.4784837   383461 
 5781000   0.86176026   -3.2705309     -1.79039  0.051598639   -3.2705309    1.4801409   383441 
 5782000     0.861004   -3.2694623   -1.7905432  0.050828456   -3.2694623    1.4789191   383421 
 5783000   0.86223736   -3.2703419   -1.7892271  0.051691778   -3.2703419    1.4811148   383401 
 5784000   0.86187964    -3.270683   -1.7901054  0.054770413    -3.270683    1.4805776   383381 
 5785000   0.86179133   -3.2700736   -1.7895705  0.053879017   -3.2700736    1.4805031   383361 
 5786000   0.86199294   -3.2703152   -1.7893884  0.054904569   -3.2703152    1.4809267   383341 
 5787000   0.86144898   -3.2674154    -1.787346  0.051206699   -3.2674154    1.4800694   383321 
 5788000   0.86023443   -3.2671892   -1.7891294  0.054897118   -3.2671892    1.4780598   383301 
 5789000   0.85922108    -3.266008   -1.7896124  0.051651952    -3.266008    1.4763957   383281 
 5790000   0.85958615   -3.2670606   -1.7899606  0.044653007   -3.2670606       1.4771   383261 
 5791000   0.85978822   -3.2676103   -1.7900859  0.050728288   -3.2676103    1.4775244   383241 
 5792000   0.85932745   -3.2672532   -1.7904436  0.049578402   -3.2672532    1.4768096   383221 
 5793000   0.85745283   -3.2626586   -1.7889937  0.053670873   -3.2626586    1.4736649   383201 
 5794000   0.85902635   -3.2648716   -1.7884253  0.046437057   -3.2648716    1.4764463   383181 
 5795000   0.85874013   -3.2644837   -1.7884523   0.04864286   -3.2644837    1.4760314   383161 
 5796000   0.85833665   -3.2633193   -1.7879044  0.049529606   -3.2633193    1.4754149   383141 
 5797000   0.85971902   -3.2673125   -1.7894443  0.050268177   -3.2673125    1.4778682   383121 
 5798000   0.85853492    -3.265302   -1.7893922  0.048496208    -3.265302    1.4759098   383101 
 5799000   0.85882113   -3.2660885   -1.7896097  0.049535384   -3.2660885    1.4764789   383081 
 5800000   0.85741365   -3.2632079   -1.7890718  0.052430053   -3.2632079    1.4741361   383061 
 5801000   0.85828148   -3.2646225   -1.7889173   0.04815423   -3.2646225    1.4757052   383041 
 5802000   0.85964905   -3.2650752   -1.7869415   0.05185163   -3.2650752    1.4781337   383021 
 5803000   0.85800395   -3.2619691    -1.786587  0.053116826   -3.2619691    1.4753821   383001 
 5804000   0.85976553   -3.2648291   -1.7863407  0.054226971   -3.2648291    1.4784884   382981 
 5805000   0.86068905   -3.2657161   -1.7855622   0.05390227   -3.2657161    1.4801539   382961 
 5806000   0.85922613   -3.2640664   -1.7863512  0.054186714   -3.2640664    1.4777152   382941 
 5807000    0.8608024   -3.2674095   -1.7869061  0.051297845   -3.2674095    1.4805034   382921 
 5808000   0.85975087   -3.2658984   -1.7871262  0.048053675   -3.2658984    1.4787721   382901 
 5809000   0.85831874    -3.263663   -1.7872771  0.050857273    -3.263663     1.476386   382881 
 5810000   0.85826227   -3.2633596   -1.7869937   0.05303386   -3.2633596     1.476366   382861 
 5811000   0.85632128   -3.2613519   -1.7882478  0.050791344   -3.2613519    1.4731041   382841 
 5812000   0.85751169   -3.2635489     -1.78832  0.047208159   -3.2635489     1.475229   382821 
 5813000   0.85763349   -3.2635308   -1.7880152  0.046760729   -3.2635308    1.4755156   382801 
 5814000   0.85977842   -3.2656324   -1.7863493  0.051586309   -3.2656324    1.4792831   382781 
 5815000    0.8603432   -3.2649315   -1.7845993   0.04936183   -3.2649315    1.4803322   382761 
 5816000   0.86105698   -3.2670186   -1.7853809  0.051691149   -3.2670186    1.4816378   382741 
 5817000   0.85912246   -3.2647749   -1.7863887  0.056093366   -3.2647749    1.4783862   382721 
 5818000   0.85936224   -3.2643013   -1.7854252  0.053034228   -3.2643013    1.4788761   382701 
 5819000   0.85948235   -3.2651311    -1.785971  0.046756499   -3.2651311    1.4791601   382681 
 5820000   0.85979152   -3.2654098   -1.7856402  0.048069601   -3.2654098    1.4797696   382661 
 5821000   0.85900141    -3.265013   -1.7865261  0.050000533    -3.265013     1.478487   382641 
 5822000   0.85740081   -3.2634423   -1.7876331  0.052912447   -3.2634423    1.4758092   382621 
 5823000   0.85720489   -3.2644196   -1.7888705  0.052100294   -3.2644196    1.4755491   382601 
 5824000   0.85760097   -3.2653603   -1.7890523  0.052502861   -3.2653603    1.4763081   382581 
 5825000   0.85740497   -3.2658637   -1.7898159   0.04853713   -3.2658637    1.4760478   382561 
 5826000   0.85818898   -3.2659674   -1.7884927  0.048987845   -3.2659674    1.4774748   382541 
 5827000   0.85778995   -3.2656859   -1.7888209  0.047279131   -3.2656859     1.476865   382521 
 5828000   0.85980851   -3.2683797   -1.7879619  0.045555913   -3.2683797    1.4804178   382501 
 5829000   0.85804127   -3.2664885   -1.7890363  0.050964679   -3.2664885    1.4774522   382481 
 5830000   0.85828732   -3.2658213   -1.7878682  0.053250013   -3.2658213    1.4779532   382461 
 5831000   0.85699761   -3.2652709   -1.7894614   0.04977283   -3.2652709    1.4758095   382441 
 5832000   0.85819909   -3.2678031   -1.7898473  0.048020167   -3.2678031    1.4779558   382421 
 5833000   0.85743087   -3.2656193   -1.7889093  0.053985943   -3.2656193      1.47671   382401 
 5834000   0.85707258    -3.265875   -1.7897048  0.050288273    -3.265875    1.4761702   382381 
 5835000   0.85739324   -3.2661664   -1.7893667  0.048190136   -3.2661664    1.4767997   382361 
 5836000   0.85848288   -3.2664364   -1.7876825  0.050044699   -3.2664364    1.4787539   382341 
 5837000    0.8592714   -3.2681221   -1.7879326  0.049095073   -3.2681221    1.4801896   382321 
 5838000   0.85704109    -3.265323   -1.7888982  0.049513001    -3.265323    1.4764248   382301 
 5839000   0.85808229   -3.2657001   -1.7874043  0.051314268   -3.2657001    1.4782958   382281 
 5840000   0.85946295   -3.2684294   -1.7876775  0.054537159   -3.2684294    1.4807519   382261 
 5841000   0.85862243   -3.2668894   -1.7875082  0.056568699   -3.2668894    1.4793812   382241 
 5842000   0.85911402   -3.2676229   -1.7873172  0.053184085   -3.2676229    1.4803056   382221 
 5843000   0.85929603   -3.2683998   -1.7877031  0.056979968   -3.2683998    1.4806967   382201 
 5844000   0.85820949   -3.2665064   -1.7876046  0.052186004   -3.2665064    1.4789018   382181 
 5845000   0.85877609   -3.2684236   -1.7884679  0.054738669   -3.2684236    1.4799557   382161 
 5846000   0.85618517   -3.2648448   -1.7892769  0.047854966   -3.2648448    1.4755679   382141 
 5847000   0.85765012   -3.2666491   -1.7884791  0.042755668   -3.2666491      1.47817   382121 
 5848000   0.85637977   -3.2648023   -1.7887445  0.055610457   -3.2648023    1.4760578   382101 
 5849000   0.85685393   -3.2661818   -1.7892294  0.046708193   -3.2661818    1.4769524   382081 
 5850000   0.85664276   -3.2652763   -1.7886107  0.048398067   -3.2652763    1.4766656   382061 
 5851000   0.85708338   -3.2657024   -1.7881999  0.054556396   -3.2657024    1.4775025   382041 
 5852000   0.85774516   -3.2661748    -1.787454   0.05281407   -3.2661748    1.4787208   382021 
 5853000   0.85795392   -3.2669923   -1.7878342  0.048435309   -3.2669923    1.4791581   382001 
 5854000   0.85673655   -3.2660335   -1.7888969  0.052794692   -3.2660335    1.4771366   381981 
 5855000   0.85739964    -3.267738   -1.7893807  0.049038007    -3.267738    1.4783573   381961 
 5856000   0.85806524   -3.2677574    -1.788175  0.047028778   -3.2677574    1.4795824   381941 
 5857000   0.85562271   -3.2647286   -1.7892807  0.050667831   -3.2647286     1.475448   381921 
 5858000   0.85648158   -3.2669826   -1.7899762  0.049373104   -3.2669826    1.4770064   381901 
 5859000   0.85638078    -3.267258   -1.7903481   0.04757853    -3.267258    1.4769099   381881 
 5860000   0.85733436   -3.2666544   -1.7880226  0.050132147   -3.2666544    1.4786318   381861 
 5861000   0.85544427   -3.2642978   -1.7888485  0.051164267   -3.2642978    1.4754493   381841 
 5862000   0.85728666   -3.2676517   -1.7889472  0.048319769   -3.2676517    1.4787045   381821 
 5863000   0.85640961   -3.2653001   -1.7880311  0.053874684   -3.2653001    1.4772691   381801 
 5864000   0.85803447   -3.2684669   -1.7883174  0.044898552   -3.2684669    1.4801494   381781 
 5865000   0.85776004   -3.2670903   -1.7873368  0.051084673   -3.2670903    1.4797535   381761 
 5866000   0.85772216   -3.2679866   -1.7882209  0.054571517   -3.2679866    1.4797657   381741 
 5867000   0.85898242   -3.2701749   -1.7881573    0.0498228   -3.2701749    1.4820176   381721 
 5868000    0.8577269    -3.268182   -1.7882531  0.050785351    -3.268182    1.4799289   381701 
 5869000   0.85663283   -3.2657039   -1.7875852  0.049887938   -3.2657039    1.4781187   381681 
 5870000   0.85654214   -3.2648152   -1.7867756  0.047532873   -3.2648152    1.4780397   381661 
 5871000   0.85890294   -3.2686155   -1.7864244  0.048116723   -3.2686155    1.4821911   381641 
 5872000   0.85755746   -3.2671168     -1.78717    0.0501083   -3.2671168    1.4799468   381621 
 5873000   0.85686523   -3.2662922   -1.7874625  0.051650953   -3.2662922    1.4788297   381601 
 5874000   0.85488539   -3.2617236   -1.7862336  0.051781402   -3.2617236    1.4754901   381581 
 5875000    0.8572679   -3.2653325   -1.7856528  0.050547753   -3.2653325    1.4796797   381561 
 5876000   0.85711945   -3.2668696   -1.7873686   0.05035723   -3.2668696     1.479501   381541 
 5877000   0.85513635   -3.2646259   -1.7884706  0.049259767   -3.2646259    1.4761553   381521 
 5878000   0.85652354   -3.2659212   -1.7872938  0.048680315   -3.2659212    1.4786274   381501 
 5879000   0.85621022   -3.2665521   -1.7883881  0.049752515   -3.2665521     1.478164   381481 
 5880000   0.85612008   -3.2659739    -1.787888  0.049717847   -3.2659739    1.4780859   381461 
 5881000   0.85528577   -3.2640317   -1.7873089  0.055808556   -3.2640317    1.4767229   381441 
 5882000    0.8569109    -3.265707   -1.7861006  0.050087403    -3.265707    1.4796064   381421 
 5883000   0.85545309   -3.2639007    -1.786734  0.050011853   -3.2639007    1.4771667   381401 
 5884000    0.8548347   -3.2635428   -1.7873665  0.055606567   -3.2635428    1.4761763   381381 
 5885000   0.85581904   -3.2643832   -1.7864296  0.055077097   -3.2643832    1.4779536   381361 
 5886000   0.85820973   -3.2683164   -1.7861565   0.04990315   -3.2683164    1.4821599   381341 
 5887000   0.85753986   -3.2665976   -1.7855169  0.052616689   -3.2665976    1.4810807   381321 
 5888000   0.85555364    -3.263198   -1.7854702  0.054945064    -3.263198    1.4777278   381301 
 5889000   0.85655441   -3.2638924   -1.7843585  0.052898541   -3.2638924    1.4795339   381281 
 5890000   0.85769533   -3.2656742   -1.7840919   0.04366607   -3.2656742    1.4815824   381261 
 5891000    0.8563569   -3.2641951   -1.7848471  0.056580043   -3.2641951    1.4793479   381241 
 5892000   0.85629842   -3.2650687   -1.7857441  0.049813128   -3.2650687    1.4793245   381221 
 5893000   0.85555012   -3.2643049   -1.7861956  0.051245957   -3.2643049    1.4781093   381201 
 5894000   0.85558715    -3.264406   -1.7861551  0.048379807    -3.264406    1.4782509   381181 
 5895000   0.85588115   -3.2649086   -1.7860722   0.04928196   -3.2649086    1.4788364   381161 
 5896000   0.85387226   -3.2629583   -1.7875156  0.052180975   -3.2629583    1.4754428   381141 
 5897000   0.85483722   -3.2629959   -1.7858082  0.056470378   -3.2629959    1.4771877   381121 
 5898000   0.85497943   -3.2642119   -1.7867009  0.053702514   -3.2642119     1.477511   381101 
 5899000   0.85606259   -3.2675166   -1.7880561   0.04969356   -3.2675166    1.4794604   381081 
 5900000   0.85500112   -3.2661482   -1.7884447  0.052306322   -3.2661482    1.4777035   381061 
 5901000   0.85508877   -3.2661977   -1.7882652  0.050940746   -3.2661977    1.4779326   381041 
 5902000    0.8538426   -3.2644985   -1.7886423  0.051397073   -3.2644985    1.4758562   381021 
 5903000    0.8540842   -3.2662938   -1.7899426  0.049495322   -3.2662938    1.4763513   381001 
 5904000   0.85519858   -3.2656867   -1.7873315  0.047115414   -3.2656867    1.4783552   380981 
 5905000   0.85533643    -3.265951   -1.7872799   0.04385861    -3.265951    1.4786711   380961 
 5906000   0.85650672   -3.2674027   -1.7866307  0.048089155   -3.2674027     1.480772   380941 
 5907000   0.85469098   -3.2666736   -1.7889631  0.052095619   -3.2666736    1.4777104   380921 
 5908000   0.85489554   -3.2664455   -1.7883038  0.047052523   -3.2664455    1.4781417   380901 
 5909000   0.85542212   -3.2669363   -1.7878065  0.048522453   -3.2669363    1.4791299   380881 
 5910000   0.85525541   -3.2658742   -1.7869549  0.052305849   -3.2658742    1.4789192   380861 
 5911000   0.85539439   -3.2661213   -1.7868841  0.048114118   -3.2661213    1.4792372   380841 
 5912000   0.85386072    -3.264793   -1.7881304  0.048782057    -3.264793    1.4766626   380821 
 5913000   0.85344552   -3.2636207   -1.7875986  0.050641008   -3.2636207    1.4760221   380801 
 5914000   0.85398875   -3.2644629   -1.7874237  0.049318902   -3.2644629    1.4770392   380781 
 5915000   0.85426554   -3.2654332   -1.7878377  0.053538976   -3.2654332    1.4775955   380761 
 5916000   0.85450342   -3.2652301   -1.7871455  0.053166497   -3.2652301    1.4780846   380741 
 5917000   0.85430798   -3.2633553   -1.7855311  0.057593886   -3.2633553    1.4778242   380721 
 5918000    0.8549332   -3.2645956   -1.7856122  0.052624476   -3.2645956    1.4789834   380701 
 5919000   0.85692335   -3.2677989   -1.7852948  0.049621009   -3.2677989    1.4825041   380681 
 5920000   0.85624579   -3.2669141   -1.7855044  0.053268875   -3.2669141    1.4814097   380661 
 5921000    0.8549615    -3.263994   -1.7847285  0.057826172    -3.263994    1.4792655   380641 
 5922000   0.85634555   -3.2665064   -1.7847683  0.046028115   -3.2665064     1.481738   380621 
 5923000   0.85438433   -3.2638626   -1.7854404  0.053153899   -3.2638626    1.4784222   380601 
 5924000   0.85514969   -3.2664464   -1.7866221  0.049148665   -3.2664464    1.4798244   380581 
 5925000   0.85506335   -3.2656221   -1.7858694  0.048565162   -3.2656221    1.4797527   380561 
 5926000   0.85477075   -3.2655939   -1.7862698  0.055225192   -3.2655939    1.4793241   380541 
 5927000   0.85570453   -3.2679048   -1.7868868  0.047212076   -3.2679048     1.481018   380521 
 5928000   0.85461362   -3.2649751   -1.7857675  0.047074846   -3.2649751    1.4792076   380501 
 5929000   0.85451863   -3.2641449   -1.7850239  0.054735125   -3.2641449     1.479121   380481 
 5930000   0.85483561   -3.2649718   -1.7852243  0.053981134   -3.2649718    1.4797474   380461 
 5931000   0.85542111   -3.2654492   -1.7846105  0.051668386   -3.2654492    1.4808388   380441 
 5932000   0.85376088     -3.26553   -1.7874876  0.049200877     -3.26553    1.4780424   380421 
 5933000   0.85316639   -3.2635894   -1.7864985  0.046132845   -3.2635894    1.4770909   380401 
 5934000   0.85411504    -3.264852   -1.7860409  0.049317516    -3.264852     1.478811   380381 
 5935000   0.85495326   -3.2628719   -1.7825317   0.05163889   -3.2628719    1.4803402   380361 
 5936000   0.85295598   -3.2610947   -1.7841351  0.048335345   -3.2610947    1.4769596   380341 
 5937000   0.85278919   -3.2621148   -1.7853663  0.047021706   -3.2621148    1.4767484   380321 
 5938000   0.85373526   -3.2637948   -1.7853304  0.051090621   -3.2637948    1.4784644   380301 
 5939000    0.8545371   -3.2643128   -1.7843819  0.047953643   -3.2643128    1.4799309   380281 
 5940000   0.85392855   -3.2629139   -1.7839592  0.050265168   -3.2629139    1.4789547   380261 
 5941000   0.85370804   -3.2619884   -1.7833378  0.045498192   -3.2619884    1.4786506   380241 
 5942000   0.85252439   -3.2617379   -1.7850598  0.052373234   -3.2617379    1.4766781   380221 
 5943000   0.85163425   -3.2608829    -1.785669  0.050770406   -3.2608829    1.4752139   380201 
 5944000    0.8526675   -3.2640575   -1.7869761  0.046175212   -3.2640575    1.4770814   380181 
 5945000   0.85272244   -3.2639995   -1.7867452  0.045149697   -3.2639995    1.4772543   380161 
 5946000   0.85267514   -3.2626205   -1.7853704  0.051991352   -3.2626205    1.4772501   380141 
 5947000   0.85162229   -3.2619606   -1.7864569  0.049054976   -3.2619606    1.4755037   380121 
 5948000   0.85144207   -3.2620704   -1.7868013  0.051901127   -3.2620704     1.475269   380101 
 5949000   0.85274866    -3.263592   -1.7859813  0.053841131    -3.263592    1.4776107   380081 
 5950000   0.85326215   -3.2636877   -1.7851095  0.051761007   -3.2636877    1.4785782   380061 
 5951000   0.85327756   -3.2638133   -1.7851306  0.050973737   -3.2638133    1.4786827   380041 
 5952000   0.85149414   -3.2618503   -1.7861804  0.044957067   -3.2618503    1.4756698   380021 
 5953000   0.85307564   -3.2641087   -1.7856203  0.050650115   -3.2641087    1.4784884   380001 
 5954000   0.85276914   -3.2633375   -1.7853024  0.052448464   -3.2633375     1.478035   379981 
 5955000   0.85313237   -3.2637601   -1.7850177  0.050651969   -3.2637601    1.4787424   379961 
 5956000    0.8521474   -3.2631783   -1.7860654  0.050917755   -3.2631783    1.4771129   379941 
 5957000   0.85203039   -3.2633772   -1.7863894  0.052955023   -3.2633772    1.4769878   379921 
 5958000   0.85131335   -3.2628724   -1.7870499  0.049653571   -3.2628724    1.4758225   379901 
 5959000   0.85213505   -3.2660137   -1.7886889  0.047937225   -3.2660137    1.4773248   379881 
 5960000   0.85272516   -3.2657446   -1.7873189  0.054844217   -3.2657446    1.4784257   379861 
 5961000   0.85230474   -3.2656778   -1.7879032  0.050573599   -3.2656778    1.4777746   379841 
 5962000   0.85131922   -3.2638039   -1.7876604  0.052223294   -3.2638039    1.4761436   379821 
 5963000   0.85195847    -3.265579   -1.7882492  0.052120817    -3.265579    1.4773298   379801 
 5964000   0.85190306   -3.2665622   -1.7892507  0.056546136   -3.2665622    1.4773115   379781 
 5965000   0.85182867   -3.2660438   -1.7887835  0.054012157   -3.2660438    1.4772603   379761 
 5966000   0.85268007   -3.2684382   -1.7896235  0.053364763   -3.2684382    1.4788147   379741 
 5967000   0.85211533   -3.2667507   -1.7888376  0.050095151   -3.2667507    1.4779131   379721 
 5968000   0.85071435   -3.2667817   -1.7912207  0.047784879   -3.2667817    1.4755609   379701 
 5969000   0.85097121   -3.2662178   -1.7901336  0.048152147   -3.2662178    1.4760842   379681 
 5970000   0.85093394   -3.2663507   -1.7902534  0.047040463   -3.2663507    1.4760973   379661 
 5971000   0.85080584   -3.2653339   -1.7893811  0.054811419   -3.2653339    1.4759528   379641 
 5972000   0.85132589   -3.2643779   -1.7874451  0.056857802   -3.2643779    1.4769328   379621 
 5973000   0.85342649   -3.2674808   -1.7868257  0.054490679   -3.2674808    1.4806551   379601 
 5974000   0.85222466   -3.2669039    -1.788256  0.053000754   -3.2669039    1.4786479   379581 
 5975000    0.8530763   -3.2660619   -1.7858584  0.050950195   -3.2660619    1.4802035   379561 
 5976000   0.85189236   -3.2644726   -1.7862455  0.056712606   -3.2644726    1.4782271   379541 
 5977000   0.85273531   -3.2665546   -1.7867868  0.050697119   -3.2665546    1.4797678   379521 
 5978000   0.85243831   -3.2655759   -1.7862456  0.049693459   -3.2655759    1.4793303   379501 
 5979000    0.8514109   -3.2634095   -1.7857842  0.052302541   -3.2634095    1.4776252   379481 
 5980000    0.8510031   -3.2635423    -1.786547  0.050367291   -3.2635423    1.4769953   379461 
 5981000   0.85196986   -3.2650899   -1.7863387  0.043045604   -3.2650899    1.4787512   379441 
 5982000    0.8503758   -3.2629075   -1.7868453  0.048294597   -3.2629075    1.4760622   379421 
 5983000   0.85034411   -3.2629275   -1.7868425  0.048637688   -3.2629275     1.476085   379401 
 5984000   0.85058909   -3.2637328   -1.7871447  0.047728121   -3.2637328    1.4765881   379381 
 5985000     0.850978   -3.2629934   -1.7856523   0.05378663   -3.2629934    1.4773411   379361 
 5986000   0.85157067    -3.265834    -1.787386  0.048933439    -3.265834     1.478448   379341 
 5987000   0.84989532   -3.2621616   -1.7865445  0.050290209   -3.2621616    1.4756171   379321 
 5988000   0.84868271   -3.2599195   -1.7863301  0.049314218   -3.2599195    1.4735894   379301 
 5989000   0.85042932   -3.2626437   -1.7859438  0.050371058   -3.2626437       1.4767   379281 
 5990000   0.85024015   -3.2620219   -1.7855725  0.050755042   -3.2620219    1.4764494   379261 
 5991000   0.85034368   -3.2633769   -1.7866699  0.044798626   -3.2633769     1.476707   379241 
 5992000    0.8500942   -3.2640306    -1.787679  0.050292135   -3.2640306    1.4763516   379221 
 5993000   0.85135666   -3.2654872    -1.786865   0.04775131   -3.2654872    1.4786221   379201 
 5994000   0.84936988   -3.2620898   -1.7868405  0.053668145   -3.2620898    1.4752493   379181 
 5995000   0.84959364   -3.2644847   -1.7887689  0.048579509   -3.2644847    1.4757158   379161 
 5996000    0.8510819   -3.2661382   -1.7877593  0.047549547   -3.2661382    1.4783788   379141 
 5997000   0.84979244   -3.2643265   -1.7881097  0.050754468   -3.2643265    1.4762168   379121 
 5998000    0.8520099   -3.2670541   -1.7869071  0.051211187   -3.2670541     1.480147   379101 
 5999000   0.85283794    -3.268357   -1.7866934    0.0534951    -3.268357    1.4816637   379081 
 6000000   0.85135356   -3.2655864   -1.7864235  0.052762666   -3.2655864    1.4791628   379061 
 6001000   0.85127564   -3.2660087   -1.7869032  0.049498041   -3.2660087    1.4791055   379041 
 6002000   0.85209122   -3.2657784   -1.7851777  0.050388012   -3.2657784    1.4806007   379021 
 6003000   0.85105565   -3.2636388   -1.7847595  0.048870714   -3.2636388    1.4788793   379001 
 6004000    0.8520944   -3.2661519   -1.7853894  0.050664662   -3.2661519    1.4807625   378981 
 6005000   0.85133485   -3.2657284   -1.7862077  0.050655473   -3.2657284    1.4795206   378961 
 6006000   0.84899685   -3.2627414   -1.7872061     0.053605   -3.2627414    1.4755353   378941 
 6007000   0.84898399   -3.2640655   -1.7884746  0.050110062   -3.2640655    1.4755909   378921 
 6008000   0.84807191   -3.2627865   -1.7887031  0.051089401   -3.2627865    1.4740834   378901 
 6009000   0.84718303   -3.2614392    -1.788823  0.047720146   -3.2614392    1.4726161   378881 
 6010000   0.84855684   -3.2648419   -1.7897599  0.044054969   -3.2648419     1.475082   378861 
 6011000   0.84819424   -3.2649665   -1.7904369  0.047745967   -3.2649665    1.4745295   378841 
 6012000   0.84888743   -3.2641142   -1.7883017  0.048450946   -3.2641142    1.4758125   378821 
 6013000   0.84817104    -3.263552   -1.7889071  0.056237843    -3.263552    1.4746449   378801 
 6014000   0.84937724   -3.2646037   -1.7877837  0.048570708   -3.2646037      1.47682   378781 
 6015000   0.84891648   -3.2649052   -1.7888084  0.051519976   -3.2649052    1.4760968   378761 
 6016000   0.85046466   -3.2647113   -1.7858444   0.05126702   -3.2647113    1.4788669   378741 
 6017000   0.85170061   -3.2662961   -1.7852018  0.049117267   -3.2662961    1.4810943   378721 
 6018000   0.85092876    -3.265441   -1.7856108  0.050847908    -3.265441    1.4798302   378701 
 6019000   0.85051668    -3.265524   -1.7863323  0.056898896    -3.265524    1.4791917   378681 
 6020000   0.85076033   -3.2665006    -1.786807  0.049956539   -3.2665006    1.4796936   378661 
 6021000   0.85045504   -3.2664039   -1.7871632  0.049588765   -3.2664039    1.4792407   378641 
 6022000   0.85004237   -3.2656359   -1.7870348  0.054444962   -3.2656359     1.478601   378621 
 6023000   0.85042986   -3.2668906   -1.7875374  0.048351566   -3.2668906    1.4793532   378601 
 6024000   0.84781262   -3.2639943    -1.789116  0.053436117   -3.2639943    1.4748783   378581 
 6025000   0.84901305   -3.2650966   -1.7880519  0.049162895   -3.2650966    1.4770447   378561 
 6026000   0.84919292   -3.2641491   -1.7867135  0.049637686   -3.2641491    1.4774356   378541 
 6027000   0.84970931    -3.264652   -1.7862398   0.05434347    -3.264652    1.4784122   378521 
 6028000   0.85036987   -3.2672819   -1.7876423  0.047402063   -3.2672819    1.4796397   378501 
 6029000   0.85075424   -3.2667747    -1.786388  0.055527286   -3.2667747    1.4803867   378481 
 6030000   0.84964753   -3.2657554   -1.7872164  0.052209354   -3.2657554     1.478539   378461 
 6031000   0.84814416   -3.2624913   -1.7864904  0.055118637   -3.2624913    1.4760009   378441 
 6032000   0.84784268    -3.262787   -1.7872328  0.049139454    -3.262787    1.4755542   378421 
 6033000   0.84714676   -3.2621635   -1.7877425  0.048914173   -3.2621635     1.474421   378401 
 6034000   0.84789117   -3.2612255   -1.7854309  0.050352047   -3.2612255    1.4757946   378381 
 6035000   0.84842513   -3.2633013   -1.7864992  0.049479914   -3.2633013    1.4768021   378361 
 6036000    0.8468396   -3.2614772    -1.787357  0.047361228   -3.2614772    1.4741202   378341 
 6037000   0.84820046   -3.2645819   -1.7880148  0.050162314   -3.2645819    1.4765671   378321 
 6038000      0.84835   -3.2626199   -1.7857144  0.050493592   -3.2626199    1.4769055   378301 
 6039000    0.8492089   -3.2641972   -1.7857182  0.047941878   -3.2641972    1.4784789   378281 
 6040000   0.84875842   -3.2639875   -1.7862147  0.050727051   -3.2639875    1.4777728   378261 
 6041000   0.84753401   -3.2629653   -1.7872463  0.048023699   -3.2629653     1.475719   378241 
 6042000   0.84695415   -3.2621877   -1.7874004  0.054164042   -3.2621877    1.4747873   378221 
 6043000    0.8475426   -3.2633892   -1.7874992  0.046035475   -3.2633892      1.47589   378201 
 6044000   0.84755252   -3.2643693    -1.788384  0.047254328   -3.2643693    1.4759853   378181 
 6045000   0.84762274   -3.2649385   -1.7887528  0.049401113   -3.2649385    1.4761857   378161 
 6046000   0.84675981    -3.263878   -1.7891171  0.051312675    -3.263878    1.4747609   378141 
 6047000   0.84645551   -3.2635775   -1.7892687  0.044718967   -3.2635775    1.4743088   378121 
 6048000   0.84663379   -3.2652318   -1.7905344  0.050161351   -3.2652318    1.4746974   378101 
 6049000   0.84620835   -3.2650817   -1.7910474  0.044077842   -3.2650817    1.4740343   378081 
 6050000    0.8460595   -3.2659661   -1.7921132  0.052043717   -3.2659661     1.473853   378061 
 6051000    0.8476505    -3.269299   -1.7925964  0.047680437    -3.269299    1.4767026   378041 
 6052000   0.84664797   -3.2671958   -1.7921616  0.046155755   -3.2671958    1.4750342   378021 
 6053000   0.84607423   -3.2678679   -1.7937553  0.048977651   -3.2678679    1.4741126   378001 
 6054000   0.84859415    -3.270513   -1.7919317  0.049895357    -3.270513    1.4785813   377981 
 6055000   0.84820963   -3.2692064    -1.791217  0.051033296   -3.2692064    1.4779895   377961 
 6056000    0.8476097   -3.2690725   -1.7920503   0.05117877   -3.2690725    1.4770223   377941 
 6057000   0.84711688    -3.268376   -1.7921344  0.053600669    -3.268376    1.4762416   377921 
 6058000   0.84692017    -3.268772    -1.792795  0.051604584    -3.268772    1.4759769   377901 
 6059000   0.84787747   -3.2725819   -1.7948584  0.049670103   -3.2725819    1.4777235   377881 
 6060000   0.84749554   -3.2737829   -1.7966469  0.053876412   -3.2737829     1.477136   377861 
 6061000   0.84843848   -3.2748626   -1.7960049   0.05008466   -3.2748626    1.4788578   377841 
 6062000   0.84833555   -3.2729954   -1.7942388  0.050538507   -3.2729954    1.4787566   377821 
 6063000   0.84756103   -3.2712903   -1.7938055  0.056651861   -3.2712903    1.4774848   377801 
 6064000   0.84613529   -3.2701252   -1.7950477  0.055010885   -3.2701252    1.4750775   377781 
 6065000   0.84742095   -3.2717246   -1.7943276  0.055863631   -3.2717246     1.477397   377761 
 6066000   0.84815701   -3.2740558   -1.7952972  0.053777039   -3.2740558    1.4787585   377741 
 6067000   0.84517091   -3.2701287   -1.7964984  0.051494241   -3.2701287    1.4736303   377721 
 6068000   0.84664016   -3.2727824   -1.7965122  0.054971325   -3.2727824    1.4762702   377701 
 6069000   0.84561038   -3.2710974   -1.7965447  0.054709385   -3.2710974    1.4745527   377681 
 6070000   0.84525506   -3.2702281   -1.7962169  0.053586343   -3.2702281    1.4740112   377661 
 6071000   0.84645838   -3.2722759   -1.7960882  0.049227987   -3.2722759    1.4761878   377641 
 6072000   0.84583382   -3.2694847   -1.7943081  0.052331833   -3.2694847    1.4751767   377621 
 6073000    0.8463012   -3.2693772   -1.7933072  0.052464423   -3.2693772      1.47607   377601 
 6074000   0.84600014   -3.2689089   -1.7932859  0.052107891   -3.2689089    1.4756231   377581 
 6075000   0.84706803   -3.2687322   -1.7911682  0.046997061   -3.2687322     1.477564   377561 
 6076000    0.8468912   -3.2692923   -1.7919585  0.045387816   -3.2692923    1.4773338   377541 
 6077000   0.84639919   -3.2675647   -1.7910109  0.050065272   -3.2675647    1.4765537   377521 
 6078000   0.84654613    -3.267151   -1.7902626  0.047549786    -3.267151    1.4768883   377501 
 6079000    0.8448159   -3.2637775   -1.7898296   0.05328298   -3.2637775    1.4739478   377481 
 6080000   0.84575199   -3.2651802    -1.789521  0.047596738   -3.2651802    1.4756592   377461 
 6081000   0.84682537   -3.2664594   -1.7888491  0.047115006   -3.2664594    1.4776103   377441 
 6082000    0.8456292   -3.2645661   -1.7889647  0.049765284   -3.2645661    1.4756013   377421 
 6083000   0.84503656   -3.2641915   -1.7895462  0.045807545   -3.2641915    1.4746453   377401 
 6084000    0.8453981   -3.2644733   -1.7891189  0.052389959   -3.2644733    1.4753544   377381 
 6085000   0.84463227   -3.2641075   -1.7900114   0.04719084   -3.2641075    1.4740961   377361 
 6086000   0.84506745   -3.2637822   -1.7888485  0.047667339   -3.2637822    1.4749337   377341 
 6087000   0.84569895   -3.2665378   -1.7904237  0.050957561   -3.2665378    1.4761142   377321 
 6088000   0.84478881   -3.2643089   -1.7897052  0.049242804   -3.2643089    1.4746037   377301 
 6089000   0.84453545   -3.2638546    -1.789615  0.049323108   -3.2638546    1.4742396   377281 
 6090000   0.84478033   -3.2638141   -1.7890688  0.046933448   -3.2638141    1.4747453   377261 
 6091000   0.84575562   -3.2657185   -1.7891924  0.052177731   -3.2657185    1.4765261   377241 
 6092000    0.8459275   -3.2653994   -1.7884949  0.052653033   -3.2653994    1.4769045   377221 
 6093000   0.84522309     -3.26619   -1.7904371  0.048545168     -3.26619    1.4757529   377201 
 6094000   0.84495413   -3.2651076   -1.7897461  0.051776118   -3.2651076    1.4753615   377181 
 6095000   0.84667078    -3.267947   -1.7895097  0.048542596    -3.267947    1.4784373   377161 
 6096000       0.8447   -3.2644487   -1.7893745  0.049673769   -3.2644487    1.4750742   377141 
 6097000   0.84573504   -3.2656261    -1.788666  0.052221912   -3.2656261      1.47696   377121 
 6098000   0.84658211   -3.2663028   -1.7877851  0.047784548   -3.2663028    1.4785177   377101 
 6099000   0.84743695   -3.2677684   -1.7876792  0.052027512   -3.2677684    1.4800892   377081 
 6100000   0.84678763   -3.2665685   -1.7875349  0.054614624   -3.2665685    1.4790335   377061 
 6101000   0.84486156   -3.2646018   -1.7888541  0.047691534   -3.2646018    1.4757477   377041 
 6102000   0.84679398   -3.2689631   -1.7897615  0.046225819   -3.2689631    1.4792015   377021 
 6103000   0.84600031   -3.2670429   -1.7891494  0.047619439   -3.2670429    1.4778935   377001 
 6104000   0.84492602    -3.264459   -1.7883638  0.052824132    -3.264459    1.4760952   376981 
 6105000   0.84504062   -3.2661592   -1.7897855  0.050708285   -3.2661592    1.4763737   376961 
 6106000   0.84363747   -3.2639836   -1.7899831  0.049510607   -3.2639836    1.4740004   376941 
 6107000   0.84427627   -3.2646163   -1.7894215  0.049007228   -3.2646163    1.4751948   376921 
 6108000   0.84400005   -3.2659301   -1.7911397  0.041320191   -3.2659301    1.4747904   376901 
 6109000   0.84532252   -3.2676974   -1.7905177   0.05089061   -3.2676974    1.4771797   376881 
 6110000   0.84406741   -3.2648901   -1.7898254  0.051135586   -3.2648901    1.4750647   376861 
 6111000   0.84405134   -3.2643635   -1.7892486  0.053924069   -3.2643635    1.4751149   376841 
 6112000   0.84362669   -3.2640821   -1.7896311   0.05466493   -3.2640821     1.474451   376821 
 6113000   0.84489802   -3.2655179   -1.7887666  0.052303771   -3.2655179    1.4767514   376801 
 6114000    0.8443534   -3.2640394   -1.7881616  0.046993888   -3.2640394    1.4758778   376781 
 6115000   0.84492949   -3.2650428   -1.7880797  0.046023917   -3.2650428    1.4769632   376761 
 6116000   0.84438297   -3.2634401   -1.7873539  0.052131692   -3.2634401    1.4760862   376741 
 6117000   0.84362165   -3.2628474   -1.7880138  0.052463076   -3.2628474    1.4748336   376721 
 6118000   0.84533253   -3.2631983   -1.7852953  0.050783326   -3.2631983     1.477903   376701 
 6119000   0.84410331   -3.2634555   -1.7876232    0.0520043   -3.2634555    1.4758323   376681 
 6120000   0.84447434   -3.2625164    -1.785957   0.05573639   -3.2625164    1.4765594   376661 
 6121000   0.84630075     -3.26566   -1.7858285   0.05088391     -3.26566    1.4798315   376641 
 6122000   0.84435466   -3.2620255   -1.7855185  0.050716668   -3.2620255     1.476507   376621 
 6123000   0.84416943   -3.2627477   -1.7864862   0.05080401   -3.2627477    1.4762615   376601 
 6124000   0.84434856   -3.2632921   -1.7866389  0.049335896   -3.2632921    1.4766532   376581 
 6125000   0.84538154   -3.2644296   -1.7858914  0.049088437   -3.2644296    1.4785382   376561 
 6126000   0.84605649   -3.2636863    -1.783889    0.0523188   -3.2636863    1.4797973   376541 
 6127000   0.84402592   -3.2611475   -1.7848233  0.052530216   -3.2611475    1.4763241   376521 
 6128000   0.84511319   -3.2621252   -1.7838207  0.053806439   -3.2621252    1.4783044   376501 
 6129000   0.84351907   -3.2615174    -1.785923  0.050787408   -3.2615174    1.4755943   376481 
 6130000   0.84403852   -3.2631593   -1.7865778   0.05191092   -3.2631593    1.4765814   376461 
 6131000   0.84174703   -3.2585344   -1.7858835  0.054497662   -3.2585344    1.4726509   376441 
 6132000   0.84384565   -3.2626194   -1.7862184  0.048982248   -3.2626194    1.4764009   376421 
 6133000   0.84365032   -3.2637808   -1.7876432  0.048835326   -3.2637808    1.4761376   376401 
 6134000   0.84314601   -3.2626543   -1.7873208  0.047220559   -3.2626543    1.4753336   376381 
 6135000   0.84394625   -3.2617678   -1.7849555   0.04742411   -3.2617678    1.4768123   376361 
 6136000   0.84284353   -3.2605577   -1.7855966  0.053796621   -3.2605577    1.4749611   376341 
 6137000   0.84270055   -3.2618173    -1.787028  0.048378885   -3.2618173    1.4747892   376321 
 6138000   0.84326768   -3.2619185   -1.7860583  0.049248521   -3.2619185    1.4758602   376301 
 6139000    0.8441645   -3.2633488   -1.7858405  0.051277108   -3.2633488    1.4775083   376281 
 6140000   0.84309061   -3.2621956   -1.7864885  0.045467294   -3.2621956    1.4757071   376261 
 6141000   0.84414796   -3.2640237   -1.7863872  0.049509997   -3.2640237    1.4776364   376241 
 6142000   0.84347407   -3.2619055   -1.7853702  0.051097251   -3.2619055    1.4765353   376221 
 6143000   0.84333117   -3.2615417   -1.7851781  0.049878823   -3.2615417    1.4763636   376201 
 6144000   0.84481077    -3.263501   -1.7844685  0.050726757    -3.263501    1.4790325   376181 
 6145000   0.84448032   -3.2627212   -1.7841886  0.053417135   -3.2627212    1.4785326   376161 
 6146000   0.84755068   -3.2664314   -1.7824443  0.054161116   -3.2664314    1.4839871   376141 
 6147000   0.84401676   -3.2616225   -1.7837443  0.054013296   -3.2616225    1.4778781   376121 
 6148000   0.84361741   -3.2622479   -1.7849905  0.054472735   -3.2622479    1.4772574   376101 
 6149000    0.8423892   -3.2607433   -1.7855582  0.050510745   -3.2607433    1.4751851   376081 
 6150000   0.84333118   -3.2624466   -1.7855333  0.051063371   -3.2624466    1.4769133   376061 
 6151000   0.84392971   -3.2638882   -1.7858481  0.049780876   -3.2638882    1.4780401   376041 
 6152000   0.84232584   -3.2626972   -1.7873877  0.050715589   -3.2626972    1.4753096   376021 
 6153000   0.84102542   -3.2605918   -1.7874815  0.049244831   -3.2605918    1.4731103   376001 
 6154000   0.84282471   -3.2622741   -1.7859338  0.052513299   -3.2622741    1.4763404   375981 
 6155000   0.84376927   -3.2629855    -1.784912  0.050987441   -3.2629855    1.4780735   375961 
 6156000   0.84225017   -3.2609014   -1.7854105  0.047838244   -3.2609014    1.4754909   375941 
 6157000   0.84223303    -3.261661   -1.7861216  0.051676947    -3.261661    1.4755394   375921 
 6158000   0.84382606   -3.2634416   -1.7850327  0.048099429   -3.2634416     1.478409   375901 
 6159000   0.84276427   -3.2622133    -1.785586  0.052000375   -3.2622133    1.4766272   375881 
 6160000   0.84222285   -3.2619519   -1.7861947  0.053434545   -3.2619519    1.4757571   375861 
 6161000   0.84220069   -3.2622949   -1.7864981  0.050981592   -3.2622949    1.4757968   375841 
 6162000   0.84319465   -3.2625706   -1.7849534  0.049080486   -3.2625706    1.4776172   375821 
 6163000   0.84243996   -3.2618604   -1.7854872  0.052240181   -3.2618604    1.4763732   375801 
 6164000   0.84176965   -3.2614121   -1.7861351  0.052357158   -3.2614121     1.475277   375781 
 6165000   0.84122651    -3.260643   -1.7862394  0.048635826    -3.260643    1.4744036   375761 
 6166000   0.84078823   -3.2594415   -1.7857276  0.050095131   -3.2594415    1.4737139   375741 
 6167000   0.84307989    -3.263516   -1.7857067  0.049207505    -3.263516    1.4778093   375721 
 6168000   0.84285244   -3.2644873    -1.786998  0.049732983   -3.2644873    1.4774893   375701 
 6169000   0.84190328   -3.2620368   -1.7861328  0.059082089   -3.2620368     1.475904   375681 
 6170000   0.84335132   -3.2635777   -1.7850565  0.052349572   -3.2635777    1.4785212   375661 
 6171000   0.84273521   -3.2642447    -1.786725  0.051240114   -3.2642447    1.4775197   375641 
 6172000   0.84354549   -3.2648565   -1.7858374  0.049969036   -3.2648565    1.4790191   375621 
 6173000   0.84224005   -3.2638362   -1.7870274  0.053667454   -3.2638362    1.4768088   375601 
 6174000   0.84082093   -3.2622668   -1.7878677  0.051815095   -3.2622668     1.474399   375581 
 6175000   0.84258146   -3.2648578   -1.7872929    0.0470516   -3.2648578    1.4775648   375561 
 6176000   0.84204634   -3.2655108   -1.7888058   0.05110871   -3.2655108    1.4767051   375541 
 6177000   0.84261077    -3.265539   -1.7877654  0.053010295    -3.265539    1.4777736   375521 
 6178000    0.8438233   -3.2666072   -1.7866282  0.050387818   -3.2666072     1.479979   375501 
 6179000   0.84425637   -3.2663464   -1.7855289  0.056228064   -3.2663464    1.4808174   375481 
 6180000    0.8440266   -3.2665519   -1.7860587  0.050316293   -3.2665519    1.4804933   375461 
 6181000   0.84264801   -3.2643538      -1.7862  0.055734688   -3.2643538    1.4781538   375441 
 6182000   0.84341323   -3.2660537   -1.7864787  0.049699364   -3.2660537     1.479575   375421 
 6183000   0.84280687   -3.2648351    -1.786245  0.056575596   -3.2648351      1.47859   375401 
 6184000   0.84351174   -3.2666729   -1.7867675    0.0504599   -3.2666729    1.4799055   375381 
 6185000   0.84152926   -3.2650332   -1.7885273   0.05112782   -3.2650332     1.476506   375361 
 6186000   0.84067575   -3.2641459   -1.7890588  0.051571953   -3.2641459     1.475087   375341 
 6187000   0.84152081   -3.2646782   -1.7880297  0.049761412   -3.2646782    1.4766485   375321 
 6188000    0.8431535   -3.2660206   -1.7864284  0.054335731   -3.2660206    1.4795923   375301 
 6189000   0.84179928   -3.2638474   -1.7865529  0.048398739   -3.2638474    1.4772946   375281 
 6190000   0.84228325   -3.2634286   -1.7852059  0.061811746   -3.2634286    1.4782227   375261 
 6191000   0.84179103   -3.2615627   -1.7841251  0.057277874   -3.2615627    1.4774376   375241 
 6192000   0.84254314   -3.2629407   -1.7841043  0.052772456   -3.2629407    1.4788364   375221 
 6193000   0.84276407   -3.2640654   -1.7847623  0.054043833   -3.2640654    1.4793031   375201 
 6194000    0.8413552   -3.2624894   -1.7855806   0.05128428   -3.2624894    1.4769088   375181 
 6195000   0.84103364   -3.2625013   -1.7860783  0.046231735   -3.2625013     1.476423   375161 
 6196000   0.84000846   -3.2597665   -1.7850645  0.051777122   -3.2597665     1.474702   375141 
 6197000   0.84156311   -3.2610138   -1.7835038  0.047870303   -3.2610138    1.4775101   375121 
 6198000   0.84003726   -3.2604251   -1.7855153  0.048184253   -3.2604251    1.4749098   375101 
 6199000   0.84013099   -3.2601038   -1.7849508  0.050344993   -3.2601038     1.475153   375081 
 6200000   0.83995573    -3.259657   -1.7847331  0.049908226    -3.259657    1.4749239   375061 
 6201000   0.84150519   -3.2615526   -1.7838291  0.050724064   -3.2615526    1.4777235   375041 
 6202000    0.8412592   -3.2632961   -1.7859258  0.049407634   -3.2632961    1.4773703   375021 
 6203000   0.83954692   -3.2604874   -1.7860454  0.051821847   -3.2604874     1.474442   375001 
 6204000   0.84011088   -3.2608279   -1.7853168   0.05067983   -3.2608279    1.4755111   374981 
 6205000   0.83867315   -3.2585522   -1.7854876  0.047749956   -3.2585522    1.4730645   374961 
 6206000   0.84041778   -3.2602137   -1.7840062  0.049492588   -3.2602137    1.4762076   374941 
 6207000   0.84065457   -3.2612081   -1.7845059  0.050478783   -3.2612081    1.4767023   374921 
 6208000   0.84090901   -3.2612782   -1.7840502  0.048854147   -3.2612782     1.477228   374901 
 6209000    0.8416936   -3.2618087   -1.7831236  0.052028559   -3.2618087    1.4786852   374881 
 6210000   0.84248945   -3.2628674   -1.7827051  0.056511585   -3.2628674    1.4801623   374861 
 6211000   0.84174613   -3.2637086   -1.7847734  0.053673378   -3.2637086    1.4789353   374841 
 6212000   0.84128492    -3.263353   -1.7851492  0.056973569    -3.263353    1.4782038   374821 
 6213000    0.8418944   -3.2641904   -1.7848367  0.055444103   -3.2641904    1.4793537   374801 
 6214000   0.84170741   -3.2628029   -1.7836989  0.057582716   -3.2628029     1.479104   374781 
 6215000   0.84090974   -3.2622735   -1.7844923  0.052446686   -3.2622735    1.4777812   374761 
 6216000   0.83963179   -3.2616492   -1.7860351  0.057669803   -3.2616492    1.4756141   374741 
 6217000   0.83972728   -3.2618547    -1.785994  0.051784116   -3.2618547    1.4758607   374721 
 6218000   0.83899813   -3.2614822   -1.7868243   0.04499953   -3.2614822    1.4746579   374701 
 6219000   0.83894001    -3.260043   -1.7854085  0.052280779    -3.260043    1.4746344   374681 
 6220000   0.83934628   -3.2608246   -1.7853973  0.052865856   -3.2608246    1.4754273   374661 
 6221000    0.8400233   -3.2634598   -1.7867636   0.05053035   -3.2634598    1.4766962   374641 
 6222000   0.84000101   -3.2630749    -1.786339  0.051943054   -3.2630749    1.4767359   374621 
 6223000   0.83947006   -3.2621227   -1.7862414  0.050772717   -3.2621227    1.4758812   374601 
 6224000   0.84004046   -3.2616039    -1.784641  0.049142414   -3.2616039    1.4769629   374581 
 6225000   0.83860404   -3.2593738   -1.7848577   0.04703469   -3.2593738    1.4745161   374561 
 6226000   0.84051389   -3.2622881   -1.7843349   0.04656612   -3.2622881    1.4779531   374541 
 6227000    0.8403193   -3.2627027   -1.7850129  0.051769707   -3.2627027    1.4776899   374521 
 6228000   0.83882943   -3.2594661   -1.7843174  0.054293748   -3.2594661    1.4751487   374501 
 6229000   0.83795933   -3.2598253    -1.786128  0.050038325   -3.2598253    1.4736973   374481 
 6230000   0.83847958   -3.2594102   -1.7847192   0.05048569   -3.2594102     1.474691   374461 
 6231000   0.83961957   -3.2607008   -1.7839259  0.046896311   -3.2607008    1.4767749   374441 
 6232000   0.83954775    -3.259616   -1.7828886   0.05411323    -3.259616    1.4767274   374421 
 6233000   0.83837749   -3.2593246   -1.7845769   0.04903729   -3.2593246    1.4747477   374401 
 6234000   0.83910528   -3.2599564   -1.7838496  0.051860182   -3.2599564    1.4761068   374381 
 6235000   0.83939329   -3.2609726   -1.7842803  0.047364801   -3.2609726    1.4766924   374361 
 6236000   0.83881244   -3.2609572   -1.7852079  0.051374211   -3.2609572    1.4757493   374341 
 6237000   0.83949759   -3.2627413   -1.7857076  0.045668895   -3.2627413    1.4770337   374321 
 6238000   0.83941264   -3.2621284   -1.7851653  0.047193714   -3.2621284    1.4769631   374301 
 6239000   0.83927818   -3.2636543   -1.7868488  0.049526906   -3.2636543    1.4768054   374281 
 6240000   0.83953581   -3.2629482   -1.7856105  0.045144237   -3.2629482    1.4773377   374261 
 6241000   0.84028053   -3.2644667   -1.7857395  0.048646507   -3.2644667    1.4787272   374241 
 6242000   0.83984062   -3.2647171   -1.7866851   0.04382559   -3.2647171    1.4780321   374221 
 6243000    0.8383578   -3.2624352   -1.7869339   0.05458118   -3.2624352    1.4755013   374201 
 6244000    0.8399614   -3.2657187   -1.7873161  0.052409742   -3.2657187    1.4784026   374181 
 6245000   0.84127749   -3.2664623   -1.7856641  0.051782373   -3.2664623    1.4807982   374161 
 6246000     0.839095   -3.2620938   -1.7850582  0.055904146   -3.2620938    1.4770356   374141 
 6247000   0.83793759    -3.261918   -1.7868409  0.048541838    -3.261918    1.4750771   374121 
 6248000   0.83986713   -3.2625977   -1.7840448   0.05147062   -3.2625977    1.4785528   374101 
 6249000   0.83904707   -3.2621225   -1.7849344  0.057390475   -3.2621225    1.4771881   374081 
 6250000   0.83866486   -3.2613428   -1.7847486  0.054125822   -3.2613428    1.4765942   374061 
 6251000   0.83922981   -3.2624616   -1.7847938  0.049366718   -3.2624616    1.4776679   374041 
 6252000   0.83789318   -3.2609104   -1.7855171   0.05203355   -3.2609104    1.4753933   374021 
 6253000   0.83819434   -3.2601199   -1.7841174  0.050612045   -3.2601199    1.4760025   374001 
 6254000   0.83706741   -3.2593145   -1.7852176  0.052855525   -3.2593145    1.4740969   373981 
 6255000   0.83633338   -3.2586093   -1.7857263  0.049499677   -3.2586093     1.472883   373961 
 6256000   0.83906798   -3.2624047   -1.7846267  0.046519139   -3.2624047     1.477778   373941 
 6257000   0.83754298   -3.2601412   -1.7849701  0.044487929   -3.2601412     1.475171   373921 
 6258000   0.83671849   -3.2580187    -1.784221  0.049260076   -3.2580187    1.4737977   373901 
 6259000   0.83815105   -3.2610397   -1.7846397  0.050734555   -3.2610397       1.4764   373881 
 6260000   0.83732173   -3.2605729   -1.7855548  0.051719182   -3.2605729     1.475018   373861 
 6261000   0.83707225   -3.2591123   -1.7844548  0.049113347   -3.2591123    1.4746574   373841 
 6262000   0.83688676   -3.2565329   -1.7821234   0.04790861   -3.2565329    1.4744095   373821 
 6263000   0.83726626    -3.258159   -1.7830019  0.050679733    -3.258159    1.4751571   373801 
 6264000   0.83758704   -3.2599119   -1.7841107  0.044187301   -3.2599119    1.4758012   373781 
 6265000   0.83583328    -3.258387   -1.7855971  0.045657279    -3.258387    1.4727899   373761 
 6266000   0.83765811   -3.2610114    -1.784927   0.04700618   -3.2610114    1.4760844   373741 
 6267000   0.83763301    -3.262047   -1.7859279  0.045099817    -3.262047    1.4761191   373721 
 6268000   0.83687524   -3.2616449   -1.7867822  0.048841662   -3.2616449    1.4748627   373701 
 6269000   0.83832311   -3.2635923   -1.7860989  0.045974936   -3.2635923    1.4774934   373681 
 6270000   0.83725265   -3.2620142   -1.7863284  0.048152718   -3.2620142    1.4756858   373661 
 6271000   0.83726845   -3.2630801   -1.7872875  0.049752261   -3.2630801    1.4757926   373641 
 6272000   0.83633369   -3.2597041   -1.7854803  0.050373865   -3.2597041    1.4742239   373621 
 6273000   0.83677057   -3.2620958   -1.7870228   0.05156927   -3.2620958     1.475073   373601 
 6274000   0.83664869   -3.2632242   -1.7882872  0.048845717   -3.2632242    1.4749371   373581 
 6275000   0.83609367   -3.2624968   -1.7884593   0.04986321   -3.2624968    1.4740375   373561 
 6276000   0.83810182   -3.2663138   -1.7886568  0.043656915   -3.2663138     1.477657   373541 
 6277000   0.83819128   -3.2662155   -1.7883217  0.045891894   -3.2662155    1.4778939   373521 
 6278000    0.8376996   -3.2644941   -1.7873881  0.054754648   -3.2644941     1.477106   373501 
 6279000   0.83899039   -3.2665286   -1.7870674   0.04928353   -3.2665286    1.4794613   373481 
 6280000   0.83772933   -3.2662955   -1.7889788  0.050696286   -3.2662955    1.4773167   373461 
 6281000   0.83682665    -3.265073   -1.7892692  0.051545886    -3.265073    1.4758038   373441 
 6282000   0.83685297   -3.2648192   -1.7888899  0.051859724   -3.2648192    1.4759293   373421 
 6283000   0.83782225   -3.2661707   -1.7884528  0.052336126   -3.2661707    1.4777179   373401 
 6284000   0.83779567   -3.2666217   -1.7888715  0.048668386   -3.2666217    1.4777502   373381 
 6285000   0.83576633   -3.2634361   -1.7891864  0.051699735   -3.2634361    1.4742497   373361 
 6286000   0.83556895   -3.2613457   -1.7873652  0.053652775   -3.2613457    1.4739805   373341 
 6287000   0.83741568   -3.2669177   -1.7896003  0.051069551   -3.2669177    1.4773174   373321 
 6288000   0.83686622   -3.2637684   -1.7873412  0.048241718   -3.2637684    1.4764271   373301 
 6289000    0.8358569   -3.2628753   -1.7881499  0.054274356   -3.2628753    1.4747255   373281 
 6290000   0.83722474   -3.2639709   -1.7867529  0.054461344   -3.2639709    1.4772179   373261 
 6291000   0.83777924    -3.265944   -1.7876685  0.049155601    -3.265944    1.4782755   373241 
 6292000   0.83469702   -3.2612611   -1.7883453  0.055109558   -3.2612611    1.4729158   373221 
 6293000   0.83596244    -3.264232   -1.7890041  0.048218488    -3.264232    1.4752278   373201 
 6294000   0.83431871    -3.260081   -1.7876749  0.047116741    -3.260081     1.472406   373181 
 6295000   0.83643068   -3.2639402   -1.7877278  0.047038242   -3.2639402    1.4762124   373161 
 6296000    0.8356961   -3.2623989   -1.7874039  0.052918611   -3.2623989     1.474995   373141 
 6297000   0.83580406   -3.2636362   -1.7883716  0.045135038   -3.2636362    1.4752646   373121 
 6298000   0.83673288   -3.2618976   -1.7849144  0.047375267   -3.2618976    1.4769832   373101 
 6299000   0.83668515   -3.2622428   -1.7852647   0.05215226   -3.2622428    1.4769781   373081 
 6300000   0.83619873   -3.2605296    -1.784331  0.050681319   -3.2605296    1.4761986   373061 
 6301000   0.83595356   -3.2600283   -1.7841834  0.048336361   -3.2600283    1.4758449   373041 
 6302000   0.83748895   -3.2633584   -1.7847236  0.047044668   -3.2633584    1.4786348   373021 
 6303000   0.83640116   -3.2630741   -1.7862807  0.055777878   -3.2630741    1.4767935   373001 
 6304000    0.8351437   -3.2611124   -1.7864601  0.053312314   -3.2611124    1.4746523   372981 
 6305000   0.83492546   -3.2609194   -1.7865734  0.049415345   -3.2609194     1.474346   372961 
 6306000   0.83529843   -3.2621737     -1.78709  0.048419539   -3.2621737    1.4750837   372941 
 6307000   0.83464207   -3.2607922   -1.7867885  0.049840058   -3.2607922    1.4740037   372921 
 6308000   0.83656902    -3.263226     -1.78574  0.048771791    -3.263226     1.477486   372901 
 6309000   0.83501966   -3.2618981   -1.7870694  0.050219279   -3.2618981    1.4748287   372881 
 6310000   0.83674062    -3.263587   -1.7856394  0.049681942    -3.263587    1.4779476   372861 
 6311000   0.83458132   -3.2610787   -1.7868661  0.049235027   -3.2610787    1.4742126   372841 
 6312000   0.83651847   -3.2651575   -1.7874438  0.044690892   -3.2651575    1.4777137   372821 
 6313000   0.83731867   -3.2664919   -1.7872853  0.048771597   -3.2664919    1.4792066   372801 
 6314000   0.83777705   -3.2634487   -1.7833529  0.050290673   -3.2634487    1.4800958   372781 
 6315000   0.83793249   -3.2634269   -1.7829771  0.053308101   -3.2634269    1.4804498   372761 
 6316000   0.83745332   -3.2627751   -1.7830925    0.0556751   -3.2627751    1.4796826   372741 
 6317000   0.83564718   -3.2619547    -1.785384  0.050182794   -3.2619547    1.4765706   372721 
 6318000   0.83631713   -3.2616985   -1.7838648   0.04438107   -3.2616985    1.4778337   372701 
 6319000   0.83606268   -3.2606116   -1.7831482  0.053192363   -3.2606116    1.4774633   372681 
 6320000    0.8362522   -3.2616394   -1.7837619   0.05159525   -3.2616394    1.4778776   372661 
 6321000   0.83628843   -3.2607492   -1.7827282  0.057111282   -3.2607492    1.4780209   372641 
 6322000   0.83567148   -3.2614195   -1.7844097  0.052366895   -3.2614195    1.4770098   372621 
 6323000   0.83564962   -3.2608585    -1.783808  0.048756388   -3.2608585    1.4770505   372601 
 6324000   0.83490486   -3.2590685   -1.7832552  0.052428165   -3.2590685    1.4758133   372581 
 6325000   0.83625302   -3.2601933   -1.7819176  0.048281036   -3.2601933    1.4782757   372561 
 6326000   0.83552731   -3.2601608   -1.7830887  0.050341776   -3.2601608    1.4770721   372541 
 6327000    0.8354512   -3.2594653   -1.7824484  0.048472522   -3.2594653    1.4770169   372521 
 6328000   0.83545582   -3.2593633    -1.782259  0.048325202   -3.2593633    1.4771043   372501 
 6329000   0.83562424   -3.2594061   -1.7819246  0.051928507   -3.2594061    1.4774815   372481 
 6330000   0.83572936   -3.2583922   -1.7806455  0.052070288   -3.2583922    1.4777467   372461 
 6331000   0.83508819   -3.2569819   -1.7802897  0.047861336   -3.2569819    1.4766922   372441 
 6332000   0.83546726   -3.2588913   -1.7814494  0.053773242   -3.2588913    1.4774419   372421 
 6333000   0.83579005    -3.258137   -1.7800449   0.04812907    -3.258137    1.4780921   372401 
 6334000   0.83619406   -3.2586141   -1.7797281  0.049159272   -3.2586141     1.478886   372381 
 6335000   0.83581135   -3.2586379   -1.7803494  0.048681153   -3.2586379    1.4782885   372361 
 6336000   0.83532098   -3.2566581   -1.7791575  0.050367351   -3.2566581    1.4775006   372341 
 6337000   0.83525875   -3.2575338   -1.7800639  0.052350445   -3.2575338    1.4774699   372321 
 6338000   0.83383942   -3.2537917   -1.7787532  0.053215193   -3.2537917    1.4750385   372301 
 6339000   0.83539952   -3.2580258   -1.7801482   0.04007379   -3.2580258    1.4778777   372281 
 6340000   0.83314142   -3.2552245   -1.7812624  0.050492342   -3.2552245    1.4739621   372261 
 6341000   0.83307406   -3.2546461    -1.780724  0.049971516   -3.2546461    1.4739221   372241 
 6342000   0.83472989   -3.2559284   -1.7789973  0.050331585   -3.2559284    1.4769311   372221 
 6343000   0.83462697   -3.2574219   -1.7805936  0.047320143   -3.2574219    1.4768283   372201 
 6344000   0.83341582   -3.2551269   -1.7803624  0.050045123   -3.2551269    1.4747645   372181 
 6345000   0.83476481   -3.2571135   -1.7798825  0.050984861   -3.2571135     1.477231   372161 
 6346000   0.83385105   -3.2565557   -1.7808624  0.049960362   -3.2565557    1.4756933   372141 
 6347000   0.83354764   -3.2566733   -1.7814377  0.050681666   -3.2566733    1.4752356   372121 
 6348000   0.83423872   -3.2576513   -1.7811132   0.05122265   -3.2576513     1.476538   372101 
 6349000   0.83317198   -3.2578575   -1.7831283  0.043994831   -3.2578575    1.4747292   372081 
 6350000   0.83471091   -3.2585158   -1.7809832  0.049507791   -3.2585158    1.4775326   372061 
 6351000   0.83353561   -3.2577887   -1.7822572  0.052117101   -3.2577887    1.4755315   372041 
 6352000   0.83357904    -3.258332   -1.7826443  0.048242415    -3.258332    1.4756877   372021 
 6353000   0.83442844   -3.2591516   -1.7818808  0.053235294   -3.2591516    1.4772708   372001 
 6354000   0.83369155   -3.2581346    -1.782089  0.052647863   -3.2581346    1.4760456   371981 
 6355000   0.83513716   -3.2607001   -1.7820156  0.052573955   -3.2607001    1.4786845   371961 
 6356000   0.83291613    -3.257351   -1.7825197  0.049301067    -3.257351    1.4748313   371941 
 6357000   0.83447527    -3.259453   -1.7817814  0.046932859    -3.259453    1.4776715   371921 
 6358000   0.83437857   -3.2610536   -1.7834739    0.0471547   -3.2610536    1.4775797   371901 
 6359000    0.8334893   -3.2580935   -1.7820092  0.054136901   -3.2580935    1.4760843   371881 
 6360000   0.83619694   -3.2618698   -1.7809107  0.045778329   -3.2618698    1.4809591   371861 
 6361000   0.83455318   -3.2602144   -1.7820869  0.052261846   -3.2602144    1.4781274   371841 
 6362000   0.83311876   -3.2591906   -1.7835244  0.058377954   -3.2591906    1.4756662   371821 
 6363000   0.83429708   -3.2603668    -1.782534  0.049612675   -3.2603668    1.4778328   371801 
 6364000   0.83426762   -3.2590392   -1.7811791  0.047100746   -3.2590392    1.4778601   371781 
 6365000   0.83339631   -3.2588616   -1.7824655  0.051441031   -3.2588616    1.4763961   371761 
 6366000   0.83234996   -3.2572513   -1.7826296  0.050650392   -3.2572513    1.4746217   371741 
 6367000   0.83341104   -3.2595985   -1.7830175  0.049739659   -3.2595985     1.476581   371721 
 6368000   0.83356493    -3.259161   -1.7822279  0.044226249    -3.259161    1.4769331   371701 
 6369000   0.83303647   -3.2565872    -1.780511  0.055395598   -3.2565872    1.4760762   371681 
 6370000   0.83393542   -3.2585986     -1.78085  0.054853463   -3.2585986    1.4777486   371661 
 6371000   0.83452315   -3.2600483   -1.7811787  0.050441348   -3.2600483    1.4788697   371641 
 6372000   0.83197709   -3.2550046   -1.7805675   0.05218539   -3.2550046    1.4744371   371621 
 6373000   0.83270443   -3.2567107   -1.7809051  0.052922315   -3.2567107    1.4758055   371601 
 6374000   0.83258426   -3.2568414   -1.7811694  0.050292213   -3.2568414     1.475672   371581 
 6375000   0.83230081   -3.2581518   -1.7829028  0.051539125   -3.2581518     1.475249   371561 
 6376000   0.83211691   -3.2562476   -1.7812451   0.05214412   -3.2562476    1.4750024   371541 
 6377000   0.83236961    -3.256013   -1.7804832  0.048735854    -3.256013    1.4755298   371521 
 6378000   0.83156804   -3.2565901   -1.7824019  0.048002192   -3.2565901    1.4741882   371501 
 6379000   0.83276689   -3.2587079   -1.7823149  0.049658502   -3.2587079     1.476393   371481 
 6380000     0.832206   -3.2570894   -1.7816114  0.051827394   -3.2570894     1.475478   371461 
 6381000   0.83198864   -3.2587722   -1.7836001  0.047955313   -3.2587722    1.4751721   371441 
 6382000   0.83225838   -3.2576543   -1.7819245  0.052875125   -3.2576543    1.4757298   371421 
 6383000   0.83376087   -3.2594192   -1.7809456   0.04995828   -3.2594192    1.4784736   371401 
 6384000   0.83237921   -3.2568497   -1.7807467  0.050072021   -3.2568497     1.476103   371381 
 6385000   0.83296467   -3.2582912   -1.7810704  0.048266194   -3.2582912    1.4772208   371361 
 6386000   0.83246034   -3.2582031   -1.7817971  0.049610847   -3.2582031    1.4764059   371341 
 6387000   0.83192426   -3.2572152   -1.7816805  0.052782103   -3.2572152    1.4755346   371321 
 6388000   0.83128298   -3.2563283   -1.7818517   0.04981617   -3.2563283    1.4744767   371301 
 6389000   0.83221331   -3.2594784   -1.7832721  0.044566112   -3.2594784    1.4762063   371281 
 6390000   0.83227833   -3.2598347   -1.7834335  0.048360522   -3.2598347    1.4764012   371261 
 6391000   0.83275834   -3.2601684   -1.7828361  0.050987262   -3.2601684    1.4773323   371241 
 6392000   0.83248047   -3.2614578   -1.7845389  0.049899915   -3.2614578    1.4769189   371221 
 6393000   0.83184729   -3.2602541    -1.784379  0.049472338   -3.2602541    1.4758751   371201 
 6394000   0.83375434   -3.2613629   -1.7820246    0.0511102   -3.2613629    1.4793383   371181 
 6395000   0.83364017   -3.2627582   -1.7835427  0.051735937   -3.2627582    1.4792154   371161 
 6396000   0.83361669   -3.2635004    -1.784247  0.048321372   -3.2635004    1.4792535   371141 
 6397000   0.83180698   -3.2614115   -1.7852898  0.049271494   -3.2614115    1.4761217   371121 
 6398000   0.82942102   -3.2584093   -1.7864424  0.056784685   -3.2584093    1.4719669   371101 
 6399000   0.83020809   -3.2595092   -1.7860661  0.054244333   -3.2595092    1.4734431   371081 
 6400000     0.830805   -3.2592727   -1.7846907  0.053573248   -3.2592727     1.474582   371061 
 6401000   0.83202815   -3.2610024   -1.7841699  0.052281811   -3.2610024    1.4768325   371041 
 6402000   0.83284082   -3.2625415   -1.7841868  0.054472372   -3.2625415    1.4783547   371021 
 6403000   0.83212622   -3.2614775   -1.7843117  0.051994535   -3.2614775    1.4771659   371001 
 6404000   0.83178231   -3.2596079   -1.7829729  0.053847672   -3.2596079    1.4766349   370981 
 6405000   0.83378172   -3.2606639   -1.7803997  0.052321205   -3.2606639    1.4802642   370961 
 6406000   0.83187858   -3.2590063   -1.7820412  0.055653659   -3.2590063    1.4769651   370941 
 6407000   0.83085651   -3.2588246   -1.7835946  0.052535776   -3.2588246      1.47523   370921 
 6408000   0.83168146   -3.2593781   -1.7826037  0.051241587   -3.2593781    1.4767744   370901 
 6409000   0.83217401   -3.2614013   -1.7836727  0.053452752   -3.2614013    1.4777286   370881 
 6410000   0.83340666   -3.2621325   -1.7821352  0.048501135   -3.2621325    1.4799973   370861 
 6411000    0.8306934   -3.2579444   -1.7826859  0.056415852   -3.2579444    1.4752586   370841 
 6412000   0.83164308   -3.2586416   -1.7816168  0.051272681   -3.2586416    1.4770248   370821 
 6413000   0.83164891   -3.2581212   -1.7810063  0.047707108   -3.2581212    1.4771148   370801 
 6414000   0.83179888   -3.2587175   -1.7812566  0.051865737   -3.2587175    1.4774609   370781 
 6415000   0.83091998   -3.2579316   -1.7819522  0.049381838   -3.2579316    1.4759794   370761 
 6416000   0.83104896    -3.258304   -1.7820158  0.052394608    -3.258304    1.4762881   370741 
 6417000   0.83087772   -3.2575126   -1.7814491  0.048855752   -3.2575126    1.4760635   370721 
 6418000   0.83195091   -3.2588845   -1.7808346  0.049603152   -3.2588845    1.4780498   370701 
 6419000   0.83009171    -3.255649   -1.7808227  0.051343537    -3.255649    1.4748263   370681 
 6420000   0.83029152   -3.2570441   -1.7817832  0.047136624   -3.2570441    1.4752609   370661 
 6421000   0.83057317   -3.2555021   -1.7796611  0.049978141   -3.2555021     1.475841   370641 
 6422000   0.83051371   -3.2565782   -1.7807632  0.050599533   -3.2565782     1.475815   370621 
 6423000   0.83082032   -3.2555596   -1.7791201  0.052651741   -3.2555596    1.4764395   370601 
 6424000    0.8315306   -3.2570419   -1.7792604  0.048549707   -3.2570419    1.4777815   370581 
 6425000   0.82969918     -3.25448   -1.7798737  0.050570206     -3.25448    1.4746063   370561 
 6426000    0.8303432   -3.2550799   -1.7792493  0.054143335   -3.2550799    1.4758305   370541 
 6427000   0.83219881   -3.2585302   -1.7793217   0.04667622   -3.2585302    1.4792085   370521 
 6428000   0.83074605     -3.25671    -1.780004   0.04973054     -3.25671     1.476706   370501 
 6429000   0.83031153   -3.2556052    -1.779592  0.046461391   -3.2556052    1.4760133   370481 
 6430000   0.83126061   -3.2562842    -1.778504  0.048711881   -3.2562842    1.4777802   370461 
 6431000   0.83056555   -3.2558839   -1.7792597  0.047081522   -3.2558839    1.4766243   370441 
 6432000   0.82940202   -3.2559384   -1.7813031  0.047662977   -3.2559384    1.4746353   370421 
 6433000   0.82925362   -3.2563793   -1.7819283  0.053942327   -3.2563793     1.474451   370401 
 6434000   0.82986675   -3.2554144   -1.7797935  0.050051528   -3.2554144    1.4756209   370381 
 6435000   0.83035173   -3.2564244   -1.7798614  0.049919352   -3.2564244     1.476563   370361 
 6436000   0.83179216   -3.2581773    -1.778973    0.0521384   -3.2581773    1.4792043   370341 
 6437000   0.83088958   -3.2566248   -1.7789458  0.051623317   -3.2566248     1.477679   370321 
 6438000   0.83090091   -3.2560705   -1.7782916  0.048938005   -3.2560705     1.477779   370301 
 6439000   0.82925982   -3.2544852   -1.7795453  0.048379825   -3.2544852    1.4749399   370281 
 6440000   0.82980121   -3.2566186    -1.780636  0.049391959   -3.2566186    1.4759826   370261 
 6441000   0.83010383   -3.2577872   -1.7811866  0.044532886   -3.2577872    1.4766006   370241 
 6442000   0.82891514   -3.2572939   -1.7827281  0.051851239   -3.2572939    1.4745658   370221 
 6443000   0.82932724   -3.2577224   -1.7823438  0.049730654   -3.2577224    1.4753786   370201 
 6444000   0.82965149   -3.2593085   -1.7832733  0.046269336   -3.2593085    1.4760352   370181 
 6445000   0.82965494   -3.2577629   -1.7816419  0.051090307   -3.2577629    1.4761211   370161 
 6446000   0.82955057   -3.2580467   -1.7820316   0.04934694   -3.2580467    1.4760151   370141 
 6447000    0.8288444   -3.2569721   -1.7821337  0.051080164   -3.2569721    1.4748383   370121 
 6448000   0.83113539   -3.2590125   -1.7800177  0.047824709   -3.2590125    1.4789948   370101 
 6449000   0.83117852   -3.2579088   -1.7787573   0.05351856   -3.2579088    1.4791515   370081 
 6450000   0.83203249   -3.2588822   -1.7781309  0.051761355   -3.2588822    1.4807512   370061 
 6451000   0.82974239   -3.2569894    -1.780234  0.051918801   -3.2569894    1.4767554   370041 
 6452000    0.8305542   -3.2577896   -1.7795095  0.054558103   -3.2577896    1.4782801   370021 
 6453000   0.83049066   -3.2589629   -1.7807159   0.05028074   -3.2589629    1.4782469   370001 
 6454000   0.82801422   -3.2562451   -1.7823265  0.045173259   -3.2562451    1.4739186   369981 
 6455000   0.82996392   -3.2572382   -1.7797691  0.046924804   -3.2572382    1.4774691   369961 
 6456000   0.82835916    -3.256956   -1.7822639  0.052472227    -3.256956    1.4746921   369941 
 6457000   0.82978523   -3.2589372   -1.7816265  0.051089837   -3.2589372    1.4773107   369921 
 6458000   0.82710476   -3.2557227   -1.7831046  0.049071279   -3.2557227    1.4726181   369901 
 6459000   0.82748316   -3.2542778   -1.7809063   0.05192836   -3.2542778    1.4733715   369881 
 6460000   0.82797843   -3.2556638   -1.7813307  0.043754599   -3.2556638    1.4743331   369861 
 6461000   0.82841196   -3.2560575   -1.7808727   0.05006816   -3.2560575    1.4751848   369841 
 6462000   0.82897307   -3.2586008   -1.7823369  0.049182647   -3.2586008    1.4762639   369821 
 6463000   0.82767362   -3.2554337   -1.7814042   0.05002213   -3.2554337    1.4740295   369801 
 6464000   0.82830864   -3.2569286   -1.7816884  0.049291992   -3.2569286    1.4752402   369781 
 6465000   0.82778506   -3.2554954    -1.781108   0.04761461   -3.2554954    1.4743874   369761 
 6466000    0.8288808   -3.2566909    -1.780272  0.046954765   -3.2566909    1.4764189   369741 
 6467000   0.82949111    -3.256455   -1.7788691  0.046211191    -3.256455    1.4775859   369721 
 6468000   0.82980077   -3.2576473   -1.7794298   0.05310273   -3.2576473    1.4782175   369701 
 6469000   0.82887157   -3.2564876   -1.7798455  0.054157763   -3.2564876    1.4766421   369681 
 6470000   0.82997448   -3.2585493   -1.7798624   0.05516541   -3.2585493    1.4786869   369661 
 6471000   0.82890736   -3.2587381   -1.7818725  0.046449478   -3.2587381    1.4768657   369641 
 6472000   0.82963195   -3.2609849   -1.7827482  0.050817926   -3.2609849    1.4782366   369621 
 6473000   0.82947302   -3.2600498   -1.7820164  0.053776947   -3.2600498    1.4780334   369601 
 6474000    0.8289478   -3.2592964   -1.7821189  0.050946566   -3.2592964    1.4771775   369581 
 6475000   0.82965403   -3.2597038   -1.7811878  0.050152604   -3.2597038     1.478516   369561 
 6476000   0.82880127   -3.2596523   -1.7825761  0.052076431   -3.2596523    1.4770762   369541 
 6477000   0.82860028   -3.2586147   -1.7818168  0.052919647   -3.2586147     1.476798   369521 
 6478000   0.82893414   -3.2579703   -1.7804973  0.053219773   -3.2579703     1.477473   369501 
 6479000     0.829617   -3.2588617   -1.7800916  0.050191715   -3.2588617    1.4787701   369481 
 6480000   0.82824877   -3.2556629   -1.7792517  0.050838429   -3.2556629    1.4764112   369461 
 6481000    0.8287129   -3.2570985     -1.77978  0.049925826   -3.2570985    1.4773185   369441 
 6482000   0.82819731   -3.2565152   -1.7800359  0.050557622   -3.2565152    1.4764793   369421 
 6483000   0.82869936    -3.255714   -1.7782597  0.047991767    -3.255714    1.4774543   369401 
 6484000    0.8285983   -3.2566726   -1.7793184  0.051010688   -3.2566726    1.4773542   369381 
 6485000   0.82913464   -3.2550384    -1.776648  0.050612346   -3.2550384    1.4783905   369361 
 6486000    0.8285868   -3.2540335   -1.7765399  0.052302728   -3.2540335    1.4774936   369341 
 6487000   0.82860261   -3.2550395   -1.7774376  0.048846036   -3.2550395    1.4776019   369321 
 6488000   0.82901922   -3.2547395   -1.7763146  0.048607758   -3.2547395    1.4784248   369301 
 6489000   0.82702196   -3.2527464   -1.7778035  0.049338469   -3.2527464    1.4749429   369281 
 6490000   0.82819958   -3.2548468   -1.7777237  0.046035072   -3.2548468    1.4771231   369261 
 6491000    0.8284634   -3.2545746   -1.7769009  0.049080436   -3.2545746    1.4776737   369241 
 6492000   0.82607321   -3.2520005   -1.7785103   0.04869576   -3.2520005    1.4734903   369221 
 6493000   0.82616195   -3.2520089   -1.7782805  0.046097639   -3.2520089    1.4737284   369201 
 6494000   0.82707767   -3.2528842   -1.7774423  0.040157315   -3.2528842    1.4754418   369181 
 6495000   0.82680783   -3.2510004   -1.7759601  0.046496467   -3.2510004    1.4750403   369161 
 6496000   0.82686168   -3.2532139   -1.7779976  0.049420307   -3.2532139    1.4752163   369141 
 6497000   0.82702699   -3.2529985   -1.7774073  0.047862532   -3.2529985    1.4755912   369121 
 6498000   0.82677214   -3.2516158   -1.7763993  0.049977432   -3.2516158    1.4752164   369101 
 6499000   0.82818623   -3.2540448   -1.7762251  0.050214084   -3.2540448    1.4778197   369081 
 6500000   0.82814293   -3.2545971   -1.7767746  0.049602301   -3.2545971    1.4778225   369061 
 6501000   0.82795537   -3.2543342   -1.7767663  0.046566304   -3.2543342    1.4775679   369041 
 6502000   0.82524841   -3.2500044   -1.7771875  0.047872851   -3.2500044    1.4728169   369021 
 6503000   0.82642868   -3.2524395   -1.7774363  0.047100652   -3.2524395    1.4750032   369001 
 6504000   0.82607709   -3.2523434   -1.7778878  0.044005775   -3.2523434    1.4744556   368981 
 6505000   0.82546151   -3.2529407   -1.7795039  0.042837191   -3.2529407    1.4734367   368961 
 6506000   0.82763543   -3.2542884   -1.7768912  0.046597418   -3.2542884    1.4773972   368941 
 6507000   0.82767263   -3.2533387    -1.775795  0.045978051   -3.2533387    1.4775437   368921 
 6508000   0.82636243   -3.2518361   -1.7765514  0.049375974   -3.2518361    1.4752848   368901 
 6509000   0.82730092   -3.2548156   -1.7777752  0.046818694   -3.2548156    1.4770403   368881 
 6510000   0.82635594   -3.2536223   -1.7781891  0.048641144   -3.2536223    1.4754332   368861 
 6511000    0.8279178   -3.2554441   -1.7771421  0.052388662   -3.2554441     1.478302   368841 
 6512000   0.82723703   -3.2532981   -1.7761316   0.05022416   -3.2532981    1.4771665   368821 
 6513000   0.82688121   -3.2548125   -1.7782013  0.045888545   -3.2548125    1.4766112   368801 
 6514000   0.82671361   -3.2561065   -1.7797145  0.045816485   -3.2561065     1.476392   368781 
 6515000   0.82574407   -3.2542384   -1.7794979  0.047118675   -3.2542384    1.4747405   368761 
 6516000   0.82693767   -3.2571608   -1.7802085  0.048154285   -3.2571608    1.4769523   368741 
 6517000   0.82659428   -3.2567347   -1.7803156  0.046598601   -3.2567347    1.4764191   368721 
 6518000   0.82677548    -3.256328   -1.7795051  0.051003501    -3.256328    1.4768228   368701 
 6519000   0.82722293   -3.2571476   -1.7794453  0.055176072   -3.2571476    1.4777023   368681 
 6520000   0.82839997   -3.2603617   -1.7804766  0.055499788   -3.2603617    1.4798851   368661 
 6521000    0.8265978   -3.2576725   -1.7809268  0.047923283   -3.2576725    1.4767458   368641 
 6522000   0.82621234   -3.2585901   -1.7824528  0.047589446   -3.2585901    1.4761372   368621 
 6523000   0.82529122   -3.2570032   -1.7824316  0.053402113   -3.2570032    1.4745715   368601 
 6524000   0.82637578   -3.2583161   -1.7817266  0.048001648   -3.2583161    1.4765895   368581 
 6525000   0.82672348   -3.2601115   -1.7828206  0.044263817   -3.2601115    1.4772909   368561 
 6526000   0.82498253   -3.2583197   -1.7840597  0.047438577   -3.2583197      1.47426   368541 
 6527000   0.82590646   -3.2603925   -1.7844013  0.051135413   -3.2603925    1.4759912   368521 
 6528000   0.82494297   -3.2592074   -1.7848581  0.049632465   -3.2592074    1.4743493   368501 
 6529000   0.82625084   -3.2613619    -1.784595   0.04960968   -3.2613619    1.4767669   368481 
 6530000    0.8261292   -3.2610743   -1.7844447  0.052198993   -3.2610743    1.4766296   368461 
 6531000   0.82589311   -3.2605586   -1.7842708  0.049650689   -3.2605586    1.4762878   368441 
 6532000   0.82703232   -3.2612414   -1.7828371  0.047997078   -3.2612414    1.4784044   368421 
 6533000   0.82649882   -3.2616618   -1.7841309  0.048214838   -3.2616618    1.4775309   368401 
 6534000   0.82395561   -3.2586068   -1.7855425   0.04914526   -3.2586068    1.4730644   368381 
 6535000   0.82599151   -3.2609882   -1.7842038  0.052353499   -3.2609882    1.4767843   368361 
 6536000   0.82440229   -3.2589049   -1.7848819  0.044966481   -3.2589049     1.474023   368341 
 6537000   0.82568887   -3.2590453   -1.7826417  0.047991689   -3.2590453    1.4764035   368321 
 6538000   0.82587465   -3.2598058   -1.7829899  0.051328324   -3.2598058    1.4768159   368301 
 6539000   0.82561458   -3.2582562   -1.7818251  0.051116087   -3.2582562    1.4764311   368281 
 6540000   0.82637921   -3.2591001   -1.7812214  0.050656233   -3.2591001    1.4778787   368261 
 6541000   0.82718548   -3.2606551   -1.7812541  0.051805445   -3.2606551     1.479401   368241 
 6542000   0.82578373   -3.2580201   -1.7810459  0.049178348   -3.2580201    1.4769742   368221 
 6543000   0.82634925   -3.2588887   -1.7808228  0.054686463   -3.2588887    1.4780659   368201 
 6544000   0.82622425   -3.2580746    -1.780152  0.051043522   -3.2580746    1.4779226   368181 
 6545000   0.82614166   -3.2588641   -1.7810089  0.049373053   -3.2588641    1.4778552   368161 
 6546000   0.82380235   -3.2551573   -1.7814068  0.045254986   -3.2551573    1.4737505   368141 
 6547000   0.82265472   -3.2540371   -1.7822597  0.052525828   -3.2540371    1.4717774   368121 
 6548000    0.8249288   -3.2579784   -1.7820524  0.045423143   -3.2579784    1.4759261   368101 
 6549000   0.82344247   -3.2560983   -1.7827514  0.050335626   -3.2560983    1.4733468   368081 
 6550000   0.82439299   -3.2551723   -1.7800445   0.04899779   -3.2551723    1.4751277   368061 
 6551000   0.82330588   -3.2537002   -1.7804376  0.047964235   -3.2537002    1.4732625   368041 
 6552000   0.82304064   -3.2541836   -1.7813157  0.050841675   -3.2541836    1.4728679   368021 
 6553000    0.8234031   -3.2541283   -1.7805317  0.054004907   -3.2541283    1.4735967   368001 
 6554000   0.82606962    -3.257115   -1.7786659  0.050610723    -3.257115    1.4784491   367981 
 6555000   0.82482291   -3.2557551    -1.779457  0.049153579   -3.2557551    1.4762981   367961 
 6556000   0.82353913   -3.2551078   -1.7810273  0.052165054   -3.2551078    1.4740805   367941 
 6557000   0.82385678   -3.2551311    -1.780402  0.047155926   -3.2551311    1.4747292   367921 
 6558000   0.82380784   -3.2537313   -1.7790095  0.043562829   -3.2537313    1.4747217   367901 
 6559000   0.82178318   -3.2524445   -1.7812671  0.049598461   -3.2524445    1.4711773   367881 
 6560000   0.82142198   -3.2529785   -1.7823679  0.046355578   -3.2529785    1.4706106   367861 
 6561000   0.82255095   -3.2548129   -1.7821009  0.049893511   -3.2548129    1.4727119   367841 
 6562000    0.8230371     -3.25613   -1.7824675  0.049578243     -3.25613    1.4736625   367821 
 6563000   0.82246711   -3.2551694   -1.7824474  0.046406709   -3.2551694     1.472722   367801 
 6564000   0.82283765   -3.2553165   -1.7818509  0.051282048   -3.2553165    1.4734656   367781 
 6565000   0.82443416   -3.2573428    -1.780938  0.048216853   -3.2573428    1.4764048   367761 
 6566000   0.82358851    -3.257026   -1.7820554  0.044237225    -3.257026    1.4749706   367741 
 6567000    0.8246422    -3.259475   -1.7825371  0.044534517    -3.259475     1.476938   367721 
 6568000   0.82378408   -3.2569066   -1.7814253  0.048281013   -3.2569066    1.4754813   367701 
 6569000   0.82476964   -3.2586486   -1.7813217   0.05599634   -3.2586486    1.4773269   367681 
 6570000   0.82460742   -3.2594198   -1.7823031  0.047821649   -3.2594198    1.4771167   367661 
 6571000   0.82563595   -3.2605157   -1.7814761  0.054685217   -3.2605157    1.4790396   367641 
 6572000   0.82496953   -3.2595057   -1.7815795  0.055191629   -3.2595057    1.4779261   367621 
 6573000   0.82447641   -3.2587974   -1.7816743  0.051749188   -3.2587974    1.4771231   367601 
 6574000   0.82501001   -3.2608421   -1.7826827  0.044703188   -3.2608421    1.4781595   367581 
 6575000   0.82456293   -3.2594559   -1.7820171  0.049110229   -3.2594559    1.4774388   367561 
 6576000   0.82540215   -3.2613312   -1.7823082  0.050156587   -3.2613312     1.479023   367541 
 6577000   0.82339929   -3.2572895   -1.7817751  0.049781961   -3.2572895    1.4755144   367521 
 6578000   0.82323791   -3.2587788   -1.7834732  0.052697563   -3.2587788    1.4753055   367501 
 6579000   0.82245666   -3.2569079   -1.7829223  0.046101477   -3.2569079    1.4739857   367481 
 6580000   0.82265652   -3.2570122   -1.7825881  0.050486752   -3.2570122    1.4744241   367461 
 6581000   0.82267948   -3.2566353   -1.7820898  0.046874866   -3.2566353    1.4745455   367441 
 6582000   0.82326344   -3.2582196   -1.7825471  0.047531445   -3.2582196    1.4756725   367421 
 6583000   0.82360271   -3.2571897   -1.7808287  0.048210191   -3.2571897     1.476361   367401 
 6584000   0.82355925   -3.2566941   -1.7803306   0.04719015   -3.2566941    1.4763635   367381 
 6585000   0.82378246   -3.2562716   -1.7794276  0.056066227   -3.2562716     1.476844   367361 
 6586000   0.82437696   -3.2567108   -1.7787205  0.056044514   -3.2567108    1.4779903   367341 
 6587000   0.82388127   -3.2559636   -1.7787816  0.052751613   -3.2559636     1.477182   367321 
 6588000   0.82326919   -3.2547068   -1.7785419   0.04913973   -3.2547068    1.4761649   367301 
 6589000   0.82302293   -3.2534496   -1.7776459  0.049171777   -3.2534496    1.4758037   367281 
 6590000   0.82293053   -3.2537482   -1.7780298  0.052250484   -3.2537482    1.4757184   367261 
 6591000    0.8225966   -3.2535009    -1.778301  0.048467452   -3.2535009    1.4751999   367241 
 6592000   0.82314625   -3.2541516   -1.7778856  0.052985173   -3.2541516     1.476266   367221 
 6593000   0.82314501   -3.2531405   -1.7767963  0.052031956   -3.2531405    1.4763442   367201 
 6594000   0.82257034    -3.253388   -1.7779941  0.050673516    -3.253388    1.4753939   367181 
 6595000   0.82254063   -3.2524413   -1.7770204  0.050699386   -3.2524413    1.4754209   367161 
 6596000   0.82308189   -3.2531128   -1.7766405  0.050499787   -3.2531128    1.4764723   367141 
 6597000   0.82216008   -3.2524926   -1.7775936  0.046477542   -3.2524926     1.474899   367121 
 6598000   0.82356433   -3.2539662   -1.7764675  0.044401024   -3.2539662    1.4774987   367101 
 6599000   0.82214432   -3.2509125    -1.775881  0.053507772   -3.2509125    1.4750315   367081 
 6600000   0.82278497   -3.2518107   -1.7755493   0.05455115   -3.2518107    1.4762613   367061 
 6601000   0.82150461   -3.2518678   -1.7778235  0.045078054   -3.2518678    1.4740444   367041 
 6602000   0.82325219   -3.2545847   -1.7773241  0.047495825   -3.2545847    1.4772606   367021 
 6603000   0.82365452   -3.2548523   -1.7767892  0.046451616   -3.2548523    1.4780631   367001 
 6604000   0.82200349    -3.251446   -1.7762653  0.047222961    -3.251446    1.4751807   366981 
 6605000   0.82278309   -3.2519205   -1.7752603  0.051477779   -3.2519205    1.4766602   366961 
 6606000   0.82244136    -3.251119   -1.7749916   0.05207119    -3.251119    1.4761274   366941 
 6607000   0.82170916    -3.250365   -1.7754714   0.05125939    -3.250365    1.4748936   366921 
 6608000   0.82217055   -3.2517958   -1.7759936  0.048106378   -3.2517958    1.4758022   366901 
 6609000   0.82080977   -3.2510963   -1.7776564  0.050830871   -3.2510963    1.4734399   366881 
 6610000   0.82181278   -3.2511134   -1.7757926  0.052553262   -3.2511134    1.4753208   366861 
 6611000   0.82085536   -3.2498695   -1.7761871  0.045481351   -3.2498695    1.4736824   366841 
 6612000   0.82111377   -3.2503479   -1.7761212  0.048169805   -3.2503479    1.4742267   366821 
 6613000    0.8214114   -3.2508356   -1.7759941  0.045931289   -3.2508356    1.4748415   366801 
 6614000   0.82121557   -3.2493784   -1.7748081  0.048907384   -3.2493784    1.4745703   366781 
 6615000   0.82089008   -3.2481385   -1.7740723  0.051680937   -3.2481385    1.4740662   366761 
 6616000   0.82100778   -3.2503367   -1.7759787   0.04456939   -3.2503367     1.474358   366741 
 6617000   0.82198172   -3.2515998   -1.7754123   0.04868106   -3.2515998    1.4761875   366721 
 6618000   0.82319652   -3.2543853   -1.7759355  0.044927586   -3.2543853    1.4784497   366701 
 6619000   0.82194855   -3.2534179    -1.777129  0.049834923   -3.2534179    1.4762889   366681 
 6620000    0.8219808   -3.2536242   -1.7771969  0.046253735   -3.2536242    1.4764274   366661 
 6621000   0.82132351   -3.2515129   -1.7761857  0.051027256   -3.2515129    1.4753272   366641 
 6622000   0.82194995   -3.2536707   -1.7771376  0.048880766   -3.2536707     1.476533   366621 
 6623000   0.82231435    -3.254335   -1.7770668  0.045809734    -3.254335    1.4772682   366601 
 6624000   0.82039129   -3.2510712   -1.7771773  0.051255831   -3.2510712    1.4738939   366581 
 6625000   0.81948722   -3.2522495   -1.7798995  0.045092686   -3.2522495      1.47235   366561 
 6626000   0.82099413   -3.2531574   -1.7780195   0.04583192   -3.2531574    1.4751379   366541 
 6627000   0.82266299   -3.2553396   -1.7771225  0.056097023   -3.2553396    1.4782171   366521 
 6628000   0.82183365   -3.2547609   -1.7779534  0.050872284   -3.2547609    1.4768075   366501 
 6629000   0.82131323   -3.2540504   -1.7780976  0.053553276   -3.2540504    1.4759529   366481 
 6630000   0.82000676      -3.2529   -1.7792145  0.049796634      -3.2529    1.4736855   366461 
 6631000    0.8182245   -3.2517683   -1.7812056  0.049034634   -3.2517683    1.4705627   366441 
 6632000   0.82004923    -3.254983   -1.7810603  0.050348337    -3.254983    1.4739227   366421 
 6633000   0.81989815   -3.2538452   -1.7801137  0.055006076   -3.2538452    1.4737316   366401 
 6634000    0.8201368   -3.2530978   -1.7788568  0.047313073   -3.2530978     1.474241   366381 
 6635000   0.82112417   -3.2568905   -1.7807941  0.047320198   -3.2568905    1.4760964   366361 
 6636000    0.8200976   -3.2575241   -1.7831926  0.045063158   -3.2575241    1.4743315   366341 
 6637000   0.81923189   -3.2534901   -1.7806345  0.051614101   -3.2534901    1.4728556   366321 
 6638000   0.82091573   -3.2555097   -1.7795462  0.050199893   -3.2555097    1.4759635   366301 
 6639000   0.82065708   -3.2546251   -1.7790461  0.047109165   -3.2546251     1.475579   366281 
 6640000     0.821522   -3.2566039   -1.7793891  0.045965548   -3.2566039    1.4772148   366261 
 6641000   0.82109094   -3.2573645   -1.7808441   0.05225708   -3.2573645    1.4765203   366241 
 6642000   0.82262153    -3.258265   -1.7789115  0.054763292    -3.258265    1.4793535   366221 
 6643000    0.8229319   -3.2577297   -1.7777372  0.052147852   -3.2577297    1.4799925   366201 
 6644000   0.82198572    -3.256649   -1.7782775   0.05619198    -3.256649    1.4783716   366181 
 6645000   0.82077781   -3.2555105   -1.7792307  0.050875602   -3.2555105    1.4762797   366161 
 6646000   0.82031677   -3.2545302   -1.7789991  0.049386828   -3.2545302    1.4755311   366141 
 6647000   0.82084962   -3.2533991   -1.7768289  0.050674706   -3.2533991    1.4765702   366121 
 6648000   0.82194697   -3.2564374   -1.7778125  0.051448289   -3.2564374    1.4786249   366101 
 6649000   0.82170968   -3.2587014   -1.7804226  0.050157763   -3.2587014    1.4782788   366081 
 6650000   0.82043068   -3.2547472   -1.7786887  0.048159901   -3.2547472    1.4760585   366061 
 6651000   0.82009445   -3.2545404   -1.7790062  0.050364768   -3.2545404    1.4755342   366041 
 6652000   0.81866708   -3.2505987   -1.7775522  0.049087078   -3.2505987    1.4730465   366021 
 6653000   0.82008311   -3.2527531   -1.7770781  0.051718001   -3.2527531     1.475675   366001 
 6654000   0.81973566   -3.2525585    -1.777428  0.049028654   -3.2525585    1.4751304   365981 
 6655000   0.81923529   -3.2530492   -1.7787387  0.051273356   -3.2530492    1.4743106   365961 
 6656000   0.81852704   -3.2510456   -1.7779291  0.048625783   -3.2510456    1.4731165   365941 
 6657000   0.81948026   -3.2525135   -1.7776008  0.051807045   -3.2525135    1.4749126   365921 
 6658000   0.82115783   -3.2550097    -1.776997   0.04635116   -3.2550097    1.4780127   365901 
 6659000    0.8199565   -3.2541048   -1.7781737  0.048163258   -3.2541048    1.4759311   365881 
 6660000   0.81961527    -3.251533   -1.7761355  0.053496411    -3.251533    1.4753975   365861 
 6661000   0.82123477   -3.2536251   -1.7752315  0.047855384   -3.2536251    1.4783936   365841 
 6662000   0.81917012   -3.2513522   -1.7765948   0.04819041   -3.2513522    1.4747575   365821 
 6663000     0.819807   -3.2515393   -1.7755545  0.049763489   -3.2515393    1.4759847   365801 
 6664000   0.81976627   -3.2519561    -1.775964  0.052070386   -3.2519561    1.4759921   365781 
 6665000   0.82005152   -3.2522355    -1.775649  0.047928891   -3.2522355    1.4765864   365761 
 6666000   0.82078327   -3.2530087   -1.7750239  0.051655679   -3.2530087    1.4779848   365741 
 6667000   0.81991681   -3.2527105   -1.7762052  0.050254115   -3.2527105    1.4765053   365721 
 6668000   0.81876957   -3.2503749   -1.7758548  0.050404879   -3.2503749      1.47452   365701 
 6669000   0.81966361   -3.2526504   -1.7764395  0.051546824   -3.2526504    1.4762108   365681 
 6670000   0.82043653   -3.2542246   -1.7765409  0.044241928   -3.2542246    1.4776837   365661 
 6671000   0.81807001   -3.2503451   -1.7768431   0.04607801   -3.2503451     1.473502   365641 
 6672000   0.81840076   -3.2526528   -1.7784745  0.051987632   -3.2526528    1.4741783   365621 
 6673000   0.81748179   -3.2522557   -1.7796521  0.050799503   -3.2522557    1.4726036   365601 
 6674000    0.8175028   -3.2522424   -1.7795205   0.04829614   -3.2522424     1.472722   365581 
 6675000   0.81827207   -3.2525156   -1.7783272  0.047672105   -3.2525156    1.4741885   365561 
 6676000   0.81740016   -3.2508727   -1.7781745  0.053524668   -3.2508727    1.4726982   365541 
 6677000   0.82079407   -3.2547633   -1.7758694  0.048964355   -3.2547633    1.4788939   365521 
 6678000   0.82122091   -3.2548968   -1.7751529  0.049267997   -3.2548968    1.4797439   365501 
 6679000   0.82064361   -3.2529161   -1.7741315  0.050024995   -3.2529161    1.4787846   365481 
 6680000   0.81953318   -3.2512204   -1.7743559  0.056625782   -3.2512204    1.4768645   365461 
 6681000   0.81922243   -3.2516849   -1.7752997  0.052216638   -3.2516849    1.4763852   365441 
 6682000   0.82012368   -3.2523788   -1.7742885  0.051954421   -3.2523788    1.4780904   365421 
 6683000   0.82130935   -3.2552249   -1.7749166  0.050472984   -3.2552249    1.4803083   365401 
 6684000   0.81886274   -3.2506144    -1.774635  0.050490398   -3.2506144    1.4759794   365381 
 6685000   0.81883792   -3.2516097   -1.7755942  0.049483061   -3.2516097    1.4760154   365361 
 6686000    0.8171577   -3.2496811   -1.7766137  0.049398954   -3.2496811    1.4730673   365341 
 6687000   0.81852622   -3.2517893   -1.7761742  0.051706623   -3.2517893    1.4756151   365321 
 6688000   0.81701772   -3.2505751   -1.7775988  0.046617252   -3.2505751    1.4729763   365301 
 6689000   0.81703583   -3.2501708   -1.7770813   0.04612902   -3.2501708    1.4730896   365281 
 6690000    0.8165676   -3.2491184   -1.7767925  0.048896053   -3.2491184     1.472326   365261 
 6691000    0.8181871   -3.2529847   -1.7776579  0.042771096   -3.2529847    1.4753268   365241 
 6692000   0.81894572   -3.2541067   -1.7773311  0.050028336   -3.2541067    1.4767756   365221 
 6693000   0.81652207   -3.2491884   -1.7767026  0.049329464   -3.2491884    1.4724857   365201 
 6694000   0.81760147   -3.2527937   -1.7782806  0.047819458   -3.2527937    1.4745131   365181 
 6695000   0.81794323   -3.2523303   -1.7771201   0.04879279   -3.2523303    1.4752102   365161 
 6696000   0.81814736    -3.251229   -1.7755698  0.049826665    -3.251229    1.4756592   365141 
 6697000    0.8179882   -3.2515214   -1.7760685  0.051465027   -3.2515214    1.4754529   365121 
 6698000   0.81882239    -3.254072   -1.7770335  0.046859461    -3.254072    1.4770385   365101 
 6699000   0.81785641   -3.2530257   -1.7776488  0.047730612   -3.2530257    1.4753768   365081 
 6700000   0.81693256   -3.2528296   -1.7790386  0.045629006   -3.2528296     1.473791   365061 
 6701000   0.81659559   -3.2522477   -1.7789839  0.045063285   -3.2522477    1.4732638   365041 
 6702000    0.8175435   -3.2537737   -1.7787189  0.051060191   -3.2537737    1.4750548   365021 
 6703000   0.81717237   -3.2532417   -1.7787757  0.047258924   -3.2532417     1.474466   365001 
 6704000   0.81748997   -3.2541191   -1.7789993  0.053033344   -3.2541191    1.4751198   364981 
 6705000   0.81790285   -3.2517065   -1.7757607  0.055473671   -3.2517065    1.4759458   364961 
 6706000    0.8186035   -3.2549734   -1.7776824  0.053206704   -3.2549734    1.4772911   364941 
 6707000   0.81768379   -3.2541197   -1.7784075  0.048426421   -3.2541197    1.4757122   364921 
 6708000   0.81741697   -3.2549996   -1.7796881  0.046734478   -3.2549996    1.4753115   364901 
 6709000   0.81827756   -3.2557439   -1.7787982  0.047257643   -3.2557439    1.4769457   364881 
 6710000   0.81763586   -3.2540823    -1.778214  0.050700956   -3.2540823    1.4758683   364861 
 6711000   0.81765353   -3.2555185   -1.7795373    0.0481298   -3.2555185    1.4759811   364841 
 6712000   0.81641708   -3.2525056   -1.7786756  0.045793759   -3.2525056      1.47383   364821 
 6713000   0.81750431   -3.2557443   -1.7798707  0.049884624   -3.2557443    1.4758736   364801 
 6714000    0.8162177   -3.2537751   -1.7801435  0.047837432   -3.2537751    1.4736316   364781 
 6715000   0.81676553   -3.2547904   -1.7800888  0.049064782   -3.2547904    1.4747015   364761 
 6716000   0.81683367   -3.2545495    -1.779644  0.049507337   -3.2545495    1.4749055   364741 
 6717000   0.81646067   -3.2540306   -1.7797178  0.047588003   -3.2540306    1.4743128   364721 
 6718000   0.81701086    -3.255908   -1.7805208  0.048500577    -3.255908    1.4753872   364701 
 6719000   0.81630127   -3.2550517   -1.7808651  0.049651677   -3.2550517    1.4741866   364681 
 6720000    0.8160375   -3.2558101    -1.782019  0.047222015   -3.2558101    1.4737911   364661 
 6721000   0.81592628   -3.2557566   -1.7820855  0.049118863   -3.2557566    1.4736711   364641 
 6722000     0.815758   -3.2552523   -1.7818043  0.049888025   -3.2552523    1.4734479   364621 
 6723000   0.81673074   -3.2574541   -1.7821683   0.04550034   -3.2574541    1.4752859   364601 
 6724000    0.8161086   -3.2556145   -1.7813716  0.043398165   -3.2556145    1.4742429   364581 
 6725000   0.81691152   -3.2555133    -1.779739  0.054953042   -3.2555133    1.4757743   364561 
 6726000   0.81716211     -3.25604    -1.779732  0.050897073     -3.25604     1.476308   364541 
 6727000   0.81623293   -3.2568624   -1.7821522  0.049291862   -3.2568624    1.4747102   364521 
 6728000   0.81655793   -3.2570691   -1.7816907  0.049283875   -3.2570691    1.4753784   364501 
 6729000    0.8165306   -3.2578304   -1.7824205  0.052438197   -3.2578304    1.4754099   364481 
 6730000   0.81840579   -3.2619881   -1.7831087  0.048921138   -3.2619881    1.4788794   364461 
 6731000   0.81752858   -3.2601187   -1.7827433  0.047751614   -3.2601187    1.4773753   364441 
 6732000   0.81676937   -3.2601031   -1.7840188  0.054051919   -3.2601031    1.4760844   364421 
 6733000   0.81859842   -3.2617459   -1.7822749  0.046729911   -3.2617459    1.4794711   364401 
 6734000    0.8177095   -3.2600841   -1.7821384  0.048570789   -3.2600841    1.4779456   364381 
 6735000   0.81776556   -3.2601272   -1.7819992  0.047121629   -3.2601272    1.4781281   364361 
 6736000   0.81552135   -3.2544817   -1.7803292  0.052424829   -3.2544817    1.4741525   364341 
 6737000   0.81682114   -3.2576303   -1.7810472  0.047162191   -3.2576303    1.4765831   364321 
 6738000    0.8154572   -3.2545437   -1.7803453    0.0494683   -3.2545437    1.4741984   364301 
 6739000   0.81632589   -3.2550337   -1.7791838  0.049511413   -3.2550337    1.4758499   364281 
 6740000   0.81758319   -3.2568338   -1.7786296  0.047884961   -3.2568338    1.4782041   364261 
 6741000    0.8174075   -3.2558688   -1.7779012  0.050251331   -3.2558688    1.4779676   364241 
 6742000   0.81675157   -3.2555678   -1.7787051  0.047148888   -3.2555678    1.4768627   364221 
 6743000   0.81655102   -3.2529133   -1.7763321  0.049249329   -3.2529133    1.4765812   364201 
 6744000   0.81601492   -3.2523468    -1.776654  0.049330378   -3.2523468    1.4756928   364181 
 6745000    0.8159311   -3.2518926   -1.7762704  0.048132664   -3.2518926    1.4756222   364161 
 6746000   0.81587317    -3.252726   -1.7771275  0.043528028    -3.252726    1.4755985   364141 
 6747000   0.81362813   -3.2506098   -1.7789909  0.047938753   -3.2506098    1.4716189   364121 
 6748000   0.81230795   -3.2471856   -1.7778739  0.052783756   -3.2471856    1.4693118   364101 
 6749000   0.81471212   -3.2507892   -1.7770477  0.041882087   -3.2507892    1.4737414   364081 
 6750000   0.81461374   -3.2495693   -1.7759249  0.043119417   -3.2495693    1.4736444   364061 
 6751000   0.81297897   -3.2477537   -1.7769858  0.050506996   -3.2477537    1.4707679   364041 
 6752000   0.81530172   -3.2510522   -1.7760011  0.046145458   -3.2510522    1.4750511   364021 
 6753000   0.81452679   -3.2495513   -1.7758212  0.047359775   -3.2495513      1.47373   364001 
 6754000   0.81442144   -3.2486424    -1.775022   0.04718957   -3.2486424    1.4736204   363981 
 6755000    0.8151078   -3.2491517   -1.7742084  0.046995739   -3.2491517    1.4749433   363961 
 6756000   0.81501263   -3.2500607   -1.7752085  0.050206832   -3.2500607    1.4748521   363941 
 6757000   0.81495665   -3.2490931   -1.7742612  0.044992501   -3.2490931    1.4748319   363921 
 6758000   0.81558485   -3.2506945   -1.7746446  0.047360353   -3.2506945    1.4760499   363901 
 6759000   0.81397501   -3.2507478   -1.7775304  0.049619294   -3.2507478    1.4732173   363881 
 6760000   0.81577178   -3.2543304   -1.7777799  0.045675969   -3.2543304    1.4765505   363861 
 6761000   0.81585911   -3.2550569   -1.7782671  0.045940422   -3.2550569    1.4767897   363841 
 6762000   0.81608702   -3.2545877   -1.7773042  0.049264274   -3.2545877    1.4772835   363821 
 6763000   0.81628539   -3.2539405   -1.7762167  0.051643237   -3.2539405    1.4777238   363801 
 6764000   0.81609308   -3.2533386   -1.7758817  0.054019063   -3.2533386    1.4774569   363781 
 6765000   0.81495274   -3.2528859   -1.7774124   0.04655084   -3.2528859    1.4754735   363761 
 6766000   0.81448866   -3.2540699   -1.7793555   0.04618613   -3.2540699    1.4747144   363741 
 6767000   0.81518119   -3.2537384    -1.777689  0.051572712   -3.2537384    1.4760494   363721 
 6768000    0.8153866     -3.25582   -1.7793175  0.049545586     -3.25582    1.4765026   363701 
 6769000   0.81540828   -3.2558332   -1.7792101  0.053305387   -3.2558332     1.476623   363681 
 6770000   0.81480252    -3.254711   -1.7791038  0.050791595    -3.254711    1.4756072   363661 
 6771000   0.81574518   -3.2575564   -1.7801608  0.050129494   -3.2575564    1.4773956   363641 
 6772000   0.81419802   -3.2557761   -1.7811014  0.049873747   -3.2557761    1.4746747   363621 
 6773000   0.81549952    -3.257846   -1.7807329  0.050628455    -3.257846    1.4771132   363601 
 6774000   0.81524755   -3.2579444   -1.7812064  0.047790165   -3.2579444     1.476738   363581 
 6775000   0.81509732   -3.2585581    -1.782011  0.046253563   -3.2585581    1.4765471   363561 
 6776000    0.8133682   -3.2561917   -1.7826959  0.051233072   -3.2561917    1.4734959   363541 
 6777000   0.81275065   -3.2557445   -1.7832864  0.051962199   -3.2557445    1.4724581   363521 
 6778000   0.81442516   -3.2564682   -1.7808952  0.053308802   -3.2564682     1.475573   363501 
 6779000   0.81423188   -3.2580261   -1.7827221   0.04778048   -3.2580261     1.475304   363481 
 6780000   0.81368691   -3.2562216   -1.7818239   0.04936163   -3.2562216    1.4743977   363461 
 6781000   0.81427328   -3.2563044    -1.780763  0.048046006   -3.2563044    1.4755414   363441 
 6782000   0.81542626   -3.2581741   -1.7804621  0.048380103   -3.2581741     1.477712   363421 
 6783000   0.81395066   -3.2569835   -1.7818644  0.051461233   -3.2569835    1.4751191   363401 
 6784000   0.81498764   -3.2581026   -1.7810228  0.049424101   -3.2581026    1.4770797   363381 
 6785000   0.81413833   -3.2558026    -1.780181  0.050772532   -3.2558026    1.4756217   363361 
 6786000   0.81357997   -3.2564919   -1.7818011  0.050774911   -3.2564919    1.4746908   363341 
 6787000   0.81440663   -3.2587902   -1.7825197  0.047461723   -3.2587902    1.4762705   363321 
 6788000   0.81408113   -3.2574555   -1.7816939   0.05111852   -3.2574555    1.4757617   363301 
 6789000   0.81374464   -3.2545816   -1.7793487  0.047912884   -3.2545816    1.4752329   363281 
 6790000   0.81422467   -3.2569237   -1.7807393  0.043980488   -3.2569237    1.4761844   363261 
 6791000   0.81213156   -3.2519037    -1.779433  0.050172134   -3.2519037    1.4724707   363241 
 6792000   0.81251143   -3.2532082   -1.7799677  0.047173017   -3.2532082    1.4732405   363221 
 6793000   0.81262936   -3.2520157   -1.7784802  0.049729649   -3.2520157    1.4735355   363201 
 6794000   0.81395861   -3.2548062    -1.778779  0.053977567   -3.2548062    1.4760271   363181 
 6795000   0.81430804   -3.2543559   -1.7776138  0.050859322   -3.2543559    1.4767421   363161 
 6796000   0.81452023   -3.2561372    -1.778929  0.053161824   -3.2561372    1.4772083   363141 
 6797000   0.81362917    -3.255426   -1.7797525  0.047381465    -3.255426    1.4756735   363121 
 6798000    0.8150921   -3.2570116   -1.7786034  0.049445867   -3.2570116    1.4784082   363101 
 6799000   0.81343453   -3.2542467   -1.7787637  0.053345075   -3.2542467     1.475483   363081 
 6800000    0.8137543   -3.2546612   -1.7785169  0.048992085   -3.2546612    1.4761444   363061 
 6801000   0.81344062   -3.2549236   -1.7792669  0.050936022   -3.2549236    1.4756566   363041 
 6802000   0.81307767   -3.2532359   -1.7781564  0.054779118   -3.2532359    1.4750795   363021 
 6803000    0.8126639   -3.2536763   -1.7792662  0.048814291   -3.2536763      1.47441   363001 
 6804000   0.81416045   -3.2573761   -1.7801695  0.051327881   -3.2573761    1.4772066   362981 
 6805000   0.81225045   -3.2531287   -1.7793064  0.051494681   -3.2531287    1.4738223   362961 
 6806000   0.81316987   -3.2537499    -1.778178   0.05186417   -3.2537499    1.4755719   362941 
 6807000   0.81375743   -3.2569577   -1.7802383   0.04602891   -3.2569577    1.4767195   362921 
 6808000   0.81299642    -3.255232   -1.7798123  0.047079253    -3.255232    1.4754198   362901 
 6809000   0.81235805   -3.2535621   -1.7792195  0.047780947   -3.2535621    1.4743425   362881 
 6810000   0.81321963   -3.2564617   -1.7804742   0.04910701   -3.2564617    1.4759875   362861 
 6811000   0.81205214    -3.254192   -1.7802422  0.048649948    -3.254192    1.4739498   362841 
 6812000   0.81180871   -3.2530973   -1.7795082  0.047981516   -3.2530973    1.4735892   362821 
 6813000   0.81263319   -3.2549339   -1.7797669  0.044582899   -3.2549339    1.4751671   362801 
 6814000   0.81264698   -3.2533669   -1.7780935  0.053431154   -3.2533669    1.4752734   362781 
 6815000   0.81197032   -3.2534796   -1.7793533  0.051337097   -3.2534796    1.4741263   362761 
 6816000   0.81284445   -3.2545979   -1.7788033  0.048083834   -3.2545979    1.4757947   362741 
 6817000   0.81250011   -3.2551043   -1.7798534  0.047985069   -3.2551043    1.4752508   362721 
 6818000   0.81170656   -3.2544009   -1.7805097  0.047005747   -3.2544009    1.4738912   362701 
 6819000   0.81223254   -3.2541681   -1.7792405  0.048567557   -3.2541681    1.4749276   362681 
 6820000   0.81192007   -3.2525479   -1.7781063  0.052222176   -3.2525479    1.4744415   362661 
 6821000   0.81232029   -3.2532077    -1.777958  0.052653054   -3.2532077    1.4752497   362641 
 6822000   0.81281221   -3.2551851   -1.7789607  0.052452039   -3.2551851    1.4762245   362621 
 6823000    0.8128306   -3.2553176   -1.7789783  0.051453286   -3.2553176    1.4763393   362601 
 6824000   0.81138482   -3.2526144   -1.7788198  0.055790725   -3.2526144    1.4737946   362581 
 6825000   0.81263547    -3.254473   -1.7783253  0.048582527    -3.254473    1.4761477   362561 
 6826000   0.81338164   -3.2562287    -1.778644  0.048234771   -3.2562287    1.4775846   362541 
 6827000   0.81282133   -3.2560329   -1.7793847  0.046181926   -3.2560329    1.4766482   362521 
 6828000    0.8116929   -3.2539912   -1.7793116  0.050861705   -3.2539912    1.4746796   362501 
 6829000   0.81181219   -3.2553729   -1.7803952   0.04709713   -3.2553729    1.4749777   362481 
 6830000   0.81061442   -3.2544515   -1.7815688  0.046474057   -3.2544515    1.4728827   362461 
 6831000   0.81076864   -3.2533926   -1.7801483  0.047143005   -3.2533926    1.4732442   362441 
 6832000    0.8110441   -3.2548806   -1.7810545  0.047654343   -3.2548806    1.4738261   362421 
 6833000   0.81165219   -3.2559881   -1.7809755  0.045720561   -3.2559881    1.4750125   362401 
 6834000   0.80978693   -3.2551195   -1.7834155  0.050293672   -3.2551195     1.471704   362381 
 6835000   0.81019542    -3.254861   -1.7823333     0.049276    -3.254861    1.4725277   362361 
 6836000    0.8107611   -3.2565799   -1.7829427  0.047364093   -3.2565799    1.4736371   362341 
 6837000    0.8106186   -3.2550306   -1.7815712   0.05030339   -3.2550306    1.4734595   362321 
 6838000   0.80974322   -3.2540431   -1.7820936  0.045949878   -3.2540431    1.4719495   362301 
 6839000   0.81246487    -3.259848   -1.7828696  0.047710824    -3.259848    1.4769785   362281 
 6840000   0.81059742   -3.2568624   -1.7831974  0.049806397   -3.2568624     1.473665   362261 
 6841000   0.81259897   -3.2606189   -1.7832336  0.053863775   -3.2606189    1.4773854   362241 
 6842000   0.81285383   -3.2619174    -1.783987  0.045063395   -3.2619174    1.4779303   362221 
 6843000   0.81109078   -3.2589086   -1.7841025   0.05062365   -3.2589086    1.4748062   362201 
 6844000   0.81159403   -3.2615074   -1.7857046  0.049221893   -3.2615074    1.4758027   362181 
 6845000   0.81138317   -3.2600464   -1.7845456  0.046530384   -3.2600464    1.4755008   362161 
 6846000   0.81198828   -3.2602672   -1.7835845  0.049846972   -3.2602672    1.4766827   362141 
 6847000   0.81096665   -3.2587743   -1.7838681   0.05090992   -3.2587743    1.4749063   362121 
 6848000   0.81053399   -3.2593883   -1.7851875   0.05072796   -3.2593883    1.4742008   362101 
 6849000   0.81202177    -3.260552   -1.7835636  0.051745833    -3.260552    1.4769883   362081 
 6850000   0.81184444   -3.2624333   -1.7856859  0.051867935   -3.2624333    1.4767474   362061 
 6851000   0.81330386   -3.2628487    -1.783365  0.051295467   -3.2628487    1.4794838   362041 
 6852000   0.81206349   -3.2617256   -1.7844166  0.051109745   -3.2617256     1.477309   362021 
 6853000   0.81030385   -3.2604222   -1.7862329  0.049893178   -3.2604222    1.4741893   362001 
 6854000   0.80986239   -3.2592262   -1.7857586  0.049792572   -3.2592262    1.4734676   361981 
 6855000   0.81053809    -3.259533   -1.7847546  0.055719364    -3.259533    1.4747784   361961 
 6856000   0.81129299   -3.2592357   -1.7830021  0.051814838   -3.2592357    1.4762336   361941 
 6857000   0.81017932   -3.2569329   -1.7826443  0.049304097   -3.2569329    1.4742886   361921 
 6858000   0.80910031   -3.2554799   -1.7830734  0.052431444   -3.2554799    1.4724065   361901 
 6859000   0.80946698   -3.2564141    -1.783259  0.049319949   -3.2564141    1.4731551   361881 
 6860000    0.8086658   -3.2536376   -1.7818592  0.051424661   -3.2536376    1.4717784   361861 
 6861000   0.81019874   -3.2553953   -1.7807455  0.054064613   -3.2553953    1.4746499   361841 
 6862000    0.8103888   -3.2551615   -1.7800841  0.048404817   -3.2551615    1.4750773   361821 
 6863000   0.80994867   -3.2549061   -1.7805484  0.050030682   -3.2549061    1.4743577   361801 
 6864000   0.81009527   -3.2550598   -1.7803537  0.052331826   -3.2550598    1.4747061   361781 
 6865000   0.80940521   -3.2549263   -1.7813949  0.048888399   -3.2549263    1.4735314   361761 
 6866000   0.80950416   -3.2544362   -1.7806433  0.048071299   -3.2544362     1.473793   361741 
 6867000   0.80939352   -3.2535833   -1.7799103  0.048467896   -3.2535833     1.473673   361721 
 6868000   0.80990681   -3.2535365   -1.7788474  0.045064037   -3.2535365    1.4746891   361701 
 6869000   0.81034759   -3.2532691   -1.7776958  0.048698707   -3.2532691    1.4755733   361681 
 6870000   0.80934549   -3.2506048   -1.7767748   0.05487171   -3.2506048      1.47383   361661 
 6871000   0.80896172   -3.2523113   -1.7790987   0.05177213   -3.2523113    1.4732127   361641 
 6872000   0.80920745   -3.2522803   -1.7785386  0.054522124   -3.2522803    1.4737417   361621 
 6873000   0.80836963   -3.2513929   -1.7790957  0.055875912   -3.2513929    1.4722972   361601 
 6874000   0.80956445   -3.2524951   -1.7779401  0.046990946   -3.2524951     1.474555   361581 
 6875000    0.8087254   -3.2514247   -1.7783165  0.047557447   -3.2514247    1.4731082   361561 
 6876000   0.81039613   -3.2535894   -1.7773563  0.043027561   -3.2535894    1.4762331   361541 
 6877000   0.80991375    -3.253057    -1.777621  0.046114574    -3.253057     1.475436   361521 
 6878000    0.8088869   -3.2515696   -1.7779227  0.045390349   -3.2515696    1.4736469   361501 
 6879000   0.80706662   -3.2483226   -1.7779106  0.052318799   -3.2483226     1.470412   361481 
 6880000   0.80967115   -3.2532381   -1.7779992  0.045061227   -3.2532381    1.4752389   361461 
 6881000   0.80942757   -3.2528897    -1.778013  0.050679851   -3.2528897    1.4748767   361441 
 6882000   0.80950027   -3.2524673   -1.7773765  0.049385036   -3.2524673    1.4750908   361421 
 6883000   0.80806637   -3.2511163   -1.7785569  0.048347754   -3.2511163    1.4725594   361401 
 6884000   0.81048965    -3.254136   -1.7770789  0.054280591    -3.254136    1.4770571   361381 
 6885000   0.80987283     -3.25323   -1.7772152  0.049811329     -3.25323    1.4760147   361361 
 6886000   0.80983232    -3.251398   -1.7753754  0.054099151    -3.251398    1.4760226   361341 
 6887000   0.80971543   -3.2516085   -1.7757173  0.055649546   -3.2516085    1.4758912   361321 
 6888000   0.81066803   -3.2539946   -1.7762853  0.050306763   -3.2539946    1.4777093   361301 
 6889000   0.81058006   -3.2519539   -1.7743231  0.049964196   -3.2519539    1.4776308   361281 
 6890000   0.80981587   -3.2527928   -1.7764734  0.050873514   -3.2527928    1.4763194   361261 
 6891000   0.80841086   -3.2508109   -1.7769713  0.051138609   -3.2508109    1.4738397   361241 
 6892000   0.80826863   -3.2508207   -1.7771587   0.05202583   -3.2508207    1.4736619   361221 
 6893000   0.80924335   -3.2543437   -1.7788229  0.046421829   -3.2543437    1.4755208   361201 
 6894000   0.80811755   -3.2509807   -1.7774311  0.048418398   -3.2509807    1.4735497   361181 
 6895000   0.80891734   -3.2537267    -1.778637  0.048236021   -3.2537267    1.4750897   361161 
 6896000   0.80852569   -3.2524347   -1.7779776  0.048826573   -3.2524347    1.4744572   361141 
 6897000   0.80737269   -3.2516584   -1.7792224  0.049018766   -3.2516584     1.472436   361121 
 6898000   0.80756616   -3.2518705   -1.7790001  0.047816279   -3.2518705    1.4728705   361101 
 6899000   0.80836461   -3.2534468   -1.7790384  0.049507847   -3.2534468    1.4744084   361081 
 6900000   0.80777818   -3.2510084    -1.777588  0.051235474   -3.2510084    1.4734204   361061 
 6901000   0.80899216   -3.2533681   -1.7776516  0.051103452   -3.2533681    1.4757165   361041 
 6902000   0.80780421   -3.2501043   -1.7764732  0.053414552   -3.2501043    1.4736311   361021 
 6903000   0.80941824   -3.2531696   -1.7765123  0.050275608   -3.2531696    1.4766573   361001 
 6904000   0.80852928   -3.2542115   -1.7790942  0.051310089   -3.2542115    1.4751172   360981 
 6905000   0.80800849   -3.2514631   -1.7772143  0.047393437   -3.2514631    1.4742488   360961 
 6906000   0.80845423   -3.2519154   -1.7767716  0.042852753   -3.2519154    1.4751438   360941 
 6907000   0.80625895   -3.2502475   -1.7790278  0.049246043   -3.2502475    1.4712197   360921 
 6908000   0.80723817   -3.2537785   -1.7806904  0.046244385   -3.2537785    1.4730881   360901 
 6909000   0.80736015    -3.251891   -1.7784986  0.048111431    -3.251891    1.4733924   360881 
 6910000    0.8084533   -3.2537449   -1.7782758  0.048282208   -3.2537449    1.4754691   360861 
 6911000    0.8077409   -3.2546572   -1.7804065  0.050224465   -3.2546572    1.4742507   360841 
 6912000   0.80706039   -3.2539232    -1.780833  0.049739124   -3.2539232    1.4730903   360821 
 6913000   0.80737306   -3.2519265   -1.7781839  0.051532182   -3.2519265    1.4737427   360801 
 6914000   0.80767749   -3.2538972   -1.7795171  0.050750722   -3.2538972    1.4743801   360781 
 6915000   0.80859317   -3.2551737   -1.7790402  0.048054623   -3.2551737    1.4761334   360761 
 6916000   0.80701441   -3.2538462   -1.7805132  0.045901271   -3.2538462     1.473333   360741 
 6917000   0.80793191   -3.2553287   -1.7802389  0.053227334   -3.2553287    1.4750898   360721 
 6918000   0.80721245   -3.2538729    -1.780015  0.048792421   -3.2538729     1.473858   360701 
 6919000   0.80718555   -3.2548902   -1.7809996   0.04882749   -3.2548902    1.4738906   360681 
 6920000    0.8074613   -3.2541409    -1.779665  0.047138158   -3.2541409    1.4744759   360661 
 6921000   0.80589868   -3.2531469   -1.7814429  0.050375008   -3.2531469     1.471704   360641 
 6922000   0.80568637   -3.2536966   -1.7822987  0.049480964   -3.2536966    1.4713979   360621 
 6923000   0.80630022   -3.2545885   -1.7819879  0.048701411   -3.2545885    1.4726006   360601 
 6924000   0.80783244   -3.2571929    -1.781712  0.045581768   -3.2571929    1.4754809   360581 
 6925000   0.80739546   -3.2539412   -1.7791767  0.055374546   -3.2539412    1.4747645   360561 
 6926000    0.8087326   -3.2570201   -1.7797312   0.05017694   -3.2570201    1.4772889   360541 
 6927000   0.80758327   -3.2541247   -1.7788534  0.051781178   -3.2541247    1.4752712   360521 
 6928000   0.80778156   -3.2551058   -1.7793904  0.050411191   -3.2551058    1.4757153   360501 
 6929000   0.80797803   -3.2548818   -1.7787256  0.055727026   -3.2548818    1.4761562   360481 
 6930000   0.80770672   -3.2553089   -1.7795665  0.055089912   -3.2553089    1.4757424   360461 
 6931000   0.80727224   -3.2546608   -1.7796304  0.046425617   -3.2546608    1.4750304   360441 
 6932000    0.8064369   -3.2528039   -1.7792181  0.042852317   -3.2528039    1.4735858   360421 
 6933000    0.8065126   -3.2548303   -1.7810244  0.046650089   -3.2548303    1.4738059   360401 
 6934000   0.80722762   -3.2548759   -1.7796815  0.049452495   -3.2548759    1.4751944   360381 
 6935000   0.80714368   -3.2544644   -1.7793415  0.050522552   -3.2544644    1.4751229   360361 
 6936000   0.80608914   -3.2527081   -1.7794307  0.047153594   -3.2527081    1.4732774   360341 
 6937000   0.80740064   -3.2543153    -1.778559  0.050185038   -3.2543153    1.4757563   360321 
 6938000   0.80688506    -3.252381   -1.7774852  0.049306854    -3.252381    1.4748958   360301 
 6939000   0.80707209   -3.2518387   -1.7765191  0.051012497   -3.2518387    1.4753196   360281 
 6940000   0.80574814   -3.2505362   -1.7775551  0.049093807   -3.2505362    1.4729812   360261 
 6941000   0.80593228    -3.251095   -1.7776954  0.051856787    -3.251095    1.4733996   360241 
 6942000   0.80437516   -3.2482613   -1.7776268  0.046637123   -3.2482613    1.4706345   360221 
 6943000   0.80659376   -3.2515798   -1.7768072  0.048739712   -3.2515798    1.4747727   360201 
 6944000    0.8062633   -3.2526384   -1.7783881  0.048814056   -3.2526384    1.4742503   360181 
 6945000   0.80610133   -3.2516498   -1.7776138  0.051187505   -3.2516498     1.474036   360161 
 6946000   0.80620292    -3.252781   -1.7784774  0.044922778    -3.252781    1.4743036   360141 
 6947000   0.80757831   -3.2524187   -1.7755179  0.051410297   -3.2524187    1.4769008   360121 
 6948000   0.80742602   -3.2517127   -1.7750084  0.050100762   -3.2517127    1.4767043   360101 
 6949000   0.80733141   -3.2531511   -1.7765378  0.054592241   -3.2531511    1.4766133   360081 
 6950000   0.80719056    -3.252274   -1.7758363  0.051935689    -3.252274    1.4764377   360061 
 6951000   0.80698882   -3.2531966   -1.7770459  0.048044357   -3.2531966    1.4761507   360041 
 6952000   0.80697072   -3.2523201   -1.7761206  0.049925045   -3.2523201    1.4761996   360021 
 6953000   0.80682054   -3.2509534   -1.7749466  0.051584275   -3.2509534    1.4760068   360001 
 6954000   0.80647193   -3.2516189   -1.7761678  0.048562848   -3.2516189    1.4754511   359981 
 6955000   0.80585398    -3.249329   -1.7749266  0.053682083    -3.249329    1.4744024   359961 
 6956000   0.80674286   -3.2521681   -1.7760574  0.048206207   -3.2521681    1.4761107   359941 
 6957000    0.8082389   -3.2529507   -1.7740204  0.051175432   -3.2529507    1.4789303   359921 
 6958000   0.80598692   -3.2502317   -1.7753402  0.052445978   -3.2502317    1.4748915   359901 
 6959000   0.80711924   -3.2527164   -1.7756707  0.046548874   -3.2527164    1.4770456   359881 
 6960000   0.80593337   -3.2505108   -1.7755533   0.05086071   -3.2505108    1.4749574   359861 
 6961000   0.80697826   -3.2498937   -1.7729419  0.051601585   -3.2498937    1.4769518   359841 
 6962000   0.80748831   -3.2500708   -1.7721034  0.047745835   -3.2500708    1.4779675   359821 
 6963000   0.80600904    -3.248696   -1.7733541  0.050669692    -3.248696    1.4753419   359801 
 6964000   0.80479987   -3.2480758   -1.7748653  0.049746051   -3.2480758    1.4732105   359781 
 6965000   0.80567917   -3.2498942   -1.7749921  0.046822014   -3.2498942    1.4749021   359761 
 6966000   0.80511103   -3.2496291   -1.7756852   0.05155823   -3.2496291     1.473944   359741 
 6967000   0.80615771   -3.2504998   -1.7745576  0.052697169   -3.2504998    1.4759422   359721 
 6968000   0.80639088   -3.2501506   -1.7736994  0.052953852   -3.2501506    1.4764512   359701 
 6969000   0.80591666   -3.2487108   -1.7730458  0.047545577   -3.2487108     1.475665   359681 
 6970000   0.80520863   -3.2475089   -1.7730584  0.051278829   -3.2475089    1.4744505   359661 
 6971000   0.80448979    -3.248041   -1.7748248  0.044216201    -3.248041    1.4732162   359641 
 6972000   0.80490998   -3.2476276     -1.77356  0.045958353   -3.2476276    1.4740676   359621 
 6973000   0.80546293   -3.2492105   -1.7740483   0.04934478   -3.2492105    1.4751623   359601 
 6974000   0.80511813   -3.2465096   -1.7718968  0.055026249   -3.2465096    1.4746128   359581 
 6975000   0.80613943   -3.2490281   -1.7724626  0.047863632   -3.2490281    1.4765655   359561 
 6976000   0.80558916   -3.2471824   -1.7715427  0.050752996   -3.2471824    1.4756397   359541 
 6977000   0.80542773   -3.2469916   -1.7715656  0.054162996   -3.2469916     1.475426   359521 
 6978000   0.80593363   -3.2492485   -1.7728136  0.052001371   -3.2492485    1.4764349   359501 
 6979000   0.80796388   -3.2506119   -1.7703753   0.04617447   -3.2506119    1.4802366   359481 
 6980000   0.80349303   -3.2430041   -1.7708765   0.05352548   -3.2430041    1.4721277   359461 
 6981000    0.8052095     -3.24596   -1.7706055  0.050115661     -3.24596    1.4753546   359441 
 6982000   0.80483036   -3.2468565   -1.7721145  0.054108438   -3.2468565    1.4747419   359421 
 6983000    0.8052772   -3.2487855   -1.7731427   0.04773282   -3.2487855    1.4756428   359401 
 6984000   0.80469963   -3.2477187   -1.7730522  0.047984885   -3.2477187    1.4746665   359381 
 6985000   0.80583218   -3.2498558   -1.7730316  0.047036713   -3.2498558    1.4768242   359361 
 6986000    0.8058072   -3.2498029   -1.7729423   0.05314699   -3.2498029    1.4768606   359341 
 6987000   0.80486481   -3.2479566    -1.772741  0.050346543   -3.2479566    1.4752155   359321 
 6988000   0.80327192   -3.2459573   -1.7735794  0.048232753   -3.2459573    1.4723779   359301 
 6989000   0.80420061   -3.2489255   -1.7747633  0.048807445   -3.2489255    1.4741622   359281 
 6990000   0.80293951   -3.2457547   -1.7738222  0.050479223   -3.2457547    1.4719325   359261 
 6991000   0.80509142    -3.249321   -1.7733616  0.052709283    -3.249321    1.4759595   359241 
 6992000   0.80423312   -3.2488663   -1.7743983   0.05358864   -3.2488663    1.4744681   359221 
 6993000   0.80547677   -3.2502538   -1.7734235  0.045506361   -3.2502538    1.4768304   359201 
 6994000   0.80262884   -3.2471165   -1.7754259  0.053332362   -3.2471165    1.4716907   359181 
 6995000    0.8042825   -3.2504856   -1.7756806   0.05180094   -3.2504856    1.4748049   359161 
 6996000   0.80654601   -3.2539732   -1.7749353   0.05089365   -3.2539732    1.4790379   359141 
 6997000    0.8046644   -3.2501498   -1.7744803  0.055291265   -3.2501498    1.4756696   359121 
 6998000   0.80516739   -3.2506508   -1.7739765   0.05365179   -3.2506508    1.4766742   359101 
 6999000   0.80539304   -3.2517721   -1.7746017  0.049961141   -3.2517721    1.4771703   359081 
 7000000   0.80644772   -3.2546677   -1.7754806   0.04548754   -3.2546677    1.4791871   359061 
 7001000   0.80460403   -3.2516797   -1.7757921  0.048417213   -3.2516797    1.4758876   359041 
 7002000   0.80480255   -3.2517021   -1.7753681  0.051945519   -3.2517021     1.476334   359021 
 7003000   0.80426003   -3.2506015   -1.7751805  0.048240533   -3.2506015     1.475421   359001 
 7004000   0.80467842   -3.2514529   -1.7751821  0.048665714   -3.2514529    1.4762708   358981 
 7005000   0.80578719   -3.2524016   -1.7740143  0.053385648   -3.2524016    1.4783873   358961 
 7006000   0.80435921   -3.2519095   -1.7760599  0.051928851   -3.2519095    1.4758496   358941 
 7007000   0.80410741   -3.2510532   -1.7755834  0.053756874   -3.2510532    1.4754698   358921 
 7008000   0.80317814   -3.2494072   -1.7755604  0.053133759   -3.2494072    1.4738468   358901 
 7009000   0.80335533   -3.2490089   -1.7747548  0.056416568   -3.2490089    1.4742541   358881 
 7010000   0.80411391   -3.2518502   -1.7761218  0.050840255   -3.2518502    1.4757284   358861 
 7011000   0.80346675   -3.2518662   -1.7772433  0.049163619   -3.2518662    1.4746229   358841 
 7012000   0.80244082   -3.2503739   -1.7775518  0.051163105   -3.2503739    1.4728221   358821 
 7013000   0.80360704   -3.2511067   -1.7760619  0.048771279   -3.2511067    1.4750448   358801 
 7014000   0.80267957   -3.2481911   -1.7747666  0.047051445   -3.2481911    1.4734246   358781 
 7015000   0.80310985   -3.2497165   -1.7754199  0.045887154   -3.2497165    1.4742966   358761 
 7016000   0.80196871   -3.2484672   -1.7761834  0.048785153   -3.2484672    1.4722838   358741 
 7017000   0.80242245   -3.2489519   -1.7757529  0.049129102   -3.2489519    1.4731989   358721 
 7018000   0.80192734   -3.2489621   -1.7765901  0.041080829   -3.2489621     1.472372   358701 
 7019000   0.80262431   -3.2484993   -1.7747654  0.048096013   -3.2484993    1.4737339   358681 
 7020000   0.80276815   -3.2490123   -1.7749322  0.048163778   -3.2490123    1.4740802   358661 
 7021000   0.80390372   -3.2481905   -1.7719428  0.051393358   -3.2481905    1.4762477   358641 
 7022000   0.80494802   -3.2512279   -1.7729801  0.045967314   -3.2512279    1.4782478   358621 
 7023000   0.80578324   -3.2524764   -1.7726122  0.050551807   -3.2524764    1.4798642   358601 
 7024000   0.80559665   -3.2513583   -1.7717542  0.048428634   -3.2513583     1.479604   358581 
 7025000   0.80283095   -3.2485494   -1.7739428  0.051214831   -3.2485494    1.4746066   358561 
 7026000   0.80245865   -3.2489012   -1.7748962  0.053878038   -3.2489012     1.474005   358541 
 7027000   0.80354834   -3.2516501   -1.7755611  0.048773545   -3.2516501     1.476089   358521 
 7028000    0.8023658   -3.2495404   -1.7755415  0.048179588   -3.2495404    1.4739989   358501 
 7029000   0.80177842   -3.2499162   -1.7769141   0.04531213   -3.2499162    1.4730021   358481 
 7030000   0.80190782   -3.2491928   -1.7758708  0.050472846   -3.2491928     1.473322   358461 
 7031000   0.80282692   -3.2508456   -1.7757527  0.050422547   -3.2508456    1.4750929   358441 
 7032000   0.80263132   -3.2503366   -1.7755208  0.050610647   -3.2503366    1.4748158   358421 
 7033000   0.80140934   -3.2477314   -1.7750788  0.047077156   -3.2477314    1.4726526   358401 
 7034000   0.80324859   -3.2498674   -1.7737526  0.049230856   -3.2498674    1.4761148   358381 
 7035000   0.80189195   -3.2483598   -1.7746559  0.048439417   -3.2483598    1.4737039   358361 
 7036000    0.8015189   -3.2488804   -1.7757799  0.050551336   -3.2488804    1.4731006   358341 
 7037000   0.80121101   -3.2486576   -1.7760407  0.047910186   -3.2486576    1.4726169   358321 
 7038000   0.80210483   -3.2510768   -1.7767348  0.049403296   -3.2510768     1.474342   358301 
 7039000   0.80221963    -3.250989   -1.7763536  0.048649078    -3.250989    1.4746354   358281 
 7040000    0.8016434   -3.2501752   -1.7765168  0.045810738   -3.2501752    1.4736584   358261 
 7041000   0.80296315    -3.251867   -1.7757001  0.043847345    -3.251867    1.4761669   358241 
 7042000    0.8015969   -3.2484416   -1.7747041  0.045506926   -3.2484416    1.4737375   358221 
 7043000   0.79994614   -3.2470346     -1.77625  0.048912362   -3.2470346    1.4707846   358201 
 7044000   0.80164938   -3.2500886   -1.7760901  0.049795705   -3.2500886    1.4739985   358181 
 7045000   0.80149598   -3.2491338   -1.7753351  0.053070068   -3.2491338    1.4737988   358161 
 7046000   0.80222532   -3.2520692    -1.776847  0.044728277   -3.2520692    1.4752223   358141 
 7047000   0.80206722    -3.250275   -1.7752611  0.051353304    -3.250275    1.4750139   358121 
 7048000   0.80270339   -3.2506279   -1.7743616  0.052953549   -3.2506279    1.4762663   358101 
 7049000   0.80226006   -3.2496995   -1.7741661  0.051972434   -3.2496995    1.4755333   358081 
 7050000   0.80356755   -3.2536241   -1.7756035  0.048527111   -3.2536241    1.4780207   358061 
 7051000   0.80125497   -3.2512659   -1.7774165  0.049626965   -3.2512659    1.4738494   358041 
 7052000   0.80188534   -3.2521804   -1.7770891  0.043033616   -3.2521804    1.4750913   358021 
 7053000   0.80189097   -3.2520372   -1.7768531  0.048527609   -3.2520372    1.4751841   358001 
 7054000   0.80110931   -3.2510432   -1.7772148  0.052629754   -3.2510432    1.4738284   357981 
 7055000   0.80164373   -3.2522501   -1.7773561  0.050234727   -3.2522501     1.474894   357961 
 7056000   0.80209361   -3.2508591   -1.7750549  0.054250113   -3.2508591    1.4758042   357941 
 7057000   0.80128695   -3.2499665   -1.7755641  0.052939268   -3.2499665    1.4744024   357921 
 7058000     0.801636   -3.2502168   -1.7750898   0.05289787   -3.2502168    1.4751271   357901 
 7059000   0.80164998   -3.2517307   -1.7764955  0.048754382   -3.2517307    1.4752352   357881 
 7060000    0.8011459     -3.25194     -1.77755  0.046772674     -3.25194      1.47439   357861 
 7061000   0.79913386   -3.2482316   -1.7774622  0.049797478   -3.2482316    1.4707693   357841 
 7062000   0.80063307   -3.2497295   -1.7761186  0.044736136   -3.2497295    1.4736109   357821 
 7063000   0.79998764   -3.2477996   -1.7752943  0.049237805   -3.2477996    1.4725053   357801 
 7064000   0.79939056   -3.2489835    -1.777495  0.047161201   -3.2489835    1.4714885   357781 
 7065000   0.80056148   -3.2490906   -1.7753643  0.046720978   -3.2490906    1.4737263   357761 
 7066000   0.80137137   -3.2512098   -1.7759101  0.044907586   -3.2512098    1.4752996   357741 
 7067000   0.80069493   -3.2507063   -1.7765695   0.05372025   -3.2507063    1.4741368   357721 
 7068000    0.8005979   -3.2512184   -1.7771778  0.049106558   -3.2512184    1.4740405   357701 
 7069000   0.79948007   -3.2470528   -1.7749881  0.053469738   -3.2470528    1.4720647   357681 
 7070000    0.8008829   -3.2517399   -1.7770098  0.049897059   -3.2517399    1.4747302   357661 
 7071000   0.80098141   -3.2503188   -1.7753247    0.0460702   -3.2503188    1.4749941   357641 
 7072000   0.79923258   -3.2477398   -1.7758839  0.049145021   -3.2477398    1.4718559   357621 
 7073000   0.79980285   -3.2496154   -1.7766269  0.050539663   -3.2496154    1.4729885   357601 
 7074000   0.80020692   -3.2490982   -1.7752831  0.052104561   -3.2490982    1.4738151   357581 
 7075000   0.79947814   -3.2485554   -1.7760002  0.053063861   -3.2485554    1.4725552   357561 
 7076000   0.80031462   -3.2495338   -1.7753555  0.048099036   -3.2495338    1.4741784   357541 
 7077000   0.80053716   -3.2504883   -1.7758175  0.048994076   -3.2504883    1.4746708   357521 
 7078000   0.80038271   -3.2496511   -1.7751824  0.049582215   -3.2496511    1.4744687   357501 
 7079000   0.80095713   -3.2514235    -1.775814    0.0480476   -3.2514235    1.4756095   357481 
 7080000   0.80092329   -3.2504349   -1.7748052  0.047582697   -3.2504349    1.4756297   357461 
 7081000   0.79996088    -3.248197    -1.774258  0.050832554    -3.248197     1.473939   357441 
 7082000   0.79884078   -3.2463637   -1.7744061  0.050962642   -3.2463637    1.4719576   357421 
 7083000     0.800797    -3.249413   -1.7737683  0.054389513    -3.249413    1.4756447   357401 
 7084000   0.80230669   -3.2508376   -1.7723282  0.054141037   -3.2508376    1.4785094   357381 
 7085000   0.80038035   -3.2477247   -1.7726827  0.052975189   -3.2477247     1.475042   357361 
 7086000   0.80102439   -3.2493343   -1.7730228  0.052149533   -3.2493343    1.4763116   357341 
 7087000    0.8001685   -3.2471371   -1.7723204  0.053551692   -3.2471371    1.4748167   357321 
 7088000   0.80076568   -3.2483022   -1.7723022  0.047498007   -3.2483022        1.476   357301 
 7089000   0.79982326   -3.2459352   -1.7715898  0.051728468   -3.2459352    1.4743454   357281 
 7090000   0.80019696    -3.247927   -1.7728102  0.054007141    -3.247927    1.4751168   357261 
 7091000   0.80088843   -3.2504628   -1.7739886  0.043313045   -3.2504628    1.4764742   357241 
 7092000   0.79904627     -3.24632   -1.7731595  0.044783313     -3.24632    1.4731605   357221 
 7093000   0.80054836   -3.2472156   -1.7712031  0.048133054   -3.2472156    1.4760125   357201 
 7094000   0.80089847   -3.2459889   -1.7692481  0.046113479   -3.2459889    1.4767407   357181 
 7095000   0.79970272   -3.2433606   -1.7687421  0.047068344   -3.2433606    1.4746185   357161 
 7096000   0.80018443    -3.243863   -1.7682736  0.044939572    -3.243863    1.4755894   357141 
 7097000   0.80073082   -3.2437631   -1.7670835  0.051261334   -3.2437631    1.4766796   357121 
 7098000   0.79969338     -3.24322   -1.7683709  0.050837637     -3.24322     1.474849   357101 
 7099000   0.79953087   -3.2430757   -1.7684438  0.054986263   -3.2430757    1.4746319   357081 
 7100000   0.79908895   -3.2425941   -1.7686948  0.047963243   -3.2425941    1.4738994   357061 
 7101000   0.79775626   -3.2414292   -1.7699055  0.050082178   -3.2414292    1.4715237   357041 
 7102000   0.79778952   -3.2427521   -1.7710846  0.049346045   -3.2427521    1.4716675   357021 
 7103000   0.79680639   -3.2406009   -1.7706646  0.046330078   -3.2406009    1.4699363   357001 
 7104000   0.79834656   -3.2432624   -1.7704023  0.041918326   -3.2432624    1.4728601   356981 
 7105000   0.79840483   -3.2438736   -1.7708235  0.046657874   -3.2438736    1.4730501   356961 
 7106000   0.79687371   -3.2419471   -1.7716395  0.049425672   -3.2419471    1.4703076   356941 
 7107000   0.79896618   -3.2447811   -1.7705301  0.050059914   -3.2447811     1.474251   356921 
 7108000   0.79799025   -3.2408583   -1.7683256  0.053610621   -3.2408583    1.4725327   356901 
 7109000   0.79965827   -3.2441495   -1.7684561  0.051228175   -3.2441495    1.4756934   356881 
 7110000   0.80043809   -3.2467283   -1.7695131  0.047073848   -3.2467283    1.4772153   356861 
 7111000   0.79876538   -3.2431001   -1.7688892  0.051435048   -3.2431001    1.4742109   356841 
 7112000    0.8009021   -3.2460062   -1.7677689  0.053277175   -3.2460062    1.4782373   356821 
 7113000   0.79915579   -3.2438033   -1.7687065  0.044599671   -3.2438033    1.4750968   356801 
 7114000   0.79881913   -3.2434489   -1.7688908  0.047730242   -3.2434489     1.474558   356781 
 7115000    0.7985058   -3.2446464   -1.7705841  0.050288956   -3.2446464    1.4740623   356761 
 7116000    0.7991666   -3.2451047   -1.7697399   0.04793639   -3.2451047    1.4753649   356741 
 7117000   0.79856325   -3.2446494   -1.7703158  0.048794723   -3.2446494    1.4743336   356721 
 7118000   0.79782697   -3.2421995   -1.7691426  0.046023617   -3.2421995    1.4730569   356701 
 7119000   0.79948267    -3.244804   -1.7686074  0.047698496    -3.244804    1.4761966   356681 
 7120000   0.79877628   -3.2432726   -1.7682976  0.051997291   -3.2432726     1.474975   356661 
 7121000   0.79900637   -3.2448256    -1.769343  0.046250205   -3.2448256    1.4754826   356641 
 7122000   0.79808702   -3.2434949   -1.7696274  0.049704944   -3.2434949    1.4738676   356621 
 7123000   0.79848599   -3.2428565   -1.7681694  0.048401237   -3.2428565    1.4746871   356601 
 7124000   0.79881627   -3.2428585   -1.7674787  0.048149884   -3.2428585    1.4753798   356581 
 7125000   0.79891865   -3.2423855   -1.7667338  0.042961366   -3.2423855    1.4756517   356561 
 7126000   0.79925405   -3.2445268   -1.7681728  0.046981387   -3.2445268     1.476354   356541 
 7127000   0.79846197   -3.2442579   -1.7692843  0.050035512   -3.2442579    1.4749736   356521 
 7128000   0.79883768   -3.2435472   -1.7677968  0.047900385   -3.2435472    1.4757504   356501 
 7129000   0.79785454   -3.2432366   -1.7692197  0.051979103   -3.2432366    1.4740169   356481 
 7130000   0.79951048   -3.2448342   -1.7676751  0.049451513   -3.2448342    1.4771591   356461 
 7131000   0.79906833   -3.2448363   -1.7684112  0.051871384   -3.2448363     1.476425   356441 
 7132000   0.79862949   -3.2443275   -1.7686305  0.051330231   -3.2443275     1.475697   356421 
 7133000   0.79816916   -3.2427268   -1.7677977  0.047790161   -3.2427268    1.4749292   356401 
 7134000   0.79812309   -3.2414928    -1.766566  0.048790946   -3.2414928    1.4749268   356381 
 7135000    0.7987673    -3.242549   -1.7663489  0.048722862    -3.242549    1.4762001   356361 
 7136000   0.79750391   -3.2431199   -1.7691719   0.04864742   -3.2431199     1.473948   356341 
 7137000   0.79577797    -3.238666   -1.7678253  0.045512613    -3.238666    1.4708407   356321 
 7138000   0.79670564    -3.241375    -1.768737  0.047637014    -3.241375    1.4726379   356301 
 7139000   0.79732762   -3.2417196   -1.7678492  0.051891137   -3.2417196    1.4738703   356281 
 7140000   0.79857595   -3.2446624   -1.7684016  0.047071596   -3.2446624    1.4762608   356261 
 7141000   0.79747467   -3.2433137    -1.769006  0.048937523   -3.2433137    1.4743077   356241 
 7142000    0.7970735   -3.2415094   -1.7678606  0.045328858   -3.2415094    1.4736488   356221 
 7143000   0.79846539   -3.2422096   -1.7659046  0.048139262   -3.2422096     1.476305   356201 
 7144000    0.7983715    -3.241265   -1.7650507  0.051192649    -3.241265    1.4762143   356181 
 7145000   0.79834996   -3.2427756   -1.7665182  0.047769699   -3.2427756    1.4762574   356161 
 7146000   0.79653324   -3.2385494   -1.7655687  0.048294004   -3.2385494    1.4729807   356141 
 7147000    0.7972053   -3.2402449   -1.7659386   0.05115216   -3.2402449    1.4743063   356121 
 7148000   0.79854837   -3.2398214   -1.7629483  0.050497824   -3.2398214    1.4768731   356101 
 7149000   0.79788476   -3.2404888   -1.7647602  0.048147197   -3.2404888    1.4757286   356081 
 7150000   0.79966236   -3.2445738   -1.7654744  0.043301653   -3.2445738    1.4790995   356061 
 7151000   0.79840624   -3.2437414   -1.7668824  0.047705753   -3.2437414     1.476859   356041 
 7152000   0.79800921    -3.242573   -1.7663655  0.052546789    -3.242573    1.4762075   356021 
 7153000   0.79628623   -3.2384619   -1.7653589  0.045803883   -3.2384619     1.473103   356001 
 7154000   0.79634086   -3.2401903   -1.7669035  0.050369778   -3.2401903    1.4732869   355981 
 7155000   0.79535011   -3.2385329   -1.7669963   0.05484295   -3.2385329    1.4715366   355961 
 7156000   0.79597983   -3.2405145   -1.7677301  0.045568046   -3.2405145    1.4727844   355941 
 7157000   0.79599371   -3.2396518    -1.766759  0.048813415   -3.2396518    1.4728929   355921 
 7158000   0.79467611    -3.237355   -1.7668176  0.045996165    -3.237355    1.4705374   355901 
 7159000   0.79547608   -3.2395546   -1.7674541  0.046599677   -3.2395546    1.4721005   355881 
 7160000   0.79583295   -3.2399503   -1.7671067  0.045310695   -3.2399503    1.4728437   355861 
 7161000   0.79676699   -3.2418714   -1.7672163  0.042832506   -3.2418714    1.4746552   355841 
 7162000   0.79729783   -3.2415107   -1.7657901  0.054913368   -3.2415107    1.4757206   355821 
 7163000   0.79756489    -3.241306   -1.7650082  0.050019077    -3.241306    1.4762979   355801 
 7164000   0.79714608   -3.2414308   -1.7658252  0.053203853   -3.2414308    1.4756056   355781 
 7165000   0.79891305    -3.243584   -1.7646244  0.052043038    -3.243584    1.4789596   355761 
 7166000    0.7990065    -3.244658   -1.7654423  0.052710891    -3.244658    1.4792157   355741 
 7167000   0.79796457   -3.2415311   -1.7641613  0.050264355   -3.2415311    1.4773699   355721 
 7168000   0.79674162   -3.2410277    -1.765839  0.050870126   -3.2410277    1.4751886   355701 
 7169000   0.79781423   -3.2421686   -1.7649109  0.054296542   -3.2421686    1.4772576   355681 
 7170000   0.79616762   -3.2378466    -1.763555  0.052223102   -3.2378466    1.4742916   355661 
 7171000   0.79599697   -3.2385705    -1.764512  0.056093473   -3.2385705    1.4740585   355641 
 7172000   0.79665451   -3.2399468   -1.7645876  0.047172058   -3.2399468    1.4753591   355621 
 7173000   0.79746487    -3.241822   -1.7648791  0.047376483    -3.241822     1.476943   355601 
 7174000   0.79627037    -3.239116   -1.7643024  0.053032184    -3.239116    1.4748136   355581 
 7175000   0.79733837   -3.2428441   -1.7659693  0.049678964   -3.2428441    1.4768748   355561 
 7176000   0.79677132   -3.2418353   -1.7659278  0.050817544   -3.2418353    1.4759075   355541 
 7177000   0.79581117   -3.2397721   -1.7655602  0.049378334   -3.2397721    1.4742119   355521 
 7178000   0.79551065   -3.2389917   -1.7652537  0.049558072   -3.2389917    1.4737381   355501 
 7179000   0.79487162   -3.2372949   -1.7646579  0.048426551   -3.2372949    1.4726371   355481 
 7180000   0.79580674   -3.2381196   -1.7636671  0.051439024   -3.2381196    1.4744525   355461 
 7181000    0.7952351   -3.2377491   -1.7642728  0.048023626   -3.2377491    1.4734763   355441 
 7182000   0.79473063   -3.2358998   -1.7632754  0.050329862   -3.2358998    1.4726244   355421 
 7183000   0.79670546   -3.2393113   -1.7629445  0.041271545   -3.2393113    1.4763668   355401 
 7184000   0.79455524   -3.2366225   -1.7641573  0.047671569   -3.2366225    1.4724651   355381 
 7185000   0.79467573   -3.2363437   -1.7635724  0.047892263   -3.2363437    1.4727713   355361 
 7186000    0.7948423   -3.2386727   -1.7655097  0.045471729   -3.2386727    1.4731629   355341 
 7187000   0.79586764   -3.2405184   -1.7653721  0.048558559   -3.2405184    1.4751463   355321 
 7188000   0.79546428   -3.2382444   -1.7637627  0.049742319   -3.2382444    1.4744817   355301 
 7189000   0.79514287    -3.237465   -1.7634961  0.047548851    -3.237465    1.4739689   355281 
 7190000    0.7965383   -3.2404859   -1.7638472  0.043877989   -3.2404859    1.4766387   355261 
 7191000   0.79611483   -3.2399388    -1.764002   0.05046551   -3.2399388    1.4759368   355241 
 7192000   0.79492565    -3.238245   -1.7644299  0.048191189    -3.238245    1.4738151   355221 
 7193000   0.79583602   -3.2404576   -1.7648715  0.049620734   -3.2404576    1.4755861   355201 
 7194000   0.79647515   -3.2411096   -1.7642553  0.050979689   -3.2411096    1.4768543   355181 
 7195000   0.79708633   -3.2410399   -1.7629691  0.048703397   -3.2410399    1.4780707   355161 
 7196000   0.79757759   -3.2433908   -1.7643258  0.057735761   -3.2433908     1.479065   355141 
 7197000   0.79653747   -3.2422881   -1.7650687  0.050966928   -3.2422881    1.4772193   355121 
 7198000   0.79646429   -3.2415889   -1.7644221   0.05059136   -3.2415889    1.4771668   355101 
 7199000    0.7954041   -3.2416223   -1.7663386  0.053801514   -3.2416223    1.4752836   355081 
 7200000   0.79665604   -3.2431048   -1.7654159  0.056563289   -3.2431048    1.4776889   355061 
 7201000   0.79695999   -3.2442638   -1.7659279  0.046560856   -3.2442638     1.478336   355041 
 7202000   0.79646781   -3.2435774   -1.7660712   0.05112692   -3.2435774    1.4775062   355021 
 7203000   0.79484972   -3.2411859   -1.7665983  0.052628491   -3.2411859    1.4745876   355001 
 7204000   0.79561992   -3.2425536   -1.7664539  0.047023923   -3.2425536    1.4760996   354981 
 7205000   0.79557792   -3.2416877   -1.7655828  0.052801719   -3.2416877    1.4761049   354961 
 7206000   0.79363736   -3.2408363    -1.768249  0.046981198   -3.2408363    1.4725874   354941 
 7207000   0.79406654   -3.2416015   -1.7681348  0.053652694   -3.2416015    1.4734667   354921 
 7208000   0.79596696   -3.2416016   -1.7645252  0.048764274   -3.2416016    1.4770764   354901 
 7209000   0.79397271   -3.2373892   -1.7639305  0.050416465   -3.2373892    1.4734587   354881 
 7210000    0.7958683   -3.2399173   -1.7628576  0.050011614   -3.2399173    1.4770598   354861 
 7211000   0.79451497   -3.2374172    -1.762786  0.054365883   -3.2374172    1.4746312   354841 
 7212000   0.79709781   -3.2424811   -1.7629727  0.050685413   -3.2424811    1.4795084   354821 
 7213000   0.79626723   -3.2415147   -1.7634647  0.049432521   -3.2415147      1.47805   354801 
 7214000   0.79475289   -3.2382333   -1.7629111  0.054353018   -3.2382333    1.4753223   354781 
 7215000   0.79520573   -3.2392867   -1.7630406  0.046039313   -3.2392867    1.4762461   354761 
 7216000   0.79353123   -3.2368311   -1.7636106  0.049077318   -3.2368311    1.4732206   354741 
 7217000   0.79324979   -3.2368877   -1.7641066  0.049001929   -3.2368877    1.4727811   354721 
 7218000   0.79306072   -3.2362189   -1.7637058  0.045911162   -3.2362189    1.4725131   354701 
 7219000   0.79445579   -3.2385988   -1.7634122  0.047667355   -3.2385988    1.4751865   354681 
 7220000   0.79247934    -3.235821   -1.7642215  0.046226166    -3.235821    1.4715995   354661 
 7221000   0.79471941   -3.2387703   -1.7629278  0.048780065   -3.2387703    1.4758425   354641 
 7222000   0.79286378   -3.2360014   -1.7635219  0.047430644   -3.2360014    1.4724795   354621 
 7223000   0.79453318   -3.2370767   -1.7614136  0.051787705   -3.2370767    1.4756631   354601 
 7224000   0.79511565   -3.2394376   -1.7626094   0.04704429   -3.2394376    1.4768282   354581 
 7225000   0.79373526   -3.2369825   -1.7626351   0.04638537   -3.2369825    1.4743474   354561 
 7226000   0.79458922    -3.238704   -1.7626871  0.049192991    -3.238704    1.4760169   354541 
 7227000   0.79141243   -3.2344619   -1.7642632  0.049730214   -3.2344619    1.4701987   354521 
 7228000   0.79357231   -3.2367073   -1.7624131  0.046214944   -3.2367073    1.4742943   354501 
 7229000    0.7938887   -3.2376797   -1.7627144   0.04688911   -3.2376797    1.4749653   354481 
 7230000   0.79357208   -3.2376057   -1.7631455  0.045674402   -3.2376057    1.4744602   354461 
 7231000   0.79328861   -3.2361487    -1.762132  0.051009603   -3.2361487    1.4740167   354441 
 7232000   0.79511176   -3.2394896   -1.7620019  0.049487183   -3.2394896    1.4774877   354421 
 7233000   0.79405944   -3.2406144   -1.7649989  0.047802039   -3.2406144    1.4756155   354401 
 7234000   0.79579991   -3.2435471   -1.7646138  0.049935191   -3.2435471    1.4789333   354381 
 7235000   0.79583429   -3.2421198   -1.7630391  0.056563334   -3.2421198    1.4790807   354361 
 7236000   0.79436809   -3.2390582   -1.7626192  0.044841487   -3.2390582     1.476439   354341 
 7237000   0.79291828    -3.238159   -1.7643315  0.053737958    -3.238159    1.4738275   354321 
 7238000   0.79332219   -3.2400806    -1.765419  0.051231547   -3.2400806    1.4746615   354301 
 7239000   0.79354462    -3.239427   -1.7642687  0.053064471    -3.239427    1.4751583   354281 
 7240000   0.79415369   -3.2399165   -1.7635427  0.057918415   -3.2399165    1.4763739   354261 
 7241000   0.79698083   -3.2434854   -1.7617721  0.056693106   -3.2434854    1.4817133   354241 
 7242000   0.79594964   -3.2427859   -1.7629062  0.050898568   -3.2427859    1.4798797   354221 
 7243000   0.79463631    -3.242413   -1.7648917  0.055409962    -3.242413    1.4775213   354201 
 7244000   0.79521058    -3.242404   -1.7637314  0.051660928    -3.242404    1.4786726   354181 
 7245000   0.79473534   -3.2425572   -1.7646849  0.049385287   -3.2425572    1.4778723   354161 
 7246000   0.79307839    -3.240017   -1.7651426  0.052598918    -3.240017    1.4748744   354141 
 7247000   0.79043432   -3.2366397   -1.7665994  0.046201114   -3.2366397    1.4700403   354121 
 7248000   0.79062878   -3.2363762   -1.7658912  0.048784579   -3.2363762     1.470485   354101 
 7249000   0.79081166   -3.2372815   -1.7663733  0.048960992   -3.2372815    1.4709082   354081 
 7250000   0.79152423   -3.2370815   -1.7647647  0.042697752   -3.2370815    1.4723168   354061 
 7251000   0.79183173    -3.236338   -1.7633661   0.05007775    -3.236338    1.4729719   354041 
 7252000   0.79156721   -3.2378003   -1.7652372  0.048518105   -3.2378003    1.4725631   354021 
 7253000   0.79121144   -3.2359442   -1.7639598  0.051094806   -3.2359442    1.4719844   354001 
 7254000   0.79309222    -3.239408   -1.7638412  0.046817853    -3.239408    1.4755668   353981 
 7255000   0.79304251   -3.2379359   -1.7623782  0.048695479   -3.2379359    1.4755577   353961 
 7256000   0.79366661   -3.2386929   -1.7618906  0.048012709   -3.2386929    1.4768023   353941 
 7257000   0.79291515   -3.2379642   -1.7624767  0.050947842   -3.2379642    1.4754874   353921 
 7258000   0.79354606   -3.2389032   -1.7621583  0.051673371   -3.2389032    1.4767449   353901 
 7259000   0.79313744   -3.2396356   -1.7635677  0.046803986   -3.2396356    1.4760679   353881 
 7260000   0.79263198   -3.2391325   -1.7639219  0.050191779   -3.2391325    1.4752106   353861 
 7261000   0.79107622     -3.23482   -1.7624217  0.051865184     -3.23482    1.4723983   353841 
 7262000   0.79220111   -3.2369943   -1.7624189  0.053750007   -3.2369943    1.4745754   353821 
 7263000   0.79318119   -3.2397576   -1.7632745  0.047060359   -3.2397576    1.4764831   353801 
 7264000   0.79237854   -3.2377966   -1.7627242  0.049431008   -3.2377966    1.4750724   353781 
 7265000   0.79302472   -3.2396907    -1.763332  0.044414934   -3.2396907    1.4763587   353761 
 7266000   0.79345323   -3.2402145   -1.7629745  0.046758738   -3.2402145      1.47724   353741 
 7267000    0.7921521   -3.2385341   -1.7636331  0.046297597   -3.2385341     1.474901   353721 
 7268000    0.7920614    -3.237486   -1.7626705  0.051106668    -3.237486    1.4748155   353701 
 7269000   0.79232593   -3.2392839   -1.7638925  0.049456324   -3.2392839    1.4753915   353681 
 7270000   0.79144124   -3.2388033   -1.7649758  0.046626353   -3.2388033    1.4738274   353661 
 7271000   0.79151809   -3.2364372   -1.7623833  0.050921507   -3.2364372    1.4740539   353641 
 7272000   0.79194466   -3.2377719   -1.7628401  0.046165576   -3.2377719    1.4749317   353621 
 7273000   0.79159622   -3.2374899   -1.7631238  0.045993576   -3.2374899    1.4743662   353601 
 7274000   0.79257797   -3.2385749   -1.7622967  0.049252906   -3.2385749    1.4762782   353581 
 7275000    0.7925378   -3.2379193   -1.7616324  0.053316716   -3.2379193    1.4762869   353561 
 7276000   0.79262071   -3.2405876   -1.7640628  0.050385486   -3.2405876    1.4765249   353541 
 7277000   0.78940521   -3.2346486   -1.7640305  0.053209132   -3.2346486    1.4706181   353521 
 7278000   0.79239678    -3.240388   -1.7641133  0.051512876    -3.240388    1.4762747   353501 
 7279000   0.79264623   -3.2405549   -1.7637319  0.048814953   -3.2405549     1.476823   353481 
 7280000    0.7910169   -3.2391121   -1.7652414  0.053347209   -3.2391121    1.4738707   353461 
 7281000   0.79056552   -3.2384817   -1.7653687  0.044995989   -3.2384817     1.473113   353441 
 7282000   0.79146843   -3.2394127   -1.7645338  0.050651288   -3.2394127    1.4748789   353421 
 7283000   0.79269075   -3.2415903     -1.76435  0.048884212   -3.2415903    1.4772403   353401 
 7284000   0.79055883   -3.2394208   -1.7660701  0.046089652   -3.2394208    1.4733507   353381 
 7285000   0.79193427   -3.2406609   -1.7646633  0.051050975   -3.2406609    1.4759976   353361 
 7286000   0.79130215   -3.2395199    -1.764617  0.048763727   -3.2395199    1.4749029   353341 
 7287000   0.79124205   -3.2405965   -1.7657221  0.044909945   -3.2405965    1.4748744   353321 
 7288000   0.79024722   -3.2377538   -1.7646504  0.047456223   -3.2377538    1.4731034   353301 
 7289000   0.79207289   -3.2427471   -1.7661569  0.049453728   -3.2427471    1.4765903   353281 
 7290000    0.7913943   -3.2419135   -1.7665047  0.048943929   -3.2419135    1.4754088   353261 
 7291000   0.78999509   -3.2400051   -1.7671216  0.055858962   -3.2400051    1.4728836   353241 
 7292000   0.79089342   -3.2408615   -1.7662196  0.052060947   -3.2408615    1.4746419   353221 
 7293000   0.79295637   -3.2448686   -1.7662965  0.051418348   -3.2448686    1.4785721   353201 
 7294000   0.79173381   -3.2412345   -1.7648584  0.051021664   -3.2412345     1.476376   353181 
 7295000   0.79094306     -3.24339    -1.768405  0.046944071     -3.24339     1.474985   353161 
 7296000   0.78981395   -3.2416744   -1.7687115  0.048306181   -3.2416744    1.4729628   353141 
 7297000   0.79116688    -3.242371   -1.7668014  0.047830215    -3.242371    1.4755695   353121 
 7298000    0.7914275   -3.2414821   -1.7653429  0.051069757   -3.2414821    1.4761392   353101 
 7299000   0.79159422    -3.241603   -1.7650692  0.049563484    -3.241603    1.4765338   353081 
 7300000   0.79109632   -3.2418557   -1.7661671  0.049272499   -3.2418557    1.4756887   353061 
 7301000   0.79174742   -3.2411136   -1.7641267  0.050232922   -3.2411136    1.4769869   353041 
 7302000   0.79294473    -3.243431   -1.7641267  0.047636406    -3.243431    1.4793043   353021 
 7303000   0.79125512   -3.2408273   -1.7645915  0.052991947   -3.2408273    1.4762358   353001 
 7304000   0.79188042   -3.2430009   -1.7655148  0.046485593   -3.2430009    1.4774861   352981 
 7305000   0.79146607   -3.2414911   -1.7646944  0.050815305   -3.2414911    1.4767967   352961 
 7306000   0.78995195   -3.2381076   -1.7640526   0.04434108   -3.2381076     1.474055   352941 
 7307000   0.79029071   -3.2396963   -1.7649256  0.045660975   -3.2396963    1.4747707   352921 
 7308000    0.7898873    -3.237573   -1.7634715  0.046766817    -3.237573    1.4741015   352901 
 7309000   0.79016726   -3.2355462   -1.7608387  0.048989191   -3.2355462    1.4747075   352881 
 7310000   0.79065492   -3.2378681   -1.7621669  0.050471952   -3.2378681    1.4757013   352861 
 7311000   0.78957976    -3.233947   -1.7601689  0.055047183    -3.233947    1.4737781   352841 
 7312000   0.78995058   -3.2377755   -1.7632217   0.04892977   -3.2377755    1.4745538   352821 
 7313000   0.78910564   -3.2343078   -1.7612477  0.052948714   -3.2343078    1.4730601   352801 
 7314000   0.79078177   -3.2379731   -1.7617004  0.051111132   -3.2379731    1.4762727   352781 
 7315000   0.78887468   -3.2344099   -1.7616139  0.043236431   -3.2344099     1.472796   352761 
 7316000   0.78976097   -3.2352581   -1.7607239  0.045062047   -3.2352581    1.4745342   352741 
 7317000   0.79015779    -3.235856   -1.7604972  0.050080642    -3.235856    1.4753588   352721 
 7318000   0.79030787   -3.2368871   -1.7611644  0.047362447   -3.2368871    1.4757227   352701 
 7319000    0.7893752   -3.2363108   -1.7622461  0.048170158   -3.2363108    1.4740647   352681 
 7320000   0.78973212    -3.236715   -1.7619002  0.049598424    -3.236715    1.4748148   352661 
 7321000   0.78953551   -3.2375094   -1.7629781  0.049410898   -3.2375094    1.4745313   352641 
 7322000   0.78917564    -3.234261   -1.7603182  0.044472059    -3.234261    1.4739428   352621 
 7323000   0.78937756   -3.2354763   -1.7610728  0.048550744   -3.2354763    1.4744035   352601 
 7324000    0.7897098   -3.2366557   -1.7615479  0.049191459   -3.2366557    1.4751078   352581 
 7325000   0.79021675   -3.2382856   -1.7621471  0.048683346   -3.2382856    1.4761385   352561 
 7326000   0.79166399   -3.2391369    -1.760211  0.047716117   -3.2391369    1.4789258   352541 
 7327000   0.79022587   -3.2362911   -1.7599681  0.054640319   -3.2362911     1.476323   352521 
 7328000   0.79037065   -3.2373898   -1.7607126  0.052031713   -3.2373898    1.4766773   352501 
 7329000    0.7897666   -3.2349073   -1.7592749  0.050589738   -3.2349073    1.4756324   352481 
 7330000   0.78935752   -3.2347705   -1.7598188  0.049862073   -3.2347705    1.4749517   352461 
 7331000   0.79043607   -3.2362072   -1.7591563  0.048317562   -3.2362072    1.4770509   352441 
 7332000   0.79042301   -3.2372643    -1.760154   0.04989927   -3.2372643    1.4771103   352421 
 7333000   0.78966431   -3.2372556   -1.7614794  0.052944326   -3.2372556    1.4757762   352401 
 7334000   0.78922747   -3.2360761   -1.7610325  0.046811152   -3.2360761    1.4750435   352381 
 7335000    0.7900598   -3.2366597   -1.7599767  0.051590545   -3.2366597     1.476683   352361 
 7336000   0.78997897   -3.2367021   -1.7600864  0.047201099   -3.2367021    1.4766157   352341 
 7337000   0.78921738   -3.2344539    -1.759178  0.049053879   -3.2344539    1.4752759   352321 
 7338000   0.78822932   -3.2344647   -1.7609522  0.048317513   -3.2344647    1.4735126   352301 
 7339000   0.78721127   -3.2325126   -1.7608196   0.05209039   -3.2325126     1.471693   352281 
 7340000   0.78829953   -3.2348111       -1.761  0.042939346   -3.2348111    1.4738111   352261 
 7341000   0.78869146   -3.2349603   -1.7603326  0.049480669   -3.2349603    1.4746276   352241 
 7342000   0.78929847   -3.2341655   -1.7583191  0.044235294   -3.2341655    1.4758463   352221 
 7343000   0.79007565   -3.2361002   -1.7587167  0.041760511   -3.2361002    1.4773834   352201 
 7344000   0.78950261   -3.2361828   -1.7597871  0.050872832   -3.2361828    1.4763957   352181 
 7345000   0.78952993   -3.2344641   -1.7579335  0.050194362   -3.2344641    1.4765307   352161 
 7346000   0.78900528   -3.2340317   -1.7583984  0.048416819   -3.2340317    1.4756333   352141 
 7347000   0.79041333   -3.2354733   -1.7571226   0.05368944   -3.2354733    1.4783507   352121 
 7348000   0.78913157    -3.231179   -1.7551419  0.053195432    -3.231179    1.4760372   352101 
 7349000   0.78961279   -3.2328462   -1.7558251  0.050825011   -3.2328462    1.4770212   352081 
 7350000   0.79021008   -3.2339467   -1.7557243  0.049676662   -3.2339467    1.4782224   352061 
 7351000   0.79117781   -3.2330019   -1.7528852  0.047726845   -3.2330019    1.4801168   352041 
 7352000   0.79115301   -3.2349293   -1.7547748  0.048364311   -3.2349293    1.4801545   352021 
 7353000   0.78990429   -3.2339296   -1.7560273  0.049499328   -3.2339296    1.4779022   352001 
 7354000   0.78693329   -3.2288931   -1.7564659   0.04975815   -3.2288931    1.4724272   351981 
 7355000   0.78872535   -3.2314113   -1.7555471  0.046129802   -3.2314113    1.4758642   351961 
 7356000   0.78920936   -3.2324164   -1.7555626  0.051267689   -3.2324164    1.4768538   351941 
 7357000   0.78834965   -3.2302217   -1.7548929  0.052906185   -3.2302217    1.4753288   351921 
 7358000   0.78773557    -3.230329   -1.7560656  0.045014118    -3.230329    1.4742634   351901 
 7359000   0.78853422   -3.2309047   -1.7550627  0.051208095   -3.2309047     1.475842   351881 
 7360000   0.78790484   -3.2286106   -1.7538628  0.045676722   -3.2286106    1.4747478   351861 
 7361000   0.78805345   -3.2293394   -1.7542296  0.051752243   -3.2293394    1.4751098   351841 
 7362000   0.78829992   -3.2299008   -1.7542457   0.04608625   -3.2299008    1.4756551   351821 
 7363000   0.78832413   -3.2301667   -1.7543824  0.048974745   -3.2301667    1.4757843   351801 
 7364000   0.78922023   -3.2313259     -1.75378  0.047835907   -3.2313259    1.4775458   351781 
 7365000   0.79017154   -3.2324656   -1.7530547  0.050501933   -3.2324656    1.4794109   351761 
 7366000   0.78875478    -3.231449   -1.7546066  0.049161895    -3.231449    1.4768424   351741 
 7367000   0.78841576   -3.2324453   -1.7561537  0.046598068   -3.2324453    1.4762915   351721 
 7368000   0.78851765   -3.2327534   -1.7561871  0.049976212   -3.2327534    1.4765663   351701 
 7369000   0.78901733   -3.2323525   -1.7547665  0.052605879   -3.2323525     1.477586   351681 
 7370000   0.78783266   -3.2310366   -1.7555852  0.051433692   -3.2310366    1.4754514   351661 
 7371000   0.78902015   -3.2339222   -1.7561628  0.046102261   -3.2339222    1.4777594   351641 
 7372000   0.78764923   -3.2311018   -1.7558261  0.046327565   -3.2311018    1.4752757   351621 
 7373000    0.7879068   -3.2309557   -1.7551137  0.051092206   -3.2309557     1.475842   351601 
 7374000   0.78875266   -3.2328354   -1.7553249  0.051185298   -3.2328354    1.4775105   351581 
 7375000   0.78733405   -3.2319137   -1.7569767    0.0478829   -3.2319137     1.474937   351561 
 7376000    0.7897384   -3.2352894   -1.7557641  0.051024203   -3.2352894    1.4795253   351541 
 7377000   0.78861317    -3.233051   -1.7555496  0.052020857    -3.233051    1.4775013   351521 
 7378000   0.78820387   -3.2339694   -1.7571509  0.053465237   -3.2339694    1.4768185   351501 
 7379000    0.7881117   -3.2336417   -1.7569119  0.051953969   -3.2336417    1.4767299   351481 
 7380000   0.78671928   -3.2329476   -1.7587429  0.048108915   -3.2329476    1.4742047   351461 
 7381000   0.78612476    -3.233613   -1.7604386  0.045655745    -3.233613    1.4731745   351441 
 7382000   0.78696754   -3.2340735   -1.7592358   0.04838227   -3.2340735    1.4748377   351421 
 7383000   0.78764286   -3.2350169   -1.7588295   0.04584773   -3.2350169    1.4761873   351401 
 7384000   0.78705347   -3.2350291   -1.7598625  0.044556305   -3.2350291    1.4751667   351381 
 7385000   0.78786734   -3.2342035   -1.7574273  0.052278983   -3.2342035    1.4767762   351361 
 7386000   0.78761896   -3.2348318   -1.7584371  0.051407122   -3.2348318    1.4763946   351341 
 7387000   0.78741177   -3.2350591   -1.7589688  0.048754993   -3.2350591    1.4760903   351321 
 7388000   0.78931696   -3.2376247   -1.7578787  0.052380827   -3.2376247     1.479746   351301 
 7389000   0.78954578   -3.2383123    -1.758053  0.053074252   -3.2383123    1.4802593   351281 
 7390000    0.7875169   -3.2370793   -1.7605398  0.049084233   -3.2370793    1.4765395   351261 
 7391000   0.78744305   -3.2379464   -1.7614612  0.050428791   -3.2379464    1.4764852   351241 
 7392000   0.78799283   -3.2387172   -1.7611171  0.047809766   -3.2387172    1.4776001   351221 
 7393000   0.78619936   -3.2380943   -1.7637732   0.05191944   -3.2380943    1.4743211   351201 
 7394000   0.78745981    -3.239862   -1.7630932   0.05351759    -3.239862    1.4767688   351181 
 7395000   0.78668642   -3.2381931   -1.7627906  0.049948431   -3.2381931    1.4754025   351161 
 7396000   0.78609202   -3.2370914   -1.7627197  0.045837615   -3.2370914    1.4743717   351141 
 7397000   0.78882252   -3.2405082    -1.760931  0.048494053   -3.2405082    1.4795772   351121 
 7398000   0.78719337   -3.2389081   -1.7623025  0.051171693   -3.2389081    1.4766055   351101 
 7399000   0.78846017   -3.2400888   -1.7610227  0.051004652   -3.2400888     1.479066   351081 
 7400000   0.78871364     -3.23821   -1.7585842  0.052238926     -3.23821    1.4796258   351061 
 7401000   0.78809028   -3.2379727    -1.759432  0.052496185   -3.2379727    1.4785406   351041 
 7402000   0.78802772   -3.2373181   -1.7588106  0.048702029   -3.2373181    1.4785075   351021 
 7403000   0.78705167     -3.23687   -1.7601096  0.047589896     -3.23687    1.4767603   351001 
 7404000   0.78750437   -3.2379236   -1.7602296  0.048507826   -3.2379236     1.477694   350981 
 7405000   0.78598869   -3.2350661   -1.7601322  0.050971128   -3.2350661    1.4749339   350961 
 7406000   0.78518661   -3.2344261   -1.7609133    0.0488757   -3.2344261    1.4735128   350941 
 7407000   0.78569214   -3.2357692   -1.7612237  0.052863512   -3.2357692    1.4745455   350921 
 7408000   0.78527054   -3.2351577   -1.7613195  0.044859137   -3.2351577    1.4738383   350901 
 7409000   0.78463591   -3.2338226   -1.7610915  0.046090626   -3.2338226    1.4727311   350881 
 7410000   0.78515395   -3.2339654    -1.760178  0.046772476   -3.2339654    1.4737874   350861 
 7411000   0.78516005   -3.2339889    -1.760106  0.048355562   -3.2339889    1.4738829   350841 
 7412000   0.78461592   -3.2345162   -1.7615707  0.050483064   -3.2345162    1.4729455   350821 
 7413000   0.78551627   -3.2344656   -1.7597459  0.047423794   -3.2344656    1.4747197   350801 
 7414000   0.78653551   -3.2344423   -1.7577249  0.051017291   -3.2344423    1.4767174   350781 
 7415000   0.78518542    -3.232825   -1.7585583  0.047940946    -3.232825    1.4742667   350761 
 7416000   0.78730594   -3.2347467   -1.7564142   0.04574843   -3.2347467    1.4783325   350741 
 7417000   0.78705372   -3.2339469   -1.7560037  0.053171267   -3.2339469    1.4779432   350721 
 7418000   0.78610029   -3.2335871   -1.7573501  0.052871501   -3.2335871     1.476237   350701 
 7419000   0.78477319    -3.231483   -1.7576542  0.051868415    -3.231483    1.4738289   350681 
 7420000   0.78374243   -3.2324586   -1.7604816  0.050704588   -3.2324586     1.471977   350661 
 7421000   0.78359412   -3.2329481   -1.7611657  0.044787698   -3.2329481    1.4717824   350641 
 7422000   0.78391273   -3.2319583   -1.7594935  0.045800609   -3.2319583    1.4724648   350621 
 7423000   0.78441169   -3.2322979   -1.7588118  0.047753563   -3.2322979    1.4734861   350601 
 7424000   0.78548931   -3.2342753   -1.7586808  0.043914341   -3.2342753    1.4755945   350581 
 7425000   0.78602487   -3.2355063   -1.7588214  0.048057093   -3.2355063    1.4766849   350561 
 7426000   0.78515995    -3.234141   -1.7589969  0.049106741    -3.234141    1.4751441   350541 
 7427000    0.7856734   -3.2347069   -1.7585139   0.04969047   -3.2347069     1.476193   350521 
 7428000    0.7845273   -3.2328535   -1.7587298  0.052793699   -3.2328535    1.4741237   350501 
 7429000   0.78535205   -3.2344627   -1.7587051  0.051866667   -3.2344627    1.4757576   350481 
 7430000   0.78437868   -3.2315541   -1.7575415  0.051981003   -3.2315541    1.4740127   350461 
 7431000   0.78607074   -3.2358245   -1.7585478  0.050996247   -3.2358245    1.4772767   350441 
 7432000   0.78526079   -3.2353017   -1.7594629  0.054052574   -3.2353017    1.4758388   350421 
 7433000   0.78494217   -3.2347308   -1.7594067  0.050253917   -3.2347308    1.4753242   350401 
 7434000   0.78405993   -3.2345006   -1.7607505  0.050295533   -3.2345006    1.4737501   350381 
 7435000   0.78396776   -3.2357198   -1.7620589  0.047917792   -3.2357198     1.473661   350361 
 7436000   0.78484115   -3.2379346   -1.7625477  0.049819313   -3.2379346    1.4753869   350341 
 7437000   0.78477395   -3.2374081   -1.7620633  0.051206389   -3.2374081    1.4753448   350321 
 7438000   0.78445714   -3.2376587   -1.7628252   0.05362693   -3.2376587    1.4748334   350301 
 7439000   0.78521246   -3.2387139   -1.7623761  0.047398512   -3.2387139    1.4763378   350281 
 7440000   0.78489405   -3.2391814    -1.763358  0.047183866   -3.2391814    1.4758234   350261 
 7441000   0.78534815    -3.239565   -1.7628034  0.045195436    -3.239565    1.4767615   350241 
 7442000   0.78440584   -3.2379254   -1.7628515  0.049306003   -3.2379254    1.4750739   350221 
 7443000   0.78553102   -3.2395422   -1.7622681  0.050639587   -3.2395422    1.4772741   350201 
 7444000   0.78621254   -3.2406058   -1.7619656  0.052240747   -3.2406058    1.4786402   350181 
 7445000   0.78497652   -3.2404314   -1.7640315  0.053826803   -3.2404314       1.4764   350161 
 7446000   0.78374577   -3.2393985   -1.7652292  0.045968114   -3.2393985    1.4741693   350141 
 7447000   0.78286973   -3.2382933   -1.7656876  0.045345307   -3.2382933    1.4726057   350121 
 7448000     0.782131   -3.2391137   -1.7678135  0.047086654   -3.2391137    1.4713002   350101 
 7449000    0.7835987   -3.2400712   -1.7659259  0.048675476   -3.2400712    1.4741453   350081 
 7450000   0.78301963   -3.2385265   -1.7653864  0.049138254   -3.2385265    1.4731401   350061 
 7451000   0.78441284   -3.2395666   -1.7637211  0.048102165   -3.2395666    1.4758455   350041 
 7452000   0.78314262   -3.2375954   -1.7640555  0.050817356   -3.2375954    1.4735399   350021 
 7453000   0.78478991   -3.2414126   -1.7646889  0.047330175   -3.2414126    1.4767238   350001 
 7454000   0.78424065   -3.2403081   -1.7645336  0.051256818   -3.2403081    1.4757745   349981 
 7455000    0.7834208   -3.2404008   -1.7660848  0.048043223   -3.2404008     1.474316   349961 
 7456000   0.78391319   -3.2402148   -1.7648879  0.050188062   -3.2402148     1.475327   349941 
 7457000    0.7832076    -3.239029   -1.7649457  0.044907416    -3.239029    1.4740833   349921 
 7458000   0.78313335   -3.2387066   -1.7646788  0.050775436   -3.2387066    1.4740278   349901 
 7459000   0.78175266   -3.2361676   -1.7646544  0.049974711   -3.2361676    1.4715131   349881 
 7460000   0.78295189   -3.2375876   -1.7637329  0.045475342   -3.2375876    1.4738547   349861 
 7461000   0.78378833   -3.2390914   -1.7635778  0.050755245   -3.2390914    1.4755136   349841 
 7462000    0.7831713   -3.2378041   -1.7633678  0.051052046   -3.2378041    1.4744363   349821 
 7463000   0.78368615   -3.2394598   -1.7639698  0.050105611   -3.2394598      1.47549   349801 
 7464000   0.78293601   -3.2366274   -1.7624655  0.047522297   -3.2366274    1.4741619   349781 
 7465000    0.7828511   -3.2365909   -1.7625046  0.049252004   -3.2365909    1.4740863   349761 
 7466000   0.78120801   -3.2350324   -1.7639559  0.049718525   -3.2350324    1.4710765   349741 
 7467000   0.78206286   -3.2379841   -1.7652135  0.048762662   -3.2379841    1.4727705   349721 
 7468000   0.78305356   -3.2383019   -1.7635813  0.048592822   -3.2383019    1.4747205   349701 
 7469000   0.78264139   -3.2383502   -1.7643216  0.044277081   -3.2383502    1.4740286   349681 
 7470000   0.78169335   -3.2378262    -1.765499  0.046996052   -3.2378262    1.4723273   349661 
 7471000   0.78244478   -3.2378312   -1.7640043  0.048427979   -3.2378312    1.4738269   349641 
 7472000   0.78182322   -3.2367827   -1.7640423  0.049362014   -3.2367827    1.4727404   349621 
 7473000   0.78313032   -3.2393104   -1.7640234  0.048788416   -3.2393104     1.475287   349601 
 7474000   0.78180917   -3.2375339   -1.7646515  0.047301037   -3.2375339    1.4728824   349581 
 7475000   0.78151324   -3.2375596   -1.7651505  0.052468751   -3.2375596    1.4724091   349561 
 7476000   0.78320184   -3.2393448   -1.7636699   0.04847863   -3.2393448    1.4756749   349541 
 7477000   0.78180772   -3.2363663   -1.7632338  0.052194735   -3.2363663    1.4731325   349521 
 7478000   0.78454147   -3.2415053   -1.7631371  0.047321361   -3.2415053    1.4783682   349501 
 7479000   0.78346766   -3.2405878   -1.7641585  0.054491645   -3.2405878    1.4764292   349481 
 7480000   0.78286386   -3.2389046   -1.7635288  0.050673842   -3.2389046    1.4753758   349461 
 7481000   0.78331427   -3.2392118   -1.7629026  0.046799276   -3.2392118    1.4763091   349441 
 7482000   0.78354514   -3.2390555   -1.7622267  0.055861875   -3.2390555    1.4768288   349421 
 7483000   0.78291291   -3.2388095   -1.7630878  0.055340405   -3.2388095    1.4757216   349401 
 7484000   0.78435358   -3.2404946   -1.7619728  0.053085971   -3.2404946    1.4785218   349381 
 7485000   0.78185059   -3.2356676   -1.7617796  0.049121494   -3.2356676     1.473888   349361 
 7486000   0.78334498   -3.2383514   -1.7615617  0.050546303   -3.2383514    1.4767896   349341 
 7487000   0.78343605    -3.237884   -1.7608381  0.052924724    -3.237884    1.4770459   349321 
 7488000   0.78381745   -3.2391381   -1.7612885  0.052409693   -3.2391381    1.4778496   349301 
 7489000   0.78247062   -3.2366382   -1.7612435  0.053584225   -3.2366382    1.4753947   349281 
 7490000   0.78121273    -3.233866   -1.7607588  0.049364629    -3.233866    1.4731072   349261 
 7491000   0.78055689   -3.2323273   -1.7603725  0.046788424   -3.2323273    1.4719548   349241 
 7492000   0.78232778   -3.2347131   -1.7593343  0.045270313   -3.2347131    1.4753788   349221 
 7493000   0.78106294   -3.2329477     -1.75987  0.049931002   -3.2329477    1.4730778   349201 
 7494000   0.78091391   -3.2321613   -1.7592802  0.053088389   -3.2321613    1.4728811   349181 
 7495000   0.78253085   -3.2341595   -1.7581441  0.049782517   -3.2341595    1.4760154   349161 
 7496000   0.78171978   -3.2316392   -1.7570692  0.049618629   -3.2316392      1.47457   349141 
 7497000   0.78113973   -3.2316734   -1.7581132  0.049627811   -3.2316734    1.4735602   349121 
 7498000   0.78055852   -3.2316384   -1.7590902  0.049957972   -3.2316384    1.4725482   349101 
 7499000   0.78066445   -3.2300932   -1.7572608  0.049085078   -3.2300932    1.4728324   349081 
 7500000   0.78197475   -3.2321353   -1.7567463  0.043841014   -3.2321353     1.475389   349061 
 7501000    0.7812326   -3.2315901   -1.7575169  0.050695613   -3.2315901    1.4740732   349041 
 7502000    0.7799229   -3.2303267   -1.7586405  0.049460435   -3.2303267    1.4716863   349021 
 7503000   0.78038757   -3.2305831   -1.7579356  0.051886261   -3.2305831    1.4726475   349001 
 7504000   0.78162633   -3.2325407    -1.757471  0.050171863   -3.2325407    1.4750697   348981 
 7505000   0.78224295   -3.2328225   -1.7565045  0.051996664   -3.2328225    1.4763179   348961 
 7506000   0.78217953   -3.2317341   -1.7554513  0.047652658   -3.2317341    1.4762829   348941 
 7507000   0.78367198   -3.2354273   -1.7562428  0.050764772   -3.2354273    1.4791845   348921 
 7508000   0.78197209   -3.2333758   -1.7573153  0.053018446   -3.2333758    1.4760605   348901 
 7509000   0.78208337   -3.2334209   -1.7570656   0.05288305   -3.2334209    1.4763552   348881 
 7510000   0.78192273   -3.2323318   -1.7561952  0.050931262   -3.2323318    1.4761366   348861 
 7511000    0.7835138   -3.2368109   -1.7575858  0.049134362   -3.2368109    1.4792251   348841 
 7512000   0.78075449   -3.2332441   -1.7591439  0.045342921   -3.2332441    1.4741002   348821 
 7513000   0.78149845   -3.2346906   -1.7591012  0.047968368   -3.2346906    1.4755894   348801 
 7514000   0.78005886       -3.232   -1.7590443  0.048519832       -3.232    1.4729557   348781 
 7515000     0.780933   -3.2351612   -1.7604704  0.046408944   -3.2351612    1.4746909   348761 
 7516000   0.78082788   -3.2346332   -1.7600562  0.050250755   -3.2346332    1.4745769   348741 
 7517000   0.78037136   -3.2330034    -1.759204  0.047769541   -3.2330034    1.4737993   348721 
 7518000   0.78212386   -3.2370477   -1.7598539  0.052640517   -3.2370477    1.4771938   348701 
 7519000   0.78137481   -3.2361238   -1.7602601  0.048493403   -3.2361238    1.4758637   348681 
 7520000   0.78107952    -3.234036   -1.7586454  0.050184275    -3.234036    1.4753906   348661 
 7521000     0.780919   -3.2339878   -1.7588158  0.056363642   -3.2339878     1.475172   348641 
 7522000   0.78057435   -3.2349467   -1.7603412  0.052038182   -3.2349467    1.4746055   348621 
 7523000   0.78259014   -3.2371445    -1.758646  0.050735844   -3.2371445    1.4784985   348601 
 7524000   0.78142206   -3.2341547   -1.7577783  0.050792646   -3.2341547    1.4763764   348581 
 7525000   0.78056492   -3.2335219   -1.7586803  0.046541543   -3.2335219    1.4748416   348561 
 7526000   0.78005248   -3.2328164   -1.7588585  0.050752003   -3.2328164    1.4739579   348541 
 7527000    0.7805692   -3.2350482   -1.7600293  0.051940536   -3.2350482    1.4750189   348521 
 7528000   0.78109748   -3.2368322   -1.7607303  0.049260728   -3.2368322    1.4761019   348501 
 7529000   0.78095121   -3.2367984   -1.7608882  0.046249816   -3.2367984    1.4759102   348481 
 7530000   0.77940295   -3.2340477    -1.760979  0.050431975   -3.2340477    1.4730687   348461 
 7531000   0.77930507   -3.2326337   -1.7596654   0.04703857   -3.2326337    1.4729682   348441 
 7532000    0.7790808   -3.2316394   -1.7590105   0.05167877   -3.2316394    1.4726289   348421 
 7533000   0.78042095   -3.2341908   -1.7589441  0.049146603   -3.2341908    1.4752467   348401 
 7534000   0.77949919   -3.2320888   -1.7584999  0.054218446   -3.2320888    1.4735889   348381 
 7535000   0.78050049   -3.2360719   -1.7605054  0.047374243   -3.2360719    1.4755665   348361 
 7536000    0.7805529   -3.2363876   -1.7606373  0.044820396   -3.2363876    1.4757503   348341 
 7537000   0.77817477   -3.2331702   -1.7618316  0.046589101   -3.2331702    1.4713386   348321 
 7538000   0.77847454   -3.2325378   -1.7605479  0.050818828   -3.2325378    1.4719899   348301 
 7539000   0.78001662   -3.2356559   -1.7606655  0.047751881   -3.2356559    1.4749904   348281 
 7540000   0.77856464   -3.2320243   -1.7596949  0.052757471   -3.2320243    1.4723293   348261 
 7541000   0.77795909   -3.2334859   -1.7622172  0.049546472   -3.2334859    1.4712687   348241 
 7542000   0.77874458   -3.2359888     -1.76315  0.045645844   -3.2359888    1.4728388   348221 
 7543000   0.77743877   -3.2347212   -1.7642676  0.050801403   -3.2347212    1.4704536   348201 
 7544000   0.77875027    -3.234656   -1.7616372  0.052817064    -3.234656    1.4730187   348181 
 7545000   0.77860173   -3.2354966   -1.7626742   0.04976918   -3.2354966    1.4728224   348161 
 7546000   0.77823662   -3.2341502   -1.7619339  0.051986083   -3.2341502    1.4722163   348141 
 7547000   0.77848341   -3.2331926   -1.7604248  0.051604569   -3.2331926    1.4727678   348121 
 7548000   0.77896806   -3.2345716   -1.7608023  0.052350777   -3.2345716    1.4737693   348101 
 7549000   0.77965276   -3.2345499   -1.7594004  0.050663931   -3.2345499    1.4751495   348081 
 7550000   0.77975725   -3.2354673   -1.7600353  0.052026118   -3.2354673     1.475432   348061 
 7551000   0.78039297   -3.2357709   -1.7590512   0.05498427   -3.2357709    1.4767197   348041 
 7552000   0.77962255   -3.2336913   -1.7583447  0.054064042   -3.2336913    1.4753467   348021 
 7553000   0.77970823   -3.2347121   -1.7591185  0.052156137   -3.2347121    1.4755936   348001 
 7554000   0.77923059   -3.2347059   -1.7599315  0.055206445   -3.2347059    1.4747744   347981 
 7555000   0.77841702   -3.2327439   -1.7594246  0.052247452   -3.2327439    1.4733193   347961 
 7556000    0.7791137   -3.2357346   -1.7610119  0.047974727   -3.2357346    1.4747227   347941 
 7557000    0.7786701   -3.2359293   -1.7619615  0.047342393   -3.2359293    1.4739678   347921 
 7558000   0.77835945    -3.234268   -1.7608035  0.050591632    -3.234268    1.4734644   347901 
 7559000   0.77810632   -3.2346572   -1.7615873  0.050276337   -3.2346572    1.4730699   347881 
 7560000   0.77914933   -3.2354137   -1.7602844  0.048625992   -3.2354137    1.4751293   347861 
 7561000   0.77848192   -3.2355851   -1.7616346  0.043017333   -3.2355851    1.4739505   347841 
 7562000   0.77813794   -3.2365518   -1.7631679  0.046535082   -3.2365518    1.4733839   347821 
 7563000   0.77856009   -3.2351273   -1.7608593  0.048788724   -3.2351273     1.474268   347801 
 7564000   0.77893741   -3.2372225   -1.7621551  0.046357638   -3.2372225    1.4750673   347781 
 7565000   0.77818824   -3.2387177   -1.7649843  0.045874521   -3.2387177    1.4737334   347761 
 7566000   0.77740803   -3.2366629   -1.7643224   0.04869725   -3.2366629    1.4723405   347741 
 7567000   0.77817752   -3.2362374   -1.7623548  0.052072075   -3.2362374    1.4738826   347721 
 7568000   0.77980268   -3.2389477   -1.7619021  0.050381838   -3.2389477    1.4770456   347701 
 7569000   0.77896196   -3.2370032   -1.7614651   0.05182654   -3.2370032    1.4755381   347681 
 7570000   0.77839037   -3.2367689   -1.7622287  0.051404984   -3.2367689    1.4745402   347661 
 7571000   0.77857804   -3.2361565    -1.761176  0.055011016   -3.2361565    1.4749805   347641 
 7572000   0.77817521   -3.2353741   -1.7610719  0.052962905   -3.2353741    1.4743022   347621 
 7573000   0.77971886   -3.2386856   -1.7613738  0.050060287   -3.2386856    1.4773118   347601 
 7574000   0.77745311   -3.2350034   -1.7618997   0.04706224   -3.2350034    1.4731037   347581 
 7575000   0.77710311   -3.2347772    -1.762252  0.048977599   -3.2347772    1.4725252   347561 
 7576000   0.77736378   -3.2362109   -1.7631069  0.050235797   -3.2362109    1.4731039   347541 
 7577000   0.77738451   -3.2360353   -1.7628073  0.049517036   -3.2360353     1.473228   347521 
 7578000   0.77583213    -3.232269   -1.7618983   0.05048841    -3.232269    1.4703707   347501 
 7579000   0.77584996   -3.2330496   -1.7625605  0.048269221   -3.2330496    1.4704891   347481 
 7580000   0.77828861   -3.2373537   -1.7621577  0.050219141   -3.2373537     1.475196   347461 
 7581000     0.776825   -3.2335219   -1.7610152  0.049930241   -3.2335219    1.4725066   347441 
 7582000   0.77656148   -3.2337408    -1.761649  0.044357261   -3.2337408    1.4720918   347421 
 7583000   0.77800519   -3.2359489   -1.7610353  0.051024313   -3.2359489    1.4749135   347401 
 7584000   0.77765761   -3.2347938   -1.7604544  0.051461571   -3.2347938    1.4743395   347381 
 7585000   0.77764876   -3.2354103   -1.7610027  0.053180912   -3.2354103    1.4744076   347361 
 7586000   0.77739557   -3.2353253   -1.7613128  0.047107221   -3.2353253    1.4740124   347341 
 7587000   0.77860999   -3.2348221    -1.758422  0.050154553   -3.2348221    1.4764001   347321 
 7588000   0.77802649   -3.2336895   -1.7583109  0.052903295   -3.2336895    1.4753786   347301 
 7589000   0.77604854   -3.2337461   -1.7620336  0.049456938   -3.2337461    1.4717126   347281 
 7590000    0.7765956   -3.2327251   -1.7598902  0.052549442   -3.2327251    1.4728348   347261 
 7591000   0.77684402   -3.2334373   -1.7600465  0.049054408   -3.2334373    1.4733908   347241 
 7592000   0.77571242   -3.2328834   -1.7615541  0.043537315   -3.2328834    1.4713293   347221 
 7593000    0.7782401   -3.2355951   -1.7593863    0.0478063   -3.2355951    1.4762087   347201 
 7594000    0.7778791   -3.2340508   -1.7584418  0.049625731   -3.2340508     1.475609   347181 
 7595000   0.77694475   -3.2312715   -1.7573501  0.052535785   -3.2312715    1.4739215   347161 
 7596000   0.77689077    -3.230443   -1.7565391  0.047766818    -3.230443    1.4739039   347141 
 7597000   0.77649531   -3.2276751   -1.7544365  0.054100994   -3.2276751    1.4732386   347121 
 7598000   0.77801629   -3.2317928   -1.7555834  0.047173025   -3.2317928    1.4762094   347101 
 7599000   0.77621837   -3.2288049    -1.755922  0.047890423   -3.2288049    1.4728829   347081 
 7600000   0.77665517   -3.2301666     -1.75637  0.047812333   -3.2301666    1.4737966   347061 
 7601000   0.77579248   -3.2291249   -1.7568805  0.048495535   -3.2291249    1.4722444   347041 
 7602000   0.77637017   -3.2308779   -1.7574523  0.047484891   -3.2308779    1.4734256   347021 
 7603000   0.77537232   -3.2280267   -1.7564101  0.048234522   -3.2280267    1.4716167   347001 
 7604000   0.77673345   -3.2296315   -1.7553465  0.048171159   -3.2296315     1.474285   346981 
 7605000   0.77589457    -3.226993   -1.7542154  0.049508986    -3.226993    1.4727776   346961 
 7606000   0.77710501   -3.2302047   -1.7550444  0.049963645   -3.2302047    1.4751603   346941 
 7607000   0.77693719   -3.2291275   -1.7542007  0.046213285   -3.2291275    1.4749268   346921 
 7608000   0.77847019   -3.2314294   -1.7535072   0.04734344   -3.2314294    1.4779222   346901 
 7609000   0.77664241   -3.2294265   -1.7548894  0.047854228   -3.2294265    1.4745372   346881 
 7610000   0.77544455   -3.2285952   -1.7562475  0.049888092   -3.2285952    1.4723478   346861 
 7611000   0.77627334   -3.2297748   -1.7557684   0.04369771   -3.2297748    1.4740064   346841 
 7612000   0.77710858   -3.2300699   -1.7543925   0.05020872   -3.2300699    1.4756775   346821 
 7613000   0.77623491   -3.2309274    -1.756824  0.053680047   -3.2309274    1.4741034   346801 
 7614000   0.77694635   -3.2313592   -1.7558196  0.046335218   -3.2313592    1.4755396   346781 
 7615000   0.77742617   -3.2329759   -1.7564399  0.046741796   -3.2329759     1.476536   346761 
 7616000   0.77801586   -3.2342956   -1.7565544  0.051165023   -3.2342956    1.4777412   346741 
 7617000   0.77652532   -3.2326947   -1.7576995  0.049541975   -3.2326947    1.4749952   346721 
 7618000   0.77586472   -3.2304413   -1.7566158   0.05109785   -3.2304413    1.4738254   346701 
 7619000   0.77571275    -3.232028   -1.7584062    0.0509885    -3.232028    1.4736217   346681 
 7620000   0.77477726   -3.2311665    -1.759237  0.054750374   -3.2311665    1.4719295   346661 
 7621000   0.77553914   -3.2331006   -1.7596387  0.053449918   -3.2331006    1.4734619   346641 
 7622000   0.77496545   -3.2336721   -1.7612152  0.046724015   -3.2336721    1.4724569   346621 
 7623000   0.77505755   -3.2331222   -1.7604053  0.047200801   -3.2331222    1.4727169   346601 
 7624000   0.77615112   -3.2334623   -1.7585824  0.047527045   -3.2334623    1.4748799   346581 
 7625000   0.77616507   -3.2329755   -1.7579839  0.052029556   -3.2329755    1.4749916   346561 
 7626000   0.77679184   -3.2347643   -1.7584965  0.052079142   -3.2347643    1.4762678   346541 
 7627000   0.77690729   -3.2352159   -1.7586435  0.051818229   -3.2352159    1.4765725   346521 
 7628000   0.77648761   -3.2350388   -1.7591788  0.047320334   -3.2350388      1.47586   346501 
 7629000   0.77493553   -3.2334803   -1.7604853   0.04885845   -3.2334803     1.472995   346481 
 7630000   0.77597545   -3.2345675   -1.7595107  0.047182794   -3.2345675    1.4750569   346461 
 7631000   0.77539257   -3.2331874   -1.7591535  0.051870007   -3.2331874    1.4740339   346441 
 7632000   0.77515909   -3.2333899   -1.7597147  0.046725625   -3.2333899    1.4736752   346421 
 7633000   0.77432991    -3.232528   -1.7603442  0.049195839    -3.232528    1.4721838   346401 
 7634000   0.77565654   -3.2350281   -1.7602369   0.05083755   -3.2350281    1.4747912   346381 
 7635000   0.77634922   -3.2349649   -1.7587714  0.046909837   -3.2349649    1.4761934   346361 
 7636000    0.7767167   -3.2367044   -1.7597269   0.04501065   -3.2367044    1.4769775   346341 
 7637000    0.7743054   -3.2334749   -1.7609977   0.05191619   -3.2334749    1.4724772   346321 
 7638000   0.77595657   -3.2353048   -1.7596024  0.053307828   -3.2353048    1.4757025   346301 
 7639000   0.77411831    -3.231924   -1.7596325  0.053407448    -3.231924    1.4722915   346281 
 7640000   0.77672078    -3.234393   -1.7570665  0.051404468    -3.234393    1.4773265   346261 
 7641000   0.77520583   -3.2314886   -1.7569584  0.054874946   -3.2314886    1.4745302   346241 
 7642000   0.77516643   -3.2311207   -1.7565803  0.052038476   -3.2311207    1.4745404   346221 
 7643000   0.77589294   -3.2330957    -1.757088  0.049625741   -3.2330957    1.4760077   346201 
 7644000   0.77730148   -3.2347481   -1.7559755  0.049413938   -3.2347481    1.4787726   346181 
 7645000   0.77774147   -3.2343686   -1.7546735  0.049876681   -3.2343686    1.4796952   346161 
 7646000   0.77614048   -3.2315717   -1.7548372  0.052446675   -3.2315717    1.4767345   346141 
 7647000   0.77347017   -3.2292572   -1.7575184  0.047870359   -3.2292572    1.4717388   346121 
 7648000   0.77308021   -3.2279821   -1.7569003  0.050658046   -3.2279821    1.4710818   346101 
 7649000   0.77392944   -3.2303335   -1.7575506  0.045621666   -3.2303335    1.4727829   346081 
 7650000   0.77416939   -3.2298343   -1.7565096  0.047584885   -3.2298343    1.4733247   346061 
 7651000   0.77459753   -3.2296769   -1.7554522   0.04906373   -3.2296769    1.4742247   346041 
 7652000    0.7744421   -3.2294255   -1.7554114  0.050533741   -3.2294255    1.4740141   346021 
 7653000   0.77454363   -3.2299441   -1.7556516  0.051547903   -3.2299441    1.4742925   346001 
 7654000   0.77481914   -3.2280438   -1.7531416  0.050362604   -3.2280438    1.4749022   345981 
 7655000   0.77426162   -3.2262792   -1.7523531  0.048526943   -3.2262792    1.4739261   345961 
 7656000   0.77506035   -3.2267803   -1.7512483  0.047360761   -3.2267803    1.4755319   345941 
 7657000   0.77300572   -3.2244081   -1.7527026  0.047398736   -3.2244081    1.4717055   345921 
 7658000   0.77472403    -3.226957   -1.7518948  0.047228388    -3.226957    1.4750622   345901 
 7659000   0.77527199    -3.228031   -1.7518401  0.046738269    -3.228031    1.4761909   345881 
 7660000   0.77317776   -3.2267166   -1.7544282  0.047909582   -3.2267166    1.4722884   345861 
 7661000   0.77371082   -3.2262989   -1.7529103  0.049433677   -3.2262989    1.4733887   345841 
 7662000   0.77432559   -3.2278835   -1.7532388  0.050540484   -3.2278835    1.4746447   345821 
 7663000   0.77356368   -3.2250554   -1.7517766  0.048566118   -3.2250554    1.4732789   345801 
 7664000   0.77270201    -3.224533   -1.7528101  0.049857648    -3.224533    1.4717229   345781 
 7665000   0.77313824   -3.2254778   -1.7528389  0.047486197   -3.2254778    1.4726389   345761 
 7666000   0.77253443   -3.2253872   -1.7538133  0.049784373   -3.2253872    1.4715739   345741 
 7667000   0.77373276    -3.226044   -1.7521021  0.048810945    -3.226044    1.4739419   345721 
 7668000    0.7736777   -3.2273951   -1.7534728   0.05203811   -3.2273951    1.4739223   345701 
 7669000   0.77453383   -3.2281946   -1.7525559  0.050635787   -3.2281946    1.4756386   345681 
 7670000   0.77509673   -3.2286357   -1.7518392  0.048215081   -3.2286357    1.4767965   345661 
 7671000   0.77317837    -3.226556   -1.7533293  0.047288043    -3.226556    1.4732267   345641 
 7672000   0.77538727   -3.2300813   -1.7525602  0.045686048   -3.2300813    1.4775211   345621 
 7673000   0.77341651   -3.2261484   -1.7522974   0.05055179   -3.2261484     1.473851   345601 
 7674000   0.77218646   -3.2250896   -1.7534975  0.046287548   -3.2250896    1.4715921   345581 
 7675000   0.77380329    -3.229415   -1.7546562  0.046378077    -3.229415    1.4747588   345561 
 7676000    0.7743023    -3.228846   -1.7530508  0.049411266    -3.228846    1.4757952   345541 
 7677000   0.77478789    -3.230369   -1.7535628  0.048379758    -3.230369    1.4768062   345521 
 7678000   0.77317489   -3.2262604   -1.7524434  0.051085076   -3.2262604     1.473817   345501 
 7679000   0.77529796   -3.2297204   -1.7517708  0.051840805   -3.2297204    1.4779495   345481 
 7680000    0.7765399   -3.2307913   -1.7503885   0.05280088   -3.2307913    1.4804027   345461 
 7681000   0.77494123   -3.2286277   -1.7511871  0.052081196   -3.2286277    1.4774406   345441 
 7682000   0.77402384   -3.2257551   -1.7499781  0.051997771   -3.2257551     1.475777   345421 
 7683000    0.7751746   -3.2292085   -1.7511519  0.048338921   -3.2292085    1.4780566   345401 
 7684000   0.77366178    -3.225877   -1.7506195  0.052434208    -3.225877    1.4752575   345381 
 7685000   0.77355871   -3.2271621   -1.7520157  0.049135063   -3.2271621    1.4751464   345361 
 7686000   0.77392574   -3.2265367   -1.7506049  0.051161474   -3.2265367    1.4759318   345341 
 7687000    0.7725608   -3.2254588   -1.7520448  0.049120223   -3.2254588    1.4734141   345321 
 7688000   0.77183658   -3.2246173   -1.7524992  0.048920139   -3.2246173    1.4721181   345301 
 7689000   0.77302193   -3.2278253    -1.753361  0.047646406   -3.2278253    1.4744643   345281 
 7690000   0.77189992   -3.2248517   -1.7524423  0.049008255   -3.2248517    1.4724095   345261 
 7691000   0.77090998   -3.2241768   -1.7535704  0.042983836   -3.2241768    1.4706063   345241 
 7692000   0.77071453   -3.2238081   -1.7534894   0.04925066   -3.2238081    1.4703187   345221 
 7693000   0.77300689   -3.2288725   -1.7540952  0.049447263   -3.2288725    1.4747773   345201 
 7694000   0.77052698   -3.2247995   -1.7546682  0.051825353   -3.2247995    1.4701312   345181 
 7695000   0.77327395   -3.2288167   -1.7533589  0.048571741   -3.2288167    1.4754578   345161 
 7696000   0.77254985   -3.2258265   -1.7516649  0.052042712   -3.2258265    1.4741616   345141 
 7697000   0.77271314   -3.2265453   -1.7519867  0.049211105   -3.2265453    1.4745586   345121 
 7698000   0.77313156   -3.2278841   -1.7524415   0.04739728   -3.2278841    1.4754426   345101 
 7699000    0.7723154    -3.228329   -1.7543586   0.05324552    -3.228329    1.4739705   345081 
 7700000   0.77274638   -3.2296644    -1.754786   0.04658818   -3.2296644    1.4748785   345061 
 7701000   0.77255307   -3.2295238   -1.7549288  0.048465032   -3.2295238     1.474595   345041 
 7702000   0.77236289   -3.2302888   -1.7559714    0.0447424   -3.2302888    1.4743174   345021 
 7703000   0.77237776   -3.2289796   -1.7545483  0.051926824   -3.2289796    1.4744313   345001 
 7704000   0.77221164   -3.2280135   -1.7538139  0.048983991   -3.2280135    1.4741996   344981 
 7705000   0.77227823   -3.2277308   -1.7533186  0.051115631   -3.2277308    1.4744122   344961 
 7706000   0.77278769   -3.2284692   -1.7529988  0.048424063   -3.2284692    1.4754704   344941 
 7707000   0.77395696   -3.2314612   -1.7536727  0.043728555   -3.2314612    1.4777886   344921 
 7708000    0.7725356    -3.227618   -1.7524579  0.052159512    -3.227618    1.4751602   344901 
 7709000    0.7726441   -3.2266158   -1.7511629  0.052395752   -3.2266158    1.4754529   344881 
 7710000   0.77338792    -3.227965    -1.751006  0.054599523    -3.227965     1.476959   344861 
 7711000   0.77186892   -3.2242754   -1.7501317  0.052409823   -3.2242754    1.4741436   344841 
 7712000   0.77196389   -3.2240431   -1.7496326  0.051210195   -3.2240431    1.4744105   344821 
 7713000    0.7733691   -3.2282994   -1.7511194  0.049126352   -3.2282994      1.47718   344801 
 7714000   0.77193445   -3.2252614   -1.7507361  0.045852502   -3.2252614    1.4745253   344781 
 7715000   0.77089596   -3.2229256   -1.7502985  0.050390663   -3.2229256     1.472627   344761 
 7716000   0.77110492   -3.2233586   -1.7502469   0.04881835   -3.2233586    1.4731117   344741 
 7717000   0.77056293   -3.2201378   -1.7479761  0.050470773   -3.2201378    1.4721617   344721 
 7718000   0.77136714    -3.223249   -1.7494654  0.049546064    -3.223249    1.4737836   344701 
 7719000   0.77220858   -3.2227359    -1.747259  0.053152801   -3.2227359    1.4754769   344681 
 7720000    0.7741683   -3.2236569   -1.7443497  0.051979365   -3.2236569    1.4793072   344661 
 7721000   0.77354731   -3.2229218   -1.7447154  0.051773923   -3.2229218    1.4782064   344641 
 7722000    0.7726124   -3.2205403   -1.7440348  0.054419266   -3.2205403    1.4765055   344621 
 7723000   0.77119969   -3.2200017   -1.7461104  0.045537709   -3.2200017    1.4738913   344601 
 7724000   0.77002567   -3.2196117   -1.7478788   0.04661188   -3.2196117    1.4717329   344581 
 7725000   0.77007253   -3.2218098   -1.7499019  0.045465195   -3.2218098    1.4719079   344561 
 7726000   0.77010819   -3.2217845    -1.749723  0.047192421   -3.2217845    1.4720615   344541 
 7727000   0.76870749   -3.2193061   -1.7498367   0.04525617   -3.2193061    1.4694694   344521 
 7728000   0.76973237   -3.2214331   -1.7499191  0.045311659   -3.2214331     1.471514   344501 
 7729000   0.76963953   -3.2204703   -1.7490484  0.044308679   -3.2204703    1.4714219   344481 
 7730000   0.76933074   -3.2207562   -1.7498392  0.043488581   -3.2207562     1.470917   344461 
 7731000   0.76887708   -3.2205341   -1.7503992  0.054531779   -3.2205341     1.470135   344441 
 7732000   0.77092418   -3.2229146   -1.7487799  0.052505935   -3.2229146    1.4741347   344421 
 7733000   0.77116762    -3.221642   -1.7469562  0.056359133    -3.221642    1.4746859   344401 
 7734000   0.77193261   -3.2226376   -1.7464031  0.055114959   -3.2226376    1.4762345   344381 
 7735000   0.77265986   -3.2259775   -1.7482664  0.053477539   -3.2259775     1.477711   344361 
 7736000   0.77130021   -3.2242424    -1.749046  0.055605293   -3.2242424    1.4751964   344341 
 7737000   0.77127367   -3.2246561   -1.7494247  0.050368225   -3.2246561    1.4752313   344321 
 7738000   0.77026971   -3.2222989   -1.7489023  0.048801482   -3.2222989    1.4733966   344301 
 7739000    0.7685666   -3.2218159   -1.7515917  0.047986711   -3.2218159    1.4702243   344281 
 7740000   0.76933862   -3.2221278   -1.7503412  0.048681251   -3.2221278    1.4717866   344261 
 7741000   0.77106159   -3.2238383   -1.7486698  0.052609348   -3.2238383    1.4751684   344241 
 7742000   0.77189971   -3.2257178   -1.7488601  0.047731721   -3.2257178    1.4768577   344221 
 7743000    0.7720135   -3.2265422   -1.7493809  0.052394604   -3.2265422    1.4771612   344201 
 7744000   0.77225967   -3.2254232   -1.7477051  0.050261646   -3.2254232    1.4777181   344181 
 7745000   0.77140001   -3.2246857   -1.7485268  0.051652867   -3.2246857    1.4761589   344161 
 7746000   0.77092808   -3.2230606    -1.747719  0.051640907   -3.2230606    1.4753416   344141 
 7747000   0.77023609   -3.2237357   -1.7496328  0.050115396   -3.2237357     1.474103   344121 
 7748000   0.76883201   -3.2214025   -1.7499011  0.048199254   -3.2214025    1.4715013   344101 
 7749000   0.76997538   -3.2237582   -1.7499828  0.051202546   -3.2237582    1.4737753   344081 
 7750000   0.77097809   -3.2263869   -1.7506065   0.04678618   -3.2263869    1.4757803   344061 
 7751000   0.77010327   -3.2246664   -1.7504749  0.051385356   -3.2246664    1.4741915   344041 
 7752000    0.7704492   -3.2256284    -1.750689  0.046844224   -3.2256284    1.4749394   344021 
 7753000   0.77093391   -3.2262892    -1.750336  0.047843629   -3.2262892    1.4759532   344001 
 7754000   0.77089497   -3.2248452   -1.7488808   0.05038851   -3.2248452    1.4759644   343981 
 7755000   0.76950946   -3.2239124    -1.750515  0.053630026   -3.2239124    1.4733974   343961 
 7756000   0.77091907   -3.2252467   -1.7490644  0.049305813   -3.2252467    1.4761822   343941 
 7757000   0.76982639   -3.2245802   -1.7504046  0.049594631   -3.2245802    1.4741756   343921 
 7758000   0.76976075   -3.2256689   -1.7515332  0.052379912   -3.2256689    1.4741357   343901 
 7759000   0.76905563    -3.224283    -1.751412  0.052325034    -3.224283     1.472871   343881 
 7760000   0.77064368   -3.2268498   -1.7508516  0.047745523   -3.2268498    1.4759982   343861 
 7761000   0.77021026   -3.2256293   -1.7503754  0.050775136   -3.2256293    1.4752539   343841 
 7762000   0.76996604   -3.2259212   -1.7510493  0.046422392   -3.2259212    1.4748719   343821 
 7763000   0.77031801   -3.2253212   -1.7496892      0.04408   -3.2253212    1.4756319   343801 
 7764000   0.76944784   -3.2233728    -1.749322  0.047317719   -3.2233728    1.4740508   343781 
 7765000   0.76991824   -3.2253809   -1.7503432   0.05201905   -3.2253809    1.4750378   343761 
 7766000   0.77102881    -3.227958   -1.7507066  0.045688498    -3.227958    1.4772514   343741 
 7767000   0.77036237   -3.2248024    -1.748742  0.052145515   -3.2248024    1.4760604   343721 
 7768000    0.7693796   -3.2225987   -1.7483356  0.053212607   -3.2225987    1.4742631   343701 
 7769000   0.76865849   -3.2210459   -1.7480788  0.053248319   -3.2210459    1.4729671   343681 
 7770000   0.77065663   -3.2246073   -1.7477253  0.049473567   -3.2246073     1.476882   343661 
 7771000   0.77128764   -3.2257432   -1.7475659  0.046198914   -3.2257432    1.4781773   343641 
 7772000   0.77038842   -3.2245662   -1.7480263  0.051938135   -3.2245662    1.4765399   343621 
 7773000     0.770733   -3.2232212   -1.7459349   0.05380725   -3.2232212    1.4772863   343601 
 7774000   0.77059574   -3.2234019   -1.7462927  0.049982005   -3.2234019    1.4771092   343581 
 7775000   0.76960927   -3.2221747   -1.7468706  0.046779936   -3.2221747    1.4753041   343561 
 7776000   0.76987649   -3.2232315   -1.7473292  0.046530412   -3.2232315    1.4759023   343541 
 7777000   0.76980772   -3.2231961   -1.7473397  0.051591815   -3.2231961    1.4758564   343521 
 7778000   0.77016386   -3.2232103   -1.7465851  0.053560974   -3.2232103    1.4766252   343501 
 7779000   0.76990937   -3.2225008   -1.7462776  0.048789118   -3.2225008    1.4762232   343481 
 7780000   0.77041657   -3.2234485   -1.7461668  0.047011056   -3.2234485    1.4772817   343461 
 7781000   0.77048874   -3.2229399   -1.7454338  0.049345831   -3.2229399    1.4775061   343441 
 7782000    0.7692398   -3.2226668   -1.7474698  0.051293417   -3.2226668     1.475197   343421 
 7783000   0.76936124   -3.2220583   -1.7465425  0.051107738   -3.2220583    1.4755159   343401 
 7784000   0.77058067   -3.2232731   -1.7453325  0.046943008   -3.2232731    1.4779406   343381 
 7785000   0.77005011   -3.2233068   -1.7462978  0.049254584   -3.2233068     1.477009   343361 
 7786000   0.76835027    -3.221864   -1.7480295  0.045688787    -3.221864    1.4738345   343341 
 7787000   0.76920361   -3.2226915   -1.7471342  0.050781487   -3.2226915    1.4755573   343321 
 7788000    0.7685841   -3.2195031   -1.7450484  0.049778991   -3.2195031    1.4744548   343301 
 7789000   0.76712883   -3.2177936   -1.7460449  0.044294639   -3.2177936    1.4717487   343281 
 7790000   0.76853965   -3.2210334   -1.7464921   0.04682403   -3.2210334    1.4745413   343261 
 7791000   0.76728445   -3.2199688   -1.7477499  0.048459564   -3.2199688    1.4722188   343241 
 7792000   0.76818382   -3.2206993   -1.7466689  0.048250104   -3.2206993    1.4740304   343221 
 7793000   0.76695743   -3.2184248   -1.7466619  0.049849706   -3.2184248    1.4717629   343201 
 7794000   0.76784608   -3.2185284   -1.7449743  0.048178088   -3.2185284     1.473554   343181 
 7795000   0.76809161   -3.2205563   -1.7464452   0.04795487   -3.2205563    1.4741111   343161 
 7796000   0.76900037   -3.2224268   -1.7464855   0.05260592   -3.2224268    1.4759412   343141 
 7797000   0.76868927   -3.2217961    -1.746366  0.049537736   -3.2217961    1.4754301   343121 
 7798000   0.76828652    -3.221462   -1.7467189  0.046595409    -3.221462    1.4747431   343101 
 7799000   0.76935965   -3.2230618   -1.7461728  0.048456686   -3.2230618     1.476889   343081 
 7800000   0.76871745   -3.2229611   -1.7472188  0.048228824   -3.2229611    1.4757423   343061 
 7801000    0.7693406   -3.2221944   -1.7451697  0.047640516   -3.2221944    1.4770247   343041 
 7802000   0.76850713   -3.2214038   -1.7458933  0.049502183   -3.2214038    1.4755106   343021 
 7803000   0.76791605    -3.221578   -1.7471163  0.050392679    -3.221578    1.4744617   343001 
 7804000   0.76846076   -3.2210986    -1.745505  0.055266124   -3.2210986    1.4755936   342981 
 7805000    0.7686041   -3.2211311   -1.7451762  0.053763153   -3.2211311    1.4759549   342961 
 7806000   0.76916355   -3.2231844   -1.7460691  0.054178524   -3.2231844    1.4771154   342941 
 7807000    0.7696629   -3.2239468   -1.7457862  0.052195634   -3.2239468    1.4781605   342921 
 7808000   0.76960295   -3.2263973   -1.7482657  0.048513622   -3.2263973    1.4781316   342901 
 7809000   0.76825781   -3.2234586   -1.7478245  0.049556806   -3.2234586    1.4756341   342881 
 7810000   0.76798176   -3.2235825   -1.7483926  0.046322383   -3.2235825      1.47519   342861 
 7811000   0.76749892   -3.2233233   -1.7489748  0.050010206   -3.2233233    1.4743485   342841 
 7812000   0.76763553   -3.2238306   -1.7491336  0.052448435   -3.2238306    1.4746969   342821 
 7813000    0.7692539   -3.2253907   -1.7474985   0.04912043   -3.2253907    1.4778922   342801 
 7814000   0.76916505   -3.2232053   -1.7453976  0.052027768   -3.2232053    1.4778077   342781 
 7815000   0.77069844   -3.2244754   -1.7436352  0.056778822   -3.2244754    1.4808402   342761 
 7816000   0.77039452   -3.2242999   -1.7439572  0.055855062   -3.2242999    1.4803427   342741 
 7817000   0.76858551   -3.2205105   -1.7435577  0.055890239   -3.2205105    1.4769528   342721 
 7818000   0.76963052   -3.2228932   -1.7438459  0.048756079   -3.2228932    1.4790472   342701 
 7819000   0.76845668   -3.2221126   -1.7452351  0.051673323   -3.2221126    1.4768776   342681 
 7820000   0.76673987   -3.2188573   -1.7451932  0.052616726   -3.2188573    1.4736641   342661 
 7821000   0.76780622   -3.2211035   -1.7453038  0.047605783   -3.2211035    1.4757997   342641 
 7822000   0.76551854   -3.2186181   -1.7471297  0.047041725   -3.2186181    1.4714885   342621 
 7823000   0.76694789   -3.2178545   -1.7435325  0.052241982   -3.2178545    1.4743221   342601 
 7824000   0.76636452   -3.2171366     -1.74385  0.046852718   -3.2171366    1.4732866   342581 
 7825000   0.76517175   -3.2150671   -1.7439876  0.052536978   -3.2150671    1.4710795   342561 
 7826000    0.7662742   -3.2176808   -1.7443958  0.053703294   -3.2176808     1.473285   342541 
 7827000   0.76745232   -3.2187814   -1.7431452   0.05193585   -3.2187814    1.4756363   342521 
 7828000   0.76666229   -3.2164176   -1.7422143  0.047824357   -3.2164176    1.4742033   342501 
 7829000   0.76813746   -3.2185951   -1.7414689  0.050923895   -3.2185951    1.4771262   342481 
 7830000   0.76768078   -3.2192825   -1.7429483  0.049511027   -3.2192825    1.4763342   342461 
 7831000   0.76651342   -3.2167651   -1.7425898  0.049700781   -3.2167651    1.4741753   342441 
 7832000   0.76620107   -3.2168377    -1.743177  0.050819955   -3.2168377    1.4736607   342421 
 7833000   0.76703815   -3.2174856   -1.7421288  0.048409564   -3.2174856    1.4753568   342401 
 7834000   0.76744655   -3.2179936    -1.741765  0.051712969   -3.2179936    1.4762286   342381 
 7835000   0.76716651   -3.2166898   -1.7409137  0.051235578   -3.2166898    1.4757761   342361 
 7836000   0.76748759   -3.2186427   -1.7421626  0.048811641   -3.2186427      1.47648   342341 
 7837000   0.76782574    -3.218494   -1.7412772  0.053386987    -3.218494    1.4772169   342321 
 7838000   0.76624303   -3.2167015   -1.7424435  0.049781097   -3.2167015     1.474258   342301 
 7839000   0.76780111   -3.2197325   -1.7423904  0.049002687   -3.2197325    1.4773421   342281 
 7840000   0.76722143   -3.2183572   -1.7420442   0.04991327   -3.2183572     1.476313   342261 
 7841000   0.76703598   -3.2194608   -1.7434184  0.049327841   -3.2194608    1.4760424   342241 
 7842000   0.76561959   -3.2164533   -1.7430504  0.055419901   -3.2164533    1.4734029   342221 
 7843000   0.76633546   -3.2172215   -1.7423548  0.051169355   -3.2172215    1.4748667   342201 
 7844000   0.76656422   -3.2176876   -1.7422943  0.053270269   -3.2176876    1.4753932   342181 
 7845000   0.76902456   -3.2220672   -1.7418521  0.046115773   -3.2220672    1.4802151   342161 
 7846000    0.7672556   -3.2192905    -1.742394   0.05273692   -3.2192905    1.4768966   342141 
 7847000    0.7685294   -3.2215615   -1.7421265  0.050045961   -3.2215615     1.479435   342121 
 7848000   0.76731771   -3.2181103   -1.7409215  0.055337065   -3.2181103    1.4771888   342101 
 7849000   0.76789856   -3.2177551   -1.7393617   0.05037896   -3.2177551    1.4783935   342081 
 7850000    0.7672719   -3.2183344    -1.741061  0.052162508   -3.2183344    1.4772734   342061 
 7851000   0.76775421   -3.2186036   -1.7403152  0.047185306   -3.2186036    1.4782884   342041 
 7852000   0.76678722   -3.2183644   -1.7418515  0.048043477   -3.2183644    1.4765128   342021 
 7853000   0.76625499   -3.2175282   -1.7419539  0.051567602   -3.2175282    1.4755743   342001 
 7854000   0.76695756   -3.2181356   -1.7411221  0.052234272   -3.2181356    1.4770136   341981 
 7855000   0.76610788   -3.2165001   -1.7410366  0.051571858   -3.2165001    1.4754635   341961 
 7856000    0.7664475     -3.21676   -1.7405561  0.049291773     -3.21676     1.476204   341941 
 7857000   0.76716816     -3.21789   -1.7402116  0.045495789     -3.21789    1.4776784   341921 
 7858000   0.76648962   -3.2159707   -1.7395129  0.050086959   -3.2159707    1.4764578   341901 
 7859000   0.76721061   -3.2175554   -1.7396224  0.045350967   -3.2175554    1.4779331   341881 
 7860000   0.76620146   -3.2171274    -1.741052  0.054135446   -3.2171274    1.4760754   341861 
 7861000   0.76649096   -3.2175282   -1.7408087  0.046839988   -3.2175282    1.4767195   341841 
 7862000   0.76651313   -3.2165316   -1.7396829  0.051372176   -3.2165316    1.4768486   341821 
 7863000   0.76572085   -3.2158523   -1.7404438  0.049438263   -3.2158523    1.4754085   341801 
 7864000   0.76597935   -3.2162427   -1.7402498  0.043050727   -3.2162427    1.4759929   341781 
 7865000   0.76355831    -3.213658   -1.7422442  0.045967335    -3.213658    1.4714138   341761 
 7866000    0.7640373   -3.2130209   -1.7405978   0.04656937   -3.2130209     1.472423   341741 
 7867000   0.76459205   -3.2138108   -1.7402325  0.044321515   -3.2138108    1.4735784   341721 
 7868000   0.76436055   -3.2140598   -1.7408414  0.046816304   -3.2140598    1.4732184   341701 
 7869000   0.76583684   -3.2155773   -1.7394271   0.04630006   -3.2155773    1.4761502   341681 
 7870000   0.76592121   -3.2163651   -1.7399659  0.049981188   -3.2163651    1.4763993   341661 
 7871000   0.76533118   -3.2160896   -1.7407413  0.052465076   -3.2160896    1.4753483   341641 
 7872000   0.76533993    -3.217762   -1.7423105  0.047727604    -3.217762    1.4754515   341621 
 7873000    0.7671083   -3.2211378   -1.7421906   0.04990182   -3.2211378    1.4789472   341601 
 7874000   0.76600447   -3.2188941   -1.7419885  0.050011832   -3.2188941    1.4769056   341581 
 7875000   0.76504987   -3.2180791   -1.7429277  0.056748558   -3.2180791    1.4751514   341561 
 7876000   0.76493838   -3.2184914   -1.7434686  0.051570964   -3.2184914    1.4750228   341541 
 7877000   0.76600934   -3.2195176   -1.7423431  0.049825505   -3.2195176    1.4771744   341521 
 7878000   0.76476583    -3.217758   -1.7428952  0.051238772    -3.217758    1.4748628   341501 
 7879000   0.76382496   -3.2173395   -1.7442049  0.050310042   -3.2173395    1.4731346   341481 
 7880000   0.76541043    -3.219024   -1.7427452  0.051110229    -3.219024    1.4762789   341461 
 7881000    0.7659899   -3.2198185   -1.7423355  0.049016686   -3.2198185     1.477483   341441 
 7882000   0.76687601   -3.2201362   -1.7408573  0.052087798   -3.2201362    1.4792789   341421 
 7883000   0.76609903   -3.2193905   -1.7415239   0.04833454   -3.2193905    1.4778667   341401 
 7884000   0.76698316   -3.2223852   -1.7427263   0.05298546   -3.2223852    1.4796589   341381 
 7885000   0.76472496   -3.2202554   -1.7448666  0.049849097   -3.2202554    1.4753888   341361 
 7886000   0.76423109   -3.2211067   -1.7465843  0.048812129   -3.2211067    1.4745224   341341 
 7887000   0.76452997   -3.2211698   -1.7459843   0.04733899   -3.2211698    1.4751855   341321 
 7888000   0.76378461   -3.2210107   -1.7471771  0.047269166   -3.2210107    1.4738337   341301 
 7889000   0.76212844   -3.2184467   -1.7477227  0.050084872   -3.2184467     1.470724   341281 
 7890000   0.76373542   -3.2204784   -1.7465669  0.051214499   -3.2204784    1.4739115   341261 
 7891000   0.76468831   -3.2220611   -1.7462242   0.04757133   -3.2220611    1.4758369   341241 
 7892000    0.7651685    -3.222467   -1.7456167  0.045304782    -3.222467    1.4768503   341221 
 7893000   0.76239719    -3.217476   -1.7458884  0.050739337    -3.217476    1.4715876   341201 
 7894000   0.76395575   -3.2185994    -1.743917  0.053487806   -3.2185994    1.4746824   341181 
 7895000   0.76438298   -3.2207358   -1.7451422  0.051657132   -3.2207358    1.4755936   341161 
 7896000   0.76476601   -3.2209569   -1.7445374  0.052034345   -3.2209569    1.4764196   341141 
 7897000   0.76457018    -3.217776    -1.741648  0.051024401    -3.217776    1.4761281   341121 
 7898000   0.76521856   -3.2213678   -1.7439013  0.051294131   -3.2213678    1.4774665   341101 
 7899000    0.7649508   -3.2194512   -1.7424151  0.047730431   -3.2194512    1.4770361   341081 
 7900000   0.76455745   -3.2181488   -1.7417856  0.053520354   -3.2181488    1.4763631   341061 
 7901000   0.76359909   -3.2170047   -1.7424057  0.051642505   -3.2170047     1.474599   341041 
 7902000   0.76350312   -3.2178929   -1.7433927  0.045835017   -3.2178929    1.4745002   341021 
 7903000   0.76303376   -3.2152606   -1.7415804  0.050011007   -3.2152606    1.4736801   341001 
 7904000   0.76371224   -3.2178766   -1.7427996  0.046454464   -3.2178766     1.475077   340981 
 7905000   0.76404239   -3.2170348   -1.7412335  0.049047584   -3.2170348    1.4758013   340961 
 7906000   0.76481713   -3.2162357   -1.7388513  0.051667237   -3.2162357    1.4773844   340941 
 7907000   0.76489841   -3.2164333   -1.7388052  0.044997562   -3.2164333    1.4776281   340921 
 7908000   0.76484353   -3.2139878   -1.7363791  0.054776234   -3.2139878    1.4776088   340901 
 7909000    0.7627472   -3.2102451   -1.7365998  0.052638831   -3.2102451    1.4736453   340881 
 7910000   0.76214191   -3.2104184   -1.7378561  0.053840874   -3.2104184    1.4725622   340861 
 7911000    0.7623406   -3.2119314   -1.7388988  0.048367559   -3.2119314    1.4730326   340841 
 7912000   0.76340311   -3.2146146   -1.7394425  0.045096302   -3.2146146    1.4751722   340821 
 7913000   0.76325951   -3.2142933    -1.739312  0.044968627   -3.2142933    1.4749812   340801 
 7914000   0.76288222   -3.2131384   -1.7387998  0.046243392   -3.2131384    1.4743387   340781 
 7915000   0.76222652   -3.2109653   -1.7378073  0.049990217   -3.2109653    1.4731579   340761 
 7916000   0.76271994   -3.2122748   -1.7380767  0.048560837   -3.2122748    1.4741981   340741 
 7917000   0.76312753     -3.21253   -1.7374576  0.049656587     -3.21253    1.4750724   340721 
 7918000   0.76328449   -3.2107719   -1.7353095  0.054545441   -3.2107719    1.4754625   340701 
 7919000   0.76288005   -3.2110301   -1.7362629  0.052421074   -3.2110301    1.4747672   340681 
 7920000   0.76421445   -3.2134753   -1.7360417  0.049298204   -3.2134753    1.4774336   340661 
 7921000   0.76354017   -3.2113479   -1.7351313  0.052755145   -3.2113479    1.4762167   340641 
 7922000   0.76397292   -3.2137409   -1.7366009  0.047083157   -3.2137409    1.4771401   340621 
 7923000   0.76345402   -3.2130069   -1.7367835  0.048173172   -3.2130069    1.4762234   340601 
 7924000   0.76410207    -3.213801   -1.7362377  0.052676971    -3.213801    1.4775633   340581 
 7925000   0.76426251   -3.2131075   -1.7351472  0.052021783   -3.2131075    1.4779603   340561 
 7926000     0.764654   -3.2153261   -1.7365219  0.050065182   -3.2153261    1.4788042   340541 
 7927000    0.7641232   -3.2159434   -1.7380789  0.051090289   -3.2159434    1.4778645   340521 
 7928000   0.76424274   -3.2151057   -1.7369232   0.05107133   -3.2151057    1.4781825   340501 
 7929000   0.76436897   -3.2146223   -1.7361088  0.052220262   -3.2146223    1.4785135   340481 
 7930000   0.76441097   -3.2162395   -1.7375579  0.050461092   -3.2162395    1.4786816   340461 
 7931000   0.76310006   -3.2129656   -1.7367331  0.048792457   -3.2129656    1.4762325   340441 
 7932000   0.76137853   -3.2110289   -1.7380402  0.046434151   -3.2110289    1.4729887   340421 
 7933000   0.76080455    -3.210055   -1.7380903  0.050442434    -3.210055    1.4719647   340401 
 7934000   0.76245389   -3.2134262   -1.7381837   0.05332717   -3.2134262    1.4752425   340381 
 7935000   0.76320398   -3.2144173   -1.7376367  0.049381875   -3.2144173    1.4767806   340361 
 7936000   0.76388819   -3.2160979   -1.7379065  0.047109172   -3.2160979    1.4781913   340341 
 7937000   0.76189865   -3.2106052   -1.7361772  0.051454223   -3.2106052    1.4744281   340321 
 7938000   0.76221525   -3.2139096   -1.7387822  0.045977151   -3.2139096    1.4751274   340301 
 7939000   0.76250912   -3.2143405   -1.7385576  0.047998087   -3.2143405    1.4757829   340281 
 7940000   0.76167192   -3.2118553   -1.7376061  0.049457731   -3.2118553    1.4742492   340261 
 7941000   0.76305798   -3.2143279   -1.7373091  0.050812938   -3.2143279    1.4770188   340241 
 7942000   0.76208985   -3.2115148   -1.7362832  0.052972628   -3.2115148    1.4752316   340221 
 7943000   0.76204478   -3.2117511   -1.7365201  0.047172663   -3.2117511     1.475231   340201 
 7944000   0.76231173   -3.2108741   -1.7350395  0.050864047   -3.2108741    1.4758346   340181 
 7945000   0.76216325   -3.2125335   -1.7368996  0.050817064   -3.2125335    1.4756339   340161 
 7946000   0.76332328    -3.216794   -1.7388272  0.049029574    -3.216794    1.4779667   340141 
 7947000   0.76251885   -3.2143483   -1.7378523  0.045574857   -3.2143483     1.476496   340121 
 7948000   0.76263507   -3.2131471   -1.7363392   0.05032381   -3.2131471    1.4768079   340101 
 7949000    0.7622217   -3.2116364   -1.7355422  0.052135477   -3.2116364    1.4760942   340081 
 7950000   0.76303649   -3.2134238   -1.7356648  0.050789548   -3.2134238     1.477759   340061 
 7951000   0.76037987   -3.2095852   -1.7368846   0.05159636   -3.2095852    1.4727006   340041 
 7952000    0.7630006   -3.2136147   -1.7357514   0.04809364   -3.2136147    1.4778633   340021 
 7953000   0.76325263   -3.2139463   -1.7355078  0.048034791   -3.2139463    1.4784384   340001 
 7954000   0.76175301   -3.2117412   -1.7361208  0.050911761   -3.2117412    1.4756204   339981 
 7955000   0.76287026    -3.212862   -1.7349903  0.048100958    -3.212862    1.4778716   339961 
 7956000   0.76077697   -3.2096101    -1.735707  0.053582068   -3.2096101    1.4739031   339941 
 7957000   0.76180103   -3.2093649    -1.733391  0.048195868   -3.2093649    1.4759739   339921 
 7958000   0.76080002   -3.2087176   -1.7345964  0.049662395   -3.2087176    1.4741212   339901 
 7959000   0.76148339   -3.2089139   -1.7333817   0.04923434   -3.2089139    1.4755322   339881 
 7960000   0.76194705   -3.2120468   -1.7355293  0.047277514   -3.2120468    1.4765175   339861 
 7961000   0.76146892   -3.2102423   -1.7345645  0.054185259   -3.2102423    1.4756778   339841 
 7962000   0.76091678   -3.2109343   -1.7362397  0.046871756   -3.2109343    1.4746946   339821 
 7963000   0.76202934   -3.2117483   -1.7348106  0.045818571   -3.2117483    1.4769377   339801 
 7964000   0.76060994   -3.2111492   -1.7368757  0.046483063   -3.2111492    1.4742734   339781 
 7965000   0.76009521   -3.2100244    -1.736662  0.051493295   -3.2100244    1.4733625   339761 
 7966000   0.76166969    -3.213189   -1.7366877  0.050296681    -3.213189    1.4765013   339741 
 7967000   0.76113423    -3.212358   -1.7368078  0.047188976    -3.212358    1.4755502   339721 
 7968000   0.75994983   -3.2090165   -1.7356756   0.05203054   -3.2090165    1.4733408   339701 
 7969000   0.76088151   -3.2110313   -1.7357973  0.046017605   -3.2110313     1.475234   339681 
 7970000   0.75941058   -3.2084594   -1.7359906  0.050069616   -3.2084594    1.4724688   339661 
 7971000   0.76105622   -3.2128672   -1.7371207  0.047923494   -3.2128672    1.4757465   339641 
 7972000   0.75977721   -3.2120251   -1.7386719  0.050679992   -3.2120251    1.4733532   339621 
 7973000   0.76170228   -3.2153123   -1.7381391  0.047158823   -3.2153123    1.4771732   339601 
 7974000   0.76081629   -3.2124806   -1.7369387  0.047445472   -3.2124806    1.4755419   339581 
 7975000   0.76202197   -3.2143599   -1.7363926  0.051705886   -3.2143599    1.4779673   339561 
 7976000   0.76021321   -3.2123516   -1.7378056  0.051998578   -3.2123516     1.474546   339541 
 7977000   0.76026118   -3.2138018   -1.7390759  0.048038848   -3.2138018    1.4747259   339521 
 7978000   0.76039736   -3.2130201   -1.7379432   0.04883957   -3.2130201    1.4750769   339501 
 7979000   0.76066126   -3.2144989   -1.7388231  0.047187277   -3.2144989    1.4756758   339481 
 7980000   0.76058246   -3.2141605   -1.7385507  0.050871507   -3.2141605    1.4756099   339461 
 7981000   0.76130791   -3.2149866   -1.7378822  0.052558496   -3.2149866    1.4771043   339441 
 7982000   0.76127668   -3.2142203   -1.7370896  0.054348276   -3.2142203    1.4771308   339421 
 7983000   0.76040078    -3.211513   -1.7359948  0.052146195    -3.211513    1.4755182   339401 
 7984000   0.76221385   -3.2148634   -1.7357398  0.049004923   -3.2148634    1.4791235   339381 
 7985000   0.76213416   -3.2152745   -1.7362184  0.049105732   -3.2152745     1.479056   339361 
 7986000   0.76164261   -3.2151365   -1.7369473  0.051083519   -3.2151365    1.4781892   339341 
 7987000   0.75955507     -3.21291   -1.7386854  0.051432549     -3.21291    1.4742246   339321 
 7988000   0.76020709   -3.2136668   -1.7380897  0.047367857   -3.2136668    1.4755771   339301 
 7989000   0.76046001   -3.2132565   -1.7371015  0.050825126   -3.2132565     1.476155   339281 
 7990000   0.75902807    -3.209925   -1.7364627  0.048197675    -3.209925    1.4734623   339261 
 7991000   0.75933729   -3.2114037   -1.7372542  0.046547381   -3.2114037    1.4741495   339241 
 7992000   0.76024914   -3.2130973   -1.7370905  0.050578974   -3.2130973    1.4760067   339221 
 7993000   0.75956791   -3.2120599   -1.7372888  0.047136653   -3.2120599    1.4747711   339201 
 7994000   0.75925117   -3.2116584   -1.7374154  0.045879365   -3.2116584     1.474243   339181 
 7995000   0.75965693   -3.2104436   -1.7353257  0.050864672   -3.2104436    1.4751179   339161 
 7996000   0.76063629   -3.2095786   -1.7324719  0.049976076   -3.2095786    1.4771067   339141 
 7997000   0.76043898   -3.2115087    -1.734698  0.051633383   -3.2115087    1.4768107   339121 
 7998000   0.75862413   -3.2102009   -1.7368278  0.049291987   -3.2102009     1.473373   339101 
 7999000   0.75947843   -3.2112199   -1.7361007  0.048417807   -3.2112199    1.4751192   339081 
 8000000   0.75966987    -3.211131   -1.7355529  0.051407385    -3.211131    1.4755781   339061 
Loop time of 6800.19 on 192 procs for 5000000 steps with 339061 atoms

Performance: 317638.351 tau/day, 735.274 timesteps/s
99.1% CPU use with 192 MPI tasks x 1 OpenMP threads

MPI task timing breakdown:
Section |  min time  |  avg time  |  max time  |%varavg|  %CPU | %total
-----------------------------------------------------------------------
Pair    | 1249.5     | 2808       | 3163.7     |1078.3 |  99.1 | 41.29
Bond    | 3.1896     | 3.3672     | 3.6204     |   4.3 | 100.0 |  0.05
Neigh   | 779.66     | 1356.4     | 1514.2     | 565.7 |  99.5 | 19.95
Comm    | 1252.6     | 1954.4     | 4161.2     |1832.9 |  98.9 | 28.74
Output  | 294.07     | 294.98     | 294.99     |   0.4 |  98.9 |  4.34
Modify  | 195.14     | 284.65     | 704.1      | 873.7 |  99.0 |  4.19
Other   |            | 98.45      |            |       |       |  1.45

Nlocal:        1765.94 ave        1933 max        1468 min
Histogram: 1 0 1 0 6 49 92 34 6 3
Nghost:        2948.47 ave        3282 max        2174 min
Histogram: 9 28 10 1 0 0 3 15 61 65
Neighs:        47306.9 ave       57874 max        8242 min
Histogram: 10 12 2 0 0 0 0 5 99 64

Total # of neighbors = 9082923
Ave neighs/atom = 26.788463
Ave special neighs/atom = 0.0000000
Neighbor list builds = 500000
Dangerous builds = 400000

write_restart   restart_write.dat
System init for write_restart ...
write_data	data.write
System init for write_data ...
WARNING: Not all mixed pair coeffs generated from mixing. Use write_data with 'pair ij' option to store all pair coeffs. (src/write_data.cpp:312)

Total wall time: 1:53:24
