LAMMPS (24 Dec 2020)
OMP_NUM_THREADS environment is not set. Defaulting to 1 thread. (src/comm.cpp:94)
  using 1 OpenMP thread(s) per MPI task
# Simple rigid body system
# needed variables: startTemp, temp

units		lj
atom_style	full
dimension 	3
boundary	p p f
pair_style	lj/smooth 2.5 3.0



variable 	sigma		equal 1.0
variable 	epsilon 	equal 1.0


region		box block 0 80 0 80 0 80
create_box 	3 box
Created orthogonal box = (0.0000000 0.0000000 0.0000000) to (80.000000 80.000000 80.000000)
  6 by 4 by 4 MPI processor grid
lattice 	sc 1.0
Lattice spacing in x,y,z = 1.0000000 1.0000000 1.0000000

create_atoms 	1 region box
Created 512000 atoms
  create_atoms CPU = 0.101 seconds

mass		1 1.0
mass		2 1.0
mass		3 1.0


group		solvent type 1
512000 atoms in group solvent


velocity 	solvent create ${startTemp} 563435 loop geom
velocity 	solvent create 0.5 563435 loop geom

read_data	data.vac add append
Reading data file ...
  orthogonal box = (0.0000000 0.0000000 0.0000000) to (80.000000 80.000000 160.00000)
  3 by 4 by 8 MPI processor grid
Finding 1-2 1-3 1-4 neighbors ...
  special bond factors lj:    0        0        0       
  special bond factors coul:  0        0        0       
     0 = max # of 1-2 neighbors
     0 = max # of 1-3 neighbors
     0 = max # of 1-4 neighbors
     1 = max # of special neighbors
  special bonds CPU = 0.450 seconds
  read_data CPU = 0.457 seconds

neighbor 	0.4 bin

pair_coeff	1 1 1.0 1.0
pair_coeff	2 2 0.0 0.0
pair_coeff	3 3 0.0 0.0
pair_coeff	2 3 0.0 0.0
pair_coeff	1 2*3 0.0 0.0

pair_modify 	shift yes

pair_write      1 1 1000 r 1.0 3.1 pair.txt LJ
Creating table file pair.txt with DATE: 2021-05-19
Neighbor list info ...
  update every 1 steps, delay 10 steps, check yes
  max neighbors/atom: 2000, page size: 100000
  master list distance cutoff = 3.4
  ghost atom cutoff = 3.4
  binsize = 1.7, bins = 48 48 95
  1 neighbor lists, perpetual/occasional/extra = 1 0 0
  (1) pair lj/smooth, perpetual
      attributes: half, newton on
      pair build: half/bin/newton
      stencil: half/bin/3d/newton
      bin: standard
balance 	1.05 shift z 10 1.05
Balancing ...
 rebalancing time: 0.009 seconds
  iteration count = 5
  initial/final maximal load/proc = 10800.000 6480.0000
  initial/final imbalance factor  = 2.0250000 1.2150000
  x cuts: 0.0000000 0.33333333 0.66666667 1.0000000
  y cuts: 0.0000000 0.25000000 0.50000000 0.75000000 1.0000000
  z cuts: 0.0000000 0.062500000 0.12890625 0.18750000 0.25781250 0.30859375 0.38671875 0.43750000 1.0000000


####################### WALLS ###########################


region	       low block  EDGE EDGE EDGE EDGE 0 2

region 	       top block  EDGE EDGE EDGE EDGE 159 160


delete_atoms   region low
WARNING: Ignoring 'compress yes' for molecular system (src/delete_atoms.cpp:125)
Deleted 19200 atoms, new total = 492800

delete_atoms   region top
WARNING: Ignoring 'compress yes' for molecular system (src/delete_atoms.cpp:125)
Deleted 0 atoms, new total = 492800


variable       epsilonWall equal 2*${epsilon}
variable       epsilonWall equal 2*1

variable       cutoffTop   equal   0.7147*${sigma}
variable       cutoffTop   equal   0.7147*1

variable       cutoffLow   equal   3*${sigma}
variable       cutoffLow   equal   3*1


fix            topWall all wall/lj93 zhi EDGE                ${epsilonWall} ${sigma} ${cutoffTop} units box
fix            topWall all wall/lj93 zhi EDGE                2 ${sigma} ${cutoffTop} units box
fix            topWall all wall/lj93 zhi EDGE                2 1 ${cutoffTop} units box
fix            topWall all wall/lj93 zhi EDGE                2 1 0.7147 units box

fix            lowWall all wall/lj93 zlo EDGE                ${epsilonWall} ${sigma} ${cutoffLow} units box
fix            lowWall all wall/lj93 zlo EDGE                2 ${sigma} ${cutoffLow} units box
fix            lowWall all wall/lj93 zlo EDGE                2 1 ${cutoffLow} units box
fix            lowWall all wall/lj93 zlo EDGE                2 1 3 units box


###################### COMPUTES ##########################

compute        bin1 solvent chunk/atom bin/1d z upper 1.0



######################	FIXES ############################


fix 		peclet solvent ave/chunk 1000 1 1000 bin1 density/number norm 		 none ave one file density.profile

fix 		 temp solvent ave/chunk 1000 1 1000 bin1 temp norm none ave one 		 file temp.profile

fix 		2 solvent nve

## Thermostat


region		regthermo block EDGE EDGE EDGE EDGE 0 20

group 		thermo dynamic solvent region regthermo every 1000
dynamic group thermo defined

fix 		3 thermo langevin ${startTemp} ${temp} 10 156453
fix 		3 thermo langevin 0.5 ${temp} 10 156453
fix 		3 thermo langevin 0.5 .5 10 156453



#### Load balancing


fix 		bal all balance 1000 1.05 shift z 10 1.05


############### Diagnostics and computes ###################
#compute 	com cube	  rigid/local	1 mol x y z
#compute 	quat cube	  rigid/local	1 mol quatw quati quatj quatk

thermo 		1000
thermo_style 	custom step temp epair evdwl etotal press pe ke vol

dump		1 all custom 100000 dump.lammpstrj id mol type x y z
dump 		2 all image 10000 image.*.png type type
dump 		3 all movie 1000 movie.avi type type
#dump 		com cube local 1000 dump.*.xyz c_com[*]
#dump		quat cube      local 1000 dump.*.quat c_quat[*]


restart 	500000 restart.dat
timestep 	0.0025
timer 		full
New timer settings: style=full  mode=nosync  timeout=off


run		1000000
Per MPI rank memory allocation (min/avg/max) = 12.19 | 12.58 | 12.81 Mbytes
Step Temp E_pair E_vdwl TotEng Press PotEng KinEng Volume 
       0   0.49998514   -3.5955076   -3.5955076   -2.8455314     8.314756   -3.5955076   0.74997619      1024000 
    1000    1.4105676   -5.0840325   -5.0840325   -2.9681855    3.5467895   -5.0840325    2.1158471      1024000 
    2000    1.3447719   -5.1231596   -5.1231596   -3.1060058    2.3541635   -5.1231596    2.0171538      1024000 
    3000    1.2391555   -5.0907879   -5.0907879   -3.2320584     1.535969   -5.0907879    1.8587295      1024000 
    4000    1.1832409   -5.0946621   -5.0946621   -3.3198044   0.63695689   -5.0946621    1.7748577      1024000 
    5000    1.1099246   -5.0285108   -5.0285108   -3.3636273 0.0036695074   -5.0285108    1.6648835      1024000 
    6000    1.0313807   -4.9269847   -4.9269847   -3.3799167  -0.33552082   -4.9269847    1.5470679      1024000 
    7000   0.97315788   -4.8437693   -4.8437693   -3.3840354  -0.42078039   -4.8437693    1.4597339      1024000 
    8000    0.9628012   -4.8312837   -4.8312837   -3.3870848  -0.28386601   -4.8312837    1.4441989      1024000 
    9000   0.98016811   -4.8671063   -4.8671063   -3.3968571  -0.11396829   -4.8671063    1.4702492      1024000 
   10000   0.98650364   -4.8927891   -4.8927891   -3.4130366 -0.019092061   -4.8927891    1.4797525      1024000 
   11000   0.98440449   -4.9035564   -4.9035564   -3.4269527 -0.0075279304   -4.9035564    1.4766037      1024000 
   12000   0.98248105   -4.9115768   -4.9115768   -3.4378582 0.0075584046   -4.9115768    1.4737186      1024000 
   13000   0.98547861   -4.9260303   -4.9260303   -3.4478154  0.042955381   -4.9260303    1.4782149      1024000 
   14000   0.98804331   -4.9387747   -4.9387747   -3.4567127  0.070672459   -4.9387747     1.482062      1024000 
   15000   0.98495585    -4.941171    -4.941171   -3.4637402  0.072201579    -4.941171    1.4774308      1024000 
   16000   0.98226895    -4.943223    -4.943223   -3.4698225  0.061270909    -4.943223    1.4734004      1024000 
   17000   0.97998988    -4.945819    -4.945819   -3.4758371  0.070681651    -4.945819    1.4699818      1024000 
   18000   0.98247289   -4.9542984   -4.9542984   -3.4805921  0.080001469   -4.9542984    1.4737063      1024000 
   19000   0.98328178   -4.9600036   -4.9600036   -3.4850839  0.093962622   -4.9600036    1.4749197      1024000 
   20000   0.98560369   -4.9672919   -4.9672919   -3.4888893   0.10700946   -4.9672919    1.4784025      1024000 
   21000   0.98694112     -4.97255     -4.97255   -3.4921413   0.11519106     -4.97255    1.4804087      1024000 
   22000   0.98855699   -4.9775122   -4.9775122   -3.4946797   0.12674768   -4.9775122    1.4828325      1024000 
   23000   0.98917662   -4.9817348   -4.9817348   -3.4979729   0.13090911   -4.9817348    1.4837619      1024000 
   24000   0.99047585   -4.9862624   -4.9862624   -3.5005516   0.14182073   -4.9862624    1.4857108      1024000 
   25000   0.99059543   -4.9889701   -4.9889701     -3.50308   0.14760192   -4.9889701    1.4858901      1024000 
   26000   0.99337232   -4.9964534   -4.9964534   -3.5063979   0.20917469   -4.9964534    1.4900555      1024000 
   27000    1.0023751   -5.0130928   -5.0130928   -3.5095332   0.63732707   -5.0130928    1.5035596      1024000 
   28000    1.0169405   -5.0369728   -5.0369728   -3.5115652    1.1439583   -5.0369728    1.5254076      1024000 
   29000    1.0326194   -5.0621026   -5.0621026   -3.5131766    1.6518966   -5.0621026     1.548926      1024000 
   30000    1.0412418   -5.0770411   -5.0770411   -3.5151816    1.8315446   -5.0770411    1.5618595      1024000 
   31000    1.0288666   -5.0592185   -5.0592185   -3.5159217    1.3652521   -5.0592185    1.5432968      1024000 
   32000      1.00753   -5.0289875   -5.0289875   -3.5176955   0.88904563   -5.0289875     1.511292      1024000 
   33000   0.97870341   -4.9865128   -4.9865128   -3.5184607   0.46978489   -4.9865128    1.4680521      1024000 
   34000   0.93748262   -4.9260193   -4.9260193   -3.5197983   0.17785337   -4.9260193    1.4062211      1024000 
   35000    0.8961502   -4.8655271   -4.8655271   -3.5213045 -2.7839437e-05   -4.8655271    1.3442226      1024000 
   36000   0.86590106   -4.8218387   -4.8218387   -3.5229897 -0.094316413   -4.8218387    1.2988489      1024000 
   37000   0.84714908   -4.7956011   -4.7956011     -3.52488  -0.13650032   -4.7956011     1.270721      1024000 
   38000   0.84105277   -4.7879694   -4.7879694   -3.5263929  -0.13957524   -4.7879694    1.2615766      1024000 
   39000   0.84541378   -4.7962439   -4.7962439   -3.5281258  -0.11658727   -4.7962439    1.2681181      1024000 
   40000    0.8588179   -4.8178428   -4.8178428   -3.5296186 -0.065994528   -4.8178428    1.2882242      1024000 
   41000    0.8772946   -4.8471587   -4.8471587   -3.5312195 0.00013933337   -4.8471587    1.3159392      1024000 
   42000   0.89774295   -4.8794787   -4.8794787    -3.532867  0.096288033   -4.8794787    1.3466117      1024000 
   43000   0.91433956   -4.9055386   -4.9055386    -3.534032   0.19183891   -4.9055386    1.3715066      1024000 
   44000   0.92567308   -4.9239316   -4.9239316   -3.5354248   0.25877719   -4.9239316    1.3885068      1024000 
   45000   0.92626618   -4.9259777   -4.9259777   -3.5365812   0.26485283   -4.9259777    1.3893964      1024000 
   46000   0.91511114   -4.9109587   -4.9109587   -3.5382948   0.19724234   -4.9109587    1.3726639      1024000 
   47000   0.89717752   -4.8855073   -4.8855073   -3.5397438   0.10170075   -4.8855073    1.3457635      1024000 
   48000    0.8788561   -4.8593228   -4.8593228   -3.5410414  0.011496181   -4.8593228    1.3182815      1024000 
   49000   0.86383678   -4.8381917   -4.8381917   -3.5424392  -0.03582303   -4.8381917    1.2957525      1024000 
   50000   0.85676434   -4.8294923   -4.8294923   -3.5443484 -0.058715054   -4.8294923    1.2851439      1024000 
   51000   0.85488189   -4.8285476   -4.8285476   -3.5462274 -0.059457713   -4.8285476    1.2823202      1024000 
   52000   0.85995327    -4.837554    -4.837554   -3.5476267 -0.031966477    -4.837554    1.2899273      1024000 
   53000   0.87326432   -4.8597195   -4.8597195   -3.5498257 0.0095652357   -4.8597195    1.3098938      1024000 
   54000   0.88815966   -4.8839498   -4.8839498    -3.551713  0.085456166   -4.8839498    1.3322368      1024000 
   55000   0.90539289   -4.9118859   -4.9118859   -3.5537993   0.16754107   -4.9118859    1.3580866      1024000 
   56000   0.91693977   -4.9310836   -4.9310836   -3.5556767   0.23792587   -4.9310836    1.3754069      1024000 
   57000    0.9237396   -4.9431901   -4.9431901   -3.5575835   0.27258265   -4.9431901    1.3856066      1024000 
   58000   0.92369779   -4.9454374   -4.9454374   -3.5598935   0.28208504   -4.9454374    1.3855439      1024000 
   59000   0.91936364   -4.9427855   -4.9427855   -3.5637428   0.28671815   -4.9427855    1.3790427      1024000 
   60000   0.91568512   -4.9417793   -4.9417793   -3.5682544   0.28050585   -4.9417793    1.3735249      1024000 
   61000   0.91010024   -4.9399223   -4.9399223   -3.5747748   0.29961007   -4.9399223    1.3651476      1024000 
   62000    0.9108376   -4.9495155   -4.9495155   -3.5832619   0.34055718   -4.9495155    1.3662536      1024000 
   63000   0.91281332   -4.9638199   -4.9638199   -3.5946027   0.39193941   -4.9638199    1.3692172      1024000 
   64000     0.909781   -4.9742354   -4.9742354   -3.6095666   0.41149036   -4.9742354    1.3646687      1024000 
   65000   0.89833267   -4.9749127   -4.9749127   -3.6274164   0.39312159   -4.9749127    1.3474963      1024000 
   66000   0.87962254   -4.9655114   -4.9655114   -3.6460802    0.3174962   -4.9655114    1.3194311      1024000 
   67000   0.85534889   -4.9469361   -4.9469361   -3.6639154   0.21515995   -4.9469361    1.2830207      1024000 
   68000   0.83264885   -4.9268841   -4.9268841   -3.6779133   0.11900041   -4.9268841    1.2489707      1024000 
   69000   0.81659295   -4.9149944   -4.9149944   -3.6901075   0.14132956   -4.9149944    1.2248869      1024000 
   70000   0.80737218   -4.9279202   -4.9279202   -3.7168643   0.28409347   -4.9279202    1.2110558      1024000 
   71000   0.80586657   -4.9571368   -4.9571368   -3.7483394   0.35909678   -4.9571368    1.2087974      1024000 
   72000   0.81381846   -4.9955842   -4.9955842    -3.774859   0.37211283   -4.9955842    1.2207252      1024000 
   73000   0.82388619   -5.0303139   -5.0303139   -3.7944871   0.39844556   -5.0303139    1.2358268      1024000 
   74000   0.83585214   -5.0630634   -5.0630634   -3.8092878   0.45509919   -5.0630634    1.2537757      1024000 
   75000   0.84374959   -5.0852475   -5.0852475   -3.8196257   0.54637978   -5.0852475    1.2656218      1024000 
   76000   0.84825395   -5.1010737   -5.1010737   -3.8286954   0.58098037   -5.1010737    1.2723783      1024000 
   77000   0.83236166   -5.0866302   -5.0866302   -3.8380902   0.47899646   -5.0866302      1.24854      1024000 
   78000   0.80894666   -5.0629474   -5.0629474   -3.8495299   0.37874946   -5.0629474    1.2134175      1024000 
   79000   0.78597871   -5.0413864   -5.0413864   -3.8624208   0.31044007   -5.0413864    1.1789657      1024000 
   80000   0.76751183   -5.0265604   -5.0265604    -3.875295   0.24968748   -5.0265604    1.1512654      1024000 
   81000   0.75615728   -5.0220691   -5.0220691   -3.8878354   0.15700616   -5.0220691    1.1342336      1024000 
   82000   0.74634899   -5.0170515   -5.0170515   -3.8975302  0.069646795   -5.0170515    1.1195212      1024000 
   83000   0.73770017   -5.0092223   -5.0092223   -3.9026743 -0.017196824   -5.0092223     1.106548      1024000 
   84000   0.72910673   -4.9976599   -4.9976599    -3.904002 -0.083998624   -4.9976599    1.0936579      1024000 
   85000   0.71947321   -4.9815867   -4.9815867    -3.902379  -0.14171407   -4.9815867    1.0792076      1024000 
   86000   0.70839379   -4.9611163   -4.9611163   -3.8985278  -0.19436706   -4.9611163    1.0625885      1024000 
   87000    0.6964937   -4.9399375   -4.9399375   -3.8951991  -0.24142161   -4.9399375    1.0447384      1024000 
   88000   0.68615755   -4.9217967   -4.9217967   -3.8925625  -0.27642924   -4.9217967    1.0292342      1024000 
   89000   0.67643694   -4.9060613   -4.9060613   -3.8914079  -0.29285639   -4.9060613    1.0146533      1024000 
   90000    0.6694428   -4.8963122   -4.8963122   -3.8921501  -0.29449443   -4.8963122    1.0041622      1024000 
   91000   0.66850672    -4.896625    -4.896625   -3.8938669  -0.28741351    -4.896625     1.002758      1024000 
   92000   0.67185795   -4.9041638   -4.9041638    -3.896379  -0.27102458   -4.9041638    1.0077849      1024000 
   93000   0.67828841   -4.9177025   -4.9177025   -3.9002719  -0.23846133   -4.9177025    1.0174305      1024000 
   94000   0.68921487   -4.9365625   -4.9365625   -3.9027423  -0.20226053   -4.9365625    1.0338202      1024000 
   95000   0.70118074   -4.9579829   -4.9579829   -3.9062139  -0.14966945   -4.9579829     1.051769      1024000 
   96000   0.71498556   -4.9829142   -4.9829142    -3.910438 -0.096778537   -4.9829142    1.0724762      1024000 
   97000   0.72694542   -5.0045709   -5.0045709    -3.914155 -0.040169063   -5.0045709    1.0904159      1024000 
   98000   0.73389828   -5.0195084   -5.0195084   -3.9186632  0.012747651   -5.0195084    1.1008452      1024000 
   99000   0.73874422   -5.0317988   -5.0317988   -3.9236848  0.038911457   -5.0317988    1.1081141      1024000 
  100000   0.73792316   -5.0360616   -5.0360616   -3.9291791  0.054457597   -5.0360616    1.1068825      1024000 
  101000   0.73474762   -5.0385843   -5.0385843   -3.9364651   0.05416747   -5.0385843    1.1021192      1024000 
  102000   0.73152883   -5.0416877   -5.0416877   -3.9443967  0.049262054   -5.0416877     1.097291      1024000 
  103000   0.72856049   -5.0451803   -5.0451803   -3.9523417  0.035629934   -5.0451803    1.0928385      1024000 
  104000   0.72593414   -5.0489037   -5.0489037   -3.9600047   0.03184096   -5.0489037     1.088899      1024000 
  105000    0.7263886   -5.0563808   -5.0563808   -3.9668001   0.02017684   -5.0563808    1.0895807      1024000 
  106000   0.72627569   -5.0626044   -5.0626044    -3.973193   0.01090376   -5.0626044    1.0894113      1024000 
  107000   0.72630024   -5.0672369   -5.0672369   -3.9777887  0.013258984   -5.0672369    1.0894481      1024000 
  108000   0.72595756   -5.0722565   -5.0722565   -3.9833223  0.016769847   -5.0722565    1.0889341      1024000 
  109000   0.72639398   -5.0768541   -5.0768541   -3.9872653  0.012325742   -5.0768541    1.0895888      1024000 
  110000   0.72443413   -5.0781902   -5.0781902   -3.9915412  0.016654371   -5.0781902     1.086649      1024000 
  111000   0.72386388   -5.0830357   -5.0830357   -3.9972421  0.016188268   -5.0830357    1.0857936      1024000 
  112000    0.7233786   -5.0878307   -5.0878307    -4.002765  0.019125993   -5.0878307    1.0850657      1024000 
  113000   0.72250934   -5.0922289   -5.0922289   -4.0084671  0.022756672   -5.0922289    1.0837618      1024000 
  114000   0.72280596   -5.0996747   -5.0996747   -4.0154679  0.024286554   -5.0996747    1.0842067      1024000 
  115000   0.72294633    -5.105729    -5.105729   -4.0213117  0.027470268    -5.105729    1.0844173      1024000 
  116000   0.72420842   -5.1137704   -5.1137704   -4.0274599  0.032797497   -5.1137704    1.0863104      1024000 
  117000   0.72447695    -5.119778    -5.119778   -4.0330648   0.04282608    -5.119778    1.0867132      1024000 
  118000   0.72527524   -5.1266404   -5.1266404   -4.0387298  0.051375551   -5.1266404    1.0879107      1024000 
  119000   0.72708549   -5.1356972   -5.1356972   -4.0450711  0.051540577   -5.1356972     1.090626      1024000 
  120000   0.72624763   -5.1400335   -5.1400335   -4.0506643  0.055169339   -5.1400335    1.0893692      1024000 
  121000   0.72412695   -5.1432021   -5.1432021   -4.0570139  0.051411698   -5.1432021    1.0861882      1024000 
  122000   0.72262444   -5.1468362   -5.1468362   -4.0629018  0.052377299   -5.1468362    1.0839345      1024000 
  123000   0.72071287   -5.1499293   -5.1499293   -4.0688622  0.045059184   -5.1499293    1.0810671      1024000 
  124000   0.71917794   -5.1543673   -5.1543673   -4.0756026   0.03544025   -5.1543673    1.0787647      1024000 
  125000   0.71652421   -5.1561455   -5.1561455   -4.0813614  0.028023291   -5.1561455    1.0747841      1024000 
  126000    0.7159001   -5.1609343   -5.1609343   -4.0870863     0.019384   -5.1609343     1.073848      1024000 
  127000   0.71472941   -5.1644803   -5.1644803   -4.0923884 0.0056564346   -5.1644803    1.0720919      1024000 
  128000   0.71183814   -5.1650663   -5.1650663   -4.0973112 -0.0031050056   -5.1650663     1.067755      1024000 
  129000   0.70944995   -5.1660311   -5.1660311   -4.1018583  -0.01467206   -5.1660311    1.0641728      1024000 
  130000   0.70704227   -5.1667605   -5.1667605   -4.1061992 -0.022950447   -5.1667605    1.0605613      1024000 
  131000   0.70500547   -5.1684237   -5.1684237   -4.1109176 -0.034819028   -5.1684237    1.0575061      1024000 
  132000   0.70291127   -5.1696242   -5.1696242   -4.1152594 -0.037532896   -5.1696242    1.0543648      1024000 
  133000   0.70174838   -5.1719399   -5.1719399   -4.1193195  -0.04313364   -5.1719399    1.0526204      1024000 
  134000   0.70059067   -5.1747602   -5.1747602   -4.1238763  -0.04918753   -5.1747602    1.0508839      1024000 
  135000   0.70020591   -5.1781169   -5.1781169   -4.1278102 -0.049137231   -5.1781169    1.0503067      1024000 
  136000   0.70088257   -5.1834909   -5.1834909   -4.1321691 -0.051077795   -5.1834909    1.0513217      1024000 
  137000   0.70261771   -5.1900742   -5.1900742   -4.1361497  -0.05299014   -5.1900742    1.0539244      1024000 
  138000   0.70168516   -5.1937102   -5.1937102   -4.1411846 -0.045308805   -5.1937102    1.0525256      1024000 
  139000   0.70199348   -5.1985183   -5.1985183   -4.1455303 -0.035751149   -5.1985183    1.0529881      1024000 
  140000   0.70310168   -5.2045449   -5.2045449   -4.1498945 -0.033785189   -5.2045449    1.0546504      1024000 
  141000   0.70310007   -5.2096226   -5.2096226   -4.1549746 -0.025276367   -5.2096226     1.054648      1024000 
  142000   0.70304192   -5.2145502   -5.2145502   -4.1599894 -0.017473623   -5.2145502    1.0545607      1024000 
  143000    0.7046594   -5.2213453   -5.2213453   -4.1643584 -0.0086912029   -5.2213453     1.056987      1024000 
  144000   0.70494373   -5.2268886   -5.2268886   -4.1694751 0.0024246734   -5.2268886    1.0574134      1024000 
  145000   0.70733626   -5.2354657   -5.2354657   -4.1744635 0.0040352171   -5.2354657    1.0610022      1024000 
  146000   0.70582652   -5.2379174   -5.2379174   -4.1791798  0.017704956   -5.2379174    1.0587376      1024000 
  147000   0.70783689   -5.2458724   -5.2458724   -4.1841192   0.01887671   -5.2458724    1.0617532      1024000 
  148000   0.70835349   -5.2515063   -5.2515063   -4.1889782  0.020059274   -5.2515063    1.0625281      1024000 
  149000   0.70569184   -5.2519342   -5.2519342   -4.1933986  0.027317407   -5.2519342    1.0585356      1024000 
  150000   0.70538591   -5.2561968   -5.2561968   -4.1981201  0.021664979   -5.2561968    1.0580767      1024000 
  151000   0.70529843    -5.260459    -5.260459   -4.2025135  0.022124687    -5.260459    1.0579455      1024000 
  152000   0.70393876   -5.2623851   -5.2623851   -4.2064791  0.018626255   -5.2623851     1.055906      1024000 
  153000   0.70229874   -5.2643847   -5.2643847   -4.2109387 0.0088540413   -5.2643847     1.053446      1024000 
  154000   0.70024614   -5.2664222   -5.2664222   -4.2160551 0.0047264765   -5.2664222    1.0503671      1024000 
  155000   0.69928546   -5.2691263   -5.2691263   -4.2202003 -0.0067931813   -5.2691263    1.0489261      1024000 
  156000   0.69688721   -5.2697839   -5.2697839   -4.2244552 -0.014554482   -5.2697839    1.0453287      1024000 
  157000   0.69561123   -5.2720836   -5.2720836   -4.2286689 -0.020253153   -5.2720836    1.0434147      1024000 
  158000   0.69437715   -5.2735875   -5.2735875   -4.2320239 -0.028544951   -5.2735875    1.0415636      1024000 
  159000   0.69195913    -5.274857    -5.274857   -4.2369204 -0.038485047    -5.274857    1.0379366      1024000 
  160000   0.69012263   -5.2762041   -5.2762041   -4.2410223 -0.042123668   -5.2762041    1.0351818      1024000 
  161000   0.69004231    -5.279549    -5.279549   -4.2444876 -0.051321003    -5.279549    1.0350614      1024000 
  162000   0.68959377   -5.2822986   -5.2822986   -4.2479101 -0.054464326   -5.2822986    1.0343886      1024000 
  163000   0.68872545   -5.2843946   -5.2843946   -4.2513085 -0.048438706   -5.2843946    1.0330861      1024000 
  164000   0.68897214   -5.2878593   -5.2878593   -4.2544032 -0.048515695   -5.2878593    1.0334561      1024000 
  165000   0.68918854   -5.2920511   -5.2920511   -4.2582704  -0.04603508   -5.2920511    1.0337807      1024000 
  166000   0.68853347   -5.2948005   -5.2948005   -4.2620024 -0.033387995   -5.2948005    1.0327981      1024000 
  167000   0.69000494   -5.3011834   -5.3011834   -4.2661781 -0.036528939   -5.3011834    1.0350053      1024000 
  168000   0.69126055   -5.3064357   -5.3064357   -4.2695469    -0.027095   -5.3064357    1.0368887      1024000 
  169000   0.69225767   -5.3113228   -5.3113228   -4.2729384 -0.019690593   -5.3113228    1.0383844      1024000 
  170000   0.69255873   -5.3156231   -5.3156231   -4.2767871  -0.01375912   -5.3156231     1.038836      1024000 
  171000   0.69267258   -5.3194959   -5.3194959   -4.2804891 -0.0066949891   -5.3194959    1.0390068      1024000 
  172000   0.69359431   -5.3240737   -5.3240737   -4.2836844 0.0018456228   -5.3240737    1.0403894      1024000 
  173000   0.69426633   -5.3288678   -5.3288678   -4.2874704 0.0081697894   -5.3288678    1.0413974      1024000 
  174000    0.6922801   -5.3299505   -5.3299505   -4.2915324  0.015229456   -5.3299505     1.038418      1024000 
  175000   0.69359849   -5.3354893   -5.3354893   -4.2950936  0.014152022   -5.3354893    1.0403956      1024000 
  176000   0.69318388   -5.3385743   -5.3385743   -4.2988006  0.010362348   -5.3385743    1.0397737      1024000 
  177000   0.69276921    -5.341742    -5.341742   -4.3025903   0.00584069    -5.341742    1.0391517      1024000 
  178000   0.69262197   -5.3449803   -5.3449803   -4.3060495  0.004092671   -5.3449803    1.0389309      1024000 
  179000   0.69152446   -5.3465311   -5.3465311   -4.3092465 -0.004305569   -5.3465311    1.0372846      1024000 
  180000   0.68913246    -5.345693    -5.345693   -4.3119964 -0.007867487    -5.345693    1.0336966      1024000 
  181000   0.68775339   -5.3471512   -5.3471512   -4.3155232 -0.016291255   -5.3471512     1.031628      1024000 
  182000   0.68589877    -5.348588    -5.348588    -4.319742  -0.02438738    -5.348588    1.0288461      1024000 
  183000   0.68395273   -5.3484686   -5.3484686   -4.3225416 -0.032169981   -5.3484686     1.025927      1024000 
  184000   0.68313277   -5.3500672   -5.3500672   -4.3253701 -0.038733745   -5.3500672    1.0246971      1024000 
  185000   0.68094488    -5.350304    -5.350304   -4.3288887 -0.039251778    -5.350304    1.0214152      1024000 
  186000   0.67984461   -5.3512764   -5.3512764   -4.3315115 -0.043470967   -5.3512764    1.0197649      1024000 
  187000   0.67962405   -5.3532562   -5.3532562   -4.3338221 -0.045605905   -5.3532562     1.019434      1024000 
  188000     0.679335   -5.3553703   -5.3553703   -4.3363699  -0.05025312   -5.3553703    1.0190004      1024000 
  189000   0.67925759   -5.3585579   -5.3585579   -4.3396736 -0.047807852   -5.3585579    1.0188843      1024000 
  190000    0.6793435   -5.3615758   -5.3615758   -4.3425626 -0.045626487   -5.3615758    1.0190132      1024000 
  191000   0.67956072   -5.3645607   -5.3645607   -4.3452217 -0.044294021   -5.3645607     1.019339      1024000 
  192000   0.68029849   -5.3687115   -5.3687115   -4.3482658 -0.036568535   -5.3687115    1.0204457      1024000 
  193000   0.68141604    -5.373437    -5.373437    -4.351315 -0.035956064    -5.373437     1.022122      1024000 
  194000   0.68201225   -5.3769982   -5.3769982   -4.3539819 -0.029259551   -5.3769982    1.0230163      1024000 
  195000   0.68161162   -5.3793429   -5.3793429   -4.3569276 -0.019503941   -5.3793429    1.0224154      1024000 
  196000   0.68210374   -5.3821641   -5.3821641   -4.3590106 -0.0079225159   -5.3821641    1.0231535      1024000 
  197000    0.6834237   -5.3875992   -5.3875992   -4.3624657 -0.0083288342   -5.3875992    1.0251335      1024000 
  198000   0.68281204   -5.3899605   -5.3899605   -4.3657445 -0.0064871894   -5.3899605     1.024216      1024000 
  199000   0.68241527    -5.392193    -5.392193   -4.3685722 -0.0006041283    -5.392193    1.0236208      1024000 
  200000   0.68332488   -5.3968273   -5.3968273    -4.371842 -0.0017446994   -5.3968273    1.0249852      1024000 
  201000   0.68230928   -5.3985358   -5.3985358    -4.375074 -7.0628718e-05   -5.3985358    1.0234618      1024000 
  202000   0.68196362   -5.4014428   -5.4014428   -4.3784995 -0.0045774054   -5.4014428    1.0229434      1024000 
  203000   0.68006757   -5.4014042   -5.4014042   -4.3813049 -0.0057107953   -5.4014042    1.0200993      1024000 
  204000   0.67920232   -5.4023501   -5.4023501   -4.3835487 -0.0096493005   -5.4023501    1.0188014      1024000 
  205000   0.67819153   -5.4037526   -5.4037526   -4.3864674 -0.013509135   -5.4037526    1.0172852      1024000 
  206000   0.67737811   -5.4052231   -5.4052231    -4.389158 -0.020271798   -5.4052231    1.0160651      1024000 
  207000   0.67640218   -5.4061983   -5.4061983   -4.3915971 -0.027620441   -5.4061983    1.0146012      1024000 
  208000   0.67615989    -5.408235    -5.408235   -4.3939973  -0.03440014    -5.408235    1.0142378      1024000 
  209000   0.67443905   -5.4079721   -5.4079721   -4.3963156 -0.036564887   -5.4079721    1.0116565      1024000 
  210000   0.67337155   -5.4091108   -5.4091108   -4.3990555 -0.042029991   -5.4091108    1.0100553      1024000 
  211000   0.67298521   -5.4110487   -5.4110487   -4.4015729 -0.045167433   -5.4110487    1.0094758      1024000 
  212000   0.67233508   -5.4132164   -5.4132164   -4.4047159  -0.05093638   -5.4132164    1.0085006      1024000 
  213000   0.67178148   -5.4144977   -5.4144977   -4.4068275 -0.047487202   -5.4144977    1.0076702      1024000 
  214000   0.67081046    -5.416846    -5.416846   -4.4106324 -0.048771998    -5.416846    1.0062136      1024000 
  215000   0.67074061   -5.4193381   -5.4193381   -4.4132292 -0.043410189   -5.4193381    1.0061089      1024000 
  216000   0.67138296   -5.4229378   -5.4229378   -4.4158654 -0.043060489   -5.4229378    1.0070724      1024000 
  217000   0.67186625    -5.426711    -5.426711   -4.4189136 -0.037786254    -5.426711    1.0077973      1024000 
  218000   0.67289568   -5.4304094   -5.4304094   -4.4210679 -0.029424182   -5.4304094    1.0093415      1024000 
  219000   0.67275711   -5.4332717   -5.4332717   -4.4241381 -0.024066041   -5.4332717    1.0091336      1024000 
  220000     0.672749   -5.4360773   -5.4360773   -4.4269559 -0.021578288   -5.4360773    1.0091215      1024000 
  221000    0.6728182   -5.4389437   -5.4389437   -4.4297185 -0.015256031   -5.4389437    1.0092253      1024000 
  222000   0.67341565   -5.4423763   -5.4423763   -4.4322549 -0.009711964   -5.4423763    1.0101214      1024000 
  223000   0.67367688   -5.4452903   -5.4452903    -4.434777 -0.011331516   -5.4452903    1.0105133      1024000 
  224000   0.67344338   -5.4476415   -5.4476415   -4.4374785 -0.0026006842   -5.4476415     1.010163      1024000 
  225000    0.6731309   -5.4497469   -5.4497469   -4.4400526 -0.0036882951   -5.4497469    1.0096943      1024000 
  226000   0.67262608   -5.4510167   -5.4510167   -4.4420796 -0.0063323815   -5.4510167    1.0089371      1024000 
  227000   0.67311467   -5.4546575   -5.4546575   -4.4449875 -0.017804534   -5.4546575      1.00967      1024000 
  228000   0.67186651   -5.4548036   -5.4548036   -4.4470059 -0.013301154   -5.4548036    1.0077977      1024000 
  229000   0.67096404   -5.4557554   -5.4557554   -4.4493114 -0.021961715   -5.4557554     1.006444      1024000 
  230000    0.6692801   -5.4547074   -5.4547074   -4.4507893  -0.02077682   -5.4547074    1.0039181      1024000 
  231000   0.66900555   -5.4571443   -5.4571443    -4.453638 -0.030836232   -5.4571443    1.0035063      1024000 
  232000   0.66698017   -5.4567139   -5.4567139   -4.4562457 -0.035694497   -5.4567139    1.0004682      1024000 
  233000   0.66591469   -5.4583183   -5.4583183   -4.4594482 -0.040065781   -5.4583183   0.99887001      1024000 
  234000   0.66559886   -5.4601383   -5.4601383   -4.4617421 -0.042424869   -5.4601383   0.99839626      1024000 
  235000   0.66352391   -5.4601889   -5.4601889    -4.464905 -0.047062498   -5.4601889   0.99528385      1024000 
  236000   0.66380085   -5.4632337   -5.4632337   -4.4675344 -0.049733968   -5.4632337   0.99569926      1024000 
  237000   0.66357442   -5.4649318   -5.4649318   -4.4695722 -0.049258834   -5.4649318    0.9953596      1024000 
  238000    0.6642571   -5.4675634   -5.4675634   -4.4711798 -0.046740904   -5.4675634   0.99638363      1024000 
  239000   0.66364798    -5.468343    -5.468343    -4.472873 -0.042544718    -5.468343   0.99546994      1024000 
  240000   0.66465684   -5.4719528   -5.4719528   -4.4749695  -0.03924946   -5.4719528   0.99698324      1024000 
  241000   0.66509296   -5.4749684   -5.4749684    -4.477331 -0.036186732   -5.4749684   0.99763742      1024000 
  242000   0.66437155   -5.4760144   -5.4760144   -4.4794591 -0.026237648   -5.4760144    0.9965553      1024000 
  243000   0.66587217   -5.4813227   -5.4813227   -4.4825164  -0.02597631   -5.4813227   0.99880623      1024000 
  244000    0.6660212   -5.4835818   -5.4835818    -4.484552 -0.022691443   -5.4835818   0.99902978      1024000 
  245000   0.66604044   -5.4860021   -5.4860021   -4.4869435 -0.019539781   -5.4860021   0.99905864      1024000 
  246000   0.66611947   -5.4884698   -5.4884698   -4.4892926  -0.01679854   -5.4884698   0.99917717      1024000 
  247000   0.66517631   -5.4895141   -5.4895141   -4.4917516 -0.015684493   -5.4895141   0.99776244      1024000 
  248000    0.6646885   -5.4922208   -5.4922208   -4.4951901 -0.012528287   -5.4922208   0.99703073      1024000 
  249000   0.66519745   -5.4954898   -5.4954898   -4.4976956 -0.020597632   -5.4954898   0.99779415      1024000 
  250000   0.66538344   -5.4979148   -5.4979148   -4.4998417 -0.022318942   -5.4979148   0.99807313      1024000 
  251000    0.6635955   -5.4974468   -5.4974468   -4.5020556 -0.020999197   -5.4974468   0.99539123      1024000 
  252000    0.6626056    -5.498102    -5.498102   -4.5041956 -0.025156841    -5.498102   0.99390638      1024000 
  253000    0.6615761   -5.4986288   -5.4986288   -4.5062666 -0.023591394   -5.4986288   0.99236214      1024000 
  254000   0.66152768   -5.5011295   -5.5011295   -4.5088399 -0.033898555   -5.5011295    0.9922895      1024000 
  255000   0.66133218   -5.5029225   -5.5029225   -4.5109263 -0.041828455   -5.5029225   0.99199625      1024000 
  256000   0.65973019   -5.5034086   -5.5034086   -4.5138153 -0.040766871   -5.5034086   0.98959328      1024000 
  257000   0.65982726   -5.5055583   -5.5055583   -4.5158194  -0.04398547   -5.5055583   0.98973888      1024000 
  258000   0.65818075   -5.5050385   -5.5050385   -4.5177693 -0.041924588   -5.5050385   0.98726913      1024000 
  259000   0.65727724   -5.5057496   -5.5057496   -4.5198357 -0.043183871   -5.5057496   0.98591386      1024000 
  260000   0.65728206   -5.5077038   -5.5077038   -4.5217827 -0.044318698   -5.5077038    0.9859211      1024000 
  261000   0.65764583   -5.5105989   -5.5105989   -4.5241321 -0.045243937   -5.5105989   0.98646674      1024000 
  262000   0.65748395   -5.5124799   -5.5124799    -4.526256  -0.04420591   -5.5124799   0.98622392      1024000 
  263000   0.65798989   -5.5153192   -5.5153192   -4.5283364 -0.042625833   -5.5153192   0.98698283      1024000 
  264000   0.65734845   -5.5166372   -5.5166372   -4.5306165 -0.037074756   -5.5166372   0.98602067      1024000 
  265000    0.6570685   -5.5184855   -5.5184855   -4.5328847 -0.031654632   -5.5184855   0.98560075      1024000 
  266000   0.65805865   -5.5220084   -5.5220084   -4.5349225 -0.033189836   -5.5220084   0.98708598      1024000 
  267000   0.65859447   -5.5251174   -5.5251174   -4.5372277 -0.031385475   -5.5251174   0.98788971      1024000 
  268000   0.65831221   -5.5265079   -5.5265079   -4.5390416 -0.023495842   -5.5265079   0.98746631      1024000 
  269000     0.658274   -5.5284279   -5.5284279   -4.5410189 -0.023104335   -5.5284279   0.98740899      1024000 
  270000   0.65831362   -5.5310468   -5.5310468   -4.5435784 -0.020408898   -5.5310468   0.98746842      1024000 
  271000   0.65820868   -5.5322509   -5.5322509   -4.5449399 -0.024633857   -5.5322509   0.98731101      1024000 
  272000    0.6577044   -5.5338801   -5.5338801   -4.5473255 -0.023691568   -5.5338801   0.98655459      1024000 
  273000   0.65758832    -5.536096    -5.536096   -4.5497156 -0.022096023    -5.536096   0.98638047      1024000 
  274000   0.65728935   -5.5369689   -5.5369689   -4.5510369 -0.024925467   -5.5369689   0.98593202      1024000 
  275000   0.65617282   -5.5376258   -5.5376258   -4.5533686 -0.028319079   -5.5376258   0.98425723      1024000 
  276000   0.65484324   -5.5373775   -5.5373775   -4.5551146  -0.02950275   -5.5373775   0.98226286      1024000 
  277000   0.65535402   -5.5405881   -5.5405881   -4.5575591 -0.039236554   -5.5405881   0.98302904      1024000 
  278000   0.65364403   -5.5394182   -5.5394182   -4.5589541 -0.031569006   -5.5394182   0.98046406      1024000 
  279000   0.65263679   -5.5402838   -5.5402838   -4.5613306 -0.033982781   -5.5402838   0.97895319      1024000 
  280000   0.65276954   -5.5417633   -5.5417633    -4.562611  -0.04178925   -5.5417633   0.97915232      1024000 
  281000   0.65175299   -5.5419309   -5.5419309   -4.5643034 -0.037648843   -5.5419309    0.9776275      1024000 
  282000   0.65258212   -5.5456417   -5.5456417   -4.5667705  -0.04511031   -5.5456417   0.97887119      1024000 
  283000   0.65186956   -5.5462586   -5.5462586   -4.5684563 -0.039274394   -5.5462586   0.97780236      1024000 
  284000   0.65189424   -5.5485323   -5.5485323   -4.5706929 -0.041999897   -5.5485323   0.97783937      1024000 
  285000   0.65067656   -5.5491424   -5.5491424   -4.5731296 -0.039418651   -5.5491424   0.97601286      1024000 
  286000   0.65176792   -5.5524262   -5.5524262   -4.5747764 -0.039230701   -5.5524262    0.9776499      1024000 
  287000   0.65103264   -5.5533683   -5.5533683   -4.5768214 -0.035608204   -5.5533683   0.97654698      1024000 
  288000   0.65275666   -5.5590679   -5.5590679   -4.5799349 -0.040494321   -5.5590679     0.979133      1024000 
  289000   0.65107356   -5.5587437   -5.5587437   -4.5821354 -0.031177737   -5.5587437   0.97660836      1024000 
  290000   0.65031821   -5.5598078   -5.5598078   -4.5843325 -0.029642773   -5.5598078   0.97547533      1024000 
  291000   0.65170557   -5.5630925   -5.5630925   -4.5855361 -0.033531053   -5.5630925   0.97755637      1024000 
  292000   0.65106493   -5.5645005   -5.5645005   -4.5879051 -0.031729744   -5.5645005   0.97659542      1024000 
  293000    0.6512481   -5.5663856   -5.5663856   -4.5895155 -0.025539937   -5.5663856   0.97687017      1024000 
  294000   0.65105857   -5.5681447   -5.5681447   -4.5915588 -0.025226095   -5.5681447   0.97658587      1024000 
  295000   0.65082822   -5.5696757   -5.5696757   -4.5934353 -0.026963921   -5.5696757   0.97624035      1024000 
  296000   0.64962757   -5.5702378   -5.5702378   -4.5957984 -0.029406654   -5.5702378   0.97443938      1024000 
  297000   0.64922147   -5.5713131   -5.5713131   -4.5974829 -0.027108626   -5.5713131   0.97383024      1024000 
  298000   0.64897472   -5.5726309   -5.5726309   -4.5991708 -0.031058389   -5.5726309   0.97346011      1024000 
  299000   0.64894874   -5.5746576   -5.5746576   -4.6012364 -0.033942129   -5.5746576   0.97342113      1024000 
  300000   0.64829036   -5.5753652   -5.5753652   -4.6029316 -0.036196903   -5.5753652   0.97243356      1024000 
  301000    0.6480369   -5.5770702   -5.5770702   -4.6050168 -0.039587746   -5.5770702   0.97205338      1024000 
  302000   0.64736386   -5.5779291   -5.5779291   -4.6068852 -0.043186934   -5.5779291   0.97104382      1024000 
  303000   0.64751864   -5.5792477   -5.5792477   -4.6079717  -0.04419731   -5.5792477   0.97127598      1024000 
  304000   0.64614509   -5.5796131   -5.5796131   -4.6103974 -0.043917371   -5.5796131   0.96921567      1024000 
  305000   0.64673724   -5.5820466   -5.5820466   -4.6119427 -0.046181218   -5.5820466   0.97010389      1024000 
  306000   0.64635968   -5.5830633   -5.5830633   -4.6135258 -0.040778641   -5.5830633   0.96953755      1024000 
  307000   0.64586954   -5.5849718   -5.5849718   -4.6161694 -0.040425088   -5.5849718   0.96880235      1024000 
  308000   0.64654702   -5.5877996   -5.5877996    -4.617981 -0.043299417   -5.5877996   0.96981857      1024000 
  309000   0.64596821    -5.588878    -5.588878   -4.6199276 -0.038177248    -5.588878   0.96895035      1024000 
  310000   0.64554667   -5.5899789   -5.5899789   -4.6216609 -0.037045296   -5.5899789   0.96831804      1024000 
  311000   0.64472533   -5.5913569   -5.5913569   -4.6242708 -0.031902045   -5.5913569   0.96708603      1024000 
  312000   0.64528499   -5.5936653   -5.5936653   -4.6257398 -0.030283035   -5.5936653   0.96792553      1024000 
  313000   0.64655781   -5.5972539   -5.5972539   -4.6274192  -0.03263255   -5.5972539   0.96983475      1024000 
  314000   0.64579871   -5.5980937   -5.5980937   -4.6293976 -0.034035615   -5.5980937    0.9686961      1024000 
  315000   0.64520678   -5.5996756   -5.5996756   -4.6318674 -0.029892445   -5.5996756    0.9678082      1024000 
  316000   0.64561619   -5.6020874   -5.6020874   -4.6336651 -0.029399717   -5.6020874   0.96842233      1024000 
  317000   0.64535675   -5.6035387   -5.6035387   -4.6355056 -0.028471541   -5.6035387   0.96803316      1024000 
  318000   0.64395548   -5.6034766   -5.6034766   -4.6375453 -0.029167759   -5.6034766   0.96593126      1024000 
  319000   0.64432376   -5.6058182   -5.6058182   -4.6393345 -0.036390183   -5.6058182   0.96648368      1024000 
  320000   0.64395244   -5.6069258   -5.6069258   -4.6409991  -0.03780617   -5.6069258   0.96592669      1024000 
  321000   0.64322537   -5.6070502   -5.6070502   -4.6422141 -0.037207252   -5.6070502    0.9648361      1024000 
  322000   0.64292029   -5.6077923   -5.6077923   -4.6434138 -0.038237689   -5.6077923   0.96437848      1024000 
  323000   0.64249443   -5.6093711   -5.6093711   -4.6456314 -0.035867544   -5.6093711   0.96373969      1024000 
  324000   0.64177403   -5.6100942   -5.6100942   -4.6474351 -0.035712227   -5.6100942   0.96265909      1024000 
  325000    0.6421225    -5.611565    -5.611565   -4.6483832 -0.036925778    -5.611565    0.9631818      1024000 
  326000   0.64126997   -5.6124597   -5.6124597   -4.6505567 -0.038884407   -5.6124597   0.96190301      1024000 
  327000    0.6395176   -5.6120551   -5.6120551   -4.6527807 -0.039127316   -5.6120551   0.95927445      1024000 
  328000   0.64092471   -5.6166666   -5.6166666   -4.6552814 -0.045005826   -5.6166666   0.96138511      1024000 
  329000   0.64038054   -5.6182286   -5.6182286   -4.6576597 -0.045761767   -5.6182286   0.96056885      1024000 
  330000   0.63960345   -5.6186247   -5.6186247   -4.6592215 -0.042645365   -5.6186247   0.95940323      1024000 
  331000   0.64007329   -5.6211133   -5.6211133   -4.6610053 -0.043263492   -5.6211133   0.96010799      1024000 
  332000   0.64009253   -5.6235123   -5.6235123   -4.6633755 -0.041628236   -5.6235123   0.96013685      1024000 
  333000   0.63935919   -5.6242055   -5.6242055   -4.6651687 -0.037519707   -5.6242055   0.95903684      1024000 
  334000   0.64048507   -5.6272666   -5.6272666    -4.666541 -0.038671891   -5.6272666   0.96072565      1024000 
  335000   0.64004542   -5.6285103   -5.6285103   -4.6684441 -0.036203427   -5.6285103   0.96006618      1024000 
  336000    0.6403092   -5.6302805   -5.6302805   -4.6698187 -0.036837095   -5.6302805   0.96046185      1024000 
  337000   0.64004005   -5.6317858   -5.6317858   -4.6717277 -0.033806942   -5.6317858   0.96005813      1024000 
  338000   0.63909095   -5.6315638   -5.6315638   -4.6729293 -0.030310824   -5.6315638   0.95863448      1024000 
  339000   0.63957786   -5.6347282   -5.6347282   -4.6753633  -0.03285642   -5.6347282   0.95936485      1024000 
  340000   0.63925709   -5.6369037   -5.6369037   -4.6780201 -0.037868334   -5.6369037   0.95888369      1024000 
  341000   0.63841401    -5.637073    -5.637073   -4.6794539  -0.03078849    -5.637073   0.95761908      1024000 
  342000   0.63890491   -5.6390649   -5.6390649   -4.6807095 -0.035002334   -5.6390649   0.95835542      1024000 
  343000    0.6386312   -5.6406365   -5.6406365   -4.6826917 -0.036331741   -5.6406365   0.95794486      1024000 
  344000   0.63742517   -5.6407655   -5.6407655   -4.6846297  -0.03896675   -5.6407655   0.95613581      1024000 
  345000    0.6378083   -5.6430257   -5.6430257   -4.6863151 -0.040104329   -5.6430257   0.95671051      1024000 
  346000   0.63668525   -5.6429527   -5.6429527   -4.6879268 -0.037657739   -5.6429527   0.95502594      1024000 
  347000   0.63694148    -5.644741    -5.644741   -4.6893307 -0.042958479    -5.644741   0.95541028      1024000 
  348000   0.63599038   -5.6455563   -5.6455563   -4.6915726 -0.039946678   -5.6455563   0.95398364      1024000 
  349000   0.63601068   -5.6477098   -5.6477098   -4.6936957 -0.042292095   -5.6477098   0.95401409      1024000 
  350000   0.63659765   -5.6499717   -5.6499717   -4.6950772 -0.045605809   -5.6499717   0.95489453      1024000 
  351000   0.63561761   -5.6499051   -5.6499051   -4.6964806 -0.043127642   -5.6499051   0.95342448      1024000 
  352000   0.63567625   -5.6512924   -5.6512924   -4.6977799  -0.04201021   -5.6512924   0.95351244      1024000 
  353000   0.63564863   -5.6525316   -5.6525316   -4.6990606 -0.042732885   -5.6525316   0.95347101      1024000 
  354000   0.63491027   -5.6532471   -5.6532471   -4.7008836 -0.036435279   -5.6532471   0.95236347      1024000 
  355000   0.63638435   -5.6578014   -5.6578014   -4.7032268 -0.046834036   -5.6578014   0.95457458      1024000 
  356000   0.63428459   -5.6563145   -5.6563145   -4.7048895 -0.036973944   -5.6563145   0.95142495      1024000 
  357000   0.63499378   -5.6588661   -5.6588661   -4.7063774 -0.040318348   -5.6588661   0.95248873      1024000 
  358000   0.63514124   -5.6603913   -5.6603913   -4.7076814 -0.037727694   -5.6603913   0.95270993      1024000 
  359000   0.63456457   -5.6611557   -5.6611557   -4.7093108 -0.037504837   -5.6611557   0.95184492      1024000 
  360000   0.63466796   -5.6635773   -5.6635773   -4.7115773 -0.034629767   -5.6635773   0.95200001      1024000 
  361000   0.63359847   -5.6636104   -5.6636104   -4.7132146 -0.035503959   -5.6636104   0.95039577      1024000 
  362000    0.6343558   -5.6666818   -5.6666818     -4.71515 -0.040421436   -5.6666818   0.95153177      1024000 
  363000   0.63487087   -5.6692571   -5.6692571   -4.7169528 -0.040534346   -5.6692571   0.95230437      1024000 
  364000   0.63279301   -5.6677576   -5.6677576     -4.71857 -0.040730006   -5.6677576   0.94918759      1024000 
  365000    0.6333302   -5.6706394   -5.6706394   -4.7206461  -0.04407631   -5.6706394   0.94999337      1024000 
  366000   0.63226812   -5.6709309   -5.6709309   -4.7225307 -0.040634573   -5.6709309   0.94840025      1024000 
  367000   0.63186678    -5.672324    -5.672324   -4.7245257 -0.041250552    -5.672324   0.94779825      1024000 
  368000   0.63229665   -5.6747921   -5.6747921    -4.726349 -0.045412435   -5.6747921   0.94844304      1024000 
  369000    0.6321131   -5.6754848   -5.6754848   -4.7273171 -0.041650683   -5.6754848   0.94816773      1024000 
  370000   0.63268068    -5.678286    -5.678286   -4.7292669 -0.045638254    -5.678286    0.9490191      1024000 
  371000   0.63140666   -5.6782151   -5.6782151    -4.731107 -0.043614016   -5.6782151   0.94710806      1024000 
  372000   0.63134282   -5.6795104   -5.6795104   -4.7324981 -0.044185452   -5.6795104    0.9470123      1024000 
  373000   0.63155339   -5.6816553   -5.6816553   -4.7343272 -0.046937452   -5.6816553   0.94732816      1024000 
  374000   0.63046197   -5.6818689   -5.6818689   -4.7361779 -0.043312436   -5.6818689   0.94569104      1024000 
  375000   0.63087126   -5.6841674   -5.6841674   -4.7378624 -0.043786145   -5.6841674   0.94630496      1024000 
  376000   0.62992368   -5.6849682   -5.6849682   -4.7400846 -0.043639034   -5.6849682    0.9448836      1024000 
  377000   0.63103687    -5.688384    -5.688384   -4.7418306 -0.048855234    -5.688384   0.94655339      1024000 
  378000    0.6300437   -5.6881009   -5.6881009   -4.7430373 -0.041485696   -5.6881009   0.94506363      1024000 
  379000   0.62983863   -5.6891669   -5.6891669   -4.7444108 -0.040626408   -5.6891669   0.94475603      1024000 
  380000   0.62963384   -5.6904617   -5.6904617   -4.7460128 -0.043209582   -5.6904617   0.94444885      1024000 
  381000    0.6295558   -5.6914723   -5.6914723   -4.7471405 -0.040515124   -5.6914723   0.94433178      1024000 
  382000   0.63010558    -5.693616    -5.693616   -4.7484596 -0.043868182    -5.693616   0.94515645      1024000 
  383000   0.63023901   -5.6952029   -5.6952029   -4.7498463 -0.041494113   -5.6952029   0.94535659      1024000 
  384000   0.62972204   -5.6965552   -5.6965552   -4.7519741  -0.04090861   -5.6965552   0.94458114      1024000 
  385000   0.62884928   -5.6963954   -5.6963954   -4.7531234 -0.035084206   -5.6963954     0.943272      1024000 
  386000   0.62861243   -5.6979972   -5.6979972   -4.7550804 -0.041254871   -5.6979972   0.94291674      1024000 
  387000   0.62905927   -5.7004201   -5.7004201   -4.7568331 -0.042235015   -5.7004201   0.94358699      1024000 
  388000    0.6295161   -5.7026197   -5.7026197   -4.7583474 -0.043739693   -5.7026197   0.94427224      1024000 
  389000    0.6286496   -5.7027621   -5.7027621   -4.7597896 -0.044596857   -5.7027621   0.94297248      1024000 
  390000   0.62809383   -5.7031977   -5.7031977   -4.7610588  -0.04055103   -5.7031977   0.94213883      1024000 
  391000   0.62834721   -5.7061889   -5.7061889     -4.76367 -0.043479266   -5.7061889   0.94251891      1024000 
  392000   0.62816517   -5.7076337   -5.7076337   -4.7653878 -0.046198479   -5.7076337   0.94224584      1024000 
  393000   0.62790763    -5.708992    -5.708992   -4.7671325 -0.046703889    -5.708992   0.94185953      1024000 
  394000   0.62701857   -5.7097421   -5.7097421   -4.7692161 -0.045126269   -5.7097421   0.94052595      1024000 
  395000   0.62779845   -5.7119124   -5.7119124   -4.7702166 -0.050063089   -5.7119124   0.94169576      1024000 
  396000   0.62740332   -5.7132618   -5.7132618   -4.7721588 -0.048069455   -5.7132618   0.94110307      1024000 
  397000   0.62671659   -5.7137392   -5.7137392   -4.7736662 -0.048509455   -5.7137392   0.94007298      1024000 
  398000   0.62694543   -5.7152204   -5.7152204   -4.7748041   -0.0462391   -5.7152204   0.94041624      1024000 
  399000   0.62622701   -5.7155419   -5.7155419   -4.7762033 -0.041395063   -5.7155419    0.9393386      1024000 
  400000    0.6258201   -5.7161741   -5.7161741   -4.7774458 -0.043579857   -5.7161741   0.93872824      1024000 
  401000    0.6266844   -5.7185613   -5.7185613   -4.7785366 -0.046859857   -5.7185613   0.94002469      1024000 
  402000   0.62534862   -5.7182772   -5.7182772   -4.7802562  -0.04612604   -5.7182772   0.93802103      1024000 
  403000   0.62531713   -5.7198715   -5.7198715   -4.7818977 -0.044503568   -5.7198715   0.93797379      1024000 
  404000   0.62651972   -5.7235621   -5.7235621   -4.7837844 -0.051374481   -5.7235621   0.93977767      1024000 
  405000    0.6252123   -5.7230703   -5.7230703   -4.7852537 -0.046159622   -5.7230703   0.93781655      1024000 
  406000   0.62415124   -5.7232902   -5.7232902   -4.7870653  -0.04442515   -5.7232902   0.93622496      1024000 
  407000   0.62477016   -5.7257424   -5.7257424   -4.7885891 -0.044560004   -5.7257424   0.93715334      1024000 
  408000   0.62467812   -5.7277223   -5.7277223    -4.790707 -0.047421809   -5.7277223   0.93701528      1024000 
  409000   0.62451387   -5.7285434   -5.7285434   -4.7917745 -0.048215281   -5.7285434   0.93676891      1024000 
  410000      0.62314   -5.7279479   -5.7279479   -4.7932398 -0.039175237   -5.7279479    0.9347081      1024000 
  411000   0.62421185   -5.7312923   -5.7312923   -4.7949765 -0.049625954   -5.7312923   0.93631588      1024000 
  412000   0.62485156   -5.7340231   -5.7340231   -4.7967476 -0.050796184   -5.7340231   0.93727544      1024000 
  413000     0.623694    -5.733945    -5.733945   -4.7984059 -0.046099063    -5.733945    0.9355391      1024000 
  414000   0.62354928   -5.7354896   -5.7354896   -4.8001676 -0.047913162   -5.7354896   0.93532203      1024000 
  415000    0.6232637   -5.7364325   -5.7364325   -4.8015389 -0.046532799   -5.7364325   0.93489365      1024000 
  416000   0.62298764   -5.7380513   -5.7380513   -4.8035717 -0.045592018   -5.7380513   0.93447956      1024000 
  417000   0.62291464   -5.7392557   -5.7392557   -4.8048856 -0.050854814   -5.7392557   0.93437007      1024000 
  418000   0.62209507   -5.7396877   -5.7396877    -4.806547 -0.045517144   -5.7396877   0.93314071      1024000 
  419000   0.62231839   -5.7415339   -5.7415339   -4.8080582 -0.046233442   -5.7415339    0.9334757      1024000 
  420000   0.62216796   -5.7428124   -5.7428124   -4.8095624 -0.049847762   -5.7428124   0.93325005      1024000 
  421000   0.62244523   -5.7444582   -5.7444582   -4.8107923 -0.047476965   -5.7444582   0.93366594      1024000 
  422000   0.62227539   -5.7458849   -5.7458849   -4.8124737 -0.049207587   -5.7458849   0.93341119      1024000 
  423000   0.62171473   -5.7468679   -5.7468679   -4.8142977 -0.045704301   -5.7468679   0.93257021      1024000 
  424000   0.62141938   -5.7475887   -5.7475887   -4.8154615 -0.047061893   -5.7475887   0.93212718      1024000 
  425000   0.62163461   -5.7490392   -5.7490392   -4.8165891 -0.043149681   -5.7490392   0.93245003      1024000 
  426000   0.62195236     -5.75172     -5.75172   -4.8187934  -0.05140807     -5.75172   0.93292665      1024000 
  427000   0.62060982   -5.7509432   -5.7509432   -4.8200303 -0.049116033   -5.7509432   0.93091285      1024000 
  428000   0.62176378   -5.7543347   -5.7543347   -4.8216909 -0.050289416   -5.7543347   0.93264378      1024000 
  429000   0.62168183   -5.7554411   -5.7554411   -4.8229202  -0.04978428   -5.7554411   0.93252086      1024000 
  430000    0.6220252   -5.7565427   -5.7565427   -4.8235068 -0.050602275   -5.7565427    0.9330359      1024000 
  431000    0.6214744   -5.7571207   -5.7571207    -4.824911  -0.04650753   -5.7571207   0.93220971      1024000 
  432000   0.62014842   -5.7569622   -5.7569622   -4.8267414 -0.044198095   -5.7569622   0.93022075      1024000 
  433000   0.61987547   -5.7587289   -5.7587289   -4.8289176 -0.049742999   -5.7587289   0.92981133      1024000 
  434000   0.61992188   -5.7599378   -5.7599378   -4.8300568 -0.044729027   -5.7599378   0.92988093      1024000 
  435000   0.62100057   -5.7631301   -5.7631301   -4.8316311  -0.04578334   -5.7631301   0.93149897      1024000 
  436000   0.62035863   -5.7639459   -5.7639459   -4.8334098 -0.047216309   -5.7639459   0.93053606      1024000 
  437000   0.61980452   -5.7642287   -5.7642287   -4.8345238 -0.044675026   -5.7642287   0.92970489      1024000 
  438000   0.61983798   -5.7659339   -5.7659339   -4.8361788 -0.046138235   -5.7659339   0.92975508      1024000 
  439000   0.61974747   -5.7669661   -5.7669661   -4.8373468 -0.044983679   -5.7669661   0.92961932      1024000 
  440000   0.61887412   -5.7673655   -5.7673655   -4.8390562 -0.047044227   -5.7673655    0.9283093      1024000 
  441000   0.61802244    -5.767914    -5.767914   -4.8408822 -0.048994116    -5.767914   0.92703178      1024000 
  442000   0.61914326   -5.7706568   -5.7706568   -4.8419437 -0.053065503   -5.7706568     0.928713      1024000 
  443000   0.61860621   -5.7714821   -5.7714821   -4.8435747 -0.053258663   -5.7714821   0.92790744      1024000 
  444000    0.6184702   -5.7732391   -5.7732391   -4.8455357 -0.051982486   -5.7732391   0.92770342      1024000 
  445000   0.61762303   -5.7733568   -5.7733568   -4.8469242 -0.050289233   -5.7733568   0.92643266      1024000 
  446000   0.61781239   -5.7747355   -5.7747355   -4.8480188 -0.052356984   -5.7747355   0.92671671      1024000 
  447000   0.61758319   -5.7763165   -5.7763165   -4.8499436 -0.053210185   -5.7763165   0.92637291      1024000 
  448000   0.61800074   -5.7788425   -5.7788425   -4.8518433 -0.054335579   -5.7788425   0.92699923      1024000 
  449000   0.61743262   -5.7795131   -5.7795131    -4.853366 -0.050017495   -5.7795131   0.92614706      1024000 
  450000   0.61712627   -5.7799822   -5.7799822   -4.8542946  -0.05068815   -5.7799822   0.92568753      1024000 
  451000   0.61645857   -5.7803395   -5.7803395   -4.8556535 -0.047193122   -5.7803395   0.92468598      1024000 
  452000   0.61697034   -5.7824359   -5.7824359   -4.8569823 -0.046221572   -5.7824359   0.92545363      1024000 
  453000   0.61732395   -5.7845639   -5.7845639   -4.8585798 -0.049084635   -5.7845639   0.92598405      1024000 
  454000   0.61798885   -5.7868091   -5.7868091   -4.8598277 -0.050273599   -5.7868091   0.92698139      1024000 
  455000   0.61668974     -5.78605     -5.78605   -4.8610173 -0.042799737     -5.78605   0.92503274      1024000 
  456000   0.61755891     -5.78797     -5.78797   -4.8616336 -0.044624371     -5.78797   0.92633648      1024000 
  457000   0.61693306   -5.7890373   -5.7890373   -4.8636396 -0.044054193   -5.7890373   0.92539771      1024000 
  458000   0.61653833   -5.7900509   -5.7900509   -4.8652452 -0.047313018   -5.7900509   0.92480563      1024000 
  459000   0.61696673   -5.7924812   -5.7924812   -4.8670329 -0.052608757   -5.7924812   0.92544822      1024000 
  460000   0.61618948   -5.7925374   -5.7925374   -4.8682551 -0.048850032   -5.7925374   0.92428234      1024000 
  461000   0.61535025   -5.7928012   -5.7928012   -4.8697777 -0.050755863   -5.7928012   0.92302351      1024000 
  462000   0.61536239   -5.7944677   -5.7944677    -4.871426 -0.051439397   -5.7944677    0.9230417      1024000 
  463000   0.61555743   -5.7965936   -5.7965936   -4.8732594 -0.052726843   -5.7965936   0.92333427      1024000 
  464000   0.61507169   -5.7966239   -5.7966239   -4.8740183 -0.058474325   -5.7966239   0.92260567      1024000 
  465000   0.61504144   -5.7983507   -5.7983507   -4.8757904 -0.056583094   -5.7983507   0.92256029      1024000 
  466000   0.61416147   -5.7983215   -5.7983215   -4.8770811 -0.050418013   -5.7983215   0.92124033      1024000 
  467000   0.61565554   -5.8018001   -5.8018001   -4.8783187 -0.053248262   -5.8018001   0.92348144      1024000 
  468000   0.61425665   -5.8012715   -5.8012715   -4.8798884 -0.051192388   -5.8012715    0.9213831      1024000 
  469000   0.61461023   -5.8034334   -5.8034334   -4.8815199 -0.053145024   -5.8034334   0.92191347      1024000 
  470000   0.61421677   -5.8050473   -5.8050473   -4.8837241 -0.050646405   -5.8050473   0.92132328      1024000 
  471000   0.61422076   -5.8062263   -5.8062263   -4.8848971  -0.04763475   -5.8062263   0.92132926      1024000 
  472000   0.61490856   -5.8090208   -5.8090208   -4.8866599 -0.051712109   -5.8090208   0.92236097      1024000 
  473000   0.61504281   -5.8113768   -5.8113768   -4.8888144 -0.051471264   -5.8113768   0.92256234      1024000 
  474000   0.61488278   -5.8121373   -5.8121373    -4.889815 -0.050824065   -5.8121373   0.92232229      1024000 
  475000   0.61456352   -5.8137024   -5.8137024    -4.891859 -0.047460858   -5.8137024   0.92184341      1024000 
  476000   0.61370985   -5.8139677   -5.8139677   -4.8934048 -0.050320728   -5.8139677   0.92056291      1024000 
  477000   0.61460035   -5.8166702   -5.8166702   -4.8947715 -0.052450716   -5.8166702   0.92189866      1024000 
  478000   0.61304052   -5.8151435   -5.8151435   -4.8955846 -0.051303456   -5.8151435   0.91955891      1024000 
  479000   0.61288662   -5.8166252   -5.8166252   -4.8972971 -0.054700009   -5.8166252   0.91932807      1024000 
  480000   0.61275142   -5.8180027   -5.8180027   -4.8988774 -0.054641355   -5.8180027   0.91912526      1024000 
  481000   0.61364398   -5.8202063   -5.8202063   -4.8997422 -0.055976963   -5.8202063   0.92046411      1024000 
  482000   0.61270451   -5.8205801   -5.8205801   -4.9015252 -0.053896594   -5.8205801    0.9190549      1024000 
  483000   0.61174446   -5.8203383   -5.8203383   -4.9027235 -0.056675495   -5.8203383   0.91761483      1024000 
  484000   0.61142895   -5.8212103   -5.8212103   -4.9040687 -0.054418561   -5.8212103   0.91714156      1024000 
  485000   0.61026586   -5.8210096   -5.8210096   -4.9056126 -0.051584916   -5.8210096   0.91539694      1024000 
  486000   0.61163413   -5.8237054   -5.8237054   -4.9062561 -0.055188986   -5.8237054   0.91744934      1024000 
  487000   0.61157953    -5.825497    -5.825497   -4.9081296 -0.059812025    -5.825497   0.91736743      1024000 
  488000   0.61178633   -5.8271636   -5.8271636   -4.9094859 -0.055807482   -5.8271636   0.91767763      1024000 
  489000   0.61158658   -5.8284897   -5.8284897   -4.9111117 -0.058311544   -5.8284897   0.91737801      1024000 
  490000   0.61149445   -5.8292715   -5.8292715   -4.9120317 -0.054689208   -5.8292715   0.91723981      1024000 
  491000   0.61192833   -5.8312477   -5.8312477   -4.9133571 -0.055942046   -5.8312477   0.91789064      1024000 
  492000   0.61172844   -5.8319669   -5.8319669   -4.9143761 -0.052172374   -5.8319669    0.9175908      1024000 
  493000   0.61195928   -5.8337558   -5.8337558   -4.9158187 -0.051347286   -5.8337558   0.91793706      1024000 
  494000   0.61087842   -5.8343174   -5.8343174   -4.9180017 -0.050919979   -5.8343174   0.91631578      1024000 
  495000   0.61137951   -5.8365389   -5.8365389   -4.9194715 -0.054858692   -5.8365389    0.9170674      1024000 
  496000   0.61159358   -5.8382176   -5.8382176   -4.9208291 -0.051305601   -5.8382176    0.9173885      1024000 
  497000   0.61138233   -5.8394572   -5.8394572   -4.9223856 -0.049189372   -5.8394572   0.91707164      1024000 
  498000   0.61135714   -5.8413833   -5.8413833   -4.9243494 -0.053981676   -5.8413833   0.91703384      1024000 
  499000    0.6112518   -5.8426349   -5.8426349   -4.9257591 -0.056885946   -5.8426349   0.91687583      1024000 
  500000   0.60937928   -5.8413732   -5.8413732   -4.9273062 -0.052267588   -5.8413732   0.91406707      1024000 
  501000   0.60948398   -5.8429372   -5.8429372   -4.9287131 -0.054397313   -5.8429372   0.91422412      1024000 
  502000   0.60962188   -5.8448046   -5.8448046   -4.9303737 -0.057868304   -5.8448046   0.91443096      1024000 
  503000    0.6095022   -5.8459997   -5.8459997   -4.9317482 -0.057385914   -5.8459997   0.91425145      1024000 
  504000    0.6088567   -5.8464076   -5.8464076   -4.9331244 -0.059008274   -5.8464076    0.9132832      1024000 
  505000    0.6094662   -5.8480081   -5.8480081   -4.9338106 -0.057184224   -5.8480081   0.91419744      1024000 
  506000   0.60972752   -5.8490692   -5.8490692   -4.9344798 -0.056415264   -5.8490692   0.91458942      1024000 
  507000   0.60936618   -5.8502145   -5.8502145   -4.9361671 -0.056442676   -5.8502145   0.91404742      1024000 
  508000   0.61005141   -5.8528949   -5.8528949   -4.9378197 -0.061831415   -5.8528949   0.91507526      1024000 
  509000   0.60860584   -5.8524603   -5.8524603   -4.9395533 -0.057781661   -5.8524603   0.91290691      1024000 
  510000   0.60870932   -5.8549733   -5.8549733   -4.9419112 -0.058101253   -5.8549733   0.91306213      1024000 
  511000   0.60823457   -5.8554625   -5.8554625   -4.9431125 -0.057182247   -5.8554625   0.91235001      1024000 
  512000   0.60861028   -5.8580035   -5.8580035   -4.9450899 -0.061168062   -5.8580035   0.91291357      1024000 
  513000   0.60950786   -5.8605605   -5.8605605   -4.9463006 -0.059786486   -5.8605605   0.91425993      1024000 
  514000   0.60853228   -5.8602929   -5.8602929   -4.9474964  -0.05596487   -5.8602929   0.91279657      1024000 
  515000   0.60841411   -5.8614956   -5.8614956   -4.9488763 -0.056569552   -5.8614956   0.91261931      1024000 
  516000   0.60748496   -5.8621504   -5.8621504   -4.9509248 -0.052633603   -5.8621504   0.91122559      1024000 
  517000   0.60750968   -5.8631874   -5.8631874   -4.9519247 -0.052283402   -5.8631874   0.91126267      1024000 
  518000   0.60842351   -5.8659001   -5.8659001   -4.9532667 -0.060421321   -5.8659001   0.91263341      1024000 
  519000   0.60651873   -5.8649852   -5.8649852   -4.9552089 -0.055542816   -5.8649852   0.90977625      1024000 
  520000   0.60729796   -5.8678049   -5.8678049   -4.9568598 -0.059488184   -5.8678049   0.91094509      1024000 
  521000   0.60590371   -5.8664175   -5.8664175   -4.9575638 -0.056468428   -5.8664175   0.90885372      1024000 
  522000   0.60712429   -5.8693285   -5.8693285   -4.9586439 -0.061180912   -5.8693285   0.91068458      1024000 
  523000   0.60711967   -5.8705914   -5.8705914   -4.9599138  -0.06150106   -5.8705914   0.91067765      1024000 
  524000   0.60612831   -5.8701294   -5.8701294   -4.9609388 -0.059700203   -5.8701294   0.90919062      1024000 
  525000   0.60735291   -5.8735523   -5.8735523   -4.9625248 -0.064066021   -5.8735523   0.91102751      1024000 
  526000   0.60698271   -5.8741899   -5.8741899   -4.9637177 -0.060482508   -5.8741899   0.91047221      1024000 
  527000    0.6060234    -5.874705    -5.874705   -4.9656718 -0.062564141    -5.874705   0.90903326      1024000 
  528000   0.60598539   -5.8763932   -5.8763932   -4.9674169 -0.064681602   -5.8763932   0.90897624      1024000 
  529000   0.60524143   -5.8773689   -5.8773689   -4.9695086 -0.059505482   -5.8773689   0.90786031      1024000 
  530000   0.60561553   -5.8798142   -5.8798142   -4.9713927 -0.064095013   -5.8798142   0.90842145      1024000 
  531000   0.60470709   -5.8794297   -5.8794297   -4.9723709 -0.060116362   -5.8794297   0.90705879      1024000 
  532000   0.60499782   -5.8817655   -5.8817655   -4.9742706 -0.060532848   -5.8817655   0.90749489      1024000 
  533000   0.60581145   -5.8832413   -5.8832413    -4.974526 -0.061587124   -5.8832413   0.90871533      1024000 
  534000    0.6052507   -5.8838258   -5.8838258   -4.9759515   -0.0547424   -5.8838258   0.90787421      1024000 
  535000   0.60519459   -5.8855759   -5.8855759   -4.9777858 -0.060119861   -5.8855759   0.90779004      1024000 
  536000     0.605962   -5.8882881   -5.8882881    -4.979347 -0.064396763   -5.8882881   0.90894115      1024000 
  537000   0.60480382   -5.8878028   -5.8878028   -4.9805989 -0.061453028   -5.8878028    0.9072039      1024000 
  538000   0.60423337   -5.8883254   -5.8883254   -4.9819772 -0.061746106   -5.8883254   0.90634821      1024000 
  539000   0.60416147    -5.889935    -5.889935   -4.9836946  -0.05943773    -5.889935   0.90624036      1024000 
  540000   0.60490293   -5.8919384   -5.8919384   -4.9845859 -0.066375996   -5.8919384   0.90735256      1024000 
  541000   0.60332791   -5.8911685   -5.8911685   -4.9861784 -0.060051852   -5.8911685   0.90499002      1024000 
  542000   0.60359945   -5.8924102   -5.8924102   -4.9870128 -0.064683896   -5.8924102   0.90539733      1024000 
  543000   0.60370567    -5.893357    -5.893357   -4.9878003 -0.060660317    -5.893357   0.90555667      1024000 
  544000   0.60437457   -5.8961588   -5.8961588   -4.9895988 -0.065682868   -5.8961588   0.90656001      1024000 
  545000   0.60398504   -5.8968008   -5.8968008   -4.9908251 -0.066201275   -5.8968008   0.90597573      1024000 
  546000   0.60448019    -5.899048    -5.899048   -4.9923295 -0.070085774    -5.899048   0.90671845      1024000 
  547000   0.60403111   -5.8997112   -5.8997112   -4.9936663 -0.065471488   -5.8997112   0.90604482      1024000 
  548000   0.60266541   -5.8991355   -5.8991355   -4.9951393 -0.065541281   -5.8991355   0.90399629      1024000 
  549000   0.60385096   -5.9016125   -5.9016125   -4.9958379 -0.067691019   -5.9016125    0.9057746      1024000 
  550000   0.60291697   -5.9018788   -5.9018788   -4.9975051 -0.064019606   -5.9018788   0.90437362      1024000 
  551000    0.6029449   -5.9029353   -5.9029353   -4.9985198 -0.064117249   -5.9029353   0.90441552      1024000 
  552000   0.60216229   -5.9035086   -5.9035086    -5.000267 -0.061637629   -5.9035086    0.9032416      1024000 
  553000   0.60177127   -5.9041482   -5.9041482   -5.0014931 -0.059277841   -5.9041482   0.90265507      1024000 
  554000   0.60257024   -5.9071514   -5.9071514   -5.0032979 -0.066483859   -5.9071514   0.90385353      1024000 
  555000    0.6025283   -5.9081248   -5.9081248   -5.0043342 -0.067767228   -5.9081248   0.90379061      1024000 
  556000    0.6025365   -5.9102296   -5.9102296   -5.0064267 -0.069478684   -5.9102296   0.90380291      1024000 
  557000   0.60127663    -5.909692    -5.909692   -5.0077789 -0.067428036    -5.909692   0.90191312      1024000 
  558000   0.60174151   -5.9121461   -5.9121461   -5.0095357 -0.068168469   -5.9121461   0.90261043      1024000 
  559000   0.60126102   -5.9119725   -5.9119725   -5.0100828 -0.064735306   -5.9119725    0.9018897      1024000 
  560000   0.60153823   -5.9138682   -5.9138682   -5.0115627  -0.07200208   -5.9138682   0.90230552      1024000 
  561000   0.60049612   -5.9141425   -5.9141425   -5.0134001 -0.068047098   -5.9141425   0.90074235      1024000 
  562000   0.60073824   -5.9158734   -5.9158734   -5.0147678 -0.069151388   -5.9158734   0.90110553      1024000 
  563000   0.60127445   -5.9183589   -5.9183589   -5.0164491 -0.071398388   -5.9183589   0.90190984      1024000 
  564000   0.60035099   -5.9185787   -5.9185787   -5.0180541 -0.070073354   -5.9185787   0.90052466      1024000 
  565000   0.60074064   -5.9199539   -5.9199539   -5.0188447 -0.069208316   -5.9199539   0.90110913      1024000 
  566000   0.60085291   -5.9220337   -5.9220337   -5.0207562 -0.069146127   -5.9220337   0.90127754      1024000 
  567000   0.60023938   -5.9224952   -5.9224952    -5.022138 -0.067864467   -5.9224952   0.90035725      1024000 
  568000   0.60040585    -5.923855    -5.923855    -5.023248 -0.068861866    -5.923855   0.90060695      1024000 
  569000   0.60016442   -5.9254425   -5.9254425   -5.0251977 -0.071508863   -5.9254425    0.9002448      1024000 
  570000    0.5997664   -5.9265261   -5.9265261   -5.0268783 -0.070301432   -5.9265261   0.89964777      1024000 
  571000   0.60039477   -5.9282143   -5.9282143    -5.027624 -0.068547163   -5.9282143   0.90059033      1024000 
  572000   0.59937963   -5.9280793   -5.9280793   -5.0290117 -0.065949302   -5.9280793   0.89906762      1024000 
  573000   0.59898573   -5.9285694   -5.9285694   -5.0300927 -0.066398096   -5.9285694   0.89847678      1024000 
  574000   0.59965987   -5.9306148   -5.9306148   -5.0311268   -0.0712021   -5.9306148   0.89948799      1024000 
  575000   0.59829974    -5.930079    -5.930079   -5.0326312 -0.069594285    -5.930079   0.89744779      1024000 
  576000   0.59833161   -5.9314431   -5.9314431   -5.0339475 -0.067394063   -5.9314431   0.89749559      1024000 
  577000   0.59825375   -5.9329073   -5.9329073   -5.0355285 -0.070204795   -5.9329073    0.8973788      1024000 
  578000   0.59846336   -5.9337603   -5.9337603    -5.036067 -0.071775326   -5.9337603   0.89769321      1024000 
  579000   0.59890018   -5.9360758   -5.9360758   -5.0377273  -0.07440583   -5.9360758   0.89834844      1024000 
  580000   0.59820334   -5.9364163   -5.9364163   -5.0391131 -0.071784433   -5.9364163    0.8973032      1024000 
  581000   0.59844248    -5.938045    -5.938045   -5.0403831 -0.071253016    -5.938045   0.89766189      1024000 
  582000   0.59805972   -5.9385656   -5.9385656   -5.0414778 -0.069128199   -5.9385656   0.89708776      1024000 
  583000   0.59905403   -5.9405584   -5.9405584   -5.0419792 -0.073048578   -5.9405584   0.89857922      1024000 
  584000   0.59743926   -5.9394315   -5.9394315   -5.0432744 -0.069542816   -5.9394315   0.89615708      1024000 
  585000   0.59843726    -5.941761    -5.941761   -5.0441069 -0.071378933    -5.941761   0.89765408      1024000 
  586000   0.59860438   -5.9436251   -5.9436251   -5.0457203 -0.070667127   -5.9436251   0.89790475      1024000 
  587000   0.59844896   -5.9449981   -5.9449981   -5.0473265 -0.072307364   -5.9449981   0.89767162      1024000 
  588000   0.59733349   -5.9449384   -5.9449384   -5.0489399 -0.072016372   -5.9449384   0.89599842      1024000 
  589000   0.59694392   -5.9463581   -5.9463581    -5.050944 -0.070941649   -5.9463581   0.89541406      1024000 
  590000   0.59681632    -5.947269    -5.947269   -5.0520464 -0.073512284    -5.947269   0.89522266      1024000 
  591000   0.59725949   -5.9493604   -5.9493604    -5.053473 -0.074732106   -5.9493604   0.89588741      1024000 
  592000   0.59746224   -5.9513918   -5.9513918   -5.0552002 -0.079965704   -5.9513918   0.89619155      1024000 
  593000   0.59741621   -5.9519705   -5.9519705    -5.055848 -0.077825334   -5.9519705   0.89612249      1024000 
  594000    0.5974117   -5.9527104   -5.9527104   -5.0565946 -0.074509474   -5.9527104   0.89611573      1024000 
  595000   0.59720678    -5.953546    -5.953546   -5.0577377 -0.072801154    -5.953546   0.89580835      1024000 
  596000   0.59703807   -5.9539454   -5.9539454   -5.0583901  -0.07807942   -5.9539454   0.89555529      1024000 
  597000   0.59623002   -5.9538448   -5.9538448   -5.0595016 -0.074056777   -5.9538448   0.89434322      1024000 
  598000   0.59714618   -5.9567112   -5.9567112   -5.0609938 -0.076277824   -5.9567112   0.89571745      1024000 
  599000   0.59633946    -5.956708    -5.956708   -5.0622007 -0.071380403    -5.956708   0.89450737      1024000 
  600000   0.59627745    -5.958168    -5.958168   -5.0637536 -0.074054723    -5.958168   0.89441435      1024000 
  601000   0.59676229   -5.9604977   -5.9604977   -5.0653561 -0.077916113   -5.9604977   0.89514162      1024000 
  602000   0.59591753   -5.9600287   -5.9600287   -5.0661543 -0.071548098   -5.9600287   0.89387449      1024000 
  603000   0.59591305   -5.9621003   -5.9621003   -5.0682326 -0.075785961   -5.9621003   0.89386777      1024000 
  604000   0.59556316   -5.9629198   -5.9629198   -5.0695769 -0.075036932   -5.9629198   0.89334293      1024000 
  605000   0.59573232   -5.9646685   -5.9646685   -5.0710718 -0.075037878   -5.9646685   0.89359667      1024000 
  606000   0.59524306   -5.9654277   -5.9654277   -5.0725649 -0.076892893   -5.9654277   0.89286277      1024000 
  607000   0.59567915   -5.9680397   -5.9680397   -5.0745228 -0.078276285   -5.9680397   0.89351691      1024000 
  608000   0.59464444   -5.9677989   -5.9677989   -5.0758341 -0.077230132   -5.9677989   0.89196485      1024000 
  609000   0.59435506   -5.9682159   -5.9682159   -5.0766851 -0.076732935   -5.9682159   0.89153077      1024000 
  610000     0.594048   -5.9696434   -5.9696434   -5.0785732  -0.08074159   -5.9696434    0.8910702      1024000 
  611000   0.59475937   -5.9717452   -5.9717452   -5.0796079 -0.076789898   -5.9717452   0.89213724      1024000 
  612000   0.59483189   -5.9732079   -5.9732079   -5.0809618 -0.081356847   -5.9732079   0.89224603      1024000 
  613000   0.59410415   -5.9734698   -5.9734698   -5.0823153 -0.080496222   -5.9734698   0.89115442      1024000 
  614000   0.59368877    -5.973912    -5.973912   -5.0833806 -0.080597144    -5.973912   0.89053135      1024000 
  615000   0.59423333   -5.9751933   -5.9751933   -5.0838451  -0.08027745   -5.9751933   0.89134819      1024000 
  616000   0.59361923   -5.9757837   -5.9757837   -5.0853566  -0.07708885   -5.9757837   0.89042704      1024000 
  617000    0.5943265   -5.9776264   -5.9776264   -5.0861385 -0.079392906   -5.9776264   0.89148794      1024000 
  618000   0.59498099   -5.9801907   -5.9801907    -5.087721 -0.079684414   -5.9801907   0.89246967      1024000 
  619000   0.59406986   -5.9801365   -5.9801365   -5.0890335  -0.07911357   -5.9801365   0.89110298      1024000 
  620000   0.59382386   -5.9811592   -5.9811592   -5.0904252 -0.082539101   -5.9811592   0.89073399      1024000 
  621000   0.59418325   -5.9829223   -5.9829223   -5.0916492 -0.082314376   -5.9829223   0.89127307      1024000 
  622000   0.59258498   -5.9821673   -5.9821673   -5.0932917 -0.081856357   -5.9821673   0.88887566      1024000 
  623000   0.59322963   -5.9842415   -5.9842415   -5.0943988 -0.083742484   -5.9842415   0.88984265      1024000 
  624000   0.59310881   -5.9856285   -5.9856285   -5.0959671 -0.082165567   -5.9856285   0.88966141      1024000 
  625000   0.59325833   -5.9871903   -5.9871903   -5.0973046 -0.082117423   -5.9871903    0.8898857      1024000 
  626000   0.59306005   -5.9880039   -5.9880039   -5.0984157 -0.081580885   -5.9880039   0.88958827      1024000 
  627000   0.59244273   -5.9877234   -5.9877234   -5.0990611 -0.078705999   -5.9877234    0.8886623      1024000 
  628000   0.59244466   -5.9893053   -5.9893053   -5.1006401 -0.084627451   -5.9893053   0.88866519      1024000 
  629000   0.59232007   -5.9903075   -5.9903075   -5.1018292 -0.085453374   -5.9903075   0.88847831      1024000 
  630000   0.59206553   -5.9919682   -5.9919682   -5.1038717 -0.086896774   -5.9919682   0.88809649      1024000 
  631000   0.59244083   -5.9929286   -5.9929286   -5.1042692 -0.082403051   -5.9929286   0.88865945      1024000 
  632000   0.59287769   -5.9950313   -5.9950313   -5.1057165 -0.086575708   -5.9950313   0.88931474      1024000 
  633000   0.59227778   -5.9957291   -5.9957291   -5.1073142   -0.0831534   -5.9957291   0.88841486      1024000 
  634000   0.59212858   -5.9964917   -5.9964917   -5.1083006  -0.08200529   -5.9964917   0.88819107      1024000 
  635000   0.59251098    -5.997725    -5.997725   -5.1089603 -0.084929279    -5.997725   0.88876466      1024000 
  636000   0.59136408   -5.9971036   -5.9971036   -5.1100592 -0.081906225   -5.9971036   0.88704432      1024000 
  637000   0.59217382   -6.0002068   -6.0002068   -5.1119478 -0.086188053   -6.0002068   0.88825893      1024000 
  638000   0.59178942   -6.0000489   -6.0000489   -5.1123666  -0.08553521   -6.0000489   0.88768234      1024000 
  639000    0.5920383   -6.0017804   -6.0017804   -5.1137248 -0.084153641   -6.0017804   0.88805564      1024000 
  640000   0.59180707   -6.0030199   -6.0030199   -5.1153111 -0.081885458   -6.0030199   0.88770881      1024000 
  641000   0.59152188   -6.0044604   -6.0044604   -5.1171794 -0.087737442   -6.0044604   0.88728102      1024000 
  642000   0.59095141     -6.00576     -6.00576   -5.1193346 -0.087592217     -6.00576   0.88642532      1024000 
  643000   0.59018792   -6.0058576   -6.0058576   -5.1205775  -0.08666933   -6.0058576   0.88528009      1024000 
  644000   0.59130729   -6.0084063   -6.0084063   -5.1214471 -0.089388675   -6.0084063   0.88695913      1024000 
  645000   0.59053942   -6.0090957   -6.0090957   -5.1232884 -0.086902048   -6.0090957   0.88580733      1024000 
  646000   0.59008706   -6.0095504   -6.0095504   -5.1244216 -0.083476599   -6.0095504    0.8851288      1024000 
  647000   0.59038179   -6.0109915   -6.0109915   -5.1254206 -0.085905091   -6.0109915   0.88557089      1024000 
  648000   0.58959745   -6.0116317   -6.0116317   -5.1272373 -0.080743978   -6.0116317   0.88439438      1024000 
  649000   0.59044125   -6.0132616   -6.0132616   -5.1276016 -0.084916399   -6.0132616   0.88566007      1024000 
  650000   0.58992036    -6.013927    -6.013927   -5.1290483 -0.084869412    -6.013927   0.88487875      1024000 
  651000   0.58956851   -6.0148198   -6.0148198   -5.1304688 -0.083616896   -6.0148198   0.88435097      1024000 
  652000   0.58962608   -6.0158729   -6.0158729   -5.1314356 -0.086482002   -6.0158729   0.88443733      1024000 
  653000   0.58954683   -6.0166105   -6.0166105    -5.132292 -0.086300608   -6.0166105   0.88431845      1024000 
  654000    0.5901647    -6.018626    -6.018626   -5.1333808  -0.08862833    -6.018626   0.88524525      1024000 
  655000   0.58917123   -6.0192553   -6.0192553   -5.1355002 -0.091252879   -6.0192553   0.88375505      1024000 
  656000   0.58920243   -6.0197678   -6.0197678   -5.1359659  -0.09040838   -6.0197678   0.88380185      1024000 
  657000   0.58892992   -6.0208945   -6.0208945   -5.1375014 -0.090212797   -6.0208945   0.88339308      1024000 
  658000   0.58976413   -6.0230631   -6.0230631   -5.1384187 -0.092925467   -6.0230631   0.88464439      1024000 
  659000   0.58877144   -6.0229507   -6.0229507   -5.1397954 -0.089501209   -6.0229507   0.88315537      1024000 
  660000   0.58914498   -6.0244493   -6.0244493   -5.1407337 -0.088165858   -6.0244493   0.88371567      1024000 
  661000   0.58965781   -6.0267024   -6.0267024   -5.1422175 -0.089232345   -6.0267024   0.88448492      1024000 
  662000   0.58929978   -6.0281152   -6.0281152   -5.1441673  -0.08942488   -6.0281152   0.88394787      1024000 
  663000   0.58839891   -6.0276595   -6.0276595   -5.1450629 -0.083825726   -6.0276595   0.88259657      1024000 
  664000   0.58914453   -6.0297506   -6.0297506   -5.1460356 -0.090606439   -6.0297506   0.88371499      1024000 
  665000    0.5878095   -6.0293465   -6.0293465   -5.1476341 -0.086469209   -6.0293465   0.88171246      1024000 
  666000   0.58844045   -6.0317557   -6.0317557   -5.1490968 -0.089704159   -6.0317557   0.88265888      1024000 
  667000   0.58788997   -6.0316516   -6.0316516   -5.1498185 -0.089108926   -6.0316516   0.88183317      1024000 
  668000   0.58863825   -6.0338493   -6.0338493   -5.1508937  -0.09058413   -6.0338493   0.88295558      1024000 
  669000   0.58849111   -6.0350051   -6.0350051   -5.1522703 -0.098050158   -6.0350051   0.88273488      1024000 
  670000   0.58659586   -6.0334523   -6.0334523   -5.1535603 -0.092562903   -6.0334523     0.879892      1024000 
  671000   0.58635223   -6.0346407   -6.0346407   -5.1551141 -0.091678665   -6.0346407   0.87952657      1024000 
  672000   0.58601002   -6.0354164   -6.0354164   -5.1564031 -0.092488873   -6.0354164   0.87901325      1024000 
  673000   0.58612719   -6.0369042   -6.0369042   -5.1577152 -0.097470995   -6.0369042     0.879189      1024000 
  674000   0.58642053    -6.038357    -6.038357    -5.158728 -0.095369575    -6.038357   0.87962902      1024000 
  675000   0.58665001   -6.0400055   -6.0400055   -5.1600323 -0.093749706   -6.0400055   0.87997324      1024000 
  676000   0.58626694   -6.0412226   -6.0412226    -5.161824 -0.092845566   -6.0412226   0.87939862      1024000 
  677000   0.58687325   -6.0434491   -6.0434491    -5.163141 -0.092180813   -6.0434491   0.88030809      1024000 
  678000    0.5863749   -6.0435697   -6.0435697   -5.1640091 -0.089294518   -6.0435697   0.87956056      1024000 
  679000   0.58650466   -6.0447916   -6.0447916   -5.1650364 -0.089651393   -6.0447916    0.8797552      1024000 
  680000   0.58670336   -6.0461893   -6.0461893    -5.166136 -0.091608361   -6.0461893   0.88005325      1024000 
  681000    0.5860787   -6.0455533   -6.0455533   -5.1664371 -0.084065564   -6.0455533   0.87911627      1024000 
  682000   0.58753216   -6.0487613   -6.0487613   -5.1674649 -0.092414008   -6.0487613   0.88129645      1024000 
  683000   0.58655679   -6.0486083   -6.0486083   -5.1687749 -0.089164727   -6.0486083    0.8798334      1024000 
  684000   0.58715244   -6.0503495   -6.0503495   -5.1696226 -0.093459558   -6.0503495   0.88072687      1024000 
  685000   0.58580074   -6.0497515   -6.0497515   -5.1710522  -0.09570094   -6.0497515   0.87869933      1024000 
  686000   0.58532741   -6.0502775   -6.0502775   -5.1722882 -0.098415172   -6.0502775   0.87798933      1024000 
  687000   0.58490759    -6.050567    -6.050567   -5.1732074 -0.098636989    -6.050567   0.87735961      1024000 
  688000   0.58484261    -6.051791    -6.051791   -5.1745288  -0.09640707    -6.051791   0.87726214      1024000 
  689000   0.58449971   -6.0526079   -6.0526079   -5.1758601 -0.099355479   -6.0526079   0.87674779      1024000 
  690000   0.58476957   -6.0542013   -6.0542013   -5.1770487 -0.096783296   -6.0542013   0.87715257      1024000 
  691000   0.58441866   -6.0554314   -6.0554314   -5.1788052 -0.096957956   -6.0554314   0.87662621      1024000 
  692000   0.58473078   -6.0558629   -6.0558629   -5.1787685 -0.095087425   -6.0558629   0.87709439      1024000 
  693000   0.58488103   -6.0572362   -6.0572362   -5.1799164 -0.094456372   -6.0572362   0.87731977      1024000 
  694000   0.58382906   -6.0571427   -6.0571427   -5.1814009 -0.090068889   -6.0571427   0.87574182      1024000 
  695000   0.58472979   -6.0600872   -6.0600872   -5.1829943 -0.091686306   -6.0600872   0.87709291      1024000 
  696000   0.58412168   -6.0603996   -6.0603996   -5.1842189 -0.089841277   -6.0603996   0.87618075      1024000 
  697000   0.58455623   -6.0621338   -6.0621338   -5.1853013  -0.08997753   -6.0621338   0.87683256      1024000 
  698000   0.58432075    -6.063093    -6.063093   -5.1866136 -0.089329876    -6.063093   0.87647935      1024000 
  699000   0.58389349   -6.0639043   -6.0639043   -5.1880659 -0.095771672   -6.0639043   0.87583846      1024000 
  700000   0.58291749   -6.0635008   -6.0635008   -5.1891264  -0.09284517   -6.0635008   0.87437445      1024000 
  701000   0.58311831   -6.0643051   -6.0643051   -5.1896294  -0.09482526   -6.0643051   0.87467569      1024000 
  702000   0.58297541   -6.0654098   -6.0654098   -5.1909485 -0.095901499   -6.0654098   0.87446133      1024000 
  703000    0.5831126   -6.0669181   -6.0669181    -5.192251  -0.10009602   -6.0669181   0.87466712      1024000 
  704000   0.58264553   -6.0673019   -6.0673019   -5.1933354 -0.097468754   -6.0673019   0.87396652      1024000 
  705000   0.58397557   -6.0690836   -6.0690836    -5.193122  -0.10172831   -6.0690836   0.87596157      1024000 
  706000   0.58282917   -6.0692467   -6.0692467   -5.1950047  -0.10013194   -6.0692467   0.87424199      1024000 
  707000   0.58234668   -6.0697013   -6.0697013    -5.196183  -0.10106906   -6.0697013   0.87351825      1024000 
  708000   0.58221984   -6.0705326   -6.0705326   -5.1972046 -0.095848236   -6.0705326   0.87332799      1024000 
  709000   0.58331772   -6.0730879   -6.0730879   -5.1981131 -0.099291664   -6.0730879   0.87497481      1024000 
  710000    0.5834175   -6.0746348   -6.0746348   -5.1995104 -0.097967409   -6.0746348   0.87512447      1024000 
  711000   0.58397584   -6.0764181   -6.0764181   -5.2004561 -0.095632126   -6.0764181   0.87596199      1024000 
  712000   0.58304478   -6.0754938   -6.0754938   -5.2009285 -0.090209644   -6.0754938   0.87456539      1024000 
  713000   0.58393768   -6.0774864   -6.0774864   -5.2015816 -0.092404349   -6.0774864   0.87590474      1024000 
  714000   0.58385763   -6.0787016   -6.0787016   -5.2029169 -0.091879089   -6.0787016   0.87578467      1024000 
  715000   0.58277806   -6.0781609   -6.0781609   -5.2039956 -0.091187842   -6.0781609   0.87416531      1024000 
  716000   0.58301867   -6.0801483   -6.0801483   -5.2056221 -0.096268705   -6.0801483   0.87452623      1024000 
  717000   0.58180812   -6.0801203   -6.0801203   -5.2074099 -0.095090568   -6.0801203   0.87271041      1024000 
  718000   0.58194092   -6.0815697   -6.0815697   -5.2086601 -0.098914403   -6.0815697   0.87290961      1024000 
  719000   0.58296555   -6.0838255   -6.0838255    -5.209379  -0.10282981   -6.0838255   0.87444656      1024000 
  720000   0.58121546   -6.0826734   -6.0826734    -5.210852  -0.10185624   -6.0826734   0.87182142      1024000 
  721000   0.58124264   -6.0833595   -6.0833595   -5.2114973  -0.10317538   -6.0833595   0.87186219      1024000 
  722000   0.58134392   -6.0846724   -6.0846724   -5.2126583  -0.10263396   -6.0846724   0.87201412      1024000 
  723000   0.58181586   -6.0868158   -6.0868158   -5.2140937  -0.10448065   -6.0868158   0.87272202      1024000 
  724000    0.5823722   -6.0883267   -6.0883267   -5.2147701  -0.10148564   -6.0883267   0.87355653      1024000 
  725000   0.58168804   -6.0885349   -6.0885349   -5.2160046 -0.096974504   -6.0885349    0.8725303      1024000 
  726000   0.58287338   -6.0908392   -6.0908392   -5.2165309 -0.098269974   -6.0908392   0.87430829      1024000 
  727000   0.58275278   -6.0917463   -6.0917463   -5.2176189  -0.09763135   -6.0917463    0.8741274      1024000 
  728000   0.58245796   -6.0919534   -6.0919534   -5.2182682 -0.094289638   -6.0919534   0.87368516      1024000 
  729000   0.58124753   -6.0916051   -6.0916051   -5.2197355 -0.094537807   -6.0916051   0.87186953      1024000 
  730000   0.58130989   -6.0936277   -6.0936277   -5.2216646 -0.097618177   -6.0936277   0.87196306      1024000 
  731000   0.58133969   -6.0940409   -6.0940409   -5.2220331 -0.097409709   -6.0940409   0.87200777      1024000 
  732000   0.58126945   -6.0959755   -6.0959755   -5.2240731  -0.10015816   -6.0959755    0.8719024      1024000 
  733000   0.58036375     -6.09579     -6.09579   -5.2252461  -0.10260206     -6.09579   0.87054386      1024000 
  734000    0.5808534   -6.0971661   -6.0971661   -5.2258878  -0.10078409   -6.0971661   0.87127833      1024000 
  735000   0.58121613   -6.0978074   -6.0978074    -5.225985  -0.10162156   -6.0978074   0.87182242      1024000 
  736000   0.57991731   -6.0969309   -6.0969309   -5.2270567  -0.10068908   -6.0969309    0.8698742      1024000 
  737000   0.58080589   -6.0994301   -6.0994301    -5.228223  -0.10638409   -6.0994301   0.87120706      1024000 
  738000   0.57971192   -6.0988953   -6.0988953   -5.2293292  -0.10202934   -6.0988953   0.86956612      1024000 
  739000    0.5803488   -6.1009143   -6.1009143   -5.2303928 -0.099543091   -6.1009143   0.87052143      1024000 
  740000   0.58051447   -6.1024732   -6.1024732   -5.2317033  -0.10191717   -6.1024732   0.87076994      1024000 
  741000   0.57990553   -6.1030343   -6.1030343   -5.2331778  -0.10342278   -6.1030343   0.86985652      1024000 
  742000   0.58011509    -6.103613    -6.103613   -5.2334421 -0.094232303    -6.103613   0.87017088      1024000 
  743000   0.58063714   -6.1056788   -6.1056788   -5.2347249 -0.098810168   -6.1056788   0.87095395      1024000 
  744000   0.57980307   -6.1056129   -6.1056129     -5.23591 -0.097703598   -6.1056129   0.86970284      1024000 
  745000   0.58087846   -6.1085055   -6.1085055   -5.2371896  -0.09859183   -6.1085055   0.87131592      1024000 
  746000   0.58033506   -6.1088288   -6.1088288    -5.238328 -0.099005131   -6.1088288   0.87050082      1024000 
  747000   0.58010437   -6.1094042   -6.1094042   -5.2392494 -0.099369473   -6.1094042   0.87015479      1024000 
  748000   0.57959112   -6.1097536   -6.1097536   -5.2403687  -0.10044788   -6.1097536   0.86938492      1024000 
  749000   0.57990456    -6.111366    -6.111366   -5.2415109  -0.10083129    -6.111366   0.86985508      1024000 
  750000   0.57930173   -6.1119449   -6.1119449   -5.2429941  -0.10258677   -6.1119449   0.86895083      1024000 
  751000   0.57915981   -6.1125301   -6.1125301   -5.2437922   -0.1050627   -6.1125301   0.86873795      1024000 
  752000   0.57880172   -6.1128338   -6.1128338    -5.244633  -0.10434529   -6.1128338   0.86820082      1024000 
  753000   0.57886576   -6.1135687   -6.1135687   -5.2452718  -0.10682442   -6.1135687   0.86829687      1024000 
  754000   0.57814326   -6.1135826   -6.1135826   -5.2463695  -0.10464628   -6.1135826   0.86721313      1024000 
  755000   0.57832674   -6.1149987   -6.1149987   -5.2475103  -0.10076529   -6.1149987   0.86748836      1024000 
  756000   0.57919012   -6.1175607   -6.1175607   -5.2487773  -0.10438289   -6.1175607   0.86878341      1024000 
  757000   0.57879884    -6.117944    -6.117944   -5.2497475  -0.10189267    -6.117944   0.86819651      1024000 
  758000   0.57897569   -6.1196546   -6.1196546   -5.2511929  -0.10436377   -6.1196546   0.86846177      1024000 
  759000   0.57881772   -6.1211792   -6.1211792   -5.2529544  -0.10607518   -6.1211792   0.86822482      1024000 
  760000   0.57740796   -6.1202983   -6.1202983   -5.2541881   -0.1024108   -6.1202983   0.86611018      1024000 
  761000   0.57750862   -6.1212708   -6.1212708   -5.2550097 -0.099845724   -6.1212708   0.86626117      1024000 
  762000   0.57853448   -6.1235792   -6.1235792   -5.2557792  -0.10074376   -6.1235792   0.86779997      1024000 
  763000   0.57799426   -6.1230049   -6.1230049   -5.2560153 -0.098002463   -6.1230049   0.86698963      1024000 
  764000   0.57797262   -6.1241677   -6.1241677   -5.2572105  -0.10079853   -6.1241677   0.86695717      1024000 
  765000   0.57726799   -6.1248043   -6.1248043   -5.2589041  -0.10127816   -6.1248043   0.86590023      1024000 
  766000   0.57660961   -6.1251658   -6.1251658   -5.2602531  -0.10583805   -6.1251658   0.86491266      1024000 
  767000   0.57624771   -6.1261051   -6.1261051   -5.2617353  -0.10656226   -6.1261051   0.86436982      1024000 
  768000   0.57697676   -6.1282675   -6.1282675   -5.2628041  -0.11079528   -6.1282675   0.86546338      1024000 
  769000   0.57618051   -6.1278398   -6.1278398   -5.2635708  -0.11129955   -6.1278398   0.86426901      1024000 
  770000    0.5766595   -6.1291522   -6.1291522   -5.2641647  -0.11003899   -6.1291522    0.8649875      1024000 
  771000   0.57698194   -6.1307229   -6.1307229   -5.2652517  -0.10811237   -6.1307229   0.86547116      1024000 
  772000   0.57669075    -6.131159    -6.131159   -5.2661246  -0.10640924    -6.131159   0.86503437      1024000 
  773000    0.5757985   -6.1306127   -6.1306127   -5.2669167  -0.10596692   -6.1306127   0.86369599      1024000 
  774000   0.57660589   -6.1327965   -6.1327965   -5.2678894  -0.10578018   -6.1327965   0.86490709      1024000 
  775000   0.57662548   -6.1333407   -6.1333407   -5.2684042  -0.10356692   -6.1333407   0.86493647      1024000 
  776000   0.57671993   -6.1340669   -6.1340669   -5.2689887  -0.10014969   -6.1340669   0.86507814      1024000 
  777000   0.57633578   -6.1349099   -6.1349099   -5.2704079  -0.10068966   -6.1349099   0.86450192      1024000 
  778000   0.57642317   -6.1362466   -6.1362466   -5.2716136  -0.10431039   -6.1362466     0.864633      1024000 
  779000   0.57670506     -6.13797     -6.13797   -5.2729142  -0.10777736     -6.13797   0.86505583      1024000 
  780000   0.57519815   -6.1364645   -6.1364645   -5.2736691  -0.10499385   -6.1364645   0.86279547      1024000 
  781000   0.57492652     -6.13778     -6.13778    -5.275392  -0.11162553     -6.13778   0.86238803      1024000 
  782000   0.57503129   -6.1385135   -6.1385135   -5.2759683  -0.11288835   -6.1385135   0.86254519      1024000 
  783000   0.57523826   -6.1396276   -6.1396276   -5.2767719  -0.11155644   -6.1396276   0.86285564      1024000 
  784000   0.57457009   -6.1395704   -6.1395704    -5.277717  -0.10694059   -6.1395704   0.86185339      1024000 
  785000   0.57524043    -6.141988    -6.141988   -5.2791291   -0.1129889    -6.141988   0.86285889      1024000 
  786000   0.57443342     -6.14188     -6.14188   -5.2802316  -0.11245592     -6.14188   0.86164838      1024000 
  787000   0.57496662   -6.1437863   -6.1437863   -5.2813381  -0.11515095   -6.1437863   0.86244818      1024000 
  788000   0.57420184   -6.1435318   -6.1435318   -5.2822308  -0.10783568   -6.1435318   0.86130101      1024000 
  789000   0.57369449   -6.1443434   -6.1443434   -5.2838034  -0.10911375   -6.1443434   0.86053999      1024000 
  790000    0.5744809   -6.1464249   -6.1464249   -5.2847053  -0.10796873   -6.1464249    0.8617196      1024000 
  791000   0.57509926   -6.1487015   -6.1487015   -5.2860544  -0.10993593   -6.1487015   0.86264714      1024000 
  792000   0.57555745   -6.1495871   -6.1495871   -5.2862527  -0.11135008   -6.1495871   0.86333442      1024000 
  793000   0.57537546   -6.1506956   -6.1506956   -5.2876342  -0.11136431   -6.1506956   0.86306145      1024000 
  794000   0.57483122   -6.1515624   -6.1515624   -5.2893173  -0.11478842   -6.1515624   0.86224508      1024000 
  795000   0.57399651   -6.1515811   -6.1515811   -5.2905881  -0.11081746   -6.1515811   0.86099301      1024000 
  796000   0.57365146   -6.1521892   -6.1521892   -5.2917137  -0.11215306   -6.1521892   0.86047544      1024000 
  797000   0.57428616   -6.1540236   -6.1540236   -5.2925961  -0.11445159   -6.1540236   0.86142749      1024000 
  798000   0.57363493   -6.1535368   -6.1535368   -5.2930861  -0.11199422   -6.1535368   0.86045065      1024000 
  799000   0.57343989   -6.1548329   -6.1548329   -5.2946748  -0.11815209   -6.1548329   0.86015809      1024000 
  800000   0.57324391   -6.1560564   -6.1560564   -5.2961923  -0.11829617   -6.1560564   0.85986412      1024000 
  801000   0.57266542   -6.1564583   -6.1564583   -5.2974619  -0.11714241   -6.1564583   0.85899639      1024000 
  802000   0.57289012   -6.1573485   -6.1573485    -5.298015  -0.11853669   -6.1573485   0.85933343      1024000 
  803000    0.5735119   -6.1593444   -6.1593444   -5.2990783  -0.12153173   -6.1593444   0.86026611      1024000 
  804000    0.5721106   -6.1579336   -6.1579336   -5.2997695  -0.11544807   -6.1579336   0.85816416      1024000 
  805000   0.57282014   -6.1598032   -6.1598032   -5.3005747  -0.11647643   -6.1598032   0.85922847      1024000 
  806000   0.57306098   -6.1616421   -6.1616421   -5.3020523  -0.11721686   -6.1616421   0.85958972      1024000 
  807000   0.57317359   -6.1626387   -6.1626387   -5.3028801  -0.11602635   -6.1626387   0.85975864      1024000 
  808000   0.57313887   -6.1637625   -6.1637625   -5.3040559  -0.11807747   -6.1637625   0.85970656      1024000 
  809000   0.57340248   -6.1652081   -6.1652081   -5.3051061  -0.12021347   -6.1652081   0.86010198      1024000 
  810000   0.57302026   -6.1661467   -6.1661467    -5.306618  -0.12014572   -6.1661467   0.85952865      1024000 
  811000   0.57176536    -6.165654    -6.165654   -5.3080077   -0.1182818    -6.165654   0.85764631      1024000 
  812000   0.57287695   -6.1673665   -6.1673665   -5.3080528  -0.12272851   -6.1673665   0.85931367      1024000 
  813000   0.57253346   -6.1686655   -6.1686655   -5.3098671  -0.12354363   -6.1686655   0.85879845      1024000 
  814000   0.57258412   -6.1696493   -6.1696493   -5.3107749  -0.12670931   -6.1696493   0.85887443      1024000 
  815000     0.572132   -6.1691646   -6.1691646   -5.3109683  -0.12497323   -6.1691646   0.85819625      1024000 
  816000   0.57199403   -6.1697417   -6.1697417   -5.3117524  -0.12452673   -6.1697417   0.85798931      1024000 
  817000   0.57270975   -6.1713968   -6.1713968    -5.312334  -0.12488869   -6.1713968   0.85906288      1024000 
  818000    0.5719139   -6.1716242   -6.1716242   -5.3137551  -0.12379567   -6.1716242   0.85786911      1024000 
  819000   0.57202645   -6.1730812   -6.1730812   -5.3150433  -0.12743498   -6.1730812   0.85803793      1024000 
  820000   0.57217242   -6.1737857   -6.1737857   -5.3155289  -0.12550331   -6.1737857   0.85825688      1024000 
  821000    0.5717743   -6.1740975   -6.1740975   -5.3164378  -0.12287566   -6.1740975   0.85765971      1024000 
  822000   0.57190965    -6.175661    -6.175661   -5.3177983  -0.12528482    -6.175661   0.85786273      1024000 
  823000   0.57269245    -6.177702    -6.177702   -5.3186651  -0.12433676    -6.177702   0.85903693      1024000 
  824000   0.57290228   -6.1791961   -6.1791961   -5.3198444   -0.1286127   -6.1791961   0.85935168      1024000 
  825000   0.57057091   -6.1772803   -6.1772803   -5.3214257  -0.12033027   -6.1772803   0.85585462      1024000 
  826000   0.57117399   -6.1798892   -6.1798892     -5.32313  -0.12467057   -6.1798892   0.85675925      1024000 
  827000   0.57212857   -6.1820434   -6.1820434   -5.3238523  -0.12414436   -6.1820434   0.85819111      1024000 
  828000   0.57187041   -6.1827053   -6.1827053   -5.3249015  -0.12667932   -6.1827053   0.85780387      1024000 
  829000   0.57172594   -6.1830549   -6.1830549   -5.3254677   -0.1225394   -6.1830549   0.85758717      1024000 
  830000   0.57189804   -6.1841571   -6.1841571   -5.3263117  -0.12830248   -6.1841571   0.85784532      1024000 
  831000    0.5718064   -6.1846117   -6.1846117   -5.3269038  -0.12703389   -6.1846117   0.85770786      1024000 
  832000   0.57114317   -6.1845806   -6.1845806   -5.3278676  -0.12623068   -6.1845806   0.85671301      1024000 
  833000   0.57283367    -6.188664    -6.188664   -5.3294152  -0.13080519    -6.188664   0.85924876      1024000 
  834000    0.5711023   -6.1866652   -6.1866652   -5.3300135  -0.12613278   -6.1866652   0.85665171      1024000 
  835000   0.57081238   -6.1871867   -6.1871867   -5.3309698   -0.1271335   -6.1871867   0.85621683      1024000 
  836000   0.57049086   -6.1884454   -6.1884454   -5.3327109  -0.13168253   -6.1884454   0.85573456      1024000 
  837000   0.57067092   -6.1888698   -6.1888698   -5.3328651  -0.12964785   -6.1888698   0.85600464      1024000 
  838000   0.57043901   -6.1897179   -6.1897179   -5.3340611  -0.12969185   -6.1897179   0.85565677      1024000 
  839000    0.5704585   -6.1913808   -6.1913808   -5.3356948  -0.13318159   -6.1913808   0.85568601      1024000 
  840000   0.56975974   -6.1919538   -6.1919538    -5.337316  -0.13186335   -6.1919538   0.85463788      1024000 
  841000   0.57018451   -6.1944817   -6.1944817   -5.3392067  -0.13540528   -6.1944817   0.85527503      1024000 
  842000   0.56969935   -6.1944911   -6.1944911   -5.3399438  -0.13169806   -6.1944911   0.85454729      1024000 
  843000   0.56975292   -6.1954787   -6.1954787    -5.340851  -0.13188268   -6.1954787   0.85462765      1024000 
  844000   0.56995391   -6.1967064   -6.1967064   -5.3417773  -0.12982742   -6.1967064   0.85492913      1024000 
  845000   0.57011069   -6.1981685   -6.1981685   -5.3430042  -0.13277393   -6.1981685    0.8551643      1024000 
  846000   0.57027956   -6.1996341   -6.1996341   -5.3442165  -0.12880067   -6.1996341   0.85541761      1024000 
  847000   0.56900983   -6.1991774   -6.1991774   -5.3456644   -0.1315818   -6.1991774   0.85351302      1024000 
  848000   0.56988548   -6.2014833   -6.2014833   -5.3466568  -0.13390166   -6.2014833   0.85482649      1024000 
  849000   0.56902998   -6.2012971   -6.2012971   -5.3477539  -0.13362554   -6.2012971   0.85354324      1024000 
  850000   0.56847721   -6.2013249   -6.2013249   -5.3486108  -0.13608222   -6.2013249   0.85271409      1024000 
  851000   0.56915526   -6.2030267   -6.2030267   -5.3492955  -0.13494693   -6.2030267   0.85373115      1024000 
  852000   0.56863235   -6.2025076   -6.2025076   -5.3495608  -0.13152623   -6.2025076    0.8529468      1024000 
  853000   0.56932332    -6.204596    -6.204596   -5.3506128  -0.13304557    -6.204596   0.85398324      1024000 
  854000   0.56867419   -6.2045112   -6.2045112   -5.3515016  -0.13151123   -6.2045112   0.85300955      1024000 
  855000   0.56802691   -6.2045875   -6.2045875   -5.3525489  -0.13240704   -6.2045875   0.85203864      1024000 
  856000    0.5686262   -6.2067778   -6.2067778   -5.3538403  -0.13665361   -6.2067778   0.85293757      1024000 
  857000   0.56824546   -6.2075267   -6.2075267   -5.3551603  -0.13977746   -6.2075267   0.85236647      1024000 
  858000   0.56676944   -6.2070098   -6.2070098   -5.3568573  -0.13491642   -6.2070098   0.85015243      1024000 
  859000   0.56774629   -6.2091251   -6.2091251   -5.3575074  -0.13332388   -6.2091251   0.85161771      1024000 
  860000   0.56828383   -6.2105278   -6.2105278   -5.3581038  -0.13295686   -6.2105278   0.85242401      1024000 
  861000   0.56866272   -6.2119623   -6.2119623     -5.35897  -0.13677294   -6.2119623   0.85299235      1024000 
  862000   0.56789712   -6.2118317   -6.2118317   -5.3599877  -0.13368433   -6.2118317   0.85184395      1024000 
  863000   0.56806894   -6.2128909   -6.2128909   -5.3607892  -0.13349013   -6.2128909   0.85210168      1024000 
  864000   0.56805338   -6.2138651   -6.2138651   -5.3617867  -0.13597988   -6.2138651   0.85207834      1024000 
  865000   0.56804244   -6.2142691   -6.2142691   -5.3622072  -0.13300576   -6.2142691   0.85206193      1024000 
  866000   0.56886447   -6.2162133   -6.2162133   -5.3629183  -0.13611079   -6.2162133   0.85329497      1024000 
  867000   0.56867115   -6.2164187   -6.2164187   -5.3634137  -0.13191236   -6.2164187   0.85300499      1024000 
  868000   0.56862699   -6.2178135   -6.2178135   -5.3648748  -0.13953248   -6.2178135   0.85293876      1024000 
  869000   0.56709269   -6.2164529   -6.2164529   -5.3658156  -0.13780285   -6.2164529   0.85063731      1024000 
  870000   0.56782763   -6.2186052   -6.2186052   -5.3668655  -0.13888076   -6.2186052   0.85173972      1024000 
  871000   0.56748851   -6.2188134   -6.2188134   -5.3675824  -0.13837658   -6.2188134   0.85123104      1024000 
  872000   0.56740301   -6.2199791   -6.2199791   -5.3688764  -0.13884834   -6.2199791   0.85110279      1024000 
  873000   0.56747546   -6.2210999   -6.2210999   -5.3698884   -0.1369498   -6.2210999   0.85121147      1024000 
  874000   0.56691669   -6.2213207   -6.2213207   -5.3709473  -0.13487527   -6.2213207   0.85037331      1024000 
  875000   0.56684588   -6.2225344   -6.2225344   -5.3722673  -0.13338367   -6.2225344   0.85026709      1024000 
  876000   0.56777767    -6.224984    -6.224984   -5.3733192  -0.14050836    -6.224984   0.85166478      1024000 
  877000   0.56795616   -6.2258662   -6.2258662   -5.3739337  -0.13590883   -6.2258662   0.85193251      1024000 
  878000   0.56767642    -6.226495    -6.226495   -5.3749821  -0.13695127    -6.226495    0.8515129      1024000 
  879000   0.56794138   -6.2277709   -6.2277709   -5.3758605  -0.13443489   -6.2277709   0.85191035      1024000 
  880000   0.56756052   -6.2278696   -6.2278696   -5.3765306  -0.13284987   -6.2278696   0.85133905      1024000 
  881000   0.56761241   -6.2286473   -6.2286473   -5.3772304  -0.13434681   -6.2286473   0.85141688      1024000 
  882000   0.56735357   -6.2294548   -6.2294548   -5.3784262  -0.13751254   -6.2294548   0.85102863      1024000 
  883000   0.56780263   -6.2305991   -6.2305991   -5.3788968  -0.14068896   -6.2305991   0.85170222      1024000 
  884000   0.56664652   -6.2302439   -6.2302439   -5.3802758  -0.13828538   -6.2302439   0.84996805      1024000 
  885000   0.56706836   -6.2315059   -6.2315059   -5.3809051   -0.1399721   -6.2315059   0.85060082      1024000 
  886000   0.56626799   -6.2310916   -6.2310916   -5.3816913  -0.14266776   -6.2310916   0.84940027      1024000 
  887000   0.56678913   -6.2320308   -6.2320308   -5.3818488   -0.1372532   -6.2320308   0.85018197      1024000 
  888000    0.5665294   -6.2333121   -6.2333121   -5.3835197  -0.13865164   -6.2333121   0.84979237      1024000 
  889000   0.56642626   -6.2337275   -6.2337275   -5.3840898  -0.13818043   -6.2337275   0.84963766      1024000 
  890000   0.56694763   -6.2357179   -6.2357179   -5.3852982  -0.13786889   -6.2357179   0.85041971      1024000 
  891000   0.56611721   -6.2354395   -6.2354395   -5.3862654  -0.13760492   -6.2354395   0.84917409      1024000 
  892000   0.56717955   -6.2381915   -6.2381915   -5.3874239  -0.13700494   -6.2381915    0.8507676      1024000 
  893000   0.56660462    -6.239335    -6.239335   -5.3894298  -0.13606976    -6.239335    0.8499052      1024000 
  894000   0.56754763   -6.2409619   -6.2409619   -5.3896422  -0.13754587   -6.2409619   0.85131972      1024000 
  895000   0.56710805   -6.2413816   -6.2413816   -5.3907213  -0.13575262   -6.2413816   0.85066035      1024000 
  896000   0.56721374   -6.2424344   -6.2424344   -5.3916155  -0.13663776   -6.2424344   0.85081888      1024000 
  897000   0.56677995   -6.2429039   -6.2429039   -5.3927357  -0.13556121   -6.2429039    0.8501682      1024000 
  898000   0.56647505   -6.2432884   -6.2432884   -5.3935776  -0.13775341   -6.2432884   0.84971085      1024000 
  899000   0.56612326   -6.2439509   -6.2439509   -5.3947677  -0.13860329   -6.2439509   0.84918316      1024000 
  900000   0.56632163   -6.2451157   -6.2451157    -5.395635  -0.13812389   -6.2451157   0.84948072      1024000 
  901000   0.56645708   -6.2460335   -6.2460335   -5.3963496  -0.13643218   -6.2460335   0.84968389      1024000 
  902000   0.56576634   -6.2457522   -6.2457522   -5.3971044  -0.13673369   -6.2457522   0.84864779      1024000 
  903000    0.5669618   -6.2481118   -6.2481118   -5.3976708   -0.1401022   -6.2481118   0.85044098      1024000 
  904000   0.56735973   -6.2501655   -6.2501655   -5.3991276  -0.13976971   -6.2501655   0.85103787      1024000 
  905000   0.56767286    -6.251125    -6.251125   -5.3996174  -0.14328786    -6.251125   0.85150757      1024000 
  906000   0.56643138   -6.2506373   -6.2506373    -5.400992   -0.1402552   -6.2506373   0.84964534      1024000 
  907000   0.56615461   -6.2515644   -6.2515644   -5.4023342  -0.13853426   -6.2515644   0.84923019      1024000 
  908000   0.56662987   -6.2528592   -6.2528592   -5.4029161  -0.14109349   -6.2528592   0.84994309      1024000 
  909000   0.56629412   -6.2527012   -6.2527012   -5.4032618  -0.13814818   -6.2527012   0.84943945      1024000 
  910000   0.56543321   -6.2529277   -6.2529277   -5.4047796    -0.137623   -6.2529277    0.8481481      1024000 
  911000   0.56601862    -6.255368    -6.255368   -5.4063418  -0.13995121    -6.255368    0.8490262      1024000 
  912000   0.56617297   -6.2573944   -6.2573944   -5.4081367  -0.14405232   -6.2573944   0.84925773      1024000 
  913000   0.56483945   -6.2570671   -6.2570671   -5.4098096  -0.14438934   -6.2570671   0.84725746      1024000 
  914000   0.56583628   -6.2589334   -6.2589334   -5.4101807   -0.1448712   -6.2589334   0.84875269      1024000 
  915000   0.56377949   -6.2570186   -6.2570186   -5.4113511  -0.13716406   -6.2570186   0.84566752      1024000 
  916000   0.56526517   -6.2601467   -6.2601467   -5.4122506  -0.14527733   -6.2601467   0.84789603      1024000 
  917000   0.56422078   -6.2591652   -6.2591652   -5.4128358  -0.13915541   -6.2591652   0.84632946      1024000 
  918000   0.56556989   -6.2620712   -6.2620712   -5.4137181  -0.14158802   -6.2620712   0.84835312      1024000 
  919000   0.56489969   -6.2620639   -6.2620639   -5.4147161  -0.14118687   -6.2620639   0.84734781      1024000 
  920000   0.56587171   -6.2635181   -6.2635181   -5.4147123  -0.13739334   -6.2635181   0.84880584      1024000 
  921000   0.56536668   -6.2635792   -6.2635792   -5.4155309  -0.13907724   -6.2635792   0.84804831      1024000 
  922000    0.5660997   -6.2659465   -6.2659465   -5.4167986  -0.14550259   -6.2659465   0.84914782      1024000 
  923000   0.56529308   -6.2657074   -6.2657074   -5.4177695  -0.14090907   -6.2657074    0.8479379      1024000 
  924000   0.56520778    -6.266404    -6.266404   -5.4185941  -0.14132895    -6.266404   0.84780994      1024000 
  925000   0.56541616   -6.2679951   -6.2679951   -5.4198726  -0.14215125   -6.2679951   0.84812253      1024000 
  926000   0.56552621   -6.2688279   -6.2688279   -5.4205403  -0.14363356   -6.2688279   0.84828759      1024000 
  927000   0.56462992   -6.2682547   -6.2682547   -5.4213115  -0.14058673   -6.2682547   0.84694316      1024000 
  928000   0.56576882   -6.2714055   -6.2714055    -5.422754  -0.14505773   -6.2714055   0.84865151      1024000 
  929000   0.56539622   -6.2713335   -6.2713335   -5.4232409  -0.14375613   -6.2713335   0.84809262      1024000 
  930000   0.56548684   -6.2724091   -6.2724091   -5.4241805  -0.14513121   -6.2724091   0.84822854      1024000 
  931000   0.56540818   -6.2733171   -6.2733171   -5.4252066  -0.14602894   -6.2733171   0.84811054      1024000 
  932000   0.56483508   -6.2732874   -6.2732874   -5.4260365  -0.14215094   -6.2732874    0.8472509      1024000 
  933000   0.56450872    -6.273989    -6.273989   -5.4272276  -0.14397777    -6.273989   0.84676136      1024000 
  934000   0.56476082   -6.2753599   -6.2753599   -5.4282204   -0.1451671   -6.2753599   0.84713952      1024000 
  935000   0.56494498   -6.2764849   -6.2764849   -5.4290692  -0.14160692   -6.2764849   0.84741575      1024000 
  936000   0.56500783   -6.2773332   -6.2773332   -5.4298232  -0.14394679   -6.2773332   0.84751003      1024000 
  937000   0.56591071   -6.2803636   -6.2803636   -5.4314993  -0.14554459   -6.2803636   0.84886434      1024000 
  938000   0.56530169   -6.2796525   -6.2796525   -5.4317017  -0.14341906   -6.2796525   0.84795081      1024000 
  939000   0.56405494   -6.2787435   -6.2787435   -5.4326628  -0.13862111   -6.2787435    0.8460807      1024000 
  940000   0.56472602   -6.2810438   -6.2810438   -5.4339565   -0.1397256   -6.2810438   0.84708731      1024000 
  941000   0.56533246   -6.2825461   -6.2825461   -5.4345491  -0.14348065   -6.2825461   0.84799698      1024000 
  942000   0.56549277   -6.2835192   -6.2835192   -5.4352817  -0.14333552   -6.2835192   0.84823744      1024000 
  943000   0.56599084   -6.2846803   -6.2846803   -5.4356957  -0.14408479   -6.2846803   0.84898454      1024000 
  944000   0.56598137   -6.2855371   -6.2855371   -5.4365668  -0.14335946   -6.2855371   0.84897034      1024000 
  945000    0.5656259   -6.2857882   -6.2857882    -5.437351  -0.14250282   -6.2857882   0.84843713      1024000 
  946000    0.5646065   -6.2856422   -6.2856422   -5.4387342  -0.14381042   -6.2856422   0.84690803      1024000 
  947000   0.56465386   -6.2868558   -6.2868558   -5.4398767  -0.14584723   -6.2868558   0.84697906      1024000 
  948000   0.56453148   -6.2870531   -6.2870531   -5.4402576  -0.14389365   -6.2870531    0.8467955      1024000 
  949000   0.56425534   -6.2876529   -6.2876529   -5.4412716   -0.1461456   -6.2876529   0.84638129      1024000 
  950000   0.56485215   -6.2890696   -6.2890696   -5.4417931  -0.14581273   -6.2890696    0.8472765      1024000 
  951000   0.56436578     -6.28974     -6.28974    -5.443193  -0.14586123     -6.28974   0.84654696      1024000 
  952000   0.56486196   -6.2918484   -6.2918484   -5.4445572  -0.14854406   -6.2918484   0.84729122      1024000 
  953000   0.56488472   -6.2927077   -6.2927077   -5.4453823  -0.15027481   -6.2927077   0.84732537      1024000 
  954000   0.56493454   -6.2938163   -6.2938163   -5.4464162   -0.1483884   -6.2938163   0.84740009      1024000 
  955000   0.56532784     -6.29503     -6.29503   -5.4470399  -0.14615731     -6.29503   0.84799004      1024000 
  956000   0.56510017   -6.2953201   -6.2953201   -5.4476716   -0.1459349   -6.2953201   0.84764854      1024000 
  957000   0.56353296    -6.295058    -6.295058   -5.4497603  -0.14462918    -6.295058   0.84529773      1024000 
  958000   0.56435266   -6.2973645   -6.2973645   -5.4508372  -0.14510011   -6.2973645   0.84652728      1024000 
  959000   0.56368273   -6.2976371   -6.2976371   -5.4521148  -0.14502896   -6.2976371   0.84552238      1024000 
  960000   0.56387525   -6.2998449   -6.2998449   -5.4540337  -0.14884754   -6.2998449   0.84581116      1024000 
  961000   0.56381599   -6.3005146   -6.3005146   -5.4547923  -0.15232952   -6.3005146   0.84572227      1024000 
  962000   0.56304556    -6.300052    -6.300052   -5.4554854  -0.15264652    -6.300052   0.84456662      1024000 
  963000   0.56388186   -6.3023503   -6.3023503   -5.4565292  -0.15367935   -6.3023503   0.84582107      1024000 
  964000    0.5639494   -6.3039483   -6.3039483   -5.4580259  -0.15353917   -6.3039483   0.84592238      1024000 
  965000   0.56308768   -6.3036231   -6.3036231   -5.4589933  -0.14918233   -6.3036231   0.84462981      1024000 
  966000   0.56390561   -6.3053384   -6.3053384   -5.4594817  -0.15177199   -6.3053384    0.8458567      1024000 
  967000   0.56342474   -6.3056999   -6.3056999   -5.4605645  -0.15222625   -6.3056999   0.84513539      1024000 
  968000   0.56404474   -6.3073561   -6.3073561   -5.4612907  -0.15564314   -6.3073561    0.8460654      1024000 
  969000   0.56306053   -6.3067232   -6.3067232   -5.4621341  -0.15129222   -6.3067232   0.84458908      1024000 
  970000   0.56298612   -6.3072725   -6.3072725   -5.4627951  -0.15145512   -6.3072725   0.84447747      1024000 
  971000    0.5639802   -6.3092566   -6.3092566    -5.463288  -0.15012018   -6.3092566   0.84596858      1024000 
  972000   0.56297312   -6.3085263   -6.3085263   -5.4640683  -0.14761809   -6.3085263   0.84445797      1024000 
  973000   0.56398758   -6.3109246   -6.3109246   -5.4649449  -0.15404192   -6.3109246   0.84597966      1024000 
  974000    0.5633627   -6.3105617   -6.3105617   -5.4655194  -0.15396521   -6.3105617   0.84504234      1024000 
  975000   0.56292982   -6.3104908   -6.3104908   -5.4660977   -0.1503547   -6.3104908   0.84439301      1024000 
  976000   0.56378587   -6.3130595   -6.3130595   -5.4673824  -0.14988991   -6.3130595   0.84567709      1024000 
  977000   0.56384432   -6.3140715   -6.3140715   -5.4683068  -0.15247074   -6.3140715   0.84576476      1024000 
  978000   0.56353259    -6.315327    -6.315327   -5.4700298  -0.15464608    -6.315327   0.84529716      1024000 
  979000   0.56287542   -6.3155036   -6.3155036   -5.4711922  -0.15618296   -6.3155036   0.84431142      1024000 
  980000   0.56309443   -6.3167242   -6.3167242   -5.4720843  -0.15545429   -6.3167242   0.84463993      1024000 
  981000   0.56409503   -6.3182843   -6.3182843   -5.4721435  -0.15604274   -6.3182843   0.84614082      1024000 
  982000   0.56330223   -6.3183318   -6.3183318   -5.4733801  -0.15180253   -6.3183318   0.84495163      1024000 
  983000   0.56415029   -6.3202708   -6.3202708   -5.4740471  -0.15150885   -6.3202708   0.84622371      1024000 
  984000   0.56350326   -6.3206775   -6.3206775   -5.4754243  -0.15237339   -6.3206775   0.84525318      1024000 
  985000   0.56380851    -6.321745    -6.321745   -5.4760339  -0.15423372    -6.321745   0.84571104      1024000 
  986000   0.56372007   -6.3219082   -6.3219082   -5.4763299  -0.15413571   -6.3219082   0.84557839      1024000 
  987000   0.56411738   -6.3233949   -6.3233949   -5.4772205  -0.15543627   -6.3233949   0.84617436      1024000 
  988000   0.56347257   -6.3236471   -6.3236471     -5.47844   -0.1547121   -6.3236471   0.84520714      1024000 
  989000   0.56437732   -6.3254066   -6.3254066   -5.4788424  -0.15479905   -6.3254066   0.84656427      1024000 
  990000   0.56288204   -6.3241761   -6.3241761   -5.4798548  -0.15318268   -6.3241761   0.84432134      1024000 
  991000   0.56361601   -6.3261917   -6.3261917   -5.4807694  -0.15738535   -6.3261917    0.8454223      1024000 
  992000   0.56328326   -6.3270804   -6.3270804   -5.4821573  -0.15636871   -6.3270804   0.84492317      1024000 
  993000   0.56327759   -6.3282022   -6.3282022   -5.4832876  -0.15670751   -6.3282022   0.84491466      1024000 
  994000   0.56389128   -6.3298857   -6.3298857   -5.4840505  -0.15805502   -6.3298857    0.8458352      1024000 
  995000   0.56350523   -6.3305178   -6.3305178   -5.4852617  -0.15554382   -6.3305178   0.84525614      1024000 
  996000   0.56345247   -6.3313076   -6.3313076   -5.4861306  -0.15688788   -6.3313076   0.84517699      1024000 
  997000   0.56338961   -6.3314875   -6.3314875   -5.4864048   -0.1558645   -6.3314875    0.8450827      1024000 
  998000   0.56396048   -6.3333879   -6.3333879   -5.4874489  -0.15775073   -6.3333879     0.845939      1024000 
  999000   0.56300582   -6.3335328   -6.3335328   -5.4890258  -0.15782498   -6.3335328   0.84450702      1024000 
 1000000   0.56318377   -6.3343408   -6.3343408   -5.4895668  -0.15538468   -6.3343408   0.84477395      1024000 
Loop time of 8382.51 on 96 procs for 1000000 steps with 492800 atoms

Performance: 25767.948 tau/day, 119.296 timesteps/s
99.5% CPU use with 96 MPI tasks x 1 OpenMP threads

MPI task timing breakdown:
Section |  min time  |  avg time  |  max time  |%varavg|  %CPU | %total
-----------------------------------------------------------------------
Pair    | 4611.7     | 5947.2     | 6582.7     | 720.7 |  99.5 | 70.95
Bond    | 0.75647    | 0.79998    | 0.85299    |   2.4 | 100.0 |  0.01
Neigh   | 490.24     | 617.85     | 672.38     | 198.5 |  99.6 |  7.37
Comm    | 659.46     | 1324.9     | 2467.7     |1295.6 |  99.3 | 15.81
Output  | 39.616     | 40.01      | 40.018     |   0.6 |  98.9 |  0.48
Modify  | 69.463     | 122.47     | 323.85     | 795.2 |  99.5 |  1.46
Other   |            | 329.3      |            |       |       |  3.93

Nlocal:        5133.33 ave        5645 max        4692 min
Histogram: 25 0 0 11 16 10 15 6 1 12
Nghost:        8358.46 ave        9557 max        5892 min
Histogram: 24 0 0 0 0 0 0 12 25 35
Neighs:        380009.0 ave      444127 max      286793 min
Histogram: 1 9 2 0 25 7 26 9 5 12

Total # of neighbors = 36480855
Ave neighs/atom = 74.027709
Ave special neighs/atom = 0.0000000
Neighbor list builds = 54985
Dangerous builds = 396
Total wall time: 2:19:43
