LAMMPS (24 Dec 2020)
OMP_NUM_THREADS environment is not set. Defaulting to 1 thread. (src/comm.cpp:94)
  using 1 OpenMP thread(s) per MPI task
# Simple rigid body system
# needed variables:

#variable	startTemp equal 0.5
#variable 	temp 	  equal 0.8

units		lj
atom_style	full
dimension 	3
boundary	p p f
pair_style	lj/cut/opt 2.5


variable 	sigma		equal 1.0
variable 	epsilon 	equal 1.0

region		box block 0 60 0 60 0 180
create_box 	3 box
Created orthogonal box = (0.0000000 0.0000000 0.0000000) to (60.000000 60.000000 180.00000)
  3 by 4 by 8 MPI processor grid



lattice 	sc 0.66
Lattice spacing in x,y,z = 1.1485556 1.1485556 1.1485556
region		fluid block EDGE EDGE EDGE EDGE 2 122 units box
create_atoms 	1 region fluid
Created 294945 atoms
  create_atoms CPU = 0.102 seconds

lattice 	sc 0.045
Lattice spacing in x,y,z = 2.8114422 2.8114422 2.8114422
region		gas block EDGE EDGE EDGE EDGE 123 178 units box
create_atoms    1 region gas
Created 9680 atoms
  create_atoms CPU = 0.003 seconds

group		solvent type 1
304625 atoms in group solvent

mass		1 1.0
mass		2 1.0
mass		3 1.0



neighbor 	0.4 bin

pair_coeff	1 1 1.0 1.0
pair_coeff	2 2 0.0 0.0
pair_coeff	3 3 0.0 0.0
pair_coeff	2 3 0.0 0.0
pair_coeff	1 2*3 0.0 0.0

pair_modify 	shift yes

delete_atoms	overlap 0.5 solvent solvent
System init for delete_atoms ...
Neighbor list info ...
  update every 1 steps, delay 10 steps, check yes
  max neighbors/atom: 2000, page size: 100000
  master list distance cutoff = 2.9
  ghost atom cutoff = 2.9
  binsize = 1.45, bins = 42 42 125
  2 neighbor lists, perpetual/occasional/extra = 1 1 0
  (1) command delete_atoms, occasional
      attributes: full, newton on
      pair build: full/bin
      stencil: full/bin/3d
      bin: standard
  (2) pair lj/cut/opt, perpetual
      attributes: half, newton on
      pair build: half/bin/newton
      stencil: half/bin/3d/newton
      bin: standard
WARNING: Ignoring 'compress yes' for molecular system (src/delete_atoms.cpp:125)
Deleted 11025 atoms, new total = 293600

velocity 	solvent create ${startTemp} 563435 loop geom
velocity 	solvent create 1.0 563435 loop geom

balance 	1.05 shift z 10 1.05
Balancing ...
Neighbor list info ...
  update every 1 steps, delay 10 steps, check yes
  max neighbors/atom: 2000, page size: 100000
  master list distance cutoff = 2.9
  ghost atom cutoff = 2.9
  binsize = 1.45, bins = 42 42 125
  1 neighbor lists, perpetual/occasional/extra = 1 0 0
  (1) pair lj/cut/opt, perpetual
      attributes: half, newton on
      pair build: half/bin/newton
      stencil: half/bin/3d/newton
      bin: standard
 rebalancing time: 0.009 seconds
  iteration count = 4
  initial/final maximal load/proc = 4680.0000 3744.0000
  initial/final imbalance factor  = 1.5302452 1.2241962
  x cuts: 0.0000000 0.33333333 0.66666667 1.0000000
  y cuts: 0.0000000 0.25000000 0.50000000 0.75000000 1.0000000
  z cuts: 0.0000000 0.10156250 0.17968750 0.27343750 0.35937500 0.45312500 0.51562500 0.61718750 1.0000000


####################### WALLS ###########################


variable       epsilonWall equal 2*${epsilon}
variable       epsilonWall equal 2*1

variable       cutoffTop   equal   0.7147*${sigma}
variable       cutoffTop   equal   0.7147*1

variable       cutoffLow   equal   3*${sigma}
variable       cutoffLow   equal   3*1


fix            topWall all wall/lj93 zhi EDGE                ${epsilonWall} ${sigma} ${cutoffTop} units box
fix            topWall all wall/lj93 zhi EDGE                2 ${sigma} ${cutoffTop} units box
fix            topWall all wall/lj93 zhi EDGE                2 1 ${cutoffTop} units box
fix            topWall all wall/lj93 zhi EDGE                2 1 0.7147 units box

fix            lowWall all wall/lj93 zlo EDGE                ${epsilonWall} ${sigma} ${cutoffLow} units box
fix            lowWall all wall/lj93 zlo EDGE                2 ${sigma} ${cutoffLow} units box
fix            lowWall all wall/lj93 zlo EDGE                2 1 ${cutoffLow} units box
fix            lowWall all wall/lj93 zlo EDGE                2 1 3 units box


###################### COMPUTES ##########################

compute        bin1 solvent chunk/atom bin/1d z lower 1.0 units box


######################	FIXES ############################


fix 		peclet solvent ave/chunk 1000 1 1000 bin1 density/number norm 		 none ave one file density.profile

fix 		 temp solvent ave/chunk 1000 1 1000 bin1 temp norm 		 none ave one file temp.profile

fix 		2 solvent nve


## Thermostat


region		regthermo block EDGE EDGE EDGE EDGE 0 20 units box

group 		thermo dynamic solvent region regthermo every 1000
dynamic group thermo defined

fix 		3 thermo langevin ${startTemp} ${temp} 10 156453
fix 		3 thermo langevin 1.0 ${temp} 10 156453
fix 		3 thermo langevin 1.0 1.0 10 156453



#### Load balancing


fix 		bal all balance 1000 1.05 shift z 10 1.05


############### Diagnostics and computes ###################
#compute 	com cube	  rigid/local	1 mol x y z
#compute 	quat cube	  rigid/local	1 mol quatw quati quatj quatk

thermo 		1000
thermo_style 	custom step temp epair evdwl etotal press pe ke atoms

dump		1 all custom 100000 dump.lammpstrj id mol type x y z
dump 		2 all image 10000 image.*.png type type
dump 		3 all movie 1000 movie.avi type type

#dump 		com cube local 1000 dump.*.xyz c_com[*]
#dump		quat cube      local 1000 dump.*.quat c_quat[*]


restart 	1000000 restart.dat
timestep 	0.005
timer 		full
New timer settings: style=full  mode=nosync  timeout=off

run		3000000
Per MPI rank memory allocation (min/avg/max) = 9.676 | 10.02 | 10.25 Mbytes
Step Temp E_pair E_vdwl TotEng Press PotEng KinEng Atoms 
       0            1   -4.0572118   -4.0572118   -2.5572169   -1.4019201   -4.0572118    1.4999949   293600 
    1000    0.8763783   -3.8386495   -3.8386495   -2.5240865  -0.04322707   -3.8386495     1.314563   293600 
    2000   0.88940837    -3.834209    -3.834209    -2.500101 -0.014760968    -3.834209     1.334108   293600 
    3000   0.90179973   -3.8379205   -3.8379205   -2.4852255  0.010442374   -3.8379205     1.352695   293600 
    4000   0.91261895    -3.842171    -3.842171   -2.4732472  0.037675385    -3.842171    1.3689238   293600 
    5000   0.92380234    -3.847647    -3.847647   -2.4619482  0.073812074    -3.847647    1.3856988   293600 
    6000   0.93247758   -3.8535514   -3.8535514   -2.4548398  0.092034639   -3.8535514    1.3987116   293600 
    7000   0.93540406   -3.8543044   -3.8543044   -2.4512031  0.096423135   -3.8543044    1.4031013   293600 
    8000   0.93369147   -3.8503079   -3.8503079   -2.4497755  0.089718521   -3.8503079    1.4005324   293600 
    9000     0.934329   -3.8537228   -3.8537228   -2.4522341  0.078238656   -3.8537228    1.4014887   293600 
   10000   0.92896001   -3.8476738   -3.8476738   -2.4542385  0.083836936   -3.8476738    1.3934353   293600 
   11000   0.92779125   -3.8494013   -3.8494013   -2.4577191  0.065821726   -3.8494013    1.3916821   293600 
   12000   0.92551741   -3.8491787   -3.8491787   -2.4609073  0.067502195   -3.8491787    1.3882714   293600 
   13000   0.92462461   -3.8474054   -3.8474054   -2.4604732  0.070324261   -3.8474054    1.3869322   293600 
   14000    0.9279011   -3.8490108   -3.8490108   -2.4571639  0.072488535   -3.8490108    1.3918469   293600 
   15000   0.92724668    -3.844674    -3.844674   -2.4538087  0.077351794    -3.844674    1.3908653   293600 
   16000   0.92853712   -3.8433863   -3.8433863   -2.4505853  0.079592393   -3.8433863    1.3928009   293600 
   17000   0.92652542   -3.8367595   -3.8367595   -2.4469761  0.076593258   -3.8367595    1.3897834   293600 
   18000   0.92536456   -3.8322037   -3.8322037   -2.4441616   0.06790512   -3.8322037    1.3880421   293600 
   19000   0.92397295   -3.8274605   -3.8274605   -2.4415058  0.056535824   -3.8274605    1.3859547   293600 
   20000   0.92094243   -3.8206967   -3.8206967   -2.4392877   0.05018357   -3.8206967    1.3814089   293600 
   21000   0.91768916   -3.8133532   -3.8133532   -2.4368241  0.041213158   -3.8133532    1.3765291   293600 
   22000   0.91530075   -3.8072685   -3.8072685    -2.434322  0.037966901   -3.8072685    1.3729465   293600 
   23000   0.91471659   -3.8029022   -3.8029022    -2.430832  0.034756833   -3.8029022    1.3720702   293600 
   24000   0.91500045   -3.7999547   -3.7999547   -2.4274587  0.034692154   -3.7999547     1.372496   293600 
   25000   0.91364876   -3.7937013   -3.7937013   -2.4232328  0.028445878   -3.7937013    1.3704685   293600 
   26000   0.91347665   -3.7887372   -3.7887372   -2.4185269  0.033386985   -3.7887372    1.3702103   293600 
   27000   0.91416538   -3.7844478   -3.7844478   -2.4132043  0.039810657   -3.7844478    1.3712434   293600 
   28000   0.91546615   -3.7823812   -3.7823812   -2.4091867  0.024721322   -3.7823812    1.3731945   293600 
   29000   0.91309519   -3.7757308   -3.7757308   -2.4060927  0.029809373   -3.7757308    1.3696381   293600 
   30000   0.91352289   -3.7732471   -3.7732471   -2.4029675  0.020344749   -3.7732471    1.3702797   293600 
   31000   0.91233425   -3.7688927   -3.7688927    -2.400396   0.02629024   -3.7688927    1.3684967   293600 
   32000   0.91554467   -3.7689404   -3.7689404   -2.3956281  0.022512592   -3.7689404    1.3733123   293600 
   33000    0.9151318   -3.7653876   -3.7653876   -2.3926945   0.02828314   -3.7653876     1.372693   293600 
   34000   0.91456541    -3.762468    -3.762468   -2.3906245  0.022548911    -3.762468    1.3718434   293600 
   35000   0.91621749   -3.7606857   -3.7606857   -2.3863641  0.028531688   -3.7606857    1.3743215   293600 
   36000    0.9174411   -3.7597197   -3.7597197   -2.3835627    0.0304359   -3.7597197     1.376157   293600 
   37000   0.91683913   -3.7567724   -3.7567724   -2.3815184  0.033626752   -3.7567724     1.375254   293600 
   38000    0.9188425   -3.7580505   -3.7580505   -2.3797915  0.027991412   -3.7580505    1.3782591   293600 
   39000   0.91989502    -3.758522    -3.758522   -2.3786842  0.030357978    -3.758522    1.3798378   293600 
   40000   0.91829928    -3.754672    -3.754672   -2.3772278  0.034664994    -3.754672    1.3774442   293600 
   41000   0.91730801   -3.7515133   -3.7515133    -2.375556    0.0346446   -3.7515133    1.3759573   293600 
   42000   0.91824216   -3.7507192   -3.7507192   -2.3733607  0.030313978   -3.7507192    1.3773585   293600 
   43000   0.91884686   -3.7507186   -3.7507186    -2.372453  0.033210633   -3.7507186    1.3782656   293600 
   44000    0.9209476   -3.7544984   -3.7544984   -2.3730817   0.02492184   -3.7544984    1.3814167   293600 
   45000   0.92072711   -3.7539128   -3.7539128   -2.3728268  0.029962164   -3.7539128     1.381086   293600 
   46000   0.91893966   -3.7498767   -3.7498767   -2.3714719  0.029522149   -3.7498767    1.3784048   293600 
   47000   0.91855279   -3.7490266   -3.7490266   -2.3712021  0.027681925   -3.7490266    1.3778245   293600 
   48000   0.91921959   -3.7485541   -3.7485541   -2.3697294  0.030501138   -3.7485541    1.3788247   293600 
   49000   0.91954018   -3.7478081   -3.7478081   -2.3685025  0.031277686   -3.7478081    1.3793056   293600 
   50000   0.92010522   -3.7486795   -3.7486795   -2.3685263  0.024958434   -3.7486795    1.3801531   293600 
   51000   0.91978504   -3.7482286   -3.7482286   -2.3685558  0.025000944   -3.7482286    1.3796729   293600 
   52000    0.9194781   -3.7470181   -3.7470181   -2.3678056  0.035012434   -3.7470181    1.3792124   293600 
   53000   0.92305121   -3.7507319   -3.7507319   -2.3661598  0.030864199   -3.7507319    1.3845721   293600 
   54000   0.92387622   -3.7496311   -3.7496311   -2.3638215  0.031251567   -3.7496311    1.3858096   293600 
   55000   0.92400379   -3.7500758   -3.7500758   -2.3640748  0.039699349   -3.7500758     1.386001   293600 
   56000   0.92380603   -3.7496117   -3.7496117   -2.3639074  0.038798116   -3.7496117    1.3857043   293600 
   57000   0.92312753     -3.74876     -3.74876   -2.3640734  0.032106721     -3.74876    1.3846866   293600 
   58000   0.92457258   -3.7503665   -3.7503665   -2.3635124  0.039861723   -3.7503665    1.3868541   293600 
   59000   0.92304678   -3.7478401   -3.7478401   -2.3632747  0.039891234   -3.7478401    1.3845654   293600 
   60000   0.92232772   -3.7487469   -3.7487469     -2.36526  0.035937829   -3.7487469    1.3834869   293600 
   61000   0.91986594   -3.7438288   -3.7438288   -2.3640346  0.036143808   -3.7438288    1.3797942   293600 
   62000   0.92246663   -3.7470256   -3.7470256   -2.3633303  0.033601211   -3.7470256    1.3836952   293600 
   63000   0.92328184   -3.7494634   -3.7494634   -2.3645454   0.03750175   -3.7494634     1.384918   293600 
   64000   0.92266349   -3.7465956   -3.7465956   -2.3626051   0.04226773   -3.7465956    1.3839905   293600 
   65000   0.92274129   -3.7468756   -3.7468756   -2.3627684  0.036409745   -3.7468756    1.3841072   293600 
   66000   0.92308043     -3.74628     -3.74628   -2.3616641  0.034502627     -3.74628    1.3846159   293600 
   67000   0.92222144   -3.7466204   -3.7466204    -2.363293  0.038752955   -3.7466204    1.3833275   293600 
   68000   0.92314233   -3.7469675   -3.7469675   -2.3622587  0.039038841   -3.7469675    1.3847088   293600 
   69000    0.9247153   -3.7492534   -3.7492534   -2.3621852  0.030606838   -3.7492534    1.3870682   293600 
   70000   0.92137993   -3.7449378   -3.7449378   -2.3628726  0.044025218   -3.7449378    1.3820652   293600 
   71000   0.92417863   -3.7475017   -3.7475017   -2.3612385  0.038763392   -3.7475017    1.3862632   293600 
   72000   0.92422234   -3.7468627   -3.7468627    -2.360534  0.044184249   -3.7468627    1.3863288   293600 
   73000   0.92538694   -3.7460313   -3.7460313   -2.3579556  0.044695806   -3.7460313    1.3880757   293600 
   74000   0.92482908   -3.7447302   -3.7447302   -2.3574913  0.040206921   -3.7447302    1.3872389   293600 
   75000   0.92486695   -3.7438863   -3.7438863   -2.3565906  0.033503589   -3.7438863    1.3872957   293600 
   76000   0.92502214   -3.7425609   -3.7425609   -2.3550324  0.041322197   -3.7425609    1.3875285   293600 
   77000   0.92368475   -3.7410746   -3.7410746   -2.3555522  0.038989583   -3.7410746    1.3855224   293600 
   78000   0.92295864   -3.7396974   -3.7396974   -2.3552641  0.036761392   -3.7396974    1.3844332   293600 
   79000   0.92292198   -3.7391657   -3.7391657   -2.3547875  0.038608609   -3.7391657    1.3843783   293600 
   80000   0.92300025   -3.7387815   -3.7387815   -2.3542859  0.034328511   -3.7387815    1.3844957   293600 
   81000   0.92448895   -3.7399435   -3.7399435   -2.3532148  0.030361583   -3.7399435    1.3867287   293600 
   82000   0.92208298   -3.7355821   -3.7355821   -2.3524624  0.033665486   -3.7355821    1.3831198   293600 
   83000   0.92110986   -3.7334593   -3.7334593   -2.3517993  0.040379491   -3.7334593    1.3816601   293600 
   84000   0.92288468   -3.7359132   -3.7359132   -2.3515909  0.035329876   -3.7359132    1.3843223   293600 
   85000   0.92278513   -3.7351438   -3.7351438   -2.3509708  0.037010024   -3.7351438     1.384173   293600 
   86000    0.9237517   -3.7343208   -3.7343208    -2.348698  0.035423571   -3.7343208    1.3856228   293600 
   87000   0.92339222   -3.7322735   -3.7322735   -2.3471899  0.034768708   -3.7322735    1.3850836   293600 
   88000   0.92438087   -3.7310918   -3.7310918   -2.3445252  0.034652202   -3.7310918    1.3865666   293600 
   89000   0.92383252   -3.7311324   -3.7311324   -2.3453883  0.030685991   -3.7311324    1.3857441   293600 
   90000    0.9237256   -3.7296606   -3.7296606   -2.3440769  0.032666378   -3.7296606    1.3855837   293600 
   91000   0.92278004    -3.726216    -3.726216   -2.3420507  0.039889704    -3.726216    1.3841653   293600 
   92000   0.92470512    -3.727897    -3.727897   -2.3408441  0.039199492    -3.727897     1.387053   293600 
   93000   0.92503513   -3.7282301   -3.7282301   -2.3406821  0.031069353   -3.7282301     1.387548   293600 
   94000   0.92501707   -3.7269032   -3.7269032   -2.3393823  0.029881642   -3.7269032    1.3875209   293600 
   95000   0.92600187   -3.7269595   -3.7269595   -2.3379614   0.03759369   -3.7269595    1.3889981   293600 
   96000   0.92445235   -3.7236326   -3.7236326   -2.3369588  0.039426988   -3.7236326    1.3866738   293600 
   97000   0.92481848   -3.7226687   -3.7226687   -2.3354457   0.03535226   -3.7226687     1.387223   293600 
   98000   0.92322826   -3.7222222   -3.7222222   -2.3373845  0.030278906   -3.7222222    1.3848377   293600 
   99000   0.92379691   -3.7216896   -3.7216896   -2.3359989  0.031903818   -3.7216896    1.3856906   293600 
  100000   0.92345125   -3.7209339   -3.7209339   -2.3357618  0.037327221   -3.7209339    1.3851722   293600 
  101000   0.92477642   -3.7208993   -3.7208993   -2.3337394  0.028769126   -3.7208993    1.3871599   293600 
  102000   0.92361284   -3.7189919   -3.7189919   -2.3335774  0.037918043   -3.7189919    1.3854145   293600 
  103000   0.92514595   -3.7225507   -3.7225507   -2.3348365  0.030962734   -3.7225507    1.3877142   293600 
  104000   0.92491746   -3.7203322   -3.7203322   -2.3329607  0.038574452   -3.7203322    1.3873715   293600 
  105000   0.92553665   -3.7209199   -3.7209199   -2.3326197  0.038538362   -3.7209199    1.3883002   293600 
  106000   0.92674918   -3.7193286   -3.7193286   -2.3292096  0.038537843   -3.7193286     1.390119   293600 
  107000   0.92461327   -3.7171565   -3.7171565   -2.3302413  0.031420748   -3.7171565    1.3869152   293600 
  108000   0.92462068   -3.7166118   -3.7166118   -2.3296856  0.026266238   -3.7166118    1.3869263   293600 
  109000   0.92629104   -3.7176247   -3.7176247   -2.3281928  0.032178026   -3.7176247    1.3894318   293600 
  110000   0.92591748   -3.7174256   -3.7174256   -2.3285542  0.031998506   -3.7174256    1.3888715   293600 
  111000   0.92741445   -3.7180594   -3.7180594   -2.3269425  0.034970686   -3.7180594    1.3911169   293600 
  112000   0.92582778   -3.7161568   -3.7161568   -2.3274198  0.038320268   -3.7161568    1.3887369   293600 
  113000   0.92734071   -3.7177039   -3.7177039   -2.3266976   0.03903639   -3.7177039    1.3910063   293600 
  114000   0.92921757   -3.7198071   -3.7198071   -2.3259855  0.033529433   -3.7198071    1.3938216   293600 
  115000   0.93169265   -3.7219523   -3.7219523   -2.3244181  0.037411471   -3.7219523    1.3975342   293600 
  116000   0.92908255   -3.7171477   -3.7171477   -2.3235286  0.034256007   -3.7171477    1.3936191   293600 
  117000   0.92737511   -3.7133535   -3.7133535   -2.3222956  0.046444815   -3.7133535    1.3910579   293600 
  118000   0.92824909    -3.715048    -3.715048   -2.3226791   0.03786851    -3.715048    1.3923689   293600 
  119000     0.927487     -3.71365     -3.71365   -2.3224242   0.02914073     -3.71365    1.3912258   293600 
  120000   0.92818137   -3.7155159   -3.7155159   -2.3232486  0.030027916   -3.7155159    1.3922673   293600 
  121000   0.92637248   -3.7132995   -3.7132995   -2.3237456  0.032200719   -3.7132995     1.389554   293600 
  122000   0.92633907   -3.7134004   -3.7134004   -2.3238966  0.032428182   -3.7134004    1.3895039   293600 
  123000   0.92461375   -3.7109746   -3.7109746   -2.3240587  0.033305128   -3.7109746    1.3869159   293600 
  124000   0.92542807   -3.7104323   -3.7104323   -2.3222949  0.036234027   -3.7104323    1.3881374   293600 
  125000   0.92677611   -3.7110527   -3.7110527   -2.3208932  0.032881289   -3.7110527    1.3901594   293600 
  126000   0.92775194   -3.7112992   -3.7112992    -2.319676  0.033596633   -3.7112992    1.3916232   293600 
  127000   0.92753406   -3.7107496   -3.7107496   -2.3194533  0.035219069   -3.7107496    1.3912964   293600 
  128000   0.92774457   -3.7103822   -3.7103822   -2.3187701  0.036498847   -3.7103822    1.3916121   293600 
  129000    0.9294584   -3.7115021   -3.7115021   -2.3173193   0.03351874   -3.7115021    1.3941828   293600 
  130000   0.92684679   -3.7078715   -3.7078715   -2.3176061   0.03725765   -3.7078715    1.3902654   293600 
  131000   0.92895139   -3.7114696   -3.7114696   -2.3180472  0.037302468   -3.7114696    1.3934223   293600 
  132000   0.92866827   -3.7106126   -3.7106126    -2.317615  0.033453819   -3.7106126    1.3929977   293600 
  133000   0.92831422   -3.7083396   -3.7083396    -2.315873   0.03307011   -3.7083396    1.3924666   293600 
  134000   0.92994185   -3.7090235   -3.7090235   -2.3141155  0.029099971   -3.7090235     1.394908   293600 
  135000    0.9281546   -3.7059947   -3.7059947   -2.3137675  0.031480966   -3.7059947    1.3922272   293600 
  136000   0.92677473   -3.7048691   -3.7048691   -2.3147117  0.036793748   -3.7048691    1.3901574   293600 
  137000   0.92889139    -3.706427    -3.706427   -2.3130947  0.035934724    -3.706427    1.3933323   293600 
  138000   0.92877765    -3.706546    -3.706546   -2.3133842  0.037736177    -3.706546    1.3931617   293600 
  139000   0.92896544   -3.7067066   -3.7067066   -2.3132632  0.041996064   -3.7067066    1.3934434   293600 
  140000   0.92994835   -3.7069723   -3.7069723   -2.3120545  0.032904276   -3.7069723    1.3949178   293600 
  141000   0.92841712   -3.7039409   -3.7039409     -2.31132  0.033172374   -3.7039409    1.3926209   293600 
  142000   0.92994516   -3.7054986   -3.7054986   -2.3105856   0.03969155   -3.7054986     1.394913   293600 
  143000   0.92858199   -3.7020439   -3.7020439   -2.3091757  0.034670026   -3.7020439    1.3928682   293600 
  144000    0.9293671   -3.7026392   -3.7026392   -2.3085933  0.031147454   -3.7026392    1.3940459   293600 
  145000   0.92815019   -3.7014071   -3.7014071   -2.3091866  0.043701911   -3.7014071    1.3922205   293600 
  146000   0.92942368   -3.7040048   -3.7040048   -2.3098741  0.037824842   -3.7040048    1.3941308   293600 
  147000   0.92820997    -3.701814    -3.701814   -2.3095038  0.032545232    -3.701814    1.3923102   293600 
  148000   0.92745989   -3.7000496   -3.7000496   -2.3088645  0.037583279   -3.7000496    1.3911851   293600 
  149000   0.92596852   -3.6983407   -3.6983407   -2.3093926  0.038660238   -3.6983407     1.388948   293600 
  150000   0.92999402    -3.702812    -3.702812   -2.3078257  0.030158445    -3.702812    1.3949863   293600 
  151000   0.92745388   -3.6994312   -3.6994312   -2.3082551  0.030860584   -3.6994312    1.3911761   293600 
  152000   0.92933688   -3.7002232   -3.7002232   -2.3062226  0.035064368   -3.7002232    1.3940006   293600 
  153000   0.92782683   -3.6966169   -3.6966169   -2.3048814    0.0399139   -3.6966169    1.3917355   293600 
  154000   0.92814185   -3.6965667   -3.6965667   -2.3043587  0.033965993   -3.6965667     1.392208   293600 
  155000   0.92901506   -3.6968626   -3.6968626   -2.3033448  0.037688411   -3.6968626    1.3935178   293600 
  156000   0.93147044   -3.6999773   -3.6999773   -2.3027764  0.034789029   -3.6999773    1.3972009   293600 
  157000   0.92984312   -3.6973575   -3.6973575   -2.3025976  0.042352584   -3.6973575    1.3947599   293600 
  158000   0.93060174   -3.6979679   -3.6979679     -2.30207  0.038634559   -3.6979679    1.3958979   293600 
  159000   0.93121124   -3.6988405   -3.6988405   -2.3020284  0.029794602   -3.6988405    1.3968121   293600 
  160000   0.92948353   -3.6961046   -3.6961046    -2.301884  0.039352057   -3.6961046    1.3942205   293600 
  161000   0.93074104   -3.6968437   -3.6968437   -2.3007369  0.030962484   -3.6968437    1.3961068   293600 
  162000   0.93045009    -3.697023    -3.697023   -2.3013526  0.032214145    -3.697023    1.3956704   293600 
  163000   0.92930011   -3.6941237   -3.6941237   -2.3001783  0.037929067   -3.6941237    1.3939454   293600 
  164000    0.9304915   -3.6945959   -3.6945959   -2.2988634  0.037403186   -3.6945959    1.3957325   293600 
  165000   0.93170483   -3.6955444   -3.6955444    -2.297992  0.034603102   -3.6955444    1.3975525   293600 
  166000   0.93149568   -3.6947729   -3.6947729   -2.2975341  0.039562433   -3.6947729    1.3972388   293600 
  167000   0.93380544   -3.6968569   -3.6968569   -2.2961535  0.034484386   -3.6968569    1.4007034   293600 
  168000   0.93296792   -3.6951698   -3.6951698   -2.2957227   0.03998847   -3.6951698    1.3994471   293600 
  169000   0.92992607   -3.6910405   -3.6910405   -2.2961561  0.035935057   -3.6910405    1.3948844   293600 
  170000   0.93188961    -3.690743    -3.690743   -2.2929133  0.035171185    -3.690743    1.3978296   293600 
  171000   0.93101367   -3.6887866   -3.6887866   -2.2922708  0.027835361   -3.6887866    1.3965158   293600 
  172000   0.92862267   -3.6861261   -3.6861261   -2.2931968  0.034636602   -3.6861261    1.3929293   293600 
  173000   0.93114618   -3.6881784   -3.6881784   -2.2914639  0.035369072   -3.6881784    1.3967145   293600 
  174000   0.93237588   -3.6896082   -3.6896082   -2.2910491  0.039469249   -3.6896082    1.3985591   293600 
  175000   0.93103374    -3.687396    -3.687396   -2.2908502  0.043994938    -3.687396    1.3965459   293600 
  176000   0.93084447   -3.6875121   -3.6875121   -2.2912501  0.034338671   -3.6875121     1.396262   293600 
  177000   0.93303403   -3.6896537   -3.6896537   -2.2901074  0.031850173   -3.6896537    1.3995463   293600 
  178000    0.9321402   -3.6854257   -3.6854257   -2.2872201  0.037160956   -3.6854257    1.3982055   293600 
  179000   0.93064947   -3.6822791   -3.6822791   -2.2863096  0.042386231   -3.6822791    1.3959694   293600 
  180000   0.93070462   -3.6826185   -3.6826185   -2.2865664  0.030706329   -3.6826185    1.3960522   293600 
  181000   0.93021862    -3.680765    -3.680765   -2.2854418   0.02769696    -3.680765    1.3953232   293600 
  182000   0.93143281   -3.6817713   -3.6817713   -2.2846268   0.02425015   -3.6817713    1.3971445   293600 
  183000   0.93141681     -3.68207     -3.68207   -2.2849495  0.030823758     -3.68207    1.3971205   293600 
  184000   0.93183617   -3.6823958   -3.6823958   -2.2846463  0.030743823   -3.6823958    1.3977495   293600 
  185000   0.93283446   -3.6816709   -3.6816709    -2.282424  0.026062088   -3.6816709    1.3992469   293600 
  186000   0.93124941   -3.6797164   -3.6797164   -2.2828471  0.027925864   -3.6797164    1.3968694   293600 
  187000   0.93362514   -3.6820707   -3.6820707   -2.2816378   0.02948897   -3.6820707    1.4004329   293600 
  188000   0.93193686   -3.6794692   -3.6794692   -2.2815687  0.033913562   -3.6794692    1.3979005   293600 
  189000   0.93205643   -3.6812811   -3.6812811   -2.2832012  0.034961411   -3.6812811    1.3980799   293600 
  190000   0.93215894   -3.6793392   -3.6793392   -2.2811055  0.036444374   -3.6793392    1.3982336   293600 
  191000    0.9318736    -3.677407    -3.677407   -2.2796013  0.033813791    -3.677407    1.3978056   293600 
  192000   0.93257279   -3.6780624   -3.6780624    -2.279208  0.035827385   -3.6780624    1.3988544   293600 
  193000    0.9309548   -3.6755594   -3.6755594    -2.279132  0.032167993   -3.6755594    1.3964274   293600 
  194000   0.93211045   -3.6771608   -3.6771608   -2.2789999  0.026625174   -3.6771608    1.3981609   293600 
  195000   0.93277132   -3.6765316   -3.6765316   -2.2773794  0.031895157   -3.6765316    1.3991522   293600 
  196000   0.93173661   -3.6757581   -3.6757581    -2.278158  0.034297658   -3.6757581    1.3976002   293600 
  197000   0.93372476   -3.6773473   -3.6773473    -2.276765  0.041247744   -3.6773473    1.4005824   293600 
  198000   0.93564221   -3.6796606   -3.6796606   -2.2762021  0.032628486   -3.6796606    1.4034585   293600 
  199000   0.93471013   -3.6765491   -3.6765491   -2.2744886  0.041804887   -3.6765491    1.4020604   293600 
  200000   0.93500889   -3.6762641   -3.6762641   -2.2737555  0.033385052   -3.6762641    1.4025086   293600 
  201000    0.9336079   -3.6728541   -3.6728541    -2.272447  0.041688425   -3.6728541    1.4004071   293600 
  202000    0.9347742   -3.6752277   -3.6752277   -2.2730712  0.029056861   -3.6752277    1.4021565   293600 
  203000   0.93362111    -3.673929    -3.673929   -2.2735021  0.037754329    -3.673929    1.4004269   293600 
  204000    0.9348594   -3.6735732   -3.6735732   -2.2712889  0.034123681   -3.6735732    1.4022843   293600 
  205000   0.93412165   -3.6722245   -3.6722245   -2.2710468  0.030871686   -3.6722245    1.4011777   293600 
  206000   0.93223723   -3.6699615   -3.6699615   -2.2716105  0.034568557   -3.6699615    1.3983511   293600 
  207000    0.9324256   -3.6694368   -3.6694368   -2.2708031  0.034908116   -3.6694368    1.3986336   293600 
  208000   0.93425171   -3.6718665   -3.6718665   -2.2704937  0.033177389   -3.6718665    1.4013728   293600 
  209000   0.93626403   -3.6738621   -3.6738621   -2.2694708  0.039182699   -3.6738621    1.4043913   293600 
  210000   0.93544877   -3.6725373   -3.6725373   -2.2693689  0.032442225   -3.6725373    1.4031684   293600 
  211000   0.93530879     -3.67171     -3.67171   -2.2687516  0.033378816     -3.67171    1.4029584   293600 
  212000   0.93496552   -3.6690122   -3.6690122   -2.2665687  0.034635817   -3.6690122    1.4024435   293600 
  213000   0.93525257   -3.6690043   -3.6690043   -2.2661302  0.036632734   -3.6690043    1.4028741   293600 
  214000   0.93373115   -3.6673126   -3.6673126   -2.2667206   0.03326959   -3.6673126     1.400592   293600 
  215000   0.93320596   -3.6671052   -3.6671052    -2.267301  0.034157583   -3.6671052    1.3998042   293600 
  216000   0.93233217   -3.6654748   -3.6654748   -2.2669813  0.033067161   -3.6654748    1.3984935   293600 
  217000   0.93241827   -3.6668277   -3.6668277    -2.268205  0.035716557   -3.6668277    1.3986226   293600 
  218000   0.93290719   -3.6660272   -3.6660272   -2.2666712   0.03040112   -3.6660272     1.399356   293600 
  219000   0.93374365   -3.6666498   -3.6666498   -2.2660391  0.029195682   -3.6666498    1.4006107   293600 
  220000   0.93311831   -3.6649426   -3.6649426   -2.2652699   0.03095923   -3.6649426    1.3996727   293600 
  221000   0.93328042   -3.6634461   -3.6634461   -2.2635303  0.037636015   -3.6634461    1.3999159   293600 
  222000   0.93396044   -3.6652757   -3.6652757   -2.2643398  0.033920213   -3.6652757    1.4009359   293600 
  223000   0.93463192   -3.6651533   -3.6651533   -2.2632102  0.031831846   -3.6651533    1.4019431   293600 
  224000   0.93499587   -3.6653993   -3.6653993   -2.2629103  0.038812254   -3.6653993     1.402489   293600 
  225000    0.9351898   -3.6642077   -3.6642077   -2.2614278  0.036777517   -3.6642077    1.4027799   293600 
  226000   0.93515934   -3.6654467   -3.6654467   -2.2627125  0.038805357   -3.6654467    1.4027342   293600 
  227000   0.93462811   -3.6633226   -3.6633226   -2.2613852  0.038223259   -3.6633226    1.4019374   293600 
  228000   0.93668099   -3.6645934   -3.6645934   -2.2595767  0.037807265   -3.6645934    1.4050167   293600 
  229000   0.93447655   -3.6630861   -3.6630861   -2.2613761  0.034849595   -3.6630861    1.4017101   293600 
  230000   0.93572477   -3.6649152   -3.6649152   -2.2613328  0.039885421   -3.6649152    1.4035824   293600 
  231000   0.93621992   -3.6643872   -3.6643872   -2.2600621  0.043159113   -3.6643872    1.4043251   293600 
  232000   0.93598631   -3.6640836   -3.6640836   -2.2601089  0.033880758   -3.6640836    1.4039747   293600 
  233000   0.93428519   -3.6615217   -3.6615217   -2.2600987  0.037014623   -3.6615217     1.401423   293600 
  234000   0.93521985   -3.6627043   -3.6627043   -2.2598793  0.032463517   -3.6627043     1.402825   293600 
  235000   0.93557561   -3.6628875   -3.6628875   -2.2595288  0.034548086   -3.6628875    1.4033586   293600 
  236000   0.93626593   -3.6633451   -3.6633451    -2.258951  0.027325579   -3.6633451    1.4043941   293600 
  237000   0.93632759   -3.6634248   -3.6634248   -2.2589382  0.031387346   -3.6634248    1.4044866   293600 
  238000   0.93450777   -3.6606404   -3.6606404   -2.2588836  0.040202537   -3.6606404    1.4017569   293600 
  239000   0.93575069   -3.6629943   -3.6629943   -2.2593731  0.029536295   -3.6629943    1.4036213   293600 
  240000   0.93517899   -3.6625592   -3.6625592   -2.2597955  0.034069646   -3.6625592    1.4027637   293600 
  241000   0.93554012   -3.6610474   -3.6610474    -2.257742  0.038960729   -3.6610474    1.4033054   293600 
  242000   0.93498571   -3.6612538   -3.6612538     -2.25878  0.040660872   -3.6612538    1.4024738   293600 
  243000   0.93325719   -3.6574539   -3.6574539   -2.2575729  0.038127988   -3.6574539     1.399881   293600 
  244000    0.9363656   -3.6597132   -3.6597132   -2.2551696    0.0359598   -3.6597132    1.4045436   293600 
  245000   0.93428708   -3.6570773   -3.6570773   -2.2556515  0.038022657   -3.6570773    1.4014258   293600 
  246000   0.93727635   -3.6606186   -3.6606186   -2.2547089  0.031874328   -3.6606186    1.4059097   293600 
  247000   0.93350841   -3.6560506   -3.6560506   -2.2557927  0.038702291   -3.6560506    1.4002579   293600 
  248000   0.93506287   -3.6571897   -3.6571897   -2.2546001  0.034769908   -3.6571897    1.4025895   293600 
  249000   0.93513868   -3.6557673   -3.6557673    -2.253064  0.035334327   -3.6557673    1.4027032   293600 
  250000   0.93582046   -3.6580189   -3.6580189    -2.254293  0.037928783   -3.6580189    1.4037259   293600 
  251000   0.93603623   -3.6581796   -3.6581796     -2.25413  0.037211465   -3.6581796    1.4040496   293600 
  252000   0.93624871   -3.6582642   -3.6582642    -2.253896  0.040995025   -3.6582642    1.4043683   293600 
  253000   0.93530612   -3.6564661   -3.6564661   -2.2535117  0.038572102   -3.6564661    1.4029544   293600 
  254000   0.93593679   -3.6574061   -3.6574061   -2.2535057  0.040585202   -3.6574061    1.4039004   293600 
  255000   0.93618544   -3.6580923   -3.6580923    -2.253819  0.030265519   -3.6580923    1.4042734   293600 
  256000   0.93356006   -3.6562559   -3.6562559   -2.2559206  0.037561565   -3.6562559    1.4003353   293600 
  257000   0.93494335   -3.6572372   -3.6572372   -2.2548269  0.031900663   -3.6572372    1.4024103   293600 
  258000    0.9355675   -3.6560535   -3.6560535    -2.252707  0.029186705   -3.6560535    1.4033465   293600 
  259000   0.93444936   -3.6532716   -3.6532716   -2.2516023  0.033101712   -3.6532716    1.4016693   293600 
  260000   0.93579343   -3.6551699   -3.6551699   -2.2514845  0.036788235   -3.6551699    1.4036854   293600 
  261000   0.93729323   -3.6560837   -3.6560837   -2.2501487  0.037212323   -3.6560837    1.4059351   293600 
  262000   0.93740144   -3.6549676   -3.6549676   -2.2488703  0.037246608   -3.6549676    1.4060974   293600 
  263000   0.93832974   -3.6548157   -3.6548157   -2.2473259  0.040449594   -3.6548157    1.4074898   293600 
  264000   0.93750786   -3.6524892   -3.6524892   -2.2462322  0.037453256   -3.6524892     1.406257   293600 
  265000   0.93940446   -3.6545652   -3.6545652   -2.2454633  0.037888399   -3.6545652    1.4091019   293600 
  266000   0.93846995   -3.6533973   -3.6533973   -2.2456971  0.047431133   -3.6533973    1.4077001   293600 
  267000   0.93831078   -3.6540009   -3.6540009   -2.2465395  0.039651233   -3.6540009    1.4074614   293600 
  268000   0.93938198   -3.6565667   -3.6565667   -2.2474985  0.035027527   -3.6565667    1.4090682   293600 
  269000   0.93645339   -3.6533105   -3.6533105   -2.2486352  0.039147326   -3.6533105    1.4046753   293600 
  270000   0.93697359   -3.6518548   -3.6518548   -2.2463992  0.033307243   -3.6518548    1.4054556   293600 
  271000   0.93670621   -3.6505907   -3.6505907   -2.2455362  0.029653139   -3.6505907    1.4050545   293600 
  272000   0.93590027   -3.6497795   -3.6497795   -2.2459338  0.037446674   -3.6497795    1.4038456   293600 
  273000   0.93642068   -3.6499567   -3.6499567   -2.2453305  0.037280232   -3.6499567    1.4046262   293600 
  274000   0.93568355   -3.6494398   -3.6494398   -2.2459192  0.035207477   -3.6494398    1.4035205   293600 
  275000   0.93689742   -3.6496346   -3.6496346   -2.2442932  0.034585117   -3.6496346    1.4053413   293600 
  276000   0.93702691   -3.6514442   -3.6514442   -2.2459087     0.034395   -3.6514442    1.4055356   293600 
  277000   0.93609694   -3.6492643   -3.6492643   -2.2451237  0.044480896   -3.6492643    1.4041406   293600 
  278000   0.93634977   -3.6487934   -3.6487934   -2.2442736  0.039692472   -3.6487934    1.4045199   293600 
  279000   0.93736418   -3.6506964   -3.6506964   -2.2446549  0.037779612   -3.6506964    1.4060415   293600 
  280000   0.93801742   -3.6497035   -3.6497035   -2.2426821   0.03682107   -3.6497035    1.4070213   293600 
  281000   0.93822788   -3.6481327   -3.6481327   -2.2407957  0.032543249   -3.6481327     1.407337   293600 
  282000    0.9365641   -3.6447049   -3.6447049   -2.2398635  0.029322906   -3.6447049    1.4048414   293600 
  283000   0.93515341   -3.6442486   -3.6442486   -2.2415232   0.03397912   -3.6442486    1.4027253   293600 
  284000    0.9346651   -3.6436723   -3.6436723   -2.2416795  0.036216107   -3.6436723    1.4019929   293600 
  285000   0.93788662   -3.6479974   -3.6479974   -2.2411722  0.031414518   -3.6479974    1.4068251   293600 
  286000   0.93926575   -3.6492658   -3.6492658    -2.240372  0.024797981   -3.6492658    1.4088938   293600 
  287000   0.93468461    -3.642477    -3.642477   -2.2404549  0.031676145    -3.642477    1.4020221   293600 
  288000   0.93608379    -3.643298    -3.643298   -2.2391771  0.029062566    -3.643298    1.4041209   293600 
  289000   0.93803097   -3.6450413   -3.6450413   -2.2379996  0.033992002   -3.6450413    1.4070417   293600 
  290000   0.93930388   -3.6455642   -3.6455642   -2.2366132  0.038162138   -3.6455642     1.408951   293600 
  291000   0.93952367   -3.6455116   -3.6455116   -2.2362309  0.038265983   -3.6455116    1.4092807   293600 
  292000   0.94007206   -3.6458738   -3.6458738   -2.2357705  0.039124692   -3.6458738    1.4101033   293600 
  293000    0.9388837   -3.6441634   -3.6441634   -2.2358427   0.03734154   -3.6441634    1.4083208   293600 
  294000   0.93792364   -3.6426119   -3.6426119   -2.2357312  0.039178008   -3.6426119    1.4068807   293600 
  295000   0.93945486    -3.643679    -3.643679   -2.2345015  0.028563805    -3.643679    1.4091775   293600 
  296000   0.93691111   -3.6389887   -3.6389887   -2.2336268  0.034203907   -3.6389887    1.4053619   293600 
  297000   0.93789889   -3.6414722   -3.6414722   -2.2346287  0.024495086   -3.6414722    1.4068435   293600 
  298000   0.93721285   -3.6397192   -3.6397192   -2.2339047  0.029026655   -3.6397192    1.4058145   293600 
  299000   0.93708173   -3.6394469   -3.6394469   -2.2338291  0.024651548   -3.6394469    1.4056178   293600 
  300000   0.93757665   -3.6406558   -3.6406558   -2.2342956  0.027887459   -3.6406558    1.4063602   293600 
  301000   0.93749294   -3.6404147   -3.6404147   -2.2341801  0.030572852   -3.6404147    1.4062346   293600 
  302000   0.93840904   -3.6393561   -3.6393561   -2.2317474  0.039027674   -3.6393561    1.4076088   293600 
  303000   0.93829173   -3.6391567   -3.6391567   -2.2317239  0.038775652   -3.6391567    1.4074328   293600 
  304000   0.93994282   -3.6425654   -3.6425654   -2.2326559  0.035820263   -3.6425654    1.4099094   293600 
  305000   0.93986827   -3.6411881   -3.6411881   -2.2313905  0.037586042   -3.6411881    1.4097976   293600 
  306000    0.9389841   -3.6406419   -3.6406419   -2.2321706  0.034321133   -3.6406419    1.4084713   293600 
  307000   0.93781059   -3.6377577   -3.6377577   -2.2310466  0.040434148   -3.6377577    1.4067111   293600 
  308000   0.93827903    -3.638352    -3.638352   -2.2309383  0.038963977    -3.638352    1.4074138   293600 
  309000   0.93952874   -3.6409726   -3.6409726   -2.2316843  0.033863784   -3.6409726    1.4092883   293600 
  310000   0.93868368   -3.6369483   -3.6369483   -2.2289276  0.030302047   -3.6369483    1.4080207   293600 
  311000   0.93858384   -3.6362942   -3.6362942   -2.2284232  0.032366019   -3.6362942     1.407871   293600 
  312000   0.93769501   -3.6361036   -3.6361036   -2.2295659  0.036132714   -3.6361036    1.4065377   293600 
  313000   0.93874023   -3.6363259   -3.6363259   -2.2282203  0.034117599   -3.6363259    1.4081055   293600 
  314000   0.93756863   -3.6340508   -3.6340508   -2.2277027  0.040997646   -3.6340508    1.4063482   293600 
  315000   0.93784077   -3.6357154   -3.6357154   -2.2289591  0.039889309   -3.6357154    1.4067564   293600 
  316000   0.94082288   -3.6384679   -3.6384679   -2.2272384  0.035976839   -3.6384679    1.4112295   293600 
  317000   0.93903491   -3.6347016   -3.6347016    -2.226154  0.038360986   -3.6347016    1.4085476   293600 
  318000   0.94064827    -3.638034    -3.638034   -2.2270664  0.039413738    -3.638034    1.4109676   293600 
  319000   0.94008605   -3.6373142   -3.6373142   -2.2271899  0.041904124   -3.6373142    1.4101243   293600 
  320000   0.93878324   -3.6357651   -3.6357651    -2.227595  0.039712236   -3.6357651    1.4081701   293600 
  321000   0.94164397    -3.640802    -3.640802   -2.2283409  0.027917023    -3.640802    1.4124611   293600 
  322000   0.93900302   -3.6354593   -3.6354593   -2.2269596  0.035387824   -3.6354593    1.4084997   293600 
  323000   0.93895193   -3.6362115   -3.6362115   -2.2277884  0.031661571   -3.6362115    1.4084231   293600 
  324000    0.9371711    -3.634188    -3.634188   -2.2284361  0.027977208    -3.634188    1.4057519   293600 
  325000   0.93694798    -3.633251    -3.633251   -2.2278338  0.027405624    -3.633251    1.4054172   293600 
  326000   0.93742878   -3.6331682   -3.6331682   -2.2270298  0.029170458   -3.6331682    1.4061384   293600 
  327000   0.93790451   -3.6337513   -3.6337513   -2.2268993  0.040739772   -3.6337513     1.406852   293600 
  328000   0.94022656   -3.6362448   -3.6362448   -2.2259098   0.03543215   -3.6362448     1.410335   293600 
  329000   0.93899033   -3.6337878   -3.6337878   -2.2253071  0.041399121   -3.6337878    1.4084807   293600 
  330000   0.94131101   -3.6371057   -3.6371057    -2.225144  0.043408635   -3.6371057    1.4119617   293600 
  331000   0.93986404   -3.6346359   -3.6346359   -2.2248446  0.042842114   -3.6346359    1.4097913   293600 
  332000   0.94115437   -3.6350599   -3.6350599   -2.2233332  0.033776404   -3.6350599    1.4117267   293600 
  333000   0.94149101   -3.6365247   -3.6365247    -2.224293  0.035967476   -3.6365247    1.4122317   293600 
  334000    0.9399748   -3.6320946   -3.6320946   -2.2221372  0.036435163   -3.6320946    1.4099574   293600 
  335000   0.94000617    -3.632918    -3.632918   -2.2229135  0.032987899    -3.632918    1.4100045   293600 
  336000   0.93973149   -3.6328705   -3.6328705   -2.2232781  0.035245226   -3.6328705    1.4095924   293600 
  337000   0.93802227   -3.6303485   -3.6303485   -2.2233199   0.02866817   -3.6303485    1.4070286   293600 
  338000    0.9390767   -3.6318003   -3.6318003     -2.22319  0.035720238   -3.6318003    1.4086103   293600 
  339000   0.93917093   -3.6322332   -3.6322332   -2.2234816  0.031686108   -3.6322332    1.4087516   293600 
  340000   0.94052136   -3.6332065   -3.6332065   -2.2224293  0.037378544   -3.6332065    1.4107772   293600 
  341000    0.9409843   -3.6341358   -3.6341358   -2.2226642  0.037125386   -3.6341358    1.4114716   293600 
  342000   0.93971884   -3.6315923   -3.6315923   -2.2220188  0.037745946   -3.6315923    1.4095735   293600 
  343000   0.94096162   -3.6339048   -3.6339048   -2.2224672  0.031301967   -3.6339048    1.4114376   293600 
  344000   0.94041502   -3.6346616   -3.6346616   -2.2240439   0.04078047   -3.6346616    1.4106177   293600 
  345000   0.94165257   -3.6353682   -3.6353682   -2.2228942  0.029224823   -3.6353682     1.412474   293600 
  346000   0.93946288   -3.6323453   -3.6323453   -2.2231558  0.039108194   -3.6323453    1.4091895   293600 
  347000   0.94018887    -3.631628    -3.631628   -2.2213495  0.038006177    -3.631628    1.4102785   293600 
  348000   0.93973858   -3.6316479   -3.6316479   -2.2220448  0.033424151   -3.6316479    1.4096031   293600 
  349000    0.9404625   -3.6330961   -3.6330961   -2.2224072  0.034919714   -3.6330961    1.4106889   293600 
  350000   0.93890155   -3.6313149   -3.6313149   -2.2229673  0.030406308   -3.6313149    1.4083475   293600 
  351000   0.93971815     -3.63152     -3.63152   -2.2219476  0.039575696     -3.63152    1.4095724   293600 
  352000   0.93975801   -3.6325559   -3.6325559   -2.2229237  0.036063207   -3.6325559    1.4096322   293600 
  353000   0.93980072   -3.6317333   -3.6317333    -2.222037  0.040060795   -3.6317333    1.4096963   293600 
  354000   0.94092325   -3.6333828   -3.6333828   -2.2220027  0.042309598   -3.6333828    1.4113801   293600 
  355000   0.93956199   -3.6301045   -3.6301045   -2.2207663  0.038327138   -3.6301045    1.4093382   293600 
  356000   0.94124606   -3.6325869   -3.6325869   -2.2207226  0.038698752   -3.6325869    1.4118643   293600 
  357000   0.94024733   -3.6306705   -3.6306705   -2.2203043  0.041141009   -3.6306705    1.4103662   293600 
  358000   0.94205045   -3.6349736   -3.6349736   -2.2219027  0.040879722   -3.6349736    1.4130709   293600 
  359000   0.94135815   -3.6327735   -3.6327735   -2.2207411  0.039182005   -3.6327735    1.4120324   293600 
  360000   0.94227936   -3.6329989   -3.6329989   -2.2195847  0.034391378   -3.6329989    1.4134142   293600 
  361000   0.94109477   -3.6307805   -3.6307805   -2.2191432  0.038276977   -3.6307805    1.4116374   293600 
  362000   0.94152276   -3.6307396   -3.6307396   -2.2184603   0.03571005   -3.6307396    1.4122793   293600 
  363000   0.94020457   -3.6285647   -3.6285647   -2.2182626  0.037277767   -3.6285647    1.4103021   293600 
  364000   0.94068758   -3.6293708   -3.6293708   -2.2183442  0.038748958   -3.6293708    1.4110266   293600 
  365000   0.94013351   -3.6278171   -3.6278171   -2.2176216  0.038984429   -3.6278171    1.4101955   293600 
  366000   0.94227514   -3.6296244   -3.6296244   -2.2162165  0.038141712   -3.6296244    1.4134079   293600 
  367000   0.94179988   -3.6290985   -3.6290985   -2.2164035  0.038599763   -3.6290985     1.412695   293600 
  368000    0.9412584   -3.6287405   -3.6287405   -2.2168577   0.03898325   -3.6287405    1.4118828   293600 
  369000   0.94179724   -3.6295439   -3.6295439   -2.2168529  0.042875664   -3.6295439     1.412691   293600 
  370000   0.94142973   -3.6280295   -3.6280295   -2.2158897  0.037570012   -3.6280295    1.4121398   293600 
  371000   0.94114752   -3.6256665   -3.6256665     -2.21395  0.040383346   -3.6256665    1.4117165   293600 
  372000   0.94147329   -3.6257129   -3.6257129   -2.2135078  0.038962477   -3.6257129    1.4122051   293600 
  373000   0.94168092   -3.6272605   -3.6272605   -2.2147439  0.038370879   -3.6272605    1.4125166   293600 
  374000    0.9409759   -3.6253902   -3.6253902   -2.2139311  0.036030264   -3.6253902     1.411459   293600 
  375000   0.94201904   -3.6269979   -3.6269979   -2.2139742  0.031360453   -3.6269979    1.4130237   293600 
  376000   0.93946376   -3.6226302   -3.6226302   -2.2134393  0.035520086   -3.6226302    1.4091908   293600 
  377000   0.94080033   -3.6242434   -3.6242434   -2.2130477  0.038225933   -3.6242434    1.4111957   293600 
  378000   0.94044209   -3.6224429   -3.6224429   -2.2117846  0.034770501   -3.6224429    1.4106583   293600 
  379000   0.93986663    -3.621386    -3.621386   -2.2115908  0.035826602    -3.621386    1.4097951   293600 
  380000   0.94003145   -3.6214908   -3.6214908   -2.2114485  0.033752685   -3.6214908    1.4100424   293600 
  381000   0.93983523   -3.6213959   -3.6213959   -2.2116478  0.034313915   -3.6213959     1.409748   293600 
  382000   0.94154982   -3.6208277   -3.6208277   -2.2085078  0.040349796   -3.6208277    1.4123199   293600 
  383000   0.94019902   -3.6214713   -3.6214713   -2.2111776  0.031287735   -3.6214713    1.4102937   293600 
  384000   0.94000428   -3.6214705   -3.6214705   -2.2114689  0.032549448   -3.6214705    1.4100016   293600 
  385000   0.94134919   -3.6214725   -3.6214725   -2.2094535  0.024737498   -3.6214725     1.412019   293600 
  386000    0.9410237   -3.6209951   -3.6209951   -2.2094643  0.029369605   -3.6209951    1.4115307   293600 
  387000   0.94111465   -3.6209566   -3.6209566   -2.2092894  0.037408562   -3.6209566    1.4116672   293600 
  388000   0.94096127   -3.6200008   -3.6200008   -2.2085637  0.027491996   -3.6200008    1.4114371   293600 
  389000   0.94012692   -3.6169449   -3.6169449   -2.2067593  0.035582691   -3.6169449    1.4101856   293600 
  390000   0.94050796   -3.6164763   -3.6164763   -2.2057192   0.03567736   -3.6164763    1.4107571   293600 
  391000   0.94077417    -3.616788    -3.616788   -2.2056316  0.040978658    -3.616788    1.4111564   293600 
  392000   0.94208716   -3.6191832   -3.6191832   -2.2060573  0.037339602   -3.6191832    1.4131259   293600 
  393000   0.94195679   -3.6181612   -3.6181612   -2.2052308  0.039307953   -3.6181612    1.4129304   293600 
  394000   0.94373317   -3.6205595   -3.6205595   -2.2049646  0.037828958   -3.6205595    1.4155949   293600 
  395000   0.94393106    -3.620956    -3.620956   -2.2050643  0.037683401    -3.620956    1.4158918   293600 
  396000    0.9434751   -3.6193458   -3.6193458    -2.204138  0.042788559   -3.6193458    1.4152078   293600 
  397000   0.94351576   -3.6183357   -3.6183357   -2.2030669  0.036127124   -3.6183357    1.4152688   293600 
  398000   0.94124958   -3.6146349   -3.6146349   -2.2027654  0.032772835   -3.6146349    1.4118696   293600 
  399000   0.94262874    -3.617538    -3.617538   -2.2035997  0.032455133    -3.617538    1.4139383   293600 
  400000   0.94238077     -3.61781     -3.61781   -2.2042436  0.032429902     -3.61781    1.4135663   293600 
  401000   0.94058366      -3.6138      -3.6138   -2.2029293  0.034828984      -3.6138    1.4108707   293600 
  402000   0.94116406   -3.6154462   -3.6154462   -2.2037049  0.030699017   -3.6154462    1.4117413   293600 
  403000   0.94259135   -3.6172071   -3.6172071   -2.2033249  0.030035794   -3.6172071    1.4138822   293600 
  404000   0.94292125   -3.6170152   -3.6170152   -2.2026381  0.031204117   -3.6170152    1.4143771   293600 
  405000   0.94236918   -3.6165518   -3.6165518   -2.2030028  0.037096116   -3.6165518     1.413549   293600 
  406000   0.94318824   -3.6170142   -3.6170142   -2.2022366  0.042537754   -3.6170142    1.4147775   293600 
  407000   0.94274185    -3.615808    -3.615808   -2.2017001  0.041784325    -3.615808     1.414108   293600 
  408000   0.94226156   -3.6163655   -3.6163655    -2.202978  0.042755845   -3.6163655    1.4133875   293600 
  409000   0.94244869    -3.617411    -3.617411   -2.2037428  0.036128417    -3.617411    1.4136682   293600 
  410000   0.94272448   -3.6156371   -3.6156371   -2.2015552  0.031051564   -3.6156371    1.4140819   293600 
  411000   0.94132012   -3.6130205   -3.6130205   -2.2010451  0.039535697   -3.6130205    1.4119754   293600 
  412000   0.94120106   -3.6129043   -3.6129043   -2.2011075  0.034246291   -3.6129043    1.4117968   293600 
  413000   0.94186258   -3.6129537   -3.6129537   -2.2001646  0.035999495   -3.6129537    1.4127891   293600 
  414000    0.9417951   -3.6123907   -3.6123907   -2.1997029  0.034370685   -3.6123907    1.4126878   293600 
  415000    0.9438952   -3.6144942   -3.6144942   -2.1986562  0.036240391   -3.6144942     1.415838   293600 
  416000   0.94459311   -3.6154948   -3.6154948   -2.1986099  0.040830389   -3.6154948    1.4168848   293600 
  417000   0.94552609   -3.6163693   -3.6163693    -2.198085  0.033717624   -3.6163693    1.4182843   293600 
  418000   0.94345324   -3.6126848   -3.6126848   -2.1975097  0.035476774   -3.6126848     1.415175   293600 
  419000   0.94610597   -3.6158066   -3.6158066   -2.1966525  0.026789251   -3.6158066    1.4191541   293600 
  420000   0.94398981   -3.6117453   -3.6117453   -2.1957655  0.038909581   -3.6117453    1.4159799   293600 
  421000   0.94396969   -3.6114411   -3.6114411   -2.1954914  0.040703928   -3.6114411    1.4159497   293600 
  422000    0.9418945   -3.6081155   -3.6081155   -2.1952786  0.037708907   -3.6081155    1.4128369   293600 
  423000   0.94390004   -3.6097996   -3.6097996   -2.1939544  0.028771743   -3.6097996    1.4158452   293600 
  424000    0.9422279   -3.6063915   -3.6063915   -2.1930545  0.036350115   -3.6063915     1.413337   293600 
  425000    0.9425528   -3.6089953   -3.6089953   -2.1951709  0.033493105   -3.6089953    1.4138244   293600 
  426000   0.94464383   -3.6104253   -3.6104253   -2.1934644   0.03447139   -3.6104253    1.4169609   293600 
  427000   0.94428064   -3.6089686   -3.6089686   -2.1925525  0.034464195   -3.6089686    1.4164161   293600 
  428000    0.9432951   -3.6065579   -3.6065579   -2.1916201  0.035775766   -3.6065579    1.4149378   293600 
  429000   0.94443847   -3.6073967   -3.6073967   -2.1907438  0.041472751   -3.6073967    1.4166529   293600 
  430000   0.94226337   -3.6051064   -3.6051064   -2.1917162   0.03796398   -3.6051064    1.4133902   293600 
  431000   0.94205507   -3.6036465   -3.6036465   -2.1905687  0.038838695   -3.6036465    1.4130778   293600 
  432000   0.94527741   -3.6069842   -3.6069842   -2.1890729  0.035502699   -3.6069842    1.4179113   293600 
  433000   0.94479288   -3.6051002   -3.6051002   -2.1879157  0.035518379   -3.6051002    1.4171845   293600 
  434000   0.94208237   -3.6011508   -3.6011508    -2.188032   0.03411728   -3.6011508    1.4131187   293600 
  435000   0.94543417   -3.6032043   -3.6032043   -2.1850578  0.034775048   -3.6032043    1.4181464   293600 
  436000   0.94375372   -3.6026535   -3.6026535   -2.1870277  0.036450849   -3.6026535    1.4156258   293600 
  437000   0.94307855   -3.6015066   -3.6015066   -2.1868936  0.032632294   -3.6015066     1.414613   293600 
  438000   0.94286978   -3.6017916   -3.6017916   -2.1874918  0.031884061   -3.6017916    1.4142999   293600 
  439000   0.94409813   -3.6047266   -3.6047266   -2.1885842  0.029934876   -3.6047266    1.4161424   293600 
  440000   0.94292918   -3.6017039   -3.6017039   -2.1873149  0.033755017   -3.6017039    1.4143889   293600 
  441000   0.94124907   -3.5993774   -3.5993774   -2.1875086   0.02722693   -3.5993774    1.4118688   293600 
  442000   0.94338407   -3.5998226   -3.5998226   -2.1847513  0.029848836   -3.5998226    1.4150713   293600 
  443000   0.94207726   -3.5960063   -3.5960063   -2.1828953  0.042170027   -3.5960063    1.4131111   293600 
  444000    0.9442202   -3.6006804   -3.6006804   -2.1843549  0.035393639   -3.6006804    1.4163255   293600 
  445000   0.94496222   -3.6009117   -3.6009117   -2.1834732  0.032341207   -3.6009117    1.4174385   293600 
  446000   0.94360639   -3.5984813   -3.5984813   -2.1830765  0.034561838   -3.5984813    1.4154048   293600 
  447000   0.94424743   -3.5992558   -3.5992558   -2.1828894  0.033781847   -3.5992558    1.4163663   293600 
  448000   0.94324241   -3.5986588   -3.5986588      -2.1838  0.040916066   -3.5986588    1.4148588   293600 
  449000    0.9458296   -3.6011595   -3.6011595   -2.1824199  0.030646541   -3.6011595    1.4187396   293600 
  450000   0.94385523   -3.5985838   -3.5985838   -2.1828058  0.034914137   -3.5985838     1.415778   293600 
  451000   0.94225969   -3.5959787   -3.5959787    -2.182594  0.040228512   -3.5959787    1.4133847   293600 
  452000   0.94201177   -3.5969358   -3.5969358    -2.183923  0.038788006   -3.5969358    1.4130128   293600 
  453000   0.94348889   -3.5988002   -3.5988002   -2.1835717   0.03641579   -3.5988002    1.4152285   293600 
  454000   0.94428468   -3.5988278   -3.5988278   -2.1824057  0.039755052   -3.5988278    1.4164222   293600 
  455000   0.94605287    -3.600887    -3.600887   -2.1818125  0.037306761    -3.600887    1.4190745   293600 
  456000    0.9455796    -3.600495    -3.600495   -2.1821305  0.038697243    -3.600495    1.4183646   293600 
  457000   0.94659212   -3.6006535   -3.6006535   -2.1807702  0.036569767   -3.6006535    1.4198833   293600 
  458000   0.94534488   -3.5988608   -3.5988608   -2.1808484  0.039742991   -3.5988608    1.4180125   293600 
  459000   0.94427598   -3.5977342   -3.5977342   -2.1813251  0.040669101   -3.5977342    1.4164091   293600 
  460000   0.94581804   -3.5983113   -3.5983113   -2.1795891  0.040960032   -3.5983113    1.4187222   293600 
  461000   0.94542136   -3.5983112   -3.5983112    -2.180184  0.037667007   -3.5983112    1.4181272   293600 
  462000   0.94448524   -3.5983471   -3.5983471   -2.1816241  0.034849675   -3.5983471     1.416723   293600 
  463000   0.94494769   -3.5978036   -3.5978036   -2.1803869  0.035689458   -3.5978036    1.4174167   293600 
  464000   0.94580563   -3.5997144   -3.5997144   -2.1810108  0.036582649   -3.5997144    1.4187036   293600 
  465000   0.94584973   -3.5990462   -3.5990462   -2.1802765  0.047620233   -3.5990462    1.4187698   293600 
  466000   0.94329838   -3.5956998   -3.5956998    -2.180757  0.044796647   -3.5956998    1.4149427   293600 
  467000   0.94480238   -3.5987462   -3.5987462   -2.1815475  0.036360521   -3.5987462    1.4171987   293600 
  468000    0.9476842   -3.6017658   -3.6017658   -2.1802443  0.037456338   -3.6017658    1.4215215   293600 
  469000    0.9449481   -3.5986013   -3.5986013    -2.181184  0.037480479   -3.5986013    1.4174173   293600 
  470000   0.94699781   -3.6003009   -3.6003009    -2.179809  0.037151953   -3.6003009    1.4204919   293600 
  471000   0.94560097   -3.5982252   -3.5982252   -2.1798286  0.038872833   -3.5982252    1.4183966   293600 
  472000    0.9463205   -3.5989573   -3.5989573   -2.1794814  0.038663695   -3.5989573    1.4194759   293600 
  473000   0.94422272   -3.5955496   -3.5955496   -2.1792203  0.039992243   -3.5955496    1.4163293   293600 
  474000   0.94624561   -3.5974244   -3.5974244   -2.1780608  0.040248573   -3.5974244    1.4193636   293600 
  475000   0.94513158   -3.5975463   -3.5975463   -2.1798538  0.042214203   -3.5975463    1.4176925   293600 
  476000    0.9459815    -3.599044    -3.599044   -2.1800766  0.035277319    -3.599044    1.4189674   293600 
  477000   0.94787579   -3.6000732   -3.6000732   -2.1782644  0.035564016   -3.6000732    1.4218088   293600 
  478000    0.9464593   -3.5975909   -3.5975909   -2.1779068  0.039411384   -3.5975909    1.4196841   293600 
  479000   0.94738345   -3.5985286   -3.5985286   -2.1774583  0.045737101   -3.5985286    1.4210703   293600 
  480000   0.94641436   -3.5974134   -3.5974134   -2.1777967  0.041472459   -3.5974134    1.4196167   293600 
  481000   0.94761376   -3.5985677   -3.5985677   -2.1771519  0.036874864   -3.5985677    1.4214158   293600 
  482000   0.94573579    -3.598478    -3.598478   -2.1798791  0.037832199    -3.598478    1.4185988   293600 
  483000   0.94461075   -3.5963269   -3.5963269   -2.1794156  0.037617961   -3.5963269    1.4169113   293600 
  484000   0.94660213   -3.5988754   -3.5988754    -2.178977   0.02849242   -3.5988754    1.4198984   293600 
  485000   0.94567232   -3.5957768   -3.5957768   -2.1772731  0.032011224   -3.5957768    1.4185037   293600 
  486000   0.94596693   -3.5966401   -3.5966401   -2.1776946  0.031185946   -3.5966401    1.4189456   293600 
  487000   0.94408243   -3.5931844   -3.5931844   -2.1770655  0.037296019   -3.5931844    1.4161188   293600 
  488000   0.94470669   -3.5950402   -3.5950402    -2.177985  0.028936499   -3.5950402    1.4170552   293600 
  489000    0.9454858   -3.5951958   -3.5951958   -2.1769719  0.038128698   -3.5951958    1.4182239   293600 
  490000   0.94729249   -3.5979186   -3.5979186   -2.1769847  0.043717109   -3.5979186    1.4209339   293600 
  491000   0.94729771   -3.5972656   -3.5972656   -2.1763239  0.036952558   -3.5972656    1.4209417   293600 
  492000   0.94871917   -3.5976308   -3.5976308   -2.1745569  0.040894512   -3.5976308    1.4230739   293600 
  493000   0.94835025   -3.5961309   -3.5961309   -2.1736104  0.034375631   -3.5961309    1.4225205   293600 
  494000   0.95075055    -3.599958    -3.599958    -2.173837  0.040439039    -3.599958     1.426121   293600 
  495000   0.95059822   -3.5981625   -3.5981625     -2.17227  0.041313813   -3.5981625    1.4258925   293600 
  496000   0.94634299   -3.5920932   -3.5920932   -2.1725835  0.042410891   -3.5920932    1.4195096   293600 
  497000   0.94740554   -3.5925822   -3.5925822   -2.1714788  0.039099595   -3.5925822    1.4211035   293600 
  498000   0.94626661   -3.5923617   -3.5923617   -2.1729666  0.041190781   -3.5923617    1.4193951   293600 
  499000   0.94596489   -3.5921092   -3.5921092   -2.1731667  0.035907679   -3.5921092    1.4189425   293600 
  500000    0.9470755   -3.5932501   -3.5932501   -2.1726417  0.035468211   -3.5932501    1.4206084   293600 
  501000   0.94494575   -3.5889246   -3.5889246   -2.1715108  0.038527025   -3.5889246    1.4174138   293600 
  502000   0.94587284    -3.589679    -3.589679   -2.1708746  0.035348134    -3.589679    1.4188044   293600 
  503000   0.94509738   -3.5903431   -3.5903431   -2.1727019  0.030419621   -3.5903431    1.4176412   293600 
  504000   0.94367122   -3.5885362   -3.5885362   -2.1730342  0.035962526   -3.5885362     1.415502   293600 
  505000   0.94379475   -3.5883952   -3.5883952   -2.1727079  0.038835251   -3.5883952    1.4156873   293600 
  506000   0.94659547   -3.5906135   -3.5906135   -2.1707252  0.031662658   -3.5906135    1.4198884   293600 
  507000     0.946811   -3.5910614   -3.5910614   -2.1708497  0.032535341   -3.5910614    1.4202117   293600 
  508000   0.94542849   -3.5877929   -3.5877929    -2.169655  0.040865215   -3.5877929    1.4181379   293600 
  509000   0.94560327   -3.5882492   -3.5882492   -2.1698491  0.040114691   -3.5882492    1.4184001   293600 
  510000    0.9474353   -3.5904304   -3.5904304   -2.1692823  0.033690192   -3.5904304    1.4211481   293600 
  511000   0.94581601   -3.5868282   -3.5868282   -2.1681091  0.033261734   -3.5868282    1.4187192   293600 
  512000   0.94637865   -3.5874287   -3.5874287   -2.1678656  0.037034141   -3.5874287    1.4195631   293600 
  513000   0.94709491   -3.5877142   -3.5877142   -2.1670767  0.038198057   -3.5877142    1.4206375   293600 
  514000   0.94451518   -3.5839667   -3.5839667   -2.1671987  0.040088222   -3.5839667     1.416768   293600 
  515000   0.94603672   -3.5847166   -3.5847166   -2.1656663  0.035118393   -3.5847166    1.4190502   293600 
  516000   0.94531824   -3.5841148   -3.5841148   -2.1661423  0.041100902   -3.5841148    1.4179725   293600 
  517000   0.94705575   -3.5853552   -3.5853552   -2.1647764  0.033152153   -3.5853552    1.4205788   293600 
  518000    0.9464323   -3.5844672   -3.5844672   -2.1648236  0.038054422   -3.5844672    1.4196436   293600 
  519000   0.94521594   -3.5830967   -3.5830967   -2.1652776   0.03453944   -3.5830967    1.4178191   293600 
  520000   0.94628578   -3.5866304   -3.5866304   -2.1672065  0.031893684   -3.5866304    1.4194238   293600 
  521000   0.94800565   -3.5876442   -3.5876442   -2.1656405  0.038200599   -3.5876442    1.4220036   293600 
  522000   0.94840056   -3.5871902   -3.5871902   -2.1645942  0.039496181   -3.5871902     1.422596   293600 
  523000   0.94749528   -3.5868539   -3.5868539   -2.1656158  0.037369332   -3.5868539    1.4212381   293600 
  524000   0.94880882   -3.5879767   -3.5879767   -2.1647683  0.039898192   -3.5879767    1.4232084   293600 
  525000   0.94791649   -3.5877602   -3.5877602   -2.1658903  0.042556184   -3.5877602    1.4218699   293600 
  526000   0.94739621   -3.5882166   -3.5882166   -2.1671272  0.038301031   -3.5882166    1.4210895   293600 
  527000   0.94654957   -3.5862233   -3.5862233   -2.1664038  0.043540225   -3.5862233    1.4198195   293600 
  528000   0.94676285   -3.5859795   -3.5859795   -2.1658401  0.033278578   -3.5859795    1.4201394   293600 
  529000   0.94624399   -3.5858107   -3.5858107   -2.1664496  0.027877759   -3.5858107    1.4193611   293600 
  530000    0.9460042   -3.5841301   -3.5841301   -2.1651286  0.029902227   -3.5841301    1.4190015   293600 
  531000   0.94596613   -3.5843602   -3.5843602   -2.1654158  0.027309607   -3.5843602    1.4189444   293600 
  532000   0.94631463   -3.5843665   -3.5843665   -2.1648994  0.031819362   -3.5843665    1.4194671   293600 
  533000   0.94569708   -3.5840678   -3.5840678    -2.165527  0.031684984   -3.5840678    1.4185408   293600 
  534000   0.94708692   -3.5849865   -3.5849865    -2.164361  0.034178427   -3.5849865    1.4206255   293600 
  535000   0.94784132   -3.5856494   -3.5856494   -2.1638923  0.034258382   -3.5856494    1.4217571   293600 
  536000   0.94703607   -3.5839247   -3.5839247   -2.1633754  0.052061449   -3.5839247    1.4205493   293600 
  537000    0.9502743   -3.5883994   -3.5883994   -2.1629928  0.037306195   -3.5883994    1.4254066   293600 
  538000   0.94883127   -3.5878888   -3.5878888   -2.1646468   0.04167798   -3.5878888    1.4232421   293600 
  539000    0.9486795   -3.5877486   -3.5877486   -2.1647342  0.037742387   -3.5877486    1.4230144   293600 
  540000   0.94815269   -3.5869352   -3.5869352    -2.164711  0.042761649   -3.5869352    1.4222242   293600 
  541000   0.94640467   -3.5840948   -3.5840948   -2.1644926  0.037767855   -3.5840948    1.4196022   293600 
  542000   0.94633874   -3.5848058   -3.5848058   -2.1653026  0.038708835   -3.5848058    1.4195033   293600 
  543000   0.94675458   -3.5855733   -3.5855733   -2.1654462  0.034203598   -3.5855733     1.420127   293600 
  544000   0.94617495   -3.5848671   -3.5848671   -2.1656095  0.035215612   -3.5848671    1.4192576   293600 
  545000   0.94725061   -3.5862256   -3.5862256   -2.1653545  0.036287486   -3.5862256    1.4208711   293600 
  546000   0.94793538   -3.5873506   -3.5873506   -2.1654524  0.037203974   -3.5873506    1.4218982   293600 
  547000   0.94791466   -3.5873004   -3.5873004   -2.1654333  0.038977598   -3.5873004    1.4218672   293600 
  548000   0.94966169   -3.5892983   -3.5892983   -2.1648107  0.035505176   -3.5892983    1.4244877   293600 
  549000   0.94908428   -3.5883247   -3.5883247   -2.1647031  0.042330999   -3.5883247    1.4236216   293600 
  550000   0.95057444   -3.5894753   -3.5894753   -2.1636184   0.03829741   -3.5894753    1.4258568   293600 
  551000   0.94938154   -3.5875088   -3.5875088   -2.1634413  0.043025374   -3.5875088    1.4240675   293600 
  552000   0.94763111   -3.5845379   -3.5845379   -2.1630961  0.035936265   -3.5845379    1.4214418   293600 
  553000   0.94846092   -3.5854336   -3.5854336    -2.162747   0.03083747   -3.5854336    1.4226865   293600 
  554000   0.94912677   -3.5850387   -3.5850387   -2.1613534  0.036346787   -3.5850387    1.4236853   293600 
  555000   0.94799827   -3.5841061   -3.5841061   -2.1621136  0.039899218   -3.5841061    1.4219926   293600 
  556000   0.94729967   -3.5823623   -3.5823623   -2.1614177  0.039518859   -3.5823623    1.4209447   293600 
  557000   0.94805045   -3.5818679   -3.5818679    -2.159797  0.042540633   -3.5818679    1.4220708   293600 
  558000   0.94972732   -3.5849646   -3.5849646   -2.1603785  0.038674254   -3.5849646    1.4245861   293600 
  559000   0.94894874   -3.5839902   -3.5839902   -2.1605719  0.038559083   -3.5839902    1.4234183   293600 
  560000   0.95007334   -3.5844097   -3.5844097   -2.1593046   0.03451516   -3.5844097    1.4251052   293600 
  561000   0.94796981   -3.5800558   -3.5800558   -2.1581059   0.04067561   -3.5800558    1.4219499   293600 
  562000   0.95000178   -3.5837059   -3.5837059   -2.1587081  0.039518172   -3.5837059    1.4249978   293600 
  563000   0.95131847   -3.5841734   -3.5841734   -2.1572006   0.04028876   -3.5841734    1.4269728   293600 
  564000   0.94859918   -3.5808798   -3.5808798   -2.1579859   0.04392652   -3.5808798    1.4228939   293600 
  565000   0.94880402   -3.5813217   -3.5813217   -2.1581206  0.042163012   -3.5813217    1.4232012   293600 
  566000   0.94783361   -3.5803721   -3.5803721   -2.1586266  0.033772508   -3.5803721    1.4217456   293600 
  567000   0.94674702   -3.5772437   -3.5772437    -2.157128  0.033874154   -3.5772437    1.4201157   293600 
  568000   0.94937642   -3.5817645   -3.5817645   -2.1577047  0.033229883   -3.5817645    1.4240598   293600 
  569000   0.94872977   -3.5797267   -3.5797267   -2.1566369  0.032375842   -3.5797267    1.4230898   293600 
  570000   0.94858149   -3.5798638   -3.5798638   -2.1569964  0.024018796   -3.5798638    1.4228674   293600 
  571000   0.94679284   -3.5769611   -3.5769611   -2.1567767  0.036492624   -3.5769611    1.4201844   293600 
  572000   0.94954045   -3.5797677   -3.5797677   -2.1554619  0.037033177   -3.5797677    1.4243058   293600 
  573000   0.95084866   -3.5813911   -3.5813911    -2.155123  0.034839354   -3.5813911    1.4262681   293600 
  574000   0.95031659   -3.5795833   -3.5795833   -2.1541132  0.035006405   -3.5795833      1.42547   293600 
  575000   0.95052263   -3.5787043   -3.5787043   -2.1529252  0.040458749   -3.5787043    1.4257791   293600 
  576000   0.94948468   -3.5777119   -3.5777119   -2.1534897  0.032218705   -3.5777119    1.4242222   293600 
  577000   0.94981573   -3.5773422   -3.5773422   -2.1526235  0.041138129   -3.5773422    1.4247187   293600 
  578000   0.95116511   -3.5789016   -3.5789016   -2.1521588  0.045424095   -3.5789016    1.4267428   293600 
  579000   0.95175823   -3.5773233   -3.5773233   -2.1496908  0.041038784   -3.5773233    1.4276325   293600 
  580000   0.95006634    -3.575373    -3.575373   -2.1502783  0.043140773    -3.575373    1.4250947   293600 
  581000   0.94965074   -3.5748391   -3.5748391   -2.1503678  0.036291267   -3.5748391    1.4244713   293600 
  582000   0.94786267   -3.5722776   -3.5722776   -2.1504884  0.033705061   -3.5722776    1.4217892   293600 
  583000   0.94820232    -3.572388    -3.572388   -2.1500894   0.04163291    -3.572388    1.4222986   293600 
  584000   0.94945082   -3.5731468   -3.5731468   -2.1489754  0.031082638   -3.5731468    1.4241714   293600 
  585000   0.94897912   -3.5716229   -3.5716229   -2.1481591   0.03340298   -3.5716229    1.4234638   293600 
  586000   0.94913126   -3.5721581   -3.5721581   -2.1484661   0.04232619   -3.5721581     1.423692   293600 
  587000   0.95139636   -3.5749408   -3.5749408   -2.1478511  0.035139763   -3.5749408    1.4270897   293600 
  588000   0.94973192   -3.5713784   -3.5713784   -2.1467854  0.036148677   -3.5713784     1.424593   293600 
  589000   0.94958996     -3.57224     -3.57224   -2.1478599  0.037692071     -3.57224    1.4243801   293600 
  590000   0.94964931   -3.5709584   -3.5709584   -2.1464893  0.043944413   -3.5709584    1.4244691   293600 
  591000   0.95014493   -3.5708173   -3.5708173   -2.1456048   0.03788024   -3.5708173    1.4252125   293600 
  592000   0.95120912   -3.5719881   -3.5719881   -2.1451793  0.040139534   -3.5719881    1.4268088   293600 
  593000   0.95008218   -3.5707505   -3.5707505   -2.1456321  0.036536154   -3.5707505    1.4251184   293600 
  594000   0.94921247   -3.5708889   -3.5708889   -2.1470751  0.040125959   -3.5708889    1.4238139   293600 
  595000   0.95253678   -3.5733907   -3.5733907   -2.1445904  0.037848807   -3.5733907    1.4288003   293600 
  596000   0.95071348   -3.5710694   -3.5710694    -2.145004  0.043694303   -3.5710694    1.4260654   293600 
  597000   0.95132529   -3.5706464   -3.5706464   -2.1436634  0.041210426   -3.5706464    1.4269831   293600 
  598000   0.95136533    -3.570087    -3.570087   -2.1430439  0.036234949    -3.570087    1.4270431   293600 
  599000   0.95197245   -3.5717211   -3.5717211   -2.1437672  0.039071854   -3.5717211    1.4279538   293600 
  600000   0.94990286   -3.5693208   -3.5693208   -2.1444714  0.043735448   -3.5693208    1.4248494   293600 
  601000   0.94989221   -3.5693952   -3.5693952   -2.1445617  0.039940991   -3.5693952    1.4248335   293600 
  602000   0.94978596   -3.5677572   -3.5677572   -2.1430831  0.039351186   -3.5677572    1.4246741   293600 
  603000   0.95045482     -3.56865     -3.56865   -2.1429726  0.037869825     -3.56865    1.4256774   293600 
  604000   0.94919772   -3.5669281   -3.5669281   -2.1431363  0.037898905   -3.5669281    1.4237917   293600 
  605000   0.94922565   -3.5681641   -3.5681641   -2.1443305  0.036770036   -3.5681641    1.4238336   293600 
  606000   0.94883942   -3.5681172   -3.5681172   -2.1448629  0.037910911   -3.5681172    1.4232543   293600 
  607000   0.94874951     -3.56879     -3.56879   -2.1456706  0.035876996     -3.56879    1.4231194   293600 
  608000   0.94848582   -3.5691842   -3.5691842   -2.1464604  0.040201042   -3.5691842    1.4227239   293600 
  609000   0.94895575   -3.5679795   -3.5679795   -2.1445507  0.035737948   -3.5679795    1.4234288   293600 
  610000   0.95105982   -3.5697019   -3.5697019    -2.143117  0.040984987   -3.5697019    1.4265849   293600 
  611000   0.95024082   -3.5698046   -3.5698046   -2.1444482  0.035813954   -3.5698046    1.4253564   293600 
  612000   0.95016205   -3.5690414   -3.5690414   -2.1438031   0.03872379   -3.5690414    1.4252382   293600 
  613000   0.95125423    -3.569205    -3.569205   -2.1423285  0.040698594    -3.569205    1.4268765   293600 
  614000   0.95165421   -3.5705924   -3.5705924    -2.143116   0.03681147   -3.5705924    1.4274764   293600 
  615000   0.95113584    -3.570856    -3.570856   -2.1441571  0.035867032    -3.570856    1.4266989   293600 
  616000   0.95220571   -3.5723034   -3.5723034   -2.1439997  0.044045674   -3.5723034    1.4283037   293600 
  617000   0.95221756   -3.5721547   -3.5721547   -2.1438332  0.039021399   -3.5721547    1.4283215   293600 
  618000    0.9533342     -3.57307     -3.57307   -2.1430735  0.042538464     -3.57307    1.4299964   293600 
  619000   0.95127565   -3.5711855   -3.5711855   -2.1442769  0.039432617   -3.5711855    1.4269086   293600 
  620000   0.94950015   -3.5695682   -3.5695682   -2.1453228  0.040415426   -3.5695682    1.4242454   293600 
  621000   0.95196318   -3.5737184   -3.5737184   -2.1457785  0.036465556   -3.5737184    1.4279399   293600 
  622000   0.94976006    -3.570559    -3.570559   -2.1459237  0.038914367    -3.570559    1.4246352   293600 
  623000   0.94951584   -3.5697389   -3.5697389     -2.14547  0.034686295   -3.5697389    1.4242689   293600 
  624000   0.95017699   -3.5703303   -3.5703303   -2.1450697  0.038599149   -3.5703303    1.4252606   293600 
  625000   0.94950166   -3.5695175   -3.5695175   -2.1452699   0.04104271   -3.5695175    1.4242476   293600 
  626000    0.9519758   -3.5718231   -3.5718231   -2.1438643  0.035010005   -3.5718231    1.4279588   293600 
  627000   0.95224249    -3.572696    -3.572696   -2.1443371  0.039538664    -3.572696    1.4283589   293600 
  628000   0.95185128   -3.5718771   -3.5718771    -2.144105  0.046263458   -3.5718771     1.427772   293600 
  629000   0.95123892   -3.5720473   -3.5720473   -2.1451937  0.040616704   -3.5720473    1.4268535   293600 
  630000   0.95147302   -3.5712755   -3.5712755   -2.1440708  0.039957232   -3.5712755    1.4272047   293600 
  631000   0.95093169   -3.5692762   -3.5692762   -2.1428836  0.044936366   -3.5692762    1.4263927   293600 
  632000   0.95296353    -3.571149    -3.571149   -2.1417086  0.042728922    -3.571149    1.4294404   293600 
  633000   0.95314251   -3.5713964   -3.5713964   -2.1416875  0.038467591   -3.5713964    1.4297089   293600 
  634000   0.95302179   -3.5716467   -3.5716467   -2.1421189  0.036453174   -3.5716467    1.4295278   293600 
  635000   0.95032767   -3.5687469   -3.5687469   -2.1432602  0.041158934   -3.5687469    1.4254867   293600 
  636000   0.95102418   -3.5691969   -3.5691969   -2.1426655  0.042301381   -3.5691969    1.4265314   293600 
  637000    0.9514202   -3.5694081   -3.5694081   -2.1422827  0.043538403   -3.5694081    1.4271254   293600 
  638000   0.95188309    -3.568687    -3.568687   -2.1408672  0.042095392    -3.568687    1.4278198   293600 
  639000   0.95183181   -3.5694444   -3.5694444   -2.1417015  0.042807306   -3.5694444    1.4277428   293600 
  640000   0.95162017   -3.5679296   -3.5679296   -2.1405043  0.040491137   -3.5679296    1.4274254   293600 
  641000   0.95110816   -3.5673126   -3.5673126   -2.1406552   0.03842291   -3.5673126    1.4266574   293600 
  642000   0.95326306   -3.5687062   -3.5687062   -2.1388165  0.036105723   -3.5687062    1.4298897   293600 
  643000   0.95004263   -3.5647339   -3.5647339   -2.1396748  0.039570295   -3.5647339    1.4250591   293600 
  644000   0.95016872   -3.5635002   -3.5635002    -2.138252  0.043058088   -3.5635002    1.4252482   293600 
  645000    0.9521274   -3.5660265   -3.5660265   -2.1378403  0.036280551   -3.5660265    1.4281862   293600 
  646000   0.95178178   -3.5650549   -3.5650549   -2.1373871   0.03566921   -3.5650549    1.4276678   293600 
  647000   0.95145654    -3.563851    -3.563851    -2.136671  0.037741897    -3.563851      1.42718   293600 
  648000   0.95084459   -3.5612105   -3.5612105   -2.1349485   0.03785232   -3.5612105     1.426262   293600 
  649000   0.95041834   -3.5603977   -3.5603977    -2.134775  0.039068872   -3.5603977    1.4256227   293600 
  650000   0.95044378   -3.5595394   -3.5595394   -2.1338786  0.033911997   -3.5595394    1.4256608   293600 
  651000   0.95081583   -3.5597443   -3.5597443   -2.1335254  0.028460351   -3.5597443    1.4262189   293600 
  652000   0.95140411   -3.5598983   -3.5598983    -2.132797  0.038750066   -3.5598983    1.4271013   293600 
  653000   0.95281468   -3.5592696   -3.5592696   -2.1300525  0.037240698   -3.5592696    1.4292172   293600 
  654000   0.95237638   -3.5595049   -3.5595049   -2.1309452  0.039100288   -3.5595049    1.4285597   293600 
  655000   0.95142699    -3.557282    -3.557282   -2.1301464  0.038520159    -3.557282    1.4271356   293600 
  656000   0.95358384   -3.5583899   -3.5583899   -2.1280191  0.038491166   -3.5583899    1.4303709   293600 
  657000   0.95211619   -3.5557755   -3.5557755   -2.1276061  0.044315686   -3.5557755    1.4281694   293600 
  658000    0.9510485    -3.553917    -3.553917   -2.1273491  0.041922324    -3.553917    1.4265679   293600 
  659000   0.95086912   -3.5542899   -3.5542899    -2.127991  0.042340796   -3.5542899    1.4262988   293600 
  660000   0.95450306   -3.5576474   -3.5576474   -2.1258977  0.029959215   -3.5576474    1.4317497   293600 
  661000   0.95044786   -3.5516823   -3.5516823   -2.1260154  0.044216297   -3.5516823    1.4256669   293600 
  662000   0.95154295   -3.5528697   -3.5528697   -2.1255601  0.038803441   -3.5528697    1.4273096   293600 
  663000   0.95122394   -3.5527191   -3.5527191   -2.1258881  0.037033433   -3.5527191    1.4268311   293600 
  664000   0.95206654   -3.5526232   -3.5526232   -2.1245282  0.038402013   -3.5526232    1.4280949   293600 
  665000   0.95211247   -3.5539878   -3.5539878   -2.1258239  0.027437722   -3.5539878    1.4281638   293600 
  666000   0.95385195   -3.5547999   -3.5547999   -2.1240269  0.040625118   -3.5547999     1.430773   293600 
  667000   0.95126967   -3.5506415   -3.5506415   -2.1237418  0.037224372   -3.5506415    1.4268996   293600 
  668000   0.95298195   -3.5542026   -3.5542026   -2.1247345  0.042561172   -3.5542026    1.4294681   293600 
  669000   0.95181674   -3.5535225   -3.5535225   -2.1258023  0.038481388   -3.5535225    1.4277202   293600 
  670000   0.95024789   -3.5506632   -3.5506632   -2.1252962  0.037351402   -3.5506632     1.425367   293600 
  671000   0.95143218   -3.5528841   -3.5528841   -2.1257407  0.035062182   -3.5528841    1.4271434   293600 
  672000   0.95142518   -3.5503128   -3.5503128   -2.1231799  0.034991611   -3.5503128    1.4271329   293600 
  673000   0.95122031   -3.5505218   -3.5505218   -2.1236961  0.041031319   -3.5505218    1.4268256   293600 
  674000   0.95067501   -3.5502799   -3.5502799   -2.1242722  0.027315699   -3.5502799    1.4260077   293600 
  675000   0.95249037   -3.5530138   -3.5530138   -2.1242832  0.032408176   -3.5530138    1.4287307   293600 
  676000   0.95143782   -3.5523087   -3.5523087   -2.1251568  0.038922955   -3.5523087    1.4271519   293600 
  677000   0.95156303   -3.5524263   -3.5524263   -2.1250867  0.037605348   -3.5524263    1.4273397   293600 
  678000   0.95250102   -3.5521997   -3.5521997    -2.123453  0.041613277   -3.5521997    1.4287467   293600 
  679000    0.9503289   -3.5487279   -3.5487279   -2.1232394   0.03371177   -3.5487279    1.4254885   293600 
  680000   0.95240621   -3.5519397   -3.5519397   -2.1233352  0.031859598   -3.5519397    1.4286045   293600 
  681000   0.95074363   -3.5510452   -3.5510452   -2.1249347  0.040939849   -3.5510452    1.4261106   293600 
  682000   0.95316041   -3.5535038   -3.5535038   -2.1237681  0.032478234   -3.5535038    1.4297357   293600 
  683000   0.95296883   -3.5536545   -3.5536545   -2.1242061  0.038203673   -3.5536545    1.4294484   293600 
  684000   0.95258462   -3.5534489   -3.5534489   -2.1245769  0.033372328   -3.5534489    1.4288721   293600 
  685000   0.95247352   -3.5525441   -3.5525441   -2.1238387  0.044885435   -3.5525441    1.4287054   293600 
  686000   0.95245037   -3.5537344   -3.5537344   -2.1250637   0.03433778   -3.5537344    1.4286707   293600 
  687000   0.95209884   -3.5525217   -3.5525217   -2.1243783  0.040735234   -3.5525217    1.4281434   293600 
  688000   0.95303757   -3.5528106   -3.5528106   -2.1232591  0.042069182   -3.5528106    1.4295515   293600 
  689000   0.95360383   -3.5555752   -3.5555752   -2.1251743  0.041220477   -3.5555752    1.4304009   293600 
  690000   0.95213679   -3.5538302   -3.5538302   -2.1256299  0.046373396   -3.5538302    1.4282003   293600 
  691000   0.95395883   -3.5568311   -3.5568311   -2.1258977  0.035884287   -3.5568311    1.4309334   293600 
  692000    0.9523518   -3.5561466   -3.5561466   -2.1276238  0.037863498   -3.5561466    1.4285228   293600 
  693000   0.95307897   -3.5560796   -3.5560796    -2.126466  0.044021734   -3.5560796    1.4296136   293600 
  694000   0.95401398   -3.5581973   -3.5581973   -2.1271813  0.040389392   -3.5581973    1.4310161   293600 
  695000   0.95182244   -3.5554599   -3.5554599   -2.1277311  0.038913519   -3.5554599    1.4277288   293600 
  696000   0.95107627   -3.5550574   -3.5550574   -2.1284479  0.046163087   -3.5550574    1.4266095   293600 
  697000   0.95287907   -3.5566932   -3.5566932   -2.1273794  0.037220593   -3.5566932    1.4293137   293600 
  698000   0.95175868   -3.5531934   -3.5531934   -2.1255602  0.042591531   -3.5531934    1.4276332   293600 
  699000   0.95232765   -3.5539972   -3.5539972   -2.1255106  0.040176347   -3.5539972    1.4284866   293600 
  700000   0.95274201   -3.5544565   -3.5544565   -2.1253484  0.043763445   -3.5544565    1.4291081   293600 
  701000   0.95405166   -3.5561088   -3.5561088   -2.1250362  0.043462843   -3.5561088    1.4310726   293600 
  702000   0.95460474   -3.5576969   -3.5576969   -2.1257946  0.045303157   -3.5576969    1.4319022   293600 
  703000   0.95307254   -3.5578192   -3.5578192   -2.1282153  0.037874965   -3.5578192    1.4296039   293600 
  704000   0.95479973   -3.5576819   -3.5576819   -2.1254872  0.048544439   -3.5576819    1.4321947   293600 
  705000   0.95460052    -3.556764    -3.556764   -2.1248681  0.049465164    -3.556764    1.4318959   293600 
  706000   0.95635266     -3.55966     -3.55966   -2.1251358  0.038964837     -3.55966    1.4345241   293600 
  707000   0.95479885   -3.5558329   -3.5558329   -2.1236395  0.049830119   -3.5558329    1.4321934   293600 
  708000    0.9551437   -3.5568925   -3.5568925   -2.1241818  0.044427568   -3.5568925    1.4327107   293600 
  709000   0.95455236    -3.556642    -3.556642   -2.1248183  0.044743981    -3.556642    1.4318237   293600 
  710000    0.9540737   -3.5569121   -3.5569121   -2.1258064  0.040876728   -3.5569121    1.4311057   293600 
  711000   0.95606954   -3.5590236   -3.5590236   -2.1249242  0.031511368   -3.5590236    1.4340994   293600 
  712000   0.95337936   -3.5545395   -3.5545395   -2.1244753  0.043908397   -3.5545395    1.4300642   293600 
  713000   0.95446712   -3.5555446   -3.5555446   -2.1238488  0.036637938   -3.5555446    1.4316958   293600 
  714000   0.95353556   -3.5552477   -3.5552477   -2.1249492  0.043360028   -3.5552477    1.4302985   293600 
  715000   0.95223121   -3.5541266   -3.5541266   -2.1257847  0.043936815   -3.5541266    1.4283419   293600 
  716000   0.95324957    -3.554014    -3.554014   -2.1241445   0.04747314    -3.554014    1.4298695   293600 
  717000   0.95337841    -3.554631    -3.554631   -2.1245683  0.038664788    -3.554631    1.4300627   293600 
  718000   0.95433577   -3.5537732   -3.5537732   -2.1222745  0.039220436   -3.5537732    1.4314988   293600 
  719000    0.9511231    -3.549577    -3.549577   -2.1228972  0.040515567    -3.549577    1.4266798   293600 
  720000   0.95339237    -3.553061    -3.553061   -2.1229773  0.035373016    -3.553061    1.4300837   293600 
  721000   0.95203129   -3.5511989   -3.5511989   -2.1231568  0.040873661   -3.5511989    1.4280421   293600 
  722000   0.95327875   -3.5512862   -3.5512862    -2.121373  0.039757466   -3.5512862    1.4299133   293600 
  723000   0.95362389   -3.5510482   -3.5510482   -2.1206173  0.037115554   -3.5510482     1.430431   293600 
  724000     0.953603   -3.5512924   -3.5512924   -2.1208927  0.040766854   -3.5512924    1.4303996   293600 
  725000   0.95422191   -3.5523637   -3.5523637   -2.1210357   0.03694148   -3.5523637     1.431328   293600 
  726000   0.95491068   -3.5513207   -3.5513207   -2.1189596   0.03875087   -3.5513207    1.4323611   293600 
  727000   0.95342568   -3.5501668   -3.5501668   -2.1200331  0.042218381   -3.5501668    1.4301336   293600 
  728000   0.95435857   -3.5487576   -3.5487576   -2.1172247  0.036584067   -3.5487576     1.431533   293600 
  729000   0.95374616    -3.547197    -3.547197   -2.1165826  0.041723414    -3.547197    1.4306144   293600 
  730000   0.95415821   -3.5484287   -3.5484287   -2.1171963  0.033416575   -3.5484287    1.4312324   293600 
  731000   0.95473539   -3.5495493   -3.5495493   -2.1174511   0.04064856   -3.5495493    1.4320982   293600 
  732000   0.95246351   -3.5472765   -3.5472765   -2.1185861  0.039600625   -3.5472765    1.4286904   293600 
  733000   0.95235551   -3.5452642   -3.5452642   -2.1167358  0.039159183   -3.5452642    1.4285284   293600 
  734000   0.95536534    -3.549184    -3.549184   -2.1161409  0.036582888    -3.549184    1.4330431   293600 
  735000   0.95544079   -3.5474847   -3.5474847   -2.1143284  0.037750703   -3.5474847    1.4331563   293600 
  736000   0.95449618   -3.5467588   -3.5467588   -2.1150194  0.038742397   -3.5467588    1.4317394   293600 
  737000   0.95522532   -3.5464424   -3.5464424   -2.1136093  0.039309414   -3.5464424    1.4328331   293600 
  738000   0.95471775   -3.5459723   -3.5459723   -2.1139005  0.047551332   -3.5459723    1.4320717   293600 
  739000   0.95399385   -3.5450108   -3.5450108   -2.1140249  0.045978045   -3.5450108    1.4309859   293600 
  740000   0.95408677   -3.5469084   -3.5469084   -2.1157831   0.03279688   -3.5469084    1.4311253   293600 
  741000   0.95345225   -3.5463021   -3.5463021   -2.1161286  0.033717718   -3.5463021    1.4301735   293600 
  742000   0.95247096   -3.5434343   -3.5434343   -2.1147327  0.040096556   -3.5434343    1.4287016   293600 
  743000   0.95352843   -3.5437291   -3.5437291   -2.1134413   0.04144311   -3.5437291    1.4302878   293600 
  744000   0.95400262   -3.5446543   -3.5446543   -2.1136553  0.033333548   -3.5446543     1.430999   293600 
  745000   0.95231084   -3.5418524   -3.5418524    -2.113391  0.042007867   -3.5418524    1.4284614   293600 
  746000   0.95409442   -3.5431772   -3.5431772   -2.1120404  0.040270056   -3.5431772    1.4311368   293600 
  747000   0.95310628    -3.542266    -3.542266   -2.1126114  0.040455469    -3.542266    1.4296545   293600 
  748000    0.9561842   -3.5465498   -3.5465498   -2.1122784  0.034357212   -3.5465498    1.4342714   293600 
  749000   0.95467672   -3.5444446   -3.5444446   -2.1124344  0.046360546   -3.5444446    1.4320102   293600 
  750000   0.95629192    -3.544685    -3.544685    -2.110252  0.040938436    -3.544685     1.434433   293600 
  751000   0.95520571   -3.5438848   -3.5438848   -2.1110811  0.040738029   -3.5438848    1.4328037   293600 
  752000   0.95496044   -3.5431983   -3.5431983   -2.1107625  0.048995879   -3.5431983    1.4324358   293600 
  753000   0.95622553    -3.543706    -3.543706   -2.1093726  0.038496199    -3.543706    1.4343334   293600 
  754000   0.95602882   -3.5451496   -3.5451496   -2.1111113  0.040722243   -3.5451496    1.4340383   293600 
  755000   0.95591244    -3.543592    -3.543592   -2.1097282  0.036490769    -3.543592    1.4338638   293600 
  756000   0.95638799   -3.5438121   -3.5438121    -2.109235  0.046749206   -3.5438121    1.4345771   293600 
  757000   0.95594869   -3.5432194   -3.5432194   -2.1093013  0.042387383   -3.5432194    1.4339181   293600 
  758000   0.95652095    -3.543276    -3.543276   -2.1084995  0.040221634    -3.543276    1.4347765   293600 
  759000   0.95515581   -3.5424625   -3.5424625   -2.1097337  0.044295094   -3.5424625    1.4327288   293600 
  760000   0.95580136   -3.5457393   -3.5457393   -2.1120422  0.033608723   -3.5457393    1.4336972   293600 
  761000   0.95444942   -3.5430978   -3.5430978   -2.1114286  0.043640538   -3.5430978    1.4316692   293600 
  762000   0.95479326   -3.5415086   -3.5415086   -2.1093236  0.037555979   -3.5415086     1.432185   293600 
  763000   0.95523544   -3.5404579   -3.5404579   -2.1076096  0.045368654   -3.5404579    1.4328483   293600 
  764000   0.95631937   -3.5413435   -3.5413435   -2.1068693  0.041341423   -3.5413435    1.4344742   293600 
  765000   0.95621303   -3.5412519   -3.5412519   -2.1069373  0.046915021   -3.5412519    1.4343147   293600 
  766000   0.95796106   -3.5438708   -3.5438708   -2.1069341  0.044572397   -3.5438708    1.4369367   293600 
  767000   0.95752975   -3.5430301   -3.5430301   -2.1067403  0.043554204   -3.5430301    1.4362897   293600 
  768000   0.95683486   -3.5414662   -3.5414662   -2.1062188  0.043940453   -3.5414662    1.4352474   293600 
  769000    0.9569092   -3.5417002   -3.5417002   -2.1063413  0.042171917   -3.5417002    1.4353589   293600 
  770000   0.95457455   -3.5378397   -3.5378397   -2.1059827  0.045867637   -3.5378397    1.4318569   293600 
  771000   0.95617762   -3.5413408   -3.5413408   -2.1070793  0.041962998   -3.5413408    1.4342615   293600 
  772000   0.95515756    -3.539986    -3.539986   -2.1072545  0.038465583    -3.539986    1.4327315   293600 
  773000   0.95372352   -3.5376916   -3.5376916   -2.1071112  0.037296844   -3.5376916    1.4305804   293600 
  774000   0.95318869   -3.5359977   -3.5359977   -2.1062195  0.042863391   -3.5359977    1.4297782   293600 
  775000   0.95446752   -3.5371534   -3.5371534    -2.105457  0.038311225   -3.5371534    1.4316964   293600 
  776000   0.95418231    -3.533916    -3.533916   -2.1026475   0.03364362    -3.533916    1.4312686   293600 
  777000   0.95374299   -3.5361564   -3.5361564   -2.1055468  0.038680012   -3.5361564    1.4306096   293600 
  778000   0.95415747   -3.5361813   -3.5361813     -2.10495  0.040078381   -3.5361813    1.4312313   293600 
  779000   0.95235824   -3.5338017   -3.5338017   -2.1052692  0.043842897   -3.5338017    1.4285325   293600 
  780000   0.95467954   -3.5361316   -3.5361316   -2.1041172   0.03778866   -3.5361316    1.4320144   293600 
  781000   0.95616617   -3.5369451   -3.5369451   -2.1027007  0.049776356   -3.5369451    1.4342444   293600 
  782000   0.95818908   -3.5392014   -3.5392014   -2.1019227  0.048137677   -3.5392014    1.4372787   293600 
  783000   0.95767477   -3.5378076   -3.5378076   -2.1013003  0.042130923   -3.5378076    1.4365073   293600 
  784000   0.95673026    -3.536667    -3.536667   -2.1015765  0.041855942    -3.536667    1.4350905   293600 
  785000   0.95717914   -3.5381713   -3.5381713   -2.1024075  0.032604431   -3.5381713    1.4357638   293600 
  786000   0.95479147   -3.5332842   -3.5332842   -2.1011019  0.044217519   -3.5332842    1.4321823   293600 
  787000   0.95657643   -3.5360268   -3.5360268    -2.101167  0.038912834   -3.5360268    1.4348598   293600 
  788000   0.95530447   -3.5331448   -3.5331448    -2.100193   0.04345085   -3.5331448    1.4329518   293600 
  789000   0.95527767    -3.535148    -3.535148   -2.1022364  0.044068909    -3.535148    1.4329116   293600 
  790000   0.95616968   -3.5351549   -3.5351549   -2.1009053  0.041596039   -3.5351549    1.4342496   293600 
  791000   0.95582774   -3.5355835   -3.5355835   -2.1018467  0.045621495   -3.5355835    1.4337367   293600 
  792000   0.95638964   -3.5357919   -3.5357919   -2.1012123  0.034558882   -3.5357919    1.4345796   293600 
  793000    0.9554302   -3.5346576   -3.5346576   -2.1015172  0.036014128   -3.5346576    1.4331404   293600 
  794000    0.9556019   -3.5324355   -3.5324355   -2.0990375  0.033274365   -3.5324355     1.433398   293600 
  795000   0.95542576   -3.5325323   -3.5325323   -2.0993986  0.036323602   -3.5325323    1.4331338   293600 
  796000    0.9551356   -3.5321417   -3.5321417   -2.0994432  0.046452883   -3.5321417    1.4326985   293600 
  797000   0.95675011   -3.5330676   -3.5330676   -2.0979474  0.044194391   -3.5330676    1.4351203   293600 
  798000   0.95750311   -3.5352239   -3.5352239   -2.0989742  0.045293479   -3.5352239    1.4362498   293600 
  799000   0.95650254   -3.5338608   -3.5338608   -2.0991118  0.046003366   -3.5338608    1.4347489   293600 
  800000   0.95723588   -3.5347606   -3.5347606   -2.0989117  0.042794472   -3.5347606    1.4358489   293600 
  801000   0.95750061    -3.533065    -3.533065    -2.096819  0.040788974    -3.533065     1.436246   293600 
  802000   0.95779417   -3.5341845   -3.5341845   -2.0974981  0.035447599   -3.5341845    1.4366864   293600 
  803000   0.95715332   -3.5321794   -3.5321794   -2.0964543  0.039547833   -3.5321794    1.4357251   293600 
  804000   0.95710438   -3.5312285   -3.5312285   -2.0955768   0.04937304   -3.5312285    1.4356517   293600 
  805000   0.95861028   -3.5335306   -3.5335306   -2.0956201  0.046312943   -3.5335306    1.4379105   293600 
  806000   0.95681829   -3.5327669   -3.5327669   -2.0975443  0.039501966   -3.5327669    1.4352225   293600 
  807000   0.95556308   -3.5315012   -3.5315012   -2.0981615  0.039816837   -3.5315012    1.4333397   293600 
  808000   0.95474571   -3.5304389   -3.5304389   -2.0983252  0.046369536   -3.5304389    1.4321137   293600 
  809000   0.95575112   -3.5308348   -3.5308348    -2.097213   0.04293759   -3.5308348    1.4336218   293600 
  810000    0.9544883   -3.5296633   -3.5296633   -2.0979358  0.038127399   -3.5296633    1.4317276   293600 
  811000   0.95467588   -3.5315793   -3.5315793   -2.0995704  0.038395484   -3.5315793    1.4320089   293600 
  812000   0.95745211   -3.5337742   -3.5337742   -2.0976009  0.035680268   -3.5337742    1.4361733   293600 
  813000   0.95620147    -3.532251    -3.532251   -2.0979537  0.040900382    -3.532251    1.4342973   293600 
  814000   0.95753421   -3.5322863   -3.5322863   -2.0959899  0.030650042   -3.5322863    1.4362964   293600 
  815000   0.95718528   -3.5304644   -3.5304644   -2.0946914   0.03258399   -3.5304644     1.435773   293600 
  816000   0.95635208   -3.5300427   -3.5300427   -2.0955195  0.040021125   -3.5300427    1.4345232   293600 
  817000   0.95628974   -3.5310373   -3.5310373   -2.0966076  0.044489624   -3.5310373    1.4344297   293600 
  818000   0.95649964   -3.5326473   -3.5326473   -2.0979027  0.039782824   -3.5326473    1.4347446   293600 
  819000   0.95773293   -3.5340362   -3.5340362   -2.0974417  0.047057149   -3.5340362    1.4365945   293600 
  820000   0.95800948    -3.532395    -3.532395   -2.0953856  0.043505557    -3.532395    1.4370093   293600 
  821000   0.95739274   -3.5317158   -3.5317158   -2.0956316  0.046898762   -3.5317158    1.4360842   293600 
  822000   0.95797214   -3.5323115   -3.5323115   -2.0953582  0.033887769   -3.5323115    1.4369533   293600 
  823000    0.9558772   -3.5288276   -3.5288276   -2.0950167  0.041891949   -3.5288276    1.4338109   293600 
  824000   0.95698357   -3.5299085   -3.5299085   -2.0944381  0.042415798   -3.5299085    1.4354705   293600 
  825000   0.95714998   -3.5316156   -3.5316156   -2.0958955  0.045669371   -3.5316156    1.4357201   293600 
  826000   0.95384559   -3.5255614   -3.5255614   -2.0947979  0.045800131   -3.5255614    1.4307635   293600 
  827000   0.95640723   -3.5300215   -3.5300215   -2.0954155    0.0460962   -3.5300215     1.434606   293600 
  828000   0.95596638   -3.5298297   -3.5298297    -2.095885  0.037434961   -3.5298297    1.4339447   293600 
  829000   0.95530388   -3.5298815   -3.5298815   -2.0969305  0.037810497   -3.5298815    1.4329509   293600 
  830000   0.95719846   -3.5314795   -3.5314795   -2.0956867  0.043673828   -3.5314795    1.4357928   293600 
  831000   0.95653886   -3.5309135   -3.5309135   -2.0961101  0.053445027   -3.5309135    1.4348034   293600 
  832000   0.95806549   -3.5336548   -3.5336548   -2.0965615   0.04165353   -3.5336548    1.4370933   293600 
  833000   0.95887633   -3.5339166   -3.5339166    -2.095607  0.042287369   -3.5339166    1.4383096   293600 
  834000   0.95535763   -3.5292185   -3.5292185    -2.096187  0.044292229   -3.5292185    1.4330316   293600 
  835000    0.9556175   -3.5286008   -3.5286008   -2.0951795  0.046316978   -3.5286008    1.4334214   293600 
  836000   0.95760143   -3.5304783   -3.5304783    -2.094081  0.041867638   -3.5304783    1.4363973   293600 
  837000   0.95726639    -3.530565    -3.530565   -2.0946703  0.042665101    -3.530565    1.4358947   293600 
  838000   0.95804945   -3.5323536   -3.5323536   -2.0952843  0.042300579   -3.5323536    1.4370693   293600 
  839000   0.95797034   -3.5323359   -3.5323359   -2.0953852  0.035800565   -3.5323359    1.4369506   293600 
  840000   0.95726863   -3.5317421   -3.5317421    -2.095844  0.041543794   -3.5317421    1.4358981   293600 
  841000   0.95756881   -3.5312362   -3.5312362   -2.0948879  0.045434179   -3.5312362    1.4363483   293600 
  842000   0.95645313   -3.5298545   -3.5298545   -2.0951796  0.045301193   -3.5298545    1.4346748   293600 
  843000   0.95792813   -3.5320622   -3.5320622   -2.0951749  0.039548591   -3.5320622    1.4368873   293600 
  844000   0.95657473   -3.5295362   -3.5295362    -2.094679  0.045290171   -3.5295362    1.4348572   293600 
  845000   0.95674762   -3.5293124   -3.5293124   -2.0941959  0.038140125   -3.5293124    1.4351165   293600 
  846000   0.95564734   -3.5295908   -3.5295908   -2.0961247  0.034343393   -3.5295908    1.4334661   293600 
  847000    0.9560453   -3.5288052   -3.5288052   -2.0947421  0.039664414   -3.5288052    1.4340631   293600 
  848000   0.95717189    -3.530197    -3.530197   -2.0944441  0.030073633    -3.530197    1.4357529   293600 
  849000   0.95574471   -3.5267902   -3.5267902    -2.093178  0.036199541   -3.5267902    1.4336122   293600 
  850000   0.95487851   -3.5249923   -3.5249923   -2.0926794  0.044639537   -3.5249923    1.4323129   293600 
  851000   0.95650267   -3.5290678   -3.5290678   -2.0943186  0.045647726   -3.5290678    1.4347491   293600 
  852000   0.95751834    -3.528388    -3.528388   -2.0921154  0.046360321    -3.528388    1.4362726   293600 
  853000    0.9575979   -3.5291267   -3.5291267   -2.0927348  0.035301838   -3.5291267     1.436392   293600 
  854000   0.95881747   -3.5293352   -3.5293352   -2.0911139  0.043504787   -3.5293352    1.4382213   293600 
  855000   0.95972377   -3.5319797   -3.5319797   -2.0923989  0.047509849   -3.5319797    1.4395808   293600 
  856000   0.95645961   -3.5270139   -3.5270139   -2.0923293  0.040051664   -3.5270139    1.4346845   293600 
  857000   0.95561516   -3.5247344   -3.5247344   -2.0913166  0.042214746   -3.5247344    1.4334179   293600 
  858000    0.9572586   -3.5275702   -3.5275702   -2.0916872  0.039684362   -3.5275702     1.435883   293600 
  859000   0.95568965   -3.5250464   -3.5250464   -2.0915168  0.040898363   -3.5250464    1.4335296   293600 
  860000    0.9564567   -3.5268981   -3.5268981    -2.092218  0.038632118   -3.5268981    1.4346802   293600 
  861000   0.95679943    -3.526973    -3.526973   -2.0917787  0.035679084    -3.526973    1.4351943   293600 
  862000   0.95678178    -3.525539    -3.525539   -2.0903712  0.038555187    -3.525539    1.4351678   293600 
  863000   0.95715562   -3.5262302   -3.5262302   -2.0905017  0.042563315   -3.5262302    1.4357285   293600 
  864000   0.95629217   -3.5255628   -3.5255628   -2.0911294  0.043675053   -3.5255628    1.4344334   293600 
  865000   0.95569252   -3.5246809   -3.5246809    -2.091147  0.039364956   -3.5246809    1.4335339   293600 
  866000   0.95928822   -3.5294246   -3.5294246   -2.0904971  0.031312863   -3.5294246    1.4389274   293600 
  867000   0.95643026   -3.5236496   -3.5236496   -2.0890091  0.040503659   -3.5236496    1.4346405   293600 
  868000   0.95485484   -3.5227297   -3.5227297   -2.0904523  0.041304737   -3.5227297    1.4322774   293600 
  869000   0.95916955   -3.5264867   -3.5264867   -2.0877373  0.041185184   -3.5264867    1.4387494   293600 
  870000    0.9579891   -3.5240779   -3.5240779   -2.0870992  0.036596973   -3.5240779    1.4369788   293600 
  871000    0.9576115    -3.523849    -3.523849   -2.0874367  0.042124456    -3.523849    1.4364124   293600 
  872000   0.95796941   -3.5239121   -3.5239121   -2.0869628  0.046682424   -3.5239121    1.4369492   293600 
  873000   0.95855926   -3.5267318   -3.5267318   -2.0888978  0.033983254   -3.5267318     1.437834   293600 
  874000    0.9570134   -3.5258684   -3.5258684   -2.0903532  0.037565914   -3.5258684    1.4355152   293600 
  875000   0.95721269   -3.5255628   -3.5255628   -2.0897487  0.037701988   -3.5255628    1.4358141   293600 
  876000   0.95759194   -3.5245999   -3.5245999   -2.0882169  0.035365204   -3.5245999     1.436383   293600 
  877000   0.95761637   -3.5254742   -3.5254742   -2.0890545   0.03776647   -3.5254742    1.4364197   293600 
  878000   0.95719514   -3.5245643   -3.5245643   -2.0887765  0.037215975   -3.5245643    1.4357878   293600 
  879000   0.95972171   -3.5271634   -3.5271634   -2.0875857  0.035585915   -3.5271634    1.4395777   293600 
  880000   0.95804806   -3.5245282   -3.5245282    -2.087461  0.040336302   -3.5245282    1.4370672   293600 
  881000   0.95880628   -3.5259154   -3.5259154   -2.0877109  0.040230903   -3.5259154    1.4382045   293600 
  882000   0.95949068   -3.5268589   -3.5268589   -2.0876278  0.038963512   -3.5268589    1.4392311   293600 
  883000   0.95937844   -3.5249056   -3.5249056   -2.0858428  0.041382113   -3.5249056    1.4390628   293600 
  884000   0.95909798   -3.5255126   -3.5255126   -2.0868705  0.052955112   -3.5255126    1.4386421   293600 
  885000   0.96180651     -3.52901     -3.52901   -2.0863052  0.042643922     -3.52901    1.4427049   293600 
  886000   0.95960611   -3.5279263   -3.5279263   -2.0885221  0.047830892   -3.5279263    1.4394043   293600 
  887000   0.95881671   -3.5253268   -3.5253268   -2.0871067  0.043321573   -3.5253268    1.4382202   293600 
  888000   0.95847296   -3.5263957   -3.5263957   -2.0886911  0.041467524   -3.5263957    1.4377045   293600 
  889000    0.9565432   -3.5236457   -3.5236457   -2.0888358   0.04341136   -3.5236457    1.4348099   293600 
  890000   0.95651775   -3.5229857   -3.5229857   -2.0882139  0.037878164   -3.5229857    1.4347717   293600 
  891000   0.95757094   -3.5237534   -3.5237534   -2.0874019  0.038374147   -3.5237534    1.4363515   293600 
  892000   0.95548226   -3.5213408   -3.5213408   -2.0881223   0.04014879   -3.5213408    1.4332185   293600 
  893000   0.95684192    -3.523133    -3.523133    -2.087875  0.043149131    -3.523133     1.435258   293600 
  894000   0.95816137   -3.5254298   -3.5254298   -2.0881926  0.044204947   -3.5254298    1.4372372   293600 
  895000   0.95860451   -3.5259491   -3.5259491   -2.0880472  0.043868842   -3.5259491    1.4379019   293600 
  896000   0.95882213    -3.526128    -3.526128   -2.0878997  0.034985967    -3.526128    1.4382283   293600 
  897000   0.95536126   -3.5221042   -3.5221042   -2.0890672  0.051224109   -3.5221042     1.433037   293600 
  898000   0.95864897   -3.5257141   -3.5257141   -2.0877455  0.041764347   -3.5257141    1.4379686   293600 
  899000   0.95794065   -3.5245322   -3.5245322   -2.0876262  0.046375582   -3.5245322    1.4369061   293600 
  900000   0.95911099   -3.5275852   -3.5275852   -2.0889237  0.039808299   -3.5275852    1.4386616   293600 
  901000   0.95714195    -3.523531    -3.523531   -2.0878229  0.039050185    -3.523531     1.435708   293600 
  902000   0.95915839   -3.5239022   -3.5239022   -2.0851695  0.047547795   -3.5239022    1.4387327   293600 
  903000   0.95859591   -3.5237273   -3.5237273   -2.0858383  0.040227602   -3.5237273     1.437889   293600 
  904000   0.95855542   -3.5229206   -3.5229206   -2.0850923  0.045711093   -3.5229206    1.4378282   293600 
  905000   0.95984021   -3.5250645   -3.5250645   -2.0853091   0.03678317   -3.5250645    1.4397554   293600 
  906000   0.95977618   -3.5252692   -3.5252692   -2.0856098  0.039364875   -3.5252692    1.4396594   293600 
  907000   0.95912603   -3.5250963   -3.5250963   -2.0864121  0.044939197   -3.5250963    1.4386841   293600 
  908000   0.96189706   -3.5292087   -3.5292087    -2.086368  0.041114201   -3.5292087    1.4428407   293600 
  909000   0.96035739   -3.5251621   -3.5251621    -2.084631  0.043659624   -3.5251621    1.4405312   293600 
  910000   0.95996491   -3.5252477   -3.5252477   -2.0853053  0.040898559   -3.5252477    1.4399425   293600 
  911000   0.95802484   -3.5232078   -3.5232078   -2.0861755  0.039315237   -3.5232078    1.4370324   293600 
  912000   0.95806373    -3.522501    -3.522501   -2.0854103  0.049706405    -3.522501    1.4370907   293600 
  913000   0.95915045   -3.5243595   -3.5243595   -2.0856387  0.038102749   -3.5243595    1.4387208   293600 
  914000   0.95812173   -3.5233694   -3.5233694   -2.0861917  0.036763528   -3.5233694    1.4371777   293600 
  915000   0.95755393   -3.5215915   -3.5215915   -2.0852655  0.043131438   -3.5215915     1.436326   293600 
  916000   0.95732152   -3.5215585   -3.5215585   -2.0855811  0.043390989   -3.5215585    1.4359774   293600 
  917000   0.95772793   -3.5219533   -3.5219533   -2.0853663  0.046629157   -3.5219533     1.436587   293600 
  918000   0.95976927   -3.5233577   -3.5233577   -2.0837087  0.042644933   -3.5233577     1.439649   293600 
  919000   0.95855644   -3.5205208   -3.5205208    -2.082691  0.041896983   -3.5205208    1.4378298   293600 
  920000   0.95727977   -3.5192925   -3.5192925   -2.0833777  0.043763889   -3.5192925    1.4359148   293600 
  921000    0.9578151   -3.5216509   -3.5216509   -2.0849332   0.04334804   -3.5216509    1.4367178   293600 
  922000   0.95747563   -3.5207781   -3.5207781   -2.0845696  0.041783012   -3.5207781    1.4362086   293600 
  923000   0.96019984   -3.5236554   -3.5236554   -2.0833605  0.036249173   -3.5236554    1.4402949   293600 
  924000   0.95945839   -3.5214733   -3.5214733   -2.0822906  0.038845293   -3.5214733    1.4391827   293600 
  925000   0.95919544   -3.5218239   -3.5218239   -2.0830356   0.04184594   -3.5218239    1.4387883   293600 
  926000   0.95681345   -3.5188574   -3.5188574   -2.0836421  0.037553956   -3.5188574    1.4352153   293600 
  927000   0.95604034   -3.5174941   -3.5174941   -2.0834385  0.038030608   -3.5174941    1.4340556   293600 
  928000   0.95550175   -3.5162904   -3.5162904   -2.0830426  0.037913251   -3.5162904    1.4332477   293600 
  929000   0.95712152   -3.5180674   -3.5180674     -2.08239  0.043662853   -3.5180674    1.4356774   293600 
  930000   0.95855674   -3.5193962   -3.5193962    -2.081566   0.03698094   -3.5193962    1.4378302   293600 
  931000   0.95626862   -3.5163601   -3.5163601    -2.081962  0.036581491   -3.5163601     1.434398   293600 
  932000   0.95814776   -3.5186668   -3.5186668     -2.08145  0.034049244   -3.5186668    1.4372167   293600 
  933000   0.96019484   -3.5206815   -3.5206815   -2.0803941  0.045565843   -3.5206815    1.4402874   293600 
  934000   0.95825783   -3.5185309   -3.5185309    -2.081149  0.041596945   -3.5185309    1.4373818   293600 
  935000   0.95875915   -3.5183716   -3.5183716   -2.0802378  0.038289943   -3.5183716    1.4381338   293600 
  936000   0.95899938    -3.518413    -3.518413   -2.0799188  0.041440429    -3.518413    1.4384942   293600 
  937000   0.95985469   -3.5192233   -3.5192233   -2.0794461  0.042604383   -3.5192233    1.4397771   293600 
  938000   0.95969124   -3.5187626   -3.5187626   -2.0792307  0.040775964   -3.5187626     1.439532   293600 
  939000   0.95959383   -3.5182443   -3.5182443   -2.0788585  0.046560271   -3.5182443    1.4393858   293600 
  940000   0.95956226   -3.5172743   -3.5172743   -2.0779358  0.035554372   -3.5172743    1.4393385   293600 
  941000    0.9586891   -3.5183144   -3.5183144   -2.0802857  0.038906516   -3.5183144    1.4380288   293600 
  942000    0.9603324    -3.522435    -3.522435   -2.0819413  0.042349187    -3.522435    1.4404937   293600 
  943000   0.96079101   -3.5226876   -3.5226876    -2.081506  0.037875594   -3.5226876    1.4411816   293600 
  944000   0.96127624   -3.5226298   -3.5226298   -2.0807204  0.036309678   -3.5226298    1.4419094   293600 
  945000    0.9591729   -3.5213764   -3.5213764    -2.082622  0.049755947   -3.5213764    1.4387544   293600 
  946000   0.95759234   -3.5179991   -3.5179991   -2.0816155  0.045230637   -3.5179991    1.4363836   293600 
  947000   0.96003954   -3.5206437   -3.5206437   -2.0805893  0.034756195   -3.5206437    1.4400544   293600 
  948000   0.95878974   -3.5182936   -3.5182936   -2.0801139  0.040945886   -3.5182936    1.4381797   293600 
  949000   0.96128989   -3.5196142   -3.5196142   -2.0776842  0.046734952   -3.5196142    1.4419299   293600 
  950000   0.95940316   -3.5189752   -3.5189752   -2.0798754  0.042634024   -3.5189752    1.4390998   293600 
  951000   0.96243756   -3.5231273   -3.5231273   -2.0794758  0.040062401   -3.5231273    1.4436514   293600 
  952000   0.96103952   -3.5214702   -3.5214702   -2.0799159  0.044568542   -3.5214702    1.4415544   293600 
  953000   0.96116143   -3.5202048   -3.5202048   -2.0784675  0.049201902   -3.5202048    1.4417372   293600 
  954000   0.96233973   -3.5218129   -3.5218129   -2.0783082  0.046169874   -3.5218129    1.4435047   293600 
  955000   0.96133316   -3.5201647   -3.5201647   -2.0781699  0.046521075   -3.5201647    1.4419948   293600 
  956000   0.95879434     -3.51629     -3.51629   -2.0781034  0.040293967     -3.51629    1.4381866   293600 
  957000   0.96037148   -3.5188773   -3.5188773    -2.078325  0.037056449   -3.5188773    1.4405523   293600 
  958000   0.95898678   -3.5169469   -3.5169469   -2.0784716  0.045104477   -3.5169469    1.4384753   293600 
  959000   0.95855651   -3.5160708   -3.5160708    -2.078241  0.048812532   -3.5160708    1.4378299   293600 
  960000   0.96037675     -3.51717     -3.51717   -2.0766098  0.042512301     -3.51717    1.4405602   293600 
  961000   0.96139547   -3.5184927   -3.5184927   -2.0764044  0.035930057   -3.5184927    1.4420883   293600 
  962000    0.9595676   -3.5167273   -3.5167273   -2.0773808  0.043040197   -3.5167273    1.4393465   293600 
  963000   0.96128302   -3.5180695   -3.5180695   -2.0761499  0.037469325   -3.5180695    1.4419196   293600 
  964000   0.95906658   -3.5154533   -3.5154533   -2.0768583  0.042513059   -3.5154533     1.438595   293600 
  965000   0.95826415    -3.513839    -3.513839   -2.0764477  0.048756042    -3.513839    1.4373913   293600 
  966000   0.95885241   -3.5146366   -3.5146366   -2.0763629  0.046967315   -3.5146366    1.4382737   293600 
  967000   0.95938815   -3.5142974   -3.5142974     -2.07522  0.045720492   -3.5142974    1.4390773   293600 
  968000   0.96128636   -3.5146248   -3.5146248   -2.0727002  0.045248673   -3.5146248    1.4419246   293600 
  969000   0.95976555   -3.5136892   -3.5136892   -2.0740458  0.042620162   -3.5136892    1.4396434   293600 
  970000   0.95861688   -3.5135386   -3.5135386   -2.0756181  0.047713985   -3.5135386    1.4379204   293600 
  971000   0.95942415   -3.5121605   -3.5121605   -2.0730292  0.040551353   -3.5121605    1.4391313   293600 
  972000   0.95987334   -3.5126117   -3.5126117   -2.0728066  0.043424193   -3.5126117    1.4398051   293600 
  973000   0.96200105   -3.5151909   -3.5151909   -2.0721943  0.041772994   -3.5151909    1.4429967   293600 
  974000    0.9597071   -3.5129524   -3.5129524   -2.0733966  0.042735886   -3.5129524    1.4395557   293600 
  975000   0.96012521   -3.5140026   -3.5140026   -2.0738197  0.044812839   -3.5140026    1.4401829   293600 
  976000   0.96079209   -3.5150069   -3.5150069   -2.0738237  0.040585387   -3.5150069    1.4411832   293600 
  977000   0.95800418   -3.5116161   -3.5116161   -2.0746147  0.040578294   -3.5116161    1.4370014   293600 
  978000   0.95886175   -3.5125936   -3.5125936   -2.0743059  0.041422088   -3.5125936    1.4382877   293600 
  979000   0.95894987   -3.5136568   -3.5136568   -2.0752369  0.033506171   -3.5136568    1.4384199   293600 
  980000   0.95686976   -3.5093467   -3.5093467   -2.0740469  0.039277926   -3.5093467    1.4352997   293600 
  981000   0.95633888   -3.5106773   -3.5106773   -2.0761738  0.035716708   -3.5106773    1.4345034   293600 
  982000   0.95876699   -3.5121332   -3.5121332   -2.0739876  0.035836891   -3.5121332    1.4381456   293600 
  983000   0.95995111   -3.5126208   -3.5126208   -2.0726991  0.040606994   -3.5126208    1.4399218   293600 
  984000   0.95885842   -3.5113275   -3.5113275   -2.0730447  0.043109528   -3.5113275    1.4382827   293600 
  985000   0.96045808   -3.5130468   -3.5130468   -2.0723646  0.040833862   -3.5130468    1.4406822   293600 
  986000   0.96039528   -3.5128535   -3.5128535   -2.0722655  0.040866634   -3.5128535     1.440588   293600 
  987000   0.96091006    -3.514038    -3.514038   -2.0726778  0.033872216    -3.514038    1.4413602   293600 
  988000   0.95973047    -3.512221    -3.512221   -2.0726302   0.03996024    -3.512221    1.4395908   293600 
  989000   0.96037342   -3.5124845   -3.5124845   -2.0719292  0.044633304   -3.5124845    1.4405552   293600 
  990000   0.96068057   -3.5138499   -3.5138499    -2.072834  0.049611736   -3.5138499     1.441016   293600 
  991000   0.96208744   -3.5151019   -3.5151019   -2.0719757  0.046469426   -3.5151019    1.4431262   293600 
  992000   0.96350154   -3.5153934   -3.5153934    -2.070146  0.037283384   -3.5153934    1.4452474   293600 
  993000   0.96181917     -3.51396     -3.51396   -2.0712362  0.045641483     -3.51396    1.4427238   293600 
  994000    0.9616883   -3.5135398   -3.5135398   -2.0710122  0.040288129   -3.5135398    1.4425275   293600 
  995000   0.96261779   -3.5126984   -3.5126984   -2.0687767  0.049874166   -3.5126984    1.4439218   293600 
  996000    0.9624334   -3.5119316   -3.5119316   -2.0682865   0.04038635   -3.5119316    1.4436452   293600 
  997000    0.9623072    -3.512114    -3.512114   -2.0686581  0.047714359    -3.512114    1.4434559   293600 
  998000   0.95942448   -3.5094288   -3.5094288    -2.070297  0.045002497   -3.5094288    1.4391318   293600 
  999000   0.96279272   -3.5134198   -3.5134198   -2.0692357  0.045932897   -3.5134198    1.4441842   293600 
 1000000   0.96150689    -3.510933    -3.510933   -2.0686775  0.048380807    -3.510933    1.4422554   293600 
 1001000   0.96036177   -3.5104175   -3.5104175   -2.0698798  0.043003229   -3.5104175    1.4405377   293600 
 1002000   0.96248493   -3.5126852   -3.5126852   -2.0689628  0.044119788   -3.5126852    1.4437225   293600 
 1003000   0.96206375   -3.5119369   -3.5119369   -2.0688462   0.03905397   -3.5119369    1.4430907   293600 
 1004000   0.96195612   -3.5109535   -3.5109535   -2.0680242  0.045147279   -3.5109535    1.4429293   293600 
 1005000   0.96159415   -3.5105551   -3.5105551   -2.0681688  0.053818169   -3.5105551    1.4423863   293600 
 1006000   0.96166341   -3.5095715   -3.5095715   -2.0670813  0.046040068   -3.5095715    1.4424902   293600 
 1007000   0.96309338    -3.510346    -3.510346   -2.0657109  0.046493837    -3.510346    1.4446351   293600 
 1008000   0.96259171   -3.5113648   -3.5113648   -2.0674822  0.047324741   -3.5113648    1.4438827   293600 
 1009000   0.96040712   -3.5059776   -3.5059776   -2.0653718  0.044739327   -3.5059776    1.4406058   293600 
 1010000   0.96146576     -3.50777     -3.50777   -2.0655763  0.035046258     -3.50777    1.4421937   293600 
 1011000   0.96161692   -3.5091278   -3.5091278   -2.0667073   0.04564155   -3.5091278    1.4424205   293600 
 1012000   0.96064742   -3.5073546   -3.5073546   -2.0663884  0.046120184   -3.5073546    1.4409662   293600 
 1013000   0.96106756   -3.5081613   -3.5081613   -2.0665649  0.039270164   -3.5081613    1.4415964   293600 
 1014000   0.95871381   -3.5049261   -3.5049261   -2.0668603  0.040646938   -3.5049261    1.4380658   293600 
 1015000     0.961391    -3.508249    -3.508249   -2.0661674  0.037191188    -3.508249    1.4420816   293600 
 1016000   0.96172018   -3.5059221   -3.5059221   -2.0633467  0.034533048   -3.5059221    1.4425754   293600 
 1017000   0.95950162   -3.5017678   -3.5017678   -2.0625203  0.042485537   -3.5017678    1.4392475   293600 
 1018000   0.96166353   -3.5041149   -3.5041149   -2.0616245  0.035692099   -3.5041149    1.4424904   293600 
 1019000   0.96104178   -3.5026734   -3.5026734   -2.0611157   0.04766894   -3.5026734    1.4415578   293600 
 1020000    0.9615613   -3.5027604   -3.5027604   -2.0604234  0.044778921   -3.5027604     1.442337   293600 
 1021000   0.96318179   -3.5055001   -3.5055001   -2.0607323  0.041864143   -3.5055001    1.4447678   293600 
 1022000     0.962066   -3.5022419   -3.5022419   -2.0591478  0.047028644   -3.5022419    1.4430941   293600 
 1023000   0.96137987   -3.5021398   -3.5021398   -2.0600749   0.05013815   -3.5021398    1.4420649   293600 
 1024000   0.96335072   -3.5037117   -3.5037117   -2.0586905  0.039637328   -3.5037117    1.4450212   293600 
 1025000   0.96144865   -3.4997894   -3.4997894   -2.0576213  0.040838483   -3.4997894    1.4421681   293600 
 1026000   0.96184793   -3.5008803   -3.5008803   -2.0581133  0.039391942   -3.5008803     1.442767   293600 
 1027000   0.96185733   -3.5022049   -3.5022049   -2.0594238  0.040092438   -3.5022049    1.4427811   293600 
 1028000   0.96193896   -3.5013907   -3.5013907   -2.0584872  0.041685689   -3.5013907    1.4429035   293600 
 1029000   0.96002827    -3.498972    -3.498972   -2.0589345  0.042840837    -3.498972    1.4400375   293600 
 1030000   0.95940244   -3.4991815   -3.4991815   -2.0600827  0.037333516   -3.4991815    1.4390988   293600 
 1031000   0.96107436    -3.500181    -3.500181   -2.0585744  0.037946971    -3.500181    1.4416066   293600 
 1032000   0.96100247    -3.500296    -3.500296   -2.0587972  0.038059398    -3.500296    1.4414988   293600 
 1033000    0.9619366   -3.5017442   -3.5017442   -2.0588442  0.035256472   -3.5017442       1.4429   293600 
 1034000   0.96282341   -3.5006526   -3.5006526   -2.0564224  0.045423832   -3.5006526    1.4442302   293600 
 1035000   0.96237726   -3.4993688   -3.4993688   -2.0558078  0.048638692   -3.4993688     1.443561   293600 
 1036000    0.9616537   -3.4988315   -3.4988315   -2.0563559  0.043623815   -3.4988315    1.4424756   293600 
 1037000   0.96204415   -3.4993816   -3.4993816   -2.0563203  0.040233074   -3.4993816    1.4430613   293600 
 1038000   0.96265008     -3.50066     -3.50066   -2.0566898  0.045394826     -3.50066    1.4439702   293600 
 1039000   0.96355774   -3.5011876   -3.5011876   -2.0558559  0.045585001   -3.5011876    1.4453317   293600 
 1040000   0.96243746   -3.5005847   -3.5005847   -2.0569335  0.042060881   -3.5005847    1.4436513   293600 
 1041000   0.96347203   -3.5031152   -3.5031152   -2.0579121  0.036011226   -3.5031152    1.4452031   293600 
 1042000   0.96215621    -3.499299    -3.499299   -2.0560696  0.036857488    -3.499299    1.4432294   293600 
 1043000    0.9618178   -3.4982037   -3.4982037   -2.0554819  0.041386142   -3.4982037    1.4427218   293600 
 1044000   0.96135413   -3.4981733   -3.4981733    -2.056147  0.043502849   -3.4981733    1.4420263   293600 
 1045000   0.96181913   -3.4982286   -3.4982286   -2.0555048  0.042824839   -3.4982286    1.4427238   293600 
 1046000   0.96052088   -3.4968059   -3.4968059   -2.0560295  0.036316461   -3.4968059    1.4407764   293600 
 1047000   0.96069317   -3.4957851   -3.4957851   -2.0547502  0.044589564   -3.4957851    1.4410348   293600 
 1048000   0.96081703   -3.4971653   -3.4971653   -2.0559447  0.042611687   -3.4971653    1.4412206   293600 
 1049000   0.96203703   -3.4992142   -3.4992142   -2.0561636  0.039502444   -3.4992142    1.4430506   293600 
 1050000    0.9634541   -3.5022504   -3.5022504   -2.0570741  0.042247391   -3.5022504    1.4451762   293600 
 1051000   0.96347764   -3.5019428   -3.5019428   -2.0567313  0.044490203   -3.5019428    1.4452115   293600 
 1052000   0.96246745    -3.500188    -3.500188   -2.0564917   0.04132522    -3.500188    1.4436963   293600 
 1053000   0.96157961   -3.4971725   -3.4971725    -2.054808  0.039522642   -3.4971725    1.4423645   293600 
 1054000   0.96240493   -3.4980106   -3.4980106   -2.0544082  0.046259878   -3.4980106    1.4436025   293600 
 1055000   0.96330821   -3.4982342   -3.4982342   -2.0532768  0.043176171   -3.4982342    1.4449574   293600 
 1056000   0.96413235   -3.4991048   -3.4991048   -2.0529112  0.044086512   -3.4991048    1.4461936   293600 
 1057000   0.96470688    -3.499074    -3.499074   -2.0520186   0.04786261    -3.499074    1.4470554   293600 
 1058000   0.96346859   -3.4981187   -3.4981187   -2.0529208  0.041774609   -3.4981187     1.445198   293600 
 1059000   0.96093784   -3.4972363   -3.4972363   -2.0558344  0.045525768   -3.4972363    1.4414018   293600 
 1060000   0.96296852   -3.5003773   -3.5003773   -2.0559295  0.038752459   -3.5003773    1.4444479   293600 
 1061000    0.9643554   -3.5014145   -3.5014145   -2.0548863   0.04433087   -3.5014145    1.4465282   293600 
 1062000   0.96164174   -3.4974404   -3.4974404   -2.0549827  0.051744543   -3.4974404    1.4424577   293600 
 1063000   0.96110849   -3.4969445   -3.4969445   -2.0552867  0.052779623   -3.4969445    1.4416578   293600 
 1064000   0.96064136   -3.4970809   -3.4970809   -2.0561238  0.041699087   -3.4970809    1.4409571   293600 
 1065000   0.96049267   -3.4970806   -3.4970806   -2.0563465  0.046895225   -3.4970806    1.4407341   293600 
 1066000   0.96241535   -3.4994585   -3.4994585   -2.0558404  0.036741013   -3.4994585    1.4436181   293600 
 1067000   0.96220394   -3.4993175   -3.4993175   -2.0560165  0.048348369   -3.4993175     1.443301   293600 
 1068000   0.96189033   -3.4975127   -3.4975127   -2.0546821  0.043686203   -3.4975127    1.4428306   293600 
 1069000    0.9633143   -3.4993024   -3.4993024   -2.0543359  0.043199676   -3.4993024    1.4449665   293600 
 1070000   0.96252024   -3.4976432   -3.4976432   -2.0538678  0.044727247   -3.4976432    1.4437754   293600 
 1071000   0.96344172   -3.4995814   -3.4995814   -2.0544237  0.046831038   -3.4995814    1.4451577   293600 
 1072000   0.96233876   -3.4980364   -3.4980364   -2.0545332  0.045703153   -3.4980364    1.4435032   293600 
 1073000   0.96247499   -3.4978672   -3.4978672   -2.0541597   0.04317152   -3.4978672    1.4437076   293600 
 1074000   0.96241321   -3.4975565   -3.4975565   -2.0539416  0.042222682   -3.4975565    1.4436149   293600 
 1075000   0.96162117   -3.4967062   -3.4967062   -2.0542793  0.041934171   -3.4967062    1.4424268   293600 
 1076000   0.96376639   -3.4992192   -3.4992192   -2.0535745  0.042753486   -3.4992192    1.4456447   293600 
 1077000   0.96011317   -3.4954371   -3.4954371   -2.0552723  0.040685217   -3.4954371    1.4401649   293600 
 1078000   0.96216597   -3.4988239   -3.4988239   -2.0555798  0.039909035   -3.4988239     1.443244   293600 
 1079000   0.96122393   -3.4972493   -3.4972493   -2.0554184   0.04249266   -3.4972493     1.441831   293600 
 1080000   0.96012333   -3.4956051   -3.4956051    -2.055425  0.037521635   -3.4956051    1.4401801   293600 
 1081000   0.96179935   -3.4978993   -3.4978993   -2.0552052  0.040272833   -3.4978993    1.4426941   293600 
 1082000   0.96131313   -3.4969008   -3.4969008   -2.0549361  0.044331728   -3.4969008    1.4419648   293600 
 1083000    0.9619086   -3.4979895   -3.4979895   -2.0551315  0.048281535   -3.4979895     1.442858   293600 
 1084000   0.96167371   -3.4971186   -3.4971186    -2.054613  0.053075787   -3.4971186    1.4425057   293600 
 1085000    0.9642209   -3.4993511   -3.4993511   -2.0530247  0.049067297   -3.4993511    1.4463264   293600 
 1086000   0.96512081   -3.5024836   -3.5024836   -2.0548073  0.043132248   -3.5024836    1.4476763   293600 
 1087000   0.96450151    -3.501543    -3.501543   -2.0547956  0.041800794    -3.501543    1.4467473   293600 
 1088000   0.96315428   -3.4988304   -3.4988304   -2.0541039  0.048122463   -3.4988304    1.4447265   293600 
 1089000   0.96478934   -3.5000998   -3.5000998   -2.0529208  0.044940238   -3.5000998    1.4471791   293600 
 1090000   0.96513726   -3.5003309   -3.5003309     -2.05263  0.041125104   -3.5003309     1.447701   293600 
 1091000   0.96448239   -3.4992143   -3.4992143   -2.0524957  0.047369573   -3.4992143    1.4467187   293600 
 1092000   0.96388163   -3.4978972   -3.4978972   -2.0520797  0.046341253   -3.4978972    1.4458175   293600 
 1093000   0.96412932   -3.4987296   -3.4987296   -2.0525405  0.052994918   -3.4987296    1.4461891   293600 
 1094000   0.96333337   -3.4988721   -3.4988721    -2.053877  0.044267456   -3.4988721    1.4449951   293600 
 1095000   0.96319722   -3.4993348   -3.4993348   -2.0545439   0.04278211   -3.4993348    1.4447909   293600 
 1096000   0.96498671   -3.5006454   -3.5006454   -2.0531703  0.046100761   -3.5006454    1.4474751   293600 
 1097000   0.96249468   -3.4977058   -3.4977058   -2.0539687  0.046564435   -3.4977058    1.4437371   293600 
 1098000    0.9624317   -3.4959543   -3.4959543   -2.0523117  0.048244028   -3.4959543    1.4436426   293600 
 1099000   0.96352359   -3.4965469   -3.4965469   -2.0512665  0.039654521   -3.4965469    1.4452805   293600 
 1100000   0.96321412   -3.4966225   -3.4966225   -2.0518063   0.04223211   -3.4966225    1.4448163   293600 
 1101000   0.96251768   -3.4941607   -3.4941607   -2.0503891  0.044668096   -3.4941607    1.4437716   293600 
 1102000   0.96369393   -3.4961888   -3.4961888   -2.0506528  0.038062513   -3.4961888     1.445536   293600 
 1103000   0.96290028   -3.4953848   -3.4953848   -2.0510393  0.043813583   -3.4953848    1.4443455   293600 
 1104000   0.96315113   -3.4963421   -3.4963421   -2.0516204  0.046262681   -3.4963421    1.4447218   293600 
 1105000   0.96474018   -3.4973696   -3.4973696   -2.0502642  0.048491108   -3.4973696    1.4471053   293600 
 1106000   0.96471591   -3.4967087   -3.4967087   -2.0496397  0.048392667   -3.4967087    1.4470689   293600 
 1107000   0.96338073    -3.494724    -3.494724   -2.0496578  0.045193302    -3.494724    1.4450662   293600 
 1108000    0.9639134   -3.4950912   -3.4950912   -2.0492261  0.042973949   -3.4950912    1.4458652   293600 
 1109000   0.96491534    -3.496546    -3.496546   -2.0491779  0.045702012    -3.496546    1.4473681   293600 
 1110000   0.96547588   -3.4966703   -3.4966703   -2.0484614  0.042247458   -3.4966703    1.4482089   293600 
 1111000   0.96321482   -3.4927216   -3.4927216   -2.0479043  0.049410898   -3.4927216    1.4448173   293600 
 1112000   0.96413383   -3.4944524   -3.4944524   -2.0482566  0.039872494   -3.4944524    1.4461958   293600 
 1113000   0.96372324   -3.4944291   -3.4944291   -2.0488491  0.045870289   -3.4944291    1.4455799   293600 
 1114000    0.9620479   -3.4919946   -3.4919946   -2.0489277  0.046316308   -3.4919946    1.4430669   293600 
 1115000   0.96376624    -3.494138    -3.494138   -2.0484936  0.039756562    -3.494138    1.4456444   293600 
 1116000      0.96255   -3.4927635   -3.4927635   -2.0489434  0.045124808   -3.4927635    1.4438201   293600 
 1117000   0.96202287   -3.4900948   -3.4900948   -2.0470654   0.04040649   -3.4900948    1.4430294   293600 
 1118000   0.96258381   -3.4906508   -3.4906508     -2.04678  0.042745661   -3.4906508    1.4438708   293600 
 1119000   0.96399285   -3.4923177   -3.4923177   -2.0463334  0.036921651   -3.4923177    1.4459843   293600 
 1120000   0.96299977   -3.4917385   -3.4917385   -2.0472438  0.044099465   -3.4917385    1.4444947   293600 
 1121000   0.96056271   -3.4900128   -3.4900128   -2.0491736  0.041808711   -3.4900128    1.4408392   293600 
 1122000   0.96262733    -3.491519    -3.491519    -2.047583  0.038539905    -3.491519    1.4439361   293600 
 1123000   0.96374665    -3.491503    -3.491503    -2.045888  0.040011129    -3.491503     1.445615   293600 
 1124000   0.96451257   -3.4910286   -3.4910286   -2.0442647  0.048027959   -3.4910286    1.4467639   293600 
 1125000   0.96489341   -3.4887372   -3.4887372   -2.0414021  0.048003855   -3.4887372    1.4473352   293600 
 1126000   0.96653109    -3.490875    -3.490875   -2.0410833    0.0400529    -3.490875    1.4497917   293600 
 1127000   0.96625923   -3.4921609   -3.4921609    -2.042777  0.044126071   -3.4921609    1.4493839   293600 
 1128000   0.96573527   -3.4909169   -3.4909169   -2.0423189  0.050895885   -3.4909169     1.448598   293600 
 1129000   0.96677765    -3.492617    -3.492617   -2.0424555  0.049687055    -3.492617    1.4501615   293600 
 1130000    0.9662423   -3.4914371   -3.4914371   -2.0420785  0.044859763   -3.4914371    1.4493585   293600 
 1131000   0.96639632   -3.4916154   -3.4916154   -2.0420259  0.042654357   -3.4916154    1.4495895   293600 
 1132000   0.96471628     -3.48894     -3.48894   -2.0418705  0.052354841     -3.48894    1.4470695   293600 
 1133000   0.96495754   -3.4889047   -3.4889047   -2.0414733  0.043328892   -3.4889047    1.4474314   293600 
 1134000   0.96658516   -3.4902673   -3.4902673   -2.0403945  0.047979297   -3.4902673    1.4498728   293600 
 1135000   0.96519761   -3.4883231   -3.4883231   -2.0405316  0.043915132   -3.4883231    1.4477915   293600 
 1136000   0.96403915   -3.4872463   -3.4872463   -2.0411925  0.041945132   -3.4872463    1.4460538   293600 
 1137000   0.96534789     -3.48731     -3.48731   -2.0392931  0.042326708     -3.48731    1.4480169   293600 
 1138000   0.96418642   -3.4847769   -3.4847769   -2.0385022  0.046989897   -3.4847769    1.4462747   293600 
 1139000   0.96473278   -3.4861934   -3.4861934   -2.0390991  0.043467587   -3.4861934    1.4470942   293600 
 1140000   0.96305198   -3.4848822   -3.4848822   -2.0403092  0.042929688   -3.4848822    1.4445731   293600 
 1141000   0.96500114   -3.4880524   -3.4880524   -2.0405556  0.045917567   -3.4880524    1.4474968   293600 
 1142000   0.96583082   -3.4885169   -3.4885169   -2.0397756  0.052383483   -3.4885169    1.4487413   293600 
 1143000   0.96636738   -3.4881883   -3.4881883   -2.0386421  0.044173951   -3.4881883    1.4495461   293600 
 1144000   0.96526294   -3.4859212   -3.4859212   -2.0380318  0.043651454   -3.4859212    1.4478895   293600 
 1145000   0.96413415   -3.4846128   -3.4846128   -2.0384165  0.044074958   -3.4846128    1.4461963   293600 
 1146000   0.96379584   -3.4839072   -3.4839072   -2.0382183  0.046106701   -3.4839072    1.4456888   293600 
 1147000   0.96403324    -3.485109    -3.485109   -2.0390641  0.042552739    -3.485109    1.4460449   293600 
 1148000   0.96366905   -3.4837842   -3.4837842   -2.0382855   0.04649955   -3.4837842    1.4454987   293600 
 1149000    0.9646345   -3.4855231   -3.4855231   -2.0385763  0.047266778   -3.4855231    1.4469468   293600 
 1150000   0.96566205   -3.4872485   -3.4872485   -2.0387604  0.043365155   -3.4872485    1.4484881   293600 
 1151000   0.96528103   -3.4863988   -3.4863988   -2.0384822  0.042880293   -3.4863988    1.4479166   293600 
 1152000   0.96516311   -3.4860875   -3.4860875   -2.0383478  0.038633828   -3.4860875    1.4477397   293600 
 1153000   0.96421008   -3.4851954   -3.4851954   -2.0388852   0.03904183   -3.4851954    1.4463102   293600 
 1154000     0.962507   -3.4832372   -3.4832372   -2.0394816  0.042227029   -3.4832372    1.4437556   293600 
 1155000    0.9633637   -3.4825193   -3.4825193   -2.0374787  0.047578829   -3.4825193    1.4450406   293600 
 1156000   0.96442893   -3.4855227   -3.4855227   -2.0388843  0.043467057   -3.4855227    1.4466385   293600 
 1157000   0.96473569   -3.4847413   -3.4847413   -2.0376427  0.038562123   -3.4847413    1.4470986   293600 
 1158000   0.96496265   -3.4857017   -3.4857017   -2.0382627  0.048134927   -3.4857017     1.447439   293600 
 1159000    0.9632246   -3.4846373   -3.4846373   -2.0398053  0.043668958   -3.4846373     1.444832   293600 
 1160000   0.96453814   -3.4858328   -3.4858328   -2.0390305  0.046840226   -3.4858328    1.4468023   293600 
 1161000   0.96463535   -3.4862051   -3.4862051    -2.039257  0.034665803   -3.4862051    1.4469481   293600 
 1162000   0.96499765   -3.4856491   -3.4856491   -2.0381576  0.045057632   -3.4856491    1.4474915   293600 
 1163000   0.96301378   -3.4846723   -3.4846723   -2.0401565  0.044610881   -3.4846723    1.4445157   293600 
 1164000   0.96629863   -3.4891079   -3.4891079   -2.0396649  0.038909877   -3.4891079     1.449443   293600 
 1165000   0.96316374   -3.4846891   -3.4846891   -2.0399485  0.045079792   -3.4846891    1.4447407   293600 
 1166000    0.9639977   -3.4857858   -3.4857858   -2.0397942   0.04220013   -3.4857858    1.4459916   293600 
 1167000   0.96578487   -3.4873934   -3.4873934    -2.038721  0.045375159   -3.4873934    1.4486724   293600 
 1168000    0.9647861   -3.4857075   -3.4857075   -2.0385333  0.048362589   -3.4857075    1.4471742   293600 
 1169000   0.96483039   -3.4862602   -3.4862602   -2.0390195  0.042861107   -3.4862602    1.4472407   293600 
 1170000   0.96729132   -3.4891932   -3.4891932   -2.0382612  0.044993623   -3.4891932     1.450932   293600 
 1171000   0.96698714   -3.4889218   -3.4889218   -2.0384461  0.046327488   -3.4889218    1.4504758   293600 
 1172000   0.96743071   -3.4899797   -3.4899797   -2.0388385  0.045864662   -3.4899797    1.4511411   293600 
 1173000   0.96860104   -3.4918282   -3.4918282   -2.0389316  0.037072493   -3.4918282    1.4528966   293600 
 1174000    0.9678547   -3.4924447   -3.4924447   -2.0406676  0.046553328   -3.4924447    1.4517771   293600 
 1175000    0.9658985   -3.4910531   -3.4910531   -2.0422103  0.045214827   -3.4910531    1.4488428   293600 
 1176000    0.9662458   -3.4917494   -3.4917494   -2.0423856  0.047145329   -3.4917494    1.4493638   293600 
 1177000   0.96620792   -3.4911257   -3.4911257   -2.0418187  0.046446886   -3.4911257    1.4493069   293600 
 1178000   0.96571997   -3.4899224   -3.4899224   -2.0413474  0.042058578   -3.4899224     1.448575   293600 
 1179000   0.96432144   -3.4876115   -3.4876115   -2.0411342  0.047118369   -3.4876115    1.4464772   293600 
 1180000   0.96543606    -3.489946    -3.489946   -2.0417968  0.039130421    -3.489946    1.4481492   293600 
 1181000   0.96568538   -3.4892652   -3.4892652   -2.0407421  0.051971113   -3.4892652    1.4485231   293600 
 1182000   0.96421484    -3.489117    -3.489117   -2.0427996  0.053342268    -3.489117    1.4463173   293600 
 1183000   0.96819575   -3.4942888   -3.4942888   -2.0420001  0.037843794   -3.4942888    1.4522887   293600 
 1184000   0.96732207   -3.4928218   -3.4928218   -2.0418436  0.043340521   -3.4928218    1.4509782   293600 
 1185000   0.96584815   -3.4890989   -3.4890989   -2.0403316  0.047139738   -3.4890989    1.4487673   293600 
 1186000   0.96682326   -3.4898391   -3.4898391   -2.0396092  0.055789225   -3.4898391      1.45023   293600 
 1187000   0.96792309   -3.4914809   -3.4914809   -2.0396012  0.048007125   -3.4914809    1.4518797   293600 
 1188000    0.9676537   -3.4901286   -3.4901286    -2.038653  0.046455976   -3.4901286    1.4514756   293600 
 1189000   0.96778315   -3.4912675   -3.4912675   -2.0395977  0.043075187   -3.4912675    1.4516698   293600 
 1190000   0.96768962   -3.4917851   -3.4917851   -2.0402556  0.050504158   -3.4917851    1.4515295   293600 
 1191000   0.96493744   -3.4880964   -3.4880964   -2.0406952  0.050724111   -3.4880964    1.4474012   293600 
 1192000   0.96728708   -3.4899622   -3.4899622   -2.0390366  0.050474537   -3.4899622    1.4509257   293600 
 1193000    0.9670627   -3.4879413   -3.4879413   -2.0373522  0.051286443   -3.4879413    1.4505891   293600 
 1194000   0.96873998   -3.4897022   -3.4897022   -2.0365972   0.04624529   -3.4897022     1.453105   293600 
 1195000   0.96740025   -3.4871217   -3.4871217   -2.0360263  0.048884952   -3.4871217    1.4510954   293600 
 1196000   0.96598515   -3.4853881   -3.4853881   -2.0364153  0.042778936   -3.4853881    1.4489728   293600 
 1197000    0.9673739    -3.487366    -3.487366   -2.0363101  0.042544388    -3.487366    1.4510559   293600 
 1198000   0.96420458   -3.4821587   -3.4821587   -2.0358567  0.049942414   -3.4821587    1.4463019   293600 
 1199000   0.96615387   -3.4844592   -3.4844592   -2.0352333  0.040461219   -3.4844592    1.4492259   293600 
 1200000   0.96759919   -3.4853357   -3.4853357   -2.0339418  0.040646043   -3.4853357    1.4513938   293600 
 1201000   0.96483477   -3.4828258   -3.4828258   -2.0355786  0.040681335   -3.4828258    1.4472472   293600 
 1202000   0.96329225   -3.4818747   -3.4818747   -2.0369412  0.047789047   -3.4818747    1.4449334   293600 
 1203000    0.9666758   -3.4851149   -3.4851149   -2.0351062  0.043513309   -3.4851149    1.4500088   293600 
 1204000   0.96449906   -3.4820167   -3.4820167   -2.0352731   0.04577677   -3.4820167    1.4467437   293600 
 1205000   0.96518541   -3.4815808   -3.4815808   -2.0338076  0.047929905   -3.4815808    1.4477732   293600 
 1206000   0.96417078   -3.4806519   -3.4806519   -2.0344006   0.04497554   -3.4806519    1.4462512   293600 
 1207000   0.96456153   -3.4819686   -3.4819686   -2.0351312  0.037558736   -3.4819686    1.4468374   293600 
 1208000   0.96235208   -3.4783515   -3.4783515   -2.0348283   0.03972046   -3.4783515    1.4435232   293600 
 1209000   0.96482081   -3.4813356   -3.4813356   -2.0341093  0.037354341   -3.4813356    1.4472263   293600 
 1210000   0.96356881   -3.4790503   -3.4790503    -2.033702  0.038951749   -3.4790503    1.4453483   293600 
 1211000   0.96306492   -3.4783024   -3.4783024     -2.03371  0.045748503   -3.4783024    1.4445925   293600 
 1212000   0.96403872   -3.4802906   -3.4802906   -2.0342375  0.037123855   -3.4802906    1.4460532   293600 
 1213000   0.96386629   -3.4799846   -3.4799846   -2.0341901  0.046107041   -3.4799846    1.4457945   293600 
 1214000   0.96666323   -3.4834889   -3.4834889    -2.033499  0.036990499   -3.4834889    1.4499899   293600 
 1215000   0.96557122   -3.4800621   -3.4800621   -2.0317103  0.050692278   -3.4800621    1.4483519   293600 
 1216000   0.96558627   -3.4799587   -3.4799587   -2.0315842  0.046707772   -3.4799587    1.4483745   293600 
 1217000    0.9653685   -3.4783816   -3.4783816   -2.0303338   0.05236051   -3.4783816    1.4480478   293600 
 1218000   0.96667486   -3.4805911   -3.4805911   -2.0305838  0.046058066   -3.4805911    1.4500073   293600 
 1219000    0.9665997   -3.4806738   -3.4806738   -2.0307792  0.049664412   -3.4806738    1.4498946   293600 
 1220000   0.96504021   -3.4804196   -3.4804196   -2.0328643  0.045915771   -3.4804196    1.4475554   293600 
 1221000   0.96714153   -3.4830894   -3.4830894    -2.032382  0.044563995   -3.4830894    1.4507074   293600 
 1222000     0.967041     -3.48272     -3.48272   -2.0321634  0.043779391     -3.48272    1.4505566   293600 
 1223000   0.96614245   -3.4809597   -3.4809597    -2.031751  0.043573883   -3.4809597    1.4492087   293600 
 1224000   0.96613503   -3.4807514   -3.4807514   -2.0315538  0.043811549   -3.4807514    1.4491976   293600 
 1225000   0.96823206   -3.4822383   -3.4822383   -2.0298952  0.040307082   -3.4822383    1.4523431   293600 
 1226000   0.96783009   -3.4831351   -3.4831351    -2.031395  0.040320401   -3.4831351    1.4517402   293600 
 1227000   0.96814155   -3.4824838   -3.4824838   -2.0302764   0.04481338   -3.4824838    1.4522074   293600 
 1228000   0.96837485   -3.4824239   -3.4824239   -2.0298666  0.044137706   -3.4824239    1.4525573   293600 
 1229000   0.96841114   -3.4829952   -3.4829952   -2.0303834  0.050182363   -3.4829952    1.4526118   293600 
 1230000   0.96841972   -3.4832676   -3.4832676    -2.030643  0.054006994   -3.4832676    1.4526246   293600 
 1231000   0.96802562   -3.4826633   -3.4826633   -2.0306298  0.053389983   -3.4826633    1.4520335   293600 
 1232000   0.97022903   -3.4846882   -3.4846882   -2.0293496  0.047014904   -3.4846882    1.4553386   293600 
 1233000   0.96845758   -3.4823314   -3.4823314   -2.0296499  0.049594654   -3.4823314    1.4526814   293600 
 1234000   0.96787986   -3.4817485   -3.4817485   -2.0299337  0.047249656   -3.4817485    1.4518148   293600 
 1235000   0.96838305   -3.4824668   -3.4824668   -2.0298971  0.054016124   -3.4824668    1.4525696   293600 
 1236000   0.96745032   -3.4816668   -3.4816668   -2.0304963  0.049495615   -3.4816668    1.4511705   293600 
 1237000   0.96701219   -3.4812402   -3.4812402   -2.0307269  0.047477686   -3.4812402    1.4505133   293600 
 1238000   0.96723951   -3.4820265   -3.4820265   -2.0311722  0.041182232   -3.4820265    1.4508543   293600 
 1239000   0.96750519   -3.4810333   -3.4810333   -2.0297805  0.041115774   -3.4810333    1.4512528   293600 
 1240000   0.96701174   -3.4809874   -3.4809874   -2.0304747  0.046938153   -3.4809874    1.4505127   293600 
 1241000   0.96666587   -3.4802452   -3.4802452   -2.0302513  0.050662343   -3.4802452    1.4499939   293600 
 1242000   0.96637345   -3.4807831   -3.4807831   -2.0312279  0.045617535   -3.4807831    1.4495552   293600 
 1243000    0.9662531   -3.4804822   -3.4804822   -2.0311075   0.04724149   -3.4804822    1.4493747   293600 
 1244000    0.9660752   -3.4802257   -3.4802257   -2.0311178  0.045651253   -3.4802257    1.4491079   293600 
 1245000   0.96567126   -3.4799869   -3.4799869   -2.0314849  0.046200013   -3.4799869     1.448502   293600 
 1246000   0.96516237   -3.4785262   -3.4785262   -2.0307876  0.053682215   -3.4785262    1.4477386   293600 
 1247000   0.96844117   -3.4827826   -3.4827826   -2.0301258  0.043333429   -3.4827826    1.4526568   293600 
 1248000   0.96564709   -3.4796292   -3.4796292   -2.0311635  0.042817303   -3.4796292    1.4484657   293600 
 1249000   0.96586176   -3.4783724   -3.4783724   -2.0295847  0.037709666   -3.4783724    1.4487877   293600 
 1250000   0.96773733   -3.4809593   -3.4809593   -2.0293582  0.044336318   -3.4809593     1.451601   293600 
 1251000   0.96654292   -3.4806749   -3.4806749   -2.0308654  0.044003907   -3.4806749    1.4498094   293600 
 1252000   0.96697473   -3.4804798   -3.4804798   -2.0300227   0.03954446   -3.4804798    1.4504572   293600 
 1253000   0.96510389    -3.479543    -3.479543   -2.0318921  0.049254386    -3.479543    1.4476509   293600 
 1254000   0.96611224   -3.4805957   -3.4805957   -2.0314322  0.038678444   -3.4805957    1.4491634   293600 
 1255000   0.96647138     -3.48055     -3.48055   -2.0308478  0.040496255     -3.48055    1.4497021   293600 
 1256000   0.96541506   -3.4771048   -3.4771048   -2.0289872  0.049122097   -3.4771048    1.4481177   293600 
 1257000    0.9661095   -3.4791458   -3.4791458   -2.0299865  0.048557476   -3.4791458    1.4491593   293600 
 1258000   0.96624097   -3.4802442   -3.4802442   -2.0308876  0.047317155   -3.4802442    1.4493565   293600 
 1259000    0.9663451   -3.4799196   -3.4799196   -2.0304069  0.038882169   -3.4799196    1.4495127   293600 
 1260000   0.96675409   -3.4805185   -3.4805185   -2.0303923  0.048223423   -3.4805185    1.4501262   293600 
 1261000   0.96797908   -3.4816334   -3.4816334   -2.0296697  0.047443268   -3.4816334    1.4519637   293600 
 1262000   0.96720803   -3.4802803   -3.4802803   -2.0294732  0.052022785   -3.4802803    1.4508071   293600 
 1263000   0.96902864   -3.4823267   -3.4823267   -2.0287887  0.050405171   -3.4823267     1.453538   293600 
 1264000   0.96789117   -3.4817913   -3.4817913   -2.0299595  0.047899626   -3.4817913    1.4518318   293600 
 1265000   0.96731514   -3.4795064   -3.4795064   -2.0285386  0.050899499   -3.4795064    1.4509678   293600 
 1266000   0.96944322   -3.4829183   -3.4829183   -2.0287584  0.042460824   -3.4829183    1.4541599   293600 
 1267000   0.96974304   -3.4840202   -3.4840202   -2.0294106  0.046365794   -3.4840202    1.4546096   293600 
 1268000   0.96841203   -3.4817445   -3.4817445   -2.0291314   0.04740817   -3.4817445    1.4526131   293600 
 1269000   0.96840579   -3.4825339   -3.4825339   -2.0299302  0.037989799   -3.4825339    1.4526037   293600 
 1270000   0.96684859   -3.4808038   -3.4808038   -2.0305358  0.046471834   -3.4808038     1.450268   293600 
 1271000    0.9670392   -3.4809909   -3.4809909   -2.0304371  0.044379218   -3.4809909    1.4505539   293600 
 1272000   0.96618431   -3.4793385   -3.4793385    -2.030067  0.051024113   -3.4793385    1.4492715   293600 
 1273000   0.96771384   -3.4813501   -3.4813501   -2.0297842  0.043006869   -3.4813501    1.4515658   293600 
 1274000   0.96696297     -3.47933     -3.47933   -2.0288905  0.046424156     -3.47933    1.4504395   293600 
 1275000   0.96716102   -3.4782805   -3.4782805   -2.0275439  0.049952474   -3.4782805    1.4507366   293600 
 1276000   0.96675488   -3.4775328   -3.4775328   -2.0274054  0.047419742   -3.4775328    1.4501274   293600 
 1277000   0.96706072   -3.4778036   -3.4778036   -2.0272175  0.049713878   -3.4778036    1.4505861   293600 
 1278000    0.9684599   -3.4790933   -3.4790933   -2.0264084  0.048554562   -3.4790933    1.4526849   293600 
 1279000   0.96804281   -3.4790098   -3.4790098   -2.0269505  0.050560836   -3.4790098    1.4520593   293600 
 1280000   0.96749147   -3.4769332   -3.4769332   -2.0257009  0.051040286   -3.4769332    1.4512323   293600 
 1281000   0.96869537   -3.4794061   -3.4794061    -2.026368  0.040642618   -3.4794061    1.4530381   293600 
 1282000   0.96873244   -3.4788849   -3.4788849   -2.0257912  0.046190383   -3.4788849    1.4530937   293600 
 1283000   0.96796602    -3.477111    -3.477111   -2.0251669  0.043440989    -3.477111    1.4519441   293600 
 1284000   0.96707977   -3.4760064   -3.4760064   -2.0253916  0.040176919   -3.4760064    1.4506147   293600 
 1285000   0.96754637   -3.4767693   -3.4767693   -2.0254546  0.050044969   -3.4767693    1.4513146   293600 
 1286000   0.96779766   -3.4764909   -3.4764909   -2.0247994  0.041763185   -3.4764909    1.4516916   293600 
 1287000    0.9665761   -3.4732876   -3.4732876   -2.0234283  0.042860634   -3.4732876    1.4498592   293600 
 1288000   0.96585749   -3.4713564   -3.4713564   -2.0225751  0.038832106   -3.4713564    1.4487813   293600 
 1289000   0.96653356   -3.4731407   -3.4731407   -2.0233453  0.033839704   -3.4731407    1.4497954   293600 
 1290000   0.96729729   -3.4730834   -3.4730834   -2.0221424   0.03544081   -3.4730834     1.450941   293600 
 1291000   0.96608542   -3.4712354   -3.4712354   -2.0221122   0.04053451   -3.4712354    1.4491232   293600 
 1292000   0.96540476   -3.4709647   -3.4709647   -2.0228625  0.047589965   -3.4709647    1.4481022   293600 
 1293000   0.96528376   -3.4719287   -3.4719287    -2.024008  0.041093911   -3.4719287    1.4479207   293600 
 1294000    0.9669444   -3.4738424   -3.4738424   -2.0234308  0.049439925   -3.4738424    1.4504117   293600 
 1295000   0.96838122   -3.4744166   -3.4744166   -2.0218497  0.042869239   -3.4744166    1.4525669   293600 
 1296000   0.96559373   -3.4717047   -3.4717047   -2.0233191  0.042580022   -3.4717047    1.4483857   293600 
 1297000   0.96824565    -3.475037    -3.475037   -2.0226734  0.038690461    -3.475037    1.4523635   293600 
 1298000   0.96601106   -3.4713516   -3.4713516     -2.02234  0.040849795   -3.4713516    1.4490117   293600 
 1299000   0.96645625   -3.4703922   -3.4703922   -2.0207128   0.04746804   -3.4703922    1.4496794   293600 
 1300000   0.96744763    -3.471927    -3.471927   -2.0207605  0.040865522    -3.471927    1.4511665   293600 
 1301000   0.96712484   -3.4716687   -3.4716687   -2.0209864  0.040186182   -3.4716687    1.4506823   293600 
 1302000   0.96717755   -3.4721603   -3.4721603   -2.0213989  0.041647567   -3.4721603    1.4507614   293600 
 1303000   0.96691694   -3.4714832   -3.4714832   -2.0211128  0.041263371   -3.4714832    1.4503705   293600 
 1304000   0.96829701   -3.4743304   -3.4743304   -2.0218898  0.049065993   -3.4743304    1.4524406   293600 
 1305000   0.96620902    -3.470547    -3.470547   -2.0212384  0.047566516    -3.470547    1.4493086   293600 
 1306000   0.96691374   -3.4703764   -3.4703764   -2.0200107  0.041916214   -3.4703764    1.4503657   293600 
 1307000   0.96743244   -3.4696645   -3.4696645   -2.0185208  0.048628171   -3.4696645    1.4511437   293600 
 1308000   0.96780495   -3.4706395   -3.4706395    -2.018937  0.042010171   -3.4706395    1.4517025   293600 
 1309000   0.96862212   -3.4715367   -3.4715367   -2.0186085  0.040530649   -3.4715367    1.4529282   293600 
 1310000   0.97045272   -3.4735037   -3.4735037   -2.0178296  0.044412149   -3.4735037    1.4556741   293600 
 1311000   0.97060132   -3.4728355   -3.4728355   -2.0169385  0.051267165   -3.4728355     1.455897   293600 
 1312000   0.97085408   -3.4721398   -3.4721398   -2.0158636  0.051343838   -3.4721398    1.4562762   293600 
 1313000    0.9715032   -3.4729073   -3.4729073   -2.0156575  0.049378334   -3.4729073    1.4572498   293600 
 1314000   0.97131745   -3.4725394   -3.4725394   -2.0155682  0.042889431   -3.4725394    1.4569712   293600 
 1315000   0.96965334   -3.4698188   -3.4698188   -2.0153438   0.04762057   -3.4698188     1.454475   293600 
 1316000   0.96770936   -3.4679913   -3.4679913   -2.0164322  0.048085628   -3.4679913    1.4515591   293600 
 1317000   0.96987636   -3.4708205   -3.4708205   -2.0160109  0.047692911   -3.4708205    1.4548096   293600 
 1318000   0.96848815   -3.4685684   -3.4685684   -2.0158411  0.050427842   -3.4685684    1.4527273   293600 
 1319000   0.96903814   -3.4703469   -3.4703469   -2.0167947  0.046819196   -3.4703469    1.4535523   293600 
 1320000   0.96853335   -3.4702352   -3.4702352   -2.0174401  0.044241092   -3.4702352    1.4527951   293600 
 1321000   0.96879024   -3.4694677   -3.4694677   -2.0162873  0.050570836   -3.4694677    1.4531804   293600 
 1322000   0.96781717    -3.469238    -3.469238   -2.0175172  0.048915951    -3.469238    1.4517208   293600 
 1323000   0.96595282   -3.4672368   -3.4672368   -2.0183125  0.049817435   -3.4672368    1.4489243   293600 
 1324000   0.96675312   -3.4685497   -3.4685497    -2.018425  0.040442069   -3.4685497    1.4501247   293600 
 1325000   0.96664167   -3.4675463   -3.4675463   -2.0175888  0.048955409   -3.4675463    1.4499576   293600 
 1326000   0.96796723    -3.468774    -3.468774   -2.0168281   0.03842872    -3.468774    1.4519459   293600 
 1327000   0.96543776   -3.4656596   -3.4656596   -2.0175079  0.040388427   -3.4656596    1.4481517   293600 
 1328000   0.96703697   -3.4671818   -3.4671818   -2.0166312  0.038312235   -3.4671818    1.4505505   293600 
 1329000   0.96761883   -3.4662654   -3.4662654   -2.0148421  0.043666827   -3.4662654    1.4514233   293600 
 1330000   0.96689323   -3.4662092   -3.4662092   -2.0158743  0.037639685   -3.4662092    1.4503349   293600 
 1331000   0.96611031   -3.4646055   -3.4646055   -2.0154449  0.041539112   -3.4646055    1.4491605   293600 
 1332000   0.96745781   -3.4661247   -3.4661247   -2.0149429  0.041487339   -3.4661247    1.4511818   293600 
 1333000   0.96738802   -3.4660478   -3.4660478   -2.0149707  0.047178722   -3.4660478    1.4510771   293600 
 1334000    0.9670482    -3.467459    -3.467459   -2.0168917  0.044115171    -3.467459    1.4505674   293600 
 1335000   0.96687671   -3.4668557   -3.4668557   -2.0165456  0.046065469   -3.4668557    1.4503101   293600 
 1336000   0.96693889   -3.4660256   -3.4660256   -2.0156222  0.043235154   -3.4660256    1.4504034   293600 
 1337000   0.96883238   -3.4690829   -3.4690829   -2.0158393  0.047442553   -3.4690829    1.4532436   293600 
 1338000   0.96868373   -3.4670413   -3.4670413   -2.0140206  0.047586688   -3.4670413    1.4530206   293600 
 1339000   0.96984539   -3.4682003   -3.4682003   -2.0134371  0.046516706   -3.4682003    1.4547631   293600 
 1340000   0.96777159   -3.4650753   -3.4650753   -2.0134228  0.044692109   -3.4650753    1.4516524   293600 
 1341000   0.96800823   -3.4647919   -3.4647919   -2.0127845  0.051529716   -3.4647919    1.4520074   293600 
 1342000   0.96904329   -3.4677215   -3.4677215   -2.0141615  0.051652581   -3.4677215      1.45356   293600 
 1343000   0.96924757   -3.4695075   -3.4695075   -2.0156411  0.052214826   -3.4695075    1.4538664   293600 
 1344000    0.9694342   -3.4691231   -3.4691231   -2.0149768  0.052834926   -3.4691231    1.4541463   293600 
 1345000   0.97007313   -3.4697845   -3.4697845   -2.0146797  0.046827466   -3.4697845    1.4551047   293600 
 1346000   0.97027978   -3.4686479   -3.4686479   -2.0132331  0.046036124   -3.4686479    1.4554147   293600 
 1347000   0.97015488   -3.4694366   -3.4694366   -2.0142093  0.040939678   -3.4694366    1.4552274   293600 
 1348000   0.96926078   -3.4676757   -3.4676757   -2.0137895  0.050203654   -3.4676757    1.4538862   293600 
 1349000   0.96933501   -3.4676764   -3.4676764   -2.0136789  0.040026056   -3.4676764    1.4539976   293600 
 1350000   0.97043507   -3.4686937   -3.4686937    -2.013046  0.050269397   -3.4686937    1.4556477   293600 
 1351000   0.96933683   -3.4680285   -3.4680285   -2.0140282  0.052034955   -3.4680285    1.4540003   293600 
 1352000   0.96881272   -3.4686215   -3.4686215   -2.0154074  0.050447247   -3.4686215    1.4532141   293600 
 1353000   0.96810316   -3.4675242   -3.4675242   -2.0153744  0.049153287   -3.4675242    1.4521498   293600 
 1354000   0.96737285   -3.4677324   -3.4677324   -2.0166781  0.050600006   -3.4677324    1.4510543   293600 
 1355000   0.96850869   -3.4682758   -3.4682758   -2.0155178  0.051495983   -3.4682758    1.4527581   293600 
 1356000    0.9693642   -3.4689683   -3.4689683   -2.0149269  0.047151297   -3.4689683    1.4540413   293600 
 1357000   0.97044254   -3.4694849   -3.4694849    -2.013826   0.06016394   -3.4694849    1.4556589   293600 
 1358000   0.96938547   -3.4681987   -3.4681987   -2.0141254  0.053028062   -3.4681987    1.4540733   293600 
 1359000   0.97087689   -3.4704615   -3.4704615   -2.0141511  0.051597479   -3.4704615    1.4563104   293600 
 1360000   0.96941918   -3.4691916   -3.4691916   -2.0150678  0.053554986   -3.4691916    1.4541238   293600 
 1361000   0.97102244   -3.4697255   -3.4697255   -2.0131968  0.045684663   -3.4697255    1.4565287   293600 
 1362000   0.97103763   -3.4697922   -3.4697922   -2.0132407  0.051341907   -3.4697922    1.4565515   293600 
 1363000   0.96914438   -3.4678069   -3.4678069   -2.0140953  0.048643668   -3.4678069    1.4537116   293600 
 1364000   0.96789043   -3.4670551   -3.4670551   -2.0152244  0.047725079   -3.4670551    1.4518307   293600 
 1365000   0.96628053   -3.4654938   -3.4654938    -2.016078  0.039479319   -3.4654938    1.4494159   293600 
 1366000   0.96831895   -3.4683164   -3.4683164    -2.015843  0.044561876   -3.4683164    1.4524735   293600 
 1367000   0.96758358   -3.4662303   -3.4662303   -2.0148598  0.043317713   -3.4662303    1.4513704   293600 
 1368000   0.96594009    -3.464691    -3.464691   -2.0157858  0.040305686    -3.464691    1.4489052   293600 
 1369000   0.96464908   -3.4628504   -3.4628504   -2.0158817  0.043219103   -3.4628504    1.4469687   293600 
 1370000   0.96498373   -3.4634597   -3.4634597    -2.015989  0.040797979   -3.4634597    1.4474707   293600 
 1371000   0.96532619   -3.4635569   -3.4635569   -2.0155725  0.044164563   -3.4635569    1.4479844   293600 
 1372000   0.96832507   -3.4684685   -3.4684685   -2.0159859  0.038302542   -3.4684685    1.4524827   293600 
 1373000    0.9672881   -3.4657123   -3.4657123   -2.0147851  0.048084486   -3.4657123    1.4509272   293600 
 1374000   0.96679156   -3.4647484   -3.4647484    -2.014566  0.050263102   -3.4647484    1.4501824   293600 
 1375000   0.96890803    -3.467551    -3.467551   -2.0141939  0.044683209    -3.467551    1.4533571   293600 
 1376000   0.96963038   -3.4656778   -3.4656778   -2.0112372    0.0397455   -3.4656778    1.4544406   293600 
 1377000   0.96815139   -3.4633439   -3.4633439   -2.0111217  0.049582389   -3.4633439    1.4522221   293600 
 1378000   0.96972153   -3.4663276   -3.4663276   -2.0117503  0.046091616   -3.4663276    1.4545773   293600 
 1379000   0.97177102   -3.4684241   -3.4684241   -2.0107725  0.042645444   -3.4684241    1.4576516   293600 
 1380000   0.97076574   -3.4662554   -3.4662554   -2.0101117  0.058871894   -3.4662554    1.4561437   293600 
 1381000   0.96997321   -3.4662322   -3.4662322   -2.0112773  0.049899735   -3.4662322    1.4549549   293600 
 1382000    0.9699574   -3.4665438   -3.4665438   -2.0116127   0.05054259   -3.4665438    1.4549312   293600 
 1383000   0.96898479   -3.4648584   -3.4648584   -2.0113862  0.050620006   -3.4648584    1.4534722   293600 
 1384000   0.96946932    -3.466156    -3.466156    -2.011957  0.054758597    -3.466156     1.454199   293600 
 1385000   0.97156772   -3.4682403   -3.4682403   -2.0108937  0.053992075   -3.4682403    1.4573466   293600 
 1386000    0.9727331   -3.4688744   -3.4688744   -2.0097797  0.041587122   -3.4688744    1.4590947   293600 
 1387000   0.97188718   -3.4679592   -3.4679592   -2.0101334  0.045730915   -3.4679592    1.4578258   293600 
 1388000   0.97069232   -3.4643125   -3.4643125    -2.008279  0.054018348   -3.4643125    1.4560335   293600 
 1389000   0.97057858    -3.466067    -3.466067   -2.0102041  0.049452289    -3.466067    1.4558629   293600 
 1390000   0.96894213   -3.4617571   -3.4617571   -2.0083489  0.053647365   -3.4617571    1.4534082   293600 
 1391000   0.96961589   -3.4623539   -3.4623539    -2.007935  0.050220043   -3.4623539    1.4544189   293600 
 1392000   0.96970973   -3.4648865   -3.4648865   -2.0103269  0.042223887   -3.4648865    1.4545596   293600 
 1393000   0.96808335   -3.4619551   -3.4619551    -2.009835  0.042884735   -3.4619551    1.4521201   293600 
 1394000   0.96916511   -3.4628688   -3.4628688   -2.0091261  0.044870363   -3.4628688    1.4537427   293600 
 1395000   0.96846031   -3.4611282   -3.4611282   -2.0084427  0.048689509   -3.4611282    1.4526855   293600 
 1396000   0.97067423   -3.4632089   -3.4632089   -2.0072025  0.050467176   -3.4632089    1.4560064   293600 
 1397000   0.96892419   -3.4600313   -3.4600313     -2.00665  0.046492886   -3.4600313    1.4533813   293600 
 1398000   0.96902166   -3.4619338   -3.4619338   -2.0084063   0.04837145   -3.4619338    1.4535275   293600 
 1399000   0.96848916   -3.4610305   -3.4610305   -2.0083017  0.042212672   -3.4610305    1.4527288   293600 
 1400000   0.97033442    -3.461539    -3.461539   -2.0060423  0.044854694    -3.461539    1.4554967   293600 
 1401000   0.96944485   -3.4605141   -3.4605141   -2.0063518  0.050626944   -3.4605141    1.4541623   293600 
 1402000     0.969834   -3.4599732   -3.4599732   -2.0052272  0.049654211   -3.4599732    1.4547461   293600 
 1403000   0.96916986   -3.4584442   -3.4584442   -2.0046944    0.0485146   -3.4584442    1.4537498   293600 
 1404000   0.96831477    -3.457808    -3.457808   -2.0053408  0.047073538    -3.457808    1.4524672   293600 
 1405000   0.96813191   -3.4586816   -3.4586816   -2.0064887  0.049354184   -3.4586816    1.4521929   293600 
 1406000   0.96970127   -3.4604348   -3.4604348   -2.0058878  0.041042192   -3.4604348     1.454547   293600 
 1407000   0.96760094   -3.4575503   -3.4575503   -2.0061538  0.048821778   -3.4575503    1.4513965   293600 
 1408000   0.96827191   -3.4580917   -3.4580917   -2.0056888  0.047181503   -3.4580917    1.4524029   293600 
 1409000   0.96809537   -3.4572812   -3.4572812   -2.0051431  0.042926737   -3.4572812    1.4521381   293600 
 1410000   0.96808529   -3.4557323   -3.4557323   -2.0036093  0.043503324   -3.4557323     1.452123   293600 
 1411000   0.96795274   -3.4547015   -3.4547015   -2.0027773  0.037519385   -3.4547015    1.4519242   293600 
 1412000   0.96679057   -3.4552179   -3.4552179    -2.005037  0.048156142   -3.4552179    1.4501809   293600 
 1413000   0.96770406   -3.4564817   -3.4564817   -2.0049305  0.049162439   -3.4564817    1.4515511   293600 
 1414000   0.96928619   -3.4582911   -3.4582911   -2.0043667  0.037777825   -3.4582911    1.4539243   293600 
 1415000   0.96936847   -3.4574603   -3.4574603   -2.0034125  0.044969457   -3.4574603    1.4540478   293600 
 1416000   0.96997206   -3.4579506   -3.4579506   -2.0029975  0.046789823   -3.4579506    1.4549531   293600 
 1417000   0.96986107   -3.4574271   -3.4574271   -2.0026404  0.043911294   -3.4574271    1.4547867   293600 
 1418000   0.96851629   -3.4560823   -3.4560823   -2.0033128  0.048243416   -3.4560823    1.4527695   293600 
 1419000   0.97025616   -3.4570687   -3.4570687   -2.0016894  0.047074768   -3.4570687    1.4553793   293600 
 1420000   0.97086478   -3.4583845   -3.4583845   -2.0020923  0.056638491   -3.4583845    1.4562922   293600 
 1421000   0.97075596   -3.4582941   -3.4582941   -2.0021651  0.041150306   -3.4582941     1.456129   293600 
 1422000   0.97053385   -3.4589211   -3.4589211   -2.0031253  0.044697627   -3.4589211    1.4557958   293600 
 1423000   0.96982156   -3.4573924   -3.4573924    -2.002665  0.047796605   -3.4573924    1.4547274   293600 
 1424000   0.97047503   -3.4577639   -3.4577639   -2.0020564  0.046180782   -3.4577639    1.4557076   293600 
 1425000   0.97083404   -3.4574512   -3.4574512   -2.0012051  0.042228167   -3.4574512    1.4562461   293600 
 1426000    0.9716518   -3.4580417   -3.4580417    -2.000569  0.049188714   -3.4580417    1.4574727   293600 
 1427000   0.97247215   -3.4607061   -3.4607061   -2.0020028  0.052154758   -3.4607061    1.4587033   293600 
 1428000   0.97091851   -3.4571374   -3.4571374   -2.0007646  0.047926042   -3.4571374    1.4563728   293600 
 1429000   0.97125171   -3.4588014   -3.4588014   -2.0019288  0.045736271   -3.4588014    1.4568726   293600 
 1430000   0.97024849   -3.4557776   -3.4557776   -2.0004098  0.046075856   -3.4557776    1.4553678   293600 
 1431000   0.97169491   -3.4590755   -3.4590755   -2.0015381  0.048890119   -3.4590755    1.4575374   293600 
 1432000     0.971696   -3.4592213   -3.4592213   -2.0016823  0.049694453   -3.4592213     1.457539   293600 
 1433000   0.97326876   -3.4596711   -3.4596711    -1.999773  0.052392338   -3.4596711    1.4598982   293600 
 1434000   0.97044469   -3.4565643   -3.4565643   -2.0009022  0.053865517   -3.4565643    1.4556621   293600 
 1435000   0.97256889    -3.457555    -3.457555   -1.9987067  0.051626179    -3.457555    1.4588484   293600 
 1436000   0.97174593   -3.4566495   -3.4566495   -1.9990355  0.049855945   -3.4566495    1.4576139   293600 
 1437000   0.97148872    -3.457539    -3.457539   -2.0003109  0.048512466    -3.457539    1.4572281   293600 
 1438000   0.97165043   -3.4565475   -3.4565475   -1.9990769  0.046311988   -3.4565475    1.4574707   293600 
 1439000   0.97139117   -3.4555645   -3.4555645   -1.9984827  0.044121278   -3.4555645    1.4570818   293600 
 1440000   0.97144862   -3.4549462   -3.4549462   -1.9977783  0.051546016   -3.4549462     1.457168   293600 
 1441000   0.97115169   -3.4550123   -3.4550123   -1.9982897  0.045916553   -3.4550123    1.4567226   293600 
 1442000   0.97085718   -3.4551327   -3.4551327   -1.9988519  0.053056081   -3.4551327    1.4562808   293600 
 1443000   0.97093793   -3.4565092   -3.4565092   -2.0001073  0.044905258   -3.4565092    1.4564019   293600 
 1444000   0.97146523   -3.4553698   -3.4553698   -1.9981769  0.054020427   -3.4553698    1.4571929   293600 
 1445000   0.97216649   -3.4566024   -3.4566024   -1.9983576  0.044426765   -3.4566024    1.4582448   293600 
 1446000   0.97100842   -3.4541119   -3.4541119   -1.9976042  0.051125329   -3.4541119    1.4565077   293600 
 1447000   0.97004074   -3.4535264   -3.4535264   -1.9984702  0.045315093   -3.4535264    1.4550561   293600 
 1448000   0.96775123   -3.4504514   -3.4504514   -1.9988295  0.051547846   -3.4504514    1.4516219   293600 
 1449000   0.96956385   -3.4529374   -3.4529374   -1.9985966  0.046861765   -3.4529374    1.4543408   293600 
 1450000   0.96892429   -3.4517303   -3.4517303   -1.9983488  0.045256645   -3.4517303    1.4533815   293600 
 1451000   0.96787847   -3.4512104   -3.4512104   -1.9993976  0.042502044   -3.4512104    1.4518128   293600 
 1452000   0.96745556   -3.4499924   -3.4499924    -1.998814  0.038799587   -3.4499924    1.4511784   293600 
 1453000   0.96755861   -3.4503064   -3.4503064   -1.9989734  0.040090454   -3.4503064     1.451333   293600 
 1454000   0.96721853   -3.4493987   -3.4493987   -1.9985759  0.038766646   -3.4493987    1.4508228   293600 
 1455000   0.96718545   -3.4492859   -3.4492859   -1.9985126  0.041514018   -3.4492859    1.4507732   293600 
 1456000   0.96817284   -3.4495976   -3.4495976   -1.9973432  0.043614905   -3.4495976    1.4522543   293600 
 1457000   0.96923414   -3.4521187   -3.4521187   -1.9982724  0.037535575   -3.4521187    1.4538463   293600 
 1458000    0.9687925   -3.4510444   -3.4510444   -1.9978606   0.04630582   -3.4510444    1.4531838   293600 
 1459000   0.96675514   -3.4489411   -3.4489411   -1.9988134  0.044668738   -3.4489411    1.4501278   293600 
 1460000   0.96722122   -3.4492398   -3.4492398   -1.9984129  0.042703099   -3.4492398    1.4508269   293600 
 1461000   0.96996565   -3.4527745   -3.4527745    -1.997831  0.047692316   -3.4527745    1.4549435   293600 
 1462000   0.96846563   -3.4507112   -3.4507112   -1.9980177  0.052092501   -3.4507112    1.4526935   293600 
 1463000   0.96763912    -3.449542    -3.449542   -1.9980883  0.050744701    -3.449542    1.4514537   293600 
 1464000   0.96904903    -3.451767    -3.451767   -1.9981985  0.049056722    -3.451767    1.4535686   293600 
 1465000   0.96976831   -3.4520194   -3.4520194   -1.9973718  0.046648511   -3.4520194    1.4546475   293600 
 1466000   0.97173556   -3.4545726   -3.4545726   -1.9969743  0.044086036   -3.4545726    1.4575984   293600 
 1467000   0.97007518   -3.4529045   -3.4529045   -1.9977967  0.046437904   -3.4529045    1.4551078   293600 
 1468000   0.97077435   -3.4545535   -3.4545535   -1.9983969  0.045998004   -3.4545535    1.4561566   293600 
 1469000   0.96863459   -3.4515767   -3.4515767   -1.9986298   0.04814411   -3.4515767    1.4529469   293600 
 1470000    0.9696338   -3.4532417   -3.4532417    -1.998796  0.044761967   -3.4532417    1.4544458   293600 
 1471000   0.96884156   -3.4544345   -3.4544345   -2.0011772  0.044062914   -3.4544345    1.4532574   293600 
 1472000   0.97152053   -3.4575035   -3.4575035   -2.0002277  0.040380827   -3.4575035    1.4572758   293600 
 1473000   0.96925753   -3.4554591   -3.4554591   -2.0015778  0.044880617   -3.4554591    1.4538813   293600 
 1474000   0.96767155   -3.4543782   -3.4543782   -2.0028758  0.044362296   -3.4543782    1.4515024   293600 
 1475000   0.96960391   -3.4565153   -3.4565153   -2.0021143  0.047496617   -3.4565153    1.4544009   293600 
 1476000   0.96989269   -3.4550512   -3.4550512   -2.0002171  0.046317351   -3.4550512    1.4548341   293600 
 1477000    0.9683868   -3.4527183   -3.4527183    -2.000143  0.046824682   -3.4527183    1.4525753   293600 
 1478000   0.97120775   -3.4566804   -3.4566804   -1.9998737  0.046136776   -3.4566804    1.4568067   293600 
 1479000   0.97052121   -3.4552574   -3.4552574   -1.9994805  0.050121897   -3.4552574    1.4557769   293600 
 1480000   0.96939731   -3.4552253   -3.4552253   -2.0011342  0.049570948   -3.4552253     1.454091   293600 
 1481000   0.97029095   -3.4561483   -3.4561483   -2.0007169  0.047967033   -3.4561483    1.4554315   293600 
 1482000   0.97122743   -3.4578021   -3.4578021   -2.0009659  0.051834909   -3.4578021    1.4568362   293600 
 1483000   0.97103133   -3.4559926   -3.4559926   -1.9994505  0.050612837   -3.4559926     1.456542   293600 
 1484000   0.96995135   -3.4553094   -3.4553094   -2.0003874  0.053698028   -3.4553094    1.4549221   293600 
 1485000   0.97148256   -3.4573359   -3.4573359    -2.000117  0.049816144   -3.4573359    1.4572189   293600 
 1486000   0.97071717   -3.4566413   -3.4566413   -2.0005705  0.049605074   -3.4566413    1.4560708   293600 
 1487000    0.9711841   -3.4577212   -3.4577212     -2.00095  0.045728417   -3.4577212    1.4567712   293600 
 1488000   0.97225964   -3.4566253   -3.4566253   -1.9982409   0.04373732   -3.4566253    1.4583845   293600 
 1489000    0.9714037   -3.4562892   -3.4562892   -1.9991886  0.044420819   -3.4562892    1.4571006   293600 
 1490000   0.97130416   -3.4548308   -3.4548308   -1.9978795  0.044966792   -3.4548308    1.4569513   293600 
 1491000   0.97220674   -3.4553814   -3.4553814   -1.9970762  0.048959162   -3.4553814    1.4583051   293600 
 1492000   0.97095698   -3.4546711   -3.4546711   -1.9982405  0.052784919   -3.4546711    1.4564305   293600 
 1493000   0.97117236   -3.4557458   -3.4557458   -1.9989922  0.048727445   -3.4557458    1.4567536   293600 
 1494000    0.9714919   -3.4540777   -3.4540777   -1.9968448  0.052188132   -3.4540777    1.4572329   293600 
 1495000   0.97225467   -3.4564986   -3.4564986   -1.9981215  0.050878844   -3.4564986     1.458377   293600 
 1496000   0.97006694   -3.4529146   -3.4529146   -1.9978191   0.05427726   -3.4529146    1.4550955   293600 
 1497000   0.96956778   -3.4516722   -3.4516722   -1.9973254  0.047539537   -3.4516722    1.4543467   293600 
 1498000   0.97101264   -3.4551207   -3.4551207   -1.9986067  0.038396568   -3.4551207     1.456514   293600 
 1499000   0.96986433   -3.4525076   -3.4525076   -1.9977161  0.052177946   -3.4525076    1.4547915   293600 
 1500000   0.97143104   -3.4532796   -3.4532796    -1.996138   0.04709505   -3.4532796    1.4571416   293600 
 1501000   0.97002263   -3.4511145   -3.4511145   -1.9960855  0.047634903   -3.4511145     1.455029   293600 
 1502000   0.97022864   -3.4514733   -3.4514733   -1.9961353  0.043850778   -3.4514733     1.455338   293600 
 1503000   0.96981507   -3.4496499   -3.4496499   -1.9949322  0.043742734   -3.4496499    1.4547177   293600 
 1504000   0.97065592   -3.4510832   -3.4510832   -1.9951042  0.041354339   -3.4510832    1.4559789   293600 
 1505000   0.97145961   -3.4503055   -3.4503055   -1.9931211  0.047444045   -3.4503055    1.4571845   293600 
 1506000   0.97388719    -3.452924    -3.452924   -1.9920982  0.048892763    -3.452924    1.4608258   293600 
 1507000   0.97129026   -3.4488047   -3.4488047   -1.9918743  0.046526329   -3.4488047    1.4569304   293600 
 1508000   0.97421321   -3.4519659   -3.4519659   -1.9906511  0.046842205   -3.4519659    1.4613148   293600 
 1509000   0.97270036   -3.4497283   -3.4497283   -1.9906827  0.054633742   -3.4497283    1.4590456   293600 
 1510000   0.97198617   -3.4487005   -3.4487005   -1.9907262  0.048131652   -3.4487005    1.4579743   293600 
 1511000    0.9712455   -3.4485796   -3.4485796   -1.9917163  0.044575525   -3.4485796    1.4568633   293600 
 1512000   0.97119636   -3.4490317   -3.4490317   -1.9922421  0.048765398   -3.4490317    1.4567896   293600 
 1513000   0.97182857   -3.4485228   -3.4485228   -1.9907849  0.047668831   -3.4485228    1.4577379   293600 
 1514000   0.97169639   -3.4486283   -3.4486283   -1.9910886  0.043312915   -3.4486283    1.4575396   293600 
 1515000   0.97199844   -3.4475594   -3.4475594   -1.9895667  0.043190708   -3.4475594    1.4579927   293600 
 1516000   0.97071237   -3.4455253   -3.4455253   -1.9894617  0.042310714   -3.4455253    1.4560636   293600 
 1517000   0.97121994   -3.4450686   -3.4450686   -1.9882437  0.046450635   -3.4450686     1.456825   293600 
 1518000   0.97093585   -3.4443567   -3.4443567   -1.9879579   0.05048053   -3.4443567    1.4563988   293600 
 1519000   0.97140405   -3.4454342   -3.4454342   -1.9883331  0.044802589   -3.4454342    1.4571011   293600 
 1520000   0.97019264   -3.4415018   -3.4415018   -1.9862178  0.050907014   -3.4415018     1.455284   293600 
 1521000   0.97050245    -3.443165    -3.443165   -1.9874163  0.047212624    -3.443165    1.4557487   293600 
 1522000   0.97081359   -3.4423716   -3.4423716   -1.9861562  0.046315836   -3.4423716    1.4562154   293600 
 1523000   0.97361666    -3.448289    -3.448289    -1.987869  0.045753971    -3.448289      1.46042   293600 
 1524000   0.97296235   -3.4471088   -3.4471088   -1.9876702  0.043649279   -3.4471088    1.4594386   293600 
 1525000   0.96918145   -3.4414738   -3.4414738   -1.9877065  0.052496558   -3.4414738    1.4537672   293600 
 1526000   0.97361962   -3.4475102   -3.4475102   -1.9870857   0.04796505   -3.4475102    1.4604245   293600 
 1527000   0.97187813   -3.4458694   -3.4458694   -1.9880571  0.044076139   -3.4458694    1.4578122   293600 
 1528000   0.97076475   -3.4440288   -3.4440288   -1.9878866  0.044263873   -3.4440288    1.4561422   293600 
 1529000   0.96905303   -3.4417935   -3.4417935   -1.9882189  0.043836473   -3.4417935    1.4535746   293600 
 1530000   0.96983975   -3.4426846   -3.4426846     -1.98793  0.053321324   -3.4426846    1.4547547   293600 
 1531000   0.97212077   -3.4470427   -3.4470427   -1.9888665  0.045001633   -3.4470427    1.4581762   293600 
 1532000   0.96749799   -3.4405832   -3.4405832   -1.9893411  0.045134281   -3.4405832     1.451242   293600 
 1533000   0.97041935   -3.4449731   -3.4449731    -1.989349  0.047711493   -3.4449731    1.4556241   293600 
 1534000   0.96910015   -3.4437372   -3.4437372   -1.9900919  0.047308436   -3.4437372    1.4536453   293600 
 1535000   0.97045119   -3.4443987   -3.4443987   -1.9887269  0.038533283   -3.4443987    1.4556718   293600 
 1536000   0.96931219   -3.4423278   -3.4423278   -1.9883645  0.048965855   -3.4423278    1.4539633   293600 
 1537000    0.9725404    -3.447846    -3.447846   -1.9890403  0.039361358    -3.447846    1.4588056   293600 
 1538000   0.97213736   -3.4470049   -3.4470049   -1.9888038  0.048359011   -3.4470049    1.4582011   293600 
 1539000   0.97075499   -3.4445848   -3.4445848   -1.9884572  0.046162462   -3.4445848    1.4561275   293600 
 1540000   0.97159202   -3.4457724   -3.4457724   -1.9883894   0.04538599   -3.4457724    1.4573831   293600 
 1541000   0.97174465   -3.4464281   -3.4464281   -1.9888161  0.046990163   -3.4464281     1.457612   293600 
 1542000   0.97345784   -3.4479178   -3.4479178    -1.987736  0.048319028   -3.4479178    1.4601818   293600 
 1543000   0.97222476   -3.4457519   -3.4457519   -1.9874198  0.050373918   -3.4457519    1.4583322   293600 
 1544000   0.97204706   -3.4457955   -3.4457955   -1.9877298  0.048487285   -3.4457955    1.4580656   293600 
 1545000   0.97291702    -3.448405    -3.448405   -1.9890345  0.046794611    -3.448405    1.4593706   293600 
 1546000   0.97254169   -3.4476273   -3.4476273   -1.9888197  0.051734133   -3.4476273    1.4588076   293600 
 1547000   0.97373115   -3.4501321   -3.4501321   -1.9895404  0.047230506   -3.4501321    1.4605917   293600 
 1548000   0.97163436   -3.4469782   -3.4469782   -1.9895317   0.04971006   -3.4469782    1.4574466   293600 
 1549000   0.97164591   -3.4455721   -3.4455721   -1.9881082  0.047815955   -3.4455721    1.4574639   293600 
 1550000   0.97365243   -3.4502671   -3.4502671   -1.9897934  0.048479831   -3.4502671    1.4604737   293600 
 1551000   0.97291341   -3.4486394   -3.4486394   -1.9892743   0.04759323   -3.4486394    1.4593651   293600 
 1552000   0.97197554   -3.4482703   -3.4482703    -1.990312  0.043474695   -3.4482703    1.4579583   293600 
 1553000   0.97160358   -3.4480106   -3.4480106   -1.9906102  0.043828686   -3.4480106    1.4574004   293600 
 1554000    0.9725939   -3.4482201   -3.4482201   -1.9893342  0.044974714   -3.4482201    1.4588859   293600 
 1555000   0.97411169   -3.4506539   -3.4506539   -1.9894913  0.050808941   -3.4506539    1.4611626   293600 
 1556000   0.97218144   -3.4471627   -3.4471627   -1.9888955  0.046170608   -3.4471627    1.4582672   293600 
 1557000   0.97454689   -3.4503658   -3.4503658   -1.9885504  0.051724508   -3.4503658    1.4618154   293600 
 1558000   0.97274606   -3.4489583   -3.4489583   -1.9898442  0.058008913   -3.4489583    1.4591141   293600 
 1559000    0.9740243   -3.4491378   -3.4491378   -1.9881063  0.053153273   -3.4491378    1.4610315   293600 
 1560000   0.97448691   -3.4490793   -3.4490793    -1.987354  0.051051271   -3.4490793    1.4617254   293600 
 1561000   0.97438695   -3.4486477   -3.4486477   -1.9870723  0.049000893   -3.4486477    1.4615754   293600 
 1562000    0.9743467   -3.4483892   -3.4483892   -1.9868741  0.049298409   -3.4483892    1.4615151   293600 
 1563000   0.97112747   -3.4441995   -3.4441995   -1.9875132  0.059271172   -3.4441995    1.4566862   293600 
 1564000   0.97136191   -3.4442613   -3.4442613   -1.9872234  0.051727883   -3.4442613    1.4570379   293600 
 1565000   0.97194508   -3.4452586   -3.4452586   -1.9873459  0.044090973   -3.4452586    1.4579127   293600 
 1566000   0.97249553   -3.4464533   -3.4464533    -1.987715  0.051391089   -3.4464533    1.4587383   293600 
 1567000   0.97385068   -3.4485513   -3.4485513   -1.9877803  0.044558346   -3.4485513     1.460771   293600 
 1568000   0.97109033   -3.4448673   -3.4448673   -1.9882367  0.049184039   -3.4448673    1.4566305   293600 
 1569000   0.97069875   -3.4448105   -3.4448105   -1.9887673  0.043470091   -3.4448105    1.4560432   293600 
 1570000   0.97248757   -3.4453025   -3.4453025   -1.9865761  0.046531089   -3.4453025    1.4587264   293600 
 1571000   0.97213693   -3.4438919   -3.4438919   -1.9856914   0.04834296   -3.4438919    1.4582004   293600 
 1572000    0.9737079   -3.4450874   -3.4450874   -1.9845305  0.045220103   -3.4450874    1.4605569   293600 
 1573000   0.97393739   -3.4429229   -3.4429229   -1.9820218  0.047457548   -3.4429229    1.4609011   293600 
 1574000   0.97303707   -3.4423006   -3.4423006   -1.9827499   0.04905029   -3.4423006    1.4595506   293600 
 1575000   0.97291773   -3.4414167   -3.4414167   -1.9820451  0.049460598   -3.4414167    1.4593716   293600 
 1576000   0.97106572   -3.4381509   -3.4381509   -1.9815573  0.045734232   -3.4381509    1.4565936   293600 
 1577000    0.9704201   -3.4380047   -3.4380047   -1.9823795  0.051991449   -3.4380047    1.4556252   293600 
 1578000   0.97271163   -3.4419012   -3.4419012   -1.9828387  0.046784798   -3.4419012    1.4590625   293600 
 1579000   0.97071737   -3.4395606   -3.4395606   -1.9834895  0.046688367   -3.4395606    1.4560711   293600 
 1580000   0.97164984   -3.4413418   -3.4413418   -1.9838721  0.043362702   -3.4413418    1.4574698   293600 
 1581000   0.97144154   -3.4401052   -3.4401052   -1.9829478  0.049213394   -3.4401052    1.4571573   293600 
 1582000   0.97051671   -3.4363452   -3.4363452   -1.9805751  0.047023973   -3.4363452    1.4557701   293600 
 1583000    0.9717685   -3.4381828   -3.4381828    -1.980535  0.048264978   -3.4381828    1.4576478   293600 
 1584000    0.9716696   -3.4381204   -3.4381204    -1.980621  0.043455066   -3.4381204    1.4574994   293600 
 1585000   0.97118183    -3.437621    -3.437621   -1.9808532  0.044670501    -3.437621    1.4567678   293600 
 1586000   0.97178654   -3.4360795   -3.4360795   -1.9784047  0.050772983   -3.4360795    1.4576749   293600 
 1587000   0.97232892   -3.4384795   -3.4384795   -1.9799911  0.046684147   -3.4384795    1.4584884   293600 
 1588000   0.97140103   -3.4348042   -3.4348042   -1.9777077  0.047001691   -3.4348042    1.4570966   293600 
 1589000   0.97141187   -3.4362004   -3.4362004   -1.9790875  0.044859729   -3.4362004    1.4571128   293600 
 1590000   0.97245803    -3.436819    -3.436819   -1.9781369   0.04337533    -3.436819    1.4586821   293600 
 1591000   0.97471071   -3.4389931   -3.4389931    -1.976932   0.04225134   -3.4389931    1.4620611   293600 
 1592000   0.97198847   -3.4346476   -3.4346476   -1.9766699  0.045990052   -3.4346476    1.4579777   293600 
 1593000   0.97179391    -3.435663    -3.435663   -1.9779771  0.052864175    -3.435663    1.4576859   293600 
 1594000   0.97418974   -3.4387553   -3.4387553   -1.9774757  0.046683845   -3.4387553    1.4612796   293600 
 1595000   0.97489661   -3.4380514   -3.4380514   -1.9757114  0.049973404   -3.4380514    1.4623399   293600 
 1596000   0.97616581   -3.4377055   -3.4377055   -1.9734618  0.052230131   -3.4377055    1.4642437   293600 
 1597000   0.97399748   -3.4381894   -3.4381894   -1.9771981  0.055471875   -3.4381894    1.4609912   293600 
 1598000    0.9755712    -3.439276    -3.439276   -1.9759242  0.056299766    -3.439276    1.4633518   293600 
 1599000   0.97531827   -3.4387564   -3.4387564   -1.9757839  0.049638492   -3.4387564    1.4629724   293600 
 1600000   0.97430367   -3.4376333   -3.4376333   -1.9761827  0.051915148   -3.4376333    1.4614505   293600 
 1601000   0.97278065   -3.4360618   -3.4360618   -1.9768958  0.056527671   -3.4360618     1.459166   293600 
 1602000   0.97264224   -3.4345583   -3.4345583   -1.9755999  0.053461459   -3.4345583    1.4589584   293600 
 1603000    0.9723248   -3.4354132   -3.4354132    -1.976931  0.048690309   -3.4354132    1.4584822   293600 
 1604000   0.97105321   -3.4327623   -3.4327623   -1.9761875   0.04338365   -3.4327623    1.4565749   293600 
 1605000   0.97201145   -3.4340928   -3.4340928   -1.9760806  0.048464136   -3.4340928    1.4580122   293600 
 1606000   0.97232465   -3.4336064   -3.4336064   -1.9751244  0.058878957   -3.4336064     1.458482   293600 
 1607000   0.97215504   -3.4340436   -3.4340436    -1.975816  0.048170702   -3.4340436    1.4582276   293600 
 1608000   0.97463243   -3.4359701   -3.4359701   -1.9740264  0.050720615   -3.4359701    1.4619437   293600 
 1609000   0.97811194   -3.4400443   -3.4400443   -1.9728814  0.049852388   -3.4400443    1.4671629   293600 
 1610000   0.97504242   -3.4366652   -3.4366652   -1.9741065    0.0494993   -3.4366652    1.4625586   293600 
 1611000   0.97523946   -3.4367111   -3.4367111   -1.9738568  0.051102376   -3.4367111    1.4628542   293600 
 1612000   0.97467701   -3.4360865   -3.4360865    -1.974076  0.049047179   -3.4360865    1.4620105   293600 
 1613000   0.97452992   -3.4350527   -3.4350527   -1.9732628  0.053043724   -3.4350527    1.4617899   293600 
 1614000   0.97348043   -3.4329598   -3.4329598   -1.9727442  0.052735833   -3.4329598    1.4602157   293600 
 1615000   0.97411376   -3.4344011   -3.4344011   -1.9732354  0.050799304   -3.4344011    1.4611657   293600 
 1616000    0.9729547   -3.4342047   -3.4342047   -1.9747777  0.046467168   -3.4342047    1.4594271   293600 
 1617000   0.97488354   -3.4366706   -3.4366706   -1.9743502  0.043596385   -3.4366706    1.4623203   293600 
 1618000   0.97264165   -3.4341138   -3.4341138   -1.9751563  0.035809941   -3.4341138    1.4589575   293600 
 1619000   0.97286207   -3.4334376   -3.4334376   -1.9741495  0.046069392   -3.4334376    1.4592881   293600 
 1620000   0.97356252   -3.4338242   -3.4338242   -1.9734854  0.048213487   -3.4338242    1.4603388   293600 
 1621000   0.97344119   -3.4331354   -3.4331354   -1.9729786  0.050152401   -3.4331354    1.4601568   293600 
 1622000   0.97523628   -3.4344555   -3.4344555   -1.9716061  0.050911676   -3.4344555    1.4628494   293600 
 1623000   0.97401282   -3.4348582   -3.4348582   -1.9738439  0.039872636   -3.4348582    1.4610143   293600 
 1624000   0.97171395   -3.4300915   -3.4300915   -1.9725255  0.048954806   -3.4300915     1.457566   293600 
 1625000   0.97171199   -3.4310151   -3.4310151   -1.9734521  0.040748601   -3.4310151     1.457563   293600 
 1626000   0.97341569   -3.4340772   -3.4340772   -1.9739586   0.04577634   -3.4340772    1.4601186   293600 
 1627000   0.97473917   -3.4355958   -3.4355958    -1.973492  0.042577104   -3.4355958    1.4621038   293600 
 1628000   0.97358304   -3.4326608   -3.4326608   -1.9722912   0.04907774   -3.4326608    1.4603696   293600 
 1629000   0.97335652   -3.4325553   -3.4325553   -1.9725255  0.043519142   -3.4325553    1.4600298   293600 
 1630000   0.97379831    -3.432732    -3.432732   -1.9720395  0.037793097    -3.432732    1.4606925   293600 
 1631000   0.97408261    -3.431518    -3.431518   -1.9703991  0.044844422    -3.431518    1.4611189   293600 
 1632000   0.97482709   -3.4335035   -3.4335035   -1.9712678  0.044144263   -3.4335035    1.4622357   293600 
 1633000   0.97428099   -3.4321511   -3.4321511   -1.9707346  0.049008174   -3.4321511    1.4614165   293600 
 1634000   0.97447748   -3.4332893   -3.4332893    -1.971578  0.047878892   -3.4332893    1.4617112   293600 
 1635000   0.97593346   -3.4348185   -3.4348185   -1.9709233  0.050134742   -3.4348185    1.4638952   293600 
 1636000   0.97611315   -3.4350366   -3.4350366   -1.9708718  0.044760113   -3.4350366    1.4641647   293600 
 1637000   0.97326653   -3.4315842   -3.4315842   -1.9716893  0.054117593   -3.4315842    1.4598948   293600 
 1638000   0.97504963   -3.4331277   -3.4331277   -1.9705582  0.043184973   -3.4331277    1.4625695   293600 
 1639000   0.97743421   -3.4340074   -3.4340074   -1.9678611  0.053778006   -3.4340074    1.4661463   293600 
 1640000   0.97520011   -3.4325154   -3.4325154   -1.9697202  0.045046016   -3.4325154    1.4627952   293600 
 1641000   0.97547181   -3.4319988   -3.4319988   -1.9687961  0.049988105   -3.4319988    1.4632027   293600 
 1642000   0.97643641   -3.4342706   -3.4342706    -1.969621  0.045717485   -3.4342706    1.4646496   293600 
 1643000   0.97516613   -3.4336346   -3.4336346   -1.9708904  0.052840096   -3.4336346    1.4627442   293600 
 1644000    0.9740758   -3.4326562   -3.4326562   -1.9715475  0.049396548   -3.4326562    1.4611087   293600 
 1645000   0.97492991   -3.4334916   -3.4334916   -1.9711018  0.043533235   -3.4334916    1.4623899   293600 
 1646000   0.97536948   -3.4337407   -3.4337407   -1.9706915  0.049012018   -3.4337407    1.4630492   293600 
 1647000   0.97499074    -3.434883    -3.434883   -1.9724018  0.044383164    -3.434883    1.4624811   293600 
 1648000   0.97434246   -3.4332761   -3.4332761   -1.9717674  0.048389388   -3.4332761    1.4615087   293600 
 1649000   0.97411038   -3.4322932   -3.4322932   -1.9711326  0.048433065   -3.4322932    1.4611606   293600 
 1650000   0.97263378   -3.4299944   -3.4299944   -1.9710487  0.050426573   -3.4299944    1.4589457   293600 
 1651000   0.97585824   -3.4344233   -3.4344233   -1.9706409  0.051416245   -3.4344233    1.4637824   293600 
 1652000   0.97396228   -3.4325539   -3.4325539   -1.9716155   0.04802556   -3.4325539    1.4609384   293600 
 1653000   0.97446013   -3.4324119   -3.4324119   -1.9707267  0.050971589   -3.4324119    1.4616852   293600 
 1654000   0.97545556   -3.4349691   -3.4349691   -1.9717908  0.046775995   -3.4349691    1.4631784   293600 
 1655000   0.97416332   -3.4331234   -3.4331234   -1.9718834  0.050118588   -3.4331234      1.46124   293600 
 1656000   0.97405528   -3.4328692   -3.4328692   -1.9717912  0.050712621   -3.4328692    1.4610779   293600 
 1657000   0.97498828   -3.4332243   -3.4332243   -1.9707468   0.05275116   -3.4332243    1.4624774   293600 
 1658000   0.97566418   -3.4337483   -3.4337483    -1.970257  0.044053079   -3.4337483    1.4634913   293600 
 1659000   0.97431179   -3.4324385   -3.4324385   -1.9709758  0.057658645   -3.4324385    1.4614627   293600 
 1660000   0.97605351   -3.4338637   -3.4338637   -1.9697884  0.052371362   -3.4338637    1.4640753   293600 
 1661000   0.97580429   -3.4345893   -3.4345893   -1.9708878  0.052690817   -3.4345893    1.4637015   293600 
 1662000   0.97662357   -3.4347514   -3.4347514    -1.969821  0.051850811   -3.4347514    1.4649304   293600 
 1663000   0.97622386    -3.431834    -3.431834   -1.9675032  0.048742023    -3.431834    1.4643308   293600 
 1664000   0.97552508   -3.4324518   -3.4324518   -1.9691692  0.055450951   -3.4324518    1.4632826   293600 
 1665000   0.97715479   -3.4332114   -3.4332114   -1.9674842  0.050597034   -3.4332114    1.4657272   293600 
 1666000   0.97701706   -3.4340306   -3.4340306     -1.96851  0.047396934   -3.4340306    1.4655206   293600 
 1667000   0.97648383   -3.4322452   -3.4322452   -1.9675245   0.04518489   -3.4322452    1.4647207   293600 
 1668000   0.97441591    -3.429475    -3.429475   -1.9678561  0.049859622    -3.429475    1.4616189   293600 
 1669000   0.97442181   -3.4301688   -3.4301688    -1.968541  0.053353655   -3.4301688    1.4616277   293600 
 1670000   0.97539086   -3.4305569   -3.4305569   -1.9674756  0.057390065   -3.4305569    1.4630813   293600 
 1671000   0.97549823   -3.4325257   -3.4325257   -1.9692833  0.045818524   -3.4325257    1.4632424   293600 
 1672000   0.97370848   -3.4300473   -3.4300473   -1.9694896  0.050873705   -3.4300473    1.4605577   293600 
 1673000   0.97568695   -3.4311625   -3.4311625    -1.967637  0.046367176   -3.4311625    1.4635254   293600 
 1674000   0.97354027   -3.4270246   -3.4270246   -1.9667191  0.051756459   -3.4270246    1.4603054   293600 
 1675000   0.97418796   -3.4286472   -3.4286472   -1.9673702   0.04717046   -3.4286472     1.461277   293600 
 1676000   0.97636171   -3.4321025   -3.4321025    -1.967565  0.042818264   -3.4321025    1.4645376   293600 
 1677000   0.97246265   -3.4263226   -3.4263226   -1.9676336  0.048563283   -3.4263226     1.458689   293600 
 1678000   0.97074519    -3.425676    -3.425676   -1.9695631  0.050549255    -3.425676    1.4561128   293600 
 1679000   0.97279033   -3.4286926   -3.4286926   -1.9695121  0.049450622   -3.4286926    1.4591805   293600 
 1680000   0.97319154   -3.4290923   -3.4290923     -1.96931  0.044203665   -3.4290923    1.4597823   293600 
 1681000    0.9731676   -3.4279795   -3.4279795   -1.9682331  0.047565049   -3.4279795    1.4597464   293600 
 1682000   0.97182775   -3.4275176   -3.4275176    -1.969781  0.046343306   -3.4275176    1.4577367   293600 
 1683000   0.97323242   -3.4270423   -3.4270423   -1.9671986  0.041247623   -3.4270423    1.4598437   293600 
 1684000    0.9741543   -3.4279326   -3.4279326   -1.9667061  0.048422849   -3.4279326    1.4612265   293600 
 1685000   0.97225778    -3.427559    -3.427559   -1.9691773   0.04863348    -3.427559    1.4583817   293600 
 1686000   0.97406797   -3.4275616   -3.4275616   -1.9664646  0.043376984   -3.4275616     1.461097   293600 
 1687000   0.97340314   -3.4272543   -3.4272543   -1.9671545  0.047651438   -3.4272543    1.4600997   293600 
 1688000   0.97307939   -3.4271147   -3.4271147   -1.9675006  0.050967473   -3.4271147    1.4596141   293600 
 1689000   0.97429654   -3.4288534   -3.4288534   -1.9674135  0.047387466   -3.4288534    1.4614398   293600 
 1690000   0.97429048   -3.4286749   -3.4286749   -1.9672442  0.050934342   -3.4286749    1.4614307   293600 
 1691000   0.97432853   -3.4298428   -3.4298428    -1.968355   0.04737817   -3.4298428    1.4614878   293600 
 1692000   0.97248548   -3.4271243   -3.4271243   -1.9684011  0.055434676   -3.4271243    1.4587233   293600 
 1693000   0.97311661   -3.4294732   -3.4294732   -1.9698032  0.041083444   -3.4294732    1.4596699   293600 
 1694000   0.97176979   -3.4274972   -3.4274972   -1.9698474  0.043060624   -3.4274972    1.4576497   293600 
 1695000   0.97421144   -3.4283407   -3.4283407   -1.9670285  0.044719826   -3.4283407    1.4613122   293600 
 1696000   0.97394326   -3.4285132   -3.4285132   -1.9676033    0.0492596   -3.4285132    1.4609099   293600 
 1697000    0.9752425   -3.4310841   -3.4310841   -1.9682254  0.046515667   -3.4310841    1.4628588   293600 
 1698000   0.97652081   -3.4320184   -3.4320184   -1.9672422  0.049184085   -3.4320184    1.4647762   293600 
 1699000   0.97616657   -3.4299034   -3.4299034   -1.9656585  0.049230402   -3.4299034    1.4642449   293600 
 1700000   0.97702005   -3.4321022   -3.4321022   -1.9665771   0.05948291   -3.4321022    1.4655251   293600 
 1701000   0.97725004   -3.4331363   -3.4331363   -1.9672662  0.056652171   -3.4331363    1.4658701   293600 
 1702000   0.97479342   -3.4308089   -3.4308089   -1.9686237  0.054416517   -3.4308089    1.4621851   293600 
 1703000   0.97697051   -3.4317483   -3.4317483   -1.9662975  0.053307741   -3.4317483    1.4654508   293600 
 1704000   0.97555209   -3.4306691   -3.4306691   -1.9673459  0.056261732   -3.4306691    1.4633231   293600 
 1705000   0.97409367   -3.4295421   -3.4295421   -1.9684065  0.046765009   -3.4295421    1.4611355   293600 
 1706000    0.9755014   -3.4304714   -3.4304714   -1.9672243   0.05502293   -3.4304714    1.4632471   293600 
 1707000   0.97542755   -3.4297454   -3.4297454   -1.9666091  0.052119736   -3.4297454    1.4631363   293600 
 1708000   0.97354054   -3.4278498   -3.4278498   -1.9675439  0.049254797   -3.4278498    1.4603058   293600 
 1709000   0.97214872   -3.4252942   -3.4252942   -1.9670761  0.051689137   -3.4252942    1.4582181   293600 
 1710000   0.97488223   -3.4298546   -3.4298546   -1.9675362  0.042646035   -3.4298546    1.4623184   293600 
 1711000   0.97445517    -3.429763    -3.429763   -1.9680853  0.044169451    -3.429763    1.4616778   293600 
 1712000   0.97527802   -3.4299633   -3.4299633   -1.9670513  0.047803284   -3.4299633     1.462912   293600 
 1713000   0.97564512   -3.4302872   -3.4302872   -1.9668245  0.050484136   -3.4302872    1.4634627   293600 
 1714000   0.97683022    -3.430696    -3.430696   -1.9654556  0.057072565    -3.430696    1.4652403   293600 
 1715000   0.97827005   -3.4324265   -3.4324265   -1.9650264  0.049536215   -3.4324265    1.4674001   293600 
 1716000   0.97447582   -3.4281965   -3.4281965   -1.9664877  0.053159651   -3.4281965    1.4617088   293600 
 1717000    0.9746025   -3.4285379   -3.4285379   -1.9666391  0.047273719   -3.4285379    1.4618988   293600 
 1718000   0.97420897   -3.4270025   -3.4270025    -1.965694  0.049731255   -3.4270025    1.4613085   293600 
 1719000   0.97437129   -3.4258551   -3.4258551   -1.9643032   0.05173984   -3.4258551    1.4615519   293600 
 1720000    0.9751826   -3.4263024   -3.4263024   -1.9635335  0.046406151   -3.4263024    1.4627689   293600 
 1721000   0.97468167   -3.4264794   -3.4264794   -1.9644619  0.050128185   -3.4264794    1.4620175   293600 
 1722000   0.97281796   -3.4255872   -3.4255872   -1.9663652  0.047511819   -3.4255872     1.459222   293600 
 1723000   0.97391273   -3.4262679   -3.4262679   -1.9654038  0.045232306   -3.4262679    1.4608641   293600 
 1724000   0.97432808   -3.4263286   -3.4263286   -1.9648415  0.045979079   -3.4263286    1.4614871   293600 
 1725000   0.97373315   -3.4250301   -3.4250301   -1.9644353  0.050574783   -3.4250301    1.4605948   293600 
 1726000   0.97395316   -3.4244668   -3.4244668   -1.9635421  0.048858165   -3.4244668    1.4609248   293600 
 1727000   0.97596735   -3.4265858   -3.4265858   -1.9626398  0.047593778   -3.4265858     1.463946   293600 
 1728000   0.97431425   -3.4246427   -3.4246427   -1.9631763  0.050858472   -3.4246427    1.4614664   293600 
 1729000   0.97527354   -3.4281558   -3.4281558   -1.9652505  0.050482813   -3.4281558    1.4629053   293600 
 1730000   0.97517205   -3.4259938   -3.4259938   -1.9632407  0.050165436   -3.4259938    1.4627531   293600 
 1731000   0.97575092   -3.4263326   -3.4263326   -1.9627112  0.047050194   -3.4263326    1.4636214   293600 
 1732000   0.97439336    -3.424159    -3.424159    -1.962574  0.049264289    -3.424159    1.4615851   293600 
 1733000   0.97558812   -3.4255592   -3.4255592    -1.962182  0.045011286   -3.4255592    1.4633772   293600 
 1734000   0.97490217   -3.4247753   -3.4247753    -1.962427  0.046166358   -3.4247753    1.4623483   293600 
 1735000   0.97354356   -3.4238323   -3.4238323   -1.9635219  0.045177343   -3.4238323    1.4603104   293600 
 1736000   0.97524384    -3.426198    -3.426198   -1.9633373  0.047053183    -3.426198    1.4628608   293600 
 1737000   0.97514151   -3.4251214   -3.4251214   -1.9624141   0.04619977   -3.4251214    1.4627073   293600 
 1738000   0.97382675   -3.4220292   -3.4220292    -1.961294  0.050976591   -3.4220292    1.4607351   293600 
 1739000   0.97546686   -3.4242788   -3.4242788   -1.9610835  0.041489409   -3.4242788    1.4631953   293600 
 1740000   0.97478681   -3.4247112   -3.4247112    -1.962536  0.047784551   -3.4247112    1.4621752   293600 
 1741000   0.97630482   -3.4256875   -3.4256875   -1.9612353  0.044677803   -3.4256875    1.4644522   293600 
 1742000   0.97709325    -3.426648    -3.426648   -1.9610131  0.047341679    -3.426648    1.4656349   293600 
 1743000   0.97593793   -3.4235945   -3.4235945   -1.9596926  0.049727099   -3.4235945    1.4639019   293600 
 1744000   0.97764549   -3.4253592   -3.4253592    -1.958896  0.056096831   -3.4253592    1.4664632   293600 
 1745000   0.97900838   -3.4270873   -3.4270873   -1.9585797  0.053760847   -3.4270873    1.4685076   293600 
 1746000   0.97691193   -3.4254953   -3.4254953   -1.9601324  0.050297931   -3.4254953    1.4653629   293600 
 1747000   0.97677646   -3.4241699   -3.4241699   -1.9590102  0.054035846   -3.4241699    1.4651597   293600 
 1748000   0.97595373   -3.4222635   -3.4222635   -1.9583379  0.057277037   -3.4222635    1.4639256   293600 
 1749000   0.97670952   -3.4225481   -3.4225481   -1.9574888  0.051268122   -3.4225481    1.4650593   293600 
 1750000   0.97547305   -3.4217762   -3.4217762   -1.9585716    0.0538435   -3.4217762    1.4632046   293600 
 1751000   0.97571522   -3.4221366   -3.4221366   -1.9585688  0.045457644   -3.4221366    1.4635678   293600 
 1752000    0.9768056   -3.4237497   -3.4237497   -1.9585463   0.04443457   -3.4237497    1.4652034   293600 
 1753000   0.97630623    -3.423181    -3.423181   -1.9587267  0.043014649    -3.423181    1.4644543   293600 
 1754000   0.97526232   -3.4213507   -3.4213507   -1.9584622  0.053809565   -3.4213507    1.4628885   293600 
 1755000   0.97769418   -3.4240177   -3.4240177   -1.9574815  0.049660293   -3.4240177    1.4665363   293600 
 1756000   0.97878166   -3.4240355   -3.4240355    -1.955868  0.048324921   -3.4240355    1.4681675   293600 
 1757000   0.97673902     -3.42129     -3.42129   -1.9561864  0.049784008     -3.42129    1.4651035   293600 
 1758000   0.97758634   -3.4224523   -3.4224523   -1.9560778  0.049323627   -3.4224523    1.4663745   293600 
 1759000   0.97665212   -3.4217059   -3.4217059   -1.9567327   0.04750525   -3.4217059    1.4649732   293600 
 1760000   0.97740638   -3.4217429   -3.4217429   -1.9556383  0.049350466   -3.4217429    1.4661046   293600 
 1761000    0.9771947   -3.4206926   -3.4206926   -1.9549055  0.052096063   -3.4206926    1.4657871   293600 
 1762000   0.97575175   -3.4207605   -3.4207605   -1.9571379  0.048102765   -3.4207605    1.4636226   293600 
 1763000   0.97411537   -3.4193156   -3.4193156   -1.9581475  0.049661123   -3.4193156    1.4611681   293600 
 1764000   0.97474968   -3.4193583   -3.4193583   -1.9572388  0.047207038   -3.4193583    1.4621195   293600 
 1765000   0.97346047    -3.415666    -3.415666   -1.9554803  0.046353024    -3.415666    1.4601857   293600 
 1766000    0.9737049   -3.4182319   -3.4182319   -1.9576795  0.044919129   -3.4182319    1.4605524   293600 
 1767000   0.97388378   -3.4167715   -3.4167715   -1.9559508  0.053633771   -3.4167715    1.4608207   293600 
 1768000   0.97263981   -3.4162423   -3.4162423   -1.9572876  0.044665888   -3.4162423    1.4589547   293600 
 1769000   0.97528479   -3.4200851   -3.4200851   -1.9571629  0.044423378   -3.4200851    1.4629222   293600 
 1770000   0.97574091   -3.4208172   -3.4208172   -1.9572108  0.050796564   -3.4208172    1.4636064   293600 
 1771000   0.97644475   -3.4203573   -3.4203573   -1.9556952  0.041921722   -3.4203573    1.4646621   293600 
 1772000   0.97508725   -3.4190009   -3.4190009    -1.956375  0.049004467   -3.4190009    1.4626259   293600 
 1773000   0.97413664    -3.417927    -3.417927   -1.9567271  0.050357407    -3.417927       1.4612   293600 
 1774000   0.97486056   -3.4184295   -3.4184295   -1.9561436  0.043640386   -3.4184295    1.4622859   293600 
 1775000   0.97695878   -3.4200872   -3.4200872    -1.954654  0.045859947   -3.4200872    1.4654332   293600 
 1776000   0.97465148   -3.4170461   -3.4170461   -1.9550738  0.052513547   -3.4170461    1.4619722   293600 
 1777000   0.97551808    -3.418385    -3.418385   -1.9551128  0.048369152    -3.418385    1.4632721   293600 
 1778000    0.9752974   -3.4171281   -3.4171281    -1.954187  0.058359542   -3.4171281    1.4629411   293600 
 1779000   0.97519833    -3.418983    -3.418983   -1.9561904  0.053543562    -3.418983    1.4627925   293600 
 1780000   0.97782165   -3.4224087   -3.4224087   -1.9556813  0.049952156   -3.4224087    1.4667275   293600 
 1781000   0.97709912   -3.4199791   -3.4199791   -1.9543354  0.055787233   -3.4199791    1.4656437   293600 
 1782000   0.97635171   -3.4185044   -3.4185044   -1.9539818  0.051166576   -3.4185044    1.4645226   293600 
 1783000   0.97727768    -3.420326    -3.420326   -1.9544145   0.05681578    -3.420326    1.4659115   293600 
 1784000   0.97829277   -3.4227202   -3.4227202    -1.955286  0.058014662   -3.4227202    1.4674342   293600 
 1785000   0.97843928   -3.4220413   -3.4220413   -1.9543874  0.047781365   -3.4220413    1.4676539   293600 
 1786000   0.97820008   -3.4212643   -3.4212643   -1.9539692   0.05386395   -3.4212643    1.4672951   293600 
 1787000    0.9775828   -3.4212605   -3.4212605   -1.9548913  0.049396982   -3.4212605    1.4663692   293600 
 1788000   0.97731884   -3.4210781   -3.4210781   -1.9551048  0.053973833   -3.4210781    1.4659733   293600 
 1789000   0.97824296   -3.4225018   -3.4225018   -1.9551423   0.05931961   -3.4225018    1.4673594   293600 
 1790000   0.97885108    -3.422317    -3.422317   -1.9540454  0.058165802    -3.422317    1.4682716   293600 
 1791000   0.97969296   -3.4227545   -3.4227545   -1.9532201  0.044869801   -3.4227545    1.4695344   293600 
 1792000   0.97687587   -3.4207552   -3.4207552   -1.9554464  0.054503724   -3.4207552    1.4653088   293600 
 1793000   0.97708552   -3.4217814   -3.4217814   -1.9561581  0.051601722   -3.4217814    1.4656233   293600 
 1794000   0.97796511    -3.422337    -3.422337   -1.9553943  0.048903953    -3.422337    1.4669427   293600 
 1795000   0.97635591   -3.4219435   -3.4219435   -1.9574146  0.051032531   -3.4219435    1.4645289   293600 
 1796000   0.97651615   -3.4205409   -3.4205409   -1.9557717   0.04392652   -3.4205409    1.4647692   293600 
 1797000   0.97772392   -3.4209933   -3.4209933   -1.9544124  0.047142583   -3.4209933    1.4665809   293600 
 1798000   0.97530121   -3.4176024   -3.4176024   -1.9546556  0.049218195   -3.4176024    1.4629468   293600 
 1799000   0.97421159   -3.4162191   -3.4162191   -1.9549067  0.053981339   -3.4162191    1.4613124   293600 
 1800000   0.97509188   -3.4180729   -3.4180729     -1.95544  0.051556504   -3.4180729    1.4626328   293600 
 1801000   0.97650731   -3.4187789   -3.4187789   -1.9540229  0.052845172   -3.4187789     1.464756   293600 
 1802000   0.97818442     -3.42194     -3.42194   -1.9546684  0.050208371     -3.42194    1.4672716   293600 
 1803000   0.97462934   -3.4168168   -3.4168168   -1.9548778  0.050849889   -3.4168168     1.461939   293600 
 1804000    0.9769959   -3.4201267   -3.4201267   -1.9546378  0.050270851   -3.4201267    1.4654889   293600 
 1805000   0.97636486   -3.4193581   -3.4193581   -1.9548158  0.045254499   -3.4193581    1.4645423   293600 
 1806000   0.97591094   -3.4184969   -3.4184969   -1.9546355  0.040711821   -3.4184969    1.4638614   293600 
 1807000   0.97543673   -3.4162153   -3.4162153   -1.9530652  0.048004476   -3.4162153    1.4631501   293600 
 1808000   0.97513243   -3.4173613   -3.4173613   -1.9546677  0.046043698   -3.4173613    1.4626937   293600 
 1809000   0.97588516   -3.4190629   -3.4190629   -1.9552402  0.047020898   -3.4190629    1.4638228   293600 
 1810000   0.97628445   -3.4174108   -3.4174108   -1.9529891  0.042356065   -3.4174108    1.4644217   293600 
 1811000   0.97544315    -3.416627    -3.416627   -1.9534673  0.040614983    -3.416627    1.4631597   293600 
 1812000   0.97676373   -3.4190279   -3.4190279   -1.9538873  0.047158646   -3.4190279    1.4651406   293600 
 1813000   0.97388476   -3.4152376   -3.4152376   -1.9544155   0.04670528   -3.4152376    1.4608222   293600 
 1814000   0.97649003   -3.4182399   -3.4182399   -1.9535099  0.052672226   -3.4182399    1.4647301   293600 
 1815000   0.97826039   -3.4208958   -3.4208958   -1.9535102  0.043497723   -3.4208958    1.4673856   293600 
 1816000   0.97524844   -3.4165984   -3.4165984   -1.9537307  0.044859723   -3.4165984    1.4628677   293600 
 1817000   0.97474486   -3.4161776   -3.4161776   -1.9540653  0.048637161   -3.4161776    1.4621123   293600 
 1818000   0.97602847    -3.417207    -3.417207   -1.9531693  0.049707992    -3.417207    1.4640377   293600 
 1819000   0.97595349   -3.4187123   -3.4187123   -1.9547871  0.051546076   -3.4187123    1.4639252   293600 
 1820000   0.97645548    -3.417973    -3.417973   -1.9532947  0.051254146    -3.417973    1.4646782   293600 
 1821000   0.97596416   -3.4166406   -3.4166406   -1.9526993  0.039960941   -3.4166406    1.4639413   293600 
 1822000   0.97608255   -3.4167428   -3.4167428    -1.952624  0.045622078   -3.4167428    1.4641188   293600 
 1823000   0.97546705   -3.4164636   -3.4164636    -1.953268  0.054708306   -3.4164636    1.4631956   293600 
 1824000   0.98042268   -3.4221348   -3.4221348   -1.9515058  0.049960113   -3.4221348     1.470629   293600 
 1825000   0.97850961   -3.4194895   -3.4194895   -1.9517301  0.055724658   -3.4194895    1.4677594   293600 
 1826000   0.98084112   -3.4224045   -3.4224045   -1.9511478  0.049679314   -3.4224045    1.4712567   293600 
 1827000    0.9797973   -3.4227259   -3.4227259    -1.953035  0.052683339   -3.4227259    1.4696909   293600 
 1828000   0.98036264   -3.4231901   -3.4231901   -1.9526512  0.053779281   -3.4231901    1.4705389   293600 
 1829000   0.97990067   -3.4221963   -3.4221963   -1.9523503  0.053235454   -3.4221963     1.469846   293600 
 1830000   0.97709267   -3.4192397   -3.4192397   -1.9536057  0.051727806   -3.4192397     1.465634   293600 
 1831000   0.97779285   -3.4186892   -3.4186892   -1.9520049  0.051627868   -3.4186892    1.4666843   293600 
 1832000   0.97703745     -3.41811     -3.41811   -1.9525588  0.056593058     -3.41811    1.4655512   293600 
 1833000   0.97598815   -3.4160246   -3.4160246   -1.9520473  0.046724683   -3.4160246    1.4639772   293600 
 1834000   0.97673375   -3.4178779   -3.4178779   -1.9527822  0.055986729   -3.4178779    1.4650956   293600 
 1835000   0.97643648   -3.4180637   -3.4180637   -1.9534139  0.046494667   -3.4180637    1.4646497   293600 
 1836000   0.97667691   -3.4176683   -3.4176683   -1.9526579   0.05556131   -3.4176683    1.4650104   293600 
 1837000   0.98012431   -3.4223485   -3.4223485    -1.952167  0.050162426   -3.4223485    1.4701815   293600 
 1838000   0.97782743   -3.4177632   -3.4177632    -1.951027  0.051003541   -3.4177632    1.4667361   293600 
 1839000   0.97684293   -3.4174392   -3.4174392   -1.9521798  0.050116845   -3.4174392    1.4652594   293600 
 1840000   0.97660819   -3.4167007   -3.4167007   -1.9517934  0.054408651   -3.4167007    1.4649073   293600 
 1841000   0.97634594   -3.4147743   -3.4147743   -1.9502604  0.048647559   -3.4147743    1.4645139   293600 
 1842000   0.97960742   -3.4185949   -3.4185949   -1.9491888  0.050195773   -3.4185949    1.4694061   293600 
 1843000   0.97754831   -3.4152107   -3.4152107   -1.9488933  0.048455385   -3.4152107    1.4663175   293600 
 1844000   0.97823103   -3.4163742   -3.4163742   -1.9490327  0.053159443   -3.4163742    1.4673415   293600 
 1845000   0.97697068    -3.414173    -3.414173    -1.948722   0.04602903    -3.414173     1.465451   293600 
 1846000   0.97619424   -3.4123097   -3.4123097   -1.9480233   0.05163656   -3.4123097    1.4642864   293600 
 1847000   0.97602315   -3.4122153   -3.4122153   -1.9481856   0.04812976   -3.4122153    1.4640297   293600 
 1848000   0.97610268   -3.4126254   -3.4126254   -1.9484763  0.041447778   -3.4126254     1.464149   293600 
 1849000   0.97524645   -3.4110879   -3.4110879   -1.9482232  0.052875683   -3.4110879    1.4628647   293600 
 1850000   0.97801059   -3.4128921   -3.4128921   -1.9458812  0.042755613   -3.4128921    1.4670109   293600 
 1851000   0.97545871   -3.4110687   -3.4110687   -1.9478857  0.045035775   -3.4110687    1.4631831   293600 
 1852000   0.97477326   -3.4103995   -3.4103995   -1.9482446  0.046226623   -3.4103995    1.4621549   293600 
 1853000   0.97415277   -3.4079245   -3.4079245   -1.9467003  0.050630585   -3.4079245    1.4612242   293600 
 1854000    0.9763373   -3.4103535   -3.4103535   -1.9458525  0.051354212   -3.4103535     1.464501   293600 
 1855000   0.97715832   -3.4102263   -3.4102263   -1.9444938  0.049339665   -3.4102263    1.4657325   293600 
 1856000   0.97829134   -3.4105816   -3.4105816   -1.9431496  0.043110902   -3.4105816     1.467432   293600 
 1857000   0.97939978   -3.4114835   -3.4114835   -1.9423888  0.048187449   -3.4114835    1.4690947   293600 
 1858000   0.97852941   -3.4108816   -3.4108816   -1.9430925  0.048055171   -3.4108816    1.4677891   293600 
 1859000   0.97709205   -3.4086008   -3.4086008   -1.9429677  0.052654407   -3.4086008    1.4656331   293600 
 1860000   0.97650003   -3.4088516   -3.4088516   -1.9441066  0.042642496   -3.4088516    1.4647451   293600 
 1861000   0.97589073   -3.4059948   -3.4059948   -1.9421637  0.046762864   -3.4059948    1.4638311   293600 
 1862000   0.97828511   -3.4097125   -3.4097125   -1.9422899  0.053811535   -3.4097125    1.4674227   293600 
 1863000   0.97713492   -3.4089754   -3.4089754    -1.943278  0.043991158   -3.4089754    1.4656974   293600 
 1864000    0.9778382   -3.4088975   -3.4088975   -1.9421452  0.050706554   -3.4088975    1.4667523   293600 
 1865000   0.97608375   -3.4051558   -3.4051558   -1.9410351   0.04382711   -3.4051558    1.4641206   293600 
 1866000   0.97770208    -3.409142    -3.409142   -1.9425939  0.046032095    -3.409142    1.4665481   293600 
 1867000   0.97661839   -3.4078615   -3.4078615   -1.9429389  0.055739659   -3.4078615    1.4649226   293600 
 1868000   0.97806261   -3.4114881   -3.4114881   -1.9443992  0.048394304   -3.4114881    1.4670889   293600 
 1869000   0.97849684   -3.4130654   -3.4130654   -1.9453251  0.039873118   -3.4130654    1.4677403   293600 
 1870000   0.97399548   -3.4076256   -3.4076256   -1.9466374  0.042724707   -3.4076256    1.4609882   293600 
 1871000   0.97596791   -3.4088761   -3.4088761   -1.9449293  0.053852983   -3.4088761    1.4639469   293600 
 1872000   0.97784258   -3.4120706   -3.4120706   -1.9453117  0.051311799   -3.4120706    1.4667589   293600 
 1873000   0.97613891   -3.4083576   -3.4083576   -1.9441542  0.055174104   -3.4083576    1.4642034   293600 
 1874000   0.97770666   -3.4109826   -3.4109826   -1.9444276  0.049197167   -3.4109826     1.466555   293600 
 1875000   0.97664461   -3.4110321   -3.4110321   -1.9460702  0.046917544   -3.4110321    1.4649619   293600 
 1876000   0.97720513   -3.4126836   -3.4126836   -1.9468809  0.041214866   -3.4126836    1.4658027   293600 
 1877000   0.97599292   -3.4099034   -3.4099034    -1.945919  0.044048787   -3.4099034    1.4639844   293600 
 1878000   0.97833903   -3.4143689   -3.4143689   -1.9468653  0.046573275   -3.4143689    1.4675035   293600 
 1879000   0.97809554   -3.4140816   -3.4140816   -1.9469433  0.054915747   -3.4140816    1.4671383   293600 
 1880000   0.97937487   -3.4160593   -3.4160593    -1.947002  0.046255005   -3.4160593    1.4690573   293600 
 1881000   0.97968637   -3.4146077   -3.4146077   -1.9450831  0.049183838   -3.4146077    1.4695246   293600 
 1882000   0.98039461   -3.4163426   -3.4163426   -1.9457557  0.050039481   -3.4163426    1.4705869   293600 
 1883000    0.9776024    -3.412528    -3.412528   -1.9461294  0.053425696    -3.412528    1.4663986   293600 
 1884000   0.98021661    -3.417867    -3.417867   -1.9475471  0.050298164    -3.417867    1.4703199   293600 
 1885000   0.97983629   -3.4182492   -3.4182492   -1.9484997    0.0554132   -3.4182492    1.4697494   293600 
 1886000   0.97740144    -3.413754    -3.413754   -1.9476568  0.053064641    -3.413754    1.4660972   293600 
 1887000   0.97878887   -3.4159196   -3.4159196   -1.9477413  0.058998281   -3.4159196    1.4681783   293600 
 1888000   0.97782465   -3.4157359   -3.4157359   -1.9490039  0.053901252   -3.4157359     1.466732   293600 
 1889000   0.97831804    -3.415111    -3.415111   -1.9476389  0.055475747    -3.415111    1.4674721   293600 
 1890000   0.97889052   -3.4170531   -3.4170531   -1.9487223  0.047156909   -3.4170531    1.4683308   293600 
 1891000   0.97800278   -3.4161257   -3.4161257   -1.9491266   0.05171036   -3.4161257    1.4669992   293600 
 1892000   0.97822118   -3.4167758   -3.4167758    -1.949449  0.050200676   -3.4167758    1.4673268   293600 
 1893000    0.9789735   -3.4160117   -3.4160117   -1.9475564  0.046755511   -3.4160117    1.4684553   293600 
 1894000   0.97979826   -3.4176429   -3.4176429   -1.9479505  0.051774881   -3.4176429    1.4696924   293600 
 1895000   0.97854954   -3.4169777   -3.4169777   -1.9491584  0.052401308   -3.4169777    1.4678193   293600 
 1896000   0.97859511   -3.4162779   -3.4162779   -1.9483903  0.051554967   -3.4162779    1.4678877   293600 
 1897000   0.97788019   -3.4164941   -3.4164941   -1.9496788  0.055593128   -3.4164941    1.4668153   293600 
 1898000    0.9777416   -3.4159156   -3.4159156   -1.9493082  0.052710615   -3.4159156    1.4666074   293600 
 1899000   0.97841332   -3.4164705   -3.4164705   -1.9488556  0.049189871   -3.4164705     1.467615   293600 
 1900000   0.97668292   -3.4142182   -3.4142182   -1.9491989  0.051416338   -3.4142182    1.4650194   293600 
 1901000   0.97600886   -3.4122345   -3.4122345   -1.9482262  0.049804845   -3.4122345    1.4640083   293600 
 1902000   0.97676039   -3.4129171   -3.4129171   -1.9477815  0.051161491   -3.4129171    1.4651356   293600 
 1903000   0.97547048   -3.4108361   -3.4108361   -1.9476354  0.051449176   -3.4108361    1.4632007   293600 
 1904000    0.9774555   -3.4152378   -3.4152378   -1.9490595    0.0523234   -3.4152378    1.4661783   293600 
 1905000   0.97499685    -3.411941    -3.411941   -1.9494507  0.049908121    -3.411941    1.4624903   293600 
 1906000   0.97744289   -3.4146318   -3.4146318   -1.9484724  0.051554696   -3.4146318    1.4661593   293600 
 1907000   0.97809154   -3.4166634   -3.4166634    -1.949531  0.042681831   -3.4166634    1.4671323   293600 
 1908000   0.97551435   -3.4115179   -3.4115179   -1.9482513  0.053368029   -3.4115179    1.4632665   293600 
 1909000   0.97839596   -3.4152612   -3.4152612   -1.9476722  0.038909966   -3.4152612    1.4675889   293600 
 1910000   0.97993988   -3.4159959   -3.4159959    -1.946091  0.046896484   -3.4159959    1.4699048   293600 
 1911000   0.97823151    -3.413985    -3.413985   -1.9466428  0.046417845    -3.413985    1.4673423   293600 
 1912000   0.97738394   -3.4115298   -3.4115298   -1.9454589  0.044890408   -3.4115298    1.4660709   293600 
 1913000   0.97498773   -3.4097319   -3.4097319   -1.9472553  0.047393782   -3.4097319    1.4624766   293600 
 1914000      0.97659   -3.4119101   -3.4119101   -1.9470301  0.043154212   -3.4119101      1.46488   293600 
 1915000   0.97810012   -3.4121875   -3.4121875   -1.9450423  0.051565077   -3.4121875    1.4671452   293600 
 1916000   0.97837243   -3.4117471   -3.4117471   -1.9441934   0.04977704   -3.4117471    1.4675536   293600 
 1917000   0.97822937   -3.4114005   -3.4114005   -1.9440615  0.053753077   -3.4114005    1.4673391   293600 
 1918000    0.9785772   -3.4108885   -3.4108885   -1.9430277  0.049367363   -3.4108885    1.4678608   293600 
 1919000   0.97670909   -3.4098477   -3.4098477   -1.9447891   0.04880469   -3.4098477    1.4650587   293600 
 1920000   0.97844942   -3.4117977   -3.4117977   -1.9441286  0.049855669   -3.4117977    1.4676691   293600 
 1921000   0.97850226    -3.410876    -3.410876   -1.9431276  0.052577852    -3.410876    1.4677484   293600 
 1922000   0.97895702   -3.4097057   -3.4097057   -1.9412752  0.056573202   -3.4097057    1.4684305   293600 
 1923000   0.97836957     -3.41046     -3.41046   -1.9429106  0.049308254     -3.41046    1.4675494   293600 
 1924000   0.97734973    -3.409989    -3.409989   -1.9439694  0.048728502    -3.409989    1.4660196   293600 
 1925000   0.97907782   -3.4105462   -3.4105462   -1.9419344  0.052350676   -3.4105462    1.4686117   293600 
 1926000    0.9791748   -3.4102608   -3.4102608   -1.9415036  0.045818129   -3.4102608    1.4687572   293600 
 1927000   0.97683193   -3.4069617   -3.4069617   -1.9417188  0.054129693   -3.4069617    1.4652429   293600 
 1928000    0.9767888   -3.4071617   -3.4071617   -1.9419835  0.049435092   -3.4071617    1.4651782   293600 
 1929000   0.97716267   -3.4084987   -3.4084987   -1.9427597  0.050787706   -3.4084987     1.465739   293600 
 1930000   0.97583241   -3.4054913   -3.4054913   -1.9417477  0.044672274   -3.4054913    1.4637436   293600 
 1931000   0.97690744   -3.4068157   -3.4068157   -1.9414595  0.045463312   -3.4068157    1.4653562   293600 
 1932000   0.97947952   -3.4108056   -3.4108056   -1.9415913  0.047417136   -3.4108056    1.4692143   293600 
 1933000   0.97730442   -3.4065486   -3.4065486    -1.940597  0.050576238   -3.4065486    1.4659516   293600 
 1934000   0.97698221   -3.4067348   -3.4067348   -1.9412665  0.051317643   -3.4067348    1.4654683   293600 
 1935000   0.97669589    -3.406644    -3.406644   -1.9416052   0.05821646    -3.406644    1.4650389   293600 
 1936000   0.97901079   -3.4083632   -3.4083632    -1.939852  0.050038875   -3.4083632    1.4685112   293600 
 1937000   0.97751087   -3.4066117   -3.4066117   -1.9403504  0.042731119   -3.4066117    1.4662613   293600 
 1938000    0.9766151   -3.4056676   -3.4056676     -1.94075  0.044638448   -3.4056676    1.4649177   293600 
 1939000   0.97583946   -3.4049288   -3.4049288   -1.9411746  0.049633747   -3.4049288    1.4637542   293600 
 1940000   0.97703119    -3.406373    -3.406373   -1.9408313  0.041643378    -3.406373    1.4655418   293600 
 1941000   0.97528919    -3.405875    -3.405875   -1.9429462  0.048605765    -3.405875    1.4629288   293600 
 1942000   0.97543394   -3.4059004   -3.4059004   -1.9427544  0.043014359   -3.4059004    1.4631459   293600 
 1943000   0.97797261    -3.407895    -3.407895    -1.940941  0.039116884    -3.407895    1.4669539   293600 
 1944000   0.97664176   -3.4054234   -3.4054234   -1.9404657  0.048374681   -3.4054234    1.4649577   293600 
 1945000   0.97608468   -3.4061316   -3.4061316   -1.9420095   0.04949556   -3.4061316     1.464122   293600 
 1946000   0.97806023   -3.4086569   -3.4086569   -1.9415715  0.047059066   -3.4086569    1.4670854   293600 
 1947000   0.97866943   -3.4088562   -3.4088562    -1.940857  0.040472153   -3.4088562    1.4679991   293600 
 1948000   0.97916234   -3.4088562   -3.4088562   -1.9401177  0.044879128   -3.4088562    1.4687385   293600 
 1949000   0.97890401   -3.4085862   -3.4085862   -1.9402352   0.05090645   -3.4085862     1.468351   293600 
 1950000   0.97831206   -3.4066064   -3.4066064   -1.9391434  0.054353237   -3.4066064    1.4674631   293600 
 1951000   0.97878015   -3.4097666   -3.4097666   -1.9416014  0.044964975   -3.4097666    1.4681652   293600 
 1952000   0.97782379   -3.4075582   -3.4075582   -1.9408275  0.053141087   -3.4075582    1.4667307   293600 
 1953000   0.97715217     -3.40849     -3.40849   -1.9427667   0.05373613     -3.40849    1.4657233   293600 
 1954000   0.97799587   -3.4108357   -3.4108357   -1.9438469  0.049117445   -3.4108357    1.4669888   293600 
 1955000   0.97724206    -3.409878    -3.409878   -1.9440199  0.058662479    -3.409878    1.4658581   293600 
 1956000   0.97834709   -3.4118502   -3.4118502   -1.9443346  0.044861186   -3.4118502    1.4675156   293600 
 1957000   0.97823738   -3.4117061   -3.4117061    -1.944355  0.050321933   -3.4117061    1.4673511   293600 
 1958000   0.97709298   -3.4101928   -3.4101928   -1.9445583  0.048404133   -3.4101928    1.4656345   293600 
 1959000   0.97763364   -3.4105119   -3.4105119   -1.9440664  0.050909477   -3.4105119    1.4664455   293600 
 1960000   0.97878458   -3.4114946   -3.4114946   -1.9433228  0.050504205   -3.4114946    1.4681719   293600 
 1961000   0.97793696   -3.4114329   -3.4114329   -1.9445325  0.048831338   -3.4114329    1.4669004   293600 
 1962000   0.97909483    -3.411208    -3.411208   -1.9425708  0.058005681    -3.411208    1.4686372   293600 
 1963000   0.97872298   -3.4111589   -3.4111589   -1.9430794  0.051309972   -3.4111589    1.4680795   293600 
 1964000    0.9786955   -3.4116355   -3.4116355   -1.9435972  0.051666768   -3.4116355    1.4680383   293600 
 1965000   0.98021022    -3.413633    -3.413633   -1.9433227  0.052674081    -3.413633    1.4703103   293600 
 1966000   0.97944631    -3.413307    -3.413307   -1.9441426  0.050888369    -3.413307    1.4691645   293600 
 1967000   0.97820293    -3.411414    -3.411414   -1.9441146  0.051725137    -3.411414    1.4672994   293600 
 1968000   0.97984163   -3.4135195   -3.4135195    -1.943762  0.053279901   -3.4135195    1.4697574   293600 
 1969000   0.97890723   -3.4130772   -3.4130772   -1.9447214  0.047368222   -3.4130772    1.4683558   293600 
 1970000   0.97815467   -3.4115754   -3.4115754   -1.9443484  0.050844481   -3.4115754     1.467227   293600 
 1971000   0.97912965   -3.4148925   -3.4148925    -1.946203  0.049903272   -3.4148925    1.4686895   293600 
 1972000   0.97901598   -3.4139866   -3.4139866   -1.9454676  0.055320592   -3.4139866     1.468519   293600 
 1973000   0.97770568   -3.4117317   -3.4117317   -1.9451782  0.052103533   -3.4117317    1.4665535   293600 
 1974000   0.97913711   -3.4126996   -3.4126996   -1.9439989  0.054308789   -3.4126996    1.4687007   293600 
 1975000   0.97844285   -3.4110875   -3.4110875   -1.9434282  0.054073836   -3.4110875    1.4676593   293600 
 1976000   0.97829369   -3.4116582   -3.4116582   -1.9442227  0.054031715   -3.4116582    1.4674355   293600 
 1977000   0.97790609   -3.4105515   -3.4105515   -1.9436973  0.058842334   -3.4105515    1.4668541   293600 
 1978000   0.97944012   -3.4132065   -3.4132065   -1.9440513  0.051133527   -3.4132065    1.4691552   293600 
 1979000   0.97939717   -3.4143988   -3.4143988   -1.9453081  0.054591902   -3.4143988    1.4690907   293600 
 1980000   0.97744734   -3.4120774   -3.4120774   -1.9459114  0.055631788   -3.4120774     1.466166   293600 
 1981000   0.97819262   -3.4125002   -3.4125002   -1.9452163  0.057636068   -3.4125002    1.4672839   293600 
 1982000   0.97906996   -3.4131881   -3.4131881   -1.9445882  0.051426828   -3.4131881    1.4685999   293600 
 1983000   0.97985977   -3.4113084   -3.4113084   -1.9415238  0.052583384   -3.4113084    1.4697846   293600 
 1984000   0.97918873   -3.4099808   -3.4099808   -1.9412027  0.052757665   -3.4099808    1.4687781   293600 
 1985000   0.97863137   -3.4088081   -3.4088081   -1.9408661   0.05303155   -3.4088081    1.4679421   293600 
 1986000   0.97822818   -3.4072534   -3.4072534   -1.9399161  0.052212577   -3.4072534    1.4673373   293600 
 1987000   0.97905426    -3.409086    -3.409086   -1.9405096  0.054006966    -3.409086    1.4685764   293600 
 1988000   0.97987733   -3.4079212   -3.4079212   -1.9381102  0.047221961   -3.4079212     1.469811   293600 
 1989000   0.97842957   -3.4071389   -3.4071389   -1.9394995  0.046935583   -3.4071389    1.4676394   293600 
 1990000   0.97746294   -3.4053872   -3.4053872   -1.9391978  0.056404495   -3.4053872    1.4661894   293600 
 1991000   0.97890115   -3.4074005   -3.4074005   -1.9390537  0.052411576   -3.4074005    1.4683467   293600 
 1992000   0.97984726   -3.4081354   -3.4081354   -1.9383695  0.052021235   -3.4081354    1.4697659   293600 
 1993000   0.98005514   -3.4082241   -3.4082241   -1.9381464  0.054215219   -3.4082241    1.4700777   293600 
 1994000   0.97752303   -3.4033529   -3.4033529   -1.9370734  0.054072991   -3.4033529    1.4662795   293600 
 1995000   0.97938302   -3.4036005   -3.4036005   -1.9345309  0.055414784   -3.4036005    1.4690695   293600 
 1996000   0.98029934   -3.4057378   -3.4057378   -1.9352938  0.049954303   -3.4057378     1.470444   293600 
 1997000   0.97850287   -3.4044286   -3.4044286   -1.9366793  0.056492085   -3.4044286    1.4677493   293600 
 1998000    0.9783725   -3.4037871   -3.4037871   -1.9362334  0.042363729   -3.4037871    1.4675538   293600 
 1999000   0.98113924   -3.4070056   -3.4070056   -1.9353018  0.044021436   -3.4070056    1.4717039   293600 
 2000000   0.97594143   -3.4008226   -3.4008226   -1.9369154  0.045702931   -3.4008226    1.4639072   293600 
 2001000   0.97887292   -3.4054957   -3.4054957   -1.9371913  0.040888038   -3.4054957    1.4683044   293600 
 2002000   0.97881594   -3.4042141   -3.4042141   -1.9359952  0.040843346   -3.4042141    1.4682189   293600 
 2003000   0.97821484   -3.4015213   -3.4015213   -1.9342041  0.049812198   -3.4015213    1.4673173   293600 
 2004000    0.9770039   -3.4002283   -3.4002283   -1.9347275  0.044380129   -3.4002283    1.4655009   293600 
 2005000   0.97695899   -3.3999575   -3.3999575    -1.934524  0.048571804   -3.3999575    1.4654335   293600 
 2006000   0.97813217   -3.4021526   -3.4021526   -1.9349593  0.049555831   -3.4021526    1.4671933   293600 
 2007000   0.97733346   -3.4021471   -3.4021471   -1.9361519  0.045531951   -3.4021471    1.4659952   293600 
 2008000    0.9792939   -3.4007413   -3.4007413   -1.9318055  0.044145407   -3.4007413    1.4689358   293600 
 2009000   0.98011173   -3.4028445   -3.4028445   -1.9326819  0.046221548   -3.4028445    1.4701626   293600 
 2010000    0.9793637   -3.4001637   -3.4001637   -1.9311232  0.054313403   -3.4001637    1.4690405   293600 
 2011000   0.97990857   -3.4011235   -3.4011235   -1.9312657  0.045840954   -3.4011235    1.4698578   293600 
 2012000   0.97886065   -3.3998669   -3.3998669   -1.9315809  0.051673435   -3.3998669     1.468286   293600 
 2013000   0.97952417   -3.3997232   -3.3997232    -1.930442  0.052410761   -3.3997232    1.4692812   293600 
 2014000    0.9793493   -3.4002927   -3.4002927   -1.9312738  0.051354162   -3.4002927    1.4690189   293600 
 2015000   0.97935658   -3.3999806   -3.3999806   -1.9309507   0.05276316   -3.3999806    1.4690299   293600 
 2016000   0.97746504   -3.3978615   -3.3978615   -1.9316689  0.050675264   -3.3978615    1.4661926   293600 
 2017000   0.97949291   -3.4006135   -3.4006135   -1.9313792  0.053054473   -3.4006135    1.4692344   293600 
 2018000   0.97944907   -3.4007273   -3.4007273   -1.9315587  0.055020695   -3.4007273    1.4691686   293600 
 2019000   0.97890271   -3.3983962   -3.3983962   -1.9300472  0.053819635   -3.3983962    1.4683491   293600 
 2020000   0.97937678   -3.3985582   -3.3985582   -1.9294981  0.047731568   -3.3985582    1.4690602   293600 
 2021000   0.97933781   -3.3983024   -3.3983024   -1.9293006  0.048560729   -3.3983024    1.4690017   293600 
 2022000   0.98170671    -3.402093    -3.402093   -1.9295379  0.049962066    -3.402093    1.4725551   293600 
 2023000   0.97944975   -3.3994936   -3.3994936    -1.930324  0.055656702   -3.3994936    1.4691696   293600 
 2024000   0.97939402   -3.4009751   -3.4009751   -1.9318891  0.045966171   -3.4009751     1.469086   293600 
 2025000    0.9779724   -3.3980168   -3.3980168   -1.9310632   0.04928543   -3.3980168    1.4669536   293600 
 2026000   0.97883954   -3.3993159   -3.3993159   -1.9310616   0.05566296   -3.3993159    1.4682543   293600 
 2027000   0.97864535   -3.4002214   -3.4002214   -1.9322583  0.055782739   -3.4002214     1.467963   293600 
 2028000   0.97638135   -3.3996113   -3.3996113   -1.9350442  0.052494175   -3.3996113     1.464567   293600 
 2029000   0.97771095   -3.4007973   -3.4007973   -1.9342359  0.046298073   -3.4007973    1.4665614   293600 
 2030000   0.97753636   -3.3992445   -3.3992445   -1.9329449   0.04580317   -3.3992445    1.4662995   293600 
 2031000   0.97757425   -3.4003778   -3.4003778   -1.9340214  0.043708449   -3.4003778    1.4663564   293600 
 2032000   0.97953658   -3.4033044   -3.4033044   -1.9340045  0.042455308   -3.4033044    1.4692999   293600 
 2033000    0.9784252   -3.4011102   -3.4011102   -1.9334774  0.049192988   -3.4011102    1.4676328   293600 
 2034000   0.97792128   -3.4003559   -3.4003559    -1.933479  0.050443141   -3.4003559    1.4668769   293600 
 2035000   0.97891781   -3.4034517   -3.4034517     -1.93508  0.053461376   -3.4034517    1.4683717   293600 
 2036000    0.9816503   -3.4070319   -3.4070319   -1.9345614  0.051088946   -3.4070319    1.4724704   293600 
 2037000   0.98089257   -3.4031339   -3.4031339   -1.9318001  0.057855218   -3.4031339    1.4713338   293600 
 2038000   0.97873521   -3.4017809   -3.4017809   -1.9336831  0.057319123   -3.4017809    1.4680978   293600 
 2039000   0.97979519   -3.4039046   -3.4039046   -1.9342168  0.051461544   -3.4039046    1.4696878   293600 
 2040000   0.97828222   -3.4022126   -3.4022126   -1.9347943  0.048603581   -3.4022126    1.4674183   293600 
 2041000   0.97897753   -3.4024173   -3.4024173    -1.933956   0.04886125   -3.4024173    1.4684613   293600 
 2042000   0.97895077   -3.4028655   -3.4028655   -1.9344444  0.047876397   -3.4028655    1.4684211   293600 
 2043000   0.97814304   -3.4036763   -3.4036763   -1.9364667  0.052519229   -3.4036763    1.4672096   293600 
 2044000   0.97798166   -3.4033713   -3.4033713   -1.9364038  0.048447654   -3.4033713    1.4669675   293600 
 2045000   0.97887688   -3.4045335   -3.4045335   -1.9362232  0.052291168   -3.4045335    1.4683103   293600 
 2046000   0.98122124   -3.4072849   -3.4072849   -1.9354581  0.055983775   -3.4072849    1.4718268   293600 
 2047000   0.98225233   -3.4078125   -3.4078125   -1.9344391   0.04668091   -3.4078125    1.4733735   293600 
 2048000   0.97974685   -3.4047215   -3.4047215   -1.9351062  0.052213443   -3.4047215    1.4696153   293600 
 2049000   0.97971397   -3.4055431   -3.4055431   -1.9359771  0.056281264   -3.4055431     1.469566   293600 
 2050000   0.97931726   -3.4051721   -3.4051721   -1.9362012  0.058405355   -3.4051721    1.4689709   293600 
 2051000   0.98005593   -3.4079225   -3.4079225   -1.9378436  0.053412709   -3.4079225    1.4700789   293600 
 2052000   0.98016832   -3.4082179   -3.4082179   -1.9379705  0.058084843   -3.4082179    1.4702475   293600 
 2053000   0.98015172   -3.4082508   -3.4082508   -1.9380282  0.052189036   -3.4082508    1.4702226   293600 
 2054000   0.97950997   -3.4072083   -3.4072083   -1.9379484  0.055730262   -3.4072083      1.46926   293600 
 2055000   0.98203608   -3.4093074   -3.4093074   -1.9362583  0.054330583   -3.4093074    1.4730491   293600 
 2056000   0.97941349   -3.4071062   -3.4071062    -1.937991  0.052585332   -3.4071062    1.4691152   293600 
 2057000   0.98040031   -3.4083554   -3.4083554     -1.93776   0.04830721   -3.4083554    1.4705955   293600 
 2058000    0.9783616   -3.4055385   -3.4055385   -1.9380011  0.051759009   -3.4055385    1.4675374   293600 
 2059000   0.97955209   -3.4056316   -3.4056316   -1.9363084  0.055847013   -3.4056316    1.4693231   293600 
 2060000    0.9777337   -3.4033305   -3.4033305   -1.9367349  0.053435437   -3.4033305    1.4665956   293600 
 2061000   0.97916303   -3.4055971   -3.4055971   -1.9368575  0.053171219   -3.4055971    1.4687395   293600 
 2062000   0.97886136   -3.4040461   -3.4040461    -1.935759  0.055332646   -3.4040461     1.468287   293600 
 2063000   0.97934223   -3.4037568   -3.4037568   -1.9347485  0.058712168   -3.4037568    1.4690083   293600 
 2064000   0.98070605   -3.4062284   -3.4062284   -1.9351743   0.05209221   -3.4062284    1.4710541   293600 
 2065000   0.97916972   -3.4041924   -3.4041924   -1.9354428  0.059290577   -3.4041924    1.4687496   293600 
 2066000   0.98069362   -3.4056605   -3.4056605   -1.9346251  0.052176656   -3.4056605    1.4710354   293600 
 2067000    0.9823234   -3.4068024   -3.4068024   -1.9333223  0.052366586   -3.4068024    1.4734801   293600 
 2068000   0.97985796   -3.4033857   -3.4033857   -1.9336037  0.055332928   -3.4033857    1.4697819   293600 
 2069000   0.98036137   -3.4031726   -3.4031726   -1.9326355  0.054256713   -3.4031726     1.470537   293600 
 2070000   0.98077617   -3.4023735   -3.4023735   -1.9312142  0.060098365   -3.4023735    1.4711593   293600 
 2071000   0.98037597   -3.4016977   -3.4016977   -1.9311388  0.050690736   -3.4016977     1.470559   293600 
 2072000   0.97935363   -3.4017249   -3.4017249   -1.9326995  0.049617518   -3.4017249    1.4690254   293600 
 2073000     0.980318   -3.4017433   -3.4017433   -1.9312714  0.054944294   -3.4017433     1.470472   293600 
 2074000   0.98098959   -3.4012667   -3.4012667   -1.9297873  0.053460888   -3.4012667    1.4714794   293600 
 2075000   0.98006944   -3.4009771   -3.4009771    -1.930878  0.048092921   -3.4009771    1.4700992   293600 
 2076000    0.9799577   -3.3991015   -3.3991015   -1.9291699  0.051507435   -3.3991015    1.4699315   293600 
 2077000   0.97906064   -3.3980001   -3.3980001   -1.9294141  0.054540486   -3.3980001     1.468586   293600 
 2078000   0.98052788   -3.3992393   -3.3992393   -1.9284525  0.047615698   -3.3992393    1.4707868   293600 
 2079000   0.98055101   -3.3974818   -3.3974818   -1.9266602  0.047041845   -3.3974818    1.4708215   293600 
 2080000   0.97939329   -3.3959779   -3.3959779    -1.926893  0.049591835   -3.3959779    1.4690849   293600 
 2081000   0.98085724    -3.397282    -3.397282   -1.9260011  0.051248788    -3.397282    1.4712809   293600 
 2082000   0.97980562    -3.397211    -3.397211   -1.9275075   0.05178076    -3.397211    1.4697034   293600 
 2083000   0.98099633   -3.3971756   -3.3971756   -1.9256862  0.049825724   -3.3971756    1.4714895   293600 
 2084000   0.97763037   -3.3916091   -3.3916091   -1.9251686  0.058734651   -3.3916091    1.4664406   293600 
 2085000   0.97892997   -3.3948746   -3.3948746   -1.9264847  0.049017573   -3.3948746      1.46839   293600 
 2086000   0.98017821   -3.3950864   -3.3950864    -1.924824  0.045402697   -3.3950864    1.4702623   293600 
 2087000   0.97922348   -3.3935482   -3.3935482   -1.9247179  0.047496847   -3.3935482    1.4688302   293600 
 2088000   0.97948222   -3.3935653   -3.3935653    -1.924347  0.050339394   -3.3935653    1.4692183   293600 
 2089000   0.97904224    -3.393621    -3.393621   -1.9250626  0.048447196    -3.393621    1.4685584   293600 
 2090000   0.97856771   -3.3925941   -3.3925941   -1.9247476  0.042979821   -3.3925941    1.4678466   293600 
 2091000   0.97886419   -3.3927661   -3.3927661   -1.9244748  0.038625554   -3.3927661    1.4682913   293600 
 2092000   0.97766528   -3.3921232   -3.3921232   -1.9256303  0.053903793   -3.3921232    1.4664929   293600 
 2093000   0.97632635    -3.390719    -3.390719   -1.9262344  0.049688796    -3.390719    1.4644845   293600 
 2094000   0.97809602   -3.3912979   -3.3912979   -1.9241589  0.046973835   -3.3912979     1.467139   293600 
 2095000   0.97721736   -3.3906626   -3.3906626   -1.9248415  0.050265903   -3.3906626    1.4658211   293600 
 2096000   0.97963628   -3.3934606   -3.3934606   -1.9240112  0.047374849   -3.3934606    1.4694494   293600 
 2097000   0.97929711   -3.3933822   -3.3933822   -1.9244415  0.044570486   -3.3933822    1.4689407   293600 
 2098000    0.9795222   -3.3929401   -3.3929401   -1.9236618  0.044961233   -3.3929401    1.4692783   293600 
 2099000   0.97966961    -3.392756    -3.392756   -1.9232566  0.046915797    -3.392756    1.4694994   293600 
 2100000   0.97913276   -3.3912563   -3.3912563   -1.9225622  0.057720135   -3.3912563    1.4686941   293600 
 2101000   0.98127217   -3.3938971   -3.3938971   -1.9219939  0.055164785   -3.3938971    1.4719032   293600 
 2102000   0.98229991   -3.3969079   -3.3969079    -1.923463  0.044679405   -3.3969079    1.4734448   293600 
 2103000   0.98027702   -3.3926562   -3.3926562   -1.9222457  0.054593334   -3.3926562    1.4704105   293600 
 2104000   0.98177003   -3.3934035   -3.3934035   -1.9207535  0.053068857   -3.3934035      1.47265   293600 
 2105000   0.98117992   -3.3934592   -3.3934592   -1.9216943  0.055111087   -3.3934592    1.4717649   293600 
 2106000    0.9813275   -3.3932232   -3.3932232   -1.9212369  0.048177858   -3.3932232    1.4719862   293600 
 2107000   0.98160461   -3.3946875   -3.3946875   -1.9222856  0.048371939   -3.3946875    1.4724019   293600 
 2108000   0.98156182   -3.3925975   -3.3925975   -1.9202598  0.053203426   -3.3925975    1.4723377   293600 
 2109000   0.98098043   -3.3932071   -3.3932071   -1.9217415  0.055351852   -3.3932071    1.4714656   293600 
 2110000   0.97837151   -3.3904462   -3.3904462   -1.9228939  0.058424497   -3.3904462    1.4675523   293600 
 2111000   0.97791308   -3.3894068   -3.3894068   -1.9225422  0.052323457   -3.3894068    1.4668646   293600 
 2112000   0.98222448   -3.3945695   -3.3945695   -1.9212378  0.050202204   -3.3945695    1.4733317   293600 
 2113000   0.98297217   -3.3946918   -3.3946918   -1.9202386  0.045658376   -3.3946918    1.4744532   293600 
 2114000    0.9820799   -3.3938642   -3.3938642   -1.9207494  0.051895568   -3.3938642    1.4731148   293600 
 2115000    0.9817302   -3.3942355   -3.3942355   -1.9216453  0.057060844   -3.3942355    1.4725903   293600 
 2116000   0.98053681   -3.3926606   -3.3926606   -1.9218604  0.056128448   -3.3926606    1.4708002   293600 
 2117000   0.98073095   -3.3919341   -3.3919341   -1.9208426  0.056329076   -3.3919341    1.4710914   293600 
 2118000   0.98225087   -3.3947268   -3.3947268   -1.9213555  0.055012778   -3.3947268    1.4733713   293600 
 2119000    0.9811516   -3.3932468   -3.3932468   -1.9215244  0.056070157   -3.3932468    1.4717224   293600 
 2120000   0.98304823   -3.3959944   -3.3959944   -1.9214271  0.045858331   -3.3959944    1.4745673   293600 
 2121000    0.9823992   -3.3956078   -3.3956078    -1.922014  0.047832357   -3.3956078    1.4735938   293600 
 2122000   0.98141906   -3.3944002   -3.3944002   -1.9222766  0.046834003   -3.3944002    1.4721236   293600 
 2123000   0.97871152   -3.3900656   -3.3900656   -1.9220033  0.051277545   -3.3900656    1.4680623   293600 
 2124000   0.98088378   -3.3927905   -3.3927905   -1.9214698  0.049930419   -3.3927905    1.4713207   293600 
 2125000   0.98022371    -3.391993    -3.391993   -1.9216624  0.050215459    -3.391993    1.4703306   293600 
 2126000   0.98050948   -3.3928343   -3.3928343   -1.9220751  0.049641382   -3.3928343    1.4707592   293600 
 2127000   0.98271516    -3.395957    -3.395957   -1.9218893  0.046572197    -3.395957    1.4740677   293600 
 2128000   0.97929952   -3.3911258   -3.3911258   -1.9221815  0.055309955   -3.3911258    1.4689443   293600 
 2129000   0.97989905   -3.3907513   -3.3907513   -1.9209077  0.052280502   -3.3907513    1.4698436   293600 
 2130000   0.98063394   -3.3926632   -3.3926632   -1.9217173  0.054312634   -3.3926632    1.4709459   293600 
 2131000   0.98125651   -3.3934631   -3.3934631   -1.9215833  0.053559702   -3.3934631    1.4718798   293600 
 2132000   0.98088511   -3.3915848   -3.3915848   -1.9202621  0.056483136   -3.3915848    1.4713226   293600 
 2133000   0.98175428   -3.3941539   -3.3941539   -1.9215275  0.045035215   -3.3941539    1.4726264   293600 
 2134000   0.98120732   -3.3927618   -3.3927618   -1.9209559  0.054466189   -3.3927618     1.471806   293600 
 2135000    0.9799183   -3.3912723   -3.3912723   -1.9213998  0.052229708   -3.3912723    1.4698724   293600 
 2136000   0.97971856   -3.3908863   -3.3908863   -1.9213135  0.049781557   -3.3908863    1.4695728   293600 
 2137000   0.98126624   -3.3915215   -3.3915215   -1.9196271  0.047229939   -3.3915215    1.4718943   293600 
 2138000   0.98159012   -3.3937141   -3.3937141   -1.9213339  0.052071452   -3.3937141    1.4723802   293600 
 2139000   0.97677904   -3.3880039   -3.3880039   -1.9228403  0.052544855   -3.3880039    1.4651636   293600 
 2140000   0.97996303   -3.3925647   -3.3925647   -1.9226252  0.043307032   -3.3925647    1.4699395   293600 
 2141000   0.97978159   -3.3933588   -3.3933588   -1.9236914  0.048794955   -3.3933588    1.4696674   293600 
 2142000   0.97997541   -3.3924947   -3.3924947   -1.9225365  0.051587879   -3.3924947    1.4699581   293600 
 2143000   0.98092452   -3.3926296   -3.3926296   -1.9212478  0.051617533   -3.3926296    1.4713818   293600 
 2144000   0.98055042    -3.393106    -3.393106   -1.9222854  0.045232859    -3.393106    1.4708206   293600 
 2145000   0.98135278    -3.392462    -3.392462   -1.9204378  0.054643864    -3.392462    1.4720242   293600 
 2146000   0.98095119   -3.3913644   -3.3913644   -1.9199427  0.047014536   -3.3913644    1.4714218   293600 
 2147000   0.98320604   -3.3942923   -3.3942923   -1.9194883  0.053469871   -3.3942923     1.474804   293600 
 2148000   0.98088262   -3.3913765   -3.3913765   -1.9200576  0.052582537   -3.3913765    1.4713189   293600 
 2149000   0.98291271   -3.3937274   -3.3937274   -1.9193634   0.06362876   -3.3937274     1.474364   293600 
 2150000   0.98288765   -3.3936472   -3.3936472   -1.9193207  0.056984965   -3.3936472    1.4743264   293600 
 2151000   0.98144726   -3.3920253   -3.3920253   -1.9198595  0.058731387   -3.3920253    1.4721659   293600 
 2152000   0.98296888   -3.3940525   -3.3940525   -1.9196042  0.045994633   -3.3940525    1.4744483   293600 
 2153000   0.98300378   -3.3939792   -3.3939792   -1.9194785  0.055155519   -3.3939792    1.4745006   293600 
 2154000    0.9829571   -3.3928189   -3.3928189   -1.9183883  0.056173212   -3.3928189    1.4744306   293600 
 2155000   0.98391991     -3.39563     -3.39563   -1.9197551  0.052200797     -3.39563    1.4758748   293600 
 2156000   0.98264856   -3.3947649   -3.3947649   -1.9207971  0.061246034   -3.3947649    1.4739678   293600 
 2157000   0.98161875   -3.3920362   -3.3920362   -1.9196131  0.054569146   -3.3920362    1.4724231   293600 
 2158000   0.98126458   -3.3914552   -3.3914552   -1.9195633  0.049475648   -3.3914552    1.4718919   293600 
 2159000   0.98138872   -3.3925018   -3.3925018   -1.9204237  0.053811467   -3.3925018    1.4720781   293600 
 2160000   0.98069195   -3.3915357   -3.3915357   -1.9205028  0.049802741   -3.3915357    1.4710329   293600 
 2161000   0.98366992   -3.3956507   -3.3956507   -1.9201509  0.047108289   -3.3956507    1.4754999   293600 
 2162000    0.9815605   -3.3926696   -3.3926696   -1.9203339  0.048223459   -3.3926696    1.4723357   293600 
 2163000   0.98122119   -3.3912446   -3.3912446   -1.9194179   0.05672079   -3.3912446    1.4718268   293600 
 2164000   0.98232119   -3.3919522   -3.3919522   -1.9184755  0.051215259   -3.3919522    1.4734768   293600 
 2165000   0.98294293   -3.3932714   -3.3932714    -1.918862  0.054917643   -3.3932714    1.4744094   293600 
 2166000   0.98274439   -3.3931918   -3.3931918   -1.9190802  0.049276323   -3.3931918    1.4741116   293600 
 2167000   0.98152327    -3.389999    -3.389999   -1.9177191  0.060273656    -3.389999    1.4722799   293600 
 2168000   0.98261885   -3.3901498   -3.3901498   -1.9162266  0.055609199   -3.3901498    1.4739232   293600 
 2169000   0.98198825   -3.3887976   -3.3887976   -1.9158202  0.056439855   -3.3887976    1.4729774   293600 
 2170000   0.98260273   -3.3893206   -3.3893206   -1.9154216  0.057524473   -3.3893206    1.4738991   293600 
 2171000   0.98385515   -3.3910185   -3.3910185   -1.9152408  0.049324283   -3.3910185    1.4757777   293600 
 2172000   0.98324834   -3.3889111   -3.3889111   -1.9140436  0.055304051   -3.3889111    1.4748675   293600 
 2173000   0.98122749   -3.3859312   -3.3859312    -1.914095  0.049737257   -3.3859312    1.4718362   293600 
 2174000   0.98305492   -3.3877506   -3.3877506   -1.9131732  0.056388354   -3.3877506    1.4745774   293600 
 2175000   0.98330592    -3.388492    -3.388492   -1.9135382  0.054487467    -3.388492    1.4749539   293600 
 2176000   0.98104806   -3.3855327   -3.3855327   -1.9139657  0.054568529   -3.3855327    1.4715671   293600 
 2177000   0.98193235    -3.386151    -3.386151   -1.9132575  0.051673119    -3.386151    1.4728935   293600 
 2178000   0.98187379   -3.3862564   -3.3862564   -1.9134507  0.049193307   -3.3862564    1.4728057   293600 
 2179000   0.98360087   -3.3882203   -3.3882203    -1.912824  0.050090697   -3.3882203    1.4753963   293600 
 2180000   0.98106784   -3.3846121   -3.3846121   -1.9130153  0.042337061   -3.3846121    1.4715968   293600 
 2181000   0.98132966   -3.3859465   -3.3859465   -1.9139571  0.050995867   -3.3859465    1.4719895   293600 
 2182000   0.97908429   -3.3826282   -3.3826282   -1.9140068  0.054407775   -3.3826282    1.4686214   293600 
 2183000   0.98077723   -3.3858154   -3.3858154   -1.9146546  0.046650754   -3.3858154    1.4711608   293600 
 2184000   0.98060175    -3.386202    -3.386202   -1.9153044  0.046728915    -3.386202    1.4708976   293600 
 2185000   0.97989289   -3.3840078   -3.3840078   -1.9141734  0.053973026   -3.3840078    1.4698343   293600 
 2186000    0.9809852   -3.3831668   -3.3831668    -1.911694  0.047862786   -3.3831668    1.4714728   293600 
 2187000   0.98082572   -3.3848317   -3.3848317   -1.9135982  0.048546556   -3.3848317    1.4712336   293600 
 2188000   0.98063417   -3.3874104   -3.3874104   -1.9164642  0.042228052   -3.3874104    1.4709463   293600 
 2189000   0.97993202   -3.3829833   -3.3829833   -1.9130903  0.050055669   -3.3829833     1.469893   293600 
 2190000   0.97998924   -3.3817192   -3.3817192   -1.9117404  0.058207008   -3.3817192    1.4699789   293600 
 2191000   0.97979521   -3.3803339   -3.3803339   -1.9106461   0.05437227   -3.3803339    1.4696878   293600 
 2192000    0.9809353   -3.3820238   -3.3820238   -1.9106259  0.054983897   -3.3820238    1.4713979   293600 
 2193000   0.98265512   -3.3849415   -3.3849415   -1.9109639  0.050229076   -3.3849415    1.4739777   293600 
 2194000   0.98341896   -3.3845826   -3.3845826   -1.9094592  0.051434642   -3.3845826    1.4751234   293600 
 2195000   0.98436445    -3.385298    -3.385298   -1.9087564  0.052709333    -3.385298    1.4765416   293600 
 2196000   0.98316702   -3.3848642   -3.3848642   -1.9101187   0.04573523   -3.3848642    1.4747455   293600 
 2197000   0.98265252   -3.3853228   -3.3853228    -1.911349  0.055453616   -3.3853228    1.4739738   293600 
 2198000   0.98313231   -3.3852375   -3.3852375   -1.9105441  0.066839506   -3.3852375    1.4746934   293600 
 2199000   0.98085834   -3.3826113   -3.3826113   -1.9113288  0.048083918   -3.3826113    1.4712825   293600 
 2200000   0.98194416   -3.3853485   -3.3853485   -1.9124373  0.052282485   -3.3853485    1.4729112   293600 
 2201000   0.98329939   -3.3870463   -3.3870463   -1.9121022   0.04947412   -3.3870463    1.4749441   293600 
 2202000   0.98074718   -3.3837437   -3.3837437   -1.9126279  0.053859159   -3.3837437    1.4711158   293600 
 2203000   0.98221762   -3.3868475   -3.3868475    -1.913526  0.051470834   -3.3868475    1.4733214   293600 
 2204000   0.98090341   -3.3852366   -3.3852366   -1.9138865  0.048831707   -3.3852366    1.4713501   293600 
 2205000   0.97986456   -3.3826386   -3.3826386   -1.9128468  0.047802047   -3.3826386    1.4697918   293600 
 2206000    0.9808098   -3.3837023   -3.3837023   -1.9124926  0.048886813   -3.3837023    1.4712097   293600 
 2207000   0.98050157   -3.3839717   -3.3839717   -1.9132243  0.050147629   -3.3839717    1.4707473   293600 
 2208000   0.98264767   -3.3856004   -3.3856004   -1.9116339   0.05109327   -3.3856004    1.4739665   293600 
 2209000    0.9805872   -3.3842708   -3.3842708    -1.913395  0.042954946   -3.3842708    1.4708758   293600 
 2210000   0.98023446    -3.384523    -3.384523   -1.9141764  0.042245281    -3.384523    1.4703467   293600 
 2211000   0.97974699   -3.3848729   -3.3848729   -1.9152575  0.049193975   -3.3848729    1.4696155   293600 
 2212000   0.98224279   -3.3869459   -3.3869459   -1.9135867  0.051313362   -3.3869459    1.4733592   293600 
 2213000   0.98110517   -3.3848572   -3.3848572   -1.9132044   0.05739844   -3.3848572    1.4716527   293600 
 2214000   0.98020964   -3.3842408   -3.3842408   -1.9139313   0.05451748   -3.3842408    1.4703095   293600 
 2215000   0.98231899   -3.3859668   -3.3859668   -1.9124933  0.058790626   -3.3859668    1.4734735   293600 
 2216000   0.98174464   -3.3847954   -3.3847954   -1.9121834   0.06207097   -3.3847954    1.4726119   293600 
 2217000   0.98196715   -3.3855646   -3.3855646   -1.9126189  0.052206355   -3.3855646    1.4729457   293600 
 2218000   0.98162096   -3.3857759   -3.3857759   -1.9133495  0.052553723   -3.3857759    1.4724264   293600 
 2219000   0.98197487   -3.3866333   -3.3866333    -1.913676  0.051125784   -3.3866333    1.4729573   293600 
 2220000   0.98171379   -3.3874462   -3.3874462   -1.9148805  0.052628105   -3.3874462    1.4725657   293600 
 2221000    0.9815838   -3.3867718   -3.3867718   -1.9144011  0.051546338   -3.3867718    1.4723707   293600 
 2222000   0.98014014   -3.3852327   -3.3852327   -1.9150275  0.051049314   -3.3852327    1.4702052   293600 
 2223000   0.98154667    -3.389814    -3.389814    -1.917499    0.0466744    -3.389814     1.472315   293600 
 2224000   0.98081784   -3.3890419   -3.3890419   -1.9178202  0.053610586   -3.3890419    1.4712217   293600 
 2225000   0.97910273   -3.3880664   -3.3880664   -1.9194173  0.052129904   -3.3880664    1.4686491   293600 
 2226000   0.98103474   -3.3890895   -3.3890895   -1.9175424  0.052463238   -3.3890895    1.4715471   293600 
 2227000   0.97954386   -3.3862011   -3.3862011   -1.9168903  0.050306802   -3.3862011    1.4693108   293600 
 2228000   0.98126546   -3.3872148   -3.3872148   -1.9153216  0.052578936   -3.3872148    1.4718932   293600 
 2229000   0.98191798    -3.388588    -3.388588   -1.9157161  0.058355107    -3.388588     1.472872   293600 
 2230000    0.9826512   -3.3888151   -3.3888151   -1.9148433   0.05027218   -3.3888151    1.4739718   293600 
 2231000   0.98302271   -3.3905072   -3.3905072   -1.9159782  0.049934363   -3.3905072     1.474529   293600 
 2232000   0.98363079   -3.3905038   -3.3905038   -1.9150626  0.050374039   -3.3905038    1.4754412   293600 
 2233000   0.98265109    -3.389624    -3.389624   -1.9156524  0.051393966    -3.389624    1.4739716   293600 
 2234000   0.98080726   -3.3886615   -3.3886615   -1.9174556  0.049238602   -3.3886615    1.4712059   293600 
 2235000   0.98086927   -3.3866303   -3.3866303   -1.9153314  0.054866588   -3.3866303    1.4712989   293600 
 2236000   0.98204489   -3.3880666   -3.3880666   -1.9150043  0.049317578   -3.3880666    1.4730623   293600 
 2237000   0.98256543   -3.3877559   -3.3877559   -1.9139127  0.051986456   -3.3877559    1.4738431   293600 
 2238000   0.98169063   -3.3868174   -3.3868174   -1.9142864   0.05391933   -3.3868174    1.4725309   293600 
 2239000   0.97995122   -3.3847376   -3.3847376   -1.9148157  0.049877438   -3.3847376    1.4699218   293600 
 2240000   0.98146395   -3.3870833   -3.3870833   -1.9148924  0.046738649   -3.3870833    1.4721909   293600 
 2241000   0.98089567   -3.3867531   -3.3867531   -1.9154146    0.0567672   -3.3867531    1.4713385   293600 
 2242000   0.98104237   -3.3872409   -3.3872409   -1.9156824  0.048282942   -3.3872409    1.4715585   293600 
 2243000   0.98148732   -3.3863882   -3.3863882   -1.9141622  0.046477733   -3.3863882     1.472226   293600 
 2244000   0.98075517   -3.3858857   -3.3858857   -1.9147579  0.053452662   -3.3858857    1.4711277   293600 
 2245000   0.98184852   -3.3865797   -3.3865797   -1.9138119  0.050240817   -3.3865797    1.4727678   293600 
 2246000   0.98047565   -3.3844725   -3.3844725    -1.913764  0.057033677   -3.3844725    1.4707085   293600 
 2247000   0.98009647   -3.3837364   -3.3837364   -1.9135967  0.051257401   -3.3837364    1.4701397   293600 
 2248000   0.98114693    -3.385587    -3.385587   -1.9138716  0.046382034    -3.385587    1.4717154   293600 
 2249000   0.98228596    -3.387239    -3.387239   -1.9138151  0.052432922    -3.387239    1.4734239   293600 
 2250000    0.9806836   -3.3838206   -3.3838206   -1.9128002  0.047937434   -3.3838206    1.4710204   293600 
 2251000   0.98192051   -3.3867045   -3.3867045   -1.9138287  0.052208684   -3.3867045    1.4728758   293600 
 2252000     0.980742   -3.3833732   -3.3833732   -1.9122652  0.057753118   -3.3833732     1.471108   293600 
 2253000     0.981856   -3.3850736   -3.3850736   -1.9122946  0.053875172   -3.3850736     1.472779   293600 
 2254000    0.9823192   -3.3846523   -3.3846523   -1.9111785  0.044394107   -3.3846523    1.4734738   293600 
 2255000   0.98293151    -3.386356    -3.386356   -1.9119638  0.051520063    -3.386356    1.4743922   293600 
 2256000   0.98112071   -3.3844048   -3.3844048   -1.9127288   0.05372137   -3.3844048    1.4716761   293600 
 2257000   0.98187135   -3.3862932   -3.3862932   -1.9134912  0.049060803   -3.3862932     1.472802   293600 
 2258000    0.9825696   -3.3854313   -3.3854313   -1.9115819  0.053308778   -3.3854313    1.4738494   293600 
 2259000   0.98135781   -3.3839405   -3.3839405   -1.9119088     0.053763   -3.3839405    1.4720317   293600 
 2260000     0.981922   -3.3854007   -3.3854007   -1.9125228  0.053101692   -3.3854007     1.472878   293600 
 2261000   0.98358182    -3.386822    -3.386822   -1.9114543   0.05412365    -3.386822    1.4753677   293600 
 2262000    0.9827189   -3.3859656   -3.3859656   -1.9118923  0.047925943   -3.3859656    1.4740733   293600 
 2263000   0.98260232   -3.3865165   -3.3865165    -1.912618  0.050785661   -3.3865165    1.4738985   293600 
 2264000    0.9819015   -3.3851417   -3.3851417   -1.9122945  0.055196418   -3.3851417    1.4728472   293600 
 2265000   0.98520823    -3.388844    -3.388844   -1.9110367   0.04949821    -3.388844    1.4778073   293600 
 2266000   0.98213596   -3.3851473   -3.3851473   -1.9119484  0.051791401   -3.3851473    1.4731989   293600 
 2267000   0.98138248   -3.3841524   -3.3841524   -1.9120837  0.054638324   -3.3841524    1.4720687   293600 
 2268000    0.9827917   -3.3857324   -3.3857324   -1.9115499  0.055003329   -3.3857324    1.4741825   293600 
 2269000   0.98243893   -3.3853117   -3.3853117   -1.9116583  0.051506719   -3.3853117    1.4736534   293600 
 2270000    0.9813948   -3.3851762   -3.3851762    -1.913089  0.051119165   -3.3851762    1.4720872   293600 
 2271000   0.97968052   -3.3835457   -3.3835457   -1.9140299  0.053761376   -3.3835457    1.4695158   293600 
 2272000    0.9822834   -3.3865472   -3.3865472   -1.9131272  0.055641021   -3.3865472    1.4734201   293600 
 2273000   0.98313532   -3.3865498   -3.3865498   -1.9118519  0.055088957   -3.3865498     1.474698   293600 
 2274000   0.98337044   -3.3864088   -3.3864088   -1.9113582  0.052586088   -3.3864088    1.4750506   293600 
 2275000   0.98167943    -3.384347    -3.384347   -1.9118329  0.056811782    -3.384347    1.4725141   293600 
 2276000   0.98268143   -3.3855926   -3.3855926   -1.9115755   0.05258603   -3.3855926    1.4740171   293600 
 2277000   0.98253677    -3.384191    -3.384191   -1.9103909  0.056655622    -3.384191    1.4738001   293600 
 2278000   0.98338453    -3.386199    -3.386199   -1.9111272  0.054002199    -3.386199    1.4750718   293600 
 2279000   0.98205347    -3.384032    -3.384032   -1.9109568  0.060534511    -3.384032    1.4730752   293600 
 2280000   0.98309184    -3.384614    -3.384614   -1.9099812  0.048676661    -3.384614    1.4746327   293600 
 2281000   0.98333141   -3.3843906   -3.3843906   -1.9093985  0.060677124   -3.3843906    1.4749921   293600 
 2282000   0.98259114   -3.3830892   -3.3830892   -1.9092076  0.057648752   -3.3830892    1.4738817   293600 
 2283000    0.9839476   -3.3855604   -3.3855604    -1.909644  0.048162389   -3.3855604    1.4759164   293600 
 2284000   0.98304178   -3.3849305   -3.3849305   -1.9103729   0.05141003   -3.3849305    1.4745576   293600 
 2285000   0.98283656   -3.3829688   -3.3829688    -1.908719  0.052512015   -3.3829688    1.4742498   293600 
 2286000   0.98246223   -3.3820419   -3.3820419   -1.9083536  0.055083912   -3.3820419    1.4736883   293600 
 2287000   0.98464166   -3.3864687   -3.3864687   -1.9095112  0.052362217   -3.3864687    1.4769575   293600 
 2288000   0.98272939   -3.3827756   -3.3827756   -1.9086865  0.050004747   -3.3827756    1.4740891   293600 
 2289000   0.98264738   -3.3844771   -3.3844771    -1.910511   0.04680365   -3.3844771     1.473966   293600 
 2290000   0.98250633    -3.382613    -3.382613   -1.9088585  0.048917568    -3.382613    1.4737545   293600 
 2291000   0.98174792   -3.3826461   -3.3826461   -1.9100292  0.053428383   -3.3826461    1.4726169   293600 
 2292000   0.98068134   -3.3823178   -3.3823178   -1.9113008  0.041244688   -3.3823178     1.471017   293600 
 2293000   0.98119755    -3.382898    -3.382898   -1.9111067  0.045939968    -3.382898    1.4717913   293600 
 2294000   0.98083555   -3.3806524   -3.3806524   -1.9094041   0.05289858   -3.3806524    1.4712483   293600 
 2295000   0.98203679   -3.3825239   -3.3825239   -1.9094737  0.050329481   -3.3825239    1.4730502   293600 
 2296000   0.98002093   -3.3782443   -3.3782443   -1.9082179  0.056812871   -3.3782443    1.4700264   293600 
 2297000   0.98231445   -3.3814619   -3.3814619   -1.9079952   0.04751502   -3.3814619    1.4734667   293600 
 2298000   0.98025785   -3.3793945   -3.3793945   -1.9090127  0.045811963   -3.3793945    1.4703818   293600 
 2299000    0.9820358   -3.3811193   -3.3811193   -1.9080706   0.05240703   -3.3811193    1.4730487   293600 
 2300000   0.98262322   -3.3820556   -3.3820556   -1.9081258  0.052613577   -3.3820556    1.4739298   293600 
 2301000   0.98359139   -3.3823466   -3.3823466   -1.9069646  0.055725365   -3.3823466    1.4753821   293600 
 2302000   0.98266298    -3.380366    -3.380366   -1.9063766   0.04970787    -3.380366    1.4739895   293600 
 2303000   0.98303015   -3.3801005   -3.3801005   -1.9055602  0.057295757   -3.3801005    1.4745402   293600 
 2304000   0.98386793   -3.3821085   -3.3821085   -1.9063116   0.04928436   -3.3821085    1.4757969   293600 
 2305000   0.98169477   -3.3788125   -3.3788125   -1.9062754  0.053302697   -3.3788125    1.4725371   293600 
 2306000   0.98246409   -3.3799163   -3.3799163   -1.9062252  0.057459558   -3.3799163    1.4736911   293600 
 2307000   0.98011142   -3.3767147   -3.3767147   -1.9065526  0.049486239   -3.3767147    1.4701621   293600 
 2308000   0.98188326   -3.3795665   -3.3795665   -1.9067466  0.046697996   -3.3795665    1.4728199   293600 
 2309000   0.98135224   -3.3784648   -3.3784648   -1.9064415  0.051260384   -3.3784648    1.4720233   293600 
 2310000   0.98114183   -3.3778172   -3.3778172   -1.9061094  0.049933594   -3.3778172    1.4717077   293600 
 2311000   0.98373415   -3.3805458   -3.3805458   -1.9049496  0.053466182   -3.3805458    1.4755962   293600 
 2312000   0.98360948   -3.3801235   -3.3801235   -1.9047143   0.04622667   -3.3801235    1.4754092   293600 
 2313000   0.98385498   -3.3792327   -3.3792327   -1.9034553  0.052947612   -3.3792327    1.4757774   293600 
 2314000   0.98329756   -3.3783689   -3.3783689   -1.9034276  0.057730665   -3.3783689    1.4749413   293600 
 2315000   0.98253107   -3.3763559   -3.3763559   -1.9025643  0.058918318   -3.3763559    1.4737916   293600 
 2316000   0.98429325   -3.3796253   -3.3796253   -1.9031905  0.054409413   -3.3796253    1.4764348   293600 
 2317000   0.98484054   -3.3774011   -3.3774011   -1.9001454  0.059928104   -3.3774011    1.4772558   293600 
 2318000   0.98526443   -3.3803943   -3.3803943   -1.9025027  0.056249012   -3.3803943    1.4778916   293600 
 2319000   0.98542122   -3.3819244   -3.3819244   -1.9037976  0.053230739   -3.3819244    1.4781268   293600 
 2320000   0.98435433   -3.3803187   -3.3803187   -1.9037922  0.056046155   -3.3803187    1.4765265   293600 
 2321000   0.98246272   -3.3785572   -3.3785572   -1.9048681  0.051456548   -3.3785572    1.4736891   293600 
 2322000   0.98140646   -3.3763435   -3.3763435   -1.9042388  0.049122877   -3.3763435    1.4721047   293600 
 2323000   0.98292781   -3.3794766   -3.3794766   -1.9050899  0.048249628   -3.3794766    1.4743867   293600 
 2324000   0.97878121   -3.3744249   -3.3744249   -1.9062581  0.052043489   -3.3744249    1.4681668   293600 
 2325000   0.97813377   -3.3744007   -3.3744007   -1.9072051  0.047400805   -3.3744007    1.4671957   293600 
 2326000   0.97973474   -3.3766128   -3.3766128   -1.9070157  0.047594836   -3.3766128    1.4695971   293600 
 2327000   0.98073833   -3.3768911   -3.3768911   -1.9057886  0.049592925   -3.3768911    1.4711025   293600 
 2328000   0.98268767     -3.37929     -3.37929   -1.9052635  0.048287644     -3.37929    1.4740265   293600 
 2329000   0.98312015   -3.3790578   -3.3790578   -1.9043826  0.055226036   -3.3790578    1.4746752   293600 
 2330000   0.98326861   -3.3780347   -3.3780347   -1.9031368  0.048105761   -3.3780347    1.4748979   293600 
 2331000   0.98319594   -3.3770524   -3.3770524   -1.9022635  0.054549009   -3.3770524    1.4747889   293600 
 2332000   0.98343132   -3.3773705   -3.3773705   -1.9022286  0.051885012   -3.3773705     1.475142   293600 
 2333000   0.98219544   -3.3755563   -3.3755563   -1.9022682  0.058963095   -3.3755563    1.4732881   293600 
 2334000   0.98522211   -3.3788585   -3.3788585   -1.9010304  0.056647005   -3.3788585    1.4778281   293600 
 2335000   0.98594516   -3.3787381   -3.3787381   -1.8998254  0.053596813   -3.3787381    1.4789127   293600 
 2336000   0.98510777   -3.3781252   -3.3781252   -1.9004686  0.055962631   -3.3781252    1.4776566   293600 
 2337000   0.98442865   -3.3763011   -3.3763011   -1.8996631  0.049565814   -3.3763011    1.4766379   293600 
 2338000   0.98381095   -3.3742403   -3.3742403   -1.8985289  0.057103137   -3.3742403    1.4757114   293600 
 2339000    0.9840604   -3.3766929   -3.3766929   -1.9006074  0.053177988   -3.3766929    1.4760856   293600 
 2340000   0.98303331   -3.3757886   -3.3757886   -1.9012436  0.055204167   -3.3757886    1.4745449   293600 
 2341000   0.98400716    -3.376114    -3.376114   -1.9001083  0.053456379    -3.376114    1.4760057   293600 
 2342000   0.98256487   -3.3741184   -3.3741184   -1.9002762  0.052308638   -3.3741184    1.4738423   293600 
 2343000   0.98337822   -3.3745826   -3.3745826   -1.8995203  0.046120933   -3.3745826    1.4750623   293600 
 2344000   0.98189453   -3.3737033   -3.3737033   -1.9008665  0.049585492   -3.3737033    1.4728368   293600 
 2345000   0.98159694   -3.3732905   -3.3732905   -1.9009002  0.055756646   -3.3732905    1.4723904   293600 
 2346000   0.98348152   -3.3745055   -3.3745055   -1.8992883  0.055365487   -3.3745055    1.4752173   293600 
 2347000   0.98489977    -3.375307    -3.375307   -1.8979624   0.05315353    -3.375307    1.4773446   293600 
 2348000   0.98424169   -3.3749829   -3.3749829   -1.8986254  0.054510292   -3.3749829    1.4763575   293600 
 2349000   0.98429286   -3.3748301   -3.3748301   -1.8983958  0.051833847   -3.3748301    1.4764343   293600 
 2350000   0.98543383   -3.3767185   -3.3767185   -1.8985728  0.057583151   -3.3767185    1.4781457   293600 
 2351000    0.9844989   -3.3752513   -3.3752513    -1.898508  0.053840785   -3.3752513    1.4767433   293600 
 2352000    0.9857183   -3.3771221   -3.3771221   -1.8985497  0.058740677   -3.3771221    1.4785724   293600 
 2353000   0.98408456   -3.3758375   -3.3758375   -1.8997157  0.049987629   -3.3758375    1.4761218   293600 
 2354000   0.98361767   -3.3751433   -3.3751433   -1.8997218   0.05519177   -3.3751433    1.4754215   293600 
 2355000   0.98521879   -3.3769501   -3.3769501   -1.8991269  0.050259705   -3.3769501    1.4778232   293600 
 2356000   0.98228452   -3.3730937   -3.3730937   -1.8996719  0.053413889   -3.3730937    1.4734218   293600 
 2357000   0.98454554   -3.3757005   -3.3757005   -1.8988872  0.045871837   -3.3757005    1.4768133   293600 
 2358000   0.98211004   -3.3734613   -3.3734613   -1.9003013  0.052018835   -3.3734613      1.47316   293600 
 2359000   0.98243336   -3.3737218   -3.3737218   -1.9000768  0.047976909   -3.3737218     1.473645   293600 
 2360000   0.98298813   -3.3752814   -3.3752814   -1.9008042   0.04923825   -3.3752814    1.4744772   293600 
 2361000   0.98384366   -3.3752882   -3.3752882   -1.8995277  0.048985625   -3.3752882    1.4757605   293600 
 2362000   0.98332814   -3.3724677   -3.3724677   -1.8974805  0.060904169   -3.3724677    1.4749872   293600 
 2363000   0.98405517   -3.3741501   -3.3741501   -1.8980724  0.057479171   -3.3741501    1.4760777   293600 
 2364000   0.98482627   -3.3750441   -3.3750441   -1.8978098  0.053546519   -3.3750441    1.4772344   293600 
 2365000    0.9847111   -3.3740138   -3.3740138   -1.8969522  0.060064541   -3.3740138    1.4770616   293600 
 2366000     0.985338   -3.3737769   -3.3737769   -1.8957749  0.056030043   -3.3737769     1.478002   293600 
 2367000   0.98388577   -3.3735197   -3.3735197    -1.897696  0.057423715   -3.3735197    1.4758236   293600 
 2368000    0.9834709   -3.3731746   -3.3731746   -1.8979733  0.053844626   -3.3731746    1.4752013   293600 
 2369000   0.98394582   -3.3753205   -3.3753205   -1.8994068  0.049614016   -3.3753205    1.4759137   293600 
 2370000   0.98343026   -3.3744026   -3.3744026   -1.8992622   0.05574902   -3.3744026    1.4751404   293600 
 2371000   0.98299125   -3.3743234   -3.3743234   -1.8998415  0.046052012   -3.3743234    1.4744819   293600 
 2372000   0.98274052    -3.375162    -3.375162   -1.9010562  0.050417744    -3.375162    1.4741058   293600 
 2373000   0.98384819   -3.3760666   -3.3760666   -1.9002993  0.049676989   -3.3760666    1.4757673   293600 
 2374000   0.98538232   -3.3776832   -3.3776832   -1.8996148  0.054770082   -3.3776832    1.4780684   293600 
 2375000    0.9834922   -3.3765522   -3.3765522   -1.9013189  0.056485372   -3.3765522    1.4752333   293600 
 2376000   0.98260019   -3.3749649   -3.3749649   -1.9010697  0.049337238   -3.3749649    1.4738953   293600 
 2377000   0.98307709   -3.3758194   -3.3758194   -1.9012088  0.048182515   -3.3758194    1.4746106   293600 
 2378000   0.98291266    -3.374732    -3.374732   -1.9003681  0.052757837    -3.374732     1.474364   293600 
 2379000   0.98244808   -3.3761691   -3.3761691    -1.902502   0.05451047   -3.3761691    1.4736671   293600 
 2380000   0.98370623   -3.3784428   -3.3784428   -1.9028885  0.052603034   -3.3784428    1.4755543   293600 
 2381000   0.98395108   -3.3785648   -3.3785648   -1.9026432  0.061211383   -3.3785648    1.4759216   293600 
 2382000   0.98621391   -3.3808464   -3.3808464   -1.9015306  0.056091576   -3.3808464    1.4793158   293600 
 2383000   0.98596621    -3.379773    -3.379773   -1.9008287  0.051144884    -3.379773    1.4789443   293600 
 2384000   0.98635109   -3.3801153   -3.3801153   -1.9005937  0.050263899   -3.3801153    1.4795216   293600 
 2385000    0.9859431   -3.3796086   -3.3796086   -1.9006989  0.054268621   -3.3796086    1.4789096   293600 
 2386000    0.9859004   -3.3796391   -3.3796391   -1.9007935  0.061017152   -3.3796391    1.4788456   293600 
 2387000   0.98466821    -3.379532    -3.379532   -1.9025347  0.052285816    -3.379532    1.4769973   293600 
 2388000    0.9851804   -3.3788336   -3.3788336    -1.901068  0.061660417   -3.3788336    1.4777656   293600 
 2389000   0.98452607   -3.3791721   -3.3791721    -1.902388  0.053533337   -3.3791721    1.4767841   293600 
 2390000   0.98576541   -3.3815791   -3.3815791   -1.9029361   0.05646407   -3.3815791    1.4786431   293600 
 2391000    0.9834946   -3.3770492   -3.3770492   -1.9018123  0.060358892   -3.3770492    1.4752369   293600 
 2392000   0.98663598   -3.3816854   -3.3816854   -1.9017364  0.057607003   -3.3816854    1.4799489   293600 
 2393000   0.98454866   -3.3784279   -3.3784279   -1.9016099  0.059315405   -3.3784279     1.476818   293600 
 2394000   0.98449244   -3.3792728   -3.3792728   -1.9025391  0.055534056   -3.3792728    1.4767336   293600 
 2395000   0.98568824   -3.3812845   -3.3812845   -1.9027572   0.04438372   -3.3812845    1.4785273   293600 
 2396000   0.98238583   -3.3774805   -3.3774805   -1.9039068  0.054747634   -3.3774805    1.4735737   293600 
 2397000   0.98149091   -3.3770358   -3.3770358   -1.9048045  0.049778574   -3.3770358    1.4722313   293600 
 2398000   0.98358697    -3.380471    -3.380471   -1.9050956  0.045368908    -3.380471    1.4753754   293600 
 2399000   0.98294804   -3.3783618   -3.3783618   -1.9039448  0.056049135   -3.3783618     1.474417   293600 
 2400000   0.98154573   -3.3761778   -3.3761778   -1.9038642  0.054060311   -3.3761778    1.4723136   293600 
 2401000   0.98299329   -3.3786847   -3.3786847   -1.9041997  0.053324549   -3.3786847    1.4744849   293600 
 2402000   0.98139048   -3.3761909   -3.3761909   -1.9041102  0.055282173   -3.3761909    1.4720807   293600 
 2403000   0.98150597    -3.376291    -3.376291   -1.9040371  0.054101503    -3.376291    1.4722539   293600 
 2404000   0.98287622   -3.3778295   -3.3778295   -1.9035202  0.057279712   -3.3778295    1.4743093   293600 
 2405000   0.98430544   -3.3787956   -3.3787956   -1.9023425  0.053834886   -3.3787956    1.4764531   293600 
 2406000     0.983493   -3.3778143   -3.3778143   -1.9025798  0.052915867   -3.3778143    1.4752345   293600 
 2407000   0.98386075   -3.3773428   -3.3773428   -1.9015567  0.053418923   -3.3773428    1.4757861   293600 
 2408000   0.98203293   -3.3736445   -3.3736445   -1.9006001  0.060050297   -3.3736445    1.4730444   293600 
 2409000   0.98233665    -3.374375    -3.374375    -1.900875  0.053355979    -3.374375    1.4734999   293600 
 2410000   0.98324584   -3.3760322   -3.3760322   -1.9011685  0.052021147   -3.3760322    1.4748637   293600 
 2411000    0.9812185   -3.3728241   -3.3728241   -1.9010014  0.052866576   -3.3728241    1.4718227   293600 
 2412000   0.98103322   -3.3723281   -3.3723281   -1.9007833  0.058185766   -3.3723281    1.4715448   293600 
 2413000   0.98401302   -3.3752936   -3.3752936   -1.8992791  0.050799686   -3.3752936    1.4760145   293600 
 2414000   0.98234429   -3.3724104   -3.3724104    -1.898899  0.054069715   -3.3724104    1.4735114   293600 
 2415000   0.98182625    -3.372115    -3.372115   -1.8993807   0.05533708    -3.372115    1.4727344   293600 
 2416000   0.98271523   -3.3722982   -3.3722982   -1.8982304    0.0591888   -3.3722982    1.4740678   293600 
 2417000   0.98479097   -3.3749968   -3.3749968   -1.8978154  0.049204627   -3.3749968    1.4771814   293600 
 2418000   0.98399145   -3.3741071   -3.3741071    -1.898125   0.06017072   -3.3741071    1.4759821   293600 
 2419000   0.98586684   -3.3774273   -3.3774273    -1.898632  0.052206918   -3.3774273    1.4787952   293600 
 2420000   0.98593663   -3.3771988   -3.3771988   -1.8982989  0.046616368   -3.3771988    1.4788999   293600 
 2421000   0.98357323   -3.3738918   -3.3738918    -1.898537  0.051445422   -3.3738918    1.4753548   293600 
 2422000   0.98212342   -3.3729143   -3.3729143   -1.8997342  0.055321797   -3.3729143    1.4731801   293600 
 2423000   0.98290972   -3.3742015   -3.3742015   -1.8998419  0.054226324   -3.3742015    1.4743596   293600 
 2424000   0.98304842   -3.3737595   -3.3737595   -1.8991919  0.052103052   -3.3737595    1.4745676   293600 
 2425000   0.98335661   -3.3756547   -3.3756547   -1.9006248  0.050200342   -3.3756547    1.4750299   293600 
 2426000   0.98237889   -3.3736847   -3.3736847   -1.9001214  0.047760064   -3.3736847    1.4735633   293600 
 2427000   0.98452275   -3.3766216   -3.3766216   -1.8998425  0.051713729   -3.3766216    1.4767791   293600 
 2428000   0.98414777   -3.3753583   -3.3753583   -1.8991416  0.056871098   -3.3753583    1.4762166   293600 
 2429000   0.98329067   -3.3759782   -3.3759782   -1.9010472  0.049788242   -3.3759782     1.474931   293600 
 2430000   0.98480127   -3.3773547   -3.3773547   -1.9001578  0.059507988   -3.3773547    1.4771969   293600 
 2431000   0.98350506   -3.3758175   -3.3758175   -1.9005649  0.047542265   -3.3758175    1.4752526   293600 
 2432000    0.9830964   -3.3742665   -3.3742665   -1.8996269  0.055152932   -3.3742665    1.4746396   293600 
 2433000   0.98408876   -3.3751851   -3.3751851    -1.899057  0.055145785   -3.3751851    1.4761281   293600 
 2434000   0.98404333   -3.3754172   -3.3754172   -1.8993572  0.054472362   -3.3754172      1.47606   293600 
 2435000   0.98581273   -3.3768891   -3.3768891   -1.8981751  0.054792701   -3.3768891    1.4787141   293600 
 2436000   0.98315463   -3.3746727   -3.3746727   -1.8999458  0.054293992   -3.3746727    1.4747269   293600 
 2437000   0.98492132   -3.3769157   -3.3769157   -1.8995387  0.057165244   -3.3769157    1.4773769   293600 
 2438000   0.98396728   -3.3766077   -3.3766077   -1.9006618   0.05321914   -3.3766077    1.4759459   293600 
 2439000   0.98084448   -3.3721772   -3.3721772   -1.9009155  0.057960743   -3.3721772    1.4712617   293600 
 2440000    0.9834083    -3.377334    -3.377334   -1.9022266  0.051618981    -3.377334    1.4751074   293600 
 2441000    0.9834592   -3.3761125   -3.3761125   -1.9009287  0.053401831   -3.3761125    1.4751838   293600 
 2442000   0.98430946   -3.3780016   -3.3780016   -1.9015424  0.051231847   -3.3780016    1.4764592   293600 
 2443000   0.98276851   -3.3763972   -3.3763972   -1.9022495  0.053269757   -3.3763972    1.4741478   293600 
 2444000    0.9823269    -3.374085    -3.374085   -1.9005996  0.052709161    -3.374085    1.4734853   293600 
 2445000   0.98219588    -3.373996    -3.373996   -1.9007072  0.057280196    -3.373996    1.4732888   293600 
 2446000   0.98390262    -3.376814    -3.376814   -1.9009651  0.052013602    -3.376814    1.4758489   293600 
 2447000    0.9839888    -3.375351    -3.375351   -1.8993728  0.059508797    -3.375351    1.4759782   293600 
 2448000   0.98344593   -3.3749604   -3.3749604   -1.8997965  0.056757275   -3.3749604    1.4751639   293600 
 2449000   0.98347869   -3.3755216   -3.3755216   -1.9003086  0.053011994   -3.3755216     1.475213   293600 
 2450000   0.98626317   -3.3795219   -3.3795219   -1.9001322  0.054010755   -3.3795219    1.4793897   293600 
 2451000   0.98545884   -3.3766949   -3.3766949   -1.8985117   0.06030367   -3.3766949    1.4781832   293600 
 2452000   0.98606305   -3.3765497   -3.3765497   -1.8974602  0.058286971   -3.3765497    1.4790895   293600 
 2453000   0.98460569   -3.3740187   -3.3740187   -1.8971152  0.054769206   -3.3740187    1.4769035   293600 
 2454000    0.9851479   -3.3745342   -3.3745342   -1.8968174  0.058704818   -3.3745342    1.4777168   293600 
 2455000   0.98801175   -3.3783338   -3.3783338   -1.8963212  0.049710859   -3.3783338    1.4820126   293600 
 2456000   0.98553903   -3.3760595   -3.3760595    -1.897756  0.049935293   -3.3760595    1.4783035   293600 
 2457000   0.98704245   -3.3774633   -3.3774633   -1.8969046  0.056222087   -3.3774633    1.4805586   293600 
 2458000   0.98742765    -3.378616    -3.378616   -1.8974796  0.056925163    -3.378616    1.4811364   293600 
 2459000   0.98522508   -3.3764212   -3.3764212   -1.8985886  0.060059779   -3.3764212    1.4778326   293600 
 2460000   0.98581175   -3.3756072   -3.3756072   -1.8968946  0.058243564   -3.3756072    1.4787126   293600 
 2461000   0.98571362   -3.3746524   -3.3746524    -1.896087  0.056594837   -3.3746524    1.4785654   293600 
 2462000   0.98652441   -3.3759134   -3.3759134   -1.8961318  0.064089127   -3.3759134    1.4797816   293600 
 2463000   0.98586511   -3.3739696   -3.3739696    -1.895177  0.054679077   -3.3739696    1.4787926   293600 
 2464000   0.98598859   -3.3735054   -3.3735054   -1.8945276  0.059746193   -3.3735054    1.4789778   293600 
 2465000   0.98393525   -3.3702175   -3.3702175   -1.8943196  0.060115645   -3.3702175    1.4758979   293600 
 2466000   0.98557108   -3.3736004   -3.3736004   -1.8952488  0.058157432   -3.3736004    1.4783516   293600 
 2467000   0.98327669   -3.3716726   -3.3716726   -1.8967626   0.05375043   -3.3716726      1.47491   293600 
 2468000   0.98262404    -3.370764    -3.370764   -1.8968329  0.058140821    -3.370764     1.473931   293600 
 2469000   0.98329509   -3.3729118   -3.3729118   -1.8979742  0.043331102   -3.3729118    1.4749376   293600 
 2470000   0.98166666    -3.369528    -3.369528    -1.897033  0.048575876    -3.369528     1.472495   293600 
 2471000   0.98113431   -3.3692942   -3.3692942   -1.8975977  0.056378891   -3.3692942    1.4716964   293600 
 2472000   0.98215704   -3.3699323   -3.3699323   -1.8967017  0.046009774   -3.3699323    1.4732305   293600 
 2473000   0.98278363   -3.3714294   -3.3714294   -1.8972589  0.044790655   -3.3714294    1.4741704   293600 
 2474000   0.97957988   -3.3671164   -3.3671164   -1.8977516   0.05298542   -3.3671164    1.4693648   293600 
 2475000   0.98066453   -3.3685049   -3.3685049   -1.8975131  0.048620623   -3.3685049    1.4709918   293600 
 2476000   0.98125067   -3.3687839   -3.3687839   -1.8969129  0.049177753   -3.3687839     1.471871   293600 
 2477000   0.98057941   -3.3673512   -3.3673512   -1.8964871  0.054528731   -3.3673512    1.4708641   293600 
 2478000   0.98240202   -3.3689772   -3.3689772   -1.8953792  0.051389527   -3.3689772     1.473598   293600 
 2479000   0.98465693   -3.3715151   -3.3715151   -1.8945348  0.048247744   -3.3715151    1.4769804   293600 
 2480000   0.98417451   -3.3710332   -3.3710332   -1.8947765  0.054386002   -3.3710332    1.4762567   293600 
 2481000   0.98374542   -3.3705941   -3.3705941    -1.894981  0.049584625   -3.3705941    1.4756131   293600 
 2482000   0.98542534    -3.373242    -3.373242   -1.8951091  0.048416964    -3.373242     1.478133   293600 
 2483000   0.98368394   -3.3712141   -3.3712141   -1.8956932  0.048642082   -3.3712141    1.4755209   293600 
 2484000   0.98436313     -3.36921     -3.36921   -1.8926703  0.053126045     -3.36921    1.4765397   293600 
 2485000   0.98444108   -3.3713542   -3.3713542   -1.8946976   0.05055861   -3.3713542    1.4766566   293600 
 2486000   0.98614083   -3.3725039   -3.3725039   -1.8932976  0.051093164   -3.3725039    1.4792062   293600 
 2487000   0.98303548   -3.3683289   -3.3683289   -1.8937807  0.050582438   -3.3683289    1.4745482   293600 
 2488000   0.98439573   -3.3710371   -3.3710371   -1.8944486   0.05611784   -3.3710371    1.4765886   293600 
 2489000   0.98465413   -3.3714481   -3.3714481   -1.8944719  0.055403941   -3.3714481    1.4769762   293600 
 2490000   0.98698885   -3.3744806   -3.3744806   -1.8940023  0.057227811   -3.3744806    1.4804782   293600 
 2491000   0.98429706   -3.3712048   -3.3712048   -1.8947643  0.056165539   -3.3712048    1.4764406   293600 
 2492000   0.98504674   -3.3709628   -3.3709628   -1.8933977  0.055624226   -3.3709628    1.4775651   293600 
 2493000   0.98515612   -3.3718209   -3.3718209   -1.8940918   0.05156353   -3.3718209    1.4777291   293600 
 2494000   0.98640318   -3.3733524   -3.3733524   -1.8937526  0.057202688   -3.3733524    1.4795997   293600 
 2495000   0.98593335   -3.3729635   -3.3729635   -1.8940685  0.061848074   -3.3729635     1.478895   293600 
 2496000   0.98497012   -3.3709936   -3.3709936   -1.8935435  0.061826536   -3.3709936    1.4774502   293600 
 2497000    0.9849167   -3.3723737   -3.3723737   -1.8950036  0.063013623   -3.3723737      1.47737   293600 
 2498000   0.98678741   -3.3742503   -3.3742503   -1.8940742  0.062196148   -3.3742503    1.4801761   293600 
 2499000    0.9847211   -3.3706354   -3.3706354   -1.8935588   0.05862606   -3.3706354    1.4770766   293600 
 2500000   0.98640047     -3.37177     -3.37177   -1.8921743  0.053514396     -3.37177    1.4795957   293600 
 2501000   0.98490329   -3.3692332   -3.3692332   -1.8918833  0.052751847   -3.3692332    1.4773499   293600 
 2502000   0.98573929   -3.3707084   -3.3707084   -1.8921045  0.056501303   -3.3707084    1.4786039   293600 
 2503000   0.98295033   -3.3686565   -3.3686565    -1.894236  0.052913876   -3.3686565    1.4744205   293600 
 2504000   0.98339227    -3.368331    -3.368331   -1.8932476  0.053134942    -3.368331    1.4750834   293600 
 2505000   0.98376851   -3.3707492   -3.3707492   -1.8951015  0.054123742   -3.3707492    1.4756477   293600 
 2506000   0.98275115   -3.3694948   -3.3694948   -1.8953731  0.052736267   -3.3694948    1.4741217   293600 
 2507000   0.98535948    -3.372916    -3.372916   -1.8948818  0.048044645    -3.372916    1.4780342   293600 
 2508000   0.98400699   -3.3695269   -3.3695269   -1.8935215   0.05109927   -3.3695269    1.4760055   293600 
 2509000   0.98338604    -3.369383    -3.369383    -1.894309  0.053176674    -3.369383     1.475074   293600 
 2510000   0.98271104   -3.3688038   -3.3688038   -1.8947423  0.055649318   -3.3688038    1.4740615   293600 
 2511000   0.98251605   -3.3696976   -3.3696976   -1.8959285  0.050717971   -3.3696976    1.4737691   293600 
 2512000   0.98555218   -3.3717643   -3.3717643   -1.8934411  0.045640893   -3.3717643    1.4783232   293600 
 2513000   0.98527607   -3.3712566   -3.3712566   -1.8933476  0.049445271   -3.3712566    1.4779091   293600 
 2514000   0.98468096    -3.370172    -3.370172   -1.8931556  0.051603037    -3.370172    1.4770164   293600 
 2515000   0.98376511    -3.368857    -3.368857   -1.8932144  0.051209243    -3.368857    1.4756426   293600 
 2516000   0.98393403   -3.3687313   -3.3687313   -1.8928353  0.053452755   -3.3687313     1.475896   293600 
 2517000   0.98446569   -3.3686297   -3.3686297   -1.8919362  0.054459909   -3.3686297    1.4766935   293600 
 2518000   0.98571615   -3.3696088   -3.3696088   -1.8910396  0.058515106   -3.3696088    1.4785692   293600 
 2519000   0.98538588   -3.3679073   -3.3679073   -1.8898335  0.056491168   -3.3679073    1.4780738   293600 
 2520000   0.98626472   -3.3684841   -3.3684841    -1.889092  0.055214809   -3.3684841     1.479392   293600 
 2521000   0.98511369   -3.3676669   -3.3676669   -1.8900014   0.04710859   -3.3676669    1.4776655   293600 
 2522000    0.9852197   -3.3679223   -3.3679223   -1.8900978   0.05418624   -3.3679223    1.4778245   293600 
 2523000   0.98650891   -3.3693522   -3.3693522   -1.8895939  0.057725376   -3.3693522    1.4797583   293600 
 2524000   0.98699883   -3.3708737   -3.3708737   -1.8903805  0.052542693   -3.3708737    1.4804932   293600 
 2525000   0.98614265   -3.3710005   -3.3710005   -1.8917916  0.049627589   -3.3710005    1.4792089   293600 
 2526000   0.98428369   -3.3702384   -3.3702384   -1.8938179  0.051915328   -3.3702384    1.4764205   293600 
 2527000    0.9842065   -3.3689669   -3.3689669   -1.8926621  0.049506898   -3.3689669    1.4763047   293600 
 2528000   0.98304639   -3.3674887   -3.3674887   -1.8929241  0.048057721   -3.3674887    1.4745646   293600 
 2529000   0.98477834   -3.3707469   -3.3707469   -1.8935845   0.05225022   -3.3707469    1.4771625   293600 
 2530000   0.98161118   -3.3672234   -3.3672234   -1.8948116  0.055777781   -3.3672234    1.4724118   293600 
 2531000   0.98324692   -3.3683894   -3.3683894   -1.8935241  0.052775111   -3.3683894    1.4748654   293600 
 2532000   0.98437853   -3.3681566   -3.3681566   -1.8915939  0.056228973   -3.3681566    1.4765628   293600 
 2533000   0.98583344   -3.3711329   -3.3711329   -1.8923878  0.050307708   -3.3711329    1.4787451   293600 
 2534000   0.98308777    -3.367491    -3.367491   -1.8928643  0.050750612    -3.367491    1.4746266   293600 
 2535000   0.98532121   -3.3689521   -3.3689521   -1.8909753  0.054279806   -3.3689521    1.4779768   293600 
 2536000   0.98419271   -3.3674453   -3.3674453   -1.8911613  0.054775796   -3.3674453     1.476284   293600 
 2537000    0.9850836   -3.3701097   -3.3701097   -1.8924893  0.049821467   -3.3701097    1.4776204   293600 
 2538000   0.98524438   -3.3695287   -3.3695287   -1.8916672  0.057169013   -3.3695287    1.4778615   293600 
 2539000   0.98411423   -3.3676648   -3.3676648   -1.8914985  0.056056708   -3.3676648    1.4761663   293600 
 2540000    0.9847049   -3.3688683   -3.3688683    -1.891816  0.052211161   -3.3688683    1.4770523   293600 
 2541000   0.98435986   -3.3679692   -3.3679692   -1.8914344  0.051718251   -3.3679692    1.4765348   293600 
 2542000    0.9856678   -3.3702808   -3.3702808   -1.8917841  0.058837353   -3.3702808    1.4784967   293600 
 2543000   0.98530505    -3.369674    -3.369674   -1.8917215  0.052689899    -3.369674    1.4779525   293600 
 2544000    0.9856811   -3.3692955   -3.3692955   -1.8907788   0.05954682   -3.3692955    1.4785166   293600 
 2545000   0.98549953   -3.3701894   -3.3701894   -1.8919452  0.056543398   -3.3701894    1.4782443   293600 
 2546000   0.98496243    -3.369617    -3.369617   -1.8921784  0.052159507    -3.369617    1.4774386   293600 
 2547000   0.98483879   -3.3697491   -3.3697491   -1.8924959  0.052970469   -3.3697491    1.4772532   293600 
 2548000    0.9844032   -3.3689355   -3.3689355   -1.8923358   0.05293976   -3.3689355    1.4765998   293600 
 2549000   0.98560685   -3.3691236   -3.3691236   -1.8907184  0.057047299   -3.3691236    1.4784052   293600 
 2550000   0.98433844   -3.3675612   -3.3675612   -1.8910585  0.052705297   -3.3675612    1.4765026   293600 
 2551000   0.98400241    -3.367875    -3.367875   -1.8918764  0.049509171    -3.367875    1.4759986   293600 
 2552000   0.98270903   -3.3664081   -3.3664081   -1.8923496  0.056128428   -3.3664081    1.4740585   293600 
 2553000   0.98268854   -3.3665392   -3.3665392   -1.8925114  0.055511978   -3.3665392    1.4740278   293600 
 2554000   0.98479321   -3.3697299   -3.3697299   -1.8925451  0.052183309   -3.3697299    1.4771848   293600 
 2555000   0.98466833   -3.3694422   -3.3694422   -1.8924447  0.059039367   -3.3694422    1.4769975   293600 
 2556000   0.98297758   -3.3682154   -3.3682154    -1.893754   0.05449136   -3.3682154    1.4744613   293600 
 2557000   0.98394658    -3.368861    -3.368861   -1.8929462  0.056870634    -3.368861    1.4759148   293600 
 2558000   0.98470611   -3.3702471   -3.3702471    -1.893193  0.052851565   -3.3702471    1.4770541   293600 
 2559000   0.98479797    -3.370494    -3.370494   -1.8933021  0.058748848    -3.370494    1.4771919   293600 
 2560000   0.98358998   -3.3695898   -3.3695898   -1.8942098  0.054906026   -3.3695898      1.47538   293600 
 2561000   0.98428327   -3.3691627   -3.3691627   -1.8927428  0.059280263   -3.3691627    1.4764199   293600 
 2562000   0.98574715   -3.3693185   -3.3693185   -1.8907028   0.05420256   -3.3693185    1.4786157   293600 
 2563000   0.98527943   -3.3688757   -3.3688757   -1.8909616  0.057313932   -3.3688757    1.4779141   293600 
 2564000   0.98615703   -3.3710599   -3.3710599   -1.8918294  0.053412737   -3.3710599    1.4792305   293600 
 2565000   0.98410137   -3.3668759   -3.3668759   -1.8907289  0.059461643   -3.3668759     1.476147   293600 
 2566000   0.98412825   -3.3688225   -3.3688225   -1.8926352  0.056774381   -3.3688225    1.4761873   293600 
 2567000   0.98504786   -3.3692476   -3.3692476   -1.8916808  0.058039247   -3.3692476    1.4775668   293600 
 2568000    0.9845914   -3.3694945   -3.3694945   -1.8926124  0.054735624   -3.3694945    1.4768821   293600 
 2569000   0.98660036   -3.3719487   -3.3719487   -1.8920532  0.051236006   -3.3719487    1.4798955   293600 
 2570000   0.98487641   -3.3681587   -3.3681587   -1.8908491  0.057300749   -3.3681587    1.4773096   293600 
 2571000   0.98452431   -3.3694414   -3.3694414     -1.89266  0.058829449   -3.3694414    1.4767814   293600 
 2572000   0.98496264   -3.3699419   -3.3699419   -1.8925029  0.058064021   -3.3699419    1.4774389   293600 
 2573000    0.9838996   -3.3680772   -3.3680772   -1.8922329  0.061909949   -3.3680772    1.4758444   293600 
 2574000    0.9860026   -3.3698208   -3.3698208    -1.890822  0.052985434   -3.3698208    1.4789989   293600 
 2575000   0.98444056   -3.3671211   -3.3671211   -1.8904653  0.057898889   -3.3671211    1.4766558   293600 
 2576000   0.98461724    -3.368747    -3.368747   -1.8918261  0.052489599    -3.368747    1.4769208   293600 
 2577000    0.9827503   -3.3680076   -3.3680076   -1.8938872  0.046503027   -3.3680076    1.4741204   293600 
 2578000   0.98415557   -3.3696976   -3.3696976   -1.8934693  0.048608154   -3.3696976    1.4762283   293600 
 2579000   0.98402865   -3.3696289   -3.3696289    -1.893591  0.055563202   -3.3696289    1.4760379   293600 
 2580000   0.98186669   -3.3672269   -3.3672269   -1.8944319  0.050343226   -3.3672269     1.472795   293600 
 2581000   0.98233499   -3.3678726   -3.3678726   -1.8943751  0.046522651   -3.3678726    1.4734975   293600 
 2582000   0.98273544   -3.3663217   -3.3663217   -1.8922235  0.053261137   -3.3663217    1.4740981   293600 
 2583000   0.98296418   -3.3655984   -3.3655984   -1.8911572  0.058889578   -3.3655984    1.4744413   293600 
 2584000   0.98611413   -3.3680039   -3.3680039   -1.8888377  0.054886337   -3.3680039    1.4791662   293600 
 2585000   0.98627152   -3.3690731   -3.3690731   -1.8896708  0.060278902   -3.3690731    1.4794022   293600 
 2586000   0.98644242   -3.3681148   -3.3681148   -1.8884562  0.058474815   -3.3681148    1.4796586   293600 
 2587000   0.98687067   -3.3680361   -3.3680361   -1.8877352  0.057335473   -3.3680361     1.480301   293600 
 2588000   0.98776055   -3.3696297   -3.3696297   -1.8879939  0.058467467   -3.3696297    1.4816358   293600 
 2589000   0.98631101   -3.3671804   -3.3671804   -1.8877189   0.06848967   -3.3671804    1.4794615   293600 
 2590000   0.98575622   -3.3668736   -3.3668736   -1.8882443   0.05558652   -3.3668736    1.4786293   293600 
 2591000   0.98549877   -3.3663443   -3.3663443   -1.8881012   0.05224701   -3.3663443    1.4782431   293600 
 2592000   0.98451301   -3.3637753   -3.3637753   -1.8870108  0.057077054   -3.3637753    1.4767645   293600 
 2593000   0.98534707   -3.3659728   -3.3659728   -1.8879572  0.054815723   -3.3659728    1.4780156   293600 
 2594000   0.98573728   -3.3661822   -3.3661822   -1.8875813  0.053105266   -3.3661822    1.4786009   293600 
 2595000   0.98465537   -3.3645967   -3.3645967   -1.8876186  0.057566398   -3.3645967     1.476978   293600 
 2596000    0.9851078   -3.3657185   -3.3657185   -1.8880618  0.052587898   -3.3657185    1.4776567   293600 
 2597000   0.98517958   -3.3668344   -3.3668344   -1.8890701  0.053807685   -3.3668344    1.4777643   293600 
 2598000   0.98682718   -3.3689978   -3.3689978   -1.8887621  0.049333605   -3.3689978    1.4802357   293600 
 2599000   0.98626248   -3.3676523   -3.3676523   -1.8882636  0.055168259   -3.3676523    1.4793887   293600 
 2600000   0.98461092   -3.3644604   -3.3644604   -1.8875491  0.058162854   -3.3644604    1.4769114   293600 
 2601000   0.98571862   -3.3658203   -3.3658203   -1.8872474  0.061010606   -3.3658203    1.4785729   293600 
 2602000    0.9848172   -3.3647161   -3.3647161   -1.8874954  0.052337516   -3.3647161    1.4772208   293600 
 2603000   0.98446986   -3.3645239   -3.3645239   -1.8878241   0.04990826   -3.3645239    1.4766998   293600 
 2604000   0.98346869   -3.3625535   -3.3625535   -1.8873555  0.052813073   -3.3625535     1.475198   293600 
 2605000   0.98291139   -3.3607185   -3.3607185   -1.8863564  0.055856748   -3.3607185    1.4743621   293600 
 2606000   0.98464759   -3.3632309   -3.3632309   -1.8862646  0.060714172   -3.3632309    1.4769664   293600 
 2607000    0.9844115   -3.3634712   -3.3634712    -1.886859  0.053270789   -3.3634712    1.4766122   293600 
 2608000   0.98523566   -3.3646334   -3.3646334   -1.8867849  0.051306575   -3.3646334    1.4778484   293600 
 2609000   0.98633833   -3.3648932   -3.3648932   -1.8853907  0.052991905   -3.3648932    1.4795025   293600 
 2610000   0.98573459   -3.3645261   -3.3645261   -1.8859292  0.050671524   -3.3645261    1.4785969   293600 
 2611000   0.98483131    -3.364004    -3.364004   -1.8867621  0.058354902    -3.364004    1.4772419   293600 
 2612000   0.98619719   -3.3652534   -3.3652534   -1.8859627  0.048030935   -3.3652534    1.4792908   293600 
 2613000   0.98531579    -3.363953    -3.363953   -1.8859844  0.050277107    -3.363953    1.4779686   293600 
 2614000   0.98740286   -3.3664141   -3.3664141   -1.8853148  0.051037457   -3.3664141    1.4810992   293600 
 2615000   0.98565304   -3.3637653   -3.3637653   -1.8852907  0.050804553   -3.3637653    1.4784745   293600 
 2616000    0.9856169   -3.3628428   -3.3628428   -1.8844225  0.062260166   -3.3628428    1.4784203   293600 
 2617000   0.98751049   -3.3654384   -3.3654384   -1.8841777  0.055260894   -3.3654384    1.4812607   293600 
 2618000   0.98630628   -3.3638553   -3.3638553   -1.8844009  0.052748094   -3.3638553    1.4794544   293600 
 2619000   0.98611742   -3.3639039   -3.3639039   -1.8847328  0.053352493   -3.3639039    1.4791711   293600 
 2620000   0.98819395    -3.365542    -3.365542   -1.8832561  0.055659215    -3.365542    1.4822859   293600 
 2621000   0.98875228   -3.3667438   -3.3667438   -1.8836205  0.056456916   -3.3667438    1.4831234   293600 
 2622000   0.98700401    -3.364437    -3.364437    -1.883936  0.054221282    -3.364437     1.480501   293600 
 2623000   0.98596792   -3.3632491   -3.3632491   -1.8843023  0.056292951   -3.3632491    1.4789468   293600 
 2624000   0.98722415   -3.3656177   -3.3656177   -1.8847865  0.060219541   -3.3656177    1.4808312   293600 
 2625000   0.98575051   -3.3635322   -3.3635322   -1.8849115  0.054309252   -3.3635322    1.4786207   293600 
 2626000     0.986818   -3.3643334   -3.3643334   -1.8841114  0.054923426   -3.3643334     1.480222   293600 
 2627000   0.98670987   -3.3653108   -3.3653108   -1.8852511  0.054425561   -3.3653108    1.4800598   293600 
 2628000    0.9862146   -3.3664532   -3.3664532   -1.8871364  0.053226434   -3.3664532    1.4793169   293600 
 2629000   0.98371901   -3.3628997   -3.3628997   -1.8873263  0.055860882   -3.3628997    1.4755735   293600 
 2630000   0.98566885   -3.3636933   -3.3636933   -1.8851951  0.053385645   -3.3636933    1.4784982   293600 
 2631000   0.98490642   -3.3628845   -3.3628845   -1.8855299  0.052756638   -3.3628845    1.4773546   293600 
 2632000   0.98387429   -3.3626736   -3.3626736   -1.8868672  0.058537127   -3.3626736    1.4758064   293600 
 2633000   0.98471526   -3.3651077   -3.3651077   -1.8880399  0.049572407   -3.3651077    1.4770679   293600 
 2634000   0.98541446   -3.3652049   -3.3652049   -1.8870882  0.058996009   -3.3652049    1.4781167   293600 
 2635000   0.98611359   -3.3661288   -3.3661288   -1.8869634  0.050192946   -3.3661288    1.4791653   293600 
 2636000   0.98256582   -3.3613533   -3.3613533   -1.8875096  0.053892505   -3.3613533    1.4738437   293600 
 2637000   0.98520274   -3.3639375   -3.3639375   -1.8861384  0.052109266   -3.3639375    1.4777991   293600 
 2638000   0.98386553   -3.3626561   -3.3626561   -1.8868628  0.058499894   -3.3626561    1.4757933   293600 
 2639000   0.98533026   -3.3647028   -3.3647028   -1.8867125  0.048591866   -3.3647028    1.4779904   293600 
 2640000   0.98553997   -3.3637019   -3.3637019   -1.8853969  0.056077573   -3.3637019    1.4783049   293600 
 2641000   0.98542315   -3.3644405   -3.3644405   -1.8863109  0.051288815   -3.3644405    1.4781297   293600 
 2642000   0.98475538   -3.3633759   -3.3633759   -1.8862479  0.057227223   -3.3633759     1.477128   293600 
 2643000   0.98573382   -3.3645014   -3.3645014   -1.8859057  0.055214484   -3.3645014    1.4785957   293600 
 2644000   0.98617835   -3.3643712   -3.3643712   -1.8851087  0.058662135   -3.3643712    1.4792625   293600 
 2645000   0.98596307   -3.3649707   -3.3649707   -1.8860311  0.056924972   -3.3649707    1.4789396   293600 
 2646000   0.98576128     -3.36469     -3.36469   -1.8860531  0.051416533     -3.36469    1.4786369   293600 
 2647000   0.98437177   -3.3621705   -3.3621705   -1.8856178  0.054782832   -3.3621705    1.4765526   293600 
 2648000   0.98643243   -3.3620048   -3.3620048   -1.8823612  0.064332508   -3.3620048    1.4796436   293600 
 2649000   0.98846183   -3.3643717   -3.3643717    -1.881684  0.055405702   -3.3643717    1.4826877   293600 
 2650000   0.98782943   -3.3642307   -3.3642307   -1.8824916  0.059011532   -3.3642307    1.4817391   293600 
 2651000   0.98797952   -3.3652213   -3.3652213   -1.8832571  0.059650652   -3.3652213    1.4819642   293600 
 2652000   0.98582041   -3.3620378   -3.3620378   -1.8833123  0.055175723   -3.3620378    1.4787256   293600 
 2653000   0.98557521   -3.3629673   -3.3629673   -1.8846095  0.054328881   -3.3629673    1.4783578   293600 
 2654000   0.98732933   -3.3653035   -3.3653035   -1.8843146  0.054706719   -3.3653035     1.480989   293600 
 2655000   0.98660341   -3.3633267   -3.3633267   -1.8834266  0.058266317   -3.3633267    1.4799001   293600 
 2656000   0.98494161   -3.3621469   -3.3621469   -1.8847395  0.057530802   -3.3621469    1.4774074   293600 
 2657000   0.98717292   -3.3658557   -3.3658557   -1.8851014  0.054294226   -3.3658557    1.4807543   293600 
 2658000   0.98475008   -3.3630746   -3.3630746   -1.8859545  0.049696254   -3.3630746    1.4771201   293600 
 2659000   0.98454023    -3.363266    -3.363266   -1.8864607   0.05180181    -3.363266    1.4768053   293600 
 2660000   0.98377634    -3.363212    -3.363212   -1.8875525  0.056470821    -3.363212    1.4756595   293600 
 2661000   0.98376232   -3.3635783   -3.3635783   -1.8879399  0.057440005   -3.3635783    1.4756385   293600 
 2662000   0.98507808   -3.3640458   -3.3640458   -1.8864337  0.055888025   -3.3640458    1.4776121   293600 
 2663000   0.98538006   -3.3638394   -3.3638394   -1.8857743  0.056947177   -3.3638394    1.4780651   293600 
 2664000   0.98436986   -3.3628088   -3.3628088   -1.8862591  0.049289962   -3.3628088    1.4765498   293600 
 2665000   0.98469084   -3.3620357   -3.3620357   -1.8850045  0.054584222   -3.3620357    1.4770312   293600 
 2666000   0.98454639    -3.363035    -3.363035   -1.8862204  0.051170367    -3.363035    1.4768146   293600 
 2667000   0.98223875   -3.3593226   -3.3593226   -1.8859694  0.061102217   -3.3593226    1.4733531   293600 
 2668000   0.98606051    -3.363543    -3.363543   -1.8844573  0.056754698    -3.363543    1.4790857   293600 
 2669000   0.98591191   -3.3627019   -3.3627019    -1.883839  0.052821819   -3.3627019    1.4788628   293600 
 2670000   0.98651463   -3.3638468   -3.3638468   -1.8840799  0.052835423   -3.3638468    1.4797669   293600 
 2671000   0.98605254   -3.3639181   -3.3639181   -1.8848443    0.0618128   -3.3639181    1.4790738   293600 
 2672000   0.98588009   -3.3629523   -3.3629523   -1.8841372  0.058939157   -3.3629523    1.4788151   293600 
 2673000   0.98783537   -3.3640404   -3.3640404   -1.8822923  0.060293647   -3.3640404     1.481748   293600 
 2674000    0.9873016   -3.3633394   -3.3633394    -1.882392  0.057421345   -3.3633394    1.4809474   293600 
 2675000    0.9871884   -3.3638183   -3.3638183   -1.8830408  0.060588031   -3.3638183    1.4807776   293600 
 2676000   0.98732259   -3.3635639   -3.3635639    -1.882585  0.059789724   -3.3635639    1.4809788   293600 
 2677000   0.98519883   -3.3605854   -3.3605854   -1.8827922  0.056040563   -3.3605854    1.4777932   293600 
 2678000   0.98602647   -3.3613904   -3.3613904   -1.8823557  0.053046996   -3.3613904    1.4790347   293600 
 2679000   0.98641421   -3.3610576   -3.3610576   -1.8814413  0.058217102   -3.3610576    1.4796163   293600 
 2680000   0.98708471   -3.3629929   -3.3629929   -1.8823709  0.060364242   -3.3629929     1.480622   293600 
 2681000   0.98684113   -3.3621015   -3.3621015   -1.8818449  0.061960383   -3.3621015    1.4802567   293600 
 2682000    0.9863145   -3.3607031   -3.3607031   -1.8812364  0.058417122   -3.3607031    1.4794667   293600 
 2683000   0.98644361   -3.3629331   -3.3629331   -1.8832727  0.049533519   -3.3629331    1.4796604   293600 
 2684000   0.98489224   -3.3610783   -3.3610783    -1.883745  0.055310661   -3.3610783    1.4773333   293600 
 2685000   0.98459088   -3.3605637   -3.3605637   -1.8836824   0.04776421   -3.3605637    1.4768813   293600 
 2686000    0.9828393   -3.3578458   -3.3578458   -1.8835919  0.056547687   -3.3578458    1.4742539   293600 
 2687000   0.98624877   -3.3628298   -3.3628298   -1.8834617  0.052909394   -3.3628298    1.4793681   293600 
 2688000   0.98470507   -3.3606697   -3.3606697   -1.8836172  0.053180046   -3.3606697    1.4770526   293600 
 2689000   0.98706091   -3.3631015   -3.3631015   -1.8825152  0.054586946   -3.3631015    1.4805863   293600 
 2690000   0.98428752   -3.3586016   -3.3586016   -1.8821753  0.051230319   -3.3586016    1.4764263   293600 
 2691000   0.98396764   -3.3582296   -3.3582296   -1.8822831  0.047789802   -3.3582296    1.4759464   293600 
 2692000   0.98536075   -3.3604493   -3.3604493   -1.8824132  0.053026624   -3.3604493    1.4780361   293600 
 2693000   0.98515648   -3.3602008   -3.3602008   -1.8824712  0.050259818   -3.3602008    1.4777297   293600 
 2694000   0.98747927   -3.3624035   -3.3624035   -1.8811897  0.053358518   -3.3624035    1.4812139   293600 
 2695000   0.98558925   -3.3601885   -3.3601885   -1.8818097   0.05351417   -3.3601885    1.4783788   293600 
 2696000   0.98424405   -3.3592964   -3.3592964   -1.8829353  0.053123125   -3.3592964    1.4763611   293600 
 2697000   0.98475291   -3.3601487   -3.3601487   -1.8830244   0.05455719   -3.3601487    1.4771243   293600 
 2698000   0.98485186    -3.361021    -3.361021   -1.8837482  0.059145745    -3.361021    1.4772728   293600 
 2699000   0.98422355   -3.3618042   -3.3618042   -1.8854739  0.055296656   -3.3618042    1.4763303   293600 
 2700000   0.98598126   -3.3630473   -3.3630473   -1.8840805  0.052291103   -3.3630473    1.4789669   293600 
 2701000    0.9836409   -3.3612373   -3.3612373    -1.885781    0.0522451   -3.3612373    1.4754563   293600 
 2702000   0.98589924   -3.3628278   -3.3628278    -1.883984  0.052237842   -3.3628278    1.4788438   293600 
 2703000   0.98701793   -3.3657077   -3.3657077   -1.8851859  0.045903017   -3.3657077    1.4805219   293600 
 2704000   0.98427195   -3.3617591   -3.3617591   -1.8853562  0.055104206   -3.3617591    1.4764029   293600 
 2705000   0.98471388   -3.3624774   -3.3624774   -1.8854116  0.056358139   -3.3624774    1.4770658   293600 
 2706000   0.98485401   -3.3623761   -3.3623761   -1.8851002  0.050806877   -3.3623761     1.477276   293600 
 2707000   0.98640065   -3.3654611   -3.3654611   -1.8858651  0.058670712   -3.3654611    1.4795959   293600 
 2708000   0.98555485   -3.3655232   -3.3655232    -1.887196   0.05900706   -3.3655232    1.4783272   293600 
 2709000   0.98654983   -3.3681899   -3.3681899   -1.8883702   0.05341372   -3.3681899    1.4798197   293600 
 2710000   0.98498386   -3.3655388   -3.3655388    -1.888068  0.056736883   -3.3655388    1.4774708   293600 
 2711000   0.98681539   -3.3668898   -3.3668898   -1.8866718  0.054440016   -3.3668898     1.480218   293600 
 2712000   0.98606757   -3.3671679   -3.3671679   -1.8880715  0.054912861   -3.3671679    1.4790963   293600 
 2713000    0.9870163   -3.3676044   -3.3676044    -1.887085  0.051626957   -3.3676044    1.4805194   293600 
 2714000    0.9881701    -3.369348    -3.369348   -1.8870979  0.053295688    -3.369348    1.4822501   293600 
 2715000    0.9861193   -3.3661059   -3.3661059    -1.886932  0.058404768   -3.3661059    1.4791739   293600 
 2716000   0.98603193   -3.3661457   -3.3661457   -1.8871028  0.058207711   -3.3661457    1.4790429   293600 
 2717000   0.98669729   -3.3682692   -3.3682692   -1.8882283  0.050216291   -3.3682692    1.4800409   293600 
 2718000        0.986   -3.3652705   -3.3652705   -1.8862756  0.061518189   -3.3652705     1.478995   293600 
 2719000   0.98831885   -3.3683886   -3.3683886   -1.8859154  0.058768449   -3.3683886    1.4824732   293600 
 2720000   0.98757323   -3.3673401   -3.3673401   -1.8859853  0.063985794   -3.3673401    1.4813548   293600 
 2721000   0.98780186   -3.3676716   -3.3676716   -1.8859738  0.056620518   -3.3676716    1.4816977   293600 
 2722000   0.98817049   -3.3685208   -3.3685208   -1.8862701  0.054659024   -3.3685208    1.4822507   293600 
 2723000   0.98710094   -3.3654217   -3.3654217   -1.8847753  0.060468605   -3.3654217    1.4806464   293600 
 2724000    0.9890891    -3.367566    -3.367566   -1.8839374  0.057638436    -3.367566    1.4836286   293600 
 2725000    0.9888583   -3.3676349   -3.3676349   -1.8843525  0.062708195   -3.3676349    1.4832824   293600 
 2726000   0.98899836    -3.367774    -3.367774   -1.8842815  0.061516238    -3.367774    1.4834925   293600 
 2727000   0.98941089   -3.3680986   -3.3680986   -1.8839873  0.059605216   -3.3680986    1.4841113   293600 
 2728000   0.98765286   -3.3638248   -3.3638248   -1.8823506  0.062193421   -3.3638248    1.4814742   293600 
 2729000   0.98607492   -3.3635541   -3.3635541   -1.8844468  0.052680757   -3.3635541    1.4791073   293600 
 2730000   0.98529802   -3.3611427   -3.3611427   -1.8832007  0.059671068   -3.3611427     1.477942   293600 
 2731000   0.98462125   -3.3604907   -3.3604907   -1.8835638  0.057012667   -3.3604907    1.4769268   293600 
 2732000   0.98548364   -3.3606828   -3.3606828   -1.8824624  0.056603745   -3.3606828    1.4782204   293600 
 2733000   0.98636112   -3.3630786   -3.3630786   -1.8835419  0.051298973   -3.3630786    1.4795366   293600 
 2734000   0.98532926   -3.3608723   -3.3608723   -1.8828835  0.063506806   -3.3608723    1.4779889   293600 
 2735000   0.98624767   -3.3613607   -3.3613607   -1.8819942  0.057139216   -3.3613607    1.4793665   293600 
 2736000   0.98522808   -3.3590392   -3.3590392   -1.8812022  0.059326579   -3.3590392    1.4778371   293600 
 2737000   0.98646128   -3.3607493   -3.3607493   -1.8810624  0.055685114   -3.3607493    1.4796869   293600 
 2738000   0.98418769   -3.3584721   -3.3584721   -1.8821955  0.048450509   -3.3584721    1.4762765   293600 
 2739000   0.98294082   -3.3558689   -3.3558689   -1.8814627  0.054883777   -3.3558689    1.4744062   293600 
 2740000   0.98435431   -3.3559632   -3.3559632   -1.8794368  0.054246407   -3.3559632    1.4765264   293600 
 2741000   0.98401267   -3.3544831   -3.3544831   -1.8784691  0.054856579   -3.3544831     1.476014   293600 
 2742000   0.98495367    -3.355293    -3.355293   -1.8778675  0.049380208    -3.355293    1.4774255   293600 
 2743000   0.98665375   -3.3574958   -3.3574958   -1.8775202  0.050242479   -3.3574958    1.4799756   293600 
 2744000   0.98541031   -3.3562414   -3.3562414   -1.8781309  0.047294443   -3.3562414    1.4781104   293600 
 2745000   0.98553737   -3.3563605   -3.3563605   -1.8780595  0.058786505   -3.3563605     1.478301   293600 
 2746000   0.98629593    -3.356761    -3.356761   -1.8773221  0.053024554    -3.356761    1.4794389   293600 
 2747000   0.98550379   -3.3552866   -3.3552866   -1.8770359  0.055192831   -3.3552866    1.4782507   293600 
 2748000   0.98385127    -3.353511    -3.353511   -1.8777391   0.05545069    -3.353511    1.4757719   293600 
 2749000   0.98401317   -3.3546588   -3.3546588   -1.8786441  0.049905863   -3.3546588    1.4760147   293600 
 2750000   0.98584376   -3.3564989   -3.3564989   -1.8777383  0.049255706   -3.3564989    1.4787606   293600 
 2751000   0.98534772   -3.3564453   -3.3564453   -1.8784288  0.051319668   -3.3564453    1.4780165   293600 
 2752000   0.98621138   -3.3575441   -3.3575441   -1.8782321  0.047976118   -3.3575441     1.479312   293600 
 2753000   0.98526923   -3.3568862   -3.3568862   -1.8789874  0.053687256   -3.3568862    1.4778988   293600 
 2754000   0.98725607   -3.3586662   -3.3586662   -1.8777871  0.055521925   -3.3586662    1.4808791   293600 
 2755000    0.9867143   -3.3591083   -3.3591083   -1.8790419  0.057110527   -3.3591083    1.4800664   293600 
 2756000   0.98638255    -3.358086    -3.358086   -1.8785172  0.055473271    -3.358086    1.4795688   293600 
 2757000   0.98422261   -3.3562802   -3.3562802   -1.8799513  0.060519112   -3.3562802    1.4763289   293600 
 2758000   0.98360459      -3.3563      -3.3563   -1.8808981  0.053655294      -3.3563    1.4754019   293600 
 2759000   0.98431979   -3.3585953   -3.3585953   -1.8821207  0.054494375   -3.3585953    1.4764747   293600 
 2760000   0.98536572   -3.3583818   -3.3583818   -1.8803383  0.055129038   -3.3583818    1.4780435   293600 
 2761000   0.98802087   -3.3616734   -3.3616734   -1.8796472  0.052839764   -3.3616734    1.4820263   293600 
 2762000   0.98595659   -3.3577841   -3.3577841   -1.8788543  0.054239253   -3.3577841    1.4789299   293600 
 2763000    0.9853845    -3.360043    -3.360043   -1.8819713  0.054067598    -3.360043    1.4780717   293600 
 2764000   0.98662616   -3.3633696   -3.3633696   -1.8834354  0.052895822   -3.3633696    1.4799342   293600 
 2765000    0.9856158   -3.3622165   -3.3622165   -1.8837979   0.06387865   -3.3622165    1.4784187   293600 
 2766000    0.9852573   -3.3610898   -3.3610898   -1.8832089  0.063498608   -3.3610898    1.4778809   293600 
 2767000   0.98559819   -3.3615406   -3.3615406   -1.8831484  0.054689469   -3.3615406    1.4783922   293600 
 2768000   0.98750946   -3.3642116   -3.3642116   -1.8829525  0.056119498   -3.3642116    1.4812592   293600 
 2769000   0.98537274   -3.3619227   -3.3619227   -1.8838686  0.057729155   -3.3619227    1.4780541   293600 
 2770000   0.98651673   -3.3632885   -3.3632885   -1.8835185  0.055030866   -3.3632885    1.4797701   293600 
 2771000   0.98656465   -3.3640599   -3.3640599   -1.8842179  0.052159487   -3.3640599    1.4798419   293600 
 2772000   0.98648324   -3.3635354   -3.3635354   -1.8838156  0.061836319   -3.3635354    1.4797198   293600 
 2773000   0.98858786   -3.3678621   -3.3678621   -1.8849854  0.056717284   -3.3678621    1.4828767   293600 
 2774000   0.98742059    -3.364309    -3.364309   -1.8831832  0.061328987    -3.364309    1.4811258   293600 
 2775000   0.98713108   -3.3653676   -3.3653676   -1.8846761  0.061676404   -3.3653676    1.4806916   293600 
 2776000   0.98830363   -3.3666001   -3.3666001   -1.8841497  0.069178003   -3.3666001    1.4824504   293600 
 2777000   0.98782253   -3.3653107   -3.3653107   -1.8835819  0.057685754   -3.3653107    1.4817288   293600 
 2778000   0.98820191   -3.3651797   -3.3651797   -1.8828819   0.05779189   -3.3651797    1.4822978   293600 
 2779000   0.98797795   -3.3652964   -3.3652964   -1.8833345  0.054800153   -3.3652964    1.4819619   293600 
 2780000   0.98664131   -3.3661276   -3.3661276   -1.8861707  0.055697737   -3.3661276    1.4799569   293600 
 2781000   0.98419798   -3.3616829   -3.3616829    -1.885391  0.060858122   -3.3616829    1.4762919   293600 
 2782000   0.98588421   -3.3640746   -3.3640746   -1.8852533  0.055641397   -3.3640746    1.4788213   293600 
 2783000   0.98549465   -3.3646664   -3.3646664   -1.8864295   0.05888221   -3.3646664    1.4782369   293600 
 2784000   0.98492251   -3.3632577   -3.3632577    -1.885879  0.051503454   -3.3632577    1.4773787   293600 
 2785000   0.98615486   -3.3635819   -3.3635819   -1.8843546  0.048690367   -3.3635819    1.4792273   293600 
 2786000   0.98494855   -3.3631914   -3.3631914   -1.8857736  0.064743578   -3.3631914    1.4774178   293600 
 2787000    0.9870316   -3.3656339   -3.3656339   -1.8850915  0.054537796   -3.3656339    1.4805424   293600 
 2788000   0.98489436   -3.3638808   -3.3638808   -1.8865443  0.059182515   -3.3638808    1.4773365   293600 
 2789000   0.98609686   -3.3643785   -3.3643785   -1.8852382  0.059539033   -3.3643785    1.4791402   293600 
 2790000   0.98440136   -3.3626555   -3.3626555   -1.8860585  0.057223768   -3.3626555     1.476597   293600 
 2791000    0.9865147   -3.3642276   -3.3642276   -1.8844606  0.058750317   -3.3642276     1.479767   293600 
 2792000    0.9854506   -3.3615069   -3.3615069   -1.8833361   0.05535249   -3.3615069    1.4781709   293600 
 2793000   0.98516901   -3.3605544   -3.3605544   -1.8828059  0.057937052   -3.3605544    1.4777485   293600 
 2794000   0.98542922   -3.3591114   -3.3591114   -1.8809726   0.06392546   -3.3591114    1.4781388   293600 
 2795000   0.98760409   -3.3643553   -3.3643553   -1.8829542  0.057839564   -3.3643553    1.4814011   293600 
 2796000   0.98825938   -3.3637322   -3.3637322   -1.8813482  0.054781033   -3.3637322     1.482384   293600 
 2797000   0.98744916   -3.3638486   -3.3638486   -1.8826799  0.058270119   -3.3638486    1.4811687   293600 
 2798000   0.98755772   -3.3628907   -3.3628907   -1.8815592  0.061927975   -3.3628907    1.4813315   293600 
 2799000   0.98803035   -3.3621915   -3.3621915    -1.880151  0.062342549   -3.3621915    1.4820405   293600 
 2800000   0.98623532   -3.3607956   -3.3607956   -1.8814477  0.056350322   -3.3607956    1.4793479   293600 
 2801000   0.98730329   -3.3626605   -3.3626605   -1.8817107  0.050496442   -3.3626605    1.4809499   293600 
 2802000   0.98701056   -3.3630424   -3.3630424   -1.8825316  0.055502843   -3.3630424    1.4805108   293600 
 2803000   0.98568304   -3.3599107   -3.3599107   -1.8813912  0.054248672   -3.3599107    1.4785195   293600 
 2804000   0.98740599   -3.3627099   -3.3627099    -1.881606  0.053043286   -3.3627099    1.4811039   293600 
 2805000   0.98653185   -3.3618837   -3.3618837    -1.882091   0.05596666   -3.3618837    1.4797927   293600 
 2806000   0.98741988   -3.3630296   -3.3630296   -1.8819048  0.055648298   -3.3630296    1.4811248   293600 
 2807000   0.98575066   -3.3610977   -3.3610977   -1.8824768  0.061923373   -3.3610977    1.4786209   293600 
 2808000   0.98669297   -3.3606149   -3.3606149   -1.8805805  0.063602521   -3.3606149    1.4800344   293600 
 2809000    0.9862239   -3.3606865   -3.3606865   -1.8813556    0.0575499   -3.3606865    1.4793308   293600 
 2810000   0.98746942   -3.3628762   -3.3628762   -1.8816771  0.051990387   -3.3628762    1.4811991   293600 
 2811000    0.9863493   -3.3613633   -3.3613633   -1.8818444   0.05956113   -3.3613633    1.4795189   293600 
 2812000   0.98515887   -3.3593584   -3.3593584   -1.8816251   0.05399344   -3.3593584    1.4777333   293600 
 2813000    0.9864918   -3.3615477   -3.3615477   -1.8818151  0.056138569   -3.3615477    1.4797327   293600 
 2814000   0.98641764   -3.3609991   -3.3609991   -1.8813776  0.058720447   -3.3609991    1.4796214   293600 
 2815000   0.98751921   -3.3608204   -3.3608204   -1.8795466  0.057729048   -3.3608204    1.4812738   293600 
 2816000   0.98743045   -3.3613664   -3.3613664   -1.8802257  0.050169083   -3.3613664    1.4811406   293600 
 2817000   0.98575305   -3.3596742   -3.3596742   -1.8810497  0.059275224   -3.3596742    1.4786245   293600 
 2818000   0.98763229    -3.359791    -3.359791   -1.8783476  0.057815255    -3.359791    1.4814434   293600 
 2819000   0.98760155   -3.3606502   -3.3606502   -1.8792529  0.052962898   -3.3606502    1.4813973   293600 
 2820000    0.9873431   -3.3598541   -3.3598541   -1.8788445  0.048520798   -3.3598541    1.4810096   293600 
 2821000   0.98793857   -3.3619161   -3.3619161   -1.8800132  0.054857283   -3.3619161    1.4819028   293600 
 2822000   0.98680268   -3.3604679   -3.3604679    -1.880269  0.058937534   -3.3604679     1.480199   293600 
 2823000   0.98644918   -3.3612432   -3.3612432   -1.8815745  0.064722536   -3.3612432    1.4796687   293600 
 2824000   0.98671296   -3.3601707   -3.3601707   -1.8801063  0.057137297   -3.3601707    1.4800644   293600 
 2825000   0.98751116   -3.3618509   -3.3618509   -1.8805892  0.057570902   -3.3618509    1.4812617   293600 
 2826000   0.98938353   -3.3638809   -3.3638809   -1.8798107  0.054300836   -3.3638809    1.4840702   293600 
 2827000   0.98650534   -3.3590624   -3.3590624   -1.8793095  0.056779382   -3.3590624     1.479753   293600 
 2828000   0.98755978   -3.3613284   -3.3613284   -1.8799938  0.056919869   -3.3613284    1.4813346   293600 
 2829000   0.98612127   -3.3585049   -3.3585049    -1.879328  0.054392011   -3.3585049    1.4791769   293600 
 2830000    0.9886607   -3.3609222   -3.3609222   -1.8779362  0.058179052   -3.3609222     1.482986   293600 
 2831000   0.98641011   -3.3587912   -3.3587912   -1.8791811  0.053390428   -3.3587912    1.4796101   293600 
 2832000   0.98895505   -3.3621114   -3.3621114   -1.8786839  0.052401755   -3.3621114    1.4834275   293600 
 2833000   0.98636126   -3.3597089   -3.3597089    -1.880172  0.059619738   -3.3597089    1.4795368   293600 
 2834000   0.98715941   -3.3601258   -3.3601258   -1.8793918  0.063000436   -3.3601258    1.4807341   293600 
 2835000   0.98826995   -3.3630082   -3.3630082   -1.8806084  0.055519397   -3.3630082    1.4823999   293600 
 2836000   0.98702078   -3.3596549   -3.3596549   -1.8791288  0.060001299   -3.3596549    1.4805261   293600 
 2837000   0.98799004   -3.3608507   -3.3608507   -1.8788707  0.060463986   -3.3608507      1.48198   293600 
 2838000    0.9865859   -3.3593423   -3.3593423   -1.8794685  0.056821567   -3.3593423    1.4798738   293600 
 2839000   0.98717216   -3.3595694   -3.3595694   -1.8788162  0.063975454   -3.3595694    1.4807532   293600 
 2840000    0.9858155   -3.3595073   -3.3595073   -1.8807891  0.055260425   -3.3595073    1.4787182   293600 
 2841000   0.98700698   -3.3600796   -3.3600796   -1.8795741  0.057455883   -3.3600796    1.4805054   293600 
 2842000   0.98733099   -3.3603831   -3.3603831   -1.8793917  0.052845396   -3.3603831    1.4809914   293600 
 2843000   0.98742679   -3.3602168   -3.3602168   -1.8790817  0.056954342   -3.3602168    1.4811351   293600 
 2844000   0.98945252   -3.3618101   -3.3618101   -1.8776364  0.052320303   -3.3618101    1.4841737   293600 
 2845000    0.9884013   -3.3604402   -3.3604402   -1.8778433  0.054475722   -3.3604402    1.4825969   293600 
 2846000   0.98932306   -3.3622187   -3.3622187   -1.8782392  0.056946668   -3.3622187    1.4839795   293600 
 2847000   0.98967533    -3.362106    -3.362106    -1.877598  0.062638872    -3.362106    1.4845079   293600 
 2848000   0.98992051    -3.364243    -3.364243   -1.8793673  0.057706431    -3.364243    1.4848757   293600 
 2849000    0.9888268   -3.3634877   -3.3634877   -1.8802526  0.059308797   -3.3634877    1.4832351   293600 
 2850000   0.98802298   -3.3602777   -3.3602777   -1.8782483  0.063902256   -3.3602777    1.4820294   293600 
 2851000    0.9869968   -3.3579729   -3.3579729   -1.8774828   0.06794516   -3.3579729    1.4804902   293600 
 2852000   0.98777938   -3.3598933   -3.3598933   -1.8782293  0.058583007   -3.3598933     1.481664   293600 
 2853000   0.98767155   -3.3591792   -3.3591792   -1.8776769  0.059762246   -3.3591792    1.4815023   293600 
 2854000   0.98702521   -3.3605608   -3.3605608    -1.880028  0.053682915   -3.3605608    1.4805328   293600 
 2855000   0.98984226   -3.3641831   -3.3641831   -1.8794248  0.051288807   -3.3641831    1.4847583   293600 
 2856000   0.98719689   -3.3611521   -3.3611521   -1.8803618  0.056469163   -3.3611521    1.4807903   293600 
 2857000   0.98829787   -3.3622473   -3.3622473   -1.8798056   0.05386066   -3.3622473    1.4824418   293600 
 2858000   0.98854585   -3.3616186   -3.3616186   -1.8788048  0.060169004   -3.3616186    1.4828137   293600 
 2859000    0.9877623   -3.3606312   -3.3606312   -1.8789928  0.055385501   -3.3606312    1.4816384   293600 
 2860000   0.98732828   -3.3600929   -3.3600929   -1.8791055  0.062736016   -3.3600929    1.4809874   293600 
 2861000   0.98710475   -3.3607932   -3.3607932   -1.8801412  0.062886532   -3.3607932    1.4806521   293600 
 2862000   0.98620003   -3.3587038   -3.3587038   -1.8794088  0.057896727   -3.3587038     1.479295   293600 
 2863000   0.98788307   -3.3597353   -3.3597353   -1.8779158  0.052434562   -3.3597353    1.4818196   293600 
 2864000   0.98886828   -3.3595119   -3.3595119   -1.8762146   0.06152504   -3.3595119    1.4832974   293600 
 2865000   0.98902872   -3.3596884   -3.3596884   -1.8761504   0.05837339   -3.3596884     1.483538   293600 
 2866000   0.98857426   -3.3604639   -3.3604639   -1.8776075  0.065418053   -3.3604639    1.4828563   293600 
 2867000   0.99099213   -3.3611873   -3.3611873   -1.8747041  0.054141623   -3.3611873    1.4864831   293600 
 2868000   0.98782106    -3.358937    -3.358937   -1.8772104  0.061072928    -3.358937    1.4817265   293600 
 2869000   0.98800077   -3.3588032   -3.3588032   -1.8768071  0.058064143   -3.3588032    1.4819961   293600 
 2870000   0.98718237   -3.3572869   -3.3572869   -1.8765184  0.060697486   -3.3572869    1.4807685   293600 
 2871000   0.99003145   -3.3627963   -3.3627963   -1.8777542  0.050254791   -3.3627963    1.4850421   293600 
 2872000   0.98765823    -3.359938    -3.359938   -1.8784557  0.062638329    -3.359938    1.4814823   293600 
 2873000    0.9885223   -3.3596665   -3.3596665   -1.8768881  0.055681688   -3.3596665    1.4827784   293600 
 2874000   0.98826713   -3.3587797   -3.3587797   -1.8763841  0.057002618   -3.3587797    1.4823957   293600 
 2875000   0.98800467   -3.3591045   -3.3591045   -1.8771026  0.060386689   -3.3591045     1.482002   293600 
 2876000   0.98802679   -3.3589368   -3.3589368   -1.8769017  0.051018988   -3.3589368    1.4820351   293600 
 2877000   0.98748162   -3.3604769   -3.3604769   -1.8792595  0.056380205   -3.3604769    1.4812174   293600 
 2878000   0.98730406   -3.3593928   -3.3593928   -1.8784418  0.053918075   -3.3593928     1.480951   293600 
 2879000   0.98678949   -3.3588286   -3.3588286   -1.8786494  0.046470372   -3.3588286    1.4801792   293600 
 2880000     0.987952    -3.359331    -3.359331    -1.877408  0.055238216    -3.359331    1.4819229   293600 
 2881000   0.98665724   -3.3585405   -3.3585405   -1.8785597  0.055936852   -3.3585405    1.4799808   293600 
 2882000   0.98845552   -3.3607593   -3.3607593    -1.878081  0.055026403   -3.3607593    1.4826782   293600 
 2883000   0.98884606   -3.3621869   -3.3621869   -1.8789228  0.060483275   -3.3621869     1.483264   293600 
 2884000   0.98746641   -3.3605124   -3.3605124   -1.8793178  0.050557645   -3.3605124    1.4811946   293600 
 2885000   0.98709518    -3.358618    -3.358618   -1.8779803  0.059498995    -3.358618    1.4806377   293600 
 2886000   0.98909426   -3.3610505   -3.3610505   -1.8774142  0.061222167   -3.3610505    1.4836363   293600 
 2887000   0.98733429   -3.3572034   -3.3572034    -1.876207  0.065980459   -3.3572034    1.4809964   293600 
 2888000   0.98830981   -3.3583265   -3.3583265   -1.8758668  0.064292288   -3.3583265    1.4824597   293600 
 2889000   0.98762608   -3.3574094   -3.3574094   -1.8759754  0.058264216   -3.3574094    1.4814341   293600 
 2890000   0.98865384    -3.358535    -3.358535   -1.8755593  0.060948291    -3.358535    1.4829757   293600 
 2891000   0.98668759   -3.3568603   -3.3568603    -1.876834  0.058640259   -3.3568603    1.4800263   293600 
 2892000   0.98862297   -3.3613471   -3.3613471   -1.8784177  0.054758523   -3.3613471    1.4829294   293600 
 2893000   0.98740151   -3.3585129   -3.3585129   -1.8774157  0.068933256   -3.3585129    1.4810972   293600 
 2894000   0.98705428   -3.3581954   -3.3581954    -1.877619  0.058444522   -3.3581954    1.4805764   293600 
 2895000   0.98899021   -3.3608452   -3.3608452   -1.8773649  0.054959932   -3.3608452    1.4834803   293600 
 2896000   0.98819316   -3.3594955   -3.3594955   -1.8772108  0.053368705   -3.3594955    1.4822847   293600 
 2897000    0.9866322   -3.3575177   -3.3575177   -1.8775744  0.057333346   -3.3575177    1.4799433   293600 
 2898000   0.98695882   -3.3591187   -3.3591187   -1.8786855  0.058124934   -3.3591187    1.4804332   293600 
 2899000   0.98728978   -3.3590026   -3.3590026    -1.878073   0.06293058   -3.3590026    1.4809296   293600 
 2900000   0.98715059   -3.3603708   -3.3603708   -1.8796499  0.051079708   -3.3603708    1.4807208   293600 
 2901000   0.98644722   -3.3597034   -3.3597034   -1.8800377  0.052371149   -3.3597034    1.4796658   293600 
 2902000   0.98490429    -3.356613    -3.356613   -1.8792615  0.058170077    -3.356613    1.4773514   293600 
 2903000   0.98678631    -3.357823    -3.357823   -1.8776486   0.05756804    -3.357823    1.4801744   293600 
 2904000   0.98704599   -3.3582257   -3.3582257   -1.8776618  0.053926176   -3.3582257    1.4805639   293600 
 2905000   0.98780566   -3.3587257   -3.3587257   -1.8770222  0.059227052   -3.3587257    1.4817034   293600 
 2906000    0.9880745   -3.3585367   -3.3585367     -1.87643  0.058282371   -3.3585367    1.4821067   293600 
 2907000   0.98736125    -3.357328    -3.357328   -1.8762912  0.053386121    -3.357328    1.4810368   293600 
 2908000   0.98805801   -3.3576745   -3.3576745   -1.8755925   0.06298675   -3.3576745     1.482082   293600 
 2909000   0.98663828    -3.356913    -3.356913   -1.8769606   0.05757648    -3.356913    1.4799524   293600 
 2910000   0.98843851    -3.360793    -3.360793   -1.8781402  0.052648418    -3.360793    1.4826527   293600 
 2911000   0.98842704   -3.3595494   -3.3595494   -1.8769138  0.057116904   -3.3595494    1.4826355   293600 
 2912000   0.98805359    -3.358738    -3.358738   -1.8766626    0.0560445    -3.358738    1.4820753   293600 
 2913000   0.98753616   -3.3589097   -3.3589097   -1.8776105  0.053121297   -3.3589097    1.4812992   293600 
 2914000   0.98666757   -3.3579183   -3.3579183    -1.877922  0.052913932   -3.3579183    1.4799963   293600 
 2915000   0.98842584   -3.3592978   -3.3592978   -1.8766641  0.057358528   -3.3592978    1.4826337   293600 
 2916000   0.98630166   -3.3577577   -3.3577577   -1.8783103  0.059957582   -3.3577577    1.4794475   293600 
 2917000   0.98790446   -3.3597968   -3.3597968   -1.8779451   0.05365486   -3.3597968    1.4818516   293600 
 2918000   0.98757201   -3.3577131   -3.3577131   -1.8763601  0.054649172   -3.3577131     1.481353   293600 
 2919000   0.98709168   -3.3578268   -3.3578268   -1.8771943  0.058446656   -3.3578268    1.4806325   293600 
 2920000    0.9879496   -3.3574948   -3.3574948   -1.8755754  0.055346006   -3.3574948    1.4819194   293600 
 2921000   0.98720812   -3.3564123   -3.3564123   -1.8756052  0.049534866   -3.3564123    1.4808071   293600 
 2922000   0.98745142   -3.3570608   -3.3570608   -1.8758887  0.053072978   -3.3570608    1.4811721   293600 
 2923000   0.98767799   -3.3561973   -3.3561973   -1.8746854  0.060610417   -3.3561973    1.4815119   293600 
 2924000   0.98651832   -3.3545988   -3.3545988   -1.8748263  0.060699909   -3.3545988    1.4797724   293600 
 2925000   0.98773396   -3.3575765   -3.3575765   -1.8759806  0.060196524   -3.3575765    1.4815959   293600 
 2926000   0.98808118   -3.3574903   -3.3574903   -1.8753736  0.055617951   -3.3574903    1.4821167   293600 
 2927000   0.98771779    -3.357191    -3.357191   -1.8756194  0.059413606    -3.357191    1.4815716   293600 
 2928000    0.9867128   -3.3567576   -3.3567576   -1.8766934  0.060281384   -3.3567576    1.4800642   293600 
 2929000   0.98831486   -3.3596719   -3.3596719   -1.8772046  0.054465587   -3.3596719    1.4824672   293600 
 2930000   0.98693945   -3.3583312   -3.3583312    -1.877927  0.059546685   -3.3583312    1.4804041   293600 
 2931000   0.98620906    -3.356338    -3.356338   -1.8770294  0.057266541    -3.356338    1.4793086   293600 
 2932000    0.9865347   -3.3554032   -3.3554032   -1.8756062  0.057730435   -3.3554032     1.479797   293600 
 2933000   0.98679983   -3.3562922   -3.3562922   -1.8760975  0.049694248   -3.3562922    1.4801947   293600 
 2934000   0.98607974   -3.3552897   -3.3552897   -1.8761751  0.054512362   -3.3552897    1.4791146   293600 
 2935000   0.98626817   -3.3554548   -3.3554548   -1.8760576  0.055309452   -3.3554548    1.4793972   293600 
 2936000   0.98611857    -3.356411    -3.356411   -1.8772382  0.052624562    -3.356411    1.4791728   293600 
 2937000    0.9863474   -3.3566442   -3.3566442   -1.8771281   0.05834041   -3.3566442    1.4795161   293600 
 2938000    0.9863139   -3.3578697   -3.3578697   -1.8784039  0.058883003   -3.3578697    1.4794658   293600 
 2939000   0.98687565   -3.3577712   -3.3577712   -1.8774628  0.058187048   -3.3577712    1.4803084   293600 
 2940000   0.98739483   -3.3595276   -3.3595276   -1.8784403  0.061186962   -3.3595276    1.4810872   293600 
 2941000   0.98617469    -3.356549    -3.356549    -1.877292  0.066693381    -3.356549     1.479257   293600 
 2942000   0.98739131   -3.3581802   -3.3581802   -1.8770982  0.060685633   -3.3581802    1.4810819   293600 
 2943000   0.98563209   -3.3567931   -3.3567931     -1.87835  0.057358894   -3.3567931    1.4784431   293600 
 2944000   0.98735383   -3.3594787   -3.3594787    -1.878453  0.058042341   -3.3594787    1.4810257   293600 
 2945000   0.98760328   -3.3586015   -3.3586015   -1.8772016  0.063034097   -3.3586015    1.4813999   293600 
 2946000   0.99103608   -3.3615157   -3.3615157   -1.8749667  0.061828503   -3.3615157    1.4865491   293600 
 2947000    0.9881032   -3.3584085   -3.3584085   -1.8762587  0.058001896   -3.3584085    1.4821498   293600 
 2948000    0.9886085   -3.3593294   -3.3593294   -1.8764217  0.059616257   -3.3593294    1.4829077   293600 
 2949000   0.99094182    -3.363016    -3.363016   -1.8766083  0.056052914    -3.363016    1.4864077   293600 
 2950000   0.98777342   -3.3576084   -3.3576084   -1.8759533  0.058608422   -3.3576084    1.4816551   293600 
 2951000   0.98943541    -3.359992    -3.359992    -1.875844  0.049768989    -3.359992    1.4841481   293600 
 2952000   0.98896372   -3.3599027   -3.3599027   -1.8764622  0.058922455   -3.3599027    1.4834405   293600 
 2953000   0.98950482   -3.3608286   -3.3608286   -1.8765764  0.054623281   -3.3608286    1.4842522   293600 
 2954000   0.98804253   -3.3578941   -3.3578941   -1.8758354  0.061186633   -3.3578941    1.4820587   293600 
 2955000   0.98927853   -3.3590669   -3.3590669   -1.8751541  0.066613427   -3.3590669    1.4839127   293600 
 2956000   0.98783999   -3.3562211   -3.3562211   -1.8744661  0.056723984   -3.3562211    1.4817549   293600 
 2957000   0.98709998    -3.354113    -3.354113   -1.8734681  0.063477575    -3.354113    1.4806449   293600 
 2958000    0.9877965   -3.3575932   -3.3575932   -1.8759035  0.060196426   -3.3575932    1.4816897   293600 
 2959000    0.9875887   -3.3564357   -3.3564357   -1.8750577   0.05647794   -3.3564357     1.481378   293600 
 2960000   0.98591787   -3.3537981   -3.3537981   -1.8749264  0.057335056   -3.3537981    1.4788718   293600 
 2961000   0.98704044   -3.3545187   -3.3545187   -1.8739631   0.05902695   -3.3545187    1.4805556   293600 
 2962000   0.98628091   -3.3535856   -3.3535856   -1.8741693  0.053995075   -3.3535856    1.4794163   293600 
 2963000   0.98842077   -3.3560044   -3.3560044   -1.8733783  0.046778883   -3.3560044    1.4826261   293600 
 2964000   0.98802209   -3.3547733   -3.3547733   -1.8727453  0.059184995   -3.3547733    1.4820281   293600 
 2965000   0.98713637   -3.3529128   -3.3529128   -1.8722133  0.059072961   -3.3529128    1.4806995   293600 
 2966000   0.98883067   -3.3545058   -3.3545058   -1.8712648   0.06119425   -3.3545058     1.483241   293600 
 2967000   0.98758999   -3.3522465   -3.3522465   -1.8708665   0.06070907   -3.3522465    1.4813799   293600 
 2968000   0.98746044   -3.3510801   -3.3510801   -1.8698945  0.061105175   -3.3510801    1.4811856   293600 
 2969000   0.98824857   -3.3518661   -3.3518661   -1.8694983  0.059165788   -3.3518661    1.4823678   293600 
 2970000     0.987482    -3.350317    -3.350317    -1.869099  0.052249157    -3.350317     1.481218   293600 
 2971000   0.98975845   -3.3542466   -3.3542466    -1.869614  0.053953531   -3.3542466    1.4846326   293600 
 2972000   0.98884627    -3.351046    -3.351046   -1.8677816  0.058896839    -3.351046    1.4832644   293600 
 2973000   0.98893581   -3.3506186   -3.3506186   -1.8672199  0.054505757   -3.3506186    1.4833987   293600 
 2974000   0.98755389   -3.3496586   -3.3496586   -1.8683328  0.060722092   -3.3496586    1.4813258   293600 
 2975000   0.98818594   -3.3508633   -3.3508633   -1.8685894  0.053211486   -3.3508633    1.4822739   293600 
 2976000   0.98662267    -3.347851    -3.347851    -1.867922  0.054396756    -3.347851     1.479929   293600 
 2977000   0.99031481   -3.3524534   -3.3524534   -1.8669862  0.056351937   -3.3524534    1.4854672   293600 
 2978000   0.98697047   -3.3487948   -3.3487948   -1.8683441  0.058070611   -3.3487948    1.4804507   293600 
 2979000   0.98482467   -3.3463905   -3.3463905   -1.8691585   0.05565462   -3.3463905     1.477232   293600 
 2980000   0.98615285   -3.3479753   -3.3479753    -1.868751  0.062531956   -3.3479753    1.4792242   293600 
 2981000    0.9871736   -3.3512435   -3.3512435   -1.8704881   0.04717385   -3.3512435    1.4807554   293600 
 2982000   0.98469569   -3.3480095   -3.3480095    -1.870971  0.048872818   -3.3480095    1.4770385   293600 
 2983000   0.98412891   -3.3474871   -3.3474871   -1.8712987  0.057656407   -3.3474871    1.4761883   293600 
 2984000   0.98642046   -3.3497488   -3.3497488   -1.8701231  0.055500548   -3.3497488    1.4796257   293600 
 2985000   0.98675701   -3.3511325   -3.3511325    -1.871002  0.049788276   -3.3511325    1.4801305   293600 
 2986000   0.98584696   -3.3499882   -3.3499882   -1.8712228  0.054756038   -3.3499882    1.4787654   293600 
 2987000   0.98647053   -3.3499959   -3.3499959   -1.8702951  0.059708183   -3.3499959    1.4797008   293600 
 2988000   0.98599265   -3.3492687   -3.3492687   -1.8702848  0.055262068   -3.3492687    1.4789839   293600 
 2989000   0.98607008     -3.34811     -3.34811   -1.8690099  0.051729807     -3.34811    1.4791001   293600 
 2990000   0.98804148   -3.3518235   -3.3518235   -1.8697663  0.056288595   -3.3518235    1.4820572   293600 
 2991000   0.98923966   -3.3527466   -3.3527466   -1.8688921  0.058369053   -3.3527466    1.4838544   293600 
 2992000   0.99019379   -3.3539586   -3.3539586    -1.868673  0.061093221   -3.3539586    1.4852856   293600 
 2993000   0.98831816   -3.3517711   -3.3517711   -1.8692989  0.062821329   -3.3517711    1.4824722   293600 
 2994000    0.9900383   -3.3544768   -3.3544768   -1.8694245  0.062003962   -3.3544768    1.4850524   293600 
 2995000   0.98905138   -3.3532695   -3.3532695   -1.8696975  0.058899975   -3.3532695     1.483572   293600 
 2996000   0.99045449   -3.3547565   -3.3547565   -1.8690799  0.062469908   -3.3547565    1.4856767   293600 
 2997000   0.98921236   -3.3528887   -3.3528887   -1.8690753  0.061285075   -3.3528887    1.4838135   293600 
 2998000   0.99129916   -3.3561627   -3.3561627    -1.869219  0.057583423   -3.3561627    1.4869437   293600 
 2999000   0.99031142   -3.3551782   -3.3551782   -1.8697161  0.061715672   -3.3551782    1.4854621   293600 
 3000000   0.98969233   -3.3561634   -3.3561634   -1.8716299  0.060581822   -3.3561634    1.4845334   293600 
Loop time of 5678.31 on 96 procs for 3000000 steps with 293600 atoms

Performance: 228236.832 tau/day, 528.326 timesteps/s
92.8% CPU use with 96 MPI tasks x 1 OpenMP threads

MPI task timing breakdown:
Section |  min time  |  avg time  |  max time  |%varavg|  %CPU | %total
-----------------------------------------------------------------------
Pair    | 1867.7     | 2713.8     | 2971.9     | 601.3 |  94.2 | 47.79
Bond    | 1.9572     | 2.0785     | 2.254      |   4.0 | 100.0 |  0.04
Neigh   | 960.78     | 1283.7     | 1399       | 328.0 |  99.1 | 22.61
Comm    | 958.89     | 1342       | 2566.2     |1234.7 |  87.5 | 23.63
Output  | 109.4      | 110.08     | 110.11     |   0.7 |  67.5 |  1.94
Modify  | 103.49     | 164.15     | 507.23     | 989.9 |  91.2 |  2.89
Other   |            | 62.52      |            |       |       |  1.10

Nlocal:        3058.33 ave        3237 max        2857 min
Histogram: 2 1 2 8 24 32 21 3 0 3
Nghost:        4007.70 ave        4370 max        3184 min
Histogram: 15 8 1 0 0 0 0 1 38 33
Neighs:        85924.8 ave       95754 max       49450 min
Histogram: 4 5 3 0 0 0 0 8 49 27

Total # of neighbors = 8248783
Ave neighs/atom = 28.095310
Ave special neighs/atom = 0.0000000
Neighbor list builds = 300000
Dangerous builds = 296995

write_data	data.lj
System init for write_data ...
WARNING: Not all mixed pair coeffs generated from mixing. Use write_data with 'pair ij' option to store all pair coeffs. (src/write_data.cpp:312)
Total wall time: 1:34:40
