LAMMPS (24 Dec 2020)
OMP_NUM_THREADS environment is not set. Defaulting to 1 thread. (src/comm.cpp:94)
  using 1 OpenMP thread(s) per MPI task
# Simple rigid body system
# needed variables: startTemp, temp

units		lj
atom_style	full
dimension 	3
boundary	p p f
pair_style	lj/cut/opt 2.5

variable 	gcmcdisplace	equal 0
variable 	sigma		equal 1.0
variable 	epsilon 	equal 1.0


read_restart	restart.dat.3000000
Reading restart file ...
  restart file = 24 Dec 2020, LAMMPS = 24 Dec 2020
WARNING: Restart file used different # of processors: 48 vs. 192 (src/read_restart.cpp:697)
  restoring atom style full from restart
  orthogonal box = (0.0000000 0.0000000 0.0000000) to (80.000000 80.000000 160.00000)
  6 by 4 by 8 MPI processor grid
  restoring pair style lj/cut/opt from restart
  439061 atoms
Finding 1-2 1-3 1-4 neighbors ...
  special bond factors lj:    0        0        0       
  special bond factors coul:  0        0        0       
     0 = max # of 1-2 neighbors
     0 = max # of 1-3 neighbors
     0 = max # of 1-4 neighbors
     1 = max # of special neighbors
  special bonds CPU = 1.435 seconds
  read_restart CPU = 1.778 seconds

mass		1 1.0
mass		2 1.0
mass		3 1.0


group		solvent type 1
439061 atoms in group solvent


neighbor 	0.4 bin

pair_coeff	1 1 1.0 1.0
pair_coeff	2 2 0.0 0.0
pair_coeff	3 3 0.0 0.0
pair_coeff	2 3 0.0 0.0
pair_coeff	1 2*3 0.0 0.0

pair_modify 	shift yes


balance 	1.05 shift z 10 1.05
Balancing ...
Neighbor list info ...
  update every 1 steps, delay 10 steps, check yes
  max neighbors/atom: 2000, page size: 100000
  master list distance cutoff = 2.9
  ghost atom cutoff = 2.9
  binsize = 1.45, bins = 56 56 111
  1 neighbor lists, perpetual/occasional/extra = 1 0 0
  (1) pair lj/cut/opt, perpetual
      attributes: half, newton on
      pair build: half/bin/newton
      stencil: half/bin/3d/newton
      bin: standard
 rebalancing time: 0.025 seconds
  iteration count = 5
  initial/final maximal load/proc = 3162.0000 2575.0000
  initial/final imbalance factor  = 1.3827327 1.1260394
  x cuts: 0.0000000 0.16666667 0.33333333 0.50000000 0.66666667 0.83333333 1.0000000
  y cuts: 0.0000000 0.25000000 0.50000000 0.75000000 1.0000000
  z cuts: 0.0000000 0.097656250 0.18359375 0.27734375 0.37890625 0.47656250 0.57031250 0.67968750 1.0000000


####################### WALLS ###########################


variable       epsilonWall equal 2*${epsilon}
variable       epsilonWall equal 2*1

variable       cutoffTop   equal   0.7147*${sigma}
variable       cutoffTop   equal   0.7147*1

variable       cutoffLow   equal   3*${sigma}
variable       cutoffLow   equal   3*1


fix            topWall all wall/lj93 zhi EDGE                ${epsilonWall} ${sigma} ${cutoffTop} units box
fix            topWall all wall/lj93 zhi EDGE                2 ${sigma} ${cutoffTop} units box
fix            topWall all wall/lj93 zhi EDGE                2 1 ${cutoffTop} units box
fix            topWall all wall/lj93 zhi EDGE                2 1 0.7147 units box

fix            lowWall all wall/lj93 zlo EDGE                ${epsilonWall} ${sigma} ${cutoffLow} units box
fix            lowWall all wall/lj93 zlo EDGE                2 ${sigma} ${cutoffLow} units box
fix            lowWall all wall/lj93 zlo EDGE                2 1 ${cutoffLow} units box
fix            lowWall all wall/lj93 zlo EDGE                2 1 3 units box


###################### COMPUTES ##########################

compute        bin1 solvent chunk/atom bin/1d z upper 1.0



######################	FIXES ############################


fix 		peclet solvent ave/chunk 1000 1 1000 bin1 density/number norm 		 none ave one file density.profile

fix 		 temp solvent ave/chunk 1000 1 1000 bin1 temp norm none ave one file temp.profile

fix 		2 solvent nve

## Thermostat


region		regthermo block EDGE EDGE EDGE EDGE 0 20

group 		thermo dynamic solvent region regthermo every 1000
dynamic group thermo defined

fix 		3 thermo langevin ${startTemp} ${temp} 10 156453
fix 		3 thermo langevin 1.0 ${temp} 10 156453
fix 		3 thermo langevin 1.0 1.0 10 156453


## Evaporation

region		regevap block EDGE EDGE EDGE EDGE 140 158
fix 		gcmc solvent gcmc 100 100 0 1 780493 ${temp} ${mu} ${gcmcdisplace} region regevap
fix 		gcmc solvent gcmc 100 100 0 1 780493 1.0 ${mu} ${gcmcdisplace} region regevap
fix 		gcmc solvent gcmc 100 100 0 1 780493 1.0 -2.1 ${gcmcdisplace} region regevap
fix 		gcmc solvent gcmc 100 100 0 1 780493 1.0 -2.1 0 region regevap


#### Load balancing

fix 		bal all balance 1000 1.05 shift z 10 1.05

############### Diagnostics and computes ###################
#compute 	com cube	  rigid/local	1 mol x y z
#compute 	quat cube	  rigid/local	1 mol quatw quati quatj quatk

thermo 		1000
thermo_style 	custom step temp epair etotal press pe ke atoms

dump		1 all custom 100000 dump.lammpstrj id mol type x y z
dump 		2 all image 10000 image.*.png type type
dump 		3 all movie 1000 movie.avi type type
#dump 		com cube local 1000 dump.*.xyz c_com[*]
#dump		quat cube      local 1000 dump.*.quat c_quat[*]


restart 	1000000 restart.dat
timestep 	0.005
timer 		full
New timer settings: style=full  mode=nosync  timeout=off


run		5000000
Per MPI rank memory allocation (min/avg/max) = 9.923 | 9.986 | 10.01 Mbytes
Step Temp E_pair TotEng Press PotEng KinEng Atoms 
 3000000     1.016004   -3.1352716   -1.6112691  0.079025997   -3.1352716    1.5240025   439061 
 3001000     1.015555   -3.1338278   -1.6111438  0.074656453   -3.1338278     1.522684   439247 
 3002000    1.0171479   -3.1355311   -1.6112048  0.074930306   -3.1355311    1.5243262   439462 
 3003000    1.0185731   -3.1352803   -1.6094536  0.074522532   -3.1352803    1.5258266   439645 
 3004000    1.0183255   -3.1341599   -1.6094116  0.072528635   -3.1341599    1.5247483   439849 
 3005000     1.018088    -3.132844   -1.6090958  0.077645026    -3.132844    1.5237482   440035 
 3006000    1.0172138   -3.1299087   -1.6080706  0.075275423   -3.1299087    1.5218382   440209 
 3007000    1.0189259   -3.1307341   -1.6069194  0.077478934   -3.1307341    1.5238146   440378 
 3008000    1.0199384   -3.1314106   -1.6066289  0.076512303   -3.1314106    1.5247817   440536 
 3009000    1.0197308   -3.1304898   -1.6065928  0.077936891   -3.1304898     1.523897   440702 
 3010000    1.0193534   -3.1279947   -1.6053215  0.077964575   -3.1279947    1.5226731   440893 
 3011000    1.0206238   -3.1282858   -1.6043267  0.081113508   -3.1282858    1.5239591   441070 
 3012000    1.0224172    -3.130285   -1.6042708  0.078319798    -3.130285    1.5260141   441250 
 3013000    1.0238941   -3.1294032   -1.6018286  0.082222763   -3.1294032    1.5275745   441436 
 3014000     1.026033   -3.1304223   -1.6003636  0.080336821   -3.1304223    1.5300587   441640 
 3015000    1.0253834   -3.1289792   -1.6005573  0.081083617   -3.1289792    1.5284219   441833 
 3016000    1.0267338   -3.1290304   -1.5990562  0.084588207   -3.1290304    1.5299742   441966 
 3017000    1.0277227   -3.1292847    -1.598384  0.085736487   -3.1292847    1.5309006   442124 
 3018000    1.0285374   -3.1291389   -1.5976551  0.081672028   -3.1291389    1.5314837   442306 
 3019000    1.0293886   -3.1304486   -1.5984213  0.079107369   -3.1304486    1.5320273   442515 
 3020000    1.0283314   -3.1287944   -1.5989974  0.082195912   -3.1287944     1.529797   442705 
 3021000     1.031257   -3.1313114   -1.5978237  0.082553471   -3.1313114    1.5334876   442896 
 3022000    1.0304619   -3.1301066   -1.5984687  0.082221234   -3.1301066    1.5316379   443089 
 3023000      1.02873   -3.1268714   -1.5984149  0.084559629   -3.1268714    1.5284565   443265 
 3024000    1.0304316   -3.1285205   -1.5981883  0.081490352   -3.1285205    1.5303322   443454 
 3025000    1.0305799   -3.1258379    -1.595927  0.080129333   -3.1258379    1.5299108   443640 
 3026000    1.0318053   -3.1269118   -1.5957824  0.084423408   -3.1269118    1.5311294   443814 
 3027000    1.0322252   -3.1273251   -1.5961005  0.086573564   -3.1273251    1.5312246   443967 
 3028000    1.0336493   -3.1276653   -1.5949461  0.089501825   -3.1276653    1.5327192   444146 
 3029000    1.0344978   -3.1279291   -1.5945249  0.087130988   -3.1279291    1.5334042   444312 
 3030000    1.0365372   -3.1298195   -1.5939662   0.08142097   -3.1298195    1.5358533   444478 
 3031000    1.0355885    -3.126979   -1.5931041  0.088921501    -3.126979    1.5338749   444644 
 3032000    1.0363603   -3.1254129   -1.5910575  0.091416336   -3.1254129    1.5343554   444836 
 3033000    1.0359505   -3.1255636    -1.592325  0.086332636   -3.1255636    1.5332386   444984 
 3034000    1.0367673   -3.1272535   -1.5934367  0.086789547   -3.1272535    1.5338168   445167 
 3035000    1.0386972   -3.1285554   -1.5924081  0.085294687   -3.1285554    1.5361474   445319 
 3036000    1.0381707   -3.1272942   -1.5925286  0.085766742   -3.1272942    1.5347656   445494 
 3037000    1.0399438   -3.1285356   -1.5917145  0.084053477   -3.1285356    1.5368211   445658 
 3038000     1.037701   -3.1243224   -1.5913248  0.086447068   -3.1243224    1.5329976   445806 
 3039000    1.0369521   -3.1242794   -1.5929104  0.086643482   -3.1242794     1.531369   445958 
 3040000    1.0387044   -3.1246665   -1.5913662  0.087554881   -3.1246665    1.5333002   446149 
 3041000    1.0389829   -3.1242517   -1.5911659  0.083231284   -3.1242517    1.5330858   446331 
 3042000     1.039531   -3.1234969   -1.5902516   0.08007479   -3.1234969    1.5332453   446520 
 3043000    1.0408725   -3.1241391   -1.5895234  0.085056926   -3.1241391    1.5346157   446697 
 3044000     1.042277   -3.1236408   -1.5875356  0.085451935   -3.1236408    1.5361052   446866 
 3045000    1.0427877   -3.1243403     -1.58795  0.089733307   -3.1243403    1.5363903   447002 
 3046000    1.0434132   -3.1233291    -1.586636  0.091700642   -3.1233291    1.5366931   447182 
 3047000    1.0435152   -3.1234742   -1.5871119  0.090627433   -3.1234742    1.5363623   447322 
 3048000     1.044119   -3.1227117   -1.5860719  0.093307129   -3.1227117    1.5366398   447500 
 3049000    1.0450888   -3.1229087   -1.5854634  0.094163607   -3.1229087    1.5374453   447681 
 3050000    1.0459016   -3.1236382   -1.5855298  0.089511629   -3.1236382    1.5381084   447836 
 3051000    1.0464453   -3.1237548   -1.5853517   0.08503202   -3.1237548    1.5384031   447983 
 3052000    1.0452819   -3.1219674      -1.5857  0.090035071   -3.1219674    1.5362674   448107 
 3053000    1.0454163    -3.121952   -1.5859361  0.088571288    -3.121952    1.5360159   448238 
 3054000    1.0462821   -3.1207987   -1.5840968  0.087498205   -3.1207987    1.5367018   448409 
 3055000     1.045436   -3.1191084   -1.5841354  0.089990484   -3.1191084     1.534973   448551 
 3056000    1.0477903    -3.122237   -1.5843557  0.084616665    -3.122237    1.5378813   448711 
 3057000    1.0486811   -3.1216747   -1.5830758  0.089695564   -3.1216747    1.5385989   448883 
 3058000    1.0499967   -3.1207108   -1.5807992  0.083252237   -3.1207108    1.5399116   449063 
 3059000    1.0492396   -3.1199217   -1.5816377  0.087145877   -3.1199217     1.538284   449214 
 3060000    1.0497478    -3.120336   -1.5818549  0.088296336    -3.120336    1.5384811   449374 
 3061000    1.0491578   -3.1189403   -1.5818267  0.089139457   -3.1189403    1.5371136   449521 
 3062000     1.052271   -3.1210771    -1.579975  0.087797245   -3.1210771    1.5411021   449688 
 3063000    1.0539499   -3.1208312   -1.5777985  0.097382241   -3.1208312    1.5430327   449842 
 3064000    1.0547559   -3.1200401   -1.5764245  0.088929448   -3.1200401    1.5436156   450016 
 3065000    1.0549575   -3.1203569    -1.576995  0.089610807   -3.1203569    1.5433619   450176 
 3066000    1.0535525   -3.1169153   -1.5761497  0.095727662   -3.1169153    1.5407657   450334 
 3067000    1.0557334   -3.1182764    -1.574993  0.092194809   -3.1182764    1.5432834   450530 
 3068000    1.0557071   -3.1179627   -1.5752177   0.09206378   -3.1179627     1.542745   450676 
 3069000    1.0558484   -3.1179687   -1.5755477  0.098067888   -3.1179687     1.542421   450831 
 3070000    1.0553497   -3.1179652   -1.5766384  0.092581493   -3.1179652    1.5413267   450938 
 3071000    1.0559835   -3.1184112   -1.5766751  0.092177251   -3.1184112     1.541736   451089 
 3072000    1.0556949   -3.1172678   -1.5765884  0.092500942   -3.1172678    1.5406794   451275 
 3073000     1.057585   -3.1181722   -1.5752712  0.091079087   -3.1181722     1.542901   451432 
 3074000    1.0567574   -3.1152396   -1.5740854  0.093933005   -3.1152396    1.5411542   451590 
 3075000    1.0557079   -3.1140506   -1.5750404  0.098721842   -3.1140506    1.5390102   451770 
 3076000    1.0553698   -3.1145705   -1.5766352  0.090860734   -3.1145705    1.5379353   451941 
 3077000    1.0566355   -3.1157941   -1.5764572  0.091803236   -3.1157941    1.5393369   452071 
 3078000    1.0581617   -3.1146819   -1.5736193  0.094101592   -3.1146819    1.5410626   452217 
 3079000    1.0581108   -3.1144115   -1.5738795  0.095328286   -3.1144115     1.540532   452351 
 3080000    1.0594937   -3.1152831   -1.5733854  0.089037411   -3.1152831    1.5418977   452541 
 3081000    1.0603363   -3.1155993   -1.5729627  0.090143734   -3.1155993    1.5426366   452684 
 3082000    1.0599783   -3.1144563    -1.572957  0.098358928   -3.1144563    1.5414994   452865 
 3083000    1.0617772   -3.1158175   -1.5722167   0.09121197   -3.1158175    1.5436008   453016 
 3084000    1.0633984   -3.1157215   -1.5702244  0.099158635   -3.1157215    1.5454972   453151 
 3085000     1.064014   -3.1166834   -1.5708374  0.094081592   -3.1166834    1.5458459   453311 
 3086000    1.0640736   -3.1161212   -1.5706864  0.096550901   -3.1161212    1.5454348   453457 
 3087000    1.0643412   -3.1161288   -1.5707655  0.098543829   -3.1161288    1.5453634   453592 
 3088000    1.0648212   -3.1157928   -1.5702946   0.10178787   -3.1157928    1.5454981   453757 
 3089000    1.0655299   -3.1161946   -1.5701652  0.091926152   -3.1161946    1.5460294   453903 
 3090000     1.064947   -3.1143932   -1.5697677  0.098836333   -3.1143932    1.5446255   454067 
 3091000    1.0668387   -3.1147697   -1.5679489  0.096827445   -3.1147697    1.5468208   454228 
 3092000    1.0656978   -3.1123712   -1.5677895  0.098737527   -3.1123712    1.5445817   454400 
 3093000    1.0675098   -3.1158682   -1.5692593  0.092439006   -3.1158682    1.5466089   454576 
 3094000    1.0670497   -3.1139922   -1.5685021  0.098547919   -3.1139922    1.5454902   454709 
 3095000    1.0687585   -3.1146813   -1.5670872   0.09702539   -3.1146813    1.5475941   454818 
 3096000    1.0715611   -3.1181101   -1.5668022  0.097105811   -3.1181101    1.5513079   454919 
 3097000    1.0697502   -3.1156002   -1.5672816  0.098760076   -3.1156002    1.5483186   455027 
 3098000    1.0697834   -3.1142273   -1.5663063  0.098634866   -3.1142273     1.547921   455158 
 3099000    1.0708686   -3.1139369   -1.5649526  0.093838176   -3.1139369    1.5489843   455307 
 3100000    1.0710134   -3.1114791   -1.5629181  0.098470593   -3.1114791     1.548561   455493 
 3101000    1.0723081   -3.1147195   -1.5646778  0.096306547   -3.1147195    1.5500417   455608 
 3102000    1.0706687   -3.1125568   -1.5653366   0.10103231   -3.1125568    1.5472203   455741 
 3103000    1.0697829   -3.1104433   -1.5650287  0.099622096   -3.1104433    1.5454146   455896 
 3104000    1.0690592   -3.1095691   -1.5655624  0.096205569   -3.1095691    1.5440067   456003 
 3105000    1.0698804   -3.1116068   -1.5667934  0.093398881   -3.1116068    1.5448134   456115 
 3106000    1.0712259   -3.1109519   -1.5646603  0.091741612   -3.1109519    1.5462917   456252 
 3107000    1.0709638   -3.1115946   -1.5662334  0.094642636   -3.1115946    1.5453612   456415 
 3108000    1.0701012   -3.1085755   -1.5649324  0.095154648   -3.1085755    1.5436431   456555 
 3109000    1.0704363   -3.1083668   -1.5646426   0.09423773   -3.1083668    1.5437241   456674 
 3110000    1.0723481   -3.1115886   -1.5656863  0.089352716   -3.1115886    1.5459023   456845 
 3111000    1.0726526   -3.1113069   -1.5655104  0.093375439   -3.1113069    1.5457965   457006 
 3112000    1.0730099   -3.1090893    -1.563204   0.09710689   -3.1090893    1.5458853   457132 
 3113000    1.0724839   -3.1081314   -1.5634872   0.09417984   -3.1081314    1.5446442   457275 
 3114000    1.0730377   -3.1080114   -1.5629852  0.095815896   -3.1080114    1.5450262   457398 
 3115000    1.0754357   -3.1090223   -1.5610713   0.10319625   -3.1090223     1.547951   457554 
 3116000    1.0740782   -3.1065968   -1.5609645  0.095531129   -3.1065968    1.5456323   457662 
 3117000    1.0740278   -3.1063138   -1.5611423  0.099435485   -3.1063138    1.5451715   457777 
 3118000    1.0763423    -3.107327   -1.5592755   0.10255369    -3.107327    1.5480516   457910 
 3119000    1.0765268   -3.1085295   -1.5607636    0.1013714   -3.1085295    1.5477659   458073 
 3120000     1.077923   -3.1096059   -1.5603568   0.09691808   -3.1096059    1.5492491   458228 
 3121000    1.0765566     -3.10663   -1.5598578   0.10049373     -3.10663    1.5467722   458380 
 3122000    1.0781034   -3.1088289   -1.5602195  0.098745692   -3.1088289    1.5486094   458494 
 3123000    1.0781577   -3.1093113   -1.5610663  0.099702271   -3.1093113     1.548245   458625 
 3124000    1.0799954   -3.1125053   -1.5619323  0.092504275   -3.1125053    1.5505729   458717 
 3125000    1.0786079   -3.1105233    -1.562361  0.090590857   -3.1105233    1.5481623   458841 
 3126000    1.0777441   -3.1092298   -1.5627455   0.10140716   -3.1092298    1.5464844   458971 
 3127000    1.0779753   -3.1097321   -1.5633472  0.097800042   -3.1097321    1.5463848   459099 
 3128000    1.0792813   -3.1100956   -1.5622721  0.091479545   -3.1100956    1.5478234   459228 
 3129000    1.0788693   -3.1077752   -1.5610445   0.10625609   -3.1077752    1.5467307   459377 
 3130000    1.0807908   -3.1097949   -1.5607275   0.10081196   -3.1097949    1.5490674   459501 
 3131000    1.0815988   -3.1096105   -1.5599449   0.10151396   -3.1096105    1.5496656   459667 
 3132000    1.0830249   -3.1110275   -1.5597371  0.097940277   -3.1110275    1.5512903   459791 
 3133000     1.081149   -3.1073581   -1.5590981  0.098024018   -3.1073581    1.5482599   459893 
 3134000    1.0836803   -3.1103061   -1.5588631   0.10551223   -3.1103061    1.5514431   460024 
 3135000    1.0828812   -3.1095566    -1.559736   0.10798263   -3.1095566    1.5498206   460166 
 3136000    1.0839253   -3.1099772   -1.5590768  0.098810046   -3.1099772    1.5509004   460289 
 3137000    1.0849748   -3.1101248   -1.5582386    0.1040851   -3.1101248    1.5518861   460442 
 3138000    1.0859671   -3.1109304   -1.5580667  0.098572125   -3.1109304    1.5528637   460573 
 3139000    1.0861482   -3.1107755    -1.558081   0.10899515   -3.1107755    1.5526945   460700 
 3140000     1.086311   -3.1096473   -1.5570268    0.1024835   -3.1096473    1.5526205   460791 
 3141000    1.0868892   -3.1107635   -1.5577649  0.099566348   -3.1107635    1.5529986   460924 
 3142000    1.0862304   -3.1093532   -1.5577031    0.1045549   -3.1093532    1.5516501   461045 
 3143000    1.0857712   -3.1100732   -1.5595062  0.098503164   -3.1100732     1.550567   461172 
 3144000    1.0858839   -3.1096976   -1.5594471  0.099435671   -3.1096976    1.5502505   461314 
 3145000    1.0861132   -3.1070464   -1.5569523   0.10985032   -3.1070464    1.5500941   461458 
 3146000    1.0847604   -3.1062777   -1.5585637   0.10233654   -3.1062777    1.5477139   461592 
 3147000    1.0859535   -3.1082079   -1.5593218   0.10056087   -3.1082079    1.5488861   461750 
 3148000    1.0881126   -3.1095482    -1.558033   0.09918734   -3.1095482    1.5515152   461884 
 3149000    1.0870479   -3.1083553   -1.5588682  0.098226203   -3.1083553    1.5494872   462036 
 3150000    1.0880919   -3.1072395   -1.5566769  0.098062279   -3.1072395    1.5505626   462159 
 3151000    1.0877368    -3.107149   -1.5575586  0.095185973    -3.107149    1.5495904   462298 
 3152000    1.0896585   -3.1083643   -1.5564759  0.095883081   -3.1083643    1.5518884   462429 
 3153000    1.0898182   -3.1087579   -1.5570648  0.093706928   -3.1087579     1.551693   462555 
 3154000    1.0898605   -3.1071254   -1.5559053  0.097591925   -3.1071254    1.5512201   462714 
 3155000    1.0904081   -3.1058297   -1.5542125     0.101162   -3.1058297    1.5516172   462828 
 3156000    1.0919877    -3.106151   -1.5527728   0.09900928    -3.106151    1.5533783   462973 
 3157000    1.0917914   -3.1055023   -1.5528327   0.10654252   -3.1055023    1.5526697   463101 
 3158000    1.0915962   -3.1060462   -1.5540898  0.095579928   -3.1060462    1.5519565   463231 
 3159000    1.0932428   -3.1076267    -1.553809   0.10450574   -3.1076267    1.5538178   463374 
 3160000    1.0907003   -3.1030322   -1.5531658   0.10523151   -3.1030322    1.5498664   463475 
 3161000    1.0941483   -3.1064923   -1.5521221    0.1054083   -3.1064923    1.5543702   463593 
 3162000    1.0928235   -3.1053272   -1.5532676   0.10634053   -3.1053272    1.5520596   463721 
 3163000    1.0943799   -3.1081171   -1.5542459   0.10492206   -3.1081171    1.5538712   463840 
 3164000    1.0939694   -3.1065688   -1.5536387  0.099458275   -3.1065688    1.5529301   463947 
 3165000    1.0938681   -3.1063483    -1.553863   0.10105468   -3.1063483    1.5524853   464037 
 3166000    1.0924677   -3.1045295   -1.5543926   0.10453612   -3.1045295    1.5501369   464145 
 3167000    1.0945297   -3.1066912   -1.5540499   0.10376218   -3.1066912    1.5526413   464271 
 3168000    1.0944306   -3.1064709   -1.5544516   0.10479826   -3.1064709    1.5520193   464415 
 3169000    1.0945663   -3.1059111   -1.5541103    0.1052071   -3.1059111    1.5518007   464538 
 3170000    1.0959604   -3.1077008   -1.5543015  0.097247234   -3.1077008    1.5533993   464651 
 3171000    1.0952367   -3.1062285   -1.5542023    0.1035456   -3.1062285    1.5520262   464755 
 3172000    1.0950669   -3.1062311   -1.5549829   0.10124894   -3.1062311    1.5512482   464916 
 3173000    1.0976353   -3.1075236   -1.5531586   0.10209597   -3.1075236     1.554365   465072 
 3174000    1.0971291   -3.1065455   -1.5533015  0.098090836   -3.1065455     1.553244   465193 
 3175000    1.0984858   -3.1088713   -1.5541477   0.10590881   -3.1088713    1.5547236   465325 
 3176000     1.096704   -3.1062559   -1.5543809   0.10343329   -3.1062559    1.5518749   465423 
 3177000     1.099467   -3.1068432   -1.5515831   0.10325176   -3.1068432    1.5552601   465580 
 3178000    1.0988252    -3.105337   -1.5513888   0.10333049    -3.105337    1.5539483   465701 
 3179000    1.0984818   -3.1042755   -1.5512464   0.10655883   -3.1042755    1.5530291   465831 
 3180000    1.1020525   -3.1075882   -1.5499288   0.10518633   -3.1075882    1.5576594   465956 
 3181000    1.1012844   -3.1052197   -1.5490567   0.10348993   -3.1052197     1.556163   466079 
 3182000     1.101024   -3.1048456   -1.5495878    0.1008133   -3.1048456    1.5552578   466240 
 3183000    1.1009029   -3.1035676   -1.5489277   0.10659839   -3.1035676    1.5546399   466374 
 3184000    1.1003308    -3.103981   -1.5506351   0.10988014    -3.103981    1.5533458   466520 
 3185000    1.1004769    -3.103435   -1.5502725   0.10869576    -3.103435    1.5531625   466637 
 3186000    1.1025905   -3.1055778   -1.5499023   0.10248887   -3.1055778    1.5556754   466778 
 3187000    1.1008172   -3.1024555   -1.5497843   0.10781621   -3.1024555    1.5526712   466929 
 3188000    1.1026184   -3.1047561   -1.5499439   0.10290369   -3.1047561    1.5548122   467049 
 3189000    1.1021502   -3.1032042   -1.5494582  0.099779513   -3.1032042     1.553746   467171 
 3190000    1.1020235   -3.1027428   -1.5496276   0.10758316   -3.1027428    1.5531153   467307 
 3191000    1.1032607   -3.1032863     -1.54878  0.098620513   -3.1032863    1.5545063   467413 
 3192000    1.1042506   -3.1027682   -1.5473729   0.10406625   -3.1027682    1.5553953   467565 
 3193000    1.1050121   -3.1028258   -1.5467307    0.1054519   -3.1028258    1.5560951   467677 
 3194000    1.1050976    -3.100099   -1.5442993   0.10464144    -3.100099    1.5557997   467802 
 3195000    1.1058121   -3.1025397   -1.5461267   0.10748147   -3.1025397     1.556413   467920 
 3196000    1.1064863   -3.1012411   -1.5443017   0.10177766   -3.1012411    1.5569394   468047 
 3197000    1.1062529   -3.1011749   -1.5450493   0.10072351   -3.1011749    1.5561256   468193 
 3198000    1.1063696   -3.1006464   -1.5448351   0.10583342   -3.1006464    1.5558113   468337 
 3199000    1.1084526   -3.1037706   -1.5454528   0.10169676   -3.1037706    1.5583179   468464 
 3200000        1.106    -3.100456   -1.5460308   0.10007396    -3.100456    1.5544252   468598 
 3201000    1.1079512   -3.1027925    -1.546017   0.10398537   -3.1027925    1.5567755   468716 
 3202000    1.1069241     -3.10198   -1.5469263   0.10596937     -3.10198    1.5550537   468800 
 3203000    1.1080571   -3.1017846   -1.5455177   0.10177605   -3.1017846    1.5562669   468914 
 3204000    1.1090504   -3.1030057   -1.5456858   0.10234748   -3.1030057    1.5573199   469017 
 3205000    1.1071151   -3.1015931   -1.5473221   0.10452565   -3.1015931    1.5542709   469117 
 3206000    1.1082514   -3.1023018    -1.546734   0.10100773   -3.1023018    1.5555678   469207 
 3207000    1.1097463   -3.1035338   -1.5462594   0.10518843   -3.1035338    1.5572744   469325 
 3208000    1.1110375   -3.1046856   -1.5459446   0.10252864   -3.1046856     1.558741   469429 
 3209000    1.1104205     -3.10332   -1.5457798   0.11015975     -3.10332    1.5575402   469530 
 3210000     1.111328   -3.1047722   -1.5462877   0.10485639   -3.1047722    1.5584845   469629 
 3211000    1.1111024   -3.1038326   -1.5461487   0.10733477   -3.1038326    1.5576839   469775 
 3212000    1.1105359   -3.1032652   -1.5466703   0.10656245   -3.1032652    1.5565948   469864 
 3213000    1.1126601   -3.1045456   -1.5452921    0.1116923   -3.1045456    1.5592536   469960 
 3214000    1.1141516   -3.1062772   -1.5453354   0.10869818   -3.1062772    1.5609418   470081 
 3215000    1.1126078   -3.1053402   -1.5469459   0.10475736   -3.1053402    1.5583944   470197 
 3216000    1.1140297    -3.106842   -1.5469105   0.10842696    -3.106842    1.5599314   470334 
 3217000    1.1136607   -3.1064533   -1.5473368   0.10421302   -3.1064533    1.5591165   470424 
 3218000    1.1157019   -3.1085385   -1.5470357    0.1086468   -3.1085385    1.5615028   470566 
 3219000    1.1145307   -3.1064155     -1.54689   0.11136175   -3.1064155    1.5595255   470668 
 3220000    1.1149564    -3.107252   -1.5473794   0.10539747    -3.107252    1.5598726   470743 
 3221000     1.112402   -3.1049438   -1.5491506   0.11514853   -3.1049438    1.5557932   470896 
 3222000    1.1130974   -3.1041594   -1.5478463   0.10657582   -3.1041594    1.5563131   471033 
 3223000    1.1147791   -3.1053061   -1.5470354   0.10398168   -3.1053061    1.5582707   471152 
 3224000    1.1145653   -3.1042629   -1.5466911   0.10843531   -3.1042629    1.5575718   471273 
 3225000    1.1173596   -3.1071768   -1.5460512   0.10846937   -3.1071768    1.5611256   471379 
 3226000    1.1162068   -3.1058427   -1.5466288   0.10725476   -3.1058427     1.559214   471470 
 3227000    1.1170722    -3.105215    -1.545252   0.10767458    -3.105215     1.559963   471609 
 3228000     1.117242   -3.1048004   -1.5450468   0.11133932   -3.1048004    1.5597536   471744 
 3229000    1.1180222   -3.1056552   -1.5452887   0.10824159   -3.1056552    1.5603665   471888 
 3230000    1.1178893   -3.1036869   -1.5438827   0.11116126   -3.1036869    1.5598043   472002 
 3231000     1.120203   -3.1055424   -1.5429601   0.11404134   -3.1055424    1.5625823   472138 
 3232000     1.120156   -3.1035819   -1.5413861   0.10904202   -3.1035819    1.5621958   472235 
 3233000    1.1219035   -3.1063832   -1.5421313   0.10971751   -3.1063832    1.5642519   472350 
 3234000    1.1207762   -3.1048936   -1.5426367   0.10868114   -3.1048936    1.5622569   472478 
 3235000    1.1225466   -3.1055752   -1.5411618   0.10813144   -3.1055752    1.5644134   472572 
 3236000    1.1216697   -3.1044116   -1.5414947   0.10944081   -3.1044116    1.5629168   472655 
 3237000    1.1199924   -3.1020959   -1.5419288   0.11120508   -3.1020959     1.560167   472780 
 3238000    1.1214464    -3.103788   -1.5419852   0.10506296    -3.103788    1.5618028   472898 
 3239000    1.1211093    -3.102734   -1.5418199   0.10681641    -3.102734    1.5609141   473025 
 3240000    1.1204051   -3.1012894   -1.5417746   0.10713768   -3.1012894    1.5595149   473152 
 3241000    1.1214081   -3.1016011    -1.541053   0.10843695   -3.1016011    1.5605482   473262 
 3242000    1.1217923   -3.1018445   -1.5412365   0.11013165   -3.1018445     1.560608   473406 
 3243000    1.1206886   -3.0998026   -1.5410659   0.10811298   -3.0998026    1.5587367   473508 
 3244000    1.1222354   -3.1003617   -1.5398328   0.10555088   -3.1003617    1.5605289   473617 
 3245000    1.1224467   -3.1003538   -1.5399627     0.104426   -3.1003538    1.5603912   473748 
 3246000    1.1225543   -3.0998148   -1.5395705   0.09943212   -3.0998148    1.5602443   473838 
 3247000    1.1236455   -3.0999623   -1.5385605   0.10440544   -3.0999623    1.5614018   473947 
 3248000    1.1231539   -3.0982259   -1.5377607   0.11255656   -3.0982259    1.5604652   474024 
 3249000    1.1231246   -3.0991034   -1.5388896   0.10292197   -3.0991034    1.5602138   474088 
 3250000     1.122684   -3.0978564   -1.5386066   0.10882702   -3.0978564    1.5592498   474195 
 3251000    1.1255725   -3.0994211    -1.536565   0.11309252   -3.0994211    1.5628561   474318 
 3252000    1.1261043    -3.100778   -1.5375329   0.10485497    -3.100778    1.5632451   474424 
 3253000    1.1257971   -3.0994591   -1.5369664   0.11158938   -3.0994591    1.5624927   474523 
 3254000    1.1249795   -3.0991492   -1.5381663   0.11438955   -3.0991492    1.5609829   474637 
 3255000    1.1254713   -3.0990884   -1.5377948   0.11334543   -3.0990884    1.5612936   474750 
 3256000    1.1269327   -3.1017007   -1.5388308   0.10925725   -3.1017007    1.5628699   474887 
 3257000    1.1268479   -3.1014261   -1.5389963   0.11003633   -3.1014261    1.5624298   474985 
 3258000    1.1271023   -3.1004332   -1.5379795   0.11177457   -3.1004332    1.5624537   475085 
 3259000    1.1263014    -3.099541   -1.5384867   0.11154589    -3.099541    1.5610543   475173 
 3260000    1.1283167   -3.1012451   -1.5377925   0.10910741   -3.1012451    1.5634526   475293 
 3261000    1.1284729   -3.1018261     -1.53843   0.11163928   -3.1018261    1.5633961   475376 
 3262000    1.1287444   -3.1027562   -1.5392241   0.10888006   -3.1027562    1.5635321   475449 
 3263000    1.1273054   -3.1017736   -1.5406025    0.1081173   -3.1017736    1.5611711   475561 
 3264000    1.1269135   -3.1012187   -1.5408923   0.11161371   -3.1012187    1.5603264   475653 
 3265000    1.1281693   -3.1025836   -1.5408139   0.10817949   -3.1025836    1.5617698   475743 
 3266000    1.1288838    -3.102421   -1.5400365   0.11130756    -3.102421    1.5623844   475857 
 3267000    1.1306993   -3.1032834   -1.5387742   0.11701899   -3.1032834    1.5645092   475975 
 3268000    1.1304999   -3.1036171   -1.5396861   0.10868758   -3.1036171     1.563931   476067 
 3269000    1.1304609   -3.1029603   -1.5394905   0.10955841   -3.1029603    1.5634698   476191 
 3270000    1.1320449   -3.1047257   -1.5394564   0.10922114   -3.1047257    1.5652693   476310 
 3271000    1.1297719   -3.1016379   -1.5399146    0.1177932   -3.1016379    1.5617233   476433 
 3272000    1.1314906   -3.1027395   -1.5388964   0.11542191   -3.1027395    1.5638431   476511 
 3273000     1.132576   -3.1043983   -1.5393606    0.1047766   -3.1043983    1.5650378   476604 
 3274000    1.1338834   -3.1056036   -1.5391865   0.10956702   -3.1056036    1.5664171   476734 
 3275000    1.1341947   -3.1048472   -1.5383911   0.11178376   -3.1048472     1.566456   476853 
 3276000    1.1322717   -3.1034482   -1.5400054   0.11102652   -3.1034482    1.5634428   476962 
 3277000    1.1312866   -3.1019766   -1.5402312   0.10913853   -3.1019766    1.5617454   477065 
 3278000    1.1326644   -3.1030752   -1.5398111   0.11150024   -3.1030752    1.5632641   477182 
 3279000    1.1316226   -3.1023487   -1.5409021   0.11258237   -3.1023487    1.5614466   477298 
 3280000     1.133601   -3.1031792   -1.5393533   0.10962165   -3.1031792    1.5638259   477405 
 3281000    1.1322475   -3.1009574   -1.5393487    0.1158118   -3.1009574    1.5616086   477512 
 3282000    1.1336303     -3.10235   -1.5392107   0.11328575     -3.10235    1.5631393   477627 
 3283000    1.1336019   -3.1020895   -1.5392478   0.11286911   -3.1020895    1.5628417   477706 
 3284000    1.1339128   -3.1014468   -1.5384088   0.11122103   -3.1014468     1.563038   477777 
 3285000    1.1351161    -3.103066   -1.5386246   0.10867517    -3.103066    1.5644414   477855 
 3286000    1.1330361   -3.1001348   -1.5389326   0.11073344   -3.1001348    1.5612021   477969 
 3287000    1.1342331   -3.1022997   -1.5397914   0.10872441   -3.1022997    1.5625082   478074 
 3288000     1.133631   -3.1016563   -1.5403367   0.10525112   -3.1016563    1.5613196   478184 
 3289000    1.1350911   -3.1012921   -1.5383963   0.10832709   -3.1012921    1.5628958   478317 
 3290000    1.1364234   -3.1022901   -1.5378901   0.10707815   -3.1022901       1.5644   478418 
 3291000    1.1368056   -3.1025462   -1.5379733   0.11023646   -3.1025462    1.5645729   478526 
 3292000    1.1360874   -3.1019428   -1.5386231   0.11200737   -3.1019428    1.5633197   478607 
 3293000    1.1365147   -3.1026729   -1.5390754   0.10889899   -3.1026729    1.5635975   478702 
 3294000    1.1353097   -3.1014358   -1.5398257   0.10842219   -3.1014358    1.5616101   478803 
 3295000    1.1355742   -3.1016265   -1.5400895   0.11272387   -3.1016265     1.561537   478937 
 3296000    1.1357017   -3.1020466   -1.5406538    0.1071687   -3.1020466    1.5613928   479035 
 3297000    1.1375008   -3.1041419   -1.5406608    0.1070723   -3.1041419    1.5634811   479153 
 3298000    1.1372752   -3.1020209   -1.5392022    0.1042991   -3.1020209    1.5628187   479261 
 3299000    1.1367969   -3.1026705   -1.5409034   0.10872618   -3.1026705    1.5617671   479382 
 3300000    1.1379203   -3.1023222   -1.5393931   0.11202873   -3.1023222    1.5629291   479499 
 3301000    1.1399244   -3.1043812   -1.5391239   0.11398007   -3.1043812    1.5652573   479629 
 3302000     1.139825   -3.1023541   -1.5375724   0.11184289   -3.1023541    1.5647816   479733 
 3303000    1.1406448   -3.1032368   -1.5375746    0.1110317   -3.1032368    1.5656623   479808 
 3304000    1.1391529   -3.1019817   -1.5388331   0.11120738   -3.1019817    1.5631486   479951 
 3305000    1.1410463   -3.1041472   -1.5387331   0.11636493   -3.1041472     1.565414   480053 
 3306000    1.1412632   -3.1024818   -1.5371094    0.1191419   -3.1024818    1.5653725   480157 
 3307000    1.1424173   -3.1038294   -1.5372296   0.11675189   -3.1038294    1.5665998   480266 
 3308000    1.1417728   -3.1035255   -1.5381615   0.11303101   -3.1035255     1.565364   480374 
 3309000    1.1427914   -3.1047247   -1.5383196   0.10973599   -3.1047247     1.566405   480483 
 3310000    1.1427643   -3.1040343   -1.5380216   0.10830821   -3.1040343    1.5660127   480592 
 3311000    1.1417514   -3.1011922   -1.5369647   0.11618687   -3.1011922    1.5642275   480714 
 3312000     1.141836   -3.1019252   -1.5379493   0.11313903   -3.1019252    1.5639758   480827 
 3313000     1.145171   -3.1056984   -1.5374678   0.11148124   -3.1056984    1.5682306   480923 
 3314000    1.1436031    -3.104144   -1.5384577   0.11853218    -3.104144    1.5656863   481045 
 3315000    1.1439695   -3.1041092    -1.538237   0.11327595   -3.1041092    1.5658722   481142 
 3316000    1.1416161   -3.1030821   -1.5408014   0.10565308   -3.1030821    1.5622807   481256 
 3317000    1.1426825   -3.1035236   -1.5400695   0.11221929   -3.1035236    1.5634541   481344 
 3318000    1.1424307   -3.1021565   -1.5393943   0.10938783   -3.1021565    1.5627622   481451 
 3319000    1.1435248    -3.102932   -1.5390077   0.11167787    -3.102932    1.5639243   481554 
 3320000    1.1442109   -3.1031522   -1.5386274   0.11261413   -3.1031522    1.5645247   481658 
 3321000    1.1463348    -3.104447   -1.5373793   0.11281366    -3.104447    1.5670677   481769 
 3322000     1.145493   -3.1015293   -1.5359244    0.1134843   -3.1015293    1.5656049   481865 
 3323000    1.1465458   -3.1029622   -1.5361264   0.11601509   -3.1029622    1.5668358   481929 
 3324000    1.1479297   -3.1043143   -1.5359518   0.11114791   -3.1043143    1.5683625   482041 
 3325000    1.1473797   -3.1042605   -1.5369973   0.10790925   -3.1042605    1.5672632   482148 
 3326000    1.1463961   -3.1031765   -1.5376011   0.11502887   -3.1031765    1.5655754   482254 
 3327000    1.1470471   -3.1035617   -1.5374317   0.11525602   -3.1035617      1.56613   482357 
 3328000    1.1479809    -3.103876   -1.5368706   0.11424091    -3.103876    1.5670054   482480 
 3329000    1.1485823   -3.1042743   -1.5367664   0.11474379   -3.1042743    1.5675079   482578 
 3330000    1.1486279   -3.1055746   -1.5383877   0.11451643   -3.1055746    1.5671869   482696 
 3331000    1.1487104    -3.104637   -1.5376492   0.11477842    -3.104637    1.5669878   482792 
 3332000    1.1478996   -3.1038457   -1.5383173   0.11804278   -3.1038457    1.5655284   482901 
 3333000     1.148551   -3.1039004   -1.5377237   0.11332691   -3.1039004    1.5661767   482975 
 3334000    1.1493761   -3.1048592   -1.5378883   0.11167976   -3.1048592    1.5669709   483077 
 3335000     1.149007   -3.1029846   -1.5368249   0.11696799   -3.1029846    1.5661597   483172 
 3336000    1.1516691   -3.1070325   -1.5376664   0.11633329   -3.1070325    1.5693661   483302 
 3337000    1.1497826   -3.1041203   -1.5375487   0.11640354   -3.1041203    1.5665717   483371 
 3338000    1.1506684    -3.105743   -1.5383244   0.11231544    -3.105743    1.5674186   483482 
 3339000    1.1505754   -3.1057571   -1.5386823   0.11410151   -3.1057571    1.5670748   483549 
 3340000    1.1496358   -3.1052358   -1.5397289   0.11444644   -3.1052358    1.5655069   483638 
 3341000    1.1501639   -3.1046332   -1.5387148   0.11499799   -3.1046332    1.5659184   483733 
 3342000    1.1508209   -3.1050461   -1.5385958   0.11635824   -3.1050461    1.5664502   483845 
 3343000    1.1520538   -3.1053475   -1.5374944   0.11470808   -3.1053475    1.5678531   483930 
 3344000    1.1532371    -3.105256   -1.5360942   0.11647072    -3.105256    1.5691619   484023 
 3345000    1.1529982   -3.1050812   -1.5365231   0.11054194   -3.1050812    1.5685581   484109 
 3346000    1.1530485   -3.1052032   -1.5368779   0.11724897   -3.1052032    1.5683252   484202 
 3347000    1.1533151   -3.1046009   -1.5362921   0.11758242   -3.1046009    1.5683088   484319 
 3348000    1.1533287    -3.106982   -1.5390658   0.11068295    -3.106982    1.5679163   484446 
 3349000    1.1526656   -3.1053518   -1.5387316   0.11081416   -3.1053518    1.5666202   484568 
 3350000    1.1524329   -3.1041497   -1.5381657   0.11593789   -3.1041497     1.565984   484667 
 3351000    1.1520058   -3.1035581   -1.5384903   0.11662738   -3.1035581    1.5650678   484771 
 3352000    1.1534535   -3.1048964   -1.5382077   0.11139281   -3.1048964    1.5666888   484878 
 3353000    1.1533087   -3.1040254   -1.5378273   0.11666383   -3.1040254    1.5661982   484969 
 3354000    1.1545109   -3.1055437   -1.5380103   0.11251358   -3.1055437    1.5675335   485061 
 3355000    1.1549623   -3.1046895   -1.5368826   0.11526925   -3.1046895    1.5678069   485166 
 3356000    1.1547996   -3.1061944   -1.5389314   0.11327824   -3.1061944    1.5672631   485266 
 3357000    1.1539858   -3.1039323   -1.5380028   0.11467861   -3.1039323    1.5659295   485337 
 3358000    1.1551204   -3.1052774   -1.5381538   0.11052294   -3.1052774    1.5671236   485444 
 3359000    1.1555448   -3.1049314   -1.5375097   0.11356972   -3.1049314    1.5674217   485530 
 3360000    1.1564269   -3.1057807   -1.5374468   0.11318418   -3.1057807    1.5683339   485618 
 3361000    1.1560522    -3.105255   -1.5377714   0.10962462    -3.105255    1.5674836   485724 
 3362000    1.1569113   -3.1056581    -1.537368   0.11715942   -3.1056581    1.5682901   485835 
 3363000    1.1573565   -3.1055813   -1.5370106   0.11480381   -3.1055813    1.5685708   485935 
 3364000    1.1573372    -3.104938   -1.5366999   0.11456041    -3.104938     1.568238   486030 
 3365000    1.1594988    -3.107655   -1.5367821   0.11399781    -3.107655    1.5708729   486121 
 3366000    1.1599195   -3.1077257    -1.536564   0.11271354   -3.1077257    1.5711617   486208 
 3367000    1.1600501   -3.1076334   -1.5365695   0.11658197   -3.1076334    1.5710639   486293 
 3368000    1.1591655   -3.1065004   -1.5369411   0.12073055   -3.1065004    1.5695592   486388 
 3369000    1.1603803   -3.1075693   -1.5366493   0.11522589   -3.1075693      1.57092   486476 
 3370000    1.1599043   -3.1064501   -1.5364359   0.11539762   -3.1064501    1.5700141   486557 
 3371000       1.1606   -3.1073969   -1.5368317   0.11842797   -3.1073969    1.5705652   486678 
 3372000    1.1606457   -3.1073231   -1.5369606   0.11435918   -3.1073231    1.5703625   486760 
 3373000    1.1608335   -3.1061624   -1.5359103   0.11643266   -3.1061624    1.5702521   486873 
 3374000    1.1614147   -3.1062167   -1.5355656    0.1200285   -3.1062167    1.5706511   486993 
 3375000    1.1612954   -3.1060584   -1.5359587   0.11744672   -3.1060584    1.5700997   487114 
 3376000    1.1626587   -3.1081038   -1.5363771   0.11643308   -3.1081038    1.5717267   487181 
 3377000    1.1628126   -3.1072635   -1.5356932   0.11690115   -3.1072635    1.5715702   487294 
 3378000    1.1635225   -3.1084584   -1.5362126   0.11708158   -3.1084584    1.5722458   487382 
 3379000    1.1627711   -3.1075652   -1.5366862   0.11692334   -3.1075652     1.570879   487491 
 3380000    1.1631438   -3.1081631   -1.5371801   0.11646892   -3.1081631     1.570983   487615 
 3381000    1.1633818    -3.108525   -1.5375266   0.11979684    -3.108525    1.5709984   487710 
 3382000    1.1645161   -3.1096266   -1.5374156   0.11934793   -3.1096266     1.572211   487809 
 3383000    1.1640905   -3.1083255   -1.5370112   0.11770338   -3.1083255    1.5713142   487909 
 3384000    1.1642583   -3.1072232    -1.535998   0.12187017   -3.1072232    1.5712251   488007 
 3385000    1.1631604   -3.1066387   -1.5372812   0.11319235   -3.1066387    1.5693575   488127 
 3386000    1.1644558   -3.1085805   -1.5377937    0.1175582   -3.1085805    1.5707868   488226 
 3387000    1.1647305   -3.1090742   -1.5382418    0.1124558   -3.1090742    1.5708324   488327 
 3388000    1.1652092   -3.1092093   -1.5380852    0.1197105   -3.1092093    1.5711241   488437 
 3389000    1.1663287   -3.1086651    -1.536405   0.12141835   -3.1086651    1.5722601   488553 
 3390000    1.1658753   -3.1070979   -1.5357545   0.11427068   -3.1070979    1.5713434   488648 
 3391000    1.1663132   -3.1081451    -1.536591   0.11927722   -3.1081451    1.5715541   488766 
 3392000      1.16637   -3.1086256   -1.5372264   0.11498204   -3.1086256    1.5713992   488838 
 3393000    1.1664512   -3.1078995   -1.5367478    0.1158531   -3.1078995    1.5711518   488949 
 3394000    1.1657487   -3.1077651   -1.5379159   0.11577294   -3.1077651    1.5698492   489060 
 3395000    1.1653961   -3.1063534   -1.5372806   0.11391337   -3.1063534    1.5690728   489154 
 3396000    1.1677855   -3.1084215   -1.5363536   0.11596412   -3.1084215     1.572068   489223 
 3397000    1.1689858   -3.1098862   -1.5365465   0.11713547   -3.1098862    1.5733397   489330 
 3398000    1.1694089   -3.1100625   -1.5362851   0.11843383   -3.1100625    1.5737773   489371 
 3399000    1.1701133    -3.110154   -1.5356506   0.11361247    -3.110154    1.5745034   489440 
 3400000    1.1690525   -3.1078166   -1.5350234   0.11866007   -3.1078166    1.5727932   489528 
 3401000    1.1703171   -3.1090354   -1.5347949   0.11830254   -3.1090354    1.5742405   489607 
 3402000    1.1699547   -3.1093374    -1.535864   0.11417509   -3.1093374    1.5734734   489694 
 3403000    1.1693605   -3.1085206   -1.5361514    0.1148899   -3.1085206    1.5723692   489789 
 3404000    1.1718282   -3.1093248    -1.533943   0.12101873   -3.1093248    1.5753817   489884 
 3405000    1.1694772   -3.1067209   -1.5347532   0.11708155   -3.1067209    1.5719677   489963 
 3406000    1.1716971   -3.1084895   -1.5338047   0.11695228   -3.1084895    1.5746848   490046 
 3407000     1.170353    -3.107578   -1.5350076   0.12141284    -3.107578    1.5725704   490142 
 3408000    1.1712812   -3.1089176   -1.5354788   0.11216098   -3.1089176    1.5734388   490260 
 3409000    1.1711897   -3.1076846   -1.5345869   0.11904062   -3.1076846    1.5730977   490328 
 3410000    1.1709565   -3.1069824   -1.5344322   0.11962768   -3.1069824    1.5725502   490401 
 3411000    1.1713148   -3.1083765   -1.5356401   0.12121762   -3.1083765    1.5727364   490493 
 3412000    1.1710424   -3.1084746   -1.5363988   0.11706972   -3.1084746    1.5720758   490585 
 3413000    1.1701903   -3.1078627   -1.5371868    0.1184319   -3.1078627    1.5706758   490665 
 3414000    1.1715398    -3.108598   -1.5364985    0.1167402    -3.108598    1.5720995   490786 
 3415000    1.1725751   -3.1086278   -1.5354565   0.11563954   -3.1086278    1.5731713   490885 
 3416000    1.1727985   -3.1090473   -1.5358582   0.11895905   -3.1090473     1.573189   490973 
 3417000    1.1731482    -3.109749   -1.5364113   0.11686097    -3.109749    1.5733377   491073 
 3418000    1.1725905   -3.1090895    -1.536788   0.11508921   -3.1090895    1.5723016   491163 
 3419000    1.1739927   -3.1106544    -1.536729   0.11269975   -3.1106544    1.5739254   491243 
 3420000    1.1732391   -3.1094972    -1.536851   0.11536112   -3.1094972    1.5726462   491327 
 3421000    1.1736123   -3.1093235   -1.5365803   0.11593657   -3.1093235    1.5727432   491453 
 3422000    1.1742154   -3.1102354   -1.5370233     0.119382   -3.1102354    1.5732121   491559 
 3423000    1.1740466   -3.1104936   -1.5378788   0.11734877   -3.1104936    1.5726148   491675 
 3424000    1.1751675   -3.1105607   -1.5367262   0.12252408   -3.1105607    1.5738345   491763 
 3425000    1.1737112   -3.1089444   -1.5373543   0.11819354   -3.1089444    1.5715901   491855 
 3426000    1.1765323   -3.1130979   -1.5380313   0.11183566   -3.1130979    1.5750665   491949 
 3427000    1.1756404   -3.1121183   -1.5385561   0.12101464   -3.1121183    1.5735622   492046 
 3428000    1.1766906   -3.1135005   -1.5388782   0.11533516   -3.1135005    1.5746223   492154 
 3429000    1.1761292   -3.1112962   -1.5376906   0.12203966   -3.1112962    1.5736057   492237 
 3430000    1.1774207   -3.1137744   -1.5387832   0.11834561   -3.1137744    1.5749912   492344 
 3431000    1.1756899   -3.1115781   -1.5391384   0.12459751   -3.1115781    1.5724397   492418 
 3432000    1.1793363   -3.1149529   -1.5378349   0.11742375   -3.1149529     1.577118   492480 
 3433000    1.1785359   -3.1135699   -1.5378198    0.1244815   -3.1135699    1.5757501   492573 
 3434000    1.1774678   -3.1118683   -1.5378435   0.12456858   -3.1118683    1.5740248   492666 
 3435000    1.1787228   -3.1153574   -1.5398659   0.12221819   -3.1153574    1.5754914   492732 
 3436000    1.1766343   -3.1131496   -1.5407146   0.12014738   -3.1131496     1.572435   492815 
 3437000    1.1777422   -3.1151622   -1.5415977   0.11905925   -3.1151622    1.5735645   492925 
 3438000    1.1765063   -3.1133013   -1.5417038   0.12023587   -3.1133013    1.5715975   493024 
 3439000    1.1759951   -3.1138591   -1.5432058   0.11497531   -3.1138591    1.5706534   493106 
 3440000    1.1770975   -3.1136236   -1.5417528   0.11912854   -3.1136236    1.5718708   493186 
 3441000    1.1776607   -3.1131397   -1.5407305   0.11822989   -3.1131397    1.5724093   493253 
 3442000    1.1795786    -3.115057   -1.5403902   0.11673937    -3.115057    1.5746668   493348 
 3443000    1.1774582   -3.1111211   -1.5395876   0.12206167   -3.1111211    1.5715335   493443 
 3444000    1.1796358    -3.114156   -1.5399968   0.11567974    -3.114156    1.5741592   493531 
 3445000    1.1791647    -3.113761   -1.5404536   0.12211812    -3.113761    1.5733074   493601 
 3446000    1.1771449   -3.1115888   -1.5412087    0.1224446   -3.1115888    1.5703801   493674 
 3447000    1.1774405   -3.1122172   -1.5417226   0.11945223   -3.1122172    1.5704946   493762 
 3448000    1.1797364   -3.1156508   -1.5424603   0.11448805   -3.1156508    1.5731904   493877 
 3449000    1.1791674   -3.1128753   -1.5407046   0.11737644   -3.1128753    1.5721707   493959 
 3450000    1.1799881   -3.1145408   -1.5415816   0.12137665   -3.1145408    1.5729592   494055 
 3451000    1.1797364   -3.1130149   -1.5406776   0.11631207   -3.1130149    1.5723373   494145 
 3452000    1.1802812   -3.1146838   -1.5418656    0.1137251   -3.1146838    1.5728182   494222 
 3453000    1.1815047   -3.1156476   -1.5415015   0.11835134   -3.1156476    1.5741461   494317 
 3454000    1.1799387   -3.1133013   -1.5415723   0.12136731   -3.1133013     1.571729   494421 
 3455000    1.1804398   -3.1143779    -1.542328   0.11646721   -3.1143779      1.57205   494530 
 3456000    1.1814767   -3.1148467   -1.5417149   0.11723334   -3.1148467    1.5731318   494624 
 3457000    1.1830317   -3.1154989   -1.5406087   0.11670173   -3.1154989    1.5748903   494722 
 3458000    1.1840984   -3.1162169   -1.5402221   0.12295912   -3.1162169    1.5759948   494821 
 3459000    1.1839684   -3.1166519    -1.541139   0.11551031   -3.1166519     1.575513   494918 
 3460000    1.1827565   -3.1159811   -1.5424877   0.11548198   -3.1159811    1.5734934   495046 
 3461000    1.1831913   -3.1163185   -1.5424819    0.1199871   -3.1163185    1.5738366   495120 
 3462000    1.1814709   -3.1117011   -1.5404322   0.12035324   -3.1117011    1.5712689   495208 
 3463000    1.1838493   -3.1142366   -1.5401321   0.12389752   -3.1142366    1.5741046   495311 
 3464000    1.1834942   -3.1147718   -1.5414888   0.12499191   -3.1147718     1.573283   495421 
 3465000    1.1857581   -3.1173244   -1.5413436   0.11808301   -3.1173244    1.5759807   495519 
 3466000    1.1851868   -3.1172487   -1.5422401   0.11899179   -3.1172487    1.5750086   495586 
 3467000     1.184021   -3.1161384   -1.5429235   0.11937239   -3.1161384    1.5732149   495663 
 3468000    1.1855127   -3.1172564   -1.5424726   0.11634898   -3.1172564    1.5747838   495793 
 3469000    1.1856239   -3.1157579   -1.5410995    0.1189593   -3.1157579    1.5746584   495879 
 3470000    1.1861039    -3.117939   -1.5429036   0.12123598    -3.117939    1.5750354   495961 
 3471000    1.1855882   -3.1154657   -1.5414768   0.12045547   -3.1154657    1.5739889   496075 
 3472000    1.1861102   -3.1171608   -1.5427613   0.11539911   -3.1171608    1.5743995   496164 
 3473000    1.1871843   -3.1184659   -1.5429233    0.1176405   -3.1184659    1.5755426   496253 
 3474000    1.1900514   -3.1183937   -1.5393738   0.12197251   -3.1183937    1.5790199   496356 
 3475000     1.190513    -3.118829   -1.5394577   0.12256182    -3.118829    1.5793713   496438 
 3476000    1.1908999   -3.1195606   -1.5399051   0.11895349   -3.1195606    1.5796555   496510 
 3477000    1.1894758   -3.1168149    -1.539293   0.11947707   -3.1168149    1.5775219   496587 
 3478000    1.1891661   -3.1158543   -1.5390035   0.12578831   -3.1158543    1.5768508   496669 
 3479000     1.189673    -3.116614   -1.5393261   0.12010716    -3.116614    1.5772879   496743 
 3480000    1.1892787   -3.1166523   -1.5401632   0.12245422   -3.1166523    1.5764891   496830 
 3481000    1.1902161   -3.1176459   -1.5402031   0.12105082   -3.1176459    1.5774428   496921 
 3482000    1.1878163   -3.1138343   -1.5398318   0.12390665   -3.1138343    1.5740025   497003 
 3483000    1.1904402   -3.1161439   -1.5389406    0.1153112   -3.1161439    1.5772033   497090 
 3484000    1.1903368   -3.1159982   -1.5392269   0.12318797   -3.1159982    1.5767713   497183 
 3485000    1.1909649   -3.1172065   -1.5398854   0.11751539   -3.1172065    1.5773211   497272 
 3486000    1.1892538   -3.1156614   -1.5408472   0.12142444   -3.1156614    1.5748142   497348 
 3487000    1.1901329   -3.1162104   -1.5404857   0.11901025   -3.1162104    1.5757247   497428 
 3488000    1.1907209   -3.1157047    -1.539401   0.12617126   -3.1157047    1.5763037   497491 
 3489000    1.1917024   -3.1177463   -1.5403843   0.12204004   -3.1177463     1.577362   497567 
 3490000    1.1908614   -3.1161557   -1.5401603   0.12159689   -3.1161557    1.5759955   497647 
 3491000    1.1920015   -3.1163847   -1.5391498   0.12283863   -3.1163847    1.5772348   497732 
 3492000    1.1918626   -3.1165192    -1.539785   0.11554085   -3.1165192    1.5767342   497832 
 3493000    1.1934436   -3.1182711   -1.5397212   0.11970272   -3.1182711    1.5785499   497919 
 3494000    1.1926882   -3.1165037   -1.5391904   0.12418474   -3.1165037    1.5773133   497994 
 3495000    1.1925347   -3.1173789   -1.5405569   0.12152747   -3.1173789     1.576822   498085 
 3496000    1.1944046   -3.1200049     -1.54091    0.1235338   -3.1200049    1.5790949   498148 
 3497000     1.193885   -3.1179648   -1.5398325   0.12285321   -3.1179648    1.5781322   498235 
 3498000     1.192775   -3.1181838   -1.5417656   0.12098866   -3.1181838    1.5764182   498313 
 3499000    1.1947111   -3.1202272   -1.5415544   0.11912614   -3.1202272    1.5786729   498409 
 3500000    1.1934529   -3.1181848   -1.5414876   0.12384729   -3.1181848    1.5766971   498508 
 3501000    1.1947135   -3.1189852   -1.5408568   0.12384082   -3.1189852    1.5781284   498582 
 3502000    1.1944602   -3.1187391   -1.5412365   0.11961763   -3.1187391    1.5775026   498674 
 3503000    1.1954933   -3.1190385   -1.5403867     0.123602   -3.1190385    1.5786517   498742 
 3504000    1.1955271   -3.1206421   -1.5422843   0.12765114   -3.1206421    1.5783578   498849 
 3505000    1.1961031   -3.1212606   -1.5424146   0.12159776   -3.1212606     1.578846   498935 
 3506000     1.194243   -3.1175352   -1.5413719   0.12276983   -3.1175352    1.5761633   499007 
 3507000    1.1948092   -3.1191971   -1.5425299   0.12048925   -3.1191971    1.5766672   499084 
 3508000    1.1971404   -3.1218063   -1.5424014   0.12093968   -3.1218063    1.5794049   499191 
 3509000    1.1968294   -3.1217863   -1.5430005    0.1223965   -3.1217863    1.5787858   499257 
 3510000    1.1949611    -3.118664   -1.5426458   0.11963779    -3.118664    1.5760182   499353 
 3511000    1.1959868   -3.1208658    -1.543757   0.12230615   -3.1208658    1.5771089   499436 
 3512000     1.195917   -3.1215651   -1.5448198   0.11564457   -3.1215651    1.5767453   499522 
 3513000    1.1959613   -3.1204325   -1.5439128   0.11824581   -3.1204325    1.5765197   499612 
 3514000    1.1964043   -3.1206723   -1.5438968   0.12388079   -3.1206723    1.5767755   499716 
 3515000     1.196682   -3.1206417   -1.5437401   0.11976439   -3.1206417    1.5769016   499792 
 3516000    1.1975134   -3.1209622    -1.543246   0.12282499   -3.1209622    1.5777162   499881 
 3517000    1.1998439   -3.1235126   -1.5429599   0.11754474   -3.1235126    1.5805526   499955 
 3518000    1.1987347   -3.1217888    -1.542912   0.12126935   -3.1217888    1.5788768   500023 
 3519000    1.1974412   -3.1209127    -1.543951   0.12717234   -3.1209127    1.5769617   500090 
 3520000    1.1975142   -3.1218252   -1.5450101   0.11907854   -3.1218252    1.5768151   500167 
 3521000    1.1983897    -3.122037   -1.5443214   0.11654539    -3.122037    1.5777156   500247 
 3522000    1.1977023   -3.1219085   -1.5453595   0.11932745   -3.1219085     1.576549   500330 
 3523000    1.1984131   -3.1218532   -1.5445799   0.11704096   -3.1218532    1.5772734   500397 
 3524000    1.1984591   -3.1232625   -1.5462059    0.1198702   -3.1232625    1.5770566   500485 
 3525000    1.1981493   -3.1226624    -1.546256   0.12105815   -3.1226624    1.5764064   500562 
 3526000    1.1999316   -3.1236175   -1.5451815   0.11933621   -3.1236175    1.5784361   500662 
 3527000    1.1982539   -3.1209574   -1.5449076    0.1268877   -3.1209574    1.5760497   500719 
 3528000    1.1999568   -3.1228612   -1.5449183     0.119943   -3.1228612    1.5779429   500829 
 3529000    1.1999695   -3.1218248   -1.5441235   0.12841036   -3.1218248    1.5777013   500911 
 3530000    1.1996734   -3.1223093   -1.5451894   0.12248279   -3.1223093    1.5771199   500972 
 3531000    1.2008584   -3.1229716   -1.5445806   0.12424143   -3.1229716     1.578391   501063 
 3532000    1.2008445   -3.1236491   -1.5455378   0.11893877   -3.1236491    1.5781113   501146 
 3533000    1.2025205    -3.126675    -1.546607   0.12143282    -3.126675     1.580068   501224 
 3534000    1.2003878   -3.1227985   -1.5457279    0.1273064   -3.1227985    1.5770706   501286 
 3535000    1.2000684   -3.1227659   -1.5463476   0.12279314   -3.1227659    1.5764182   501360 
 3536000    1.2018882     -3.12596   -1.5474032   0.12275272     -3.12596    1.5785569   501440 
 3537000    1.2025367   -3.1249389   -1.5458201   0.12039167   -3.1249389    1.5791188   501532 
 3538000    1.2027203   -3.1255568    -1.546433   0.11833229   -3.1255568    1.5791238   501607 
 3539000    1.2051197   -3.1272389   -1.5452077   0.11812118   -3.1272389    1.5820312   501684 
 3540000    1.2026456   -3.1240095   -1.5455156   0.12476355   -3.1240095     1.578494   501776 
 3541000    1.2026674   -3.1239021   -1.5457004   0.12385875   -3.1239021    1.5782017   501878 
 3542000    1.2031623   -3.1239867   -1.5453873   0.13172557   -3.1239867    1.5785995   501958 
 3543000    1.2039083   -3.1249248   -1.5456139   0.12807378   -3.1249248    1.5793109   502043 
 3544000    1.2038473   -3.1263597   -1.5474245   0.12037929   -3.1263597    1.5789352   502137 
 3545000    1.2059494   -3.1281307   -1.5466904   0.12305746   -3.1281307    1.5814403   502217 
 3546000    1.2062389   -3.1292493   -1.5476278   0.12088214   -3.1292493    1.5816215   502280 
 3547000    1.2052716   -3.1266612   -1.5465848   0.12475409   -3.1266612    1.5800764   502368 
 3548000    1.2038842   -3.1258228   -1.5478512   0.12399728   -3.1258228    1.5779717   502459 
 3549000    1.2033193   -3.1252777   -1.5482724   0.12741079   -3.1252777    1.5770053   502531 
 3550000    1.2040614   -3.1258067   -1.5481176   0.12292169   -3.1258067    1.5776891   502623 
 3551000    1.2054164   -3.1256218   -1.5464778   0.12419743   -3.1256218     1.579144   502725 
 3552000    1.2068875   -3.1262671   -1.5455259   0.12926475   -3.1262671    1.5807411   502830 
 3553000    1.2096205   -3.1288936   -1.5448565   0.12517252   -3.1288936    1.5840372   502920 
 3554000    1.2067726   -3.1253378   -1.5452312   0.12510204   -3.1253378    1.5801066   502984 
 3555000    1.2072154   -3.1275538   -1.5471376   0.11918412   -3.1275538    1.5804163   503070 
 3556000    1.2069447   -3.1261209   -1.5463009   0.12907506   -3.1261209      1.57982   503147 
 3557000     1.206875   -3.1258868   -1.5463777   0.12149081   -3.1258868    1.5795091   503217 
 3558000    1.2079269   -3.1264694   -1.5459448   0.11952519   -3.1264694    1.5805246   503332 
 3559000    1.2062672   -3.1225481   -1.5444241   0.12389243   -3.1225481     1.578124   503405 
 3560000    1.2088218   -3.1257352   -1.5445738   0.12816044   -3.1257352    1.5811614   503502 
 3561000    1.2085417   -3.1246446   -1.5440881   0.13090466   -3.1246446    1.5805566   503578 
 3562000    1.2080507   -3.1249095   -1.5451645   0.12272431   -3.1249095     1.579745   503632 
 3563000    1.2089498   -3.1251017   -1.5444446   0.12013326   -3.1251017    1.5806571   503716 
 3564000    1.2087336   -3.1240309    -1.543942   0.12265659   -3.1240309    1.5800889   503807 
 3565000     1.210328   -3.1254644   -1.5435989   0.12427004   -3.1254644    1.5818654   503905 
 3566000    1.2110758   -3.1261434   -1.5435266    0.1227891   -3.1261434    1.5826167   503977 
 3567000    1.2086585    -3.123131   -1.5439834   0.12586676    -3.123131    1.5791476   504076 
 3568000     1.209717   -3.1252223   -1.5448956   0.11990396   -3.1252223    1.5803267   504141 
 3569000    1.2093803   -3.1255122   -1.5458196   0.11927156   -3.1255122    1.5796926   504203 
 3570000    1.2096813   -3.1263258   -1.5464719    0.1239321   -3.1263258    1.5798539   504277 
 3571000    1.2099147    -3.124559   -1.5446196   0.12755283    -3.124559    1.5799395   504347 
 3572000     1.210232   -3.1263971   -1.5462438   0.12812171   -3.1263971    1.5801533   504411 
 3573000    1.2108157   -3.1260749   -1.5454165   0.12452153   -3.1260749    1.5806584   504493 
 3574000    1.2122083   -3.1266396   -1.5444203   0.13032301   -3.1266396    1.5822193   504575 
 3575000    1.2131916   -3.1281768   -1.5448907   0.12701455   -3.1281768    1.5832861   504644 
 3576000    1.2130517   -3.1277465   -1.5449252   0.12601634   -3.1277465    1.5828213   504734 
 3577000    1.2132352   -3.1273119   -1.5445052   0.12280866   -3.1273119    1.5828067   504815 
 3578000    1.2130309   -3.1280945    -1.545805   0.12703187   -3.1280945    1.5822894   504895 
 3579000    1.2140665   -3.1297031    -1.546295   0.12705592   -3.1297031    1.5834082   504969 
 3580000     1.213908   -3.1294134   -1.5465379   0.12523595   -3.1294134    1.5828755   505073 
 3581000    1.2129349   -3.1275657   -1.5462222   0.12779857   -3.1275657    1.5813436   505157 
 3582000    1.2151216   -3.1291287   -1.5451381   0.12568401   -3.1291287    1.5839906   505222 
 3583000     1.214653   -3.1293837   -1.5461575   0.12484657   -3.1293837    1.5832262   505271 
 3584000    1.2127695   -3.1279675   -1.5474308   0.12860516   -3.1279675    1.5805367   505346 
 3585000    1.2153566   -3.1312016   -1.5475566   0.12194749   -3.1312016     1.583645   505430 
 3586000    1.2141333    -3.129286   -1.5474352   0.12365256    -3.129286    1.5818508   505494 
 3587000    1.2149815   -3.1300742   -1.5473971   0.12492004   -3.1300742    1.5826771   505583 
 3588000    1.2152925   -3.1298125   -1.5469901   0.12336098   -3.1298125    1.5828224   505666 
 3589000    1.2145846   -3.1291866   -1.5475332    0.1315938   -3.1291866    1.5816534   505745 
 3590000    1.2146823   -3.1296014   -1.5480491   0.12616991   -3.1296014    1.5815523   505818 
 3591000    1.2148258   -3.1300705   -1.5485315    0.1256546   -3.1300705     1.581539   505882 
 3592000    1.2134456   -3.1274234    -1.547856   0.12606597   -3.1274234    1.5795674   505938 
 3593000    1.2165993   -3.1310401   -1.5476398   0.12850903   -3.1310401    1.5834003   506025 
 3594000    1.2154343   -3.1301489    -1.548493   0.12667924   -3.1301489    1.5816558   506098 
 3595000    1.2140644     -3.12924   -1.5495946   0.12876804     -3.12924    1.5796454   506171 
 3596000    1.2156843    -3.130158   -1.5486613   0.12566774    -3.130158    1.5814968   506253 
 3597000     1.216964   -3.1319683   -1.5490724   0.12657815   -3.1319683    1.5828959   506338 
 3598000    1.2168139   -3.1302853   -1.5478878   0.12801179   -3.1302853    1.5823975   506435 
 3599000    1.2163536   -3.1309052   -1.5494248   0.12615134   -3.1309052    1.5814804   506537 
 3600000    1.2165151   -3.1305589   -1.5490933   0.12547175   -3.1305589    1.5814656   506609 
 3601000    1.2173692    -3.130868   -1.5486045   0.12863057    -3.130868    1.5822635   506709 
 3602000    1.2192902   -3.1328864   -1.5484512   0.12412366   -3.1328864    1.5844352   506813 
 3603000     1.216439   -3.1300406    -1.549535   0.13207022   -3.1300406    1.5805056   506885 
 3604000     1.217965   -3.1319036   -1.5497026   0.12417917   -3.1319036     1.582201   506977 
 3605000    1.2190799   -3.1333578   -1.5499051   0.12365832   -3.1333578    1.5834527   507040 
 3606000     1.216417   -3.1294424   -1.5497197   0.13193041   -3.1294424    1.5797228   507127 
 3607000    1.2187295   -3.1318121   -1.5493015   0.12347461   -3.1318121    1.5825106   507196 
 3608000    1.2189461   -3.1313352   -1.5488054   0.12626159   -3.1313352    1.5825298   507280 
 3609000    1.2192582   -3.1321625   -1.5494801   0.12634802   -3.1321625    1.5826823   507361 
 3610000    1.2200614   -3.1330668   -1.5495261   0.12592619   -3.1330668    1.5835408   507420 
 3611000    1.2202083   -3.1330791   -1.5496036   0.12407459   -3.1330791    1.5834755   507502 
 3612000    1.2209012   -3.1334198   -1.5493135   0.12102528   -3.1334198    1.5841063   507588 
 3613000     1.219476    -3.131907   -1.5498119   0.11989163    -3.131907     1.582095   507640 
 3614000    1.2194006   -3.1307681   -1.5489454   0.12745823   -3.1307681    1.5818227   507696 
 3615000    1.2194035   -3.1315207   -1.5499902    0.1271967   -3.1315207    1.5815305   507791 
 3616000    1.2196331   -3.1317428   -1.5501201   0.12470732   -3.1317428    1.5816227   507857 
 3617000    1.2204127   -3.1318811     -1.54945   0.12855955   -3.1318811    1.5824311   507922 
 3618000    1.2192723   -3.1306949   -1.5499633   0.12376436   -3.1306949    1.5807316   507993 
 3619000    1.2209311   -3.1334326   -1.5507561   0.12115048   -3.1334326    1.5826765   508059 
 3620000    1.2227503   -3.1343492    -1.549511    0.1188538   -3.1343492    1.5848382   508122 
 3621000    1.2201249   -3.1311109   -1.5498966   0.12375903   -3.1311109    1.5812144   508193 
 3622000    1.2195487   -3.1297719   -1.5495592   0.12609532   -3.1297719    1.5802127   508275 
 3623000     1.219773   -3.1313931   -1.5511666   0.12573757   -3.1313931    1.5802266   508364 
 3624000    1.2195271   -3.1314327   -1.5517174   0.12202651   -3.1314327    1.5797153   508426 
 3625000    1.2197564   -3.1320942   -1.5523553   0.12574035   -3.1320942    1.5797389   508514 
 3626000    1.2204801   -3.1313964   -1.5509128   0.12561736   -3.1313964    1.5804836   508576 
 3627000    1.2223275   -3.1327024   -1.5500257   0.12577774   -3.1327024    1.5826767   508640 
 3628000    1.2218058   -3.1323586   -1.5505782   0.12346675   -3.1323586    1.5817804   508711 
 3629000     1.223601   -3.1348704   -1.5509776   0.12136869   -3.1348704    1.5838928   508779 
 3630000    1.2217465   -3.1320767   -1.5508859   0.12301093   -3.1320767    1.5811907   508876 
 3631000    1.2224384   -3.1319935   -1.5501311    0.1297848   -3.1319935    1.5818624   508948 
 3632000    1.2225398   -3.1334107   -1.5516253   0.12160335   -3.1334107    1.5817854   509015 
 3633000    1.2234797   -3.1349016   -1.5521147   0.12309525   -3.1349016    1.5827869   509084 
 3634000    1.2225603    -3.134098   -1.5527334   0.12368987    -3.134098    1.5813646   509159 
 3635000    1.2234762   -3.1355428   -1.5532329   0.12863609   -3.1355428    1.5823099   509236 
 3636000     1.222888   -3.1347611   -1.5534695   0.12373558   -3.1347611    1.5812916   509319 
 3637000    1.2250444   -3.1370524    -1.553215   0.12830012   -3.1370524    1.5838374   509397 
 3638000    1.2244662   -3.1361426   -1.5533138   0.12621674   -3.1361426    1.5828288   509481 
 3639000    1.2275375   -3.1382728   -1.5516234   0.12299513   -3.1382728    1.5866494   509529 
 3640000    1.2243127   -3.1342261   -1.5519746   0.12721997   -3.1342261    1.5822514   509603 
 3641000    1.2261442   -3.1370338   -1.5527108   0.12694661   -3.1370338    1.5843231   509698 
 3642000    1.2274892   -3.1376241   -1.5517778   0.12992255   -3.1376241    1.5858463   509767 
 3643000    1.2255294   -3.1367668   -1.5535923    0.1234429   -3.1367668    1.5831745   509812 
 3644000    1.2266821    -3.138549    -1.554165   0.12398596    -3.138549     1.584384   509902 
 3645000    1.2259807   -3.1386402   -1.5553144   0.12834454   -3.1386402    1.5833258   509951 
 3646000    1.2256148   -3.1384068    -1.555749   0.12958826   -3.1384068    1.5826578   510014 
 3647000    1.2265445   -3.1403681   -1.5566309   0.12125554   -3.1403681    1.5837372   510053 
 3648000    1.2234622   -3.1381937   -1.5587367   0.12867656   -3.1381937     1.579457   510150 
 3649000    1.2265699   -3.1412099   -1.5579334   0.12682203   -3.1412099    1.5832765   510212 
 3650000    1.2264255   -3.1412282   -1.5583646   0.12366844   -3.1412282    1.5828636   510285 
 3651000    1.2257787   -3.1399656   -1.5581475   0.12191414   -3.1399656    1.5818181   510353 
 3652000    1.2258446   -3.1399262   -1.5581782   0.12200062   -3.1399262    1.5817481   510403 
 3653000    1.2268829   -3.1418375   -1.5589574    0.1272073   -3.1418375    1.5828801   510470 
 3654000    1.2283235   -3.1426951   -1.5582048   0.12984447   -3.1426951    1.5844903   510550 
 3655000     1.226152   -3.1393644   -1.5579941   0.12830728   -3.1393644    1.5813702   510653 
 3656000    1.2282605   -3.1414732   -1.5575575   0.12496866   -3.1414732    1.5839158   510709 
 3657000    1.2267847    -3.139725   -1.5579539   0.12921647    -3.139725    1.5817711   510787 
 3658000    1.2267532   -3.1389779   -1.5575135    0.1289681   -3.1389779    1.5814643   510873 
 3659000    1.2277927   -3.1397778   -1.5571656   0.12690278   -3.1397778    1.5826122   510935 
 3660000    1.2282948   -3.1389898   -1.5559472   0.12390714   -3.1389898    1.5830426   511005 
 3661000     1.228465   -3.1399044   -1.5568686   0.12559386   -3.1399044    1.5830358   511078 
 3662000     1.229068   -3.1396301   -1.5560341   0.12819584   -3.1396301     1.583596   511148 
 3663000     1.228306   -3.1372581   -1.5549349    0.1291356   -3.1372581    1.5823231   511242 
 3664000    1.2301038   -3.1392923   -1.5548887   0.12343017   -3.1392923    1.5844036   511318 
 3665000    1.2291363   -3.1381438   -1.5552558   0.12652601   -3.1381438     1.582888   511405 
 3666000    1.2296284   -3.1385702   -1.5552992   0.12504221   -3.1385702     1.583271   511486 
 3667000    1.2313326    -3.139807   -1.5545802   0.12815194    -3.139807    1.5852268   511563 
 3668000    1.2299014   -3.1394066   -1.5562112   0.11943224   -3.1394066    1.5831954   511624 
 3669000     1.230587   -3.1391223   -1.5552301   0.12839083   -3.1391223    1.5838922   511684 
 3670000    1.2298791   -3.1384034   -1.5556203   0.12476833   -3.1384034    1.5827831   511748 
 3671000    1.2308821   -3.1392049   -1.5553693   0.12551818   -3.1392049    1.5838356   511825 
 3672000    1.2314035    -3.139888   -1.5555828   0.12690413    -3.139888    1.5843052   511890 
 3673000      1.23197   -3.1414333   -1.5566716    0.1283865   -3.1414333    1.5847618   511978 
 3674000    1.2305063    -3.139351   -1.5565958   0.12787944    -3.139351    1.5827552   512018 
 3675000     1.230291   -3.1388653   -1.5565447   0.13432118   -3.1388653    1.5823206   512069 
 3676000      1.23019   -3.1389894   -1.5570705   0.12470811   -3.1389894    1.5819189   512157 
 3677000    1.2326051   -3.1426883   -1.5578835   0.12363941   -3.1426883    1.5848048   512228 
 3678000    1.2330614   -3.1425425   -1.5573491   0.12719928   -3.1425425    1.5851934   512292 
 3679000    1.2322934   -3.1416714   -1.5577468   0.13051159   -3.1416714    1.5839247   512383 
 3680000    1.2312199   -3.1415755   -1.5592375   0.12832467   -3.1415755     1.582338   512450 
 3681000    1.2331303   -3.1450547   -1.5604655   0.12182275   -3.1450547    1.5845892   512516 
 3682000    1.2333997   -3.1440861   -1.5593702   0.13039926   -3.1440861    1.5847158   512587 
 3683000    1.2351518   -3.1455397   -1.5587616   0.12801015   -3.1455397    1.5867781   512648 
 3684000    1.2353932   -3.1440208   -1.5571369   0.13155705   -3.1440208     1.586884   512714 
 3685000    1.2345117   -3.1442249   -1.5586743   0.12731049   -3.1442249    1.5855506   512779 
 3686000    1.2348801   -3.1450512   -1.5592254   0.12752418   -3.1450512    1.5858258   512843 
 3687000    1.2338997   -3.1441262   -1.5597324   0.13104469   -3.1441262    1.5843938   512899 
 3688000    1.2348144   -3.1452174   -1.5598778   0.13168638   -3.1452174    1.5853396   512973 
 3689000    1.2335774   -3.1427269   -1.5591885   0.13063091   -3.1427269    1.5835384   513042 
 3690000    1.2344835   -3.1437713   -1.5591932   0.12617753   -3.1437713    1.5845781   513082 
 3691000    1.2354564   -3.1443994   -1.5587888   0.13542443   -3.1443994    1.5856106   513152 
 3692000    1.2356489   -3.1460282   -1.5603374   0.12611389   -3.1460282    1.5856908   513206 
 3693000    1.2343763   -3.1441134   -1.5603397   0.12775529   -3.1441134    1.5837737   513298 
 3694000    1.2345626   -3.1448104   -1.5610075   0.12977815   -3.1448104    1.5838029   513366 
 3695000    1.2336093   -3.1433588   -1.5610285    0.1349721   -3.1433588    1.5823304   513447 
 3696000    1.2364869   -3.1472471   -1.5613956   0.12625976   -3.1472471    1.5858515   513502 
 3697000    1.2351224   -3.1443892    -1.560516   0.13092379   -3.1443892    1.5838732   513576 
 3698000    1.2363845   -3.1456863   -1.5604569   0.13382858   -3.1456863    1.5852294   513661 
 3699000    1.2364932   -3.1450228   -1.5599196   0.12754777   -3.1450228    1.5851033   513747 
 3700000    1.2366643   -3.1435173   -1.5583983   0.13093937   -3.1435173     1.585119   513813 
 3701000    1.2366098   -3.1431566   -1.5582309   0.12542548   -3.1431566    1.5849257   513853 
 3702000    1.2375641   -3.1436024   -1.5576572   0.13002387   -3.1436024    1.5859451   513919 
 3703000    1.2388438   -3.1440823   -1.5566671   0.12849513   -3.1440823    1.5874152   513974 
 3704000    1.2359744   -3.1424637   -1.5588916   0.12713908   -3.1424637    1.5835721   514028 
 3705000    1.2363528   -3.1432812    -1.559363   0.12612486   -3.1432812    1.5839182   514073 
 3706000    1.2363235    -3.142588   -1.5589815   0.12739215    -3.142588    1.5836065   514162 
 3707000    1.2364457   -3.1428112   -1.5592483   0.12888967   -3.1428112    1.5835628   514227 
 3708000    1.2372983   -3.1431387   -1.5587181   0.12714693   -3.1431387    1.5844207   514303 
 3709000    1.2397437   -3.1458383   -1.5584961   0.12927848   -3.1458383    1.5873422   514371 
 3710000    1.2388675   -3.1448358   -1.5587264   0.12307225   -3.1448358    1.5861094   514407 
 3711000    1.2373736   -3.1433456   -1.5593151   0.13181877   -3.1433456    1.5840304   514461 
 3712000     1.239417   -3.1443533    -1.557963   0.12188822   -3.1443533    1.5863903   514544 
 3713000    1.2388087    -3.144435   -1.5590296   0.13071208    -3.144435    1.5854053   514611 
 3714000    1.2395595   -3.1452151     -1.55904   0.13136369   -3.1452151    1.5861751   514673 
 3715000    1.2395421   -3.1454672   -1.5595332    0.1347888   -3.1454672    1.5859341   514744 
 3716000    1.2406395   -3.1458912   -1.5587566   0.13281586   -3.1458912    1.5871347   514810 
 3717000    1.2406012   -3.1457964   -1.5589234   0.13282286   -3.1457964    1.5868729   514879 
 3718000    1.2429216   -3.1487124   -1.5591338   0.12948386   -3.1487124    1.5895786   514964 
 3719000    1.2429736   -3.1486711   -1.5592543   0.13145952   -3.1486711    1.5894167   515038 
 3720000     1.240644    -3.145696   -1.5595261   0.13185195    -3.145696    1.5861699   515125 
 3721000    1.2433524   -3.1484003   -1.5589746    0.1368554   -3.1484003    1.5894258   515192 
 3722000    1.2425283   -3.1488496   -1.5606776    0.1276262   -3.1488496     1.588172   515257 
 3723000    1.2408034   -3.1472755   -1.5614898   0.12970577   -3.1472755    1.5857857   515316 
 3724000    1.2404713   -3.1467198    -1.561534   0.13395674   -3.1467198    1.5851859   515373 
 3725000     1.241882   -3.1488318    -1.562065   0.12851791   -3.1488318    1.5867668   515445 
 3726000    1.2421829   -3.1499299   -1.5629387    0.1286166   -3.1499299    1.5869912   515497 
 3727000    1.2419208   -3.1497813   -1.5633434   0.12763804   -3.1497813    1.5864379   515568 
 3728000    1.2427161   -3.1495655   -1.5623487   0.13288362   -3.1495655    1.5872168   515645 
 3729000    1.2407996   -3.1468419   -1.5623033    0.1281476   -3.1468419    1.5845385   515720 
 3730000    1.2414038   -3.1484763   -1.5634121   0.12869412   -3.1484763    1.5850642   515800 
 3731000    1.2413009   -3.1480792   -1.5633522   0.13447407   -3.1480792     1.584727   515867 
 3732000    1.2435176    -3.150956   -1.5635991   0.12972561    -3.150956    1.5873569   515932 
 3733000    1.2425335   -3.1494773   -1.5635641   0.12805838   -3.1494773    1.5859132   515993 
 3734000    1.2429559   -3.1502821   -1.5640079    0.1327283   -3.1502821    1.5862741   516051 
 3735000    1.2424245   -3.1500084   -1.5646552   0.12977552   -3.1500084    1.5853532   516130 
 3736000    1.2426745   -3.1515435   -1.5661201   0.12769144   -3.1515435    1.5854234   516211 
 3737000    1.2422181   -3.1505525   -1.5658219   0.13681635   -3.1505525    1.5847306   516247 
 3738000     1.242851   -3.1514942   -1.5661282   0.12826948   -3.1514942     1.585366   516303 
 3739000    1.2441766   -3.1525581   -1.5655995   0.13178409   -3.1525581    1.5869586   516335 
 3740000    1.2444981   -3.1521244   -1.5649525   0.13493329   -3.1521244    1.5871719   516399 
 3741000    1.2431655    -3.151267   -1.5659879   0.13480323    -3.151267    1.5852791   516462 
 3742000    1.2433416   -3.1514972   -1.5662484   0.13236855   -3.1514972    1.5852489   516545 
 3743000    1.2444703   -3.1516641   -1.5652126   0.13156081   -3.1516641    1.5864514   516622 
 3744000    1.2456226   -3.1528924   -1.5651779   0.13132642   -3.1528924    1.5877145   516689 
 3745000    1.2447148   -3.1511399   -1.5647515   0.13689048   -3.1511399    1.5863884   516744 
 3746000    1.2431123   -3.1517257   -1.5675789   0.13329576   -3.1517257    1.5841468   516809 
 3747000    1.2432368   -3.1521391   -1.5680023   0.13234463   -3.1521391    1.5841368   516864 
 3748000    1.2433375   -3.1522568    -1.568151   0.13646063   -3.1522568    1.5841058   516916 
 3749000    1.2447882    -3.153874   -1.5681192   0.12825382    -3.153874    1.5857547   516981 
 3750000    1.2429704   -3.1520893   -1.5688953   0.13455632   -3.1520893     1.583194   517061 
 3751000    1.2451094    -3.153645   -1.5678891     0.133048    -3.153645    1.5857559   517114 
 3752000    1.2456283   -3.1549249   -1.5687504    0.1284041   -3.1549249    1.5861745   517193 
 3753000    1.2443887   -3.1540474    -1.569675   0.12668163   -3.1540474    1.5843724   517266 
 3754000    1.2440235   -3.1540014   -1.5702502   0.12756492   -3.1540014    1.5837512   517317 
 3755000    1.2428377   -3.1516043   -1.5695614   0.12863974   -3.1516043    1.5820428   517382 
 3756000    1.2444118   -3.1528844   -1.5690246   0.13721912   -3.1528844    1.5838598   517443 
 3757000    1.2459433   -3.1556004    -1.570012   0.12854964   -3.1556004    1.5855884   517515 
 3758000    1.2435428   -3.1521996   -1.5697884   0.13154525   -3.1521996    1.5824112   517555 
 3759000    1.2477224   -3.1560833   -1.5685345   0.12366041   -3.1560833    1.5875488   517614 
 3760000     1.246561   -3.1552726   -1.5693699   0.12585356   -3.1552726    1.5859026   517669 
 3761000    1.2470158   -3.1542087    -1.567942   0.12740058   -3.1542087    1.5862668   517739 
 3762000    1.2483235   -3.1553933   -1.5676195   0.13169122   -3.1553933    1.5877738   517790 
 3763000    1.2471397   -3.1531056    -1.567052   0.12957026   -3.1531056    1.5860537   517860 
 3764000    1.2471175   -3.1535244   -1.5676675   0.13159195   -3.1535244    1.5858569   517915 
 3765000     1.249922   -3.1565729   -1.5673307   0.12975805   -3.1565729    1.5892422   517974 
 3766000    1.2489863   -3.1544966   -1.5666986   0.12867222   -3.1544966     1.587798   518057 
 3767000     1.248766    -3.155021   -1.5677145   0.13468514    -3.155021    1.5873065   518126 
 3768000    1.2495678    -3.155661   -1.5675101   0.13105673    -3.155661     1.588151   518183 
 3769000    1.2493733    -3.155654   -1.5679769   0.13544593    -3.155654    1.5876771   518257 
 3770000    1.2493951   -3.1565525   -1.5690927   0.12280663   -3.1565525    1.5874598   518337 
 3771000    1.2494893   -3.1555547    -1.568202   0.13206956   -3.1555547    1.5873528   518411 
 3772000    1.2496017   -3.1566895   -1.5693806   0.12601402   -3.1566895    1.5873089   518472 
 3773000    1.2476281   -3.1535619   -1.5689403   0.13408308   -3.1535619    1.5846215   518531 
 3774000    1.2495784   -3.1553394   -1.5683968   0.13217876   -3.1553394    1.5869426   518582 
 3775000    1.2506909   -3.1557877   -1.5676161   0.13136359   -3.1557877    1.5881717   518642 
 3776000    1.2486662   -3.1542026   -1.5688099   0.13541723   -3.1542026    1.5853927   518710 
 3777000    1.2500506   -3.1560458   -1.5690727   0.13424752   -3.1560458     1.586973   518768 
 3778000    1.2493569   -3.1561919   -1.5702646   0.13002766   -3.1561919    1.5859273   518822 
 3779000    1.2504692   -3.1577639   -1.5706816   0.12997147   -3.1577639    1.5870823   518906 
 3780000     1.249229   -3.1555691   -1.5702992   0.13284951   -3.1555691    1.5852699   518984 
 3781000    1.2528138   -3.1590837   -1.5694331   0.13213124   -3.1590837    1.5896506   519039 
 3782000    1.2512049   -3.1572854   -1.5697986   0.13090689   -3.1572854    1.5874868   519079 
 3783000    1.2509619   -3.1567309   -1.5697573    0.1329049   -3.1567309    1.5869736   519146 
 3784000    1.2503867    -3.156141   -1.5701231   0.13533367    -3.156141    1.5860179   519220 
 3785000    1.2521402   -3.1595487    -1.571426   0.13901258   -3.1595487    1.5881228   519259 
 3786000    1.2527187   -3.1594885   -1.5707636   0.13112514   -3.1594885    1.5887248   519302 
 3787000    1.2511546   -3.1576623   -1.5710921   0.13730913   -3.1576623    1.5865702   519358 
 3788000    1.2524973   -3.1612575   -1.5732049   0.12809368   -3.1612575    1.5880526   519430 
 3789000    1.2523113   -3.1606157   -1.5729731   0.12595796   -3.1606157    1.5876426   519487 
 3790000    1.2523266    -3.159904   -1.5724253   0.13172635    -3.159904    1.5874786   519547 
 3791000    1.2521564   -3.1598962    -1.572783   0.13498001   -3.1598962    1.5871133   519596 
 3792000    1.2521756   -3.1613165   -1.5743744   0.12833722   -3.1613165    1.5869421   519660 
 3793000    1.2531849   -3.1624068   -1.5743781   0.13065505   -3.1624068    1.5880287   519723 
 3794000    1.2533651   -3.1628571   -1.5747926   0.13089102   -3.1628571    1.5880645   519786 
 3795000     1.251999   -3.1604566   -1.5743305   0.13053647   -3.1604566    1.5861261   519854 
 3796000     1.251782   -3.1602693   -1.5746438   0.13365737   -3.1602693    1.5856255   519928 
 3797000    1.2535179   -3.1642379   -1.5766273   0.12806336   -3.1642379    1.5876106   519998 
 3798000    1.2533904   -3.1638908   -1.5766431   0.12784714   -3.1638908    1.5872477   520064 
 3799000    1.2531803   -3.1623584   -1.5755264   0.12972612   -3.1623584    1.5868321   520113 
 3800000    1.2536667   -3.1617484   -1.5744652   0.13733496   -3.1617484    1.5872832   520167 
 3801000    1.2517171   -3.1613791   -1.5767684   0.13443082   -3.1613791    1.5846107   520234 
 3802000    1.2532178   -3.1634264   -1.5770958   0.13112368   -3.1634264    1.5863305   520293 
 3803000    1.2531382   -3.1634709   -1.5773966   0.12988382   -3.1634709    1.5860744   520344 
 3804000    1.2521762   -3.1623868   -1.5777858   0.13048311   -3.1623868     1.584601   520428 
 3805000    1.2534775   -3.1629001   -1.5768535   0.13002654   -3.1629001    1.5860467   520494 
 3806000    1.2540779    -3.163349   -1.5767927   0.14094102    -3.163349    1.5865563   520576 
 3807000    1.2550969   -3.1658208   -1.5781796   0.13021791   -3.1658208    1.5876412   520643 
 3808000    1.2532947   -3.1632841   -1.5781235   0.13551164   -3.1632841    1.5851606   520709 
 3809000    1.2542205   -3.1644269   -1.5782995   0.13348997   -3.1644269    1.5861274   520776 
 3810000     1.254369   -3.1648403   -1.5787504    0.1280462   -3.1648403    1.5860899   520850 
 3811000    1.2562097   -3.1659681   -1.5777063   0.13024626   -3.1659681    1.5882618   520901 
 3812000    1.2557033   -3.1640752   -1.5766273   0.12895506   -3.1640752    1.5874479   520958 
 3813000    1.2571783   -3.1658585   -1.5766984    0.1283047   -3.1658585      1.58916   521008 
 3814000    1.2550542   -3.1642352   -1.5779368   0.13359937   -3.1642352    1.5862983   521066 
 3815000    1.2570863   -3.1672512   -1.5785734   0.13131683   -3.1672512    1.5886778   521128 
 3816000    1.2554464    -3.164758   -1.5783141   0.13533711    -3.164758    1.5864439   521181 
 3817000    1.2572475   -3.1664348    -1.577913   0.13461034   -3.1664348    1.5885218   521246 
 3818000    1.2566438   -3.1662157   -1.5786241   0.13166714   -3.1662157    1.5875915   521301 
 3819000    1.2565751   -3.1653059   -1.5779961   0.13546688   -3.1653059    1.5873098   521365 
 3820000    1.2587007   -3.1673981   -1.5775344   0.13376883   -3.1673981    1.5898638   521408 
 3821000    1.2573303   -3.1661547   -1.5782107   0.13535878   -3.1661547     1.587944   521470 
 3822000    1.2564494   -3.1654426   -1.5787876   0.13462342   -3.1654426     1.586655   521528 
 3823000    1.2573631   -3.1662017   -1.5784599   0.13783675   -3.1662017    1.5877418   521550 
 3824000    1.2581422   -3.1674578   -1.5789606   0.12784523   -3.1674578    1.5884972   521625 
 3825000     1.257762   -3.1658484   -1.5780047   0.13116625   -3.1658484    1.5878437   521682 
 3826000    1.2578678   -3.1669428   -1.5791359   0.13470279   -3.1669428    1.5878069   521738 
 3827000    1.2585346   -3.1671257   -1.5786568   0.13192268   -3.1671257    1.5884689   521797 
 3828000    1.2566979   -3.1658393   -1.5798862   0.13283465   -3.1658393    1.5859532   521862 
 3829000      1.25886   -3.1676801   -1.5792145   0.13884481   -3.1676801    1.5884656   521933 
 3830000    1.2589519   -3.1671135   -1.5787206   0.13080998   -3.1671135    1.5883929   521995 
 3831000    1.2599646   -3.1686607   -1.5791636   0.13187101   -3.1686607     1.589497   522052 
 3832000    1.2584462   -3.1674153   -1.5800071   0.13159514   -3.1674153    1.5874082   522109 
 3833000    1.2598518   -3.1683186    -1.579311   0.13248421   -3.1683186    1.5890077   522166 
 3834000    1.2604955   -3.1698346   -1.5802677   0.13237022   -3.1698346    1.5895669   522249 
 3835000    1.2594713   -3.1673189    -1.579226   0.13283095   -3.1673189    1.5880929   522309 
 3836000    1.2595506   -3.1684073   -1.5803847   0.13218456   -3.1684073    1.5880226   522365 
 3837000    1.2594684   -3.1688162   -1.5810979   0.13414686   -3.1688162    1.5877184   522431 
 3838000    1.2604959    -3.169784   -1.5809254   0.12848038    -3.169784    1.5888585   522482 
 3839000    1.2605408   -3.1692986   -1.5805264   0.13414255   -3.1692986    1.5887722   522529 
 3840000     1.258909   -3.1681608   -1.5816457   0.13066907   -3.1681608    1.5865152   522595 
 3841000    1.2592788   -3.1688005   -1.5819682   0.13007008   -3.1688005    1.5868323   522644 
 3842000    1.2600125   -3.1693948   -1.5818626   0.13285902   -3.1693948    1.5875322   522718 
 3843000    1.2602477   -3.1706046   -1.5829523    0.1297991   -3.1706046    1.5876523   522776 
 3844000    1.2606682   -3.1701005   -1.5821007   0.13196653   -3.1701005    1.5879998   522836 
 3845000    1.2609539   -3.1706573   -1.5825102   0.12490568   -3.1706573     1.588147   522906 
 3846000     1.260537   -3.1692711   -1.5818678   0.12562594   -3.1692711    1.5874034   522978 
 3847000    1.2608131   -3.1699265   -1.5823788   0.12568052   -3.1699265    1.5875477   523045 
 3848000    1.2612397   -3.1708725   -1.5829698    0.1279198   -3.1708725    1.5879027   523105 
 3849000    1.2605105   -3.1703906   -1.5835455   0.13062086   -3.1703906    1.5868451   523151 
 3850000    1.2602659   -3.1699877   -1.5836779    0.1337564   -3.1699877    1.5863098   523226 
 3851000    1.2593876    -3.169517    -1.584443   0.13174123    -3.169517     1.585074   523269 
 3852000    1.2608115   -3.1712053   -1.5845697   0.14046121   -3.1712053    1.5866356   523345 
 3853000     1.259928   -3.1696155   -1.5842644   0.13539341   -3.1696155    1.5853511   523402 
 3854000    1.2598828   -3.1695679   -1.5844008   0.13655784   -3.1695679     1.585167   523444 
 3855000    1.2617111    -3.170967   -1.5836875   0.13244607    -3.170967    1.5872795   523506 
 3856000    1.2641397   -3.1744547   -1.5842597   0.13761262   -3.1744547     1.590195   523552 
 3857000    1.2614888    -3.171279   -1.5846006    0.1319034    -3.171279    1.5866785   523612 
 3858000    1.2635584   -3.1734072   -1.5843714   0.13512769   -3.1734072    1.5890357   523693 
 3859000    1.2607027   -3.1703135   -1.5850264   0.13483267   -3.1703135     1.585287   523745 
 3860000    1.2622905    -3.172481   -1.5853306   0.13218878    -3.172481    1.5871504   523789 
 3861000    1.2612978   -3.1714006   -1.5857195   0.13176583   -3.1714006    1.5856811   523862 
 3862000    1.2624723   -3.1725415   -1.5856473   0.13570832   -3.1725415    1.5868942   523949 
 3863000    1.2617136   -3.1714304   -1.5857532     0.134264   -3.1714304    1.5856773   524036 
 3864000    1.2619512   -3.1726711   -1.5868919   0.12855133   -3.1726711    1.5857792   524101 
 3865000    1.2621741   -3.1732589   -1.5873994     0.136077   -3.1732589    1.5858595   524167 
 3866000    1.2637306   -3.1747071   -1.5870736   0.12866319   -3.1747071    1.5876335   524227 
 3867000    1.2634417   -3.1726582   -1.5855814   0.13609781   -3.1726582    1.5870768   524291 
 3868000    1.2634424   -3.1720186    -1.585177   0.13010711   -3.1720186    1.5868416   524369 
 3869000    1.2632577   -3.1731102   -1.5866972   0.12920577   -3.1731102     1.586413   524434 
 3870000    1.2638103   -3.1743662   -1.5874771   0.13179485   -3.1743662    1.5868891   524506 
 3871000    1.2637907   -3.1742605   -1.5874414   0.13662088   -3.1742605     1.586819   524521 
 3872000    1.2644356   -3.1759746   -1.5885002   0.13222511   -3.1759746    1.5874744   524572 
 3873000    1.2643469    -3.174178   -1.5869662   0.13084134    -3.174178    1.5872118   524622 
 3874000    1.2674302   -3.1777273   -1.5868631   0.13180924   -3.1777273    1.5908642   524694 
 3875000    1.2643546   -3.1754231   -1.5885586   0.13519751   -3.1754231    1.5868645   524740 
 3876000    1.2633833   -3.1753152   -1.5898359   0.13312611   -3.1753152    1.5854793   524795 
 3877000    1.2651258   -3.1755636   -1.5881365   0.13368289   -3.1755636    1.5874271   524874 
 3878000    1.2672132   -3.1786545   -1.5888142   0.13491172   -3.1786545    1.5898402   524942 
 3879000    1.2668244   -3.1771199   -1.5879399   0.13324584   -3.1771199      1.58918   524999 
 3880000     1.266563   -3.1769892   -1.5883277   0.14079004   -3.1769892    1.5886614   525062 
 3881000    1.2655276   -3.1765897   -1.5893751   0.13432296   -3.1765897    1.5872146   525111 
 3882000    1.2674842   -3.1784716   -1.5889454   0.12868995   -3.1784716    1.5895262   525158 
 3883000    1.2678435   -3.1786358   -1.5888982   0.14016236   -3.1786358    1.5897376   525237 
 3884000    1.2683055   -3.1774239   -1.5872825   0.13208349   -3.1774239    1.5901414   525295 
 3885000    1.2662445   -3.1757401   -1.5883066   0.13400069   -3.1757401    1.5874335   525336 
 3886000    1.2651232   -3.1748387    -1.588986    0.1420971   -3.1748387    1.5858526   525394 
 3887000    1.2671238   -3.1762884   -1.5881003   0.13664518   -3.1762884    1.5881882   525451 
 3888000    1.2661817   -3.1752074   -1.5883903   0.13869598   -3.1752074    1.5868171   525514 
 3889000    1.2694596   -3.1790269   -1.5882652   0.13820049   -3.1790269    1.5907616   525568 
 3890000    1.2682968   -3.1779672    -1.588826   0.13411234   -3.1779672    1.5891412   525622 
 3891000    1.2681411   -3.1770358   -1.5883042   0.13436856   -3.1770358    1.5887315   525693 
 3892000    1.2661302   -3.1753652   -1.5892766   0.13177323   -3.1753652    1.5860885   525734 
 3893000    1.2679324   -3.1769588   -1.5887939   0.13798274   -3.1769588     1.588165   525794 
 3894000    1.2696033   -3.1791997   -1.5891415   0.12973596   -3.1791997    1.5900582   525860 
 3895000    1.2677271   -3.1778183   -1.5902517    0.1331316   -3.1778183    1.5875666   525907 
 3896000    1.2679703   -3.1782475   -1.5905302   0.13594435   -3.1782475    1.5877172   525958 
 3897000    1.2682198   -3.1786011   -1.5907345   0.13564651   -3.1786011    1.5878666   526012 
 3898000    1.2673832   -3.1759308   -1.5892595   0.14223225   -3.1759308    1.5866714   526061 
 3899000    1.2686801   -3.1780987   -1.5899426   0.13837453   -3.1780987     1.588156   526107 
 3900000    1.2694074   -3.1795777   -1.5906531   0.13128107   -3.1795777    1.5889246   526154 
 3901000    1.2688976   -3.1788065   -1.5907162    0.1323073   -3.1788065    1.5880903   526219 
 3902000    1.2691855     -3.17977   -1.5915036   0.13375158     -3.17977    1.5882665   526280 
 3903000    1.2706386   -3.1818822   -1.5920058    0.1293865   -3.1818822    1.5898764   526349 
 3904000    1.2689861    -3.179915   -1.5922419   0.13437751    -3.179915     1.587673   526394 
 3905000    1.2710273   -3.1815048   -1.5914441   0.13222247   -3.1815048    1.5900607   526449 
 3906000    1.2707057   -3.1812813   -1.5917799   0.13486644   -3.1812813    1.5895014   526501 
 3907000     1.270601   -3.1809185   -1.5917353   0.13578531   -3.1809185    1.5891833   526563 
 3908000    1.2693738   -3.1812746    -1.593792   0.13309498   -3.1812746    1.5874826   526618 
 3909000     1.270169    -3.180531   -1.5922681   0.13533614    -3.180531    1.5882628   526689 
 3910000    1.2700999   -3.1805544   -1.5925649   0.13628061   -3.1805544    1.5879895   526751 
 3911000    1.2698228   -3.1809222   -1.5934117   0.13848155   -3.1809222    1.5875105   526795 
 3912000    1.2735597   -3.1855451   -1.5935501   0.13926177   -3.1855451     1.591995   526857 
 3913000    1.2710685   -3.1826693   -1.5939905   0.13230935   -3.1826693    1.5886788   526924 
 3914000    1.2707681   -3.1825804    -1.594467   0.13737027   -3.1825804    1.5881135   526987 
 3915000    1.2709268   -3.1823697   -1.5942147    0.1357163   -3.1823697     1.588155   527039 
 3916000    1.2721362   -3.1844428   -1.5949513   0.13673325   -3.1844428    1.5894915   527097 
 3917000    1.2704063   -3.1823351   -1.5951436   0.13817278   -3.1823351    1.5871915   527143 
 3918000    1.2713078   -3.1835468   -1.5953586    0.1352153   -3.1835468    1.5881882   527186 
 3919000    1.2721017   -3.1837686   -1.5947906   0.13177006   -3.1837686    1.5889781   527253 
 3920000    1.2722072   -3.1834021   -1.5944369   0.13468384   -3.1834021    1.5889652   527301 
 3921000    1.2735574   -3.1844275   -1.5939449   0.13324954   -3.1844275    1.5904826   527357 
 3922000     1.272862   -3.1836015   -1.5940777   0.13562469   -3.1836015    1.5895238   527387 
 3923000    1.2717362   -3.1815165   -1.5935522   0.14045339   -3.1815165    1.5879644   527438 
 3924000     1.272916   -3.1831875   -1.5939216   0.13414825   -3.1831875    1.5892658   527495 
 3925000    1.2709282   -3.1821128   -1.5954312    0.1385111   -3.1821128    1.5866816   527529 
 3926000     1.273258   -3.1843964    -1.595026   0.13742488   -3.1843964    1.5893703   527602 
 3927000    1.2724332   -3.1844427   -1.5962706   0.13428274   -3.1844427    1.5881722   527658 
 3928000    1.2731474   -3.1855026   -1.5965504   0.13004402   -3.1855026    1.5889522   527695 
 3929000    1.2711083   -3.1835876   -1.5973126   0.13626013   -3.1835876    1.5862751   527739 
 3930000    1.2711763   -3.1827733   -1.5965996   0.13790047   -3.1827733    1.5861736   527801 
 3931000    1.2722923   -3.1844322   -1.5969954     0.132756   -3.1844322    1.5874368   527844 
 3932000    1.2742055   -3.1846656   -1.5949441   0.13671708   -3.1846656    1.5897215   527878 
 3933000     1.272371   -3.1835256   -1.5962192   0.12878306   -3.1835256    1.5873065   527920 
 3934000    1.2720902    -3.182318   -1.5955181   0.13346811    -3.182318    1.5867999   527972 
 3935000    1.2719881   -3.1838061    -1.597359   0.13068035   -3.1838061    1.5864471   528047 
 3936000     1.273955   -3.1862072   -1.5974272   0.13234849   -3.1862072      1.58878   528087 
 3937000    1.2730275   -3.1849403   -1.5974283   0.13139764   -3.1849403    1.5875119   528124 
 3938000    1.2731144   -3.1848367   -1.5973877   0.12849508   -3.1848367     1.587449   528181 
 3939000    1.2724356   -3.1842235   -1.5977501   0.12737757   -3.1842235    1.5864735   528224 
 3940000    1.2721773   -3.1841394   -1.5980722   0.12995408   -3.1841394    1.5860673   528252 
 3941000    1.2745072   -3.1871326   -1.5983199   0.13230472   -3.1871326    1.5888128   528305 
 3942000    1.2726946    -3.185672   -1.5992839   0.13543946    -3.185672     1.586388   528360 
 3943000    1.2734737   -3.1865163   -1.5992983   0.13758312   -3.1865163    1.5872179   528407 
 3944000    1.2739187   -3.1870306   -1.5993633   0.12849458   -3.1870306    1.5876673   528442 
 3945000    1.2715913   -3.1844851   -1.5998623   0.13895313   -3.1844851    1.5846228   528490 
 3946000     1.273351   -3.1871938   -1.6005552   0.13391311   -3.1871938    1.5866386   528549 
 3947000     1.272894   -3.1874775   -1.6016154    0.1351763   -3.1874775    1.5858621   528618 
 3948000    1.2741152   -3.1892653   -1.6020198   0.12819573   -3.1892653    1.5872454   528664 
 3949000    1.2747857   -3.1888843   -1.6010077   0.13435305   -3.1888843    1.5878765   528732 
 3950000    1.2735645   -3.1889542   -1.6027489   0.12991265   -3.1889542    1.5862053   528782 
 3951000    1.2724815   -3.1884831   -1.6037046   0.13139543   -3.1884831    1.5847785   528808 
 3952000    1.2732275   -3.1876273   -1.6021175    0.1371436   -3.1876273    1.5855097   528874 
 3953000    1.2739127   -3.1890965   -1.6028564   0.13079724   -3.1890965    1.5862401   528915 
 3954000    1.2741336   -3.1892621   -1.6028609   0.13616798   -3.1892621    1.5864012   528953 
 3955000    1.2744992   -3.1901754    -1.603415   0.12839179   -3.1901754    1.5867604   528985 
 3956000    1.2747384    -3.189748   -1.6027588   0.13601719    -3.189748    1.5869892   529008 
 3957000    1.2738524   -3.1890957   -1.6033744   0.13293753   -3.1890957    1.5857213   529063 
 3958000    1.2748859    -3.189816   -1.6029461   0.13955956    -3.189816    1.5868699   529109 
 3959000    1.2756695   -3.1907244   -1.6030383   0.13541887   -3.1907244    1.5876861   529162 
 3960000    1.2760791   -3.1905563   -1.6025044   0.13993515   -3.1905563    1.5880518   529210 
 3961000    1.2769789   -3.1920229   -1.6029804   0.13508103   -3.1920229    1.5890425   529253 
 3962000    1.2756431   -3.1908313   -1.6036579    0.1403095   -3.1908313    1.5871734   529322 
 3963000    1.2755227   -3.1908549   -1.6039812   0.12915739   -3.1908549    1.5868737   529372 
 3964000    1.2758061   -3.1918572   -1.6048407   0.13465736   -3.1918572    1.5870165   529442 
 3965000    1.2752707   -3.1925211   -1.6063114   0.12574191   -3.1925211    1.5862096   529489 
 3966000    1.2747737   -3.1911003   -1.6056376   0.13755192   -3.1911003    1.5854627   529532 
 3967000    1.2766261   -3.1920579   -1.6044383   0.12878718   -3.1920579    1.5876196   529581 
 3968000    1.2750425   -3.1903773   -1.6049217   0.13322081   -3.1903773    1.5854556   529646 
 3969000    1.2764198   -3.1904879   -1.6035323   0.13651423   -3.1904879    1.5869555   529717 
 3970000    1.2752122   -3.1901622   -1.6049445   0.13985863   -3.1901622    1.5852177   529796 
 3971000    1.2757622   -3.1908698    -1.605118   0.13063501   -3.1908698    1.5857518   529846 
 3972000    1.2762645   -3.1910658   -1.6048394   0.12881042   -3.1910658    1.5862264   529896 
 3973000    1.2765401   -3.1914929   -1.6050287   0.13163737   -3.1914929    1.5864642   529931 
 3974000    1.2758747   -3.1898465    -1.604308   0.13622023   -3.1898465    1.5855385   529964 
 3975000    1.2776963   -3.1916583   -1.6039849   0.13453067   -3.1916583    1.5876734   530007 
 3976000    1.2780659   -3.1926536   -1.6046527   0.13307522   -3.1926536    1.5880009   530051 
 3977000    1.2761548   -3.1918921   -1.6064543   0.12949417   -3.1918921    1.5854378   530114 
 3978000    1.2763725   -3.1915781   -1.6060402   0.13314138   -3.1915781    1.5855378   530171 
 3979000    1.2753925   -3.1911362   -1.6069293   0.13469707   -3.1911362    1.5842069   530209 
 3980000    1.2769279   -3.1918539   -1.6058715   0.13450356   -3.1918539    1.5859824   530253 
 3981000    1.2781981   -3.1934234   -1.6060071   0.13664345   -3.1934234    1.5874163   530301 
 3982000    1.2772623   -3.1922112   -1.6061066   0.13507902   -3.1922112    1.5861046   530351 
 3983000    1.2788515   -3.1935405    -1.605633   0.13024607   -3.1935405    1.5879074   530408 
 3984000    1.2763955   -3.1913265   -1.6066209   0.13769356   -3.1913265    1.5847056   530459 
 3985000    1.2759019   -3.1927941   -1.6088776   0.13048719   -3.1927941    1.5839165   530518 
 3986000    1.2771477   -3.1932724   -1.6080154   0.14169277   -3.1932724     1.585257   530587 
 3987000    1.2772694   -3.1934753   -1.6082346   0.13421038   -3.1934753    1.5852407   530643 
 3988000    1.2799336   -3.1956079   -1.6072134   0.13631417   -3.1956079    1.5883946   530694 
 3989000    1.2774886   -3.1937928   -1.6085968   0.13495217   -3.1937928     1.585196   530749 
 3990000    1.2803605   -3.1968197   -1.6081917    0.1350257   -3.1968197     1.588628   530793 
 3991000    1.2781781   -3.1942579    -1.608529   0.13769988   -3.1942579    1.5857289   530857 
 3992000    1.2797302   -3.1964729   -1.6088781   0.14027999   -3.1964729    1.5875947   530877 
 3993000    1.2783664    -3.195485   -1.6096987   0.13546757    -3.195485    1.5857863   530916 
 3994000    1.2804193    -3.197109   -1.6088987   0.13317631    -3.197109    1.5882103   530957 
 3995000    1.2802612   -3.1970436   -1.6092089   0.13732601   -3.1970436    1.5878348   531017 
 3996000    1.2807059   -3.1977286   -1.6095368   0.13985676   -3.1977286    1.5881919   531082 
 3997000    1.2814935   -3.1988006   -1.6098535   0.13911988   -3.1988006    1.5889471   531156 
 3998000    1.2814335   -3.1986341   -1.6099737   0.14094049   -3.1986341    1.5886603   531227 
 3999000    1.2803719    -3.197684   -1.6105548   0.13536864    -3.197684    1.5871292   531299 
 4000000    1.2798865   -3.1973981   -1.6110497    0.1342413   -3.1973981    1.5863483   531359 
 4001000    1.2815257   -3.1988402   -1.6106126   0.13421131   -3.1988402    1.5882276   531410 
 4002000    1.2797049   -3.1985231   -1.6126983   0.13583461   -3.1985231    1.5858247   531459 
 4003000    1.2800805   -3.1986313   -1.6124276   0.13820674   -3.1986313    1.5862037   531488 
 4004000    1.2803336    -3.198466   -1.6121428   0.13393787    -3.198466    1.5863232   531553 
 4005000    1.2805978   -3.1984808   -1.6119496   0.13149654   -3.1984808    1.5865313   531593 
 4006000    1.2800495   -3.1981657    -1.612451   0.13697018   -3.1981657    1.5857147   531639 
 4007000    1.2804776    -3.199344    -1.613248    0.1353105    -3.199344    1.5860959   531689 
 4008000     1.280067   -3.1990031   -1.6136156   0.13518826   -3.1990031    1.5853876   531756 
 4009000    1.2818198    -3.199942   -1.6125657   0.13212798    -3.199942    1.5873763   531817 
 4010000    1.2811789   -3.1983984   -1.6120037   0.13434398   -3.1983984    1.5863947   531880 
 4011000    1.2802406   -3.1974659    -1.612385   0.13444027   -3.1974659    1.5850809   531931 
 4012000     1.280889   -3.1980259   -1.6122795   0.13694009   -3.1980259    1.5857465   531977 
 4013000    1.2822176   -3.1981747   -1.6108728   0.13405106   -3.1981747    1.5873019   532007 
 4014000    1.2829313   -3.2005887   -1.6125586   0.13946899   -3.2005887    1.5880301   532059 
 4015000    1.2830478   -3.2000198   -1.6119649   0.13471097   -3.2000198     1.588055   532099 
 4016000     1.280392   -3.1970438   -1.6123951    0.1389428   -3.1970438    1.5846487   532139 
 4017000    1.2819714   -3.1980974   -1.6116133   0.13479749   -3.1980974    1.5864841   532179 
 4018000    1.2834729   -3.1997533   -1.6116348   0.13802935   -3.1997533    1.5881185   532254 
 4019000    1.2818349    -3.198412    -1.612517   0.13643215    -3.198412     1.585895   532320 
 4020000    1.2828782   -3.1999215   -1.6129145   0.13212817   -3.1999215     1.587007   532380 
 4021000    1.2832442   -3.2008377   -1.6135419   0.13234612   -3.2008377    1.5872957   532435 
 4022000    1.2850672   -3.2031577   -1.6137534   0.12911373   -3.2031577    1.5894044   532484 
 4023000    1.2831615   -3.2021108   -1.6152094   0.13295527   -3.2021108    1.5869014   532533 
 4024000     1.283611   -3.2035243   -1.6161625   0.13386531   -3.2035243    1.5873618   532565 
 4025000     1.280857   -3.2001816   -1.6163771   0.13235395   -3.2001816    1.5838045   532616 
 4026000    1.2833094   -3.2024751    -1.615796   0.13850614   -3.2024751    1.5866791   532669 
 4027000    1.2843247   -3.2037981   -1.6160515   0.13467254   -3.2037981    1.5877466   532732 
 4028000    1.2814872   -3.2011787   -1.6170738    0.1376638   -3.2011787    1.5841049   532777 
 4029000    1.2827028   -3.2030198   -1.6175105   0.13662981   -3.2030198    1.5855094   532810 
 4030000    1.2838753   -3.2041838   -1.6174128   0.13866994   -3.2041838     1.586771   532873 
 4031000    1.2834012   -3.2056113   -1.6195304    0.1365084   -3.2056113    1.5860809   532908 
 4032000     1.283212   -3.2040417   -1.6183285   0.14372205   -3.2040417    1.5857132   532953 
 4033000    1.2851673   -3.2070482   -1.6189872    0.1315493   -3.2070482    1.5880609   532976 
 4034000    1.2833862   -3.2041422   -1.6184072   0.13981262   -3.2041422     1.585735   533018 
 4035000     1.282872   -3.2031728   -1.6182337   0.13233522   -3.2031728    1.5849392   533072 
 4036000     1.284122   -3.2060779   -1.6197849   0.13504523   -3.2060779     1.586293   533136 
 4037000    1.2848078   -3.2064727   -1.6195052   0.13890681   -3.2064727    1.5869675   533194 
 4038000    1.2848653   -3.2054231   -1.6185215   0.14053123   -3.2054231    1.5869017   533240 
 4039000    1.2868445   -3.2078153   -1.6186123   0.13957318   -3.2078153     1.589203   533288 
 4040000    1.2855931   -3.2059441   -1.6184174   0.13533032   -3.2059441    1.5875267   533332 
 4041000    1.2851805    -3.205367   -1.6185314   0.13587583    -3.205367    1.5868356   533393 
 4042000    1.2847926   -3.2053993   -1.6191704   0.13511515   -3.2053993    1.5862288   533436 
 4043000    1.2871088   -3.2071679   -1.6182314   0.13706968   -3.2071679    1.5889366   533487 
 4044000    1.2863882   -3.2074583   -1.6195423   0.13258577   -3.2074583     1.587916   533531 
 4045000    1.2848237   -3.2054596   -1.6196383   0.14157224   -3.2054596    1.5858213   533586 
 4046000     1.287566   -3.2076075   -1.6184998   0.13566702   -3.2076075    1.5891077   533619 
 4047000    1.2864596   -3.2065192    -1.618887   0.13361488   -3.2065192    1.5876321   533656 
 4048000     1.285593   -3.2040438   -1.6175971   0.13784164   -3.2040438    1.5864467   533695 
 4049000    1.2854294   -3.2042477   -1.6181574   0.13914118   -3.2042477    1.5860903   533747 
 4050000    1.2851114   -3.2048227   -1.6192257   0.13795661   -3.2048227     1.585597   533781 
 4051000     1.285725   -3.2051754   -1.6190235   0.13122357   -3.2051754    1.5861519   533849 
 4052000    1.2864817       -3.205   -1.6180334   0.13678142       -3.205    1.5869666   533889 
 4053000    1.2851766   -3.2052764   -1.6200178   0.13505821   -3.2052764    1.5852586   533922 
 4054000    1.2860268   -3.2058821   -1.6196936   0.13270728   -3.2058821    1.5861885   533962 
 4055000    1.2875939   -3.2070169   -1.6190858   0.13485083   -3.2070169    1.5879311   534026 
 4056000    1.2871881   -3.2062646   -1.6189737   0.13127088   -3.2062646    1.5872909   534073 
 4057000    1.2866785   -3.2059912   -1.6194832   0.13575192   -3.2059912     1.586508   534125 
 4058000    1.2874469   -3.2059981   -1.6186585   0.13148581   -3.2059981    1.5873396   534164 
 4059000    1.2877009   -3.2059046   -1.6183619    0.1326146   -3.2059046    1.5875427   534201 
 4060000    1.2867411   -3.2054247   -1.6192197   0.13474244   -3.2054247     1.586205   534253 
 4061000    1.2867143   -3.2062596   -1.6201825   0.13038994   -3.2062596    1.5860771   534285 
 4062000    1.2870266    -3.206926   -1.6205739   0.13392373    -3.206926    1.5863521   534322 
 4063000    1.2859866   -3.2046297   -1.6196573   0.14530185   -3.2046297    1.5849723   534355 
 4064000    1.2875156   -3.2072881    -1.620562   0.13922222   -3.2072881    1.5867262   534399 
 4065000      1.28809   -3.2076161     -1.62039   0.13695992   -3.2076161    1.5872261   534469 
 4066000     1.288338    -3.208831   -1.6214031   0.13874529    -3.208831    1.5874278   534504 
 4067000    1.2878794   -3.2092566   -1.6225215   0.13347454   -3.2092566    1.5867351   534547 
 4068000    1.2860698   -3.2069511   -1.6226174   0.13551863   -3.2069511    1.5843337   534605 
 4069000    1.2873143   -3.2081363   -1.6224652   0.13991042   -3.2081363     1.585671   534671 
 4070000    1.2877376   -3.2085085   -1.6224999   0.13757493   -3.2085085    1.5860086   534733 
 4071000    1.2888478   -3.2094888   -1.6222821   0.13421255   -3.2094888    1.5872067   534790 
 4072000    1.2887684   -3.2092473   -1.6222956   0.14140697   -3.2092473    1.5869517   534843 
 4073000     1.289681    -3.210234   -1.6222179   0.13761155    -3.210234    1.5880161   534863 
 4074000    1.2880436   -3.2085009   -1.6226405   0.14110962   -3.2085009    1.5858604   534910 
 4075000    1.2893211   -3.2093406   -1.6220319   0.13259498   -3.2093406    1.5873088   534952 
 4076000    1.2885669   -3.2073727   -1.6210844   0.13847916   -3.2073727    1.5862883   534983 
 4077000    1.2894872   -3.2095024   -1.6222177   0.13559699   -3.2095024    1.5872848   535029 
 4078000    1.2889534   -3.2094197   -1.6229196   0.13523051   -3.2094197    1.5865002   535072 
 4079000    1.2891474   -3.2096864   -1.6230986   0.13818287   -3.2096864    1.5865878   535123 
 4080000    1.2889862   -3.2083295    -1.622121   0.13469154   -3.2083295    1.5862085   535184 
 4081000     1.288968   -3.2095263   -1.6234676   0.13371525   -3.2095263    1.5860587   535227 
 4082000    1.2889697   -3.2093854   -1.6234047   0.13829951   -3.2093854    1.5859808   535254 
 4083000    1.2894227   -3.2092923   -1.6228874   0.13312302   -3.2092923    1.5864048   535299 
 4084000    1.2902771   -3.2106757   -1.6233414   0.13276372   -3.2106757    1.5873344   535340 
 4085000    1.2892394   -3.2099788   -1.6240454   0.13592955   -3.2099788    1.5859334   535382 
 4086000    1.2924618   -3.2126893   -1.6229553   0.13391189   -3.2126893     1.589734   535437 
 4087000    1.2910828   -3.2116432   -1.6237595    0.1336292   -3.2116432    1.5878837   535489 
 4088000    1.2900593   -3.2106326   -1.6242092   0.13956575   -3.2106326    1.5864235   535557 
 4089000    1.2916029    -3.211537   -1.6232954   0.13766424    -3.211537    1.5882416   535584 
 4090000    1.2913729   -3.2118884   -1.6240275   0.14378203   -3.2118884    1.5878608   535617 
 4091000    1.2920239   -3.2114679   -1.6228985   0.14401948   -3.2114679    1.5885694   535648 
 4092000    1.2919559    -3.212502   -1.6241853   0.13658488    -3.212502    1.5883167   535705 
 4093000    1.2921832   -3.2130811    -1.624648   0.13682418   -3.2130811    1.5884331   535760 
 4094000    1.2926491   -3.2131984    -1.624326   0.14079838   -3.2131984    1.5888724   535805 
 4095000     1.292386   -3.2137668   -1.6254017   0.13817757   -3.2137668    1.5883652   535867 
 4096000    1.2936094   -3.2144225   -1.6247407   0.13701441   -3.2144225    1.5896819   535930 
 4097000    1.2931454   -3.2126487    -1.623623   0.14323085   -3.2126487    1.5890257   535959 
 4098000    1.2923952   -3.2129083   -1.6249525   0.13538553   -3.2129083    1.5879557   536009 
 4099000    1.2927973   -3.2142324   -1.6259308   0.13537411   -3.2142324    1.5883016   536059 
 4100000    1.2923805   -3.2149117   -1.6272494   0.14027252   -3.2149117    1.5876622   536102 
 4101000    1.2928827   -3.2143954   -1.6262999    0.1401305   -3.2143954    1.5880955   536164 
 4102000    1.2933558    -3.213837   -1.6253382   0.14472406    -3.213837    1.5884988   536224 
 4103000    1.2932329    -3.214155    -1.625899   0.14038313    -3.214155     1.588256   536255 
 4104000    1.2922585    -3.213859   -1.6269239   0.13667297    -3.213859    1.5869351   536297 
 4105000    1.2918869   -3.2136728   -1.6273627   0.13557971   -3.2136728    1.5863102   536354 
 4106000    1.2938058   -3.2162592   -1.6277112   0.13870676   -3.2162592    1.5885479   536394 
 4107000    1.2924142   -3.2135521   -1.6268874   0.13459069   -3.2135521    1.5866647   536453 
 4108000    1.2935763    -3.214957   -1.6269811   0.13590845    -3.214957    1.5879759   536492 
 4109000    1.2938823   -3.2155417   -1.6273291   0.13350231   -3.2155417    1.5882125   536539 
 4110000    1.2930126   -3.2137911   -1.6267999   0.13490883   -3.2137911    1.5869911   536591 
 4111000     1.293636   -3.2134639   -1.6257728   0.13719425   -3.2134639    1.5876911   536613 
 4112000    1.2937251   -3.2138302   -1.6261213   0.13387653   -3.2138302    1.5877089   536644 
 4113000    1.2937527   -3.2151329   -1.6275027   0.13745742   -3.2151329    1.5876303   536682 
 4114000    1.2944163   -3.2170676   -1.6287769   0.13476119   -3.2170676    1.5882908   536734 
 4115000    1.2939865   -3.2161436   -1.6285282     0.133617   -3.2161436    1.5876154   536784 
 4116000    1.2948499   -3.2171164   -1.6285541   0.13495189   -3.2171164    1.5885623   536822 
 4117000     1.294008   -3.2149242   -1.6275101   0.13768527   -3.2149242    1.5874141   536861 
 4118000    1.2947482   -3.2159701   -1.6277426   0.13288076   -3.2159701    1.5882275   536893 
 4119000    1.2931604   -3.2143944   -1.6282269   0.13987645   -3.2143944    1.5861675   536931 
 4120000    1.2950569   -3.2162608   -1.6278766    0.1359551   -3.2162608    1.5883842   536968 
 4121000     1.292393   -3.2146698    -1.629668   0.13715658   -3.2146698    1.5850018   537007 
 4122000    1.2943417   -3.2160136   -1.6287312   0.13238871   -3.2160136    1.5872825   537044 
 4123000     1.293021   -3.2157404   -1.6301898   0.13192964   -3.2157404    1.5855506   537082 
 4124000     1.295712   -3.2196456   -1.6309313   0.13501518   -3.2196456    1.5887144   537128 
 4125000    1.2937445   -3.2177653    -1.631611   0.13422529   -3.2177653    1.5861543   537178 
 4126000    1.2941876   -3.2168421   -1.6302775    0.1412903   -3.2168421    1.5865646   537223 
 4127000    1.2954938   -3.2190655   -1.6309941   0.13639411   -3.2190655    1.5880714   537255 
 4128000    1.2935963   -3.2166616   -1.6310344   0.14358769   -3.2166616    1.5856273   537295 
 4129000    1.2953962   -3.2181943   -1.6305677   0.14003527   -3.2181943    1.5876266   537365 
 4130000     1.296537   -3.2202444   -1.6313586   0.13622544   -3.2202444    1.5888858   537412 
 4131000    1.2965544   -3.2204689   -1.6317333   0.13721681   -3.2204689    1.5887356   537470 
 4132000    1.2957001   -3.2196185     -1.63203   0.13832127   -3.2196185    1.5875884   537504 
 4133000    1.2952211   -3.2188891   -1.6320205   0.14161754   -3.2188891    1.5868686   537549 
 4134000     1.295783   -3.2207492    -1.633325   0.13558757   -3.2207492    1.5874243   537594 
 4135000    1.2926041    -3.216191   -1.6328467    0.1422083    -3.216191    1.5833443   537657 
 4136000    1.2959698   -3.2205059   -1.6331688   0.13226821   -3.2205059    1.5873371   537701 
 4137000     1.294844   -3.2204728   -1.6347004   0.13829302   -3.2204728    1.5857724   537764 
 4138000    1.2963001   -3.2206592   -1.6332069   0.13771692   -3.2206592    1.5874523   537799 
 4139000    1.2957304   -3.2192584   -1.6326541   0.14178454   -3.2192584    1.5866042   537850 
 4140000    1.2954655   -3.2195249   -1.6333572   0.14323944   -3.2195249    1.5861678   537888 
 4141000    1.2983025   -3.2225358    -1.632986   0.14123387   -3.2225358    1.5895498   537919 
 4142000    1.2967474   -3.2214204   -1.6339222    0.1361578   -3.2214204    1.5874982   537969 
 4143000    1.2955465   -3.2198098   -1.6339202   0.13644556   -3.2198098    1.5858896   538016 
 4144000     1.296106   -3.2200947   -1.6336853   0.13805645   -3.2200947    1.5864094   538072 
 4145000    1.2967682   -3.2207461   -1.6336501   0.14381379   -3.2207461     1.587096   538114 
 4146000    1.2981602   -3.2205835   -1.6319255   0.13735753   -3.2205835     1.588658   538162 
 4147000    1.2986968   -3.2214508   -1.6322632   0.13829356   -3.2214508    1.5891876   538205 
 4148000    1.2964052   -3.2186945   -1.6324466     0.139907   -3.2186945    1.5862479   538251 
 4149000    1.2981532   -3.2211525   -1.6329164   0.13529944   -3.2211525    1.5882361   538302 
 4150000    1.2970379   -3.2210617   -1.6343285   0.13294093   -3.2210617    1.5867331   538349 
 4151000    1.2961172   -3.2207931    -1.635316   0.13164763   -3.2207931    1.5854772   538393 
 4152000    1.2965476   -3.2198876   -1.6339752   0.14041153   -3.2198876    1.5859124   538424 
 4153000    1.2967964   -3.2214368   -1.6353614   0.13440762   -3.2214368    1.5860753   538472 
 4154000    1.2969569   -3.2216386   -1.6355055   0.13333591   -3.2216386    1.5861331   538519 
 4155000    1.2957494   -3.2207827    -1.636297   0.13629696   -3.2207827    1.5844858   538577 
 4156000    1.2962173   -3.2207671   -1.6358886   0.14157184   -3.2207671    1.5848784   538638 
 4157000    1.2952504   -3.2202983   -1.6367284   0.13735458   -3.2202983    1.5835698   538681 
 4158000     1.299501   -3.2247634   -1.6361089   0.12996959   -3.2247634    1.5886545   538719 
 4159000    1.2966856   -3.2225348   -1.6374133   0.13338157   -3.2225348    1.5851214   538750 
 4160000    1.2985558   -3.2244784   -1.6371502   0.14306866   -3.2244784    1.5873281   538777 
 4161000    1.2957169   -3.2227831   -1.6390222   0.14013737   -3.2227831    1.5837609   538810 
 4162000    1.2973689   -3.2243428   -1.6386892     0.137037   -3.2243428    1.5856535   538853 
 4163000    1.2955421   -3.2219207   -1.6386408   0.14101546   -3.2219207    1.5832799   538901 
 4164000    1.2978196   -3.2236581   -1.6377715    0.1339922   -3.2236581    1.5858866   538961 
 4165000    1.2967842   -3.2231814   -1.6386835   0.14254574   -3.2231814    1.5844979   539003 
 4166000    1.2984994   -3.2244336   -1.6379518   0.13909411   -3.2244336    1.5864817   539041 
 4167000     1.300317   -3.2263994   -1.6378561   0.13733464   -3.2263994    1.5885433   539095 
 4168000    1.2999143   -3.2254566   -1.6375318   0.14084079   -3.2254566    1.5879248   539138 
 4169000    1.2980914   -3.2239081   -1.6383278   0.14334842   -3.2239081    1.5855803   539178 
 4170000    1.3005821   -3.2272866   -1.6388496   0.13164585   -3.2272866     1.588437   539241 
 4171000    1.2982408   -3.2259146   -1.6404752   0.13650513   -3.2259146    1.5854394   539288 
 4172000    1.2978898   -3.2262663    -1.641382   0.13940048   -3.2262663    1.5848843   539331 
 4173000    1.2976165   -3.2256364   -1.6411768   0.14104739   -3.2256364    1.5844595   539362 
 4174000    1.2983598    -3.226127    -1.640895   0.13452531    -3.226127     1.585232   539408 
 4175000    1.2982678   -3.2262298   -1.6412513   0.13411668   -3.2262298    1.5849785   539456 
 4176000    1.2989051   -3.2271215   -1.6415207    0.1322501   -3.2271215    1.5856008   539509 
 4177000    1.2988729   -3.2250305   -1.6395747   0.13712423   -3.2250305    1.5854558   539545 
 4178000    1.2988948   -3.2252405    -1.639908   0.13768323   -3.2252405    1.5853326   539596 
 4179000    1.2989606   -3.2258419   -1.6405877   0.14002533   -3.2258419    1.5852543   539650 
 4180000    1.2986968   -3.2253762   -1.6405731   0.13559334   -3.2253762    1.5848031   539694 
 4181000    1.2981205   -3.2264871   -1.6425281    0.1307837   -3.2264871     1.583959   539742 
 4182000    1.2976571   -3.2264693   -1.6432723   0.13711867   -3.2264693     1.583197   539809 
 4183000    1.2990147   -3.2273959   -1.6426483    0.1376454   -3.2273959    1.5847476   539845 
 4184000    1.2982547    -3.225696   -1.6420104   0.13883198    -3.225696    1.5836856   539891 
 4185000    1.2980235    -3.224617   -1.6412781   0.13612058    -3.224617     1.583339   539913 
 4186000    1.3000463   -3.2271425   -1.6414478   0.13087284   -3.2271425    1.5856947   539951 
 4187000    1.2983246   -3.2245731   -1.6411132   0.13479351   -3.2245731    1.5834599   539997 
 4188000    1.2985878   -3.2259564   -1.6423543   0.12936749   -3.2259564    1.5836021   540058 
 4189000    1.2986154   -3.2260106   -1.6424746   0.13965396   -3.2260106     1.583536   540092 
 4190000    1.2999681   -3.2267034     -1.64165   0.13603693   -3.2267034    1.5850534   540137 
 4191000    1.2989264   -3.2258424   -1.6421824   0.13486484   -3.2258424    1.5836601   540179 
 4192000    1.2989455   -3.2255797   -1.6420751   0.13599328   -3.2255797    1.5835046   540240 
 4193000     1.298879   -3.2255822   -1.6422554   0.13658341   -3.2255822    1.5833268   540273 
 4194000    1.3011801   -3.2277434    -1.641732    0.1343143   -3.2277434    1.5860115   540314 
 4195000    1.2995514   -3.2267391   -1.6428125   0.14385155   -3.2267391    1.5839265   540348 
 4196000    1.2999737   -3.2274705   -1.6431025   0.14013234   -3.2274705     1.584368   540373 
 4197000    1.3001622   -3.2281861   -1.6437203   0.13825679   -3.2281861    1.5844658   540418 
 4198000    1.2996167   -3.2277264    -1.644069   0.13732698   -3.2277264    1.5836574   540467 
 4199000    1.3011217    -3.229479   -1.6441578   0.13997314    -3.229479    1.5853212   540525 
 4200000    1.3017495   -3.2292969   -1.6433341   0.14340273   -3.2292969    1.5859628   540567 
 4201000    1.3015598   -3.2307077   -1.6451403   0.13434774   -3.2307077    1.5855675   540623 
 4202000    1.2990832   -3.2277237   -1.6453167   0.14149303   -3.2277237    1.5824071   540672 
 4203000    1.3016911   -3.2308212   -1.6453693   0.13555143   -3.2308212    1.5854518   540717 
 4204000    1.3009335   -3.2290679   -1.6446355   0.13481737   -3.2290679    1.5844324   540750 
 4205000    1.3007632   -3.2299241   -1.6458047   0.13385706   -3.2299241    1.5841195   540786 
 4206000    1.3007451   -3.2293876   -1.6454073   0.13905207   -3.2293876    1.5839802   540826 
 4207000    1.3016026   -3.2307293   -1.6458074   0.13842689   -3.2307293    1.5849219   540861 
 4208000    1.3005996   -3.2298848   -1.6463482    0.1365091   -3.2298848    1.5835366   540917 
 4209000    1.3030452   -3.2323585   -1.6459851   0.13651197   -3.2323585    1.5863734   540965 
 4210000    1.3029753   -3.2320903   -1.6459456   0.13654973   -3.2320903    1.5861447   541014 
 4211000    1.3043883   -3.2339181   -1.6461825   0.13989812   -3.2339181    1.5877356   541058 
 4212000    1.3029384   -3.2309927   -1.6451332   0.13522263   -3.2309927    1.5858595   541096 
 4213000    1.3023272   -3.2300431   -1.6450477   0.13332372   -3.2300431    1.5849954   541137 
 4214000    1.3026175   -3.2315806   -1.6463988   0.14088126   -3.2315806    1.5851817   541194 
 4215000    1.3033198   -3.2322587   -1.6463424   0.13800193   -3.2322587    1.5859162   541235 
 4216000    1.3013862   -3.2294658   -1.6459872   0.14102723   -3.2294658    1.5834786   541264 
 4217000    1.3029157   -3.2318355   -1.6466541   0.13740933   -3.2318355    1.5851814   541318 
 4218000    1.3031501    -3.232199   -1.6468789   0.13864052    -3.232199    1.5853202   541368 
 4219000    1.3046826    -3.233609    -1.646571   0.13243946    -3.233609     1.587038   541418 
 4220000    1.3020676   -3.2313246   -1.6475758    0.1382226   -3.2313246    1.5837488   541455 
 4221000    1.3014033    -3.230757   -1.6479653   0.13581001    -3.230757    1.5827917   541506 
 4222000     1.303348   -3.2337797   -1.6487078   0.13480299   -3.2337797     1.585072   541535 
 4223000    1.3027411    -3.232881   -1.6486611   0.13659345    -3.232881    1.5842198   541574 
 4224000    1.3021454   -3.2329388   -1.6495633   0.13577242   -3.2329388    1.5833755   541615 
 4225000    1.3043463   -3.2347708   -1.6488332   0.13999528   -3.2347708    1.5859376   541654 
 4226000    1.3037931    -3.234986   -1.6498937   0.13623633    -3.234986    1.5850923   541713 
 4227000     1.300835    -3.232067   -1.6506995   0.13439668    -3.232067    1.5813675   541757 
 4228000    1.3032935   -3.2345033   -1.6502436   0.13451664   -3.2345033    1.5842598   541790 
 4229000     1.303447    -3.234273   -1.6499378   0.13788538    -3.234273    1.5843352   541828 
 4230000     1.303281    -3.234966   -1.6509145   0.13494675    -3.234966    1.5840515   541856 
 4231000    1.3026546     -3.23524   -1.6521542   0.14138663     -3.23524    1.5830857   541926 
 4232000    1.3036774   -3.2367418   -1.6525417    0.1408855   -3.2367418    1.5842001   541970 
 4233000    1.3041869   -3.2371021   -1.6523677   0.14150564   -3.2371021    1.5847344   541999 
 4234000    1.3027319   -3.2356297   -1.6527538   0.13691646   -3.2356297    1.5828759   542030 
 4235000    1.3040858   -3.2374667   -1.6530773   0.13817117   -3.2374667    1.5843894   542075 
 4236000    1.3037965    -3.236988   -1.6530408   0.14074657    -3.236988    1.5839472   542106 
 4237000    1.3025994   -3.2367028   -1.6543704   0.14513901   -3.2367028    1.5823324   542161 
 4238000     1.304018   -3.2378434   -1.6538725   0.13633719   -3.2378434    1.5839709   542190 
 4239000    1.3035467    -3.236137   -1.6528904   0.13466267    -3.236137    1.5832466   542242 
 4240000    1.3042213   -3.2370173   -1.6530652   0.14235312   -3.2370173    1.5839521   542281 
 4241000    1.3044915   -3.2373266   -1.6531135   0.13835059   -3.2373266    1.5842131   542304 
 4242000     1.303008   -3.2357897   -1.6534921    0.1389307   -3.2357897    1.5822976   542343 
 4243000    1.3048799   -3.2378086   -1.6533313   0.13184985   -3.2378086    1.5844773   542375 
 4244000    1.3053528   -3.2384565   -1.6535395    0.1408869   -3.2384565     1.584917   542421 
 4245000    1.3057636   -3.2383163    -1.653029   0.13970367   -3.2383163    1.5852873   542465 
 4246000    1.3050428   -3.2373994   -1.6531158   0.13303075   -3.2373994    1.5842837   542509 
 4247000    1.3047035   -3.2358015    -1.652032   0.13807497   -3.2358015    1.5837695   542544 
 4248000    1.3054179   -3.2366709   -1.6521743   0.14601776   -3.2366709    1.5844966   542592 
 4249000    1.3048929   -3.2371267   -1.6534103   0.14153181   -3.2371267    1.5837163   542641 
 4250000    1.3060285   -3.2389186   -1.6538883   0.13707277   -3.2389186    1.5850303   542663 
 4251000    1.3044081   -3.2363788   -1.6533939   0.13815094   -3.2363788     1.582985   542690 
 4252000    1.3055401   -3.2379336   -1.6536945   0.13058827   -3.2379336    1.5842391   542731 
 4253000    1.3062525   -3.2384103   -1.6534674   0.13607522   -3.2384103     1.584943   542786 
 4254000    1.3039932   -3.2361879   -1.6540796   0.13579906   -3.2361879    1.5821083   542818 
 4255000    1.3049439   -3.2367388   -1.6536258   0.13554406   -3.2367388     1.583113   542869 
 4256000    1.3063783   -3.2373659   -1.6525944   0.14092251   -3.2373659    1.5847714   542897 
 4257000    1.3068362   -3.2370805   -1.6519171   0.13622731   -3.2370805    1.5851635   542953 
 4258000    1.3053158   -3.2366307   -1.6534106   0.13400612   -3.2366307    1.5832201   542987 
 4259000    1.3076787   -3.2387851   -1.6528772   0.14008558   -3.2387851    1.5859079   543048 
 4260000    1.3080038   -3.2390321   -1.6528439   0.14050928   -3.2390321    1.5861883   543087 
 4261000    1.3079493   -3.2381545    -1.652117   0.13975249   -3.2381545    1.5860375   543116 
 4262000    1.3082925   -3.2408462   -1.6544919   0.13856452   -3.2408462    1.5863543   543150 
 4263000    1.3071167   -3.2393037   -1.6545093   0.14137237   -3.2393037    1.5847944   543196 
 4264000    1.3067101   -3.2385767   -1.6544211   0.13723407   -3.2385767    1.5841556   543246 
 4265000    1.3088129    -3.240869   -1.6542605   0.13438702    -3.240869    1.5866085   543279 
 4266000      1.30914   -3.2414732   -1.6546318    0.1408389   -3.2414732    1.5868414   543335 
 4267000    1.3083272   -3.2409457   -1.6552324   0.13714222   -3.2409457    1.5857133   543384 
 4268000    1.3066559   -3.2397878   -1.6561906   0.14137478   -3.2397878    1.5835972   543415 
 4269000     1.307754   -3.2429421   -1.6581248   0.13817551   -3.2429421    1.5848173   543453 
 4270000    1.3051763   -3.2403604   -1.6587892   0.13997648   -3.2403604    1.5815712   543495 
 4271000    1.3059726     -3.24206   -1.6596345   0.13313112     -3.24206    1.5824255   543533 
 4272000    1.3058781   -3.2421414   -1.6599323   0.13735718   -3.2421414    1.5822091   543568 
 4273000    1.3060785   -3.2426018   -1.6602954   0.13449592   -3.2426018    1.5823064   543618 
 4274000    1.3069887   -3.2443347   -1.6610479   0.13333243   -3.2443347    1.5832867   543660 
 4275000     1.306615   -3.2436191   -1.6608985    0.1425573   -3.2436191    1.5827206   543699 
 4276000    1.3080653   -3.2438245   -1.6595163   0.13704376   -3.2438245    1.5843083   543757 
 4277000    1.3075739   -3.2430088   -1.6594151   0.13842912   -3.2430088    1.5835938   543798 
 4278000    1.3088235    -3.246188   -1.6611742   0.14429272    -3.246188    1.5850138   543830 
 4279000    1.3075856   -3.2447177    -1.661334   0.13859251   -3.2447177    1.5833837   543875 
 4280000    1.3070494   -3.2446605   -1.6620192   0.14104033   -3.2446605    1.5826413   543907 
 4281000    1.3058906   -3.2432118   -1.6620521   0.14137573   -3.2432118    1.5811596   543934 
 4282000    1.3048445    -3.242563   -1.6627513   0.13788256    -3.242563    1.5798117   543962 
 4283000    1.3066699   -3.2457507   -1.6638394   0.13708391   -3.2457507    1.5819113   544000 
 4284000    1.3070197   -3.2463688   -1.6641562   0.13435976   -3.2463688    1.5822126   544042 
 4285000    1.3074308   -3.2466782    -1.664032   0.12756508   -3.2466782    1.5826462   544064 
 4286000    1.3077735   -3.2475654   -1.6646091   0.13389867   -3.2475654    1.5829563   544100 
 4287000    1.3084913   -3.2464199   -1.6626965   0.14133817   -3.2464199    1.5837233   544135 
 4288000    1.3061664   -3.2431903   -1.6623448   0.13914785   -3.2431903    1.5808455   544157 
 4289000    1.3081117   -3.2456375   -1.6625482   0.14012087   -3.2456375    1.5830893   544195 
 4290000    1.3087385   -3.2457127   -1.6619638   0.13366365   -3.2457127    1.5837489   544229 
 4291000    1.3065453   -3.2436997   -1.6627064   0.13664311   -3.2436997    1.5809932   544264 
 4292000    1.3092945   -3.2482465   -1.6640489   0.13514998   -3.2482465    1.5841976   544306 
 4293000    1.3071532   -3.2453673   -1.6639146   0.13817402   -3.2453673    1.5814527   544359 
 4294000    1.3076389   -3.2458818   -1.6639402   0.13691846   -3.2458818    1.5819416   544393 
 4295000    1.3079567   -3.2455888   -1.6633819   0.13923193   -3.2455888    1.5822069   544434 
 4296000    1.3084069   -3.2466539   -1.6640013   0.13902862   -3.2466539    1.5826526   544468 
 4297000    1.3076372   -3.2460366   -1.6644371   0.13826018   -3.2460366    1.5815996   544510 
 4298000    1.3076833   -3.2461801   -1.6646293   0.14110751   -3.2461801    1.5815508   544546 
 4299000     1.309384   -3.2480455   -1.6645134   0.13302308   -3.2480455    1.5835321   544572 
 4300000    1.3068615   -3.2455177   -1.6651988   0.13855775   -3.2455177    1.5803189   544628 
 4301000    1.3063674   -3.2448876   -1.6652619   0.13613969   -3.2448876    1.5796257   544661 
 4302000    1.3069696     -3.24475   -1.6645441   0.13618478     -3.24475    1.5802058   544712 
 4303000    1.3102704   -3.2486776   -1.6645739   0.12933906   -3.2486776    1.5841037   544744 
 4304000    1.3106348   -3.2487639   -1.6643708    0.1378526   -3.2487639    1.5843931   544796 
 4305000    1.3094397   -3.2470055   -1.6641647   0.13688222   -3.2470055    1.5828407   544833 
 4306000    1.3113281   -3.2489851   -1.6640042   0.14148812   -3.2489851     1.584981   544882 
 4307000    1.3090296   -3.2457381   -1.6636834    0.1375914   -3.2457381    1.5820547   544933 
 4308000    1.3094654   -3.2470217   -1.6645884   0.14608764   -3.2470217    1.5824333   544984 
 4309000    1.3109274   -3.2477107    -1.663624   0.13345039   -3.2477107    1.5840867   545023 
 4310000    1.3103118   -3.2476526   -1.6644231   0.13723906   -3.2476526    1.5832295   545062 
 4311000    1.3093695   -3.2475921    -1.665623   0.13317297   -3.2475921     1.581969   545104 
 4312000    1.3094902   -3.2465595   -1.6645607   0.13819534   -3.2465595    1.5819988   545144 
 4313000    1.3086532    -3.247134   -1.6662682   0.14396143    -3.247134    1.5808658   545186 
 4314000    1.3095049   -3.2470546   -1.6652847   0.13843748   -3.2470546    1.5817699   545229 
 4315000    1.3087943   -3.2463202    -1.665513   0.13620718   -3.2463202    1.5808072   545265 
 4316000     1.307813   -3.2455602   -1.6660395   0.13364361   -3.2455602    1.5795206   545300 
 4317000    1.3100272   -3.2481902   -1.6660767   0.13468719   -3.2481902    1.5821135   545328 
 4318000    1.3109553   -3.2483081   -1.6652159   0.13984121   -3.2483081    1.5830922   545377 
 4319000    1.3121612   -3.2508572   -1.6664396   0.13740117   -3.2508572    1.5844176   545422 
 4320000    1.3111173   -3.2490864   -1.6660135   0.13450728   -3.2490864    1.5830729   545451 
 4321000    1.3123117   -3.2491422   -1.6647287   0.13903451   -3.2491422    1.5844134   545486 
 4322000    1.3124476   -3.2501995   -1.6657469   0.13886647   -3.2501995    1.5844526   545529 
 4323000    1.3111912   -3.2503887   -1.6675689   0.14311413   -3.2503887    1.5828198   545569 
 4324000    1.3117165   -3.2495085   -1.6661852   0.13891389   -3.2495085    1.5833233   545614 
 4325000    1.3114282   -3.2495443   -1.6666531   0.14096781   -3.2495443    1.5828912   545643 
 4326000    1.3134072   -3.2520438   -1.6669266   0.13802271   -3.2520438    1.5851172   545699 
 4327000     1.312074   -3.2502968   -1.6668873   0.14110501   -3.2502968    1.5834095   545733 
 4328000    1.3109351   -3.2508576   -1.6689414    0.1424631   -3.2508576    1.5819162   545774 
 4329000     1.312179   -3.2516993   -1.6684329   0.14485344   -3.2516993    1.5832664   545826 
 4330000    1.3125207    -3.251703   -1.6681519   0.13796705    -3.251703    1.5835511   545870 
 4331000    1.3131408   -3.2532957   -1.6691271   0.14369196   -3.2532957    1.5841686   545915 
 4332000    1.3139746   -3.2543718   -1.6693018   0.13725394   -3.2543718      1.58507   545951 
 4333000    1.3125717   -3.2528026   -1.6695293   0.13941298   -3.2528026    1.5832733   545987 
 4334000    1.3106649   -3.2518316   -1.6709424   0.13707068   -3.2518316    1.5808892   546016 
 4335000    1.3099997   -3.2518039   -1.6718646   0.14370391   -3.2518039    1.5799393   546067 
 4336000    1.3113312   -3.2528732   -1.6714149   0.13966892   -3.2528732    1.5814583   546097 
 4337000    1.3134277    -3.255017   -1.6711464    0.1381859    -3.255017    1.5838707   546137 
 4338000    1.3118406   -3.2527089   -1.6708796   0.14793343   -3.2527089    1.5818293   546181 
 4339000     1.310543   -3.2517756    -1.671563   0.14261427   -3.2517756    1.5802125   546199 
 4340000    1.3115146   -3.2532161   -1.6719535   0.13615762   -3.2532161    1.5812625   546241 
 4341000     1.312489   -3.2540169   -1.6716984   0.13715931   -3.2540169    1.5823185   546282 
 4342000    1.3127688    -3.253987   -1.6714469    0.1339476    -3.253987      1.58254   546322 
 4343000    1.3129842   -3.2552363   -1.6725033   0.13706369   -3.2552363    1.5827331   546345 
 4344000    1.3105976   -3.2528461    -1.673152   0.13807626   -3.2528461    1.5796941   546401 
 4345000    1.3128592   -3.2546411   -1.6724034   0.14449198   -3.2546411    1.5822377   546464 
 4346000    1.3116491   -3.2535233    -1.672851   0.13550982   -3.2535233    1.5806723   546501 
 4347000    1.3123562   -3.2546386   -1.6732473   0.13351912   -3.2546386    1.5813913   546547 
 4348000    1.3130298   -3.2547562   -1.6726574   0.13599577   -3.2547562    1.5820988   546583 
 4349000    1.3123986   -3.2543507   -1.6731224   0.13856692   -3.2543507    1.5812283   546621 
 4350000    1.3150042   -3.2566191    -1.672379   0.13505188   -3.2566191    1.5842401   546665 
 4351000    1.3146036   -3.2566277   -1.6729252   0.13847282   -3.2566277    1.5837025   546684 
 4352000     1.312255   -3.2552036   -1.6744028   0.13775324   -3.2552036    1.5808007   546709 
 4353000    1.3148718   -3.2584231   -1.6745454   0.13455945   -3.2584231    1.5838778   546735 
 4354000    1.3129581   -3.2559799   -1.6745143   0.13481766   -3.2559799    1.5814656   546772 
 4355000    1.3129129   -3.2558796   -1.6745957   0.13820445   -3.2558796    1.5812839   546816 
 4356000    1.3131355   -3.2568973   -1.6754032   0.13920403   -3.2568973     1.581494   546836 
 4357000    1.3133269   -3.2569189   -1.6752868   0.13752079   -3.2569189     1.581632   546868 
 4358000    1.3138575   -3.2580811   -1.6758968   0.13723361   -3.2580811    1.5821843   546898 
 4359000     1.313805   -3.2567469   -1.6747328   0.14322618   -3.2567469    1.5820141   546935 
 4360000    1.3147399   -3.2579828   -1.6749415   0.13698817   -3.2579828    1.5830413   546969 
 4361000    1.3142277   -3.2576293    -1.675277   0.13733551   -3.2576293    1.5823523   546994 
 4362000    1.3136446   -3.2575399   -1.6760198    0.1382697   -3.2575399    1.5815201   547039 
 4363000    1.3138147   -3.2564576   -1.6748454    0.1430038   -3.2564576    1.5816122   547078 
 4364000    1.3152492   -3.2586575   -1.6754371   0.13402462   -3.2586575    1.5832204   547119 
 4365000      1.31522   -3.2594596   -1.6763612   0.13689077   -3.2594596    1.5830985   547149 
 4366000    1.3154066   -3.2596606   -1.6764128   0.13693759   -3.2596606    1.5832478   547175 
 4367000    1.3150619   -3.2597777   -1.6770576   0.14222682   -3.2597777    1.5827201   547214 
 4368000    1.3137464   -3.2582071   -1.6772319   0.13627124   -3.2582071    1.5809752   547270 
 4369000    1.3157046   -3.2598436   -1.6766132   0.13305544   -3.2598436    1.5832304   547305 
 4370000    1.3150577   -3.2589511   -1.6766177   0.13869816   -3.2589511    1.5823334   547346 
 4371000    1.3141145   -3.2583977   -1.6772772   0.13100827   -3.2583977    1.5811205   547373 
 4372000    1.3132476   -3.2572495    -1.677302   0.13630347   -3.2572495    1.5799475   547418 
 4373000    1.3140647   -3.2585452   -1.6777099   0.13089521   -3.2585452    1.5808353   547451 
 4374000    1.3144059   -3.2577308   -1.6765861   0.13749782   -3.2577308    1.5811447   547486 
 4375000    1.3150633   -3.2578201   -1.6760146   0.14008825   -3.2578201    1.5818055   547531 
 4376000    1.3165349   -3.2594243   -1.6759239   0.13785476   -3.2594243    1.5835004   547557 
 4377000    1.3143915   -3.2567963   -1.6760183   0.14264043   -3.2567963    1.5807779   547607 
 4378000    1.3146608   -3.2577732    -1.676732   0.13759163   -3.2577732    1.5810412   547628 
 4379000    1.3167205   -3.2596512   -1.6762255    0.1349612   -3.2596512    1.5834257   547660 
 4380000    1.3159316   -3.2591763   -1.6767831   0.13622034   -3.2591763    1.5823932   547689 
 4381000    1.3171667   -3.2610088   -1.6772431   0.13774726   -3.2610088    1.5837657   547728 
 4382000     1.314764   -3.2593216   -1.6785228   0.13736087   -3.2593216    1.5807988   547755 
 4383000    1.3151986    -3.258585   -1.6773417   0.13761048    -3.258585    1.5812433   547782 
 4384000    1.3148386   -3.2593744   -1.6786851   0.14266187   -3.2593744    1.5806894   547824 
 4385000    1.3164164   -3.2608859   -1.6784037   0.13527273   -3.2608859    1.5824821   547860 
 4386000    1.3158846   -3.2602484   -1.6785239   0.13133893   -3.2602484    1.5817245   547901 
 4387000    1.3158593   -3.2589465   -1.6773852   0.13593924   -3.2589465    1.5815613   547947 
 4388000    1.3164334   -3.2602891   -1.6781937   0.13492608   -3.2602891    1.5820954   548001 
 4389000    1.3160185   -3.2606582   -1.6791912   0.13652016   -3.2606582     1.581467   548046 
 4390000    1.3145329   -3.2597837   -1.6802663   0.13899077   -3.2597837    1.5795174   548103 
 4391000    1.3152364   -3.2605015    -1.680257   0.13880439   -3.2605015    1.5802445   548144 
 4392000    1.3150828   -3.2593539   -1.6793862   0.13692892   -3.2593539    1.5799677   548176 
 4393000    1.3175069   -3.2629347   -1.6801673   0.13764801   -3.2629347    1.5827674   548215 
 4394000     1.316716   -3.2613806   -1.6796845   0.13875148   -3.2613806    1.5816961   548257 
 4395000    1.3164882   -3.2623514    -1.681076   0.14169956   -3.2623514    1.5812755   548308 
 4396000    1.3161718   -3.2617546    -1.680937   0.13753358   -3.2617546    1.5808176   548335 
 4397000    1.3166615    -3.263392   -1.6821363   0.13617942    -3.263392    1.5812557   548387 
 4398000    1.3168046    -3.263559   -1.6822784   0.13925343    -3.263559    1.5812806   548438 
 4399000    1.3148497   -3.2608985   -1.6820663   0.14202684   -3.2608985    1.5788323   548473 
 4400000    1.3169094   -3.2631358   -1.6819658   0.13734811   -3.2631358      1.58117   548520 
 4401000    1.3162463    -3.262845   -1.6826066   0.13699328    -3.262845    1.5802384   548567 
 4402000    1.3146579   -3.2615978   -1.6833641   0.14149358   -3.2615978    1.5782337   548601 
 4403000    1.3160021     -3.26386   -1.6840904     0.138369     -3.26386    1.5797695   548628 
 4404000     1.318051   -3.2661215   -1.6840163   0.12463923   -3.2661215    1.5821051   548671 
 4405000    1.3163038   -3.2642558   -1.6843457   0.13209834   -3.2642558      1.57991   548705 
 4406000    1.3171364   -3.2649861    -1.684192   0.13185607   -3.2649861    1.5807941   548745 
 4407000    1.3183962    -3.265337   -1.6831952   0.13573109    -3.265337    1.5821417   548802 
 4408000    1.3160194   -3.2631934   -1.6840276   0.13688621   -3.2631934    1.5791658   548845 
 4409000    1.3165886   -3.2657996   -1.6860517   0.13944746   -3.2657996     1.579748   548880 
 4410000    1.3151593   -3.2643473   -1.6864178    0.1393082   -3.2643473    1.5779295   548916 
 4411000    1.3161912   -3.2653866   -1.6863082   0.13558579   -3.2653866    1.5790784   548947 
 4412000    1.3168601   -3.2655874   -1.6858015   0.13638073   -3.2655874     1.579786   548980 
 4413000    1.3184178   -3.2671107   -1.6855944   0.13737099   -3.2671107    1.5815163   549028 
 4414000    1.3192746   -3.2673003   -1.6848743   0.14360443   -3.2673003     1.582426   549069 
 4415000    1.3197921   -3.2683132   -1.6853646    0.1396342   -3.2683132    1.5829487   549103 
 4416000     1.318544   -3.2665978   -1.6852324   0.13610098   -3.2665978    1.5813654   549133 
 4417000    1.3187848   -3.2658565   -1.6843608   0.14197868   -3.2658565    1.5814957   549188 
 4418000     1.318952   -3.2661035   -1.6845484   0.13959618   -3.2661035    1.5815551   549237 
 4419000    1.3194422   -3.2665841    -1.684516   0.14230292   -3.2665841    1.5820681   549263 
 4420000     1.317902   -3.2654421   -1.6852985    0.1414177   -3.2654421    1.5801436   549290 
 4421000    1.3171142   -3.2649365   -1.6858495   0.14658514   -3.2649365     1.579087   549329 
 4422000    1.3188877   -3.2666686   -1.6855446   0.13462812   -3.2666686     1.581124   549360 
 4423000    1.3198373   -3.2680468   -1.6859111   0.13678769   -3.2680468    1.5821356   549404 
 4424000    1.3183769   -3.2659859   -1.6857562   0.14329279   -3.2659859    1.5802297   549458 
 4425000    1.3167452   -3.2645653   -1.6863488    0.1384115   -3.2645653    1.5782164   549478 
 4426000    1.3167098   -3.2666614   -1.6886052    0.1382006   -3.2666614    1.5780562   549519 
 4427000     1.318046   -3.2669798   -1.6874601   0.13941375   -3.2669798    1.5795197   549567 
 4428000    1.3172456   -3.2668779   -1.6883661    0.1375436   -3.2668779    1.5785117   549584 
 4429000    1.3179364   -3.2668509   -1.6876004   0.13619468   -3.2668509    1.5792505   549615 
 4430000    1.3187922   -3.2681062   -1.6879136   0.13793144   -3.2681062    1.5801925   549644 
 4431000    1.3177073   -3.2671079   -1.6883244   0.13741476   -3.2671079    1.5787835   549682 
 4432000    1.3190598   -3.2676858   -1.6873997    0.1395924   -3.2676858    1.5802861   549723 
 4433000    1.3190298   -3.2689114   -1.6887533   0.13864049   -3.2689114    1.5801581   549755 
 4434000    1.3181412   -3.2679467    -1.688968   0.14011554   -3.2679467    1.5789788   549795 
 4435000    1.3188645   -3.2683867   -1.6886277   0.13699824   -3.2683867    1.5797589   549825 
 4436000     1.319883   -3.2695193   -1.6886438   0.13861161   -3.2695193    1.5808755   549861 
 4437000    1.3196356   -3.2691731   -1.6887032   0.13752839   -3.2691731    1.5804698   549899 
 4438000    1.3207774   -3.2703758   -1.6886276    0.1405763   -3.2703758    1.5817482   549930 
 4439000    1.3203711   -3.2705134   -1.6893467   0.13691144   -3.2705134    1.5811667   549963 
 4440000    1.3193079   -3.2693716    -1.689613   0.13398919   -3.2693716    1.5797586   550010 
 4441000    1.3202258   -3.2699739   -1.6892025   0.13645051   -3.2699739    1.5807714   550040 
 4442000     1.320816   -3.2692073   -1.6878299   0.13556946   -3.2692073    1.5813775   550075 
 4443000    1.3218572   -3.2709097   -1.6884036   0.13431453   -3.2709097    1.5825061   550116 
 4444000    1.3202482   -3.2702684   -1.6897661   0.13640187   -3.2702684    1.5805023   550143 
 4445000    1.3193035   -3.2691737   -1.6899344   0.14188185   -3.2691737    1.5792393   550189 
 4446000    1.3204178   -3.2698204   -1.6893133   0.13788477   -3.2698204     1.580507   550212 
 4447000    1.3216593    -3.271211   -1.6893329   0.13424887    -3.271211    1.5818781   550252 
 4448000    1.3196247   -3.2692336   -1.6899026   0.13713674   -3.2692336     1.579331   550291 
 4449000    1.3226453   -3.2712369   -1.6884001     0.133808   -3.2712369    1.5828367   550329 
 4450000    1.3214485    -3.269899   -1.6885634   0.14233224    -3.269899    1.5813355   550353 
 4451000    1.3204873   -3.2690091   -1.6889645   0.14045729   -3.2690091    1.5800446   550402 
 4452000    1.3214272   -3.2691466   -1.6880866   0.14136655   -3.2691466    1.5810601   550440 
 4453000    1.3239347   -3.2723748   -1.6884239   0.14063247   -3.2723748    1.5839509   550478 
 4454000    1.3218775   -3.2695373   -1.6881739   0.13777273   -3.2695373    1.5813634   550522 
 4455000    1.3200725   -3.2685322   -1.6894229   0.14007208   -3.2685322    1.5791093   550555 
 4456000    1.3219723   -3.2701076   -1.6888176   0.14642848   -3.2701076      1.58129   550587 
 4457000    1.3207014    -3.268477    -1.688799   0.14287047    -3.268477     1.579678   550619 
 4458000    1.3221127   -3.2713792   -1.6900733   0.13864937   -3.2713792    1.5813058   550640 
 4459000    1.3205555   -3.2704327   -1.6911013   0.13727398   -3.2704327    1.5793315   550679 
 4460000    1.3210164   -3.2713034   -1.6914925   0.13936447   -3.2713034     1.579811   550704 
 4461000    1.3213724   -3.2711362   -1.6909971   0.13861339   -3.2711362    1.5801391   550738 
 4462000    1.3218967   -3.2730714   -1.6923856   0.13878789   -3.2730714    1.5806858   550766 
 4463000    1.3233704   -3.2746923   -1.6923852   0.13334665   -3.2746923    1.5823071   550815 
 4464000    1.3218675    -3.271921   -1.6915599   0.14124386    -3.271921     1.580361   550867 
 4465000    1.3229774   -3.2729301   -1.6913714   0.14027933   -3.2729301    1.5815587   550912 
 4466000    1.3211115   -3.2708135   -1.6916172   0.13678504   -3.2708135    1.5791963   550958 
 4467000    1.3229602   -3.2739475   -1.6926561   0.13805784   -3.2739475    1.5812913   550998 
 4468000    1.3217323   -3.2715228   -1.6917937    0.1435363   -3.2715228    1.5797291   551031 
 4469000    1.3231429   -3.2720526   -1.6907868   0.13669801   -3.2720526    1.5812658   551083 
 4470000    1.3218805   -3.2719366   -1.6922913   0.14071088   -3.2719366    1.5796453   551122 
 4471000    1.3221893   -3.2709655   -1.6910716   0.14197441   -3.2709655    1.5798939   551164 
 4472000    1.3219833   -3.2708714    -1.691321    0.1425426   -3.2708714    1.5795504   551198 
 4473000    1.3222624   -3.2706804   -1.6909026   0.14793768   -3.2706804    1.5797778   551235 
 4474000    1.3230662   -3.2727662   -1.6920739   0.14359363   -3.2727662    1.5806922   551251 
 4475000    1.3228593   -3.2723582   -1.6920077   0.13615791   -3.2723582    1.5803505   551284 
 4476000     1.320995   -3.2720113   -1.6939825    0.1390672   -3.2720113    1.5780288   551317 
 4477000    1.3236697   -3.2743046   -1.6931667   0.13786231   -3.2743046    1.5811379   551347 
 4478000    1.3226115   -3.2716458   -1.6918494   0.14045287   -3.2716458    1.5797964   551374 
 4479000    1.3225943    -3.271103   -1.6914158   0.14180277    -3.271103    1.5796872   551405 
 4480000     1.323743   -3.2726704   -1.6917117   0.13886434   -3.2726704    1.5809587   551440 
 4481000    1.3245401     -3.27302   -1.6912355   0.13390625     -3.27302    1.5817845   551484 
 4482000    1.3232727   -3.2717803   -1.6915866   0.13923438   -3.2717803    1.5801937   551511 
 4483000    1.3234932   -3.2720231   -1.6916551   0.14046545   -3.2720231    1.5803681   551542 
 4484000    1.3243446   -3.2737829   -1.6925014   0.13399815   -3.2737829    1.5812815   551578 
 4485000    1.3232582   -3.2730136   -1.6931038   0.13734542   -3.2730136    1.5799099   551604 
 4486000    1.3232775   -3.2722569   -1.6924185   0.13915764   -3.2722569    1.5798384   551637 
 4487000    1.3253402   -3.2751265   -1.6929115   0.13795803   -3.2751265     1.582215   551667 
 4488000    1.3250558   -3.2737506   -1.6919812   0.13852795   -3.2737506    1.5817694   551704 
 4489000    1.3242097   -3.2742809   -1.6936133   0.13806597   -3.2742809    1.5806676   551736 
 4490000    1.3251556   -3.2746661   -1.6929754    0.1390231   -3.2746661    1.5816907   551773 
 4491000    1.3239215   -3.2740728   -1.6939181   0.14332514   -3.2740728    1.5801547   551795 
 4492000    1.3235852    -3.274878   -1.6952306      0.14156    -3.274878    1.5796474   551832 
 4493000    1.3252322   -3.2765718   -1.6951078   0.13570544   -3.2765718     1.581464   551884 
 4494000    1.3248577   -3.2764533   -1.6955164   0.14393639   -3.2764533    1.5809369   551912 
 4495000    1.3243024   -3.2758366   -1.6956111    0.1444008   -3.2758366    1.5802255   551929 
 4496000    1.3246364   -3.2770458   -1.6965592   0.13709891   -3.2770458    1.5804866   551977 
 4497000    1.3245121   -3.2771986   -1.6969776   0.14237614   -3.2771986     1.580221   552018 
 4498000    1.3251968   -3.2786231   -1.6976339   0.14384363   -3.2786231    1.5809892   552035 
 4499000    1.3250633   -3.2788389   -1.6981235   0.13956643   -3.2788389    1.5807153   552075 
 4500000    1.3253291   -3.2801348   -1.6991911   0.13847446   -3.2801348    1.5809437   552106 
 4501000    1.3264978   -3.2808951    -1.698649   0.13825164   -3.2808951    1.5822461   552138 
 4502000    1.3248904   -3.2784354   -1.6982011   0.13883251   -3.2784354    1.5802343   552171 
 4503000    1.3246144   -3.2786431   -1.6988295   0.14498033   -3.2786431    1.5798136   552203 
 4504000    1.3255513   -3.2783402   -1.6975495   0.14345557   -3.2783402    1.5807907   552252 
 4505000    1.3244455    -3.277283   -1.6979026   0.14746136    -3.277283    1.5793804   552284 
 4506000    1.3246184    -3.278828   -1.6992986   0.13639626    -3.278828    1.5795295   552304 
 4507000    1.3250215   -3.2787173   -1.6988473   0.14694396   -3.2787173    1.5798699   552353 
 4508000     1.323567    -3.277627   -1.6995913   0.13882958    -3.277627    1.5780357   552388 
 4509000    1.3251711    -3.279597   -1.6996831   0.14204092    -3.279597    1.5799139   552400 
 4510000    1.3249986   -3.2797292   -1.7000753   0.13632257   -3.2797292    1.5796539   552419 
 4511000     1.324353   -3.2791484   -1.7003728   0.14161281   -3.2791484    1.5787757   552457 
 4512000    1.3244838   -3.2781706   -1.6993448   0.14540408   -3.2781706    1.5788258   552494 
 4513000    1.3251798   -3.2795561   -1.7000093   0.13398756   -3.2795561    1.5795469   552532 
 4514000    1.3246104   -3.2789051   -1.7001312   0.13918253   -3.2789051    1.5787738   552565 
 4515000    1.3239517   -3.2790752    -1.701155   0.13657134   -3.2790752    1.5779202   552589 
 4516000    1.3252119   -3.2798377   -1.7005471   0.13828802   -3.2798377    1.5792906   552635 
 4517000    1.3241518   -3.2782612   -1.7003224   0.14267295   -3.2782612    1.5779388   552666 
 4518000    1.3272686   -3.2815824   -1.7000582   0.13760285   -3.2815824    1.5815242   552711 
 4519000    1.3254018   -3.2798337   -1.7006167   0.13761549   -3.2798337    1.5792169   552740 
 4520000    1.3249773   -3.2793671   -1.7007273   0.13633196   -3.2793671    1.5786397   552765 
 4521000    1.3245865   -3.2790782   -1.7010211   0.13516098   -3.2790782     1.578057   552806 
 4522000    1.3258828   -3.2793683   -1.6998441   0.14073607   -3.2793683    1.5795243   552833 
 4523000    1.3253875   -3.2795749   -1.7007549    0.1418114   -3.2795749      1.57882   552873 
 4524000    1.3246115   -3.2793682   -1.7015553   0.14049738   -3.2793682    1.5778129   552902 
 4525000    1.3278179   -3.2820611   -1.7005262   0.13371065   -3.2820611    1.5815349   552936 
 4526000    1.3253319   -3.2790721   -1.7005838    0.1471775   -3.2790721    1.5784883   552966 
 4527000    1.3259893   -3.2797635   -1.7006151   0.14302955   -3.2797635    1.5791485   553009 
 4528000    1.3269172   -3.2802614   -1.7001165   0.13870623   -3.2802614    1.5801449   553047 
 4529000    1.3275719   -3.2809051   -1.7001064   0.13378504   -3.2809051    1.5807987   553091 
 4530000     1.327857   -3.2821268     -1.70108   0.14410941   -3.2821268    1.5810468   553123 
 4531000    1.3282978   -3.2826441   -1.7012068   0.14074319   -3.2826441    1.5814373   553170 
 4532000    1.3274723   -3.2819668    -1.701601   0.13622407   -3.2819668    1.5803658   553201 
 4533000    1.3275786   -3.2818472   -1.7014118   0.14210556   -3.2818472    1.5804353   553221 
 4534000    1.3278366   -3.2821878   -1.7015825   0.14400602   -3.2821878    1.5806053   553269 
 4535000    1.3272642   -3.2831079   -1.7032925   0.14066874   -3.2831079    1.5798154   553307 
 4536000     1.326441   -3.2822665   -1.7035479   0.14279634   -3.2822665    1.5787186   553348 
 4537000    1.3260981   -3.2817878   -1.7035544   0.13931895   -3.2817878    1.5782335   553375 
 4538000    1.3287212   -3.2851271   -1.7038803   0.14265882   -3.2851271    1.5812467   553413 
 4539000    1.3276182   -3.2837629   -1.7039315   0.13631987   -3.2837629    1.5798314   553449 
 4540000     1.328185      -3.2832    -1.702777    0.1404685      -3.2832     1.580423   553478 
 4541000    1.3281832   -3.2835089   -1.7032165   0.14067066   -3.2835089    1.5802924   553523 
 4542000    1.3290776   -3.2841905   -1.7028911   0.14217364   -3.2841905    1.5812994   553543 
 4543000    1.3276252   -3.2834484   -1.7039455   0.13935104   -3.2834484    1.5795029   553567 
 4544000    1.3278522   -3.2842005   -1.7045673   0.13820091   -3.2842005    1.5796332   553616 
 4545000    1.3258656   -3.2822944    -1.705147   0.13714121   -3.2822944    1.5771474   553659 
 4546000    1.3270279   -3.2840499   -1.7056512   0.13629139   -3.2840499    1.5783988   553705 
 4547000     1.328703     -3.28606   -1.7057658   0.13526248     -3.28606    1.5802942   553739 
 4548000     1.327395   -3.2845532   -1.7059117   0.13616246   -3.2845532    1.5786416   553773 
 4549000    1.3287384   -3.2850046   -1.7048396    0.1411871   -3.2850046     1.580165   553799 
 4550000    1.3286239   -3.2853072   -1.7053753   0.13606491   -3.2853072    1.5799319   553833 
 4551000    1.3274919   -3.2836373   -1.7051884   0.14443886   -3.2836373    1.5784489   553881 
 4552000    1.3285316   -3.2852947   -1.7057464   0.13998286   -3.2852947    1.5795483   553929 
 4553000    1.3282248   -3.2846494   -1.7055485    0.1400747   -3.2846494    1.5791009   553958 
 4554000    1.3270323   -3.2837757   -1.7061837   0.13447876   -3.2837757     1.577592   553990 
 4555000    1.3283161   -3.2837944   -1.7047246   0.14241147   -3.2837944    1.5790698   554007 
 4556000    1.3284033   -3.2857124    -1.706653   0.14548281   -3.2857124    1.5790594   554047 
 4557000    1.3282817   -3.2855546   -1.7067395   0.14457956   -3.2855546    1.5788151   554082 
 4558000    1.3278342   -3.2860093   -1.7077973   0.14139217   -3.2860093     1.578212   554107 
 4559000    1.3283178   -3.2881099   -1.7094228   0.13417456   -3.2881099    1.5786871   554142 
 4560000    1.3282197   -3.2891108   -1.7106428   0.13094338   -3.2891108     1.578468   554178 
 4561000     1.327423   -3.2875392   -1.7101433   0.13590002   -3.2875392    1.5773959   554222 
 4562000    1.3280707   -3.2887326   -1.7106609   0.13961565   -3.2887326    1.5780717   554255 
 4563000    1.3295458   -3.2893157   -1.7096082   0.14102689   -3.2893157    1.5797075   554296 
 4564000    1.3290833   -3.2893765   -1.7103267   0.13635597   -3.2893765    1.5790498   554334 
 4565000    1.3264678   -3.2877093   -1.7118637    0.1384475   -3.2877093    1.5758456   554368 
 4566000    1.3283136   -3.2901402   -1.7121786   0.14059834   -3.2901402    1.5779616   554395 
 4567000     1.327863   -3.2902636   -1.7129539    0.1431858   -3.2902636    1.5773097   554436 
 4568000    1.3281121   -3.2910327   -1.7134897   0.14144004   -3.2910327     1.577543   554458 
 4569000    1.3285368   -3.2913214   -1.7133905   0.14373439   -3.2913214    1.5779308   554499 
 4570000    1.3297038   -3.2934833   -1.7142262   0.13844338   -3.2934833    1.5792571   554520 
 4571000    1.3266803   -3.2915273   -1.7159521    0.1412561   -3.2915273    1.5755752   554552 
 4572000    1.3289942   -3.2930933   -1.7148811   0.13258396   -3.2930933    1.5782122   554591 
 4573000    1.3287791   -3.2932362   -1.7154017    0.1392024   -3.2932362    1.5778344   554634 
 4574000     1.328985   -3.2936167   -1.7156232   0.14142515   -3.2936167    1.5779935   554664 
 4575000    1.3285008   -3.2918825   -1.7145378   0.14192141   -3.2918825    1.5773447   554690 
 4576000     1.330487   -3.2943082   -1.7147591   0.14423213   -3.2943082    1.5795491   554744 
 4577000    1.3305008   -3.2940711   -1.7146081   0.14369248   -3.2940711     1.579463   554780 
 4578000    1.3298733   -3.2936608   -1.7150451    0.1443248   -3.2936608    1.5786157   554816 
 4579000    1.3309761   -3.2942079   -1.7143599   0.13980862   -3.2942079    1.5798479   554843 
 4580000     1.329593   -3.2934041   -1.7153003   0.13890191   -3.2934041    1.5781038   554879 
 4581000    1.3281806   -3.2913162   -1.7149911   0.14304167   -3.2913162    1.5763251   554915 
 4582000    1.3271172   -3.2912281   -1.7162246   0.13780077   -3.2912281    1.5750035   554936 
 4583000    1.3271376    -3.291312   -1.7164404   0.14304512    -3.291312    1.5748716   554991 
 4584000    1.3279259   -3.2913975   -1.7156388   0.13629875   -3.2913975    1.5757588   555008 
 4585000    1.3291118   -3.2927712   -1.7156933   0.13962142   -3.2927712    1.5770779   555039 
 4586000    1.3272424   -3.2915868   -1.7168633   0.13787814   -3.2915868    1.5747235   555087 
 4587000    1.3290537   -3.2926779   -1.7158791   0.13317947   -3.2926779    1.5767987   555113 
 4588000    1.3299046   -3.2928408   -1.7151264   0.13903461   -3.2928408    1.5777144   555146 
 4589000    1.3293882   -3.2914966   -1.7144942   0.13514597   -3.2914966    1.5770024   555181 
 4590000    1.3302796   -3.2921795   -1.7142163   0.14322386   -3.2921795    1.5779632   555215 
 4591000    1.3299179   -3.2914548     -1.71402   0.13692093   -3.2914548    1.5774347   555250 
 4592000     1.331232   -3.2932972    -1.714355   0.13650412   -3.2932972    1.5789422   555268 
 4593000    1.3315864   -3.2929557   -1.7136671   0.13557947   -3.2929557    1.5792886   555294 
 4594000    1.3286043   -3.2900527   -1.7143946   0.13812663   -3.2900527    1.5756581   555327 
 4595000    1.3305483   -3.2920148    -1.714162   0.13493689   -3.2920148    1.5778528   555366 
 4596000    1.3303468   -3.2922827   -1.7147853   0.13815402   -3.2922827    1.5774974   555407 
 4597000    1.3322295   -3.2945599   -1.7149096   0.13742751   -3.2945599    1.5796503   555435 
 4598000    1.3315992   -3.2944671   -1.7156551   0.14313121   -3.2944671     1.578812   555467 
 4599000     1.331897   -3.2941059   -1.7150489   0.14250908   -3.2941059     1.579057   555505 
 4600000    1.3301743   -3.2925901   -1.7156579   0.13661748   -3.2925901    1.5769322   555534 
 4601000    1.3317282   -3.2960077   -1.7173753   0.14419326   -3.2960077    1.5786324   555584 
 4602000    1.3309829   -3.2949812    -1.717326   0.14251899   -3.2949812    1.5776552   555617 
 4603000    1.3299281   -3.2938306   -1.7175307   0.13578839   -3.2938306    1.5762999   555654 
 4604000    1.3302448   -3.2952548   -1.7186817    0.1416898   -3.2952548    1.5765731   555690 
 4605000    1.3309961   -3.2967195    -1.719361   0.14060282   -3.2967195    1.5773585   555727 
 4606000    1.3308005   -3.2967778   -1.7197872   0.13916142   -3.2967778    1.5769905   555775 
 4607000    1.3309502   -3.2980895   -1.7210323   0.13904532   -3.2980895    1.5770572   555814 
 4608000    1.3309771   -3.2984797   -1.7214785   0.14236982   -3.2984797    1.5770012   555845 
 4609000    1.3305514   -3.2978884   -1.7214937   0.14074135   -3.2978884    1.5763947   555881 
 4610000    1.3304747   -3.2980332   -1.7218172   0.14217074   -3.2980332    1.5762159   555912 
 4611000    1.3293353   -3.2962708   -1.7215095   0.14465427   -3.2962708    1.5747613   555949 
 4612000    1.3311887   -3.2975538   -1.7206878    0.1450975   -3.2975538    1.5768661   555981 
 4613000    1.3303765   -3.2963256   -1.7205068   0.14395681   -3.2963256    1.5758189   556011 
 4614000    1.3320775   -3.2991148   -1.7213974   0.14590164   -3.2991148    1.5777174   556052 
 4615000    1.3317388   -3.2989141   -1.7217283   0.13603227   -3.2989141    1.5771858   556098 
 4616000     1.330114   -3.2967854   -1.7215975   0.13862417   -3.2967854    1.5751878   556124 
 4617000    1.3313127   -3.2992004   -1.7226383   0.13741685   -3.2992004     1.576562   556140 
 4618000    1.3312293    -3.298488   -1.7221353   0.13645976    -3.298488    1.5763527   556179 
 4619000    1.3312499   -3.2984459   -1.7221113   0.13311568   -3.2984459    1.5763346   556194 
 4620000    1.3315465   -3.2983279   -1.7217356    0.1380605   -3.2983279    1.5765923   556227 
 4621000    1.3328141   -3.2994529   -1.7213994   0.13960934   -3.2994529    1.5780535   556241 
 4622000     1.332194    -3.298393   -1.7211844   0.14319396    -3.298393    1.5772086   556280 
 4623000    1.3314279   -3.2978825     -1.72168   0.13804606   -3.2978825    1.5762025   556315 
 4624000    1.3310402   -3.2972196   -1.7215582   0.13928437   -3.2972196    1.5756614   556344 
 4625000    1.3310862   -3.2976666   -1.7220697   0.13605163   -3.2976666    1.5755969   556386 
 4626000    1.3303472   -3.2967824   -1.7221366   0.13741622   -3.2967824    1.5746457   556413 
 4627000    1.3284597   -3.2959923   -1.7237021   0.13632463   -3.2959923    1.5722902   556456 
 4628000    1.3313031   -3.2991571   -1.7235612   0.13447885   -3.2991571    1.5755959   556477 
 4629000    1.3322619   -3.2998425   -1.7232167   0.13420314   -3.2998425    1.5766258   556514 
 4630000    1.3329557   -3.2996361   -1.7222515   0.14158029   -3.2996361    1.5773846   556536 
 4631000    1.3322247   -3.2993988   -1.7229727   0.14216924   -3.2993988    1.5764261   556569 
 4632000    1.3309947   -3.2976551   -1.7227552   0.14330844   -3.2976551    1.5748998   556594 
 4633000    1.3315408   -3.2980264   -1.7225426   0.14294423   -3.2980264    1.5754838   556616 
 4634000    1.3314514    -3.298426   -1.7231414   0.13954061    -3.298426    1.5752846   556649 
 4635000    1.3310955   -3.2979884   -1.7231928   0.14016198   -3.2979884    1.5747956   556673 
 4636000     1.331906   -3.2984038   -1.7227456   0.14499908   -3.2984038    1.5756582   556707 
 4637000    1.3327482   -3.2997534    -1.723198   0.13760281   -3.2997534    1.5765555   556742 
 4638000      1.33272   -3.3001919   -1.7237605   0.14083825   -3.3001919    1.5764315   556774 
 4639000    1.3340419   -3.3021953   -1.7242937   0.14013196   -3.3021953    1.5779016   556807 
 4640000    1.3329463   -3.3014463   -1.7248944   0.13516758   -3.3014463     1.576552   556826 
 4641000      1.33235   -3.3001711   -1.7243952   0.13742528   -3.3001711    1.5757759   556851 
 4642000    1.3335877   -3.3009981   -1.7238434   0.14305742   -3.3009981    1.5771547   556881 
 4643000    1.3332018   -3.3008977   -1.7243493    0.1419582   -3.3008977    1.5765483   556934 
 4644000    1.3328795   -3.3011065   -1.7250581   0.14050623   -3.3011065    1.5760484   556976 
 4645000    1.3345952    -3.301732   -1.7237399   0.13611253    -3.301732    1.5779921   557006 
 4646000    1.3331258   -3.2995386   -1.7233716   0.14518811   -3.2995386     1.576167   557037 
 4647000    1.3316088   -3.3006881   -1.7263656   0.13751147   -3.3006881    1.5743225   557055 
 4648000    1.3324992   -3.3016184    -1.726362   0.13886472   -3.3016184    1.5752565   557097 
 4649000    1.3314467   -3.2999882   -1.7260692   0.13845026   -3.2999882     1.573919   557130 
 4650000     1.331691   -3.3005433   -1.7264204   0.14458182   -3.3005433     1.574123   557160 
 4651000    1.3316068    -3.301482   -1.7275179   0.14289065    -3.301482    1.5739641   557181 
 4652000    1.3324874   -3.3014414    -1.726507   0.14187945   -3.3014414    1.5749344   557206 
 4653000    1.3325304   -3.3006751   -1.7257577   0.13192142   -3.3006751    1.5749173   557230 
 4654000    1.3308746   -3.2989028   -1.7260385   0.13473234   -3.2989028    1.5728644   557264 
 4655000      1.33111   -3.2999412   -1.7269087   0.14241473   -3.2999412    1.5730325   557303 
 4656000    1.3331341   -3.3016357   -1.7262706   0.13933751   -3.3016357    1.5753651   557324 
 4657000    1.3355332   -3.3046104   -1.7264669   0.13699708   -3.3046104    1.5781435   557344 
 4658000    1.3337117   -3.3025771   -1.7266905   0.13567677   -3.3025771    1.5758865   557381 
 4659000    1.3344373   -3.3029684   -1.7262924   0.14020999   -3.3029684     1.576676   557405 
 4660000    1.3346108   -3.3019508   -1.7251745   0.13899359   -3.3019508    1.5767763   557442 
 4661000       1.3349    -3.302672   -1.7256728   0.14260395    -3.302672    1.5769992   557484 
 4662000    1.3344842   -3.3025248     -1.72613   0.13970236   -3.3025248    1.5763948   557524 
 4663000      1.33391    -3.301116   -1.7254447   0.14435079    -3.301116    1.5756713   557540 
 4664000    1.3350959   -3.3031026   -1.7261294   0.14107365   -3.3031026    1.5769732   557575 
 4665000    1.3335961   -3.3021529   -1.7270417   0.13915081   -3.3021529    1.5751112   557607 
 4666000    1.3343524   -3.3046449   -1.7287252   0.14544196   -3.3046449    1.5759197   557637 
 4667000    1.3340255   -3.3034572   -1.7280196   0.13686683   -3.3034572    1.5754376   557671 
 4668000    1.3343649   -3.3038349   -1.7281377   0.13643904   -3.3038349    1.5756971   557721 
 4669000    1.3343818   -3.3046522   -1.7290283   0.13799481   -3.3046522    1.5756239   557754 
 4670000    1.3342807   -3.3047692   -1.7293296   0.13887057   -3.3047692    1.5754396   557777 
 4671000    1.3345015   -3.3037415   -1.7281233   0.14026119   -3.3037415    1.5756183   557806 
 4672000    1.3350916   -3.3053045   -1.7290742   0.13816899   -3.3053045    1.5762303   557836 
 4673000    1.3335052   -3.3038612   -1.7296422   0.14046963   -3.3038612     1.574219   557885 
 4674000    1.3327499   -3.3041717   -1.7309571   0.13683504   -3.3041717    1.5732146   557925 
 4675000    1.3342712   -3.3050275   -1.7301329   0.14172721   -3.3050275    1.5748947   557966 
 4676000    1.3341348    -3.305817   -1.7311879    0.1386125    -3.305817    1.5746292   558003 
 4677000    1.3355141   -3.3062738   -1.7301268   0.14131055   -3.3062738     1.576147   558042 
 4678000     1.335509   -3.3053369   -1.7293033    0.1479048   -3.3053369    1.5760336   558080 
 4679000    1.3334995   -3.3045592   -1.7309929   0.14395568   -3.3045592    1.5735664   558114 
 4680000    1.3347226    -3.304889   -1.7299978   0.14162856    -3.304889    1.5748912   558156 
 4681000    1.3354583    -3.306299   -1.7306471   0.14149254    -3.306299     1.575652   558194 
 4682000    1.3352781   -3.3067976   -1.7314485   0.13887408   -3.3067976    1.5753491   558226 
 4683000    1.3347098   -3.3055101   -1.7309161   0.13842571   -3.3055101     1.574594   558256 
 4684000    1.3346476   -3.3063338   -1.7319458   0.13456331   -3.3063338     1.574388   558303 
 4685000    1.3349618   -3.3058621   -1.7312248   0.14289792   -3.3058621    1.5746373   558346 
 4686000    1.3361666   -3.3080294   -1.7320753   0.13717689   -3.3080294    1.5759541   558383 
 4687000    1.3351295    -3.306623   -1.7319739   0.13968014    -3.306623     1.574649   558412 
 4688000    1.3358235   -3.3076601   -1.7323195   0.13573961   -3.3076601    1.5753407   558457 
 4689000     1.335782   -3.3080364    -1.732835   0.13851847   -3.3080364    1.5752014   558489 
 4690000    1.3346866    -3.307324   -1.7334875   0.13765776    -3.307324    1.5738364   558515 
 4691000    1.3332839   -3.3056697   -1.7335942   0.13421182   -3.3056697    1.5720755   558553 
 4692000    1.3343914    -3.307235   -1.7338791   0.13854875    -3.307235    1.5733559   558562 
 4693000    1.3371374   -3.3093501   -1.7328636   0.13792774   -3.3093501    1.5764864   558600 
 4694000    1.3370896   -3.3092936   -1.7329511   0.13619438   -3.3092936    1.5763426   558631 
 4695000    1.3355183   -3.3073501   -1.7329473   0.13978611   -3.3073501    1.5744028   558662 
 4696000    1.3366221   -3.3089242   -1.7332964   0.14046325   -3.3089242    1.5756278   558689 
 4697000    1.3370208   -3.3096061   -1.7335618    0.1365592   -3.3096061    1.5760443   558708 
 4698000    1.3355676    -3.308132   -1.7338684   0.14342859    -3.308132    1.5742636   558732 
 4699000    1.3370721   -3.3086368   -1.7326957   0.13901179   -3.3086368    1.5759411   558766 
 4700000    1.3360074   -3.3076072   -1.7329886   0.14046908   -3.3076072    1.5746186   558790 
 4701000    1.3363456   -3.3074084   -1.7324561   0.14027874   -3.3074084    1.5749524   558813 
 4702000    1.3365391   -3.3090571   -1.7339783   0.13891623   -3.3090571    1.5750789   558849 
 4703000    1.3368125   -3.3093827   -1.7341168   0.13578015   -3.3093827    1.5752659   558897 
 4704000    1.3365129   -3.3099152   -1.7350869   0.13665706   -3.3099152    1.5748283   558927 
 4705000    1.3350319   -3.3090121   -1.7360331   0.13617795   -3.3090121    1.5729791   558964 
 4706000    1.3346194   -3.3085963   -1.7361652   0.13245736   -3.3085963    1.5724311   558986 
 4707000    1.3333682   -3.3072317   -1.7363703   0.13816923   -3.3072317    1.5708614   559020 
 4708000    1.3341293   -3.3087015   -1.7370053   0.13631992   -3.3087015    1.5716962   559042 
 4709000    1.3364757   -3.3107816   -1.7363803    0.1247156   -3.3107816    1.5744014   559063 
 4710000    1.3371478   -3.3107391   -1.7356841   0.13581408   -3.3107391     1.575055   559112 
 4711000    1.3362841   -3.3091345   -1.7351897   0.14210378   -3.3091345    1.5739448   559145 
 4712000    1.3367353   -3.3090029   -1.7345971   0.14447592   -3.3090029    1.5744058   559170 
 4713000    1.3369833   -3.3098849   -1.7352967   0.13553175   -3.3098849    1.5745881   559209 
 4714000    1.3376186   -3.3116172   -1.7363626   0.14334356   -3.3116172    1.5752546   559238 
 4715000    1.3368427   -3.3120309   -1.7377519    0.1329934   -3.3120309     1.574279   559260 
 4716000     1.334304   -3.3089458   -1.7377632    0.1381568   -3.3089458    1.5711826   559298 
 4717000    1.3369619      -3.3111   -1.7368356   0.13619223      -3.3111    1.5742644   559315 
 4718000     1.337149   -3.3113613   -1.7369891   0.13816889   -3.3113613    1.5743722   559355 
 4719000    1.3367308   -3.3112214   -1.7374288   0.13484895   -3.3112214    1.5737926   559386 
 4720000    1.3377285   -3.3111927   -1.7362959   0.13819192   -3.3111927    1.5748968   559411 
 4721000    1.3379987   -3.3112851   -1.7361743   0.14225564   -3.3112851    1.5751108   559448 
 4722000    1.3370359   -3.3119767   -1.7380641   0.13636243   -3.3119767    1.5739126   559471 
 4723000    1.3358033   -3.3109943   -1.7386253   0.14090083   -3.3109943    1.5723689   559504 
 4724000    1.3349415   -3.3092312   -1.7379722    0.1438406   -3.3092312     1.571259   559538 
 4725000    1.3361934   -3.3123257   -1.7396775   0.13694117   -3.3123257    1.5726482   559568 
 4726000    1.3371403    -3.312398   -1.7387254   0.13907267    -3.312398    1.5736727   559600 
 4727000    1.3369448   -3.3126652   -1.7393182   0.13711406   -3.3126652     1.573347   559634 
 4728000    1.3373405   -3.3134168   -1.7397053   0.13815261   -3.3134168    1.5737115   559670 
 4729000    1.3382874   -3.3143285   -1.7395704   0.13190186   -3.3143285    1.5747581   559694 
 4730000    1.3377231   -3.3141202   -1.7400851   0.14126487   -3.3141202    1.5740351   559715 
 4731000    1.3394775   -3.3162848   -1.7402952   0.14162631   -3.3162848    1.5759896   559754 
 4732000    1.3381889   -3.3152314   -1.7408564   0.13542815   -3.3152314     1.574375   559789 
 4733000    1.3378393   -3.3155307   -1.7416738   0.13738363   -3.3155307     1.573857   559827 
 4734000     1.338614   -3.3145362   -1.7398355   0.13870243   -3.3145362    1.5747007   559851 
 4735000    1.3379854   -3.3149232   -1.7410434   0.14226496   -3.3149232    1.5738798   559880 
 4736000    1.3375176    -3.314399   -1.7411342   0.14622786    -3.314399    1.5732648   559903 
 4737000    1.3380144   -3.3158263   -1.7420248   0.14190096   -3.3158263    1.5738015   559920 
 4738000    1.3372312    -3.315845   -1.7430435   0.14372726    -3.315845    1.5728015   559948 
 4739000     1.336986   -3.3167347   -1.7442721   0.14321578   -3.3167347    1.5724627   559966 
 4740000    1.3374258   -3.3168818   -1.7439777   0.14084857   -3.3168818    1.5729041   559993 
 4741000    1.3375187   -3.3174757   -1.7445298    0.1421241   -3.3174757    1.5729459   560017 
 4742000    1.3379906   -3.3171345   -1.7437236   0.14312571   -3.3171345    1.5734109   560049 
 4743000    1.3373707   -3.3172569   -1.7446199   0.14381681   -3.3172569     1.572637   560065 
 4744000     1.338145   -3.3182546   -1.7447857   0.14434712   -3.3182546    1.5734689   560093 
 4745000    1.3385631   -3.3176533   -1.7437854    0.1393101   -3.3176533    1.5738678   560126 
 4746000    1.3362971   -3.3171827   -1.7460633   0.14298003   -3.3171827    1.5711194   560156 
 4747000    1.3393699   -3.3191349   -1.7444787   0.14046252   -3.3191349    1.5746562   560183 
 4748000    1.3382424    -3.317556   -1.7443153     0.133924    -3.317556    1.5732407   560215 
 4749000    1.3373253    -3.316928   -1.7448412   0.13319577    -3.316928    1.5720868   560242 
 4750000    1.3375392   -3.3179792   -1.7457223    0.1392156   -3.3179792    1.5722568   560271 
 4751000    1.3386636   -3.3186377   -1.7451658   0.14137928   -3.3186377    1.5734719   560309 
 4752000    1.3377263   -3.3166317   -1.7444074   0.14312172   -3.3166317    1.5722243   560361 
 4753000    1.3371846   -3.3169034   -1.7453886   0.13808506   -3.3169034    1.5715147   560387 
 4754000    1.3392016   -3.3189199   -1.7451274   0.13885826   -3.3189199    1.5737925   560420 
 4755000    1.3372361   -3.3157658   -1.7443561   0.14111324   -3.3157658    1.5714097   560446 
 4756000    1.3395936   -3.3189499   -1.7448709   0.13510497   -3.3189499     1.574079   560482 
 4757000    1.3362625   -3.3153543   -1.7452707   0.13885954   -3.3153543    1.5700836   560511 
 4758000    1.3386306   -3.3182884   -1.7455121   0.14053496   -3.3182884    1.5727763   560543 
 4759000    1.3381117    -3.316263   -1.7441834   0.13944959    -3.316263    1.5720796   560574 
 4760000     1.338527   -3.3163654   -1.7438905   0.13796047   -3.3163654     1.572475   560607 
 4761000    1.3389714   -3.3170327    -1.744103   0.14017169   -3.3170327    1.5729298   560631 
 4762000    1.3393493   -3.3174621   -1.7441642   0.13372265   -3.3174621    1.5732979   560658 
 4763000    1.3390788   -3.3186346   -1.7457667   0.13342974   -3.3186346    1.5728679   560698 
 4764000    1.3386778   -3.3175481   -1.7452465   0.14565837   -3.3175481    1.5723016   560732 
 4765000    1.3391163   -3.3176731   -1.7449042   0.13771624   -3.3176731    1.5727689   560749 
 4766000    1.3408022   -3.3183285   -1.7436637   0.13901935   -3.3183285    1.5746648   560779 
 4767000    1.3399067   -3.3185508   -1.7450528   0.13938006   -3.3185508     1.573498   560820 
 4768000    1.3415495   -3.3199552   -1.7446038   0.14372891   -3.3199552    1.5753514   560847 
 4769000    1.3419793   -3.3194985    -1.743707   0.14035209   -3.3194985    1.5757915   560870 
 4770000    1.3403551   -3.3191212   -1.7453436   0.14197958   -3.3191212    1.5737776   560908 
 4771000    1.3391762     -3.31718   -1.7448707   0.14966301     -3.31718    1.5723093   560938 
 4772000    1.3401415   -3.3190221   -1.7456944   0.14488796   -3.3190221    1.5733276   560979 
 4773000    1.3415975   -3.3192335   -1.7442806   0.14304231   -3.3192335    1.5749529   561009 
 4774000    1.3409157    -3.319894   -1.7458117   0.14474059    -3.319894    1.5740823   561034 
 4775000    1.3405046   -3.3193787   -1.7458687   0.14243914   -3.3193787      1.57351   561066 
 4776000     1.341208    -3.321061   -1.7467703   0.13955795    -3.321061    1.5742907   561082 
 4777000    1.3407686   -3.3209882   -1.7473451   0.13760497   -3.3209882    1.5736431   561129 
 4778000    1.3413288   -3.3209935   -1.7467742   0.14011411   -3.3209935    1.5742193   561158 
 4779000    1.3406946   -3.3204426   -1.7470406   0.13959622   -3.3204426     1.573402   561184 
 4780000    1.3400172   -3.3197547   -1.7472232    0.1401673   -3.3197547    1.5725315   561211 
 4781000     1.341532   -3.3220671   -1.7478338    0.1339768   -3.3220671    1.5742333   561238 
 4782000    1.3411021   -3.3199249    -1.746224   0.13605782   -3.3199249    1.5737009   561248 
 4783000    1.3404203   -3.3192422   -1.7464116    0.1389971   -3.3192422    1.5728306   561273 
 4784000    1.3413987   -3.3207416   -1.7468441   0.13725009   -3.3207416    1.5738974   561302 
 4785000    1.3416157   -3.3216518    -1.747581   0.14247027   -3.3216518    1.5740707   561331 
 4786000    1.3405193   -3.3208843     -1.74817   0.13238762   -3.3208843    1.5727143   561356 
 4787000    1.3403666   -3.3211992   -1.7487705   0.14113438   -3.3211992    1.5724287   561394 
 4788000    1.3399029   -3.3216891    -1.749908   0.14139218   -3.3216891    1.5717811   561431 
 4789000    1.3408266   -3.3225842   -1.7497755   0.14306875   -3.3225842    1.5728086   561451 
 4790000    1.3398157   -3.3220757   -1.7505256   0.14394279   -3.3220757    1.5715501   561477 
 4791000    1.3405288    -3.322184   -1.7498703   0.13846985    -3.322184    1.5723137   561503 
 4792000    1.3397764   -3.3212256   -1.7498475   0.13651977   -3.3212256     1.571378   561522 
 4793000      1.34182    -3.323159   -1.7494849     0.138951    -3.323159     1.573674   561558 
 4794000    1.3402522   -3.3213492   -1.7496035   0.13916091   -3.3213492    1.5717457   561590 
 4795000    1.3393953   -3.3216906   -1.7510532   0.13552438   -3.3216906    1.5706373   561627 
 4796000    1.3411666   -3.3221953   -1.7495592    0.1415493   -3.3221953    1.5726361   561655 
 4797000    1.3413536   -3.3228388   -1.7500758   0.14199826   -3.3228388     1.572763   561688 
 4798000    1.3399868    -3.322426   -1.7513692    0.1419782    -3.322426    1.5710568   561725 
 4799000    1.3394931   -3.3222236   -1.7518155   0.13443046   -3.3222236    1.5704081   561750 
 4800000    1.3404243   -3.3234545   -1.7520387   0.13365171   -3.3234545    1.5714159   561780 
 4801000    1.3381011    -3.321419    -1.752774   0.14341211    -3.321419    1.5686449   561797 
 4802000    1.3421748   -3.3246711   -1.7513374   0.13504411   -3.3246711    1.5733337   561828 
 4803000    1.3401361   -3.3222306   -1.7513735   0.14539303   -3.3222306    1.5708571   561859 
 4804000    1.3411463   -3.3238283   -1.7518961   0.14360607   -3.3238283    1.5719322   561898 
 4805000    1.3393682   -3.3233594   -1.7536007   0.13818921   -3.3233594    1.5697587   561930 
 4806000    1.3402688   -3.3251974   -1.7544531   0.14362134   -3.3251974    1.5707443   561955 
 4807000    1.3415389   -3.3256643   -1.7535238   0.13532037   -3.3256643    1.5721405   561988 
 4808000    1.3413563   -3.3256346   -1.7537724    0.1384774   -3.3256346    1.5718622   562011 
 4809000    1.3419857   -3.3272633   -1.7547586   0.14651736   -3.3272633    1.5725046   562045 
 4810000    1.3410081   -3.3260036   -1.7547256   0.14499543   -3.3260036     1.571278   562074 
 4811000    1.3412067   -3.3248755   -1.7534458   0.14034889   -3.3248755    1.5714297   562103 
 4812000    1.3425005   -3.3267326    -1.753843   0.14450143   -3.3267326    1.5728895   562123 
 4813000    1.3409491   -3.3254999   -1.7545146   0.13846883   -3.3254999    1.5709853   562154 
 4814000    1.3420316   -3.3265153   -1.7543093   0.14119171   -3.3265153    1.5722059   562171 
 4815000    1.3422608    -3.325418   -1.7530107   0.14119662    -3.325418    1.5724073   562195 
 4816000    1.3445313   -3.3281831   -1.7532112   0.13983589   -3.3281831    1.5749718   562229 
 4817000    1.3416881   -3.3267363   -1.7551844   0.13963651   -3.3267363    1.5715519   562261 
 4818000    1.3407054   -3.3259559   -1.7555913   0.14343428   -3.3259559    1.5703646   562274 
 4819000    1.3419037   -3.3264717   -1.7547566    0.1430932   -3.3264717     1.571715   562293 
 4820000    1.3418681   -3.3274517   -1.7558427     0.141153   -3.3274517     1.571609   562316 
 4821000    1.3411451   -3.3269178   -1.7562086   0.14308303   -3.3269178    1.5707092   562335 
 4822000    1.3414276   -3.3273532   -1.7563773   0.14078895   -3.3273532    1.5709758   562358 
 4823000    1.3414666   -3.3274537   -1.7565524   0.13939519   -3.3274537    1.5709013   562401 
 4824000    1.3420426   -3.3276782   -1.7561889   0.13284434   -3.3276782    1.5714892   562432 
 4825000      1.34051   -3.3267138   -1.7570527   0.14626702   -3.3267138    1.5696611   562444 
 4826000    1.3415561   -3.3288023   -1.7580252   0.13281466   -3.3288023    1.5707772   562483 
 4827000    1.3404315   -3.3270959   -1.7576914   0.14266645   -3.3270959    1.5694046   562503 
 4828000    1.3408751   -3.3274114   -1.7575628   0.14126316   -3.3274114    1.5698486   562530 
 4829000    1.3423394   -3.3278309    -1.756388   0.13187784   -3.3278309    1.5714429   562573 
 4830000    1.3422208   -3.3273502   -1.7560853   0.13793997   -3.3273502    1.5712649   562587 
 4831000    1.3419513   -3.3273481   -1.7564546   0.14391306   -3.3273481    1.5708935   562607 
 4832000    1.3422034   -3.3282089   -1.7571319   0.13474974   -3.3282089     1.571077   562647 
 4833000    1.3417246   -3.3279396    -1.757532   0.13832775   -3.3279396    1.5704076   562686 
 4834000    1.3415424   -3.3270841   -1.7569623   0.13918019   -3.3270841    1.5701218   562712 
 4835000    1.3420104   -3.3277239   -1.7571185   0.14397783   -3.3277239    1.5706053   562735 
 4836000    1.3425408   -3.3281123   -1.7569475   0.14185438   -3.3281123    1.5711647   562757 
 4837000    1.3433178    -3.329436   -1.7574486   0.13814305    -3.329436    1.5719874   562788 
 4838000    1.3431826   -3.3286053   -1.7568655   0.13991777   -3.3286053    1.5717398   562820 
 4839000    1.3421047   -3.3281766    -1.757765   0.14189298   -3.3281766    1.5704116   562844 
 4840000    1.3417833   -3.3276513   -1.7576325   0.14689604   -3.3276513    1.5700188   562850 
 4841000    1.3448977   -3.3311471   -1.7575372   0.14017222   -3.3311471    1.5736099   562869 
 4842000    1.3431863   -3.3289107   -1.7573535   0.14298936   -3.3289107    1.5715571   562887 
 4843000    1.3437913   -3.3298548   -1.7576681   0.14085803   -3.3298548    1.5721867   562915 
 4844000    1.3431975   -3.3290983   -1.7577151   0.14141915   -3.3290983    1.5713832   562954 
 4845000    1.3440302   -3.3292774   -1.7570011   0.13917943   -3.3292774    1.5722764   562983 
 4846000    1.3433321   -3.3273727   -1.7559939   0.14539997   -3.3273727    1.5713787   563012 
 4847000    1.3435434   -3.3276879   -1.7561374     0.142195   -3.3276879    1.5715505   563039 
 4848000    1.3422778   -3.3274049   -1.7574128   0.14364471   -3.3274049    1.5699921   563067 
 4849000    1.3436282   -3.3289287   -1.7574548   0.13587007   -3.3289287    1.5714739   563102 
 4850000    1.3440365   -3.3289961   -1.7571089   0.14207005   -3.3289961    1.5718872   563125 
 4851000    1.3425762   -3.3288263   -1.7587222   0.14036723   -3.3288263    1.5701041   563152 
 4852000    1.3431715   -3.3299114    -1.759231    0.1361482   -3.3299114    1.5706804   563195 
 4853000    1.3437964   -3.3298047   -1.7585164   0.13787179   -3.3298047    1.5712884   563239 
 4854000    1.3455613   -3.3299069   -1.7566331    0.1416944   -3.3299069    1.5732739   563267 
 4855000    1.3457578   -3.3309086   -1.7575113   0.13857971   -3.3309086    1.5733974   563305 
 4856000    1.3426264   -3.3285218   -1.7588496    0.1375651   -3.3285218    1.5696722   563328 
 4857000    1.3436759   -3.3295346   -1.7586968   0.14308885   -3.3295346    1.5708379   563350 
 4858000    1.3428774   -3.3295165    -1.759704   0.14152902   -3.3295165    1.5698125   563383 
 4859000    1.3443344   -3.3303661   -1.7589257   0.14390805   -3.3303661    1.5714404   563410 
 4860000    1.3441363   -3.3314406   -1.7602849   0.14148169   -3.3314406    1.5711557   563429 
 4861000    1.3450931   -3.3323668   -1.7601485   0.13800417   -3.3323668    1.5722183   563449 
 4862000    1.3425274   -3.3293527   -1.7602001   0.14197876   -3.3293527    1.5691526   563473 
 4863000    1.3441899    -3.332818   -1.7618282   0.14345765    -3.332818    1.5709898   563511 
 4864000    1.3441009   -3.3322742   -1.7614554   0.13993074   -3.3322742    1.5708188   563535 
 4865000    1.3435163   -3.3325437   -1.7625028   0.14013088   -3.3325437    1.5700409   563569 
 4866000    1.3432696   -3.3316311   -1.7619287   0.14354077   -3.3316311    1.5697025   563587 
 4867000    1.3440744   -3.3327619   -1.7622054   0.14342011   -3.3327619    1.5705565   563618 
 4868000    1.3431893   -3.3323883   -1.7629133   0.14290324   -3.3323883     1.569475   563635 
 4869000     1.343634   -3.3331754   -1.7632281   0.14014918   -3.3331754    1.5699473   563652 
 4870000    1.3440983    -3.333454   -1.7630589   0.14150589    -3.333454    1.5703951   563686 
 4871000    1.3445571   -3.3346695    -1.763836   0.13904478   -3.3346695    1.5708335   563721 
 4872000    1.3439307   -3.3334795   -1.7634697   0.13836449   -3.3334795    1.5700098   563754 
 4873000    1.3429762   -3.3327568    -1.763979   0.14432349   -3.3327568    1.5687778   563796 
 4874000    1.3442486   -3.3348642   -1.7647392   0.13768256   -3.3348642     1.570125   563846 
 4875000    1.3456196    -3.336318   -1.7646948   0.13813601    -3.336318    1.5716232   563883 
 4876000    1.3443447   -3.3355558   -1.7654856   0.13789288   -3.3355558    1.5700702   563906 
 4877000    1.3445084   -3.3349758    -1.764812    0.1417883   -3.3349758    1.5701638   563941 
 4878000    1.3448905   -3.3354485   -1.7649498   0.13963093   -3.3354485    1.5704987   563981 
 4879000    1.3449034    -3.334103   -1.7637034   0.13857598    -3.334103    1.5703996   564022 
 4880000    1.3429976   -3.3331815   -1.7651101   0.14301199   -3.3331815    1.5680714   564059 
 4881000    1.3447605   -3.3343456    -1.764291    0.1378925   -3.3343456    1.5700546   564086 
 4882000    1.3463077   -3.3351123   -1.7633321    0.1409655   -3.3351123    1.5717802   564115 
 4883000    1.3458977   -3.3337451   -1.7625438    0.1466331   -3.3337451    1.5712013   564151 
 4884000    1.3473264   -3.3346014    -1.761827   0.13847163   -3.3346014    1.5727744   564185 
 4885000    1.3478729    -3.335481    -1.762144   0.13779587    -3.335481     1.573337   564212 
 4886000    1.3466281   -3.3346044   -1.7627762   0.14403393   -3.3346044    1.5718282   564232 
 4887000    1.3460147    -3.334529   -1.7634807   0.13911883    -3.334529    1.5710483   564255 
 4888000    1.3456419   -3.3338949   -1.7633458   0.14219493   -3.3338949    1.5705491   564278 
 4889000    1.3468624   -3.3342375   -1.7623531   0.13756615   -3.3342375    1.5718844   564310 
 4890000    1.3471212   -3.3343575   -1.7622351   0.14103136   -3.3343575    1.5721224   564333 
 4891000    1.3460525   -3.3331556   -1.7623528   0.14192471   -3.3331556    1.5708028   564359 
 4892000    1.3471128   -3.3343386    -1.762382   0.14506392   -3.3343386    1.5719566   564389 
 4893000    1.3466965   -3.3346984   -1.7633195   0.14299395   -3.3346984    1.5713789   564422 
 4894000    1.3478494   -3.3357504   -1.7631015   0.14393183   -3.3357504     1.572649   564449 
 4895000    1.3471347    -3.334738   -1.7630259   0.14181865    -3.334738     1.571712   564486 
 4896000    1.3461407   -3.3358239   -1.7653773   0.13892445   -3.3358239    1.5704467   564524 
 4897000    1.3457694   -3.3345351   -1.7646162   0.13969743   -3.3345351    1.5699189   564558 
 4898000    1.3472077   -3.3361688   -1.7646528   0.14608633   -3.3361688     1.571516   564587 
 4899000    1.3469022   -3.3366109   -1.7655152   0.13704546   -3.3366109    1.5710957   564610 
 4900000    1.3474536   -3.3373278   -1.7657449   0.13955487   -3.3373278     1.571583   564666 
 4901000    1.3457564   -3.3364604   -1.7669347   0.14199456   -3.3364604    1.5695256   564694 
 4902000    1.3451027   -3.3353097   -1.7665853   0.14352711   -3.3353097    1.5687244   564708 
 4903000    1.3456498   -3.3366537   -1.7673859   0.13670501   -3.3366537    1.5692679   564742 
 4904000    1.3465849   -3.3384758   -1.7682007   0.14536949   -3.3384758     1.570275   564772 
 4905000    1.3475976   -3.3382402   -1.7668483    0.1435459   -3.3382402    1.5713919   564795 
 4906000    1.3483357   -3.3401815   -1.7680236   0.14091774   -3.3401815    1.5721579   564829 
 4907000    1.3462596   -3.3376505   -1.7679938   0.14333821   -3.3376505    1.5696567   564858 
 4908000    1.3469896   -3.3393843   -1.7689766   0.14333752   -3.3393843    1.5704076   564894 
 4909000    1.3456649    -3.338005      -1.7692   0.14001134    -3.338005     1.568805   564915 
 4910000    1.3459021   -3.3370862   -1.7680575   0.14728656   -3.3370862    1.5690287   564934 
 4911000    1.3478873   -3.3391179   -1.7678861   0.14460167   -3.3391179    1.5712318   564974 
 4912000     1.346483   -3.3382935    -1.768782   0.14035991   -3.3382935    1.5695115   565004 
 4913000    1.3484363   -3.3404659   -1.7687445    0.1392602   -3.3404659    1.5717215   565028 
 4914000    1.3486338   -3.3409186   -1.7689975    0.1450156   -3.3409186    1.5719211   565039 
 4915000    1.3481212   -3.3395393   -1.7683213   0.14035989   -3.3395393     1.571218   565077 
 4916000    1.3468728   -3.3388517   -1.7691331   0.14170621   -3.3388517    1.5697186   565093 
 4917000    1.3462473   -3.3385719   -1.7696324   0.14461048   -3.3385719    1.5689396   565111 
 4918000    1.3475479   -3.3391069   -1.7687711   0.14391538   -3.3391069    1.5703358   565154 
 4919000    1.3485486    -3.339868   -1.7684244   0.14026776    -3.339868    1.5714436   565175 
 4920000     1.347097   -3.3375801   -1.7679086   0.14200497   -3.3375801    1.5696715   565204 
 4921000    1.3462326   -3.3375067   -1.7689062   0.14260588   -3.3375067    1.5686004   565227 
 4922000    1.3464047   -3.3377572   -1.7690146   0.14290882   -3.3377572    1.5687426   565248 
 4923000    1.3476845   -3.3385315   -1.7684004   0.13861772   -3.3385315     1.570131   565285 
 4924000     1.347507   -3.3386589   -1.7688318   0.13753726   -3.3386589    1.5698271   565320 
 4925000    1.3505878   -3.3417644   -1.7683871    0.1416041   -3.3417644    1.5733772   565334 
 4926000    1.3480006   -3.3396695   -1.7693813   0.13987165   -3.3396695    1.5702883   565361 
 4927000    1.3483633   -3.3396447   -1.7690034   0.14091096   -3.3396447    1.5706413   565386 
 4928000    1.3471452   -3.3401815   -1.7710202   0.13711384   -3.3401815    1.5691613   565408 
 4929000    1.3460567   -3.3394646   -1.7716238   0.13998647   -3.3394646    1.5678407   565427 
 4930000     1.347519   -3.3402007   -1.7707512   0.13835277   -3.3402007    1.5694496   565461 
 4931000    1.3465974    -3.340818   -1.7725305   0.13557869    -3.340818    1.5682875   565493 
 4932000    1.3461808   -3.3402161   -1.7724749   0.14741426   -3.3402161    1.5677413   565515 
 4933000    1.3457108    -3.341431   -1.7743229   0.14514997    -3.341431    1.5671081   565546 
 4934000    1.3470281   -3.3422369   -1.7736809   0.14210532   -3.3422369    1.5685561   565577 
 4935000    1.3480205   -3.3432955   -1.7736533   0.13893404   -3.3432955    1.5696423   565602 
 4936000    1.3480065   -3.3431607    -1.773604   0.13923085   -3.3431607    1.5695567   565627 
 4937000    1.3471129   -3.3420665   -1.7736224   0.13970165   -3.3420665    1.5684441   565653 
 4938000    1.3488499   -3.3444105   -1.7740079   0.14220098   -3.3444105    1.5704026   565676 
 4939000    1.3484222   -3.3439239   -1.7741302   0.14199879   -3.3439239    1.5697937   565716 
 4940000    1.3487711   -3.3446156   -1.7745212   0.14300062   -3.3446156    1.5700943   565754 
 4941000    1.3483646   -3.3443113   -1.7748067   0.14299209   -3.3443113    1.5695046   565796 
 4942000    1.3472149   -3.3442261   -1.7761928   0.14103047   -3.3442261    1.5680333   565844 
 4943000    1.3476736   -3.3447059   -1.7761996   0.13918841   -3.3447059    1.5685063   565866 
 4944000    1.3492452   -3.3457196   -1.7754786   0.13462285   -3.3457196     1.570241   565900 
 4945000    1.3469221   -3.3444553   -1.7769872   0.13664225   -3.3444553    1.5674682   565925 
 4946000    1.3459159    -3.342218    -1.776026   0.14179077    -3.342218    1.5661921   565963 
 4947000    1.3480664   -3.3450952   -1.7764616    0.1373174   -3.3450952    1.5686336   565985 
 4948000    1.3470367   -3.3431691   -1.7757975   0.14198522   -3.3431691    1.5673716   566008 
 4949000    1.3465574   -3.3428236   -1.7761204   0.13730096   -3.3428236    1.5667032   566048 
 4950000    1.3462161   -3.3430623   -1.7768309   0.14394486   -3.3430623    1.5662315   566075 
 4951000    1.3455495   -3.3426169   -1.7772301   0.13877636   -3.3426169    1.5653868   566100 
 4952000    1.3468944   -3.3444744   -1.7776199   0.13914183   -3.3444744    1.5668546   566135 
 4953000    1.3464202   -3.3430401   -1.7768174     0.137438   -3.3430401    1.5662227   566164 
 4954000     1.347518    -3.343693   -1.7762626   0.13448696    -3.343693    1.5674305   566189 
 4955000    1.3479328   -3.3423503   -1.7744926   0.13781606   -3.3423503    1.5678576   566209 
 4956000    1.3499476     -3.34595   -1.7757877   0.13543147     -3.34595    1.5701623   566223 
 4957000    1.3493692   -3.3440948   -1.7746773   0.13847738   -3.3440948    1.5694174   566249 
 4958000    1.3471106   -3.3409967   -1.7742643   0.14096931   -3.3409967    1.5667324   566270 
 4959000    1.3500666   -3.3447102   -1.7746313   0.13374417   -3.3447102    1.5700789   566303 
 4960000    1.3496287   -3.3437592   -1.7742312     0.138146   -3.3437592     1.569528   566318 
 4961000    1.3480011    -3.341777   -1.7742497   0.13979541    -3.341777    1.5675273   566357 
 4962000    1.3490821   -3.3446885   -1.7759817   0.14071823   -3.3446885    1.5687067   566385 
 4963000    1.3493595   -3.3442408    -1.775278   0.14237397   -3.3442408    1.5689628   566409 
 4964000    1.3491412   -3.3440806   -1.7754547   0.14021287   -3.3440806    1.5686259   566439 
 4965000    1.3500162   -3.3447707   -1.7752355   0.14051142   -3.3447707    1.5695352   566478 
 4966000    1.3481778   -3.3437356   -1.7764235   0.14228434   -3.3437356    1.5673121   566509 
 4967000      1.34951   -3.3448785   -1.7761118   0.14437585   -3.3448785    1.5687667   566543 
 4968000    1.3488484   -3.3441821   -1.7762564   0.14113803   -3.3441821    1.5679257   566569 
 4969000    1.3498054   -3.3440986   -1.7751491   0.14004009   -3.3440986    1.5689495   566601 
 4970000    1.3502583   -3.3451636   -1.7757764   0.14202339   -3.3451636    1.5693872   566633 
 4971000    1.3508237   -3.3464899    -1.776487   0.14305837   -3.3464899    1.5700029   566648 
 4972000    1.3483008   -3.3450284   -1.7780435   0.14326925   -3.3450284    1.5669849   566679 
 4973000    1.3503868   -3.3471042   -1.7778224    0.1423551   -3.3471042    1.5692819   566725 
 4974000    1.3507106   -3.3466533    -1.777034   0.14704789   -3.3466533    1.5696193   566739 
 4975000    1.3506188   -3.3459531    -1.776518   0.14233699   -3.3459531    1.5694351   566767 
 4976000    1.3504689    -3.345659   -1.7764977    0.1449996    -3.345659    1.5691613   566803 
 4977000    1.3514001   -3.3472162   -1.7770477    0.1398336   -3.3472162    1.5701685   566830 
 4978000    1.3501366   -3.3463846   -1.7777809   0.13842684   -3.3463846    1.5686036   566865 
 4979000    1.3500214   -3.3468814   -1.7784421     0.139084   -3.3468814    1.5684393   566876 
 4980000    1.3503163   -3.3473929   -1.7786829   0.14019197   -3.3473929    1.5687099   566902 
 4981000    1.3484874   -3.3445393   -1.7780092   0.14875084   -3.3445393      1.56653   566922 
 4982000    1.3508145   -3.3484037    -1.779234   0.14127671   -3.3484037    1.5691697   566945 
 4983000    1.3515496   -3.3492882   -1.7793448    0.1345552   -3.3492882    1.5699434   566974 
 4984000    1.3517795   -3.3491562   -1.7790262   0.13418007   -3.3491562    1.5701301   567003 
 4985000    1.3514163   -3.3486281   -1.7789753   0.13900657   -3.3486281    1.5696528   567023 
 4986000    1.3502158   -3.3471397   -1.7789504   0.14539513   -3.3471397    1.5681893   567048 
 4987000    1.3514929   -3.3488109   -1.7792435   0.13885429   -3.3488109    1.5695674   567086 
 4988000    1.3505678    -3.348194     -1.77977   0.14229901    -3.348194     1.568424   567111 
 4989000    1.3523192   -3.3499484    -1.779571   0.14148358   -3.3499484    1.5703775   567140 
 4990000    1.3519167   -3.3490675   -1.7792764   0.14649538   -3.3490675    1.5697911   567183 
 4991000    1.3517388   -3.3496348   -1.7801195   0.14405038   -3.3496348    1.5695153   567208 
 4992000    1.3509264   -3.3485587    -1.780089   0.14058676   -3.3485587    1.5684697   567245 
 4993000    1.3525547   -3.3503143   -1.7800648   0.14213513   -3.3503143    1.5702495   567285 
 4994000    1.3513309   -3.3485201   -1.7797439   0.14147968   -3.3485201    1.5687762   567304 
 4995000    1.3517236   -3.3487895   -1.7796155   0.14593854   -3.3487895     1.569174   567325 
 4996000    1.3511704   -3.3479197   -1.7794625   0.14239093   -3.3479197    1.5684572   567352 
 4997000    1.3524566   -3.3497056   -1.7797914   0.13993842   -3.3497056    1.5699142   567365 
 4998000    1.3511573   -3.3491904   -1.7808534   0.14298345   -3.3491904     1.568337   567390 
 4999000    1.3518446   -3.3501663   -1.7810759   0.13953541   -3.3501663    1.5690904   567406 
 5000000    1.3519807   -3.3502874    -1.781086   0.14109713   -3.3502874    1.5692014   567423 
 5001000    1.3515913   -3.3491827   -1.7804996   0.14010981   -3.3491827    1.5686831   567447 
 5002000    1.3526115   -3.3508502   -1.7810356   0.14310924   -3.3508502    1.5698146   567466 
 5003000    1.3500085   -3.3481248   -1.7813781    0.1419241   -3.3481248    1.5667467   567483 
 5004000    1.3521036   -3.3506322   -1.7815453   0.14095775   -3.3506322    1.5690869   567516 
 5005000    1.3520978   -3.3507681    -1.781768   0.13766376   -3.3507681        1.569   567545 
 5006000    1.3517158   -3.3502822   -1.7818251    0.1425156   -3.3502822    1.5684572   567581 
 5007000    1.3515719    -3.350042   -1.7818153   0.13946486    -3.350042    1.5682266   567604 
 5008000    1.3509288   -3.3486347   -1.7812895   0.14349483   -3.3486347    1.5673452   567653 
 5009000     1.352115   -3.3505009   -1.7818348   0.13825617   -3.3505009    1.5686662   567673 
 5010000    1.3524745   -3.3504262   -1.7814397   0.14263677   -3.3504262    1.5689865   567708 
 5011000    1.3526389     -3.35033   -1.7812081   0.14142887     -3.35033    1.5691219   567728 
 5012000    1.3524301   -3.3495715   -1.7807665   0.14773673   -3.3495715    1.5688051   567755 
 5013000    1.3518422   -3.3493914   -1.7813512   0.14287214   -3.3493914    1.5680403   567785 
 5014000    1.3527021   -3.3501404   -1.7811994   0.14453373   -3.3501404     1.568941   567820 
 5015000    1.3518861   -3.3496834   -1.7817745   0.14759569   -3.3496834    1.5679089   567851 
 5016000    1.3543914   -3.3521416   -1.7813934   0.13942985   -3.3521416    1.5707482   567875 
 5017000    1.3511887   -3.3501984   -1.7832501   0.14402979   -3.3501984    1.5669484   567906 
 5018000    1.3517708   -3.3518656   -1.7843001   0.14009247   -3.3518656    1.5675655   567927 
 5019000    1.3508458   -3.3509411   -1.7845201   0.13827023   -3.3509411     1.566421   567953 
 5020000    1.3511733   -3.3519645   -1.7852519   0.14308819   -3.3519645    1.5667126   567985 
 5021000    1.3532487   -3.3533017    -1.784249   0.12959914   -3.3533017    1.5690527   568009 
 5022000     1.351813   -3.3527214   -1.7853886   0.13660271   -3.3527214    1.5673329   568029 
 5023000    1.3519392   -3.3535979   -1.7862015   0.14138852   -3.3535979    1.5673964   568059 
 5024000    1.3509233    -3.351131   -1.7849786   0.14155317    -3.351131    1.5661524   568083 
 5025000    1.3513809   -3.3522802   -1.7856634   0.14630426   -3.3522802    1.5666168   568107 
 5026000    1.3520012   -3.3536664   -1.7863884   0.14473125   -3.3536664     1.567278   568128 
 5027000     1.351373   -3.3535772   -1.7871157   0.13893508   -3.3535772    1.5664615   568160 
 5028000    1.3529283   -3.3547154   -1.7865366   0.14336576   -3.3547154    1.5681788   568191 
 5029000     1.351505   -3.3544537   -1.7880212   0.14166364   -3.3544537    1.5664325   568226 
 5030000    1.3514893   -3.3537902   -1.7874558   0.14302125   -3.3537902    1.5663344   568255 
 5031000    1.3518063   -3.3551179   -1.7885153   0.13613552   -3.3551179    1.5666026   568291 
 5032000    1.3520799   -3.3566047   -1.7897403   0.14276917   -3.3566047    1.5668644   568311 
 5033000    1.3529295   -3.3566164   -1.7888557   0.14013019   -3.3566164    1.5677607   568343 
 5034000    1.3522034   -3.3560838   -1.7892251   0.14174167   -3.3560838    1.5668587   568365 
 5035000    1.3515783    -3.354842   -1.7887793   0.14331271    -3.354842    1.5660627   568391 
 5036000    1.3522611   -3.3564015   -1.7896607   0.14268657   -3.3564015    1.5667408   568432 
 5037000    1.3503475    -3.355934   -1.7915094   0.14490779    -3.355934    1.5644246   568468 
 5038000    1.3496716   -3.3554278   -1.7918577   0.14767924   -3.3554278      1.56357   568494 
 5039000    1.3520536   -3.3575781   -1.7913395   0.13999159   -3.3575781    1.5662387   568527 
 5040000    1.3513061   -3.3573122   -1.7919972   0.14000614   -3.3573122     1.565315   568548 
 5041000    1.3519706   -3.3575682   -1.7915716    0.1376783   -3.3575682    1.5659965   568580 
 5042000    1.3510036   -3.3570942   -1.7923141   0.13784214   -3.3570942    1.5647801   568615 
 5043000    1.3532967    -3.358831   -1.7914665    0.1398293    -3.358831    1.5673645   568641 
 5044000    1.3512165   -3.3572713   -1.7924014   0.13987951   -3.3572713    1.5648699   568672 
 5045000    1.3502587     -3.35585   -1.7921911   0.13990839     -3.35585    1.5636588   568709 
 5046000    1.3531422   -3.3582026   -1.7912954   0.14293221   -3.3582026    1.5669072   568742 
 5047000    1.3532877   -3.3576543   -1.7906062   0.13571546   -3.3576543    1.5670481   568752 
 5048000    1.3541203   -3.3582102   -1.7902834   0.13118842   -3.3582102    1.5679267   568783 
 5049000    1.3529667   -3.3559946   -1.7894752    0.1443957   -3.3559946    1.5665194   568809 
 5050000    1.3538789   -3.3575635   -1.7900375   0.13837846   -3.3575635     1.567526   568827 
 5051000    1.3527217   -3.3575069   -1.7913813   0.14027262   -3.3575069    1.5661256   568849 
 5052000    1.3532762   -3.3581902   -1.7915079   0.13590875   -3.3581902    1.5666822   568880 
 5053000    1.3531566   -3.3572892   -1.7908088   0.14471974   -3.3572892    1.5664805   568903 
 5054000    1.3513694    -3.355614   -1.7912548   0.14220265    -3.355614    1.5643592   568922 
 5055000    1.3524905   -3.3567371   -1.7911516   0.13985753   -3.3567371    1.5655855   568948 
 5056000      1.35307   -3.3570797    -1.790906   0.14429099   -3.3570797    1.5661737   568978 
 5057000    1.3532532   -3.3571215   -1.7908045   0.13857622   -3.3571215     1.566317   569003 
 5058000    1.3549598   -3.3596892   -1.7914604   0.13362339   -3.3596892    1.5682288   569026 
 5059000    1.3531331   -3.3571993   -1.7911727   0.14072526   -3.3571993    1.5660266   569058 
 5060000    1.3518793   -3.3555504   -1.7910217   0.14434185   -3.3555504    1.5645287   569075 
 5061000    1.3522946   -3.3561939   -1.7912698   0.14186132   -3.3561939    1.5649241   569106 
 5062000    1.3540051   -3.3583801   -1.7915647    0.1357505   -3.3583801    1.5668154   569138 
 5063000    1.3539068   -3.3594034   -1.7927952    0.1406129   -3.3594034    1.5666082   569172 
 5064000    1.3526488    -3.357566   -1.7924493   0.14956136    -3.357566    1.5651167   569185 
 5065000    1.3543127   -3.3587361   -1.7917685   0.14479902   -3.3587361    1.5669677   569212 
 5066000    1.3544743   -3.3594506   -1.7923373   0.13812095   -3.3594506    1.5671134   569227 
 5067000     1.356516   -3.3610357   -1.7916732   0.13744625   -3.3610357    1.5693625   569268 
 5068000    1.3546147   -3.3588561   -1.7917593    0.1445619   -3.3588561    1.5670968   569292 
 5069000     1.355746   -3.3602134   -1.7919043   0.14047372   -3.3602134    1.5683091   569327 
 5070000    1.3548848   -3.3606096     -1.79336   0.14735405   -3.3606096    1.5672496   569350 
 5071000    1.3538428   -3.3591601   -1.7931791   0.14541753   -3.3591601     1.565981   569373 
 5072000    1.3554445   -3.3611183   -1.7933864   0.14097241   -3.3611183    1.5677319   569410 
 5073000    1.3551462   -3.3606334   -1.7933235   0.14418662   -3.3606334    1.5673098   569438 
 5074000    1.3545578   -3.3586572   -1.7920802   0.15017939   -3.3586572     1.566577   569457 
 5075000    1.3536485   -3.3598381    -1.794398   0.14474255   -3.3598381    1.5654401   569488 
 5076000    1.3538309   -3.3597511   -1.7941605   0.14382473   -3.3597511    1.5655905   569510 
 5077000    1.3521616    -3.358294   -1.7947025    0.1464139    -3.358294    1.5635915   569535 
 5078000    1.3542044   -3.3615418   -1.7957089    0.1396947   -3.3615418    1.5658328   569579 
 5079000    1.3547764   -3.3616813   -1.7952531   0.13110083   -3.3616813    1.5664282   569603 
 5080000    1.3539582   -3.3608636   -1.7954529   0.14338572   -3.3608636    1.5654107   569629 
 5081000    1.3508732   -3.3580587   -1.7962695   0.14345665   -3.3580587    1.5617891   569649 
 5082000    1.3535086   -3.3602618    -1.795511   0.13584995   -3.3602618    1.5647508   569680 
 5083000    1.3544176   -3.3602042    -1.794485   0.14197821   -3.3602042    1.5657192   569710 
 5084000    1.3535581   -3.3582906   -1.7936007   0.14451107   -3.3582906    1.5646899   569723 
 5085000    1.3539227    -3.359574   -1.7945203   0.13515503    -3.359574    1.5650537   569744 
 5086000    1.3543683   -3.3604629   -1.7949628   0.14529193   -3.3604629    1.5655001   569769 
 5087000    1.3556909   -3.3610792   -1.7941357    0.1415605   -3.3610792    1.5669436   569800 
 5088000    1.3556751   -3.3612389    -1.794396   0.14490377   -3.3612389    1.5668429   569830 
 5089000    1.3560628   -3.3622786   -1.7950509   0.13842075   -3.3622786    1.5672277   569853 
 5090000    1.3553828   -3.3623467   -1.7959763   0.13946186   -3.3623467    1.5663704   569879 
 5091000    1.3539152   -3.3598505   -1.7952367   0.14512694   -3.3598505    1.5646139   569901 
 5092000    1.3568172   -3.3635505   -1.7956518   0.14134531   -3.3635505    1.5678987   569926 
 5093000     1.355218   -3.3615552   -1.7956226   0.14101001   -3.3615552    1.5659326   569969 
 5094000    1.3566656    -3.363138     -1.79564   0.13840797    -3.363138     1.567498   570008 
 5095000    1.3566145   -3.3625751   -1.7951746   0.13892315   -3.3625751    1.5674005   570022 
 5096000    1.3553944   -3.3621004   -1.7961728   0.13827928   -3.3621004    1.5659276   570045 
 5097000    1.3566187   -3.3634117   -1.7960916   0.13649468   -3.3634117    1.5673201   570053 
 5098000    1.3560682    -3.362054   -1.7954799   0.14332345    -3.362054    1.5665742   570093 
 5099000    1.3554509   -3.3616221    -1.795805   0.14682046   -3.3616221    1.5658171   570109 
 5100000    1.3561764    -3.363876   -1.7972702   0.14281776    -3.363876    1.5666057   570127 
 5101000    1.3558474   -3.3638817   -1.7977413   0.14103949   -3.3638817    1.5661405   570158 
 5102000    1.3561365   -3.3635555   -1.7971717   0.14803273   -3.3635555    1.5663838   570191 
 5103000    1.3557051   -3.3630615   -1.7972638   0.14227715   -3.3630615    1.5657976   570223 
 5104000    1.3564184   -3.3640918   -1.7975527   0.14239366   -3.3640918    1.5665391   570253 
 5105000    1.3554555   -3.3626385   -1.7973049   0.14579729   -3.3626385    1.5653336   570287 
 5106000    1.3567361   -3.3643277   -1.7975865   0.14270328   -3.3643277    1.5667411   570313 
 5107000    1.3568987   -3.3641757   -1.7972853   0.13921732   -3.3641757    1.5668904   570327 
 5108000    1.3568661   -3.3646959    -1.797953    0.1428029   -3.3646959    1.5667429   570367 
 5109000    1.3563602   -3.3641648   -1.7980747   0.14073092   -3.3641648    1.5660901   570392 
 5110000    1.3562735   -3.3656575   -1.7997526   0.14572711   -3.3656575    1.5659049   570423 
 5111000    1.3553763   -3.3648392   -1.8000524   0.13860873   -3.3648392    1.5647868   570453 
 5112000    1.3567418   -3.3656033   -1.7992868   0.14244847   -3.3656033    1.5663165   570470 
 5113000    1.3561929   -3.3647889   -1.7991418   0.14341342   -3.3647889    1.5656471   570483 
 5114000    1.3567948   -3.3658496   -1.7995845   0.13501821   -3.3658496    1.5662652   570511 
 5115000     1.354658   -3.3641959   -1.8005016   0.13918109   -3.3641959    1.5636943   570549 
 5116000    1.3554464   -3.3641005   -1.7995566   0.14280566   -3.3641005     1.564544   570571 
 5117000    1.3569582   -3.3661348   -1.7999308   0.14019672   -3.3661348     1.566204   570602 
 5118000    1.3566172   -3.3652013   -1.7994348   0.14432999   -3.3652013    1.5657664   570618 
 5119000    1.3568235    -3.365074     -1.79916    0.1419031    -3.365074     1.565914   570651 
 5120000     1.356326    -3.364937   -1.7996492   0.14287437    -3.364937    1.5652878   570670 
 5121000    1.3563193   -3.3652355    -1.800046    0.1382183   -3.3652355    1.5651895   570703 
 5122000     1.355967   -3.3654475   -1.8007304   0.14019935   -3.3654475    1.5647171   570727 
 5123000    1.3561338   -3.3672754    -1.802448   0.13887103   -3.3672754    1.5648274   570757 
 5124000    1.3551563   -3.3653304   -1.8017022   0.14156917   -3.3653304    1.5636282   570783 
 5125000    1.3554271   -3.3658161   -1.8019495   0.14032106   -3.3658161    1.5638667   570810 
 5126000    1.3558636   -3.3653491   -1.8010747   0.14184606   -3.3653491    1.5642744   570845 
 5127000    1.3567941   -3.3663742   -1.8010976   0.14153916   -3.3663742    1.5652767   570871 
 5128000    1.3586588   -3.3689996   -1.8016266   0.14304652   -3.3689996    1.5673729   570891 
 5129000    1.3553933   -3.3654035   -1.8018771   0.14255757   -3.3654035    1.5635264   570920 
 5130000    1.3559733   -3.3659636   -1.8018614   0.14447875   -3.3659636    1.5641023   570954 
 5131000    1.3559134   -3.3661002   -1.8021464    0.1408571   -3.3661002    1.5639538   570983 
 5132000    1.3569146   -3.3681426   -1.8030834   0.13232502   -3.3681426    1.5650592   571001 
 5133000    1.3581264   -3.3692351   -1.8028358    0.1398484   -3.3692351    1.5663993   571022 
 5134000    1.3561173   -3.3675173   -1.8034955    0.1371687   -3.3675173    1.5640218   571044 
 5135000    1.3580839   -3.3703771   -1.8041475   0.13864645   -3.3703771    1.5662296   571066 
 5136000    1.3597446   -3.3720162   -1.8039345   0.14200146   -3.3720162    1.5680817   571089 
 5137000    1.3595724   -3.3715569   -1.8037561   0.14584222   -3.3715569    1.5678007   571119 
 5138000    1.3569249   -3.3692202   -1.8045464    0.1414434   -3.3692202    1.5646738   571146 
 5139000    1.3564081   -3.3686084   -1.8045771   0.14196939   -3.3686084    1.5640313   571163 
 5140000     1.357214   -3.3692904   -1.8044038   0.13768955   -3.3692904    1.5648866   571190 
 5141000    1.3564215   -3.3686374   -1.8047604   0.14111227   -3.3686374     1.563877   571225 
 5142000    1.3559745   -3.3680819   -1.8048051   0.13983585   -3.3680819    1.5632768   571256 
 5143000     1.357271    -3.371203   -1.8064808   0.13433182    -3.371203    1.5647222   571274 
 5144000    1.3554857   -3.3688037   -1.8062108   0.14521293   -3.3688037    1.5625929   571300 
 5145000     1.357676   -3.3700073   -1.8050017   0.13372508   -3.3700073    1.5650056   571341 
 5146000    1.3580282    -3.370726   -1.8053993   0.13852029    -3.370726    1.5653267   571372 
 5147000    1.3574845   -3.3703349   -1.8056979   0.14275615   -3.3703349    1.5646369   571395 
 5148000    1.3563722    -3.368765   -1.8054784   0.14113033    -3.368765    1.5632865   571420 
 5149000     1.357638    -3.370087    -1.805421   0.14599258    -3.370087     1.564666   571449 
 5150000    1.3581862   -3.3701556   -1.8049482   0.13999392   -3.3701556    1.5652074   571482 
 5151000    1.3568711   -3.3690977   -1.8055099   0.14394973   -3.3690977    1.5635879   571520 
 5152000    1.3581268   -3.3707956   -1.8058128   0.13803953   -3.3707956    1.5649828   571539 
 5153000    1.3576488   -3.3702905    -1.805916   0.14204441   -3.3702905    1.5643745   571560 
 5154000    1.3586281   -3.3717829   -1.8063484   0.14423201   -3.3717829    1.5654345   571585 
 5155000    1.3580663   -3.3705345   -1.8058321   0.14318084   -3.3705345    1.5647024   571616 
 5156000    1.3592664   -3.3720727   -1.8060644    0.1322236   -3.3720727    1.5660083   571644 
 5157000    1.3573183   -3.3695073    -1.805809   0.14165569   -3.3695073    1.5636983   571668 
 5158000    1.3586689   -3.3706339   -1.8054427   0.14595352   -3.3706339    1.5651913   571691 
 5159000      1.35953   -3.3715653   -1.8054616    0.1382944   -3.3715653    1.5661037   571720 
 5160000    1.3597425   -3.3718656   -1.8055883   0.14660086   -3.3718656    1.5662773   571746 
 5161000    1.3596021   -3.3725776   -1.8065606   0.14323466   -3.3725776     1.566017   571782 
 5162000    1.3589193   -3.3719705   -1.8068029    0.1466795   -3.3719705    1.5651676   571805 
 5163000    1.3583996   -3.3723674   -1.8078859    0.1450287   -3.3723674    1.5644815   571837 
 5164000    1.3577909   -3.3714873   -1.8077807   0.14177248   -3.3714873    1.5637066   571864 
 5165000     1.358098   -3.3721181   -1.8081345   0.14018611   -3.3721181    1.5639837   571892 
 5166000     1.358814   -3.3737322   -1.8090142    0.1337731   -3.3737322    1.5647179   571925 
 5167000    1.3584654   -3.3732815   -1.8090498   0.13498385   -3.3732815    1.5642317   571956 
 5168000    1.3577413   -3.3735559   -1.8102345   0.13820587   -3.3735559    1.5633214   571984 
 5169000    1.3577791   -3.3736319   -1.8103571   0.13910003   -3.3736319    1.5632748   572017 
 5170000    1.3578204   -3.3743411   -1.8110543   0.13865501   -3.3743411    1.5632868   572030 
 5171000    1.3577353   -3.3738002    -1.810677   0.13887806   -3.3738002    1.5631232   572054 
 5172000    1.3562928   -3.3722343   -1.8108181   0.14212597   -3.3722343    1.5614162   572071 
 5173000    1.3575503   -3.3731202   -1.8103493   0.14329019   -3.3731202    1.5627709   572105 
 5174000    1.3605087   -3.3761614   -1.8100588   0.13804193   -3.3761614    1.5661026   572132 
 5175000    1.3586884   -3.3743538   -1.8104422   0.13938587   -3.3743538    1.5639116   572167 
 5176000    1.3578396   -3.3742971   -1.8114363    0.1423525   -3.3742971    1.5628608   572194 
 5177000    1.3573433   -3.3731395     -1.81094   0.14711459   -3.3731395    1.5621995   572227 
 5178000    1.3584979   -3.3741586   -1.8107095   0.13988727   -3.3741586    1.5634492   572256 
 5179000    1.3588801   -3.3746684   -1.8108286   0.14590471   -3.3746684    1.5638398   572274 
 5180000    1.3584801   -3.3738498   -1.8105387    0.1410086   -3.3738498    1.5633111   572299 
 5181000    1.3589867   -3.3752334   -1.8114048   0.13899078   -3.3752334    1.5638286   572323 
 5182000    1.3581686   -3.3735298   -1.8107219   0.14140575   -3.3735298    1.5628079   572352 
 5183000    1.3582076    -3.373195   -1.8104076   0.13967404    -3.373195    1.5627873   572376 
 5184000    1.3597135   -3.3744494   -1.8100305    0.1413504   -3.3744494    1.5644189   572413 
 5185000    1.3578258   -3.3726991   -1.8105095   0.14827974   -3.3726991    1.5621897   572434 
 5186000    1.3575788   -3.3732603   -1.8113848   0.13693374   -3.3732603    1.5618755   572445 
 5187000    1.3585139   -3.3732555   -1.8103642   0.13568351   -3.3732555    1.5628913   572467 
 5188000    1.3601915   -3.3745409   -1.8098043   0.14651951   -3.3745409    1.5647366   572498 
 5189000    1.3607857   -3.3754478   -1.8100852   0.13750453   -3.3754478    1.5653626   572519 
 5190000    1.3611782   -3.3756345   -1.8098559   0.13834578   -3.3756345    1.5657787   572532 
 5191000    1.3596672   -3.3739289   -1.8100004   0.14250597   -3.3739289    1.5639284   572573 
 5192000    1.3602061   -3.3755695   -1.8111085    0.1432579   -3.3755695    1.5644609   572605 
 5193000    1.3593331   -3.3734047    -1.810027    0.1465427   -3.3734047    1.5633776   572634 
 5194000    1.3594276   -3.3750533   -1.8116189    0.1419984   -3.3750533    1.5634344   572653 
 5195000    1.3622354   -3.3771787   -1.8105725   0.14004296   -3.3771787    1.5666062   572674 
 5196000    1.3604071   -3.3752241   -1.8107642   0.14185324   -3.3752241    1.5644598   572690 
 5197000    1.3624328    -3.376571   -1.8098446   0.14145463    -3.376571    1.5667264   572713 
 5198000    1.3587777   -3.3744023   -1.8119117   0.14826067   -3.3744023    1.5624906   572725 
 5199000    1.3604169   -3.3763218   -1.8119873   0.14680576   -3.3763218    1.5643345   572740 
 5200000    1.3603986   -3.3762844   -1.8120719   0.14218223   -3.3762844    1.5642124   572777 
 5201000    1.3614786    -3.376794    -1.811389   0.14760581    -3.376794     1.565405   572795 
 5202000    1.3605924   -3.3757916   -1.8114682   0.14440001   -3.3757916    1.5643233   572818 
 5203000    1.3624425   -3.3776027   -1.8112534   0.13824788   -3.3776027    1.5663493   572855 
 5204000    1.3634788   -3.3779394   -1.8104534   0.14130425   -3.3779394    1.5674859   572875 
 5205000    1.3606469    -3.374982   -1.8108199   0.14659624    -3.374982     1.564162   572900 
 5206000     1.361975   -3.3776679   -1.8120282   0.14514397   -3.3776679    1.5656397   572918 
 5207000    1.3612466    -3.377377   -1.8126484   0.14252416    -3.377377    1.5647286   572945 
 5208000    1.3622138   -3.3780092   -1.8122345   0.13840399   -3.3780092    1.5657747   572969 
 5209000    1.3613394   -3.3772062   -1.8124993   0.14082744   -3.3772062    1.5647068   572992 
 5210000    1.3597686   -3.3761165   -1.8132832   0.14795264   -3.3761165    1.5628333   573017 
 5211000    1.3601861   -3.3777401   -1.8144952   0.13612681   -3.3777401    1.5632448   573042 
 5212000    1.3580458   -3.3756543   -1.8149509   0.14630388   -3.3756543    1.5607034   573072 
 5213000      1.35901   -3.3771818   -1.8154331   0.13855958   -3.3771818    1.5617488   573095 
 5214000    1.3596242   -3.3777142   -1.8153414   0.14057819   -3.3777142    1.5623728   573125 
 5215000    1.3603385   -3.3785529    -1.815463   0.13836163   -3.3785529    1.5630899   573163 
 5216000    1.3612247   -3.3790666   -1.8149829   0.13882507   -3.3790666    1.5640836   573172 
 5217000    1.3601571   -3.3774778   -1.8146808   0.14134172   -3.3774778     1.562797   573194 
 5218000    1.3616466   -3.3790714   -1.8146203   0.13859897   -3.3790714    1.5644511   573215 
 5219000    1.3606401   -3.3775732   -1.8143658     0.140482   -3.3775732    1.5632074   573247 
 5220000    1.3615976   -3.3792701   -1.8150227    0.1417884   -3.3792701    1.5642474   573269 
 5221000    1.3628762   -3.3806079   -1.8149653   0.14082048   -3.3806079    1.5656425   573296 
 5222000    1.3608609   -3.3778676   -1.8146001   0.14448564   -3.3778676    1.5632674   573318 
 5223000    1.3623414   -3.3786636   -1.8137309   0.14714123   -3.3786636    1.5649327   573331 
 5224000    1.3612859   -3.3792391   -1.8155952    0.1444617   -3.3792391    1.5636439   573359 
 5225000     1.361924    -3.380038   -1.8157212   0.14286942    -3.380038    1.5643168   573381 
 5226000    1.3623993   -3.3798156   -1.8150074   0.14519485   -3.3798156    1.5648081   573401 
 5227000    1.3629811    -3.380809   -1.8154118   0.14446284    -3.380809    1.5653972   573430 
 5228000    1.3616046   -3.3797848   -1.8160613   0.14503353   -3.3797848    1.5637235   573464 
 5229000    1.3623874   -3.3800464   -1.8154757   0.14789777   -3.3800464    1.5645707   573483 
 5230000     1.362888   -3.3797653   -1.8146988   0.14365338   -3.3797653    1.5650665   573512 
 5231000     1.363047   -3.3810115   -1.8158579   0.14407307   -3.3810115    1.5651535   573547 
 5232000    1.3618785   -3.3804825   -1.8167226   0.14623607   -3.3804825      1.56376   573566 
 5233000    1.3623853    -3.381503   -1.8171992   0.13879159    -3.381503    1.5643037   573580 
 5234000    1.3634441   -3.3829174   -1.8174826   0.13825542   -3.3829174    1.5654348   573611 
 5235000      1.36194   -3.3807049   -1.8170925   0.14088422   -3.3807049    1.5636125   573646 
 5236000     1.361773   -3.3802997   -1.8169198   0.14527641   -3.3802997    1.5633799   573661 
 5237000    1.3604219   -3.3797411   -1.8179995   0.14507287   -3.3797411    1.5617416   573693 
 5238000    1.3617427   -3.3804709   -1.8173137   0.14524093   -3.3804709    1.5631571   573730 
 5239000    1.3623574   -3.3807291     -1.81691   0.14502496   -3.3807291    1.5638191   573746 
 5240000    1.3635934   -3.3827385   -1.8175879   0.13870423   -3.3827385    1.5651506   573778 
 5241000    1.3629712   -3.3806453   -1.8162525    0.1409356   -3.3806453    1.5643928   573794 
 5242000    1.3608377   -3.3795157   -1.8176343   0.14364576   -3.3795157    1.5618814   573817 
 5243000    1.3623315   -3.3806253    -1.817103   0.14621199   -3.3806253    1.5635223   573844 
 5244000    1.3630977   -3.3819952   -1.8176835   0.14132019   -3.3819952    1.5643118   573877 
 5245000    1.3631747   -3.3816898   -1.8173442   0.14340534   -3.3816898    1.5643456   573897 
 5246000    1.3644692   -3.3833474   -1.8175327   0.14327655   -3.3833474    1.5658147   573903 
 5247000    1.3621271   -3.3811363   -1.8180393   0.14454766   -3.3811363     1.563097   573914 
 5248000    1.3613589   -3.3802474   -1.8180945   0.14502588   -3.3802474     1.562153   573937 
 5249000    1.3641497   -3.3834145   -1.8181356    0.1402097   -3.3834145    1.5652789   573965 
 5250000    1.3621725   -3.3812867   -1.8183254    0.1452592   -3.3812867    1.5629612   573983 
 5251000    1.3617609   -3.3820057   -1.8195957   0.13818488   -3.3820057    1.5624101   574012 
 5252000    1.3621432   -3.3816693   -1.8189322   0.14661091   -3.3816693     1.562737   574053 
 5253000    1.3630826   -3.3824688   -1.8187248   0.14459634   -3.3824688     1.563744   574079 
 5254000    1.3632207   -3.3815197   -1.8177044   0.14716705   -3.3815197    1.5638152   574111 
 5255000     1.363991   -3.3825257   -1.8178732   0.14623493   -3.3825257    1.5646525   574128 
 5256000    1.3623689   -3.3813598   -1.8186197   0.14603549   -3.3813598    1.5627401   574147 
 5257000    1.3629046   -3.3816426   -1.8183398    0.1408173   -3.3816426    1.5633028   574166 
 5258000    1.3649645   -3.3841416   -1.8185415   0.14039594   -3.3841416    1.5656002   574190 
 5259000    1.3638642    -3.383231   -1.8190099   0.14322808    -3.383231     1.564221   574233 
 5260000    1.3634198   -3.3830246   -1.8193759   0.14577052   -3.3830246    1.5636487   574256 
 5261000    1.3623762   -3.3823825   -1.8200204   0.13983733   -3.3823825    1.5623621   574289 
 5262000      1.36488   -3.3840445   -1.8188548    0.1397656   -3.3840445    1.5651897   574305 
 5263000    1.3650041   -3.3848102   -1.8195681   0.14125827   -3.3848102    1.5652421   574338 
 5264000    1.3633305   -3.3833642   -1.8201282   0.14814405   -3.3833642     1.563236   574370 
 5265000    1.3639031     -3.38349   -1.8196574   0.14639938     -3.38349    1.5638326   574392 
 5266000    1.3645042   -3.3843191   -1.8198354   0.14639989   -3.3843191    1.5644837   574406 
 5267000     1.364519   -3.3839188   -1.8194618   0.14727354   -3.3839188     1.564457   574422 
 5268000    1.3652685   -3.3851133   -1.8198513   0.13977341   -3.3851133     1.565262   574442 
 5269000    1.3638517   -3.3839567   -1.8203791   0.14459613   -3.3839567    1.5635777   574464 
 5270000    1.3651711   -3.3842578   -1.8192547   0.14702943   -3.3842578    1.5650031   574496 
 5271000    1.3659825   -3.3851812   -1.8193325   0.14189541   -3.3851812    1.5658488   574527 
 5272000    1.3653151   -3.3844315   -1.8193804   0.15008112   -3.3844315    1.5650511   574539 
 5273000    1.3654421    -3.384333   -1.8192153   0.14421538    -3.384333    1.5651177   574568 
 5274000    1.3651533    -3.384792   -1.8200953   0.14738588    -3.384792    1.5646967   574601 
 5275000    1.3646517   -3.3853613   -1.8213103   0.15007022   -3.3853613     1.564051   574627 
 5276000    1.3646539   -3.3854294   -1.8214222   0.14935763   -3.3854294    1.5640072   574644 
 5277000    1.3654805   -3.3865977   -1.8217439   0.13934094   -3.3865977    1.5648539   574681 
 5278000     1.364471    -3.384964   -1.8213323   0.15275941    -3.384964    1.5636317   574705 
 5279000    1.3657725   -3.3870463   -1.8219776    0.1427765   -3.3870463    1.5650687   574725 
 5280000    1.3655518   -3.3872714   -1.8225428   0.14261279   -3.3872714    1.5647286   574757 
 5281000    1.3652917   -3.3864307   -1.8220627   0.14641044   -3.3864307     1.564368   574780 
 5282000    1.3661965   -3.3868266   -1.8214926   0.14128461   -3.3868266     1.565334   574806 
 5283000    1.3677369   -3.3887064   -1.8216839   0.14891524   -3.3887064    1.5670225   574834 
 5284000    1.3641789   -3.3861006   -1.8232415   0.15066799   -3.3861006    1.5628591   574866 
 5285000    1.3638773   -3.3860262   -1.8235968   0.14980775   -3.3860262    1.5624294   574897 
 5286000    1.3662181   -3.3881431   -1.8231002   0.14296631   -3.3881431    1.5650429   574922 
 5287000     1.366734   -3.3889162    -1.823345   0.14141477   -3.3889162    1.5655712   574945 
 5288000      1.36621   -3.3886722   -1.8237938   0.14840317   -3.3886722    1.5648785   574979 
 5289000     1.365733   -3.3878744    -1.823594     0.146007   -3.3878744    1.5642804   574998 
 5290000    1.3659279   -3.3872388   -1.8228113   0.15236268   -3.3872388    1.5644275   575026 
 5291000    1.3656803   -3.3861601   -1.8220923   0.14840982   -3.3861601    1.5640677   575054 
 5292000    1.3668835   -3.3889368   -1.8235292   0.14431297   -3.3889368    1.5654076   575068 
 5293000    1.3649859   -3.3874864   -1.8243145   0.14732344   -3.3874864    1.5631718   575091 
 5294000    1.3651485   -3.3876942   -1.8244122    0.1468765   -3.3876942    1.5632819   575119 
 5295000    1.3658328    -3.387844   -1.8238138   0.14174928    -3.387844    1.5640302   575132 
 5296000     1.366289   -3.3887562   -1.8242634   0.14267982   -3.3887562    1.5644928   575154 
 5297000    1.3677387   -3.3890705    -1.822983   0.13996142   -3.3890705    1.5660875   575178 
 5298000    1.3667319   -3.3881064   -1.8232399   0.14276859   -3.3881064    1.5648665   575203 
 5299000    1.3669272   -3.3895325   -1.8245266   0.14527726   -3.3895325    1.5650058   575234 
 5300000    1.3645337   -3.3858474   -1.8236443   0.14887839   -3.3858474    1.5622031   575257 
 5301000    1.3666011   -3.3876399   -1.8231434   0.14608399   -3.3876399    1.5644965   575284 
 5302000    1.3668893   -3.3882988   -1.8235567   0.14546836   -3.3882988    1.5647421   575315 
 5303000    1.3649606   -3.3860513   -1.8235687   0.14354625   -3.3860513    1.5624826   575334 
 5304000    1.3663272   -3.3880031   -1.8240404    0.1381803   -3.3880031    1.5639628   575365 
 5305000    1.3654064   -3.3863976   -1.8235541   0.14270651   -3.3863976    1.5628435   575389 
 5306000    1.3663558   -3.3870706   -1.8231893   0.14434993   -3.3870706    1.5638813   575407 
 5307000    1.3663622   -3.3884145   -1.8245775   0.14441005   -3.3884145     1.563837   575426 
 5308000    1.3665993   -3.3883018   -1.8242343   0.14299998   -3.3883018    1.5640676   575441 
 5309000    1.3650915   -3.3870329   -1.8247723   0.14816587   -3.3870329    1.5622605   575471 
 5310000    1.3661551   -3.3871484   -1.8237196   0.14480273   -3.3871484    1.5634288   575489 
 5311000    1.3662362   -3.3871151   -1.8236505   0.14378521   -3.3871151    1.5634646   575510 
 5312000    1.3674637   -3.3884674   -1.8236526   0.14289627   -3.3884674    1.5648148   575530 
 5313000    1.3690668    -3.390129   -1.8235423    0.1395603    -3.390129    1.5665867   575553 
 5314000    1.3679503   -3.3886528   -1.8233872   0.14812156   -3.3886528    1.5652657   575569 
 5315000    1.3672786   -3.3891916   -1.8247571   0.14536142   -3.3891916    1.5644345   575592 
 5316000     1.366184   -3.3878018   -1.8246931   0.15150469   -3.3878018    1.5631088   575619 
 5317000    1.3665409   -3.3886701   -1.8252236   0.14893539   -3.3886701    1.5634465   575645 
 5318000    1.3697657    -3.391628   -1.8246091   0.14485966    -3.391628    1.5670189   575688 
 5319000      1.36793   -3.3908856   -1.8260781   0.14315159   -3.3908856    1.5648075   575729 
 5320000    1.3667141   -3.3894168   -1.8260709   0.14841254   -3.3894168     1.563346   575755 
 5321000      1.36697    -3.389254   -1.8256913   0.14427803    -3.389254    1.5635626   575783 
 5322000    1.3678456   -3.3901967   -1.8257385   0.14175205   -3.3901967    1.5644582   575822 
 5323000    1.3667163   -3.3896117   -1.8264696   0.14705149   -3.3896117    1.5631421   575831 
 5324000    1.3681967   -3.3907993   -1.8259831   0.14634176   -3.3907993    1.5648163   575838 
 5325000    1.3682702   -3.3899515   -1.8250484   0.14815254   -3.3899515     1.564903   575837 
 5326000    1.3670808   -3.3898681   -1.8263742   0.14231479   -3.3898681    1.5634939   575855 
 5327000    1.3680243   -3.3907553   -1.8262531   0.14860115   -3.3907553    1.5645022   575881 
 5328000    1.3668591    -3.389712    -1.826621   0.14562659    -3.389712     1.563091   575910 
 5329000    1.3676328   -3.3908114   -1.8269172   0.14025134   -3.3908114    1.5638943   575940 
 5330000    1.3660525   -3.3897297   -1.8276994   0.14217928   -3.3897297    1.5620303   575961 
 5331000    1.3687485   -3.3927579   -1.8276748   0.14014708   -3.3927579    1.5650831   575972 
 5332000    1.3662248    -3.389399   -1.8272775   0.14909057    -3.389399    1.5621215   576000 
 5333000    1.3674066   -3.3899248   -1.8265199   0.14485147   -3.3899248    1.5634049   576025 
 5334000    1.3683757   -3.3901957   -1.8257724   0.14380358   -3.3901957    1.5644233   576058 
 5335000    1.3670259   -3.3899314   -1.8271001   0.14189557   -3.3899314    1.5628313   576076 
 5336000    1.3670951   -3.3906171   -1.8277474   0.14354795   -3.3906171    1.5628697   576091 
 5337000    1.3674521   -3.3907003   -1.8274931   0.14617971   -3.3907003    1.5632073   576117 
 5338000    1.3684888   -3.3911514   -1.8268215   0.14523134   -3.3911514      1.56433   576140 
 5339000    1.3687187   -3.3921328   -1.8275835   0.14713932   -3.3921328    1.5645493   576156 
 5340000    1.3677781   -3.3931807   -1.8297771   0.13868035   -3.3931807    1.5634036   576182 
 5341000    1.3673955   -3.3926352   -1.8297341    0.1435126   -3.3926352    1.5629011   576206 
 5342000    1.3679236   -3.3940924    -1.830642    0.1419869   -3.3940924    1.5634505   576226 
 5343000     1.368523   -3.3948227    -1.830812   0.14979623   -3.3948227    1.5640107   576272 
 5344000    1.3677835   -3.3940277   -1.8309056    0.1434076   -3.3940277    1.5631221   576288 
 5345000    1.3673158    -3.394336   -1.8317863   0.14678711    -3.394336    1.5625497   576302 
 5346000    1.3684585   -3.3950307   -1.8312538   0.14652988   -3.3950307    1.5637769   576331 
 5347000    1.3677399   -3.3957392   -1.8328486   0.13977794   -3.3957392    1.5628906   576355 
 5348000    1.3662043   -3.3937509   -1.8326962   0.15054282   -3.3937509    1.5610547   576385 
 5349000    1.3657782   -3.3934357   -1.8329355   0.15090173   -3.3934357    1.5605001   576410 
 5350000    1.3662367   -3.3945514   -1.8335843   0.14647211   -3.3945514    1.5609671   576431 
 5351000    1.3660929   -3.3939023   -1.8331266   0.15323622   -3.3939023    1.5607758   576441 
 5352000    1.3683743   -3.3963389       -1.833   0.14426462   -3.3963389    1.5633389   576457 
 5353000    1.3670351   -3.3961551   -1.8343977   0.14178154   -3.3961551    1.5617574   576476 
 5354000    1.3671304   -3.3962899   -1.8344805   0.13814555   -3.3962899    1.5618094   576497 
 5355000    1.3670192     -3.39695   -1.8353219     0.139189     -3.39695    1.5616282   576517 
 5356000    1.3648295   -3.3945055   -1.8354518   0.14774246   -3.3945055    1.5590537   576544 
 5357000    1.3658615   -3.3959379   -1.8358028   0.14249074   -3.3959379    1.5601352   576580 
 5358000    1.3673791   -3.3978788   -1.8360617    0.1442846   -3.3978788    1.5618171   576599 
 5359000    1.3664005   -3.3962167   -1.8355687   0.14122445   -3.3962167     1.560648   576618 
 5360000    1.3658225   -3.3964272   -1.8365151   0.14004854   -3.3964272     1.559912   576646 
 5361000    1.3651608   -3.3953407   -1.8362169   0.14463667   -3.3953407    1.5591239   576658 
 5362000    1.3659573   -3.3959097   -1.8359708   0.13830722   -3.3959097    1.5599388   576693 
 5363000    1.3659266   -3.3956649   -1.8358423   0.14324703   -3.3956649    1.5598226   576723 
 5364000    1.3672063   -3.3974723   -1.8362587   0.14965438   -3.3974723    1.5612137   576749 
 5365000    1.3681899    -3.397385   -1.8351187   0.14304202    -3.397385    1.5622663   576775 
 5366000    1.3675457    -3.397577   -1.8360976   0.15040068    -3.397577    1.5614794   576794 
 5367000    1.3685105   -3.3978929   -1.8354094   0.14589977   -3.3978929    1.5624834   576830 
 5368000    1.3672191   -3.3970372   -1.8360768   0.14244256   -3.3970372    1.5609603   576848 
 5369000    1.3679185   -3.3972717   -1.8355562   0.15079624   -3.3972717    1.5617155   576864 
 5370000    1.3683774   -3.3979167   -1.8357585   0.14637352   -3.3979167    1.5621582   576894 
 5371000    1.3691311   -3.3963633   -1.8333989   0.14483784   -3.3963633    1.5629644   576914 
 5372000    1.3696817    -3.397876   -1.8343726   0.14327902    -3.397876    1.5635035   576947 
 5373000    1.3668594   -3.3952776   -1.8350445   0.15022053   -3.3952776    1.5602332   576965 
 5374000     1.367771   -3.3968985   -1.8356437    0.1411957   -3.3968985    1.5612548   576972 
 5375000    1.3661584   -3.3953103   -1.8359205   0.14827156   -3.3953103    1.5593898   576981 
 5376000    1.3672275   -3.3976508    -1.837103   0.14111937   -3.3976508    1.5605478   577004 
 5377000    1.3680937   -3.3991215   -1.8376878   0.14042813   -3.3991215    1.5614337   577042 
 5378000    1.3686642   -3.3982689    -1.836249   0.14324187   -3.3982689    1.5620199   577066 
 5379000    1.3691072   -3.3983601   -1.8359131   0.14618911   -3.3983601     1.562447   577095 
 5380000    1.3684019   -3.3977976   -1.8361935   0.14679235   -3.3977976    1.5616041   577109 
 5381000    1.3679335   -3.3972019    -1.836154   0.14656917   -3.3972019    1.5610479   577117 
 5382000    1.3695107   -3.3987845   -1.8359853   0.13930512   -3.3987845    1.5627991   577135 
 5383000    1.3683753   -3.3976134   -1.8361803   0.15180777   -3.3976134    1.5614331   577161 
 5384000    1.3673287   -3.3971836   -1.8370123   0.14188436   -3.3971836    1.5601713   577186 
 5385000    1.3666346    -3.397115   -1.8378087   0.14493397    -3.397115    1.5593063   577213 
 5386000    1.3685892   -3.3995227   -1.8380295   0.13881944   -3.3995227    1.5614932   577229 
 5387000    1.3671164   -3.3971471   -1.8374181   0.14316628   -3.3971471     1.559729   577260 
 5388000    1.3677978   -3.3985977   -1.8381427   0.13745666   -3.3985977    1.5604551   577279 
 5389000     1.368537    -3.399052   -1.8378455   0.14835763    -3.399052    1.5612065   577313 
 5390000    1.3673128   -3.3967601   -1.8370339   0.14533409   -3.3967601    1.5597262   577344 
 5391000     1.368781   -3.3990511   -1.8377069   0.14288786   -3.3990511    1.5613441   577365 
 5392000    1.3688747   -3.3995216   -1.8381245   0.14121925   -3.3995216     1.561397   577385 
 5393000    1.3710068   -3.4020153   -1.8382568   0.13922635   -3.4020153    1.5637586   577411 
 5394000    1.3697729    -3.400516   -1.8381865   0.14041975    -3.400516    1.5623295   577419 
 5395000    1.3689535   -3.3988902   -1.8375629   0.14549734   -3.3988902    1.5613274   577444 
 5396000    1.3706861   -3.4006521   -1.8374083   0.14698444   -3.4006521    1.5632438   577466 
 5397000    1.3671168   -3.3970987   -1.8379769   0.14691642   -3.3970987    1.5591218   577485 
 5398000    1.3666566    -3.398139   -1.8396015   0.14134221    -3.398139    1.5585375   577507 
 5399000    1.3664143   -3.3992223   -1.8410393   0.14367415   -3.3992223     1.558183   577536 
 5400000    1.3677859   -3.4000288   -1.8403411   0.14065354   -3.4000288    1.5596877   577558 
 5401000    1.3666908   -3.3989861   -1.8405903   0.14388016   -3.3989861    1.5583958   577574 
 5402000    1.3690635   -3.4015584   -1.8405193   0.13932341   -3.4015584    1.5610391   577597 
 5403000    1.3677421   -3.4007281   -1.8412577    0.1403486   -3.4007281    1.5594704   577620 
 5404000    1.3686115   -3.4010204   -1.8406101   0.14007684   -3.4010204    1.5604104   577639 
 5405000     1.368108   -3.4004241   -1.8406419   0.14567297   -3.4004241    1.5597822   577659 
 5406000    1.3669745   -3.4004591   -1.8420447   0.13514863   -3.4004591    1.5584144   577687 
 5407000    1.3678711   -3.4004671   -1.8411251   0.13750243   -3.4004671    1.5593421   577722 
 5408000    1.3668442   -3.3992031   -1.8411234   0.15046364   -3.3992031    1.5580797   577756 
 5409000    1.3698081   -3.4015291   -1.8401384   0.13941213   -3.4015291    1.5613907   577781 
 5410000    1.3689181   -3.4013382   -1.8410322   0.14105775   -3.4013382     1.560306   577807 
 5411000    1.3707236   -3.4024815   -1.8402094   0.14634478   -3.4024815    1.5622721   577841 
 5412000    1.3722942   -3.4015794    -1.837566   0.14651938   -3.4015794    1.5640135   577859 
 5413000    1.3696219   -3.3995012   -1.8385929   0.15315269   -3.3995012    1.5609083   577881 
 5414000    1.3707074   -3.4006347   -1.8385433   0.14286807   -3.4006347    1.5620914   577901 
 5415000    1.3709686   -3.4006291   -1.8383157   0.15085612   -3.4006291    1.5623134   577929 
 5416000    1.3701075   -3.4017527   -1.8404342   0.15154087   -3.4017527    1.5613185   577934 
 5417000     1.369372   -3.4018716   -1.8414343   0.14492498   -3.4018716    1.5604373   577950 
 5418000    1.3681641   -3.4016275   -1.8426261    0.1508934   -3.4016275    1.5590014   577972 
 5419000    1.3681371   -3.4014331   -1.8425486   0.15205025   -3.4014331    1.5588844   578004 
 5420000     1.365828   -3.4004118   -1.8442043   0.15064987   -3.4004118    1.5562076   578021 
 5421000    1.3688567   -3.4039406   -1.8443119   0.14778268   -3.4039406    1.5596287   578032 
 5422000    1.3686451   -3.4033781   -1.8440254   0.14834886   -3.4033781    1.5593527   578045 
 5423000    1.3670731   -3.4020197   -1.8445739   0.14644663   -3.4020197    1.5574458   578088 
 5424000    1.3679756   -3.4023919   -1.8439638   0.14202501   -3.4023919    1.5584281   578105 
 5425000    1.3683971   -3.4044089   -1.8455627   0.13820399   -3.4044089    1.5588462   578128 
 5426000    1.3670272   -3.4032017   -1.8459834   0.14212607   -3.4032017    1.5572183   578153 
 5427000    1.3677954   -3.4026691   -1.8446484   0.14444964   -3.4026691    1.5580207   578180 
 5428000    1.3693747   -3.4038757   -1.8441235   0.14210292   -3.4038757    1.5597522   578205 
 5429000    1.3692639   -3.4034693   -1.8439108   0.14933738   -3.4034693    1.5595585   578230 
 5430000    1.3692571   -3.4038922   -1.8444223   0.14284435   -3.4038922    1.5594699   578260 
 5431000    1.3712652   -3.4067828   -1.8450773   0.13948787   -3.4067828    1.5617055   578279 
 5432000     1.369196   -3.4044148   -1.8451035   0.14541219   -3.4044148    1.5593113   578293 
 5433000    1.3681541   -3.4022933   -1.8442333   0.14834262   -3.4022933    1.5580601   578317 
 5434000    1.3713628   -3.4059097   -1.8442793   0.14078035   -3.4059097    1.5616304   578348 
 5435000    1.3689455   -3.4038852   -1.8450425   0.14548764   -3.4038852    1.5588427   578361 
 5436000    1.3693087   -3.4051547    -1.845955   0.14149593   -3.4051547    1.5591997   578382 
 5437000    1.3703692   -3.4058266   -1.8454815   0.14328532   -3.4058266    1.5603451   578405 
 5438000     1.368372     -3.40399   -1.8459647   0.14503822     -3.40399    1.5580253   578422 
 5439000    1.3717158   -3.4070953   -1.8453329   0.14096161   -3.4070953    1.5617623   578448 
 5440000    1.3679766   -3.4029131   -1.8454457   0.14933908   -3.4029131    1.5574674   578462 
 5441000    1.3703466    -3.404839   -1.8447974   0.14873325    -3.404839    1.5600416   578508 
 5442000    1.3706952   -3.4051615   -1.8447959   0.14288459   -3.4051615    1.5603656   578535 
 5443000    1.3720514   -3.4059589   -1.8441034   0.14825433   -3.4059589    1.5618555   578555 
 5444000    1.3716684   -3.4052475   -1.8438792   0.14945897   -3.4052475    1.5613683   578574 
 5445000    1.3731187   -3.4070651   -1.8440837   0.14098212   -3.4070651    1.5629813   578588 
 5446000    1.3719149   -3.4051474   -1.8435849   0.14183457   -3.4051474    1.5615625   578606 
 5447000    1.3723313   -3.4057417   -1.8437781   0.14554235   -3.4057417    1.5619636   578633 
 5448000     1.371337   -3.4051028   -1.8443114   0.14205477   -3.4051028    1.5607914   578648 
 5449000    1.3726172   -3.4065505   -1.8443965   0.14478025   -3.4065505     1.562154   578683 
 5450000    1.3718216   -3.4062072   -1.8450073   0.14512667   -3.4062072    1.5611999   578701 
 5451000    1.3711524   -3.4059652   -1.8455538   0.14713867   -3.4059652    1.5604115   578711 
 5452000    1.3709227   -3.4059007   -1.8458369    0.1484662   -3.4059007    1.5600638   578743 
 5453000    1.3703468    -3.405972   -1.8466147   0.14558355    -3.405972    1.5593572   578762 
 5454000    1.3707102   -3.4064878    -1.846771    0.1463282   -3.4064878    1.5597169   578782 
 5455000    1.3720919    -3.407944   -1.8467116   0.14356896    -3.407944    1.5612324   578803 
 5456000    1.3720011   -3.4076974   -1.8465925   0.14455275   -3.4076974    1.5611049   578812 
 5457000    1.3697639   -3.4047766   -1.8462819   0.14942607   -3.4047766    1.5584947   578836 
 5458000    1.3715969   -3.4052904    -1.844756   0.15088855   -3.4052904    1.5605344   578853 
 5459000    1.3719032   -3.4065665   -1.8457079   0.15092817   -3.4065665    1.5608586   578862 
 5460000    1.3735379   -3.4079627   -1.8453199   0.14625417   -3.4079627    1.5626428   578890 
 5461000    1.3728023   -3.4076727   -1.8459368   0.14958362   -3.4076727    1.5617358   578916 
 5462000    1.3721661   -3.4091824   -1.8482431   0.13792639   -3.4091824    1.5609393   578943 
 5463000    1.3715367   -3.4076981   -1.8475233   0.14551703   -3.4076981    1.5601748   578961 
 5464000    1.3712149   -3.4072649   -1.8475128   0.14244502   -3.4072649    1.5597521   578982 
 5465000    1.3694089    -3.405681   -1.8480451   0.14812524    -3.405681    1.5576359   579005 
 5466000    1.3703431    -3.406918   -1.8482949   0.14752062    -3.406918    1.5586232   579033 
 5467000    1.3710695   -3.4075724   -1.8481634   0.14468111   -3.4075724     1.559409   579048 
 5468000    1.3718623   -3.4082833   -1.8479995   0.14094086   -3.4082833    1.5602837   579058 
 5469000    1.3698526   -3.4068148   -1.8488679   0.14639376   -3.4068148    1.5579469   579077 
 5470000    1.3714522   -3.4106051    -1.850882   0.13638332   -3.4106051    1.5597231   579093 
 5471000    1.3706906   -3.4086214   -1.8498453   0.14650884   -3.4086214    1.5587761   579123 
 5472000    1.3711718   -3.4090365    -1.849829   0.14041375   -3.4090365    1.5592076   579166 
 5473000     1.372541   -3.4095541   -1.8488569   0.14738651   -3.4095541    1.5606972   579191 
 5474000    1.3720476    -3.409423   -1.8493595   0.14343238    -3.409423    1.5600635   579218 
 5475000    1.3715263   -3.4085245   -1.8490968   0.14275497   -3.4085245    1.5594277   579234 
 5476000    1.3714092    -3.408945    -1.849699   0.14194312    -3.408945     1.559246   579252 
 5477000    1.3731331   -3.4103178   -1.8491656   0.14056072   -3.4103178    1.5611522   579272 
 5478000    1.3717681   -3.4082208   -1.8486852   0.14120359   -3.4082208    1.5595356   579296 
 5479000    1.3725743   -3.4094065   -1.8490297    0.1484521   -3.4094065    1.5603768   579324 
 5480000     1.373089   -3.4091994   -1.8483237   0.14497079   -3.4091994    1.5608757   579356 
 5481000    1.3721836   -3.4074605   -1.8476356   0.15053882   -3.4074605    1.5598249   579364 
 5482000    1.3722134    -3.408127   -1.8483437   0.14526367    -3.408127    1.5597833   579392 
 5483000    1.3724684   -3.4083608   -1.8483791    0.1500283   -3.4083608    1.5599818   579426 
 5484000    1.3732923   -3.4102864   -1.8494571    0.1415283   -3.4102864    1.5608293   579459 
 5485000    1.3728497   -3.4091567   -1.8488628     0.144028   -3.4091567     1.560294   579471 
 5486000    1.3717822   -3.4091849   -1.8501446   0.14505138   -3.4091849    1.5590403   579486 
 5487000    1.3723355   -3.4102935   -1.8506917   0.14235797   -3.4102935    1.5596019   579511 
 5488000    1.3725966   -3.4105296   -1.8506875    0.1435678   -3.4105296    1.5598421   579532 
 5489000    1.3702594   -3.4088283   -1.8517551   0.14129305   -3.4088283    1.5570731   579574 
 5490000    1.3724886   -3.4101963   -1.8506519   0.14816664   -3.4101963    1.5595444   579597 
 5491000    1.3722008   -3.4098477   -1.8506922   0.14300341   -3.4098477    1.5591555   579620 
 5492000    1.3729112   -3.4107726   -1.8508906   0.15009634   -3.4107726     1.559882   579650 
 5493000    1.3720179   -3.4105032   -1.8517033   0.13804633   -3.4105032    1.5587998   579675 
 5494000     1.369201   -3.4082549   -1.8527279    0.1494102   -3.4082549     1.555527   579702 
 5495000    1.3709181   -3.4099465   -1.8525306   0.14711215   -3.4099465    1.5574159   579725 
 5496000    1.3740705   -3.4132876   -1.8523416    0.1452877   -3.4132876     1.560946   579744 
 5497000     1.372812   -3.4125044   -1.8530473   0.13999286   -3.4125044    1.5594571   579766 
 5498000    1.3711896   -3.4104125    -1.852852   0.14343164   -3.4104125    1.5575605   579786 
 5499000    1.3717361   -3.4126484   -1.8545451   0.14736257   -3.4126484    1.5581033   579815 
 5500000    1.3727414   -3.4135202   -1.8543422   0.15015003   -3.4135202     1.559178   579840 
 5501000    1.3713596   -3.4127037   -1.8551462   0.14616435   -3.4127037    1.5575575   579859 
 5502000    1.3716696    -3.413095   -1.8552257   0.15568821    -3.413095    1.5578693   579874 
 5503000    1.3719254   -3.4130889   -1.8550043   0.14334895   -3.4130889    1.5580845   579902 
 5504000    1.3695836   -3.4112992   -1.8559412   0.15160701   -3.4112992     1.555358   579927 
 5505000     1.371194   -3.4132108   -1.8560885   0.14742901   -3.4132108    1.5571223   579951 
 5506000    1.3736314   -3.4153903   -1.8555565   0.14192813   -3.4153903    1.5598338   579972 
 5507000    1.3741667   -3.4156869   -1.8552803   0.14170747   -3.4156869    1.5604066   579985 
 5508000    1.3718471   -3.4144265   -1.8567237   0.15025214   -3.4144265    1.5577028   580011 
 5509000    1.3731322   -3.4150307   -1.8559143   0.14842419   -3.4150307    1.5591164   580028 
 5510000    1.3733553    -3.415782   -1.8564472   0.14881267    -3.415782    1.5593348   580041 
 5511000    1.3730015   -3.4150539   -1.8561881   0.14647137   -3.4150539    1.5588658   580066 
 5512000    1.3715153    -3.414024   -1.8569315   0.14775034    -3.414024    1.5570925   580098 
 5513000    1.3734514   -3.4157164   -1.8564823   0.15134027   -3.4157164    1.5592342   580119 
 5514000     1.372336   -3.4148636   -1.8569548   0.14558631   -3.4148636    1.5579088   580141 
 5515000    1.3731269   -3.4147732   -1.8560418   0.14199886   -3.4147732    1.5587314   580169 
 5516000    1.3751854    -3.417094   -1.8560824   0.13945111    -3.417094    1.5610116   580190 
 5517000    1.3737167   -3.4169726   -1.8577033   0.13714028   -3.4169726    1.5592693   580218 
 5518000    1.3710497   -3.4133632   -1.8571774   0.14526086   -3.4133632    1.5561857   580239 
 5519000    1.3712528   -3.4148445    -1.858455     0.139837   -3.4148445    1.5563894   580249 
 5520000     1.371278   -3.4132862   -1.8568977   0.15010366   -3.4132862    1.5563885   580260 
 5521000    1.3736109   -3.4148956   -1.8559104   0.14851227   -3.4148956    1.5589853   580279 
 5522000    1.3731863   -3.4142643   -1.8558147   0.14770143   -3.4142643    1.5584496   580299 
 5523000    1.3729974   -3.4134909   -1.8553121   0.14645547   -3.4134909    1.5581788   580320 
 5524000    1.3732648   -3.4141442   -1.8557236   0.14921076   -3.4141442    1.5584205   580343 
 5525000    1.3741527   -3.4156807   -1.8562875   0.14215367   -3.4156807    1.5593932   580356 
 5526000    1.3728302   -3.4141156   -1.8562526   0.14872767   -3.4141156     1.557863   580367 
 5527000    1.3756225   -3.4159517   -1.8549793   0.14639327   -3.4159517    1.5609724   580389 
 5528000    1.3754874   -3.4162924   -1.8555379   0.14165619   -3.4162924    1.5607545   580413 
 5529000    1.3749296   -3.4159581   -1.8558741   0.15031552   -3.4159581     1.560084   580427 
 5530000    1.3745392   -3.4154802   -1.8558902   0.14535168   -3.4154802      1.55959   580446 
 5531000    1.3745267   -3.4161896   -1.8566487   0.13657425   -3.4161896    1.5595409   580459 
 5532000    1.3752594   -3.4166962   -1.8563831   0.14422437   -3.4166962     1.560313   580481 
 5533000    1.3735027   -3.4147754   -1.8565279   0.13694499   -3.4147754    1.5582475   580508 
 5534000    1.3730113   -3.4147242   -1.8571039   0.14441044   -3.4147242    1.5576202   580534 
 5535000    1.3726724   -3.4148836   -1.8576908   0.14887983   -3.4148836    1.5571929   580550 
 5536000     1.372368   -3.4146744   -1.8578966   0.14844791   -3.4146744    1.5567778   580576 
 5537000    1.3718578   -3.4133064   -1.8571958   0.15154589   -3.4133064    1.5561106   580609 
 5538000    1.3717918   -3.4143188     -1.85835   0.14678901   -3.4143188    1.5559688   580634 
 5539000    1.3735652   -3.4166431   -1.8587407   0.14310815   -3.4166431    1.5579025   580663 
 5540000    1.3731944   -3.4147255   -1.8573187   0.15298666   -3.4147255    1.5574068   580691 
 5541000    1.3746817   -3.4171707   -1.8581308   0.14575756   -3.4171707    1.5590399   580711 
 5542000    1.3747471   -3.4186512   -1.8596204   0.14233934   -3.4186512    1.5590309   580742 
 5543000    1.3735081    -3.417121   -1.8595408   0.14263728    -3.417121    1.5575801   580759 
 5544000    1.3728167   -3.4162427   -1.8595699   0.14669725   -3.4162427    1.5566728   580805 
 5545000    1.3739921   -3.4179184   -1.8599584   0.14276098   -3.4179184      1.55796   580822 
 5546000     1.374795   -3.4181912   -1.8593933   0.14785841   -3.4181912    1.5587979   580849 
 5547000    1.3748203   -3.4191152   -1.8603664   0.15205415   -3.4191152    1.5587488   580878 
 5548000    1.3757324   -3.4189449   -1.8592156    0.1441517   -3.4189449    1.5597293   580898 
 5549000    1.3757347    -3.418525   -1.8588575   0.14669665    -3.418525    1.5596675   580922 
 5550000    1.3755882   -3.4192289   -1.8597812   0.13902561   -3.4192289    1.5594477   580942 
 5551000    1.3758201   -3.4197663   -1.8601121   0.13728515   -3.4197663    1.5596542   580963 
 5552000    1.3750929    -3.419597   -1.8608262   0.14326766    -3.419597    1.5587708   580985 
 5553000     1.373306   -3.4167076   -1.8600321   0.14809569   -3.4167076    1.5566755   581011 
 5554000    1.3739905   -3.4178631   -1.8604439     0.151905   -3.4178631    1.5574192   581023 
 5555000    1.3748332    -3.418435   -1.8601437   0.14695844    -3.418435    1.5582914   581054 
 5556000    1.3742091   -3.4175721    -1.860039   0.15037232   -3.4175721    1.5575331   581073 
 5557000    1.3753785   -3.4187434   -1.8599547   0.14898112   -3.4187434    1.5587887   581099 
 5558000    1.3752333    -3.418681   -1.8600623   0.14850835    -3.418681    1.5586187   581101 
 5559000    1.3741879    -3.417389   -1.8600033   0.14530037    -3.417389    1.5573857   581119 
 5560000    1.3748222   -3.4172288   -1.8591725   0.14740944   -3.4172288    1.5580563   581137 
 5561000    1.3761855    -3.419191   -1.8596783   0.14487895    -3.419191    1.5595127   581170 
 5562000      1.37592   -3.4195023    -1.860336   0.13990083   -3.4195023    1.5591663   581187 
 5563000    1.3741992   -3.4178573   -1.8606866   0.14359962   -3.4178573    1.5571707   581204 
 5564000    1.3742354   -3.4167369   -1.8596002   0.15017508   -3.4167369    1.5571367   581232 
 5565000    1.3758697   -3.4179388   -1.8590119   0.14529885   -3.4179388    1.5589269   581255 
 5566000    1.3762565   -3.4184521   -1.8591459   0.14348924   -3.4184521    1.5593061   581277 
 5567000    1.3767466   -3.4187881   -1.8589508    0.1499169   -3.4187881    1.5598373   581286 
 5568000    1.3766126   -3.4186307   -1.8590043   0.14702329   -3.4186307    1.5596264   581308 
 5569000    1.3763887    -3.418551   -1.8592374   0.14491539    -3.418551    1.5593137   581330 
 5570000    1.3771436   -3.4190136   -1.8589226   0.15081561   -3.4190136     1.560091   581359 
 5571000     1.377004   -3.4189325   -1.8590451   0.14817183   -3.4189325    1.5598873   581376 
 5572000    1.3763182    -3.418909   -1.8598602   0.14741328    -3.418909    1.5590488   581399 
 5573000    1.3766599   -3.4191503    -1.859744   0.15092988   -3.4191503    1.5594063   581410 
 5574000     1.376212   -3.4205478   -1.8616917   0.14504081   -3.4205478    1.5588561   581426 
 5575000    1.3753346   -3.4192564   -1.8614371   0.14371086   -3.4192564    1.5578193   581442 
 5576000     1.376071   -3.4208683    -1.862263   0.14305522   -3.4208683    1.5586053   581460 
 5577000    1.3738805    -3.419035   -1.8629643   0.15150106    -3.419035    1.5560707   581480 
 5578000    1.3738551   -3.4197755   -1.8637978   0.14800425   -3.4197755    1.5559777   581504 
 5579000     1.376014   -3.4221003    -1.863766   0.14824818   -3.4221003    1.5583343   581537 
 5580000     1.375494   -3.4222838   -1.8645732   0.14183106   -3.4222838    1.5577106   581550 
 5581000    1.3755617   -3.4215692   -1.8638623    0.1391905   -3.4215692    1.5577069   581580 
 5582000    1.3744202   -3.4204198   -1.8640404   0.14891597   -3.4204198    1.5563795   581593 
 5583000    1.3756071   -3.4217566   -1.8640974   0.14034402   -3.4217566    1.5576593   581617 
 5584000    1.3743116   -3.4210512    -1.864883   0.14954412   -3.4210512    1.5561682   581626 
 5585000    1.3742971   -3.4205233   -1.8644545   0.14296321   -3.4205233    1.5560688   581657 
 5586000    1.3748883   -3.4212606   -1.8645705   0.14881816   -3.4212606    1.5566901   581675 
 5587000    1.3772723   -3.4243704    -1.865024   0.14648544   -3.4243704    1.5593464   581691 
 5588000      1.37522   -3.4221042   -1.8651537   0.15110821   -3.4221042    1.5569505   581718 
 5589000    1.3743304   -3.4208077   -1.8649339   0.14971006   -3.4208077    1.5558738   581744 
 5590000    1.3755546   -3.4224459   -1.8652398   0.14632364   -3.4224459    1.5572062   581764 
 5591000    1.3762424   -3.4222972   -1.8643472   0.14070834   -3.4222972      1.55795   581777 
 5592000    1.3756779   -3.4214226   -1.8641705   0.15139862   -3.4214226    1.5572521   581799 
 5593000    1.3753903   -3.4221859   -1.8653397   0.14502731   -3.4221859    1.5568462   581829 
 5594000    1.3749922   -3.4204763   -1.8641635   0.15417992   -3.4204763    1.5563127   581860 
 5595000    1.3758309    -3.422739   -1.8655332   0.14694461    -3.422739    1.5572058   581881 
 5596000    1.3739089   -3.4212257    -1.866238    0.1473679   -3.4212257    1.5549877   581897 
 5597000    1.3740292   -3.4217428   -1.8666671   0.14496975   -3.4217428    1.5550757   581915 
 5598000    1.3756734   -3.4227977   -1.8659039   0.14269823   -3.4227977    1.5568937   581931 
 5599000    1.3765246   -3.4233208   -1.8655093   0.14512561   -3.4233208    1.5578115   581948 
 5600000    1.3752238   -3.4219542   -1.8657111   0.14903731   -3.4219542    1.5562432   581984 
 5601000    1.3753764   -3.4220826   -1.8657175    0.1464696   -3.4220826    1.5563651   582003 
 5602000    1.3768186   -3.4228255   -1.8649007   0.15085925   -3.4228255    1.5579248   582030 
 5603000    1.3772775   -3.4232036   -1.8648131   0.15492896   -3.4232036    1.5583905   582050 
 5604000    1.3768369   -3.4226804   -1.8648608   0.15028098   -3.4226804    1.5578197   582077 
 5605000     1.377784   -3.4239403   -1.8651588   0.14679964   -3.4239403    1.5587815   582118 
 5606000    1.3791243   -3.4247561   -1.8644823   0.14170069   -3.4247561    1.5602738   582127 
 5607000    1.3771266   -3.4232856   -1.8653282   0.15075506   -3.4232856    1.5579575   582148 
 5608000    1.3779519   -3.4243061   -1.8654633   0.14787779   -3.4243061    1.5588429   582166 
 5609000    1.3768725   -3.4233128   -1.8657284    0.1454471   -3.4233128    1.5575843   582180 
 5610000    1.3779413   -3.4245882    -1.865875   0.14197684   -3.4245882    1.5587132   582210 
 5611000    1.3764729   -3.4232713   -1.8663315   0.14482712   -3.4232713    1.5569398   582252 
 5612000    1.3773317   -3.4238534   -1.8659984   0.15006101   -3.4238534    1.5578549   582273 
 5613000    1.3778958   -3.4249441   -1.8665127   0.14414378   -3.4249441    1.5584314   582296 
 5614000    1.3775099   -3.4238502   -1.8659168   0.14769438   -3.4238502    1.5579334   582319 
 5615000     1.376416   -3.4227866   -1.8661091   0.15177614   -3.4227866    1.5566775   582326 
 5616000    1.3774397   -3.4239841    -1.866213   0.14354581   -3.4239841    1.5577711   582350 
 5617000    1.3779178   -3.4248748   -1.8666406   0.14810645   -3.4248748    1.5582342   582379 
 5618000    1.3781404   -3.4254004   -1.8669947   0.14583469   -3.4254004    1.5584057   582409 
 5619000    1.3783251   -3.4251479   -1.8665628   0.14807015   -3.4251479     1.558585   582420 
 5620000    1.3783605   -3.4247362   -1.8661566   0.14520839   -3.4247362    1.5585797   582437 
 5621000    1.3782534   -3.4249221   -1.8664796   0.14776991   -3.4249221    1.5584425   582443 
 5622000    1.3777784   -3.4243468   -1.8664763   0.15165764   -3.4243468    1.5578705   582456 
 5623000    1.3770321   -3.4241492      -1.8672   0.14735014   -3.4241492    1.5569492   582485 
 5624000    1.3774727   -3.4246159   -1.8672299   0.14577054   -3.4246159    1.5573859   582508 
 5625000    1.3773157   -3.4241757   -1.8670074   0.14976266   -3.4241757    1.5571683   582523 
 5626000    1.3781784    -3.426537   -1.8684441   0.15183917    -3.426537    1.5580929   582542 
 5627000     1.376765   -3.4245212   -1.8680958   0.14957566   -3.4245212    1.5564254   582568 
 5628000    1.3788909   -3.4263485   -1.8675733   0.14703994   -3.4263485    1.5587753   582588 
 5629000    1.3776613    -3.426305   -1.8689545   0.15240464    -3.426305    1.5573505   582601 
 5630000    1.3783265   -3.4272638   -1.8692523   0.14273631   -3.4272638    1.5580115   582635 
 5631000    1.3767121   -3.4263347   -1.8702148   0.14571271   -3.4263347    1.5561199   582660 
 5632000    1.3791053   -3.4281365    -1.869365   0.14403615   -3.4281365    1.5587715   582680 
 5633000    1.3763917   -3.4259218   -1.8702949   0.14329612   -3.4259218    1.5556269   582709 
 5634000    1.3768336   -3.4252739   -1.8692276   0.14484427   -3.4252739    1.5560463   582739 
 5635000    1.3782999   -3.4267502   -1.8690949   0.15243253   -3.4267502    1.5576553   582757 
 5636000    1.3777875    -3.427351   -1.8703629   0.15255249    -3.427351    1.5569881   582790 
 5637000    1.3773353   -3.4259837   -1.8695467   0.15322294   -3.4259837     1.556437   582805 
 5638000    1.3785918   -3.4263217    -1.868537   0.14737978   -3.4263217    1.5577847   582832 
 5639000    1.3775466   -3.4262906   -1.8697403   0.14564428   -3.4262906    1.5565503   582852 
 5640000    1.3784489   -3.4270321   -1.8695264   0.14906552   -3.4270321    1.5575057   582876 
 5641000    1.3778682   -3.4264351   -1.8696283   0.15282276   -3.4264351    1.5568067   582892 
 5642000    1.3771079    -3.425712   -1.8697883   0.15147398    -3.425712    1.5559237   582901 
 5643000    1.3780331    -3.426723   -1.8698019   0.14693437    -3.426723     1.556921   582919 
 5644000    1.3769386    -3.425848   -1.8702223   0.14652123    -3.425848    1.5556257   582941 
 5645000    1.3775805   -3.4261882   -1.8699174   0.15270546   -3.4261882    1.5562708   582971 
 5646000    1.3785263   -3.4273346    -1.870022   0.14977093   -3.4273346    1.5573126   582981 
 5647000    1.3787895   -3.4287818     -1.87122   0.14388262   -3.4287818    1.5575618   582999 
 5648000    1.3763322    -3.426459   -1.8717398   0.14973319    -3.426459    1.5547193   583024 
 5649000    1.3776108   -3.4273746   -1.8712483   0.14036669   -3.4273746    1.5561262   583038 
 5650000    1.3782698    -3.427244   -1.8704321   0.14375489    -3.427244    1.5568118   583060 
 5651000    1.3791067   -3.4284339   -1.8707409   0.14869578   -3.4284339    1.5576931   583084 
 5652000    1.3780262   -3.4267972   -1.8703939   0.14952955   -3.4267972    1.5564033   583110 
 5653000    1.3791743   -3.4283523   -1.8706764   0.15048445   -3.4283523    1.5576758   583119 
 5654000    1.3773011   -3.4268588   -1.8713679   0.15197427   -3.4268588    1.5554908   583145 
 5655000    1.3790477   -3.4279294   -1.8705541   0.14867283   -3.4279294    1.5573753   583178 
 5656000    1.3768115   -3.4267165   -1.8718906   0.14480024   -3.4267165    1.5548259   583187 
 5657000    1.3769841   -3.4276202    -1.872642   0.14701006   -3.4276202    1.5549782   583203 
 5658000     1.377412   -3.4287558   -1.8733557   0.15005756   -3.4287558    1.5554001   583226 
 5659000    1.3780446   -3.4286055   -1.8725364   0.15078757   -3.4286055    1.5560691   583243 
 5660000    1.3794528   -3.4300021   -1.8723964   0.14799909   -3.4300021    1.5576058   583263 
 5661000     1.379161   -3.4293695   -1.8721493   0.14728444   -3.4293695    1.5572202   583284 
 5662000    1.3775572   -3.4289071   -1.8735297   0.15232856   -3.4289071    1.5553774   583296 
 5663000     1.379459   -3.4301359   -1.8726593   0.15034357   -3.4301359    1.5574766   583314 
 5664000    1.3784434   -3.4291083   -1.8728344   0.14887791   -3.4291083    1.5562739   583335 
 5665000    1.3791072   -3.4312371   -1.8742805   0.14776277   -3.4312371    1.5569566   583360 
 5666000    1.3794025   -3.4311339    -1.873868   0.14512924   -3.4311339     1.557266   583369 
 5667000     1.378583   -3.4310423   -1.8747468   0.14123351   -3.4310423    1.5562955   583386 
 5668000    1.3788885   -3.4305324   -1.8739374    0.1555945   -3.4305324     1.556595   583403 
 5669000     1.379477   -3.4311198   -1.8739059   0.15018789   -3.4311198    1.5572139   583420 
 5670000     1.380048   -3.4315965    -1.873762   0.14991738   -3.4315965    1.5578345   583429 
 5671000    1.3772528   -3.4299036   -1.8752883   0.15181256   -3.4299036    1.5546153   583453 
 5672000    1.3780742   -3.4301132   -1.8746188   0.14259205   -3.4301132    1.5554944   583471 
 5673000    1.3794421    -3.431777   -1.8747946   0.14828934    -3.431777    1.5569824   583492 
 5674000    1.3778029   -3.4304608   -1.8753632   0.14814364   -3.4304608    1.5550975   583505 
 5675000    1.3791532   -3.4312002   -1.8746399   0.14632814   -3.4312002    1.5565603   583528 
 5676000    1.3792767   -3.4313094   -1.8746257    0.1482769   -3.4313094    1.5566836   583534 
 5677000    1.3793277   -3.4317302   -1.8750343   0.14334113   -3.4317302    1.5566959   583551 
 5678000    1.3782035   -3.4292823   -1.8739245   0.15547233   -3.4292823    1.5553578   583577 
 5679000    1.3789678   -3.4315209   -1.8753325   0.14644859   -3.4315209    1.5561884   583589 
 5680000    1.3783576   -3.4302398   -1.8748121    0.1521282   -3.4302398    1.5554277   583616 
 5681000    1.3802676   -3.4318386   -1.8743516   0.14482989   -3.4318386    1.5574871   583652 
 5682000    1.3816457   -3.4343144   -1.8753017    0.1440675   -3.4343144    1.5590127   583663 
 5683000    1.3791401   -3.4314629   -1.8753281   0.14643252   -3.4314629    1.5561348   583682 
 5684000    1.3790059    -3.431185    -1.875247   0.14434483    -3.431185     1.555938   583699 
 5685000    1.3811949    -3.432632   -1.8742481   0.14758983    -3.432632    1.5583839   583708 
 5686000    1.3782592   -3.4299237   -1.8749454     0.153181   -3.4299237    1.5549783   583743 
 5687000    1.3802031   -3.4322167   -1.8750959    0.1448155   -3.4322167    1.5571208   583762 
 5688000     1.380107   -3.4315813   -1.8746383   0.15320465   -3.4315813    1.5569431   583788 
 5689000    1.3792219   -3.4308518   -1.8749366   0.14324593   -3.4308518    1.5559152   583799 
 5690000    1.3803966   -3.4321825   -1.8750088   0.14322914   -3.4321825    1.5571737   583824 
 5691000     1.379421   -3.4323777   -1.8763552    0.1482751   -3.4323777    1.5560225   583843 
 5692000    1.3799347   -3.4326834   -1.8761107   0.15247848   -3.4326834    1.5565726   583854 
 5693000    1.3798839   -3.4330356   -1.8765762   0.14673584   -3.4330356    1.5564594   583875 
 5694000     1.379382   -3.4327915   -1.8769568   0.14460936   -3.4327915    1.5558346   583897 
 5695000    1.3791172   -3.4329706   -1.8774772   0.15207341   -3.4329706    1.5554934   583913 
 5696000    1.3796244   -3.4325919   -1.8766357   0.14618489   -3.4325919    1.5559562   583954 
 5697000    1.3785329   -3.4314641   -1.8767815   0.15227995   -3.4314641    1.5546826   583970 
 5698000    1.3791005   -3.4328096   -1.8775588   0.14178459   -3.4328096    1.5552508   583997 
 5699000    1.3811533   -3.4344257   -1.8769479   0.14092991   -3.4344257    1.5574778   584030 
 5700000    1.3781865   -3.4314968   -1.8773992   0.14865191   -3.4314968    1.5540976   584043 
 5701000    1.3774334   -3.4321359   -1.8789248   0.15265731   -3.4321359    1.5532112   584057 
 5702000    1.3802227   -3.4359116   -1.8796404   0.14798073   -3.4359116    1.5562712   584089 
 5703000    1.3790429    -3.435449   -1.8805614   0.14318321    -3.435449    1.5548876   584109 
 5704000    1.3785483   -3.4349825   -1.8807031   0.14929445   -3.4349825    1.5542794   584128 
 5705000    1.3797075   -3.4363118   -1.8807893   0.14737113   -3.4363118    1.5555225   584152 
 5706000    1.3792464   -3.4361178   -1.8811578   0.14493535   -3.4361178      1.55496   584168 
 5707000     1.379685   -3.4356772    -1.880276   0.14459809   -3.4356772    1.5554012   584188 
 5708000    1.3785288   -3.4349369   -1.8809136   0.14538684   -3.4349369    1.5540233   584216 
 5709000    1.3809288   -3.4374228   -1.8806965   0.14381548   -3.4374228    1.5567262   584217 
 5710000    1.3784645   -3.4345431   -1.8806587   0.15350034   -3.4345431    1.5538844   584241 
 5711000    1.3805933   -3.4373285   -1.8811083   0.14774648   -3.4373285    1.5562201   584265 
 5712000    1.3794092   -3.4356743   -1.8808395   0.14985465   -3.4356743    1.5548348   584284 
 5713000    1.3780384   -3.4347486   -1.8815227    0.1489999   -3.4347486    1.5532259   584308 
 5714000    1.3794858   -3.4354308   -1.8806348   0.14570406   -3.4354308    1.5547961   584331 
 5715000    1.3810573    -3.436571   -1.8800464   0.14967476    -3.436571    1.5565246   584347 
 5716000    1.3799175   -3.4360632   -1.8809163   0.15632352   -3.4360632    1.5551469   584382 
 5717000    1.3800745   -3.4355812    -1.880292   0.14852911   -3.4355812    1.5552893   584395 
 5718000    1.3802637   -3.4359711   -1.8805378   0.14314387   -3.4359711    1.5554333   584421 
 5719000    1.3800229   -3.4365382   -1.8814481   0.14543867   -3.4365382    1.5550901   584448 
 5720000    1.3813212   -3.4367985   -1.8802773   0.14436487   -3.4367985    1.5565212   584460 
 5721000    1.3821138   -3.4377969   -1.8804093    0.1446791   -3.4377969    1.5573876   584470 
 5722000     1.381678   -3.4371846    -1.880352   0.14754639   -3.4371846    1.5568326   584494 
 5723000    1.3807068   -3.4354931   -1.8798187   0.15004199   -3.4354931    1.5556744   584518 
 5724000    1.3818067   -3.4367033   -1.8798296   0.14751839   -3.4367033    1.5568737   584533 
 5725000    1.3797876    -3.435295   -1.8807654   0.14932737    -3.435295    1.5545297   584559 
 5726000    1.3803324   -3.4363643   -1.8812448   0.14668873   -3.4363643    1.5551196   584568 
 5727000    1.3798904   -3.4356919   -1.8811422    0.1500227   -3.4356919    1.5545497   584595 
 5728000    1.3813224    -3.436732    -1.880617   0.14666114    -3.436732    1.5561151   584613 
 5729000    1.3810355   -3.4367142   -1.8809835   0.14992078   -3.4367142    1.5557307   584636 
 5730000     1.380316   -3.4364469   -1.8815667   0.15222409   -3.4364469    1.5548803   584651 
 5731000    1.3808036   -3.4373954   -1.8820084   0.15060002   -3.4373954     1.555387   584667 
 5732000    1.3807057   -3.4384331   -1.8831883   0.14813252   -3.4384331    1.5552448   584679 
 5733000    1.3802142   -3.4381116   -1.8834629   0.14442135   -3.4381116    1.5546487   584695 
 5734000      1.38161   -3.4393147   -1.8831498   0.14407915   -3.4393147     1.556165   584716 
 5735000    1.3802481    -3.437976   -1.8834302   0.14882422    -3.437976    1.5545458   584748 
 5736000    1.3802503   -3.4381286   -1.8836122    0.1473682   -3.4381286    1.5545164   584760 
 5737000    1.3812257   -3.4392456   -1.8836998   0.14370922   -3.4392456    1.5555459   584786 
 5738000    1.3798627   -3.4375963   -1.8836705    0.1536237   -3.4375963    1.5539258   584818 
 5739000    1.3800161    -3.437176   -1.8831332   0.15144767    -3.437176    1.5540428   584839 
 5740000    1.3804907   -3.4392447    -1.884734   0.14592985   -3.4392447    1.5545108   584864 
 5741000    1.3814477   -3.4414067   -1.8859061   0.14570094   -3.4414067    1.5555006   584897 
 5742000    1.3788804   -3.4398402   -1.8873153   0.14807392   -3.4398402    1.5525249   584929 
 5743000    1.3788736   -3.4389867   -1.8865331   0.14256863   -3.4389867    1.5524536   584953 
 5744000    1.3806979   -3.4393703   -1.8849372   0.15237033   -3.4393703    1.5544331   584981 
 5745000    1.3802737   -3.4394466   -1.8855071   0.15137379   -3.4394466    1.5539396   584987 
 5746000    1.3799451   -3.4398859   -1.8863933   0.15072846   -3.4398859    1.5534926   585016 
 5747000     1.380772   -3.4400674   -1.8857341   0.14683999   -3.4400674    1.5543332   585050 
 5748000    1.3806839   -3.4405159   -1.8862925   0.14608855   -3.4405159    1.5542234   585054 
 5749000    1.3797237   -3.4397928   -1.8867113    0.1505267   -3.4397928    1.5530815   585077 
 5750000    1.3807263   -3.4406615    -1.886494   0.14675273   -3.4406615    1.5541675   585093 
 5751000    1.3814133   -3.4400383    -1.885164   0.15171426   -3.4400383    1.5548744   585118 
 5752000    1.3803682   -3.4394867   -1.8858444   0.15245709   -3.4394867    1.5536423   585139 
 5753000    1.3805579   -3.4392377   -1.8854297   0.14379129   -3.4392377     1.553808   585157 
 5754000    1.3808746   -3.4401546   -1.8860407   0.14853275   -3.4401546    1.5541139   585176 
 5755000    1.3818593   -3.4411325   -1.8859927   0.15407353   -3.4411325    1.5551398   585207 
 5756000    1.3816881    -3.441041   -1.8861735   0.14203159    -3.441041    1.5548675   585237 
 5757000    1.3803951   -3.4400442   -1.8866982   0.14599011   -3.4400442     1.553346   585262 
 5758000    1.3816219   -3.4411808   -1.8865154   0.14873421   -3.4411808    1.5546654   585285 
 5759000    1.3808791   -3.4415886     -1.88782   0.14843321   -3.4415886    1.5537686   585308 
 5760000    1.3807877   -3.4412209   -1.8876082   0.14945001   -3.4412209    1.5536126   585328 
 5761000    1.3818397   -3.4413533   -1.8866128   0.14451113   -3.4413533    1.5547406   585349 
 5762000    1.3818513   -3.4409458   -1.8862506   0.14969448   -3.4409458    1.5546951   585371 
 5763000    1.3837651   -3.4446243   -1.8878584   0.13606812   -3.4446243    1.5567659   585402 
 5764000    1.3818765    -3.442395   -1.8877938   0.15118595    -3.442395    1.5546013   585417 
 5765000    1.3810843   -3.4416343   -1.8880012   0.14844739   -3.4416343    1.5536331   585446 
 5766000    1.3811127   -3.4415143   -1.8878944   0.14906221   -3.4415143    1.5536199   585463 
 5767000    1.3809397   -3.4420451   -1.8886622   0.14905991   -3.4420451    1.5533829   585479 
 5768000    1.3807468   -3.4428498   -1.8897343    0.1452027   -3.4428498    1.5531155   585498 
 5769000    1.3810673   -3.4428579    -1.889427   0.14830884   -3.4428579    1.5534309   585515 
 5770000    1.3814812   -3.4425531    -1.888723   0.14529208   -3.4425531    1.5538301   585540 
 5771000     1.381865   -3.4429876   -1.8887842   0.14945733   -3.4429876    1.5542034   585562 
 5772000    1.3838116   -3.4433503    -1.887008   0.14806261   -3.4433503    1.5563423   585581 
 5773000    1.3841879   -3.4443516   -1.8876658    0.1408763   -3.4443516    1.5566858   585611 
 5774000    1.3846408   -3.4447794   -1.8876294   0.14525821   -3.4447794      1.55715   585628 
 5775000    1.3812276   -3.4411775   -1.8879084   0.14798851   -3.4411775    1.5532691   585644 
 5776000    1.3826736   -3.4415273   -1.8866853    0.1471652   -3.4415273     1.554842   585664 
 5777000    1.3838087   -3.4438255   -1.8877576   0.14202274   -3.4438255    1.5560679   585683 
 5778000    1.3814759   -3.4422954   -1.8888825   0.14622238   -3.4422954    1.5534129   585695 
 5779000    1.3814204   -3.4425623   -1.8892701   0.15072019   -3.4425623    1.5532922   585717 
 5780000    1.3811554   -3.4411446   -1.8882219   0.14907549   -3.4411446    1.5529226   585744 
 5781000    1.3816113    -3.442382   -1.8889599   0.14763369    -3.442382     1.553422   585749 
 5782000      1.38268   -3.4430868    -1.888519   0.14567685   -3.4430868    1.5545678   585770 
 5783000    1.3809931   -3.4412184   -1.8885816   0.14512147   -3.4412184    1.5526368   585783 
 5784000    1.3816118   -3.4423688   -1.8890973   0.14794557   -3.4423688    1.5532715   585806 
 5785000    1.3829383   -3.4427734   -1.8880743   0.14756837   -3.4427734    1.5546991   585830 
 5786000    1.3831832   -3.4434621   -1.8885249   0.15411211   -3.4434621    1.5549372   585844 
 5787000    1.3826127   -3.4430422   -1.8888047    0.1444068   -3.4430422    1.5542375   585866 
 5788000    1.3824879   -3.4420317   -1.8880087   0.15256495   -3.4420317    1.5540229   585894 
 5789000    1.3844997   -3.4436612   -1.8874326   0.14851861   -3.4436612    1.5562286   585915 
 5790000    1.3840804   -3.4435879   -1.8878784   0.14890835   -3.4435879    1.5557095   585933 
 5791000    1.3835024   -3.4434555   -1.8884222   0.14970399   -3.4434555    1.5550333   585943 
 5792000    1.3842769   -3.4448973    -1.889044   0.15477885   -3.4448973    1.5558533   585962 
 5793000    1.3845619   -3.4457252   -1.8895861    0.1481652   -3.4457252    1.5561391   585975 
 5794000    1.3833731   -3.4446639   -1.8899113   0.14958493   -3.4446639    1.5547526   585994 
 5795000    1.3825156   -3.4434754   -1.8897528   0.15607188   -3.4434754    1.5537226   586019 
 5796000    1.3834065   -3.4452409    -1.890602   0.15004575   -3.4452409    1.5546389   586051 
 5797000     1.381869   -3.4445619   -1.8917171   0.14695898   -3.4445619    1.5528448   586076 
 5798000    1.3811698   -3.4444829   -1.8924767   0.15134932   -3.4444829    1.5520061   586096 
 5799000    1.3824664    -3.445882   -1.8924797   0.14596213    -3.445882    1.5534023   586119 
 5800000     1.382107   -3.4450789   -1.8921362   0.15135834   -3.4450789    1.5529427   586140 
 5801000    1.3830237    -3.445863   -1.8919565   0.14872868    -3.445863    1.5539065   586165 
 5802000     1.384013   -3.4476251   -1.8926682   0.14380727   -3.4476251    1.5549569   586188 
 5803000    1.3817578   -3.4447428   -1.8923647   0.14534878   -3.4447428    1.5523782   586205 
 5804000    1.3836781   -3.4469209   -1.8924436   0.14551112   -3.4469209    1.5544773   586227 
 5805000    1.3828725   -3.4460527   -1.8925255   0.14673107   -3.4460527    1.5535272   586244 
 5806000    1.3820552   -3.4451753   -1.8926403   0.14844962   -3.4451753    1.5525349   586272 
 5807000    1.3823742   -3.4467238   -1.8938623   0.14261793   -3.4467238    1.5528615   586284 
 5808000    1.3832029    -3.445755   -1.8919785   0.14683077    -3.445755    1.5537765   586290 
 5809000    1.3838576   -3.4469651   -1.8925008   0.14689662   -3.4469651    1.5544642   586308 
 5810000    1.3828745   -3.4462974   -1.8930222   0.14710976   -3.4462974    1.5532751   586340 
 5811000    1.3838793   -3.4476266   -1.8932229   0.14423256   -3.4476266    1.5544037   586340 
 5812000    1.3838887   -3.4467069   -1.8923403   0.14521673   -3.4467069    1.5543666   586358 
 5813000    1.3833651   -3.4476507   -1.8938961   0.14573073   -3.4476507    1.5537546   586367 
 5814000    1.3802466   -3.4445881   -1.8943837   0.15024439   -3.4445881    1.5502044   586385 
 5815000    1.3836074   -3.4485889      -1.8947   0.14484882   -3.4485889    1.5538889   586419 
 5816000    1.3824797   -3.4472988    -1.894724   0.14352073   -3.4472988    1.5525748   586437 
 5817000    1.3833621   -3.4469086   -1.8934064   0.14919138   -3.4469086    1.5535022   586461 
 5818000    1.3838419   -3.4467266   -1.8927253    0.1461182   -3.4467266    1.5540013   586476 
 5819000    1.3846801   -3.4487183   -1.8938368    0.1537664   -3.4487183    1.5548815   586499 
 5820000    1.3841626   -3.4469371   -1.8927029   0.14878594   -3.4469371    1.5542342   586524 
 5821000     1.382644   -3.4453285   -1.8928208   0.15280147   -3.4453285    1.5525078   586532 
 5822000    1.3848097   -3.4487494   -1.8938443   0.14882687   -3.4487494    1.5549051   586545 
 5823000    1.3837756   -3.4464116   -1.8927338   0.15057357   -3.4464116    1.5536778   586570 
 5824000    1.3844615   -3.4478877   -1.8934848   0.14534457   -3.4478877    1.5544028   586587 
 5825000    1.3836176   -3.4467051    -1.893316   0.15027853   -3.4467051    1.5533892   586612 
 5826000    1.3823356   -3.4457236   -1.8938214   0.15346317   -3.4457236    1.5519022   586630 
 5827000    1.3846979   -3.4485049   -1.8939718   0.15049884   -3.4485049    1.5545331   586638 
 5828000    1.3831256   -3.4455276   -1.8928019   0.15581478   -3.4455276    1.5527256   586654 
 5829000    1.3840431   -3.4476408   -1.8939461   0.14669865   -3.4476408    1.5536947   586677 
 5830000    1.3848384   -3.4477421   -1.8932209   0.14781996   -3.4477421    1.5545212   586702 
 5831000    1.3838096   -3.4467194   -1.8934007    0.1549785   -3.4467194    1.5533187   586720 
 5832000    1.3836817   -3.4461768   -1.8930652   0.15714348   -3.4461768    1.5531116   586744 
 5833000    1.3854485   -3.4485313   -1.8935054   0.14667743   -3.4485313    1.5550258   586770 
 5834000    1.3856284    -3.449274   -1.8940992   0.14769046    -3.449274    1.5551748   586790 
 5835000    1.3834131   -3.4469446   -1.8942906   0.15796425   -3.4469446     1.552654   586803 
 5836000    1.3831656   -3.4470027   -1.8946556   0.15305158   -3.4470027    1.5523471   586814 
 5837000    1.3844897   -3.4476969   -1.8939008   0.14459442   -3.4476969    1.5537961   586828 
 5838000    1.3849571   -3.4481793   -1.8938984   0.14817403   -3.4481793    1.5542809   586843 
 5839000    1.3853076   -3.4485267   -1.8939054   0.15706031   -3.4485267    1.5546213   586863 
 5840000    1.3863366    -3.449029   -1.8933192   0.14776691    -3.449029    1.5557098   586888 
 5841000    1.3861109   -3.4490882   -1.8936529   0.15146101   -3.4490882    1.5554353   586896 
 5842000    1.3860605   -3.4496366   -1.8943082   0.14474195   -3.4496366    1.5553285   586915 
 5843000    1.3849823   -3.4477869   -1.8937133   0.15116764   -3.4477869    1.5540736   586932 
 5844000    1.3863947   -3.4510306   -1.8954146   0.14825918   -3.4510306     1.555616   586948 
 5845000    1.3856258   -3.4494977   -1.8947737   0.14797406   -3.4494977     1.554724   586959 
 5846000    1.3846892   -3.4490422   -1.8954061   0.14839653   -3.4490422    1.5536361   586973 
 5847000    1.3842752   -3.4478497   -1.8947574   0.15105632   -3.4478497    1.5530923   587003 
 5848000     1.384038   -3.4486279   -1.8958652   0.15178316   -3.4486279    1.5527626   587027 
 5849000    1.3846058   -3.4491881   -1.8958362   0.15268147   -3.4491881     1.553352   587045 
 5850000      1.38384   -3.4490337   -1.8966043   0.15351262   -3.4490337    1.5524294   587069 
 5851000    1.3854621   -3.4510101    -1.896806    0.1430875   -3.4510101    1.5542042   587086 
 5852000    1.3842309   -3.4498245   -1.8970465   0.14350191   -3.4498245    1.5527781   587103 
 5853000    1.3838521   -3.4490271   -1.8967269   0.15050187   -3.4490271    1.5523002   587123 
 5854000     1.384826   -3.4512972   -1.8979574    0.1416832   -3.4512972    1.5533398   587143 
 5855000    1.3852085   -3.4504642    -1.896788   0.14987122   -3.4504642    1.5536762   587178 
 5856000    1.3864803   -3.4513503   -1.8963032   0.14894813   -3.4513503     1.555047   587199 
 5857000    1.3843674   -3.4491503   -1.8965206   0.15535849   -3.4491503    1.5526297   587217 
 5858000    1.3855679   -3.4503675   -1.8964259   0.14970874   -3.4503675    1.5539416   587230 
 5859000     1.384625   -3.4498035   -1.8969748    0.1508914   -3.4498035    1.5528287   587251 
 5860000    1.3847928   -3.4506127   -1.8976461    0.1473408   -3.4506127    1.5529666   587270 
 5861000    1.3860738   -3.4518197   -1.8974695   0.14636459   -3.4518197    1.5543502   587290 
 5862000    1.3850128   -3.4503757   -1.8972523   0.15664693   -3.4503757    1.5531234   587304 
 5863000    1.3848731    -3.450932   -1.8980419   0.14692495    -3.450932      1.55289   587333 
 5864000    1.3846195   -3.4508632   -1.8983078   0.15181638   -3.4508632    1.5525554   587352 
 5865000    1.3861629   -3.4537384   -1.8994709   0.14203347   -3.4537384    1.5542675   587359 
 5866000    1.3842164   -3.4512635    -1.899234   0.14746308   -3.4512635    1.5520295   587380 
 5867000    1.3845437   -3.4517939   -1.8994318   0.14606182   -3.4517939    1.5523621   587393 
 5868000    1.3848944   -3.4525678   -1.8998522   0.15009798   -3.4525678    1.5527156   587408 
 5869000    1.3839826   -3.4502533   -1.8985758   0.15594711   -3.4502533    1.5516775   587414 
 5870000    1.3847281   -3.4522794   -1.8998295   0.15087231   -3.4522794    1.5524499   587438 
 5871000    1.3858823   -3.4538781   -1.9001924   0.14914191   -3.4538781    1.5536857   587460 
 5872000    1.3849362   -3.4526853   -1.9000735   0.15218452   -3.4526853    1.5526119   587465 
 5873000     1.384044   -3.4526125   -1.9010352   0.15264251   -3.4526125    1.5515774   587478 
 5874000    1.3850831   -3.4539101   -1.9012208   0.14693772   -3.4539101    1.5526894   587498 
 5875000    1.3826124   -3.4512106   -1.9013252   0.14792459   -3.4512106    1.5498854   587511 
 5876000    1.3845044   -3.4539083   -1.9019628   0.15420745   -3.4539083    1.5519455   587534 
 5877000    1.3844719   -3.4534368   -1.9015991   0.14793138   -3.4534368    1.5518377   587561 
 5878000    1.3861733   -3.4549202   -1.9012362   0.14881973   -3.4549202    1.5536841   587584 
 5879000    1.3852443   -3.4540786   -1.9014914   0.14336475   -3.4540786    1.5525872   587605 
 5880000    1.3857692   -3.4542755    -1.901158   0.14797177   -3.4542755    1.5531175   587627 
 5881000    1.3856488   -3.4539033   -1.9009709   0.14248722   -3.4539033    1.5529323   587646 
 5882000     1.383593   -3.4522256   -1.9016686   0.15060894   -3.4522256    1.5505571   587673 
 5883000    1.3842026   -3.4512174   -1.8999983   0.15399923   -3.4512174    1.5512191   587681 
 5884000    1.3862159   -3.4531068   -1.8996765   0.15170232   -3.4531068    1.5534304   587698 
 5885000    1.3848623    -3.451845    -1.899979   0.16039499    -3.451845     1.551866   587716 
 5886000    1.3858874   -3.4529657   -1.9000145   0.15074944   -3.4529657    1.5529512   587740 
 5887000    1.3857412   -3.4547031   -1.9019606   0.14839753   -3.4547031    1.5527426   587757 
 5888000    1.3861542    -3.454207   -1.9010545    0.1519545    -3.454207    1.5531525   587777 
 5889000    1.3842842   -3.4528446   -1.9018349    0.1482961   -3.4528446    1.5510097   587795 
 5890000    1.3844586   -3.4530972   -1.9019264   0.15300995   -3.4530972    1.5511708   587808 
 5891000    1.3848243   -3.4538817   -1.9023698   0.15074425   -3.4538817    1.5515119   587834 
 5892000    1.3861777   -3.4552286   -1.9022374   0.15058819   -3.4552286    1.5529912   587848 
 5893000    1.3859083   -3.4553501   -1.9027029   0.14622937   -3.4553501    1.5526472   587864 
 5894000    1.3856918   -3.4553459   -1.9029756   0.15229941   -3.4553459    1.5523703   587877 
 5895000    1.3852912   -3.4548888   -1.9029831   0.15288154   -3.4548888    1.5519057   587883 
 5896000    1.3840249   -3.4533264   -1.9029106   0.15196535   -3.4533264    1.5504158   587910 
 5897000    1.3858245   -3.4560143   -1.9036036   0.15086281   -3.4560143    1.5524107   587918 
 5898000    1.3865308   -3.4565162   -1.9033487   0.14871976   -3.4565162    1.5531674   587931 
 5899000     1.385354   -3.4559429   -1.9041306   0.15030249   -3.4559429    1.5518123   587945 
 5900000    1.3844261   -3.4550827   -1.9043652    0.1480629   -3.4550827    1.5507175   587966 
 5901000    1.3853669    -3.455466   -1.9037528   0.14489122    -3.455466    1.5517133   587988 
 5902000    1.3855189   -3.4565869   -1.9047245   0.14162173   -3.4565869    1.5518624   587996 
 5903000    1.3843318   -3.4552586   -1.9047627   0.14692323   -3.4552586    1.5504958   588010 
 5904000     1.386087   -3.4574745    -1.905076   0.15190109   -3.4574745    1.5523985   588034 
 5905000    1.3855008   -3.4562116   -1.9045173   0.14889807   -3.4562116    1.5516943   588052 
 5906000    1.3867452   -3.4570362   -1.9040089   0.14834414   -3.4570362    1.5530273   588075 
 5907000     1.385352    -3.455469   -1.9040547   0.15300376    -3.455469    1.5514143   588095 
 5908000    1.3872402   -3.4574163   -1.9039589   0.14342476   -3.4574163    1.5534574   588122 
 5909000    1.3848445    -3.453979   -1.9032279     0.147931    -3.453979     1.550751   588131 
 5910000    1.3862574   -3.4556452    -1.903378   0.14625968   -3.4556452    1.5522672   588156 
 5911000    1.3856896   -3.4556288   -1.9040633   0.15115652   -3.4556288    1.5515654   588181 
 5912000    1.3870457   -3.4555948   -1.9025347   0.15123878   -3.4555948    1.5530601   588190 
 5913000    1.3855033   -3.4542928    -1.903002   0.15452983   -3.4542928    1.5512909   588206 
 5914000    1.3873368   -3.4570634   -1.9037592   0.14433698   -3.4570634    1.5533042   588221 
 5915000     1.388136   -3.4573875   -1.9032281   0.15047752   -3.4573875    1.5541594   588236 
 5916000     1.388187   -3.4582034   -1.9040292   0.14665505   -3.4582034    1.5541742   588252 
 5917000    1.3895807   -3.4594594    -1.903783   0.14772628   -3.4594594    1.5556764   588274 
 5918000    1.3877125   -3.4575514   -1.9040193   0.14543346   -3.4575514    1.5535321   588294 
 5919000    1.3874737   -3.4578162   -1.9045965   0.14650687   -3.4578162    1.5532198   588311 
 5920000    1.3862071   -3.4566349   -1.9048778   0.15358442   -3.4566349    1.5517571   588328 
 5921000    1.3870402   -3.4569213   -1.9042607   0.15085684   -3.4569213    1.5526606   588339 
 5922000    1.3875683   -3.4573216   -1.9040936   0.15185762   -3.4573216     1.553228   588348 
 5923000    1.3879849   -3.4588289   -1.9051556   0.14960437   -3.4588289    1.5536733   588356 
 5924000    1.3873012   -3.4568313   -1.9039814   0.15129015   -3.4568313    1.5528499   588378 
 5925000    1.3871385   -3.4560006   -1.9033857   0.15757586   -3.4560006    1.5526149   588398 
 5926000    1.3861916   -3.4558698   -1.9043701    0.1559975   -3.4558698    1.5514997   588419 
 5927000    1.3874027   -3.4573381   -1.9045514   0.15544643   -3.4573381    1.5527867   588445 
 5928000    1.3881448   -3.4579658   -1.9043961   0.15077561   -3.4579658    1.5535697   588463 
 5929000    1.3864891   -3.4561697   -1.9045215   0.15670906   -3.4561697    1.5516481   588489 
 5930000    1.3864067   -3.4562686   -1.9047469   0.15235404   -3.4562686    1.5515217   588502 
 5931000    1.3855802   -3.4550437   -1.9044839     0.153243   -3.4550437    1.5505598   588516 
 5932000    1.3885057   -3.4575124   -1.9037606   0.15063678   -3.4575124    1.5537518   588547 
 5933000    1.3876572   -3.4583963   -1.9056468   0.14986222   -3.4583963    1.5527495   588567 
 5934000    1.3877569   -3.4572823   -1.9044503   0.15178539   -3.4572823    1.5528321   588578 
 5935000    1.3882724   -3.4583107   -1.9049546   0.14848498   -3.4583107    1.5533561   588598 
 5936000    1.3879183   -3.4585821   -1.9056644   0.14332685   -3.4585821    1.5529177   588614 
 5937000    1.3873697   -3.4570009    -1.904784   0.15057759   -3.4570009    1.5522169   588647 
 5938000    1.3872055   -3.4570689   -1.9050857   0.14846027   -3.4570689    1.5519831   588666 
 5939000    1.3887583   -3.4591598   -1.9054658   0.15037736   -3.4591598    1.5536939   588676 
 5940000    1.3872992    -3.458009   -1.9060002   0.15393586    -3.458009    1.5520088   588696 
 5941000    1.3872904   -3.4575797   -1.9056255   0.15110201   -3.4575797    1.5519542   588713 
 5942000      1.38822   -3.4576202      -1.9047   0.15343931   -3.4576202    1.5529203   588741 
 5943000    1.3888284   -3.4582945   -1.9047438   0.15400713   -3.4582945    1.5535507   588760 
 5944000    1.3877876   -3.4590083   -1.9066694   0.14534192   -3.4590083    1.5523389   588778 
 5945000    1.3853959   -3.4567071   -1.9071066   0.14759573   -3.4567071    1.5496005   588802 
 5946000    1.3877885   -3.4588651   -1.9066675   0.14951739   -3.4588651    1.5521976   588832 
 5947000    1.3882558    -3.458749   -1.9061079   0.15281935    -3.458749    1.5526412   588862 
 5948000     1.389126   -3.4582021   -1.9046167   0.15265742   -3.4582021    1.5535854   588873 
 5949000    1.3882703   -3.4585041   -1.9059258   0.15634697   -3.4585041    1.5525783   588892 
 5950000    1.3878915    -3.458307   -1.9062235   0.15631173    -3.458307    1.5520835   588919 
 5951000    1.3888353   -3.4583317    -1.905256    0.1476559   -3.4583317    1.5530757   588943 
 5952000    1.3879258   -3.4587611   -1.9067577   0.15095317   -3.4587611    1.5520033   588964 
 5953000    1.3870061   -3.4575932   -1.9066473   0.15577588   -3.4575932    1.5509459   588975 
 5954000    1.3887525   -3.4593463   -1.9064846   0.15064819   -3.4593463    1.5528618   588989 
 5955000    1.3900343   -3.4609751   -1.9067593   0.15485723   -3.4609751    1.5542158   589019 
 5956000    1.3886421   -3.4593769   -1.9067361   0.15671089   -3.4593769    1.5526408   589026 
 5957000    1.3899926   -3.4606568   -1.9065561    0.1540491   -3.4606568    1.5541007   589045 
 5958000    1.3891174   -3.4609014   -1.9078345   0.15612661   -3.4609014    1.5530668   589066 
 5959000     1.387603   -3.4593581    -1.908024   0.15237981   -3.4593581    1.5513341   589081 
 5960000    1.3885449   -3.4610975   -1.9087367    0.1509194   -3.4610975    1.5523608   589091 
 5961000    1.3890411    -3.461178   -1.9083231   0.15168226    -3.461178     1.552855   589114 
 5962000     1.388254   -3.4614833   -1.9095478   0.15484657   -3.4614833    1.5519354   589129 
 5963000    1.3878024   -3.4610305   -1.9096315   0.14937064   -3.4610305     1.551399   589141 
 5964000    1.3877983   -3.4610583   -1.9096954   0.14679068   -3.4610583    1.5513629   589153 
 5965000     1.388105   -3.4622197   -1.9105482    0.1584694   -3.4622197    1.5516715   589166 
 5966000    1.3893036   -3.4622933   -1.9093268   0.15224831   -3.4622933    1.5529665   589183 
 5967000    1.3881768    -3.461399   -1.9097395   0.15205816    -3.461399    1.5516595   589201 
 5968000    1.3873328   -3.4616314    -1.910931   0.15117169   -3.4616314    1.5507004   589207 
 5969000    1.3886301   -3.4620673   -1.9099722   0.15352565   -3.4620673    1.5520951   589228 
 5970000    1.3889929   -3.4615905   -1.9091267   0.15173378   -3.4615905    1.5524638   589242 
 5971000    1.3905494   -3.4627893   -1.9086466   0.15208478   -3.4627893    1.5541427   589265 
 5972000    1.3905601   -3.4625424   -1.9084588   0.14906473   -3.4625424    1.5540836   589292 
 5973000    1.3894611   -3.4619816   -1.9091659   0.15332587   -3.4619816    1.5528157   589307 
 5974000    1.3896394   -3.4629488   -1.9099707   0.14547448   -3.4629488    1.5529781   589321 
 5975000    1.3890704   -3.4631303   -1.9108355   0.14398604   -3.4631303    1.5522948   589339 
 5976000    1.3889321   -3.4633246   -1.9112528   0.14637188   -3.4633246    1.5520718   589365 
 5977000    1.3895217   -3.4645262   -1.9118588   0.14903126   -3.4645262    1.5526674   589389 
 5978000    1.3877964   -3.4617764   -1.9110737   0.15422149   -3.4617764    1.5507027   589403 
 5979000    1.3887745   -3.4620871   -1.9103416   0.15135005   -3.4620871    1.5517456   589422 
 5980000    1.3890197   -3.4632622   -1.9112848   0.15263011   -3.4632622    1.5519774   589438 
 5981000    1.3889228   -3.4613603   -1.9095385    0.1513859   -3.4613603    1.5518218   589456 
 5982000    1.3912336   -3.4636461   -1.9092953   0.15506115   -3.4636461    1.5543508   589476 
 5983000    1.3888719   -3.4618795   -1.9102226   0.15055861   -3.4618795     1.551657   589497 
 5984000    1.3901624   -3.4643482   -1.9112942   0.14524867   -3.4643482     1.553054   589514 
 5985000    1.3894998   -3.4640816   -1.9118284   0.14963464   -3.4640816    1.5522532   589537 
 5986000    1.3906486   -3.4641902    -1.910738   0.15428242   -3.4641902    1.5534522   589569 
 5987000    1.3897065   -3.4635278   -1.9112069   0.14801646   -3.4635278    1.5523208   589599 
 5988000    1.3890655    -3.463327   -1.9117774   0.14696723    -3.463327    1.5515496   589620 
 5989000    1.3884081   -3.4626308   -1.9118602   0.15556264   -3.4626308    1.5507706   589637 
 5990000     1.390069   -3.4633409   -1.9107573   0.14950779   -3.4633409    1.5525836   589653 
 5991000    1.3888821   -3.4618798   -1.9106719   0.15339363   -3.4618798    1.5512079   589672 
 5992000    1.3886558   -3.4617073    -1.910818   0.15736072   -3.4617073    1.5508894   589697 
 5993000    1.3906142   -3.4636401   -1.9106188   0.15418935   -3.4636401    1.5530213   589718 
 5994000    1.3890811    -3.461926    -1.910672   0.15890514    -3.461926    1.5512539   589739 
 5995000    1.3918075   -3.4650862   -1.9108404   0.15231858   -3.4650862    1.5542459   589759 
 5996000    1.3889082     -3.46293   -1.9119928   0.16093873     -3.46293    1.5509372   589786 
 5997000     1.389812   -3.4639381   -1.9120312   0.14882796   -3.4639381    1.5519069   589801 
 5998000    1.3888153   -3.4633922   -1.9126323   0.15554678   -3.4633922    1.5507599   589814 
 5999000    1.3891895   -3.4643811   -1.9132744   0.15384247   -3.4643811    1.5511067   589841 
 6000000    1.3897693   -3.4637951   -1.9120674   0.15398858   -3.4637951    1.5517277   589851 
 6001000    1.3899236   -3.4643731   -1.9125231   0.14818352   -3.4643731    1.5518501   589870 
 6002000    1.3905642    -3.465048   -1.9125301   0.14875886    -3.465048     1.552518   589888 
 6003000    1.3900442   -3.4639425   -1.9120288   0.15273733   -3.4639425    1.5519136   589897 
 6004000    1.3916279   -3.4655345   -1.9119186   0.15369041   -3.4655345    1.5536159   589922 
 6005000    1.3888322    -3.462389   -1.9119389    0.1504975    -3.462389    1.5504501   589939 
 6006000    1.3900939   -3.4641775    -1.912361   0.15340404   -3.4641775    1.5518165   589955 
 6007000    1.3896659   -3.4623722   -1.9110624   0.15378764   -3.4623722    1.5513098   589966 
 6008000    1.3905589    -3.463797   -1.9115613   0.15731972    -3.463797    1.5522356   589993 
 6009000     1.390955   -3.4646896   -1.9120644   0.15144321   -3.4646896    1.5526252   590013 
 6010000    1.3917506   -3.4657896   -1.9123079   0.15468005   -3.4657896    1.5534817   590025 
 6011000    1.3888496   -3.4637103   -1.9135299   0.15402343   -3.4637103    1.5501805   590049 
 6012000    1.3913498   -3.4653793    -1.912466   0.14926497   -3.4653793    1.5529133   590071 
 6013000    1.3900048   -3.4644936   -1.9131578    0.1498701   -3.4644936    1.5513358   590100 
 6014000    1.3914942   -3.4654063   -1.9124504   0.15251245   -3.4654063     1.552956   590116 
 6015000     1.389789   -3.4653369    -1.914326   0.14950977   -3.4653369    1.5510108   590132 
 6016000    1.3892287   -3.4658052   -1.9154617   0.14864766   -3.4658052    1.5503435   590148 
 6017000    1.3899862   -3.4647971   -1.9136766   0.15544868   -3.4647971    1.5511205   590174 
 6018000    1.3898324   -3.4642834   -1.9133739   0.16203285   -3.4642834    1.5509095   590189 
 6019000    1.3911317   -3.4668732   -1.9145454   0.15473879   -3.4668732    1.5523278   590201 
 6020000    1.3910294   -3.4667548   -1.9145858   0.15137999   -3.4667548     1.552169   590218 
 6021000    1.3912759   -3.4670733   -1.9146766   0.14918543   -3.4670733    1.5523966   590236 
 6022000    1.3912796   -3.4665577   -1.9141779   0.14942961   -3.4665577    1.5523798   590244 
 6023000    1.3910697    -3.466851   -1.9147711   0.15516699    -3.466851    1.5520799   590269 
 6024000    1.3899012   -3.4652836   -1.9145811   0.15139936   -3.4652836    1.5507025   590297 
 6025000    1.3914216   -3.4669987   -1.9146761   0.14738465   -3.4669987    1.5523226   590326 
 6026000    1.3907165    -3.465933   -1.9144602   0.15453308    -3.465933    1.5514729   590350 
 6027000    1.3897555   -3.4652903   -1.9149473   0.14986422   -3.4652903     1.550343   590372 
 6028000    1.3925076   -3.4688448   -1.9154581   0.14911092   -3.4688448    1.5533867   590382 
 6029000    1.3889516   -3.4664175   -1.9170842   0.14774637   -3.4664175    1.5493333   590415 
 6030000    1.3883848    -3.465981   -1.9173403   0.14631145    -3.465981    1.5486407   590438 
 6031000    1.3890435   -3.4666807   -1.9173315   0.15168649   -3.4666807    1.5493492   590448 
 6032000    1.3885628   -3.4658725   -1.9170987   0.15568606   -3.4658725    1.5487737   590463 
 6033000    1.3905842   -3.4681186   -1.9171218   0.15239341   -3.4681186    1.5509968   590475 
 6034000    1.3897603   -3.4669878   -1.9169387   0.15046127   -3.4669878    1.5500491   590486 
 6035000     1.390237   -3.4670973   -1.9165797   0.14889285   -3.4670973    1.5505177   590510 
 6036000    1.3894668   -3.4656475   -1.9160334    0.1592566   -3.4656475    1.5496141   590527 
 6037000    1.3900617   -3.4668386   -1.9166241   0.15281673   -3.4668386    1.5502145   590551 
 6038000    1.3918765   -3.4677518   -1.9155633   0.15618669   -3.4677518    1.5521884   590570 
 6039000    1.3928737   -3.4697464     -1.91653   0.15120292   -3.4697464    1.5532163   590602 
 6040000    1.3922565   -3.4687723   -1.9162599   0.14543018   -3.4687723    1.5525123   590608 
 6041000    1.3919224   -3.4691815   -1.9171074   0.15877335   -3.4691815    1.5520741   590633 
 6042000    1.3904213   -3.4675027   -1.9171208   0.15751709   -3.4675027    1.5503819   590640 
 6043000    1.3910824   -3.4683572    -1.917296   0.15435942   -3.4683572    1.5510612   590662 
 6044000    1.3914704   -3.4693344   -1.9179035   0.15595528   -3.4693344    1.5514309   590686 
 6045000    1.3898581   -3.4683417   -1.9187401   0.15395226   -3.4683417    1.5496017   590698 
 6046000     1.390288   -3.4695003    -1.919477   0.15409796   -3.4695003    1.5500233   590720 
 6047000    1.3910639   -3.4700164   -1.9191491   0.15615046   -3.4700164    1.5508673   590728 
 6048000    1.3907829   -3.4692855   -1.9187787   0.15428979   -3.4692855    1.5505068   590746 
 6049000    1.3907071   -3.4699063   -1.9195549   0.14932199   -3.4699063    1.5503514   590773 
 6050000    1.3918112    -3.470286   -1.9187248    0.1549285    -3.470286    1.5515613   590781 
 6051000    1.3922123   -3.4695152   -1.9175435   0.15056585   -3.4695152    1.5519716   590795 
 6052000    1.3905359   -3.4676102   -1.9175494   0.15260914   -3.4676102    1.5500609   590811 
 6053000    1.3932591   -3.4699934   -1.9169678   0.15177888   -3.4699934    1.5530255   590838 
 6054000    1.3923203   -3.4696161    -1.917679   0.15229891   -3.4696161    1.5519371   590854 
 6055000    1.3928013   -3.4698696   -1.9174332   0.14768315   -3.4698696    1.5524365   590868 
 6056000    1.3931158   -3.4700017   -1.9172831   0.14819575   -3.4700017    1.5527186   590894 
 6057000    1.3910457   -3.4685792   -1.9182464   0.15487296   -3.4685792    1.5503327   590924 
 6058000    1.3922241   -3.4699114   -1.9183021   0.14943203   -3.4699114    1.5516093   590938 
 6059000    1.3917653   -3.4696443    -1.918633   0.15091793   -3.4696443    1.5510114   590971 
 6060000    1.3901248   -3.4685137   -1.9194092   0.15802865   -3.4685137    1.5491044   591001 
 6061000    1.3912285   -3.4691785   -1.9188651   0.15360652   -3.4691785    1.5503134   591009 
 6062000    1.3895655     -3.46803   -1.9196169   0.14680711     -3.46803    1.5484131   591027 
 6063000    1.3908155   -3.4700192    -1.920271   0.15037892   -3.4700192    1.5497483   591049 
 6064000    1.3900683   -3.4699497   -1.9210681   0.15217251   -3.4699497    1.5488816   591062 
 6065000    1.3910784   -3.4725399   -1.9225617   0.14677362   -3.4725399    1.5499783   591073 
 6066000    1.3914286   -3.4723145   -1.9220221    0.1522279   -3.4723145    1.5502924   591102 
 6067000    1.3910698    -3.471434   -1.9215596   0.14689511    -3.471434    1.5498744   591109 
 6068000     1.392051    -3.472279   -1.9213614   0.15350292    -3.472279    1.5509176   591128 
 6069000    1.3932371   -3.4737041    -1.921478   0.14959951   -3.4737041     1.552226   591133 
 6070000    1.3932226   -3.4727935   -1.9206335   0.15271023   -3.4727935      1.55216   591152 
 6071000     1.394571    -3.473916   -1.9203326    0.1531273    -3.473916    1.5535833   591182 
 6072000    1.3926126   -3.4732236   -1.9218771   0.15467211   -3.4732236    1.5513465   591203 
 6073000    1.3926655   -3.4726663   -1.9213291    0.1545246   -3.4726663    1.5513372   591229 
 6074000     1.391082    -3.471719    -1.922164   0.15748312    -3.471719    1.5495549   591236 
 6075000     1.392613   -3.4739094   -1.9226883   0.15546302   -3.4739094     1.551221   591251 
 6076000    1.3928262   -3.4732488   -1.9218244   0.15164356   -3.4732488    1.5514244   591264 
 6077000    1.3914912   -3.4714253   -1.9215325   0.15691795   -3.4714253    1.5498928   591281 
 6078000    1.3927574    -3.472539   -1.9212805   0.15304117    -3.472539    1.5512586   591298 
 6079000    1.3928512    -3.471267   -1.9199433   0.15715908    -3.471267    1.5513237   591313 
 6080000    1.3930167   -3.4721079   -1.9206471   0.15446873   -3.4721079    1.5514608   591331 
 6081000    1.3928123   -3.4722467   -1.9210398   0.14827426   -3.4722467    1.5512069   591341 
 6082000    1.3924593   -3.4713682   -1.9206016   0.15932513   -3.4713682    1.5507666   591359 
 6083000     1.392839   -3.4710779    -1.919933   0.15465965   -3.4710779    1.5511449   591376 
 6084000    1.3929586   -3.4709138   -1.9196856   0.14833447   -3.4709138    1.5512282   591395 
 6085000    1.3923293   -3.4703104   -1.9198276   0.15409722   -3.4703104    1.5504828   591412 
 6086000    1.3941956   -3.4716936   -1.9191797   0.15737848   -3.4716936    1.5525138   591430 
 6087000     1.392764   -3.4710294   -1.9201543   0.15062689   -3.4710294    1.5508751   591447 
 6088000     1.392374   -3.4710095   -1.9206551   0.15146731   -3.4710095    1.5503544   591480 
 6089000    1.3935378   -3.4721785   -1.9205704   0.15553611   -3.4721785    1.5516082   591496 
 6090000    1.3932685   -3.4711626   -1.9198962    0.1537552   -3.4711626    1.5512664   591512 
 6091000    1.3935736   -3.4714393   -1.9199093    0.1571857   -3.4714393      1.55153   591541 
 6092000    1.3938782   -3.4725129   -1.9206962   0.15015702   -3.4725129    1.5518167   591561 
 6093000    1.3926085   -3.4716663   -1.9213052    0.1526197   -3.4716663    1.5503612   591577 
 6094000    1.3947027   -3.4736252   -1.9209535   0.15631598   -3.4736252    1.5526717   591585 
 6095000    1.3933739   -3.4718005   -1.9206371   0.15046803   -3.4718005    1.5511635   591596 
 6096000    1.3942898   -3.4728032   -1.9206779     0.155669   -3.4728032    1.5521254   591618 
 6097000    1.3938593    -3.473163   -1.9215456   0.15439127    -3.473163    1.5516174   591629 
 6098000    1.3933103   -3.4728361   -1.9218718   0.15496113   -3.4728361    1.5509642   591645 
 6099000    1.3929265   -3.4727519   -1.9222595   0.15909333   -3.4727519    1.5504924   591662 
 6100000     1.392854   -3.4734342   -1.9230828   0.15223342   -3.4734342    1.5503515   591685 
 6101000    1.3944218   -3.4751444   -1.9230898   0.15437855   -3.4751444    1.5520546   591701 
 6102000    1.3935406   -3.4759282   -1.9248964   0.15446239   -3.4759282    1.5510318   591717 
 6103000    1.3942159   -3.4757941   -1.9240658    0.1556928   -3.4757941    1.5517284   591738 
 6104000    1.3925531   -3.4746301   -1.9247708   0.15611856   -3.4746301    1.5498594   591745 
 6105000    1.3935276   -3.4764571   -1.9255839   0.15543532   -3.4764571    1.5508732   591772 
 6106000    1.3912603   -3.4742852   -1.9259877    0.1556972   -3.4742852    1.5482975   591792 
 6107000    1.3912622   -3.4744726     -1.92622   0.15459347   -3.4744726    1.5482526   591810 
 6108000     1.393909   -3.4775899   -1.9264232   0.14718107   -3.4775899    1.5511667   591822 
 6109000    1.3924207   -3.4748168   -1.9253326    0.1505165   -3.4748168    1.5494842   591832 
 6110000    1.3924065   -3.4753547   -1.9259387    0.1525636   -3.4753547    1.5494161   591852 
 6111000    1.3920114   -3.4751481   -1.9262293   0.15560016   -3.4751481    1.5489188   591874 
 6112000    1.3931217   -3.4761086   -1.9260251   0.15284902   -3.4761086    1.5500836   591901 
 6113000    1.3942967   -3.4760696   -1.9247442   0.15344258   -3.4760696    1.5513255   591926 
 6114000    1.3941963   -3.4760486   -1.9248873   0.15620427   -3.4760486    1.5511613   591946 
 6115000    1.3932946   -3.4753388   -1.9252331    0.1567119   -3.4753388    1.5501057   591966 
 6116000     1.396657   -3.4776434   -1.9238678   0.15156609   -3.4776434    1.5537757   591993 
 6117000    1.3946572   -3.4752316   -1.9237357   0.16143303   -3.4752316    1.5514959   592014 
 6118000    1.3944147   -3.4751933   -1.9240248   0.15805366   -3.4751933    1.5511685   592036 
 6119000    1.3951278    -3.476952   -1.9250505   0.15409673    -3.476952    1.5519014   592059 
 6120000    1.3932916   -3.4753386   -1.9254902   0.15316877   -3.4753386    1.5498484   592063 
 6121000    1.3949723   -3.4775547   -1.9258813   0.15310991   -3.4775547    1.5516734   592080 
 6122000    1.3934031   -3.4756567   -1.9257732   0.15513657   -3.4756567    1.5498835   592097 
 6123000    1.3935009    -3.475446   -1.9254956   0.15680293    -3.475446    1.5499504   592113 
 6124000    1.3934262   -3.4761666   -1.9263622   0.14796359   -3.4761666    1.5498045   592137 
 6125000    1.3936971   -3.4774258    -1.927375   0.15114876   -3.4774258    1.5500507   592158 
 6126000    1.3934656   -3.4766345   -1.9268726   0.15348712   -3.4766345    1.5497619   592170 
 6127000    1.3941142   -3.4773844   -1.9269666   0.15345214   -3.4773844    1.5504179   592195 
 6128000    1.3937144   -3.4768709   -1.9269318   0.15428452   -3.4768709    1.5499391   592208 
 6129000    1.3936173   -3.4763953   -1.9266269    0.1566189   -3.4763953    1.5497684   592232 
 6130000    1.3942992    -3.477448   -1.9269711   0.15455801    -3.477448    1.5504769   592251 
 6131000    1.3941407   -3.4777121   -1.9274743   0.15451375   -3.4777121    1.5502378   592275 
 6132000    1.3929486   -3.4768078   -1.9279819   0.15986322   -3.4768078    1.5488259   592308 
 6133000    1.3944191    -3.477331   -1.9269039   0.15568156    -3.477331     1.550427   592321 
 6134000    1.3941255   -3.4769278   -1.9269032   0.15118387   -3.4769278    1.5500247   592350 
 6135000    1.3947762   -3.4770975   -1.9264044   0.15668317   -3.4770975    1.5506932   592371 
 6136000    1.3951919   -3.4766229   -1.9254911   0.16084635   -3.4766229    1.5511318   592380 
 6137000    1.3945963   -3.4773712   -1.9269723   0.15476561   -3.4773712    1.5503989   592407 
 6138000    1.3920097   -3.4752295   -1.9277558   0.16159387   -3.4752295    1.5474737   592426 
 6139000    1.3941926   -3.4765897    -1.926718   0.15546365   -3.4765897    1.5498717   592437 
 6140000    1.3941139   -3.4767059   -1.9269584   0.15180215   -3.4767059    1.5497475   592451 
 6141000    1.3945484   -3.4775784   -1.9274028   0.15184707   -3.4775784    1.5501756   592472 
 6142000    1.3973775   -3.4801301   -1.9268333   0.15142765   -3.4801301    1.5532968   592481 
 6143000    1.3954343    -3.478094   -1.9269991   0.15384565    -3.478094    1.5510949   592497 
 6144000    1.3942065   -3.4773401   -1.9276493   0.15242898   -3.4773401    1.5496909   592512 
 6145000    1.3948656   -3.4775384   -1.9271226   0.15888723   -3.4775384    1.5504157   592515 
 6146000     1.394382   -3.4780451   -1.9282166    0.1487546   -3.4780451    1.5498284   592534 
 6147000    1.3960554   -3.4794076   -1.9277715   0.15224446   -3.4794076     1.551636   592554 
 6148000    1.3961753   -3.4806037   -1.9288764    0.1454748   -3.4806037    1.5517273   592570 
 6149000    1.3938577   -3.4787275   -1.9296099   0.15436081   -3.4787275    1.5491176   592583 
 6150000    1.3939458    -3.478484   -1.9293182   0.15317827    -3.478484    1.5491658   592602 
 6151000    1.3939566    -3.478479   -1.9293482   0.16108529    -3.478479    1.5491308   592620 
 6152000    1.3955162   -3.4806377   -1.9298523   0.14891487   -3.4806377    1.5507855   592650 
 6153000    1.3932665   -3.4785103   -1.9302744   0.15352676   -3.4785103    1.5482359   592669 
 6154000    1.3938679   -3.4799907   -1.9311597   0.15902063   -3.4799907     1.548831   592697 
 6155000    1.3943806   -3.4805707   -1.9312146   0.15459108   -3.4805707    1.5493562   592714 
 6156000    1.3931349   -3.4795188    -1.931578    0.1590564   -3.4795188    1.5479408   592726 
 6157000    1.3959371   -3.4825397   -1.9315456   0.15165779   -3.4825397    1.5509941   592749 
 6158000    1.3948674   -3.4811751   -1.9314035   0.15490355   -3.4811751    1.5497716   592762 
 6159000    1.3947902   -3.4822461   -1.9326231   0.15217559   -3.4822461    1.5496231   592786 
 6160000    1.3942562   -3.4814277   -1.9324476   0.15387646   -3.4814277    1.5489801   592805 
 6161000    1.3938497   -3.4808224    -1.932333   0.15655264   -3.4808224    1.5484894   592820 
 6162000    1.3944185    -3.481531   -1.9324411   0.15397051    -3.481531    1.5490899   592832 
 6163000    1.3943251   -3.4815341   -1.9325663   0.15219853   -3.4815341    1.5489679   592839 
 6164000    1.3937934   -3.4809972    -1.932633   0.15736751   -3.4809972    1.5483642   592844 
 6165000    1.3958426    -3.483183   -1.9325895   0.14863892    -3.483183    1.5505936   592862 
 6166000    1.3938686   -3.4809962   -1.9326686   0.15042254   -3.4809962    1.5483276   592890 
 6167000    1.3930103   -3.4807281   -1.9333852   0.15002173   -3.4807281    1.5473428   592902 
 6168000    1.3941571   -3.4820952   -1.9335125   0.15759284   -3.4820952    1.5485827   592915 
 6169000    1.3951371   -3.4834468   -1.9338173   0.14924323   -3.4834468    1.5496295   592931 
 6170000    1.3927568   -3.4808969   -1.9339505   0.15461948   -3.4808969    1.5469464   592946 
 6171000    1.3942813   -3.4823962   -1.9338061    0.1554078   -3.4823962      1.54859   592965 
 6172000    1.3945316    -3.482944   -1.9341464   0.15040315    -3.482944    1.5487976   592992 
 6173000    1.3940857   -3.4825457   -1.9342904   0.15085092   -3.4825457    1.5482553   593010 
 6174000    1.3933995   -3.4824028   -1.9349513   0.15685687   -3.4824028    1.5474515   593026 
 6175000     1.394825   -3.4830148    -1.933988   0.15560998   -3.4830148    1.5490268   593029 
 6176000    1.3932027   -3.4810786   -1.9338979   0.15840654   -3.4810786    1.5471807   593046 
 6177000    1.3952255   -3.4822968   -1.9329115    0.1534057   -3.4822968    1.5493854   593062 
 6178000    1.3957043   -3.4823305   -1.9324866   0.15186755   -3.4823305    1.5498439   593090 
 6179000      1.39463   -3.4806848   -1.9321044   0.16003992   -3.4806848    1.5485804   593117 
 6180000    1.3939057   -3.4803856   -1.9326616   0.15731065   -3.4803856     1.547724   593137 
 6181000    1.3961595   -3.4814274   -1.9312218   0.15237117   -3.4814274    1.5502056   593145 
 6182000    1.3974138   -3.4825058   -1.9309441   0.15471335   -3.4825058    1.5515617   593159 
 6183000    1.3973881   -3.4823441    -1.930858   0.15218907   -3.4823441    1.5514861   593177 
 6184000    1.3977646   -3.4837145   -1.9318366   0.15019065   -3.4837145    1.5518778   593187 
 6185000    1.3968567   -3.4822129    -1.931377     0.154974   -3.4822129    1.5508359   593200 
 6186000    1.3956341   -3.4807002    -1.931266   0.15601721   -3.4807002    1.5494342   593217 
 6187000    1.3967958   -3.4819241   -1.9312577   0.15333304   -3.4819241    1.5506664   593239 
 6188000    1.3949447   -3.4798034   -1.9312365    0.1585943   -3.4798034     1.548567   593256 
 6189000    1.3962768   -3.4823425    -1.932328   0.15231807   -3.4823425    1.5500144   593268 
 6190000    1.3963799   -3.4824178   -1.9323307   0.15480672   -3.4824178    1.5500871   593284 
 6191000    1.3950826   -3.4821106   -1.9334871   0.15155108   -3.4821106    1.5486235   593293 
 6192000     1.395793   -3.4823141   -1.9329334    0.1580444   -3.4823141    1.5493807   593305 
 6193000    1.3962355   -3.4817053   -1.9318882   0.16102431   -3.4817053     1.549817   593326 
 6194000    1.3967253   -3.4824979   -1.9321816   0.15882189   -3.4824979    1.5503163   593343 
 6195000    1.3964968    -3.482752   -1.9327364   0.15207907    -3.482752    1.5500157   593361 
 6196000    1.3963607   -3.4823322   -1.9325172    0.1567643   -3.4823322    1.5498149   593380 
 6197000    1.3976539   -3.4830879   -1.9318743   0.15637424   -3.4830879    1.5512136   593394 
 6198000    1.3959239   -3.4823762   -1.9331088   0.15503063   -3.4823762    1.5492674   593404 
 6199000    1.3953223   -3.4822405    -1.933672    0.1568968   -3.4822405    1.5485685   593416 
 6200000    1.3964873   -3.4833463   -1.9335136   0.16196186   -3.4833463    1.5498327   593427 
 6201000    1.3977796   -3.4841152   -1.9328902   0.15691805   -3.4841152     1.551225   593443 
 6202000    1.3967714   -3.4831527   -1.9330857   0.15647249   -3.4831527     1.550067   593458 
 6203000    1.3953936   -3.4820312   -1.9335193   0.15937432   -3.4820312    1.5485119   593468 
 6204000    1.3970146   -3.4849326   -1.9346349   0.15260443   -3.4849326    1.5502977   593473 
 6205000    1.3953329   -3.4838265    -1.935455   0.15567369   -3.4838265    1.5483715   593496 
 6206000    1.3957748   -3.4840276   -1.9352075   0.15224026   -3.4840276    1.5488202   593512 
 6207000      1.39691   -3.4852269   -1.9352071   0.15358591   -3.4852269    1.5500197   593535 
 6208000    1.3951707    -3.482753   -1.9346945    0.1599974    -3.482753    1.5480585   593547 
 6209000    1.3963443   -3.4840465   -1.9347146   0.15871695   -3.4840465    1.5493319   593558 
 6210000    1.3956739   -3.4842358   -1.9356894   0.15287279   -3.4842358    1.5485464   593574 
 6211000    1.3941395   -3.4845238   -1.9377033    0.1468171   -3.4845238    1.5468205   593583 
 6212000    1.3933513   -3.4846653   -1.9387429   0.15214064   -3.4846653    1.5459225   593592 
 6213000    1.3923558    -3.484034   -1.9392473   0.15577125    -3.484034    1.5447867   593604 
 6214000    1.3941414   -3.4850142   -1.9382959   0.15305324   -3.4850142    1.5467183   593623 
 6215000    1.3950234   -3.4854959   -1.9378304   0.15890359   -3.4854959    1.5476655   593635 
 6216000     1.395299   -3.4852067   -1.9372719   0.15487357   -3.4852067    1.5479349   593649 
 6217000     1.394102   -3.4843905   -1.9378122   0.15468191   -3.4843905    1.5465783   593660 
 6218000    1.3952998   -3.4862997   -1.9384265   0.14461565   -3.4862997    1.5478732   593673 
 6219000    1.3939894    -3.485025   -1.9386499   0.15635361    -3.485025    1.5463751   593690 
 6220000    1.3942009   -3.4858268   -1.9392743   0.15459681   -3.4858268    1.5465525   593712 
 6221000    1.3934512    -3.484882   -1.9392185   0.15663411    -3.484882    1.5456635   593734 
 6222000    1.3962002   -3.4877918   -1.9391415   0.15608084   -3.4877918    1.5486503   593758 
 6223000    1.3952279   -3.4866383   -1.9391082   0.15062016   -3.4866383    1.5475301   593774 
 6224000    1.3952212   -3.4864162   -1.9389483   0.16225979   -3.4864162     1.547468   593795 
 6225000    1.3958198   -3.4871667   -1.9390845    0.1571475   -3.4871667    1.5480823   593814 
 6226000    1.3970207   -3.4878597   -1.9385316    0.1529803   -3.4878597    1.5493282   593847 
 6227000    1.3951511   -3.4867601   -1.9395706    0.1495052   -3.4867601    1.5471896   593872 
 6228000    1.3946843   -3.4856183   -1.9389803   0.15708156   -3.4856183     1.546638   593885 
 6229000    1.3955331   -3.4860706   -1.9385252   0.15410426   -3.4860706    1.5475454   593898 
 6230000    1.3954968   -3.4865193   -1.9390662   0.15249362   -3.4865193    1.5474531   593918 
 6231000    1.3972144   -3.4877505   -1.9384502   0.15093704   -3.4877505    1.5493003   593940 
 6232000     1.395812   -3.4869049   -1.9392143   0.15071754   -3.4869049    1.5476906   593961 
 6233000    1.3965537   -3.4875191    -1.939053   0.15012648   -3.4875191    1.5484661   593979 
 6234000    1.3952756   -3.4853912   -1.9383865   0.15005485   -3.4853912    1.5470047   593996 
 6235000    1.3975891   -3.4866563   -1.9371414   0.16004408   -3.4866563    1.5495149   594017 
 6236000    1.3973888   -3.4867564   -1.9375079   0.15382612   -3.4867564    1.5492485   594034 
 6237000    1.3966344   -3.4862331   -1.9378471   0.15559795   -3.4862331    1.5483861   594044 
 6238000    1.3964611   -3.4861451   -1.9380033   0.15642141   -3.4861451    1.5481418   594064 
 6239000    1.3964774   -3.4873412   -1.9391891   0.15438902   -3.4873412     1.548152   594067 
 6240000    1.3959439    -3.486678   -1.9391435   0.15234163    -3.486678    1.5475345   594077 
 6241000    1.3970832   -3.4868352   -1.9381001   0.15639843   -3.4868352    1.5487351   594101 
 6242000      1.39823   -3.4882083   -1.9382411   0.15215155   -3.4882083    1.5499672   594116 
 6243000    1.3965218   -3.4874522   -1.9394229   0.15562703   -3.4874522    1.5480294   594133 
 6244000    1.3949235   -3.4865648   -1.9403722   0.16271919   -3.4865648    1.5461926   594158 
 6245000    1.3967067   -3.4889009   -1.9407788    0.1517968   -3.4889009    1.5481222   594176 
 6246000     1.397688   -3.4881877   -1.9390065   0.15574802   -3.4881877    1.5491813   594187 
 6247000    1.3973448   -3.4876294   -1.9388416   0.15140229   -3.4876294    1.5487878   594192 
 6248000    1.3974648   -3.4876585    -1.938782   0.15760534   -3.4876585    1.5488765   594209 
 6249000    1.3974674   -3.4888983   -1.9400658   0.15629546   -3.4888983    1.5488325   594227 
 6250000    1.3990726   -3.4902628   -1.9397217   0.15561791   -3.4902628    1.5505411   594254 
 6251000    1.3974111   -3.4884016   -1.9397905   0.16179993   -3.4884016    1.5486111   594288 
 6252000    1.4000796   -3.4907555    -1.939208   0.15894438   -3.4907555    1.5515474   594296 
 6253000    1.3987713   -3.4895516    -1.939514   0.15822689   -3.4895516    1.5500376   594319 
 6254000     1.398726   -3.4894702   -1.9395454   0.15794962   -3.4894702    1.5499248   594343 
 6255000     1.396735   -3.4879057   -1.9402417   0.16394561   -3.4879057    1.5476639   594364 
 6256000    1.3971714    -3.489511   -1.9414365   0.15486987    -3.489511    1.5480746   594392 
 6257000     1.397938   -3.4900621    -1.941198   0.15194697   -3.4900621     1.548864   594415 
 6258000      1.39892   -3.4908969    -1.940984   0.15336707   -3.4908969    1.5499129   594430 
 6259000    1.3972171   -3.4900702   -1.9420726   0.15768545   -3.4900702    1.5479976   594441 
 6260000    1.3959274   -3.4884826   -1.9419269   0.15710609   -3.4884826    1.5465556   594446 
 6261000    1.3980195   -3.4901694   -1.9413115   0.15142481   -3.4901694    1.5488579   594452 
 6262000    1.3970606   -3.4890528   -1.9413016   0.15735221   -3.4890528    1.5477512   594469 
 6263000    1.3964902   -3.4876868    -1.940596   0.15225134   -3.4876868    1.5470907   594480 
 6264000    1.3992056   -3.4898461   -1.9397811   0.15524866   -3.4898461     1.550065   594493 
 6265000    1.3979155   -3.4882009   -1.9396328    0.1585743   -3.4882009    1.5485681   594519 
 6266000    1.3979902   -3.4885988   -1.9399896      0.15873   -3.4885988    1.5486092   594535 
 6267000    1.3992288   -3.4898414   -1.9398888    0.1522761   -3.4898414    1.5499526   594546 
 6268000    1.3991377   -3.4890657   -1.9392401   0.15881424   -3.4890657    1.5498256   594556 
 6269000    1.3983528    -3.489171   -1.9402487    0.1547638    -3.489171    1.5489223   594569 
 6270000    1.3988935   -3.4901856   -1.9407009   0.15108312   -3.4901856    1.5494847   594583 
 6271000    1.3978564   -3.4890517   -1.9407679   0.15498749   -3.4890517    1.5482838   594603 
 6272000    1.3987245   -3.4895075   -1.9403012    0.1541804   -3.4895075    1.5492063   594618 
 6273000     1.400571   -3.4913682   -1.9401845   0.14718452   -3.4913682    1.5511837   594644 
 6274000    1.3981119   -3.4877404   -1.9393271   0.15991893   -3.4877404    1.5484133   594662 
 6275000    1.3981986   -3.4880233    -1.939587   0.15526182   -3.4880233    1.5484364   594690 
 6276000    1.3979361   -3.4887577   -1.9406875    0.1555889   -3.4887577    1.5480702   594719 
 6277000    1.3979773   -3.4901019   -1.9420226   0.14745702   -3.4901019    1.5480793   594733 
 6278000     1.399486   -3.4910185   -1.9413154    0.1579205   -3.4910185    1.5497031   594751 
 6279000    1.3999144    -3.489982   -1.9398696   0.15042501    -3.489982    1.5501124   594776 
 6280000    1.3992425    -3.489498    -1.940213   0.15598965    -3.489498     1.549285   594808 
 6281000    1.3982012   -3.4887429   -1.9406629   0.15734355   -3.4887429      1.54808   594828 
 6282000    1.3995695   -3.4914565   -1.9419188   0.16094769   -3.4914565    1.5495377   594850 
 6283000    1.3984107   -3.4899411   -1.9417072   0.15796188   -3.4899411    1.5482339   594858 
 6284000    1.3989697   -3.4903697   -1.9415768   0.15836611   -3.4903697    1.5487929   594881 
 6285000    1.3977898   -3.4904296    -1.942969   0.15684314   -3.4904296    1.5474606   594891 
 6286000    1.3981125   -3.4911227   -1.9433126    0.1549839   -3.4911227    1.5478101   594894 
 6287000    1.3990706   -3.4927943   -1.9439757   0.15260207   -3.4927943    1.5488186   594914 
 6288000    1.3987601   -3.4927925   -1.9443566   0.14539455   -3.4927925    1.5484359   594929 
 6289000    1.3975529   -3.4928124   -1.9457857   0.15380231   -3.4928124    1.5470267   594957 
 6290000    1.3950874   -3.4907528   -1.9464942   0.15522165   -3.4907528    1.5442586   594972 
 6291000    1.3964797   -3.4919812   -1.9462074   0.15251642   -3.4919812    1.5457738   594982 
 6292000    1.3970437   -3.4932627   -1.9469062   0.14743134   -3.4932627    1.5463565   594998 
 6293000    1.3962863   -3.4920375   -1.9465531   0.15405672   -3.4920375    1.5454843   595011 
 6294000    1.3972537   -3.4933986   -1.9468981   0.15222051   -3.4933986    1.5465005   595032 
 6295000    1.3976836   -3.4934154   -1.9465196   0.14592658   -3.4934154    1.5468958   595063 
 6296000    1.3983225    -3.493356   -1.9458026   0.15427348    -3.493356    1.5475535   595082 
 6297000    1.3987406   -3.4933259   -1.9453747   0.15455593   -3.4933259    1.5479512   595107 
 6298000    1.3991541   -3.4932934   -1.9449497   0.15869559   -3.4932934    1.5483437   595132 
 6299000    1.4003477    -3.493955   -1.9443477   0.15531481    -3.493955    1.5496073   595154 
 6300000    1.3989186    -3.492899    -1.944933   0.15874593    -3.492899     1.547966   595177 
 6301000    1.3992469   -3.4932836   -1.9449802   0.16042909   -3.4932836    1.5483034   595187 
 6302000    1.3977092   -3.4925447   -1.9459793   0.16157866   -3.4925447    1.5465654   595201 
 6303000     1.399955    -3.494276    -1.945262   0.15487701    -3.494276     1.549014   595215 
 6304000    1.3994817   -3.4934066   -1.9449709   0.15897899   -3.4934066    1.5484357   595236 
 6305000    1.3995796   -3.4925389    -1.944034   0.15662755   -3.4925389    1.5485049   595251 
 6306000    1.3999826    -3.493293   -1.9443682    0.1562673    -3.493293    1.5489248   595261 
 6307000    1.4008118   -3.4930401   -1.9432499   0.15511106   -3.4930401    1.5497902   595281 
 6308000    1.4006474   -3.4929863   -1.9434327   0.15566329   -3.4929863    1.5495536   595302 
 6309000    1.4000268   -3.4929812   -1.9441454   0.15040794   -3.4929812    1.5488358   595314 
 6310000    1.3989384   -3.4929411   -1.9453665   0.15981188   -3.4929411    1.5475745   595336 
 6311000    1.3983638   -3.4931075   -1.9462258   0.15523193   -3.4931075    1.5468817   595358 
 6312000    1.3988694   -3.4930066    -1.945602    0.1469925   -3.4930066    1.5474046   595372 
 6313000    1.4004443   -3.4934387    -1.944318   0.15130673   -3.4934387    1.5491207   595382 
 6314000    1.4004981   -3.4933515   -1.9442285   0.15651224   -3.4933515     1.549123   595404 
 6315000    1.4006542   -3.4934986   -1.9442237   0.15669592   -3.4934986    1.5492749   595412 
 6316000     1.400184   -3.4931499   -1.9444211   0.15601009   -3.4931499    1.5487288   595422 
 6317000    1.4012045   -3.4930924   -1.9432713   0.16311267   -3.4930924    1.5498211   595436 
 6318000    1.4004888   -3.4943388   -1.9453926   0.15625361   -3.4943388    1.5489462   595468 
 6319000    1.3986137   -3.4922141   -1.9453833   0.15992755   -3.4922141    1.5468308   595484 
 6320000    1.4030377   -3.4967056    -1.945034   0.15690736   -3.4967056    1.5516716   595504 
 6321000    1.4010764   -3.4952522   -1.9457784    0.1556896   -3.4952522    1.5494738   595515 
 6322000    1.3984657    -3.492397   -1.9458415   0.16160993    -3.492397    1.5465554   595527 
 6323000    1.3998612    -3.494613   -1.9465533   0.15204641    -3.494613    1.5480597   595542 
 6324000    1.3982268   -3.4943942   -1.9481679   0.16035603   -3.4943942    1.5462263   595552 
 6325000    1.3998828   -3.4958562   -1.9478896   0.15827022   -3.4958562    1.5479666   595587 
 6326000    1.3990985   -3.4948417   -1.9478021   0.15878833   -3.4948417    1.5470396   595610 
 6327000    1.4003224   -3.4957949   -1.9474383   0.16032859   -3.4957949    1.5483566   595624 
 6328000    1.3992146   -3.4958158   -1.9487464   0.15654292   -3.4958158    1.5470693   595648 
 6329000    1.3982622    -3.494045   -1.9480442   0.15936463    -3.494045    1.5460008   595654 
 6330000    1.3979056    -3.494608   -1.9490509   0.15578893    -3.494608    1.5455571   595673 
 6331000    1.4012158   -3.4969485   -1.9477991   0.15342528   -3.4969485    1.5491493   595699 
 6332000    1.4001334   -3.4955354   -1.9476556   0.15454427   -3.4955354    1.5478799   595727 
 6333000    1.4002088   -3.4959996   -1.9481013   0.15693841   -3.4959996    1.5478983   595752 
 6334000    1.4015429   -3.4969087   -1.9475746   0.15348807   -3.4969087    1.5493341   595767 
 6335000    1.4012607   -3.4960284   -1.9470608   0.15919844   -3.4960284    1.5489676   595788 
 6336000    1.4015105   -3.4965416   -1.9473551   0.15220908   -3.4965416    1.5491865   595810 
 6337000    1.4010901   -3.4951141   -1.9464235   0.16469314   -3.4951141    1.5486906   595822 
 6338000    1.4005981   -3.4956763   -1.9475815   0.15776934   -3.4956763    1.5480948   595842 
 6339000    1.4012484   -3.4959514   -1.9472002   0.15962653   -3.4959514    1.5487512   595866 
 6340000    1.4016862   -3.4968237   -1.9476198   0.15526481   -3.4968237    1.5492039   595878 
 6341000    1.4007035   -3.4962921   -1.9482081   0.15662319   -3.4962921     1.548084   595891 
 6342000    1.4018897   -3.4988184   -1.9494858   0.15856559   -3.4988184    1.5493326   595915 
 6343000     1.399791   -3.4970172   -1.9500299   0.15261942   -3.4970172    1.5469872   595925 
 6344000     1.399974   -3.4967838   -1.9496385   0.15607419   -3.4967838    1.5471453   595942 
 6345000    1.3989722   -3.4958838    -1.949913   0.16220434   -3.4958838    1.5459708   595968 
 6346000    1.4009635   -3.4986182   -1.9505066   0.15681692   -3.4986182    1.5481116   595991 
 6347000    1.4004854   -3.4977017   -1.9501522   0.15890372   -3.4977017    1.5475495   596004 
 6348000    1.4010689   -3.4981994   -1.9500596    0.1534339   -3.4981994    1.5481398   596025 
 6349000     1.401236   -3.4986978   -1.9504462   0.15923848   -3.4986978    1.5482516   596053 
 6350000    1.3990172   -3.4971314   -1.9514273   0.16235692   -3.4971314     1.545704   596090 
 6351000    1.4003649   -3.4986989   -1.9515319   0.15493213   -3.4986989    1.5471671   596100 
 6352000    1.3997035   -3.4988387   -1.9523868   0.15490598   -3.4988387    1.5464519   596094 
 6353000    1.3981185    -3.496725   -1.9520553   0.15787362    -3.496725    1.5446697   596106 
 6354000    1.4000212   -3.4985705   -1.9518116   0.15447689   -3.4985705    1.5467588   596111 
 6355000    1.3993984    -3.498067   -1.9520221   0.15382202    -3.498067    1.5460448   596121 
 6356000    1.4006893   -3.4984908   -1.9510509   0.15064911   -3.4984908    1.5474399   596133 
 6357000    1.3992961   -3.4974421   -1.9515932   0.16574573   -3.4974421    1.5458489   596153 
 6358000    1.3989999   -3.4972465   -1.9517742   0.16269213   -3.4972465    1.5454724   596172 
 6359000    1.4001618   -3.4995638   -1.9528495   0.15534335   -3.4995638    1.5467143   596188 
 6360000    1.3988978   -3.4980857   -1.9528143   0.15692836   -3.4980857    1.5452714   596206 
 6361000    1.3996672   -3.4989604   -1.9528597   0.15480616   -3.4989604    1.5461006   596214 
 6362000    1.3992022   -3.4985199   -1.9529821   0.15572515   -3.4985199    1.5455377   596233 
 6363000    1.4007532   -3.5004786   -1.9532432   0.15633614   -3.5004786    1.5472354   596239 
 6364000    1.3988171   -3.4974929   -1.9524246   0.15729636   -3.4974929    1.5450683   596250 
 6365000    1.3995248   -3.4985017   -1.9526907   0.15404125   -3.4985017     1.545811   596265 
 6366000    1.3995311    -3.498491    -1.952717   0.15405568    -3.498491    1.5457739   596282 
 6367000    1.4001985   -3.4988908    -1.952416   0.15196354   -3.4988908    1.5464748   596296 
 6368000    1.3992827   -3.4980013   -1.9525847    0.1532193   -3.4980013    1.5454167   596314 
 6369000    1.3983919   -3.4976604   -1.9532613   0.15816949   -3.4976604    1.5443992   596327 
 6370000    1.3991718   -3.4992501   -1.9540233   0.15282287   -3.4992501    1.5452268   596340 
 6371000    1.4003507   -3.5008566   -1.9543798   0.15011693   -3.5008566    1.5464769   596360 
 6372000    1.3993369   -3.4992239   -1.9538822   0.16185602   -3.4992239    1.5453418   596366 
 6373000    1.4014116    -3.501377   -1.9537881   0.15783148    -3.501377    1.5475888   596383 
 6374000    1.3987838   -3.4995379   -1.9548691   0.15114688   -3.4995379    1.5446688   596390 
 6375000    1.3999875   -3.4998803   -1.9539289   0.15962537   -3.4998803    1.5459514   596408 
 6376000    1.3991589   -3.4992367   -1.9542599   0.15840251   -3.4992367    1.5449768   596431 
 6377000    1.4003494   -3.5005287   -1.9542892   0.15573619   -3.5005287    1.5462396   596451 
 6378000    1.3996898   -3.4997349   -1.9542651   0.15919934   -3.4997349    1.5454698   596467 
 6379000    1.4013778   -3.5020287   -1.9547496   0.15509532   -3.5020287    1.5472791   596488 
 6380000    1.3996293   -3.4993321   -1.9540353    0.1578329   -3.4993321    1.5452967   596508 
 6381000    1.4016376   -3.5018363   -1.9543767      0.15279   -3.5018363    1.5474596   596529 
 6382000    1.4026471   -3.5029896   -1.9544649   0.15226825   -3.5029896    1.5485247   596548 
 6383000    1.4011507   -3.5008697   -1.9540644   0.15567281   -3.5008697    1.5468053   596574 
 6384000    1.4006758   -3.5010985   -1.9548512   0.15139261   -3.5010985    1.5462474   596587 
 6385000    1.3986813   -3.4995939    -1.955569   0.15860724   -3.4995939    1.5440249   596595 
 6386000    1.4006139   -3.5018508   -1.9557184   0.15319109   -3.5018508    1.5461324   596605 
 6387000    1.4002328   -3.5011486   -1.9554706   0.15533751   -3.5011486     1.545678   596618 
 6388000    1.3983234   -3.4987529    -1.955224   0.16151889   -3.4987529    1.5435288   596634 
 6389000    1.4014743   -3.5005569   -1.9535785   0.15782101   -3.5005569    1.5469784   596645 
 6390000    1.4018132   -3.5018603    -1.954557   0.16142518   -3.5018603    1.5473033   596664 
 6391000    1.3998731   -3.5018963    -1.956781   0.15741072   -3.5018963    1.5451152   596682 
 6392000    1.3992084   -3.5018072   -1.9575059    0.1553183   -3.5018072    1.5443013   596713 
 6393000     1.399549   -3.5028444    -1.958219   0.15607388   -3.5028444    1.5446254   596733 
 6394000    1.4003047   -3.5030979   -1.9576799   0.15376225   -3.5030979     1.545418   596749 
 6395000    1.3998704   -3.5028201   -1.9579098   0.15467433   -3.5028201    1.5449103   596760 
 6396000     1.398967   -3.5024257   -1.9585797   0.16074677   -3.5024257     1.543846   596786 
 6397000    1.3991395   -3.5023053   -1.9583259   0.15480873   -3.5023053    1.5439795   596808 
 6398000    1.4006545   -3.5041818   -1.9585875   0.15039091   -3.5041818    1.5455943   596830 
 6399000    1.3997425   -3.5014858   -1.9569341   0.15641273   -3.5014858    1.5445517   596844 
 6400000     1.400838   -3.5020613   -1.9563811   0.16454287   -3.5020613    1.5456802   596875 
 6401000    1.4012055   -3.5026042   -1.9565495   0.15534567   -3.5026042    1.5460547   596887 
 6402000    1.4011711   -3.5029307   -1.9569503   0.15363925   -3.5029307    1.5459804   596901 
 6403000    1.4004104   -3.5023037   -1.9572169   0.15453772   -3.5023037    1.5450867   596922 
 6404000    1.4008267   -3.5018869   -1.9563693   0.15780354   -3.5018869    1.5455176   596933 
 6405000    1.4022258   -3.5029045   -1.9559236   0.15675738   -3.5029045    1.5469809   596964 
 6406000    1.4019464   -3.5023532   -1.9557531   0.15948335   -3.5023532    1.5466001   596992 
 6407000    1.4014177   -3.5028358   -1.9568837   0.15890627   -3.5028358    1.5459521   597017 
 6408000     1.401784   -3.5013975   -1.9550854   0.16461756   -3.5013975    1.5463121   597034 
 6409000    1.4039374   -3.5039031   -1.9552622   0.15473879   -3.5039031    1.5486409   597052 
 6410000    1.4025482   -3.5014737   -1.9544093    0.1636463   -3.5014737    1.5470644   597069 
 6411000    1.4017713   -3.5016745   -1.9555472   0.15445222   -3.5016745    1.5461273   597100 
 6412000    1.4020326   -3.5016377   -1.9552767   0.16342909   -3.5016377     1.546361   597121 
 6413000    1.4022052   -3.5021331   -1.9556335   0.15934284   -3.5021331    1.5464996   597141 
 6414000     1.402567   -3.5030833    -1.956239   0.15912912   -3.5030833    1.5468443   597162 
 6415000    1.4021431   -3.5024962   -1.9561583   0.15655309   -3.5024962    1.5463379   597177 
 6416000    1.4022228   -3.5019532   -1.9555689   0.15940573   -3.5019532    1.5463843   597193 
 6417000    1.4017113   -3.5026111   -1.9568323   0.15483054   -3.5026111    1.5457788   597209 
 6418000    1.4028725   -3.5040244    -1.957022   0.15826535   -3.5040244    1.5470024   597231 
 6419000    1.4014381   -3.5031948   -1.9578311   0.15766126   -3.5031948    1.5453637   597253 
 6420000    1.4039474   -3.5050202    -1.956944   0.15599684   -3.5050202    1.5480763   597274 
 6421000    1.4038078    -3.505804   -1.9579101   0.16152341    -3.505804    1.5478939   597285 
 6422000    1.4049404   -3.5056878   -1.9565814   0.16445871   -3.5056878    1.5491064   597299 
 6423000    1.4025506   -3.5037239   -1.9573172   0.16036024   -3.5037239    1.5464067   597324 
 6424000    1.4025289   -3.5036086   -1.9572647   0.16543845   -3.5036086    1.5463439   597339 
 6425000    1.4029563   -3.5039158   -1.9571266   0.15962173   -3.5039158    1.5467892   597349 
 6426000    1.4051614   -3.5064561    -1.957272   0.16089912   -3.5064561    1.5491841   597363 
 6427000    1.4028943   -3.5056521   -1.9589881   0.15777348   -3.5056521    1.5466639   597371 
 6428000    1.4015565     -3.50415   -1.9589972    0.1591888     -3.50415    1.5451528   597385 
 6429000    1.4021323   -3.5058487   -1.9601387   0.15624858   -3.5058487      1.54571   597415 
 6430000     1.401804   -3.5047213   -1.9593992   0.15852643   -3.5047213    1.5453221   597425 
 6431000     1.402223   -3.5062165   -1.9604765   0.15515878   -3.5062165    1.5457401   597442 
 6432000    1.4031219   -3.5069031   -1.9602136   0.15526497   -3.5069031    1.5466895   597458 
 6433000    1.4039616   -3.5066774   -1.9590856   0.15564344   -3.5066774    1.5475918   597467 
 6434000     1.401395   -3.5043777   -1.9596771   0.15846176   -3.5043777    1.5447006   597491 
 6435000    1.4035204   -3.5065681    -1.959561    0.1553866   -3.5065681    1.5470071   597505 
 6436000     1.401916    -3.505578   -1.9603988   0.15755005    -3.505578    1.5451792   597528 
 6437000    1.4018218   -3.5051495   -1.9601232    0.1658252   -3.5051495    1.5450262   597547 
 6438000    1.4015591   -3.5057813    -1.961073   0.15747008   -3.5057813    1.5447083   597558 
 6439000    1.4022029   -3.5046558   -1.9592897   0.15744315   -3.5046558    1.5453661   597578 
 6440000    1.4018316   -3.5050314   -1.9601133   0.16252879   -3.5050314    1.5449182   597593 
 6441000    1.4040129   -3.5067897   -1.9594857   0.15871133   -3.5067897    1.5473039   597600 
 6442000    1.4027173   -3.5051207   -1.9592937   0.16249329   -3.5051207     1.545827   597619 
 6443000     1.403235   -3.5051023   -1.9587592   0.16139361   -3.5051023    1.5463431   597640 
 6444000    1.4029855   -3.5043637   -1.9582825   0.16193131   -3.5043637    1.5460812   597635 
 6445000    1.4033008   -3.5056019   -1.9592043   0.15745768   -3.5056019    1.5463975   597647 
 6446000    1.4034839   -3.5061233   -1.9595576   0.16054386   -3.5061233    1.5465657   597660 
 6447000    1.4023637   -3.5046458   -1.9593533   0.16192372   -3.5046458    1.5452925   597675 
 6448000    1.4029687   -3.5065055   -1.9605981   0.15526253   -3.5065055    1.5459074   597695 
 6449000    1.4027323   -3.5056303   -1.9600402   0.16064988   -3.5056303    1.5455901   597717 
 6450000    1.4041543    -3.507474   -1.9603326   0.15536389    -3.507474    1.5471414   597723 
 6451000    1.4027895   -3.5062625    -1.960674   0.16036191   -3.5062625    1.5455885   597742 
 6452000    1.4022849    -3.505781   -1.9607666   0.15859368    -3.505781    1.5450144   597749 
 6453000    1.4043057   -3.5074673   -1.9602886   0.15368449   -3.5074673    1.5471788   597773 
 6454000    1.4034711    -3.506929   -1.9606956   0.15634701    -3.506929    1.5462334   597783 
 6455000    1.4028105   -3.5065512    -1.961074   0.16035276   -3.5065512    1.5454772   597794 
 6456000    1.4042571   -3.5075554   -1.9605286   0.16175231   -3.5075554    1.5470269   597811 
 6457000    1.4042621   -3.5076417   -1.9606559   0.16230575   -3.5076417    1.5469858   597829 
 6458000    1.4035593   -3.5074906   -1.9613127   0.15423007   -3.5074906    1.5461779   597842 
 6459000    1.4027504   -3.5080744   -1.9628186   0.15656688   -3.5080744    1.5452559   597854 
 6460000    1.4027344   -3.5076729   -1.9624785   0.16196071   -3.5076729    1.5451943   597871 
 6461000     1.401235   -3.5069468   -1.9634455   0.16198361   -3.5069468    1.5435013   597887 
 6462000    1.4038663   -3.5098033    -1.963445   0.15190391   -3.5098033    1.5463583   597903 
 6463000    1.4016955   -3.5084427   -1.9645194   0.15859479   -3.5084427    1.5439233   597920 
 6464000    1.4036688   -3.5097837   -1.9637282   0.15333386   -3.5097837    1.5460555   597936 
 6465000    1.4024219    -3.508141   -1.9634874   0.15908846    -3.508141    1.5446537   597947 
 6466000    1.4032295    -3.509973   -1.9644582   0.15501506    -3.509973    1.5455147   597958 
 6467000    1.4018034   -3.5077433   -1.9638535   0.15984027   -3.5077433    1.5438899   597979 
 6468000    1.4034741   -3.5097197   -1.9640131   0.15628976   -3.5097197    1.5457066   597988 
 6469000    1.4029501   -3.5086919   -1.9635547   0.15723944   -3.5086919    1.5451372   597985 
 6470000    1.4033096    -3.509399   -1.9639124   0.16500095    -3.509399    1.5454867   598003 
 6471000    1.4052324   -3.5106563   -1.9631037   0.15919931   -3.5106563    1.5475526   598023 
 6472000    1.4031713   -3.5075838   -1.9622933   0.16185272   -3.5075838    1.5452905   598020 
 6473000    1.4059155   -3.5099126   -1.9616206   0.15537248   -3.5099126    1.5482919   598028 
 6474000    1.4039302   -3.5088819   -1.9628203   0.15728867   -3.5088819    1.5460616   598045 
 6475000    1.4038264   -3.5086278   -1.9626987   0.16360908   -3.5086278    1.5459291   598052 
 6476000    1.4034824   -3.5074278   -1.9619084   0.16156275   -3.5074278    1.5455194   598064 
 6477000    1.4036519   -3.5088843   -1.9632067   0.15484009   -3.5088843    1.5456776   598075 
 6478000    1.4049128    -3.508583   -1.9615403   0.15601269    -3.508583    1.5470427   598084 
 6479000    1.4031043   -3.5076914   -1.9626685   0.16338274   -3.5076914    1.5450229   598095 
 6480000    1.4031558   -3.5082743   -1.9632258   0.15576943   -3.5082743    1.5450486   598107 
 6481000    1.4040428   -3.5090121    -1.963054   0.15620866   -3.5090121    1.5459581   598133 
 6482000    1.4037036   -3.5084235   -1.9628803    0.1637725   -3.5084235    1.5455432   598149 
 6483000     1.403438   -3.5090474   -1.9638327   0.16010559   -3.5090474    1.5452147   598163 
 6484000    1.4039679   -3.5089202   -1.9631558    0.1573032   -3.5089202    1.5457645   598176 
 6485000    1.4042985   -3.5085341   -1.9624289    0.1591786   -3.5085341    1.5461052   598185 
 6486000    1.4036899   -3.5073301   -1.9619595    0.1648502   -3.5073301    1.5453705   598210 
 6487000    1.4064934   -3.5094349    -1.961027   0.15629428   -3.5094349    1.5484079   598229 
 6488000    1.4059717   -3.5098061   -1.9620295   0.16197379   -3.5098061    1.5477766   598251 
 6489000    1.4043946   -3.5085119   -1.9625153   0.16175312   -3.5085119    1.5459966   598268 
 6490000    1.4050279    -3.509019   -1.9623435   0.15969966    -3.509019    1.5466755   598275 
 6491000    1.4049004   -3.5092539   -1.9627678   0.15655361   -3.5092539    1.5464862   598294 
 6492000    1.4041899   -3.5091688   -1.9634906   0.15967255   -3.5091688    1.5456782   598304 
 6493000    1.4055129   -3.5106378   -1.9635472   0.15470944   -3.5106378    1.5470905   598321 
 6494000     1.405425   -3.5095238   -1.9625688   0.16442985   -3.5095238    1.5469549   598336 
 6495000    1.4050765   -3.5094775    -1.962945   0.15620299   -3.5094775    1.5465326   598351 
 6496000    1.4068962   -3.5112606   -1.9627898   0.15805806   -3.5112606    1.5484708   598376 
 6497000    1.4069999   -3.5119358   -1.9633949   0.15222929   -3.5119358    1.5485409   598393 
 6498000    1.4041771   -3.5100729     -1.96468   0.15784416   -3.5100729    1.5453929   598409 
 6499000    1.4041258   -3.5103522   -1.9650623    0.1584979   -3.5103522    1.5452899   598427 
 6500000    1.4043849   -3.5100541   -1.9645332   0.15760556   -3.5100541    1.5455209   598448 
 6501000    1.4046527   -3.5112878   -1.9655317    0.1535027   -3.5112878    1.5457561   598471 
 6502000    1.4037219   -3.5099088   -1.9652183   0.16282934   -3.5099088    1.5446905   598487 
 6503000    1.4034928   -3.5098054   -1.9654108   0.16167097   -3.5098054    1.5443946   598504 
 6504000    1.4044499   -3.5105444   -1.9651561   0.15922668   -3.5105444    1.5453884   598527 
 6505000    1.4042719   -3.5096191   -1.9644731   0.16052441   -3.5096191     1.545146   598545 
 6506000    1.4061387   -3.5120863   -1.9648991   0.15244308   -3.5120863    1.5471872   598550 
 6507000    1.4034426   -3.5098506   -1.9656944   0.15990286   -3.5098506    1.5441561   598575 
 6508000    1.4040189   -3.5110669   -1.9663051   0.15968107   -3.5110669    1.5447618   598586 
 6509000    1.4047412   -3.5122153   -1.9667233   0.16047325   -3.5122153     1.545492   598611 
 6510000    1.4038555   -3.5107366   -1.9662655   0.16499807   -3.5107366    1.5444711   598629 
 6511000     1.403745   -3.5117987   -1.9675137   0.16309688   -3.5117987     1.544285   598654 
 6512000    1.4028197   -3.5106819    -1.967456   0.15819681   -3.5106819    1.5432259   598670 
 6513000    1.4049624   -3.5134648   -1.9679412   0.15898362   -3.5134648    1.5455237   598693 
 6514000    1.4043001   -3.5126796   -1.9679052   0.15993347   -3.5126796    1.5447744   598701 
 6515000    1.4040414   -3.5127571   -1.9683111   0.15937879   -3.5127571     1.544446   598718 
 6516000    1.4040542   -3.5128921   -1.9684656   0.15914603   -3.5128921    1.5444265   598731 
 6517000    1.4053252   -3.5139734   -1.9681669   0.16164617   -3.5139734    1.5458065   598738 
 6518000    1.4041079   -3.5132473   -1.9688261   0.15831963   -3.5132473    1.5444212   598756 
 6519000    1.4031334   -3.5120172   -1.9686835   0.15544139   -3.5120172    1.5433337   598762 
 6520000    1.4041725   -3.5126154   -1.9681593   0.15736804   -3.5126154    1.5444561   598770 
 6521000     1.403389   -3.5117606   -1.9682102   0.15679151   -3.5117606    1.5435505   598787 
 6522000    1.4047483   -3.5140542   -1.9690474   0.16037343   -3.5140542    1.5450068   598802 
 6523000    1.4025023   -3.5125201   -1.9700248   0.15784732   -3.5125201    1.5424953   598818 
 6524000    1.4037028   -3.5128664   -1.9690919   0.16003165   -3.5128664    1.5437745   598834 
 6525000    1.4028038   -3.5121937   -1.9694465   0.15844714   -3.5121937    1.5427471   598849 
 6526000    1.4029198   -3.5125741   -1.9697278   0.15521328   -3.5125741    1.5428463   598860 
 6527000    1.4035827   -3.5126387   -1.9691226   0.16417678   -3.5126387     1.543516   598883 
 6528000    1.4047813   -3.5132533   -1.9684526   0.15785489   -3.5132533    1.5448007   598896 
 6529000    1.4036031   -3.5128232   -1.9693569   0.15598215   -3.5128232    1.5434663   598911 
 6530000     1.402481   -3.5111859   -1.9690127   0.15890748   -3.5111859    1.5421732   598934 
 6531000    1.4044259   -3.5131968   -1.9689184   0.15501501   -3.5131968    1.5442784   598947 
 6532000    1.4061742   -3.5147626   -1.9686032   0.15792325   -3.5147626    1.5461594   598963 
 6533000    1.4052224   -3.5129261   -1.9678313   0.16701438   -3.5129261    1.5450948   598970 
 6534000    1.4045887   -3.5126587   -1.9683122   0.16158688   -3.5126587    1.5443465   598990 
 6535000    1.4056506   -3.5136688   -1.9682193   0.16012142   -3.5136688    1.5454495   599015 
 6536000    1.4054459   -3.5137178   -1.9685398   0.15594913   -3.5137178     1.545178   599033 
 6537000    1.4054837   -3.5137713   -1.9686188   0.16196918   -3.5137713    1.5451525   599059 
 6538000    1.4046264   -3.5132169   -1.9690455   0.15839172   -3.5132169    1.5441713   599074 
 6539000    1.4044125   -3.5131374    -1.969227   0.15938171   -3.5131374    1.5439104   599084 
 6540000    1.4038766   -3.5125742    -1.969289   0.15759176   -3.5125742    1.5432852   599098 
 6541000    1.4055862   -3.5146091   -1.9694961   0.16046745   -3.5146091     1.545113   599118 
 6542000    1.4044465   -3.5123977   -1.9685685   0.16565265   -3.5123977    1.5438292   599130 
 6543000    1.4058821   -3.5142284   -1.9688623   0.16268694   -3.5142284     1.545366   599146 
 6544000    1.4064878   -3.5149572   -1.9689589   0.15750262   -3.5149572    1.5459983   599159 
 6545000    1.4062864    -3.515474   -1.9697538   0.15858489    -3.515474    1.5457202   599181 
 6546000    1.4055228   -3.5152683   -1.9704339   0.15894602   -3.5152683    1.5448344   599199 
 6547000    1.4075251   -3.5179004   -1.9709246   0.15631638   -3.5179004    1.5469758   599222 
 6548000     1.406587   -3.5160932   -1.9702027   0.15980328   -3.5160932    1.5458906   599243 
 6549000    1.4045943   -3.5153047   -1.9716634   0.15568718   -3.5153047    1.5436413   599266 
 6550000    1.4033148   -3.5139015   -1.9717204   0.16183604   -3.5139015    1.5421811   599287 
 6551000    1.4042474   -3.5149567   -1.9717867   0.15820497   -3.5149567      1.54317   599301 
 6552000    1.4052416   -3.5160744   -1.9718583   0.16017412   -3.5160744    1.5442161   599319 
 6553000    1.4061609   -3.5156674   -1.9705004   0.16037133   -3.5156674     1.545167   599342 
 6554000    1.4061723   -3.5154305   -1.9702716   0.16082313   -3.5154305    1.5451589   599350 
 6555000    1.4042019   -3.5133027   -1.9703553    0.1631781   -3.5133027    1.5429474   599368 
 6556000    1.4049312   -3.5150759   -1.9713684    0.1572842   -3.5150759    1.5437076   599384 
 6557000    1.4044578   -3.5142005   -1.9710595   0.15566515   -3.5142005    1.5431411   599402 
 6558000    1.4055448   -3.5151407   -1.9708517   0.15763782   -3.5151407     1.544289   599420 
 6559000    1.4045496   -3.5143596   -1.9712257   0.16526409   -3.5143596    1.5431339   599444 
 6560000    1.4058459   -3.5147791   -1.9702597   0.16012719   -3.5147791    1.5445194   599459 
 6561000    1.4064118   -3.5152126   -1.9701231   0.16877358   -3.5152126    1.5450895   599479 
 6562000    1.4072198   -3.5154205    -1.969482   0.16044893   -3.5154205    1.5459385   599494 
 6563000    1.4077635   -3.5163277   -1.9698047   0.15444026   -3.5163277     1.546523   599499 
 6564000    1.4063461   -3.5146401   -1.9697284   0.16076605   -3.5146401    1.5449117   599520 
 6565000    1.4046791   -3.5132761   -1.9702547   0.15888803   -3.5132761    1.5430213   599543 
 6566000    1.4053956   -3.5145078   -1.9707484   0.15981936   -3.5145078    1.5437594   599562 
 6567000    1.4067884   -3.5160991   -1.9708844   0.15627169   -3.5160991    1.5452146   599591 
 6568000    1.4046312   -3.5147419    -1.971925   0.15864408   -3.5147419    1.5428169   599602 
 6569000     1.405424   -3.5149876   -1.9713283   0.15659599   -3.5149876    1.5436593   599613 
 6570000    1.4053289    -3.514648   -1.9711369     0.162717    -3.514648    1.5435111   599630 
 6571000     1.407486   -3.5170029    -1.971151   0.16181521   -3.5170029    1.5458519   599641 
 6572000    1.4073702   -3.5175085   -1.9718276    0.1589936   -3.5175085    1.5456809   599658 
 6573000     1.407476   -3.5169081   -1.9711548   0.16629168   -3.5169081    1.5457533   599675 
 6574000    1.4072024   -3.5160869   -1.9706805   0.16095728   -3.5160869    1.5454065   599693 
 6575000    1.4073327   -3.5168743   -1.9713918   0.16072507   -3.5168743    1.5454826   599719 
 6576000    1.4078026   -3.5168829   -1.9709257   0.16346856   -3.5168829    1.5459573   599735 
 6577000    1.4067827   -3.5164523   -1.9716664   0.16391696   -3.5164523    1.5447858   599755 
 6578000    1.4092352   -3.5190718   -1.9716368    0.1615462   -3.5190718     1.547435   599772 
 6579000    1.4069433   -3.5175505   -1.9726733   0.16723171   -3.5175505    1.5448772   599788 
 6580000    1.4080998   -3.5173376   -1.9712421   0.16274455   -3.5173376    1.5460955   599808 
 6581000    1.4075728   -3.5176785   -1.9722029   0.15760458   -3.5176785    1.5454756   599824 
 6582000    1.4073865   -3.5169711   -1.9717386   0.15549836   -3.5169711    1.5452325   599839 
 6583000    1.4075141   -3.5176368   -1.9723209   0.16379492   -3.5176368    1.5453159   599861 
 6584000     1.406962     -3.51739   -1.9727215   0.16640723     -3.51739    1.5446685   599877 
 6585000    1.4074448   -3.5173872   -1.9722376    0.1612843   -3.5173872    1.5451497   599896 
 6586000    1.4075368   -3.5167462   -1.9715187    0.1635077   -3.5167462    1.5452275   599905 
 6587000    1.4076856   -3.5174737   -1.9721189   0.15529729   -3.5174737    1.5453547   599919 
 6588000    1.4058048   -3.5164241   -1.9731625   0.16400067   -3.5164241    1.5432617   599930 
 6589000    1.4090521   -3.5182402   -1.9714601   0.15614072   -3.5182402    1.5467801   599948 
 6590000    1.4060841   -3.5154149   -1.9719469   0.16177797   -3.5154149     1.543468   599969 
 6591000    1.4074451   -3.5174175   -1.9724916   0.16787222   -3.5174175    1.5449259   599983 
 6592000    1.4072436   -3.5175193   -1.9728686   0.15308229   -3.5175193    1.5446507   600004 
 6593000    1.4066445   -3.5171414   -1.9732051   0.16378327   -3.5171414    1.5439364   600026 
 6594000    1.4069787   -3.5173365   -1.9730487   0.16559461   -3.5173365    1.5442878   600032 
 6595000    1.4059276   -3.5175403   -1.9744551   0.16573027   -3.5175403    1.5430852   600051 
 6596000     1.407735   -3.5183586   -1.9733411   0.16379107   -3.5183586    1.5450175   600071 
 6597000     1.405743   -3.5172208   -1.9744384   0.16438367   -3.5172208    1.5427824   600090 
 6598000     1.408423   -3.5185843   -1.9729302   0.16157778   -3.5185843    1.5456541   600117 
 6599000    1.4080426   -3.5192842   -1.9740836   0.15932661   -3.5192842    1.5452006   600131 
 6600000    1.4080255   -3.5188873   -1.9737493    0.1672002   -3.5188873    1.5451381   600148 
 6601000    1.4097565   -3.5199747   -1.9729809   0.16343159   -3.5199747    1.5469938   600165 
 6602000    1.4079953   -3.5190375   -1.9740175   0.15915379   -3.5190375      1.54502   600181 
 6603000    1.4083364   -3.5185942    -1.973254   0.16308889   -3.5185942    1.5453402   600202 
 6604000    1.4090619   -3.5204956    -1.974398   0.15684063   -3.5204956    1.5460976   600217 
 6605000    1.4082989   -3.5204464   -1.9752503   0.15670665   -3.5204464    1.5451961   600242 
 6606000     1.407485   -3.5209381   -1.9766556   0.16527737   -3.5209381    1.5442825   600250 
 6607000    1.4054149   -3.5187099   -1.9767398   0.16016951   -3.5187099    1.5419701   600266 
 6608000    1.4082918   -3.5206849   -1.9756125    0.1571519   -3.5206849    1.5450724   600287 
 6609000    1.4094597   -3.5211905   -1.9749037   0.15604004   -3.5211905    1.5462868   600313 
 6610000    1.4095901   -3.5215337   -1.9751399    0.1539872   -3.5215337    1.5463938   600327 
 6611000     1.408573   -3.5203575   -1.9751234   0.15399785   -3.5203575    1.5452342   600344 
 6612000    1.4075078     -3.52021   -1.9762086   0.15745751     -3.52021    1.5440014   600369 
 6613000    1.4079062   -3.5192878   -1.9748828   0.16579718   -3.5192878    1.5444049   600382 
 6614000    1.4076119   -3.5192522   -1.9752344   0.16364375   -3.5192522    1.5440178   600407 
 6615000    1.4085657   -3.5202235   -1.9751877   0.16495199   -3.5202235    1.5450357   600418 
 6616000    1.4098007   -3.5219336   -1.9755973    0.1619715   -3.5219336    1.5463363   600439 
 6617000    1.4081538   -3.5204963    -1.976005   0.16266022   -3.5204963    1.5444913   600454 
 6618000     1.405866   -3.5197718   -1.9778026    0.1660676   -3.5197718    1.5419692   600459 
 6619000    1.4075758   -3.5214267   -1.9776156   0.15835385   -3.5214267    1.5438111   600472 
 6620000    1.4079383   -3.5221149   -1.9779499   0.15461771   -3.5221149     1.544165   600489 
 6621000     1.406379   -3.5204266   -1.9780309   0.16666062   -3.5204266    1.5423957   600512 
 6622000    1.4094678   -3.5235505   -1.9778111   0.15504799   -3.5235505    1.5457395   600529 
 6623000    1.4095297   -3.5243416   -1.9785754   0.15726285   -3.5243416    1.5457662   600545 
 6624000     1.409882   -3.5244692   -1.9783784   0.16183004   -3.5244692    1.5460908   600569 
 6625000    1.4086683   -3.5229098   -1.9781705   0.16350453   -3.5229098    1.5447393   600577 
 6626000    1.4072302   -3.5226866   -1.9795963   0.16599808   -3.5226866    1.5430903   600605 
 6627000    1.4078979   -3.5230975   -1.9793188   0.16255124   -3.5230975    1.5437787   600622 
 6628000    1.4067916   -3.5220814   -1.9795388   0.16342147   -3.5220814    1.5425425   600631 
 6629000    1.4073747   -3.5224487   -1.9793259   0.16149392   -3.5224487    1.5431228   600654 
 6630000    1.4071944   -3.5225531   -1.9796511   0.16209147   -3.5225531     1.542902   600663 
 6631000    1.4076955    -3.522776   -1.9793964    0.1597363    -3.522776    1.5433795   600691 
 6632000    1.4085182   -3.5239667   -1.9797289   0.16019316   -3.5239667    1.5442377   600708 
 6633000    1.4092197   -3.5250456   -1.9800979   0.16082102   -3.5250456    1.5449477   600731 
 6634000    1.4088182   -3.5241827   -1.9797008   0.16181915   -3.5241827    1.5444819   600741 
 6635000    1.4082803   -3.5230342   -1.9791678   0.16055059   -3.5230342    1.5438664   600751 
 6636000    1.4091512   -3.5228842   -1.9781067   0.15783594   -3.5228842    1.5447775   600768 
 6637000     1.408475   -3.5228589   -1.9788613   0.16316467   -3.5228589    1.5439977   600783 
 6638000    1.4070315   -3.5215733   -1.9791785   0.16504798   -3.5215733    1.5423948   600791 
 6639000    1.4093792   -3.5237876   -1.9788553   0.15936574   -3.5237876    1.5449323   600805 
 6640000    1.4085606   -3.5226389   -1.9786374   0.16079745   -3.5226389    1.5440015   600818 
 6641000    1.4076668   -3.5202592   -1.9772811   0.16795832   -3.5202592    1.5429782   600835 
 6642000     1.408919   -3.5214056   -1.9770986   0.16156537   -3.5214056     1.544307   600852 
 6643000    1.4077248   -3.5208264    -1.977854   0.16187315   -3.5208264    1.5429724   600862 
 6644000    1.4087921   -3.5223735    -1.978275   0.16039172   -3.5223735    1.5440986   600879 
 6645000    1.4099158   -3.5237125   -1.9784183   0.15256283   -3.5237125    1.5452942   600893 
 6646000    1.4094006   -3.5231632   -1.9784748   0.16078735   -3.5231632    1.5446884   600909 
 6647000    1.4102727   -3.5230262   -1.9774206   0.16056294   -3.5230262    1.5456057   600924 
 6648000    1.4087427   -3.5230747   -1.9791948   0.16416791   -3.5230747    1.5438799   600943 
 6649000    1.4076718   -3.5217089   -1.9790308   0.16005279   -3.5217089    1.5426781   600954 
 6650000    1.4094098   -3.5240357   -1.9794863   0.16415149   -3.5240357    1.5445494   600967 
 6651000    1.4089065   -3.5231976    -1.979246    0.1661598   -3.5231976    1.5439516   600985 
 6652000    1.4102211   -3.5255163   -1.9801549   0.16445398   -3.5255163    1.5453613   600997 
 6653000    1.4085067    -3.524328   -1.9809019   0.16200806    -3.524328    1.5434262   601019 
 6654000    1.4082829   -3.5241058   -1.9809634   0.16571421   -3.5241058    1.5431424   601034 
 6655000    1.4101091   -3.5245879   -1.9794958   0.16935922   -3.5245879    1.5450921   601054 
 6656000    1.4098507   -3.5251867   -1.9804266    0.1587455   -3.5251867    1.5447601   601073 
 6657000    1.4096606   -3.5259599   -1.9814466   0.16336624   -3.5259599    1.5445133   601088 
 6658000    1.4089314   -3.5257251   -1.9820596   0.16192936   -3.5257251    1.5436655   601107 
 6659000    1.4082901   -3.5253967   -1.9824749   0.16120907   -3.5253967    1.5429218   601123 
 6660000    1.4096626    -3.526205   -1.9818232   0.16375479    -3.526205    1.5443818   601140 
 6661000    1.4091119   -3.5265817   -1.9828649   0.15878829   -3.5265817    1.5437168   601164 
 6662000     1.407627   -3.5243871   -1.9823175    0.1630956   -3.5243871    1.5420696   601172 
 6663000    1.4088624    -3.525591   -1.9822219   0.16249225    -3.525591    1.5433691   601193 
 6664000    1.4086292     -3.52538   -1.9823126   0.16415143     -3.52538    1.5430674   601211 
 6665000    1.4079375   -3.5241329   -1.9818463   0.16144479   -3.5241329    1.5422866   601220 
 6666000    1.4084701   -3.5243937   -1.9815519   0.16184237   -3.5243937    1.5428418   601231 
 6667000    1.4101269   -3.5258138   -1.9811982   0.15767912   -3.5258138    1.5446156   601247 
 6668000    1.4077598   -3.5237094   -1.9817072   0.16347649   -3.5237094    1.5420022   601255 
 6669000    1.4094874   -3.5251855   -1.9813346    0.1586925   -3.5251855    1.5438509   601272 
 6670000    1.4091913   -3.5246287   -1.9811816   0.15852371   -3.5246287     1.543447   601303 
 6671000    1.4086373   -3.5241424   -1.9813587   0.16225063   -3.5241424    1.5427837   601325 
 6672000    1.4113755   -3.5268429   -1.9811013   0.16355046   -3.5268429    1.5457416   601341 
 6673000    1.4090121   -3.5242487   -1.9811391   0.16035202   -3.5242487    1.5431096   601358 
 6674000    1.4105125     -3.52552   -1.9807827   0.16286042     -3.52552    1.5447373   601364 
 6675000    1.4100902   -3.5252243   -1.9809982   0.16793529   -3.5252243    1.5442261   601383 
 6676000    1.4087374   -3.5252616   -1.9825195   0.15912668   -3.5252616    1.5427421   601384 
 6677000    1.4116415   -3.5285933   -1.9827172   0.15801387   -3.5285933    1.5458761   601402 
 6678000    1.4093254    -3.526734   -1.9834224   0.16445346    -3.526734    1.5433116   601413 
 6679000    1.4086983   -3.5263149   -1.9837157   0.16638144   -3.5263149    1.5425992   601423 
 6680000    1.4091673   -3.5263081   -1.9832441   0.15691609   -3.5263081     1.543064   601442 
 6681000    1.4082204   -3.5259165   -1.9839099   0.16364138   -3.5259165    1.5420066   601450 
 6682000    1.4065943   -3.5248859   -1.9846982    0.1642632   -3.5248859    1.5401877   601465 
 6683000    1.4080811   -3.5273249   -1.9855503   0.15720381   -3.5273249    1.5417747   601481 
 6684000    1.4087686   -3.5285546   -1.9860579   0.16015188   -3.5285546    1.5424966   601493 
 6685000    1.4106976    -3.529332   -1.9847438   0.15867325    -3.529332    1.5445882   601501 
 6686000    1.4086541   -3.5277285   -1.9854291   0.16404656   -3.5277285    1.5422994   601521 
 6687000     1.408422   -3.5285209   -1.9864961   0.15819032   -3.5285209    1.5420248   601529 
 6688000    1.4102911   -3.5296219   -1.9855995   0.15765717   -3.5296219    1.5440224   601548 
 6689000    1.4077346   -3.5270008   -1.9857901     0.160821   -3.5270008    1.5412107   601553 
 6690000    1.4095245   -3.5282311   -1.9851018   0.15956282   -3.5282311    1.5431293   601569 
 6691000    1.4077242   -3.5259023   -1.9847849    0.1647423   -3.5259023    1.5411174   601585 
 6692000    1.4104871   -3.5281916   -1.9840881   0.16167131   -3.5281916    1.5441035   601600 
 6693000    1.4090563   -3.5276079   -1.9850938    0.1578131   -3.5276079    1.5425142   601609 
 6694000    1.4090961   -3.5280467   -1.9855506   0.16401552   -3.5280467    1.5424962   601633 
 6695000    1.4094533   -3.5279243   -1.9851166   0.16350666   -3.5279243    1.5428077   601664 
 6696000    1.4083028   -3.5277615   -1.9862517   0.15956528   -3.5277615    1.5415099   601679 
 6697000    1.4081691   -3.5277298   -1.9864072   0.15815208   -3.5277298    1.5413226   601695 
 6698000     1.408476   -3.5265075   -1.9848694   0.16313548   -3.5265075     1.541638   601703 
 6699000    1.4089682    -3.526861   -1.9847099    0.1611935    -3.526861    1.5421511   601713 
 6700000     1.410703   -3.5291049   -1.9850858   0.15654538   -3.5291049    1.5440191   601725 
 6701000    1.4104401   -3.5289543   -1.9852589   0.16260464   -3.5289543    1.5436954   601739 
 6702000     1.410468   -3.5290628   -1.9853831   0.16370077   -3.5290628    1.5436798   601757 
 6703000     1.410404   -3.5283304   -1.9847566   0.16109588   -3.5283304    1.5435738   601771 
 6704000    1.4103903   -3.5282031   -1.9847136   0.16636305   -3.5282031    1.5434895   601798 
 6705000    1.4108561   -3.5278711   -1.9838896   0.16397115   -3.5278711    1.5439814   601805 
 6706000     1.411225   -3.5281119   -1.9837551   0.16288339   -3.5281119    1.5443568   601816 
 6707000    1.4112775   -3.5277278   -1.9833699   0.15782947   -3.5277278    1.5443579   601838 
 6708000    1.4099175   -3.5280804   -1.9852391   0.16350011   -3.5280804    1.5428414   601849 
 6709000    1.4094526    -3.529527   -1.9872379   0.16208727    -3.529527    1.5422891   601866 
 6710000      1.40872   -3.5284446   -1.9869878   0.16166128   -3.5284446    1.5414568   601878 
 6711000    1.4083749   -3.5274709   -1.9864174   0.16482835   -3.5274709    1.5410535   601888 
 6712000    1.4098951   -3.5287186   -1.9860606   0.16188004   -3.5287186     1.542658   601911 
 6713000    1.4115737   -3.5296893   -1.9852536   0.16916637   -3.5296893    1.5444357   601934 
 6714000    1.4107968   -3.5299011   -1.9863309   0.16512254   -3.5299011    1.5435703   601940 
 6715000     1.411064   -3.5290727   -1.9852691   0.16871802   -3.5290727    1.5438036   601963 
 6716000    1.4113083   -3.5293229   -1.9853034   0.16531321   -3.5293229    1.5440196   601983 
 6717000      1.41155   -3.5292705    -1.985043   0.16956616   -3.5292705    1.5442276   602005 
 6718000    1.4123865   -3.5311051   -1.9860472   0.15676664   -3.5311051     1.545058   602038 
 6719000    1.4124968   -3.5310163   -1.9858531   0.15526809   -3.5310163    1.5451632   602044 
 6720000    1.4115221   -3.5301997   -1.9861361   0.16286607   -3.5301997    1.5440636   602057 
 6721000    1.4087252   -3.5270362   -1.9860706   0.16718501   -3.5270362    1.5409657   602072 
 6722000    1.4106048    -3.529758   -1.9867772   0.16182395    -3.529758    1.5429808   602088 
 6723000    1.4109284   -3.5293813   -1.9861055   0.16738504   -3.5293813    1.5432758   602111 
 6724000    1.4110188   -3.5296973    -1.986338   0.16448317   -3.5296973    1.5433593   602117 
 6725000    1.4120517   -3.5296582   -1.9851922   0.15794667   -3.5296582     1.544466   602126 
 6726000    1.4131686    -3.530753   -1.9851013    0.1623214    -3.530753    1.5456517   602140 
 6727000    1.4110683   -3.5292913   -1.9859676   0.16669706   -3.5292913    1.5433237   602152 
 6728000    1.4117142   -3.5298683   -1.9858894   0.16382579   -3.5298683    1.5439789   602172 
 6729000    1.4111738   -3.5293637    -1.986022   0.17311934   -3.5293637    1.5433417   602190 
 6730000    1.4138446   -3.5311893   -1.9849959   0.16173967   -3.5311893    1.5461934   602217 
 6731000    1.4127155   -3.5299125   -1.9849976   0.16409906   -3.5299125    1.5449149   602234 
 6732000    1.4131282   -3.5301296   -1.9847711   0.16845938   -3.5301296    1.5453585   602237 
 6733000    1.4118748   -3.5287068   -1.9847599   0.16333103   -3.5287068    1.5439469   602253 
 6734000    1.4106938   -3.5292288   -1.9865939   0.16079505   -3.5292288    1.5426349   602261 
 6735000    1.4130222   -3.5310905   -1.9859684   0.16244089   -3.5310905    1.5451221   602284 
 6736000    1.4118548   -3.5302496   -1.9864502   0.16387443   -3.5302496    1.5437994   602302 
 6737000    1.4119889   -3.5306506   -1.9867481   0.16309066   -3.5306506    1.5439024   602319 
 6738000    1.4111577    -3.529905   -1.9869294   0.16206456    -3.529905    1.5429757   602326 
 6739000    1.4132419   -3.5310459   -1.9858324   0.16321859   -3.5310459    1.5452135   602342 
 6740000    1.4128282   -3.5310844   -1.9863643   0.15809982   -3.5310844    1.5447201   602358 
 6741000    1.4120537   -3.5303386    -1.986496   0.16216566   -3.5303386    1.5438426   602370 
 6742000    1.4131356   -3.5316314   -1.9866291   0.16743915   -3.5316314    1.5450024   602379 
 6743000    1.4122178   -3.5298265   -1.9858737   0.16224639   -3.5298265    1.5439527   602397 
 6744000    1.4118134   -3.5301679   -1.9867187   0.16236551   -3.5301679    1.5434492   602421 
 6745000    1.4123398   -3.5305197    -1.986536   0.16573096   -3.5305197    1.5439837   602437 
 6746000    1.4138134   -3.5313887   -1.9858429    0.1583601   -3.5313887    1.5455458   602456 
 6747000    1.4122494   -3.5301475   -1.9863165   0.17201349   -3.5301475     1.543831   602458 
 6748000    1.4127495   -3.5314219   -1.9870596   0.15966612   -3.5314219    1.5443623   602464 
 6749000    1.4123987    -3.531578    -1.987594   0.16081232    -3.531578    1.5439839   602462 
 6750000    1.4116229   -3.5313244   -1.9882065   0.16527937   -3.5313244     1.543118   602469 
 6751000    1.4131949   -3.5317054   -1.9869101   0.15837711   -3.5317054    1.5447953   602485 
 6752000     1.412197   -3.5312943   -1.9876256    0.1634972   -3.5312943    1.5436687   602499 
 6753000    1.4127156   -3.5319051   -1.9877105   0.16612743   -3.5319051    1.5441945   602515 
 6754000    1.4130989   -3.5325627   -1.9879748   0.16315164   -3.5325627    1.5445878   602525 
 6755000    1.4118444   -3.5320665   -1.9889087   0.16287119   -3.5320665    1.5431578   602548 
 6756000    1.4116595   -3.5323842     -1.98949   0.16523765   -3.5323842    1.5428941   602572 
 6757000    1.4112497   -3.5310328   -1.9886352   0.16750466   -3.5310328    1.5423976   602591 
 6758000    1.4115789   -3.5327175   -1.9899908   0.16270828   -3.5327175    1.5427267   602603 
 6759000     1.413034   -3.5334742   -1.9891623   0.16428268   -3.5334742    1.5443119   602605 
 6760000    1.4108387    -3.530989   -1.9891045   0.16841425    -3.530989    1.5418844   602616 
 6761000    1.4110787   -3.5324023   -1.9902939   0.16164941   -3.5324023    1.5421084   602631 
 6762000    1.4122401   -3.5335077   -1.9901711   0.15897146   -3.5335077    1.5433366   602647 
 6763000    1.4112432   -3.5313651   -1.9891383   0.16388437   -3.5313651    1.5422268   602655 
 6764000    1.4125044   -3.5327167   -1.9891501    0.1711387   -3.5327167    1.5435666   602670 
 6765000    1.4134747   -3.5340881   -1.9895022   0.16647401   -3.5340881    1.5445859   602686 
 6766000    1.4132186   -3.5338499   -1.9895823    0.1738885   -3.5338499    1.5442676   602701 
 6767000     1.413506    -3.534071   -1.9895252   0.17051743    -3.534071    1.5445458   602715 
 6768000    1.4139743   -3.5336556    -1.988616   0.16701656   -3.5336556    1.5450396   602722 
 6769000    1.4122978   -3.5324923   -1.9893153   0.15851425   -3.5324923    1.5431769   602734 
 6770000    1.4136847   -3.5343871   -1.9897408   0.16484779   -3.5343871    1.5446463   602752 
 6771000    1.4106773   -3.5314183   -1.9900939   0.16907149   -3.5314183    1.5413244   602766 
 6772000    1.4136691   -3.5352851   -1.9907303   0.15992088   -3.5352851    1.5445548   602781 
 6773000    1.4123245   -3.5337104   -1.9906733   0.16535473   -3.5337104    1.5430371   602800 
 6774000     1.412693   -3.5342674   -1.9908635   0.16271861   -3.5342674    1.5434039   602814 
 6775000    1.4122059   -3.5329603   -1.9901321   0.16267543   -3.5329603    1.5428282   602831 
 6776000    1.4131577   -3.5335357   -1.9897291   0.16186479   -3.5335357    1.5438066   602855 
 6777000     1.413103   -3.5343288   -1.9906153   0.16511166   -3.5343288    1.5437136   602868 
 6778000     1.411387   -3.5318122   -1.9900423   0.16741158   -3.5318122    1.5417699   602895 
 6779000     1.410695   -3.5308959   -1.9899228   0.16540947   -3.5308959     1.540973   602911 
 6780000    1.4141252   -3.5351882   -1.9905015   0.15351513   -3.5351882    1.5446867   602924 
 6781000    1.4134207   -3.5347655    -1.990879   0.16627183   -3.5347655    1.5438865   602936 
 6782000    1.4130441   -3.5343992   -1.9909752     0.160905   -3.5343992     1.543424   602956 
 6783000    1.4131159    -3.533736   -1.9902772   0.16191499    -3.533736    1.5434589   602973 
 6784000    1.4136276   -3.5343068   -1.9903095   0.16799295   -3.5343068    1.5439973   602981 
 6785000    1.4125434   -3.5329595   -1.9901695   0.17245549   -3.5329595      1.54279   602990 
 6786000    1.4154217   -3.5363336   -1.9904461   0.16075538   -3.5363336    1.5458876   603008 
 6787000    1.4134018   -3.5339753   -1.9903348    0.1664064   -3.5339753    1.5436405   603024 
 6788000    1.4141604   -3.5353284   -1.9909081   0.16677478   -3.5353284    1.5444204   603043 
 6789000    1.4131606   -3.5341624   -1.9908415   0.16472929   -3.5341624    1.5433209   603046 
 6790000    1.4122989   -3.5333817   -1.9910377   0.17819467   -3.5333817     1.542344   603060 
 6791000    1.4135924   -3.5351626    -1.991447   0.16745127   -3.5351626    1.5437156   603076 
 6792000     1.412558   -3.5345499    -1.991987   0.16742932   -3.5345499    1.5425629   603085 
 6793000    1.4129651   -3.5351601    -1.992191   0.16226272   -3.5351601    1.5429692   603100 
 6794000     1.412686   -3.5352947   -1.9926482    0.1575773   -3.5352947    1.5426465   603107 
 6795000    1.4128874   -3.5350672   -1.9922649   0.16228288   -3.5350672    1.5428024   603132 
 6796000    1.4131795   -3.5347229   -1.9916169   0.16563728   -3.5347229     1.543106   603138 
 6797000    1.4151408    -3.536117   -1.9908873   0.16199827    -3.536117    1.5452298   603145 
 6798000    1.4126379   -3.5332282   -1.9907442   0.16689189   -3.5332282     1.542484   603150 
 6799000    1.4147213    -3.535781   -1.9910657   0.16747817    -3.535781    1.5447153   603167 
 6800000    1.4125668   -3.5329181   -1.9905885   0.16678387   -3.5329181    1.5423296   603180 
 6801000    1.4124621   -3.5337806   -1.9915883   0.15599589   -3.5337806    1.5421923   603189 
 6802000    1.4135352   -3.5346091   -1.9912835   0.16571853   -3.5346091    1.5433255   603204 
 6803000    1.4130226   -3.5349631   -1.9922151   0.16890705   -3.5349631     1.542748   603211 
 6804000    1.4129721   -3.5338368   -1.9911721   0.16869063   -3.5338368    1.5426647   603222 
 6805000    1.4115917   -3.5332833   -1.9921666   0.17240604   -3.5332833    1.5411167   603238 
 6806000    1.4145609     -3.53651   -1.9922182   0.16900613     -3.53651    1.5442918   603264 
 6807000    1.4146635   -3.5377719    -1.993427   0.16026022   -3.5377719    1.5443449   603287 
 6808000    1.4109168   -3.5328818   -1.9926423   0.17049214   -3.5328818    1.5402395   603293 
 6809000    1.4143415   -3.5366895   -1.9927268   0.16299547   -3.5366895    1.5439627   603299 
 6810000    1.4131796   -3.5350434   -1.9924283   0.16960333   -3.5350434    1.5426151   603330 
 6811000     1.413547   -3.5353266   -1.9923539   0.16522958   -3.5353266    1.5429727   603347 
 6812000    1.4144276   -3.5363929   -1.9925128   0.16403862   -3.5363929    1.5438801   603368 
 6813000    1.4147627   -3.5376836   -1.9934556    0.1617321   -3.5376836     1.544228   603375 
 6814000    1.4140973   -3.5365115   -1.9930559   0.16763741   -3.5365115    1.5434557   603393 
 6815000    1.4149998   -3.5378297   -1.9934555   0.16562371   -3.5378297    1.5443742   603419 
 6816000    1.4131979   -3.5367064    -1.994327    0.1643423   -3.5367064    1.5423794   603430 
 6817000    1.4139509   -3.5369963   -1.9938308    0.1656127   -3.5369963    1.5431654   603444 
 6818000    1.4129644   -3.5372245    -1.995192   0.17210491   -3.5372245    1.5420325   603466 
 6819000     1.413332    -3.537316   -1.9949283   0.16416296    -3.537316    1.5423877   603484 
 6820000    1.4145188   -3.5378198   -1.9941676   0.16136759   -3.5378198    1.5436522   603496 
 6821000    1.4127357    -3.535603   -1.9939069   0.16775684    -3.535603    1.5416962   603500 
 6822000    1.4132124   -3.5370037   -1.9948206   0.16529018   -3.5370037    1.5421831   603513 
 6823000    1.4155171   -3.5389539    -1.994271   0.16168074   -3.5389539    1.5446828   603519 
 6824000    1.4142999   -3.5377036   -1.9943875   0.16892108   -3.5377036    1.5433161   603534 
 6825000    1.4142721   -3.5380867   -1.9948162   0.16548344   -3.5380867    1.5432705   603540 
 6826000    1.4118182   -3.5356127   -1.9950326    0.1678731   -3.5356127      1.54058   603545 
 6827000    1.4149171   -3.5389194    -1.995009   0.16080123   -3.5389194    1.5439104   603565 
 6828000    1.4128917    -3.536914   -1.9952699   0.16681181    -3.536914    1.5416441   603587 
 6829000    1.4131633   -3.5369044   -1.9950176   0.16515469   -3.5369044    1.5418868   603608 
 6830000    1.4141975   -3.5379486   -1.9949667   0.16115157   -3.5379486    1.5429819   603621 
 6831000    1.4122341   -3.5365606   -1.9957463   0.16857675   -3.5365606    1.5408143   603631 
 6832000    1.4134808   -3.5378118   -1.9956936   0.16837635   -3.5378118    1.5421182   603653 
 6833000    1.4129699   -3.5370384   -1.9955133   0.16646686   -3.5370384    1.5415251   603667 
 6834000    1.4130965   -3.5378395    -1.996212   0.15756706   -3.5378395    1.5416275   603681 
 6835000    1.4119512   -3.5374407    -1.997106   0.16598001   -3.5374407    1.5403347   603698 
 6836000    1.4141875   -3.5393448   -1.9966037   0.16278142   -3.5393448    1.5427411   603711 
 6837000    1.4148621   -3.5396959   -1.9962726   0.16512606   -3.5396959    1.5434233   603732 
 6838000    1.4127524   -3.5375999   -1.9965086   0.16711614   -3.5375999    1.5410913   603744 
 6839000    1.4140357   -3.5387606   -1.9963129   0.16357478   -3.5387606    1.5424477   603761 
 6840000    1.4106195   -3.5360749   -1.9973995   0.17139175   -3.5360749    1.5386754   603779 
 6841000    1.4158534   -3.5413644   -1.9969953   0.16275183   -3.5413644    1.5443691   603785 
 6842000    1.4144132   -3.5380558   -1.9953087   0.16821187   -3.5380558    1.5427471   603805 
 6843000    1.4146706   -3.5394189   -1.9964473   0.16945036   -3.5394189    1.5429716   603827 
 6844000    1.4136485   -3.5378403    -1.996027   0.16938455   -3.5378403    1.5418134   603844 
 6845000    1.4138341   -3.5383231    -1.996338   0.17104782   -3.5383231    1.5419851   603856 
 6846000     1.414034   -3.5386172   -1.9964651   0.16347478   -3.5386172    1.5421521   603876 
 6847000    1.4130776   -3.5381364    -1.997063    0.1645214   -3.5381364    1.5410734   603890 
 6848000    1.4119518   -3.5384218   -1.9986018   0.16744297   -3.5384218    1.5398201   603900 
 6849000    1.4130796   -3.5387912   -1.9977744   0.16564636   -3.5387912    1.5410168   603913 
 6850000    1.4131597   -3.5389795   -1.9979085   0.16533357   -3.5389795     1.541071   603926 
 6851000    1.4137146   -3.5401288   -1.9984731   0.16019094   -3.5401288    1.5416557   603934 
 6852000    1.4143972   -3.5394491   -1.9970797   0.16131244   -3.5394491    1.5423694   603946 
 6853000    1.4126429   -3.5375434   -1.9971303   0.16584937   -3.5375434    1.5404131   603963 
 6854000    1.4141645   -3.5393092   -1.9972854   0.15752021   -3.5393092    1.5420238   603982 
 6855000    1.4139569   -3.5403352   -1.9986067   0.16595448   -3.5403352    1.5417285   604009 
 6856000    1.4139434   -3.5395752   -1.9979151   0.16174174   -3.5395752    1.5416602   604030 
 6857000    1.4150851   -3.5395734   -1.9967144   0.17041142   -3.5395734     1.542859   604048 
 6858000    1.4144048   -3.5392797   -1.9971828    0.1685952   -3.5392797    1.5420969   604056 
 6859000    1.4161782   -3.5411817   -1.9972076   0.16392556   -3.5411817    1.5439741   604078 
 6860000     1.415601   -3.5413062   -1.9979971   0.16425318   -3.5413062     1.543309   604092 
 6861000    1.4135042     -3.54039   -1.9994205   0.16943426     -3.54039    1.5409696   604113 
 6862000    1.4135041   -3.5409873   -2.0000612   0.16704224   -3.5409873     1.540926   604130 
 6863000    1.4133304   -3.5407213    -2.000033     0.165313   -3.5407213    1.5406883   604149 
 6864000    1.4127418   -3.5406416   -2.0006282   0.16529938   -3.5406416    1.5400134   604162 
 6865000    1.4145235   -3.5423025     -2.00038   0.16582479   -3.5423025    1.5419225   604175 
 6866000    1.4137031   -3.5413038   -2.0003317   0.16938571   -3.5413038    1.5409721   604197 
 6867000     1.414332   -3.5433122   -2.0017132   0.16101023   -3.5433122    1.5415989   604220 
 6868000    1.4144314   -3.5428495   -2.0011881   0.16465546   -3.5428495    1.5416614   604238 
 6869000    1.4135492   -3.5416607   -2.0010093   0.16970426   -3.5416607    1.5406514   604257 
 6870000    1.4137034   -3.5433996   -2.0026618   0.16228705   -3.5433996    1.5407378   604289 
 6871000     1.415703   -3.5438763       -2.001     0.162291   -3.5438763    1.5428763   604305 
 6872000     1.416017   -3.5436344   -2.0004951   0.16136647   -3.5436344    1.5431393   604336 
 6873000    1.4167622   -3.5438635   -1.9999504   0.15894668   -3.5438635    1.5439131   604351 
 6874000    1.4168123   -3.5434075   -1.9994679   0.16207984   -3.5434075    1.5439396   604362 
 6875000    1.4170782   -3.5429815    -1.998816   0.16996829   -3.5429815    1.5441655   604387 
 6876000    1.4158393   -3.5419562   -1.9991636   0.17536927   -3.5419562    1.5427925   604396 
 6877000    1.4160756   -3.5428687   -1.9998468   0.16783908   -3.5428687    1.5430219   604407 
 6878000    1.4163211   -3.5427883   -1.9995091   0.16623112   -3.5427883    1.5432792   604411 
 6879000    1.4157244   -3.5420591   -1.9994735   0.17001267   -3.5420591    1.5425856   604428 
 6880000    1.4138215   -3.5414643   -2.0010056   0.16586287   -3.5414643    1.5404587   604449 
 6881000    1.4145208   -3.5417587   -2.0005534   0.16217729   -3.5417587    1.5412053   604455 
 6882000    1.4135949   -3.5406545   -2.0004962   0.16530539   -3.5406545    1.5401583   604470 
 6883000    1.4148162   -3.5411153   -1.9996544   0.16224359   -3.5411153    1.5414609   604481 
 6884000    1.4167089   -3.5411261   -1.9976414   0.16579535   -3.5411261    1.5434847   604496 
 6885000     1.416805     -3.54191   -1.9983691   0.17227435     -3.54191    1.5435408   604515 
 6886000    1.4168397   -3.5424737    -1.998941   0.16516678   -3.5424737    1.5435327   604533 
 6887000    1.4155064   -3.5409334   -1.9989195   0.16926502   -3.5409334    1.5420139   604559 
 6888000    1.4168664   -3.5414051   -1.9979455   0.16900371   -3.5414051    1.5434596   604573 
 6889000    1.4182182    -3.543045   -1.9981664   0.16611166    -3.543045    1.5448786   604594 
 6890000    1.4169343   -3.5420598   -1.9986232   0.17229344   -3.5420598    1.5434366   604611 
 6891000     1.416717   -3.5417653   -1.9985909   0.16883423   -3.5417653    1.5431744   604621 
 6892000    1.4171869   -3.5427429   -1.9990848   0.16634618   -3.5427429    1.5436581   604632 
 6893000       1.4177   -3.5433904   -1.9992244   0.17003977   -3.5433904     1.544166   604652 
 6894000    1.4164783   -3.5427785   -1.9999712    0.1685189   -3.5427785    1.5428073   604663 
 6895000    1.4171189   -3.5437233   -2.0002617    0.1688877   -3.5437233    1.5434615   604680 
 6896000    1.4168666   -3.5432815   -2.0001151   0.16671756   -3.5432815    1.5431663   604688 
 6897000    1.4165416   -3.5423695   -1.9996081   0.16973586   -3.5423695    1.5427614   604708 
 6898000     1.416856   -3.5436271    -2.000559   0.16653162   -3.5436271    1.5430681   604722 
 6899000    1.4139517   -3.5412833   -2.0014317   0.17254229   -3.5412833    1.5398516   604743 
 6900000    1.4168778   -3.5442184   -2.0012109   0.16719164   -3.5442184    1.5430076   604755 
 6901000    1.4162907   -3.5438567   -2.0015114   0.16525702   -3.5438567    1.5423452   604764 
 6902000    1.4169693   -3.5436433   -2.0005717   0.16953647   -3.5436433    1.5430715   604769 
 6903000    1.4175885   -3.5446624   -2.0009778   0.16520723   -3.5446624    1.5436846   604793 
 6904000    1.4159191   -3.5440005   -2.0022027   0.16627143   -3.5440005    1.5417978   604820 
 6905000    1.4173855   -3.5448127   -2.0014743   0.17045744   -3.5448127    1.5433384   604842 
 6906000    1.4163844   -3.5437149   -2.0014894   0.16249787   -3.5437149    1.5422255   604851 
 6907000    1.4154152   -3.5439561   -2.0028114   0.16387213   -3.5439561    1.5411447   604861 
 6908000    1.4153603   -3.5437172   -2.0026526   0.16364087   -3.5437172    1.5410645   604869 
 6909000      1.41602   -3.5433825   -2.0016175   0.16464613   -3.5433825     1.541765   604876 
 6910000    1.4186526   -3.5455496   -2.0009285   0.17083152   -3.5455496    1.5446211   604880 
 6911000    1.4174444   -3.5441257    -2.000866    0.1724932   -3.5441257    1.5432597   604898 
 6912000     1.417475   -3.5441169   -2.0008519   0.16813542   -3.5441169     1.543265   604909 
 6913000    1.4181582   -3.5442806   -2.0002922   0.17251404   -3.5442806    1.5439883   604917 
 6914000    1.4167323   -3.5444908   -2.0020651    0.1701548   -3.5444908    1.5424257   604921 
 6915000    1.4180079   -3.5449307   -2.0011468   0.16404407   -3.5449307    1.5437839   604933 
 6916000    1.4173258   -3.5438373   -2.0008444   0.17098398   -3.5438373    1.5429929   604952 
 6917000    1.4180586   -3.5442068    -2.000434   0.16934472   -3.5442068    1.5437727   604959 
 6918000    1.4179012   -3.5455941   -2.0020361   0.16195209   -3.5455941     1.543558   604976 
 6919000    1.4159107   -3.5439475   -2.0025767   0.16923774   -3.5439475    1.5413708   604984 
 6920000    1.4161607   -3.5439653   -2.0023351   0.16705254   -3.5439653    1.5416301   604989 
 6921000    1.4172441   -3.5454657   -2.0027174   0.16826488   -3.5454657    1.5427483   605013 
 6922000    1.4172499   -3.5447179   -2.0019837   0.16415515   -3.5447179    1.5427342   605021 
 6923000     1.416959   -3.5458119   -2.0034223   0.16754721   -3.5458119    1.5423895   605032 
 6924000    1.4169784   -3.5452446    -2.002862   0.17253192   -3.5452446    1.5423826   605043 
 6925000    1.4186291   -3.5457536   -2.0016176   0.17105897   -3.5457536     1.544136   605060 
 6926000    1.4173526   -3.5439301   -2.0012115   0.17568012   -3.5439301    1.5427186   605071 
 6927000    1.4182469   -3.5455164   -2.0018831   0.17542067   -3.5455164    1.5436333   605094 
 6928000    1.4160777    -3.542997   -2.0017604   0.17236087    -3.542997    1.5412367   605108 
 6929000    1.4175999   -3.5450955   -2.0022352   0.16310726   -3.5450955    1.5428603   605121 
 6930000    1.4166825   -3.5438031   -2.0019591   0.16976514   -3.5438031     1.541844   605128 
 6931000    1.4160937   -3.5434999   -2.0023502   0.17356741   -3.5434999    1.5411496   605149 
 6932000    1.4161995   -3.5441966     -2.00297   0.17436627   -3.5441966    1.5412266   605164 
 6933000     1.416292   -3.5449555   -2.0036691   0.16302194   -3.5449555    1.5412864   605180 
 6934000    1.4164469   -3.5458395    -2.004415   0.16875317   -3.5458395    1.5414245   605192 
 6935000    1.4160886   -3.5451647   -2.0041683   0.16550334   -3.5451647    1.5409964   605207 
 6936000    1.4161284      -3.5444   -2.0034011   0.16849769      -3.5444    1.5409989   605223 
 6937000     1.416533   -3.5448475    -2.003449   0.17154388   -3.5448475    1.5413984   605239 
 6938000    1.4181811   -3.5476548   -2.0044987     0.161221   -3.5476548    1.5431562   605253 
 6939000    1.4170633   -3.5456284   -2.0037038    0.1669964   -3.5456284    1.5419246   605259 
 6940000    1.4165473    -3.544022    -2.002692   0.16965729    -3.544022      1.54133   605272 
 6941000    1.4176431   -3.5455805   -2.0031116    0.1708005   -3.5455805    1.5424688   605293 
 6942000    1.4195226   -3.5479519   -2.0034763   0.16877894   -3.5479519    1.5444756   605308 
 6943000     1.417608   -3.5447407   -2.0023636    0.1732255   -3.5447407    1.5423771   605314 
 6944000      1.41909    -3.547645   -2.0036732   0.16700858    -3.547645    1.5439717   605321 
 6945000    1.4179322   -3.5449463     -2.00227   0.17505088   -3.5449463    1.5426763   605335 
 6946000    1.4191206   -3.5472917   -2.0033556    0.1687117   -3.5472917    1.5439361   605348 
 6947000    1.4194811   -3.5469501   -2.0026575   0.16663425   -3.5469501    1.5442926   605362 
 6948000    1.4180609   -3.5456054   -2.0029063   0.17107847   -3.5456054    1.5426991   605381 
 6949000    1.4198812   -3.5468985   -2.0022906    0.1707882   -3.5468985    1.5446079   605409 
 6950000    1.4185333   -3.5470174   -2.0039344   0.17010715   -3.5470174     1.543083   605432 
 6951000    1.4189035   -3.5469477   -2.0034467   0.16728068   -3.5469477    1.5435011   605426 
 6952000    1.4190115   -3.5469002   -2.0033327    0.1717423   -3.5469002    1.5435675   605446 
 6953000    1.4187015   -3.5483382   -2.0051284   0.16995705   -3.5483382    1.5432099   605454 
 6954000    1.4177299   -3.5473338   -2.0052266   0.17217928   -3.5473338    1.5421072   605472 
 6955000    1.4185823   -3.5478271   -2.0048105   0.16942626   -3.5478271    1.5430166   605479 
 6956000    1.4178039   -3.5471154   -2.0049558   0.16562229   -3.5471154    1.5421596   605483 
 6957000    1.4181983   -3.5485003   -2.0059498    0.1734133   -3.5485003    1.5425505   605498 
 6958000    1.4171317   -3.5479826   -2.0066356   0.16376823   -3.5479826    1.5413471   605515 
 6959000     1.416048   -3.5471941   -2.0070359   0.16558765   -3.5471941    1.5401582   605519 
 6960000    1.4165193    -3.546873   -2.0062302   0.17035367    -3.546873    1.5406428   605530 
 6961000    1.4174245   -3.5477494   -2.0061221   0.17125756   -3.5477494    1.5416273   605530 
 6962000    1.4173423   -3.5479427   -2.0064481   0.17286362   -3.5479427    1.5414946   605547 
 6963000    1.4167478   -3.5473386   -2.0065109   0.17477372   -3.5473386    1.5408277   605555 
 6964000     1.418631   -3.5485943    -2.005749   0.16781663   -3.5485943    1.5428453   605567 
 6965000    1.4186431   -3.5482922   -2.0054593   0.17439344   -3.5482922    1.5428329   605577 
 6966000    1.4185191   -3.5465675   -2.0039152   0.17647178   -3.5465675    1.5426523   605595 
 6967000    1.4180679   -3.5467532   -2.0046094    0.1703118   -3.5467532    1.5421438   605602 
 6968000    1.4175159   -3.5472702   -2.0057623   0.17544084   -3.5472702    1.5415078   605616 
 6969000    1.4183219    -3.547902   -2.0055687   0.17214168    -3.547902    1.5423333   605636 
 6970000     1.416135   -3.5459649   -2.0060325   0.17008329   -3.5459649    1.5399324   605645 
 6971000    1.4166699   -3.5468394   -2.0063685   0.17009001   -3.5468394    1.5404709   605662 
 6972000    1.4169443   -3.5468549   -2.0061162   0.17145754   -3.5468549    1.5407387   605674 
 6973000     1.418001    -3.548515   -2.0066782   0.17098014    -3.548515    1.5418368   605694 
 6974000     1.416902   -3.5474627   -2.0068183   0.16375494   -3.5474627    1.5406444   605693 
 6975000     1.417286   -3.5478412   -2.0068327   0.16623235   -3.5478412    1.5410085   605714 
 6976000    1.4160207   -3.5469514   -2.0073466   0.17165312   -3.5469514    1.5396048   605725 
 6977000    1.4173981   -3.5482962   -2.0072346   0.16861226   -3.5482962    1.5410617   605741 
 6978000     1.418395   -3.5484578   -2.0063505   0.16847145   -3.5484578    1.5421073   605756 
 6979000    1.4178969   -3.5472426   -2.0057251   0.17206974   -3.5472426    1.5415175   605775 
 6980000    1.4192862   -3.5487856   -2.0058062   0.16744058   -3.5487856    1.5429795   605794 
 6981000    1.4186379   -3.5484585   -2.0062067    0.1697882   -3.5484585    1.5422517   605803 
 6982000    1.4186173    -3.548343    -2.006134   0.17269581    -3.548343     1.542209   605811 
 6983000    1.4193763   -3.5487512   -2.0057425   0.17086222   -3.5487512    1.5430087   605821 
 6984000    1.4191545    -3.549068    -2.006331   0.16667646    -3.549068    1.5427369   605833 
 6985000    1.4188465    -3.550697   -2.0083152   0.16795944    -3.550697    1.5423818   605841 
 6986000    1.4171098   -3.5483302    -2.007872   0.17175704   -3.5483302    1.5404583   605855 
 6987000    1.4185845   -3.5498077   -2.0077794   0.17199443   -3.5498077    1.5420283   605868 
 6988000    1.4179161   -3.5486654   -2.0073764   0.17798541   -3.5486654     1.541289   605873 
 6989000    1.4186796   -3.5489886   -2.0068901   0.17109825   -3.5489886    1.5420985   605881 
 6990000    1.4198072   -3.5493895   -2.0061162   0.16912786   -3.5493895    1.5432733   605901 
 6991000    1.4199008    -3.549817   -2.0064879   0.16896249    -3.549817    1.5433291   605919 
 6992000    1.4198724   -3.5496725   -2.0064048   0.16893863   -3.5496725    1.5432678   605931 
 6993000    1.4190927   -3.5497063   -2.0073369   0.17202982   -3.5497063    1.5423693   605951 
 6994000    1.4202574   -3.5504613   -2.0068617   0.17474574   -3.5504613    1.5435996   605965 
 6995000    1.4198665   -3.5493875   -2.0062585   0.16920365   -3.5493875    1.5431289   605983 
 6996000    1.4208803   -3.5512162   -2.0069958   0.16724503   -3.5512162    1.5442205   605987 
 6997000     1.418543   -3.5491614   -2.0075244   0.16910516   -3.5491614     1.541637   606004 
 6998000    1.4188982   -3.5490444   -2.0070645   0.16885245   -3.5490444    1.5419798   606021 
 6999000    1.4202546   -3.5506377   -2.0072271   0.16937938   -3.5506377    1.5434106   606038 
 7000000    1.4195901   -3.5497679     -2.00711   0.17141595   -3.5497679     1.542658   606050 
 7001000     1.419896   -3.5508575   -2.0079461   0.16678738   -3.5508575    1.5429115   606081 
 7002000    1.4189293   -3.5504854   -2.0086676   0.17079991   -3.5504854    1.5418178   606098 
 7003000     1.418844   -3.5504866   -2.0088276   0.17246542   -3.5504866     1.541659   606124 
 7004000    1.4185313   -3.5507726   -2.0095042   0.17150362   -3.5507726    1.5412683   606144 
 7005000    1.4185179   -3.5508734   -2.0096654   0.16958034   -3.5508734    1.5412079   606162 
 7006000    1.4192017   -3.5505472    -2.008637    0.1684207   -3.5505472    1.5419102   606178 
 7007000    1.4189689   -3.5499804   -2.0083663   0.17479826   -3.5499804     1.541614   606195 
 7008000    1.4195022   -3.5525591    -2.010386   0.16854776   -3.5525591    1.5421731   606203 
 7009000     1.419968   -3.5516718   -2.0090054   0.17429573   -3.5516718    1.5426664   606208 
 7010000    1.4199541   -3.5519318   -2.0093288   0.17374758   -3.5519318     1.542603   606227 
 7011000    1.4182589   -3.5517047   -2.0110196   0.17418933   -3.5517047    1.5406851   606257 
 7012000    1.4199335   -3.5535343   -2.0110683   0.16663441   -3.5535343    1.5424661   606272 
 7013000    1.4185121   -3.5526076   -2.0117109   0.16315167   -3.5526076    1.5408967   606282 
 7014000     1.419435   -3.5535011   -2.0116426   0.17051575   -3.5535011    1.5418585   606298 
 7015000    1.4193917   -3.5529174   -2.0111442   0.17294133   -3.5529174    1.5417733   606313 
 7016000    1.4199913   -3.5531063     -2.01073    0.1751692   -3.5531063    1.5423762   606332 
 7017000    1.4202155   -3.5526658   -2.0101147   0.16731948   -3.5526658    1.5425511   606359 
 7018000    1.4188587   -3.5522224   -2.0111654   0.17383222   -3.5522224    1.5410571   606367 
 7019000    1.4195638   -3.5527075   -2.0109101   0.17135525   -3.5527075    1.5417974   606377 
 7020000    1.4198216   -3.5519098   -2.0098705     0.165601   -3.5519098    1.5420393   606392 
 7021000    1.4199369   -3.5526924   -2.0105635   0.16654027   -3.5526924    1.5421289   606406 
 7022000     1.418441   -3.5502134   -2.0097269   0.17514398   -3.5502134    1.5404865   606413 
 7023000    1.4197629   -3.5510183   -2.0091266   0.17813276   -3.5510183    1.5418916   606425 
 7024000    1.4213404   -3.5536899   -2.0101004   0.16709287   -3.5536899    1.5435895   606431 
 7025000     1.420012   -3.5527712   -2.0106752   0.16932643   -3.5527712     1.542096   606451 
 7026000    1.4194957   -3.5517067   -2.0102069   0.16615426   -3.5517067    1.5414998   606465 
 7027000    1.4196695   -3.5528774   -2.0112397   0.16427152   -3.5528774    1.5416377   606485 
 7028000    1.4206545    -3.553338   -2.0106511    0.1678942    -3.553338     1.542687   606493 
 7029000    1.4183374   -3.5525286   -2.0123908   0.16366866   -3.5525286    1.5401378   606506 
 7030000    1.4188912   -3.5530099   -2.0123114   0.16206001   -3.5530099    1.5406985   606522 
 7031000    1.4188222   -3.5537557   -2.0131753   0.17169351   -3.5537557    1.5405804   606539 
 7032000    1.4195425   -3.5539348   -2.0126027   0.16464512   -3.5539348    1.5413321   606551 
 7033000    1.4194993   -3.5543418    -2.013077   0.16362345   -3.5543418    1.5412648   606559 
 7034000    1.4199406   -3.5538576    -2.012167   0.16745933   -3.5538576    1.5416906   606580 
 7035000    1.4194325   -3.5534247   -2.0123035   0.16914609   -3.5534247    1.5411212   606587 
 7036000    1.4210594   -3.5538743   -2.0110326   0.17273626   -3.5538743    1.5428417   606605 
 7037000    1.4215305    -3.554092   -2.0107845   0.17199338    -3.554092    1.5433075   606623 
 7038000    1.4223086   -3.5549649   -2.0108586   0.16674429   -3.5549649    1.5441063   606641 
 7039000    1.4187243   -3.5529374   -2.0127451   0.17471517   -3.5529374    1.5401923   606650 
 7040000    1.4185904   -3.5530903    -2.013084   0.17544047   -3.5530903    1.5400063   606666 
 7041000    1.4204081   -3.5546108   -2.0126465   0.16840776   -3.5546108    1.5419643   606672 
 7042000    1.4205985    -3.555426   -2.0132855   0.17291862    -3.555426    1.5421405   606684 
 7043000    1.4187146   -3.5540802    -2.014005   0.17029324   -3.5540802    1.5400752   606692 
 7044000    1.4192957   -3.5556284   -2.0149707   0.17440669   -3.5556284    1.5406577   606711 
 7045000    1.4181186   -3.5552267   -2.0158874   0.16643857   -3.5552267    1.5393393   606727 
 7046000     1.417947   -3.5540654   -2.0149579   0.16827467   -3.5540654    1.5391074   606745 
 7047000    1.4161385   -3.5531612   -2.0160244   0.17378706   -3.5531612    1.5371367   606748 
 7048000     1.418541   -3.5541515   -2.0144273   0.16751914   -3.5541515    1.5397243   606756 
 7049000     1.419129    -3.555354   -2.0150297   0.17156507    -3.555354    1.5403244   606771 
 7050000    1.4203018   -3.5549958    -2.013429   0.17379355   -3.5549958    1.5415668   606783 
 7051000    1.4196496   -3.5535555    -2.012722   0.17227578   -3.5535555    1.5408335   606793 
 7052000    1.4202424   -3.5548945   -2.0134582   0.17265988   -3.5548945    1.5414363   606809 
 7053000    1.4207534   -3.5541429    -2.012185   0.17279408   -3.5541429    1.5419579   606822 
 7054000    1.4202081   -3.5529738   -2.0116331   0.17614821   -3.5529738    1.5413406   606832 
 7055000    1.4203901   -3.5539466   -2.0124541   0.17649741   -3.5539466    1.5414925   606850 
 7056000    1.4209357   -3.5542917   -2.0122376   0.17039986   -3.5542917    1.5420541   606862 
 7057000     1.419587   -3.5527089   -2.0121566   0.17259119   -3.5527089    1.5405523   606877 
 7058000    1.4213776    -3.556089   -2.0136366   0.16389071    -3.556089    1.5424524   606894 
 7059000    1.4210544    -3.554966   -2.0128949   0.16713539    -3.554966    1.5420711   606906 
 7060000     1.421675   -3.5558409   -2.0131497   0.16671292   -3.5558409    1.5426911   606927 
 7061000    1.4207733   -3.5552846   -2.0135922   0.16844385   -3.5552846    1.5416924   606935 
 7062000    1.4209033   -3.5547158     -2.01289   0.16947661   -3.5547158    1.5418258   606938 
 7063000    1.4218825   -3.5555762   -2.0127387   0.17228693   -3.5555762    1.5428376   606958 
 7064000    1.4209129   -3.5541127   -2.0123551   0.17854905   -3.5541127    1.5417576   606969 
 7065000    1.4207433    -3.552956   -2.0114054    0.1721637    -3.552956    1.5415506   606978 
 7066000    1.4234287   -3.5559039   -2.0114445   0.16724735   -3.5559039    1.5444594   606980 
 7067000    1.4222601   -3.5549888   -2.0118229   0.16622284   -3.5549888    1.5431659   606990 
 7068000    1.4203849    -3.553519   -2.0124486   0.17272539    -3.553519    1.5410703   607014 
 7069000    1.4214384   -3.5541943   -2.0119911   0.17453636   -3.5541943    1.5422032   607018 
 7070000    1.4219183   -3.5543913   -2.0116979   0.17084612   -3.5543913    1.5426934   607030 
 7071000    1.4201895   -3.5543636   -2.0135635    0.1765427   -3.5543636       1.5408   607037 
 7072000    1.4211024   -3.5553544   -2.0135742   0.16436717   -3.5553544    1.5417802   607041 
 7073000    1.4198846   -3.5537022   -2.0132712   0.17472622   -3.5537022    1.5404311   607052 
 7074000    1.4196948   -3.5553406   -2.0151357    0.1688593   -3.5553406    1.5402049   607060 
 7075000    1.4189871   -3.5544895   -2.0151031   0.16913436   -3.5544895    1.5393864   607080 
 7076000    1.4194105   -3.5548416   -2.0150161   0.17231904   -3.5548416    1.5398255   607088 
 7077000    1.4218558   -3.5572939   -2.0148334   0.16787079   -3.5572939    1.5424604   607095 
 7078000    1.4220451   -3.5570117   -2.0143688   0.16933838   -3.5570117    1.5426429   607104 
 7079000    1.4209955   -3.5557249   -2.0142663    0.1684522   -3.5557249    1.5414585   607122 
 7080000    1.4216616   -3.5566727   -2.0145347   0.17091204   -3.5566727     1.542138   607139 
 7081000    1.4210086   -3.5565214   -2.0151172   0.16952477   -3.5565214    1.5414042   607149 
 7082000    1.4223437   -3.5572747   -2.0144527   0.17120264   -3.5572747     1.542822   607161 
 7083000    1.4209211   -3.5550772   -2.0138389   0.17631987   -3.5550772    1.5412383   607177 
 7084000    1.4214709   -3.5571046   -2.0153106   0.17422963   -3.5571046     1.541794   607193 
 7085000    1.4205675   -3.5555949   -2.0148062   0.17241027   -3.5555949    1.5407888   607203 
 7086000    1.4192134   -3.5559772   -2.0166926   0.17158041   -3.5559772    1.5392846   607217 
 7087000     1.420731   -3.5569074    -2.015987   0.16875144   -3.5569074    1.5409204   607221 
 7088000    1.4201588    -3.555772   -2.0155204   0.16998871    -3.555772    1.5402517   607240 
 7089000    1.4221638   -3.5582509   -2.0158882   0.16727628   -3.5582509    1.5423627   607265 
 7090000    1.4213581    -3.557208   -2.0157648   0.16440591    -3.557208    1.5414432   607283 
 7091000    1.4213855   -3.5567392   -2.0153095    0.1723399   -3.5567392    1.5414298   607300 
 7092000     1.421705   -3.5569262   -2.0152008   0.16836285   -3.5569262    1.5417254   607320 
 7093000    1.4211354   -3.5558047   -2.0147147   0.16933677   -3.5558047      1.54109   607327 
 7094000    1.4207854   -3.5565618    -2.015897   0.17613982   -3.5565618    1.5406648   607345 
 7095000    1.4212643   -3.5570688   -2.0159076   0.17149311   -3.5570688    1.5411612   607354 
 7096000    1.4202215   -3.5560238   -2.0160314   0.17205221   -3.5560238    1.5399924   607369 
 7097000    1.4210493   -3.5567063   -2.0158543   0.16866012   -3.5567063     1.540852   607384 
 7098000    1.4203107   -3.5566508   -2.0166504   0.16756799   -3.5566508    1.5400004   607404 
 7099000    1.4191621   -3.5554036   -2.0166765   0.17137174   -3.5554036    1.5387272   607415 
 7100000    1.4218745   -3.5576546   -2.0160094   0.16400606   -3.5576546    1.5416452   607424 
 7101000    1.4212614   -3.5562034   -2.0152533   0.17144555   -3.5562034    1.5409501   607436 
 7102000    1.4216872   -3.5567168   -2.0153255   0.17260507   -3.5567168    1.5413914   607444 
 7103000    1.4221509   -3.5571526   -2.0152991   0.17328492   -3.5571526    1.5418535   607460 
 7104000    1.4226912   -3.5588575   -2.0164309   0.16836224   -3.5588575    1.5424266   607465 
 7105000    1.4212045   -3.5577869   -2.0169898   0.16616866   -3.5577869    1.5407971   607472 
 7106000    1.4201055   -3.5572475   -2.0176672   0.17237197   -3.5572475    1.5395803   607482 
 7107000    1.4205983    -3.557993   -2.0178811   0.16907349    -3.557993    1.5401119   607483 
 7108000    1.4194655   -3.5571363   -2.0182751   0.16825104   -3.5571363    1.5388611   607492 
 7109000    1.4188242   -3.5568477   -2.0187073   0.16438371   -3.5568477    1.5381405   607502 
 7110000    1.4193095   -3.5583946    -2.019776   0.17149095   -3.5583946    1.5386185   607521 
 7111000     1.417753   -3.5574053   -2.0205324    0.1700061   -3.5574053    1.5368729   607544 
 7112000    1.4179032   -3.5572132   -2.0201925   0.17092619   -3.5572132    1.5370206   607550 
 7113000    1.4202544   -3.5597777   -2.0202363   0.17460234   -3.5597777    1.5395414   607561 
 7114000    1.4218779    -3.560561   -2.0193029   0.17072175    -3.560561    1.5412582   607578 
 7115000    1.4201087    -3.559196   -2.0198757   0.16657319    -3.559196    1.5393202   607586 
 7116000    1.4197032    -3.558377   -2.0195268   0.17654186    -3.558377    1.5388502   607598 
 7117000     1.420692   -3.5592241   -2.0193325   0.16333529   -3.5592241    1.5398916   607610 
 7118000     1.420668   -3.5594915   -2.0196564   0.16672193   -3.5594915    1.5398352   607622 
 7119000    1.4203526   -3.5588115   -2.0193435   0.16818836   -3.5588115     1.539468   607632 
 7120000     1.420644   -3.5589529   -2.0191995   0.16661424   -3.5589529    1.5397534   607644 
 7121000    1.4201947   -3.5596719   -2.0204308    0.1685044   -3.5596719    1.5392411   607654 
 7122000    1.4187448   -3.5584945   -2.0208653   0.17222891   -3.5584945    1.5376292   607670 
 7123000     1.418304   -3.5581313   -2.0210102    0.1741664   -3.5581313    1.5371211   607682 
 7124000    1.4198454   -3.5598194    -2.021048   0.16981453   -3.5598194    1.5387714   607690 
 7125000    1.4185765   -3.5581898   -2.0208391   0.16567113   -3.5581898    1.5373507   607708 
 7126000    1.4207978   -3.5604085   -2.0206758   0.16368587   -3.5604085    1.5397327   607718 
 7127000    1.4203712   -3.5604126   -2.0211778   0.16376694   -3.5604126    1.5392348   607732 
 7128000    1.4192396   -3.5586625   -2.0206767   0.17026043   -3.5586625    1.5379857   607741 
 7129000    1.4207034   -3.5607312   -2.0211819   0.16851329   -3.5607312    1.5395493   607750 
 7130000     1.420331   -3.5597191   -2.0206037   0.16871356   -3.5597191    1.5391153   607762 
 7131000    1.4207086   -3.5604505   -2.0209513   0.17190819   -3.5604505    1.5394991   607772 
 7132000    1.4217431   -3.5606496   -2.0200498   0.16463134   -3.5606496    1.5405998   607780 
 7133000    1.4195712   -3.5590568   -2.0208155   0.16620084   -3.5590568    1.5382413   607782 
 7134000    1.4208593   -3.5609915   -2.0213671   0.17050365   -3.5609915    1.5396244   607787 
 7135000    1.4207468   -3.5601115   -2.0206241   0.17926481   -3.5601115    1.5394873   607793 
 7136000    1.4222818   -3.5618593   -2.0207189   0.17285582   -3.5618593    1.5411405   607797 
 7137000    1.4208074   -3.5607062    -2.021186   0.17083304   -3.5607062    1.5395201   607806 
 7138000    1.4203862   -3.5611475    -2.022099   0.17387804   -3.5611475    1.5390485   607812 
 7139000    1.4202711   -3.5606316   -2.0217154   0.16793785   -3.5606316    1.5389162   607815 
 7140000    1.4205091   -3.5606497   -2.0215111   0.16885317   -3.5606497    1.5391386   607829 
 7141000     1.421732     -3.56175   -2.0212839   0.16974614     -3.56175    1.5404661   607828 
 7142000    1.4200867   -3.5602225   -2.0215947   0.17041274   -3.5602225    1.5386278   607850 
 7143000    1.4217384   -3.5606096   -2.0202556    0.1743504   -3.5606096     1.540354   607875 
 7144000    1.4214791   -3.5601002   -2.0200626   0.17503303   -3.5601002    1.5400376   607889 
 7145000    1.4207725   -3.5600092   -2.0207701   0.17338628   -3.5600092    1.5392391   607902 
 7146000    1.4196371   -3.5601476   -2.0221713   0.16753828   -3.5601476    1.5379762   607915 
 7147000    1.4201627   -3.5606909    -2.022201   0.16767911   -3.5606909    1.5384899   607937 
 7148000    1.4208429   -3.5602569   -2.0210377   0.16470563   -3.5602569    1.5392193   607940 
 7149000    1.4196958   -3.5597619   -2.0218081   0.16897109   -3.5597619    1.5379538   607949 
 7150000    1.4202404   -3.5607472   -2.0222312    0.1645457   -3.5607472    1.5385159   607960 
 7151000    1.4223915   -3.5613031   -2.0204874     0.166731   -3.5613031    1.5408157   607972 
 7152000    1.4213576   -3.5606017    -2.020911   0.16690914   -3.5606017    1.5396907   607974 
 7153000    1.4223593   -3.5615485   -2.0208133   0.17073393   -3.5615485    1.5407352   607990 
 7154000    1.4204951   -3.5601351   -2.0214547   0.17106931   -3.5601351    1.5386804   608004 
 7155000    1.4207112   -3.5596471     -2.02073   0.17325716   -3.5596471    1.5389171   608003 
 7156000    1.4217668   -3.5604789   -2.0204564   0.16920769   -3.5604789    1.5400224   608018 
 7157000    1.4220351   -3.5598338   -2.0195562   0.17481256   -3.5598338    1.5402776   608032 
 7158000    1.4237668   -3.5617303   -2.0195948   0.17535353   -3.5617303    1.5421355   608039 
 7159000     1.422999   -3.5612887   -2.0199899   0.17770125   -3.5612887    1.5412988   608041 
 7160000    1.4248808   -3.5631955   -2.0198939   0.16699265   -3.5631955    1.5433016   608055 
 7161000    1.4218275   -3.5603312   -2.0203545   0.17994299   -3.5603312    1.5399768   608062 
 7162000    1.4229575   -3.5619156   -2.0207403   0.17222949   -3.5619156    1.5411753   608072 
 7163000    1.4218426   -3.5611683   -2.0212233   0.17553033   -3.5611683     1.539945   608081 
 7164000    1.4220207   -3.5614103    -2.021285   0.17315904   -3.5614103    1.5401253   608086 
 7165000    1.4219251   -3.5612602   -2.0212764   0.17545006   -3.5612602    1.5399838   608101 
 7166000    1.4206468   -3.5610423   -2.0225038   0.17280788   -3.5610423    1.5385386   608125 
 7167000    1.4222611   -3.5619249   -2.0216963   0.17646287   -3.5619249    1.5402286   608148 
 7168000    1.4217204   -3.5622931   -2.0226931   0.16698758   -3.5622931       1.5396   608165 
 7169000    1.4212342   -3.5612214   -2.0221859   0.17139095   -3.5612214    1.5390355   608180 
 7170000     1.421851   -3.5626873   -2.0230446   0.16630238   -3.5626873    1.5396427   608204 
 7171000    1.4220925   -3.5620255   -2.0221365   0.16957435   -3.5620255     1.539889   608210 
 7172000    1.4237308   -3.5625154   -2.0208954   0.17417137   -3.5625154    1.5416199   608227 
 7173000    1.4254079   -3.5639498   -2.0205266   0.16354383   -3.5639498    1.5434232   608232 
 7174000    1.4232939   -3.5620446   -2.0209281   0.17224275   -3.5620446    1.5411164   608239 
 7175000    1.4230223   -3.5621353   -2.0213535   0.17932901   -3.5621353    1.5407818   608255 
 7176000    1.4233356   -3.5624186   -2.0213229   0.17468313   -3.5624186    1.5410957   608265 
 7177000    1.4234323   -3.5624776   -2.0212949   0.17437941   -3.5624776    1.5411827   608272 
 7178000     1.423063   -3.5623487   -2.0215911   0.17372748   -3.5623487    1.5407575   608282 
 7179000    1.4222291   -3.5621161   -2.0223247   0.17173172   -3.5621161    1.5397914   608307 
 7180000    1.4211379    -3.560891   -2.0223164   0.17620733    -3.560891    1.5385745   608321 
 7181000    1.4226869   -3.5632681   -2.0230418   0.16501054   -3.5632681    1.5402263   608331 
 7182000    1.4212793   -3.5618921   -2.0232378   0.17632714   -3.5618921    1.5386543   608350 
 7183000    1.4230277   -3.5639141   -2.0234152   0.17336131   -3.5639141    1.5404989   608369 
 7184000    1.4227131    -3.562853   -2.0227327   0.17822971    -3.562853    1.5401204   608384 
 7185000    1.4222633    -3.562633   -2.0230172   0.17770765    -3.562633    1.5396158   608391 
 7186000    1.4220948    -3.563232   -2.0238365   0.16999075    -3.563232    1.5393955   608406 
 7187000    1.4231618   -3.5639688   -2.0234437   0.16924284   -3.5639688    1.5405251   608416 
 7188000    1.4233762   -3.5643278   -2.0235858   0.17383307   -3.5643278     1.540742   608422 
 7189000    1.4229191    -3.563285   -2.0230885   0.17652706    -3.563285    1.5401966   608442 
 7190000    1.4233277   -3.5639312   -2.0232923   0.17382205   -3.5639312    1.5406389   608442 
 7191000    1.4235406   -3.5647725   -2.0239462   0.17072335   -3.5647725    1.5408263   608459 
 7192000    1.4237475    -3.565215   -2.0242231   0.16893995    -3.565215     1.540992   608482 
 7193000    1.4239666   -3.5659209   -2.0247399   0.16562649   -3.5659209     1.541181   608501 
 7194000    1.4228241    -3.563934   -2.0240123   0.17350693    -3.563934    1.5399217   608510 
 7195000    1.4231999   -3.5658662   -2.0255657   0.17130824   -3.5658662    1.5403005   608521 
 7196000    1.4207123   -3.5626415   -2.0250913   0.17938014   -3.5626415    1.5375502   608544 
 7197000    1.4227748   -3.5657854   -2.0260562   0.16766003   -3.5657854    1.5397292   608565 
 7198000    1.4245757   -3.5663887   -2.0247435   0.17507265   -3.5663887    1.5416452   608578 
 7199000    1.4238746   -3.5651631   -2.0243146   0.17056105   -3.5651631    1.5408485   608593 
 7200000    1.4232155   -3.5641458   -2.0240613   0.17276252   -3.5641458    1.5400845   608613 
 7201000    1.4228252    -3.562958    -2.023316   0.17481259    -3.562958     1.539642   608621 
 7202000    1.4243607   -3.5640361    -2.022768   0.17309915   -3.5640361    1.5412681   608635 
 7203000    1.4234895   -3.5635902   -2.0232826   0.17092484   -3.5635902    1.5403076   608642 
 7204000    1.4232587   -3.5635812   -2.0235536   0.17723308   -3.5635812    1.5400276   608654 
 7205000    1.4248036   -3.5647431   -2.0230921   0.17741662   -3.5647431    1.5416511   608673 
 7206000    1.4252353   -3.5646054   -2.0225378   0.17554947   -3.5646054    1.5420676   608693 
 7207000    1.4214841   -3.5610684   -2.0230748   0.17767229   -3.5610684    1.5379936   608699 
 7208000    1.4233338   -3.5644927   -2.0245407   0.17443211   -3.5644927     1.539952   608716 
 7209000    1.4253865   -3.5652715   -2.0231417    0.1682149   -3.5652715    1.5421298   608733 
 7210000    1.4247344   -3.5650182   -2.0236217   0.17096574   -3.5650182    1.5413965   608744 
 7211000    1.4240506   -3.5648713   -2.0242375   0.17433933   -3.5648713    1.5406338   608753 
 7212000    1.4249279   -3.5649331   -2.0233982   0.17027085   -3.5649331    1.5415349   608772 
 7213000    1.4232605    -3.562851   -2.0231478   0.17475436    -3.562851    1.5397032   608783 
 7214000    1.4222782   -3.5632982   -2.0246931    0.1757234   -3.5632982    1.5386051   608797 
 7215000    1.4234285   -3.5640673   -2.0242304   0.17248089   -3.5640673    1.5398369   608802 
 7216000    1.4236566   -3.5639072   -2.0238666   0.17360196   -3.5639072    1.5400406   608819 
 7217000    1.4233411   -3.5628443   -2.0231753   0.17703603   -3.5628443     1.539669   608831 
 7218000    1.4250337   -3.5643532   -2.0229014   0.17610505   -3.5643532    1.5414518   608850 
 7219000    1.4230906   -3.5626761   -2.0233488   0.18344432   -3.5626761    1.5393272   608859 
 7220000    1.4254961   -3.5651523   -2.0232611   0.17235687   -3.5651523    1.5418913   608874 
 7221000    1.4246189    -3.564046   -2.0231542   0.17948784    -3.564046    1.5408918   608894 
 7222000    1.4252597   -3.5650183   -2.0234587   0.17386246   -3.5650183    1.5415595   608904 
 7223000    1.4254816    -3.566356   -2.0245843   0.17008385    -3.566356    1.5417717   608915 
 7224000    1.4240254   -3.5651204   -2.0249642   0.17296936   -3.5651204    1.5401562   608931 
 7225000    1.4243105   -3.5659543   -2.0255327   0.17443781   -3.5659543    1.5404216   608948 
 7226000    1.4242136   -3.5660641   -2.0257852   0.17310898   -3.5660641    1.5402789   608963 
 7227000     1.423559   -3.5667764   -2.0272637   0.17061833   -3.5667764    1.5395127   608986 
 7228000    1.4244663   -3.5664663   -2.0260279   0.17629998   -3.5664663    1.5404384   609008 
 7229000     1.424664   -3.5663472   -2.0257356   0.17050407   -3.5663472    1.5406116   609024 
 7230000    1.4254125   -3.5666166    -2.025236   0.16955873   -3.5666166    1.5413806   609040 
 7231000    1.4253408   -3.5666645   -2.0254348    0.1764856   -3.5666645    1.5412297   609069 
 7232000    1.4249234   -3.5668651   -2.0261222   0.17130647   -3.5668651    1.5407429   609083 
 7233000    1.4244161   -3.5664048   -2.0262432   0.16558351   -3.5664048    1.5401615   609096 
 7234000    1.4254849   -3.5676016   -2.0263022   0.16795607   -3.5676016    1.5412994   609103 
 7235000    1.4252321   -3.5667774   -2.0257817   0.17118109   -3.5667774    1.5409957   609115 
 7236000    1.4254403   -3.5673524   -2.0261848   0.17757991   -3.5673524    1.5411676   609136 
 7237000    1.4244775   -3.5656989   -2.0256328   0.16813354   -3.5656989    1.5400661   609160 
 7238000    1.4255909   -3.5674181   -2.0261761   0.16976446   -3.5674181     1.541242   609171 
 7239000    1.4241854   -3.5667693   -2.0270797   0.17588047   -3.5667693    1.5396896   609184 
 7240000    1.4242986   -3.5667343   -2.0269249   0.17323364   -3.5667343    1.5398094   609185 
 7241000    1.4238509    -3.566733   -2.0274252   0.17039605    -3.566733    1.5393077   609192 
 7242000     1.424538   -3.5672633   -2.0272481   0.17489488   -3.5672633    1.5400151   609206 
 7243000    1.4246422   -3.5663562   -2.0262537   0.17935457   -3.5663562    1.5401025   609216 
 7244000    1.4250151   -3.5669313   -2.0264534   0.17506752   -3.5669313    1.5404779   609227 
 7245000    1.4259094   -3.5675927   -2.0261886   0.17418494   -3.5675927    1.5414041   609243 
 7246000    1.4270127   -3.5685852   -2.0260492   0.17142815   -3.5685852     1.542536   609267 
 7247000    1.4256784   -3.5676396   -2.0265788   0.17564128   -3.5676396    1.5410608   609280 
 7248000    1.4240343   -3.5659111   -2.0266628   0.18550626   -3.5659111    1.5392483   609294 
 7249000    1.4265527   -3.5689576   -2.0270276   0.17386858   -3.5689576    1.5419299   609310 
 7250000    1.4248754   -3.5676273   -2.0275331   0.17687703   -3.5676273    1.5400943   609319 
 7251000    1.4263865   -3.5682446   -2.0265448   0.16986015   -3.5682446    1.5416998   609330 
 7252000    1.4248372   -3.5674198   -2.0274149   0.17161804   -3.5674198    1.5400049   609338 
 7253000    1.4247757   -3.5674545   -2.0275286   0.17574358   -3.5674545    1.5399259   609343 
 7254000     1.425584   -3.5685072   -2.0277356   0.16732387   -3.5685072    1.5407716   609354 
 7255000    1.4250332   -3.5678197    -2.027661   0.17433285   -3.5678197    1.5401587   609361 
 7256000    1.4243686    -3.566982    -2.027582   0.17243674    -3.566982       1.5394   609377 
 7257000    1.4260034   -3.5687196   -2.0275908    0.1689566   -3.5687196    1.5411288   609392 
 7258000    1.4239812   -3.5676923   -2.0288221   0.17346501   -3.5676923    1.5388702   609421 
 7259000    1.4237969   -3.5679839   -2.0293458   0.17011184   -3.5679839    1.5386381   609434 
 7260000    1.4241555   -3.5692359   -2.0302152   0.17271049   -3.5692359    1.5390206   609436 
 7261000    1.4244586   -3.5684458   -2.0291381   0.17265691   -3.5684458    1.5393077   609452 
 7262000    1.4244492   -3.5680218    -2.028752   0.17118784   -3.5680218    1.5392698   609463 
 7263000    1.4262005   -3.5705263   -2.0294172   0.16609923   -3.5705263    1.5411091   609484 
 7264000    1.4239502   -3.5676816   -2.0290393   0.17765699   -3.5676816    1.5386422   609498 
 7265000    1.4245631   -3.5680161   -2.0287419   0.17596687   -3.5680161    1.5392742   609510 
 7266000     1.425689   -3.5691509   -2.0286955   0.17640247   -3.5691509    1.5404554   609524 
 7267000    1.4255625   -3.5696426   -2.0293467    0.1724221   -3.5696426     1.540296   609533 
 7268000     1.424257     -3.56818   -2.0293376   0.17653161     -3.56818    1.5388424   609550 
 7269000     1.426921   -3.5692548   -2.0275669   0.17304558   -3.5692548    1.5416879   609563 
 7270000    1.4271926   -3.5698615   -2.0279054   0.17635175   -3.5698615    1.5419561   609573 
 7271000    1.4279234   -3.5705867   -2.0278765   0.17795951   -3.5705867    1.5427102   609587 
 7272000    1.4269546   -3.5696281   -2.0279798   0.17516453   -3.5696281    1.5416483   609593 
 7273000    1.4248953   -3.5674454   -2.0280446   0.17988265   -3.5674454    1.5394008   609602 
 7274000    1.4267404   -3.5693961   -2.0280247   0.18000136   -3.5693961    1.5413714   609611 
 7275000    1.4265708   -3.5707151   -2.0295648   0.16963297   -3.5707151    1.5411502   609626 
 7276000    1.4253149    -3.569017   -2.0292513   0.17704576    -3.569017    1.5397657   609637 
 7277000    1.4264993   -3.5701714   -2.0291565   0.17386324   -3.5701714    1.5410149   609649 
 7278000    1.4272977   -3.5720445   -2.0302076   0.17499928   -3.5720445    1.5418369   609665 
 7279000    1.4245814   -3.5683406   -2.0294758    0.1766043   -3.5683406    1.5388648   609680 
 7280000    1.4259357   -3.5702198   -2.0299199   0.17151587   -3.5702198    1.5402999   609691 
 7281000    1.4256874   -3.5703025   -2.0303112   0.17604435   -3.5703025    1.5399913   609707 
 7282000    1.4271048   -3.5713031   -2.0298187    0.1744835   -3.5713031    1.5414844   609722 
 7283000    1.4257737   -3.5692435   -2.0292171   0.17505429   -3.5692435    1.5400264   609730 
 7284000     1.426637   -3.5709301   -2.0299889   0.17824677   -3.5709301    1.5409411   609737 
 7285000    1.4257718   -3.5709978   -2.0310265   0.17644042   -3.5709978    1.5399713   609751 
 7286000    1.4249192   -3.5700405   -2.0310406   0.17774695   -3.5700405    1.5389999   609771 
 7287000    1.4260761   -3.5703213   -2.0300997   0.16966142   -3.5703213    1.5402216   609782 
 7288000    1.4260253   -3.5707868   -2.0306579   0.17118776   -3.5707868     1.540129   609797 
 7289000    1.4249103   -3.5706454   -2.0317232   0.17476238   -3.5706454    1.5389222   609798 
 7290000    1.4240273   -3.5698931   -2.0319649   0.18098415   -3.5698931    1.5379282   609814 
 7291000    1.4264645   -3.5721894   -2.0316821   0.17616504   -3.5721894    1.5405073   609835 
 7292000    1.4246916   -3.5710862   -2.0325415   0.17281522   -3.5710862    1.5385447   609854 
 7293000    1.4271402   -3.5731544   -2.0320337   0.17481888   -3.5731544    1.5411207   609881 
 7294000    1.4248925   -3.5704222   -2.0317666   0.17552404   -3.5704222    1.5386557   609896 
 7295000    1.4266589   -3.5718568    -2.031329   0.17528814   -3.5718568    1.5405278   609910 
 7296000    1.4265008   -3.5707942   -2.0304776   0.17867969   -3.5707942    1.5403166   609926 
 7297000     1.425909   -3.5708156   -2.0311657   0.17170633   -3.5708156    1.5396498   609937 
 7298000    1.4240574   -3.5698924   -2.0322544   0.17932175   -3.5698924     1.537638   609942 
 7299000     1.425419   -3.5707945   -2.0317268   0.17849236   -3.5707945    1.5390677   609958 
 7300000    1.4256266   -3.5703406    -2.031084   0.17996868   -3.5703406    1.5392566   609972 
 7301000    1.4267265   -3.5718573   -2.0314359   0.16998434   -3.5718573    1.5404214   609981 
 7302000    1.4253189   -3.5706487   -2.0317596   0.17473489   -3.5706487    1.5388891   609986 
 7303000    1.4239469   -3.5699356   -2.0325581   0.18583412   -3.5699356    1.5373775   609998 
 7304000    1.4250112   -3.5702494   -2.0317733   0.18011652   -3.5702494    1.5384761   610018 
 7305000    1.4256753   -3.5711768    -2.032019   0.17082453   -3.5711768    1.5391578   610032 
 7306000    1.4277077   -3.5726714    -2.031365   0.17897452   -3.5726714    1.5413064   610050 
 7307000    1.4260971   -3.5708969   -2.0313518   0.17643061   -3.5708969     1.539545   610059 
 7308000    1.4270579   -3.5723412   -2.0317817   0.17018488   -3.5723412    1.5405595   610068 
 7309000     1.425685   -3.5707058   -2.0316638    0.1805118   -3.5707058    1.5390421   610082 
 7310000    1.4259359   -3.5707728   -2.0315027   0.17767971   -3.5707728      1.53927   610099 
 7311000    1.4272928   -3.5717214   -2.0309891   0.17819957   -3.5717214    1.5407322   610100 
 7312000    1.4267667   -3.5712573   -2.0311106   0.17622246   -3.5712573    1.5401467   610107 
 7313000    1.4255865   -3.5712961   -2.0324511   0.17913246   -3.5712961     1.538845   610118 
 7314000    1.4261258   -3.5715282   -2.0321061   0.17827045   -3.5715282    1.5394221   610120 
 7315000    1.4255329   -3.5716208   -2.0328615    0.1757874   -3.5716208    1.5387594   610129 
 7316000    1.4280666   -3.5734076    -2.031979   0.17752311   -3.5734076    1.5414286   610155 
 7317000    1.4275995   -3.5729766   -2.0320951   0.17633112   -3.5729766    1.5408815   610172 
 7318000    1.4275996   -3.5737814   -2.0329149   0.17294107   -3.5737814    1.5408665   610178 
 7319000    1.4267567   -3.5730167   -2.0330928   0.17427994   -3.5730167    1.5399238   610191 
 7320000    1.4254092   -3.5710247   -2.0325678   0.17725744   -3.5710247    1.5384569   610196 
 7321000    1.4280916   -3.5733825   -2.0320381   0.16971817   -3.5733825    1.5413445   610199 
 7322000    1.4266921   -3.5716566    -2.031853   0.17458276   -3.5716566    1.5398037   610211 
 7323000    1.4268138   -3.5729834   -2.0330912   0.17424176   -3.5729834    1.5398922   610228 
 7324000    1.4259737   -3.5723054   -2.0333603   0.17868695   -3.5723054    1.5389451   610244 
 7325000    1.4268666     -3.57319   -2.0333368   0.17561119     -3.57319    1.5398532   610266 
 7326000    1.4267672   -3.5724875   -2.0327643   0.17547769   -3.5724875    1.5397232   610275 
 7327000    1.4260766   -3.5708752   -2.0319224   0.17454528   -3.5708752    1.5389528   610285 
 7328000    1.4279396   -3.5722662   -2.0313283   0.17534623   -3.5722662     1.540938   610295 
 7329000    1.4280102   -3.5726299    -2.031646    0.1751007   -3.5726299    1.5409839   610307 
 7330000    1.4281605    -3.572821   -2.0317002    0.1717847    -3.572821    1.5411208   610317 
 7331000    1.4287084   -3.5726163   -2.0309473   0.17944496   -3.5726163    1.5416691   610334 
 7332000    1.4273029   -3.5712303   -2.0311435   0.18161299   -3.5712303    1.5400869   610360 
 7333000    1.4288699   -3.5734556   -2.0317209   0.18166172   -3.5734556    1.5417347   610377 
 7334000    1.4282752   -3.5729386   -2.0318607   0.18133202   -3.5729386    1.5410779   610383 
 7335000    1.4275167   -3.5730872   -2.0328806   0.18797626   -3.5730872    1.5402066   610404 
 7336000    1.4287169   -3.5743619   -2.0328706   0.17517664   -3.5743619    1.5414913   610408 
 7337000    1.4304236    -3.575319   -2.0320368   0.16946503    -3.575319    1.5432823   610428 
 7338000    1.4276808   -3.5726197   -2.0323244    0.1764063   -3.5726197    1.5402953   610439 
 7339000     1.428644   -3.5737444   -2.0324226   0.18067903   -3.5737444    1.5413218   610444 
 7340000    1.4271976   -3.5718853   -2.0321669   0.18153391   -3.5718853    1.5397184   610461 
 7341000    1.4280658   -3.5736953   -2.0330855   0.17809569   -3.5736953    1.5406097   610479 
 7342000    1.4261278   -3.5717811   -2.0332798   0.17948373   -3.5717811    1.5385013   610486 
 7343000    1.4276469   -3.5732263   -2.0331341   0.17768317   -3.5732263    1.5400922   610505 
 7344000    1.4281657   -3.5742602   -2.0336462   0.18299369   -3.5742602     1.540614   610520 
 7345000    1.4285833   -3.5746971   -2.0336705   0.17740321   -3.5746971    1.5410266   610535 
 7346000    1.4288857   -3.5742009   -2.0328809   0.18068071   -3.5742009    1.5413199   610548 
 7347000     1.428471   -3.5727156   -2.0318935   0.18376594   -3.5727156    1.5408221   610568 
 7348000    1.4289425   -3.5730635    -2.031758   0.17594749   -3.5730635    1.5413055   610578 
 7349000    1.4295534   -3.5735623    -2.031618   0.18433472   -3.5735623    1.5419443   610586 
 7350000    1.4284621   -3.5737151   -2.0329606   0.17518395   -3.5737151    1.5407545   610591 
 7351000    1.4294734   -3.5752269   -2.0334271    0.1760682   -3.5752269    1.5417999   610609 
 7352000    1.4284622   -3.5739385   -2.0332571   0.18393836   -3.5739385    1.5406814   610620 
 7353000     1.427807   -3.5740782   -2.0341186   0.17430578   -3.5740782    1.5399597   610626 
 7354000    1.4280641   -3.5739681   -2.0337816   0.17418845   -3.5739681    1.5401865   610646 
 7355000     1.428989   -3.5754614   -2.0342925   0.17483831   -3.5754614    1.5411689   610652 
 7356000    1.4271054   -3.5745374   -2.0354176   0.17531523   -3.5745374    1.5391198   610659 
 7357000    1.4281762   -3.5750379   -2.0347935    0.1771652   -3.5750379    1.5402444   610671 
 7358000    1.4267554   -3.5746919   -2.0360125   0.17050679   -3.5746919    1.5386793   610684 
 7359000    1.4263101   -3.5744788     -2.03631   0.17275231   -3.5744788    1.5381689   610696 
 7360000    1.4277007   -3.5757378   -2.0361046   0.17142273   -3.5757378    1.5396332   610710 
 7361000    1.4275505   -3.5763346   -2.0368836   0.17351087   -3.5763346     1.539451   610718 
 7362000    1.4276992   -3.5758699   -2.0363013   0.17685348   -3.5758699    1.5395686   610735 
 7363000    1.4285257   -3.5767715   -2.0363519   0.17832218   -3.5767715    1.5404195   610751 
 7364000    1.4284237   -3.5770728   -2.0368213   0.17263766   -3.5770728    1.5402514   610774 
 7365000    1.4273273   -3.5756876   -2.0366435   0.18007997   -3.5756876    1.5390441   610784 
 7366000    1.4273362   -3.5761727   -2.0371493   0.17608095   -3.5761727    1.5390234   610796 
 7367000    1.4272557    -3.575815   -2.0368986   0.18232531    -3.575815    1.5389164   610804 
 7368000    1.4268774   -3.5763284   -2.0378652   0.17714325   -3.5763284    1.5384632   610822 
 7369000    1.4269147   -3.5764459     -2.03796   0.17546694   -3.5764459    1.5384858   610829 
 7370000    1.4258113   -3.5755646   -2.0382861   0.17463838   -3.5755646    1.5372785   610836 
 7371000    1.4266575   -3.5775219   -2.0393612   0.16878976   -3.5775219    1.5381607   610848 
 7372000    1.4261937   -3.5774601   -2.0398221   0.17332396   -3.5774601    1.5376379   610857 
 7373000    1.4271554   -3.5779501   -2.0393408   0.17249155   -3.5779501    1.5386093   610883 
 7374000    1.4257309    -3.576429   -2.0393756    0.1748556    -3.576429    1.5370534   610891 
 7375000    1.4264861   -3.5780598   -2.0402123   0.16934607   -3.5780598    1.5378475   610899 
 7376000    1.4251388   -3.5759961   -2.0396439   0.18152094   -3.5759961    1.5363522   610916 
 7377000    1.4266936   -3.5777697   -2.0397791   0.17650306   -3.5777697    1.5379906   610931 
 7378000    1.4263208   -3.5767502   -2.0391917   0.17260682   -3.5767502    1.5375585   610943 
 7379000    1.4295467   -3.5790817   -2.0380607   0.17082802   -3.5790817    1.5410209   610949 
 7380000    1.4281593   -3.5782306    -2.038733   0.17398485   -3.5782306    1.5394976   610960 
 7381000     1.427131   -3.5762607   -2.0379069    0.1767544   -3.5762607    1.5383538   610974 
 7382000    1.4277663   -3.5770278   -2.0380471   0.17513773   -3.5770278    1.5389807   610997 
 7383000    1.4279189   -3.5780919    -2.038987   0.17155046   -3.5780919    1.5391049   611013 
 7384000    1.4279951   -3.5776605   -2.0385189   0.17514703   -3.5776605    1.5391416   611031 
 7385000    1.4269059   -3.5780053   -2.0400551    0.1682674   -3.5780053    1.5379502   611038 
 7386000    1.4275125   -3.5787425   -2.0401839   0.17967262   -3.5787425    1.5385586   611056 
 7387000    1.4273038   -3.5785121   -2.0402187   0.17129336   -3.5785121    1.5382933   611072 
 7388000    1.4269859   -3.5783968   -2.0404913   0.17665273   -3.5783968    1.5379055   611090 
 7389000    1.4258583   -3.5777358   -2.0410833   0.18195454   -3.5777358    1.5366525   611105 
 7390000     1.426962   -3.5789678   -2.0411661   0.17033301   -3.5789678    1.5378017   611121 
 7391000    1.4274791   -3.5791554   -2.0408216   0.17043684   -3.5791554    1.5383338   611131 
 7392000    1.4277093   -3.5795199   -2.0409682   0.17722158   -3.5795199    1.5385517   611143 
 7393000    1.4262428   -3.5786919   -2.0417557    0.1756832   -3.5786919    1.5369361   611157 
 7394000    1.4270722    -3.580166   -2.0423764   0.17541925    -3.580166    1.5377896   611173 
 7395000    1.4265607   -3.5791924   -2.0419992    0.1730016   -3.5791924    1.5371932   611191 
 7396000    1.4280566   -3.5799169   -2.0411596   0.17826365   -3.5799169    1.5387573   611210 
 7397000    1.4261541    -3.578345   -2.0416479   0.18255157    -3.578345    1.5366972   611214 
 7398000    1.4253859   -3.5776204   -2.0417837   0.17161931   -3.5776204    1.5358368   611227 
 7399000    1.4273654   -3.5795577   -2.0416183   0.17839211   -3.5795577    1.5379394   611239 
 7400000    1.4283462   -3.5811624   -2.0421863   0.17563498   -3.5811624    1.5389761   611247 
 7401000    1.4270719   -3.5792144   -2.0416415   0.17570294   -3.5792144     1.537573   611259 
 7402000    1.4266985   -3.5787485    -2.041603   0.17132991   -3.5787485    1.5371455   611269 
 7403000    1.4264623   -3.5785418   -2.0416785   0.18125799   -3.5785418    1.5368633   611280 
 7404000    1.4270295   -3.5795409   -2.0420842   0.17512086   -3.5795409    1.5374568   611287 
 7405000    1.4290501   -3.5817306   -2.0421321   0.17456361   -3.5817306    1.5395985   611301 
 7406000    1.4263313   -3.5779155   -2.0412737   0.17799529   -3.5779155    1.5366418   611312 
 7407000    1.4279608   -3.5792381   -2.0408912   0.17367418   -3.5792381    1.5383469   611332 
 7408000     1.427973   -3.5795883   -2.0412709   0.17583046   -3.5795883    1.5383173   611349 
 7409000    1.4260598   -3.5784539   -2.0422504   0.18151207   -3.5784539    1.5362035   611370 
 7410000    1.4267149   -3.5780831   -2.0411991   0.17768632   -3.5780831     1.536884   611380 
 7411000    1.4266964   -3.5793335   -2.0425197   0.17488981   -3.5793335    1.5368138   611400 
 7412000    1.4271562   -3.5799792   -2.0427229   0.17338169   -3.5799792    1.5372564   611421 
 7413000    1.4283674   -3.5816478   -2.0431195   0.17765356   -3.5816478    1.5385283   611434 
 7414000    1.4282718   -3.5804089   -2.0420213    0.1780823   -3.5804089    1.5383876   611449 
 7415000     1.428288   -3.5813361   -2.0429537   0.17601237   -3.5813361    1.5383824   611458 
 7416000     1.428359    -3.579429   -2.0410155   0.17788649    -3.579429    1.5384135   611476 
 7417000    1.4302026   -3.5812026   -2.0408336   0.17703654   -3.5812026     1.540369   611488 
 7418000     1.429781     -3.58132   -2.0414429   0.17734933     -3.58132    1.5398771   611503 
 7419000    1.4285333   -3.5807814   -2.0422807   0.17972198   -3.5807814    1.5385007   611516 
 7420000    1.4264578   -3.5803825   -2.0441574   0.18392066   -3.5803825    1.5362252   611532 
 7421000    1.4301344   -3.5828394    -2.042695   0.17257626   -3.5828394    1.5401444   611548 
 7422000    1.4299889   -3.5814131   -2.0414404   0.17848592   -3.5814131    1.5399726   611554 
 7423000    1.4302948   -3.5820871   -2.0418177   0.17776612   -3.5820871    1.5402693   611567 
 7424000    1.4283414   -3.5804428   -2.0423275   0.17701477   -3.5804428    1.5381153   611587 
 7425000    1.4290644   -3.5816064   -2.0427452   0.17580135   -3.5816064    1.5388612   611600 
 7426000    1.4281676   -3.5817225   -2.0438597   0.17560693   -3.5817225    1.5378628   611613 
 7427000     1.427153   -3.5800748   -2.0433497   0.17855118   -3.5800748    1.5367251   611631 
 7428000    1.4285418   -3.5809512    -2.042781   0.17959309   -3.5809512    1.5381702   611651 
 7429000     1.429669   -3.5821363   -2.0428179   0.17390454   -3.5821363    1.5393185   611677 
 7430000    1.4298507   -3.5813945   -2.0419081   0.17902038   -3.5813945    1.5394864   611688 
 7431000    1.4296537   -3.5818899   -2.0426432   0.17608134   -3.5818899    1.5392467   611699 
 7432000    1.4284041   -3.5816906   -2.0438095   0.17382123   -3.5816906    1.5378812   611707 
 7433000    1.4291863   -3.5811718   -2.0425064   0.18720615   -3.5811718    1.5386654   611730 
 7434000    1.4287771   -3.5811135   -2.0429087   0.18003707   -3.5811135    1.5382048   611738 
 7435000    1.4277796   -3.5809399   -2.0438668   0.18271011   -3.5809399    1.5370731   611761 
 7436000    1.4287562   -3.5818679   -2.0437786   0.17870443   -3.5818679    1.5380892   611775 
 7437000    1.4270407   -3.5802591   -2.0440393    0.1819104   -3.5802591    1.5362199   611784 
 7438000    1.4278732   -3.5813324    -2.044254   0.17300261   -3.5813324    1.5370783   611799 
 7439000    1.4291836   -3.5820732   -2.0436244   0.17351996   -3.5820732    1.5384488   611815 
 7440000    1.4281314   -3.5819378   -2.0446669   0.17792336   -3.5819378    1.5372709   611833 
 7441000    1.4278622   -3.5822792   -2.0453508   0.17654619   -3.5822792    1.5369284   611854 
 7442000    1.4277883   -3.5820333   -2.0452222   0.18094497   -3.5820333    1.5368111   611869 
 7443000    1.4287592   -3.5826258   -2.0447872   0.17561774   -3.5826258    1.5378386   611876 
 7444000     1.429627   -3.5834198   -2.0446648    0.1787503   -3.5834198     1.538755   611883 
 7445000    1.4294886   -3.5842748   -2.0457014   0.17562531   -3.5842748    1.5385734   611896 
 7446000    1.4275982   -3.5831279   -2.0465967   0.17668093   -3.5831279    1.5365312   611899 
 7447000    1.4293904   -3.5838732   -2.0454507   0.17521814   -3.5838732    1.5384224   611914 
 7448000    1.4283284   -3.5830198   -2.0457906   0.17804811   -3.5830198    1.5372292   611934 
 7449000    1.4271658   -3.5817239   -2.0457861   0.17876899   -3.5817239    1.5359378   611950 
 7450000    1.4309743   -3.5848973   -2.0448809   0.17663877   -3.5848973    1.5400164   611958 
 7451000    1.4297206   -3.5826625    -2.044038   0.17870807   -3.5826625    1.5386245   611975 
 7452000     1.429375   -3.5828647   -2.0446171   0.18010293   -3.5828647    1.5382475   611977 
 7453000    1.4302634   -3.5835183     -2.04436   0.17777222   -3.5835183    1.5391583   611995 
 7454000     1.429805   -3.5840817   -2.0454746    0.1745505   -3.5840817    1.5386071   612018 
 7455000    1.4282572   -3.5824095   -2.0455282    0.1814772   -3.5824095    1.5368813   612042 
 7456000    1.4295778   -3.5838185   -2.0455313   0.17239281   -3.5838185    1.5382872   612048 
 7457000    1.4305601   -3.5834875    -2.044181    0.1754938   -3.5834875    1.5393065   612063 
 7458000    1.4306631    -3.583791   -2.0444013   0.17893038    -3.583791    1.5393897   612074 
 7459000    1.4290027    -3.581574   -2.0439934   0.17980765    -3.581574    1.5375805   612083 
 7460000    1.4294424    -3.583138   -2.0450995     0.176046    -3.583138    1.5380385   612089 
 7461000    1.4303377   -3.5834799   -2.0445158   0.18103655   -3.5834799    1.5389641   612104 
 7462000    1.4292559   -3.5823824     -2.04464   0.16923619   -3.5823824    1.5377424   612127 
 7463000    1.4286471   -3.5815002   -2.0444404   0.17715493   -3.5815002    1.5370598   612138 
 7464000    1.4293082    -3.582847   -2.0451086    0.1753078    -3.582847    1.5377384   612151 
 7465000    1.4314546   -3.5851512   -2.0451639   0.17457749   -3.5851512    1.5399873   612175 
 7466000    1.4305986   -3.5824803   -2.0434516   0.17765602   -3.5824803    1.5390287   612190 
 7467000    1.4317572   -3.5839202   -2.0436452      0.18168   -3.5839202     1.540275   612190 
 7468000    1.4303407    -3.583039   -2.0443179   0.18239555    -3.583039     1.538721   612202 
 7469000    1.4284751   -3.5825662   -2.0458747   0.17860847   -3.5825662    1.5366914   612211 
 7470000    1.4303102   -3.5840603   -2.0454224   0.17935569   -3.5840603    1.5386379   612222 
 7471000    1.4288479   -3.5829997   -2.0459649   0.17603256   -3.5829997    1.5370348   612234 
 7472000    1.4287868   -3.5839067   -2.0469527   0.17513023   -3.5839067     1.536954   612240 
 7473000    1.4288478   -3.5835143   -2.0465374   0.17631966   -3.5835143    1.5369769   612257 
 7474000    1.4283837   -3.5840485   -2.0475959    0.1774095   -3.5840485    1.5364526   612267 
 7475000    1.4294633   -3.5853016   -2.0477204   0.18463505   -3.5853016    1.5375812   612280 
 7476000    1.4283893   -3.5855287   -2.0491254   0.17618566   -3.5855287    1.5364034   612289 
 7477000    1.4282154   -3.5849392   -2.0487453   0.17609232   -3.5849392    1.5361938   612298 
 7478000    1.4309311   -3.5871303   -2.0480533   0.17678313   -3.5871303    1.5390771   612313 
 7479000    1.4292763   -3.5846679   -2.0474033   0.18257575   -3.5846679    1.5372646   612326 
 7480000     1.429479   -3.5847077   -2.0472678   0.18216679   -3.5847077    1.5374399   612343 
 7481000    1.4302555   -3.5859917   -2.0477518   0.17558669   -3.5859917    1.5382399   612357 
 7482000     1.430566   -3.5855909   -2.0470698   0.17960723   -3.5855909    1.5385211   612378 
 7483000    1.4301809   -3.5839817   -2.0459074    0.1798436   -3.5839817    1.5380743   612391 
 7484000    1.4289451   -3.5836805   -2.0469703   0.18472282   -3.5836805    1.5367102   612405 
 7485000    1.4310717   -3.5853186   -2.0463517   0.17809056   -3.5853186     1.538967   612417 
 7486000    1.4313184   -3.5855252   -2.0463155   0.17585312   -3.5855252    1.5392097   612426 
 7487000    1.4306822   -3.5846876   -2.0461797   0.17390297   -3.5846876    1.5385079   612433 
 7488000    1.4301542     -3.58475   -2.0468199   0.17637059     -3.58475      1.53793   612437 
 7489000    1.4308414   -3.5851787   -2.0465474   0.17421731   -3.5851787    1.5386313   612452 
 7490000    1.4290857   -3.5838932   -2.0472126   0.17894102   -3.5838932    1.5366807   612477 
 7491000    1.4297327   -3.5841669   -2.0468307   0.18034832   -3.5841669    1.5373362   612493 
 7492000    1.4315947   -3.5852569   -2.0459185   0.17883649   -3.5852569    1.5393384   612493 
 7493000     1.430686   -3.5838849   -2.0455588   0.18704095   -3.5838849    1.5383261   612507 
 7494000     1.431002   -3.5851597   -2.0465641   0.17749786   -3.5851597    1.5385955   612535 
 7495000    1.4314977   -3.5854082   -2.0463023   0.17737428   -3.5854082    1.5391059   612544 
 7496000    1.4313126   -3.5856769   -2.0467927   0.18297523   -3.5856769    1.5388843   612553 
 7497000    1.4317271   -3.5860912   -2.0467864   0.18018823   -3.5860912    1.5393048   612563 
 7498000    1.4308599   -3.5860273     -2.04766   0.17656113   -3.5860273    1.5383674   612565 
 7499000    1.4324629   -3.5877103   -2.0476572   0.17378221   -3.5877103    1.5400531   612580 
 7500000    1.4313982   -3.5867075   -2.0478342   0.18137414   -3.5867075    1.5388732   612594 
 7501000    1.4315665   -3.5872379   -2.0481962   0.17531887   -3.5872379    1.5390417   612599 
 7502000    1.4296496   -3.5862182   -2.0492649   0.17686929   -3.5862182    1.5369533   612610 
 7503000    1.4296654   -3.5858173   -2.0488848   0.18077876   -3.5858173    1.5369326   612625 
 7504000     1.428208   -3.5847504   -2.0494021   0.18146702   -3.5847504    1.5353483   612632 
 7505000    1.4318481   -3.5883736   -2.0491322   0.17452187   -3.5883736    1.5392414   612640 
 7506000    1.4307479   -3.5878357   -2.0498072   0.17536266   -3.5878357    1.5380285   612652 
 7507000    1.4286589   -3.5860675   -2.0503321   0.18360198   -3.5860675    1.5357353   612671 
 7508000    1.4317478   -3.5881724   -2.0491268   0.17110591   -3.5881724    1.5390457   612675 
 7509000    1.4299384   -3.5855863   -2.0485032   0.18310727   -3.5855863     1.537083   612682 
 7510000    1.4305979   -3.5861502   -2.0483858   0.18313712   -3.5861502    1.5377644   612693 
 7511000    1.4319671   -3.5870919   -2.0478909   0.17354795   -3.5870919    1.5392009   612707 
 7512000    1.4288553   -3.5846269   -2.0487809   0.18086999   -3.5846269    1.5358461   612711 
 7513000    1.4302094   -3.5863164   -2.0490324    0.1703969   -3.5863164     1.537284   612718 
 7514000    1.4294942   -3.5852449   -2.0487697   0.17770741   -3.5852449    1.5364752   612734 
 7515000    1.4307946   -3.5867163    -2.048876   0.17098639   -3.5867163    1.5378403   612747 
 7516000    1.4308754   -3.5869192   -2.0490222   0.17578196   -3.5869192    1.5378971   612759 
 7517000    1.4307404   -3.5855646   -2.0478604   0.17835566   -3.5855646    1.5377043   612778 
 7518000    1.4318488   -3.5871085   -2.0482331   0.18011099   -3.5871085    1.5388754   612786 
 7519000    1.4298033   -3.5843211   -2.0476767   0.18635897   -3.5843211    1.5366444   612799 
 7520000     1.432418   -3.5874464   -2.0480196   0.17485968   -3.5874464    1.5394268   612810 
 7521000    1.4315856   -3.5866091   -2.0481044   0.17867532   -3.5866091    1.5385047   612821 
 7522000    1.4336643   -3.5886781   -2.0479546    0.1748182   -3.5886781    1.5407235   612827 
 7523000    1.4305367   -3.5859901   -2.0486478   0.18107707   -3.5859901    1.5373422   612835 
 7524000    1.4311201   -3.5869054   -2.0489738   0.18103448   -3.5869054    1.5379316   612850 
 7525000    1.4325296   -3.5879891   -2.0485804   0.17821021   -3.5879891    1.5394087   612865 
 7526000    1.4304001    -3.586669   -2.0495638   0.17903281    -3.586669    1.5371052   612871 
 7527000    1.4305393   -3.5863674   -2.0491176   0.17707193   -3.5863674    1.5372498   612873 
 7528000    1.4306414   -3.5867236   -2.0493917   0.17995284   -3.5867236    1.5373319   612884 
 7529000    1.4314565   -3.5881834   -2.0500132   0.17974831   -3.5881834    1.5381702   612899 
 7530000    1.4323102   -3.5888926   -2.0498352   0.17986086   -3.5888926    1.5390573   612911 
 7531000    1.4312423   -3.5869442   -2.0490819    0.1815145   -3.5869442    1.5378622   612930 
 7532000    1.4309299   -3.5874959    -2.049992   0.18022575   -3.5874959    1.5375039   612939 
 7533000    1.4304661   -3.5879803   -2.0510148   0.18071538   -3.5879803    1.5369655   612955 
 7534000    1.4294194   -3.5877422   -2.0519439   0.17678059   -3.5877422    1.5357983   612972 
 7535000    1.4305345   -3.5878733   -2.0509071    0.1799131   -3.5878733    1.5369663   612984 
 7536000    1.4307695   -3.5882953   -2.0511368    0.1746658   -3.5882953    1.5371585   613008 
 7537000    1.4301837   -3.5873618   -2.0508702   0.17400006   -3.5873618    1.5364916   613023 
 7538000     1.429392   -3.5867014   -2.0510779   0.17926801   -3.5867014    1.5356235   613030 
 7539000    1.4299165   -3.5874349   -2.0512829   0.17434937   -3.5874349    1.5361519   613044 
 7540000    1.4292091   -3.5873614    -2.051982   0.17724096   -3.5873614    1.5353794   613049 
 7541000    1.4300219   -3.5889758   -2.0527558   0.17153073   -3.5889758      1.53622   613062 
 7542000    1.4296735   -3.5880082    -2.052205   0.17942347   -3.5880082    1.5358032   613079 
 7543000     1.431103   -3.5889243   -2.0516357   0.17311411   -3.5889243    1.5372886   613099 
 7544000    1.4309733    -3.589035   -2.0519183   0.18134656    -3.589035    1.5371167   613112 
 7545000    1.4310068   -3.5881819   -2.0510592   0.17955956   -3.5881819    1.5371226   613124 
 7546000     1.432315   -3.5888352   -2.0503626   0.17506693   -3.5888352    1.5384726   613146 
 7547000    1.4308838   -3.5879867   -2.0510915   0.18350906   -3.5879867    1.5368952   613162 
 7548000     1.431642   -3.5888646    -2.051175   0.17732606   -3.5888646    1.5376896   613170 
 7549000    1.4337461   -3.5917339   -2.0518196   0.16909275   -3.5917339    1.5399143   613184 
 7550000    1.4324776   -3.5908429   -2.0523436   0.17415826   -3.5908429    1.5384993   613205 
 7551000    1.4313617   -3.5892388   -2.0519631   0.18454312   -3.5892388    1.5372757   613215 
 7552000    1.4320267   -3.5915768   -2.0536145   0.18169059   -3.5915768    1.5379623   613226 
 7553000    1.4309228   -3.5905577   -2.0537909   0.18370792   -3.5905577    1.5367667   613230 
 7554000    1.4298707    -3.589737   -2.0541202   0.18135717    -3.589737    1.5356168   613238 
 7555000    1.4306984   -3.5905402   -2.0540545   0.17506804   -3.5905402    1.5364856   613246 
 7556000    1.4297387   -3.5900966   -2.0546767   0.17863445   -3.5900966      1.53542   613260 
 7557000    1.4292418   -3.5887531   -2.0539169   0.18007765   -3.5887531    1.5348362   613280 
 7558000    1.4315254   -3.5907349   -2.0534814   0.18016903   -3.5907349    1.5372534   613294 
 7559000    1.4308871   -3.5904955   -2.0539626   0.18290574   -3.5904955    1.5365329   613308 
 7560000     1.431645   -3.5909677   -2.0536835   0.17972051   -3.5909677    1.5372842   613333 
 7561000    1.4315315   -3.5904016   -2.0532719   0.18014941   -3.5904016    1.5371296   613346 
 7562000    1.4304084   -3.5905759   -2.0546697   0.17808821   -3.5905759    1.5359061   613353 
 7563000    1.4307022   -3.5909873   -2.0547982   0.18076789   -3.5909873    1.5361891   613366 
 7564000    1.4313017   -3.5912334   -2.0544282   0.18086568   -3.5912334    1.5368052   613377 
 7565000    1.4296161   -3.5905288   -2.0555609   0.18480252   -3.5905288    1.5349678   613388 
 7566000    1.4307704   -3.5921276   -2.0559604   0.17168187   -3.5921276    1.5361672   613404 
 7567000    1.4292939   -3.5910381   -2.0564987   0.17158697   -3.5910381    1.5345394   613421 
 7568000    1.4285501   -3.5896138    -2.055898   0.18426856   -3.5896138    1.5337158   613431 
 7569000    1.4304292   -3.5906042   -2.0549061   0.18031132   -3.5906042    1.5356981   613445 
 7570000    1.4287338   -3.5889246   -2.0550641   0.18106236   -3.5889246    1.5338605   613452 
 7571000    1.4325422   -3.5934812   -2.0555547   0.17568152   -3.5934812    1.5379265   613461 
 7572000    1.4311819   -3.5916794   -2.0552558   0.17274892   -3.5916794    1.5364236   613478 
 7573000    1.4302016   -3.5908147    -2.055461    0.1832814   -3.5908147    1.5353537   613485 
 7574000    1.4308427   -3.5905949   -2.0545681   0.17961892   -3.5905949    1.5360269   613491 
 7575000    1.4330179   -3.5937396   -2.0554027   0.17625483   -3.5937396     1.538337   613501 
 7576000    1.4311053   -3.5915242   -2.0552679   0.17647335   -3.5915242    1.5362563   613512 
 7577000    1.4324375   -3.5926821   -2.0550108   0.17693847   -3.5926821    1.5376713   613518 
 7578000    1.4319393   -3.5914953   -2.0544039   0.17729658   -3.5914953    1.5370914   613536 
 7579000    1.4303781   -3.5906126   -2.0552546   0.17556375   -3.5906126     1.535358   613559 
 7580000    1.4320939   -3.5917713   -2.0546116   0.17694828   -3.5917713    1.5371597   613575 
 7581000    1.4310314   -3.5916052    -2.055591   0.17601694   -3.5916052    1.5360142   613577 
 7582000    1.4321302   -3.5922716   -2.0551081   0.17491618   -3.5922716    1.5371635   613589 
 7583000    1.4297377   -3.5908918   -2.0563563   0.17861962   -3.5908918    1.5345355   613613 
 7584000    1.4307458   -3.5919871   -2.0563996   0.17332395   -3.5919871    1.5355875   613625 
 7585000     1.430286   -3.5910749   -2.0560009   0.18490418   -3.5910749    1.5350739   613633 
 7586000    1.4312015   -3.5920543   -2.0560628   0.17762252   -3.5920543    1.5359915   613659 
 7587000    1.4323313   -3.5931489     -2.05599   0.18597109   -3.5931489    1.5371589   613677 
 7588000    1.4302685   -3.5909686    -2.056056   0.18125698   -3.5909686    1.5349126   613690 
 7589000    1.4312672   -3.5912694   -2.0553475   0.18114355   -3.5912694    1.5359218   613715 
 7590000    1.4313385   -3.5911746   -2.0551988   0.18082188   -3.5911746    1.5359758   613724 
 7591000    1.4306864   -3.5909548   -2.0557162   0.18416378   -3.5909548    1.5352385   613739 
 7592000     1.432347   -3.5937736   -2.0567806   0.17654348   -3.5937736     1.536993   613750 
 7593000    1.4322379   -3.5929177   -2.0560669   0.17914052   -3.5929177    1.5368508   613760 
 7594000    1.4304097   -3.5907876    -2.055936   0.18448587   -3.5907876    1.5348515   613775 
 7595000    1.4331872   -3.5935029   -2.0557011   0.17505845   -3.5935029    1.5378018   613787 
 7596000    1.4303614   -3.5912106   -2.0564684   0.17544168   -3.5912106    1.5347422   613798 
 7597000    1.4325525   -3.5935154   -2.0564622    0.1809393   -3.5935154    1.5370531   613814 
 7598000    1.4309039   -3.5918375   -2.0565982   0.18907177   -3.5918375    1.5352393   613832 
 7599000    1.4314137   -3.5929341    -2.057208   0.18097414   -3.5929341    1.5357262   613856 
 7600000    1.4336835   -3.5938171   -2.0556983    0.1747743   -3.5938171    1.5381188   613873 
 7601000    1.4327984   -3.5933915   -2.0562698   0.17730892   -3.5933915    1.5371217   613892 
 7602000    1.4329935   -3.5940468   -2.0567334    0.1763316   -3.5940468    1.5373134   613899 
 7603000    1.4312472   -3.5920208   -2.0566408   0.17936475   -3.5920208      1.53538   613923 
 7604000    1.4312397   -3.5922555   -2.0568986   0.17485291   -3.5922555     1.535357   613929 
 7605000    1.4316903   -3.5931526   -2.0573348   0.17443971   -3.5931526    1.5358178   613938 
 7606000    1.4326473   -3.5940507   -2.0572213    0.1769534   -3.5940507    1.5368294   613944 
 7607000    1.4322099   -3.5937617   -2.0574165   0.18009696   -3.5937617    1.5363452   613950 
 7608000    1.4338655   -3.5952851    -2.057194   0.17829334   -3.5952851     1.538091   613962 
 7609000    1.4315458   -3.5936666   -2.0580813   0.18075918   -3.5936666    1.5355853   613969 
 7610000    1.4312278    -3.592641   -2.0574393   0.17972077    -3.592641    1.5352017   613986 
 7611000    1.4328958   -3.5929889   -2.0560206   0.18413805   -3.5929889    1.5369683   613995 
 7612000    1.4334868   -3.5953874   -2.0578177   0.18035225   -3.5953874    1.5375697   614008 
 7613000    1.4323985   -3.5929373     -2.05657   0.18395221   -3.5929373    1.5363673   614022 
 7614000    1.4337476   -3.5945369   -2.0567677   0.18171314   -3.5945369    1.5377692   614040 
 7615000    1.4338171   -3.5940894   -2.0562881    0.1851216   -3.5940894    1.5378013   614057 
 7616000     1.432166   -3.5936278   -2.0576149   0.17950366   -3.5936278    1.5360129   614064 
 7617000    1.4332191   -3.5941135   -2.0570162   0.18057812   -3.5941135    1.5370973   614082 
 7618000    1.4351083   -3.5952805   -2.0561998   0.18038511   -3.5952805    1.5390808   614099 
 7619000     1.433443   -3.5935695   -2.0563171   0.18271483   -3.5935695    1.5372523   614116 
 7620000     1.433924   -3.5946376   -2.0569196   0.17877573   -3.5946376     1.537718   614136 
 7621000    1.4348777   -3.5950956   -2.0563849   0.18331934   -3.5950956    1.5387107   614148 
 7622000    1.4345646   -3.5943721   -2.0560372   0.18440538   -3.5943721    1.5383348   614164 
 7623000    1.4336422   -3.5937361   -2.0564229   0.18094363   -3.5937361    1.5373132   614177 
 7624000    1.4353327   -3.5945226   -2.0554343   0.17610649   -3.5945226    1.5390883   614192 
 7625000    1.4345637   -3.5941099   -2.0558736   0.18646204   -3.5941099    1.5382363   614203 
 7626000    1.4340792   -3.5935165   -2.0558498   0.17942955   -3.5935165    1.5376667   614223 
 7627000    1.4335036   -3.5932566   -2.0562496   0.18144311   -3.5932566     1.537007   614240 
 7628000    1.4330672   -3.5931744   -2.0566704   0.18500259   -3.5931744     1.536504   614254 
 7629000    1.4330985   -3.5938561   -2.0573511   0.17959373   -3.5938561     1.536505   614267 
 7630000    1.4340153   -3.5943585   -2.0569231   0.17665399   -3.5943585    1.5374354   614288 
 7631000    1.4322852   -3.5929543   -2.0573988   0.18644532   -3.5929543    1.5355556   614298 
 7632000    1.4329126   -3.5944679   -2.0582897   0.18092203   -3.5944679    1.5361782   614318 
 7633000    1.4330855   -3.5951415   -2.0587954   0.18163332   -3.5951415    1.5363461   614325 
 7634000     1.432545   -3.5947488   -2.0590173   0.17595643   -3.5947488    1.5357316   614339 
 7635000    1.4327777     -3.59425   -2.0583064   0.18560953     -3.59425    1.5359435   614354 
 7636000    1.4348489   -3.5966148   -2.0584784   0.18276764   -3.5966148    1.5381364   614365 
 7637000    1.4340612   -3.5959727   -2.0587083   0.17684404   -3.5959727    1.5372644   614376 
 7638000    1.4335252    -3.594141   -2.0574837   0.18411099    -3.594141    1.5366573   614389 
 7639000     1.433831   -3.5958732   -2.0589231   0.18198758   -3.5958732    1.5369502   614403 
 7640000    1.4344436   -3.5973027   -2.0597435   0.17806806   -3.5973027    1.5375592   614422 
 7641000    1.4332991   -3.5964998   -2.0601749   0.18598624   -3.5964998    1.5363249   614425 
 7642000    1.4345499   -3.5976575   -2.0600444   0.18724509   -3.5976575    1.5376131   614446 
 7643000    1.4336911   -3.5968876    -2.060235   0.18114627   -3.5968876    1.5366526   614462 
 7644000    1.4326783   -3.5960773   -2.0605577   0.18062867   -3.5960773    1.5355196   614481 
 7645000    1.4319265   -3.5955989     -2.06091   0.18515715   -3.5955989    1.5346888   614491 
 7646000    1.4335529   -3.5964934    -2.060084   0.18455947   -3.5964934    1.5364095   614500 
 7647000     1.433953   -3.5976948    -2.060894   0.17728338   -3.5976948    1.5368008   614515 
 7648000    1.4331534   -3.5961004   -2.0601891   0.18693541   -3.5961004    1.5359113   614528 
 7649000    1.4341705   -3.5972953    -2.060304   0.17664491   -3.5972953    1.5369913   614532 
 7650000    1.4333058   -3.5962237   -2.0601891   0.18202094   -3.5962237    1.5360346   614544 
 7651000    1.4335268    -3.596198    -2.059959   0.17879405    -3.596198     1.536239   614557 
 7652000    1.4341989     -3.59688   -2.0599883   0.18123892     -3.59688    1.5368917   614584 
 7653000      1.43334   -3.5956303   -2.0597114     0.185391   -3.5956303    1.5359189   614605 
 7654000     1.433633     -3.59604   -2.0598572   0.18482444     -3.59604    1.5361829   614625 
 7655000    1.4340851   -3.5953213    -2.058679   0.18349032   -3.5953213    1.5366423   614635 
 7656000    1.4344635   -3.5961187   -2.0591285   0.18369971   -3.5961187    1.5369902   614658 
 7657000    1.4341418   -3.5961354     -2.05956   0.18547673   -3.5961354    1.5365755   614686 
 7658000    1.4346282   -3.5965247   -2.0594755   0.18251535   -3.5965247    1.5370492   614705 
 7659000    1.4342453   -3.5971301   -2.0605112   0.17958461   -3.5971301    1.5366189   614713 
 7660000    1.4345504   -3.5965321   -2.0596488   0.18828143   -3.5965321    1.5368833   614738 
 7661000    1.4346148   -3.5969424   -2.0600201    0.1849891   -3.5969424    1.5369223   614750 
 7662000    1.4338363   -3.5960089   -2.0599505   0.18304506   -3.5960089    1.5360583   614762 
 7663000    1.4361868   -3.5984578    -2.059919   0.17424903   -3.5984578    1.5385388   614777 
 7664000    1.4344173   -3.5976844   -2.0610737   0.18333987   -3.5976844    1.5366107   614790 
 7665000    1.4347333   -3.5975765   -2.0606649   0.18195051   -3.5975765    1.5369117   614805 
 7666000    1.4356928   -3.5985263   -2.0606043   0.18035846   -3.5985263     1.537922   614812 
 7667000    1.4351626   -3.5978349   -2.0605059   0.19050744   -3.5978349    1.5373291   614822 
 7668000    1.4360255   -3.5982845   -2.0600336   0.18568992   -3.5982845     1.538251   614823 
 7669000    1.4358729   -3.5983329    -2.060273   0.18630548   -3.5983329    1.5380599   614834 
 7670000    1.4360383   -3.5990483   -2.0608313    0.1826632   -3.5990483     1.538217   614842 
 7671000    1.4340821   -3.5971127   -2.0610136   0.18927622   -3.5971127    1.5360992   614851 
 7672000    1.4343337   -3.5983609   -2.0620272   0.18081596   -3.5983609    1.5363338   614865 
 7673000    1.4324398   -3.5975464   -2.0632788    0.1820774   -3.5975464    1.5342677   614880 
 7674000    1.4335777   -3.5989254   -2.0634638   0.18370409   -3.5989254    1.5354615   614890 
 7675000    1.4333668   -3.5992952   -2.0640895   0.17826245   -3.5992952    1.5352056   614902 
 7676000    1.4337479   -3.5996482   -2.0640568   0.17980516   -3.5996482    1.5355914   614911 
 7677000    1.4332291   -3.5986851   -2.0636693   0.18120194   -3.5986851    1.5350158   614919 
 7678000    1.4351159    -3.600392   -2.0633954   0.17138366    -3.600392    1.5369965   614935 
 7679000    1.4344533   -3.5996331   -2.0633737   0.17828071   -3.5996331    1.5362594   614946 
 7680000    1.4345651   -3.5999173   -2.0635582    0.1829698   -3.5999173    1.5363592   614954 
 7681000    1.4357359   -3.6005167   -2.0629386   0.17786454   -3.6005167     1.537578   614968 
 7682000    1.4349383   -3.5994648   -2.0627834   0.18106378   -3.5994648    1.5366814   614985 
 7683000    1.4358883   -3.6000461   -2.0623798   0.17981995   -3.6000461    1.5376663   614998 
 7684000    1.4358207   -3.6000229   -2.0624465   0.18325534   -3.6000229    1.5375764   615005 
 7685000      1.43483   -3.5990605   -2.0625601    0.1843204   -3.5990605    1.5365005   615011 
 7686000    1.4340971   -3.5979929   -2.0623048   0.18185233   -3.5979929    1.5356881   615022 
 7687000    1.4349498   -3.5996244    -2.063053   0.18051785   -3.5996244    1.5365713   615034 
 7688000    1.4347648   -3.5996441   -2.0633109   0.18087043   -3.5996441    1.5363332   615050 
 7689000    1.4356737   -3.5993931   -2.0620966   0.18519753   -3.5993931    1.5372965   615054 
 7690000     1.434166   -3.5984285   -2.0627964   0.18329073   -3.5984285    1.5356321   615074 
 7691000    1.4341279   -3.5981142   -2.0625428   0.18788844   -3.5981142    1.5355714   615082 
 7692000     1.435174   -3.5986613   -2.0619973   0.18063174   -3.5986613     1.536664   615093 
 7693000    1.4348916   -3.5973396   -2.0610055   0.18761797   -3.5973396    1.5363341   615104 
 7694000    1.4346951   -3.5968866   -2.0607953   0.18667554   -3.5968866    1.5360913   615117 
 7695000    1.4362675   -3.5975454   -2.0598106   0.18429231   -3.5975454    1.5377347   615133 
 7696000    1.4382778   -3.6002187   -2.0603766   0.18247769   -3.6002187    1.5398421   615151 
 7697000    1.4361309   -3.5974752   -2.0599817   0.18653767   -3.5974752    1.5374935   615171 
 7698000    1.4372572    -3.598679   -2.0600221   0.18455383    -3.598679    1.5386568   615188 
 7699000    1.4378442   -3.5995383   -2.0603156   0.17857745   -3.5995383    1.5392227   615213 
 7700000    1.4368118    -3.598429   -2.0603615   0.18596198    -3.598429    1.5380675   615233 
 7701000    1.4367022   -3.5982853   -2.0603577   0.18781156   -3.5982853    1.5379277   615242 
 7702000    1.4376244    -3.598976   -2.0600986   0.18157516    -3.598976    1.5388774   615257 
 7703000    1.4367477   -3.5988043   -2.0608803   0.19404488   -3.5988043    1.5379239   615263 
 7704000    1.4375795   -3.6000823    -2.061278   0.17967512   -3.6000823    1.5388042   615267 
 7705000    1.4354857   -3.5997681   -2.0632326   0.17793048   -3.5997681    1.5365355   615278 
 7706000    1.4351544   -3.5994032   -2.0632347   0.18565982   -3.5994032    1.5361685   615283 
 7707000     1.435399   -3.5994823   -2.0630969   0.18896373   -3.5994823    1.5363854   615301 
 7708000    1.4364674   -3.6003965   -2.0629176   0.18619241   -3.6003965    1.5374789   615321 
 7709000    1.4362051   -3.6009865   -2.0638334   0.17870264   -3.6009865    1.5371532   615339 
 7710000    1.4360222   -3.5999264    -2.062979   0.18132833   -3.5999264    1.5369474   615343 
 7711000    1.4355387   -3.6008094   -2.0644193   0.18558883   -3.6008094    1.5363901   615359 
 7712000    1.4352246   -3.6009472   -2.0649233   0.18662332   -3.6009472    1.5360239   615371 
 7713000    1.4350283   -3.6015131   -2.0657268   0.18339218   -3.6015131    1.5357863   615382 
 7714000    1.4370042    -3.602392   -2.0645135   0.18332542    -3.602392    1.5378785   615391 
 7715000     1.435431    -3.600897   -2.0647271   0.18487771    -3.600897    1.5361699   615401 
 7716000    1.4351768   -3.5996156   -2.0637651   0.18592433   -3.5996156    1.5358504   615420 
 7717000    1.4367233   -3.6008153   -2.0633523   0.17936799   -3.6008153    1.5374629   615437 
 7718000    1.4374202   -3.6024638   -2.0643076   0.17677057   -3.6024638    1.5381562   615458 
 7719000    1.4370333   -3.6014498     -2.06376   0.18390784   -3.6014498    1.5376898   615479 
 7720000    1.4356437      -3.6002   -2.0640445   0.18103532      -3.6002    1.5361555   615498 
 7721000    1.4352383   -3.5999859   -2.0643042    0.1809565   -3.5999859    1.5356817   615514 
 7722000    1.4363622   -3.6014855   -2.0646337   0.18294626   -3.6014855    1.5368518   615527 
 7723000    1.4369967   -3.6013924   -2.0638917   0.18124227   -3.6013924    1.5375007   615539 
 7724000    1.4370239   -3.6019934   -2.0644685   0.17928577   -3.6019934    1.5375249   615541 
 7725000    1.4374298   -3.6009393   -2.0630201    0.1866747   -3.6009393    1.5379191   615557 
 7726000    1.4360485   -3.5985911   -2.0621847   0.18675034   -3.5985911    1.5364064   615571 
 7727000    1.4394463   -3.6018784   -2.0618669   0.18037149   -3.6018784    1.5400115   615583 
 7728000    1.4354998    -3.599073   -2.0633086   0.18512209    -3.599073    1.5357644   615593 
 7729000    1.4375518   -3.6017169   -2.0637871   0.17822061   -3.6017169    1.5379298   615605 
 7730000    1.4375657   -3.6019756    -2.064066   0.18190687   -3.6019756    1.5379096   615619 
 7731000    1.4378713   -3.6021466    -2.063935   0.18501079   -3.6021466    1.5382116   615629 
 7732000    1.4385881   -3.6019549   -2.0630141   0.18465803   -3.6019549    1.5389409   615644 
 7733000    1.4377046   -3.6011492   -2.0631884   0.18902068   -3.6011492    1.5379608   615658 
 7734000    1.4378865   -3.6016486   -2.0635107   0.18272274   -3.6016486    1.5381379   615665 
 7735000    1.4378102   -3.6019914   -2.0639651   0.18408511   -3.6019914    1.5380263   615677 
 7736000    1.4363746    -3.600427   -2.0639513   0.18330152    -3.600427    1.5364757   615683 
 7737000    1.4356817   -3.6003029   -2.0646033   0.18375323   -3.6003029    1.5356996   615697 
 7738000    1.4374222   -3.6021849   -2.0646685   0.18766626   -3.6021849    1.5375164   615715 
 7739000    1.4375452   -3.6030356   -2.0654426   0.18702134   -3.6030356     1.537593   615737 
 7740000    1.4368659   -3.6023007   -2.0654643    0.1832922   -3.6023007    1.5368365   615749 
 7741000    1.4387786   -3.6044711   -2.0656414   0.17758766   -3.6044711    1.5388297   615770 
 7742000       1.4356   -3.6024366   -2.0670464   0.18971193   -3.6024366    1.5353902   615786 
 7743000    1.4354184    -3.603104   -2.0679478   0.17868882    -3.603104    1.5351561   615802 
 7744000    1.4366071   -3.6044925   -2.0680875   0.17879603   -3.6044925     1.536405   615811 
 7745000    1.4349792    -3.602334   -2.0676849   0.17831438    -3.602334     1.534649   615817 
 7746000    1.4358137    -3.603058    -2.067549    0.1809302    -3.603058     1.535509   615830 
 7747000    1.4356971   -3.6035527   -2.0681958   0.18005815   -3.6035527    1.5353569   615841 
 7748000    1.4362739   -3.6027655   -2.0668042   0.18258286   -3.6027655    1.5359613   615846 
 7749000    1.4373335   -3.6032352   -2.0661657   0.18590067   -3.6032352    1.5370695   615856 
 7750000     1.436801   -3.6032726   -2.0667875   0.18388691   -3.6032726    1.5364851   615862 
 7751000     1.436688   -3.6028111   -2.0664893   0.18455008   -3.6028111    1.5363218   615879 
 7752000    1.4376998   -3.6042431   -2.0668692   0.18992248   -3.6042431    1.5373738   615891 
 7753000    1.4370962   -3.6031808   -2.0664724   0.18936718   -3.6031808    1.5367085   615899 
 7754000    1.4377485   -3.6036588   -2.0662978   0.18800135   -3.6036588     1.537361   615917 
 7755000    1.4372088   -3.6041878   -2.0674512   0.18351039   -3.6041878    1.5367365   615936 
 7756000    1.4373446   -3.6042428   -2.0673984   0.18363859   -3.6042428    1.5368443   615951 
 7757000    1.4354036   -3.6018957   -2.0671766   0.18903952   -3.6018957    1.5347191   615971 
 7758000    1.4365356   -3.6034508   -2.0675439   0.18403005   -3.6034508    1.5359069   615980 
 7759000    1.4355831   -3.6031267    -2.068273   0.18156864   -3.6031267    1.5348537   615994 
 7760000    1.4370746   -3.6039822   -2.0675563   0.18663048   -3.6039822    1.5364259   616003 
 7761000    1.4357744   -3.6028716   -2.0678582   0.18377611   -3.6028716    1.5350134   616012 
 7762000     1.437077   -3.6045303   -2.0681617   0.18316348   -3.6045303    1.5363686   616027 
 7763000    1.4375001   -3.6048535   -2.0680525   0.18456084   -3.6048535    1.5368009   616035 
 7764000    1.4381937   -3.6053073   -2.0678072   0.17975178   -3.6053073    1.5375001   616052 
 7765000    1.4378831   -3.6041746   -2.0670191   0.18064869   -3.6041746    1.5371555   616057 
 7766000    1.4377802   -3.6036607   -2.0666401   0.18771347   -3.6036607    1.5370205   616067 
 7767000    1.4391935   -3.6049878   -2.0664988   0.18908884   -3.6049878     1.538489   616084 
 7768000    1.4390871   -3.6051529   -2.0668051   0.18092559   -3.6051529    1.5383478   616095 
 7769000    1.4377577   -3.6043839   -2.0674921   0.18558688   -3.6043839    1.5368918   616109 
 7770000     1.436375   -3.6030318    -2.067663   0.18819764   -3.6030318    1.5353688   616127 
 7771000    1.4373599   -3.6036623   -2.0672532   0.18820547   -3.6036623    1.5364092   616132 
 7772000    1.4367456   -3.6025917   -2.0668616   0.18678209   -3.6025917    1.5357301   616141 
 7773000    1.4394129   -3.6057532    -2.067207    0.1785853   -3.6057532    1.5385462   616155 
 7774000    1.4386956   -3.6058255   -2.0680884   0.18225068   -3.6058255    1.5377371   616172 
 7775000    1.4378644   -3.6059695   -2.0691484   0.18909781   -3.6059695    1.5368212   616183 
 7776000    1.4369437   -3.6048244   -2.0689947   0.18606052   -3.6048244    1.5358297   616186 
 7777000     1.437521   -3.6043996   -2.0679878   0.18781176   -3.6043996    1.5364118   616200 
 7778000    1.4373289    -3.603904     -2.06772   0.18516132    -3.603904     1.536184   616209 
 7779000    1.4388683   -3.6058997   -2.0680828   0.18277462   -3.6058997    1.5378169   616214 
 7780000    1.4382133    -3.604792   -2.0677002   0.18676265    -3.604792    1.5370919   616224 
 7781000    1.4382594   -3.6042508   -2.0671371    0.1871456   -3.6042508    1.5371137   616235 
 7782000    1.4380238   -3.6046163   -2.0678043   0.18547222   -3.6046163     1.536812   616255 
 7783000     1.438596    -3.605945   -2.0685738   0.18484449    -3.605945    1.5373712   616276 
 7784000    1.4383392   -3.6059737    -2.068907   0.18579212   -3.6059737    1.5370668   616288 
 7785000    1.4384288    -3.606561   -2.0694235   0.18920999    -3.606561    1.5371376   616298 
 7786000    1.4384217    -3.606634   -2.0695264   0.18545582    -3.606634    1.5371076   616307 
 7787000    1.4369455   -3.6045709   -2.0690832   0.18214402   -3.6045709    1.5354877   616324 
 7788000    1.4374215   -3.6060234   -2.0700769   0.18365563   -3.6060234    1.5359465   616344 
 7789000    1.4372845   -3.6053918   -2.0696166   0.19328231   -3.6053918    1.5357752   616354 
 7790000    1.4371916   -3.6052284   -2.0695698   0.18493839   -3.6052284    1.5356585   616361 
 7791000    1.4388107    -3.607121   -2.0697674   0.18141722    -3.607121    1.5373537   616375 
 7792000    1.4391594    -3.607614   -2.0699303   0.17982197    -3.607614    1.5376838   616392 
 7793000    1.4396856   -3.6084626   -2.0702565   0.18019008   -3.6084626    1.5382061   616408 
 7794000     1.438407   -3.6078516   -2.0710316   0.17860062   -3.6078516      1.53682   616416 
 7795000    1.4385518   -3.6060585   -2.0691311   0.18305498   -3.6060585    1.5369274   616435 
 7796000     1.438582    -3.607269   -2.0703418   0.18744619    -3.607269    1.5369272   616448 
 7797000    1.4388565   -3.6068355   -2.0696299   0.18626568   -3.6068355    1.5372056   616454 
 7798000    1.4379071   -3.6061612   -2.0699799    0.1875087   -3.6061612    1.5361813   616458 
 7799000    1.4399732   -3.6071265   -2.0687703   0.18596334   -3.6071265    1.5383562   616471 
 7800000     1.440685   -3.6057255   -2.0666388    0.1894078   -3.6057255    1.5390866   616483 
 7801000    1.4419871   -3.6064063   -2.0659687   0.18942024   -3.6064063    1.5404376   616499 
 7802000    1.4413604   -3.6066153   -2.0668721   0.18611744   -3.6066153    1.5397432   616509 
 7803000    1.4389959   -3.6060837   -2.0688888   0.18197145   -3.6060837    1.5371948   616518 
 7804000    1.4392908   -3.6052011   -2.0677386   0.19206348   -3.6052011    1.5374625   616537 
 7805000    1.4385964   -3.6051317   -2.0684384   0.18999911   -3.6051317    1.5366933   616548 
 7806000    1.4399248   -3.6064963    -2.068389   0.18581846   -3.6064963    1.5381073   616550 
 7807000    1.4409235   -3.6072872   -2.0681331   0.18301101   -3.6072872    1.5391541   616558 
 7808000    1.4389363   -3.6051705   -2.0681565   0.18591963   -3.6051705     1.537014   616565 
 7809000    1.4387314    -3.605832   -2.0690817   0.18609508    -3.605832    1.5367503   616583 
 7810000    1.4403604   -3.6072504   -2.0687851   0.18195363   -3.6072504    1.5384653   616593 
 7811000    1.4407814   -3.6075162   -2.0686237   0.17645039   -3.6075162    1.5388925   616602 
 7812000    1.4393871   -3.6064581   -2.0691022   0.18949877   -3.6064581    1.5373559   616621 
 7813000    1.4385547   -3.6055295   -2.0691025   0.18371052   -3.6055295     1.536427   616637 
 7814000    1.4394236   -3.6078686   -2.0705435   0.18810876   -3.6078686    1.5373251   616649 
 7815000    1.4389053   -3.6076023   -2.0708531    0.1888251   -3.6076023    1.5367492   616658 
 7816000    1.4408066   -3.6103777   -2.0716404   0.18027907   -3.6103777    1.5387373   616675 
 7817000    1.4390803   -3.6082822    -2.071411   0.18674078   -3.6082822    1.5368712   616684 
 7818000    1.4387795   -3.6073966   -2.0708865   0.19163768   -3.6073966    1.5365101   616700 
 7819000    1.4398425   -3.6082326   -2.0706122   0.19159618   -3.6082326    1.5376204   616710 
 7820000    1.4413756   -3.6102465   -2.0710363   0.18334909   -3.6102465    1.5392102   616729 
 7821000    1.4399158   -3.6087588   -2.0711473   0.18821098   -3.6087588    1.5376114   616745 
 7822000    1.4377597   -3.6067919   -2.0714903     0.187523   -3.6067919    1.5353016   616748 
 7823000    1.4407543    -3.610414   -2.0719346   0.18554091    -3.610414    1.5384794   616756 
 7824000    1.4400149   -3.6100056   -2.0723382   0.18601931   -3.6100056    1.5376674   616765 
 7825000     1.439422   -3.6086876   -2.0716783   0.19093526   -3.6086876    1.5370094   616775 
 7826000    1.4393353   -3.6090363   -2.0721444   0.18779087   -3.6090363    1.5368919   616785 
 7827000    1.4379474   -3.6083047   -2.0729272   0.18321692   -3.6083047    1.5353776   616798 
 7828000    1.4393806   -3.6083915   -2.0715012   0.17921359   -3.6083915    1.5368903   616805 
 7829000    1.4389137   -3.6088861   -2.0725267   0.18394579   -3.6088861    1.5363594   616818 
 7830000    1.4384552   -3.6078273   -2.0719773   0.18668457   -3.6078273      1.53585   616826 
 7831000    1.4382085    -3.606811   -2.0712493   0.18362229    -3.606811    1.5355617   616836 
 7832000    1.4396052   -3.6093376    -2.072312   0.18222551   -3.6093376    1.5370256   616847 
 7833000    1.4379917   -3.6076882   -2.0724326   0.18001994   -3.6076882    1.5352555   616866 
 7834000    1.4382959    -3.607355   -2.0717871   0.19310662    -3.607355    1.5355679   616871 
 7835000    1.4384112   -3.6078721    -2.072216   0.18408644   -3.6078721    1.5356561   616885 
 7836000    1.4384353   -3.6066254   -2.0709784   0.19139183   -3.6066254     1.535647   616899 
 7837000     1.441035    -3.608207    -2.069807   0.18922569    -3.608207       1.5384   616908 
 7838000    1.4408261   -3.6087024   -2.0705429   0.18994215   -3.6087024    1.5381595   616915 
 7839000    1.4412149   -3.6099654   -2.0714383   0.18301512   -3.6099654    1.5385271   616934 
 7840000     1.440252   -3.6080636   -2.0705644   0.19742532   -3.6080636    1.5374993   616934 
 7841000    1.4395604    -3.608151   -2.0714075   0.19200183    -3.608151    1.5367435   616941 
 7842000     1.439797   -3.6079733   -2.0710096   0.19536523   -3.6079733    1.5369637   616954 
 7843000    1.4409312   -3.6097395     -2.07159   0.19020431   -3.6097395    1.5381495   616964 
 7844000    1.4402285    -3.609306    -2.071954   0.18616534    -3.609306     1.537352   616983 
 7845000    1.4396222   -3.6088361    -2.072176   0.18980438   -3.6088361    1.5366601   617001 
 7846000    1.4414311   -3.6109851   -2.0724167   0.18095902   -3.6109851    1.5385684   617010 
 7847000    1.4406478    -3.610803   -2.0730856   0.18738788    -3.610803    1.5377174   617016 
 7848000    1.4395501   -3.6091915   -2.0726806   0.18596902   -3.6091915    1.5365109   617030 
 7849000    1.4401377   -3.6091979   -2.0720823   0.18597459   -3.6091979    1.5371156   617039 
 7850000    1.4390438   -3.6082104   -2.0723071   0.18333849   -3.6082104    1.5359033   617057 
 7851000    1.4409325   -3.6104759   -2.0725942   0.19126732   -3.6104759    1.5378817   617072 
 7852000    1.4391072   -3.6088451   -2.0729613   0.18802353   -3.6088451    1.5358838   617092 
 7853000    1.4411905   -3.6106015   -2.0725441   0.18767112   -3.6106015    1.5380574   617112 
 7854000    1.4413951   -3.6111115   -2.0728608   0.18278581   -3.6111115    1.5382507   617122 
 7855000    1.4409085   -3.6097371   -2.0720579    0.1885161   -3.6097371    1.5376792   617143 
 7856000    1.4400713    -3.608685   -2.0719142   0.18997003    -3.608685    1.5367708   617149 
 7857000     1.440846   -3.6089152   -2.0713501   0.18870458   -3.6089152    1.5375651   617162 
 7858000    1.4397193   -3.6094867   -2.0731763   0.18928052   -3.6094867    1.5363105   617183 
 7859000    1.4400831   -3.6103396   -2.0736732   0.18694589   -3.6103396    1.5366664   617196 
 7860000    1.4397444   -3.6089964   -2.0727338    0.1874424   -3.6089964    1.5362626   617213 
 7861000    1.4394662   -3.6092048   -2.0732614   0.19471048   -3.6092048    1.5359434   617222 
 7862000    1.4424479    -3.611887    -2.072792   0.18879189    -3.611887     1.539095   617234 
 7863000    1.4403118   -3.6098145   -2.0730212   0.18886054   -3.6098145    1.5367933   617243 
 7864000    1.4389225   -3.6094891    -2.074198   0.18952687   -3.6094891    1.5352911   617251 
 7865000    1.4401729   -3.6107927   -2.0741899   0.18530571   -3.6107927    1.5366028   617260 
 7866000    1.4407147   -3.6111611   -2.0740101   0.18349063   -3.6111611     1.537151   617272 
 7867000    1.4396913   -3.6107761   -2.0747394   0.18786863   -3.6107761    1.5360367   617281 
 7868000    1.4380637    -3.609149   -2.0748712   0.19039612    -3.609149    1.5342779   617290 
 7869000    1.4409674   -3.6123564    -2.074998   0.18461888   -3.6123564    1.5373584   617297 
 7870000    1.4401658   -3.6116355   -2.0751647   0.18440849   -3.6116355    1.5364708   617310 
 7871000    1.4404615   -3.6113724   -2.0746334   0.18634038   -3.6113724     1.536739   617329 
 7872000    1.4404091   -3.6107736   -2.0741354   0.18614789   -3.6107736    1.5366382   617347 
 7873000    1.4396279   -3.6102956   -2.0745157   0.18390901   -3.6102956      1.53578   617357 
 7874000    1.4415887   -3.6123797   -2.0745404   0.18365998   -3.6123797    1.5378393   617370 
 7875000    1.4398174   -3.6106145   -2.0747045   0.19289365   -3.6106145      1.53591   617386 
 7876000    1.4417735    -3.611674   -2.0737197   0.18563069    -3.611674    1.5379543   617403 
 7877000    1.4403729   -3.6101439   -2.0737209   0.18930909   -3.6101439    1.5364229   617418 
 7878000    1.4409265   -3.6110436   -2.0740526   0.19401362   -3.6110436    1.5369911   617427 
 7879000    1.4408392   -3.6106828   -2.0737824   0.19113704   -3.6106828    1.5369004   617426 
 7880000    1.4407442   -3.6109109   -2.0741144   0.18264898   -3.6109109    1.5367966   617427 
 7881000    1.4411507   -3.6105444   -2.0733366   0.19064654   -3.6105444    1.5372079   617436 
 7882000    1.4401336   -3.6094253   -2.0733297   0.18557477   -3.6094253    1.5360956   617447 
 7883000    1.4411247   -3.6100921   -2.0729544   0.19149773   -3.6100921    1.5371377   617453 
 7884000    1.4409624    -3.610946   -2.0739988   0.19172803    -3.610946    1.5369472   617460 
 7885000    1.4399625   -3.6109707   -2.0751398   0.18533364   -3.6109707    1.5358309   617480 
 7886000    1.4413434   -3.6121196   -2.0748407   0.18836402   -3.6121196    1.5372789   617490 
 7887000    1.4409603    -3.611895   -2.0750296   0.19034825    -3.611895    1.5368654   617492 
 7888000    1.4400728   -3.6118592   -2.0759703   0.18508893   -3.6118592     1.535889   617504 
 7889000    1.4403965   -3.6115202   -2.0753284   0.18638217   -3.6115202    1.5361918   617521 
 7890000     1.439715   -3.6112025   -2.0757573   0.18764273   -3.6112025    1.5354451   617529 
 7891000    1.4406959   -3.6123191   -2.0758452   0.18943677   -3.6123191    1.5364738   617536 
 7892000    1.4392141   -3.6107308   -2.0758945   0.19164212   -3.6107308    1.5348363   617559 
 7893000    1.4409232   -3.6133926   -2.0767709   0.19128386   -3.6133926    1.5366217   617574 
 7894000    1.4416795   -3.6145105   -2.0770997   0.18721485   -3.6145105    1.5374108   617581 
 7895000    1.4408672   -3.6143405   -2.0777983   0.18465738   -3.6143405    1.5365421   617582 
 7896000    1.4398745   -3.6125712   -2.0771076   0.18872506   -3.6125712    1.5354636   617590 
 7897000     1.442015   -3.6149327   -2.0772337   0.18531679   -3.6149327    1.5376989   617609 
 7898000    1.4412378   -3.6145925   -2.0777523   0.19154419   -3.6145925    1.5368402   617621 
 7899000    1.4402011   -3.6130631   -2.0773507   0.18731323   -3.6130631    1.5357124   617630 
 7900000    1.4388677   -3.6121904   -2.0779321   0.19026314   -3.6121904    1.5342583   617643 
 7901000    1.4402912   -3.6130674   -2.0773211   0.19267818   -3.6130674    1.5357463   617655 
 7902000    1.4400549   -3.6127504    -2.077266   0.19507602   -3.6127504    1.5354844   617659 
 7903000    1.4411903   -3.6140545   -2.0773819   0.18740904   -3.6140545    1.5366726   617668 
 7904000    1.4393511   -3.6125111   -2.0778392   0.19000286   -3.6125111    1.5346718   617684 
 7905000    1.4397499    -3.612222   -2.0771424   0.18678833    -3.612222    1.5350797   617691 
 7906000    1.4402516   -3.6127346   -2.0771449   0.18765015   -3.6127346    1.5355897   617701 
 7907000    1.4407354   -3.6123988    -2.076333   0.19182396   -3.6123988    1.5360658   617717 
 7908000     1.443191   -3.6140746   -2.0754257   0.18689297   -3.6140746    1.5386489   617731 
 7909000    1.4415699   -3.6132597   -2.0763366   0.18939366   -3.6132597    1.5369232   617730 
 7910000    1.4434601   -3.6137914   -2.0748755   0.18894948   -3.6137914     1.538916   617739 
 7911000    1.4412065   -3.6119949   -2.0755114   0.19150327   -3.6119949    1.5364835   617751 
 7912000     1.441884   -3.6124992   -2.0753258   0.18756219   -3.6124992    1.5371734   617764 
 7913000    1.4417801   -3.6122615   -2.0752386   0.19053374   -3.6122615    1.5370228   617780 
 7914000    1.4427482   -3.6139432   -2.0759232   0.18472795   -3.6139432      1.53802   617794 
 7915000    1.4429371   -3.6138106   -2.0755942   0.19282424   -3.6138106    1.5382164   617796 
 7916000    1.4422922   -3.6133738   -2.0758747   0.19031835   -3.6133738    1.5374991   617808 
 7917000    1.4423899   -3.6138782   -2.0763098    0.1850358   -3.6138782    1.5375684   617822 
 7918000    1.4412983   -3.6133313   -2.0769564   0.19126341   -3.6133313    1.5363749   617834 
 7919000    1.4418051   -3.6141977   -2.0773198   0.18853686   -3.6141977    1.5368779   617849 
 7920000    1.4406711   -3.6129304   -2.0772688   0.18944474   -3.6129304    1.5356616   617852 
 7921000     1.442085   -3.6148476   -2.0777112   0.18744178   -3.6148476    1.5371364   617865 
 7922000    1.4412671   -3.6136338    -2.077424   0.18860113   -3.6136338    1.5362098   617887 
 7923000      1.43983    -3.612739   -2.0781031   0.18688116    -3.612739    1.5346359   617904 
 7924000    1.4424145   -3.6145632   -2.0772025   0.18953404   -3.6145632    1.5373607   617916 
 7925000    1.4415254   -3.6124713   -2.0760632   0.18931008   -3.6124713    1.5364081   617918 
 7926000     1.442574   -3.6145505   -2.0770547   0.18838641   -3.6145505    1.5374958   617930 
 7927000    1.4427775   -3.6145541   -2.0768712    0.1889282   -3.6145541    1.5376829   617942 
 7928000    1.4431446   -3.6150716   -2.0770298   0.18621409   -3.6150716    1.5380418   617955 
 7929000    1.4418568    -3.614747   -2.0781175   0.19247474    -3.614747    1.5366295   617971 
 7930000    1.4418735   -3.6141277   -2.0775077   0.19110305   -3.6141277      1.53662   617982 
 7931000    1.4406294    -3.613985   -2.0787207   0.19240627    -3.613985    1.5352643   617994 
 7932000     1.441397   -3.6144674   -2.0784224   0.18896039   -3.6144674     1.536045   618009 
 7933000    1.4427161   -3.6161033   -2.0786699   0.18234136   -3.6161033    1.5374334   618016 
 7934000    1.4415888   -3.6143473   -2.0781426    0.1881809   -3.6143473    1.5362047   618027 
 7935000    1.4424292   -3.6152173   -2.0781344   0.18953613   -3.6152173    1.5370828   618034 
 7936000    1.4412918   -3.6145838   -2.0787379    0.1872885   -3.6145838    1.5358459   618044 
 7937000    1.4428379    -3.616383   -2.0789318   0.18406639    -3.616383    1.5374512   618061 
 7938000    1.4417184   -3.6141138   -2.0779251   0.18529197   -3.6141138    1.5361887   618089 
 7939000    1.4423403   -3.6149682   -2.0781641   0.18767327   -3.6149682    1.5368041   618108 
 7940000    1.4427602    -3.614544   -2.0773075   0.19323962    -3.614544    1.5372365   618114 
 7941000    1.4422436   -3.6140089   -2.0773427   0.19185237   -3.6140089    1.5366663   618122 
 7942000    1.4434213   -3.6143058   -2.0764022   0.19385958   -3.6143058    1.5379036   618129 
 7943000    1.4427536   -3.6148029   -2.0776504   0.18256328   -3.6148029    1.5371525   618145 
 7944000    1.4424468    -3.614547   -2.0777414   0.19362624    -3.614547    1.5368056   618153 
 7945000      1.44411   -3.6151748   -2.0766518   0.19308294   -3.6151748    1.5385229   618175 
 7946000    1.4424769   -3.6136928   -2.0769595   0.19403792   -3.6136928    1.5367333   618195 
 7947000    1.4424307   -3.6142927   -2.0776285   0.18800116   -3.6142927    1.5366642   618203 
 7948000    1.4418797   -3.6136151   -2.0775677   0.19439938   -3.6136151    1.5360474   618215 
 7949000    1.4438396   -3.6150077   -2.0769022   0.19473809   -3.6150077    1.5381055   618227 
 7950000    1.4426383   -3.6150915   -2.0783006   0.18985105   -3.6150915    1.5367909   618241 
 7951000    1.4436246   -3.6163244   -2.0784878   0.18087548   -3.6163244    1.5378367   618243 
 7952000    1.4422287   -3.6148783    -2.078556   0.19289586   -3.6148783    1.5363223   618254 
 7953000    1.4421783   -3.6149532   -2.0787145   0.19104283   -3.6149532    1.5362387   618266 
 7954000    1.4419038   -3.6148783   -2.0789418   0.19015899   -3.6148783    1.5359365   618270 
 7955000    1.4430095   -3.6158341    -2.078772   0.19571856   -3.6158341    1.5370621   618291 
 7956000     1.443771   -3.6164211   -2.0785903   0.18858953   -3.6164211    1.5378308   618308 
 7957000    1.4420487   -3.6152365   -2.0792649   0.19055183   -3.6152365    1.5359715   618318 
 7958000    1.4432552   -3.6164832    -2.079244   0.19299816   -3.6164832    1.5372392   618325 
 7959000    1.4431673   -3.6165201   -2.0794143   0.19036519   -3.6165201    1.5371058   618341 
 7960000    1.4427035    -3.616079   -2.0795044   0.18682564    -3.616079    1.5365746   618356 
 7961000    1.4443868   -3.6184319   -2.0800993   0.18564078   -3.6184319    1.5383326   618370 
 7962000    1.4433583   -3.6177984   -2.0805985   0.18761688   -3.6177984    1.5371999   618385 
 7963000    1.4419526   -3.6162162   -2.0805284    0.1967121   -3.6162162    1.5356879   618391 
 7964000    1.4424928   -3.6169119   -2.0806685   0.18992779   -3.6169119    1.5362433   618399 
 7965000    1.4413225   -3.6157073   -2.0807526   0.19294517   -3.6157073    1.5349547   618416 
 7966000    1.4430642   -3.6173361   -2.0805514   0.19263103   -3.6173361    1.5367847   618426 
 7967000    1.4431535   -3.6175163   -2.0806588   0.18861363   -3.6175163    1.5368575   618435 
 7968000    1.4429089   -3.6173542   -2.0807945   0.18816704   -3.6173542    1.5365597   618450 
 7969000    1.4433447   -3.6173866   -2.0803901   0.18936873   -3.6173866    1.5369965   618461 
 7970000    1.4431987   -3.6182916   -2.0814903   0.18398547   -3.6182916    1.5368013   618477 
 7971000    1.4430917   -3.6178183   -2.0811757   0.18664814   -3.6178183    1.5366426   618495 
 7972000    1.4447582   -3.6194989   -2.0811042   0.18476338   -3.6194989    1.5383947   618504 
 7973000    1.4416004   -3.6159011   -2.0808911   0.19004671   -3.6159011      1.53501   618513 
 7974000     1.442785   -3.6167525    -2.080511   0.19231711   -3.6167525    1.5362415   618525 
 7975000     1.441929   -3.6160511   -2.0807335   0.19040792   -3.6160511    1.5353176   618530 
 7976000    1.4430333   -3.6176209   -2.0811523   0.18887784   -3.6176209    1.5364686   618540 
 7977000    1.4408801    -3.615008   -2.0808493   0.19150895    -3.615008    1.5341587   618547 
 7978000    1.4426673   -3.6175834   -2.0815467   0.18913846   -3.6175834    1.5360367   618557 
 7979000    1.4427962   -3.6179436    -2.081792   0.18778344   -3.6179436    1.5361516   618566 
 7980000    1.4428859   -3.6177228   -2.0815105   0.18819647   -3.6177228    1.5362123   618580 
 7981000    1.4431883   -3.6191077   -2.0825859    0.1913026   -3.6191077    1.5365219   618585 
 7982000    1.4423609   -3.6185506   -2.0829345   0.18887255   -3.6185506    1.5356161   618595 
 7983000     1.441468   -3.6172367   -2.0826109    0.1913944   -3.6172367    1.5346259   618611 
 7984000    1.4430526   -3.6184289   -2.0821435    0.1897143   -3.6184289    1.5362855   618622 
 7985000    1.4422602   -3.6172245   -2.0818421   0.19390518   -3.6172245    1.5353823   618646 
 7986000    1.4437661   -3.6184331     -2.08147   0.19264663   -3.6184331    1.5369631   618655 
 7987000    1.4431642   -3.6180605   -2.0817655   0.18727314   -3.6180605     1.536295   618666 
 7988000    1.4433192   -3.6188703   -2.0824301   0.18804384   -3.6188703    1.5364402   618674 
 7989000    1.4416828   -3.6181597   -2.0834937   0.19233111   -3.6181597     1.534666   618687 
 7990000    1.4414824   -3.6182986   -2.0838782   0.19415192   -3.6182986    1.5344204   618700 
 7991000    1.4428665   -3.6194156   -2.0835492   0.18674362   -3.6194156    1.5358664   618711 
 7992000    1.4427229   -3.6197254    -2.084002   0.19196838   -3.6197254    1.5357235   618707 
 7993000    1.4411574   -3.6185442   -2.0845094   0.18900575   -3.6185442    1.5340348   618716 
 7994000    1.4426862   -3.6205107   -2.0848784    0.1895333   -3.6205107    1.5356323   618728 
 7995000    1.4414901   -3.6183259   -2.0839816    0.1930511   -3.6183259    1.5343443   618734 
 7996000    1.4428927   -3.6196875   -2.0838801   0.19051347   -3.6196875    1.5358075   618746 
 7997000    1.4423315   -3.6201763   -2.0850084   0.18781477   -3.6201763     1.535168   618763 
 7998000    1.4414324    -3.620045   -2.0858613   0.18379387    -3.620045    1.5341837   618774 
 7999000    1.4423161   -3.6197336   -2.0846466   0.19246112   -3.6197336     1.535087   618789 
 8000000    1.4412918   -3.6193869   -2.0854099   0.18897949   -3.6193869     1.533977   618797 
Loop time of 10114.4 on 192 procs for 5000000 steps with 618797 atoms

Performance: 213557.150 tau/day, 494.345 timesteps/s
99.2% CPU use with 192 MPI tasks x 1 OpenMP threads

MPI task timing breakdown:
Section |  min time  |  avg time  |  max time  |%varavg|  %CPU | %total
-----------------------------------------------------------------------
Pair    | 3441.8     | 4253.2     | 4694.4     | 483.4 |  99.1 | 42.05
Bond    | 3.1773     | 3.3995     | 3.7314     |   4.7 | 100.0 |  0.03
Neigh   | 1758       | 2041.2     | 2189.1     | 213.6 |  99.5 | 20.18
Comm    | 1280       | 2250.7     | 3272.1     | 935.1 |  99.0 | 22.25
Output  | 276.62     | 280.28     | 280.31     |   1.6 |  98.4 |  2.77
Modify  | 981.41     | 1080.5     | 1688.2     | 603.2 |  99.2 | 10.68
Other   |            | 205.2      |            |       |       |  2.03

Nlocal:        3222.90 ave        3345 max        3138 min
Histogram: 3 16 31 47 37 32 16 9 0 1
Nghost:        4282.85 ave        4625 max        3520 min
Histogram: 33 14 1 0 0 0 0 2 82 60
Neighs:        98516.2 ave      105278 max       86976 min
Histogram: 6 8 8 4 9 25 48 56 18 10

Total # of neighbors = 18915110
Ave neighs/atom = 30.567553
Ave special neighs/atom = 0.0000000
Neighbor list builds = 505000
Dangerous builds = 450000

write_restart   restart_write.dat
System init for write_restart ...
write_data	data.write
System init for write_data ...
WARNING: Not all mixed pair coeffs generated from mixing. Use write_data with 'pair ij' option to store all pair coeffs. (src/write_data.cpp:312)

Total wall time: 2:48:38
