LAMMPS (24 Dec 2020)
OMP_NUM_THREADS environment is not set. Defaulting to 1 thread. (src/comm.cpp:94)
  using 1 OpenMP thread(s) per MPI task
# Simple rigid body system
# needed variables: startTemp, temp

units		lj
atom_style	full
dimension 	3
boundary	p p f
pair_style	lj/cut/opt 2.5

variable 	gcmcdisplace	equal 0
variable 	sigma		equal 1.0
variable 	epsilon 	equal 1.0


read_restart	restart.dat.3000000
Reading restart file ...
  restart file = 24 Dec 2020, LAMMPS = 24 Dec 2020
WARNING: Restart file used different # of processors: 48 vs. 192 (src/read_restart.cpp:697)
  restoring atom style full from restart
  orthogonal box = (0.0000000 0.0000000 0.0000000) to (80.000000 80.000000 160.00000)
  6 by 4 by 8 MPI processor grid
  restoring pair style lj/cut/opt from restart
  439061 atoms
Finding 1-2 1-3 1-4 neighbors ...
  special bond factors lj:    0        0        0       
  special bond factors coul:  0        0        0       
     0 = max # of 1-2 neighbors
     0 = max # of 1-3 neighbors
     0 = max # of 1-4 neighbors
     1 = max # of special neighbors
  special bonds CPU = 1.444 seconds
  read_restart CPU = 1.761 seconds

mass		1 1.0
mass		2 1.0
mass		3 1.0


group		solvent type 1
439061 atoms in group solvent


neighbor 	0.4 bin

pair_coeff	1 1 1.0 1.0
pair_coeff	2 2 0.0 0.0
pair_coeff	3 3 0.0 0.0
pair_coeff	2 3 0.0 0.0
pair_coeff	1 2*3 0.0 0.0

pair_modify 	shift yes


balance 	1.05 shift z 10 1.05
Balancing ...
Neighbor list info ...
  update every 1 steps, delay 10 steps, check yes
  max neighbors/atom: 2000, page size: 100000
  master list distance cutoff = 2.9
  ghost atom cutoff = 2.9
  binsize = 1.45, bins = 56 56 111
  1 neighbor lists, perpetual/occasional/extra = 1 0 0
  (1) pair lj/cut/opt, perpetual
      attributes: half, newton on
      pair build: half/bin/newton
      stencil: half/bin/3d/newton
      bin: standard
 rebalancing time: 0.025 seconds
  iteration count = 5
  initial/final maximal load/proc = 3162.0000 2575.0000
  initial/final imbalance factor  = 1.3827327 1.1260394
  x cuts: 0.0000000 0.16666667 0.33333333 0.50000000 0.66666667 0.83333333 1.0000000
  y cuts: 0.0000000 0.25000000 0.50000000 0.75000000 1.0000000
  z cuts: 0.0000000 0.097656250 0.18359375 0.27734375 0.37890625 0.47656250 0.57031250 0.67968750 1.0000000


####################### WALLS ###########################


variable       epsilonWall equal 2*${epsilon}
variable       epsilonWall equal 2*1

variable       cutoffTop   equal   0.7147*${sigma}
variable       cutoffTop   equal   0.7147*1

variable       cutoffLow   equal   3*${sigma}
variable       cutoffLow   equal   3*1


fix            topWall all wall/lj93 zhi EDGE                ${epsilonWall} ${sigma} ${cutoffTop} units box
fix            topWall all wall/lj93 zhi EDGE                2 ${sigma} ${cutoffTop} units box
fix            topWall all wall/lj93 zhi EDGE                2 1 ${cutoffTop} units box
fix            topWall all wall/lj93 zhi EDGE                2 1 0.7147 units box

fix            lowWall all wall/lj93 zlo EDGE                ${epsilonWall} ${sigma} ${cutoffLow} units box
fix            lowWall all wall/lj93 zlo EDGE                2 ${sigma} ${cutoffLow} units box
fix            lowWall all wall/lj93 zlo EDGE                2 1 ${cutoffLow} units box
fix            lowWall all wall/lj93 zlo EDGE                2 1 3 units box


###################### COMPUTES ##########################

compute        bin1 solvent chunk/atom bin/1d z upper 1.0



######################	FIXES ############################


fix 		peclet solvent ave/chunk 1000 1 1000 bin1 density/number norm 		 none ave one file density.profile

fix 		 temp solvent ave/chunk 1000 1 1000 bin1 temp norm none ave one file temp.profile

fix 		2 solvent nve

## Thermostat


region		regthermo block EDGE EDGE EDGE EDGE 0 20

group 		thermo dynamic solvent region regthermo every 1000
dynamic group thermo defined

fix 		3 thermo langevin ${startTemp} ${temp} 10 156453
fix 		3 thermo langevin 1.0 ${temp} 10 156453
fix 		3 thermo langevin 1.0 1.0 10 156453


## Evaporation

region		regevap block EDGE EDGE EDGE EDGE 140 158
fix 		gcmc solvent gcmc 100 100 0 1 780493 ${temp} ${mu} ${gcmcdisplace} region regevap
fix 		gcmc solvent gcmc 100 100 0 1 780493 1.0 ${mu} ${gcmcdisplace} region regevap
fix 		gcmc solvent gcmc 100 100 0 1 780493 1.0 -2.9 ${gcmcdisplace} region regevap
fix 		gcmc solvent gcmc 100 100 0 1 780493 1.0 -2.9 0 region regevap


#### Load balancing

fix 		bal all balance 1000 1.05 shift z 10 1.05

############### Diagnostics and computes ###################
#compute 	com cube	  rigid/local	1 mol x y z
#compute 	quat cube	  rigid/local	1 mol quatw quati quatj quatk

thermo 		1000
thermo_style 	custom step temp epair etotal press pe ke atoms

dump		1 all custom 100000 dump.lammpstrj id mol type x y z
dump 		2 all image 10000 image.*.png type type
dump 		3 all movie 1000 movie.avi type type
#dump 		com cube local 1000 dump.*.xyz c_com[*]
#dump		quat cube      local 1000 dump.*.quat c_quat[*]


restart 	1000000 restart.dat
timestep 	0.005
timer 		full
New timer settings: style=full  mode=nosync  timeout=off


run		5000000
Per MPI rank memory allocation (min/avg/max) = 9.923 | 9.986 | 10.01 Mbytes
Step Temp E_pair TotEng Press PotEng KinEng Atoms 
 3000000     1.016004   -3.1352716   -1.6112691  0.079025997   -3.1352716    1.5240025   439061 
 3001000    1.0152353   -3.1344965   -1.6117927  0.074467584   -3.1344965    1.5227038   439103 
 3002000    1.0153138   -3.1363322   -1.6136667  0.075804186   -3.1363322    1.5226655   439148 
 3003000    1.0164127   -3.1377038   -1.6135429  0.075606183   -3.1377038    1.5241609   439192 
 3004000    1.0150323   -3.1354087   -1.6133941  0.073151218   -3.1354087    1.5220147   439214 
 3005000    1.0144836   -3.1344609    -1.613463  0.078646682   -3.1344609    1.5209979   439270 
 3006000    1.0168074   -3.1378568   -1.6133714  0.070474905   -3.1378568    1.5244854   439269 
 3007000    1.0166436    -3.137459   -1.6131914  0.074765022    -3.137459    1.5242676   439261 
 3008000    1.0156244   -3.1373317    -1.614561  0.079917162   -3.1373317    1.5227707   439252 
 3009000    1.0157666   -3.1362435   -1.6133047  0.077097258   -3.1362435    1.5229389   439265 
 3010000    1.0166464   -3.1382042   -1.6140261  0.078158274   -3.1382042    1.5241781   439288 
 3011000    1.0152485   -3.1361314   -1.6141807  0.075314484   -3.1361314    1.5219506   439326 
 3012000    1.0155659   -3.1352844   -1.6127955   0.07908949   -3.1352844    1.5224889   439308 
 3013000    1.0157278   -3.1349861    -1.612355  0.079596061   -3.1349861    1.5226311   439337 
 3014000    1.0158267   -3.1353731   -1.6126701  0.075236435   -3.1353731     1.522703   439359 
 3015000    1.0174687   -3.1369821   -1.6119357  0.077061346   -3.1369821    1.5250464   439393 
 3016000    1.0169735   -3.1367945   -1.6126361   0.07497361   -3.1367945    1.5241584   439435 
 3017000    1.0177419     -3.13761   -1.6124075  0.077871985     -3.13761    1.5252024   439466 
 3018000    1.0177964   -3.1386634   -1.6135042  0.074945174   -3.1386634    1.5251592   439502 
 3019000    1.0182705   -3.1392881   -1.6136164  0.074070677   -3.1392881    1.5256717   439559 
 3020000    1.0180474   -3.1392356   -1.6140161  0.071671873   -3.1392356    1.5252195   439593 
 3021000    1.0174804   -3.1375359   -1.6131139  0.076813408   -3.1375359     1.524422   439578 
 3022000    1.0161997    -3.136502   -1.6139814  0.074104328    -3.136502    1.5225206   439573 
 3023000    1.0159413   -3.1372665   -1.6150742  0.073048825   -3.1372665    1.5221923   439556 
 3024000     1.016845   -3.1373866   -1.6137847  0.076482298   -3.1373866    1.5236019   439540 
 3025000    1.0158471   -3.1361231    -1.614193  0.077559506   -3.1361231      1.52193   439591 
 3026000    1.0156093   -3.1361416   -1.6144882  0.079407601   -3.1361416    1.5216534   439568 
 3027000    1.0162756   -3.1354825   -1.6129486  0.080699459   -3.1354825     1.522534   439602 
 3028000    1.0174006   -3.1370156   -1.6129696  0.073965496   -3.1370156     1.524046   439652 
 3029000    1.0167357   -3.1362868    -1.613313  0.076253298   -3.1362868    1.5229738   439674 
 3030000    1.0179814   -3.1370505   -1.6123773  0.074778457   -3.1370505    1.5246732   439722 
 3031000    1.0176452   -3.1359887   -1.6117219  0.078129977   -3.1359887    1.5242667   439694 
 3032000    1.0181607   -3.1388353   -1.6138484  0.072091906   -3.1388353    1.5249869   439709 
 3033000    1.0175736    -3.137111   -1.6131456  0.075985529    -3.137111    1.5239654   439750 
 3034000    1.0181516   -3.1370947   -1.6124369  0.074028899   -3.1370947    1.5246577   439800 
 3035000    1.0188134    -3.136881   -1.6114161  0.073834575    -3.136881    1.5254649   439853 
 3036000    1.0186207   -3.1349723   -1.6098687  0.075715267   -3.1349723    1.5251035   439874 
 3037000    1.0178976   -3.1348839   -1.6108526  0.074806828   -3.1348839    1.5240313   439871 
 3038000    1.0169354   -3.1340452   -1.6114441  0.081899669   -3.1340452    1.5226011   439868 
 3039000    1.0166501   -3.1334342   -1.6112879  0.074005135   -3.1334342    1.5221462   439876 
 3040000    1.0177051   -3.1355131   -1.6119709  0.074107814   -3.1355131    1.5235422   439929 
 3041000    1.0177201   -3.1352308   -1.6119154  0.076629132   -3.1352308    1.5233154   440001 
 3042000    1.0166368   -3.1337409    -1.612175  0.081257702   -3.1337409     1.521566   440038 
 3043000    1.0186202   -3.1367537   -1.6124237  0.078849863   -3.1367537      1.52433   440097 
 3044000    1.0185947   -3.1362181   -1.6120994  0.075681113   -3.1362181    1.5241187   440147 
 3045000    1.0175486   -3.1349277   -1.6124849  0.078301238   -3.1349277    1.5224428   440179 
 3046000    1.0181716   -3.1360708    -1.612682  0.076174438   -3.1360708    1.5233888   440175 
 3047000    1.0167108   -3.1346347   -1.6135733  0.075199746   -3.1346347    1.5210614   440216 
 3048000    1.0189731   -3.1358619   -1.6115163   0.08001173   -3.1358619    1.5243456   440245 
 3049000     1.019041   -3.1354322   -1.6110613   0.07851926   -3.1354322    1.5243709   440267 
 3050000    1.0190407   -3.1357336   -1.6115017  0.079880925   -3.1357336     1.524232   440307 
 3051000     1.017563   -3.1328404    -1.610829  0.080126757   -3.1328404    1.5220113   440310 
 3052000    1.0189565    -3.134591   -1.6105368  0.081135484    -3.134591    1.5240542   440322 
 3053000    1.0198704   -3.1365667   -1.6110453  0.079512776   -3.1365667    1.5255214   440293 
 3054000    1.0212815   -3.1406043   -1.6130519  0.067966488   -3.1406043    1.5275524   440316 
 3055000    1.0194565   -3.1369679   -1.6123563   0.08005993   -3.1369679    1.5246116   440377 
 3056000    1.0178624   -3.1341172   -1.6120901  0.073235942   -3.1341172    1.5220271   440435 
 3057000    1.0189256   -3.1351803    -1.611636  0.080660173   -3.1351803    1.5235443   440456 
 3058000      1.01919   -3.1368983   -1.6130383  0.073914825   -3.1368983      1.52386   440479 
 3059000    1.0188141   -3.1368699   -1.6137587  0.077042035   -3.1368699    1.5231112   440533 
 3060000    1.0188921   -3.1356618   -1.6126551   0.08058131   -3.1356618    1.5230067   440597 
 3061000    1.0207147   -3.1346417   -1.6090631  0.075456492   -3.1346417    1.5255786   440641 
 3062000    1.0205815   -3.1340513   -1.6088242  0.079745704   -3.1340513    1.5252272   440685 
 3063000    1.0212047   -3.1352508   -1.6092896  0.076806414   -3.1352508    1.5259612   440742 
 3064000    1.0206827   -3.1346559   -1.6096927  0.073365207   -3.1346559    1.5249632   440805 
 3065000    1.0204681   -3.1342877    -1.609735  0.083973441   -3.1342877    1.5245527   440831 
 3066000    1.0221881   -3.1371633   -1.6101552   0.07742276   -3.1371633    1.5270081   440864 
 3067000    1.0201925   -3.1366711   -1.6128654  0.077423425   -3.1366711    1.5238057   440928 
 3068000    1.0216952   -3.1376725   -1.6116985  0.075581976   -3.1376725     1.525974   440950 
 3069000    1.0202918   -3.1345662   -1.6107678  0.081099108   -3.1345662    1.5237984   440973 
 3070000    1.0214172   -3.1366442   -1.6111787  0.079082305   -3.1366442    1.5254655   440977 
 3071000    1.0209676   -3.1363705   -1.6116734  0.080741718   -3.1363705    1.5246971   441005 
 3072000    1.0203632   -3.1359291   -1.6123142  0.077967972   -3.1359291    1.5236149   441057 
 3073000    1.0207514   -3.1375099   -1.6133913  0.079254693   -3.1375099    1.5241185   441079 
 3074000    1.0223157   -3.1383944    -1.612127  0.080492562   -3.1383944    1.5262674   441133 
 3075000    1.0222079   -3.1379684     -1.61199  0.073593292   -3.1379684    1.5259784   441170 
 3076000    1.0225099   -3.1391495   -1.6128483  0.076326595   -3.1391495    1.5263012   441207 
 3077000    1.0216293   -3.1378061    -1.612854  0.075733269   -3.1378061    1.5249521   441217 
 3078000    1.0213373   -3.1362171   -1.6118286   0.08185081   -3.1362171    1.5243885   441254 
 3079000    1.0217561   -3.1381243   -1.6132248  0.079433486   -3.1381243    1.5248996   441287 
 3080000     1.023202   -3.1384707   -1.6116312  0.079541534   -3.1384707    1.5268395   441350 
 3081000    1.0230631   -3.1371069   -1.6104955  0.077675749   -3.1371069    1.5266114   441356 
 3082000    1.0242663   -3.1390574   -1.6107025  0.080157742   -3.1390574    1.5283549   441371 
 3083000    1.0227556   -3.1369804   -1.6108554  0.083548499   -3.1369804     1.526125   441364 
 3084000    1.0231765   -3.1378918   -1.6112391  0.079789054   -3.1378918    1.5266528   441393 
 3085000    1.0216534   -3.1373996   -1.6130574  0.080358994   -3.1373996    1.5243422   441404 
 3086000    1.0207936   -3.1358529   -1.6129593   0.08230607   -3.1358529    1.5228936   441452 
 3087000    1.0216892   -3.1365429   -1.6124236  0.075991811   -3.1365429    1.5241193   441484 
 3088000     1.024631   -3.1388841   -1.6105113  0.081021404   -3.1388841    1.5283728   441523 
 3089000    1.0228637   -3.1359992   -1.6103765  0.080182659   -3.1359992    1.5256226   441556 
 3090000    1.0218419   -3.1341985   -1.6101208  0.081342821   -3.1341985    1.5240778   441562 
 3091000    1.0226588   -3.1346689   -1.6094417  0.078110259   -3.1346689    1.5252272   441582 
 3092000    1.0236582    -3.135824   -1.6091685  0.076793279    -3.135824    1.5266554   441600 
 3093000    1.0230847   -3.1349077   -1.6091767  0.079842317   -3.1349077     1.525731   441620 
 3094000    1.0226901   -3.1346083    -1.609628  0.078179358   -3.1346083    1.5249804   441667 
 3095000    1.0214819   -3.1328689   -1.6097971  0.078209494   -3.1328689    1.5230718   441698 
 3096000    1.0233516   -3.1333236   -1.6075262   0.07961498   -3.1333236    1.5257975   441716 
 3097000    1.0227026   -3.1321214   -1.6073158  0.076531885   -3.1321214    1.5248056   441723 
 3098000     1.020794   -3.1290306   -1.6071913   0.07866656   -3.1290306    1.5218394   441758 
 3099000     1.021966   -3.1300858   -1.6067267  0.074013087   -3.1300858     1.523359   441824 
 3100000    1.0216443   -3.1306966   -1.6079997  0.078111976   -3.1306966    1.5226969   441877 
 3101000    1.0220483   -3.1314734   -1.6082468  0.077301613   -3.1314734    1.5232266   441898 
 3102000    1.0226236   -3.1322037   -1.6080093  0.074358036   -3.1322037    1.5241944   441866 
 3103000    1.0218215   -3.1307708   -1.6077306  0.072086364   -3.1307708    1.5230402   441854 
 3104000    1.0208611   -3.1292588   -1.6075295  0.077453863   -3.1292588    1.5217293   441819 
 3105000    1.0217253   -3.1302913   -1.6072945  0.074126943   -3.1302913    1.5229968   441825 
 3106000    1.0205894   -3.1269978   -1.6058767  0.075106588   -3.1269978    1.5211211   441878 
 3107000    1.0217236   -3.1286512   -1.6059154  0.071889326   -3.1286512    1.5227358   441900 
 3108000    1.0215649   -3.1281478   -1.6056002  0.077655907   -3.1281478    1.5225476   441886 
 3109000    1.0230354   -3.1314699   -1.6068687  0.075454301   -3.1314699    1.5246012   441926 
 3110000    1.0238552   -3.1317432   -1.6059445  0.077637934   -3.1317432    1.5257987   441933 
 3111000    1.0224717   -3.1294307   -1.6058213  0.075789234   -3.1294307    1.5236094   441970 
 3112000    1.0227951   -3.1309824   -1.6069877  0.075774461   -3.1309824    1.5239947   441998 
 3113000      1.02305   -3.1325744   -1.6083653  0.073398933   -3.1325744    1.5242091   442046 
 3114000    1.0240604   -3.1332791   -1.6075647  0.085255785   -3.1332791    1.5257144   442046 
 3115000    1.0233631    -3.132046   -1.6074222  0.076288862    -3.132046    1.5246238   442061 
 3116000    1.0239236   -3.1319506   -1.6065815  0.079788658   -3.1319506    1.5253691   442087 
 3117000    1.0243594   -3.1334888   -1.6074532  0.076173872   -3.1334888    1.5260356   442082 
 3118000    1.0247883   -3.1334377   -1.6067873  0.078923104   -3.1334377    1.5266503   442089 
 3119000    1.0263424   -3.1366293   -1.6078333  0.076863235   -3.1366293    1.5287961   442138 
 3120000    1.0234811   -3.1329438   -1.6084753   0.07301387   -3.1329438    1.5244685   442157 
 3121000    1.0255711   -3.1355899   -1.6081466    0.0753901   -3.1355899    1.5274433   442197 
 3122000    1.0238199   -3.1344162   -1.6096051  0.079118705   -3.1344162     1.524811   442204 
 3123000    1.0235677   -3.1340551   -1.6096403  0.077576336   -3.1340551    1.5244148   442210 
 3124000    1.0249044   -3.1352349   -1.6087914  0.074830894   -3.1352349    1.5264435   442199 
 3125000    1.0231628   -3.1329613   -1.6091944   0.08041945   -3.1329613    1.5237669   442223 
 3126000     1.023831   -3.1336572   -1.6089779  0.076841372   -3.1336572    1.5246793   442247 
 3127000    1.0238154   -3.1326313   -1.6081303  0.078257484   -3.1326313     1.524501   442292 
 3128000    1.0250595   -3.1357328   -1.6094174  0.074455374   -3.1357328    1.5263155   442303 
 3129000    1.0235388   -3.1330094   -1.6090857  0.075357629   -3.1330094    1.5239237   442340 
 3130000    1.0230719   -3.1318298   -1.6087526  0.081650368   -3.1318298    1.5230771   442384 
 3131000    1.0238775   -3.1318553   -1.6076995   0.07866753   -3.1318553    1.5241558   442419 
 3132000    1.0228652   -3.1318545   -1.6091643  0.078812535   -3.1318545    1.5226901   442407 
 3133000     1.022172   -3.1317334   -1.6100717  0.080220138   -3.1317334    1.5216617   442406 
 3134000    1.0216784   -3.1315454   -1.6106873  0.074684043   -3.1315454    1.5208581   442426 
 3135000    1.0227963   -3.1323592   -1.6099057  0.073183608   -3.1323592    1.5224534   442446 
 3136000    1.0221154   -3.1312452   -1.6099911   0.07718987   -3.1312452    1.5212542   442500 
 3137000    1.0229447   -3.1318326   -1.6095642   0.07461777   -3.1318326    1.5222683   442564 
 3138000    1.0231525   -3.1321745   -1.6097207  0.076568623   -3.1321745    1.5224537   442600 
 3139000    1.0230454   -3.1311571    -1.608935  0.079253554   -3.1311571    1.5222221   442621 
 3140000    1.0232364   -3.1319574   -1.6093376  0.075076677   -3.1319574    1.5226198   442588 
 3141000    1.0227902   -3.1305106   -1.6086338  0.083444534   -3.1305106    1.5218767   442611 
 3142000    1.0239565   -3.1317722   -1.6083011  0.077172235   -3.1317722    1.5234711   442652 
 3143000    1.0246797   -3.1324109   -1.6078983  0.079996118   -3.1324109    1.5245126   442662 
 3144000     1.023585   -3.1308071   -1.6081881  0.077525788   -3.1308071     1.522619   442739 
 3145000    1.0246767   -3.1324793   -1.6083774  0.080520383   -3.1324793    1.5241019   442780 
 3146000    1.0253656   -3.1336564   -1.6085816  0.079125664   -3.1336564    1.5250748   442795 
 3147000    1.0250101   -3.1341675    -1.609828  0.077256388   -3.1341675    1.5243395   442855 
 3148000    1.0233505   -3.1315896   -1.6096906  0.074411302   -3.1315896     1.521899   442847 
 3149000    1.0249831    -3.133709    -1.609413  0.069835679    -3.133709     1.524296   442856 
 3150000    1.0248034   -3.1332513   -1.6093396  0.076400472   -3.1332513    1.5239117   442890 
 3151000    1.0245053   -3.1318934   -1.6085419   0.08021401   -3.1318934    1.5233515   442924 
 3152000    1.0235501    -3.130518   -1.6086417  0.071072345    -3.130518    1.5218763   442940 
 3153000     1.024371   -3.1322744   -1.6091501  0.074409421   -3.1322744    1.5231243   442932 
 3154000    1.0245433   -3.1338313   -1.6104851  0.074529006   -3.1338313    1.5233462   442942 
 3155000    1.0249625   -3.1340089   -1.6102011  0.080836641   -3.1340089    1.5238078   442989 
 3156000    1.0236618   -3.1315718     -1.60977  0.075020085   -3.1315718    1.5218019   443010 
 3157000    1.0234857    -3.131606    -1.610241  0.074707324    -3.131606    1.5213649   443061 
 3158000    1.0242969   -3.1328183   -1.6103369  0.069715329   -3.1328183    1.5224814   443087 
 3159000    1.0233939   -3.1323935   -1.6112544  0.074735601   -3.1323935    1.5211391   443087 
 3160000    1.0247754   -3.1345911   -1.6114603  0.071616902   -3.1345911    1.5231308   443105 
 3161000    1.0248866    -3.134567   -1.6114393  0.073257358    -3.134567    1.5231276   443154 
 3162000    1.0254831   -3.1343697   -1.6104932   0.07410523   -3.1343697    1.5238765   443194 
 3163000    1.0250546    -3.135159   -1.6119159  0.077622062    -3.135159    1.5232431   443193 
 3164000    1.0253359   -3.1349658   -1.6113941  0.081599001   -3.1349658    1.5235717   443219 
 3165000    1.0252541   -3.1345709   -1.6109866  0.077828003   -3.1345709    1.5235843   443180 
 3166000    1.0254406   -3.1357196    -1.611889  0.074788847   -3.1357196    1.5238305   443189 
 3167000    1.0254402   -3.1359308   -1.6121524  0.076407366   -3.1359308    1.5237784   443204 
 3168000    1.0240562   -3.1349982   -1.6133314  0.078522402   -3.1349982    1.5216668   443220 
 3169000    1.0238117   -3.1364159   -1.6151946  0.076781846   -3.1364159    1.5212212   443244 
 3170000    1.0257527   -3.1372636   -1.6132032  0.080493224   -3.1372636    1.5240604   443257 
 3171000    1.0263852   -3.1380307   -1.6131715  0.076736115   -3.1380307    1.5248592   443298 
 3172000    1.0262401   -3.1375427   -1.6130573  0.077487184   -3.1375427    1.5244854   443344 
 3173000    1.0255511   -3.1364038   -1.6130621  0.082396066   -3.1364038    1.5233417   443379 
 3174000      1.02493    -3.137944   -1.6156554  0.079711886    -3.137944    1.5222886   443417 
 3175000    1.0258685   -3.1380582   -1.6144582  0.077862767   -3.1380582       1.5236   443441 
 3176000     1.025487   -3.1374675   -1.6145198  0.078580966   -3.1374675    1.5229476   443466 
 3177000    1.0247982   -3.1368185    -1.615014  0.080521994   -3.1368185    1.5218045   443501 
 3178000    1.0250668   -3.1378429   -1.6156669  0.078615248   -3.1378429     1.522176   443509 
 3179000    1.0256201   -3.1372595   -1.6143649  0.079618879   -3.1372595    1.5228946   443539 
 3180000    1.0265887   -3.1384253   -1.6141235  0.076667528   -3.1384253    1.5243018   443548 
 3181000     1.025642   -3.1372974   -1.6144389  0.082969382   -3.1372974    1.5228584   443559 
 3182000    1.0273914   -3.1398729   -1.6146062  0.079070148   -3.1398729    1.5252667   443614 
 3183000    1.0270511   -3.1374423   -1.6128492  0.080024076   -3.1374423    1.5245932   443663 
 3184000    1.0244291   -3.1331237   -1.6125634  0.085120184   -3.1331237    1.5205604   443704 
 3185000     1.025753    -3.133978   -1.6114147  0.080497036    -3.133978    1.5225633   443693 
 3186000    1.0275653    -3.136082   -1.6109387   0.07958409    -3.136082    1.5251433   443725 
 3187000     1.025837   -3.1334786    -1.611079  0.079593955   -3.1334786    1.5223997   443777 
 3188000    1.0268816   -3.1344056   -1.6105551  0.080350555   -3.1344056    1.5238505   443806 
 3189000    1.0264045   -3.1335193   -1.6103083  0.077898448   -3.1335193    1.5232111   443786 
 3190000    1.0265483   -3.1348811   -1.6114738  0.081456924   -3.1348811    1.5234073   443791 
 3191000    1.0261782   -3.1341876   -1.6113879  0.078027347   -3.1341876    1.5227998   443808 
 3192000    1.0253231   -3.1331616   -1.6116789  0.071807743   -3.1331616    1.5214828   443822 
 3193000    1.0258444   -3.1327949   -1.6106861  0.075404093   -3.1327949    1.5221089   443865 
 3194000    1.0264428    -3.134213   -1.6112779  0.081884377    -3.134213    1.5229351   443883 
 3195000    1.0246097   -3.1320745   -1.6118935  0.073738863   -3.1320745     1.520181   443893 
 3196000    1.0249514   -3.1324994   -1.6119621  0.075544679   -3.1324994    1.5205373   443937 
 3197000    1.0262077   -3.1342268   -1.6119869  0.075341455   -3.1342268    1.5222398   443984 
 3198000    1.0256987   -3.1332318   -1.6118465  0.079494872   -3.1332318    1.5213854   444013 
 3199000    1.0264218   -3.1345927   -1.6121965  0.079416263   -3.1345927    1.5223962   444031 
 3200000     1.026715   -3.1346417   -1.6119134  0.078241355   -3.1346417    1.5227283   444061 
 3201000     1.026656   -3.1348218   -1.6122565  0.068604783   -3.1348218    1.5225653   444083 
 3202000    1.0275748   -3.1365519     -1.61272  0.075811292   -3.1365519    1.5238319   444111 
 3203000    1.0274526   -3.1357146   -1.6121222  0.077484547   -3.1357146    1.5235924   444128 
 3204000    1.0280496   -3.1366124   -1.6122275  0.079216526   -3.1366124    1.5243849   444155 
 3205000    1.0281869   -3.1358983   -1.6113716  0.080115465   -3.1358983    1.5245268   444173 
 3206000    1.0259096    -3.133555   -1.6125008  0.082544922    -3.133555    1.5210542   444201 
 3207000    1.0279027   -3.1359687   -1.6119422  0.075388502   -3.1359687    1.5240265   444196 
 3208000    1.0276682   -3.1374815   -1.6138165  0.080449472   -3.1374815    1.5236649   444200 
 3209000    1.0273254   -3.1368799   -1.6137814  0.075741678   -3.1368799    1.5230985   444217 
 3210000    1.0269392   -3.1375402   -1.6149731  0.075203077   -3.1375402    1.5225671   444205 
 3211000    1.0272793   -3.1381198   -1.6152303  0.079035758   -3.1381198    1.5228896   444258 
 3212000    1.0284849   -3.1408795   -1.6162164  0.075593721   -3.1408795    1.5246631   444262 
 3213000    1.0272177   -3.1375299   -1.6148037  0.078325037   -3.1375299    1.5227262   444279 
 3214000     1.028348   -3.1390867   -1.6146849   0.08048964   -3.1390867    1.5244018   444279 
 3215000     1.028534   -3.1405167   -1.6159352  0.078209233   -3.1405167    1.5245814   444307 
 3216000    1.0291815   -3.1425509   -1.6171642   0.07750098   -3.1425509    1.5253867   444352 
 3217000    1.0279167    -3.139629   -1.6161237  0.080534279    -3.139629    1.5235053   444354 
 3218000    1.0283323    -3.139739   -1.6156932  0.075915217    -3.139739    1.5240458   444376 
 3219000     1.026341   -3.1374277   -1.6163399  0.081411606   -3.1374277    1.5210878   444378 
 3220000    1.0284259   -3.1398958   -1.6155844  0.079199264   -3.1398958    1.5243114   444339 
 3221000    1.0284088   -3.1386656   -1.6143659  0.081709715   -3.1386656    1.5242998   444335 
 3222000    1.0282663   -3.1384177    -1.614408  0.080602551   -3.1384177    1.5240096   444358 
 3223000    1.0274631   -3.1374477   -1.6147793  0.078319041   -3.1374477    1.5226685   444402 
 3224000     1.027778     -3.13811   -1.6149679  0.077874375     -3.13811     1.523142   444400 
 3225000    1.0290743   -3.1392634   -1.6142174  0.081398232   -3.1392634     1.525046   444405 
 3226000    1.0266633   -3.1380048   -1.6166346  0.077657207   -3.1380048    1.5213702   444435 
 3227000    1.0271689   -3.1370044    -1.614974  0.080006603   -3.1370044    1.5220304   444461 
 3228000    1.0276973   -3.1383665   -1.6157279  0.080046124   -3.1383665    1.5226386   444512 
 3229000    1.0260545   -3.1344845   -1.6144337  0.077962756   -3.1344845    1.5200508   444557 
 3230000    1.0275155   -3.1381977   -1.6161297  0.079401548   -3.1381977     1.522068   444600 
 3231000     1.027311   -3.1362133   -1.6145543  0.076293209   -3.1362133     1.521659   444631 
 3232000    1.0264789   -3.1345791    -1.614245  0.072976667   -3.1345791    1.5203342   444658 
 3233000    1.0279483   -3.1366242   -1.6141889   0.07878468   -3.1366242    1.5224352   444680 
 3234000    1.0277284   -3.1351887   -1.6131203  0.074600185   -3.1351887    1.5220683   444692 
 3235000    1.0294759   -3.1362222   -1.6115211  0.074995226   -3.1362222    1.5247011   444679 
 3236000    1.0298191   -3.1366526   -1.6114982  0.073383046   -3.1366526    1.5251544   444695 
 3237000    1.0294706   -3.1368952   -1.6123804  0.075451544   -3.1368952    1.5245149   444731 
 3238000    1.0300766   -3.1382441   -1.6128387  0.075458974   -3.1382441    1.5254054   444733 
 3239000    1.0307925   -3.1386468   -1.6123151  0.074501827   -3.1386468    1.5263317   444772 
 3240000    1.0310413   -3.1381058   -1.6114605  0.080430909   -3.1381058    1.5266453   444788 
 3241000    1.0327952   -3.1396146   -1.6104514  0.079120555   -3.1396146    1.5291632   444811 
 3242000    1.0298437   -3.1346466   -1.6098945  0.082071848   -3.1346466    1.5247521   444823 
 3243000     1.029521   -3.1347965   -1.6106662  0.078306154   -3.1347965    1.5241303   444865 
 3244000    1.0288183    -3.135118   -1.6121785  0.080783591    -3.135118    1.5229395   444909 
 3245000     1.028882   -3.1350964   -1.6121688  0.080571624   -3.1350964    1.5229276   444940 
 3246000    1.0287069   -3.1352382   -1.6124912  0.078386081   -3.1352382     1.522747   444917 
 3247000    1.0281784   -3.1340804    -1.612208  0.078285372   -3.1340804    1.5218724   444944 
 3248000    1.0302013   -3.1366644   -1.6117944  0.072293633   -3.1366644      1.52487   444943 
 3249000    1.0277062   -3.1329119   -1.6117691  0.078811456   -3.1329119    1.5211428   444953 
 3250000    1.0312916   -3.1380756   -1.6118077  0.077795652   -3.1380756    1.5262678   445006 
 3251000    1.0306715   -3.1369969   -1.6117015  0.078217075   -3.1369969    1.5252953   445022 
 3252000    1.0295462   -3.1342456   -1.6107219  0.082233902   -3.1342456    1.5235237   445053 
 3253000    1.0289371   -3.1342151   -1.6117055  0.080954337   -3.1342151    1.5225096   445086 
 3254000    1.0305634   -3.1348118   -1.6098581  0.079927016   -3.1348118    1.5249537   445075 
 3255000    1.0312278   -3.1367051   -1.6108232  0.077594988   -3.1367051    1.5258819   445091 
 3256000    1.0318318   -3.1371803   -1.6105178  0.075465755   -3.1371803    1.5266625   445124 
 3257000     1.030423   -3.1349675   -1.6105059  0.076838569   -3.1349675    1.5244616   445158 
 3258000    1.0313939   -3.1376037   -1.6116612  0.075904047   -3.1376037    1.5259426   445145 
 3259000    1.0296934   -3.1349199   -1.6115343  0.082779615   -3.1349199    1.5233856   445157 
 3260000    1.0305602   -3.1360214   -1.6113979  0.080361323   -3.1360214    1.5246235   445170 
 3261000    1.0296459   -3.1339637   -1.6107476  0.079185306   -3.1339637    1.5232161   445186 
 3262000     1.029309   -3.1349356   -1.6122931  0.075377965   -3.1349356    1.5226425   445208 
 3263000    1.0306343    -3.137448    -1.613095  0.074138736    -3.137448     1.524353   445281 
 3264000    1.0292998   -3.1352344   -1.6127423  0.070334141   -3.1352344    1.5224921   445248 
 3265000    1.0307474   -3.1361499   -1.6114618  0.069840368   -3.1361499    1.5246881   445232 
 3266000    1.0295481   -3.1350165   -1.6121435  0.075086029   -3.1350165     1.522873   445244 
 3267000    1.0278883    -3.132424   -1.6121871  0.076130027    -3.132424    1.5202369   445297 
 3268000    1.0293381   -3.1347391   -1.6123476  0.075840803   -3.1347391    1.5223915   445294 
 3269000    1.0302736   -3.1355537   -1.6119052  0.076085585   -3.1355537    1.5236484   445331 
 3270000    1.0315885   -3.1366155    -1.611163  0.078202337   -3.1366155    1.5254526   445372 
 3271000    1.0302886   -3.1344015   -1.6109874  0.078331458   -3.1344015    1.5234141   445406 
 3272000    1.0308039   -3.1344471   -1.6103225  0.078307516   -3.1344471    1.5241246   445421 
 3273000    1.0319161   -3.1366641   -1.6109464  0.081156055   -3.1366641    1.5257178   445436 
 3274000    1.0315268   -3.1351945   -1.6101721   0.08006271   -3.1351945    1.5250224   445471 
 3275000    1.0320147   -3.1356533   -1.6099199  0.083725543   -3.1356533    1.5257333   445474 
 3276000    1.0310272   -3.1358983   -1.6117822  0.079292029   -3.1358983    1.5241161   445520 
 3277000    1.0321116   -3.1367485   -1.6110944  0.082056778   -3.1367485     1.525654   445539 
 3278000    1.0315438   -3.1364506   -1.6117318  0.076474573   -3.1364506    1.5247188   445567 
 3279000    1.0314917   -3.1373085   -1.6127316  0.077300822   -3.1373085     1.524577   445586 
 3280000    1.0308788   -3.1358627   -1.6122532  0.073028865   -3.1358627    1.5236094   445604 
 3281000    1.0323404   -3.1366291   -1.6109724  0.080165034   -3.1366291    1.5256566   445637 
 3282000    1.0328262   -3.1364135   -1.6102136  0.082920959   -3.1364135    1.5261999   445688 
 3283000    1.0328849   -3.1360749   -1.6099183  0.078706367   -3.1360749    1.5261566   445726 
 3284000    1.0322638   -3.1345706   -1.6092291  0.080918291   -3.1345706    1.5253415   445696 
 3285000    1.0323677   -3.1350286   -1.6095643  0.081788498   -3.1350286    1.5254643   445705 
 3286000    1.0332272   -3.1359206   -1.6092343  0.079891518   -3.1359206    1.5266863   445719 
 3287000    1.0316648   -3.1346326   -1.6103403  0.081630284   -3.1346326    1.5242922   445744 
 3288000     1.033082   -3.1372071   -1.6108688    0.0780124   -3.1372071    1.5263383   445758 
 3289000    1.0320527   -3.1364374   -1.6116884  0.075618582   -3.1364374     1.524749   445778 
 3290000    1.0326307   -3.1351998   -1.6097952  0.076625178   -3.1351998    1.5254045   445836 
 3291000    1.0317782   -3.1345868   -1.6104827  0.079217429   -3.1345868    1.5241041   445848 
 3292000     1.030647   -3.1340177   -1.6115538  0.082299495   -3.1340177    1.5224639   445839 
 3293000     1.029434   -3.1337887   -1.6132121  0.071304786   -3.1337887    1.5205766   445867 
 3294000     1.031716   -3.1373524   -1.6134768  0.073767917   -3.1373524    1.5238756   445888 
 3295000    1.0312986   -3.1367013   -1.6135311  0.075116301   -3.1367013    1.5231702   445914 
 3296000    1.0312348   -3.1353286   -1.6122116  0.079286978   -3.1353286    1.5231171   445902 
 3297000     1.031923   -3.1353847   -1.6113571  0.072043152   -3.1353847    1.5240276   445933 
 3298000    1.0340568   -3.1374451   -1.6103689  0.076402195   -3.1374451    1.5270762   445963 
 3299000    1.0321553   -3.1345052   -1.6104184  0.081827487   -3.1345052    1.5240869   446016 
 3300000     1.032225   -3.1336191   -1.6095318  0.078368999   -3.1336191    1.5240873   446046 
 3301000    1.0324236   -3.1337437   -1.6095238  0.078737339   -3.1337437    1.5242199   446093 
 3302000    1.0331797   -3.1339293   -1.6087265  0.079462998   -3.1339293    1.5252028   446132 
 3303000    1.0340431   -3.1358787   -1.6093601  0.078337428   -3.1358787    1.5265186   446120 
 3304000     1.034161   -3.1344555    -1.608023  0.083073309   -3.1344555    1.5264326   446196 
 3305000    1.0353734   -3.1359602   -1.6079675  0.079181007   -3.1359602    1.5279926   446263 
 3306000    1.0334922    -3.133809   -1.6086132  0.080130857    -3.133809    1.5251958   446269 
 3307000     1.032563   -3.1337911   -1.6100519  0.074792428   -3.1337911    1.5237391   446294 
 3308000    1.0327185    -3.134616    -1.610637  0.076976418    -3.134616    1.5239789   446291 
 3309000     1.033804   -3.1355356   -1.6101701  0.076106111   -3.1355356    1.5253655   446354 
 3310000    1.0343567   -3.1354597   -1.6093848  0.073714999   -3.1354597    1.5260749   446385 
 3311000    1.0331285   -3.1330122   -1.6088791   0.07685718   -3.1330122    1.5241331   446423 
 3312000     1.033461    -3.133923   -1.6093403  0.077129205    -3.133923    1.5245828   446435 
 3313000    1.0339307   -3.1355177    -1.610266  0.079130792   -3.1355177    1.5252517   446442 
 3314000    1.0341982   -3.1365099   -1.6110071  0.080189533   -3.1365099    1.5255028   446484 
 3315000    1.0349608   -3.1377881    -1.611263  0.080404785   -3.1377881    1.5265252   446514 
 3316000    1.0335129   -3.1365156   -1.6121124   0.07450541   -3.1365156    1.5244032   446510 
 3317000    1.0342331     -3.13667   -1.6112557  0.074777164     -3.13667    1.5254142   446525 
 3318000     1.033817   -3.1361385   -1.6113823  0.081256329   -3.1361385    1.5247561   446538 
 3319000    1.0332412   -3.1352664   -1.6113151  0.086059416   -3.1352664    1.5239512   446525 
 3320000    1.0334069   -3.1349702   -1.6108839  0.080881589   -3.1349702    1.5240863   446557 
 3321000    1.0341636   -3.1365605   -1.6113923  0.077137318   -3.1365605    1.5251682   446567 
 3322000    1.0319363   -3.1336438   -1.6118831   0.08048249   -3.1336438    1.5217607   446603 
 3323000    1.0332611   -3.1350463   -1.6112636  0.074733164   -3.1350463    1.5237827   446583 
 3324000     1.033058   -3.1352654   -1.6118266  0.082438414   -3.1352654    1.5234388   446596 
 3325000    1.0346458   -3.1358592   -1.6102395  0.077964594   -3.1358592    1.5256198   446643 
 3326000    1.0369829   -3.1395036   -1.6105986  0.075389675   -3.1395036     1.528905   446690 
 3327000    1.0360812   -3.1381121   -1.6106289  0.076897177   -3.1381121    1.5274832   446717 
 3328000     1.035806   -3.1383424   -1.6113366   0.07740627   -3.1383424    1.5270058   446738 
 3329000    1.0343387   -3.1364074   -1.6115717  0.082416501   -3.1364074    1.5248357   446740 
 3330000    1.0358472   -3.1378197   -1.6109651   0.08089344   -3.1378197    1.5268546   446800 
 3331000    1.0348717    -3.136007   -1.6106723  0.075857997    -3.136007    1.5253347   446824 
 3332000    1.0337719   -3.1364151   -1.6127526  0.079353068   -3.1364151    1.5236625   446839 
 3333000    1.0344374   -3.1376964   -1.6131111  0.077003648   -3.1376964    1.5245853   446856 
 3334000    1.0332501   -3.1352658   -1.6126552  0.077825498   -3.1352658    1.5226106   446922 
 3335000    1.0328424   -3.1357626   -1.6137936  0.074186775   -3.1357626    1.5219689   446934 
 3336000    1.0326003   -3.1351998   -1.6137373  0.078685816   -3.1351998    1.5214625   446978 
 3337000    1.0344498   -3.1372438   -1.6130563  0.073028838   -3.1372438    1.5241876   446978 
 3338000    1.0331455   -3.1348927   -1.6126372  0.076742403   -3.1348927    1.5222556   446981 
 3339000    1.0330367   -3.1360406    -1.613925  0.078350206   -3.1360406    1.5221156   446975 
 3340000    1.0333779   -3.1355264   -1.6129319  0.078437958   -3.1355264    1.5225945   446982 
 3341000    1.0366484   -3.1397166   -1.6124332  0.072973187   -3.1397166    1.5272835   447020 
 3342000    1.0355623   -3.1380837   -1.6125198  0.079254959   -3.1380837    1.5255639   447055 
 3343000    1.0361325   -3.1384692   -1.6120244  0.077955197   -3.1384692    1.5264448   447043 
 3344000    1.0353921   -3.1373215   -1.6120287  0.083932616   -3.1373215    1.5252928   447061 
 3345000    1.0351195   -3.1367083   -1.6118785  0.075463594   -3.1367083    1.5248298   447079 
 3346000    1.0354903   -3.1391747   -1.6138431  0.076923269   -3.1391747    1.5253316   447092 
 3347000    1.0342343   -3.1377883   -1.6144294  0.073990071   -3.1377883    1.5233588   447128 
 3348000    1.0356069   -3.1383529    -1.613044  0.077169516   -3.1383529    1.5253089   447149 
 3349000     1.035205   -3.1375362   -1.6130648  0.076783432   -3.1375362    1.5244714   447221 
 3350000     1.035993   -3.1384048   -1.6128957  0.077297797   -3.1384048    1.5255091   447257 
 3351000    1.0336916   -3.1356024   -1.6137032  0.077199044   -3.1356024    1.5218992   447322 
 3352000    1.0351448   -3.1373107   -1.6132686  0.079504507   -3.1373107    1.5240421   447321 
 3353000    1.0343073   -3.1355191   -1.6127543  0.079870723   -3.1355191    1.5227648   447334 
 3354000    1.0363439   -3.1385568   -1.6127732  0.079578472   -3.1385568    1.5257836   447328 
 3355000    1.0359428   -3.1362289   -1.6111722   0.08358508   -3.1362289    1.5250567   447368 
 3356000    1.0376578   -3.1392624    -1.611681  0.078676762   -3.1392624    1.5275814   447368 
 3357000    1.0360671   -3.1377685   -1.6124027  0.079750147   -3.1377685    1.5253659   447331 
 3358000    1.0359649   -3.1367581   -1.6116211  0.079204679   -3.1367581     1.525137   447354 
 3359000    1.0359263   -3.1358872   -1.6108752  0.080106769   -3.1358872     1.525012   447374 
 3360000    1.0360623   -3.1358094    -1.610662  0.079724587   -3.1358094    1.5251474   447393 
 3361000    1.0363046   -3.1370122   -1.6114467  0.078540977   -3.1370122    1.5255655   447375 
 3362000    1.0363258   -3.1370846   -1.6116243   0.07870495   -3.1370846    1.5254603   447415 
 3363000    1.0362455   -3.1372644   -1.6121031  0.078347396   -3.1372644    1.5251614   447468 
 3364000    1.0353126   -3.1368386   -1.6131762  0.076757264   -3.1368386    1.5236623   447505 
 3365000    1.0354846    -3.137209   -1.6133889  0.078329721    -3.137209    1.5238201   447533 
 3366000    1.0361974   -3.1377127   -1.6130379  0.075343472   -3.1377127    1.5246749   447590 
 3367000    1.0346332   -3.1353885   -1.6131138  0.083113799   -3.1353885    1.5222747   447619 
 3368000    1.0348047   -3.1361593   -1.6137309  0.075678462   -3.1361593    1.5224284   447648 
 3369000    1.0348034   -3.1363559   -1.6140383  0.075777767   -3.1363559    1.5223176   447680 
 3370000    1.0345707    -3.133873   -1.6119283   0.07566479    -3.133873    1.5219447   447689 
 3371000    1.0378501   -3.1366032   -1.6099364  0.080630483   -3.1366032    1.5266667   447719 
 3372000    1.0354027   -3.1356358   -1.6125556  0.078944824   -3.1356358    1.5230802   447715 
 3373000    1.0373614   -3.1385174   -1.6127092   0.07479568   -3.1385174    1.5258082   447760 
 3374000    1.0370361   -3.1368358   -1.6116764  0.078991917   -3.1368358    1.5251593   447810 
 3375000    1.0348076   -3.1347911   -1.6130553  0.078173884   -3.1347911    1.5217358   447853 
 3376000    1.0373653   -3.1387071   -1.6131725  0.074768116   -3.1387071    1.5255345   447842 
 3377000    1.0356397   -3.1357559   -1.6128202  0.071768908   -3.1357559    1.5229356   447860 
 3378000    1.0385617   -3.1386071   -1.6114871  0.081159295   -3.1386071      1.52712   447893 
 3379000    1.0352816   -3.1360491   -1.6137386  0.076766442   -3.1360491    1.5223104   447889 
 3380000    1.0357939   -3.1366149   -1.6137109  0.077350037   -3.1366149     1.522904   447936 
 3381000    1.0369296   -3.1381018   -1.6133885  0.079806834   -3.1381018    1.5247134   447895 
 3382000    1.0380199   -3.1390778   -1.6128601  0.077845729   -3.1390778    1.5262177   447924 
 3383000    1.0363823   -3.1367443   -1.6129955  0.079456902   -3.1367443    1.5237487   447942 
 3384000    1.0373519   -3.1379621   -1.6129104  0.075933039   -3.1379621    1.5250516   447978 
 3385000    1.0387097   -3.1402319      -1.6133   0.07723381   -3.1402319    1.5269319   448012 
 3386000     1.036951   -3.1373893   -1.6129985  0.080221034   -3.1373893    1.5243908   447999 
 3387000     1.037411   -3.1372913   -1.6123842  0.078868122   -3.1372913    1.5249071   448046 
 3388000    1.0367221   -3.1365895    -1.612821  0.080528424   -3.1365895    1.5237685   448083 
 3389000    1.0385698   -3.1379935   -1.6115637  0.077869031   -3.1379935    1.5264298   448099 
 3390000    1.0371448   -3.1370123   -1.6128197  0.074829922   -3.1370123    1.5241926   448141 
 3391000     1.037915   -3.1399527   -1.6146657  0.077603196   -3.1399527    1.5252871   448152 
 3392000    1.0380974   -3.1393944   -1.6139005  0.077949373   -3.1393944    1.5254938   448170 
 3393000    1.0389389   -3.1402823   -1.6137121  0.080267548   -3.1402823    1.5265703   448217 
 3394000     1.038519   -3.1385346   -1.6127175  0.073613761   -3.1385346    1.5258171   448257 
 3395000     1.038243   -3.1375242    -1.612201  0.075446361   -3.1375242    1.5253232   448283 
 3396000    1.0369149   -3.1349436   -1.6116803  0.081879033   -3.1349436    1.5232632   448315 
 3397000    1.0386964     -3.13702   -1.6113336  0.078996738     -3.13702    1.5256864   448372 
 3398000    1.0398167   -3.1390797   -1.6117716  0.075543033   -3.1390797     1.527308   448379 
 3399000    1.0390647   -3.1374214   -1.6113779  0.084175741   -3.1374214    1.5260436   448426 
 3400000    1.0385017   -3.1353694   -1.6102786  0.084744951   -3.1353694    1.5250909   448463 
 3401000    1.0407456   -3.1378501    -1.609665  0.078156571   -3.1378501    1.5281851   448522 
 3402000      1.03891   -3.1355568   -1.6100296  0.076707557   -3.1355568    1.5255273   448511 
 3403000     1.038037   -3.1349392   -1.6107449  0.074271141   -3.1349392    1.5241943   448526 
 3404000    1.0400681   -3.1367377   -1.6097142  0.082472413   -3.1367377    1.5270235   448571 
 3405000    1.0389917   -3.1351404   -1.6097279  0.074336666   -3.1351404    1.5254125   448580 
 3406000    1.0374159   -3.1330941   -1.6100494  0.078341369   -3.1330941    1.5230446   448596 
 3407000    1.0375905    -3.133415   -1.6102499   0.07809479    -3.133415    1.5231651   448636 
 3408000    1.0378564   -3.1335453   -1.6100849  0.079932369   -3.1335453    1.5234604   448664 
 3409000    1.0383698   -3.1349778   -1.6108182  0.071069054   -3.1349778    1.5241596   448680 
 3410000    1.0364021   -3.1324124   -1.6111104  0.078389613   -3.1324124    1.5213019   448671 
 3411000    1.0367723    -3.132495   -1.6107582  0.074385034    -3.132495    1.5217368   448703 
 3412000     1.037768   -3.1351049   -1.6119541  0.073901143   -3.1351049    1.5231508   448717 
 3413000    1.0379342   -3.1351105   -1.6118312  0.072485684   -3.1351105    1.5232793   448751 
 3414000     1.037812   -3.1343505   -1.6113626   0.07509266   -3.1343505    1.5229879   448784 
 3415000    1.0377124   -3.1341132   -1.6113597  0.071495269   -3.1341132    1.5227535   448810 
 3416000    1.0387888   -3.1332969   -1.6089943  0.078402288   -3.1332969    1.5243025   448819 
 3417000    1.0395589   -3.1334675   -1.6080553  0.077545685   -3.1334675    1.5254121   448825 
 3418000    1.0391886   -3.1340756   -1.6093427  0.072804544   -3.1340756    1.5247329   448865 
 3419000    1.0402393   -3.1346379   -1.6084382  0.077475295   -3.1346379    1.5261997   448887 
 3420000    1.0390683   -3.1330078    -1.608533  0.082190072   -3.1330078    1.5244748   448889 
 3421000    1.0400928   -3.1336105   -1.6078025  0.083286824   -3.1336105     1.525808   448939 
 3422000    1.0398913    -3.133057   -1.6077553  0.082875595    -3.133057    1.5253017   449001 
 3423000    1.0390533    -3.131717   -1.6077597  0.076983583    -3.131717    1.5239573   449035 
 3424000    1.0396885   -3.1329459   -1.6081827  0.081460138   -3.1329459    1.5247632   449072 
 3425000    1.0399408   -3.1337186    -1.608582  0.078337503   -3.1337186    1.5251366   449071 
 3426000    1.0398237   -3.1331031   -1.6082843  0.084355488   -3.1331031    1.5248188   449114 
 3427000    1.0399663   -3.1333588   -1.6083954  0.078612925   -3.1333588    1.5249634   449133 
 3428000    1.0394915   -3.1341758   -1.6099493  0.074249235   -3.1341758    1.5242265   449145 
 3429000    1.0395472   -3.1341573   -1.6099984  0.077612585   -3.1341573    1.5241589   449189 
 3430000     1.040155   -3.1341129   -1.6091885  0.079665402   -3.1341129    1.5249244   449226 
 3431000    1.0409821    -3.136311   -1.6102285  0.074094338    -3.136311    1.5260826   449242 
 3432000    1.0402881   -3.1345873   -1.6095459  0.076484258   -3.1345873    1.5250414   449249 
 3433000    1.0411605   -3.1339091   -1.6076363  0.080951127   -3.1339091    1.5262728   449263 
 3434000    1.0418329   -3.1363742   -1.6091429    0.0818572   -3.1363742    1.5272313   449271 
 3435000     1.041545   -3.1352805   -1.6084169  0.080101425   -3.1352805    1.5268636   449255 
 3436000    1.0393632   -3.1330859   -1.6093528  0.077618063   -3.1330859    1.5237331   449235 
 3437000    1.0396555   -3.1337405    -1.609718  0.079841164   -3.1337405    1.5240225   449276 
 3438000    1.0378518   -3.1327179   -1.6113462  0.078511905   -3.1327179    1.5213717   449278 
 3439000    1.0389257   -3.1335697   -1.6106408  0.078166106   -3.1335697    1.5229289   449283 
 3440000    1.0395974   -3.1335999   -1.6097304  0.079250612   -3.1335999    1.5238695   449296 
 3441000    1.0417608   -3.1362194   -1.6092705  0.079023779   -3.1362194    1.5269489   449323 
 3442000    1.0417554   -3.1365756   -1.6097876  0.071991388   -3.1365756     1.526788   449368 
 3443000    1.0407115   -3.1347941   -1.6097328  0.073531545   -3.1347941    1.5250613   449426 
 3444000    1.0410351   -3.1341605   -1.6085707  0.078990381   -3.1341605    1.5255898   449410 
 3445000      1.03924   -3.1309906   -1.6081331  0.082796577   -3.1309906    1.5228575   449440 
 3446000    1.0396175   -3.1325541   -1.6091129  0.081567482   -3.1325541    1.5234412   449431 
 3447000    1.0405347    -3.134045   -1.6092971  0.081017616    -3.134045    1.5247479   449442 
 3448000    1.0421923   -3.1358258   -1.6087236  0.078512226   -3.1358258    1.5271022   449464 
 3449000    1.0397769   -3.1333894   -1.6098096  0.079109787   -3.1333894    1.5235799   449459 
 3450000    1.0410817    -3.133647   -1.6081892  0.078502539    -3.133647    1.5254578   449469 
 3451000    1.0414095   -3.1340361   -1.6080809  0.081085472   -3.1340361    1.5259552   449464 
 3452000    1.0407288   -3.1351232   -1.6103352  0.073445578   -3.1351232     1.524788   449514 
 3453000     1.042228   -3.1341687   -1.6072283  0.078704905   -3.1341687    1.5269404   449527 
 3454000     1.041219   -3.1329793     -1.60768  0.079310196   -3.1329793    1.5252993   449575 
 3455000    1.0399235   -3.1323839   -1.6090231  0.080731302   -3.1323839    1.5233609   449587 
 3456000     1.042569   -3.1353614   -1.6081762  0.078152416   -3.1353614    1.5271853   449602 
 3457000    1.0422175   -3.1355362   -1.6089406  0.074413285   -3.1355362    1.5265956   449624 
 3458000    1.0422576   -3.1368449   -1.6102517  0.074687742   -3.1368449    1.5265933   449642 
 3459000    1.0415348   -3.1362493   -1.6107656  0.077535697   -3.1362493    1.5254837   449657 
 3460000    1.0394783    -3.132918   -1.6106055  0.077458719    -3.132918    1.5223124   449704 
 3461000    1.0399394    -3.133067   -1.6100352  0.080395525    -3.133067    1.5230318   449691 
 3462000    1.0404589    -3.135515    -1.611841  0.069662088    -3.135515     1.523674   449726 
 3463000    1.0405417   -3.1348803    -1.611163  0.080954418   -3.1348803    1.5237173   449749 
 3464000    1.0397513   -3.1335175   -1.6111606  0.079089528   -3.1335175    1.5223569   449809 
 3465000    1.0397644    -3.133514   -1.6112327  0.074122742    -3.133514    1.5222812   449837 
 3466000    1.0404961   -3.1342052   -1.6108459  0.077695346   -3.1342052    1.5233593   449835 
 3467000     1.039505   -3.1318173   -1.6099091  0.081610626   -3.1318173    1.5219082   449835 
 3468000    1.0417972   -3.1340295    -1.608884  0.073142878   -3.1340295    1.5251455   449870 
 3469000    1.0412739   -3.1341816    -1.609853  0.075426524   -3.1341816    1.5243286   449885 
 3470000    1.0406782   -3.1334231   -1.6100919  0.080576855   -3.1334231    1.5233312   449922 
 3471000    1.0415401   -3.1355273   -1.6110225  0.076623736   -3.1355273    1.5245048   449948 
 3472000    1.0415083   -3.1344174   -1.6099694  0.081042364   -3.1344174    1.5244481   449951 
 3473000    1.0434833   -3.1357403   -1.6084489  0.076384915   -3.1357403    1.5272914   449965 
 3474000    1.0427279   -3.1348339    -1.608716  0.083040444   -3.1348339    1.5261179   449985 
 3475000     1.041465   -3.1340822   -1.6098601  0.080329456   -3.1340822    1.5242221   449999 
 3476000    1.0425712   -3.1345086   -1.6087387  0.078059759   -3.1345086      1.52577   450020 
 3477000    1.0437299   -3.1366021   -1.6092145  0.078771557   -3.1366021    1.5273876   450043 
 3478000    1.0415584   -3.1339202   -1.6096833  0.074840253   -3.1339202    1.5242369   450035 
 3479000    1.0398056   -3.1330037   -1.6114164  0.077248038   -3.1330037    1.5215873   450060 
 3480000    1.0399183   -3.1331597   -1.6115428  0.079473698   -3.1331597    1.5216169   450100 
 3481000    1.0404638   -3.1350972   -1.6128409  0.070791764   -3.1350972    1.5222563   450147 
 3482000    1.0409564   -3.1355949   -1.6127398  0.070728224   -3.1355949     1.522855   450183 
 3483000    1.0414477   -3.1366579   -1.6131856  0.078392649   -3.1366579    1.5234723   450213 
 3484000    1.0411969    -3.135674   -1.6127444  0.076902243    -3.135674    1.5229296   450265 
 3485000     1.042616   -3.1366319   -1.6117757  0.077476951   -3.1366319    1.5248561   450309 
 3486000    1.0415348   -3.1355466   -1.6121499  0.080506085   -3.1355466    1.5233967   450273 
 3487000    1.0414106   -3.1342983   -1.6112456  0.080759403   -3.1342983    1.5230527   450321 
 3488000    1.0403775   -3.1338182   -1.6121109  0.076228389   -3.1338182    1.5217073   450272 
 3489000    1.0412343   -3.1344314   -1.6115926  0.078107172   -3.1344314    1.5228388   450308 
 3490000    1.0410171    -3.134421   -1.6119844  0.076560241    -3.134421    1.5224366   450333 
 3491000     1.042726   -3.1368651   -1.6119597  0.080268547   -3.1368651    1.5249054   450342 
 3492000    1.0421964   -3.1354437   -1.6114144  0.079034045   -3.1354437    1.5240294   450372 
 3493000    1.0420061   -3.1356737   -1.6119024  0.079791988   -3.1356737    1.5237713   450366 
 3494000    1.0425667   -3.1368579   -1.6123209  0.071731349   -3.1368579     1.524537   450382 
 3495000    1.0411739   -3.1343822   -1.6119935  0.077928902   -3.1343822    1.5223887   450415 
 3496000    1.0432383   -3.1372849   -1.6118979  0.076712488   -3.1372849     1.525387   450421 
 3497000    1.0439223   -3.1378225   -1.6115743  0.078303564   -3.1378225    1.5262481   450462 
 3498000    1.0431607   -3.1355394   -1.6104793  0.081310798   -3.1355394    1.5250601   450484 
 3499000    1.0443567    -3.136924   -1.6100882  0.077892103    -3.136924    1.5268358   450476 
 3500000    1.0438247   -3.1364842   -1.6105617  0.078333034   -3.1364842    1.5259225   450516 
 3501000    1.0426069   -3.1355132   -1.6113642   0.07608518   -3.1355132     1.524149   450514 
 3502000    1.0435883   -3.1362802   -1.6107981  0.081092111   -3.1362802    1.5254821   450544 
 3503000    1.0437115   -3.1370008   -1.6114671  0.077276969   -3.1370008    1.5255336   450582 
 3504000    1.0424121   -3.1347517   -1.6112392  0.083176491   -3.1347517    1.5235125   450618 
 3505000    1.0431526   -3.1342647   -1.6097646   0.07688194   -3.1342647    1.5245001   450646 
 3506000     1.042822    -3.135247   -1.6112571  0.078646987    -3.135247    1.5239899   450654 
 3507000    1.0424495   -3.1346548   -1.6112228  0.080805142   -3.1346548     1.523432   450658 
 3508000    1.0416604   -3.1348264    -1.612605  0.077499805   -3.1348264    1.5222214   450675 
 3509000    1.0423834    -3.135749   -1.6124237  0.080677455    -3.135749    1.5233253   450661 
 3510000    1.0421239   -3.1365754   -1.6136767  0.078437893   -3.1365754    1.5228987   450675 
 3511000    1.0415353   -3.1351742   -1.6132268  0.073605678   -3.1351742    1.5219473   450702 
 3512000    1.0417682   -3.1345042   -1.6123008  0.075630673   -3.1345042    1.5222033   450727 
 3513000    1.0419877    -3.135728   -1.6132208   0.08045324    -3.135728    1.5225072   450732 
 3514000    1.0423628   -3.1360696   -1.6131158  0.079512905   -3.1360696    1.5229538   450762 
 3515000    1.0430455   -3.1357376   -1.6118133  0.073677173   -3.1357376    1.5239243   450770 
 3516000     1.042579   -3.1346429   -1.6113732  0.078551822   -3.1346429    1.5232697   450762 
 3517000    1.0428015   -3.1332471   -1.6097503  0.078264736   -3.1332471    1.5234968   450791 
 3518000    1.0445259   -3.1367831    -1.610855  0.075959502   -3.1367831    1.5259281   450817 
 3519000    1.0434901   -3.1361741   -1.6118201  0.081130766   -3.1361741     1.524354   450835 
 3520000    1.0443086   -3.1371448   -1.6117271  0.076573124   -3.1371448    1.5254177   450874 
 3521000    1.0437288   -3.1368767   -1.6124174  0.076384439   -3.1368767    1.5244593   450907 
 3522000    1.0431789   -3.1367465   -1.6131073  0.078104245   -3.1367465    1.5236392   450912 
 3523000    1.0422148   -3.1357591   -1.6136598  0.080647136   -3.1357591    1.5220994   450951 
 3524000    1.0434038   -3.1367241   -1.6129287  0.078930058   -3.1367241    1.5237954   450963 
 3525000    1.0434688   -3.1368701   -1.6130103  0.077371275   -3.1368701    1.5238598   450972 
 3526000    1.0417794   -3.1345538   -1.6132051  0.079474411   -3.1345538    1.5213488   450985 
 3527000     1.044839   -3.1380979   -1.6123656  0.079077674   -3.1380979    1.5257323   451010 
 3528000    1.0448412   -3.1370727   -1.6115165  0.072736644   -3.1370727    1.5255562   451063 
 3529000    1.0426059   -3.1344346    -1.612223  0.081573587   -3.1344346    1.5222115   451087 
 3530000    1.0432207   -3.1356891   -1.6126272  0.077613954   -3.1356891    1.5230619   451101 
 3531000    1.0441508   -3.1372981   -1.6128683  0.073588195   -3.1372981    1.5244298   451098 
 3532000    1.0441154   -3.1383205   -1.6140437  0.076097074   -3.1383205    1.5242768   451128 
 3533000    1.0442025   -3.1375951   -1.6133465   0.07744601   -3.1375951    1.5242486   451174 
 3534000    1.0442552   -3.1371594   -1.6128373  0.069242587   -3.1371594    1.5243221   451175 
 3535000    1.0417649   -3.1339883   -1.6133418  0.074571996   -3.1339883    1.5206465   451187 
 3536000    1.0437619   -3.1372756   -1.6137647   0.07666545   -3.1372756    1.5235109   451202 
 3537000    1.0420712   -3.1351975   -1.6141848  0.073698526   -3.1351975    1.5210127   451211 
 3538000     1.043512   -3.1355838   -1.6124952  0.084829677   -3.1355838    1.5230887   451219 
 3539000     1.044679   -3.1368011   -1.6121105  0.077276975   -3.1368011    1.5246906   451249 
 3540000    1.0441078   -3.1366631   -1.6129243  0.079571515   -3.1366631    1.5237388   451284 
 3541000    1.0447699   -3.1380693   -1.6135331  0.077181301   -3.1380693    1.5245362   451334 
 3542000    1.0443921   -3.1367831   -1.6128489  0.075573511   -3.1367831    1.5239342   451349 
 3543000    1.0437503   -3.1347553   -1.6117508  0.079831044   -3.1347553    1.5230045   451347 
 3544000    1.0459535   -3.1376566   -1.6114778  0.079066063   -3.1376566    1.5261788   451359 
 3545000    1.0460528   -3.1368972   -1.6105059  0.084371348   -3.1368972    1.5263913   451339 
 3546000    1.0460518   -3.1368365   -1.6105346  0.082201481   -3.1368365    1.5263019   451365 
 3547000    1.0465612   -3.1374036   -1.6104463  0.081679885   -3.1374036    1.5269573   451391 
 3548000    1.0452188   -3.1358946   -1.6110413  0.076440289   -3.1358946    1.5248533   451434 
 3549000    1.0474588   -3.1367138   -1.6085722  0.083584699   -3.1367138    1.5281416   451428 
 3550000    1.0461807   -3.1356323   -1.6094161  0.083455762   -3.1356323    1.5262162   451446 
 3551000    1.0474976   -3.1372597   -1.6092172  0.079024841   -3.1372597    1.5280425   451474 
 3552000    1.0469176   -3.1362193   -1.6091345  0.083725127   -3.1362193    1.5270848   451507 
 3553000    1.0468572   -3.1354521   -1.6085703  0.087410582   -3.1354521    1.5268818   451541 
 3554000    1.0489431   -3.1378044   -1.6080564  0.084764623   -3.1378044    1.5297479   451593 
 3555000    1.0469608   -3.1357261   -1.6089773  0.077174589   -3.1357261    1.5267488   451625 
 3556000    1.0467141   -3.1360209   -1.6096318   0.08073026   -3.1360209     1.526389   451625 
 3557000    1.0450444   -3.1338612   -1.6099408  0.082250774   -3.1338612    1.5239204   451635 
 3558000    1.0445399   -3.1343869   -1.6114618  0.071853162   -3.1343869    1.5229251   451712 
 3559000    1.0442172   -3.1340549   -1.6116409  0.075160481   -3.1340549    1.5224141   451724 
 3560000    1.0447652    -3.132291    -1.609125  0.079104369    -3.132291     1.523166   451738 
 3561000    1.0448401   -3.1327854   -1.6094767  0.075822386   -3.1327854    1.5233087   451728 
 3562000    1.0443008   -3.1332728   -1.6107032  0.076209978   -3.1332728    1.5225697   451714 
 3563000    1.0447922    -3.134363   -1.6111577  0.075962747    -3.134363    1.5232053   451738 
 3564000    1.0442101   -3.1326978   -1.6103749  0.072708218   -3.1326978    1.5223229   451748 
 3565000     1.045808    -3.134881   -1.6102825  0.076121198    -3.134881    1.5245985   451764 
 3566000    1.0447931   -3.1348021   -1.6119191  0.078391994   -3.1348021     1.522883   451834 
 3567000    1.0440326   -3.1320025   -1.6103292  0.075599883   -3.1320025    1.5216734   451864 
 3568000    1.0455758   -3.1336514   -1.6097962  0.072749431   -3.1336514    1.5238551   451884 
 3569000    1.0460254   -3.1336986   -1.6092017  0.077502469   -3.1336986     1.524497   451888 
 3570000    1.0446791   -3.1335985   -1.6110806  0.074854199   -3.1335985     1.522518   451893 
 3571000    1.0426729    -3.131797   -1.6122701  0.074340054    -3.131797    1.5195269   451913 
 3572000    1.0437896   -3.1340424   -1.6128578  0.071063711   -3.1340424    1.5211846   451904 
 3573000    1.0444864   -3.1361941   -1.6140479  0.073727719   -3.1361941    1.5221462   451920 
 3574000    1.0429902   -3.1341937    -1.614339  0.074870647   -3.1341937    1.5198547   451953 
 3575000    1.0446802   -3.1356027   -1.6132921  0.073920951   -3.1356027    1.5223107   451955 
 3576000    1.0448694   -3.1364501   -1.6138705  0.077214855   -3.1364501    1.5225797   451957 
 3577000    1.0455588   -3.1376228   -1.6142543  0.077975274   -3.1376228    1.5233685   452021 
 3578000     1.046127   -3.1370834   -1.6129713  0.076620561   -3.1370834     1.524112   452046 
 3579000     1.045647   -3.1371361   -1.6137132  0.080335246   -3.1371361    1.5234229   452043 
 3580000    1.0495426   -3.1422862   -1.6132791  0.078555534   -3.1422862    1.5290071   452070 
 3581000    1.0473354   -3.1402756   -1.6146257  0.079377907   -3.1402756    1.5256499   452112 
 3582000    1.0483198   -3.1424323   -1.6153518   0.07440323   -3.1424323    1.5270806   452113 
 3583000    1.0471181   -3.1407676   -1.6154004  0.082867537   -3.1407676    1.5253671   452102 
 3584000     1.047307   -3.1412894   -1.6158056  0.079861727   -3.1412894    1.5254837   452149 
 3585000    1.0483604   -3.1421562   -1.6151989  0.081200628   -3.1421562    1.5269572   452167 
 3586000    1.0462716    -3.138289   -1.6144853   0.08452062    -3.138289    1.5238037   452200 
 3587000    1.0458766   -3.1397713   -1.6165968  0.077803004   -3.1397713    1.5231745   452216 
 3588000    1.0473382   -3.1426665   -1.6174276  0.075103608   -3.1426665    1.5252389   452235 
 3589000    1.0460172   -3.1419379   -1.6186833  0.078396703   -3.1419379    1.5232546   452253 
 3590000    1.0479983   -3.1442944   -1.6182223  0.075487424   -3.1442944    1.5260721   452273 
 3591000    1.0454965   -3.1407013   -1.6183092  0.075320346   -3.1407013    1.5223921   452284 
 3592000    1.0465335   -3.1407837    -1.617003  0.075333045   -3.1407837    1.5237807   452320 
 3593000    1.0446628   -3.1383151   -1.6173691  0.083537269   -3.1383151     1.520946   452353 
 3594000    1.0492341   -3.1450066   -1.6175031   0.07668362   -3.1450066    1.5275035   452382 
 3595000    1.0495823   -3.1442931   -1.6164314  0.081962062   -3.1442931    1.5278617   452426 
 3596000    1.0461941   -3.1414664   -1.6185873  0.073859166   -3.1414664    1.5228791   452441 
 3597000    1.0469126   -3.1416739   -1.6178836  0.078593463   -3.1416739    1.5237903   452481 
 3598000    1.0456587   -3.1401385    -1.618291  0.081141699   -3.1401385    1.5218476   452516 
 3599000    1.0469843   -3.1402151   -1.6166572  0.074380656   -3.1402151    1.5235579   452581 
 3600000    1.0456748   -3.1394184   -1.6178365  0.077655556   -3.1394184    1.5215819   452602 
 3601000    1.0471722   -3.1403734   -1.6166362  0.079804396   -3.1403734    1.5237372   452609 
 3602000    1.0483444   -3.1405548   -1.6151457  0.074249033   -3.1405548    1.5254091   452619 
 3603000    1.0485018   -3.1412301   -1.6155683  0.075581111   -3.1412301    1.5256617   452612 
 3604000    1.0481486   -3.1401345   -1.6151216  0.083639177   -3.1401345     1.525013   452652 
 3605000     1.049337   -3.1418385   -1.6150762  0.081375802   -3.1418385    1.5267623   452646 
 3606000    1.0482738   -3.1403399   -1.6153267  0.083300858   -3.1403399    1.5250132   452706 
 3607000    1.0499498   -3.1419425   -1.6145348  0.075895621   -3.1419425    1.5274076   452719 
 3608000    1.0504964    -3.143113   -1.6149575  0.074285181    -3.143113    1.5281555   452733 
 3609000    1.0482473   -3.1389453   -1.6140886  0.083374747   -3.1389453    1.5248567   452741 
 3610000    1.0485272   -3.1400375   -1.6148982   0.07480393   -3.1400375    1.5251393   452778 
 3611000     1.047469   -3.1395004   -1.6160518  0.078504101   -3.1395004    1.5234487   452823 
 3612000    1.0465446   -3.1378687    -1.615862  0.075273395   -3.1378687    1.5220068   452852 
 3613000    1.0477872   -3.1400377   -1.6162675  0.079044686   -3.1400377    1.5237702   452865 
 3614000    1.0475445   -3.1406356   -1.6171847  0.077503005   -3.1406356    1.5234509   452855 
 3615000    1.0459279   -3.1379467   -1.6170114   0.07867598   -3.1379467    1.5209353   452904 
 3616000    1.0476905   -3.1404179   -1.6169432  0.074821469   -3.1404179    1.5234747   452911 
 3617000    1.0458662   -3.1378695   -1.6171617   0.07431393   -3.1378695    1.5207078   452945 
 3618000    1.0477829   -3.1393573   -1.6158222  0.079640999   -3.1393573    1.5235351   452933 
 3619000    1.0487027   -3.1411568   -1.6163112  0.077508877   -3.1411568    1.5248456   452941 
 3620000    1.0478232   -3.1385591   -1.6150966  0.079392142   -3.1385591    1.5234625   452972 
 3621000    1.0484518   -3.1397917   -1.6155162  0.080464024   -3.1397917    1.5242755   453002 
 3622000     1.048737    -3.140122   -1.6155261  0.077564069    -3.140122    1.5245959   453030 
 3623000    1.0484805   -3.1390793   -1.6148899  0.079284761   -3.1390793    1.5241894   453040 
 3624000    1.0496736   -3.1402216   -1.6144089  0.083101719   -3.1402216    1.5258126   453073 
 3625000    1.0490318   -3.1400108   -1.6153564   0.07784695   -3.1400108    1.5246544   453140 
 3626000    1.0492373   -3.1401189    -1.615203  0.074935766   -3.1401189    1.5249159   453151 
 3627000    1.0479654   -3.1392338   -1.6162335  0.080217995   -3.1392338    1.5230002   453171 
 3628000    1.0499458   -3.1426649   -1.6168607    0.0731666   -3.1426649    1.5258042   453193 
 3629000    1.0492649   -3.1408663   -1.6162567    0.0701314   -3.1408663    1.5246096   453254 
 3630000     1.047944   -3.1390077   -1.6164015  0.078837172   -3.1390077    1.5226063   453279 
 3631000     1.050235   -3.1414678     -1.61559  0.077962717   -3.1414678    1.5258777   453296 
 3632000    1.0507529   -3.1427413   -1.6162188  0.081650485   -3.1427413    1.5265225   453328 
 3633000    1.0496558   -3.1409387   -1.6159529  0.081672687   -3.1409387    1.5249858   453311 
 3634000    1.0493745   -3.1416151   -1.6171255  0.082576935   -3.1416151    1.5244896   453337 
 3635000    1.0491169   -3.1414343   -1.6173526  0.079707188   -3.1414343    1.5240817   453347 
 3636000    1.0477948   -3.1402248   -1.6182786  0.073527062   -3.1402248    1.5219462   453411 
 3637000    1.0500251   -3.1425649   -1.6173926  0.078882116   -3.1425649    1.5251723   453415 
 3638000    1.0474113   -3.1400541   -1.6187655  0.075699617   -3.1400541    1.5212885   453441 
 3639000    1.0483597   -3.1408477   -1.6182657  0.073007537   -3.1408477    1.5225821   453466 
 3640000    1.0499545   -3.1412381   -1.6164104  0.083377011   -3.1412381    1.5248277   453487 
 3641000    1.0497598   -3.1412215   -1.6167068  0.076136783   -3.1412215    1.5245147   453496 
 3642000    1.0504366   -3.1415963   -1.6160685  0.077512587   -3.1415963    1.5255278   453487 
 3643000    1.0502916   -3.1409301   -1.6156498  0.078131789   -3.1409301    1.5252803   453498 
 3644000    1.0499082   -3.1402874   -1.6156548  0.080665942   -3.1402874    1.5246326   453525 
 3645000     1.051766   -3.1426589   -1.6154395  0.078323687   -3.1426589    1.5272194   453558 
 3646000    1.0521135   -3.1431274   -1.6154506   0.07664333   -3.1431274    1.5276768   453572 
 3647000    1.0504758   -3.1412001   -1.6159853  0.081346017   -3.1412001    1.5252148   453597 
 3648000     1.051146   -3.1414742   -1.6154142  0.081168667   -3.1414742      1.52606   453635 
 3649000    1.0502056   -3.1406591   -1.6161089   0.07794595   -3.1406591    1.5245502   453678 
 3650000    1.0506115   -3.1404871   -1.6154215  0.078799755   -3.1404871    1.5250655   453700 
 3651000     1.050535   -3.1408926   -1.6160154  0.074982132   -3.1408926    1.5248772   453723 
 3652000    1.0502763   -3.1396079   -1.6151028  0.076421986   -3.1396079    1.5245051   453722 
 3653000     1.049615    -3.138325   -1.6149074  0.077832171    -3.138325    1.5234176   453760 
 3654000    1.0494684   -3.1390629    -1.615989  0.073314503   -3.1390629    1.5230739   453799 
 3655000    1.0487285   -3.1386134   -1.6167409  0.077004375   -3.1386134    1.5218726   453837 
 3656000    1.0491638   -3.1389327   -1.6164619  0.076357542   -3.1389327    1.5224708   453847 
 3657000    1.0469658   -3.1372904   -1.6180862  0.072457872   -3.1372904    1.5192042   453870 
 3658000    1.0474307   -3.1373625   -1.6176211  0.077313523   -3.1373625    1.5197414   453911 
 3659000    1.0477755   -3.1365157   -1.6163275  0.073014828   -3.1365157    1.5201881   453927 
 3660000    1.0489317   -3.1392969   -1.6175183  0.077236135   -3.1392969    1.5217786   453953 
 3661000    1.0490693   -3.1387331   -1.6169057  0.072920106   -3.1387331    1.5218273   453998 
 3662000     1.048775   -3.1372574   -1.6160547  0.079368629   -3.1372574    1.5212027   454057 
 3663000    1.0487267   -3.1373858   -1.6163403  0.077010717   -3.1373858    1.5210455   454083 
 3664000    1.0499909   -3.1398386   -1.6170031  0.077732761   -3.1398386    1.5228355   454096 
 3665000    1.0495388   -3.1388168   -1.6167409   0.08022278   -3.1388168    1.5220758   454127 
 3666000    1.0494577   -3.1377433   -1.6159626  0.073979232   -3.1377433    1.5217806   454180 
 3667000    1.0500804   -3.1391613   -1.6164978  0.081181459   -3.1391613    1.5226635   454186 
 3668000    1.0505306   -3.1399685   -1.6168132  0.079892882   -3.1399685    1.5231553   454234 
 3669000     1.051762   -3.1394626   -1.6147736  0.081801136   -3.1394626    1.5246891   454309 
 3670000    1.0521018   -3.1408127   -1.6156647  0.078993921   -3.1408127     1.525148   454319 
 3671000     1.052772   -3.1398859   -1.6139007  0.076646378   -3.1398859    1.5259851   454359 
 3672000    1.0516307   -3.1380754    -1.613872   0.08124923   -3.1380754    1.5242035   454397 
 3673000    1.0533171   -3.1422128   -1.6155753  0.078455146   -3.1422128    1.5266376   454400 
 3674000    1.0536006   -3.1408411   -1.6137523    0.0816476   -3.1408411    1.5270888   454388 
 3675000    1.0531177   -3.1416271   -1.6151812  0.078050626   -3.1416271    1.5264459   454371 
 3676000    1.0517959   -3.1400399   -1.6155635   0.08112264   -3.1400399    1.5244764   454387 
 3677000    1.0518175   -3.1400737   -1.6156734  0.079477057   -3.1400737    1.5244003   454419 
 3678000    1.0520683   -3.1405198   -1.6157492  0.074832428   -3.1405198    1.5247705   454417 
 3679000    1.0517809   -3.1389371   -1.6147709  0.083112042   -3.1389371    1.5241662   454473 
 3680000    1.0526943    -3.139927    -1.614501  0.081908272    -3.139927     1.525426   454492 
 3681000     1.054409   -3.1418819   -1.6140014  0.084372254   -3.1418819    1.5278805   454501 
 3682000    1.0528085    -3.141007   -1.6156135  0.072631239    -3.141007    1.5253935   454551 
 3683000    1.0520564   -3.1409026   -1.6166725  0.078651379   -3.1409026      1.52423   454573 
 3684000     1.051874   -3.1404049   -1.6165632  0.078350253   -3.1404049    1.5238417   454610 
 3685000    1.0536736   -3.1415526   -1.6152649   0.07986262   -3.1415526    1.5262877   454658 
 3686000    1.0528028   -3.1398322   -1.6148462  0.082504473   -3.1398322     1.524986   454670 
 3687000    1.0513251   -3.1379655   -1.6152372  0.081918389   -3.1379655    1.5227283   454705 
 3688000    1.0512458    -3.137096   -1.6146064  0.078787613    -3.137096    1.5224896   454742 
 3689000     1.053413   -3.1406525   -1.6150275  0.078973976   -3.1406525     1.525625   454743 
 3690000    1.0512302   -3.1379107   -1.6155341  0.077498864   -3.1379107    1.5223766   454769 
 3691000    1.0526414   -3.1397861   -1.6154998   0.08027961   -3.1397861    1.5242863   454809 
 3692000     1.053051   -3.1413591     -1.61652   0.07954585   -3.1413591    1.5248391   454821 
 3693000    1.0520237   -3.1380452   -1.6148108  0.078346682   -3.1380452    1.5232344   454856 
 3694000    1.0527848   -3.1394285   -1.6152194  0.072819793   -3.1394285    1.5242091   454894 
 3695000    1.0555487   -3.1426783   -1.6146021  0.077122619   -3.1426783    1.5280762   454934 
 3696000    1.0519925   -3.1393412   -1.6163696  0.074235862   -3.1393412    1.5229716   454921 
 3697000    1.0534409   -3.1409373   -1.6158991  0.075413878   -3.1409373    1.5250382   454930 
 3698000    1.0530736   -3.1399844   -1.6155013  0.075181157   -3.1399844     1.524483   454937 
 3699000    1.0525293   -3.1391152   -1.6156278  0.078095994   -3.1391152    1.5234874   454999 
 3700000    1.0530379   -3.1399606   -1.6158375  0.071731832   -3.1399606    1.5241231   455029 
 3701000    1.0531217   -3.1392563    -1.615176  0.080769042   -3.1392563    1.5240803   455078 
 3702000    1.0542998   -3.1397024   -1.6140277  0.075282896   -3.1397024    1.5256746   455111 
 3703000    1.0532744   -3.1387717    -1.614688  0.080320788   -3.1387717    1.5240837   455143 
 3704000    1.0540035    -3.139847   -1.6147553  0.079880805    -3.139847    1.5250917   455157 
 3705000     1.055172   -3.1394444   -1.6126251  0.082814727   -3.1394444    1.5268193   455146 
 3706000    1.0536932   -3.1370734   -1.6125145  0.076773638   -3.1370734    1.5245589   455182 
 3707000    1.0558599     -3.13937   -1.6118271  0.076436048     -3.13937    1.5275428   455227 
 3708000    1.0555685   -3.1381548   -1.6111274  0.081641523   -3.1381548    1.5270274   455255 
 3709000    1.0549167   -3.1384345   -1.6123669  0.076649989   -3.1384345    1.5260677   455260 
 3710000     1.054543   -3.1384091   -1.6129355  0.079960806   -3.1384091    1.5254736   455276 
 3711000    1.0532869    -3.137772   -1.6141457  0.076185998    -3.137772    1.5236264   455285 
 3712000    1.0555203   -3.1395061   -1.6127026  0.078374029   -3.1395061    1.5268034   455301 
 3713000    1.0541962   -3.1376509   -1.6128634  0.080623024   -3.1376509    1.5247876   455331 
 3714000    1.0524044   -3.1365906   -1.6143979  0.076821305   -3.1365906    1.5221927   455332 
 3715000    1.0524291   -3.1373848   -1.6152902   0.07755779   -3.1373848    1.5220946   455372 
 3716000    1.0525578   -3.1367171   -1.6145031  0.069417209   -3.1367171     1.522214   455392 
 3717000    1.0534843   -3.1370479   -1.6136546  0.075644979   -3.1370479    1.5233932   455440 
 3718000    1.0531659   -3.1365395   -1.6136635  0.075898302   -3.1365395     1.522876   455457 
 3719000    1.0543332   -3.1381899   -1.6137699  0.074031289   -3.1381899      1.52442   455500 
 3720000    1.0536666   -3.1382516   -1.6148356  0.073115566   -3.1382516     1.523416   455512 
 3721000    1.0531614   -3.1369211    -1.614212  0.071687571   -3.1369211    1.5227091   455505 
 3722000    1.0548348   -3.1388961   -1.6137509  0.077340958   -3.1388961    1.5251452   455500 
 3723000    1.0544308   -3.1413068    -1.616682  0.073059704   -3.1413068    1.5246248   455481 
 3724000    1.0537888   -3.1390498   -1.6154872  0.079003685   -3.1390498    1.5235626   455521 
 3725000    1.0528448   -3.1385204   -1.6163727  0.074842674   -3.1385204    1.5221477   455536 
 3726000    1.0537322   -3.1396676   -1.6162136  0.076680788   -3.1396676     1.523454   455529 
 3727000    1.0548433   -3.1408224   -1.6158993  0.078327943   -3.1408224    1.5249231   455570 
 3728000    1.0535851   -3.1392517    -1.616231  0.080060234   -3.1392517    1.5230206   455595 
 3729000    1.0555611   -3.1427413   -1.6169647  0.080463963   -3.1427413    1.5257766   455625 
 3730000    1.0553878     -3.14139   -1.6160044   0.07764041     -3.14139    1.5253856   455667 
 3731000    1.0547356     -3.14024   -1.6158641  0.078606958     -3.14024    1.5243759   455687 
 3732000     1.056013   -3.1432911   -1.6172397  0.074427727   -3.1432911    1.5260514   455738 
 3733000    1.0572095   -3.1431725   -1.6154625  0.080170648   -3.1431725      1.52771   455759 
 3734000    1.0559209   -3.1415651    -1.615764  0.084023057   -3.1415651    1.5258011   455773 
 3735000    1.0552652    -3.141594   -1.6169244  0.079604385    -3.141594    1.5246697   455828 
 3736000    1.0568957   -3.1436974   -1.6167458  0.075972498   -3.1436974    1.5269516   455850 
 3737000    1.0565632   -3.1443378   -1.6177895  0.079437083   -3.1443378    1.5265484   455827 
 3738000    1.0559638   -3.1445162   -1.6187903  0.077953295   -3.1445162    1.5257259   455814 
 3739000    1.0548918   -3.1423194   -1.6180655  0.079429307   -3.1423194    1.5242539   455791 
 3740000    1.0544738   -3.1414376   -1.6177642  0.084264822   -3.1414376    1.5236733   455784 
 3741000    1.0551443   -3.1422341   -1.6175685  0.084790718   -3.1422341    1.5246656   455777 
 3742000    1.0563447   -3.1426763   -1.6164102  0.082172546   -3.1426763    1.5262661   455817 
 3743000    1.0566585    -3.143835   -1.6173565  0.080380105    -3.143835    1.5264785   455889 
 3744000    1.0557735   -3.1415105   -1.6164745  0.079781136   -3.1415105     1.525036   455938 
 3745000     1.055572   -3.1406274   -1.6159728  0.080086737   -3.1406274    1.5246547   455965 
 3746000     1.055901   -3.1407113    -1.615665  0.083514957   -3.1407113    1.5250463   455990 
 3747000     1.056835    -3.141893   -1.6155949   0.08213142    -3.141893    1.5262981   456019 
 3748000    1.0571138   -3.1426359   -1.6160489   0.07729339   -3.1426359     1.526587   456053 
 3749000     1.056084   -3.1402239   -1.6151507  0.079451674   -3.1402239    1.5250732   456061 
 3750000    1.0544129   -3.1376315   -1.6150985  0.081204115   -3.1376315    1.5225331   456099 
 3751000    1.0540856   -3.1378392   -1.6157821  0.084833473   -3.1378392    1.5220571   456100 
 3752000    1.0570962   -3.1414644   -1.6151539  0.076791432   -3.1414644    1.5263105   456128 
 3753000    1.0570016    -3.140833   -1.6145787  0.076152607    -3.140833    1.5262542   456104 
 3754000    1.0560051   -3.1410117   -1.6162029  0.074608503   -3.1410117    1.5248087   456106 
 3755000    1.0555776   -3.1390936   -1.6150358  0.074250037   -3.1390936    1.5240578   456146 
 3756000    1.0544067   -3.1386228   -1.6164224  0.077142736   -3.1386228    1.5222004   456196 
 3757000    1.0559532   -3.1400578   -1.6156182   0.07441937   -3.1400578    1.5244396   456194 
 3758000    1.0564631   -3.1396611    -1.614462  0.078406733   -3.1396611    1.5251991   456187 
 3759000    1.0559571   -3.1377646   -1.6133794   0.08011383   -3.1377646    1.5243851   456212 
 3760000    1.0562469   -3.1385518   -1.6138419  0.075870442   -3.1385518    1.5247099   456240 
 3761000    1.0552266   -3.1380791   -1.6149489  0.079243927   -3.1380791    1.5231302   456272 
 3762000    1.0577642   -3.1425761   -1.6158399  0.073614036   -3.1425761    1.5267362   456289 
 3763000    1.0586447   -3.1431155    -1.615162  0.080142419   -3.1431155    1.5279535   456305 
 3764000    1.0589474   -3.1429673   -1.6146774  0.078277891   -3.1429673      1.52829   456335 
 3765000    1.0582276   -3.1414955   -1.6142445  0.077967997   -3.1414955     1.527251   456335 
 3766000     1.057931   -3.1392445   -1.6125687  0.082685665   -3.1392445    1.5266758   456379 
 3767000    1.0597793   -3.1424944    -1.613215  0.078870091   -3.1424944    1.5292794   456398 
 3768000    1.0591044   -3.1416807   -1.6134758  0.077804565   -3.1416807     1.528205   456428 
 3769000    1.0575573   -3.1391461   -1.6131332  0.079490537   -3.1391461    1.5260129   456416 
 3770000     1.056883   -3.1397236   -1.6146971  0.084373338   -3.1397236    1.5250265   456420 
 3771000    1.0579454   -3.1431826   -1.6166131  0.081342466   -3.1431826    1.5265695   456417 
 3772000    1.0567453   -3.1414711   -1.6167169   0.07896651   -3.1414711    1.5247542   456442 
 3773000    1.0569822   -3.1418401   -1.6167407  0.076696872   -3.1418401    1.5250994   456441 
 3774000    1.0562462   -3.1402264   -1.6162156  0.083177852   -3.1402264    1.5240108   456449 
 3775000    1.0573438   -3.1423687   -1.6168645  0.080591521   -3.1423687    1.5255042   456476 
 3776000    1.0572822   -3.1427515     -1.61754  0.078258313   -3.1427515    1.5252114   456537 
 3777000    1.0573764   -3.1425477   -1.6172604  0.077442651   -3.1425477    1.5252873   456555 
 3778000    1.0576657    -3.143619   -1.6179712  0.080947037    -3.143619    1.5256478   456572 
 3779000    1.0550381   -3.1395805    -1.617803  0.075886697   -3.1395805    1.5217775   456596 
 3780000    1.0566139   -3.1421382   -1.6182179  0.075919397   -3.1421382    1.5239203   456635 
 3781000    1.0564282   -3.1416794   -1.6180903  0.077898901   -3.1416794     1.523589   456654 
 3782000    1.0563585   -3.1409812   -1.6176094  0.074840116   -3.1409812    1.5233718   456689 
 3783000    1.0557619   -3.1417486   -1.6192472  0.076546813   -3.1417486    1.5225014   456692 
 3784000    1.0559238   -3.1410944   -1.6184728  0.079347093   -3.1410944    1.5226216   456726 
 3785000    1.0587602   -3.1439542   -1.6172928  0.081169817   -3.1439542    1.5266614   456741 
 3786000    1.0570586    -3.142468   -1.6183837   0.07860118    -3.142468    1.5240843   456778 
 3787000    1.0568631   -3.1420486   -1.6183695  0.076414352   -3.1420486    1.5236791   456815 
 3788000    1.0570129   -3.1410859   -1.6173175  0.079788064   -3.1410859    1.5237684   456853 
 3789000    1.0573607   -3.1413418   -1.6170921  0.075311398   -3.1413418    1.5242497   456859 
 3790000    1.0586749   -3.1430055   -1.6168847  0.079932679   -3.1430055    1.5261208   456866 
 3791000    1.0602101   -3.1442248   -1.6159812  0.076169747   -3.1442248    1.5282436   456893 
 3792000    1.0599294   -3.1425233   -1.6147313   0.08260776   -3.1425233    1.5277921   456907 
 3793000    1.0585221   -3.1398339   -1.6141236  0.084870299   -3.1398339    1.5257102   456923 
 3794000    1.0597328   -3.1425334   -1.6151717  0.077237982   -3.1425334    1.5273616   456951 
 3795000    1.0594295   -3.1417713   -1.6149537  0.073843215   -3.1417713    1.5268175   456983 
 3796000    1.0588128   -3.1408707   -1.6151356  0.075894621   -3.1408707    1.5257352   457041 
 3797000    1.0597741   -3.1417547    -1.614661  0.074888157   -3.1417547    1.5270937   457049 
 3798000    1.0582162   -3.1400987   -1.6153334   0.07466933   -3.1400987    1.5247654   457074 
 3799000    1.0580742   -3.1406793   -1.6161085  0.083216348   -3.1406793    1.5245708   457071 
 3800000    1.0585999   -3.1427878   -1.6174863   0.07501152   -3.1427878    1.5253015   457079 
 3801000    1.0590092   -3.1437808   -1.6179229  0.073840214   -3.1437808    1.5258579   457089 
 3802000    1.0588292   -3.1430799   -1.6175782  0.076901424   -3.1430799    1.5255018   457118 
 3803000    1.0584697   -3.1417363   -1.6167859  0.078696945   -3.1417363    1.5249504   457128 
 3804000    1.0569922   -3.1397913   -1.6171026  0.080034275   -3.1397913    1.5226887   457168 
 3805000    1.0588612   -3.1414099   -1.6161023  0.076976197   -3.1414099    1.5253076   457190 
 3806000    1.0587464   -3.1418089   -1.6167167  0.079678693   -3.1418089    1.5250923   457205 
 3807000    1.0597245   -3.1420446   -1.6156469  0.080724886   -3.1420446    1.5263977   457236 
 3808000    1.0584303   -3.1399203     -1.61535  0.083161572   -3.1399203    1.5245703   457225 
 3809000    1.0600903   -3.1432297   -1.6163786   0.07831052   -3.1432297    1.5268511   457258 
 3810000    1.0602497    -3.142406   -1.6154422  0.080680621    -3.142406    1.5269638   457293 
 3811000    1.0603031   -3.1423758   -1.6153251   0.07778435   -3.1423758    1.5270507   457290 
 3812000    1.0594384   -3.1414573   -1.6156053   0.08106577   -3.1414573    1.5258521   457276 
 3813000     1.060846   -3.1433703   -1.6155277  0.084799868   -3.1433703    1.5278426   457287 
 3814000    1.0597863   -3.1429028   -1.6165697  0.082287176   -3.1429028    1.5263331   457282 
 3815000    1.0594834   -3.1432783   -1.6174414  0.080670378   -3.1432783    1.5258369   457300 
 3816000    1.0605965   -3.1458079   -1.6184048  0.075596652   -3.1458079    1.5274031   457311 
 3817000    1.0587849   -3.1429178    -1.618167  0.079021992   -3.1429178    1.5247508   457324 
 3818000    1.0594188    -3.144996   -1.6193524  0.079034025    -3.144996    1.5256436   457330 
 3819000     1.058028   -3.1431325   -1.6195716  0.074291489   -3.1431325    1.5235609   457354 
 3820000    1.0577705   -3.1422733   -1.6189799   0.07679456   -3.1422733    1.5232933   457323 
 3821000    1.0578095   -3.1420575   -1.6187147  0.080613859   -3.1420575    1.5233428   457325 
 3822000    1.0574262   -3.1417065    -1.618999  0.076674957   -3.1417065    1.5227075   457350 
 3823000     1.057875   -3.1425269   -1.6192362  0.082456931   -3.1425269    1.5232907   457369 
 3824000    1.0589613   -3.1423319   -1.6175804  0.082816455   -3.1423319    1.5247515   457400 
 3825000    1.0581673   -3.1413489   -1.6177739  0.081787652   -3.1413489     1.523575   457410 
 3826000    1.0589824   -3.1428963   -1.6182245  0.076444388   -3.1428963    1.5246719   457433 
 3827000    1.0585759   -3.1413549   -1.6173948  0.080792993   -3.1413549    1.5239601   457471 
 3828000    1.0595068   -3.1425802   -1.6171134  0.079953005   -3.1425802    1.5254668   457421 
 3829000     1.059049   -3.1422819   -1.6175242  0.082596426   -3.1422819    1.5247577   457436 
 3830000    1.0569516   -3.1394488   -1.6177774  0.081658174   -3.1394488    1.5216715   457456 
 3831000    1.0597629   -3.1424431   -1.6167809   0.08066611   -3.1424431    1.5256622   457473 
 3832000    1.0587244   -3.1405805   -1.6163833  0.080411776   -3.1405805    1.5241971   457464 
 3833000    1.0592809   -3.1411051   -1.6161702  0.080951742   -3.1411051    1.5249349   457483 
 3834000    1.0594892   -3.1406452   -1.6155237  0.076513467   -3.1406452    1.5251214   457517 
 3835000    1.0601693   -3.1414879   -1.6153207  0.079057805   -3.1414879    1.5261671   457497 
 3836000    1.0601675   -3.1404494   -1.6143449  0.074945877   -3.1404494    1.5261045   457515 
 3837000    1.0596739   -3.1392948   -1.6140808  0.079606684   -3.1392948     1.525214   457569 
 3838000    1.0614106   -3.1428037   -1.6151801  0.074641156   -3.1428037    1.5276236   457596 
 3839000    1.0595518   -3.1399273   -1.6150124  0.078265365   -3.1399273    1.5249149   457606 
 3840000    1.0593412   -3.1398387   -1.6152202  0.079877397   -3.1398387    1.5246184   457604 
 3841000    1.0591732   -3.1394508   -1.6151208  0.078756953   -3.1394508    1.5243301   457618 
 3842000    1.0583848   -3.1390911   -1.6158957  0.077059575   -3.1390911    1.5231954   457618 
 3843000    1.0570871    -3.138995   -1.6176306  0.076432333    -3.138995    1.5213644   457607 
 3844000    1.0584068   -3.1389943   -1.6158172  0.077929134   -3.1389943    1.5231771   457633 
 3845000    1.0597776   -3.1401358   -1.6148159  0.073233525   -3.1401358    1.5253199   457582 
 3846000    1.0580106   -3.1394893   -1.6169755  0.072336748   -3.1394893    1.5225138   457661 
 3847000    1.0591368   -3.1412729   -1.6173381  0.077084085   -3.1412729    1.5239347   457721 
 3848000    1.0583544   -3.1384058   -1.6156467  0.079738044   -3.1384058    1.5227591   457736 
 3849000     1.058317   -3.1395786   -1.6170098  0.073877185   -3.1395786    1.5225688   457777 
 3850000    1.0587145    -3.139483   -1.6164055  0.083480538    -3.139483    1.5230775   457796 
 3851000    1.0605877   -3.1412632   -1.6155909  0.081896096   -3.1412632    1.5256723   457826 
 3852000    1.0593845   -3.1404386   -1.6165338  0.080764039   -3.1404386    1.5239048   457837 
 3853000     1.059431   -3.1407729    -1.616871  0.073286232   -3.1407729    1.5239019   457858 
 3854000    1.0593887   -3.1428517   -1.6188808   0.07746371   -3.1428517    1.5239708   457819 
 3855000    1.0587065   -3.1417377   -1.6190277  0.080007812   -3.1417377    1.5227101   457903 
 3856000    1.0604019   -3.1435212   -1.6184326  0.080859355   -3.1435212    1.5250886   457921 
 3857000    1.0594235   -3.1431391   -1.6195043  0.077328238   -3.1431391    1.5236348   457935 
 3858000    1.0608804   -3.1452445   -1.6197042  0.079457999   -3.1452445    1.5255403   457992 
 3859000    1.0592589   -3.1428407   -1.6196654  0.084900162   -3.1428407    1.5231753   458002 
 3860000    1.0605769    -3.146011   -1.6209204   0.07631273    -3.146011    1.5250905   457996 
 3861000    1.0628101   -3.1489188   -1.6207105  0.077153553   -3.1489188    1.5282083   458024 
 3862000     1.060252    -3.145355   -1.6210179   0.08149089    -3.145355    1.5243371   458082 
 3863000    1.0610752    -3.146424   -1.6209534  0.079780778    -3.146424    1.5254706   458097 
 3864000    1.0624493     -3.14846   -1.6211238  0.072508402     -3.14846    1.5273361   458130 
 3865000     1.063274   -3.1497113   -1.6212797  0.084852023   -3.1497113    1.5284316   458157 
 3866000      1.06271    -3.149562   -1.6219445  0.084087889    -3.149562    1.5276175   458158 
 3867000    1.0621344   -3.1468083   -1.6201448  0.084698422   -3.1468083    1.5266635   458196 
 3868000    1.0627411   -3.1484663   -1.6210141  0.081859786   -3.1484663    1.5274522   458221 
 3869000    1.0622009   -3.1465883   -1.6199425  0.085932126   -3.1465883    1.5266457   458230 
 3870000    1.0619474   -3.1465189   -1.6202908  0.083445421   -3.1465189    1.5262281   458246 
 3871000    1.0629139   -3.1479074   -1.6203169  0.088174557   -3.1479074    1.5275906   458254 
 3872000    1.0635006   -3.1477281   -1.6193577  0.086259671   -3.1477281    1.5283704   458273 
 3873000    1.0631863   -3.1478903   -1.6199184  0.083100113   -3.1478903     1.527972   458257 
 3874000    1.0624796   -3.1469079   -1.6199983  0.081288558   -3.1469079    1.5269096   458271 
 3875000    1.0630793   -3.1478043   -1.6201428  0.081394894   -3.1478043    1.5276615   458304 
 3876000    1.0626513   -3.1487544   -1.6217645  0.083854797   -3.1487544    1.5269899   458321 
 3877000    1.0614527   -3.1460063   -1.6208286  0.081581415   -3.1460063    1.5251777   458348 
 3878000    1.0620382   -3.1459391   -1.6200999  0.076929187   -3.1459391    1.5258392   458402 
 3879000    1.0604988   -3.1431768   -1.6195891  0.080361911   -3.1431768    1.5235877   458414 
 3880000    1.0607007    -3.142729   -1.6189544  0.078604168    -3.142729    1.5237746   458445 
 3881000    1.0611687    -3.144529   -1.6201019   0.08035415    -3.144529    1.5244271   458451 
 3882000    1.0605457   -3.1446085    -1.621113  0.075406395   -3.1446085    1.5234955   458462 
 3883000    1.0595548   -3.1421222    -1.620319  0.074377986   -3.1421222    1.5218032   458543 
 3884000    1.0585751   -3.1425161   -1.6221168  0.077522086   -3.1425161    1.5203994   458542 
 3885000    1.0601015   -3.1427889   -1.6203632  0.072791223   -3.1427889    1.5224257   458592 
 3886000    1.0589788    -3.141759   -1.6209489  0.072558018    -3.141759    1.5208101   458593 
 3887000    1.0594416   -3.1418746   -1.6204696     0.071781   -3.1418746     1.521405   458614 
 3888000    1.0609152   -3.1427873   -1.6193027  0.080245844   -3.1427873    1.5234846   458625 
 3889000    1.0611469   -3.1428087   -1.6189682  0.076902404   -3.1428087    1.5238406   458618 
 3890000    1.0610083   -3.1427105   -1.6191453  0.082554749   -3.1427105    1.5235652   458641 
 3891000    1.0606588   -3.1412265   -1.6182562   0.08310424   -3.1412265    1.5229703   458669 
 3892000    1.0609863   -3.1424107   -1.6189834  0.079267116   -3.1424107    1.5234273   458673 
 3893000    1.0616331   -3.1438011   -1.6195482  0.080036376   -3.1438011     1.524253   458704 
 3894000    1.0621071   -3.1451713   -1.6203241  0.077228706   -3.1451713    1.5248472   458730 
 3895000    1.0628548    -3.145336   -1.6195252   0.08556586    -3.145336    1.5258108   458763 
 3896000    1.0639164   -3.1474651   -1.6201036  0.082717269   -3.1474651    1.5273615   458755 
 3897000    1.0633764   -3.1473479   -1.6208115   0.07800917   -3.1473479    1.5265364   458770 
 3898000    1.0629579   -3.1469791   -1.6210435  0.078126601   -3.1469791    1.5259356   458770 
 3899000    1.0618647   -3.1452739   -1.6208812  0.079357524   -3.1452739    1.5243927   458762 
 3900000    1.0632319   -3.1472915   -1.6208462  0.078299908   -3.1472915    1.5264453   458735 
 3901000    1.0626028   -3.1464865   -1.6211273  0.083633203   -3.1464865    1.5253592   458790 
 3902000    1.0633939   -3.1482616   -1.6218266  0.081580411   -3.1482616     1.526435   458808 
 3903000    1.0635239   -3.1482441   -1.6216558  0.079251362   -3.1482441    1.5265883   458818 
 3904000    1.0628223   -3.1473843   -1.6218164  0.085957262   -3.1473843    1.5255679   458822 
 3905000    1.0615258   -3.1469589   -1.6232354  0.077849763   -3.1469589    1.5237235   458817 
 3906000    1.0632878    -3.149853   -1.6237001  0.077286631    -3.149853    1.5261529   458847 
 3907000    1.0631487   -3.1487123   -1.6227888  0.082306125   -3.1487123    1.5259234   458856 
 3908000    1.0639373   -3.1500312   -1.6230559  0.081171281   -3.1500312    1.5269754   458880 
 3909000    1.0642522   -3.1502079    -1.622784  0.079012091   -3.1502079     1.527424   458881 
 3910000    1.0637973   -3.1506032   -1.6239552  0.081550197   -3.1506032    1.5266481   458918 
 3911000    1.0651946   -3.1513878   -1.6228444  0.082459945   -3.1513878    1.5285434   458951 
 3912000    1.0656896   -3.1522246   -1.6231109  0.080525413   -3.1522246    1.5291137   458993 
 3913000     1.063437   -3.1491111   -1.6233824  0.081475851   -3.1491111    1.5257287   459039 
 3914000    1.0644446   -3.1497811   -1.6226501  0.079729247   -3.1497811     1.527131   459052 
 3915000    1.0650093   -3.1502588   -1.6223708  0.081748396   -3.1502588     1.527888   459068 
 3916000    1.0633562   -3.1484888   -1.6230986  0.080478012   -3.1484888    1.5253901   459106 
 3917000    1.0644006   -3.1504021   -1.6236069  0.080016915   -3.1504021    1.5267952   459134 
 3918000     1.065806   -3.1516186   -1.6229306   0.07700428   -3.1516186     1.528688   459171 
 3919000    1.0631807   -3.1473798   -1.6226102  0.080050556   -3.1473798    1.5247697   459217 
 3920000    1.0636427   -3.1483126   -1.6229767  0.083248367   -3.1483126    1.5253359   459246 
 3921000    1.0634982    -3.147955   -1.6229258   0.08351791    -3.147955    1.5250291   459276 
 3922000    1.0647712   -3.1497152   -1.6228439   0.07811448   -3.1497152    1.5268713   459271 
 3923000    1.0635798   -3.1475624   -1.6223532  0.080903324   -3.1475624    1.5252092   459257 
 3924000    1.0645255    -3.147873    -1.621404  0.076057279    -3.147873     1.526469   459286 
 3925000     1.063947   -3.1470259   -1.6213897  0.077544549   -3.1470259    1.5256362   459287 
 3926000    1.0645948   -3.1479106   -1.6214686  0.083438674   -3.1479106    1.5264421   459324 
 3927000     1.066721   -3.1508419   -1.6214144  0.079471312   -3.1508419    1.5294275   459343 
 3928000    1.0640942   -3.1479021   -1.6224169  0.078737198   -3.1479021    1.5254853   459396 
 3929000    1.0654197   -3.1488092    -1.621457  0.084435702   -3.1488092    1.5273522   459406 
 3930000     1.064275   -3.1485376   -1.6228629  0.081254877   -3.1485376    1.5256747   459417 
 3931000    1.0649484   -3.1481572   -1.6216169  0.076199992   -3.1481572    1.5265403   459447 
 3932000    1.0631565   -3.1466021   -1.6226336  0.077943272   -3.1466021    1.5239685   459448 
 3933000    1.0644609   -3.1468502   -1.6210386  0.080064699   -3.1468502    1.5258117   459456 
 3934000    1.0652091   -3.1477752   -1.6209775  0.075745106   -3.1477752    1.5267977   459482 
 3935000     1.065753   -3.1491816   -1.6217207  0.077244229   -3.1491816     1.527461   459517 
 3936000    1.0630611   -3.1458222   -1.6222492  0.084070618   -3.1458222    1.5235731   459526 
 3937000    1.0653814   -3.1480692    -1.621287   0.08005909   -3.1480692    1.5267822   459561 
 3938000    1.0652641   -3.1488511   -1.6222437  0.081364515   -3.1488511    1.5266074   459563 
 3939000     1.066583   -3.1501162   -1.6216353  0.078482949   -3.1501162    1.5284809   459568 
 3940000    1.0628632   -3.1461985   -1.6229422  0.077357719   -3.1461985    1.5232563   459536 
 3941000    1.0652704   -3.1501118   -1.6234455  0.074539617   -3.1501118    1.5266663   459548 
 3942000    1.0652822   -3.1509613   -1.6243878  0.076409229   -3.1509613    1.5265735   459581 
 3943000    1.0656667   -3.1491943   -1.6220731  0.081139772   -3.1491943    1.5271213   459582 
 3944000    1.0651403   -3.1485731   -1.6222394  0.078669738   -3.1485731    1.5263337   459592 
 3945000    1.0661155   -3.1488053   -1.6212537  0.081689753   -3.1488053    1.5275516   459646 
 3946000    1.0657708    -3.148907   -1.6219023  0.077680983    -3.148907    1.5270046   459662 
 3947000    1.0665921   -3.1493937   -1.6212955  0.080978478   -3.1493937    1.5280982   459687 
 3948000    1.0658376   -3.1484116   -1.6214674  0.078184222   -3.1484116    1.5269442   459709 
 3949000    1.0662235   -3.1485031   -1.6211556  0.081176556   -3.1485031    1.5273475   459754 
 3950000    1.0665764   -3.1498528   -1.6219599  0.083517757   -3.1498528    1.5278929   459742 
 3951000    1.0671022   -3.1499024   -1.6213293  0.082507297   -3.1499024    1.5285731   459764 
 3952000    1.0661594   -3.1487412    -1.621625  0.081405288   -3.1487412    1.5271161   459796 
 3953000    1.0662957   -3.1493709    -1.622106   0.08201972   -3.1493709    1.5272649   459810 
 3954000    1.0662559   -3.1481081   -1.6210796  0.084263564   -3.1481081    1.5270285   459864 
 3955000    1.0657213   -3.1482361   -1.6220726  0.079628387   -3.1482361    1.5261635   459894 
 3956000    1.0661655   -3.1479654   -1.6211161   0.08073429   -3.1479654    1.5268493   459879 
 3957000    1.0658019   -3.1486462    -1.622311  0.080220961   -3.1486462    1.5263352   459877 
 3958000    1.0658861   -3.1476773   -1.6211982  0.084467565   -3.1476773    1.5264791   459870 
 3959000    1.0665203   -3.1485137   -1.6211829  0.076377712   -3.1485137    1.5273308   459887 
 3960000    1.0667607   -3.1497352   -1.6220967  0.080820703   -3.1497352    1.5276385   459898 
 3961000    1.0671086   -3.1501605   -1.6219871  0.076959384   -3.1501605    1.5281734   459887 
 3962000    1.0661406   -3.1499514   -1.6232771  0.077047904   -3.1499514    1.5266743   459921 
 3963000    1.0661753   -3.1488692   -1.6222548   0.08372962   -3.1488692    1.5266144   459954 
 3964000    1.0659399   -3.1483531   -1.6221322  0.083910079   -3.1483531    1.5262209   459971 
 3965000    1.0654222   -3.1480511   -1.6226543  0.081349303   -3.1480511    1.5253968   459996 
 3966000    1.0676379   -3.1506738   -1.6222643  0.078623371   -3.1506738    1.5284095   460044 
 3967000    1.0667508   -3.1503041   -1.6231878  0.080365378   -3.1503041    1.5271163   460051 
 3968000     1.066812   -3.1508039   -1.6237891   0.07951613   -3.1508039    1.5270148   460108 
 3969000    1.0660024   -3.1496693   -1.6237603  0.076960604   -3.1496693     1.525909   460092 
 3970000    1.0645042   -3.1470871   -1.6234386  0.079533297   -3.1470871    1.5236485   460127 
 3971000    1.0649246   -3.1495307   -1.6253766   0.08017903   -3.1495307    1.5241541   460156 
 3972000      1.06455   -3.1502342   -1.6266196  0.080463832   -3.1502342    1.5236147   460157 
 3973000    1.0653805   -3.1516259   -1.6268788   0.08063007   -3.1516259    1.5247471   460174 
 3974000    1.0657788   -3.1513642   -1.6260637  0.076798698   -3.1513642    1.5253005   460179 
 3975000     1.065393   -3.1507318   -1.6259901  0.076461417   -3.1507318    1.5247417   460181 
 3976000    1.0668332   -3.1527211   -1.6259978  0.083193913   -3.1527211    1.5267233   460205 
 3977000    1.0668611   -3.1524818   -1.6258779  0.084860866   -3.1524818    1.5266039   460253 
 3978000    1.0656942   -3.1523001   -1.6273924  0.079314584   -3.1523001    1.5249077   460261 
 3979000    1.0674315   -3.1536671   -1.6263133  0.082283206   -3.1536671    1.5273538   460273 
 3980000    1.0662146    -3.152568    -1.627078  0.078492563    -3.152568      1.52549   460310 
 3981000    1.0672351   -3.1541454   -1.6271489  0.083072718   -3.1541454    1.5269965   460296 
 3982000    1.0678165   -3.1546739   -1.6268888  0.084872209   -3.1546739    1.5277851   460309 
 3983000    1.0673374   -3.1538366   -1.6268298  0.080596003   -3.1538366    1.5270068   460337 
 3984000    1.0679696   -3.1529259   -1.6250544  0.086588058   -3.1529259    1.5278714   460349 
 3985000    1.0686248   -3.1547706    -1.626078  0.085274816   -3.1547706    1.5286926   460384 
 3986000    1.0676055   -3.1540529   -1.6269445  0.077687099   -3.1540529    1.5271084   460422 
 3987000    1.0678752   -3.1540902    -1.626669  0.080189418   -3.1540902    1.5274212   460444 
 3988000     1.068342   -3.1554231   -1.6273707  0.078755994   -3.1554231    1.5280524   460455 
 3989000    1.0684393   -3.1540077    -1.625773  0.081972696   -3.1540077    1.5282346   460442 
 3990000    1.0664711   -3.1523095   -1.6269595  0.083264086   -3.1523095      1.52535   460463 
 3991000    1.0669971   -3.1533799   -1.6274665  0.080244186   -3.1533799    1.5259134   460520 
 3992000    1.0677517   -3.1546545   -1.6275991  0.077767183   -3.1546545    1.5270555   460501 
 3993000    1.0666819   -3.1518011   -1.6263551  0.082837764   -3.1518011     1.525446   460525 
 3994000    1.0670868   -3.1534192   -1.6275995  0.081733551   -3.1534192    1.5258197   460587 
 3995000    1.0670182    -3.152454    -1.626739  0.079992808    -3.152454     1.525715   460589 
 3996000    1.0672677   -3.1523743   -1.6264219  0.075688967   -3.1523743    1.5259524   460625 
 3997000     1.066441   -3.1515618    -1.626851  0.081026806   -3.1515618    1.5247108   460643 
 3998000    1.0668433   -3.1510614   -1.6259342  0.072129215   -3.1510614    1.5251271   460691 
 3999000    1.0672887   -3.1509457   -1.6252515  0.077064188   -3.1509457    1.5256942   460712 
 4000000    1.0665726   -3.1505916   -1.6259541  0.075071082   -3.1505916    1.5246375   460722 
 4001000    1.0668868   -3.1518293   -1.6267757  0.076393378   -3.1518293    1.5250536   460732 
 4002000    1.0664804   -3.1501715   -1.6256824   0.07964056   -3.1501715    1.5244892   460727 
 4003000    1.0663386    -3.148468   -1.6241485  0.076359026    -3.148468    1.5243195   460717 
 4004000     1.067689   -3.1510727   -1.6249321  0.077582042   -3.1510727    1.5261406   460750 
 4005000    1.0667608    -3.150885   -1.6260943   0.07837135    -3.150885    1.5247907   460757 
 4006000    1.0673838    -3.151568   -1.6258603  0.078689253    -3.151568    1.5257077   460749 
 4007000    1.0664264   -3.1483635   -1.6240806  0.076981711   -3.1483635    1.5242829   460766 
 4008000    1.0678632    -3.149718   -1.6233912  0.074860279    -3.149718    1.5263267   460769 
 4009000    1.0680852    -3.148911   -1.6223896  0.079233324    -3.148911    1.5265214   460806 
 4010000    1.0674197   -3.1492171   -1.6236898  0.076139067   -3.1492171    1.5255273   460819 
 4011000    1.0678325    -3.150144   -1.6240433  0.086459908    -3.150144    1.5261007   460824 
 4012000     1.066656   -3.1479311   -1.6235383  0.083018943   -3.1479311    1.5243928   460832 
 4013000    1.0688258    -3.150924   -1.6235199  0.081203545    -3.150924    1.5274042   460859 
 4014000     1.068849   -3.1502488   -1.6228843  0.081666242   -3.1502488    1.5273645   460881 
 4015000    1.0712637   -3.1523164   -1.6215379  0.075905672   -3.1523164    1.5307785   460892 
 4016000     1.069513    -3.149706   -1.6214557  0.079872421    -3.149706    1.5282503   460900 
 4017000    1.0691381   -3.1484941   -1.6210248   0.08265984   -3.1484941    1.5274693   460974 
 4018000    1.0704587   -3.1503501   -1.6210736  0.082282231   -3.1503501    1.5292765   460998 
 4019000    1.0684766   -3.1490704   -1.6226952  0.081525212   -3.1490704    1.5263752   461019 
 4020000    1.0692787   -3.1505263   -1.6231079  0.077216419   -3.1505263    1.5274184   461050 
 4021000     1.069207    -3.150528   -1.6232717  0.082001502    -3.150528    1.5272563   461068 
 4022000     1.070144   -3.1520729   -1.6235046  0.081190425   -3.1520729    1.5285683   461076 
 4023000    1.0684571   -3.1506789   -1.6246128  0.079353161   -3.1506789     1.526066   461104 
 4024000    1.0696023   -3.1523866   -1.6246617  0.076864244   -3.1523866    1.5277249   461097 
 4025000    1.0681373   -3.1510054   -1.6254888  0.077974339   -3.1510054    1.5255167   461132 
 4026000    1.0696125   -3.1530265   -1.6254726  0.074929942   -3.1530265    1.5275539   461153 
 4027000    1.0678546   -3.1498333   -1.6249851  0.077935648   -3.1498333    1.5248483   461212 
 4028000    1.0678091   -3.1498634   -1.6250767  0.079705346   -3.1498634    1.5247867   461211 
 4029000    1.0685473   -3.1508919   -1.6249981  0.077953924   -3.1508919    1.5258938   461195 
 4030000    1.0700661   -3.1523744    -1.624441  0.077565451   -3.1523744    1.5279334   461234 
 4031000    1.0692078   -3.1508981   -1.6243922  0.081324014   -3.1508981    1.5265059   461295 
 4032000    1.0678714   -3.1496432   -1.6251477  0.081156835   -3.1496432    1.5244955   461326 
 4033000    1.0704785   -3.1530443   -1.6249727  0.083126379   -3.1530443    1.5280716   461370 
 4034000    1.0698724   -3.1527721   -1.6256252  0.075505515   -3.1527721    1.5271469   461388 
 4035000    1.0695355   -3.1525839    -1.625908  0.087983618   -3.1525839     1.526676   461385 
 4036000    1.0695164   -3.1515158   -1.6249134  0.085924058   -3.1515158    1.5266023   461399 
 4037000    1.0695311   -3.1517213   -1.6251674  0.082040018   -3.1517213    1.5265539   461420 
 4038000    1.0699748   -3.1524963   -1.6253819   0.08354477   -3.1524963    1.5271144   461442 
 4039000    1.0686807   -3.1509078   -1.6256802  0.079044032   -3.1509078    1.5252277   461454 
 4040000    1.0693898   -3.1520421   -1.6258487  0.085645121   -3.1520421    1.5261934   461468 
 4041000    1.0695635    -3.152275   -1.6259527  0.080637279    -3.152275    1.5263223   461504 
 4042000    1.0707599   -3.1541634   -1.6261106  0.084394572   -3.1541634    1.5280528   461497 
 4043000    1.0701645   -3.1527444    -1.625677   0.07889554   -3.1527444    1.5270674   461538 
 4044000    1.0717663   -3.1556525   -1.6263755  0.077397663   -3.1556525    1.5292769   461561 
 4045000    1.0696243   -3.1534464   -1.6273019  0.078702327   -3.1534464    1.5261444   461584 
 4046000    1.0694205   -3.1533106   -1.6274073    0.0784227   -3.1533106    1.5259033   461569 
 4047000    1.0697298   -3.1535182   -1.6272165  0.083979329   -3.1535182    1.5263016   461582 
 4048000    1.0701781   -3.1542509   -1.6273593  0.085667657   -3.1542509    1.5268916   461597 
 4049000    1.0693248   -3.1534192   -1.6276954  0.078025452   -3.1534192    1.5257238   461582 
 4050000    1.0691401   -3.1541199    -1.628544   0.07885364   -3.1541199    1.5255759   461547 
 4051000    1.0697009   -3.1549736   -1.6286008  0.079531034   -3.1549736    1.5263728   461548 
 4052000    1.0677835    -3.152922   -1.6293875  0.078278934    -3.152922    1.5235345   461579 
 4053000    1.0684995    -3.153186   -1.6286333  0.078652975    -3.153186    1.5245528   461580 
 4054000    1.0691055   -3.1543568   -1.6290682  0.078924728   -3.1543568    1.5252886   461619 
 4055000    1.0706028   -3.1564374   -1.6291879  0.074834176   -3.1564374    1.5272495   461672 
 4056000    1.0681003   -3.1528482   -1.6292709  0.078742723   -3.1528482    1.5235773   461703 
 4057000     1.068623   -3.1539403   -1.6295647  0.079751035   -3.1539403    1.5243756   461687 
 4058000     1.069143   -3.1545301   -1.6295844  0.077330318   -3.1545301    1.5249457   461739 
 4059000     1.068575   -3.1543742   -1.6302485  0.077909594   -3.1543742    1.5241257   461742 
 4060000    1.0689413   -3.1548092   -1.6303394  0.080517237   -3.1548092    1.5244698   461796 
 4061000    1.0676281   -3.1518066   -1.6292096  0.078507433   -3.1518066    1.5225969   461796 
 4062000    1.0696804   -3.1545233   -1.6290325   0.08007191   -3.1545233    1.5254909   461806 
 4063000    1.0699352   -3.1536879   -1.6279427  0.083242369   -3.1536879    1.5257452   461839 
 4064000    1.0700417   -3.1538272   -1.6279301  0.078011264   -3.1538272     1.525897   461839 
 4065000    1.0718386   -3.1561999   -1.6277967  0.080375919   -3.1561999    1.5284032   461856 
 4066000    1.0701413   -3.1534338   -1.6275302   0.08044601   -3.1534338    1.5259036   461880 
 4067000    1.0699648   -3.1532772   -1.6277012  0.078583058   -3.1532772    1.5255759   461903 
 4068000    1.0699293   -3.1536784   -1.6283148  0.079799187   -3.1536784    1.5253636   461952 
 4069000    1.0718639   -3.1559896   -1.6279572  0.077211207   -3.1559896    1.5280324   461979 
 4070000     1.070844   -3.1534993   -1.6269969  0.076058084   -3.1534993    1.5265024   462002 
 4071000    1.0695198   -3.1524092   -1.6277318  0.078968933   -3.1524092    1.5246774   461983 
 4072000    1.0694561   -3.1523081   -1.6277315  0.078437594   -3.1523081    1.5245766   461986 
 4073000    1.0686757   -3.1518081   -1.6283506  0.083198045   -3.1518081    1.5234575   461988 
 4074000    1.0713536   -3.1550485   -1.6278462  0.076479903   -3.1550485    1.5272024   462010 
 4075000    1.0698798   -3.1524343   -1.6274582  0.077911394   -3.1524343    1.5249761   462048 
 4076000    1.0694641   -3.1521732   -1.6279908  0.077551583   -3.1521732    1.5241823   462109 
 4077000    1.0709123   -3.1543198   -1.6281132  0.074641217   -3.1543198    1.5262066   462121 
 4078000    1.0694056   -3.1516877   -1.6276548  0.081368605   -3.1516877    1.5240329   462129 
 4079000    1.0682743    -3.149394   -1.6270524   0.08033641    -3.149394    1.5223416   462153 
 4080000    1.0704146   -3.1511516   -1.6258161  0.081840121   -3.1511516    1.5253356   462170 
 4081000    1.0707599   -3.1522868   -1.6263799  0.076830398   -3.1522868    1.5259068   462146 
 4082000    1.0735838   -3.1555425    -1.625512  0.076683162   -3.1555425    1.5300304   462116 
 4083000    1.0716594   -3.1531048   -1.6258565   0.08144999   -3.1531048    1.5272483   462128 
 4084000    1.0712017    -3.152118   -1.6256145  0.081490634    -3.152118    1.5265035   462156 
 4085000    1.0725739   -3.1540532   -1.6256108  0.080185692   -3.1540532    1.5284424   462161 
 4086000    1.0713335   -3.1536849   -1.6270002  0.078669721   -3.1536849    1.5266847   462158 
 4087000     1.072216   -3.1541745   -1.6262587  0.078454232   -3.1541745    1.5279158   462166 
 4088000    1.0729192   -3.1552941   -1.6264589  0.084419996   -3.1552941    1.5288352   462191 
 4089000     1.072141   -3.1548269   -1.6270841  0.075863485   -3.1548269    1.5277429   462186 
 4090000    1.0713174   -3.1542959   -1.6278257   0.07846467   -3.1542959    1.5264702   462216 
 4091000    1.0720385   -3.1549498   -1.6275546  0.084507951   -3.1549498    1.5273952   462247 
 4092000      1.07165   -3.1545606    -1.627828  0.079935319   -3.1545606    1.5267326   462280 
 4093000    1.0715006   -3.1545935   -1.6282256  0.076115427   -3.1545935    1.5263679   462326 
 4094000    1.0709846   -3.1540972   -1.6285732  0.077907642   -3.1540972     1.525524   462359 
 4095000    1.0720283   -3.1550337   -1.6280528  0.075323211   -3.1550337    1.5269809   462368 
 4096000    1.0707678   -3.1544136   -1.6293238  0.075799252   -3.1544136    1.5250898   462397 
 4097000    1.0729441   -3.1564217   -1.6282421   0.07513557   -3.1564217    1.5281796   462400 
 4098000    1.0720656   -3.1562445   -1.6294019  0.076130108   -3.1562445    1.5268426   462426 
 4099000    1.0729532   -3.1560788   -1.6281703  0.078000379   -3.1560788    1.5279085   462486 
 4100000    1.0720436   -3.1539271   -1.6274855  0.082803952   -3.1539271    1.5264415   462538 
 4101000    1.0736418   -3.1559953    -1.627374  0.078751964   -3.1559953    1.5286213   462567 
 4102000    1.0734376   -3.1554101   -1.6271488  0.084834792   -3.1554101    1.5282612   462588 
 4103000    1.0736974   -3.1576018   -1.6290468  0.078920655   -3.1576018     1.528555   462611 
 4104000    1.0726936   -3.1556611   -1.6286177  0.081616026   -3.1556611    1.5270434   462636 
 4105000    1.0730765    -3.157256   -1.6296377  0.078915812    -3.157256    1.5276183   462627 
 4106000    1.0716725   -3.1554458   -1.6299087  0.082378897   -3.1554458    1.5255371   462652 
 4107000    1.0730394   -3.1568011   -1.6294305  0.082891752   -3.1568011    1.5273706   462686 
 4108000    1.0717734   -3.1544786   -1.6288935  0.077352857   -3.1544786    1.5255852   462681 
 4109000    1.0730053   -3.1566319    -1.629422  0.080408427   -3.1566319    1.5272099   462720 
 4110000     1.072514   -3.1573165   -1.6308092  0.072065623   -3.1573165    1.5265073   462721 
 4111000    1.0728427   -3.1574208   -1.6306106  0.083276099   -3.1574208    1.5268101   462771 
 4112000    1.0727453   -3.1580509   -1.6313364  0.078497294   -3.1580509    1.5267145   462758 
 4113000    1.0715321   -3.1558817    -1.630996  0.088350083   -3.1558817    1.5248857   462789 
 4114000    1.0726673   -3.1562406   -1.6298483  0.082565869   -3.1562406    1.5263923   462822 
 4115000    1.0730861   -3.1568474   -1.6298986   0.07982446   -3.1568474    1.5269488   462834 
 4116000    1.0728423   -3.1567557   -1.6302529  0.075533278   -3.1567557    1.5265028   462864 
 4117000    1.0723854   -3.1568029   -1.6309831  0.080706568   -3.1568029    1.5258198   462874 
 4118000    1.0729312   -3.1568013   -1.6302775  0.078966629   -3.1568013    1.5265238   462896 
 4119000     1.072206   -3.1571536   -1.6317011  0.077748485   -3.1571536    1.5254525   462908 
 4120000     1.072519   -3.1574738   -1.6316783  0.078022007   -3.1574738    1.5257956   462939 
 4121000    1.0722153   -3.1563927   -1.6309863  0.081867625   -3.1563927    1.5254064   462926 
 4122000    1.0727525   -3.1563028   -1.6301915  0.081032903   -3.1563028    1.5261113   462944 
 4123000    1.0711057   -3.1541103   -1.6304669  0.081477649   -3.1541103    1.5236435   462982 
 4124000    1.0709631   -3.1544766   -1.6310657  0.080934823   -3.1544766    1.5234109   462991 
 4125000    1.0721272   -3.1545482   -1.6295373  0.081788547   -3.1545482    1.5250109   463008 
 4126000     1.073092   -3.1566167   -1.6302071  0.076649445   -3.1566167    1.5264096   463000 
 4127000    1.0716562    -3.155074   -1.6308714     0.080676    -3.155074    1.5242026   463050 
 4128000    1.0721252   -3.1550359   -1.6302287  0.080412897   -3.1550359    1.5248071   463069 
 4129000    1.0716789   -3.1555341   -1.6315097  0.074978144   -3.1555341    1.5240244   463114 
 4130000    1.0706435   -3.1543936   -1.6319338  0.077637351   -3.1543936    1.5224598   463142 
 4131000     1.070166   -3.1538533   -1.6321447  0.077629477   -3.1538533    1.5217086   463164 
 4132000    1.0722267   -3.1556028   -1.6310299  0.080547057   -3.1556028     1.524573   463184 
 4133000    1.0718308   -3.1540023   -1.6301041  0.077206533   -3.1540023    1.5238982   463218 
 4134000     1.072646   -3.1549811   -1.6300094  0.079121011   -3.1549811    1.5249716   463244 
 4135000    1.0736458   -3.1555711   -1.6292705  0.073714716   -3.1555711    1.5263007   463272 
 4136000    1.0742776   -3.1564856   -1.6294351  0.075043464   -3.1564856    1.5270505   463317 
 4137000    1.0723185   -3.1539352   -1.6297353  0.081824249   -3.1539352    1.5241999   463337 
 4138000    1.0725551   -3.1543163   -1.6297997  0.075437597   -3.1543163    1.5245166   463343 
 4139000    1.0729311   -3.1550322   -1.6300241    0.0809587   -3.1550322    1.5250081   463356 
 4140000    1.0742938   -3.1570444   -1.6301158   0.07610598   -3.1570444    1.5269286   463361 
 4141000    1.0744249   -3.1565662   -1.6295106  0.081920916   -3.1565662    1.5270556   463379 
 4142000    1.0739669   -3.1555121    -1.629213   0.07864089   -3.1555121    1.5262992   463411 
 4143000    1.0741682   -3.1555396   -1.6289312  0.079126652   -3.1555396    1.5266084   463404 
 4144000    1.0743991    -3.155117   -1.6282628  0.085487598    -3.155117    1.5268542   463429 
 4145000    1.0734085   -3.1532454   -1.6278516    0.0866564   -3.1532454    1.5253937   463445 
 4146000    1.0735713   -3.1532586   -1.6277323  0.082348498   -3.1532586    1.5255263   463475 
 4147000     1.074619     -3.15542    -1.628586  0.080997223     -3.15542     1.526834   463530 
 4148000    1.0737096   -3.1547545   -1.6294858  0.077850454   -3.1547545    1.5252687   463613 
 4149000    1.0746378   -3.1559759   -1.6294446   0.08093889   -3.1559759    1.5265313   463630 
 4150000    1.0736645   -3.1553628   -1.6302206   0.08355992   -3.1553628    1.5251421   463632 
 4151000    1.0733819   -3.1555767   -1.6308919  0.081882525   -3.1555767    1.5246848   463649 
 4152000    1.0734438   -3.1557254   -1.6309363  0.081239642   -3.1557254    1.5247891   463644 
 4153000    1.0737189   -3.1565204   -1.6313667  0.077342523   -3.1565204    1.5251537   463652 
 4154000    1.0739957   -3.1563449   -1.6309659  0.075578639   -3.1563449     1.525379   463703 
 4155000    1.0744575     -3.15584   -1.6299137  0.080090654     -3.15584    1.5259263   463736 
 4156000    1.0753538   -3.1572907   -1.6301244  0.076124365   -3.1572907    1.5271663   463746 
 4157000    1.0744688   -3.1565459   -1.6305772  0.081986185   -3.1565459    1.5259687   463728 
 4158000    1.0753888   -3.1568662   -1.6295976  0.078615298   -3.1568662    1.5272686   463730 
 4159000    1.0755288   -3.1567945   -1.6293402  0.078918382   -3.1567945    1.5274543   463734 
 4160000    1.0738123   -3.1561673    -1.631177  0.080811949   -3.1561673    1.5249903   463742 
 4161000    1.0750145   -3.1575916   -1.6309303   0.07723618   -3.1575916    1.5266614   463753 
 4162000    1.0758059   -3.1582245   -1.6303898  0.079800376   -3.1582245    1.5278347   463738 
 4163000    1.0749244   -3.1569211    -1.630483  0.080186618   -3.1569211     1.526438   463782 
 4164000    1.0751356   -3.1571001   -1.6304215  0.075362185   -3.1571001    1.5266786   463800 
 4165000    1.0759929    -3.156979   -1.6290764  0.084358176    -3.156979    1.5279026   463798 
 4166000    1.0754943   -3.1578736   -1.6306165  0.077090716   -3.1578736    1.5272571   463779 
 4167000    1.0757092   -3.1575054   -1.6298641  0.084601303   -3.1575054    1.5276414   463755 
 4168000     1.076344   -3.1572828   -1.6288025  0.083463019   -3.1572828    1.5284803   463774 
 4169000    1.0759803   -3.1576763   -1.6297817  0.085017194   -3.1576763    1.5278946   463795 
 4170000    1.0754727   -3.1572384   -1.6301798  0.082141403   -3.1572384    1.5270586   463830 
 4171000    1.0734369   -3.1557076   -1.6316514  0.081226853   -3.1557076    1.5240563   463864 
 4172000    1.0752115   -3.1578712   -1.6313118  0.075231948   -3.1578712    1.5265594   463869 
 4173000    1.0730658   -3.1563065   -1.6329152  0.080561761   -3.1563065    1.5233913   463906 
 4174000     1.074022   -3.1561944   -1.6315376  0.080431042   -3.1561944    1.5246568   463934 
 4175000    1.0746974   -3.1564658   -1.6308896  0.079352692   -3.1564658    1.5255762   463946 
 4176000    1.0741099   -3.1554516   -1.6307161   0.08386435   -3.1554516    1.5247355   463948 
 4177000    1.0748052   -3.1559789   -1.6303911  0.084826429   -3.1559789    1.5255878   463989 
 4178000    1.0753874   -3.1560492   -1.6297534  0.080509927   -3.1560492    1.5262958   464025 
 4179000    1.0758647   -3.1561237   -1.6295058  0.078133594   -3.1561237    1.5266179   464133 
 4180000     1.076479   -3.1558849    -1.628369  0.080657126   -3.1558849    1.5275159   464125 
 4181000     1.076898   -3.1563877   -1.6282838  0.081385556   -3.1563877    1.5281039   464127 
 4182000    1.0760716   -3.1550181   -1.6280211  0.088856004   -3.1550181     1.526997   464107 
 4183000    1.0759222     -3.15563   -1.6288878  0.085751123     -3.15563    1.5267422   464120 
 4184000     1.075736   -3.1562189    -1.629879  0.085152696   -3.1562189    1.5263399   464162 
 4185000    1.0768272   -3.1583895   -1.6305112  0.081693417   -3.1583895    1.5278783   464165 
 4186000    1.0761084   -3.1567199   -1.6298977   0.07940652   -3.1567199    1.5268222   464176 
 4187000    1.0760961   -3.1543648   -1.6276258  0.080713136   -3.1543648     1.526739   464196 
 4188000    1.0759595   -3.1529064   -1.6264368  0.080612021   -3.1529064    1.5264696   464219 
 4189000    1.0790313   -3.1571922   -1.6264076  0.076242661   -3.1571922    1.5307847   464232 
 4190000    1.0753743   -3.1538122   -1.6282879  0.078522934   -3.1538122    1.5255243   464254 
 4191000    1.0755791   -3.1538267   -1.6280677  0.081389023   -3.1538267     1.525759   464271 
 4192000    1.0755689   -3.1539857   -1.6282412  0.081285904   -3.1539857    1.5257444   464271 
 4193000    1.0754028   -3.1531873   -1.6277967  0.078430504   -3.1531873    1.5253907   464307 
 4194000    1.0755543   -3.1529803   -1.6274833  0.077379404   -3.1529803    1.5254971   464340 
 4195000    1.0748442   -3.1514551   -1.6270177  0.081703924   -3.1514551    1.5244374   464356 
 4196000    1.0756856   -3.1535238   -1.6278471  0.078638676   -3.1535238    1.5256767   464342 
 4197000    1.0760187   -3.1539067   -1.6278594  0.078153602   -3.1539067    1.5260473   464373 
 4198000    1.0753277   -3.1521646   -1.6271762  0.077317138   -3.1521646    1.5249884   464397 
 4199000    1.0764973   -3.1526032   -1.6260153  0.083886838   -3.1526032    1.5265879   464415 
 4200000    1.0758535   -3.1524446    -1.626809   0.07901282   -3.1524446    1.5256355   464427 
 4201000    1.0770577    -3.154776   -1.6274064  0.084586851    -3.154776    1.5273696   464419 
 4202000    1.0757143    -3.151666   -1.6263855  0.079629483    -3.151666    1.5252805   464475 
 4203000    1.0777724   -3.1547446   -1.6267071  0.074783172   -3.1547446    1.5280376   464524 
 4204000    1.0762532    -3.153104   -1.6273089  0.079559576    -3.153104     1.525795   464551 
 4205000    1.0779447   -3.1548055    -1.626754  0.074617566   -3.1548055    1.5280515   464594 
 4206000    1.0765233   -3.1528365   -1.6267638  0.080818018   -3.1528365    1.5260728   464583 
 4207000    1.0747498   -3.1517124   -1.6282062  0.079382497   -3.1517124    1.5235062   464599 
 4208000    1.0750187   -3.1518183   -1.6280096  0.078049032   -3.1518183    1.5238087   464623 
 4209000    1.0768022   -3.1517842   -1.6256937  0.080876822   -3.1517842    1.5260905   464698 
 4210000    1.0764713   -3.1525491   -1.6270293  0.077469729   -3.1525491    1.5255197   464729 
 4211000    1.0784313   -3.1543574   -1.6260535  0.079540339   -3.1543574    1.5283039   464727 
 4212000    1.0782476   -3.1539449   -1.6258257  0.079424096   -3.1539449    1.5281192   464704 
 4213000    1.0760229   -3.1509852   -1.6261076  0.080037363   -3.1509852    1.5248777   464731 
 4214000    1.0792248   -3.1554598   -1.6262125  0.081772513   -3.1554598    1.5292473   464782 
 4215000    1.0774252   -3.1537249   -1.6269585  0.077520806   -3.1537249    1.5267664   464761 
 4216000    1.0768266   -3.1533646   -1.6274005  0.079694242   -3.1533646    1.5259641   464747 
 4217000    1.0755803   -3.1531437   -1.6289458  0.077992998   -3.1531437    1.5241979   464747 
 4218000    1.0762633   -3.1534168   -1.6283658  0.080927009   -3.1534168     1.525051   464782 
 4219000    1.0777511   -3.1554782   -1.6283651  0.079971638   -3.1554782    1.5271131   464796 
 4220000    1.0777735   -3.1550955     -1.62799  0.079456392   -3.1550955    1.5271054   464808 
 4221000     1.076986   -3.1564964   -1.6305428  0.076922985   -3.1564964    1.5259536   464819 
 4222000    1.0752875   -3.1540002   -1.6304237   0.08012947   -3.1540002    1.5235765   464810 
 4223000    1.0758178   -3.1538766   -1.6296176  0.081761769   -3.1538766     1.524259   464831 
 4224000    1.0758677   -3.1551506   -1.6308176  0.073076423   -3.1551506     1.524333   464830 
 4225000     1.077555   -3.1573061   -1.6305562  0.081633379   -3.1573061    1.5267499   464822 
 4226000    1.0773854   -3.1570154   -1.6305157  0.077178111   -3.1570154    1.5264997   464825 
 4227000    1.0780875    -3.157755   -1.6303327  0.077280455    -3.157755    1.5274223   464847 
 4228000    1.0783169   -3.1573613   -1.6295319  0.078819268   -3.1573613    1.5278294   464822 
 4229000    1.0765944   -3.1561342   -1.6307288  0.086136324   -3.1561342    1.5254053   464817 
 4230000    1.0771772    -3.157529   -1.6312849  0.077636168    -3.157529    1.5262441   464813 
 4231000    1.0764162   -3.1571869   -1.6320438  0.077953765   -3.1571869     1.525143   464820 
 4232000    1.0767569   -3.1566873    -1.631042  0.080875872   -3.1566873    1.5256453   464814 
 4233000    1.0766407     -3.15777   -1.6323746  0.084729778     -3.15777    1.5253953   464840 
 4234000    1.0767607   -3.1576634   -1.6321078  0.076444907   -3.1576634    1.5255556   464843 
 4235000    1.0772907   -3.1574401   -1.6312682   0.07991511   -3.1574401    1.5261719   464884 
 4236000    1.0780153   -3.1577636   -1.6304831  0.078240654   -3.1577636    1.5272806   464859 
 4237000    1.0781476   -3.1578686   -1.6304893  0.080119225   -3.1578686    1.5273793   464886 
 4238000    1.0787344   -3.1596659   -1.6315342  0.081271142   -3.1596659    1.5281316   464910 
 4239000    1.0787177   -3.1587779    -1.630729  0.082749903   -3.1587779    1.5280489   464928 
 4240000    1.0793343     -3.15795   -1.6291888  0.085951409     -3.15795    1.5287611   464977 
 4241000    1.0782692   -3.1563742   -1.6290789  0.082103231   -3.1563742    1.5272953   464964 
 4242000     1.079426   -3.1581126   -1.6291854  0.083232281   -3.1581126    1.5289273   464966 
 4243000    1.0795031   -3.1580173   -1.6290664  0.080539201   -3.1580173     1.528951   464992 
 4244000     1.078494   -3.1577177   -1.6302191  0.073238158   -3.1577177    1.5274986   464999 
 4245000    1.0785675   -3.1582235   -1.6307422  0.079426283   -3.1582235    1.5274813   465036 
 4246000    1.0780331    -3.156568   -1.6298009  0.077926475    -3.156568    1.5267672   465023 
 4247000    1.0776151   -3.1553536   -1.6291556  0.080333378   -3.1553536    1.5261981   465016 
 4248000    1.0786465   -3.1571655   -1.6295329  0.076757935   -3.1571655    1.5276326   465024 
 4249000    1.0791489    -3.159123   -1.6308676  0.075769829    -3.159123    1.5282554   465051 
 4250000    1.0776425    -3.155306   -1.6292921  0.080833325    -3.155306    1.5260138   465084 
 4251000    1.0785207   -3.1566871   -1.6294987  0.076528831   -3.1566871    1.5271884   465105 
 4252000    1.0756554    -3.154481   -1.6313794  0.079537382    -3.154481    1.5231017   465114 
 4253000    1.0769527   -3.1560699   -1.6310723  0.074587979   -3.1560699    1.5249976   465096 
 4254000     1.077904   -3.1574283   -1.6310181  0.078459619   -3.1574283    1.5264103   465076 
 4255000     1.076833   -3.1566952   -1.6318474  0.080625846   -3.1566952    1.5248478   465090 
 4256000    1.0769982    -3.155756   -1.6307137  0.074470942    -3.155756    1.5250423   465102 
 4257000    1.0774307   -3.1545496    -1.629026  0.080658501   -3.1545496    1.5255236   465142 
 4258000    1.0784129   -3.1551811   -1.6282997  0.078396198   -3.1551811    1.5268815   465152 
 4259000    1.0791446   -3.1567745   -1.6290081  0.078795476   -3.1567745    1.5277664   465198 
 4260000     1.081059   -3.1587628   -1.6282895  0.078336279   -3.1587628    1.5304733   465199 
 4261000    1.0772005   -3.1529732   -1.6279822  0.079014395   -3.1529732     1.524991   465205 
 4262000    1.0788767   -3.1564118   -1.6290544  0.077421362   -3.1564118    1.5273575   465207 
 4263000    1.0785066   -3.1556973   -1.6289983  0.082600172   -3.1556973     1.526699   465248 
 4264000    1.0799059   -3.1568967   -1.6282531  0.080948591   -3.1568967    1.5286437   465259 
 4265000    1.0789526   -3.1560516    -1.628846   0.08214928   -3.1560516    1.5272056   465286 
 4266000    1.0793998   -3.1578821   -1.6301846  0.076709268   -3.1578821    1.5276975   465329 
 4267000    1.0774926   -3.1550437   -1.6302028  0.084405292   -3.1550437    1.5248409   465377 
 4268000    1.0791624   -3.1577597    -1.630546  0.078276276   -3.1577597    1.5272137   465374 
 4269000    1.0781376   -3.1563906   -1.6307812  0.079530391   -3.1563906    1.5256094   465421 
 4270000    1.0778451   -3.1572729   -1.6320447  0.078986067   -3.1572729    1.5252282   465411 
 4271000    1.0783845    -3.157827    -1.631983  0.074541329    -3.157827     1.525844   465456 
 4272000    1.0767553   -3.1547898    -1.631395   0.07904632   -3.1547898    1.5233948   465500 
 4273000     1.078201    -3.156532   -1.6312164  0.076852528    -3.156532    1.5253156   465538 
 4274000     1.079544   -3.1572058   -1.6299541  0.082802638   -3.1572058    1.5272517   465527 
 4275000    1.0793352   -3.1570799   -1.6301335  0.082779062   -3.1570799    1.5269464   465530 
 4276000    1.0784393   -3.1563458   -1.6307979   0.07816624   -3.1563458    1.5255479   465570 
 4277000    1.0791274   -3.1577106   -1.6312384  0.081072112   -3.1577106    1.5264722   465585 
 4278000    1.0783145   -3.1574915   -1.6321791  0.083774631   -3.1574915    1.5253124   465588 
 4279000    1.0796981   -3.1602527    -1.633016  0.079024393   -3.1602527    1.5272367   465598 
 4280000    1.0796551   -3.1600613   -1.6330035  0.072745677   -3.1600613    1.5270578   465634 
 4281000     1.079851   -3.1596968   -1.6325094  0.078788911   -3.1596968    1.5271873   465679 
 4282000    1.0785357   -3.1583128    -1.633025  0.076830046   -3.1583128    1.5252878   465691 
 4283000    1.0797343   -3.1589297   -1.6321238  0.079864838   -3.1589297    1.5268059   465745 
 4284000    1.0810794   -3.1604159   -1.6317407  0.077174067   -3.1604159    1.5286752   465755 
 4285000    1.0803211   -3.1605581   -1.6329684  0.077496269   -3.1605581    1.5275897   465759 
 4286000    1.0803487   -3.1599105    -1.632285  0.075188923   -3.1599105    1.5276255   465760 
 4287000    1.0798453   -3.1608858   -1.6340868  0.082572198   -3.1608858     1.526799   465795 
 4288000    1.0798644    -3.160303   -1.6336049  0.081820386    -3.160303    1.5266982   465834 
 4289000    1.0789615   -3.1582814   -1.6328729  0.084457866   -3.1582814    1.5254085   465838 
 4290000    1.0796672   -3.1584105   -1.6321124  0.078185087   -3.1584105    1.5262981   465871 
 4291000    1.0804839   -3.1587822   -1.6313164  0.083358908   -3.1587822    1.5274658   465867 
 4292000    1.0797443   -3.1579119   -1.6315736  0.081639024   -3.1579119    1.5263383   465892 
 4293000    1.0808452   -3.1603567   -1.6326065  0.079152378   -3.1603567    1.5277502   465936 
 4294000    1.0814039   -3.1600164   -1.6316569  0.086875112   -3.1600164    1.5283595   465991 
 4295000    1.0820212   -3.1596998   -1.6306384  0.077768439   -3.1596998    1.5290614   466043 
 4296000    1.0811154   -3.1585739   -1.6308352  0.083073159   -3.1585739    1.5277387   466056 
 4297000    1.0782608   -3.1552921   -1.6316037  0.084899793   -3.1552921    1.5236884   466061 
 4298000    1.0811549   -3.1589359   -1.6312692    0.0799875   -3.1589359    1.5276668   466095 
 4299000    1.0818899   -3.1604173   -1.6317646  0.083434863   -3.1604173    1.5286527   466111 
 4300000    1.0801967   -3.1588601   -1.6326424  0.075637903   -3.1588601    1.5262177   466124 
 4301000    1.0800803   -3.1576118   -1.6315258  0.082976975   -3.1576118     1.526086   466114 
 4302000    1.0801217   -3.1587267   -1.6326672  0.076710939   -3.1587267    1.5260595   466140 
 4303000    1.0788225   -3.1572683   -1.6330445  0.083293637   -3.1572683    1.5242238   466140 
 4304000    1.0803192   -3.1594781   -1.6332706  0.081706921   -3.1594781    1.5262075   466180 
 4305000    1.0788415   -3.1568701   -1.6328745  0.081058673   -3.1568701    1.5239957   466218 
 4306000    1.0816894   -3.1609312   -1.6329256  0.077458266   -3.1609312    1.5280056   466222 
 4307000    1.0791668   -3.1578359   -1.6333904  0.081442823   -3.1578359    1.5244454   466221 
 4308000    1.0782668   -3.1566871   -1.6335784  0.076589129   -3.1566871    1.5231088   466241 
 4309000    1.0779898   -3.1570609   -1.6343729  0.077553985   -3.1570609     1.522688   466250 
 4310000    1.0785478   -3.1571326   -1.6337021  0.075805647   -3.1571326    1.5234304   466264 
 4311000    1.0799706   -3.1595835   -1.6340484  0.072350952   -3.1595835    1.5255351   466235 
 4312000    1.0803688   -3.1609325   -1.6348382  0.080475617   -3.1609325    1.5260943   466236 
 4313000    1.0802325   -3.1606634   -1.6348598  0.081327697   -3.1606634    1.5258036   466266 
 4314000    1.0806913   -3.1606824   -1.6343061    0.0789903   -3.1606824    1.5263763   466289 
 4315000    1.0811744   -3.1609389   -1.6338965  0.077406191   -3.1609389    1.5270423   466294 
 4316000     1.081225   -3.1614592   -1.6343717  0.080799086   -3.1614592    1.5270875   466302 
 4317000    1.0802332   -3.1607844   -1.6351205  0.078607426   -3.1607844    1.5256638   466309 
 4318000    1.0816807   -3.1623525   -1.6347425  0.082194747   -3.1623525      1.52761   466339 
 4319000    1.0811884   -3.1626975   -1.6357894  0.080165774   -3.1626975    1.5269081   466341 
 4320000    1.0816653   -3.1627174    -1.635221  0.078171461   -3.1627174    1.5274964   466367 
 4321000    1.0811225   -3.1619855   -1.6353635  0.088429897   -3.1619855     1.526622   466400 
 4322000    1.0813027   -3.1629872   -1.6363039  0.084830735   -3.1629872    1.5266832   466459 
 4323000    1.0824062   -3.1647833   -1.6366959  0.081922832   -3.1647833    1.5280874   466506 
 4324000    1.0814924   -3.1646375   -1.6379318  0.079330458   -3.1646375    1.5267056   466534 
 4325000    1.0828621   -3.1666124   -1.6380061  0.075595298   -3.1666124    1.5286064   466544 
 4326000    1.0814592   -3.1643469   -1.6378092  0.079908142   -3.1643469    1.5265376   466571 
 4327000    1.0819532   -3.1645837   -1.6374208   0.08265764   -3.1645837    1.5271629   466593 
 4328000    1.0823924   -3.1660024   -1.6383308  0.083989451   -3.1660024    1.5276717   466627 
 4329000    1.0824626   -3.1652989   -1.6376527  0.078868538   -3.1652989    1.5276462   466665 
 4330000    1.0818899   -3.1636429   -1.6368245  0.082702082   -3.1636429    1.5268184   466671 
 4331000    1.0826286   -3.1637317   -1.6360574  0.079071523   -3.1637317    1.5276744   466728 
 4332000    1.0832645   -3.1645453   -1.6361342  0.087064258   -3.1645453    1.5284112   466777 
 4333000     1.083383   -3.1641193   -1.6355083  0.085173385   -3.1641193     1.528611   466767 
 4334000    1.0836063    -3.163221   -1.6343308  0.085358584    -3.163221    1.5288901   466778 
 4335000     1.082934   -3.1625729   -1.6347001  0.080626817   -3.1625729    1.5278728   466799 
 4336000    1.0838894   -3.1633173   -1.6342341  0.079826664   -3.1633173    1.5290832   466841 
 4337000    1.0832877   -3.1617511    -1.633664  0.080471255   -3.1617511    1.5280871   466886 
 4338000    1.0828068   -3.1614638   -1.6341795  0.079808611   -3.1614638    1.5272843   466924 
 4339000    1.0823004   -3.1617891   -1.6352059  0.083218629   -3.1617891    1.5265832   466920 
 4340000    1.0814366   -3.1601115   -1.6347369  0.078967681   -3.1601115    1.5253746   466917 
 4341000    1.0837357   -3.1616346   -1.6329974  0.081758286   -3.1616346    1.5286372   466911 
 4342000     1.082405   -3.1593301   -1.6325962   0.08686428   -3.1593301    1.5267339   466919 
 4343000    1.0823629   -3.1599427     -1.63317  0.087069727   -3.1599427    1.5267727   466889 
 4344000    1.0825454   -3.1595952   -1.6327842  0.080113288   -3.1595952     1.526811   466956 
 4345000    1.0832856   -3.1597643   -1.6320336  0.079583656   -3.1597643    1.5277307   466994 
 4346000    1.0831855   -3.1598487   -1.6323606  0.083053777   -3.1598487    1.5274881   467025 
 4347000    1.0825554   -3.1587145   -1.6321738   0.07915361   -3.1587145    1.5265407   467043 
 4348000    1.0814925   -3.1592365   -1.6342763  0.075238881   -3.1592365    1.5249603   467068 
 4349000    1.0823675   -3.1600884   -1.6340021  0.076720143   -3.1600884    1.5260863   467101 
 4350000    1.0799742   -3.1582946   -1.6356154  0.080421386   -3.1582946    1.5226792   467111 
 4351000    1.0798489   -3.1581973   -1.6357338  0.079805092   -3.1581973    1.5224635   467123 
 4352000    1.0793235   -3.1567963   -1.6351224  0.076580938   -3.1567963    1.5216739   467138 
 4353000    1.0807594   -3.1588404   -1.6352498  0.073041811   -3.1588404    1.5235905   467171 
 4354000    1.0804814    -3.157794    -1.634729  0.079060021    -3.157794     1.523065   467212 
 4355000    1.0814589   -3.1584442   -1.6340273  0.075186604   -3.1584442    1.5244168   467220 
 4356000    1.0815962   -3.1596436   -1.6350138  0.074345755   -3.1596436    1.5246299   467214 
 4357000    1.0814083   -3.1586534   -1.6342819  0.078570397   -3.1586534    1.5243715   467212 
 4358000    1.0816458   -3.1580994    -1.633393  0.081195248   -3.1580994    1.5247064   467212 
 4359000    1.0852109   -3.1621451   -1.6325148  0.082418115   -3.1621451    1.5296303   467243 
 4360000    1.0828703   -3.1592864   -1.6330108  0.084827099   -3.1592864    1.5262756   467260 
 4361000    1.0849071   -3.1622457   -1.6331941  0.081764103   -3.1622457    1.5290516   467289 
 4362000    1.0838234   -3.1622985   -1.6347514  0.079285051   -3.1622985     1.527547   467282 
 4363000    1.0838803   -3.1604332   -1.6327733  0.081926835   -3.1604332      1.52766   467272 
 4364000    1.0836005   -3.1608968   -1.6337521  0.084085976   -3.1608968    1.5271447   467309 
 4365000    1.0841805    -3.160188   -1.6322259  0.087254566    -3.160188     1.527962   467309 
 4366000    1.0849649   -3.1625167   -1.6333869  0.078422276   -3.1625167    1.5291298   467290 
 4367000    1.0830776   -3.1610489   -1.6345693  0.083185373   -3.1610489    1.5264796   467287 
 4368000    1.0840978   -3.1636752   -1.6358493  0.083461663   -3.1636752     1.527826   467315 
 4369000    1.0842366   -3.1650422   -1.6370828  0.076841216   -3.1650422    1.5279594   467334 
 4370000    1.0838376   -3.1642116   -1.6367328  0.077424965   -3.1642116    1.5274788   467309 
 4371000    1.0847108   -3.1644262   -1.6356841  0.079041872   -3.1644262    1.5287421   467299 
 4372000    1.0848614   -3.1640025   -1.6351757  0.079637988   -3.1640025    1.5288268   467338 
 4373000    1.0843308   -3.1635524   -1.6355649  0.079769011   -3.1635524    1.5279875   467366 
 4374000     1.084321   -3.1653961   -1.6374911  0.078394165   -3.1653961     1.527905   467387 
 4375000    1.0838255   -3.1647341   -1.6375795  0.073522814   -3.1647341    1.5271546   467403 
 4376000    1.0833065   -3.1633661   -1.6369788  0.076826877   -3.1633661    1.5263873   467414 
 4377000    1.0841989   -3.1628929   -1.6352155  0.082019178   -3.1628929    1.5276775   467404 
 4378000    1.0841999   -3.1629491   -1.6353683   0.08535652   -3.1629491    1.5275808   467434 
 4379000    1.0848763   -3.1625079   -1.6339938  0.081498733   -3.1625079    1.5285142   467440 
 4380000    1.0832641   -3.1617716   -1.6355257  0.081161246   -3.1617716    1.5262459   467439 
 4381000    1.0847792   -3.1630712   -1.6346938  0.083474377   -3.1630712    1.5283774   467440 
 4382000    1.0828545   -3.1601701   -1.6344979  0.086353465   -3.1601701    1.5256722   467438 
 4383000    1.0844468   -3.1625297   -1.6346271  0.076988491   -3.1625297    1.5279026   467442 
 4384000    1.0860355   -3.1630122   -1.6330579  0.080218353   -3.1630122    1.5299543   467499 
 4385000    1.0834049   -3.1602855   -1.6340729  0.084614566   -3.1602855    1.5262126   467510 
 4386000    1.0853989   -3.1622187   -1.6332626  0.080003317   -3.1622187    1.5289561   467530 
 4387000    1.0838138   -3.1597608   -1.6331192  0.081464394   -3.1597608    1.5266416   467555 
 4388000    1.0845942   -3.1616021     -1.63392  0.080241243   -3.1616021    1.5276821   467573 
 4389000     1.083376   -3.1595593   -1.6335702  0.077527375   -3.1595593    1.5259891   467566 
 4390000    1.0840586   -3.1611665   -1.6342781  0.072895012   -3.1611665    1.5268884   467585 
 4391000    1.0848199   -3.1617965   -1.6339012  0.081178764   -3.1617965    1.5278954   467605 
 4392000    1.0838565   -3.1603883   -1.6336344  0.072539002   -3.1603883     1.526754   467539 
 4393000    1.0848725   -3.1619814   -1.6337864   0.07966945   -3.1619814     1.528195   467536 
 4394000    1.0839146   -3.1606432   -1.6337877  0.077126245   -3.1606432    1.5268555   467533 
 4395000    1.0839584    -3.160429   -1.6336686  0.075041246    -3.160429    1.5267604   467581 
 4396000    1.0853987   -3.1621906   -1.6333263  0.076975941   -3.1621906    1.5288643   467558 
 4397000    1.0855016   -3.1620189    -1.633062  0.074167301   -3.1620189    1.5289569   467574 
 4398000    1.0847462   -3.1622518   -1.6343949  0.082303316   -3.1622518    1.5278569   467585 
 4399000    1.0860506   -3.1629488   -1.6334181  0.077748059   -3.1629488    1.5295307   467635 
 4400000    1.0845766   -3.1614123   -1.6340424  0.077149347   -3.1614123    1.5273699   467661 
 4401000    1.0844093    -3.160736   -1.6336736  0.078639111    -3.160736    1.5270623   467683 
 4402000    1.0863416   -3.1615183   -1.6317904  0.083733833   -3.1615183    1.5297279   467700 
 4403000     1.083054   -3.1579786   -1.6330367  0.082345114   -3.1579786    1.5249419   467748 
 4404000     1.085811   -3.1618339   -1.6331474  0.082525168   -3.1618339    1.5286865   467790 
 4405000    1.0852931   -3.1616177   -1.6337453  0.078400048   -3.1616177    1.5278724   467816 
 4406000    1.0854377   -3.1621427   -1.6342235  0.077402588   -3.1621427    1.5279192   467864 
 4407000    1.0832833   -3.1609423   -1.6361242  0.079105864   -3.1609423    1.5248182   467885 
 4408000    1.0842192   -3.1621125   -1.6361336  0.079708832   -3.1621125    1.5259789   467933 
 4409000    1.0847489   -3.1626977   -1.6359602  0.084649678   -3.1626977    1.5267375   467929 
 4410000    1.0864071   -3.1636223   -1.6347142  0.079708401   -3.1636223     1.528908   467979 
 4411000    1.0865796   -3.1644833   -1.6354174  0.081313232   -3.1644833    1.5290659   468005 
 4412000    1.0870516   -3.1649986   -1.6353699  0.084749726   -3.1649986    1.5296287   468036 
 4413000    1.0845019   -3.1628828   -1.6367995  0.085867281   -3.1628828    1.5260833   468023 
 4414000    1.0853174   -3.1636205    -1.636445  0.079222779   -3.1636205    1.5271754   468040 
 4415000    1.0847373   -3.1640717   -1.6377549  0.083510344   -3.1640717    1.5263167   468053 
 4416000    1.0861772   -3.1665776   -1.6383065  0.076748297   -3.1665776    1.5282711   468075 
 4417000     1.083527   -3.1630842    -1.638503  0.087564458   -3.1630842    1.5245812   468063 
 4418000     1.085433   -3.1656662   -1.6384782  0.082438941   -3.1656662    1.5271881   468086 
 4419000    1.0856712   -3.1654895   -1.6380088   0.08084336   -3.1654895    1.5274807   468099 
 4420000    1.0855194   -3.1654958   -1.6382679  0.080993632   -3.1654958     1.527228   468111 
 4421000    1.0857519    -3.166304   -1.6386967  0.079758448    -3.166304    1.5276072   468095 
 4422000    1.0850009   -3.1663743   -1.6398889   0.08226394   -3.1663743    1.5264855   468115 
 4423000    1.0856321   -3.1671614   -1.6397456  0.079912445   -3.1671614    1.5274159   468102 
 4424000    1.0846472   -3.1654211   -1.6393583  0.083586296   -3.1654211    1.5260628   468092 
 4425000    1.0851358   -3.1673552   -1.6407518  0.080461206   -3.1673552    1.5266035   468137 
 4426000     1.085589   -3.1675714   -1.6403434   0.08271717   -3.1675714     1.527228   468141 
 4427000    1.0846242   -3.1673725   -1.6415539  0.084455495   -3.1673725    1.5258186   468157 
 4428000     1.084476    -3.166411   -1.6408205  0.081371544    -3.166411    1.5255905   468163 
 4429000    1.0855364   -3.1671097   -1.6402002  0.079563011   -3.1671097    1.5269095   468216 
 4430000    1.0857598   -3.1670358   -1.6398122   0.07887937   -3.1670358    1.5272236   468216 
 4431000    1.0853751   -3.1677425   -1.6409752  0.086836901   -3.1677425    1.5267673   468190 
 4432000    1.0864569   -3.1684748   -1.6402934  0.080208116   -3.1684748    1.5281814   468223 
 4433000    1.0864628    -3.169062   -1.6409115  0.081728384    -3.169062    1.5281505   468235 
 4434000    1.0850962   -3.1664736   -1.6403789  0.085523402   -3.1664736    1.5260947   468276 
 4435000    1.0862729   -3.1681161   -1.6403697  0.080578873   -3.1681161    1.5277464   468277 
 4436000     1.087603   -3.1691192   -1.6397079  0.079151511   -3.1691192    1.5294113   468340 
 4437000    1.0877484   -3.1693136   -1.6397959  0.082879465   -3.1693136    1.5295177   468370 
 4438000    1.0867996   -3.1682527   -1.6400659  0.082313473   -3.1682527    1.5281868   468369 
 4439000    1.0847678   -3.1651607   -1.6400165  0.082228668   -3.1651607    1.5251442   468426 
 4440000    1.0868215   -3.1677987   -1.6398682  0.077240614   -3.1677987    1.5279305   468457 
 4441000    1.0856748   -3.1665321   -1.6402951  0.081378372   -3.1665321     1.526237   468482 
 4442000    1.0872619   -3.1701346   -1.6417349  0.082303114   -3.1701346    1.5283997   468503 
 4443000    1.0863765   -3.1686414   -1.6415419  0.081290647   -3.1686414    1.5270995   468520 
 4444000    1.0854215   -3.1666519   -1.6409794  0.083858915   -3.1666519    1.5256725   468546 
 4445000    1.0866234   -3.1691037   -1.6417451  0.084153415   -3.1691037    1.5273586   468547 
 4446000    1.0883902   -3.1705637   -1.6408065  0.080898262   -3.1705637    1.5297572   468573 
 4447000     1.085933   -3.1670365   -1.6407948  0.079597089   -3.1670365    1.5262417   468592 
 4448000    1.0871731   -3.1691748   -1.6413173  0.081933577   -3.1691748    1.5278574   468631 
 4449000    1.0868616   -3.1670069   -1.6394993  0.079922338   -3.1670069    1.5275076   468604 
 4450000    1.0869665   -3.1672152   -1.6396319  0.081183584   -3.1672152    1.5275833   468626 
 4451000    1.0883296   -3.1673543   -1.6379043  0.084708273   -3.1673543      1.52945   468641 
 4452000    1.0876454   -3.1672935   -1.6387953    0.0812687   -3.1672935    1.5284983   468638 
 4453000    1.0869513   -3.1672295   -1.6397587   0.08564862   -3.1672295    1.5274707   468654 
 4454000    1.0885181   -3.1671699   -1.6376312  0.077625468   -3.1671699    1.5295387   468695 
 4455000    1.0885326   -3.1677518   -1.6382581  0.077937391   -3.1677518    1.5294937   468715 
 4456000    1.0870983   -3.1654464   -1.6380853  0.082719763   -3.1654464    1.5273611   468751 
 4457000     1.087325   -3.1666964   -1.6390688  0.078755525   -3.1666964    1.5276275   468767 
 4458000    1.0861404   -3.1646842   -1.6388121    0.0834931   -3.1646842    1.5258721   468795 
 4459000    1.0866944   -3.1657301   -1.6390764  0.079985296   -3.1657301    1.5266536   468794 
 4460000    1.0877445   -3.1680059   -1.6398543   0.07888084   -3.1680059    1.5281517   468787 
 4461000    1.0863884   -3.1677613   -1.6415147  0.075554334   -3.1677613    1.5262466   468787 
 4462000    1.0866198   -3.1680048   -1.6414299  0.082352419   -3.1680048    1.5265748   468786 
 4463000    1.0871035   -3.1696951   -1.6424602  0.081014306   -3.1696951    1.5272349   468792 
 4464000    1.0843103   -3.1669484   -1.6436799  0.076240362   -3.1669484    1.5232686   468805 
 4465000    1.0851761   -3.1666576   -1.6422605    0.0802178   -3.1666576    1.5243971   468832 
 4466000    1.0857877   -3.1663252    -1.641043  0.080622369   -3.1663252    1.5252822   468824 
 4467000     1.086342   -3.1676137   -1.6416016  0.082670107   -3.1676137    1.5260121   468839 
 4468000    1.0855686   -3.1679122    -1.642993   0.08346109   -3.1679122    1.5249192   468841 
 4469000     1.087971   -3.1683918   -1.6400914   0.08104754   -3.1683918    1.5283004   468839 
 4470000    1.0891804   -3.1696319   -1.6396882  0.080805787   -3.1696319    1.5299437   468856 
 4471000     1.088352   -3.1686437   -1.6398278  0.085443631   -3.1686437     1.528816   468845 
 4472000     1.088411   -3.1697167   -1.6407852  0.083881636   -3.1697167    1.5289316   468835 
 4473000    1.0897646   -3.1723214     -1.64157  0.082037327   -3.1723214    1.5307514   468860 
 4474000    1.0885114   -3.1695588   -1.6406168  0.080057571   -3.1695588    1.5289421   468875 
 4475000    1.0891807   -3.1700517   -1.6403848  0.082871143   -3.1700517    1.5296669   468941 
 4476000    1.0884872   -3.1706544   -1.6418734  0.086671017   -3.1706544    1.5287809   468914 
 4477000    1.0883365   -3.1714255   -1.6429051  0.082431838   -3.1714255    1.5285204   468929 
 4478000    1.0874736   -3.1709865   -1.6438116  0.081224701   -3.1709865    1.5271749   468970 
 4479000    1.0896118   -3.1714571   -1.6413413  0.087638277   -3.1714571    1.5301157   468989 
 4480000    1.0888827    -3.171008   -1.6419031   0.08197583    -3.171008    1.5291049   468985 
 4481000    1.0881845   -3.1717034   -1.6436507  0.076387047   -3.1717034    1.5280527   469007 
 4482000    1.0889953    -3.172656   -1.6435462  0.082442145    -3.172656    1.5291098   469032 
 4483000    1.0879874   -3.1703753   -1.6427916  0.081708486   -3.1703753    1.5275837   469066 
 4484000    1.0890785   -3.1707792   -1.6417189  0.079021209   -3.1707792    1.5290603   469083 
 4485000    1.0872472   -3.1685496   -1.6419303  0.081529751   -3.1685496    1.5266193   469043 
 4486000    1.0863565   -3.1672423   -1.6418443  0.079458489   -3.1672423     1.525398   469034 
 4487000    1.0888003   -3.1698905   -1.6411262  0.078439271   -3.1698905    1.5287643   469054 
 4488000    1.0861257    -3.169034   -1.6441356  0.077637896    -3.169034    1.5248984   469088 
 4489000    1.0849234    -3.166855   -1.6436901  0.083218562    -3.166855    1.5231649   469102 
 4490000    1.0848297   -3.1658399   -1.6427709  0.079642593   -3.1658399    1.5230691   469091 
 4491000    1.0856569    -3.167907   -1.6437707  0.077833743    -3.167907    1.5241362   469120 
 4492000    1.0864356   -3.1664564   -1.6411977  0.081237652   -3.1664564    1.5252587   469111 
 4493000    1.0865764   -3.1677036   -1.6422668  0.080358079   -3.1677036    1.5254368   469117 
 4494000    1.0867313   -3.1671132   -1.6415142  0.074420487   -3.1671132     1.525599   469134 
 4495000    1.0873121   -3.1664027   -1.6400014  0.079358215   -3.1664027    1.5264013   469138 
 4496000    1.0852833   -3.1645522   -1.6411613  0.080439888   -3.1645522    1.5233908   469188 
 4497000    1.0858371   -3.1642085    -1.640102  0.081739488   -3.1642085    1.5241065   469207 
 4498000    1.0871831   -3.1653976   -1.6394668  0.079388467   -3.1653976    1.5259307   469227 
 4499000    1.0878691   -3.1646079   -1.6377858  0.080978505   -3.1646079    1.5268221   469249 
 4500000    1.0866635   -3.1649949   -1.6399461  0.076068618   -3.1649949    1.5250487   469274 
 4501000    1.0838994   -3.1615738   -1.6404691  0.082440296   -3.1615738    1.5211047   469294 
 4502000    1.0866683   -3.1667811   -1.6417582  0.077451704   -3.1667811    1.5250229   469284 
 4503000    1.0859779   -3.1659817   -1.6419146  0.075039145   -3.1659817    1.5240671   469280 
 4504000    1.0856667   -3.1644378   -1.6408562  0.077444797   -3.1644378    1.5235816   469295 
 4505000    1.0866768   -3.1650701   -1.6401326  0.078849473   -3.1650701    1.5249374   469314 
 4506000    1.0866325   -3.1651637   -1.6403859  0.079418674   -3.1651637    1.5247778   469344 
 4507000    1.0866164   -3.1651246   -1.6404896  0.076778348   -3.1651246    1.5246349   469381 
 4508000    1.0877344   -3.1651885   -1.6390272   0.08016687   -3.1651885    1.5261614   469394 
 4509000    1.0870701   -3.1650575   -1.6399288  0.078388695   -3.1650575    1.5251287   469425 
 4510000    1.0887621   -3.1670267   -1.6396252  0.082103545   -3.1670267    1.5274015   469456 
 4511000    1.0870904   -3.1653572   -1.6404795  0.077297687   -3.1653572    1.5248777   469511 
 4512000    1.0867954   -3.1669836   -1.6425132  0.079524811   -3.1669836    1.5244704   469509 
 4513000    1.0881616   -3.1666831   -1.6404555  0.081177017   -3.1666831    1.5262276   469558 
 4514000     1.089058   -3.1681563   -1.6406943   0.08040016   -3.1681563    1.5274621   469565 
 4515000      1.08959   -3.1700236   -1.6419033  0.077256026   -3.1700236    1.5281203   469592 
 4516000    1.0881355   -3.1673465   -1.6413636    0.0851466   -3.1673465    1.5259829   469622 
 4517000    1.0882926   -3.1664523   -1.6404114  0.086944645   -3.1664523    1.5260408   469672 
 4518000    1.0898258   -3.1694558   -1.6414539  0.083653881   -3.1694558    1.5280019   469730 
 4519000    1.0894928   -3.1700352   -1.6426269   0.07751848   -3.1700352    1.5274082   469769 
 4520000    1.0884429   -3.1687646   -1.6429191  0.079651299   -3.1687646    1.5258455   469797 
 4521000    1.0897212   -3.1691807   -1.6416765  0.082961862   -3.1691807    1.5275042   469838 
 4522000    1.0892456   -3.1696993   -1.6429691   0.08010197   -3.1696993    1.5267302   469871 
 4523000    1.0902872   -3.1710735    -1.643033   0.08618264   -3.1710735    1.5280406   469917 
 4524000    1.0894471   -3.1695843   -1.6427797  0.083041803   -3.1695843    1.5268046   469935 
 4525000    1.0904194   -3.1714898   -1.6433159  0.081560049   -3.1714898    1.5281739   469933 
 4526000    1.0882962   -3.1699632   -1.6447162  0.082216055   -3.1699632    1.5252469   469918 
 4527000    1.0920877   -3.1741318   -1.6437404  0.081086945   -3.1741318    1.5303914   469970 
 4528000    1.0912327   -3.1721372   -1.6430937  0.087313518   -3.1721372    1.5290436   470016 
 4529000    1.0928014   -3.1739104   -1.6427925  0.082579985   -3.1739104    1.5311179   470054 
 4530000    1.0932402   -3.1728017   -1.6412547  0.084816865   -3.1728017     1.531547   470111 
 4531000    1.0922032   -3.1727322    -1.642817  0.083483733   -3.1727322    1.5299152   470166 
 4532000    1.0925997   -3.1740894   -1.6436708  0.078456036   -3.1740894    1.5304186   470182 
 4533000    1.0920709   -3.1718936   -1.6422516  0.084352598   -3.1718936     1.529642   470193 
 4534000    1.0925329   -3.1737241   -1.6435391  0.082357248   -3.1737241     1.530185   470225 
 4535000    1.0904811   -3.1708141   -1.6435029  0.080172965   -3.1708141    1.5273113   470225 
 4536000    1.0893345   -3.1699308   -1.6443456  0.078946603   -3.1699308    1.5255853   470262 
 4537000    1.0915435   -3.1711888   -1.6425099  0.079259874   -3.1711888    1.5286789   470262 
 4538000    1.0900725   -3.1697752    -1.643218  0.080279705   -3.1697752    1.5265572   470281 
 4539000    1.0897616   -3.1684616   -1.6424015   0.08118933   -3.1684616    1.5260601   470300 
 4540000    1.0898073    -3.169893   -1.6437365  0.078588499    -3.169893    1.5261566   470290 
 4541000    1.0894344   -3.1693832   -1.6436937  0.076405194   -3.1693832    1.5256895   470273 
 4542000     1.089545   -3.1691198   -1.6432267  0.079446057   -3.1691198    1.5258932   470258 
 4543000    1.0903765    -3.171189   -1.6440243  0.083502105    -3.171189    1.5271648   470225 
 4544000    1.0910012   -3.1713221   -1.6433571  0.079038153   -3.1713221     1.527965   470248 
 4545000    1.0903568   -3.1689817   -1.6419971  0.079103145   -3.1689817    1.5269846   470272 
 4546000    1.0914906    -3.170716   -1.6422119  0.077875281    -3.170716    1.5285041   470293 
 4547000    1.0906108   -3.1688577   -1.6416181  0.083772455   -3.1688577    1.5272396   470303 
 4548000    1.0902711   -3.1692886    -1.642648  0.079764247   -3.1692886    1.5266405   470341 
 4549000    1.0897971   -3.1682269   -1.6424836  0.085367585   -3.1682269    1.5257433   470413 
 4550000    1.0898271   -3.1687968   -1.6429563  0.084209416   -3.1687968    1.5258405   470396 
 4551000    1.0895069   -3.1693681   -1.6440992  0.077526607   -3.1693681    1.5252689   470434 
 4552000    1.0891441    -3.167688   -1.6430825  0.079783341    -3.167688    1.5246054   470482 
 4553000    1.0886374   -3.1677836    -1.643962  0.077460218   -3.1677836    1.5238216   470505 
 4554000    1.0890137   -3.1680123   -1.6437124  0.076483967   -3.1680123    1.5242998   470520 
 4555000    1.0889131   -3.1690107   -1.6448809  0.080497169   -3.1690107    1.5241298   470529 
 4556000    1.0897431   -3.1676686   -1.6424386  0.081099569   -3.1676686      1.52523   470548 
 4557000    1.0905943   -3.1697647   -1.6434018  0.081386978   -3.1697647    1.5263629   470566 
 4558000    1.0902254   -3.1691512   -1.6432884  0.075350213   -3.1691512    1.5258628   470561 
 4559000    1.0893161   -3.1678888   -1.6433116  0.079580307   -3.1678888    1.5245772   470565 
 4560000    1.0891496   -3.1679332   -1.6435534  0.078090014   -3.1679332    1.5243798   470554 
 4561000      1.08971   -3.1691694   -1.6440409  0.074206413   -3.1691694    1.5251285   470565 
 4562000    1.0899093    -3.168587   -1.6432573  0.084312665    -3.168587    1.5253297   470589 
 4563000    1.0904127   -3.1683954   -1.6424033  0.080197657   -3.1683954    1.5259921   470602 
 4564000    1.0917162   -3.1698837   -1.6421357  0.081550478   -3.1698837     1.527748   470623 
 4565000    1.0926722    -3.170375    -1.641419   0.08376406    -3.170375     1.528956   470663 
 4566000    1.0915884    -3.168386   -1.6409044  0.090481767    -3.168386    1.5274816   470650 
 4567000    1.0919992   -3.1693452   -1.6413342  0.087672988   -3.1693452     1.528011   470664 
 4568000     1.090472   -3.1691054   -1.6433384  0.080579869   -3.1691054     1.525767   470697 
 4569000    1.0910443   -3.1698308   -1.6433053  0.078880025   -3.1698308    1.5265255   470710 
 4570000    1.0904984   -3.1692351   -1.6435154  0.074229105   -3.1692351    1.5257197   470723 
 4571000    1.0908015   -3.1693935   -1.6432919   0.08059009   -3.1693935    1.5261016   470736 
 4572000    1.0915189   -3.1696487   -1.6426342  0.081991077   -3.1696487    1.5270145   470764 
 4573000    1.0916362   -3.1701002   -1.6431551  0.080006876   -3.1701002     1.526945   470836 
 4574000    1.0903629   -3.1686722   -1.6434434  0.076821277   -3.1686722    1.5252288   470816 
 4575000    1.0911357   -3.1702535    -1.644015  0.078707833   -3.1702535    1.5262385   470838 
 4576000    1.0900686   -3.1703347   -1.6456569   0.07932235   -3.1703347    1.5246779   470859 
 4577000    1.0905884   -3.1703971    -1.645057  0.080874924   -3.1703971    1.5253401   470879 
 4578000    1.0903287   -3.1698224   -1.6449135  0.079122652   -3.1698224    1.5249088   470900 
 4579000    1.0901096   -3.1697881   -1.6452083  0.079229729   -3.1697881    1.5245797   470907 
 4580000    1.0910618   -3.1703917   -1.6446682  0.085658013   -3.1703917    1.5257235   470965 
 4581000    1.0926426   -3.1727272   -1.6447996  0.079150477   -3.1727272    1.5279277   470967 
 4582000    1.0923479   -3.1731919   -1.6457801  0.078585839   -3.1731919    1.5274117   470999 
 4583000     1.091873   -3.1723169   -1.6456665  0.081197119   -3.1723169    1.5266504   471029 
 4584000    1.0920495   -3.1715603   -1.6447862  0.081398885   -3.1715603     1.526774   471067 
 4585000    1.0912624   -3.1716163    -1.645988  0.081618864   -3.1716163    1.5256283   471081 
 4586000    1.0916035   -3.1712678   -1.6452598  0.075956624   -3.1712678     1.526008   471111 
 4587000     1.092474   -3.1726609   -1.6454457  0.078810267   -3.1726609    1.5272152   471114 
 4588000    1.0928944   -3.1725139   -1.6447467  0.080370234   -3.1725139    1.5277672   471125 
 4589000    1.0921994   -3.1728716   -1.6462185  0.080350537   -3.1728716     1.526653   471169 
 4590000     1.092083   -3.1719918    -1.645644  0.081555571   -3.1719918    1.5263479   471213 
 4591000    1.0907316   -3.1700156   -1.6456244  0.082061742   -3.1700156    1.5243912   471234 
 4592000    1.0930523   -3.1717442   -1.6440546  0.081454563   -3.1717442    1.5276896   471217 
 4593000    1.0934484   -3.1728452   -1.6446441  0.081660878   -3.1728452    1.5282011   471230 
 4594000     1.093579   -3.1736239   -1.6454414  0.081790884   -3.1736239    1.5281826   471292 
 4595000    1.0936222   -3.1726563   -1.6445139  0.088034599   -3.1726563    1.5281424   471323 
 4596000    1.0934654   -3.1724816   -1.6445292  0.081687788   -3.1724816    1.5279524   471314 
 4597000     1.093001   -3.1705273   -1.6433145   0.08800639   -3.1705273    1.5272128   471342 
 4598000    1.0942487   -3.1723854    -1.643533  0.081278861   -3.1723854    1.5288523   471374 
 4599000    1.0942061   -3.1716256   -1.6430566  0.079049396   -3.1716256    1.5285691   471443 
 4600000    1.0941132   -3.1711787   -1.6427977  0.086589111   -3.1711787    1.5283809   471461 
 4601000    1.0944848    -3.171611   -1.6427953  0.084214249    -3.171611    1.5288157   471487 
 4602000    1.0931468   -3.1706166    -1.643644    0.0853656   -3.1706166    1.5269727   471479 
 4603000    1.0931664   -3.1703731   -1.6434572  0.084434697   -3.1703731    1.5269159   471505 
 4604000    1.0936344   -3.1715933   -1.6440367  0.077560273   -3.1715933    1.5275567   471509 
 4605000    1.0935416   -3.1707028   -1.6434151  0.077142642   -3.1707028    1.5272877   471552 
 4606000    1.0931522   -3.1710354   -1.6443531  0.075917736   -3.1710354    1.5266824   471571 
 4607000    1.0908771   -3.1689891   -1.6455875  0.081458055   -3.1689891    1.5234016   471603 
 4608000    1.0921416   -3.1706745   -1.6455522  0.080955376   -3.1706745    1.5251222   471617 
 4609000     1.092488   -3.1701165   -1.6446399  0.084122837   -3.1701165    1.5254766   471657 
 4610000    1.0912246   -3.1689777   -1.6453686  0.083684061   -3.1689777    1.5236091   471689 
 4611000    1.0929489   -3.1706361   -1.6447781  0.074898695   -3.1706361     1.525858   471738 
 4612000    1.0930148   -3.1703683   -1.6444991  0.079490324   -3.1703683    1.5258692   471763 
 4613000    1.0920965   -3.1684444   -1.6438411  0.079915886   -3.1684444    1.5246034   471758 
 4614000    1.0927948   -3.1688085   -1.6432077  0.081359298   -3.1688085    1.5256008   471751 
 4615000    1.0928433   -3.1685735   -1.6428111  0.083412855   -3.1685735    1.5257624   471722 
 4616000    1.0942953   -3.1711402   -1.6434511  0.075537068   -3.1711402    1.5276892   471753 
 4617000    1.0927013   -3.1710582   -1.6456105  0.081401086   -3.1710582    1.5254477   471758 
 4618000    1.0936805   -3.1709998   -1.6442628  0.082754267   -3.1709998     1.526737   471782 
 4619000     1.095141   -3.1731288   -1.6443562  0.077917221   -3.1731288    1.5287726   471783 
 4620000    1.0945054    -3.172056   -1.6442354  0.081518449    -3.172056    1.5278206   471803 
 4621000    1.0932059   -3.1710548   -1.6450191  0.083049148   -3.1710548    1.5260356   471794 
 4622000     1.093848   -3.1719051    -1.644876  0.080755723   -3.1719051    1.5270291   471764 
 4623000    1.0950286   -3.1726069   -1.6439589  0.077607379   -3.1726069     1.528648   471773 
 4624000    1.0955402   -3.1717651   -1.6423995  0.078799379   -3.1717651    1.5293656   471772 
 4625000    1.0947889   -3.1709005   -1.6426454  0.081026927   -3.1709005    1.5282551   471791 
 4626000    1.0929879   -3.1693366   -1.6436505  0.081788751   -3.1693366    1.5256861   471808 
 4627000    1.0933434   -3.1704892   -1.6443716   0.07975641   -3.1704892    1.5261176   471828 
 4628000    1.0948668   -3.1717637   -1.6435294  0.085085566   -3.1717637    1.5282343   471831 
 4629000    1.0942439    -3.172621   -1.6452432  0.080812914    -3.172621    1.5273778   471827 
 4630000      1.09391   -3.1726695   -1.6458678  0.084056372   -3.1726695    1.5268017   471861 
 4631000    1.0932443   -3.1719037   -1.6460278  0.078936053   -3.1719037    1.5258758   471860 
 4632000    1.0942987   -3.1730182   -1.6458261  0.078405621   -3.1730182    1.5271921   471908 
 4633000    1.0937326    -3.173766    -1.647448  0.072697741    -3.173766     1.526318   471934 
 4634000    1.0915288   -3.1697147   -1.6466465  0.078483378   -3.1697147    1.5230683   471988 
 4635000      1.09326    -3.170111   -1.6446563  0.076439446    -3.170111    1.5254548   471997 
 4636000    1.0944871   -3.1714846   -1.6444373  0.083893189   -3.1714846    1.5270474   472034 
 4637000    1.0924114   -3.1685823   -1.6444601  0.084283165   -3.1685823    1.5241223   472043 
 4638000    1.0939389   -3.1709907   -1.6447954  0.084384468   -3.1709907    1.5261952   472061 
 4639000    1.0937886   -3.1692448   -1.6434566  0.083090204   -3.1692448    1.5257883   472122 
 4640000    1.0942823   -3.1694012   -1.6428401  0.086084594   -3.1694012    1.5265611   472096 
 4641000    1.0934764   -3.1693097   -1.6438762  0.081341798   -3.1693097    1.5254335   472097 
 4642000    1.0951679   -3.1716186     -1.64389  0.077596514   -3.1716186    1.5277286   472117 
 4643000    1.0925875   -3.1682215   -1.6441248  0.077706758   -3.1682215    1.5240967   472127 
 4644000    1.0944639   -3.1697049   -1.6430328  0.082263627   -3.1697049    1.5266721   472140 
 4645000    1.0951057   -3.1703076   -1.6427015  0.076371646   -3.1703076    1.5276062   472128 
 4646000    1.0916399   -3.1664925   -1.6438434  0.085268199   -3.1664925    1.5226491   472166 
 4647000    1.0940938   -3.1700512   -1.6441538  0.086621332   -3.1700512    1.5258974   472220 
 4648000    1.0940714   -3.1700148   -1.6441196  0.076574614   -3.1700148    1.5258952   472211 
 4649000    1.0938734   -3.1691835   -1.6436033  0.080234825   -3.1691835    1.5255802   472223 
 4650000    1.0929421   -3.1680218   -1.6438114  0.080086001   -3.1680218    1.5242104   472245 
 4651000    1.0940453   -3.1706634   -1.6450599  0.074754131   -3.1706634    1.5256035   472290 
 4652000    1.0942213   -3.1693699    -1.643495  0.079971595   -3.1693699    1.5258748   472282 
 4653000    1.0946494   -3.1699148   -1.6434948  0.079859678   -3.1699148    1.5264201   472298 
 4654000    1.0954187   -3.1703625    -1.642818  0.077799186   -3.1703625    1.5275445   472282 
 4655000    1.0921777   -3.1659338    -1.642812   0.08701118   -3.1659338    1.5231219   472252 
 4656000    1.0948279   -3.1697318   -1.6430466  0.080672064   -3.1697318    1.5266851   472293 
 4657000     1.094245    -3.170239   -1.6443473  0.082549971    -3.170239    1.5258917   472287 
 4658000     1.094609   -3.1698505   -1.6434964  0.081473131   -3.1698505    1.5263541   472301 
 4659000    1.0939847    -3.170555    -1.644994  0.084629673    -3.170555     1.525561   472277 
 4660000    1.0943582   -3.1705252   -1.6445467  0.082399086   -3.1705252    1.5259785   472309 
 4661000    1.0958321   -3.1729425   -1.6450446  0.079538141   -3.1729425    1.5278978   472351 
 4662000      1.09473   -3.1715245   -1.6452893  0.079944818   -3.1715245    1.5262351   472390 
 4663000    1.0950998   -3.1726009   -1.6459535   0.07830216   -3.1726009    1.5266474   472422 
 4664000    1.0951592   -3.1733134   -1.6466608  0.080311057   -3.1733134    1.5266525   472446 
 4665000    1.0954038   -3.1741698   -1.6472699  0.081776094   -3.1741698    1.5268998   472475 
 4666000    1.0944064   -3.1735611   -1.6481226  0.079347736   -3.1735611    1.5254385   472497 
 4667000    1.0950546    -3.172672     -1.64633  0.084855605    -3.172672     1.526342   472497 
 4668000    1.0957132   -3.1732015   -1.6460028  0.081212822   -3.1732015    1.5271986   472516 
 4669000    1.0972252   -3.1741062   -1.6448488  0.081796956   -3.1741062    1.5292574   472531 
 4670000    1.0951948   -3.1710711    -1.644734  0.081274796   -3.1710711    1.5263371   472559 
 4671000    1.0971972   -3.1752655   -1.6462251  0.084034908   -3.1752655    1.5290404   472586 
 4672000    1.0956825   -3.1726238   -1.6457007    0.0841684   -3.1726238    1.5269231   472588 
 4673000    1.0944683   -3.1708635   -1.6457874   0.08085718   -3.1708635    1.5250761   472636 
 4674000    1.0960854   -3.1723655   -1.6451104  0.078323681   -3.1723655    1.5272551   472659 
 4675000    1.0968483   -3.1730009   -1.6446731  0.086149973   -3.1730009    1.5283279   472656 
 4676000    1.0966126   -3.1738156   -1.6457548  0.080560896   -3.1738156    1.5280608   472637 
 4677000    1.0978662   -3.1738029   -1.6441376  0.079150952   -3.1738029    1.5296653   472681 
 4678000    1.0979349   -3.1729847   -1.6432561  0.082605509   -3.1729847    1.5297286   472691 
 4679000    1.0967808   -3.1722383     -1.64415  0.085473663   -3.1722383    1.5280883   472701 
 4680000    1.0971622   -3.1727338   -1.6441433  0.079041677   -3.1727338    1.5285905   472710 
 4681000    1.0963197    -3.171652   -1.6443063   0.07853714    -3.171652    1.5273457   472732 
 4682000    1.0964067   -3.1712779   -1.6438919  0.077940426   -3.1712779    1.5273861   472757 
 4683000    1.0968888   -3.1714482   -1.6435359  0.082453007   -3.1714482    1.5279123   472802 
 4684000    1.0971276   -3.1718571   -1.6436672  0.078266187   -3.1718571      1.52819   472819 
 4685000    1.0956671   -3.1702897   -1.6442889   0.08174646   -3.1702897    1.5260008   472867 
 4686000    1.0969651   -3.1713411   -1.6435907  0.078829057   -3.1713411    1.5277503   472885 
 4687000    1.0966987   -3.1709394   -1.6435665  0.080545579   -3.1709394    1.5273729   472887 
 4688000    1.0954526   -3.1682675   -1.6426623  0.083781705   -3.1682675    1.5256052   472897 
 4689000    1.0964244   -3.1696653   -1.6428133   0.08062903   -3.1696653     1.526852   472930 
 4690000    1.0958644   -3.1696432   -1.6436226  0.077262363   -3.1696432    1.5260207   472946 
 4691000    1.0968717   -3.1706356   -1.6431865  0.078736429   -3.1706356    1.5274491   472938 
 4692000    1.0967655   -3.1700064   -1.6427374  0.077752017   -3.1700064     1.527269   472948 
 4693000    1.0982116   -3.1704882   -1.6413316   0.08268155   -3.1704882    1.5291566   472987 
 4694000    1.0976207   -3.1722412   -1.6439591  0.080043432   -3.1722412    1.5282821   473003 
 4695000     1.097088    -3.173335   -1.6457687  0.075318788    -3.173335    1.5275663   472995 
 4696000    1.0958068   -3.1701695   -1.6444227   0.07944622   -3.1701695    1.5257468   473006 
 4697000    1.0958899   -3.1701009   -1.6443061  0.081169134   -3.1701009    1.5257948   473027 
 4698000    1.0961382   -3.1708638   -1.6448652  0.081507043   -3.1708638    1.5259986   473071 
 4699000    1.0971117   -3.1718617     -1.64465  0.081297838   -3.1718617    1.5272118   473115 
 4700000    1.0957336   -3.1703784    -1.645201  0.081750243   -3.1703784    1.5251774   473151 
 4701000    1.0965942   -3.1704864   -1.6442756  0.078953778   -3.1704864    1.5262107   473202 
 4702000    1.0955103   -3.1704303   -1.6457604  0.080246508   -3.1704303      1.52467   473212 
 4703000    1.0960512   -3.1707725   -1.6453529  0.082495621   -3.1707725    1.5254196   473213 
 4704000    1.0970641   -3.1725122   -1.6457604  0.077466443   -3.1725122    1.5267519   473237 
 4705000    1.0975667   -3.1732694   -1.6458763   0.07724984   -3.1732694    1.5273931   473255 
 4706000    1.0967447    -3.171747   -1.6455267  0.082336613    -3.171747    1.5262203   473264 
 4707000    1.0979413   -3.1722083   -1.6442938   0.08390122   -3.1722083    1.5279145   473255 
 4708000    1.0984755   -3.1739899   -1.6455161  0.084526579   -3.1739899    1.5284738   473312 
 4709000    1.0992254   -3.1737938   -1.6444478   0.08348266   -3.1737938     1.529346   473365 
 4710000    1.0980648   -3.1728114   -1.6450834   0.08289631   -3.1728114     1.527728   473366 
 4711000    1.1009186   -3.1751368   -1.6434966   0.08815216   -3.1751368    1.5316402   473384 
 4712000    1.1024637   -3.1771774   -1.6434524  0.087428587   -3.1771774     1.533725   473404 
 4713000    1.1021913   -3.1766148   -1.6433044  0.080157102   -3.1766148    1.5333104   473415 
 4714000     1.100991   -3.1752314   -1.6437234  0.081484159   -3.1752314    1.5315081   473456 
 4715000    1.0996491   -3.1745255   -1.6449099  0.086182879   -3.1745255    1.5296156   473464 
 4716000    1.0992349    -3.174203   -1.6452605  0.090402618    -3.174203    1.5289425   473494 
 4717000     1.100914   -3.1772558   -1.6461006  0.077356707   -3.1772558    1.5311552   473532 
 4718000    1.0986297   -3.1741751   -1.6462969  0.084254996   -3.1741751    1.5278781   473563 
 4719000    1.1012965   -3.1755158   -1.6439872  0.081445079   -3.1755158    1.5315286   473581 
 4720000    1.1004248   -3.1744357   -1.6440741  0.084615386   -3.1744357    1.5303616   473567 
 4721000    1.0984736    -3.172451   -1.6449254  0.082316375    -3.172451    1.5275256   473605 
 4722000    1.0994177   -3.1730962   -1.6443095  0.081946778   -3.1730962    1.5287867   473621 
 4723000    1.0981148   -3.1719331   -1.6450612  0.081865884   -3.1719331    1.5268719   473653 
 4724000    1.1000933   -3.1730882    -1.643701  0.081562717   -3.1730882    1.5293872   473726 
 4725000    1.0982752   -3.1708598   -1.6441325  0.081262452   -3.1708598    1.5267274   473767 
 4726000    1.0997402   -3.1723892   -1.6436318  0.083375874   -3.1723892    1.5287574   473769 
 4727000    1.0996623     -3.17297   -1.6443433  0.077628873     -3.17297    1.5286266   473776 
 4728000    1.0983874    -3.172038   -1.6453093  0.079047132    -3.172038    1.5267287   473815 
 4729000    1.0997187   -3.1731443   -1.6446232   0.08181536   -3.1731443    1.5285211   473833 
 4730000      1.09846   -3.1717545   -1.6450151  0.076138271   -3.1717545    1.5267393   473843 
 4731000    1.0988624   -3.1709926   -1.6437068  0.083709406   -3.1709926    1.5272858   473847 
 4732000    1.0991847   -3.1707065   -1.6430534  0.081401696   -3.1707065    1.5276531   473872 
 4733000    1.1006716   -3.1727341   -1.6430047  0.075900312   -3.1727341    1.5297294   473869 
 4734000    1.0992998   -3.1703982   -1.6426593  0.077899281   -3.1703982    1.5277389   473895 
 4735000    1.0996131   -3.1705822    -1.642324  0.083585391   -3.1705822    1.5282582   473869 
 4736000    1.0977345   -3.1702887   -1.6447026  0.077282263   -3.1702887    1.5255861   473888 
 4737000    1.0980655   -3.1715931   -1.6455212  0.079916253   -3.1715931    1.5260719   473880 
 4738000    1.0985756    -3.172101   -1.6453202  0.077552061    -3.172101    1.5267808   473880 
 4739000     1.099176    -3.173561   -1.6460166  0.076530478    -3.173561    1.5275444   473902 
 4740000    1.0976618   -3.1715437   -1.6461036  0.074121899   -3.1715437      1.52544   473902 
 4741000    1.0992384   -3.1737188   -1.6461844  0.082801131   -3.1737188    1.5275344   473932 
 4742000    1.0997116   -3.1742101   -1.6459827  0.079843184   -3.1742101    1.5282275   473921 
 4743000    1.0982284   -3.1724099   -1.6461438  0.083810068   -3.1724099    1.5262661   473890 
 4744000    1.0991165   -3.1735168   -1.6460132  0.083043086   -3.1735168    1.5275036   473889 
 4745000     1.100377   -3.1741714   -1.6448998  0.082897537   -3.1741714    1.5292715   473884 
 4746000    1.1000226   -3.1733947   -1.6446739  0.085154236   -3.1733947    1.5287208   473902 
 4747000    1.1011271   -3.1759472   -1.6458108  0.080158702   -3.1759472    1.5301364   473939 
 4748000    1.1001379   -3.1744391   -1.6457774  0.084406643   -3.1744391    1.5286617   473970 
 4749000    1.1002731   -3.1753063   -1.6463598  0.083808396   -3.1753063    1.5289465   473940 
 4750000    1.1000901   -3.1748888    -1.646187  0.086127585   -3.1748888    1.5287018   473937 
 4751000    1.1010405   -3.1772063   -1.6472355  0.084082073   -3.1772063    1.5299708   473953 
 4752000    1.1022638   -3.1789426    -1.647301  0.082732339   -3.1789426    1.5316416   473962 
 4753000    1.1003915   -3.1774112   -1.6483099  0.082369754   -3.1774112    1.5291013   473943 
 4754000    1.1009314   -3.1775731   -1.6476474  0.084395988   -3.1775731    1.5299257   473920 
 4755000    1.1004418   -3.1776747   -1.6484486  0.089170148   -3.1776747    1.5292261   473926 
 4756000    1.1000188   -3.1769615   -1.6483557  0.081445122   -3.1769615    1.5286059   473936 
 4757000    1.1016276   -3.1794131    -1.648607  0.082055058   -3.1794131    1.5308061   473947 
 4758000    1.0997562   -3.1766067   -1.6484592  0.086524819   -3.1766067    1.5281475   473965 
 4759000    1.1032585   -3.1814599   -1.6485073  0.078344359   -3.1814599    1.5329526   473984 
 4760000    1.1003667   -3.1783611    -1.649504  0.086410795   -3.1783611    1.5288571   474008 
 4761000     1.098857   -3.1771865   -1.6504591  0.089054317   -3.1771865    1.5267274   474018 
 4762000    1.1004072   -3.1788617   -1.6500225  0.080197277   -3.1788617    1.5288392   474031 
 4763000    1.1007911   -3.1793268   -1.6500509  0.078632104   -3.1793268    1.5292758   474061 
 4764000    1.1018468   -3.1798415   -1.6491669  0.079023247   -3.1798415    1.5306746   474082 
 4765000    1.1008028   -3.1783018   -1.6492066  0.084653279   -3.1783018    1.5290952   474122 
 4766000    1.1016911   -3.1803018   -1.6498984  0.081558645   -3.1803018    1.5304034   474099 
 4767000    1.1006016    -3.179056   -1.6502208   0.08044016    -3.179056    1.5288351   474116 
 4768000    1.1011103    -3.179684   -1.6502325  0.081810448    -3.179684    1.5294515   474144 
 4769000    1.0990711   -3.1774103   -1.6507688  0.082184313   -3.1774103    1.5266415   474137 
 4770000    1.0996177   -3.1766007   -1.6493675   0.08553292   -3.1766007    1.5272332   474189 
 4771000    1.0992297   -3.1763357   -1.6497636  0.084702878   -3.1763357    1.5265721   474227 
 4772000    1.0990038    -3.174873   -1.6486951  0.084837002    -3.174873    1.5261779   474252 
 4773000     1.099271   -3.1757313    -1.649237  0.080541516   -3.1757313    1.5264942   474269 
 4774000    1.0999923   -3.1777108   -1.6503084  0.078917163   -3.1777108    1.5274024   474298 
 4775000    1.0999097   -3.1768993   -1.6496469   0.07959673   -3.1768993    1.5272523   474309 
 4776000    1.0983056   -3.1747773   -1.6496751  0.084801007   -3.1747773    1.5251022   474285 
 4777000     1.099292   -3.1747489   -1.6484444  0.088427547   -3.1747489    1.5263045   474337 
 4778000    1.0985169   -3.1733287   -1.6481646  0.083027123   -3.1733287    1.5251641   474357 
 4779000    1.0995935   -3.1746061   -1.6479731  0.080004707   -3.1746061    1.5266331   474365 
 4780000    1.0997738   -3.1749544   -1.6481804  0.083033634   -3.1749544     1.526774   474399 
 4781000    1.0992417   -3.1758546    -1.649874  0.081184829   -3.1758546    1.5259806   474416 
 4782000    1.0988748   -3.1742536   -1.6487116  0.082759737   -3.1742536    1.5255419   474394 
 4783000    1.1008447   -3.1778434   -1.6495344  0.075388826   -3.1778434    1.5283089   474384 
 4784000    1.1001377   -3.1750471   -1.6478452  0.080598735   -3.1750471    1.5272019   474423 
 4785000    1.0999305   -3.1758477    -1.648985  0.082069733   -3.1758477    1.5268628   474439 
 4786000    1.0997069   -3.1760882   -1.6496131  0.073962315   -3.1760882    1.5264751   474463 
 4787000    1.0997888   -3.1756684   -1.6492919  0.078929351   -3.1756684    1.5263765   474529 
 4788000    1.1019493   -3.1781634   -1.6489205  0.076052435   -3.1781634    1.5292429   474570 
 4789000    1.1001558   -3.1760806   -1.6492494  0.083891592   -3.1760806    1.5268312   474546 
 4790000    1.0989542   -3.1740079   -1.6489729  0.079277273   -3.1740079     1.525035   474586 
 4791000    1.1009677   -3.1745972   -1.6469097  0.087710075   -3.1745972    1.5276875   474630 
 4792000    1.1017242   -3.1754763   -1.6467779  0.075957958   -3.1754763    1.5286985   474642 
 4793000    1.1008838   -3.1752883   -1.6477912  0.085151647   -3.1752883    1.5274971   474653 
 4794000     1.102326    -3.176699   -1.6472557  0.084754457    -3.176699    1.5294433   474670 
 4795000     1.102211   -3.1766335   -1.6473304  0.082448678   -3.1766335    1.5293031   474664 
 4796000    1.1000171   -3.1756236   -1.6494931  0.078843347   -3.1756236    1.5261305   474704 
 4797000    1.0995588   -3.1742154    -1.648814  0.077613857   -3.1742154    1.5254015   474733 
 4798000    1.0992639   -3.1734418   -1.6484911  0.079807666   -3.1734418    1.5249507   474746 
 4799000    1.1007548   -3.1759222   -1.6488166  0.085282374   -3.1759222    1.5271057   474719 
 4800000    1.0996348   -3.1756659   -1.6501493  0.083168646   -3.1756659    1.5255166   474730 
 4801000     1.100203   -3.1752015   -1.6489192   0.08278294   -3.1752015    1.5262823   474737 
 4802000    1.1010213   -3.1755142   -1.6481416   0.08123514   -3.1755142    1.5273726   474751 
 4803000    1.1015413   -3.1774641   -1.6494668  0.078562077   -3.1774641    1.5279972   474781 
 4804000    1.1010494   -3.1755618   -1.6483402  0.078953917   -3.1755618    1.5272216   474810 
 4805000    1.1006779   -3.1752952   -1.6484698  0.080702825   -3.1752952    1.5268254   474773 
 4806000    1.1012604   -3.1766008   -1.6491121  0.081513259   -3.1766008    1.5274886   474818 
 4807000    1.1017338   -3.1777764    -1.649805  0.078153885   -3.1777764    1.5279715   474872 
 4808000    1.1007719   -3.1764351   -1.6498138  0.082155558   -3.1764351    1.5266213   474877 
 4809000    1.1029534   -3.1775198   -1.6479374  0.086449311   -3.1775198    1.5295824   474897 
 4810000    1.1014702   -3.1761368   -1.6486821   0.08227795   -3.1761368    1.5274547   474919 
 4811000    1.1036408   -3.1784292   -1.6479483  0.081694365   -3.1784292    1.5304809   474914 
 4812000    1.1030801   -3.1785954   -1.6488019  0.082771736   -3.1785954    1.5297935   474886 
 4813000    1.1014858    -3.177687   -1.6501818  0.081207654    -3.177687    1.5275052   474910 
 4814000    1.1011603    -3.177891   -1.6507664  0.079126616    -3.177891    1.5271246   474888 
 4815000    1.1001447   -3.1774749   -1.6516367  0.080535986   -3.1774749    1.5258382   474850 
 4816000    1.1002149   -3.1789943   -1.6531776  0.082926575   -3.1789943    1.5258167   474887 
 4817000    1.1016067   -3.1812017   -1.6535063  0.081441923   -3.1812017    1.5276955   474903 
 4818000    1.0988296   -3.1786505   -1.6547903  0.077566296   -3.1786505    1.5238603   474898 
 4819000    1.1011859   -3.1816586   -1.6545853  0.080859111   -3.1816586    1.5270734   474915 
 4820000    1.0994692   -3.1794996   -1.6548647  0.080711743   -3.1794996    1.5246349   474933 
 4821000    1.1003129   -3.1790703   -1.6532558  0.081350561   -3.1790703    1.5258145   474930 
 4822000    1.1012624   -3.1799416   -1.6528844  0.084941591   -3.1799416    1.5270572   474953 
 4823000    1.1002751   -3.1792562   -1.6535905  0.084112431   -3.1792562    1.5256657   474960 
 4824000    1.0996892   -3.1792135   -1.6544373  0.083651917   -3.1792135    1.5247762   474984 
 4825000    1.0999869    -3.178891   -1.6536443  0.082160646    -3.178891    1.5252468   474966 
 4826000    1.1005006   -3.1801015   -1.6542805  0.081367195   -3.1801015     1.525821   475009 
 4827000     1.101608   -3.1812878   -1.6539283  0.079801604   -3.1812878    1.5273596   475008 
 4828000    1.1017609   -3.1812233   -1.6538061  0.075845565   -3.1812233    1.5274172   475056 
 4829000    1.1016276   -3.1814419   -1.6541645  0.081477136   -3.1814419    1.5272774   475042 
 4830000    1.1023193    -3.182307   -1.6542089  0.081425608    -3.182307     1.528098   475085 
 4831000    1.1011923   -3.1812517   -1.6547706  0.079969027   -3.1812517    1.5264811   475102 
 4832000    1.1017275   -3.1813811   -1.6542095  0.080676044   -3.1813811    1.5271716   475118 
 4833000    1.0993142   -3.1781462   -1.6542846  0.080409975   -3.1781462    1.5238616   475107 
 4834000    1.1019174   -3.1818705   -1.6544581  0.081583684   -3.1818705    1.5274124   475125 
 4835000    1.1011656   -3.1808611   -1.6545134  0.075980458   -3.1808611    1.5263477   475132 
 4836000    1.1003742   -3.1796166   -1.6543851   0.08715177   -3.1796166    1.5252315   475138 
 4837000    1.1004792   -3.1814965   -1.6561419  0.080085445   -3.1814965    1.5253546   475145 
 4838000    1.0997109   -3.1801391   -1.6559104     0.080966   -3.1801391    1.5242287   475164 
 4839000    1.1009964   -3.1807293   -1.6547317  0.075450945   -3.1807293    1.5259976   475168 
 4840000    1.1002825   -3.1788246   -1.6538903  0.078180084   -3.1788246    1.5249343   475191 
 4841000    1.0993284   -3.1789584   -1.6555484  0.074028224   -3.1789584      1.52341   475254 
 4842000    1.1005913     -3.18056   -1.6554513  0.074286217     -3.18056    1.5251087   475270 
 4843000    1.1005545   -3.1804731   -1.6553255  0.080140854   -3.1804731    1.5251475   475242 
 4844000     1.101626   -3.1818456   -1.6553449   0.07695812   -3.1818456    1.5265007   475283 
 4845000     1.102253   -3.1824137   -1.6550473  0.079167741   -3.1824137    1.5273663   475284 
 4846000    1.1011043   -3.1794753    -1.653858  0.077984608   -3.1794753    1.5256173   475333 
 4847000     1.101907   -3.1795928   -1.6528633  0.086167637   -3.1795928    1.5267296   475333 
 4848000    1.1025138   -3.1809971   -1.6535103  0.077860647   -3.1809971    1.5274867   475359 
 4849000    1.1029355   -3.1817026   -1.6536669  0.082707869   -3.1817026    1.5280357   475370 
 4850000    1.1033647   -3.1813875   -1.6529374  0.080920496   -3.1813875    1.5284501   475426 
 4851000    1.1032006   -3.1810432   -1.6528846  0.082744759   -3.1810432    1.5281586   475446 
 4852000    1.1023165   -3.1806043   -1.6537024  0.081747351   -3.1806043    1.5269018   475456 
 4853000    1.1040093   -3.1819798     -1.65282  0.084231854   -3.1819798    1.5291598   475483 
 4854000    1.1036854   -3.1809998   -1.6523497  0.080786739   -3.1809998    1.5286501   475502 
 4855000    1.1046555   -3.1820459   -1.6521552  0.081965014   -3.1820459    1.5298908   475534 
 4856000    1.1025538   -3.1795797   -1.6527281  0.081853325   -3.1795797    1.5268516   475574 
 4857000    1.1032914   -3.1795452   -1.6517461  0.087047301   -3.1795452    1.5277991   475597 
 4858000    1.1034375   -3.1800697   -1.6520843  0.082760217   -3.1800697    1.5279854   475602 
 4859000    1.1039268   -3.1804182   -1.6517778   0.08330008   -3.1804182    1.5286404   475609 
 4860000    1.1036258    -3.178404   -1.6502414  0.079299692    -3.178404    1.5281625   475628 
 4861000    1.1033486    -3.179872   -1.6520643  0.077772017    -3.179872    1.5278077   475619 
 4862000    1.1035377   -3.1793254   -1.6511724  0.077325627   -3.1793254     1.528153   475593 
 4863000    1.1026561    -3.177383   -1.6504539  0.082501662    -3.177383    1.5269291   475594 
 4864000    1.1027609    -3.178596   -1.6515443  0.075764011    -3.178596    1.5270517   475601 
 4865000    1.1027843   -3.1788293   -1.6517484  0.080671297   -3.1788293    1.5270809   475602 
 4866000    1.1027102   -3.1786349   -1.6516182  0.077250819   -3.1786349    1.5270167   475590 
 4867000    1.1039917   -3.1799228   -1.6512728  0.071502886   -3.1799228      1.52865   475634 
 4868000     1.104252   -3.1784355   -1.6493929  0.080632926   -3.1784355    1.5290426   475624 
 4869000    1.1027206   -3.1764054   -1.6494609  0.076320458   -3.1764054    1.5269445   475617 
 4870000    1.1023273   -3.1770697   -1.6506954  0.082385404   -3.1770697    1.5263742   475625 
 4871000    1.1033659   -3.1769202   -1.6491432  0.082710475   -3.1769202     1.527777   475636 
 4872000    1.1030792    -3.176818   -1.6495568  0.078667027    -3.176818    1.5272613   475673 
 4873000    1.1023092   -3.1763709   -1.6503778  0.076708136   -3.1763709    1.5259931   475736 
 4874000    1.1013926   -3.1762722   -1.6516828  0.075163069   -3.1762722    1.5245895   475778 
 4875000    1.1015077   -3.1754992    -1.650792   0.07820492   -3.1754992    1.5247072   475791 
 4876000    1.1020839   -3.1759976   -1.6505763  0.077225207   -3.1759976    1.5254213   475817 
 4877000    1.1020995   -3.1752197    -1.649937  0.078598479   -3.1752197    1.5252827   475867 
 4878000    1.1023025   -3.1755863   -1.6501764  0.071940372   -3.1755863    1.5254098   475915 
 4879000     1.102918   -3.1755299   -1.6493389  0.082645916   -3.1755299     1.526191   475937 
 4880000    1.1018731   -3.1741217   -1.6494567   0.07988851   -3.1741217    1.5246651   475962 
 4881000    1.1025632   -3.1752894   -1.6497945  0.078711546   -3.1752894    1.5254949   476001 
 4882000    1.1031267   -3.1768032   -1.6506312  0.078106655   -3.1768032    1.5261719   476033 
 4883000     1.103505   -3.1770417   -1.6505099  0.075299641   -3.1770417    1.5265318   476084 
 4884000    1.1034397   -3.1758782   -1.6495907  0.079576548   -3.1758782    1.5262875   476132 
 4885000    1.1048738   -3.1779466   -1.6497042  0.077080544   -3.1779466    1.5282423   476141 
 4886000    1.1045785   -3.1778287   -1.6500589  0.081497978   -3.1778287    1.5277698   476161 
 4887000    1.1059329   -3.1791803   -1.6496465  0.078723262   -3.1791803    1.5295338   476195 
 4888000    1.1049007   -3.1791415   -1.6510193  0.075784427   -3.1791415    1.5281223   476190 
 4889000    1.1049715   -3.1788259   -1.6505767  0.079135399   -3.1788259    1.5282491   476181 
 4890000    1.1057559   -3.1798394   -1.6504412  0.081018672   -3.1798394    1.5293982   476161 
 4891000    1.1055477   -3.1806901    -1.651718  0.079909335   -3.1806901    1.5289721   476204 
 4892000     1.107001   -3.1816187   -1.6505981  0.078686369   -3.1816187    1.5310206   476192 
 4893000    1.1065762   -3.1806913   -1.6504349  0.083981162   -3.1806913    1.5302564   476247 
 4894000    1.1086474   -3.1855127   -1.6523888  0.075977964   -3.1855127    1.5331239   476246 
 4895000    1.1079055   -3.1830285   -1.6510271  0.082652519   -3.1830285    1.5320014   476276 
 4896000     1.106756   -3.1829995   -1.6528029  0.091368624   -3.1829995    1.5301966   476343 
 4897000    1.1081178   -3.1840879   -1.6520922   0.08246713   -3.1840879    1.5319958   476369 
 4898000    1.1075762   -3.1842244   -1.6530192  0.082673478   -3.1842244    1.5312052   476382 
 4899000    1.1080297   -3.1854901   -1.6537865  0.078258928   -3.1854901    1.5317036   476422 
 4900000    1.1077766   -3.1844361   -1.6532109  0.087403785   -3.1844361    1.5312252   476462 
 4901000    1.1079304   -3.1845828   -1.6532479  0.084714096   -3.1845828    1.5313349   476494 
 4902000    1.1082836   -3.1852028   -1.6533862  0.088762555   -3.1852028    1.5318166   476496 
 4903000    1.1070704    -3.184267    -1.654108  0.085744881    -3.184267     1.530159   476490 
 4904000     1.106403   -3.1846266    -1.655528  0.086569358   -3.1846266    1.5290986   476533 
 4905000    1.1083478   -3.1855517   -1.6539421  0.084847984   -3.1855517    1.5316096   476588 
 4906000    1.1078071   -3.1844087   -1.6536554  0.085153708   -3.1844087    1.5307533   476622 
 4907000    1.1051481   -3.1810344   -1.6540578  0.084635989   -3.1810344    1.5269766   476654 
 4908000    1.1076058   -3.1838299   -1.6535892  0.084226015   -3.1838299    1.5302407   476695 
 4909000    1.1064197   -3.1811126   -1.6525009  0.084024705   -3.1811126    1.5286117   476692 
 4910000    1.1081683   -3.1847984   -1.6538288  0.083917067   -3.1847984    1.5309696   476710 
 4911000    1.1072727   -3.1828226   -1.6531416  0.088529516   -3.1828226    1.5296811   476726 
 4912000    1.1076678   -3.1819701   -1.6517079  0.084144926   -3.1819701    1.5302622   476715 
 4913000    1.1079802   -3.1816198   -1.6509999  0.084829141   -3.1816198    1.5306199   476738 
 4914000    1.1072109   -3.1808268   -1.6512022  0.087012425   -3.1808268    1.5296246   476717 
 4915000    1.1080868     -3.18233   -1.6517683  0.079172785     -3.18233    1.5305617   476802 
 4916000    1.1080167   -3.1818948   -1.6515325  0.087219631   -3.1818948    1.5303622   476834 
 4917000    1.1081717   -3.1820051   -1.6516407  0.079188644   -3.1820051    1.5303645   476900 
 4918000    1.1079388   -3.1814545   -1.6516105  0.080942798   -3.1814545    1.5298439   476962 
 4919000    1.1071422    -3.179378   -1.6507398  0.081746571    -3.179378    1.5286383   476995 
 4920000    1.1070531   -3.1786981    -1.650327  0.083431568   -3.1786981     1.528371   477040 
 4921000    1.1059359   -3.1784329   -1.6516874   0.08049948   -3.1784329    1.5267455   477066 
 4922000    1.1055325    -3.178049   -1.6519948  0.082704527    -3.178049    1.5260542   477108 
 4923000    1.1051022   -3.1764117   -1.6510602  0.082845033   -3.1764117    1.5253515   477142 
 4924000     1.106891   -3.1781968    -1.650482  0.080396592   -3.1781968    1.5277149   477175 
 4925000    1.1089495   -3.1809929   -1.6504722  0.072639647   -3.1809929    1.5305207   477186 
 4926000    1.1071734   -3.1789212   -1.6508454  0.081804146   -3.1789212    1.5280758   477184 
 4927000    1.1089944   -3.1804912   -1.6501041  0.082825546   -3.1804912    1.5303871   477247 
 4928000    1.1100063   -3.1813433   -1.6495695   0.07911179   -3.1813433    1.5317738   477250 
 4929000    1.1076601    -3.178534   -1.6499659  0.085833659    -3.178534    1.5285681   477240 
 4930000     1.105776   -3.1769788   -1.6510043  0.083555233   -3.1769788    1.5259745   477238 
 4931000    1.1077296   -3.1802006   -1.6515814  0.080323779   -3.1802006    1.5286192   477254 
 4932000    1.1090315   -3.1796626   -1.6493302  0.080585762   -3.1796626    1.5303324   477280 
 4933000    1.1092664   -3.1796843   -1.6490501  0.086272848   -3.1796843    1.5306342   477287 
 4934000    1.1082442   -3.1776168   -1.6484253  0.088310834   -3.1776168    1.5291915   477297 
 4935000    1.1096785   -3.1822375     -1.65107  0.086380444   -3.1822375    1.5311675   477298 
 4936000    1.1081839   -3.1799898   -1.6509807  0.084904688   -3.1799898    1.5290091   477328 
 4937000    1.1096291    -3.182726   -1.6517871  0.084160674    -3.182726    1.5309389   477348 
 4938000     1.108396   -3.1812845   -1.6520405  0.083548971   -3.1812845     1.529244   477346 
 4939000    1.1068002   -3.1800943   -1.6530457  0.082247366   -3.1800943    1.5270487   477344 
 4940000    1.1078241   -3.1811773   -1.6527479  0.082152521   -3.1811773    1.5284294   477354 
 4941000    1.1062477   -3.1789827   -1.6527602   0.08483662   -3.1789827    1.5262225   477364 
 4942000    1.1068926     -3.18131   -1.6542233  0.081108922     -3.18131    1.5270867   477372 
 4943000    1.1058737   -3.1806816   -1.6550902  0.080539531   -3.1806816    1.5255914   477400 
 4944000    1.1064672   -3.1805284   -1.6541822  0.076327068   -3.1805284    1.5263462   477420 
 4945000    1.1064875   -3.1810001   -1.6547153  0.079981199   -3.1810001    1.5262848   477448 
 4946000    1.1074068   -3.1814592   -1.6540216   0.07979197   -3.1814592    1.5274376   477484 
 4947000    1.1076706   -3.1823051   -1.6545292  0.076540595   -3.1823051    1.5277759   477492 
 4948000    1.1086818   -3.1838354   -1.6547192  0.084421412   -3.1838354    1.5291161   477509 
 4949000    1.1082992   -3.1836722   -1.6551957  0.078376886   -3.1836722    1.5284765   477544 
 4950000    1.1071137   -3.1814316   -1.6547147  0.077160515   -3.1814316    1.5267169   477583 
 4951000    1.1070012   -3.1818625    -1.655304  0.081683801   -3.1818625    1.5265585   477584 
 4952000    1.1090778   -3.1847251   -1.6552998  0.074140819   -3.1847251    1.5294253   477583 
 4953000    1.1057896   -3.1807482   -1.6558254  0.079218979   -3.1807482    1.5249228   477573 
 4954000     1.104922   -3.1805758   -1.6569961  0.079455287   -3.1805758    1.5235797   477619 
 4955000    1.1051546   -3.1812076   -1.6573774  0.073763944   -3.1812076    1.5238302   477641 
 4956000     1.105836   -3.1821392   -1.6574429  0.077093555   -3.1821392    1.5246963   477664 
 4957000    1.1068288   -3.1830849   -1.6570325  0.080948129   -3.1830849    1.5260524   477668 
 4958000    1.1070722   -3.1823673   -1.6560241  0.078868903   -3.1823673    1.5263432   477682 
 4959000    1.1090822   -3.1841802   -1.6550882  0.081321417   -3.1841802     1.529092   477689 
 4960000    1.1081597   -3.1836389    -1.655838  0.082585889   -3.1836389     1.527801   477695 
 4961000    1.1077086   -3.1829885   -1.6558606  0.077358722   -3.1829885    1.5271279   477711 
 4962000    1.1099379   -3.1860659   -1.6559126  0.074571148   -3.1860659    1.5301532   477726 
 4963000    1.1092352   -3.1840163    -1.654851  0.081690109   -3.1840163    1.5291653   477732 
 4964000    1.1096054    -3.184417   -1.6547638  0.082852098    -3.184417    1.5296532   477739 
 4965000    1.1074153   -3.1814652    -1.654879  0.086884994   -3.1814652    1.5265862   477754 
 4966000    1.1095079    -3.183886   -1.6544184  0.081966017    -3.183886    1.5294676   477755 
 4967000    1.1071308   -3.1809572    -1.654891   0.07963139   -3.1809572    1.5260662   477794 
 4968000    1.1098718   -3.1843854   -1.6545955  0.083774391   -3.1843854    1.5297899   477811 
 4969000     1.107372   -3.1819733   -1.6556514  0.085057725   -3.1819733     1.526322   477818 
 4970000    1.1094516   -3.1847948   -1.6555968  0.082215801   -3.1847948     1.529198   477815 
 4971000    1.1086026   -3.1837383   -1.6558736  0.075931943   -3.1837383    1.5278647   477866 
 4972000    1.1082907   -3.1836523   -1.6562335  0.084962895   -3.1836523    1.5274188   477871 
 4973000    1.1080553   -3.1820491   -1.6550313  0.079315263   -3.1820491    1.5270178   477895 
 4974000    1.1080884   -3.1826406   -1.6555421  0.085103798   -3.1826406    1.5270985   477884 
 4975000    1.1093833   -3.1831359   -1.6543713  0.086084888   -3.1831359    1.5287646   477921 
 4976000    1.1086242   -3.1818964   -1.6541586   0.08316614   -3.1818964    1.5277378   477915 
 4977000    1.1105068   -3.1840394   -1.6538769  0.078621237   -3.1840394    1.5301625   477968 
 4978000    1.1096793   -3.1815487   -1.6525681  0.083061792   -3.1815487    1.5289807   477981 
 4979000    1.1093698   -3.1815263   -1.6529338  0.084252816   -3.1815263    1.5285925   477969 
 4980000    1.1099622   -3.1819727   -1.6526278  0.080907219   -3.1819727    1.5293449   477989 
 4981000    1.1111217   -3.1834463   -1.6524814  0.079543951   -3.1834463    1.5309649   477982 
 4982000    1.1120416   -3.1843054   -1.6520986  0.084074563   -3.1843054    1.5322067   477990 
 4983000    1.1105964   -3.1818074   -1.6515919  0.078124686   -3.1818074    1.5302155   477990 
 4984000    1.1105582   -3.1808469   -1.6507513  0.078468409   -3.1808469    1.5300956   478011 
 4985000    1.1085723   -3.1784385    -1.651127  0.082215556   -3.1784385    1.5273115   478026 
 4986000    1.1082207   -3.1781048   -1.6513638  0.082266635   -3.1781048    1.5267409   478053 
 4987000    1.1101944   -3.1804412   -1.6509397   0.07726793   -3.1804412    1.5295015   478040 
 4988000    1.1093701     -3.17894   -1.6506444  0.082962368     -3.17894    1.5282956   478062 
 4989000    1.1086721   -3.1777593   -1.6504636  0.081350474   -3.1777593    1.5272957   478074 
 4990000    1.1085093   -3.1786757   -1.6515595  0.084441542   -3.1786757    1.5271162   478060 
 4991000    1.1091307    -3.179586   -1.6516905  0.081815879    -3.179586    1.5278955   478084 
 4992000     1.108322   -3.1796199   -1.6528959  0.081528266   -3.1796199     1.526724   478102 
 4993000     1.109482   -3.1800615   -1.6518675  0.078883344   -3.1800615    1.5281941   478142 
 4994000    1.1101011   -3.1801317   -1.6511265  0.081333305   -3.1801317    1.5290052   478155 
 4995000    1.1115262   -3.1798847   -1.6489198  0.082226437   -3.1798847    1.5309649   478156 
 4996000    1.1113459   -3.1793199   -1.6485713  0.079905648   -3.1793199    1.5307486   478146 
 4997000    1.1094728   -3.1773435   -1.6491175  0.075968486   -3.1773435    1.5282261   478128 
 4998000    1.1112251   -3.1790658   -1.6484068   0.07774828   -3.1790658     1.530659   478122 
 4999000    1.1109463   -3.1802685   -1.6501344   0.08444888   -3.1802685    1.5301341   478166 
 5000000     1.110849   -3.1798161   -1.6498223  0.079537269   -3.1798161    1.5299937   478168 
 5001000    1.1119016   -3.1822428   -1.6507641  0.081340643   -3.1822428    1.5314787   478157 
 5002000    1.1097414   -3.1787392   -1.6502582  0.080850184   -3.1787392     1.528481   478164 
 5003000    1.1105446   -3.1800114   -1.6505073  0.078797469   -3.1800114    1.5295041   478190 
 5004000    1.1111112   -3.1805508   -1.6503239   0.08120846   -3.1805508    1.5302269   478208 
 5005000    1.1095406   -3.1790459   -1.6509661  0.083537057   -3.1790459    1.5280798   478203 
 5006000    1.1090197   -3.1776558   -1.6503764  0.084575045   -3.1776558    1.5272794   478229 
 5007000    1.1096138   -3.1794373   -1.6512023  0.082038682   -3.1794373     1.528235   478186 
 5008000    1.1119494   -3.1811314   -1.6497213  0.084364928   -3.1811314    1.5314101   478199 
 5009000    1.1119916   -3.1823199   -1.6508709  0.079158651   -3.1823199     1.531449   478205 
 5010000    1.1099226   -3.1797239   -1.6511787  0.087180681   -3.1797239    1.5285452   478222 
 5011000     1.111075   -3.1821773   -1.6520099  0.085512634   -3.1821773    1.5301675   478211 
 5012000    1.1115645   -3.1822806   -1.6513846  0.084776958   -3.1822806     1.530896   478194 
 5013000    1.1120917   -3.1826373   -1.6511082  0.084951592   -3.1826373    1.5315291   478223 
 5014000    1.1115605   -3.1810552   -1.6503632  0.084025778   -3.1810552     1.530692   478256 
 5015000    1.1113943   -3.1805114   -1.6502018  0.086144402   -3.1805114    1.5303095   478304 
 5016000     1.112499   -3.1831632   -1.6513614  0.078734874   -3.1831632    1.5318018   478313 
 5017000    1.1106313   -3.1810125   -1.6518431  0.085304451   -3.1810125    1.5291694   478332 
 5018000    1.1120106   -3.1813724    -1.650432  0.086388102   -3.1813724    1.5309405   478372 
 5019000    1.1126027   -3.1816679   -1.6499891  0.084146637   -3.1816679    1.5316788   478396 
 5020000    1.1112157    -3.180877   -1.6511653  0.086485735    -3.180877    1.5297118   478414 
 5021000    1.1124243   -3.1837357   -1.6522288  0.080596105   -3.1837357    1.5315069   478373 
 5022000    1.1101965   -3.1813291   -1.6529436  0.084460556   -3.1813291    1.5283855   478390 
 5023000    1.1105762   -3.1806401   -1.6519045  0.080199411   -3.1806401    1.5287356   478444 
 5024000    1.1118097   -3.1833627   -1.6529003  0.082146563   -3.1833627    1.5304623   478435 
 5025000    1.1108997   -3.1828931   -1.6536578  0.084029044   -3.1828931    1.5292353   478427 
 5026000    1.1105399   -3.1812076   -1.6526433  0.087135418   -3.1812076    1.5285642   478482 
 5027000    1.1113127   -3.1816313   -1.6522047  0.083665677   -3.1816313    1.5294266   478545 
 5028000    1.1111695   -3.1810857   -1.6519362  0.085433128   -3.1810857    1.5291496   478570 
 5029000    1.1092563    -3.179256   -1.6528605  0.081148539    -3.179256    1.5263955   478608 
 5030000    1.1107062   -3.1811951   -1.6528555  0.079430202   -3.1811951    1.5283396   478624 
 5031000    1.1110043   -3.1822087   -1.6535771   0.08684478   -3.1822087    1.5286316   478661 
 5032000    1.1103439   -3.1803763   -1.6525927  0.087303296   -3.1803763    1.5277836   478642 
 5033000     1.110575   -3.1785734   -1.6505134  0.081920602   -3.1785734      1.52806   478655 
 5034000    1.1111698   -3.1801801   -1.6514007  0.078170188   -3.1801801    1.5287794   478686 
 5035000    1.1100423   -3.1797635   -1.6525226  0.081840732   -3.1797635    1.5272409   478682 
 5036000    1.1114363   -3.1820061   -1.6528983  0.080027703   -3.1820061    1.5291078   478698 
 5037000    1.1119992   -3.1824721   -1.6527273  0.077692254   -3.1824721    1.5297448   478741 
 5038000    1.1132392   -3.1832088   -1.6517838  0.081726956   -3.1832088     1.531425   478749 
 5039000    1.1111181   -3.1811391   -1.6527086  0.079523046   -3.1811391    1.5284305   478773 
 5040000    1.1104222   -3.1799362   -1.6525139  0.085423369   -3.1799362    1.5274222   478789 
 5041000    1.1121898   -3.1808822   -1.6511788   0.08127037   -3.1808822    1.5297035   478836 
 5042000    1.1143749   -3.1824226   -1.6497393  0.077857077   -3.1824226    1.5326832   478844 
 5043000    1.1127521   -3.1825821   -1.6521052  0.079359767   -3.1825821    1.5304769   478836 
 5044000    1.1107512   -3.1788553   -1.6512836  0.079762689   -3.1788553    1.5275717   478884 
 5045000    1.1125984   -3.1816643   -1.6515778  0.076591458   -3.1816643    1.5300865   478892 
 5046000    1.1124889   -3.1812419   -1.6514625  0.080883831   -3.1812419    1.5297794   478941 
 5047000    1.1124989   -3.1815229    -1.651634  0.085609634   -3.1815229    1.5298889   478911 
 5048000    1.1151191   -3.1842874   -1.6508496  0.083596783   -3.1842874    1.5334378   478928 
 5049000    1.1140146   -3.1831015   -1.6513008   0.08038061   -3.1831015    1.5318007   478965 
 5050000     1.112312   -3.1823091   -1.6529486  0.081577664   -3.1823091    1.5293604   478996 
 5051000    1.1115294   -3.1804702   -1.6521729  0.081817053   -3.1804702    1.5282973   478992 
 5052000    1.1137532   -3.1822978   -1.6510677  0.082239705   -3.1822978    1.5312301   479031 
 5053000    1.1149696   -3.1838911   -1.6510559  0.081344901   -3.1838911    1.5328353   479052 
 5054000    1.1135601    -3.183297   -1.6524473  0.088224341    -3.183297    1.5308497   479067 
 5055000    1.1132542   -3.1824487   -1.6518919  0.082457623   -3.1824487    1.5305569   479027 
 5056000    1.1136954   -3.1843665   -1.6531167  0.083912698   -3.1843665    1.5312499   479000 
 5057000    1.1130871   -3.1837577   -1.6533922  0.084912896   -3.1837577    1.5303655   479015 
 5058000    1.1149307   -3.1847835   -1.6519217  0.081865773   -3.1847835    1.5328618   479027 
 5059000    1.1142592   -3.1832089   -1.6512382  0.089246294   -3.1832089    1.5319707   479017 
 5060000    1.1137717   -3.1834051   -1.6521624  0.083166017   -3.1834051    1.5312428   479035 
 5061000    1.1134732   -3.1837633    -1.652998  0.074857319   -3.1837633    1.5307653   479056 
 5062000    1.1107931   -3.1806772   -1.6537748  0.087086539   -3.1806772    1.5269023   479112 
 5063000    1.1131937    -3.184094   -1.6538502   0.07981368    -3.184094    1.5302437   479099 
 5064000    1.1132573   -3.1847139   -1.6544052  0.075455509   -3.1847139    1.5303088   479106 
 5065000    1.1120867   -3.1833045   -1.6546399   0.07751112   -3.1833045    1.5286646   479117 
 5066000     1.113202   -3.1834707   -1.6534263  0.081026835   -3.1834707    1.5300444   479165 
 5067000    1.1123415   -3.1819207   -1.6530431  0.077718769   -3.1819207    1.5288776   479160 
 5068000    1.1134341   -3.1829849   -1.6526503  0.080395763   -3.1829849    1.5303346   479174 
 5069000    1.1122816   -3.1805347   -1.6518224  0.080859157   -3.1805347    1.5287124   479186 
 5070000    1.1130196   -3.1830316   -1.6533721  0.074911038   -3.1830316    1.5296596   479207 
 5071000    1.1145845   -3.1827429   -1.6510413  0.084534007   -3.1827429    1.5317016   479241 
 5072000    1.1135405   -3.1815605    -1.651351  0.085284871   -3.1815605    1.5302095   479259 
 5073000    1.1137052   -3.1817644   -1.6514276  0.080228393   -3.1817644    1.5303368   479290 
 5074000    1.1135801   -3.1824828   -1.6524488  0.081002547   -3.1824828     1.530034   479331 
 5075000    1.1138212   -3.1815115   -1.6511942   0.08142716   -3.1815115    1.5303173   479346 
 5076000    1.1137187    -3.183091   -1.6529305  0.082699828    -3.183091    1.5301605   479351 
 5077000    1.1123708   -3.1809665   -1.6526642  0.080411598   -3.1809665    1.5283023   479353 
 5078000    1.1126476   -3.1825357   -1.6538307  0.077962117   -3.1825357     1.528705   479346 
 5079000    1.1127607    -3.182419   -1.6536576  0.079612509    -3.182419    1.5287614   479377 
 5080000    1.1111846   -3.1813628   -1.6547444  0.082693606   -3.1813628    1.5266184   479370 
 5081000    1.1122587   -3.1818181   -1.6538069  0.082641829   -3.1818181    1.5280112   479396 
 5082000    1.1127718   -3.1831776   -1.6545189  0.080716301   -3.1831776    1.5286587   479414 
 5083000     1.113171   -3.1833488   -1.6542088  0.074112639   -3.1833488    1.5291401   479435 
 5084000    1.1106996   -3.1825088   -1.6568178  0.073863624   -3.1825088     1.525691   479452 
 5085000     1.112021   -3.1839738   -1.6564803  0.083737155   -3.1839738    1.5274934   479456 
 5086000    1.1121071   -3.1843871   -1.6569028  0.083962731   -3.1843871    1.5274843   479496 
 5087000    1.1120914   -3.1844336   -1.6570823  0.079718869   -3.1844336    1.5273513   479531 
 5088000    1.1130028   -3.1857426   -1.6572352  0.085649642   -3.1857426    1.5285074   479561 
 5089000    1.1127716   -3.1850333   -1.6569709  0.080071085   -3.1850333    1.5280624   479601 
 5090000    1.1120947    -3.183913    -1.656863  0.081064099    -3.183913    1.5270501   479627 
 5091000    1.1112206   -3.1832314   -1.6574453  0.081650683   -3.1832314    1.5257861   479647 
 5092000    1.1114483   -3.1834833   -1.6574067  0.082043441   -3.1834833    1.5260766   479654 
 5093000    1.1139148   -3.1861472   -1.6568435  0.082142582   -3.1861472    1.5293037   479704 
 5094000    1.1138499   -3.1855976   -1.6563638  0.083003563   -3.1855976    1.5292338   479698 
 5095000    1.1133067    -3.185467     -1.65703   0.08575252    -3.185467    1.5284371   479714 
 5096000    1.1139712   -3.1873855   -1.6582211  0.078956183   -3.1873855    1.5291644   479772 
 5097000    1.1120507   -3.1863973   -1.6598946  0.080137862   -3.1863973    1.5265027   479780 
 5098000    1.1150968    -3.187912   -1.6573779  0.086838324    -3.187912    1.5305341   479827 
 5099000    1.1122889   -3.1856604   -1.6591744  0.081958746   -3.1856604     1.526486   479888 
 5100000     1.113093   -3.1878397    -1.660336  0.087010315   -3.1878397    1.5275037   479915 
 5101000    1.1135582    -3.187676   -1.6595084  0.083730639    -3.187676    1.5281676   479907 
 5102000    1.1146598   -3.1877994   -1.6582539  0.085123532   -3.1877994    1.5295455   479949 
 5103000    1.1158027   -3.1905083   -1.6594392   0.08341356   -3.1905083    1.5310691   479963 
 5104000    1.1155708   -3.1891164   -1.6584931  0.083874041   -3.1891164    1.5306233   480003 
 5105000    1.1164061   -3.1887122   -1.6571088  0.085816514   -3.1887122    1.5316035   480055 
 5106000      1.11456   -3.1887468   -1.6597142  0.083601538   -3.1887468    1.5290326   480067 
 5107000    1.1145211   -3.1877581   -1.6589349  0.083944964   -3.1877581    1.5288232   480116 
 5108000     1.113997   -3.1859294   -1.6579334  0.082548657   -3.1859294     1.527996   480150 
 5109000    1.1142789   -3.1863904   -1.6579918  0.087376421   -3.1863904    1.5283986   480145 
 5110000    1.1167242   -3.1900408   -1.6583998  0.082964069   -3.1900408    1.5316411   480180 
 5111000    1.1160318   -3.1888362   -1.6581894  0.081413667   -3.1888362    1.5306468   480194 
 5112000    1.1149786   -3.1885683   -1.6593087  0.081902584   -3.1885683    1.5292596   480176 
 5113000    1.1136855   -3.1870306   -1.6596051  0.082594367   -3.1870306    1.5274255   480195 
 5114000    1.1138781   -3.1867808   -1.6590083  0.079434653   -3.1867808    1.5277725   480169 
 5115000    1.1148648   -3.1872112   -1.6580791  0.082061009   -3.1872112    1.5291321   480167 
 5116000    1.1136756   -3.1867441   -1.6593321  0.078508317   -3.1867441     1.527412   480195 
 5117000    1.1130997   -3.1854648   -1.6588521  0.085077408   -3.1854648    1.5266127   480198 
 5118000    1.1136006   -3.1857357   -1.6584234  0.080004046   -3.1857357    1.5273124   480194 
 5119000    1.1133409    -3.184999   -1.6581955  0.077840023    -3.184999    1.5268035   480242 
 5120000     1.113019   -3.1847584   -1.6584185  0.076874648   -3.1847584    1.5263398   480249 
 5121000    1.1122597   -3.1830805    -1.657839  0.078949541   -3.1830805    1.5252415   480267 
 5122000    1.1118843   -3.1834878   -1.6588374  0.080313576   -3.1834878    1.5246504   480291 
 5123000    1.1144672   -3.1867653   -1.6586081  0.076277878   -3.1867653    1.5281571   480302 
 5124000    1.1124279   -3.1838739   -1.6584845  0.082844208   -3.1838739    1.5253895   480293 
 5125000     1.112133   -3.1832892   -1.6583612  0.078881191   -3.1832892    1.5249279   480311 
 5126000    1.1128114   -3.1845236   -1.6588083  0.076948933   -3.1845236    1.5257153   480356 
 5127000     1.111605     -3.18224   -1.6581598  0.084321228     -3.18224    1.5240802   480350 
 5128000    1.1133725    -3.184006   -1.6575374   0.08311648    -3.184006    1.5264686   480361 
 5129000    1.1130455   -3.1826312   -1.6566205   0.08311355   -3.1826312    1.5260108   480364 
 5130000    1.1145168   -3.1841016   -1.6561754  0.079126891   -3.1841016    1.5279262   480396 
 5131000     1.114745   -3.1839613   -1.6557032  0.085655378   -3.1839613    1.5282581   480390 
 5132000    1.1152683   -3.1850467   -1.6561444  0.082655192   -3.1850467    1.5289023   480413 
 5133000    1.1134131   -3.1820636   -1.6557967  0.074183566   -3.1820636    1.5262669   480442 
 5134000    1.1147992   -3.1846586   -1.6565171  0.075885379   -3.1846586    1.5281415   480450 
 5135000    1.1150292    -3.184304   -1.6559267  0.083321677    -3.184304    1.5283773   480475 
 5136000    1.1137405   -3.1817196   -1.6551342  0.082863907   -3.1817196    1.5265854   480483 
 5137000    1.1161926   -3.1847156   -1.6549219  0.080339625   -3.1847156    1.5297937   480531 
 5138000    1.1145481   -3.1829189   -1.6554459  0.080587735   -3.1829189     1.527473   480552 
 5139000    1.1139599   -3.1836147   -1.6570081  0.079380128   -3.1836147    1.5266066   480571 
 5140000    1.1147792   -3.1849548   -1.6573781  0.078141843   -3.1849548    1.5275767   480619 
 5141000    1.1148193   -3.1837913   -1.6562167  0.084974466   -3.1837913    1.5275745   480637 
 5142000    1.1147959    -3.183195   -1.6557066  0.080612418    -3.183195    1.5274884   480654 
 5143000    1.1153018   -3.1829361   -1.6547863  0.079718131   -3.1829361    1.5281498   480664 
 5144000    1.1162183   -3.1838929   -1.6546019  0.084132934   -3.1838929     1.529291   480700 
 5145000    1.1167794   -3.1844216   -1.6543554  0.080326101   -3.1844216    1.5300662   480698 
 5146000    1.1156149   -3.1822091   -1.6538878  0.079725027   -3.1822091    1.5283213   480745 
 5147000    1.1164034   -3.1837426   -1.6543952  0.080155049   -3.1837426    1.5293474   480762 
 5148000     1.116601   -3.1846646   -1.6550689  0.080325772   -3.1846646    1.5295958   480769 
 5149000    1.1151526   -3.1822014   -1.6547327  0.082806132   -3.1822014    1.5274687   480814 
 5150000    1.1158071   -3.1830974   -1.6547671  0.082146152   -3.1830974    1.5283302   480825 
 5151000    1.1156918   -3.1833902   -1.6553355   0.08050685   -3.1833902    1.5280548   480862 
 5152000    1.1153231   -3.1842519   -1.6566798    0.0791675   -3.1842519     1.527572   480855 
 5153000    1.1152657   -3.1839815   -1.6564658  0.081158727   -3.1839815    1.5275157   480848 
 5154000    1.1145553   -3.1833925   -1.6568944  0.080006345   -3.1833925    1.5264981   480862 
 5155000    1.1159686   -3.1856219   -1.6571562  0.082520415   -3.1856219    1.5284657   480852 
 5156000    1.1151993   -3.1837777   -1.6564261  0.082913567   -3.1837777    1.5273516   480871 
 5157000    1.1170771    -3.186635    -1.656788  0.081013436    -3.186635     1.529847   480895 
 5158000    1.1164503   -3.1846807   -1.6557684  0.086196033   -3.1846807    1.5289123   480919 
 5159000    1.1154229   -3.1857442   -1.6582641  0.080015793   -3.1857442      1.52748   480927 
 5160000    1.1168234   -3.1879738   -1.6586587  0.081444591   -3.1879738    1.5293151   480953 
 5161000     1.114124   -3.1835202   -1.6580029  0.085618324   -3.1835202    1.5255173   480985 
 5162000    1.1173969   -3.1875505   -1.6575964  0.080798109   -3.1875505    1.5299542   480999 
 5163000    1.1169515   -3.1872512   -1.6580086  0.089187793   -3.1872512    1.5292426   481031 
 5164000    1.1185206   -3.1898662   -1.6585327  0.082741502   -3.1898662    1.5313335   481049 
 5165000    1.1167757   -3.1876609   -1.6587894  0.084772289   -3.1876609    1.5288715   481072 
 5166000    1.1166177   -3.1882473   -1.6596364  0.083958925   -3.1882473    1.5286108   481086 
 5167000    1.1171875   -3.1887611   -1.6594974  0.081453951   -3.1887611    1.5292637   481126 
 5168000    1.1164912   -3.1877095   -1.6595577  0.080331932   -3.1877095    1.5281518   481176 
 5169000    1.1185059   -3.1900018   -1.6591244  0.078793475   -3.1900018    1.5308775   481186 
 5170000    1.1149554   -3.1853102   -1.6593778  0.080637167   -3.1853102    1.5259324   481213 
 5171000    1.1159255   -3.1871736   -1.6599105  0.080969496   -3.1871736    1.5272631   481212 
 5172000    1.1147997   -3.1873623    -1.661532  0.078046848   -3.1873623    1.5258303   481178 
 5173000     1.116688   -3.1895119   -1.6611003  0.078573514   -3.1895119    1.5284115   481179 
 5174000      1.11494    -3.186167   -1.6601574  0.083921697    -3.186167    1.5260095   481182 
 5175000    1.1150769   -3.1869211   -1.6607337  0.079754415   -3.1869211    1.5261874   481185 
 5176000    1.1141102   -3.1856896   -1.6609268  0.080444156   -3.1856896    1.5247629   481217 
 5177000    1.1143613   -3.1858008   -1.6608179  0.082041625   -3.1858008     1.524983   481256 
 5178000    1.1167883   -3.1878073   -1.6596776  0.080220428   -3.1878073    1.5281296   481311 
 5179000    1.1181063    -3.188249   -1.6583254  0.079621051    -3.188249    1.5299235   481314 
 5180000    1.1156666   -3.1853386   -1.6587183   0.08076387   -3.1853386    1.5266202   481303 
 5181000     1.117319   -3.1859018   -1.6571507  0.077507384   -3.1859018     1.528751   481344 
 5182000    1.1154896   -3.1848492   -1.6586298  0.073992365   -3.1848492    1.5262194   481353 
 5183000     1.117217   -3.1873686   -1.6588016  0.076044683   -3.1873686     1.528567   481358 
 5184000     1.115592   -3.1852108   -1.6589495  0.075049294   -3.1852108    1.5262613   481384 
 5185000    1.1162155   -3.1849122   -1.6579058  0.081607387   -3.1849122    1.5270063   481418 
 5186000    1.1166027     -3.18506   -1.6577429  0.084481221     -3.18506    1.5273171   481487 
 5187000    1.1162236   -3.1842847    -1.657486  0.078378516   -3.1842847    1.5267987   481487 
 5188000    1.1169158   -3.1845576   -1.6568502  0.081841488   -3.1845576    1.5277073   481499 
 5189000    1.1176554   -3.1866109   -1.6579744  0.076331762   -3.1866109    1.5286365   481525 
 5190000    1.1179884   -3.1866403   -1.6576405  0.079140269   -3.1866403    1.5289998   481554 
 5191000    1.1178247   -3.1859242   -1.6572815  0.082274083   -3.1859242    1.5286427   481596 
 5192000    1.1184732    -3.186273   -1.6568325  0.081354613    -3.186273    1.5294405   481624 
 5193000    1.1170761   -3.1840612   -1.6566548  0.085049761   -3.1840612    1.5274064   481663 
 5194000    1.1196973   -3.1873381   -1.6564557  0.075182186   -3.1873381    1.5308824   481697 
 5195000    1.1179746   -3.1851009   -1.6566818  0.087901043   -3.1851009    1.5284192   481731 
 5196000    1.1192448   -3.1886172   -1.6583313  0.082896667   -3.1886172     1.530286   481690 
 5197000    1.1195613   -3.1879344   -1.6574445   0.08170333   -3.1879344    1.5304899   481762 
 5198000    1.1193657   -3.1879503   -1.6578453  0.080285095   -3.1879503    1.5301051   481799 
 5199000    1.1192463    -3.187433   -1.6574785  0.081762773    -3.187433    1.5299545   481795 
 5200000     1.118921   -3.1871322   -1.6577272  0.077511775   -3.1871322     1.529405   481828 
 5201000    1.1193066   -3.1869426    -1.657001  0.083151425   -3.1869426    1.5299416   481825 
 5202000    1.1185857   -3.1855446   -1.6567152  0.083679452   -3.1855446    1.5288294   481865 
 5203000    1.1195439   -3.1875231   -1.6574191  0.082783067   -3.1875231     1.530104   481876 
 5204000    1.1202748   -3.1882017   -1.6571273  0.080797292   -3.1882017    1.5310744   481885 
 5205000    1.1185972   -3.1868209   -1.6581345  0.082455452   -3.1868209    1.5286864   481915 
 5206000    1.1188194   -3.1874503   -1.6585078  0.084534621   -3.1874503    1.5289425   481930 
 5207000    1.1200881   -3.1887439    -1.658128   0.07954769   -3.1887439    1.5306159   481949 
 5208000     1.120319   -3.1894423   -1.6585585  0.083030986   -3.1894423    1.5308838   481964 
 5209000    1.1204178   -3.1898965   -1.6588459  0.081983312   -3.1898965    1.5310505   481954 
 5210000    1.1184423   -3.1874612   -1.6591863  0.081597608   -3.1874612    1.5282749   481978 
 5211000    1.1177416   -3.1862706   -1.6589278  0.084749795   -3.1862706    1.5273429   481970 
 5212000    1.1191517    -3.188247   -1.6589931   0.08317917    -3.188247    1.5292539   481975 
 5213000    1.1173511   -3.1884231   -1.6616709   0.07935388   -3.1884231    1.5267523   481988 
 5214000    1.1179231    -3.188021     -1.66056   0.07955011    -3.188021     1.527461   482011 
 5215000    1.1170632   -3.1870463    -1.660811  0.085627258   -3.1870463    1.5262353   482027 
 5216000    1.1182593   -3.1881051   -1.6602293  0.082145775   -3.1881051    1.5278759   482025 
 5217000    1.1198046   -3.1894464   -1.6594115  0.082602062   -3.1894464    1.5300349   482010 
 5218000    1.1183075   -3.1890059   -1.6610959   0.08260023   -3.1890059      1.52791   482035 
 5219000    1.1165924   -3.1874816   -1.6620666   0.08142993   -3.1874816    1.5254149   482083 
 5220000    1.1165904    -3.188545   -1.6631138  0.082503514    -3.188545    1.5254312   482077 
 5221000    1.1185293   -3.1891469   -1.6610447  0.080819037   -3.1891469    1.5281021   482070 
 5222000     1.118313   -3.1887706   -1.6610273  0.083950663   -3.1887706    1.5277433   482090 
 5223000    1.1201357   -3.1917338   -1.6615449  0.079392525   -3.1917338    1.5301889   482104 
 5224000    1.1198953   -3.1907388   -1.6609481  0.080737821   -3.1907388    1.5297906   482126 
 5225000    1.1190765    -3.189245   -1.6606838  0.090125097    -3.189245    1.5285612   482161 
 5226000    1.1208225   -3.1900879   -1.6591767   0.08821269   -3.1900879    1.5309111   482172 
 5227000     1.119009   -3.1889277   -1.6605316  0.088510714   -3.1889277    1.5283961   482184 
 5228000    1.1179865   -3.1872978   -1.6602729  0.087932477   -3.1872978    1.5270248   482176 
 5229000    1.1195705   -3.1897422   -1.6605951  0.085897963   -3.1897422    1.5291471   482189 
 5230000    1.1214295   -3.1923796   -1.6607537  0.076188157   -3.1923796    1.5316259   482208 
 5231000    1.1191334   -3.1904258   -1.6619486  0.084498791   -3.1904258    1.5284772   482212 
 5232000    1.1184196   -3.1893648    -1.661891  0.087401971   -3.1893648    1.5274738   482221 
 5233000    1.1180332   -3.1900356   -1.6631497  0.077584415   -3.1900356    1.5268859   482240 
 5234000    1.1176756   -3.1896746   -1.6632896  0.080043318   -3.1896746     1.526385   482244 
 5235000     1.118612   -3.1887066   -1.6611189  0.083899785   -3.1887066    1.5275877   482268 
 5236000    1.1198968   -3.1902808    -1.660983  0.081197482   -3.1902808    1.5292978   482282 
 5237000    1.1198083   -3.1915366   -1.6623976  0.081745098   -3.1915366    1.5291389   482294 
 5238000    1.1200435   -3.1924786   -1.6630312  0.077957956   -3.1924786    1.5294474   482298 
 5239000    1.1179454   -3.1895106   -1.6629154  0.084502969   -3.1895106    1.5265952   482294 
 5240000    1.1184075   -3.1904935   -1.6633339  0.082333151   -3.1904935    1.5271597   482315 
 5241000    1.1193547   -3.1899539   -1.6615009  0.084460741   -3.1899539     1.528453   482315 
 5242000    1.1193632   -3.1899331   -1.6615636  0.078345105   -3.1899331    1.5283696   482345 
 5243000    1.1187305   -3.1900365   -1.6624929  0.081354405   -3.1900365    1.5275436   482333 
 5244000    1.1175682   -3.1884504   -1.6626046  0.082968406   -3.1884504    1.5258459   482368 
 5245000    1.1190331   -3.1895164   -1.6616989  0.080458582   -3.1895164    1.5278175   482377 
 5246000    1.1186407   -3.1899556   -1.6626802  0.079160917   -3.1899556    1.5272753   482379 
 5247000    1.1182353   -3.1900699   -1.6634587   0.08115528   -3.1900699    1.5266112   482414 
 5248000     1.117141   -3.1890426   -1.6640708  0.079145738   -3.1890426    1.5249719   482460 
 5249000    1.1177121   -3.1898835   -1.6642238  0.076218559   -3.1898835    1.5256597   482489 
 5250000    1.1181861   -3.1894251   -1.6630994  0.081688836   -3.1894251    1.5263256   482483 
 5251000    1.1195325   -3.1902186   -1.6621216  0.079875665   -3.1902186     1.528097   482504 
 5252000    1.1209546   -3.1911158   -1.6611919  0.078215986   -3.1911158    1.5299239   482540 
 5253000    1.1191188   -3.1883821   -1.6610176  0.083368306   -3.1883821    1.5273645   482557 
 5254000    1.1200878   -3.1896045   -1.6609176  0.085005858   -3.1896045     1.528687   482557 
 5255000    1.1195615    -3.188009   -1.6600752  0.084404566    -3.188009    1.5279339   482568 
 5256000    1.1220914    -3.192069   -1.6607426   0.07932724    -3.192069    1.5313264   482587 
 5257000    1.1205279    -3.190672    -1.661473  0.082058911    -3.190672     1.529199   482585 
 5258000    1.1197882   -3.1908644   -1.6626876  0.083033939   -3.1908644    1.5281768   482589 
 5259000    1.1174746   -3.1867874   -1.6618186  0.081892651   -3.1867874    1.5249689   482605 
 5260000    1.1176483   -3.1867217   -1.6615885  0.085423609   -3.1867217    1.5251332   482628 
 5261000    1.1211199   -3.1909898   -1.6611795  0.079980614   -3.1909898    1.5298103   482647 
 5262000    1.1187459   -3.1876017   -1.6611163  0.084881833   -3.1876017    1.5264854   482674 
 5263000    1.1192736   -3.1891349   -1.6619737  0.084513618   -3.1891349    1.5271613   482688 
 5264000    1.1212484   -3.1909857   -1.6611776  0.080149616   -3.1909857    1.5298081   482703 
 5265000    1.1203123   -3.1900866   -1.6616158  0.078308054   -3.1900866    1.5284708   482722 
 5266000    1.1184776   -3.1874018   -1.6615574  0.080195421   -3.1874018    1.5258444   482761 
 5267000     1.117632   -3.1868554   -1.6621677  0.082938634   -3.1868554    1.5246877   482762 
 5268000    1.1189803   -3.1875395   -1.6611547  0.086416436   -3.1875395    1.5263848   482807 
 5269000     1.119473   -3.1878376   -1.6607997  0.081894468   -3.1878376    1.5270379   482813 
 5270000    1.1193653    -3.187315   -1.6605348  0.078039233    -3.187315    1.5267802   482848 
 5271000    1.1191176    -3.187519   -1.6612219  0.081642392    -3.187519     1.526297   482894 
 5272000    1.1187382   -3.1862955   -1.6606455  0.079367175   -3.1862955      1.52565   482935 
 5273000    1.1205072   -3.1874628   -1.6595111  0.082504213   -3.1874628    1.5279517   482970 
 5274000    1.1218838   -3.1885167   -1.6587734  0.077893726   -3.1885167    1.5297433   482997 
 5275000     1.119757   -3.1860574   -1.6592488  0.079803309   -3.1860574    1.5268086   483008 
 5276000     1.121418   -3.1885973   -1.6594606  0.081230232   -3.1885973    1.5291367   482988 
 5277000    1.1201783   -3.1876367   -1.6602094   0.08126313   -3.1876367    1.5274272   482994 
 5278000     1.120048    -3.186944   -1.6597704  0.080065033    -3.186944    1.5271737   483018 
 5279000    1.1211598   -3.1884724   -1.6598301  0.076628969   -3.1884724    1.5286423   483033 
 5280000    1.1201563   -3.1875016   -1.6602719  0.082870071   -3.1875016    1.5272297   483047 
 5281000    1.1212933   -3.1886554   -1.6599134  0.081198179   -3.1886554    1.5287419   483059 
 5282000    1.1217113   -3.1878306   -1.6586707  0.078854462   -3.1878306    1.5291598   483107 
 5283000    1.1212813   -3.1867384   -1.6582375  0.084096289   -3.1867384     1.528501   483130 
 5284000    1.1213988   -3.1874652   -1.6589307   0.08150881   -3.1874652    1.5285345   483170 
 5285000    1.1221059    -3.187611   -1.6581854  0.080880082    -3.187611    1.5294256   483193 
 5286000    1.1225904   -3.1881409   -1.6581816  0.086489089   -3.1881409    1.5299593   483233 
 5287000    1.1214828   -3.1865782   -1.6581126  0.081849954   -3.1865782    1.5284656   483228 
 5288000    1.1211208   -3.1866453   -1.6587679  0.083177453   -3.1866453    1.5278773   483258 
 5289000    1.1223834   -3.1873044   -1.6577538  0.079354551   -3.1873044    1.5295506   483273 
 5290000    1.1211804   -3.1855181   -1.6577082  0.081974516   -3.1855181    1.5278099   483305 
 5291000    1.1224031   -3.1882055   -1.6587674  0.081761215   -3.1882055    1.5294381   483317 
 5292000     1.121415   -3.1879002    -1.659837  0.080599546   -3.1879002    1.5280632   483326 
 5293000    1.1207512   -3.1879906   -1.6609772  0.079273168   -3.1879906    1.5270135   483372 
 5294000    1.1199516    -3.187206   -1.6613925  0.082716999    -3.187206    1.5258135   483407 
 5295000    1.1211252   -3.1895427   -1.6620829  0.079972452   -3.1895427    1.5274598   483392 
 5296000    1.1225761   -3.1907091   -1.6613516  0.077688254   -3.1907091    1.5293575   483417 
 5297000    1.1221753    -3.190357   -1.6615455  0.075917857    -3.190357    1.5288114   483417 
 5298000    1.1224154   -3.1903383   -1.6612408   0.07923056   -3.1903383    1.5290975   483430 
 5299000    1.1210823   -3.1870729   -1.6598895  0.081397086   -3.1870729    1.5271834   483461 
 5300000    1.1224193   -3.1896642   -1.6606942  0.083468495   -3.1896642    1.5289699   483472 
 5301000    1.1237929   -3.1919313   -1.6611568  0.080079556   -3.1919313    1.5307745   483493 
 5302000    1.1234816   -3.1911867   -1.6609311  0.079540326   -3.1911867    1.5302556   483523 
 5303000    1.1225848    -3.189524   -1.6605185  0.088060802    -3.189524    1.5290055   483532 
 5304000    1.1230077   -3.1901373   -1.6605209   0.08277928   -3.1901373    1.5296163   483521 
 5305000    1.1238275   -3.1903619   -1.6597207  0.082776818   -3.1903619    1.5306412   483550 
 5306000    1.1260633   -3.1926781   -1.6591092  0.079345144   -3.1926781    1.5335689   483587 
 5307000    1.1243804   -3.1917616   -1.6605764  0.083458715   -3.1917616    1.5311852   483616 
 5308000    1.1230087   -3.1891933   -1.6599234  0.085922448   -3.1891933    1.5292699   483631 
 5309000    1.1228536    -3.189978   -1.6610301  0.082571306    -3.189978     1.528948   483666 
 5310000    1.1235748   -3.1904115   -1.6605448  0.085185007   -3.1904115    1.5298667   483686 
 5311000    1.1232716   -3.1907486   -1.6612377  0.083994841   -3.1907486    1.5295108   483668 
 5312000    1.1223886   -3.1906508    -1.662475  0.083915152   -3.1906508    1.5281758   483710 
 5313000    1.1235247   -3.1915479   -1.6617809  0.081500497   -3.1915479    1.5297669   483696 
 5314000    1.1227191   -3.1909404   -1.6622608  0.081330702   -3.1909404    1.5286795   483693 
 5315000    1.1235507   -3.1913573   -1.6616024  0.082663854   -3.1913573    1.5297549   483711 
 5316000    1.1231561   -3.1907485   -1.6615657  0.082008787   -3.1907485    1.5291828   483722 
 5317000    1.1230864   -3.1908067    -1.661703  0.082517297   -3.1908067    1.5291037   483717 
 5318000    1.1240065   -3.1912465   -1.6609976  0.080552278   -3.1912465    1.5302489   483751 
 5319000    1.1240417   -3.1905869   -1.6604292  0.082895188   -3.1905869    1.5301577   483795 
 5320000    1.1226546    -3.189218   -1.6610307  0.084781635    -3.189218    1.5281873   483821 
 5321000    1.1243313   -3.1922817   -1.6618153  0.079840078   -3.1922817    1.5304664   483822 
 5322000    1.1236257   -3.1916735    -1.662354  0.078885092   -3.1916735    1.5293196   483881 
 5323000    1.1228707   -3.1910839   -1.6627067  0.080497074   -3.1910839    1.5283772   483854 
 5324000     1.122487   -3.1896205   -1.6617466  0.079523657   -3.1896205    1.5278739   483848 
 5325000    1.1237807   -3.1900604   -1.6605204   0.08348134   -3.1900604      1.52954   483878 
 5326000    1.1249555   -3.1907917   -1.6597762  0.083353731   -3.1907917    1.5310155   483917 
 5327000     1.123065   -3.1904194   -1.6619547  0.079482173   -3.1904194    1.5284647   483910 
 5328000     1.122523   -3.1896871   -1.6620672  0.084096598   -3.1896871    1.5276198   483944 
 5329000     1.122452   -3.1908551   -1.6633982  0.075324869   -3.1908551    1.5274568   483965 
 5330000    1.1235985    -3.190788   -1.6618562  0.082876143    -3.190788    1.5289318   483992 
 5331000    1.1217403   -3.1893811   -1.6629685  0.084518166   -3.1893811    1.5264126   483989 
 5332000    1.1223883   -3.1906386   -1.6632747  0.077001268   -3.1906386    1.5273639   483967 
 5333000    1.1208231   -3.1896478   -1.6644234  0.081438711   -3.1896478    1.5252244   483970 
 5334000    1.1222921   -3.1924843   -1.6653082  0.075479229   -3.1924843    1.5271761   483985 
 5335000    1.1211871    -3.191287   -1.6656175  0.077059898    -3.191287    1.5256694   483986 
 5336000    1.1221603   -3.1918934   -1.6648776   0.07902079   -3.1918934    1.5270157   483979 
 5337000    1.1212482   -3.1893899   -1.6636689  0.081919703   -3.1893899     1.525721   483996 
 5338000    1.1233975   -3.1920857   -1.6635001  0.083747421   -3.1920857    1.5285856   484015 
 5339000    1.1238181   -3.1927831   -1.6637326  0.080729788   -3.1927831    1.5290505   484049 
 5340000    1.1242817   -3.1924009   -1.6628618   0.08602786   -3.1924009    1.5295391   484094 
 5341000    1.1236359   -3.1920815   -1.6634842  0.081146435   -3.1920815    1.5285973   484114 
 5342000    1.1225528   -3.1921092   -1.6650706  0.083683579   -3.1921092    1.5270386   484141 
 5343000    1.1247713   -3.1942701   -1.6642704  0.080458223   -3.1942701    1.5299997   484159 
 5344000    1.1252472   -3.1937844   -1.6632132  0.084081085   -3.1937844    1.5305712   484183 
 5345000    1.1257506   -3.1936027   -1.6623941  0.082764038   -3.1936027    1.5312086   484198 
 5346000    1.1253454   -3.1942636    -1.663603  0.081821906   -3.1942636    1.5306606   484197 
 5347000    1.1245048   -3.1938991   -1.6644357  0.086915733   -3.1938991    1.5294635   484214 
 5348000    1.1245457   -3.1943825   -1.6648603  0.084261881   -3.1943825    1.5295222   484213 
 5349000    1.1245838   -3.1945972   -1.6650927  0.079398084   -3.1945972    1.5295045   484235 
 5350000    1.1240697   -3.1939908   -1.6652834  0.083534709   -3.1939908    1.5287075   484266 
 5351000    1.1252672   -3.1946573   -1.6643213  0.082870145   -3.1946573     1.530336   484266 
 5352000    1.1249269    -3.194801   -1.6650193  0.080485796    -3.194801    1.5297817   484295 
 5353000    1.1236421   -3.1920428   -1.6641724  0.085403395   -3.1920428    1.5278704   484347 
 5354000    1.1246811   -3.1936069   -1.6643742  0.088385758   -3.1936069    1.5292327   484363 
 5355000     1.123953   -3.1942348   -1.6659195  0.083447563   -3.1942348    1.5283153   484340 
 5356000    1.1245023   -3.1936723   -1.6647396   0.08637363   -3.1936723    1.5289327   484381 
 5357000    1.1239726   -3.1937623   -1.6655151  0.082339183   -3.1937623    1.5282472   484370 
 5358000    1.1248422   -3.1942737   -1.6648915   0.08441397   -3.1942737    1.5293822   484385 
 5359000    1.1236142   -3.1931405   -1.6655729  0.086922325   -3.1931405    1.5275676   484431 
 5360000    1.1257357   -3.1950846   -1.6647466  0.079998249   -3.1950846     1.530338   484467 
 5361000    1.1235395   -3.1911513   -1.6639376  0.082612458   -3.1911513    1.5272138   484511 
 5362000    1.1239283   -3.1930897   -1.6653443  0.076651338   -3.1930897    1.5277454   484510 
 5363000    1.1242041    -3.192577   -1.6646301  0.078653159    -3.192577    1.5279469   484565 
 5364000    1.1247844   -3.1934318   -1.6647215  0.076072473   -3.1934318    1.5287103   484573 
 5365000    1.1231837   -3.1910444   -1.6645474  0.076825829   -3.1910444     1.526497   484585 
 5366000     1.122778   -3.1902397   -1.6643067  0.086367247   -3.1902397     1.525933   484589 
 5367000    1.1234103   -3.1902217   -1.6634294  0.084015538   -3.1902217    1.5267923   484589 
 5368000     1.124963   -3.1911411   -1.6622732  0.079659405   -3.1911411     1.528868   484600 
 5369000    1.1252562   -3.1908174   -1.6616709  0.087073448   -3.1908174    1.5291465   484638 
 5370000    1.1247669   -3.1920313   -1.6636886   0.08559279   -3.1920313    1.5283427   484682 
 5371000    1.1255658   -3.1935938   -1.6643295  0.082093358   -3.1935938    1.5292643   484734 
 5372000    1.1232399   -3.1895044   -1.6634537  0.083673867   -3.1895044    1.5260507   484751 
 5373000     1.123713   -3.1900182   -1.6634383  0.081867337   -3.1900182      1.52658   484787 
 5374000    1.1260793   -3.1936273   -1.6639115  0.080539299   -3.1936273    1.5297158   484812 
 5375000    1.1264228   -3.1925597   -1.6623804  0.079988666   -3.1925597    1.5301793   484813 
 5376000    1.1246672   -3.1909622   -1.6630197  0.085460814   -3.1909622    1.5279425   484766 
 5377000    1.1234858   -3.1887771   -1.6626348  0.088312152   -3.1887771    1.5261423   484828 
 5378000    1.1270069   -3.1931014   -1.6622266   0.08524728   -3.1931014    1.5308748   484844 
 5379000    1.1252256    -3.190745   -1.6623717    0.0865587    -3.190745    1.5283733   484870 
 5380000     1.125555   -3.1915662   -1.6627897  0.084063989   -3.1915662    1.5287764   484884 
 5381000    1.1255207   -3.1931817   -1.6644392  0.082787092   -3.1931817    1.5287425   484880 
 5382000    1.1261947   -3.1939263   -1.6643692  0.082580703   -3.1939263    1.5295571   484912 
 5383000    1.1250973    -3.192024   -1.6641307  0.081171199    -3.192024    1.5278933   484967 
 5384000    1.1255258   -3.1921031   -1.6637413  0.083596916   -3.1921031    1.5283618   485003 
 5385000    1.1260654   -3.1934784   -1.6643556  0.083023721   -3.1934784    1.5291228   484994 
 5386000    1.1234697   -3.1912428   -1.6656636  0.083686762   -3.1912428    1.5255791   485000 
 5387000    1.1246129   -3.1937944   -1.6666723  0.079135195   -3.1937944    1.5271222   485003 
 5388000     1.124438   -3.1924732   -1.6656579  0.081144826   -3.1924732    1.5268153   485025 
 5389000    1.1235885   -3.1914623   -1.6658854  0.084379503   -3.1914623    1.5255769   485052 
 5390000    1.1220071    -3.189728   -1.6662732  0.083932061    -3.189728    1.5234548   485044 
 5391000    1.1235549     -3.19162   -1.6660855  0.079151501     -3.19162    1.5255345   485051 
 5392000    1.1225106   -3.1903708   -1.6663705  0.085929889   -3.1903708    1.5240003   485088 
 5393000    1.1249383   -3.1930239   -1.6657843  0.085151019   -3.1930239    1.5272396   485106 
 5394000    1.1257286    -3.194009   -1.6657468  0.083768092    -3.194009    1.5282622   485122 
 5395000    1.1270867   -3.1952079   -1.6650862  0.084493042   -3.1952079    1.5301217   485117 
 5396000    1.1259792   -3.1932876    -1.664723  0.082675663   -3.1932876    1.5285646   485134 
 5397000    1.1285668   -3.1969443   -1.6649742  0.082919371   -3.1969443      1.53197   485168 
 5398000    1.1263701   -3.1941613   -1.6652426  0.087388313   -3.1941613    1.5289187   485190 
 5399000    1.1276768    -3.194741   -1.6641305  0.084938065    -3.194741    1.5306105   485216 
 5400000    1.1262719   -3.1933601   -1.6645557  0.084693097   -3.1933601    1.5288043   485184 
 5401000    1.1278307   -3.1945799   -1.6636439  0.084700622   -3.1945799     1.530936   485179 
 5402000    1.1283088   -3.1953647   -1.6637166  0.081238389   -3.1953647    1.5316481   485159 
 5403000     1.127256   -3.1946241   -1.6643988  0.088995597   -3.1946241    1.5302254   485157 
 5404000    1.1273968   -3.1932806   -1.6628389  0.083467467   -3.1932806    1.5304417   485149 
 5405000    1.1284227   -3.1944979   -1.6628276  0.085116676   -3.1944979    1.5316702   485201 
 5406000    1.1283845   -3.1959698   -1.6643452  0.084349731   -3.1959698    1.5316247   485199 
 5407000    1.1258142    -3.193586   -1.6654911  0.079492631    -3.193586    1.5280949   485212 
 5408000    1.1280016    -3.196172   -1.6651301  0.080490732    -3.196172    1.5310418   485219 
 5409000    1.1278406   -3.1959384   -1.6651561  0.082853301   -3.1959384    1.5307822   485232 
 5410000    1.1251453   -3.1917664   -1.6647052     0.089777   -3.1917664    1.5270611   485252 
 5411000    1.1247619    -3.191266   -1.6647976  0.084235473    -3.191266    1.5264684   485275 
 5412000    1.1267523   -3.1954919   -1.6664136  0.079690768   -3.1954919    1.5290782   485304 
 5413000    1.1246159   -3.1930598   -1.6668745  0.070928836   -3.1930598    1.5261853   485302 
 5414000    1.1254549   -3.1938484    -1.666622  0.076456023   -3.1938484    1.5272263   485333 
 5415000    1.1242093   -3.1923436   -1.6667981  0.078494916   -3.1923436    1.5255456   485330 
 5416000    1.1267175   -3.1952926   -1.6663813   0.08108815   -3.1952926    1.5289113   485342 
 5417000    1.1250188   -3.1948442   -1.6684329  0.076127701   -3.1948442    1.5264112   485404 
 5418000    1.1247078   -3.1941202   -1.6682378  0.076721571   -3.1941202    1.5258825   485438 
 5419000    1.1256968    -3.195717   -1.6685999  0.075015327    -3.195717    1.5271172   485472 
 5420000    1.1268536   -3.1963692   -1.6677457  0.081933071   -3.1963692    1.5286235   485492 
 5421000    1.1263037   -3.1960685   -1.6682349  0.080575682   -3.1960685    1.5278336   485506 
 5422000    1.1271526   -3.1959103   -1.6670039  0.081843459   -3.1959103    1.5289064   485531 
 5423000    1.1271176     -3.19569   -1.6668972  0.080687667     -3.19569    1.5287928   485552 
 5424000    1.1275847   -3.1963247   -1.6668764  0.080781187   -3.1963247    1.5294483   485545 
 5425000    1.1277411   -3.1962659   -1.6666811  0.083859504   -3.1962659    1.5295849   485569 
 5426000     1.128106   -3.1964136      -1.6664  0.082012248   -3.1964136    1.5300136   485590 
 5427000    1.1267742   -3.1952591   -1.6670013  0.077033425   -3.1952591    1.5282577   485574 
 5428000    1.1271784   -3.1971287   -1.6683921  0.083148495   -3.1971287    1.5287366   485596 
 5429000    1.1264968   -3.1958857   -1.6681395  0.086001591   -3.1958857    1.5277462   485617 
 5430000    1.1270813   -3.1975699   -1.6690657  0.079073938   -3.1975699    1.5285042   485628 
 5431000    1.1273364    -3.197693   -1.6688491  0.084841586    -3.197693    1.5288439   485630 
 5432000    1.1287601   -3.1995301   -1.6688468  0.084831696   -3.1995301    1.5306833   485659 
 5433000     1.127711   -3.1985353   -1.6693439   0.08044162   -3.1985353    1.5291913   485681 
 5434000    1.1265268   -3.1956732   -1.6681474  0.082813604   -3.1956732    1.5275258   485700 
 5435000    1.1274361   -3.1963721   -1.6676164  0.083703943   -3.1963721    1.5287557   485701 
 5436000    1.1272481   -3.1961007   -1.6677195  0.085407629   -3.1961007    1.5283811   485739 
 5437000    1.1273068   -3.1966405   -1.6681672  0.086367167   -3.1966405    1.5284733   485735 
 5438000    1.1272879   -3.1973891   -1.6689949  0.078315098   -3.1973891    1.5283942   485752 
 5439000    1.1283112   -3.1988221    -1.669116  0.085152238   -3.1988221    1.5297061   485776 
 5440000    1.1284108   -3.1985777   -1.6688531  0.079991395   -3.1985777    1.5297246   485813 
 5441000    1.1281417   -3.1978596   -1.6686572  0.078521059   -3.1978596    1.5292024   485863 
 5442000    1.1279854    -3.197641   -1.6686914  0.080836029    -3.197641    1.5289496   485876 
 5443000    1.1276296    -3.197762   -1.6694834  0.083035147    -3.197762    1.5282785   485936 
 5444000    1.1279032   -3.1985538   -1.6699453  0.081602751   -3.1985538    1.5286085   485949 
 5445000     1.127251   -3.1979098   -1.6702702  0.079216144   -3.1979098    1.5276397   485976 
 5446000    1.1284971   -3.1985477   -1.6692916  0.078485269   -3.1985477    1.5292561   485999 
 5447000    1.1279556   -3.1978343   -1.6694127  0.084741623   -3.1978343    1.5284217   486031 
 5448000    1.1279782    -3.196489    -1.668043  0.083715257    -3.196489    1.5284459   486033 
 5449000    1.1292358   -3.1974031   -1.6673758  0.082307001   -3.1974031    1.5300273   486072 
 5450000    1.1276429   -3.1959426   -1.6680862  0.083911326   -3.1959426    1.5278564   486076 
 5451000    1.1281849   -3.1965713   -1.6680214   0.08282479   -3.1965713    1.5285499   486089 
 5452000    1.1272051    -3.195167   -1.6679761  0.084327003    -3.195167    1.5271909   486099 
 5453000      1.12793   -3.1961558   -1.6679984  0.079834448   -3.1961558    1.5281574   486104 
 5454000    1.1296961   -3.1979005   -1.6674259  0.083884166   -3.1979005    1.5304747   486128 
 5455000     1.129434   -3.1979492   -1.6679619  0.082770053   -3.1979492    1.5299873   486170 
 5456000    1.1284992   -3.1972458   -1.6686411  0.083942338   -3.1972458    1.5286047   486207 
 5457000    1.1278298   -3.1951911   -1.6674429   0.08036134   -3.1951911    1.5277481   486191 
 5458000      1.12751   -3.1955422    -1.668315  0.082431597   -3.1955422    1.5272271   486219 
 5459000    1.1282712   -3.1955271   -1.6672501  0.082013029   -3.1955271     1.528277   486213 
 5460000    1.1299146   -3.1961102   -1.6656765  0.084392209   -3.1961102    1.5304337   486235 
 5461000    1.1287063   -3.1958007   -1.6670759  0.080413779   -3.1958007    1.5287249   486258 
 5462000     1.128237   -3.1964326   -1.6684785   0.08399929   -3.1964326    1.5279541   486301 
 5463000     1.129624   -3.1971469   -1.6673868  0.084386899   -3.1971469    1.5297601   486324 
 5464000    1.1287801   -3.1960055    -1.667451  0.082734727   -3.1960055    1.5285545   486344 
 5465000    1.1290439   -3.1950825   -1.6661456  0.085772605   -3.1950825    1.5289369   486336 
 5466000    1.1289443   -3.1953138   -1.6665747  0.085922317   -3.1953138    1.5287391   486356 
 5467000    1.1296787   -3.1966864   -1.6669559  0.081322726   -3.1966864    1.5297304   486357 
 5468000    1.1297139   -3.1976293   -1.6678323  0.082798185   -3.1976293     1.529797   486351 
 5469000    1.1272557   -3.1944707   -1.6680684  0.086863927   -3.1944707    1.5264023   486372 
 5470000    1.1282728   -3.1960243   -1.6682636  0.080398672   -3.1960243    1.5277607   486378 
 5471000    1.1295439   -3.1976436   -1.6683159  0.078825651   -3.1976436    1.5293277   486427 
 5472000    1.1298813   -3.1979219    -1.668241  0.085757228   -3.1979219    1.5296809   486460 
 5473000    1.1283562   -3.1972021   -1.6697241  0.084952708   -3.1972021     1.527478   486504 
 5474000    1.1271994   -3.1961395    -1.670262  0.080753527   -3.1961395    1.5258775   486515 
 5475000    1.1289129   -3.1971208    -1.668949  0.082634255   -3.1971208    1.5281718   486523 
 5476000    1.1300849   -3.1998079   -1.6702036  0.081157364   -3.1998079    1.5296043   486572 
 5477000    1.1289281    -3.197499   -1.6694982  0.082325717    -3.197499    1.5280008   486584 
 5478000    1.1296648    -3.198648   -1.6696154  0.085801644    -3.198648    1.5290326   486573 
 5479000    1.1300444   -3.1992594   -1.6696502  0.086391324   -3.1992594    1.5296092   486553 
 5480000    1.1321634   -3.2004121   -1.6679881  0.085820657   -3.2004121     1.532424   486570 
 5481000    1.1298406    -3.199311   -1.6702447  0.082695488    -3.199311    1.5290663   486638 
 5482000    1.1279724   -3.1975451   -1.6709915  0.087104891   -3.1975451    1.5265536   486633 
 5483000    1.1325159   -3.2028041   -1.6701425  0.084007221   -3.2028041    1.5326616   486646 
 5484000    1.1318534   -3.2012169   -1.6694896  0.080449559   -3.2012169    1.5317273   486658 
 5485000    1.1315539   -3.2003497   -1.6689239  0.085546863   -3.2003497    1.5314258   486625 
 5486000    1.1309189   -3.2006993   -1.6702115   0.08160835   -3.2006993    1.5304878   486650 
 5487000    1.1316617   -3.2006526   -1.6691974  0.087147638   -3.2006526    1.5314552   486662 
 5488000    1.1315822    -3.201997   -1.6707972  0.085939156    -3.201997    1.5311999   486709 
 5489000    1.1316688   -3.2021638   -1.6709066  0.080909224   -3.2021638    1.5312571   486728 
 5490000    1.1309674   -3.2010726    -1.670843  0.083740414   -3.2010726    1.5302296   486753 
 5491000    1.1310866    -3.200844   -1.6705223  0.078457281    -3.200844    1.5303217   486775 
 5492000    1.1307595   -3.2006127   -1.6707682  0.082777483   -3.2006127    1.5298445   486786 
 5493000     1.129789   -3.2003081     -1.67183  0.085535563   -3.2003081    1.5284781   486803 
 5494000    1.1292112   -3.2003546   -1.6726895  0.083088184   -3.2003546    1.5276651   486813 
 5495000    1.1291386   -3.1989665   -1.6714373  0.081576538   -3.1989665    1.5275292   486825 
 5496000    1.1293237   -3.1999965   -1.6722576  0.082303617   -3.1999965    1.5277388   486838 
 5497000    1.1310877   -3.2013334   -1.6711579  0.084531021   -3.2013334    1.5301755   486822 
 5498000    1.1309045   -3.2011072   -1.6711356  0.081898919   -3.2011072    1.5299716   486808 
 5499000      1.13007   -3.1995704   -1.6708063  0.079368148   -3.1995704     1.528764   486833 
 5500000    1.1304418    -3.201032   -1.6717336  0.082031795    -3.201032    1.5292985   486823 
 5501000    1.1294211    -3.198589   -1.6708472  0.080585741    -3.198589    1.5277419   486879 
 5502000    1.1316983   -3.2000399   -1.6693435  0.080865878   -3.2000399    1.5306964   486919 
 5503000     1.131672    -3.199608     -1.66901  0.080816616    -3.199608    1.5305979   486939 
 5504000    1.1311781   -3.1987041   -1.6688337  0.079856369   -3.1987041    1.5298704   486958 
 5505000    1.1298205   -3.1971069   -1.6691386  0.081763908   -3.1971069    1.5279683   486979 
 5506000    1.1292205   -3.1961444   -1.6690973  0.083806678   -3.1961444    1.5270471   487014 
 5507000    1.1304851   -3.1976643   -1.6689447  0.080245863   -3.1976643    1.5287196   487026 
 5508000    1.1309691   -3.1976107   -1.6683151  0.079564334   -3.1976107    1.5292956   487051 
 5509000    1.1303335   -3.1982899   -1.6698286   0.08286261   -3.1982899    1.5284613   487043 
 5510000    1.1303746   -3.1997361   -1.6711534  0.081169993   -3.1997361    1.5285828   487022 
 5511000     1.128093   -3.1970142   -1.6715169   0.08417139   -3.1970142    1.5254973   487022 
 5512000    1.1290387   -3.1962257   -1.6695372  0.084576507   -3.1962257    1.5266885   487050 
 5513000    1.1306542   -3.1992999   -1.6706216  0.084868304   -3.1992999    1.5286783   487112 
 5514000    1.1297848   -3.1987322   -1.6712544  0.081520432   -3.1987322    1.5274778   487120 
 5515000    1.1292451   -3.1973938   -1.6707805  0.087441618   -3.1973938    1.5266133   487163 
 5516000    1.1308777   -3.1993892   -1.6706629  0.080055025   -3.1993892    1.5287263   487193 
 5517000     1.131078   -3.1998666   -1.6709355   0.08432565   -3.1998666    1.5289311   487214 
 5518000    1.1304462   -3.1986967   -1.6707231  0.078872951   -3.1986967    1.5279736   487247 
 5519000    1.1301886   -3.1988998   -1.6712524  0.078523779   -3.1988998    1.5276474   487240 
 5520000    1.1307086   -3.1985865   -1.6702834  0.087771641   -3.1985865    1.5283031   487255 
 5521000    1.1307144   -3.1984401   -1.6701573  0.081976294   -3.1984401    1.5282828   487264 
 5522000    1.1307636   -3.1992712   -1.6709375  0.084542764   -3.1992712    1.5283337   487269 
 5523000    1.1325411   -3.2002804   -1.6696103  0.082606553   -3.2002804    1.5306701   487290 
 5524000    1.1318614   -3.2004478   -1.6707182  0.082014204   -3.2004478    1.5297296   487297 
 5525000    1.1310445   -3.1996922   -1.6710636  0.080090089   -3.1996922    1.5286285   487296 
 5526000    1.1315202   -3.2001996   -1.6710254  0.084024233   -3.2001996    1.5291742   487327 
 5527000    1.1334146   -3.2017128   -1.6699565  0.081764886   -3.2017128    1.5317563   487320 
 5528000    1.1326244   -3.1998362   -1.6692106  0.086890552   -3.1998362    1.5306256   487340 
 5529000    1.1330452   -3.2007467   -1.6695932  0.087105067   -3.2007467    1.5311535   487353 
 5530000    1.1327224   -3.2001468   -1.6694704  0.087457679   -3.2001468    1.5306764   487366 
 5531000    1.1316856   -3.1986386    -1.669404  0.085283746   -3.1986386    1.5292346   487379 
 5532000    1.1331274   -3.1988305   -1.6677104  0.085935321   -3.1988305    1.5311201   487399 
 5533000    1.1324239   -3.1984723   -1.6684222  0.085534193   -3.1984723    1.5300501   487437 
 5534000    1.1332493   -3.1987181   -1.6676407  0.086187024   -3.1987181    1.5310775   487465 
 5535000    1.1342427   -3.2003124   -1.6679745   0.08362016   -3.2003124    1.5323378   487491 
 5536000    1.1316757   -3.1975469   -1.6688558  0.086664062   -3.1975469    1.5286911   487548 
 5537000    1.1316906   -3.1987795    -1.670153  0.081467468   -3.1987795    1.5286265   487575 
 5538000    1.1322333    -3.199375   -1.6699934  0.079567664    -3.199375    1.5293816   487568 
 5539000    1.1319483   -3.1984283   -1.6695477  0.082587893   -3.1984283    1.5288806   487605 
 5540000    1.1317817   -3.1983147   -1.6699037  0.084192445   -3.1983147     1.528411   487683 
 5541000     1.134074   -3.2005432   -1.6690616  0.079629913   -3.2005432    1.5314815   487691 
 5542000    1.1315856   -3.1979255   -1.6698073  0.087232638   -3.1979255    1.5281181   487692 
 5543000    1.1308888   -3.1975728   -1.6704395  0.083665541   -3.1975728    1.5271333   487706 
 5544000    1.1316288   -3.1970146   -1.6690199  0.078839286   -3.1970146    1.5279947   487750 
 5545000    1.1319449   -3.1968668   -1.6684139  0.085782885   -3.1968668    1.5284529   487740 
 5546000    1.1313654   -3.1958413   -1.6681772  0.084921444   -3.1958413    1.5276641   487742 
 5547000    1.1323582   -3.1977927   -1.6688633  0.077323003   -3.1977927    1.5289294   487766 
 5548000    1.1314588   -3.1977443   -1.6699698  0.076733387   -3.1977443    1.5277745   487747 
 5549000    1.1324082   -3.1970333   -1.6680584  0.077599329   -3.1970333     1.528975   487773 
 5550000    1.1308938    -3.195127   -1.6681498  0.081263732    -3.195127    1.5269772   487758 
 5551000    1.1321149   -3.1970297   -1.6684162  0.078117939   -3.1970297    1.5286135   487762 
 5552000    1.1329838   -3.1990032   -1.6693638  0.076592735   -3.1990032    1.5296393   487809 
 5553000    1.1313157   -3.1970632   -1.6697481  0.079368335   -3.1970632    1.5273152   487832 
 5554000     1.132498   -3.1988615   -1.6700349  0.079211404   -3.1988615    1.5288266   487859 
 5555000     1.133169   -3.1993355   -1.6697096  0.079952446   -3.1993355    1.5296259   487893 
 5556000    1.1312903   -3.1973835   -1.6702748  0.083159464   -3.1973835    1.5271086   487887 
 5557000    1.1323962   -3.1984671   -1.6698813  0.085180986   -3.1984671    1.5285858   487892 
 5558000    1.1334215   -3.1998038    -1.669953  0.079372769   -3.1998038    1.5298508   487930 
 5559000    1.1311153   -3.1974206   -1.6707328  0.077915976   -3.1974206    1.5266878   487946 
 5560000    1.1309765   -3.1970719   -1.6706434  0.086578456   -3.1970719    1.5264286   487969 
 5561000    1.1304557   -3.1970551   -1.6714014  0.079241785   -3.1970551    1.5256537   487992 
 5562000    1.1323066   -3.1998123   -1.6717295  0.079634014   -3.1998123    1.5280828   488014 
 5563000    1.1334072   -3.2011051   -1.6714585  0.081395075   -3.2011051    1.5296465   487989 
 5564000    1.1326675   -3.2006605   -1.6721031   0.07464817   -3.2006605    1.5285574   488018 
 5565000    1.1324881    -3.199626   -1.6714486   0.08201264    -3.199626    1.5281774   488062 
 5566000     1.132025   -3.1991171   -1.6716709  0.084359069   -3.1991171    1.5274462   488096 
 5567000    1.1334571   -3.2018504   -1.6725063  0.078492944   -3.2018504     1.529344   488107 
 5568000    1.1345535   -3.2014624   -1.6706861   0.08755538   -3.2014624    1.5307763   488122 
 5569000    1.1342843   -3.2026312    -1.672353  0.080465872   -3.2026312    1.5302783   488165 
 5570000    1.1341017   -3.2014823   -1.6715851  0.082255394   -3.2014823    1.5298972   488208 
 5571000     1.133458   -3.2003581   -1.6715015  0.087422111   -3.2003581    1.5288566   488263 
 5572000    1.1337702   -3.2009915   -1.6717483  0.085424138   -3.2009915    1.5292432   488274 
 5573000    1.1337741   -3.2010431   -1.6717821  0.082202249   -3.2010431    1.5292611   488270 
 5574000    1.1326259   -3.1999408   -1.6722536  0.090617716   -3.1999408    1.5276873   488278 
 5575000    1.1330506   -3.2010178   -1.6726982  0.085745606   -3.2010178    1.5283196   488259 
 5576000    1.1324387   -3.1989761   -1.6715225  0.085947879   -3.1989761    1.5274536   488272 
 5577000    1.1336716   -3.2003726   -1.6714033  0.091091007   -3.2003726    1.5289693   488319 
 5578000    1.1349763   -3.2016587   -1.6709204  0.081713824   -3.2016587    1.5307383   488316 
 5579000    1.1329297   -3.2010097   -1.6730847  0.082791654   -3.2010097     1.527925   488333 
 5580000    1.1327177   -3.2005711   -1.6730447  0.084587797   -3.2005711    1.5275264   488369 
 5581000    1.1336173   -3.2020664   -1.6734051  0.081203642   -3.2020664    1.5286613   488394 
 5582000    1.1329745   -3.2016502   -1.6739808  0.086451313   -3.2016502    1.5276694   488434 
 5583000    1.1326463   -3.2000835   -1.6730193  0.082000214   -3.2000835    1.5270642   488486 
 5584000    1.1342304   -3.2013612   -1.6721456  0.079444979   -3.2013612    1.5292156   488481 
 5585000    1.1338525   -3.2000643   -1.6713707  0.075675448   -3.2000643    1.5286936   488485 
 5586000    1.1343308   -3.1994586   -1.6702328  0.083127501   -3.1994586    1.5292259   488521 
 5587000     1.135935   -3.2002938   -1.6689868  0.081502864   -3.2002938     1.531307   488547 
 5588000    1.1367822    -3.201925   -1.6694791  0.077210101    -3.201925    1.5324459   488548 
 5589000    1.1353388    -3.199567   -1.6690982  0.087665119    -3.199567    1.5304688   488558 
 5590000    1.1350127   -3.1990316   -1.6690932  0.086571286   -3.1990316    1.5299383   488587 
 5591000     1.137487   -3.2023384   -1.6690554  0.087921865   -3.2023384     1.533283   488584 
 5592000    1.1375925   -3.2019674   -1.6686113  0.087424304   -3.2019674    1.5333562   488606 
 5593000     1.136589   -3.2010926   -1.6691267  0.085070209   -3.2010926    1.5319659   488618 
 5594000    1.1369183   -3.2011888    -1.668826  0.081706324   -3.2011888    1.5323628   488633 
 5595000    1.1352801    -3.198311    -1.668175  0.085398121    -3.198311     1.530136   488639 
 5596000     1.136647   -3.2003411   -1.6683503  0.084079638   -3.2003411    1.5319908   488635 
 5597000    1.1345216    -3.197763    -1.668762  0.083043893    -3.197763     1.529001   488675 
 5598000    1.1348719   -3.1991644   -1.6696975  0.082374344   -3.1991644    1.5294669   488677 
 5599000    1.1348006   -3.2008116   -1.6714564  0.085561966   -3.2008116    1.5293552   488682 
 5600000    1.1353547   -3.2014502    -1.671364  0.080838416   -3.2014502    1.5300862   488687 
 5601000    1.1350763   -3.2004757   -1.6708461  0.083792099   -3.2004757    1.5296296   488713 
 5602000    1.1343084   -3.1992585   -1.6707356  0.084287664   -3.1992585    1.5285229   488736 
 5603000    1.1359592   -3.2015295    -1.670826  0.079254571   -3.2015295    1.5307036   488750 
 5604000    1.1341851    -3.199739    -1.671501  0.089173072    -3.199739    1.5282379   488774 
 5605000    1.1352766   -3.2010318   -1.6713701  0.083564977   -3.2010318    1.5296617   488789 
 5606000    1.1351229   -3.2012091   -1.6718203  0.083837116   -3.2012091    1.5293888   488810 
 5607000    1.1360686   -3.2010533   -1.6704559  0.082936308   -3.2010533    1.5305973   488831 
 5608000    1.1354996   -3.1994036   -1.6696543  0.086511586   -3.1994036    1.5297493   488857 
 5609000    1.1373531   -3.2016929   -1.6695248   0.08693132   -3.2016929     1.532168   488882 
 5610000    1.1364085   -3.2031847   -1.6722516  0.082048024   -3.2031847    1.5309331   488870 
 5611000    1.1360228   -3.2010552   -1.6707419  0.081723932   -3.2010552    1.5303133   488902 
 5612000    1.1355891   -3.2009432    -1.671358  0.085956247   -3.2009432    1.5295852   488948 
 5613000    1.1351599   -3.2017756    -1.672828  0.082554729   -3.2017756    1.5289477   488967 
 5614000    1.1355098   -3.2016319   -1.6722974  0.086522189   -3.2016319    1.5293345   488994 
 5615000    1.1355575    -3.202275   -1.6728544  0.078989181    -3.202275    1.5294207   488987 
 5616000    1.1351181    -3.202137   -1.6733175  0.078395693    -3.202137    1.5288195   488990 
 5617000     1.136049   -3.2028225   -1.6728212  0.085383212   -3.2028225    1.5300013   489013 
 5618000    1.1347841   -3.2010901   -1.6728048  0.088126705   -3.2010901    1.5282853   489017 
 5619000    1.1356176   -3.2023094    -1.672889  0.088397856   -3.2023094    1.5294203   489013 
 5620000    1.1359489   -3.2037325   -1.6738754  0.078692868   -3.2037325    1.5298571   489016 
 5621000    1.1375273   -3.2050924   -1.6731315  0.087257249   -3.2050924    1.5319609   489023 
 5622000    1.1353138   -3.2018463   -1.6728163  0.086529198   -3.2018463    1.5290299   489007 
 5623000    1.1365819   -3.2031942   -1.6726098  0.081762603   -3.2031942    1.5305844   489056 
 5624000    1.1369016   -3.2050082   -1.6740748  0.082313607   -3.2050082    1.5309335   489082 
 5625000    1.1354176   -3.2030009   -1.6741563  0.083400182   -3.2030009    1.5288445   489111 
 5626000    1.1370527   -3.2053714   -1.6742783  0.085971538   -3.2053714    1.5310931   489096 
 5627000     1.136597   -3.2034149   -1.6730324  0.086683191   -3.2034149    1.5303825   489127 
 5628000    1.1359971   -3.2038405    -1.674372  0.083608972   -3.2038405    1.5294685   489161 
 5629000    1.1357383   -3.2041985    -1.675191  0.082244711   -3.2041985    1.5290075   489197 
 5630000    1.1353475   -3.2039091   -1.6755277  0.079394631   -3.2039091    1.5283814   489229 
 5631000    1.1371471   -3.2055698   -1.6748127  0.078560759   -3.2055698    1.5307571   489244 
 5632000    1.1339018   -3.2017758   -1.6754529   0.09191631   -3.2017758     1.526323   489265 
 5633000    1.1371469   -3.2055873   -1.6749055  0.078735404   -3.2055873    1.5306818   489268 
 5634000    1.1362604    -3.203354   -1.6739719  0.086647044    -3.203354    1.5293821   489302 
 5635000    1.1348679   -3.2014508   -1.6740428   0.08479912   -3.2014508     1.527408   489334 
 5636000     1.135465   -3.2026652   -1.6744566  0.075597191   -3.2026652    1.5282085   489335 
 5637000    1.1342697   -3.2006585   -1.6741087  0.083080384   -3.2006585    1.5265498   489351 
 5638000    1.1356772   -3.2008684   -1.6726335  0.081898913   -3.2008684    1.5282349   489418 
 5639000    1.1375955   -3.2034548   -1.6726854  0.081122646   -3.2034548    1.5307693   489433 
 5640000    1.1366759    -3.202066   -1.6725591  0.083069965    -3.202066    1.5295069   489441 
 5641000    1.1375335   -3.2033814   -1.6727987  0.082665471   -3.2033814    1.5305827   489466 
 5642000    1.1347488   -3.1997781   -1.6729485  0.083700744   -3.1997781    1.5268296   489468 
 5643000    1.1354423   -3.2018824   -1.6741852  0.078123445   -3.2018824    1.5276972   489489 
 5644000    1.1365415   -3.2032148   -1.6740856  0.081042175   -3.2032148    1.5291292   489504 
 5645000    1.1356267   -3.2009875   -1.6731078  0.083365224   -3.2009875    1.5278796   489510 
 5646000    1.1375106   -3.2027524   -1.6724756  0.077607542   -3.2027524    1.5302767   489554 
 5647000    1.1362597   -3.2012038   -1.6726567   0.08053259   -3.2012038     1.528547   489569 
 5648000    1.1342719   -3.2000407   -1.6742673  0.085061033   -3.2000407    1.5257734   489601 
 5649000     1.136291   -3.2008106   -1.6724213  0.078940977   -3.2008106    1.5283893   489633 
 5650000      1.13789   -3.2017822   -1.6713609  0.079745139   -3.2017822    1.5304213   489671 
 5651000    1.1366534   -3.2005555   -1.6717942   0.08333242   -3.2005555    1.5287613   489670 
 5652000    1.1384534   -3.2026776   -1.6716361   0.08239841   -3.2026776    1.5310415   489715 
 5653000    1.1380287   -3.2022357   -1.6717496  0.088081714   -3.2022357     1.530486   489710 
 5654000    1.1389077   -3.2029457   -1.6712932   0.08085846   -3.2029457    1.5316525   489715 
 5655000    1.1406406   -3.2035711   -1.6696351  0.087179295   -3.2035711     1.533936   489730 
 5656000    1.1384776   -3.2009939   -1.6700854  0.084983125   -3.2009939    1.5309085   489768 
 5657000    1.1401746   -3.2026455   -1.6695741   0.08651064   -3.2026455    1.5330714   489806 
 5658000    1.1395798   -3.2023228   -1.6701262    0.0901469   -3.2023228    1.5321966   489830 
 5659000    1.1393925    -3.203057   -1.6710466  0.088903317    -3.203057    1.5320104   489809 
 5660000    1.1382133   -3.2007773   -1.6705898  0.088575752   -3.2007773    1.5301874   489885 
 5661000    1.1384817   -3.2014458   -1.6709912  0.085119857   -3.2014458    1.5304546   489915 
 5662000    1.1389981   -3.2020952   -1.6710308  0.082142197   -3.2020952    1.5310644   489942 
 5663000    1.1389495   -3.2012752   -1.6703167  0.083816926   -3.2012752    1.5309585   489955 
 5664000    1.1383478   -3.2018922   -1.6719299  0.083252171   -3.2018922    1.5299623   490015 
 5665000    1.1379368   -3.2015601   -1.6721408  0.085368154   -3.2015601    1.5294193   490012 
 5666000     1.137603   -3.2026207   -1.6736531  0.082384264   -3.2026207    1.5289676   490013 
 5667000    1.1372729   -3.2019745   -1.6734226  0.080708273   -3.2019745     1.528552   490004 
 5668000    1.1387063   -3.2034749   -1.6730621  0.083257822   -3.2034749    1.5304129   490025 
 5669000    1.1387536   -3.2042871   -1.6740198  0.082006958   -3.2042871    1.5302673   490092 
 5670000    1.1376233   -3.2028408   -1.6741331  0.080960186   -3.2028408    1.5287077   490105 
 5671000     1.137464    -3.202954   -1.6744728  0.084081125    -3.202954    1.5284812   490109 
 5672000    1.1380439   -3.2034482   -1.6742314  0.081824245   -3.2034482    1.5292168   490123 
 5673000     1.137812   -3.2032173   -1.6742654  0.085509196   -3.2032173    1.5289519   490108 
 5674000    1.1385663   -3.2046364   -1.6746958  0.083320643   -3.2046364    1.5299406   490116 
 5675000    1.1362736   -3.2015513   -1.6747849  0.083661869   -3.2015513    1.5267664   490146 
 5676000    1.1390204   -3.2050409   -1.6746212  0.080697665   -3.2050409    1.5304197   490158 
 5677000    1.1380438   -3.2032024   -1.6740855  0.085630454   -3.2032024    1.5291169   490155 
 5678000    1.1401379   -3.2058013   -1.6739332  0.081390064   -3.2058013     1.531868   490175 
 5679000    1.1395442   -3.2050454   -1.6740375  0.082493356   -3.2050454    1.5310079   490195 
 5680000    1.1390247   -3.2044119   -1.6742082   0.08805327   -3.2044119    1.5302037   490229 
 5681000    1.1384991   -3.2052935     -1.67588  0.083486924   -3.2052935    1.5294135   490256 
 5682000    1.1397879   -3.2064331   -1.6752509   0.08524775   -3.2064331    1.5311822   490244 
 5683000    1.1381223   -3.2050391   -1.6761444  0.084839541   -3.2050391    1.5288948   490260 
 5684000    1.1392395   -3.2061274    -1.675863  0.086335767   -3.2061274    1.5302644   490302 
 5685000    1.1406784     -3.20736   -1.6751659  0.084016413     -3.20736    1.5321942   490303 
 5686000    1.1397819   -3.2056419   -1.6747769  0.088142091   -3.2056419    1.5308651   490343 
 5687000    1.1389593   -3.2047067   -1.6748904  0.087237635   -3.2047067    1.5298163   490325 
 5688000    1.1392888   -3.2037379   -1.6735445  0.087019105   -3.2037379    1.5301934   490346 
 5689000    1.1404985   -3.2050063   -1.6731444  0.089643664   -3.2050063    1.5318619   490332 
 5690000    1.1393061   -3.2038324   -1.6737219  0.088247822   -3.2038324    1.5301106   490380 
 5691000    1.1399901   -3.2044399   -1.6733826   0.08272161   -3.2044399    1.5310573   490371 
 5692000     1.139681   -3.2047184    -1.674095  0.083362417   -3.2047184    1.5306234   490377 
 5693000    1.1396904   -3.2040128   -1.6735329  0.085831489   -3.2040128      1.53048   490427 
 5694000    1.1391508   -3.2040164   -1.6743047  0.081249386   -3.2040164    1.5297116   490441 
 5695000    1.1408417   -3.2055837   -1.6736014  0.078117329   -3.2055837    1.5319823   490441 
 5696000     1.139353   -3.2049882   -1.6751298  0.085109169   -3.2049882    1.5298584   490481 
 5697000    1.1382268   -3.2036641   -1.6752649  0.083231589   -3.2036641    1.5283993   490464 
 5698000    1.1389035    -3.204005   -1.6747346  0.082191198    -3.204005    1.5292704   490476 
 5699000     1.140696   -3.2054934   -1.6738566   0.08071491   -3.2054934    1.5316368   490489 
 5700000    1.1384939   -3.2025024   -1.6738193  0.089312342   -3.2025024    1.5286831   490488 
 5701000    1.1397219   -3.2035139   -1.6732226  0.088682388   -3.2035139    1.5302913   490501 
 5702000     1.140178   -3.2038621    -1.672977  0.080917308   -3.2038621     1.530885   490507 
 5703000    1.1378692   -3.2019951   -1.6742971   0.08142768   -3.2019951    1.5276979   490535 
 5704000    1.1375856   -3.2010992   -1.6738631  0.081136577   -3.2010992    1.5272361   490561 
 5705000    1.1383857   -3.2022515   -1.6740253  0.083947188   -3.2022515    1.5282262   490588 
 5706000    1.1383003   -3.2023352   -1.6741956  0.082121094   -3.2023352    1.5281396   490579 
 5707000    1.1394341   -3.2030354   -1.6734485  0.083061218   -3.2030354    1.5295869   490603 
 5708000     1.137588   -3.2006021   -1.6735401  0.089096658   -3.2006021     1.527062   490618 
 5709000    1.1402262   -3.2042307   -1.6736305  0.074812285   -3.2042307    1.5306002   490619 
 5710000    1.1400192   -3.2029645   -1.6725984  0.079954063   -3.2029645     1.530366   490605 
 5711000    1.1399159   -3.2022731   -1.6721392  0.083088308   -3.2022731    1.5301339   490635 
 5712000    1.1406901   -3.2028035   -1.6717085  0.084200099   -3.2028035     1.531095   490660 
 5713000    1.1410209   -3.2015149   -1.6700663  0.087410053   -3.2015149    1.5314486   490689 
 5714000     1.140553   -3.2007321   -1.6700987  0.087271098   -3.2007321    1.5306333   490749 
 5715000    1.1410423    -3.201541   -1.6702603  0.084457589    -3.201541    1.5312807   490752 
 5716000    1.1401682   -3.2019418    -1.671959  0.082900465   -3.2019418    1.5299829   490792 
 5717000    1.1412543   -3.2029152   -1.6715342  0.084745471   -3.2029152     1.531381   490811 
 5718000    1.1394518   -3.2022865   -1.6734113  0.087544389   -3.2022865    1.5288752   490839 
 5719000    1.1409061   -3.2033974   -1.6726457   0.08232211   -3.2033974    1.5307517   490863 
 5720000    1.1392239   -3.2022228   -1.6737126  0.085304636   -3.2022228    1.5285102   490858 
 5721000      1.13971   -3.2032466   -1.6740749  0.077435333   -3.2032466    1.5291718   490855 
 5722000    1.1375052   -3.2018099   -1.6756647  0.080631496   -3.2018099    1.5261452   490877 
 5723000    1.1388139    -3.203903   -1.6759368  0.083574918    -3.203903    1.5279663   490856 
 5724000    1.1377898   -3.2025811   -1.6760044   0.08285751   -3.2025811    1.5265767   490861 
 5725000    1.1379298   -3.2014714   -1.6747442  0.076933482   -3.2014714    1.5267272   490873 
 5726000    1.1412536   -3.2076784   -1.6763887  0.077317522   -3.2076784    1.5312896   490840 
 5727000    1.1396202   -3.2045948   -1.6755685  0.082035699   -3.2045948    1.5290264   490863 
 5728000    1.1392497   -3.2035002   -1.6750238  0.084811183   -3.2035002    1.5284764   490880 
 5729000    1.1406306   -3.2058462   -1.6754891  0.077711013   -3.2058462    1.5303571   490871 
 5730000    1.1396762   -3.2039787   -1.6748927  0.081203165   -3.2039787    1.5290859   490868 
 5731000     1.140532   -3.2046988   -1.6745425  0.086733652   -3.2046988    1.5301562   490893 
 5732000    1.1419846   -3.2057188   -1.6736637  0.085753487   -3.2057188    1.5320551   490909 
 5733000    1.1419662   -3.2060001   -1.6741382  0.090789468   -3.2060001    1.5318619   490963 
 5734000      1.14181   -3.2036826    -1.672261  0.083086848   -3.2036826    1.5314216   491037 
 5735000    1.1423113   -3.2051517   -1.6731795  0.083100487   -3.2051517    1.5319723   491076 
 5736000     1.140481   -3.2044975   -1.6750328  0.086052527   -3.2044975    1.5294647   491093 
 5737000    1.1407783   -3.2043111   -1.6744914  0.081827935   -3.2043111    1.5298197   491107 
 5738000    1.1427527   -3.2062706   -1.6738592  0.082926581   -3.2062706    1.5324114   491125 
 5739000     1.140451   -3.2043085   -1.6749805  0.082074935   -3.2043085    1.5293279   491124 
 5740000    1.1416724    -3.205593     -1.67478   0.08117801    -3.205593     1.530813   491173 
 5741000    1.1414614   -3.2044695   -1.6738147  0.085797594   -3.2044695    1.5306547   491133 
 5742000    1.1404631   -3.2039915   -1.6748125  0.082622195   -3.2039915     1.529179   491177 
 5743000    1.1404872   -3.2048813   -1.6756107  0.086944233   -3.2048813    1.5292706   491158 
 5744000     1.140859   -3.2052663   -1.6755159   0.08022195   -3.2052663    1.5297504   491164 
 5745000    1.1412029   -3.2056787   -1.6754548  0.083628035   -3.2056787     1.530224   491160 
 5746000    1.1403306   -3.2043605   -1.6754556  0.080459332   -3.2043605     1.528905   491208 
 5747000     1.139865    -3.203093   -1.6748995  0.081671884    -3.203093    1.5281935   491236 
 5748000    1.1410551    -3.204359   -1.6746944  0.085453205    -3.204359    1.5296645   491276 
 5749000    1.1411278    -3.206296   -1.6766772  0.080299539    -3.206296    1.5296188   491322 
 5750000     1.140195   -3.2042825   -1.6760541    0.0787717   -3.2042825    1.5282285   491367 
 5751000    1.1395534   -3.2037764   -1.6764452  0.086685972   -3.2037764    1.5273312   491379 
 5752000    1.1416534   -3.2060644   -1.6759217  0.081198632   -3.2060644    1.5301426   491380 
 5753000    1.1386234   -3.2027835    -1.676736  0.084590225   -3.2027835    1.5260475   491391 
 5754000    1.1398208   -3.2032587   -1.6757091  0.081922025   -3.2032587    1.5275496   491424 
 5755000    1.1418306   -3.2058398   -1.6758021  0.084448636   -3.2058398    1.5300377   491490 
 5756000    1.1428171   -3.2052597   -1.6739625  0.078158431   -3.2052597    1.5312972   491510 
 5757000    1.1420299   -3.2057729   -1.6755461   0.08108111   -3.2057729    1.5302269   491515 
 5758000     1.141853   -3.2064887   -1.6765953  0.081102051   -3.2064887    1.5298934   491546 
 5759000    1.1430228   -3.2078808   -1.6764637  0.082507584   -3.2078808    1.5314171   491560 
 5760000    1.1424829   -3.2064315   -1.6758218   0.07960882   -3.2064315    1.5306097   491587 
 5761000    1.1420517   -3.2058564    -1.675927  0.085501877   -3.2058564    1.5299293   491620 
 5762000    1.1432341   -3.2072015   -1.6758098  0.078955684   -3.2072015    1.5313917   491659 
 5763000    1.1438807   -3.2076157   -1.6755323  0.083624283   -3.2076157    1.5320834   491715 
 5764000    1.1436471   -3.2067966   -1.6750354  0.083989262   -3.2067966    1.5317612   491718 
 5765000    1.1439554   -3.2077659    -1.675651   0.08489315   -3.2077659    1.5321149   491737 
 5766000    1.1431604   -3.2070878   -1.6762556   0.08905798   -3.2070878    1.5308322   491807 
 5767000    1.1433706   -3.2083264    -1.677303  0.082845706   -3.2083264    1.5310234   491836 
 5768000    1.1433207   -3.2078145   -1.6768704  0.087173302   -3.2078145    1.5309442   491840 
 5769000    1.1432271   -3.2084898   -1.6776024  0.085319259   -3.2084898    1.5308873   491818 
 5770000    1.1416944   -3.2055202   -1.6768501  0.086469074   -3.2055202    1.5286701   491871 
 5771000     1.143542   -3.2072632   -1.6761783  0.084161244   -3.2072632    1.5310849   491890 
 5772000    1.1424706   -3.2080312   -1.6784554   0.08320282   -3.2080312    1.5295758   491914 
 5773000    1.1410076   -3.2060626   -1.6784114  0.081969995   -3.2060626    1.5276512   491903 
 5774000    1.1433431    -3.209236   -1.6785077  0.084961923    -3.209236    1.5307282   491919 
 5775000    1.1424575   -3.2078932   -1.6784313  0.081621934   -3.2078932    1.5294618   491945 
 5776000    1.1429379    -3.207579   -1.6775861  0.079879211    -3.207579    1.5299929   491981 
 5777000    1.1439154   -3.2097024   -1.6784881  0.076780377   -3.2097024    1.5312144   492009 
 5778000    1.1431786   -3.2076729   -1.6774728  0.077846813   -3.2076729    1.5302001   492018 
 5779000    1.1428192   -3.2079339   -1.6782925  0.084057699   -3.2079339    1.5296413   492043 
 5780000    1.1433901    -3.207903   -1.6775194  0.083273054    -3.207903    1.5303836   492050 
 5781000    1.1432271   -3.2075105   -1.6774103  0.083068389   -3.2075105    1.5301001   492071 
 5782000    1.1430161   -3.2084333   -1.6785689  0.084057651   -3.2084333    1.5298644   492056 
 5783000    1.1442097   -3.2085011   -1.6771044  0.087438453   -3.2085011    1.5313967   492077 
 5784000    1.1450896   -3.2100355   -1.6774985  0.082498355   -3.2100355     1.532537   492089 
 5785000    1.1434831   -3.2093929   -1.6790682  0.087959012   -3.2093929    1.5303246   492109 
 5786000     1.143214   -3.2094624   -1.6794513  0.088963279   -3.2094624    1.5300112   492094 
 5787000    1.1430844   -3.2089445   -1.6790912    0.0805901   -3.2089445    1.5298532   492089 
 5788000    1.1427814   -3.2083735   -1.6789631  0.081588946   -3.2083735    1.5294104   492101 
 5789000    1.1423624    -3.206844   -1.6780658  0.088336151    -3.206844    1.5287783   492124 
 5790000    1.1423148    -3.207825   -1.6791539  0.085049965    -3.207825    1.5286711   492138 
 5791000    1.1421534   -3.2084812    -1.680141  0.083675392   -3.2084812    1.5283401   492175 
 5792000    1.1413078    -3.206964   -1.6797616  0.082113801    -3.206964    1.5272025   492177 
 5793000    1.1440981   -3.2095319   -1.6785895  0.084449413   -3.2095319    1.5309424   492175 
 5794000    1.1437793   -3.2089359   -1.6784481   0.08360681   -3.2089359    1.5304878   492184 
 5795000     1.143125   -3.2068175   -1.6773327   0.08440765   -3.2068175    1.5294849   492225 
 5796000    1.1452962   -3.2102618    -1.677931  0.083241131   -3.2102618    1.5323307   492244 
 5797000    1.1441936   -3.2087135   -1.6779668  0.089982968   -3.2087135    1.5307467   492279 
 5798000    1.1465262   -3.2106887   -1.6766842  0.082309875   -3.2106887    1.5340044   492235 
 5799000    1.1442083   -3.2082414   -1.6774844  0.081725333   -3.2082414     1.530757   492282 
 5800000    1.1437366     -3.20842   -1.6784214  0.078134576     -3.20842    1.5299986   492323 
 5801000    1.1459485   -3.2103902   -1.6773923  0.079175984   -3.2103902    1.5329979   492310 
 5802000     1.144144   -3.2089632   -1.6784197  0.080658972   -3.2089632    1.5305436   492323 
 5803000    1.1448171   -3.2086066   -1.6771937  0.084407021   -3.2086066    1.5314129   492333 
 5804000    1.1441385   -3.2096868   -1.6792096  0.079543325   -3.2096868    1.5304771   492342 
 5805000    1.1448947    -3.211147   -1.6798108  0.081121619    -3.211147    1.5313363   492391 
 5806000     1.144265   -3.2093266    -1.678904  0.086657313   -3.2093266    1.5304226   492414 
 5807000    1.1446718   -3.2105949   -1.6796004  0.082164762   -3.2105949    1.5309946   492405 
 5808000    1.1439946   -3.2084639   -1.6783718  0.081730359   -3.2084639     1.530092   492404 
 5809000    1.1443301   -3.2097565   -1.6792935  0.080144993   -3.2097565     1.530463   492429 
 5810000    1.1444509   -3.2101683   -1.6796308  0.080202729   -3.2101683    1.5305375   492457 
 5811000    1.1441548   -3.2096669   -1.6795533   0.08633341   -3.2096669    1.5301136   492466 
 5812000    1.1437421    -3.209118   -1.6795191  0.089687121    -3.209118    1.5295989   492454 
 5813000    1.1426546   -3.2075006   -1.6792723  0.088065774   -3.2075006    1.5282284   492427 
 5814000    1.1446321   -3.2093226   -1.6784216  0.085401431   -3.2093226     1.530901   492418 
 5815000    1.1440071   -3.2095173   -1.6795329  0.085712875   -3.2095173    1.5299844   492444 
 5816000    1.1460912   -3.2105243   -1.6777806  0.087536059   -3.2105243    1.5327437   492453 
 5817000    1.1466022   -3.2113432   -1.6779691  0.088101801   -3.2113432    1.5333741   492470 
 5818000    1.1479283   -3.2113777   -1.6763549   0.08275143   -3.2113777    1.5350229   492510 
 5819000    1.1463214   -3.2097314   -1.6769881  0.082154104   -3.2097314    1.5327433   492552 
 5820000    1.1443621   -3.2081038   -1.6780205  0.089801808   -3.2081038    1.5300832   492565 
 5821000    1.1452532   -3.2083401    -1.677137  0.086335375   -3.2083401    1.5312031   492588 
 5822000    1.1461188    -3.208372   -1.6760395  0.085799741    -3.208372    1.5323325   492597 
 5823000    1.1464609   -3.2086958   -1.6759557  0.088510105   -3.2086958    1.5327401   492613 
 5824000    1.1461575   -3.2090837   -1.6767398  0.085578753   -3.2090837    1.5323438   492610 
 5825000    1.1480929   -3.2103746   -1.6755305  0.083732161   -3.2103746    1.5348441   492638 
 5826000    1.1471652   -3.2096017   -1.6760912  0.085383111   -3.2096017    1.5335105   492668 
 5827000     1.146296   -3.2096256    -1.677246  0.080298843   -3.2096256    1.5323796   492658 
 5828000    1.1445747   -3.2091471   -1.6790716   0.07787374   -3.2091471    1.5300755   492659 
 5829000    1.1436812   -3.2076134   -1.6787664  0.082398213   -3.2076134     1.528847   492670 
 5830000    1.1434006   -3.2078415   -1.6794162  0.085797648   -3.2078415    1.5284252   492685 
 5831000    1.1448346   -3.2092049   -1.6789374  0.079713211   -3.2092049    1.5302676   492709 
 5832000    1.1454193   -3.2095348    -1.678554  0.078810998   -3.2095348    1.5309808   492731 
 5833000    1.1447679   -3.2082682    -1.678214  0.079961547   -3.2082682    1.5300543   492749 
 5834000    1.1422052   -3.2052333   -1.6787157  0.076356531   -3.2052333    1.5265175   492785 
 5835000    1.1425751   -3.2061648   -1.6793017  0.083530245   -3.2061648    1.5268632   492833 
 5836000    1.1435872   -3.2069194   -1.6786914  0.081101132   -3.2069194    1.5282281   492829 
 5837000     1.144293   -3.2082359   -1.6790863  0.086597931   -3.2082359    1.5291496   492836 
 5838000    1.1453353   -3.2082444   -1.6777456  0.083101864   -3.2082444    1.5304989   492850 
 5839000    1.1453421   -3.2082539   -1.6777707  0.080599041   -3.2082539    1.5304831   492858 
 5840000    1.1437261   -3.2074391   -1.6791062  0.080384955   -3.2074391     1.528333   492855 
 5841000    1.1445268   -3.2078063   -1.6784996  0.085913365   -3.2078063    1.5293068   492886 
 5842000    1.1450242    -3.208192   -1.6781523  0.077486872    -3.208192    1.5300397   492864 
 5843000    1.1443689   -3.2064683   -1.6773942  0.082726892   -3.2064683    1.5290741   492893 
 5844000    1.1460424   -3.2080644   -1.6767015  0.081067367   -3.2080644    1.5313629   492876 
 5845000    1.1445883    -3.205905   -1.6765625  0.088240952    -3.205905    1.5293424   492901 
 5846000    1.1457499   -3.2085056   -1.6775987  0.085801757   -3.2085056     1.530907   492897 
 5847000    1.1467092   -3.2093103   -1.6772242  0.085333231   -3.2093103    1.5320861   492930 
 5848000    1.1461712   -3.2078493   -1.6765938  0.085884726   -3.2078493    1.5312555   492966 
 5849000    1.1455157   -3.2077118   -1.6773725  0.085190271   -3.2077118    1.5303393   492979 
 5850000    1.1450504   -3.2070542   -1.6773923  0.083090506   -3.2070542    1.5296619   492997 
 5851000    1.1454552    -3.207972   -1.6777538  0.083310958    -3.207972    1.5302183   492992 
 5852000    1.1449091   -3.2081053   -1.6787344  0.080223303   -3.2081053    1.5293708   493030 
 5853000     1.144572   -3.2080189   -1.6791077  0.074973275   -3.2080189    1.5289112   493033 
 5854000    1.1448157   -3.2091189   -1.6800156  0.087823684   -3.2091189    1.5291033   493076 
 5855000     1.144664   -3.2070603   -1.6783332  0.083491058   -3.2070603    1.5287271   493132 
 5856000    1.1461672   -3.2101779   -1.6795333  0.082688002   -3.2101779    1.5306447   493161 
 5857000     1.146258   -3.2093342    -1.678618  0.081975231   -3.2093342    1.5307163   493177 
 5858000    1.1453241   -3.2095714   -1.6800931  0.078492544   -3.2095714    1.5294784   493174 
 5859000     1.145354   -3.2088331   -1.6793147  0.084571508   -3.2088331    1.5295184   493174 
 5860000    1.1449883   -3.2096277   -1.6806286  0.089515966   -3.2096277    1.5289991   493184 
 5861000    1.1478521   -3.2126415   -1.6798586  0.083311491   -3.2126415    1.5327829   493197 
 5862000    1.1468181   -3.2118867   -1.6805684  0.084508209   -3.2118867    1.5313183   493224 
 5863000    1.1463146   -3.2115992   -1.6811674  0.079899841   -3.2115992    1.5304319   493293 
 5864000    1.1463783   -3.2107142   -1.6803616  0.081323657   -3.2107142    1.5303526   493346 
 5865000    1.1446151   -3.2101854   -1.6821743  0.085134785   -3.2101854    1.5280112   493342 
 5866000    1.1456992   -3.2106451   -1.6813449  0.082147401   -3.2106451    1.5293003   493393 
 5867000    1.1457812   -3.2100848   -1.6806224  0.083263514   -3.2100848    1.5294624   493376 
 5868000    1.1465375   -3.2115352   -1.6810509  0.086640508   -3.2115352    1.5304843   493372 
 5869000    1.1471553   -3.2115865   -1.6802588  0.084231417   -3.2115865    1.5313277   493366 
 5870000    1.1478736   -3.2125218   -1.6802477  0.085689882   -3.2125218    1.5322741   493370 
 5871000    1.1477862   -3.2128834   -1.6806763  0.090192506   -3.2128834    1.5322071   493354 
 5872000     1.148851   -3.2145105   -1.6808261  0.083296377   -3.2145105    1.5336845   493336 
 5873000    1.1480097   -3.2150463   -1.6825316  0.083907977   -3.2150463    1.5325147   493351 
 5874000    1.1465553   -3.2137729   -1.6831221  0.082914287   -3.2137729    1.5306508   493326 
 5875000    1.1469163   -3.2136614   -1.6826341  0.087433652   -3.2136614    1.5310273   493360 
 5876000    1.1467741   -3.2138243   -1.6830458  0.091146832   -3.2138243    1.5307785   493379 
 5877000    1.1466714   -3.2133863   -1.6827914  0.084244727   -3.2133863    1.5305949   493394 
 5878000    1.1466668   -3.2141043   -1.6835899  0.084694859   -3.2141043    1.5305143   493418 
 5879000     1.146288   -3.2153009   -1.6851434  0.089282168   -3.2153009    1.5301576   493370 
 5880000    1.1450856    -3.214465   -1.6859715  0.078656552    -3.214465    1.5284935   493389 
 5881000    1.1441352   -3.2133215   -1.6861089  0.079466674   -3.2133215    1.5272125   493393 
 5882000    1.1443717   -3.2144364   -1.6867967  0.078705438   -3.2144364    1.5276397   493357 
 5883000    1.1433842   -3.2146085   -1.6882839  0.077851765   -3.2146085    1.5263246   493356 
 5884000    1.1429706   -3.2134749   -1.6876715  0.086301562   -3.2134749    1.5258034   493346 
 5885000    1.1442598    -3.214013   -1.6866125  0.082126759    -3.214013    1.5274006   493386 
 5886000    1.1441789   -3.2144231   -1.6872265  0.081945867   -3.2144231    1.5271966   493417 
 5887000    1.1447704   -3.2161095   -1.6881048  0.079330809   -3.2161095    1.5280047   493411 
 5888000    1.1449758   -3.2151303   -1.6869102  0.081433422   -3.2151303      1.52822   493430 
 5889000    1.1459428   -3.2149881   -1.6855177  0.085763364   -3.2149881    1.5294704   493443 
 5890000    1.1465911   -3.2159335   -1.6856535  0.084812876   -3.2159335    1.5302799   493461 
 5891000    1.1462781   -3.2152414   -1.6855125  0.082072437   -3.2152414    1.5297289   493504 
 5892000     1.146894   -3.2150203   -1.6845036  0.088494324   -3.2150203    1.5305166   493515 
 5893000    1.1475629   -3.2168729   -1.6855381  0.084214854   -3.2168729    1.5313349   493539 
 5894000    1.1484968   -3.2175741   -1.6849869  0.083313504   -3.2175741    1.5325872   493537 
 5895000    1.1475674   -3.2159692   -1.6846346  0.090925392   -3.2159692    1.5313346   493541 
 5896000    1.1477429   -3.2156154   -1.6841056  0.086700338   -3.2156154    1.5315098   493560 
 5897000    1.1482516   -3.2169847   -1.6848457  0.084530192   -3.2169847     1.532139   493576 
 5898000    1.1475037   -3.2156137   -1.6845378  0.087743949   -3.2156137    1.5310758   493597 
 5899000    1.1476431    -3.215467   -1.6842827  0.088546434    -3.215467    1.5311843   493622 
 5900000    1.1474058   -3.2142387   -1.6835168  0.084881799   -3.2142387    1.5307219   493669 
 5901000    1.1471387   -3.2145483   -1.6841764  0.083088757   -3.2145483    1.5303719   493667 
 5902000    1.1457428   -3.2134472   -1.6849376  0.089087002   -3.2134472    1.5285096   493667 
 5903000    1.1452909    -3.212544   -1.6847115  0.081941158    -3.212544    1.5278325   493691 
 5904000    1.1478823   -3.2151788   -1.6838894  0.082749068   -3.2151788    1.5312894   493691 
 5905000    1.1462012   -3.2133276   -1.6843458  0.083605002   -3.2133276    1.5289818   493712 
 5906000    1.1472756   -3.2134742   -1.6829942  0.085242478   -3.2134742    1.5304801   493691 
 5907000    1.1462158   -3.2133006   -1.6842374  0.079905647   -3.2133006    1.5290632   493692 
 5908000    1.1443261   -3.2120011   -1.6853939  0.084805643   -3.2120011    1.5266072   493671 
 5909000    1.1463461   -3.2130799   -1.6838708  0.086101144   -3.2130799    1.5292091   493701 
 5910000    1.1478708   -3.2147498   -1.6836712  0.086565715   -3.2147498    1.5310787   493754 
 5911000    1.1468493   -3.2132454   -1.6836686  0.076815615   -3.2132454    1.5295768   493799 
 5912000    1.1482401    -3.213738   -1.6822629  0.081551073    -3.213738    1.5314751   493785 
 5913000    1.1465291   -3.2119371   -1.6826696  0.078393452   -3.2119371    1.5292675   493761 
 5914000      1.14691   -3.2112727   -1.6815778  0.083229988   -3.2112727    1.5296949   493787 
 5915000    1.1467059   -3.2111894   -1.6817202  0.079590551   -3.2111894    1.5294692   493772 
 5916000    1.1471272   -3.2103946   -1.6803635  0.087875394   -3.2103946    1.5300311   493772 
 5917000    1.1458181   -3.2095638   -1.6814273  0.082547083   -3.2095638    1.5281365   493820 
 5918000    1.1479194   -3.2115697   -1.6806184  0.076201776   -3.2115697    1.5309513   493816 
 5919000    1.1453075   -3.2087264   -1.6813669  0.082194477   -3.2087264    1.5273596   493851 
 5920000    1.1467344   -3.2106308   -1.6814737   0.08164905   -3.2106308    1.5291572   493885 
 5921000    1.1457629   -3.2098314   -1.6820254   0.07805023   -3.2098314     1.527806   493903 
 5922000     1.146355   -3.2102345   -1.6815832   0.08256001   -3.2102345    1.5286513   493885 
 5923000    1.1449723   -3.2088583   -1.6820879  0.082718351   -3.2088583    1.5267704   493897 
 5924000    1.1458819   -3.2094369    -1.681568   0.08058813   -3.2094369    1.5278689   493934 
 5925000    1.1457531   -3.2096771   -1.6821716  0.080475187   -3.2096771    1.5275054   493996 
 5926000    1.1464266   -3.2098487   -1.6815444  0.080301459   -3.2098487    1.5283043   494028 
 5927000    1.1464047   -3.2095387   -1.6814524  0.078894763   -3.2095387    1.5280864   494089 
 5928000    1.1473082   -3.2104712    -1.681261  0.081474057   -3.2104712    1.5292102   494115 
 5929000    1.1490054   -3.2137251   -1.6823209  0.075069795   -3.2137251    1.5314041   494137 
 5930000     1.147817   -3.2112558   -1.6814696  0.081797623   -3.2112558    1.5297862   494148 
 5931000    1.1473252   -3.2119153   -1.6827227  0.079322037   -3.2119153    1.5291926   494128 
 5932000    1.1474007   -3.2123011   -1.6830543  0.084788713   -3.2123011    1.5292468   494143 
 5933000    1.1458794    -3.212482    -1.685445    0.0889083    -3.212482    1.5270369   494202 
 5934000    1.1472112    -3.212793   -1.6839936  0.080853648    -3.212793    1.5287994   494206 
 5935000    1.1497442   -3.2158252   -1.6837525  0.084520543   -3.2158252    1.5320727   494239 
 5936000    1.1495538   -3.2148945   -1.6831841  0.079714424   -3.2148945    1.5317104   494274 
 5937000    1.1494068   -3.2132681   -1.6817938  0.084786565   -3.2132681    1.5314743   494287 
 5938000    1.1498875   -3.2138012   -1.6818074  0.087010759   -3.2138012    1.5319938   494326 
 5939000     1.148813   -3.2136573    -1.683126  0.081676577   -3.2136573    1.5305313   494336 
 5940000    1.1494354   -3.2143605   -1.6829504  0.081033954   -3.2143605    1.5314101   494320 
 5941000    1.1491606   -3.2141946   -1.6831475   0.08758218   -3.2141946    1.5310471   494319 
 5942000    1.1505681    -3.216307   -1.6835366  0.083796853    -3.216307    1.5327704   494368 
 5943000    1.1492166   -3.2140668    -1.683199  0.086322324   -3.2140668    1.5308678   494401 
 5944000    1.1497907   -3.2154993    -1.683811  0.086308139   -3.2154993    1.5316883   494383 
 5945000    1.1490218   -3.2151043   -1.6843473  0.090752101   -3.2151043    1.5307569   494353 
 5946000    1.1500361   -3.2174298   -1.6853867  0.089261483   -3.2174298    1.5320432   494374 
 5947000    1.1495399   -3.2173693    -1.686105  0.081869865   -3.2173693    1.5312643   494412 
 5948000    1.1488659   -3.2158545   -1.6855994   0.08365642   -3.2158545    1.5302551   494448 
 5949000    1.1494135   -3.2159825   -1.6850723  0.085183368   -3.2159825    1.5309102   494472 
 5950000    1.1488677   -3.2143664   -1.6842419  0.091631484   -3.2143664    1.5301245   494491 
 5951000    1.1496988   -3.2166702    -1.685476  0.084826067   -3.2166702    1.5311942   494503 
 5952000    1.1507708   -3.2166734   -1.6840887  0.086796845   -3.2166734    1.5325847   494515 
 5953000     1.150526   -3.2173769   -1.6850934  0.087653002   -3.2173769    1.5322835   494507 
 5954000    1.1498087   -3.2157256   -1.6844531  0.090067691   -3.2157256    1.5312725   494525 
 5955000    1.1501397   -3.2154635   -1.6839051  0.089659427   -3.2154635    1.5315584   494575 
 5956000    1.1507833   -3.2172005   -1.6848223  0.081554168   -3.2172005    1.5323783   494587 
 5957000    1.1488242   -3.2151503   -1.6854642  0.082334262   -3.2151503     1.529686   494614 
 5958000    1.1477108   -3.2142092   -1.6861355  0.080806014   -3.2142092    1.5280737   494656 
 5959000    1.1476792   -3.2137711   -1.6858382  0.086489776   -3.2137711    1.5279328   494688 
 5960000     1.150832   -3.2149495   -1.6829277  0.087240812   -3.2149495    1.5320219   494723 
 5961000    1.1514382   -3.2156209   -1.6829656  0.080358946   -3.2156209    1.5326553   494779 
 5962000    1.1500787   -3.2134407    -1.682861  0.079718728   -3.2134407    1.5305798   494865 
 5963000    1.1510142   -3.2139835   -1.6822052  0.080414711   -3.2139835    1.5317783   494880 
 5964000    1.1506909   -3.2142448   -1.6829308  0.084194158   -3.2142448     1.531314   494891 
 5965000    1.1506402   -3.2141573   -1.6828922  0.081248586   -3.2141573    1.5312651   494885 
 5966000    1.1502106   -3.2122668   -1.6817868  0.089441059   -3.2122668      1.53048   494954 
 5967000    1.1503096   -3.2126308   -1.6820778  0.085512319   -3.2126308    1.5305529   494973 
 5968000    1.1501393   -3.2119149    -1.681675  0.083539069   -3.2119149    1.5302399   495001 
 5969000     1.149405   -3.2127106   -1.6832995  0.079415809   -3.2127106    1.5294112   494953 
 5970000     1.151068   -3.2147553   -1.6831066  0.081282791   -3.2147553    1.5316487   494945 
 5971000    1.1490366   -3.2121402   -1.6832657  0.085294848   -3.2121402    1.5288746   494968 
 5972000    1.1507273   -3.2136573   -1.6826475  0.081020556   -3.2136573    1.5310098   495005 
 5973000    1.1490565   -3.2116423   -1.6829233  0.076844274   -3.2116423    1.5287189   495027 
 5974000    1.1501293    -3.212896   -1.6827159  0.080697512    -3.212896    1.5301802   495016 
 5975000     1.151233   -3.2142218   -1.6826723  0.077373664   -3.2142218    1.5315495   495048 
 5976000    1.1493426   -3.2125499   -1.6836079  0.080284678   -3.2125499     1.528942   495078 
 5977000      1.14844   -3.2102947   -1.6826306  0.084670236   -3.2102947    1.5276641   495103 
 5978000    1.1500559   -3.2132566    -1.683446  0.081581083   -3.2132566    1.5298106   495104 
 5979000    1.1498432   -3.2124815   -1.6830436  0.081626577   -3.2124815     1.529438   495133 
 5980000    1.1496146   -3.2119271   -1.6828487  0.084540538   -3.2119271    1.5290784   495151 
 5981000    1.1493742   -3.2114732   -1.6827855  0.080045044   -3.2114732    1.5286877   495174 
 5982000    1.1522237   -3.2145269   -1.6820866  0.080608669   -3.2145269    1.5324403   495186 
 5983000    1.1516023   -3.2147884   -1.6831652  0.086716387   -3.2147884    1.5316232   495183 
 5984000     1.151522    -3.214691   -1.6832581  0.078403858    -3.214691    1.5314329   495210 
 5985000    1.1517677   -3.2148257   -1.6830074  0.084406213   -3.2148257    1.5318184   495191 
 5986000    1.1510601   -3.2138177   -1.6829621  0.082891401   -3.2138177    1.5308556   495198 
 5987000    1.1516209   -3.2153251    -1.683736  0.083998266   -3.2153251    1.5315892   495202 
 5988000    1.1501985   -3.2139667   -1.6843928  0.082623554   -3.2139667    1.5295739   495242 
 5989000    1.1504641   -3.2130571   -1.6831424  0.080845405   -3.2130571    1.5299147   495246 
 5990000    1.1526619   -3.2153189   -1.6825093   0.08173422   -3.2153189    1.5328095   495255 
 5991000    1.1496322   -3.2129901   -1.6843391  0.084768621   -3.2129901     1.528651   495297 
 5992000    1.1513646   -3.2160024   -1.6851868  0.084790077   -3.2160024    1.5308156   495342 
 5993000    1.1520616   -3.2162559   -1.6845539  0.080818816   -3.2162559     1.531702   495355 
 5994000    1.1495602   -3.2123908   -1.6840638  0.086406416   -3.2123908     1.528327   495371 
 5995000    1.1506865   -3.2141406   -1.6843872  0.077745607   -3.2141406    1.5297533   495394 
 5996000    1.1517855   -3.2133029   -1.6822215  0.087703285   -3.2133029    1.5310815   495437 
 5997000    1.1516209   -3.2136495   -1.6828795  0.085972014   -3.2136495      1.53077   495467 
 5998000     1.150794   -3.2125025   -1.6828748  0.082707983   -3.2125025    1.5296277   495481 
 5999000    1.1511656   -3.2130463    -1.682934  0.091783806   -3.2130463    1.5301123   495484 
 6000000    1.1507455   -3.2126452   -1.6831098  0.078181279   -3.2126452    1.5295353   495490 
 6001000    1.1515452   -3.2128923   -1.6824114  0.079708888   -3.2128923    1.5304809   495528 
 6002000    1.1506263   -3.2126273   -1.6833738  0.077142152   -3.2126273    1.5292535   495530 
 6003000    1.1498499    -3.210835   -1.6827029  0.086664924    -3.210835    1.5281322   495559 
 6004000    1.1471272   -3.2083608   -1.6838932  0.076744157   -3.2083608    1.5244676   495574 
 6005000    1.1500327   -3.2118572   -1.6834574  0.081714795   -3.2118572    1.5283998   495551 
 6006000    1.1485081   -3.2096905   -1.6834216  0.080094103   -3.2096905    1.5262689   495585 
 6007000    1.1506005   -3.2126087   -1.6835623  0.082717569   -3.2126087    1.5290464   495586 
 6008000    1.1513625   -3.2142911   -1.6842814  0.082252296   -3.2142911    1.5300097   495602 
 6009000    1.1505572   -3.2145729   -1.6856797  0.080076471   -3.2145729    1.5288933   495617 
 6010000    1.1493029   -3.2112407   -1.6839835  0.084590734   -3.2112407    1.5272573   495607 
 6011000    1.1511108   -3.2129515   -1.6832856  0.079271056   -3.2129515    1.5296659   495605 
 6012000    1.1510033   -3.2118698   -1.6825226  0.077411032   -3.2118698    1.5293472   495662 
 6013000    1.1507632   -3.2120852   -1.6830879  0.081048895   -3.2120852    1.5289973   495672 
 6014000    1.1511516   -3.2134965   -1.6840418   0.07741199   -3.2134965    1.5294547   495691 
 6015000    1.1515656   -3.2127194   -1.6828011  0.080598114   -3.2127194    1.5299183   495719 
 6016000    1.1510551   -3.2117816   -1.6826711  0.080339804   -3.2117816    1.5291106   495761 
 6017000    1.1516019   -3.2135011   -1.6836858  0.080680083   -3.2135011    1.5298153   495768 
 6018000    1.1516066   -3.2127613   -1.6829551  0.081839638   -3.2127613    1.5298062   495773 
 6019000    1.1517622    -3.212615   -1.6826268  0.085689555    -3.212615    1.5299882   495781 
 6020000    1.1525283   -3.2145097   -1.6836242  0.081686792   -3.2145097    1.5308854   495820 
 6021000    1.1513404   -3.2125766   -1.6833585  0.080530569   -3.2125766    1.5292182   495849 
 6022000    1.1507184   -3.2121751   -1.6838416  0.082093956   -3.2121751    1.5283335   495868 
 6023000    1.1534387   -3.2149477   -1.6830878  0.078868423   -3.2149477    1.5318599   495896 
 6024000     1.152169   -3.2129574   -1.6829472  0.082511188   -3.2129574    1.5300101   495949 
 6025000    1.1528428   -3.2145099   -1.6836328  0.077744749   -3.2145099     1.530877   495958 
 6026000    1.1523729    -3.214374   -1.6843245  0.079723488    -3.214374    1.5300495   496024 
 6027000    1.1540701   -3.2152072   -1.6830495  0.082164288   -3.2152072    1.5321577   496071 
 6028000    1.1530935   -3.2134332   -1.6826089  0.088924634   -3.2134332    1.5308242   496083 
 6029000    1.1512775   -3.2117321   -1.6834328  0.083607324   -3.2117321    1.5282993   496120 
 6030000    1.1539914   -3.2149734   -1.6831517  0.080814687   -3.2149734    1.5318217   496146 
 6031000    1.1516075   -3.2120975   -1.6834495  0.081680097   -3.2120975     1.528648   496149 
 6032000    1.1535742   -3.2139093   -1.6826136  0.082204467   -3.2139093    1.5312957   496137 
 6033000    1.1519739   -3.2135358    -1.684494  0.080474504   -3.2135358    1.5290419   496179 
 6034000    1.1522453   -3.2135548   -1.6840601  0.082047226   -3.2135548    1.5294947   496149 
 6035000    1.1515668   -3.2129771   -1.6843647  0.084381515   -3.2129771    1.5286124   496143 
 6036000    1.1518807   -3.2137898   -1.6847699  0.078755872   -3.2137898      1.52902   496146 
 6037000    1.1520108   -3.2128352   -1.6836765  0.083287513   -3.2128352    1.5291587   496157 
 6038000    1.1509283   -3.2111425   -1.6834392   0.07950014   -3.2111425    1.5277033   496163 
 6039000    1.1514868   -3.2121476    -1.683786  0.082532271   -3.2121476    1.5283615   496190 
 6040000    1.1512024   -3.2096405   -1.6818258  0.085157498   -3.2096405    1.5278147   496245 
 6041000    1.1530401   -3.2108752   -1.6806526  0.078313956   -3.2108752    1.5302227   496255 
 6042000    1.1524354   -3.2096041    -1.680261  0.086514453   -3.2096041    1.5293431   496280 
 6043000    1.1536163    -3.210991    -1.680201  0.082150067    -3.210991      1.53079   496319 
 6044000    1.1530846   -3.2105069   -1.6805982  0.081453622   -3.2105069    1.5299087   496376 
 6045000    1.1536286   -3.2108626   -1.6802906  0.085628236   -3.2108626    1.5305719   496395 
 6046000     1.154259   -3.2117673   -1.6803096  0.077571167   -3.2117673    1.5314577   496379 
 6047000    1.1538282   -3.2119189   -1.6810543   0.08762971   -3.2119189    1.5308646   496386 
 6048000    1.1537573   -3.2126418   -1.6819299  0.080256008   -3.2126418    1.5307119   496405 
 6049000    1.1539262   -3.2130044   -1.6821332  0.081527755   -3.2130044    1.5308712   496426 
 6050000    1.1539102   -3.2129213   -1.6818893  0.081670061   -3.2129213    1.5310319   496367 
 6051000     1.152067   -3.2102732   -1.6817732  0.082046046   -3.2102732    1.5285001   496395 
 6052000    1.1539496   -3.2116545   -1.6807893   0.08649783   -3.2116545    1.5308652   496438 
 6053000    1.1527114   -3.2103907   -1.6812575  0.087130943   -3.2103907    1.5291332   496467 
 6054000    1.1529094   -3.2122664   -1.6829567  0.081956037   -3.2122664    1.5293097   496495 
 6055000    1.1532064   -3.2124538   -1.6828704  0.078641688   -3.2124538    1.5295835   496534 
 6056000    1.1527348   -3.2124874   -1.6834956  0.081169201   -3.2124874    1.5289918   496523 
 6057000    1.1537881   -3.2127187   -1.6823482  0.081366542   -3.2127187    1.5303705   496529 
 6058000    1.1533836   -3.2120344   -1.6823145  0.076933929   -3.2120344    1.5297199   496566 
 6059000    1.1523303   -3.2111075   -1.6828031  0.084494441   -3.2111075    1.5283045   496572 
 6060000     1.153443   -3.2137474   -1.6840318  0.082137423   -3.2137474    1.5297156   496593 
 6061000    1.1522402   -3.2122972   -1.6842877  0.083379976   -3.2122972    1.5280096   496629 
 6062000     1.153908   -3.2148225   -1.6848353  0.081357785   -3.2148225    1.5299871   496705 
 6063000    1.1522966   -3.2136194   -1.6856672  0.082610937   -3.2136194    1.5279521   496672 
 6064000    1.1522635   -3.2145293   -1.6866611  0.076697726   -3.2145293    1.5278682   496685 
 6065000    1.1529053   -3.2150041   -1.6862234  0.078140802   -3.2150041    1.5287808   496665 
 6066000    1.1539435   -3.2135154   -1.6835459  0.080471742   -3.2135154    1.5299695   496726 
 6067000    1.1519117   -3.2121437   -1.6849295  0.082118466   -3.2121437    1.5272142   496746 
 6068000    1.1538915   -3.2142637   -1.6846063  0.082695257   -3.2142637    1.5296573   496805 
 6069000      1.15317   -3.2138373    -1.685118  0.083270726   -3.2138373    1.5287193   496799 
 6070000    1.1521923   -3.2125547   -1.6851684  0.083765988   -3.2125547    1.5273863   496811 
 6071000    1.1544586   -3.2148663   -1.6845189  0.082933596   -3.2148663    1.5303474   496825 
 6072000    1.1551663   -3.2153842   -1.6840432  0.079034686   -3.2153842    1.5313411   496807 
 6073000    1.1532922   -3.2123651     -1.68357  0.087670437   -3.2123651    1.5287951   496827 
 6074000    1.1542275   -3.2135509   -1.6834852  0.081193635   -3.2135509    1.5300658   496817 
 6075000    1.1537261   -3.2145084   -1.6852212  0.085735489   -3.2145084    1.5292872   496854 
 6076000    1.1534453   -3.2141068   -1.6852625  0.086210118   -3.2141068    1.5288443   496877 
 6077000    1.1531258   -3.2136218   -1.6852318  0.081563703   -3.2136218      1.52839   496887 
 6078000     1.152045   -3.2119771   -1.6850595  0.085605883   -3.2119771    1.5269175   496900 
 6079000    1.1545474   -3.2148235    -1.684734  0.081650364   -3.2148235    1.5300895   496947 
 6080000    1.1534052   -3.2142663   -1.6858043  0.086294541   -3.2142663     1.528462   496984 
 6081000    1.1538923   -3.2145294   -1.6854804  0.083322719   -3.2145294     1.529049   497003 
 6082000    1.1527627   -3.2128452    -1.685333  0.082072901   -3.2128452    1.5275122   497016 
 6083000     1.154382   -3.2154092   -1.6857636  0.079466882   -3.2154092    1.5296456   497020 
 6084000    1.1533233   -3.2139269   -1.6857302  0.081657127   -3.2139269    1.5281966   497035 
 6085000    1.1528388   -3.2129541   -1.6855101  0.082381357   -3.2129541    1.5274439   497071 
 6086000    1.1547353   -3.2149258   -1.6849875  0.084236526   -3.2149258    1.5299382   497077 
 6087000     1.153867   -3.2142377   -1.6854806  0.083392325   -3.2142377    1.5287571   497087 
 6088000    1.1533714   -3.2123909   -1.6844287  0.087961733   -3.2123909    1.5279621   497132 
 6089000    1.1546597   -3.2158921    -1.686171  0.080375961   -3.2158921    1.5297211   497115 
 6090000    1.1553877   -3.2156369   -1.6849605  0.085331762   -3.2156369    1.5306764   497118 
 6091000    1.1565985   -3.2150416   -1.6827734  0.088399051   -3.2150416    1.5322682   497122 
 6092000    1.1560247   -3.2153746   -1.6839191  0.086929011   -3.2153746    1.5314555   497139 
 6093000    1.1551694   -3.2159953   -1.6858206  0.084195816   -3.2159953    1.5301748   497187 
 6094000    1.1550116   -3.2170166   -1.6870262  0.083286382   -3.2170166    1.5299904   497179 
 6095000    1.1558606   -3.2159517   -1.6848552  0.085670469   -3.2159517    1.5310965   497185 
 6096000    1.1556068   -3.2164415   -1.6858043  0.083019427   -3.2164415    1.5306372   497225 
 6097000    1.1542622   -3.2145658   -1.6856142  0.078733915   -3.2145658    1.5289516   497194 
 6098000    1.1570436   -3.2165798   -1.6840395  0.081203536   -3.2165798    1.5325403   497225 
 6099000    1.1546463   -3.2141183   -1.6847164  0.082850012   -3.2141183    1.5294019   497213 
 6100000    1.1526829   -3.2132829   -1.6864724  0.083685963   -3.2132829    1.5268105   497210 
 6101000    1.1542326   -3.2150487   -1.6862717  0.078749208   -3.2150487     1.528777   497238 
 6102000    1.1541867   -3.2149166   -1.6863018  0.079225897   -3.2149166    1.5286148   497271 
 6103000    1.1554103   -3.2157262   -1.6854816  0.081664614   -3.2157262    1.5302446   497268 
 6104000    1.1558772   -3.2164368   -1.6856169  0.077085014   -3.2164368    1.5308199   497282 
 6105000    1.1557701   -3.2154713   -1.6847472  0.082620356   -3.2154713    1.5307242   497267 
 6106000     1.156297   -3.2168791   -1.6855002  0.083473342   -3.2168791    1.5313789   497281 
 6107000    1.1541112   -3.2132591   -1.6848395  0.084811549   -3.2132591    1.5284195   497302 
 6108000    1.1564462   -3.2159646   -1.6844958  0.075142401   -3.2159646    1.5314688   497316 
 6109000    1.1565115   -3.2146624   -1.6831934  0.081338414   -3.2146624     1.531469   497344 
 6110000    1.1556108   -3.2133423   -1.6830722  0.086798597   -3.2133423    1.5302701   497346 
 6111000    1.1550002   -3.2130332   -1.6836793  0.080392332   -3.2130332    1.5293539   497381 
 6112000     1.154389   -3.2124175   -1.6840326  0.079268273   -3.2124175    1.5283848   497433 
 6113000    1.1528119   -3.2109417   -1.6846327  0.084676831   -3.2109417     1.526309   497429 
 6114000    1.1547335   -3.2129143   -1.6841317  0.084878953   -3.2129143    1.5287826   497452 
 6115000    1.1565089   -3.2151479   -1.6840363  0.079723749   -3.2151479    1.5311115   497459 
 6116000    1.1542292   -3.2125044   -1.6844848  0.081352024   -3.2125044    1.5280196   497483 
 6117000    1.1541415   -3.2126964   -1.6848174  0.081087156   -3.2126964     1.527879   497491 
 6118000    1.1537409   -3.2136968   -1.6863666  0.079670531   -3.2136968    1.5273302   497497 
 6119000    1.1532119   -3.2131227   -1.6865449  0.077310622   -3.2131227    1.5265778   497514 
 6120000    1.1531919   -3.2130299    -1.686454  0.079370147   -3.2130299    1.5265759   497506 
 6121000    1.1532621   -3.2132407   -1.6865505  0.080245901   -3.2132407    1.5266902   497499 
 6122000    1.1553432   -3.2152604   -1.6859289  0.077181814   -3.2152604    1.5293314   497536 
 6123000     1.153481   -3.2136416   -1.6868611  0.081760485   -3.2136416    1.5267805   497564 
 6124000    1.1554481   -3.2151674   -1.6858753  0.079767697   -3.2151674    1.5292921   497594 
 6125000    1.1536284   -3.2131788   -1.6864394   0.08264913   -3.2131788    1.5267394   497641 
 6126000      1.15455   -3.2155065   -1.6875321  0.073989297   -3.2155065    1.5279744   497636 
 6127000    1.1543546   -3.2153242   -1.6876237  0.077811723   -3.2153242    1.5277005   497641 
 6128000    1.1525934   -3.2131888   -1.6879878  0.085914148   -3.2131888    1.5252011   497696 
 6129000    1.1557899   -3.2177443   -1.6882335  0.079122515   -3.2177443    1.5295109   497670 
 6130000    1.1573202   -3.2180919   -1.6866082  0.081603984   -3.2180919    1.5314837   497687 
 6131000    1.1577431   -3.2185697   -1.6866403  0.077291456   -3.2185697    1.5319295   497724 
 6132000    1.1556013   -3.2157923   -1.6868014  0.087103454   -3.2157923    1.5289909   497758 
 6133000    1.1569839   -3.2175645    -1.686729  0.085590412   -3.2175645    1.5308356   497753 
 6134000    1.1587514   -3.2185082   -1.6854233  0.087041319   -3.2185082     1.533085   497782 
 6135000    1.1564297   -3.2160934   -1.6861264  0.089935991   -3.2160934    1.5299671   497797 
 6136000    1.1568784   -3.2165102   -1.6859926  0.084220184   -3.2165102    1.5305176   497811 
 6137000    1.1570941   -3.2175988   -1.6869219  0.082376344   -3.2175988    1.5306769   497852 
 6138000    1.1592114   -3.2186458   -1.6852571  0.087066753   -3.2186458    1.5333886   497881 
 6139000    1.1581942   -3.2189095   -1.6868542  0.086023342   -3.2189095    1.5320553   497877 
 6140000    1.1577888    -3.218819   -1.6873583  0.086686933    -3.218819    1.5314607   497896 
 6141000    1.1581907   -3.2194091   -1.6874661  0.084540163   -3.2194091     1.531943   497912 
 6142000    1.1576353   -3.2180595   -1.6868481  0.081881964   -3.2180595    1.5312114   497911 
 6143000    1.1581537   -3.2185366    -1.686664  0.080420211   -3.2185366    1.5318726   497919 
 6144000     1.156823   -3.2180692   -1.6880151  0.083094483   -3.2180692    1.5300541   497938 
 6145000    1.1565911   -3.2179154   -1.6882233  0.076257047   -3.2179154    1.5296921   497956 
 6146000     1.155232   -3.2161085   -1.6883275  0.084881277   -3.2161085     1.527781   497993 
 6147000    1.1554669   -3.2166963   -1.6887918  0.084457986   -3.2166963    1.5279045   498054 
 6148000    1.1561617   -3.2161508   -1.6873797  0.080390617   -3.2161508    1.5287711   498071 
 6149000    1.1576352    -3.217891    -1.687319  0.081638135    -3.217891    1.5305719   498119 
 6150000    1.1584129    -3.217077   -1.6856305  0.080795858    -3.217077    1.5314464   498169 
 6151000    1.1549778   -3.2139902   -1.6869838   0.08202528   -3.2139902    1.5270064   498136 
 6152000    1.1558526   -3.2137224   -1.6856393  0.084236986   -3.2137224    1.5280831   498162 
 6153000    1.1559314   -3.2136228   -1.6855213  0.082391701   -3.2136228    1.5281015   498190 
 6154000    1.1553914   -3.2127132   -1.6854881   0.08268236   -3.2127132    1.5272251   498243 
 6155000    1.1570721   -3.2148648   -1.6853967  0.076491425   -3.2148648    1.5294681   498236 
 6156000    1.1558964   -3.2134286   -1.6854624  0.082552218   -3.2134286    1.5279662   498219 
 6157000    1.1555355   -3.2137852   -1.6862653  0.082153199   -3.2137852    1.5275198   498209 
 6158000    1.1544564   -3.2128146    -1.686807  0.076512276   -3.2128146    1.5260075   498237 
 6159000    1.1562303   -3.2147438    -1.686373  0.076067647   -3.2147438    1.5283707   498231 
 6160000    1.1556117   -3.2125943   -1.6851271  0.076846657   -3.2125943    1.5274673   498259 
 6161000    1.1574942   -3.2134213   -1.6835425  0.080909277   -3.2134213    1.5298788   498284 
 6162000    1.1575657   -3.2135692   -1.6836112  0.073248205   -3.2135692    1.5299579   498289 
 6163000    1.1565548    -3.211717   -1.6831013  0.080787788    -3.211717    1.5286157   498291 
 6164000      1.15698   -3.2124577   -1.6833199  0.080813226   -3.2124577    1.5291377   498304 
 6165000    1.1576466   -3.2127949   -1.6827577  0.081642484   -3.2127949    1.5300371   498298 
 6166000    1.1572478    -3.212502   -1.6830963  0.082809981    -3.212502    1.5294058   498332 
 6167000    1.1575023   -3.2135531   -1.6839031  0.081116285   -3.2135531      1.52965   498362 
 6168000    1.1578924   -3.2140448   -1.6838609  0.086031656   -3.2140448    1.5301839   498356 
 6169000    1.1570522   -3.2138871   -1.6849178  0.079696119   -3.2138871    1.5289693   498390 
 6170000    1.1563384   -3.2135689   -1.6855306  0.079294179   -3.2135689    1.5280383   498386 
 6171000    1.1574634   -3.2153203   -1.6859673  0.070519703   -3.2153203     1.529353   498442 
 6172000    1.1559705   -3.2141418    -1.686743  0.072660319   -3.2141418    1.5273989   498436 
 6173000    1.1559532   -3.2152983   -1.6880264  0.082859922   -3.2152983    1.5272718   498470 
 6174000    1.1566507   -3.2149991   -1.6868087  0.076864303   -3.2149991    1.5281904   498471 
 6175000    1.1572721   -3.2149251   -1.6861131  0.084069146   -3.2149251     1.528812   498536 
 6176000    1.1565635   -3.2140401   -1.6861336  0.087635545   -3.2140401    1.5279066   498526 
 6177000    1.1561153   -3.2140136   -1.6867849  0.083323517   -3.2140136    1.5272287   498554 
 6178000    1.1569967    -3.215412   -1.6871723   0.08600131    -3.215412    1.5282397   498604 
 6179000    1.1574282   -3.2163065   -1.6876348  0.084462012   -3.2163065    1.5286717   498649 
 6180000    1.1570289   -3.2168944   -1.6888267  0.083269371   -3.2168944    1.5280677   498674 
 6181000     1.158366   -3.2184884   -1.6886424  0.079203394   -3.2184884     1.529846   498670 
 6182000    1.1575242   -3.2169985   -1.6882858  0.081469641   -3.2169985    1.5287127   498677 
 6183000    1.1580962   -3.2182686   -1.6888341  0.083597195   -3.2182686    1.5294344   498688 
 6184000    1.1595545   -3.2187146    -1.687428  0.081087891   -3.2187146    1.5312866   498712 
 6185000    1.1584354   -3.2189253   -1.6892392  0.084285563   -3.2189253    1.5296861   498752 
 6186000    1.1576984   -3.2186088   -1.6899297    0.0834959   -3.2186088    1.5286792   498763 
 6187000    1.1592868   -3.2197874   -1.6891091  0.084960284   -3.2197874    1.5306783   498795 
 6188000    1.1597187   -3.2206168   -1.6895432  0.085225505   -3.2206168    1.5310737   498852 
 6189000    1.1591822    -3.219441   -1.6890818  0.084247162    -3.219441    1.5303592   498854 
 6190000    1.1591741   -3.2200596   -1.6897356  0.083123041   -3.2200596     1.530324   498862 
 6191000    1.1586133   -3.2194139   -1.6898241  0.079513461   -3.2194139    1.5295898   498860 
 6192000    1.1588673   -3.2185557   -1.6887381  0.084524236   -3.2185557    1.5298177   498895 
 6193000    1.1596892    -3.219347   -1.6885886  0.082230894    -3.219347    1.5307585   498942 
 6194000    1.1606101   -3.2213132   -1.6893974  0.078801885   -3.2213132    1.5319158   498961 
 6195000    1.1599314   -3.2212056   -1.6901858  0.083450464   -3.2212056    1.5310199   498961 
 6196000     1.158782   -3.2198265   -1.6905505  0.080219562   -3.2198265    1.5292759   499035 
 6197000    1.1597311   -3.2201855   -1.6898441  0.080587694   -3.2201855    1.5303414   499096 
 6198000    1.1599557   -3.2193208   -1.6887689  0.091835087   -3.2193208    1.5305519   499124 
 6199000    1.1581967   -3.2175124   -1.6892508  0.081547945   -3.2175124    1.5282616   499114 
 6200000    1.1585685   -3.2178439   -1.6890518  0.083832659   -3.2178439     1.528792   499101 
 6201000    1.1582434   -3.2179728   -1.6896496  0.077446105   -3.2179728    1.5283232   499114 
 6202000    1.1579439   -3.2163835   -1.6885075  0.076972635   -3.2163835     1.527876   499131 
 6203000    1.1599468   -3.2197702   -1.6892484  0.081082337   -3.2197702    1.5305219   499130 
 6204000    1.1589179   -3.2182832   -1.6892047  0.084724818   -3.2182832    1.5290785   499158 
 6205000    1.1592789   -3.2188494   -1.6894356  0.077383847   -3.2188494    1.5294139   499204 
 6206000    1.1574928   -3.2161584   -1.6891376   0.08215517   -3.2161584    1.5270208   499216 
 6207000    1.1568956   -3.2168358   -1.6906458  0.081552248   -3.2168358    1.5261901   499230 
 6208000    1.1572001   -3.2157108   -1.6891466  0.086812474   -3.2157108    1.5265642   499239 
 6209000    1.1576176   -3.2175361    -1.690311  0.078237302   -3.2175361    1.5272251   499203 
 6210000    1.1577648    -3.217796   -1.6903278  0.080309816    -3.217796    1.5274683   499187 
 6211000    1.1573021   -3.2158999   -1.6892775  0.076650108   -3.2158999    1.5266224   499264 
 6212000    1.1580085   -3.2179551   -1.6904315  0.071855477   -3.2179551    1.5275236   499274 
 6213000    1.1589369   -3.2183162   -1.6895557  0.081763156   -3.2183162    1.5287605   499270 
 6214000    1.1596387   -3.2185357   -1.6888953  0.078478528   -3.2185357    1.5296403   499285 
 6215000    1.1595937   -3.2191365    -1.689626  0.080333368   -3.2191365    1.5295105   499308 
 6216000    1.1583766   -3.2183294     -1.69051  0.080913581   -3.2183294    1.5278194   499336 
 6217000    1.1583705   -3.2163538    -1.688622  0.074886084   -3.2163538    1.5277318   499362 
 6218000    1.1607714   -3.2183847   -1.6875661  0.082885222   -3.2183847    1.5308186   499388 
 6219000    1.1602096   -3.2181503   -1.6880726  0.080082016   -3.2181503    1.5300777   499388 
 6220000    1.1596189   -3.2171562   -1.6879066  0.080372922   -3.2171562    1.5292496   499404 
 6221000    1.1613994   -3.2196148   -1.6880538  0.078946358   -3.2196148     1.531561   499416 
 6222000    1.1598077   -3.2178056   -1.6883651  0.083467002   -3.2178056    1.5294405   499423 
 6223000    1.1598625   -3.2190168   -1.6895286  0.081181789   -3.2190168    1.5294883   499431 
 6224000    1.1606844   -3.2198654   -1.6892413   0.08002489   -3.2198654    1.5306242   499414 
 6225000    1.1609603   -3.2205369   -1.6896255  0.080434576   -3.2205369    1.5309114   499439 
 6226000    1.1617928   -3.2220146     -1.69003  0.084968887   -3.2220146    1.5319846   499447 
 6227000    1.1616858   -3.2205901   -1.6888293   0.08254395   -3.2205901    1.5317608   499474 
 6228000    1.1616997   -3.2184736   -1.6867559  0.087308634   -3.2184736    1.5317177   499494 
 6229000    1.1614464   -3.2173409   -1.6860277  0.083149153   -3.2173409    1.5313132   499517 
 6230000    1.1632585   -3.2200242   -1.6863894  0.088527484   -3.2200242    1.5336348   499539 
 6231000    1.1633941   -3.2207497   -1.6869453   0.08131199   -3.2207497    1.5338043   499542 
 6232000    1.1618284   -3.2183804   -1.6867905  0.088166957   -3.2183804    1.5315899   499591 
 6233000    1.1609844   -3.2185335    -1.688145   0.08696603   -3.2185335    1.5303885   499620 
 6234000    1.1617169   -3.2200317    -1.688739  0.083977533   -3.2200317    1.5312928   499640 
 6235000    1.1605993   -3.2197392   -1.6899839  0.077807964   -3.2197392    1.5297553   499661 
 6236000    1.1609947   -3.2199298   -1.6897941  0.083963603   -3.2199298    1.5301357   499707 
 6237000    1.1582636   -3.2171508   -1.6906849   0.08265903   -3.2171508    1.5264659   499730 
 6238000     1.158758   -3.2172985   -1.6902452  0.084838141   -3.2172985    1.5270533   499751 
 6239000    1.1586425   -3.2181008    -1.691273  0.079799634   -3.2181008    1.5268278   499775 
 6240000    1.1585548   -3.2166822   -1.6899394  0.079299908   -3.2166822    1.5267428   499765 
 6241000    1.1589486   -3.2164497   -1.6892307  0.082456143   -3.2164497    1.5272189   499779 
 6242000    1.1586724   -3.2169819   -1.6901147  0.083879169   -3.2169819    1.5268672   499775 
 6243000    1.1578978   -3.2167664   -1.6909748  0.076339084   -3.2167664    1.5257916   499793 
 6244000     1.159599   -3.2187391   -1.6907273  0.082646192   -3.2187391    1.5280118   499800 
 6245000    1.1597705   -3.2195541   -1.6913529  0.078793474   -3.2195541    1.5282011   499812 
 6246000    1.1593959    -3.219336   -1.6916651  0.076875054    -3.219336    1.5276709   499824 
 6247000    1.1585637   -3.2183806   -1.6918705  0.083313735   -3.2183806    1.5265101   499845 
 6248000     1.158297    -3.218374    -1.692252  0.075799078    -3.218374    1.5261221   499857 
 6249000    1.1586242   -3.2178478   -1.6912701  0.080626793   -3.2178478    1.5265777   499849 
 6250000    1.1590105   -3.2174118   -1.6904657  0.084125525   -3.2174118    1.5269461   499895 
 6251000    1.1583091   -3.2163784   -1.6903289  0.083345753   -3.2163784    1.5260495   499886 
 6252000    1.1604705   -3.2182418   -1.6893691  0.085419334   -3.2182418    1.5288726   499894 
 6253000    1.1608313   -3.2189968   -1.6896428   0.08148428   -3.2189968    1.5293541   499892 
 6254000    1.1603558   -3.2177365   -1.6891006  0.081821862   -3.2177365    1.5286359   499922 
 6255000    1.1608695   -3.2190736   -1.6898771  0.081853811   -3.2190736    1.5291964   499960 
 6256000    1.1603336   -3.2184221   -1.6900172  0.078701037   -3.2184221    1.5284049   499988 
 6257000    1.1601182   -3.2181311   -1.6901046  0.089321112   -3.2181311    1.5280264   500019 
 6258000    1.1631554   -3.2222173   -1.6901292  0.079721579   -3.2222173    1.5320881   499999 
 6259000     1.160108   -3.2201832   -1.6921121   0.08019491   -3.2201832    1.5280711   500000 
 6260000    1.1617238    -3.222548   -1.6924558  0.077354845    -3.222548    1.5300923   500035 
 6261000    1.1612351   -3.2209144   -1.6915454   0.08207706   -3.2209144     1.529369   500061 
 6262000    1.1621094   -3.2224118   -1.6920412  0.077094909   -3.2224118    1.5303706   500110 
 6263000    1.1621779   -3.2207842   -1.6903725  0.080495169   -3.2207842    1.5304118   500126 
 6264000    1.1627328    -3.220786   -1.6897813  0.081990938    -3.220786    1.5310048   500171 
 6265000     1.161657   -3.2209069   -1.6914227   0.08137473   -3.2209069    1.5294842   500205 
 6266000    1.1625375   -3.2214052   -1.6907799  0.081620835   -3.2214052    1.5306253   500211 
 6267000    1.1615903   -3.2210301   -1.6915603  0.087225212   -3.2210301    1.5294698   500181 
 6268000    1.1607428   -3.2192993   -1.6910217  0.085336399   -3.2192993    1.5282776   500206 
 6269000    1.1634179   -3.2232766   -1.6915595  0.085828142   -3.2232766     1.531717   500233 
 6270000     1.162576   -3.2223608   -1.6918195  0.083773909   -3.2223608    1.5305413   500255 
 6271000    1.1602185   -3.2206074   -1.6931973  0.079265801   -3.2206074    1.5274101   500264 
 6272000    1.1612124   -3.2221479   -1.6933957  0.083291265   -3.2221479    1.5287522   500253 
 6273000    1.1612198   -3.2221855   -1.6934877  0.081630069   -3.2221855    1.5286978   500274 
 6274000    1.1619118   -3.2217609   -1.6922193  0.083992149   -3.2217609    1.5295415   500296 
 6275000    1.1624885   -3.2218099   -1.6914419  0.079866292   -3.2218099    1.5303679   500274 
 6276000    1.1620612   -3.2222204   -1.6925527  0.080182097   -3.2222204    1.5296678   500319 
 6277000    1.1613292    -3.220931   -1.6923306  0.079718259    -3.220931    1.5286004   500353 
 6278000    1.1613938   -3.2221995   -1.6935415   0.08648868   -3.2221995    1.5286579   500362 
 6279000    1.1616731   -3.2219492   -1.6929663  0.083554839   -3.2219492    1.5289828   500376 
 6280000     1.163274   -3.2238162   -1.6927538  0.082651411   -3.2238162    1.5310623   500385 
 6281000     1.161493   -3.2214291   -1.6928055  0.088538822   -3.2214291    1.5286236   500416 
 6282000    1.1629215   -3.2218972   -1.6913814  0.077049022   -3.2218972    1.5305158   500412 
 6283000    1.1628467   -3.2221177   -1.6917157   0.08256098   -3.2221177     1.530402   500417 
 6284000    1.1618372    -3.220755   -1.6916968  0.082770916    -3.220755    1.5290582   500422 
 6285000    1.1608872   -3.2193137   -1.6915881  0.079278808   -3.2193137    1.5277255   500449 
 6286000    1.1613289   -3.2203529   -1.6920644  0.081688566   -3.2203529    1.5282885   500455 
 6287000    1.1603711   -3.2182038    -1.691304  0.081466805   -3.2182038    1.5268999   500497 
 6288000    1.1621427   -3.2204598    -1.691354  0.080132826   -3.2204598    1.5291058   500538 
 6289000     1.161872   -3.2199498   -1.6912002  0.085567028   -3.2199498    1.5287497   500538 
 6290000    1.1625232   -3.2210668    -1.691439   0.07957655   -3.2210668    1.5296279   500531 
 6291000     1.163387   -3.2219004   -1.6912338  0.084663373   -3.2219004    1.5306666   500563 
 6292000    1.1625238   -3.2201149   -1.6906758  0.084635354   -3.2201149    1.5294392   500593 
 6293000    1.1617719   -3.2188078   -1.6903761  0.084599274   -3.2188078    1.5284317   500599 
 6294000    1.1607235   -3.2169504   -1.6899987  0.087596871   -3.2169504    1.5269517   500632 
 6295000    1.1632922   -3.2207841   -1.6904257  0.083146271   -3.2207841    1.5303584   500623 
 6296000    1.1632442   -3.2206348   -1.6905016  0.081056685   -3.2206348    1.5301332   500676 
 6297000    1.1627394   -3.2218629   -1.6924731  0.078029679   -3.2218629    1.5293899   500702 
 6298000    1.1627911   -3.2209181   -1.6915886  0.075569303   -3.2209181    1.5293295   500744 
 6299000    1.1610167   -3.2178906   -1.6909161  0.085388806   -3.2178906    1.5269744   500751 
 6300000    1.1623966    -3.218257   -1.6896509  0.088498577    -3.218257    1.5286062   500811 
 6301000    1.1639775   -3.2204323   -1.6898908  0.082080681   -3.2204323    1.5305415   500858 
 6302000    1.1626563   -3.2174335   -1.6886872  0.087144804   -3.2174335    1.5287463   500877 
 6303000    1.1632871   -3.2175465   -1.6879495  0.078257558   -3.2175465     1.529597   500870 
 6304000    1.1652452   -3.2201685   -1.6881344  0.082990482   -3.2201685    1.5320341   500915 
 6305000     1.166627   -3.2226221   -1.6888907  0.079944449   -3.2226221    1.5337314   500954 
 6306000    1.1646561   -3.2214518   -1.6901923  0.087220968   -3.2214518    1.5312595   500915 
 6307000    1.1634739   -3.2205424   -1.6909043  0.087221279   -3.2205424    1.5296381   500937 
 6308000    1.1618246   -3.2184342   -1.6909585  0.084899185   -3.2184342    1.5274757   500935 
 6309000    1.1620102   -3.2190176   -1.6912796  0.083693635   -3.2190176    1.5277381   500929 
 6310000    1.1623562    -3.219205    -1.691067  0.084874896    -3.219205     1.528138   500947 
 6311000    1.1633156   -3.2189293   -1.6896246  0.079457254   -3.2189293    1.5293047   500978 
 6312000    1.1654848   -3.2217404   -1.6895504  0.083066152   -3.2217404      1.53219   500967 
 6313000    1.1655151   -3.2217545   -1.6896745  0.075480337   -3.2217545      1.53208   501016 
 6314000    1.1650565   -3.2202323   -1.6888285  0.079046021   -3.2202323    1.5314038   501040 
 6315000    1.1647124   -3.2198668   -1.6889245  0.076294832   -3.2198668    1.5309423   501043 
 6316000    1.1635331   -3.2184503   -1.6890856  0.077884787   -3.2184503    1.5293647   501052 
 6317000    1.1633087   -3.2179313   -1.6889195  0.080040672   -3.2179313    1.5290118   501071 
 6318000    1.1656704   -3.2202904   -1.6883547  0.079769169   -3.2202904    1.5319356   501130 
 6319000    1.1668098   -3.2220297   -1.6885417  0.082963954   -3.2220297     1.533488   501112 
 6320000    1.1646766   -3.2191826   -1.6884371  0.084783826   -3.2191826    1.5307455   501092 
 6321000    1.1664809   -3.2209552   -1.6878994  0.079236442   -3.2209552    1.5330558   501112 
 6322000    1.1644428   -3.2188438   -1.6885033  0.084523027   -3.2188438    1.5303405   501124 
 6323000    1.1642274   -3.2177807   -1.6877384  0.083003185   -3.2177807    1.5300423   501129 
 6324000    1.1659405   -3.2196962   -1.6874486  0.082520272   -3.2196962    1.5322477   501144 
 6325000    1.1656372   -3.2180078   -1.6862533  0.085310162   -3.2180078    1.5317544   501175 
 6326000    1.1665166   -3.2187642   -1.6860316  0.081315122   -3.2187642    1.5327327   501233 
 6327000    1.1645551   -3.2165791   -1.6864666  0.086180853   -3.2165791    1.5301125   501247 
 6328000    1.1653288   -3.2171967   -1.6860401  0.084235812   -3.2171967    1.5311567   501238 
 6329000    1.1641584   -3.2161732   -1.6865635  0.081279534   -3.2161732    1.5296097   501241 
 6330000    1.1651806   -3.2179221   -1.6869388  0.085334267   -3.2179221    1.5309834   501231 
 6331000    1.1637588   -3.2162779   -1.6871292  0.083361253   -3.2162779    1.5291486   501220 
 6332000    1.1653249   -3.2183747   -1.6872965  0.077720197   -3.2183747    1.5310782   501262 
 6333000    1.1633259   -3.2147671   -1.6864038  0.080051644   -3.2147671    1.5283634   501291 
 6334000    1.1644929   -3.2172393   -1.6873763  0.073421897   -3.2172393     1.529863   501302 
 6335000    1.1642246   -3.2173949   -1.6877562  0.072094028   -3.2173949    1.5296387   501260 
 6336000     1.161634   -3.2134103   -1.6874158   0.07919688   -3.2134103    1.5259945   501339 
 6337000    1.1640215   -3.2165997   -1.6874902  0.079561762   -3.2165997    1.5291094   501346 
 6338000    1.1626197   -3.2145059    -1.687311  0.080909456   -3.2145059    1.5271949   501370 
 6339000    1.1624148    -3.214966   -1.6880494  0.076646493    -3.214966    1.5269166   501373 
 6340000    1.1632511   -3.2156914   -1.6876427  0.077661081   -3.2156914    1.5280487   501362 
 6341000    1.1647657   -3.2168586   -1.6869638  0.077914415   -3.2168586    1.5298949   501409 
 6342000    1.1638052   -3.2148536   -1.6862051  0.078024972   -3.2148536    1.5286485   501404 
 6343000    1.1653433   -3.2163081   -1.6857248  0.075867161   -3.2163081    1.5305833   501432 
 6344000    1.1655146   -3.2177544   -1.6869491  0.078170493   -3.2177544    1.5308053   501433 
 6345000    1.1638611   -3.2153143   -1.6866717  0.079348034   -3.2153143    1.5286426   501430 
 6346000     1.164012   -3.2153143   -1.6864583  0.085080088   -3.2153143     1.528856   501425 
 6347000    1.1651451   -3.2171799   -1.6868721  0.078274161   -3.2171799    1.5303077   501437 
 6348000    1.1646747   -3.2157879   -1.6862322  0.083163663   -3.2157879    1.5295557   501481 
 6349000    1.1643122   -3.2176348   -1.6887381   0.07977905   -3.2176348    1.5288967   501541 
 6350000    1.1640701   -3.2179986   -1.6894899  0.081653561   -3.2179986    1.5285087   501564 
 6351000    1.1626824   -3.2161405   -1.6894967  0.083797483   -3.2161405    1.5266439   501578 
 6352000    1.1653731   -3.2203429   -1.6902972  0.073566894   -3.2203429    1.5300457   501621 
 6353000    1.1637151   -3.2184768   -1.6907236  0.077273378   -3.2184768    1.5277532   501659 
 6354000    1.1637425   -3.2180186   -1.6901564  0.083172448   -3.2180186    1.5278622   501635 
 6355000    1.1644909   -3.2201423   -1.6913188  0.084300063   -3.2201423    1.5288234   501642 
 6356000    1.1655315   -3.2209295   -1.6908313  0.082599802   -3.2209295    1.5300982   501672 
 6357000    1.1652034   -3.2205938   -1.6909843  0.081079893   -3.2205938    1.5296095   501691 
 6358000    1.1659736   -3.2206956    -1.690133  0.089353645   -3.2206956    1.5305626   501710 
 6359000    1.1672485    -3.224052   -1.6919135  0.081472685    -3.224052    1.5321385   501742 
 6360000    1.1667226    -3.223921   -1.6925095  0.076449624    -3.223921    1.5314115   501754 
 6361000    1.1674554   -3.2246525   -1.6923219  0.082067472   -3.2246525    1.5323306   501768 
 6362000    1.1647309   -3.2214625    -1.692781  0.092477501   -3.2214625    1.5286815   501792 
 6363000    1.1650462   -3.2217954   -1.6928433   0.08452836   -3.2217954    1.5289521   501839 
 6364000    1.1669543   -3.2239019    -1.692525  0.082088765   -3.2239019    1.5313769   501865 
 6365000    1.1672959   -3.2246311   -1.6929402  0.079187961   -3.2246311    1.5316909   501909 
 6366000    1.1657728   -3.2227099   -1.6929414  0.079760726   -3.2227099    1.5297685   501884 
 6367000    1.1663126   -3.2237334   -1.6933145  0.081617697   -3.2237334    1.5304189   501903 
 6368000    1.1663387   -3.2244894   -1.6941461  0.084640539   -3.2244894    1.5303434   501939 
 6369000    1.1663919   -3.2251144   -1.6948263  0.080742752   -3.2251144    1.5302881   501980 
 6370000    1.1666056   -3.2256261   -1.6951521  0.083625572   -3.2256261     1.530474   502011 
 6371000    1.1653816   -3.2232747   -1.6944004  0.083472698   -3.2232747    1.5288743   502009 
 6372000    1.1651961   -3.2226362   -1.6940448  0.082649219   -3.2226362    1.5285914   502022 
 6373000    1.1665803    -3.224511   -1.6941343  0.083740257    -3.224511    1.5303767   502032 
 6374000    1.1656433   -3.2227462   -1.6936443  0.082202271   -3.2227462    1.5291019   502047 
 6375000     1.166895   -3.2236918   -1.6931065  0.078014985   -3.2236918    1.5305853   502099 
 6376000    1.1672915   -3.2244845   -1.6934095  0.086752931   -3.2244845     1.531075   502109 
 6377000    1.1678261   -3.2249836   -1.6932349  0.084553543   -3.2249836    1.5317487   502118 
 6378000    1.1673426   -3.2249814   -1.6939034  0.077350397   -3.2249814     1.531078   502130 
 6379000    1.1663235   -3.2239313    -1.694187  0.079325243   -3.2239313    1.5297444   502129 
 6380000    1.1653588   -3.2215939    -1.693194  0.084126959   -3.2215939    1.5283999   502155 
 6381000     1.166518   -3.2227521   -1.6928775  0.086606481   -3.2227521    1.5298746   502170 
 6382000    1.1666924   -3.2222874   -1.6923516  0.081663723   -3.2222874    1.5299357   502225 
 6383000    1.1679078   -3.2235016   -1.6919996  0.080300313   -3.2235016     1.531502   502234 
 6384000    1.1666908   -3.2213445   -1.6914871   0.08396686   -3.2213445    1.5298574   502250 
 6385000     1.168615   -3.2221339   -1.6898663  0.087690783   -3.2221339    1.5322677   502287 
 6386000    1.1661281   -3.2195824   -1.6905481   0.08559795   -3.2195824    1.5290343   502278 
 6387000    1.1680919   -3.2217792   -1.6901912  0.079655312   -3.2217792     1.531588   502285 
 6388000    1.1676351   -3.2221889   -1.6911847  0.083478277   -3.2221889    1.5310042   502280 
 6389000    1.1658495   -3.2211914   -1.6925163   0.08004997   -3.2211914    1.5286752   502276 
 6390000    1.1667779   -3.2216385   -1.6918618   0.08428337   -3.2216385    1.5297767   502314 
 6391000    1.1671218   -3.2218821    -1.691755  0.082882593   -3.2218821    1.5301271   502347 
 6392000    1.1676023   -3.2220272   -1.6913158  0.087153437   -3.2220272    1.5307114   502362 
 6393000    1.1683566   -3.2235957    -1.691926  0.083522359   -3.2235957    1.5316697   502372 
 6394000    1.1685923   -3.2226154   -1.6908074  0.080325067   -3.2226154     1.531808   502428 
 6395000    1.1680237   -3.2210159   -1.6899838  0.088724359   -3.2210159    1.5310321   502438 
 6396000    1.1682172   -3.2217928   -1.6905771  0.085583844   -3.2217928    1.5312157   502461 
 6397000    1.1677158   -3.2242141   -1.6937714  0.085161271   -3.2242141    1.5304428   502499 
 6398000     1.167324   -3.2232244   -1.6933957  0.080882422   -3.2232244    1.5298287   502532 
 6399000    1.1664713   -3.2228301   -1.6941523  0.077274764   -3.2228301    1.5286778   502543 
 6400000    1.1670874   -3.2231746   -1.6937594  0.082515356   -3.2231746    1.5294152   502566 
 6401000    1.1661254   -3.2222448   -1.6941236  0.083535073   -3.2222448    1.5281211   502577 
 6402000    1.1670098   -3.2230845   -1.6937892  0.086230294   -3.2230845    1.5292953   502572 
 6403000    1.1671147   -3.2232189   -1.6937618  0.079057077   -3.2232189    1.5294571   502564 
 6404000    1.1681346   -3.2244266   -1.6937608  0.080549046   -3.2244266    1.5306657   502606 
 6405000    1.1671803   -3.2237209   -1.6944912  0.081623875   -3.2237209    1.5292297   502667 
 6406000    1.1663985   -3.2232457    -1.695086  0.080771966   -3.2232457    1.5281597   502682 
 6407000    1.1667795    -3.223077   -1.6943908  0.084360924    -3.223077    1.5286862   502673 
 6408000    1.1686147    -3.225556   -1.6945353  0.082408285    -3.225556    1.5310207   502696 
 6409000    1.1696046   -3.2276263   -1.6953088  0.079288966   -3.2276263    1.5323176   502696 
 6410000    1.1682222   -3.2242224   -1.6937648  0.087296219   -3.2242224    1.5304577   502712 
 6411000    1.1707457   -3.2263709   -1.6926071   0.08507672   -3.2263709    1.5337637   502712 
 6412000    1.1707434   -3.2248514   -1.6911426  0.082493222   -3.2248514    1.5337088   502729 
 6413000    1.1705717   -3.2254042   -1.6918777  0.083454437   -3.2254042    1.5335266   502715 
 6414000    1.1684202   -3.2240343   -1.6934176  0.083925132   -3.2240343    1.5306167   502745 
 6415000     1.169086   -3.2244836   -1.6930556  0.082816284   -3.2244836     1.531428   502765 
 6416000    1.1692691   -3.2251113   -1.6935745  0.084935649   -3.2251113    1.5315367   502808 
 6417000    1.1684411   -3.2250701   -1.6946757  0.083987504   -3.2250701    1.5303944   502827 
 6418000    1.1685568    -3.224939    -1.694667  0.086904694    -3.224939     1.530272   502917 
 6419000    1.1696566   -3.2251826   -1.6934886  0.083730599   -3.2251826     1.531694   502923 
 6420000    1.1679683   -3.2223516   -1.6928867  0.084749622   -3.2223516    1.5294648   502929 
 6421000     1.168556   -3.2233504   -1.6931615  0.082618824   -3.2233504    1.5301889   502944 
 6422000    1.1670174   -3.2217367   -1.6936568  0.082621539   -3.2217367    1.5280799   502975 
 6423000    1.1682219    -3.222991   -1.6933491  0.081601908    -3.222991    1.5296418   502980 
 6424000    1.1676367   -3.2226375   -1.6936951  0.082831558   -3.2226375    1.5289424   502958 
 6425000    1.1682215   -3.2233789   -1.6938805  0.085770932   -3.2233789    1.5294985   503027 
 6426000    1.1671608   -3.2224309   -1.6943607  0.078825451   -3.2224309    1.5280702   503040 
 6427000    1.1652869   -3.2204789   -1.6949681  0.080038941   -3.2204789    1.5255108   503075 
 6428000    1.1659418   -3.2211099   -1.6948692  0.079705325   -3.2211099    1.5262407   503117 
 6429000    1.1666908   -3.2216179   -1.6945516  0.076781613   -3.2216179    1.5270663   503168 
 6430000    1.1663693   -3.2217779    -1.695278   0.08240846   -3.2217779    1.5264999   503216 
 6431000    1.1674192    -3.223443   -1.6955964  0.080155548    -3.223443    1.5278466   503225 
 6432000    1.1673635    -3.221954   -1.6942319  0.074049437    -3.221954    1.5277221   503242 
 6433000    1.1674403   -3.2228893   -1.6951426  0.073776511   -3.2228893    1.5277468   503267 
 6434000    1.1674267   -3.2217336   -1.6940866  0.081587183   -3.2217336     1.527647   503294 
 6435000    1.1672795   -3.2207704   -1.6933465  0.080355088   -3.2207704     1.527424   503304 
 6436000    1.1688409    -3.221469   -1.6921052  0.082050424    -3.221469    1.5293638   503338 
 6437000    1.1698571   -3.2222287    -1.691745  0.083544108   -3.2222287    1.5304837   503407 
 6438000    1.1711534   -3.2239832   -1.6918188  0.079462631   -3.2239832    1.5321644   503412 
 6439000    1.1714028   -3.2241449   -1.6916969  0.081132146   -3.2241449     1.532448   503426 
 6440000    1.1701033   -3.2225762   -1.6919711  0.083439061   -3.2225762     1.530605   503473 
 6441000    1.1707026   -3.2246562   -1.6933493  0.084314685   -3.2246562    1.5313069   503500 
 6442000    1.1705114   -3.2246384   -1.6935999  0.075945922   -3.2246384    1.5310386   503506 
 6443000    1.1691954   -3.2235042   -1.6941778  0.081771305   -3.2235042    1.5293264   503503 
 6444000    1.1687041   -3.2233041   -1.6946447  0.086293988   -3.2233041    1.5286594   503511 
 6445000    1.1701248   -3.2241138   -1.6936142  0.081963448   -3.2241138    1.5304995   503517 
 6446000    1.1702261   -3.2248622   -1.6942424   0.07803853   -3.2248622    1.5306198   503521 
 6447000    1.1694783    -3.224677   -1.6950899  0.085565297    -3.224677     1.529587   503539 
 6448000    1.1714624    -3.226954    -1.694851  0.086490115    -3.226954    1.5321029   503565 
 6449000    1.1699516    -3.225963   -1.6959392  0.080644039    -3.225963    1.5300238   503599 
 6450000     1.171208   -3.2277065   -1.6959818  0.082954261   -3.2277065    1.5317247   503580 
 6451000    1.1687736   -3.2263892   -1.6978058  0.085112314   -3.2263892    1.5285834   503566 
 6452000    1.1705266   -3.2277872   -1.6970145  0.080760815   -3.2277872    1.5307727   503600 
 6453000    1.1711682   -3.2284062   -1.6968796  0.075286292   -3.2284062    1.5315266   503628 
 6454000    1.1707188   -3.2280971   -1.6971674  0.084802539   -3.2280971    1.5309298   503631 
 6455000    1.1721518   -3.2289234   -1.6962262  0.077223142   -3.2289234    1.5326972   503666 
 6456000    1.1707634   -3.2281557   -1.6972436  0.075917978   -3.2281557    1.5309121   503656 
 6457000    1.1705155   -3.2274404   -1.6969073  0.081876668   -3.2274404    1.5305332   503674 
 6458000    1.1709309   -3.2291989   -1.6981529  0.084333205   -3.2291989    1.5310461   503684 
 6459000     1.170973   -3.2283924   -1.6974342  0.085162866   -3.2283924    1.5309582   503731 
 6460000    1.1701243   -3.2274042   -1.6976072   0.08959086   -3.2274042     1.529797   503748 
 6461000    1.1704792    -3.226104    -1.695928  0.085619438    -3.226104    1.5301759   503776 
 6462000    1.1702199   -3.2262237   -1.6964385   0.08210612   -3.2262237    1.5297853   503793 
 6463000    1.1706259   -3.2275814   -1.6973535  0.086588437   -3.2275814     1.530228   503822 
 6464000    1.1724311   -3.2306507   -1.6980266   0.07771702   -3.2306507    1.5326242   503810 
 6465000    1.1686602   -3.2255469   -1.6979036  0.081412272   -3.2255469    1.5276432   503827 
 6466000    1.1691556   -3.2256632   -1.6973723  0.083178336   -3.2256632    1.5282908   503827 
 6467000    1.1700086   -3.2267835   -1.6974201  0.079768873   -3.2267835    1.5293634   503841 
 6468000    1.1694114   -3.2252318     -1.69674  0.082826325   -3.2252318    1.5284917   503871 
 6469000    1.1687764   -3.2253745   -1.6977128  0.080224416   -3.2253745    1.5276617   503871 
 6470000    1.1674874   -3.2253583   -1.6994571  0.079636952   -3.2253583    1.5259012   503896 
 6471000    1.1691314    -3.226058   -1.6981081   0.07741356    -3.226058    1.5279499   503929 
 6472000    1.1696247   -3.2251581   -1.6966607  0.078108585   -3.2251581    1.5284975   503961 
 6473000    1.1715385   -3.2264685   -1.6955672  0.073884045   -3.2264685    1.5309013   503993 
 6474000     1.170199   -3.2255657   -1.6964695  0.083449412   -3.2255657    1.5290963   504011 
 6475000    1.1704102   -3.2257655   -1.6965268  0.080313253   -3.2257655    1.5292387   504055 
 6476000    1.1702246   -3.2254751   -1.6963939  0.076723302   -3.2254751    1.5290812   504027 
 6477000     1.168637   -3.2232277   -1.6962482  0.081789139   -3.2232277    1.5269796   504036 
 6478000      1.17021   -3.2258823   -1.6967898  0.076468531   -3.2258823    1.5290925   504017 
 6479000    1.1703412   -3.2266855   -1.6974368  0.081091431   -3.2266855    1.5292487   504022 
 6480000    1.1693383    -3.224027   -1.6961463  0.077901222    -3.224027    1.5278807   504041 
 6481000    1.1686035   -3.2228819   -1.6960583  0.078750229   -3.2228819    1.5268236   504073 
 6482000    1.1688447   -3.2243016   -1.6970961  0.081560262   -3.2243016    1.5272055   504051 
 6483000    1.1697373   -3.2252213   -1.6968526  0.075241048   -3.2252213    1.5283686   504052 
 6484000     1.168934   -3.2248044    -1.697555  0.084586378   -3.2248044    1.5272494   504075 
 6485000    1.1693541   -3.2259588   -1.6981575  0.075546365   -3.2259588    1.5278013   504074 
 6486000    1.1687993   -3.2250256   -1.6979673  0.073510787   -3.2250256    1.5270583   504080 
 6487000    1.1707897   -3.2280041      -1.6984  0.080767714   -3.2280041    1.5296041   504098 
 6488000    1.1696531    -3.225882   -1.6979325  0.084830877    -3.225882    1.5279495   504154 
 6489000    1.1702486   -3.2264562   -1.6977833  0.079357652   -3.2264562    1.5286728   504172 
 6490000     1.169142   -3.2267884   -1.6996186  0.085089001   -3.2267884    1.5271698   504191 
 6491000    1.1703582   -3.2279715   -1.6993102  0.076945751   -3.2279715    1.5286613   504223 
 6492000    1.1708006   -3.2289673   -1.6996674  0.082967434   -3.2289673    1.5292998   504203 
 6493000    1.1706946   -3.2293878   -1.7003264  0.077669678   -3.2293878    1.5290614   504236 
 6494000    1.1703981   -3.2298568   -1.7012403  0.080876623   -3.2298568    1.5286165   504255 
 6495000    1.1702749   -3.2297052   -1.7011617  0.080348409   -3.2297052    1.5285435   504226 
 6496000    1.1704951   -3.2300192   -1.7013276  0.082755812   -3.2300192    1.5286915   504272 
 6497000    1.1700749   -3.2283696   -1.7003329  0.081067682   -3.2283696    1.5280367   504307 
 6498000    1.1713561   -3.2300073   -1.7003277   0.07874055   -3.2300073    1.5296796   504317 
 6499000    1.1735774    -3.231977    -1.699348  0.080483484    -3.231977     1.532629   504301 
 6500000    1.1715209    -3.230232   -1.7003858  0.087363064    -3.230232    1.5298462   504333 
 6501000    1.1717722   -3.2311726   -1.7011712   0.08122194   -3.2311726    1.5300015   504390 
 6502000    1.1735987   -3.2318239   -1.6994709  0.081655798   -3.2318239     1.532353   504401 
 6503000    1.1730175   -3.2304445   -1.6989506  0.092294016   -3.2304445    1.5314939   504434 
 6504000    1.1735139   -3.2321392   -1.7000427  0.083874753   -3.2321392    1.5320964   504449 
 6505000     1.172576   -3.2300798   -1.6993473  0.090000169   -3.2300798    1.5307324   504495 
 6506000    1.1736819   -3.2327982   -1.7007801  0.082999678   -3.2327982    1.5320181   504547 
 6507000    1.1716183   -3.2304861    -1.701204  0.082934415   -3.2304861    1.5292821   504561 
 6508000    1.1716589   -3.2304125   -1.7011805  0.084413941   -3.2304125     1.529232   504595 
 6509000    1.1717844   -3.2308236   -1.7015126  0.079548504   -3.2308236    1.5293109   504623 
 6510000    1.1721605   -3.2315958   -1.7018364  0.079670312   -3.2315958    1.5297594   504637 
 6511000    1.1714579   -3.2305085    -1.701769  0.076440002   -3.2305085    1.5287394   504671 
 6512000    1.1716821   -3.2302851   -1.7013288  0.080979165   -3.2302851    1.5289562   504696 
 6513000    1.1711622   -3.2287247   -1.7006194   0.08163288   -3.2287247    1.5281053   504753 
 6514000    1.1713723   -3.2293786    -1.700984  0.084818308   -3.2293786    1.5283946   504748 
 6515000    1.1704534   -3.2293861   -1.7021784  0.075237249   -3.2293861    1.5272077   504744 
 6516000    1.1716143   -3.2296933   -1.7009769  0.080174651   -3.2296933    1.5287164   504746 
 6517000    1.1702862   -3.2281086   -1.7011342  0.083271282   -3.2281086    1.5269744   504749 
 6518000    1.1709556   -3.2292356   -1.7014422  0.080120653   -3.2292356    1.5277934   504767 
 6519000    1.1716755   -3.2287015   -1.6999871  0.082956209   -3.2287015    1.5287144   504773 
 6520000    1.1722482   -3.2298269   -1.7004227  0.082863078   -3.2298269    1.5294041   504792 
 6521000    1.1717569   -3.2274374   -1.6988045  0.084569316   -3.2274374    1.5286329   504835 
 6522000    1.1730565   -3.2295866   -1.6991916  0.085014318   -3.2295866     1.530395   504813 
 6523000    1.1727062   -3.2294784   -1.6996374  0.081289949   -3.2294784     1.529841   504845 
 6524000    1.1723906   -3.2280163   -1.6986779  0.085781007   -3.2280163    1.5293384   504875 
 6525000    1.1725423   -3.2276435   -1.6982435   0.08798817   -3.2276435    1.5293999   504920 
 6526000    1.1740706   -3.2299799   -1.6986411  0.081023099   -3.2299799    1.5313388   504938 
 6527000    1.1739503   -3.2282952   -1.6971254  0.087003206   -3.2282952    1.5311698   504942 
 6528000    1.1735413   -3.2275054   -1.6969448  0.085117431   -3.2275054    1.5305606   504967 
 6529000    1.1744709   -3.2288344   -1.6970676  0.084314127   -3.2288344    1.5317668   504969 
 6530000    1.1738621   -3.2279782   -1.6971842  0.083893229   -3.2279782    1.5307941   505028 
 6531000    1.1733219   -3.2275091   -1.6974954  0.087589621   -3.2275091    1.5300138   505053 
 6532000     1.173281   -3.2282413   -1.6982112   0.07850492   -3.2282413    1.5300301   505030 
 6533000    1.1716073   -3.2264162   -1.6986201  0.079111911   -3.2264162    1.5277961   505047 
 6534000    1.1739559   -3.2289774   -1.6982339  0.079568199   -3.2289774    1.5307436   505085 
 6535000    1.1737719   -3.2281848   -1.6976934  0.080766602   -3.2281848    1.5304915   505089 
 6536000    1.1740082   -3.2285356   -1.6979542  0.080931209   -3.2285356    1.5305815   505161 
 6537000     1.173488   -3.2272772   -1.6974103  0.082715286   -3.2272772    1.5298669   505173 
 6538000    1.1738536   -3.2283409   -1.6981125  0.080276965   -3.2283409    1.5302284   505211 
 6539000    1.1739687   -3.2280811   -1.6976784  0.083080991   -3.2280811    1.5304027   505203 
 6540000    1.1727032   -3.2262306    -1.697511  0.083052982   -3.2262306    1.5287196   505214 
 6541000    1.1744236   -3.2285297   -1.6975097  0.080902864   -3.2285297      1.53102   505195 
 6542000     1.173969   -3.2281055   -1.6977933  0.081548574   -3.2281055    1.5303122   505233 
 6543000    1.1739316    -3.226895   -1.6967284  0.074850017    -3.226895    1.5301666   505265 
 6544000    1.1727021   -3.2258691   -1.6972054  0.079146408   -3.2258691    1.5286638   505232 
 6545000    1.1726535   -3.2269272   -1.6984598  0.083306629   -3.2269272    1.5284674   505276 
 6546000    1.1721376   -3.2272315   -1.6994698   0.07772905   -3.2272315    1.5277617   505287 
 6547000    1.1733298   -3.2280676   -1.6987975    0.0774232   -3.2280676    1.5292702   505302 
 6548000    1.1727484   -3.2266958   -1.6983104  0.077861847   -3.2266958    1.5283854   505344 
 6549000    1.1736691   -3.2292066   -1.6996699  0.075715549   -3.2292066    1.5295368   505360 
 6550000    1.1722422   -3.2281066   -1.7004505  0.075576594   -3.2281066    1.5276561   505367 
 6551000     1.170286   -3.2258531   -1.7007433  0.086103968   -3.2258531    1.5251098   505366 
 6552000    1.1712135   -3.2264963   -1.7002111  0.082941894   -3.2264963    1.5262853   505377 
 6553000    1.1728345   -3.2291892   -1.7007641  0.077779324   -3.2291892     1.528425   505368 
 6554000    1.1732708   -3.2299745   -1.7010022   0.07808829   -3.2299745    1.5289723   505375 
 6555000    1.1740989   -3.2292748    -1.699305  0.077394008   -3.2292748    1.5299698   505402 
 6556000    1.1737932   -3.2285317   -1.6990359  0.084450158   -3.2285317    1.5294958   505427 
 6557000    1.1743111   -3.2303893   -1.7003004  0.084917269   -3.2303893    1.5300889   505454 
 6558000    1.1756123   -3.2308437   -1.6990503  0.075419049   -3.2308437    1.5317934   505451 
 6559000     1.174955   -3.2311179    -1.700172  0.084374375   -3.2311179     1.530946   505448 
 6560000    1.1743702     -3.22924   -1.6991891  0.086985232     -3.22924    1.5300508   505492 
 6561000    1.1746895   -3.2302801   -1.6998435  0.080593004   -3.2302801    1.5304366   505502 
 6562000    1.1742757   -3.2306906   -1.7009051  0.081270082   -3.2306906    1.5297855   505539 
 6563000    1.1732665    -3.229829   -1.7014307  0.084501661    -3.229829    1.5283982   505563 
 6564000    1.1751593   -3.2329082   -1.7021382  0.081608052   -3.2329082      1.53077   505594 
 6565000    1.1735332   -3.2303718   -1.7017834  0.074963899   -3.2303718    1.5285884   505615 
 6566000    1.1745632    -3.231647   -1.7018228  0.079627729    -3.231647    1.5298242   505650 
 6567000     1.174039   -3.2303874   -1.7012128  0.083210311   -3.2303874    1.5291746   505639 
 6568000    1.1749753   -3.2323322   -1.7020197  0.082998178   -3.2323322    1.5303125   505666 
 6569000     1.174759   -3.2308134   -1.7007705  0.083990038   -3.2308134    1.5300429   505662 
 6570000    1.1738973   -3.2302642   -1.7014132  0.083645013   -3.2302642     1.528851   505685 
 6571000     1.172913   -3.2293821   -1.7020154  0.079299467   -3.2293821    1.5273667   505752 
 6572000    1.1741153   -3.2311651   -1.7022207  0.077383997   -3.2311651    1.5289444   505748 
 6573000    1.1729926   -3.2302422   -1.7028382  0.082740865   -3.2302422     1.527404   505774 
 6574000    1.1738232   -3.2318625   -1.7034556  0.077217395   -3.2318625    1.5284069   505800 
 6575000    1.1734183   -3.2299597   -1.7021827  0.084725689   -3.2299597     1.527777   505834 
 6576000      1.17407    -3.230398    -1.701854   0.07985596    -3.230398     1.528544   505861 
 6577000    1.1766437   -3.2332529   -1.7014339  0.080251315   -3.2332529     1.531819   505886 
 6578000    1.1745914   -3.2298486   -1.7008373  0.082980674   -3.2298486    1.5290112   505931 
 6579000    1.1776393   -3.2318921   -1.6989921  0.078098894   -3.2318921       1.5329   505957 
 6580000    1.1758736   -3.2305208    -1.700022  0.077821337   -3.2305208    1.5304988   505991 
 6581000    1.1757099   -3.2302234   -1.7000435  0.078351219   -3.2302234    1.5301799   506026 
 6582000      1.17633   -3.2295157   -1.6985772  0.083339793   -3.2295157    1.5309385   506042 
 6583000    1.1767606   -3.2308317   -1.6992904  0.078892798   -3.2308317    1.5315413   506028 
 6584000    1.1758379   -3.2290942   -1.6987357  0.080719802   -3.2290942    1.5303585   506022 
 6585000    1.1745567   -3.2280133   -1.6994553  0.084203766   -3.2280133    1.5285581   506066 
 6586000    1.1771476   -3.2303448   -1.6984693  0.082349353   -3.2303448    1.5318755   506084 
 6587000    1.1759376   -3.2299113   -1.6996347   0.08247444   -3.2299113    1.5302766   506092 
 6588000    1.1753527   -3.2290467   -1.6995011  0.079353662   -3.2290467    1.5295457   506082 
 6589000    1.1747061   -3.2282281   -1.6995842  0.076453089   -3.2282281    1.5286439   506102 
 6590000    1.1771446   -3.2303174   -1.6986396   0.08070697   -3.2303174    1.5316778   506148 
 6591000    1.1737653   -3.2272268   -1.6999339    0.0835488   -3.2272268    1.5272928   506144 
 6592000    1.1767006    -3.229443   -1.6984125  0.083044774    -3.229443    1.5310306   506171 
 6593000    1.1753023   -3.2279263   -1.6988722  0.084576838   -3.2279263    1.5290541   506223 
 6594000    1.1755921   -3.2287913    -1.699327  0.078613677   -3.2287913    1.5294643   506212 
 6595000    1.1766865   -3.2290824    -1.698288  0.084697861   -3.2290824    1.5307944   506243 
 6596000    1.1774973    -3.229964   -1.6981783  0.076244995    -3.229964    1.5317857   506264 
 6597000    1.1759245   -3.2274712   -1.6977528  0.082233868   -3.2274712    1.5297184   506271 
 6598000    1.1770504   -3.2282937   -1.6972073  0.081141432   -3.2282937    1.5310864   506303 
 6599000    1.1770129   -3.2288188   -1.6977027  0.081071921   -3.2288188    1.5311162   506277 
 6600000    1.1760201   -3.2272917   -1.6974428  0.080120236   -3.2272917    1.5298489   506269 
 6601000    1.1762949   -3.2283187   -1.6981546  0.087061649   -3.2283187    1.5301641   506283 
 6602000    1.1754318   -3.2282651   -1.6993023  0.080830113   -3.2282651    1.5289628   506309 
 6603000    1.1746416   -3.2268802   -1.6989212  0.076259026   -3.2268802    1.5279591   506301 
 6604000    1.1752397   -3.2268594   -1.6981706  0.077438239   -3.2268594    1.5286888   506317 
 6605000    1.1757041   -3.2280741   -1.6987994  0.079898262   -3.2280741    1.5292747   506323 
 6606000    1.1752403   -3.2261942   -1.6975499  0.081589721   -3.2261942    1.5286443   506332 
 6607000    1.1767188   -3.2281879   -1.6976175  0.078424965   -3.2281879    1.5305704   506331 
 6608000    1.1747884   -3.2260467    -1.697948  0.081448173   -3.2260467    1.5280987   506318 
 6609000    1.1749267   -3.2265318   -1.6982893  0.075183436   -3.2265318    1.5282424   506330 
 6610000    1.1756199   -3.2271223   -1.6981021  0.075028053   -3.2271223    1.5290202   506371 
 6611000    1.1763784   -3.2277228   -1.6978792  0.075710422   -3.2277228    1.5298436   506425 
 6612000    1.1754672   -3.2254625   -1.6969729  0.084117228   -3.2254625    1.5284896   506481 
 6613000     1.177312    -3.228664   -1.6977211  0.075429621    -3.228664    1.5309429   506463 
 6614000    1.1755707    -3.223429   -1.6948018  0.084500954    -3.223429    1.5286271   506480 
 6615000    1.1752728   -3.2243678   -1.6962184  0.079577999   -3.2243678    1.5281494   506510 
 6616000    1.1781051   -3.2290809   -1.6972125  0.075755619   -3.2290809    1.5318683   506498 
 6617000    1.1764608   -3.2265512   -1.6969297  0.083317149   -3.2265512    1.5296215   506534 
 6618000    1.1760579   -3.2264252   -1.6973457  0.084038447   -3.2264252    1.5290796   506540 
 6619000    1.1758479   -3.2268219   -1.6979398  0.084414248   -3.2268219    1.5288821   506515 
 6620000    1.1765346   -3.2274701   -1.6977677  0.079044983   -3.2274701    1.5297024   506539 
 6621000      1.17587    -3.227033   -1.6981434  0.079246397    -3.227033    1.5288896   506522 
 6622000    1.1771713   -3.2287709   -1.6982467  0.075355497   -3.2287709    1.5305242   506541 
 6623000    1.1760652   -3.2285466   -1.6993882  0.080163669   -3.2285466    1.5291585   506517 
 6624000    1.1765681   -3.2296385   -1.6998624   0.08053885   -3.2296385    1.5297761   506529 
 6625000    1.1751645   -3.2282795   -1.7003736  0.083092754   -3.2282795    1.5279059   506544 
 6626000     1.173746   -3.2290763   -1.7030749  0.082811634   -3.2290763    1.5260015   506564 
 6627000    1.1754797    -3.230225   -1.7020571  0.077580171    -3.230225    1.5281679   506593 
 6628000     1.175736   -3.2296378   -1.7012392  0.083105804   -3.2296378    1.5283986   506627 
 6629000    1.1760049    -3.229375    -1.700657  0.080889683    -3.229375    1.5287179   506637 
 6630000    1.1775419   -3.2314658   -1.7007227  0.079247361   -3.2314658    1.5307431   506628 
 6631000    1.1767687   -3.2305709   -1.7009144  0.084899786   -3.2305709    1.5296565   506655 
 6632000    1.1773462   -3.2316102    -1.701336  0.081031651   -3.2316102    1.5302742   506699 
 6633000    1.1785923   -3.2325183   -1.7006697   0.08149765   -3.2325183    1.5318486   506714 
 6634000    1.1789425   -3.2324523   -1.7001577  0.079138859   -3.2324523    1.5322946   506717 
 6635000    1.1767478   -3.2300617   -1.7007161  0.086316401   -3.2300617    1.5293455   506749 
 6636000    1.1803022   -3.2331924   -1.6993545  0.079179452   -3.2331924    1.5338379   506791 
 6637000    1.1807916   -3.2326573   -1.6982229  0.079612987   -3.2326573    1.5344344   506804 
 6638000    1.1792076   -3.2308941   -1.6985845   0.09145712   -3.2308941    1.5323096   506826 
 6639000    1.1800524    -3.231925    -1.698569   0.08593184    -3.231925    1.5333559   506843 
 6640000    1.1786521   -3.2307559   -1.6993404  0.084608307   -3.2307559    1.5314155   506883 
 6641000    1.1801281   -3.2326985   -1.6994107  0.077616554   -3.2326985    1.5332878   506898 
 6642000    1.1773097    -3.230607   -1.7010745  0.083626057    -3.230607    1.5295325   506929 
 6643000    1.1769485   -3.2312074   -1.7022497  0.078806647   -3.2312074    1.5289576   506964 
 6644000    1.1764929   -3.2310092   -1.7026404  0.083241786   -3.2310092    1.5283688   506963 
 6645000    1.1756353   -3.2303596   -1.7031591  0.087396618   -3.2303596    1.5272006   506981 
 6646000     1.175674   -3.2299781   -1.7028146  0.077040139   -3.2299781    1.5271635   507010 
 6647000    1.1755078   -3.2300299   -1.7030372  0.082630775   -3.2300299    1.5269927   506995 
 6648000    1.1778718   -3.2323755   -1.7022456  0.075125308   -3.2323755    1.5301299   506973 
 6649000    1.1770377   -3.2316186   -1.7025812  0.076727449   -3.2316186    1.5290374   506976 
 6650000     1.176079   -3.2295998    -1.701844  0.082799153   -3.2295998    1.5277558   506988 
 6651000    1.1762107   -3.2301225   -1.7021956  0.076837456   -3.2301225    1.5279269   506988 
 6652000    1.1754286   -3.2283169   -1.7013969  0.081244972   -3.2283169    1.5269199   506985 
 6653000     1.178055   -3.2317955   -1.7015482  0.075943541   -3.2317955    1.5302473   507013 
 6654000    1.1772857   -3.2304133   -1.7011985   0.08374078   -3.2304133    1.5292147   507024 
 6655000    1.1785101   -3.2316915   -1.7008682   0.08070815   -3.2316915    1.5308233   507018 
 6656000    1.1800752   -3.2325222   -1.6997747  0.081919042   -3.2325222    1.5327475   507054 
 6657000    1.1767798   -3.2282956   -1.6999218  0.082325891   -3.2282956    1.5283738   507085 
 6658000    1.1788334   -3.2292304    -1.698102   0.08316971   -3.2292304    1.5311285   507056 
 6659000    1.1789749   -3.2296637   -1.6984541  0.084276397   -3.2296637    1.5312096   507090 
 6660000    1.1785697    -3.228759   -1.6981389  0.086479424    -3.228759      1.53062   507111 
 6661000    1.1785771   -3.2288402   -1.6983736  0.077803716   -3.2288402    1.5304666   507165 
 6662000    1.1776189    -3.227233   -1.6980589  0.085972123    -3.227233    1.5291741   507181 
 6663000    1.1767063    -3.226659   -1.6988538  0.078816306    -3.226659    1.5278052   507242 
 6664000     1.176147   -3.2250783   -1.6980744  0.079527375   -3.2250783    1.5270039   507267 
 6665000     1.177384   -3.2282256    -1.699667   0.07737604   -3.2282256    1.5285586   507284 
 6666000     1.178195   -3.2284742   -1.6988687  0.079609205   -3.2284742    1.5296054   507286 
 6667000    1.1785151   -3.2287444   -1.6989103  0.076653858   -3.2287444    1.5298341   507348 
 6668000     1.177517   -3.2265665    -1.698028  0.081681549   -3.2265665    1.5285385   507348 
 6669000    1.1805606   -3.2292776   -1.6969182   0.07993422   -3.2292776    1.5323594   507391 
 6670000    1.1794137   -3.2278617   -1.6970453  0.084155033   -3.2278617    1.5308164   507409 
 6671000    1.1797919   -3.2274815   -1.6961561   0.08297726   -3.2274815    1.5313255   507403 
 6672000    1.1807452    -3.227874    -1.695299  0.080396664    -3.227874     1.532575   507399 
 6673000    1.1790334   -3.2259316   -1.6956359  0.084642197   -3.2259316    1.5302957   507418 
 6674000    1.1792519   -3.2252413   -1.6946198  0.083561085   -3.2252413    1.5306215   507404 
 6675000    1.1791567    -3.225337    -1.694842   0.08397969    -3.225337     1.530495   507405 
 6676000    1.1808553   -3.2288021   -1.6961477  0.081832426   -3.2288021    1.5326544   507420 
 6677000    1.1794903   -3.2279768   -1.6970729  0.081568598   -3.2279768    1.5309038   507413 
 6678000    1.1800171   -3.2285723   -1.6970843  0.072578555   -3.2285723     1.531488   507446 
 6679000    1.1800678   -3.2282148   -1.6966459  0.080537681   -3.2282148    1.5315689   507441 
 6680000    1.1786232   -3.2257778   -1.6961561  0.081890556   -3.2257778    1.5296216   507465 
 6681000    1.1804074   -3.2286195   -1.6966068   0.07759904   -3.2286195    1.5320127   507440 
 6682000    1.1791332   -3.2264448   -1.6962547  0.081323258   -3.2264448    1.5301901   507496 
 6683000    1.1804554   -3.2277695    -1.695915   0.08472413   -3.2277695    1.5318545   507513 
 6684000    1.1782228   -3.2255878   -1.6966184  0.079134542   -3.2255878    1.5289694   507509 
 6685000    1.1782964   -3.2258449   -1.6968192  0.080328571   -3.2258449    1.5290257   507522 
 6686000    1.1804551   -3.2280756   -1.6962486  0.074818557   -3.2280756     1.531827   507522 
 6687000    1.1807624   -3.2299262   -1.6977577  0.076725217   -3.2299262    1.5321685   507541 
 6688000    1.1808867   -3.2301192   -1.6978559  0.078514243   -3.2301192    1.5322633   507563 
 6689000    1.1798227   -3.2293763   -1.6984995  0.080229535   -3.2293763    1.5308768   507565 
 6690000    1.1797831   -3.2295254   -1.6986277  0.085711033   -3.2295254    1.5308978   507541 
 6691000     1.178915   -3.2289322   -1.6991791  0.082510407   -3.2289322    1.5297532   507547 
 6692000    1.1798946   -3.2303375    -1.699265  0.076809957   -3.2303375    1.5310725   507531 
 6693000    1.1787349   -3.2274025   -1.6979825  0.083755609   -3.2274025      1.52942   507580 
 6694000    1.1792546   -3.2279395   -1.6978934   0.08347224   -3.2279395    1.5300461   507596 
 6695000    1.1791059   -3.2274745   -1.6976305  0.084478749   -3.2274745    1.5298441   507599 
 6696000    1.1799042   -3.2287008     -1.69783  0.082568391   -3.2287008    1.5308709   507602 
 6697000    1.1790125   -3.2281477    -1.698467  0.086084631   -3.2281477    1.5296807   507613 
 6698000    1.1786192   -3.2285478   -1.6993291  0.081267178   -3.2285478    1.5292187   507597 
 6699000    1.1797594   -3.2307076   -1.6999733  0.072199836   -3.2307076    1.5307343   507585 
 6700000    1.1792076   -3.2294519    -1.699503  0.079825512   -3.2294519    1.5299489   507608 
 6701000    1.1794672   -3.2297018   -1.6995517  0.081044233   -3.2297018    1.5301502   507653 
 6702000    1.1789551    -3.228572   -1.6991856  0.079716781    -3.228572    1.5293864   507686 
 6703000     1.179259   -3.2271519   -1.6974196  0.078125949   -3.2271519    1.5297323   507702 
 6704000    1.1781556   -3.2269912   -1.6987262  0.081857921   -3.2269912    1.5282649   507714 
 6705000    1.1796991   -3.2289631    -1.698708   0.07852174   -3.2289631    1.5302551   507718 
 6706000    1.1805392   -3.2306587   -1.6992957  0.081302064   -3.2306587    1.5313629   507712 
 6707000    1.1798532   -3.2293495   -1.6989971  0.086303584   -3.2293495    1.5303524   507752 
 6708000     1.180281   -3.2297906   -1.6989104  0.078831705   -3.2297906    1.5308802   507761 
 6709000    1.1808098   -3.2296298   -1.6981572  0.080494563   -3.2296298    1.5314725   507792 
 6710000    1.1807358   -3.2293814   -1.6979777  0.083397093   -3.2293814    1.5314037   507783 
 6711000    1.1802726   -3.2302742   -1.6995255  0.082140622   -3.2302742    1.5307487   507801 
 6712000     1.181956   -3.2323681   -1.6994392  0.077519709   -3.2323681     1.532929   507802 
 6713000    1.1798634   -3.2303825   -1.7003122  0.081826405   -3.2303825    1.5300703   507850 
 6714000    1.1822754   -3.2311767   -1.6980508  0.079717358   -3.2311767    1.5331259   507874 
 6715000    1.1804281   -3.2289301   -1.6981998  0.078016148   -3.2289301    1.5307303   507874 
 6716000    1.1800428   -3.2289514   -1.6988171  0.083951839   -3.2289514    1.5301343   507906 
 6717000    1.1802596   -3.2290402   -1.6985705  0.082998437   -3.2290402    1.5304697   507888 
 6718000    1.1798651   -3.2285084   -1.6986406  0.086488062   -3.2285084    1.5298678   507918 
 6719000    1.1825357   -3.2311618   -1.6979429  0.076681398   -3.2311618    1.5332189   507955 
 6720000    1.1809413   -3.2292781   -1.6981957  0.087213084   -3.2292781    1.5310823   507978 
 6721000    1.1814155    -3.229915   -1.6981938  0.079353503    -3.229915    1.5317213   507970 
 6722000     1.181078   -3.2295586   -1.6982327  0.081346297   -3.2295586    1.5313259   507956 
 6723000     1.181209   -3.2287873   -1.6974514   0.08643159   -3.2287873     1.531336   508009 
 6724000    1.1817819   -3.2305846    -1.698536  0.083301356   -3.2305846    1.5320485   508019 
 6725000    1.1819545   -3.2303436   -1.6980804  0.087820626   -3.2303436    1.5322633   508022 
 6726000    1.1798744   -3.2284396    -1.698891  0.083181103   -3.2284396    1.5295486   508028 
 6727000    1.1807735   -3.2305259   -1.6998992  0.082392233   -3.2305259    1.5306267   508057 
 6728000    1.1805356   -3.2291631   -1.6988508  0.079101837   -3.2291631    1.5303123   508059 
 6729000    1.1801456   -3.2289327   -1.6992283  0.078124592   -3.2289327    1.5297044   508093 
 6730000    1.1789009   -3.2273443   -1.6993345  0.079559144   -3.2273443    1.5280098   508120 
 6731000    1.1796637   -3.2283661   -1.6993375  0.081978343   -3.2283661    1.5290286   508110 
 6732000    1.1803024   -3.2298373   -1.7000411  0.071477851   -3.2298373    1.5297962   508130 
 6733000    1.1810032   -3.2302725   -1.6996674  0.077326196   -3.2302725    1.5306051   508163 
 6734000    1.1799172   -3.2296019   -1.7003772  0.078672652   -3.2296019    1.5292247   508154 
 6735000    1.1814642   -3.2310774   -1.6998175  0.076953009   -3.2310774    1.5312599   508144 
 6736000    1.1809506   -3.2290892   -1.6985884  0.080568203   -3.2290892    1.5305008   508175 
 6737000    1.1796877   -3.2275236   -1.6987528  0.082365374   -3.2275236    1.5287709   508206 
 6738000     1.178702    -3.227023   -1.6995056  0.079191205    -3.227023    1.5275175   508198 
 6739000    1.1798327   -3.2284768    -1.699467  0.081073851   -3.2284768    1.5290099   508189 
 6740000    1.1803419   -3.2296258   -1.7000403  0.081672793   -3.2296258    1.5295855   508217 
 6741000    1.1820567   -3.2309952   -1.6991392  0.079138046   -3.2309952     1.531856   508201 
 6742000    1.1794695   -3.2282643   -1.6998063  0.078068394   -3.2282643     1.528458   508216 
 6743000     1.180638   -3.2302732   -1.7003402  0.078500254   -3.2302732    1.5299331   508229 
 6744000    1.1799097   -3.2295061   -1.7007033  0.082238831   -3.2295061    1.5288029   508291 
 6745000    1.1791504   -3.2279565   -1.7002607  0.078718334   -3.2279565    1.5276958   508332 
 6746000    1.1801376   -3.2305912   -1.7016405  0.078314426   -3.2305912    1.5289507   508340 
 6747000    1.1805553   -3.2314696   -1.7021431  0.078515692   -3.2314696    1.5293264   508395 
 6748000    1.1801582   -3.2306807   -1.7019318  0.080897514   -3.2306807    1.5287488   508416 
 6749000    1.1803444    -3.230731    -1.701768  0.078341335    -3.230731     1.528963   508425 
 6750000    1.1818557   -3.2310917   -1.7002734   0.08131142   -3.2310917    1.5308182   508459 
 6751000    1.1817327   -3.2304247   -1.6998892  0.078920499   -3.2304247    1.5305355   508500 
 6752000    1.1794712   -3.2287095   -1.7011029  0.081372889   -3.2287095    1.5276066   508500 
 6753000    1.1805682   -3.2310429   -1.7020246  0.083818431   -3.2310429    1.5290183   508503 
 6754000    1.1806088   -3.2303074   -1.7012305  0.085427108   -3.2303074    1.5290769   508501 
 6755000    1.1800546   -3.2294915   -1.7011835  0.080552769   -3.2294915     1.528308   508518 
 6756000    1.1809518   -3.2307464   -1.7012884  0.081110178   -3.2307464    1.5294581   508522 
 6757000    1.1808514   -3.2310508   -1.7018401  0.075667752   -3.2310508    1.5292107   508561 
 6758000    1.1802224   -3.2287955   -1.7004174  0.083472283   -3.2287955    1.5283781   508567 
 6759000    1.1810654   -3.2299663   -1.7004364  0.079373774   -3.2299663      1.52953   508547 
 6760000    1.1798611   -3.2290222   -1.7010879  0.082618005   -3.2290222    1.5279342   508559 
 6761000    1.1815917    -3.231243   -1.7011337  0.082445751    -3.231243    1.5301092   508581 
 6762000    1.1819476    -3.232307   -1.7018663  0.080635935    -3.232307    1.5304406   508624 
 6763000    1.1802099    -3.230983   -1.7028254  0.081290709    -3.230983    1.5281576   508635 
 6764000    1.1796973   -3.2297243   -1.7023505  0.078920267   -3.2297243    1.5273738   508675 
 6765000    1.1821326   -3.2322662   -1.7018267  0.077963042   -3.2322662    1.5304395   508704 
 6766000    1.1817015   -3.2311085   -1.7013113  0.082439492   -3.2311085    1.5297972   508732 
 6767000     1.181297   -3.2308644   -1.7017291  0.079469175   -3.2308644    1.5291353   508778 
 6768000    1.1822904   -3.2311577   -1.7008718  0.075970215   -3.2311577    1.5302859   508823 
 6769000    1.1811789   -3.2303455   -1.7015163  0.081401923   -3.2303455    1.5288292   508829 
 6770000    1.1824193    -3.232284   -1.7019847  0.083796164    -3.232284    1.5302993   508874 
 6771000    1.1813749   -3.2305653   -1.7017258  0.081404762   -3.2305653    1.5288395   508910 
 6772000    1.1814592   -3.2300422   -1.7011808  0.078317649   -3.2300422    1.5288614   508939 
 6773000    1.1808193   -3.2300911   -1.7020997  0.078766886   -3.2300911    1.5279913   508953 
 6774000    1.1827673    -3.231041   -1.7005861   0.08182352    -3.231041    1.5304549   508972 
 6775000    1.1813398   -3.2289312   -1.7004225  0.084142843   -3.2289312    1.5285087   509005 
 6776000    1.1819534   -3.2300434   -1.7007768  0.079105292   -3.2300434    1.5292666   509017 
 6777000    1.1816535   -3.2308046   -1.7019921  0.076230294   -3.2308046    1.5288125   509039 
 6778000    1.1815971   -3.2299903   -1.7014551  0.080860096   -3.2299903    1.5285353   509107 
 6779000    1.1823807   -3.2313124   -1.7018235  0.080773188   -3.2313124    1.5294889   509127 
 6780000    1.1841255   -3.2333552   -1.7016123   0.08307478   -3.2333552    1.5317429   509128 
 6781000    1.1847984   -3.2338016   -1.7012273    0.0852161   -3.2338016    1.5325743   509141 
 6782000    1.1838742   -3.2317856   -1.7005092  0.083217575   -3.2317856    1.5312764   509175 
 6783000    1.1851491   -3.2324372   -1.6995568  0.081584737   -3.2324372    1.5328804   509190 
 6784000     1.183014   -3.2313386   -1.7012198  0.082962765   -3.2313386    1.5301188   509190 
 6785000    1.1851488   -3.2330944   -1.7002596  0.081266929   -3.2330944    1.5328348   509205 
 6786000    1.1829526   -3.2301525   -1.7003325  0.086578825   -3.2301525      1.52982   509263 
 6787000    1.1844682    -3.232822   -1.7011231  0.081124316    -3.232822    1.5316989   509290 
 6788000    1.1830598   -3.2299555   -1.7000869  0.086007979   -3.2299555    1.5298686   509293 
 6789000    1.1847517   -3.2322763   -1.7002379  0.078812859   -3.2322763    1.5320384   509299 
 6790000     1.185009   -3.2331695   -1.7007834  0.081368008   -3.2331695    1.5323862   509294 
 6791000    1.1828538    -3.230272    -1.700832  0.081315358    -3.230272      1.52944   509347 
 6792000    1.1854751   -3.2340422   -1.7011858  0.080100756   -3.2340422    1.5328564   509338 
 6793000    1.1826111   -3.2301602    -1.701058  0.087308187   -3.2301602    1.5291022   509355 
 6794000    1.1845478   -3.2317046   -1.7001644  0.080579075   -3.2317046    1.5315402   509377 
 6795000    1.1841159   -3.2308903   -1.7000046  0.081067457   -3.2308903    1.5308856   509409 
 6796000      1.18316   -3.2293834   -1.6998297  0.080612508   -3.2293834    1.5295537   509441 
 6797000    1.1856074   -3.2319508   -1.6992753    0.0805358   -3.2319508    1.5326755   509455 
 6798000      1.18323   -3.2303238   -1.7007217   0.08446365   -3.2303238    1.5296021   509455 
 6799000    1.1840981   -3.2321592    -1.701483   0.08356519   -3.2321592    1.5306762   509471 
 6800000    1.1847287   -3.2320974   -1.7006721  0.083403112   -3.2320974    1.5314254   509493 
 6801000    1.1842192   -3.2303718   -1.6996321  0.082704906   -3.2303718    1.5307396   509502 
 6802000    1.1844665   -3.2307021   -1.6996518  0.078382107   -3.2307021    1.5310503   509505 
 6803000    1.1855371   -3.2310333   -1.6986202  0.082239942   -3.2310333    1.5324131   509512 
 6804000    1.1840415   -3.2297415   -1.6992496  0.081271142   -3.2297415    1.5304919   509508 
 6805000    1.1836992   -3.2303195    -1.700261  0.085039943   -3.2303195    1.5300585   509505 
 6806000     1.184858   -3.2318741   -1.7002667  0.080868162   -3.2318741    1.5316075   509488 
 6807000    1.1852505   -3.2314426   -1.6994751  0.079908609   -3.2314426    1.5319675   509537 
 6808000    1.1839044   -3.2296165   -1.6993948  0.083861657   -3.2296165    1.5302217   509539 
 6809000    1.1835424   -3.2297468   -1.7000981  0.079836289   -3.2297468    1.5296486   509574 
 6810000    1.1835883   -3.2311306   -1.7015187  0.084433218   -3.2311306    1.5296119   509606 
 6811000    1.1844852   -3.2321767   -1.7014267  0.078606765   -3.2321767      1.53075   509613 
 6812000    1.1829504   -3.2315281   -1.7028635  0.079425663   -3.2315281    1.5286646   509647 
 6813000    1.1836444    -3.230971   -1.7014246   0.08271611    -3.230971    1.5295464   509652 
 6814000    1.1826809   -3.2304408   -1.7021574  0.081407953   -3.2304408    1.5282833   509658 
 6815000     1.182273   -3.2303567   -1.7027594   0.08272728   -3.2303567    1.5275973   509711 
 6816000    1.1835449   -3.2311466   -1.7019869   0.08519759   -3.2311466    1.5291598   509738 
 6817000    1.1838811   -3.2310711    -1.701591  0.082893605   -3.2310711    1.5294801   509776 
 6818000    1.1844833   -3.2318396   -1.7017076  0.082984094   -3.2318396     1.530132   509818 
 6819000    1.1835013   -3.2311343   -1.7022498  0.081861336   -3.2311343    1.5288845   509811 
 6820000    1.1849356   -3.2331804   -1.7025181   0.08108308   -3.2331804    1.5306623   509836 
 6821000    1.1843188   -3.2322168   -1.7024743  0.085205289   -3.2322168    1.5297425   509877 
 6822000     1.185373   -3.2330791    -1.702065  0.081898577   -3.2330791    1.5310142   509907 
 6823000     1.183511   -3.2311629   -1.7027487  0.083448654   -3.2311629    1.5284143   509972 
 6824000    1.1838432   -3.2318394    -1.703068  0.085552312   -3.2318394    1.5287714   509996 
 6825000    1.1854032   -3.2327665   -1.7020736  0.085287769   -3.2327665    1.5306929   510027 
 6826000    1.1855174   -3.2325724   -1.7016481  0.087878703   -3.2325724    1.5309243   509999 
 6827000    1.1857331   -3.2338454   -1.7026515  0.076213268   -3.2338454    1.5311939   510002 
 6828000    1.1858619   -3.2357136   -1.7044224   0.07849637   -3.2357136    1.5312912   510025 
 6829000    1.1861033    -3.235873   -1.7043361  0.077550994    -3.235873    1.5315369   510047 
 6830000    1.1866912   -3.2368801   -1.7046532  0.082397236   -3.2368801    1.5322269   510070 
 6831000    1.1859186   -3.2353923    -1.704211  0.075799939   -3.2353923    1.5311812   510086 
 6832000    1.1867478    -3.235552   -1.7034233  0.082632184    -3.235552    1.5321287   510127 
 6833000    1.1845795   -3.2332649   -1.7039146  0.088490571   -3.2332649    1.5293503   510120 
 6834000    1.1854504   -3.2335172   -1.7030604  0.079431361   -3.2335172    1.5304568   510126 
 6835000    1.1862848   -3.2349558   -1.7034758  0.085415819   -3.2349558      1.53148   510144 
 6836000     1.184806   -3.2330311   -1.7034423  0.084095179   -3.2330311    1.5295889   510138 
 6837000    1.1850361   -3.2331078   -1.7033089  0.082499227   -3.2331078    1.5297989   510167 
 6838000     1.186248   -3.2350129   -1.7036555  0.082690652   -3.2350129    1.5313574   510169 
 6839000    1.1858758   -3.2354398   -1.7046109  0.086467655   -3.2354398    1.5308289   510185 
 6840000    1.1865177   -3.2359672   -1.7043997  0.087430984   -3.2359672    1.5315674   510215 
 6841000    1.1864162   -3.2353402   -1.7039398  0.081927977   -3.2353402    1.5314004   510227 
 6842000     1.186516   -3.2355671   -1.7041219  0.084010173   -3.2355671    1.5314452   510255 
 6843000    1.1857952   -3.2359758   -1.7054638  0.084062016   -3.2359758    1.5305119   510256 
 6844000    1.1845936   -3.2342311   -1.7054379   0.07921711   -3.2342311    1.5287932   510312 
 6845000     1.184694   -3.2338451   -1.7049643  0.084122459   -3.2338451    1.5288808   510326 
 6846000    1.1839222   -3.2330999   -1.7052899  0.077810278   -3.2330999      1.52781   510351 
 6847000    1.1857256   -3.2342171    -1.704173  0.080960137   -3.2342171    1.5300442   510382 
 6848000    1.1857484   -3.2342705   -1.7041969  0.081300396   -3.2342705    1.5300736   510382 
 6849000    1.1840169   -3.2322967   -1.7044723  0.079228736   -3.2322967    1.5278244   510387 
 6850000    1.1863802   -3.2350126   -1.7040788  0.075744869   -3.2350126    1.5309339   510367 
 6851000    1.1862572   -3.2340011   -1.7033248  0.076867727   -3.2340011    1.5306762   510400 
 6852000    1.1876477   -3.2348956   -1.7024553  0.080277415   -3.2348956    1.5324403   510410 
 6853000    1.1851431   -3.2320385   -1.7028777  0.078419357   -3.2320385    1.5291608   510426 
 6854000    1.1871229   -3.2348303   -1.7031151   0.07831818   -3.2348303    1.5317152   510426 
 6855000    1.1858762    -3.232117   -1.7021003  0.082768719    -3.232117    1.5300167   510456 
 6856000    1.1874002    -3.233585   -1.7016711  0.080696299    -3.233585    1.5319139   510479 
 6857000    1.1857534   -3.2319402   -1.7022857  0.084354045   -3.2319402    1.5296545   510524 
 6858000    1.1860953   -3.2330988   -1.7029823  0.079326702   -3.2330988    1.5301165   510517 
 6859000     1.185803   -3.2319787   -1.7023141   0.08436044   -3.2319787    1.5296646   510542 
 6860000    1.1856175   -3.2306732   -1.7013768  0.083821458   -3.2306732    1.5292964   510585 
 6861000    1.1870046   -3.2319718   -1.7010271  0.083514409   -3.2319718    1.5309448   510632 
 6862000    1.1846233   -3.2297102   -1.7019086  0.084394935   -3.2297102    1.5278016   510656 
 6863000    1.1880144   -3.2334661   -1.7013209  0.078011609   -3.2334661    1.5321451   510666 
 6864000    1.1876682   -3.2330343   -1.7013806  0.080997327   -3.2330343    1.5316536   510681 
 6865000    1.1875295   -3.2312757   -1.6998609  0.082384879   -3.2312757    1.5314147   510701 
 6866000    1.1860061   -3.2298491   -1.7003988  0.084537364   -3.2298491    1.5294502   510701 
 6867000    1.1876018   -3.2325075   -1.7010714  0.080782984   -3.2325075    1.5314361   510725 
 6868000    1.1891546   -3.2334837   -1.7000633   0.08022108   -3.2334837    1.5334204   510731 
 6869000    1.1872207   -3.2323506    -1.701409  0.082419911   -3.2323506    1.5309417   510726 
 6870000     1.188333    -3.233301   -1.7010451  0.080613328    -3.233301    1.5322559   510766 
 6871000    1.1899178   -3.2343603   -1.7000339   0.08155755   -3.2343603    1.5343264   510757 
 6872000    1.1890692   -3.2331513   -1.6999972  0.085806124   -3.2331513    1.5331541   510783 
 6873000    1.1861417    -3.230836   -1.7015254  0.088184814    -3.230836    1.5293106   510806 
 6874000    1.1867442   -3.2320032   -1.7018828  0.080899142   -3.2320032    1.5301204   510795 
 6875000    1.1874135    -3.232015   -1.7011275  0.077572609    -3.232015    1.5308875   510827 
 6876000     1.187263   -3.2317751   -1.7011806  0.083519541   -3.2317751    1.5305945   510860 
 6877000    1.1888876   -3.2334839   -1.7009539  0.080291682   -3.2334839      1.53253   510913 
 6878000    1.1884572    -3.233352   -1.7013619  0.084235507    -3.233352    1.5319902   510908 
 6879000     1.187248   -3.2328797   -1.7025351  0.082728609   -3.2328797    1.5303446   510937 
 6880000     1.186742   -3.2332095   -1.7036339  0.083041359   -3.2332095    1.5295755   510976 
 6881000    1.1887208   -3.2354069   -1.7033109  0.078467948   -3.2354069     1.532096   510986 
 6882000    1.1882594    -3.234306   -1.7029245  0.080778461    -3.234306    1.5313815   511026 
 6883000    1.1877115   -3.2331532   -1.7025708  0.086752572   -3.2331532    1.5305825   511057 
 6884000    1.1873946   -3.2330363   -1.7029011  0.083232749   -3.2330363    1.5301352   511070 
 6885000    1.1879917   -3.2334312   -1.7024726  0.084625606   -3.2334312    1.5309586   511052 
 6886000    1.1892532    -3.234352   -1.7017887  0.083405452    -3.234352    1.5325633   511059 
 6887000    1.1895645   -3.2345222   -1.7017527   0.07867213   -3.2345222    1.5327695   511124 
 6888000    1.1883453   -3.2330776   -1.7019689  0.083169729   -3.2330776    1.5311087   511154 
 6889000    1.1905702   -3.2354751   -1.7016678  0.085149917   -3.2354751    1.5338073   511210 
 6890000    1.1898187   -3.2350626   -1.7023164  0.087511488   -3.2350626    1.5327462   511241 
 6891000     1.189195   -3.2351774   -1.7032616  0.081939712   -3.2351774    1.5319158   511250 
 6892000    1.1887121   -3.2359987    -1.704705  0.077096989   -3.2359987    1.5312937   511250 
 6893000    1.1887405   -3.2352049   -1.7039854  0.077349547   -3.2352049    1.5312195   511287 
 6894000    1.1880283   -3.2333495   -1.7031133  0.081779803   -3.2333495    1.5302363   511309 
 6895000    1.1889245   -3.2347695   -1.7034388  0.085414872   -3.2347695    1.5313307   511329 
 6896000    1.1883946   -3.2333976   -1.7027375   0.07621056   -3.2333976    1.5306601   511325 
 6897000    1.1892492   -3.2346583   -1.7030891  0.078705333   -3.2346583    1.5315692   511389 
 6898000     1.190153   -3.2353164   -1.7025383  0.079174571   -3.2353164    1.5327781   511374 
 6899000    1.1899009   -3.2361894   -1.7037929  0.082907689   -3.2361894    1.5323965   511393 
 6900000    1.1894052   -3.2356781    -1.703962  0.087752971   -3.2356781    1.5317161   511407 
 6901000    1.1892658   -3.2362734   -1.7047068  0.081184052   -3.2362734    1.5315666   511397 
 6902000    1.1879657   -3.2347555   -1.7049409  0.082071927   -3.2347555    1.5298145   511423 
 6903000    1.1882143   -3.2352848   -1.7052877  0.084567618   -3.2352848    1.5299971   511469 
 6904000    1.1894354   -3.2358082   -1.7042119   0.07906069   -3.2358082    1.5315963   511460 
 6905000    1.1897029   -3.2358921   -1.7040412   0.07955121   -3.2358921    1.5318509   511490 
 6906000    1.1896586   -3.2359164   -1.7041375  0.082528625   -3.2359164     1.531779   511495 
 6907000    1.1894633   -3.2367227   -1.7052252  0.083834429   -3.2367227    1.5314975   511505 
 6908000    1.1894926   -3.2380232    -1.706518  0.078298057   -3.2380232    1.5315052   511515 
 6909000    1.1882069   -3.2361931   -1.7064419  0.081203163   -3.2361931    1.5297512   511548 
 6910000    1.1872249    -3.234839   -1.7063133  0.082411075    -3.234839    1.5285258   511535 
 6911000    1.1883348   -3.2358167   -1.7059188  0.081357831   -3.2358167     1.529898   511554 
 6912000    1.1897479    -3.236767   -1.7050648  0.081676604    -3.236767    1.5317022   511559 
 6913000    1.1893595   -3.2369973    -1.705861  0.085417351   -3.2369973    1.5311363   511581 
 6914000    1.1878401   -3.2354946   -1.7063441  0.082853064   -3.2354946    1.5291505   511591 
 6915000     1.189326   -3.2382165   -1.7072818   0.07781138   -3.2382165    1.5309347   511634 
 6916000    1.1889283   -3.2377937   -1.7074009  0.081095541   -3.2377937    1.5303928   511644 
 6917000    1.1878152   -3.2365453    -1.707663  0.079616039   -3.2365453    1.5288823   511670 
 6918000    1.1900157   -3.2384576   -1.7067938  0.084337336   -3.2384576    1.5316638   511687 
 6919000    1.1869339   -3.2354413   -1.7077949  0.089607753   -3.2354413    1.5276464   511704 
 6920000    1.1880665   -3.2379117   -1.7088285  0.081712143   -3.2379117    1.5290833   511711 
 6921000     1.189145   -3.2390012   -1.7086047  0.078876924   -3.2390012    1.5303965   511736 
 6922000    1.1903999   -3.2392139   -1.7072801  0.081631336   -3.2392139    1.5319338   511762 
 6923000    1.1897764   -3.2384218   -1.7072605  0.081620578   -3.2384218    1.5311612   511752 
 6924000    1.1903093    -3.239498   -1.7076719  0.080547719    -3.239498    1.5318261   511759 
 6925000    1.1889204   -3.2383665   -1.7083547   0.08278436   -3.2383665    1.5300118   511768 
 6926000    1.1878262   -3.2374384   -1.7088556  0.082080708   -3.2374384    1.5285828   511775 
 6927000    1.1877864   -3.2378719   -1.7093911  0.081851469   -3.2378719    1.5284808   511792 
 6928000    1.1881795   -3.2382182   -1.7092495  0.084798075   -3.2382182    1.5289687   511798 
 6929000    1.1884907    -3.238851   -1.7095684  0.080345131    -3.238851    1.5292825   511827 
 6930000     1.188265   -3.2379592   -1.7090805  0.084491518   -3.2379592    1.5288787   511865 
 6931000    1.1893276   -3.2382478   -1.7081335  0.080829178   -3.2382478    1.5301142   511909 
 6932000    1.1900637   -3.2396264   -1.7086548  0.080051489   -3.2396264    1.5309716   511939 
 6933000    1.1880916    -3.237148   -1.7088299  0.080370837    -3.237148    1.5283181   511978 
 6934000    1.1895637   -3.2380262   -1.7078203  0.078199278   -3.2380262    1.5302058   511980 
 6935000    1.1890142   -3.2366818   -1.7072008   0.08515486   -3.2366818    1.5294811   511986 
 6936000    1.1893668   -3.2371592   -1.7072486  0.082803385   -3.2371592    1.5299106   511994 
 6937000    1.1894069   -3.2373376   -1.7074321  0.081666901   -3.2373376    1.5299055   512013 
 6938000    1.1922833   -3.2398694    -1.706285  0.084318275   -3.2398694    1.5335844   512020 
 6939000     1.190706    -3.238207    -1.706795  0.084574564    -3.238207     1.531412   512068 
 6940000    1.1910197     -3.23903   -1.7073252  0.081554649     -3.23903    1.5317048   512105 
 6941000    1.1922301   -3.2392473   -1.7060548  0.077888435   -3.2392473    1.5331926   512128 
 6942000    1.1894856   -3.2354255   -1.7058609  0.081905582   -3.2354255    1.5295646   512161 
 6943000    1.1890037   -3.2343237   -1.7054833  0.084476057   -3.2343237    1.5288404   512196 
 6944000    1.1915373   -3.2372012   -1.7051958  0.075592118   -3.2372012    1.5320055   512227 
 6945000    1.1899222   -3.2355647   -1.7056956    0.0817351   -3.2355647    1.5298691   512247 
 6946000    1.1908419   -3.2358467    -1.704849  0.084383638   -3.2358467    1.5309977   512265 
 6947000    1.1919321   -3.2382432   -1.7058677  0.079781512   -3.2382432    1.5323755   512273 
 6948000    1.1927488   -3.2382242   -1.7049006    0.0767757   -3.2382242    1.5333236   512307 
 6949000    1.1917825   -3.2377442   -1.7057526  0.079917848   -3.2377442    1.5319916   512337 
 6950000    1.1910365   -3.2386127   -1.7076098  0.083942433   -3.2386127    1.5310029   512347 
 6951000    1.1902867   -3.2370008   -1.7069917  0.082272827   -3.2370008    1.5300092   512357 
 6952000    1.1907123     -3.23687   -1.7062959  0.081038893     -3.23687    1.5305741   512351 
 6953000    1.1884856   -3.2347504   -1.7071041  0.085134199   -3.2347504    1.5276463   512373 
 6954000    1.1893938   -3.2364701   -1.7076951  0.078993655   -3.2364701     1.528775   512386 
 6955000    1.1889721    -3.236892   -1.7086979  0.081479069    -3.236892    1.5281941   512399 
 6956000    1.1903761   -3.2383763   -1.7084194  0.075619263   -3.2383763    1.5299569   512413 
 6957000    1.1898524   -3.2373606   -1.7081156  0.073605864   -3.2373606     1.529245   512426 
 6958000     1.190405   -3.2389383    -1.709004  0.076780145   -3.2389383    1.5299343   512433 
 6959000    1.1906328   -3.2379678   -1.7077855   0.08133357   -3.2379678    1.5301823   512448 
 6960000    1.1903054   -3.2389835   -1.7092131  0.083777966   -3.2389835    1.5297704   512445 
 6961000    1.1895803   -3.2393521   -1.7105882  0.080047255   -3.2393521     1.528764   512470 
 6962000    1.1903284   -3.2399288   -1.7103318  0.078867851   -3.2399288     1.529597   512513 
 6963000    1.1906215   -3.2412406   -1.7111504  0.079517296   -3.2412406    1.5300902   512474 
 6964000    1.1902233   -3.2405792   -1.7109859    0.0777454   -3.2405792    1.5295934   512469 
 6965000    1.1896098   -3.2408906   -1.7119813  0.078294842   -3.2408906    1.5289093   512434 
 6966000     1.190261   -3.2411317   -1.7114482  0.085662307   -3.2411317    1.5296835   512455 
 6967000    1.1901146   -3.2404888   -1.7110352  0.081749624   -3.2404888    1.5294536   512469 
 6968000     1.190719   -3.2417496   -1.7115372  0.081271096   -3.2417496    1.5302124   512475 
 6969000    1.1909598   -3.2410277   -1.7105596  0.075495862   -3.2410277    1.5304681   512493 
 6970000    1.1910742   -3.2406197   -1.7101031   0.08219562   -3.2406197    1.5305166   512526 
 6971000    1.1902989   -3.2414693   -1.7121369  0.083248109   -3.2414693    1.5293324   512589 
 6972000    1.1910872   -3.2424394   -1.7121568  0.084412588   -3.2424394    1.5302826   512610 
 6973000    1.1915949   -3.2430819   -1.7121621  0.081527207   -3.2430819    1.5309198   512615 
 6974000    1.1934722   -3.2461723   -1.7128555  0.084407891   -3.2461723    1.5333168   512620 
 6975000    1.1931214   -3.2450352   -1.7122259  0.077896326   -3.2450352    1.5328093   512639 
 6976000    1.1924476   -3.2449888    -1.713105  0.083543141   -3.2449888    1.5318839   512659 
 6977000    1.1918173   -3.2450795   -1.7139755  0.082092601   -3.2450795    1.5311041   512649 
 6978000    1.1912129   -3.2431867   -1.7129607  0.082321188   -3.2431867    1.5302261   512683 
 6979000    1.1911344   -3.2421893   -1.7120789  0.083619794   -3.2421893    1.5301104   512688 
 6980000    1.1906322   -3.2418927    -1.712517  0.081014451   -3.2418927    1.5293757   512718 
 6981000    1.1931017   -3.2450149   -1.7124521  0.077861067   -3.2450149    1.5325627   512713 
 6982000    1.1902733   -3.2405143    -1.711695  0.083909999   -3.2405143    1.5288193   512750 
 6983000    1.1909697   -3.2419266   -1.7122159  0.083285536   -3.2419266    1.5297107   512751 
 6984000    1.1919334   -3.2433848    -1.712487  0.080165948   -3.2433848    1.5308978   512768 
 6985000    1.1910551   -3.2422734   -1.7125514  0.085319855   -3.2422734     1.529722   512784 
 6986000    1.1923624   -3.2438668   -1.7125077  0.086047747   -3.2438668    1.5313592   512798 
 6987000    1.1926192   -3.2429476   -1.7113661  0.085031575   -3.2429476    1.5315816   512834 
 6988000    1.1915167   -3.2410773   -1.7109653  0.081697003   -3.2410773    1.5301119   512852 
 6989000    1.1925529   -3.2419702   -1.7106022  0.089229794   -3.2419702     1.531368   512877 
 6990000    1.1928097   -3.2417417   -1.7101395  0.079615079   -3.2417417    1.5316022   512909 
 6991000    1.1922018   -3.2417141   -1.7109671   0.07948698   -3.2417141     1.530747   512934 
 6992000    1.1900603    -3.239205   -1.7112016  0.083035961    -3.239205    1.5280034   512932 
 6993000    1.1913261   -3.2412658   -1.7118191  0.080591649   -3.2412658    1.5294468   512993 
 6994000    1.1907727   -3.2401967   -1.7115023  0.080462872   -3.2401967    1.5286945   513007 
 6995000    1.1923451   -3.2415127   -1.7108233  0.079961091   -3.2415127    1.5306893   513015 
 6996000     1.190975   -3.2388138   -1.7099996  0.080370194   -3.2388138    1.5288142   513054 
 6997000    1.1917789   -3.2395934   -1.7098964  0.082579994   -3.2395934     1.529697   513104 
 6998000    1.1916977   -3.2399447   -1.7104234  0.079582764   -3.2399447    1.5295212   513128 
 6999000    1.1901953   -3.2392293   -1.7116781  0.086623895   -3.2392293    1.5275512   513142 
 7000000    1.1911963   -3.2392654   -1.7104294  0.079345554   -3.2392654     1.528836   513142 
 7001000    1.1913488   -3.2391697   -1.7102304  0.079915629   -3.2391697    1.5289394   513173 
 7002000    1.1911001   -3.2394163   -1.7108736  0.080595572   -3.2394163    1.5285427   513199 
 7003000    1.1913324   -3.2392974   -1.7105579  0.079621253   -3.2392974    1.5287396   513233 
 7004000    1.1915022   -3.2398571   -1.7109742  0.076740932   -3.2398571     1.528883   513258 
 7005000    1.1908255   -3.2387001   -1.7107539  0.079218788   -3.2387001    1.5279462   513281 
 7006000    1.1906766   -3.2383195   -1.7106208  0.075426525   -3.2383195    1.5276987   513300 
 7007000    1.1904365   -3.2387529   -1.7113653  0.079789512   -3.2387529    1.5273876   513301 
 7008000    1.1915802   -3.2392584   -1.7104539  0.080283461   -3.2392584    1.5288044   513318 
 7009000     1.192431   -3.2397899    -1.709897  0.085267446   -3.2397899    1.5298929   513319 
 7010000    1.1916368    -3.240782   -1.7119467  0.075248514    -3.240782    1.5288352   513332 
 7011000    1.1912155   -3.2409325   -1.7125604  0.081136849   -3.2409325    1.5283722   513306 
 7012000    1.1906723   -3.2399256   -1.7123039  0.073156676   -3.2399256    1.5276216   513324 
 7013000    1.1907222   -3.2401719   -1.7124564  0.080092799   -3.2401719    1.5277155   513314 
 7014000    1.1910994    -3.241029    -1.713035  0.077747937    -3.241029     1.527994   513383 
 7015000    1.1927488   -3.2423422   -1.7123365   0.07888252   -3.2423422    1.5300057   513418 
 7016000    1.1914092   -3.2396186   -1.7114474  0.084748754   -3.2396186    1.5281712   513457 
 7017000    1.1945722   -3.2431195   -1.7109451  0.077986383   -3.2431195    1.5321744   513475 
 7018000    1.1925743   -3.2411407   -1.7115525  0.079908968   -3.2411407    1.5295882   513483 
 7019000    1.1927853   -3.2412097   -1.7113509  0.082573783   -3.2412097    1.5298588   513483 
 7020000    1.1943111   -3.2438492   -1.7120543   0.08143046   -3.2438492    1.5317949   513490 
 7021000    1.1914415   -3.2398683   -1.7116825  0.083322584   -3.2398683    1.5281858   513466 
 7022000    1.1939605   -3.2429558   -1.7115897  0.083148857   -3.2429558    1.5313661   513483 
 7023000    1.1934054   -3.2427115   -1.7120992  0.081496663   -3.2427115    1.5306123   513497 
 7024000    1.1940913   -3.2442112   -1.7127518  0.079311003   -3.2442112    1.5314593   513508 
 7025000    1.1937122   -3.2431247   -1.7122113  0.082316671   -3.2431247    1.5309134   513528 
 7026000    1.1920868   -3.2420198   -1.7132891  0.080775887   -3.2420198    1.5287307   513561 
 7027000    1.1935531   -3.2431526   -1.7125714  0.082252638   -3.2431526    1.5305812   513571 
 7028000    1.1919164   -3.2410027   -1.7125293  0.080772871   -3.2410027    1.5284734   513574 
 7029000    1.1908927   -3.2403773   -1.7132909  0.077598803   -3.2403773    1.5270864   513599 
 7030000     1.191993   -3.2410937   -1.7127274  0.080856363   -3.2410937    1.5283663   513643 
 7031000    1.1921901   -3.2424392   -1.7138469  0.077913853   -3.2424392    1.5285923   513652 
 7032000    1.1908998   -3.2407782   -1.7138968  0.081738486   -3.2407782    1.5268814   513671 
 7033000    1.1915582   -3.2422945   -1.7146582  0.076922279   -3.2422945    1.5276363   513701 
 7034000    1.1904556   -3.2416866   -1.7154579  0.074669805   -3.2416866    1.5262287   513699 
 7035000    1.1893482   -3.2386797   -1.7139361  0.083743061   -3.2386797    1.5247436   513721 
 7036000    1.1906888   -3.2399257   -1.7134545  0.081365142   -3.2399257    1.5264712   513718 
 7037000    1.1912534   -3.2415927   -1.7143649  0.079358644   -3.2415927    1.5272277   513707 
 7038000    1.1935634   -3.2431357    -1.713146  0.079735756   -3.2431357    1.5299896   513774 
 7039000    1.1912994   -3.2389837   -1.7119527   0.08019727   -3.2389837     1.527031   513793 
 7040000    1.1927532   -3.2397982   -1.7109721  0.078938474   -3.2397982    1.5288262   513816 
 7041000    1.1927696   -3.2403127    -1.711528  0.076257971   -3.2403127    1.5287847   513837 
 7042000    1.1926152   -3.2394543   -1.7108497   0.08116178   -3.2394543    1.5286046   513831 
 7043000    1.1944783   -3.2419261   -1.7110109  0.077219843   -3.2419261    1.5309152   513857 
 7044000    1.1930226   -3.2402738   -1.7112571  0.078787723   -3.2402738    1.5290167   513868 
 7045000    1.1923171   -3.2382817   -1.7102406   0.08287671   -3.2382817    1.5280411   513892 
 7046000      1.19289   -3.2396344   -1.7109573  0.082122583   -3.2396344    1.5286772   513925 
 7047000    1.1935966   -3.2400616   -1.7105205  0.082989102   -3.2400616    1.5295411   513939 
 7048000    1.1930551   -3.2392636   -1.7104671  0.084804557   -3.2392636    1.5287965   513956 
 7049000     1.193997   -3.2401844   -1.7102553  0.080623044   -3.2401844    1.5299291   513981 
 7050000    1.1929544   -3.2396233   -1.7111194  0.077513055   -3.2396233    1.5285039   514011 
 7051000    1.1918515    -3.238178   -1.7110129  0.078382882    -3.238178    1.5271651   513986 
 7052000    1.1932319   -3.2390772   -1.7101671  0.079678535   -3.2390772    1.5289101   513994 
 7053000    1.1926078   -3.2380851   -1.7099628  0.083022163   -3.2380851    1.5281223   513990 
 7054000    1.1914174   -3.2378872   -1.7113348  0.082029643   -3.2378872    1.5265525   514005 
 7055000    1.1932407   -3.2403227   -1.7115382  0.081048176   -3.2403227    1.5287845   514040 
 7056000    1.1931625   -3.2412339   -1.7125437  0.076709927   -3.2412339    1.5286902   514038 
 7057000     1.192672   -3.2407787   -1.7128031  0.076217304   -3.2407787    1.5279756   514067 
 7058000    1.1933449   -3.2408742   -1.7120781  0.073571925   -3.2408742    1.5287961   514081 
 7059000    1.1934336   -3.2420719   -1.7131831  0.078081563   -3.2420719    1.5288889   514088 
 7060000    1.1911972   -3.2388966   -1.7129677  0.082533409   -3.2388966    1.5259289   514120 
 7061000    1.1916847   -3.2380912   -1.7116181  0.082778423   -3.2380912    1.5264732   514147 
 7062000    1.1919351   -3.2396668   -1.7128996  0.079975447   -3.2396668    1.5267672   514156 
 7063000    1.1939401   -3.2403612   -1.7110762  0.076876559   -3.2403612    1.5292849   514173 
 7064000    1.1920121   -3.2393962   -1.7125749  0.070382906   -3.2393962    1.5268213   514171 
 7065000    1.1915801   -3.2379752   -1.7117309  0.081590734   -3.2379752    1.5262443   514179 
 7066000    1.1919721    -3.239934   -1.7132263  0.076830312    -3.239934    1.5267077   514192 
 7067000    1.1919223   -3.2391697   -1.7125762  0.076158744   -3.2391697    1.5265935   514209 
 7068000    1.1910122   -3.2388291   -1.7134516  0.083443577   -3.2388291    1.5253775   514226 
 7069000    1.1917623   -3.2394367    -1.713152  0.079888247   -3.2394367    1.5262847   514244 
 7070000    1.1931993   -3.2413383   -1.7132251   0.08006443   -3.2413383    1.5281132   514248 
 7071000    1.1933053   -3.2403639   -1.7121892  0.082455487   -3.2403639    1.5281747   514273 
 7072000    1.1941138   -3.2400135   -1.7109402  0.081615048   -3.2400135    1.5290732   514319 
 7073000    1.1956749   -3.2423591   -1.7112274  0.079982909   -3.2423591    1.5311317   514299 
 7074000    1.1965759   -3.2420619   -1.7098925   0.08732512   -3.2420619    1.5321694   514338 
 7075000    1.1960076   -3.2426421   -1.7112808  0.084656334   -3.2426421    1.5313613   514365 
 7076000    1.1952247   -3.2430006   -1.7126894   0.08772198   -3.2430006    1.5303112   514381 
 7077000    1.1953514   -3.2437297   -1.7132919  0.082370344   -3.2437297    1.5304378   514393 
 7078000    1.1965951   -3.2451083   -1.7131169  0.085425789   -3.2451083    1.5319914   514406 
 7079000    1.1937355   -3.2423875   -1.7140246  0.082834278   -3.2423875    1.5283629   514395 
 7080000    1.1952359   -3.2449315   -1.7145969  0.086613592   -3.2449315    1.5303346   514378 
 7081000    1.1951986   -3.2455404   -1.7152833  0.076558965   -3.2455404    1.5302571   514388 
 7082000    1.1938326   -3.2435427   -1.7150197  0.080693436   -3.2435427    1.5285229   514383 
 7083000    1.1953028   -3.2454628   -1.7150723  0.078880477   -3.2454628    1.5303904   514388 
 7084000    1.1942732   -3.2451466   -1.7161933  0.079566445   -3.2451466    1.5289533   514428 
 7085000    1.1936204   -3.2443131   -1.7161481  0.084046914   -3.2443131     1.528165   514412 
 7086000    1.1928785   -3.2425475   -1.7154243  0.080676725   -3.2425475    1.5271232   514443 
 7087000    1.1928681   -3.2430396    -1.715989  0.087291906   -3.2430396    1.5270506   514463 
 7088000    1.1960242   -3.2475494   -1.7164853  0.080292525   -3.2475494    1.5310641   514472 
 7089000    1.1938967   -3.2443338   -1.7160585  0.079848768   -3.2443338    1.5282752   514494 
 7090000    1.1950473   -3.2469118   -1.7172856  0.078391168   -3.2469118    1.5296262   514535 
 7091000    1.1946156   -3.2470825    -1.718205   0.08500554   -3.2470825    1.5288775   514601 
 7092000    1.1943708   -3.2464408   -1.7179776  0.084008292   -3.2464408    1.5284633   514635 
 7093000     1.193318   -3.2459621   -1.7188759  0.081397918   -3.2459621    1.5270862   514645 
 7094000    1.1942338   -3.2468372   -1.7185375   0.07722298   -3.2468372    1.5282998   514631 
 7095000    1.1937198   -3.2451409    -1.717591  0.080766084   -3.2451409    1.5275499   514662 
 7096000    1.1945339   -3.2462196   -1.7176843   0.07713886   -3.2462196    1.5285353   514681 
 7097000    1.1951505   -3.2463588   -1.7170523  0.080199514   -3.2463588    1.5293065   514687 
 7098000    1.1949115   -3.2458562   -1.7169149  0.077973394   -3.2458562    1.5289413   514707 
 7099000    1.1944315   -3.2440929   -1.7158282  0.091670579   -3.2440929    1.5282647   514728 
 7100000    1.1968389   -3.2463951   -1.7151186  0.078977415   -3.2463951    1.5312765   514751 
 7101000    1.1953584   -3.2451626   -1.7158693  0.086271689   -3.2451626    1.5292933   514781 
 7102000    1.1958385   -3.2468895    -1.716997  0.083546091   -3.2468895    1.5298925   514786 
 7103000    1.1960826   -3.2462605   -1.7161567  0.078300014   -3.2462605    1.5301038   514820 
 7104000    1.1960713   -3.2465944   -1.7164753  0.081746303   -3.2465944    1.5301191   514810 
 7105000    1.1949699   -3.2443116    -1.715655   0.07819896   -3.2443116    1.5286566   514828 
 7106000    1.1947813   -3.2436212   -1.7152741  0.081351392   -3.2436212    1.5283471   514851 
 7107000    1.1957109   -3.2451313   -1.7156545  0.082329191   -3.2451313    1.5294767   514871 
 7108000    1.1965494   -3.2451827   -1.7146631  0.076617422   -3.2451827    1.5305196   514881 
 7109000    1.1942782   -3.2429601   -1.7153575  0.084400817   -3.2429601    1.5276026   514885 
 7110000    1.1924241   -3.2397858    -1.714611  0.083522094   -3.2397858    1.5251748   514904 
 7111000    1.1949475   -3.2425694   -1.7142146   0.07831519   -3.2425694    1.5283549   514920 
 7112000    1.1954447    -3.244684   -1.7157081  0.077829664    -3.244684    1.5289759   514925 
 7113000    1.1936385   -3.2434336   -1.7169131  0.073862613   -3.2434336    1.5265205   514974 
 7114000    1.1935682   -3.2424681   -1.7161383  0.084461389   -3.2424681    1.5263298   515008 
 7115000    1.1939489   -3.2420289   -1.7152745  0.080542504   -3.2420289    1.5267544   515029 
 7116000    1.1942856   -3.2436369   -1.7164993  0.073455638   -3.2436369    1.5271375   515045 
 7117000    1.1930238   -3.2423579   -1.7168931  0.080536504   -3.2423579    1.5254649   515065 
 7118000    1.1942053   -3.2435614   -1.7166421  0.072663486   -3.2435614    1.5269193   515084 
 7119000    1.1946019   -3.2429915   -1.7156186  0.079375908   -3.2429915     1.527373   515102 
 7120000    1.1957393   -3.2448362   -1.7159764  0.076335184   -3.2448362    1.5288598   515091 
 7121000    1.1956995   -3.2440151   -1.7152833  0.081180284   -3.2440151    1.5287318   515117 
 7122000    1.1950174    -3.243759   -1.7158934   0.07893805    -3.243759    1.5278657   515115 
 7123000     1.196731   -3.2466246   -1.7166453  0.077939295   -3.2466246    1.5299793   515141 
 7124000    1.1951092   -3.2446362   -1.7168223   0.08414604   -3.2446362     1.527814   515172 
 7125000    1.1969034    -3.246056   -1.7160078  0.080187552    -3.246056    1.5300482   515192 
 7126000    1.1965998   -3.2458988   -1.7162298  0.086543248   -3.2458988     1.529669   515189 
 7127000    1.1961298   -3.2453744   -1.7163447  0.083666465   -3.2453744    1.5290296   515202 
 7128000    1.1985326   -3.2479257   -1.7158839  0.076645071   -3.2479257    1.5320417   515222 
 7129000    1.1970941   -3.2467228   -1.7165852   0.08047113   -3.2467228    1.5301376   515244 
 7130000    1.1961121   -3.2469313   -1.7180906  0.081654009   -3.2469313    1.5288408   515258 
 7131000    1.1968976   -3.2473874   -1.7175693  0.078424532   -3.2473874    1.5298181   515267 
 7132000    1.1951507   -3.2452328   -1.7176535  0.083288565   -3.2452328    1.5275793   515269 
 7133000    1.1968315   -3.2484121   -1.7186309  0.080681816   -3.2484121    1.5297811   515251 
 7134000    1.1978146   -3.2486789   -1.7176411  0.083135566   -3.2486789    1.5310378   515251 
 7135000    1.1977078   -3.2489406   -1.7180958  0.083011361   -3.2489406    1.5308448   515270 
 7136000    1.1959024   -3.2482742   -1.7198408  0.081286989   -3.2482742    1.5284334   515305 
 7137000     1.195479   -3.2471926   -1.7194072  0.081313523   -3.2471926    1.5277855   515341 
 7138000      1.19476   -3.2469096   -1.7200074  0.080758477   -3.2469096    1.5269022   515329 
 7139000     1.196601   -3.2495515   -1.7203321  0.082893469   -3.2495515    1.5292194   515341 
 7140000    1.1950525   -3.2480844   -1.7208025   0.08200087   -3.2480844    1.5272819   515327 
 7141000    1.1972232   -3.2490033    -1.718971  0.081274634   -3.2490033    1.5300323   515335 
 7142000    1.1969773   -3.2493382   -1.7196409  0.078259987   -3.2493382    1.5296974   515342 
 7143000    1.1976346   -3.2497811   -1.7192705  0.083988038   -3.2497811    1.5305106   515351 
 7144000    1.1981443   -3.2496094   -1.7184861  0.076310533   -3.2496094    1.5311233   515364 
 7145000    1.1973491   -3.2496867   -1.7195826  0.075911586   -3.2496867    1.5301041   515365 
 7146000    1.1971416   -3.2487345   -1.7189727  0.085860259   -3.2487345    1.5297618   515391 
 7147000    1.1964432   -3.2478655   -1.7191059  0.077406585   -3.2478655    1.5287597   515428 
 7148000    1.1963839   -3.2473027   -1.7187849  0.079118957   -3.2473027    1.5285178   515484 
 7149000    1.1952062   -3.2463993   -1.7195165  0.081554148   -3.2463993    1.5268828   515528 
 7150000    1.1943676   -3.2461895   -1.7203188  0.080282863   -3.2461895    1.5258707   515508 
 7151000    1.1937762   -3.2456526   -1.7206735  0.076014269   -3.2456526    1.5249791   515554 
 7152000    1.1946088   -3.2461048   -1.7201539  0.082623959   -3.2461048    1.5259509   515585 
 7153000    1.1955992   -3.2479261   -1.7207841  0.084271682   -3.2479261     1.527142   515610 
 7154000    1.1955474   -3.2490736    -1.722054  0.074076987   -3.2490736    1.5270195   515629 
 7155000    1.1956289   -3.2490465   -1.7219644  0.077533174   -3.2490465    1.5270821   515643 
 7156000    1.1958872   -3.2482607   -1.7209286  0.077978941   -3.2482607    1.5273321   515670 
 7157000      1.19701   -3.2486133   -1.7199124  0.075006451   -3.2486133    1.5287009   515692 
 7158000    1.1968543   -3.2475248    -1.719008  0.083128245   -3.2475248    1.5285168   515687 
 7159000    1.1945751   -3.2449472   -1.7192908  0.083576989   -3.2449472    1.5256564   515670 
 7160000    1.1962575   -3.2471606    -1.719397  0.081687902   -3.2471606    1.5277636   515684 
 7161000    1.1968593   -3.2471722    -1.718729  0.080801616   -3.2471722    1.5284432   515714 
 7162000    1.1960818   -3.2471249   -1.7198227  0.081751681   -3.2471249    1.5273022   515764 
 7163000    1.1975941   -3.2493199   -1.7201786  0.084130017   -3.2493199    1.5291414   515795 
 7164000    1.1975636   -3.2493958   -1.7204207  0.082092275   -3.2493958     1.528975   515838 
 7165000    1.1978948   -3.2492795   -1.7199706  0.081607512   -3.2492795    1.5293089   515868 
 7166000    1.1993522   -3.2509649   -1.7199379  0.084704659   -3.2509649     1.531027   515916 
 7167000    1.1999516   -3.2507866    -1.719033  0.079252397   -3.2507866    1.5317536   515929 
 7168000    1.1985999   -3.2493547   -1.7194421  0.081046677   -3.2493547    1.5299126   515968 
 7169000     1.198292   -3.2480621   -1.7186849  0.083051665   -3.2480621    1.5293772   516016 
 7170000    1.1985271   -3.2478438   -1.7182466  0.083376831   -3.2478438    1.5295972   516043 
 7171000    1.1988754   -3.2482108   -1.7182105  0.079441183   -3.2482108    1.5300003   516057 
 7172000    1.1986639   -3.2485438   -1.7188935  0.081075306   -3.2485438    1.5296503   516084 
 7173000    1.1982644   -3.2478623   -1.7188047  0.082020015   -3.2478623    1.5290576   516112 
 7174000    1.1993276   -3.2494759   -1.7190943  0.085735021   -3.2494759    1.5303816   516123 
 7175000    1.1997175   -3.2499547   -1.7190844  0.076445634   -3.2499547    1.5308703   516126 
 7176000    1.1990442   -3.2490632   -1.7191409  0.082508344   -3.2490632    1.5299222   516156 
 7177000    1.1993463   -3.2484744   -1.7182676   0.08665171   -3.2484744    1.5302068   516190 
 7178000    1.1999642   -3.2504285   -1.7194778  0.081534321   -3.2504285    1.5309507   516205 
 7179000    1.1978389   -3.2477341   -1.7196015  0.080118333   -3.2477341    1.5281326   516241 
 7180000    1.2004856   -3.2495358   -1.7181009  0.082781203   -3.2495358    1.5314349   516266 
 7181000    1.2014203   -3.2508321   -1.7181958  0.075153174   -3.2508321    1.5326363   516263 
 7182000    1.2005479   -3.2489844   -1.7175886  0.078532131   -3.2489844    1.5313958   516306 
 7183000    1.1995886   -3.2478339   -1.7176855  0.085755989   -3.2478339    1.5301484   516314 
 7184000    1.2002527   -3.2474645   -1.7165668  0.088848301   -3.2474645    1.5308977   516347 
 7185000    1.2002315   -3.2477519   -1.7168101  0.076685923   -3.2477519    1.5309418   516323 
 7186000    1.1985685   -3.2461119   -1.7173919  0.082980831   -3.2461119      1.52872   516357 
 7187000    1.1988012   -3.2461459   -1.7171618  0.079300534   -3.2461459    1.5289842   516368 
 7188000    1.1994483   -3.2465341   -1.7167632  0.083397513   -3.2465341    1.5297709   516381 
 7189000    1.2003655   -3.2476196   -1.7166937  0.078212917   -3.2476196    1.5309259   516386 
 7190000    1.1987359   -3.2468695   -1.7179923  0.075477112   -3.2468695    1.5288772   516376 
 7191000    1.1994654   -3.2485942    -1.718834  0.078162787   -3.2485942    1.5297602   516392 
 7192000    1.1979608   -3.2460444   -1.7182712  0.077567677   -3.2460444    1.5277732   516415 
 7193000    1.1990518   -3.2473223   -1.7182316  0.080086676   -3.2473223    1.5290906   516440 
 7194000    1.1985784   -3.2461515   -1.7176557  0.080596589   -3.2461515    1.5284958   516437 
 7195000    1.1993943   -3.2465209   -1.7169847  0.081897695   -3.2465209    1.5295362   516437 
 7196000    1.1999678   -3.2472097   -1.7170755  0.084303207   -3.2472097    1.5301342   516482 
 7197000    1.2018787   -3.2494453   -1.7168149  0.083986087   -3.2494453    1.5326303   516462 
 7198000    1.2010527   -3.2478566   -1.7163656  0.083337031   -3.2478566     1.531491   516491 
 7199000    1.2012803   -3.2479923   -1.7162823  0.082778538   -3.2479923      1.53171   516515 
 7200000     1.200762   -3.2463888   -1.7153426  0.079953837   -3.2463888    1.5310462   516516 
 7201000    1.2015636    -3.247966   -1.7160252  0.084138889    -3.247966    1.5319407   516559 
 7202000    1.2005152   -3.2464303   -1.7158974  0.083008047   -3.2464303    1.5305329   516583 
 7203000    1.2017678   -3.2476003   -1.7154556  0.087429098   -3.2476003    1.5321447   516578 
 7204000    1.2015198   -3.2487353   -1.7169275  0.081157251   -3.2487353    1.5318077   516585 
 7205000    1.1994598   -3.2456919   -1.7166703  0.087494349   -3.2456919    1.5290216   516639 
 7206000    1.2019342   -3.2492872   -1.7172032  0.085295195   -3.2492872     1.532084   516670 
 7207000    1.2030519   -3.2492227   -1.7158149  0.085067961   -3.2492227    1.5334078   516704 
 7208000    1.2007524   -3.2475291   -1.7171293  0.084358776   -3.2475291    1.5303998   516730 
 7209000    1.2002469    -3.246204   -1.7164187  0.090928868    -3.246204    1.5297852   516720 
 7210000    1.2007664   -3.2465798   -1.7161354  0.082933961   -3.2465798    1.5304443   516721 
 7211000    1.2016918   -3.2480618   -1.7164706  0.089493676   -3.2480618    1.5315912   516732 
 7212000    1.2017559   -3.2490579   -1.7173583  0.076009515   -3.2490579    1.5316996   516723 
 7213000    1.2016526   -3.2489767   -1.7174502  0.085324221   -3.2489767    1.5315265   516737 
 7214000    1.2006032   -3.2481264   -1.7179938  0.080865664   -3.2481264    1.5301327   516756 
 7215000    1.2012263   -3.2486409   -1.7178029  0.081664653   -3.2486409     1.530838   516786 
 7216000    1.1997355   -3.2471866   -1.7183402   0.08341849   -3.2471866    1.5288464   516817 
 7217000    1.2013293   -3.2493838   -1.7185597  0.083759836   -3.2493838    1.5308241   516835 
 7218000    1.2009556   -3.2497916   -1.7195355  0.081617527   -3.2497916    1.5302561   516866 
 7219000    1.2019498   -3.2501651   -1.7186807  0.087419382   -3.2501651    1.5314844   516879 
 7220000     1.202253   -3.2516666   -1.7198403     0.081825   -3.2516666    1.5318263   516894 
 7221000    1.2012816   -3.2504503   -1.7199358  0.083273181   -3.2504503    1.5305145   516919 
 7222000    1.2018315   -3.2516487   -1.7204869  0.082880096   -3.2516487    1.5311619   516937 
 7223000     1.201245   -3.2513311   -1.7209579  0.083689206   -3.2513311    1.5303731   516951 
 7224000    1.2022615    -3.251376   -1.7197819  0.082919066    -3.251376    1.5315941   516976 
 7225000    1.2021672   -3.2515312   -1.7201343  0.083147128   -3.2515312    1.5313969   517002 
 7226000    1.2030626   -3.2523093    -1.719825  0.085431604   -3.2523093    1.5324843   517020 
 7227000    1.2052878   -3.2546892   -1.7194032  0.087012405   -3.2546892     1.535286   517031 
 7228000    1.2029102   -3.2534488   -1.7212268  0.085476084   -3.2534488    1.5322219   517043 
 7229000    1.2006598   -3.2498672   -1.7204556     0.083144   -3.2498672    1.5294116   517024 
 7230000      1.20236   -3.2514398   -1.7199186  0.088885505   -3.2514398    1.5315212   517043 
 7231000     1.204354   -3.2543943   -1.7204164  0.079757476   -3.2543943    1.5339779   517071 
 7232000    1.2007724   -3.2494047   -1.7199975  0.084107142   -3.2494047    1.5294072   517074 
 7233000    1.2014661   -3.2507426   -1.7205525  0.084731237   -3.2507426    1.5301902   517108 
 7234000    1.2013494    -3.251606   -1.7215882  0.079783747    -3.251606    1.5300178   517116 
 7235000    1.2030057   -3.2535713   -1.7215152  0.081637312   -3.2535713    1.5320561   517140 
 7236000    1.2029317   -3.2517636    -1.719852  0.087644906   -3.2517636    1.5319116   517157 
 7237000    1.2041883   -3.2534279   -1.7199635  0.084571568   -3.2534279    1.5334644   517173 
 7238000    1.2031079   -3.2522713   -1.7203338  0.080540846   -3.2522713    1.5319375   517224 
 7239000    1.2021522   -3.2507955   -1.7201282  0.087803343   -3.2507955    1.5306673   517242 
 7240000    1.2011999   -3.2498882   -1.7205192  0.080683281   -3.2498882    1.5293691   517271 
 7241000    1.2028394   -3.2516049   -1.7202196  0.083333863   -3.2516049    1.5313853   517295 
 7242000    1.2027561   -3.2521014   -1.7208664  0.080612474   -3.2521014     1.531235   517310 
 7243000    1.2020436   -3.2506994   -1.7203508  0.082762071   -3.2506994    1.5303486   517303 
 7244000    1.2029471   -3.2518367   -1.7204475  0.085172053   -3.2518367    1.5313892   517340 
 7245000    1.2032125   -3.2507609   -1.7190781  0.083146844   -3.2507609    1.5316828   517355 
 7246000    1.2002815   -3.2488448   -1.7209935  0.079709553   -3.2488448    1.5278512   517389 
 7247000    1.2037422   -3.2519781   -1.7197158  0.082563466   -3.2519781    1.5322622   517387 
 7248000    1.2020522   -3.2498165    -1.719732  0.085470565   -3.2498165    1.5300845   517396 
 7249000    1.2025536   -3.2500156   -1.7194172  0.082121812   -3.2500156    1.5305984   517438 
 7250000    1.2027949   -3.2509075   -1.7200167  0.086299797   -3.2509075    1.5308908   517443 
 7251000    1.2016859   -3.2492721   -1.7198254  0.079119648   -3.2492721    1.5294467   517454 
 7252000    1.2015384   -3.2488338   -1.7195747  0.082863374   -3.2488338     1.529259   517454 
 7253000    1.2028343   -3.2499711    -1.719116  0.085032205   -3.2499711    1.5308551   517472 
 7254000    1.2019472   -3.2500374   -1.7203409  0.080057619   -3.2500374    1.5296965   517482 
 7255000     1.201632   -3.2491069   -1.7198736   0.08836796   -3.2491069    1.5292334   517503 
 7256000     1.203935   -3.2504002   -1.7182922  0.079256929   -3.2504002    1.5321079   517522 
 7257000    1.2035458   -3.2507377   -1.7191488  0.079052466   -3.2507377     1.531589   517530 
 7258000    1.2015931   -3.2484915   -1.7195116  0.087700092   -3.2484915    1.5289799   517572 
 7259000    1.2028907   -3.2494398   -1.7189359  0.082822422   -3.2494398    1.5305039   517615 
 7260000    1.2025241   -3.2503224   -1.7203677   0.08087672   -3.2503224    1.5299547   517643 
 7261000    1.2025921    -3.249857   -1.7199606  0.080550261    -3.249857    1.5298964   517692 
 7262000    1.2037865   -3.2498094   -1.7184467  0.080902654   -3.2498094    1.5313627   517710 
 7263000    1.2031213   -3.2492629   -1.7188292  0.082450993   -3.2492629    1.5304337   517738 
 7264000    1.2037034    -3.249611   -1.7185108  0.082129415    -3.249611    1.5311002   517763 
 7265000    1.2044192   -3.2511956   -1.7191345  0.079650209   -3.2511956     1.532061   517746 
 7266000    1.2041991   -3.2505198   -1.7187476  0.085373636   -3.2505198    1.5317722   517749 
 7267000    1.2048215   -3.2498408   -1.7173154  0.082098252   -3.2498408    1.5325254   517762 
 7268000    1.2032762   -3.2488123   -1.7181816  0.089419178   -3.2488123    1.5306307   517738 
 7269000    1.2051321   -3.2515887   -1.7185705  0.086814468   -3.2515887    1.5330182   517729 
 7270000    1.2051171   -3.2521417   -1.7191722  0.084897492   -3.2521417    1.5329695   517739 
 7271000    1.2038176   -3.2515447   -1.7202963  0.087726214   -3.2515447    1.5312484   517762 
 7272000    1.2051923   -3.2519345   -1.7189849  0.078997914   -3.2519345    1.5329496   517778 
 7273000    1.2049541   -3.2515764   -1.7189445   0.08645297   -3.2515764    1.5326319   517783 
 7274000    1.2059185   -3.2527001   -1.7187942  0.081498479   -3.2527001    1.5339059   517767 
 7275000    1.2040373   -3.2508882   -1.7193278  0.090846558   -3.2508882    1.5315604   517751 
 7276000    1.2050085   -3.2496648   -1.7169637  0.087112658   -3.2496648    1.5327011   517783 
 7277000    1.2042347   -3.2506387   -1.7189307  0.079765199   -3.2506387     1.531708   517786 
 7278000    1.2036788   -3.2502113   -1.7192104  0.085101054   -3.2502113    1.5310009   517786 
 7279000    1.2044506    -3.251826   -1.7199026  0.083353739    -3.251826    1.5319234   517806 
 7280000     1.202544   -3.2494231   -1.7200399  0.087428472   -3.2494231    1.5293832   517845 
 7281000    1.2041189   -3.2522332   -1.7209476  0.079627183   -3.2522332    1.5312856   517879 
 7282000    1.2030497   -3.2502467   -1.7203148  0.082306073   -3.2502467    1.5299319   517877 
 7283000    1.2028377   -3.2494778   -1.7198688  0.080892868   -3.2494778    1.5296091   517895 
 7284000    1.2027423   -3.2492085   -1.7198242  0.081920013   -3.2492085    1.5293843   517930 
 7285000    1.2040199   -3.2513401   -1.7203341  0.080183602   -3.2513401     1.531006   517931 
 7286000    1.2014422   -3.2485144   -1.7208304  0.078694838   -3.2485144     1.527684   517946 
 7287000    1.2030679   -3.2503572   -1.7207153  0.082860128   -3.2503572    1.5296419   517983 
 7288000    1.2024518   -3.2496925    -1.720896  0.084185884   -3.2496925    1.5287965   518004 
 7289000    1.2020267   -3.2491756   -1.7208576  0.081360334   -3.2491756     1.528318   517983 
 7290000    1.2017397   -3.2494443   -1.7213968  0.082210277   -3.2494443    1.5280475   517951 
 7291000    1.2016111   -3.2482307   -1.7204676  0.081672592   -3.2482307    1.5277631   517992 
 7292000    1.2014021   -3.2475106   -1.7200723   0.08474219   -3.2475106    1.5274384   518012 
 7293000    1.2020182    -3.249417   -1.7211687  0.082165499    -3.249417    1.5282483   518003 
 7294000    1.2024673   -3.2494501   -1.7206546  0.081064828   -3.2494501    1.5287956   518011 
 7295000    1.2026092   -3.2501199   -1.7211498  0.079695883   -3.2501199    1.5289701   518013 
 7296000    1.2037074    -3.250445   -1.7202086  0.082267974    -3.250445    1.5302364   518057 
 7297000    1.2025523   -3.2496318    -1.720802  0.085497909   -3.2496318    1.5288298   518036 
 7298000    1.2028675    -3.250013    -1.720744  0.078919297    -3.250013     1.529269   518023 
 7299000    1.2042674   -3.2499749   -1.7190355  0.081599348   -3.2499749    1.5309394   518060 
 7300000    1.2029024   -3.2486032   -1.7195113  0.081591338   -3.2486032    1.5290919   518098 
 7301000    1.2044734   -3.2506768    -1.719706   0.08608793   -3.2506768    1.5309708   518138 
 7302000    1.2033869   -3.2494949   -1.7198962  0.084274618   -3.2494949    1.5295986   518135 
 7303000    1.2051462   -3.2514677   -1.7196565  0.081069507   -3.2514677    1.5318112   518143 
 7304000    1.2048581    -3.249987   -1.7185982  0.090642559    -3.249987    1.5313889   518162 
 7305000    1.2045892   -3.2504407   -1.7194882  0.082649985   -3.2504407    1.5309525   518194 
 7306000    1.2044951   -3.2497805   -1.7189209  0.081372407   -3.2497805    1.5308595   518185 
 7307000    1.2043324   -3.2498411   -1.7191677  0.079764566   -3.2498411    1.5306734   518178 
 7308000    1.2037321   -3.2519574   -1.7220351  0.082232096   -3.2519574    1.5299223   518174 
 7309000    1.2039769   -3.2519362   -1.7217235  0.085052697   -3.2519362    1.5302127   518181 
 7310000    1.2038566   -3.2509106   -1.7208183  0.086418783   -3.2509106    1.5300922   518170 
 7311000    1.2041289   -3.2527515   -1.7223899  0.074908632   -3.2527515    1.5303616   518196 
 7312000    1.2038712   -3.2517927   -1.7218532  0.084909399   -3.2517927    1.5299395   518228 
 7313000      1.20426   -3.2523062   -1.7218726  0.080209916   -3.2523062    1.5304336   518228 
 7314000    1.2016742   -3.2497947   -1.7226442  0.086469858   -3.2497947    1.5271505   518227 
 7315000    1.2041455   -3.2516982   -1.7214189   0.07740132   -3.2516982    1.5302794   518231 
 7316000    1.2041176   -3.2512882   -1.7211004   0.08055903   -3.2512882    1.5301878   518250 
 7317000    1.2043095   -3.2503154   -1.7199754  0.079576969   -3.2503154      1.53034   518281 
 7318000    1.2046324     -3.25197   -1.7212107  0.080328417     -3.25197    1.5307593   518278 
 7319000    1.2018414   -3.2484936   -1.7213192  0.081847826   -3.2484936    1.5271744   518291 
 7320000     1.204026   -3.2507785   -1.7209049  0.082593691   -3.2507785    1.5298736   518317 
 7321000    1.2041531   -3.2506084   -1.7204996  0.087790482   -3.2506084    1.5301089   518292 
 7322000    1.2036041   -3.2506523   -1.7212676  0.078896859   -3.2506523    1.5293847   518301 
 7323000    1.2053675   -3.2509113   -1.7193272  0.079618928   -3.2509113    1.5315841   518315 
 7324000    1.2036413   -3.2513841   -1.7219845  0.080651519   -3.2513841    1.5293996   518312 
 7325000    1.2036772    -3.251232   -1.7219227  0.079111076    -3.251232    1.5293094   518358 
 7326000    1.2032378     -3.24891    -1.720203   0.08106997     -3.24891    1.5287069   518373 
 7327000    1.2040982   -3.2512275   -1.7213802  0.080378376   -3.2512275    1.5298473   518357 
 7328000    1.2034749   -3.2511554   -1.7221679  0.079841734   -3.2511554    1.5289875   518380 
 7329000    1.2038136   -3.2508566   -1.7214506  0.082391988   -3.2508566     1.529406   518384 
 7330000    1.2037136   -3.2507758    -1.721488  0.080540046   -3.2507758    1.5292878   518381 
 7331000    1.2032783   -3.2503484   -1.7215223  0.081874698   -3.2503484    1.5288262   518350 
 7332000    1.2047986   -3.2510322   -1.7203748  0.081765854   -3.2510322    1.5306574   518384 
 7333000    1.2036633   -3.2499024   -1.7207787  0.085868824   -3.2499024    1.5291236   518415 
 7334000    1.2036577   -3.2497635   -1.7206116  0.083360256   -3.2497635    1.5291519   518403 
 7335000    1.2039757   -3.2508524    -1.721388  0.078855702   -3.2508524    1.5294644   518434 
 7336000    1.2030858   -3.2503905   -1.7221038  0.082785578   -3.2503905    1.5282867   518450 
 7337000    1.2025186   -3.2516089   -1.7241428  0.076562073   -3.2516089    1.5274661   518484 
 7338000    1.2032963   -3.2490649   -1.7206906  0.085920395   -3.2490649    1.5283743   518511 
 7339000    1.2023933   -3.2492302   -1.7220028  0.084645011   -3.2492302    1.5272275   518511 
 7340000    1.2028751    -3.249868   -1.7220669  0.081264797    -3.249868    1.5278011   518524 
 7341000    1.2042957   -3.2512648   -1.7218157  0.086014254   -3.2512648    1.5294491   518577 
 7342000    1.2030916   -3.2502416   -1.7224219  0.081925958   -3.2502416    1.5278197   518611 
 7343000    1.2041824   -3.2503944    -1.721219  0.082511553   -3.2503944    1.5291755   518621 
 7344000     1.205356   -3.2523327   -1.7217467  0.082770931   -3.2523327    1.5305861   518648 
 7345000    1.2055649   -3.2519245   -1.7211085  0.079086536   -3.2519245     1.530816   518660 
 7346000    1.2039247   -3.2500665   -1.7214423   0.07948389   -3.2500665    1.5286242   518697 
 7347000    1.2043572   -3.2516581   -1.7225172  0.077147234   -3.2516581    1.5291409   518708 
 7348000    1.2048461   -3.2513515   -1.7214984  0.080204457   -3.2513515    1.5298531   518677 
 7349000    1.2052809   -3.2510524   -1.7205971  0.083123753   -3.2510524    1.5304553   518660 
 7350000    1.2048088   -3.2504859    -1.720689  0.080286086   -3.2504859    1.5297969   518680 
 7351000     1.204568   -3.2509504   -1.7215213  0.084897714   -3.2509504    1.5294292   518701 
 7352000    1.2052105   -3.2508674   -1.7206608  0.083836652   -3.2508674    1.5302066   518714 
 7353000    1.2072441   -3.2517314   -1.7190108  0.082895139   -3.2517314    1.5327206   518737 
 7354000    1.2054936    -3.250816    -1.720306  0.081961328    -3.250816      1.53051   518733 
 7355000    1.2061826   -3.2515869    -1.720149  0.079711998   -3.2515869    1.5314379   518715 
 7356000    1.2043918   -3.2507856   -1.7217364  0.075905252   -3.2507856    1.5290492   518754 
 7357000    1.2021692   -3.2482137    -1.721945  0.083836669   -3.2482137    1.5262686   518740 
 7358000    1.2037282   -3.2513001   -1.7231051  0.082161194   -3.2513001     1.528195   518758 
 7359000    1.2037448    -3.251918   -1.7237933  0.077377045    -3.251918    1.5281247   518789 
 7360000    1.2034878   -3.2515911   -1.7237838  0.085656233   -3.2515911    1.5278073   518786 
 7361000    1.2042893   -3.2525285   -1.7237214  0.079449109   -3.2525285    1.5288071   518792 
 7362000     1.204496   -3.2533743   -1.7243637   0.07706397   -3.2533743    1.5290106   518812 
 7363000     1.202558   -3.2504327   -1.7238676  0.078589403   -3.2504327    1.5265651   518807 
 7364000    1.2022436    -3.249515   -1.7234666  0.087628021    -3.249515    1.5260483   518847 
 7365000    1.2024293   -3.2501267   -1.7239015  0.082964656   -3.2501267    1.5262252   518867 
 7366000     1.203815   -3.2508022   -1.7228565  0.077253236   -3.2508022    1.5279458   518880 
 7367000    1.2044939   -3.2506088   -1.7218573  0.086106562   -3.2506088    1.5287516   518899 
 7368000    1.2045572   -3.2515492   -1.7227645  0.087728986   -3.2515492    1.5287847   518915 
 7369000    1.2055717   -3.2528098   -1.7228731  0.082106154   -3.2528098    1.5299367   518961 
 7370000    1.2072275   -3.2547032   -1.7226711  0.088712585   -3.2547032    1.5320321   518963 
 7371000    1.2053816   -3.2509253   -1.7212476  0.081117657   -3.2509253    1.5296777   518967 
 7372000    1.2060959   -3.2526536   -1.7220664  0.081983268   -3.2526536    1.5305871   518966 
 7373000    1.2077993   -3.2549147   -1.7222338  0.082655964   -3.2549147    1.5326809   518989 
 7374000      1.20592    -3.252459   -1.7222129  0.083209395    -3.252459     1.530246   519006 
 7375000    1.2049169   -3.2512482   -1.7223516  0.083144723   -3.2512482    1.5288965   519032 
 7376000    1.2072807   -3.2541063     -1.72224  0.083774851   -3.2541063    1.5318663   519042 
 7377000    1.2056696   -3.2525013   -1.7226173  0.084288483   -3.2525013     1.529884   519021 
 7378000    1.2053184   -3.2517294   -1.7222969  0.083406545   -3.2517294    1.5294325   519023 
 7379000    1.2074844   -3.2543605   -1.7223301  0.088178772   -3.2543605    1.5320304   519074 
 7380000      1.20797    -3.254141    -1.721589  0.082150787    -3.254141     1.532552   519106 
 7381000    1.2080382   -3.2538972   -1.7212793  0.081548011   -3.2538972     1.532618   519113 
 7382000    1.2078011   -3.2554315   -1.7230849  0.080868143   -3.2554315    1.5323466   519103 
 7383000    1.2062049   -3.2539379   -1.7235722   0.07808187   -3.2539379    1.5303658   519088 
 7384000    1.2052382   -3.2536176   -1.7243693  0.084575595   -3.2536176    1.5292483   519051 
 7385000    1.2048589   -3.2533546   -1.7246496  0.084580132   -3.2533546    1.5287051   519072 
 7386000    1.2062504   -3.2549115   -1.7244703  0.082724749   -3.2549115    1.5304412   519082 
 7387000    1.2053122   -3.2541384     -1.72487  0.077942934   -3.2541384    1.5292684   519076 
 7388000    1.2047002   -3.2537333   -1.7251824  0.081488598   -3.2537333    1.5285509   519056 
 7389000    1.2067564   -3.2556067   -1.7244823  0.080276782   -3.2556067    1.5311244   519068 
 7390000    1.2054113    -3.254313   -1.7249218  0.081247404    -3.254313    1.5293912   519077 
 7391000    1.2067447   -3.2547968   -1.7238051  0.075817476   -3.2547968    1.5309916   519108 
 7392000    1.2048327   -3.2520566   -1.7235555   0.08211319   -3.2520566    1.5285011   519130 
 7393000    1.2054634   -3.2525303    -1.723344  0.082133997   -3.2525303    1.5291863   519169 
 7394000    1.2048769   -3.2525968   -1.7241398  0.088078193   -3.2525968     1.528457   519164 
 7395000    1.2049928   -3.2525342   -1.7240156  0.078157044   -3.2525342    1.5285187   519193 
 7396000    1.2045843   -3.2520444   -1.7239703  0.080877646   -3.2520444    1.5280741   519168 
 7397000    1.2055546   -3.2535071   -1.7241491  0.078502339   -3.2535071     1.529358   519150 
 7398000    1.2058058   -3.2541894   -1.7245687  0.078815441   -3.2541894    1.5296207   519169 
 7399000    1.2051439   -3.2545426   -1.7258175  0.084270689   -3.2545426    1.5287251   519188 
 7400000    1.2055491   -3.2544858   -1.7252968  0.082214682   -3.2544858     1.529189   519205 
 7401000    1.2043246   -3.2521583   -1.7245961  0.085160477   -3.2521583    1.5275622   519230 
 7402000    1.2060289   -3.2538825   -1.7241997  0.079985239   -3.2538825    1.5296828   519244 
 7403000    1.2059987   -3.2547087   -1.7252057  0.081399378   -3.2547087    1.5295031   519292 
 7404000    1.2052739   -3.2534994   -1.7249597  0.083591292   -3.2534994    1.5285397   519307 
 7405000    1.2059558   -3.2543028   -1.7249632  0.082672676   -3.2543028    1.5293396   519329 
 7406000    1.2043078   -3.2525548   -1.7254197  0.085151409   -3.2525548     1.527135   519368 
 7407000    1.2058886   -3.2537603   -1.7247237  0.080132608   -3.2537603    1.5290366   519403 
 7408000    1.2065099   -3.2534379   -1.7236813  0.084065671   -3.2534379    1.5297566   519426 
 7409000    1.2049587   -3.2515885   -1.7238251   0.08074471   -3.2515885    1.5277634   519435 
 7410000    1.2079777   -3.2553717   -1.7239339   0.08064969   -3.2553717    1.5314378   519487 
 7411000     1.206578   -3.2541438   -1.7244835  0.085850938   -3.2541438    1.5296603   519488 
 7412000    1.2084197   -3.2559888   -1.7240349  0.087068644   -3.2559888    1.5319539   519502 
 7413000    1.2074462   -3.2554141   -1.7247061  0.081664464   -3.2554141    1.5307079   519506 
 7414000    1.2091096   -3.2587829   -1.7259513  0.080076909   -3.2587829    1.5328315   519501 
 7415000    1.2049873   -3.2533776   -1.7257927  0.083359965   -3.2533776    1.5275849   519508 
 7416000     1.204805   -3.2540821   -1.7267783  0.083472811   -3.2540821    1.5273039   519525 
 7417000    1.2070543    -3.255457   -1.7253223  0.081512091    -3.255457    1.5301346   519532 
 7418000     1.205482    -3.253887    -1.725822  0.081545651    -3.253887     1.528065   519558 
 7419000    1.2058665   -3.2534933   -1.7249586  0.083595493   -3.2534933    1.5285348   519564 
 7420000     1.204781   -3.2519183   -1.7247419  0.085580736   -3.2519183    1.5271764   519558 
 7421000    1.2040754   -3.2522853   -1.7260151   0.08214554   -3.2522853    1.5262702   519562 
 7422000     1.204138   -3.2525478   -1.7263246  0.080358538   -3.2525478    1.5262232   519605 
 7423000    1.2046724   -3.2537221   -1.7269244  0.079125202   -3.2537221    1.5267978   519640 
 7424000    1.2051136   -3.2546456   -1.7273092  0.077407365   -3.2546456    1.5273363   519647 
 7425000    1.2078324   -3.2576691   -1.7270166  0.077821681   -3.2576691    1.5306526   519691 
 7426000    1.2053239   -3.2552778   -1.7278395  0.080578546   -3.2552778    1.5274383   519703 
 7427000     1.205578   -3.2547727   -1.7271094  0.082001556   -3.2547727    1.5276633   519736 
 7428000    1.2060511   -3.2557841   -1.7275831  0.076890728   -3.2557841     1.528201   519757 
 7429000    1.2081848   -3.2571527   -1.7262833   0.07578323   -3.2571527    1.5308694   519769 
 7430000    1.2073892   -3.2560061   -1.7261508  0.080329602   -3.2560061    1.5298553   519771 
 7431000    1.2074148   -3.2559734   -1.7261238  0.084687804   -3.2559734    1.5298496   519784 
 7432000    1.2064956   -3.2538726    -1.725176  0.080704964   -3.2538726    1.5286966   519780 
 7433000    1.2074115   -3.2542826   -1.7245079  0.085408528   -3.2542826    1.5297747   519808 
 7434000    1.2066936   -3.2538469   -1.7249288  0.079549684   -3.2538469    1.5289181   519790 
 7435000    1.2070351   -3.2539646   -1.7247138   0.08449908   -3.2539646    1.5292507   519824 
 7436000    1.2093532   -3.2566609   -1.7244291  0.081339754   -3.2566609    1.5322319   519809 
 7437000    1.2093882   -3.2564412   -1.7243359  0.082320022   -3.2564412    1.5321053   519867 
 7438000    1.2084906   -3.2544393     -1.72348  0.082812386   -3.2544393    1.5309593   519870 
 7439000     1.210595   -3.2564384   -1.7228928  0.082568178   -3.2564384    1.5335456   519897 
 7440000    1.2109728    -3.256062   -1.7220584  0.080857131    -3.256062    1.5340036   519904 
 7441000    1.2106363   -3.2556182   -1.7220705  0.081098689   -3.2556182    1.5335478   519914 
 7442000    1.2096261   -3.2552504   -1.7230147   0.08589945   -3.2552504    1.5322357   519925 
 7443000    1.2103853    -3.255119   -1.7219924  0.082250025    -3.255119    1.5331266   519949 
 7444000    1.2115058    -3.255651   -1.7210874  0.086757825    -3.255651    1.5345636   519943 
 7445000    1.2085618   -3.2536381   -1.7227182  0.084383899   -3.2536381    1.5309199   519914 
 7446000    1.2088672   -3.2532842   -1.7220805  0.084276183   -3.2532842    1.5312037   519949 
 7447000    1.2094178   -3.2540414   -1.7221992  0.084274565   -3.2540414    1.5318422   519969 
 7448000    1.2088183   -3.2531594   -1.7222149  0.084688486   -3.2531594    1.5309446   520016 
 7449000     1.209218   -3.2541613   -1.7226369  0.085596677   -3.2541613    1.5315244   519991 
 7450000    1.2097982   -3.2555607   -1.7233575  0.081254951   -3.2555607    1.5322033   520010 
 7451000    1.2082931    -3.254095   -1.7238539  0.086427968    -3.254095    1.5302411   520029 
 7452000    1.2075141   -3.2527751    -1.723547  0.081804715   -3.2527751    1.5292281   520038 
 7453000    1.2068772   -3.2525544   -1.7241799  0.079994583   -3.2525544    1.5283744   520054 
 7454000    1.2073951   -3.2532683   -1.7241997  0.080095538   -3.2532683    1.5290685   520041 
 7455000      1.20749   -3.2539182   -1.7246912  0.082119598   -3.2539182     1.529227   520028 
 7456000    1.2078709   -3.2526007   -1.7228148  0.082196307   -3.2526007    1.5297859   520002 
 7457000    1.2075525    -3.252213    -1.722804  0.082054713    -3.252213     1.529409   519993 
 7458000    1.2070026   -3.2522907   -1.7236163  0.085449127   -3.2522907    1.5286744   520006 
 7459000    1.2072153   -3.2526299   -1.7237186   0.08796624   -3.2526299    1.5289114   520017 
 7460000    1.2066089   -3.2519331   -1.7238513  0.081624217   -3.2519331    1.5280818   520038 
 7461000    1.2087077   -3.2549115   -1.7242572  0.081135354   -3.2549115    1.5306543   520067 
 7462000    1.2073165   -3.2533582   -1.7244833  0.084493318   -3.2533582    1.5288749   520073 
 7463000    1.2081146   -3.2544797   -1.7246823  0.077582808   -3.2544797    1.5297973   520103 
 7464000    1.2074922   -3.2536819   -1.7247491  0.082196321   -3.2536819    1.5289328   520129 
 7465000    1.2078028   -3.2538464   -1.7245145  0.079894919   -3.2538464    1.5293319   520127 
 7466000    1.2081228    -3.254843   -1.7251675  0.074240062    -3.254843    1.5296754   520148 
 7467000     1.205914   -3.2528105   -1.7259347  0.088168747   -3.2528105    1.5268758   520149 
 7468000     1.206531   -3.2530233   -1.7253839  0.086567322   -3.2530233    1.5276393   520155 
 7469000    1.2072876   -3.2538429   -1.7253014  0.078729038   -3.2538429    1.5285415   520174 
 7470000    1.2071531   -3.2533022   -1.7249928  0.080392708   -3.2533022    1.5283095   520195 
 7471000    1.2057638   -3.2521118   -1.7255172  0.080426102   -3.2521118    1.5265946   520180 
 7472000    1.2083857   -3.2546226   -1.7247026  0.079995216   -3.2546226    1.5299201   520178 
 7473000    1.2059488   -3.2540714   -1.7271574  0.077887396   -3.2540714     1.526914   520151 
 7474000    1.2070565   -3.2541368   -1.7258262  0.077611809   -3.2541368    1.5283106   520153 
 7475000    1.2080001   -3.2540026   -1.7245443  0.081070756   -3.2540026    1.5294582   520169 
 7476000    1.2083693   -3.2545193   -1.7246965  0.080838477   -3.2545193    1.5298228   520204 
 7477000       1.2077   -3.2546089   -1.7257569  0.081077713   -3.2546089     1.528852   520246 
 7478000    1.2090082   -3.2551911   -1.7247507  0.077970727   -3.2551911    1.5304404   520269 
 7479000    1.2075422   -3.2538712   -1.7252571  0.087231933   -3.2538712    1.5286141   520259 
 7480000    1.2097351   -3.2567058   -1.7254128  0.085105364   -3.2567058    1.5312929   520292 
 7481000    1.2095245   -3.2564848    -1.725429  0.085814907   -3.2564848    1.5310558   520282 
 7482000    1.2092147   -3.2567848   -1.7261565  0.086636887   -3.2567848    1.5306283   520294 
 7483000    1.2078345   -3.2555572   -1.7268493  0.082936302   -3.2555572    1.5287078   520353 
 7484000    1.2080077   -3.2555145   -1.7266462  0.081479303   -3.2555145    1.5288683   520373 
 7485000    1.2088246   -3.2570764   -1.7270948  0.083602549   -3.2570764    1.5299816   520346 
 7486000    1.2085532   -3.2565451   -1.7269306  0.082116284   -3.2565451    1.5296145   520354 
 7487000    1.2079737   -3.2554925   -1.7266732  0.080969996   -3.2554925    1.5288193   520375 
 7488000    1.2089048    -3.256502    -1.726513  0.080861739    -3.256502     1.529989   520378 
 7489000    1.2071066   -3.2559794    -1.728325  0.086943265   -3.2559794    1.5276544   520398 
 7490000    1.2078475   -3.2563862   -1.7279321  0.080754256   -3.2563862    1.5284541   520445 
 7491000    1.2068142   -3.2560228   -1.7288968  0.079432237   -3.2560228    1.5271259   520452 
 7492000     1.207468    -3.257493   -1.7295456  0.082171724    -3.257493    1.5279474   520454 
 7493000    1.2091581   -3.2597555    -1.729787  0.080053062   -3.2597555    1.5299686   520494 
 7494000    1.2084425   -3.2590644   -1.7300072  0.082140263   -3.2590644    1.5290572   520496 
 7495000    1.2072839   -3.2571356   -1.7296589  0.083159582   -3.2571356    1.5274767   520535 
 7496000    1.2074572   -3.2566743   -1.7290722   0.08477992   -3.2566743    1.5276021   520567 
 7497000    1.2084312   -3.2575115   -1.7288005  0.079813979   -3.2575115     1.528711   520609 
 7498000    1.2116425   -3.2607699   -1.7279847  0.079976099   -3.2607699    1.5327852   520605 
 7499000    1.2099141   -3.2583789   -1.7278538  0.077836781   -3.2583789    1.5305251   520630 
 7500000    1.2090882   -3.2586818   -1.7293012  0.077545276   -3.2586818    1.5293805   520664 
 7501000    1.2094228    -3.259234   -1.7293832  0.087624415    -3.259234    1.5298508   520648 
 7502000    1.2103225   -3.2597708   -1.7288614  0.083983746   -3.2597708    1.5309094   520675 
 7503000    1.2104733   -3.2590926    -1.728007  0.081005079   -3.2590926    1.5310856   520680 
 7504000    1.2116156   -3.2608669   -1.7284101  0.081661263   -3.2608669    1.5324568   520705 
 7505000    1.2108534   -3.2603147    -1.728822  0.082407361   -3.2603147    1.5314928   520705 
 7506000    1.2094477   -3.2592808   -1.7296189  0.082562478   -3.2592808    1.5296619   520723 
 7507000    1.2099184   -3.2599723    -1.729812  0.076633511   -3.2599723    1.5301603   520756 
 7508000    1.2103029   -3.2609282   -1.7303816  0.082694931   -3.2609282    1.5305466   520790 
 7509000    1.2098866   -3.2608068   -1.7308307  0.082832541   -3.2608068    1.5299761   520805 
 7510000    1.2101226   -3.2616487     -1.73138  0.081529524   -3.2616487    1.5302686   520807 
 7511000    1.2117709   -3.2607245   -1.7285185  0.087965884   -3.2607245     1.532206   520857 
 7512000    1.2112993   -3.2604963   -1.7288984  0.087423018   -3.2604963    1.5315979   520861 
 7513000    1.2100982   -3.2604348   -1.7303027  0.083171965   -3.2604348    1.5301321   520843 
 7514000    1.2083385   -3.2582633    -1.730374  0.081819795   -3.2582633    1.5278894   520849 
 7515000    1.2109713   -3.2598916   -1.7286232  0.082319089   -3.2598916    1.5312684   520832 
 7516000    1.2101129   -3.2587984   -1.7286273  0.085161179   -3.2587984    1.5301712   520836 
 7517000    1.2101081   -3.2601672   -1.7300814  0.079026737   -3.2601672    1.5300858   520863 
 7518000    1.2090789   -3.2587841   -1.7300642  0.082281606   -3.2587841    1.5287199   520885 
 7519000    1.2094479   -3.2591107   -1.7299624   0.08183045   -3.2591107    1.5291483   520898 
 7520000    1.2102581   -3.2596738   -1.7295452  0.082192281   -3.2596738    1.5301285   520913 
 7521000    1.2117199    -3.259732   -1.7278258  0.082024966    -3.259732    1.5319062   520937 
 7522000    1.2108041   -3.2595664   -1.7289003  0.082192237   -3.2595664    1.5306662   520965 
 7523000    1.2087343   -3.2577507   -1.7297246  0.078677568   -3.2577507    1.5280261   520973 
 7524000    1.2085987   -3.2574938   -1.7295893  0.082193869   -3.2574938    1.5279045   520956 
 7525000    1.2087058   -3.2568426   -1.7288408  0.083844002   -3.2568426    1.5280017   520969 
 7526000    1.2080356   -3.2560446   -1.7289781  0.088029323   -3.2560446    1.5270666   520999 
 7527000    1.2081856   -3.2553681   -1.7282408   0.07964259   -3.2553681    1.5271273   521043 
 7528000    1.2109273   -3.2587096   -1.7281787  0.080839648   -3.2587096     1.530531   521064 
 7529000    1.2097163   -3.2569053   -1.7278785  0.083999526   -3.2569053    1.5290268   521055 
 7530000    1.2098734   -3.2579551   -1.7287444  0.078897848   -3.2579551    1.5292106   521060 
 7531000    1.2081694   -3.2576198   -1.7306156  0.079688392   -3.2576198    1.5270042   521078 
 7532000    1.2074849   -3.2568489   -1.7307949  0.077488868   -3.2568489    1.5260541   521107 
 7533000    1.2077178   -3.2563842   -1.7301177  0.079356969   -3.2563842    1.5262665   521135 
 7534000    1.2092256    -3.256832    -1.728622  0.072513356    -3.256832      1.52821   521122 
 7535000    1.2104377   -3.2597085   -1.7299754   0.08060912   -3.2597085    1.5297331   521125 
 7536000     1.209745   -3.2575059     -1.72866  0.077183236   -3.2575059    1.5288459   521129 
 7537000    1.2091801   -3.2580795   -1.7299621  0.080304855   -3.2580795    1.5281174   521134 
 7538000    1.2090795   -3.2571792   -1.7291596  0.082511748   -3.2571792    1.5280196   521124 
 7539000    1.2112029   -3.2589736   -1.7282999  0.084532788   -3.2589736    1.5306737   521134 
 7540000    1.2120657   -3.2602867   -1.7285168  0.076152663   -3.2602867    1.5317699   521132 
 7541000    1.2118892   -3.2597464   -1.7281789  0.084551001   -3.2597464    1.5315675   521125 
 7542000    1.2117756   -3.2606758   -1.7292725  0.077524684   -3.2606758    1.5314033   521132 
 7543000    1.2120473     -3.26074   -1.7290579  0.087062012     -3.26074    1.5316821   521154 
 7544000    1.2127648   -3.2607787   -1.7282311  0.084366528   -3.2607787    1.5325476   521168 
 7545000    1.2113084   -3.2596236   -1.7289692  0.085545807   -3.2596236    1.5306544   521186 
 7546000    1.2117137   -3.2615223    -1.730303  0.083384637   -3.2615223    1.5312193   521168 
 7547000    1.2103981   -3.2591889   -1.7295763   0.08749261   -3.2591889    1.5296126   521149 
 7548000    1.2116635   -3.2614747   -1.7302806  0.082249118   -3.2614747    1.5311942   521155 
 7549000    1.2102519   -3.2610013   -1.7315911  0.083577619   -3.2610013    1.5294102   521155 
 7550000    1.2109031   -3.2625306   -1.7323826  0.079800527   -3.2625306     1.530148   521184 
 7551000     1.211532   -3.2620447   -1.7311754  0.078814072   -3.2620447    1.5308693   521209 
 7552000    1.2110341   -3.2614924   -1.7312904   0.08485333   -3.2614924    1.5302019   521222 
 7553000    1.2106919   -3.2605631   -1.7308845  0.084938517   -3.2605631    1.5296786   521253 
 7554000    1.2104633   -3.2610798    -1.731825  0.075584588   -3.2610798    1.5292548   521299 
 7555000    1.2085078   -3.2589435   -1.7321767  0.087801501   -3.2589435    1.5267668   521305 
 7556000    1.2097875    -3.259718   -1.7314343    0.0814926    -3.259718    1.5282837   521339 
 7557000    1.2108639   -3.2601725   -1.7304732  0.084171899   -3.2601725    1.5296993   521320 
 7558000    1.2094782   -3.2586416   -1.7306694   0.08368542   -3.2586416    1.5279722   521312 
 7559000    1.2086617   -3.2586639   -1.7317934  0.082763816   -3.2586639    1.5268705   521336 
 7560000    1.2078423   -3.2585258   -1.7327519  0.084113603   -3.2585258    1.5257739   521357 
 7561000    1.2101141   -3.2592763   -1.7306796  0.081987664   -3.2592763    1.5285966   521373 
 7562000    1.2104575   -3.2602838   -1.7311742    0.0776836   -3.2602838    1.5291096   521346 
 7563000    1.2115893   -3.2606553   -1.7301981  0.084783979   -3.2606553    1.5304572   521374 
 7564000    1.2122059   -3.2605804   -1.7294148  0.083331058   -3.2605804    1.5311656   521398 
 7565000    1.2117859   -3.2584915   -1.7279357   0.08362571   -3.2584915    1.5305558   521425 
 7566000    1.2108205   -3.2578605     -1.72853  0.080523544   -3.2578605    1.5293306   521427 
 7567000    1.2109975   -3.2573791   -1.7278865  0.081623715   -3.2573791    1.5294926   521448 
 7568000    1.2102378   -3.2573606    -1.728851   0.08511226   -3.2573606    1.5285096   521456 
 7569000     1.211089   -3.2583621   -1.7288917   0.07843001   -3.2583621    1.5294703   521495 
 7570000    1.2098625   -3.2569878   -1.7291397  0.078254267   -3.2569878    1.5278481   521520 
 7571000    1.2115082    -3.259414   -1.7294702   0.07648516    -3.259414    1.5299439   521514 
 7572000    1.2132685   -3.2606165   -1.7284525  0.084982666   -3.2606165     1.532164   521515 
 7573000    1.2105461   -3.2562242    -1.727586  0.084780344   -3.2562242    1.5286382   521545 
 7574000     1.210918   -3.2568119   -1.7277569  0.078148938   -3.2568119     1.529055   521563 
 7575000    1.2110386   -3.2567347   -1.7276008  0.084450447   -3.2567347    1.5291339   521588 
 7576000    1.2097036    -3.254865   -1.7274108  0.088744091    -3.254865    1.5274542   521586 
 7577000    1.2101747   -3.2558881   -1.7278479  0.079666895   -3.2558881    1.5280402   521589 
 7578000    1.2121067   -3.2574473   -1.7270645  0.076730682   -3.2574473    1.5303828   521622 
 7579000    1.2115285   -3.2573265   -1.7278261  0.082386919   -3.2573265    1.5295004   521674 
 7580000    1.2087345   -3.2547881   -1.7288676  0.084943408   -3.2547881    1.5259204   521692 
 7581000    1.2105269   -3.2572101   -1.7290123  0.078693678   -3.2572101    1.5281978   521687 
 7582000    1.2092729   -3.2564183   -1.7299207  0.073177502   -3.2564183    1.5264976   521727 
 7583000    1.2103078   -3.2579941   -1.7301666  0.085778509   -3.2579941    1.5278274   521719 
 7584000    1.2094607   -3.2554224   -1.7286526   0.07845442   -3.2554224    1.5267698   521715 
 7585000    1.2104939   -3.2575281   -1.7294833  0.080790463   -3.2575281    1.5280448   521725 
 7586000      1.21085   -3.2580881   -1.7296378  0.078531527   -3.2580881    1.5284504   521740 
 7587000    1.2123753   -3.2580568   -1.7278159   0.07687973   -3.2580568    1.5302409   521786 
 7588000    1.2108604   -3.2578264   -1.7295357  0.085675956   -3.2578264    1.5282907   521799 
 7589000    1.2122433   -3.2590313   -1.7290626  0.084064853   -3.2590313    1.5299687   521822 
 7590000    1.2118155   -3.2586859   -1.7292834   0.08272096   -3.2586859    1.5294024   521831 
 7591000    1.2110102   -3.2580132    -1.729589  0.086254039   -3.2580132    1.5284241   521818 
 7592000    1.2099269   -3.2578899   -1.7308155  0.081909671   -3.2578899    1.5270745   521812 
 7593000    1.2118334   -3.2606836   -1.7311444  0.080592135   -3.2606836    1.5295392   521792 
 7594000    1.2100849   -3.2589136   -1.7316456  0.083875871   -3.2589136    1.5272679   521814 
 7595000     1.211604   -3.2600412   -1.7309321   0.08130844   -3.2600412     1.529109   521840 
 7596000    1.2106251   -3.2583227   -1.7304871  0.087074485   -3.2583227    1.5278356   521853 
 7597000    1.2113856   -3.2594869    -1.730712  0.081425623   -3.2594869    1.5287749   521860 
 7598000    1.2122752   -3.2605383   -1.7307346  0.078089509   -3.2605383    1.5298037   521892 
 7599000    1.2129472   -3.2609041   -1.7301702  0.086130034   -3.2609041    1.5307339   521864 
 7600000    1.2106474   -3.2582494   -1.7305672  0.085757541   -3.2582494    1.5276822   521915 
 7601000    1.2125962   -3.2598862   -1.7298357  0.086970052   -3.2598862    1.5300505   521946 
 7602000    1.2131383   -3.2601785   -1.7295407  0.085988888   -3.2601785    1.5306378   521979 
 7603000    1.2122865   -3.2597194   -1.7302092  0.083235902   -3.2597194    1.5295102   521997 
 7604000    1.2136573   -3.2618225   -1.7305974  0.086849122   -3.2618225    1.5312251   522002 
 7605000    1.2135037   -3.2622165   -1.7312234  0.083162384   -3.2622165    1.5309932   522015 
 7606000    1.2125812   -3.2621859   -1.7323536  0.079206772   -3.2621859    1.5298323   522014 
 7607000    1.2158588   -3.2666196   -1.7326435  0.080588008   -3.2666196    1.5339762   522011 
 7608000      1.21283    -3.261967   -1.7319322  0.083897554    -3.261967    1.5300348   522052 
 7609000    1.2127426   -3.2619876   -1.7320162  0.085727563   -3.2619876    1.5299714   522036 
 7610000     1.213011   -3.2634069   -1.7331702  0.082228733   -3.2634069    1.5302367   522061 
 7611000    1.2120112   -3.2639809   -1.7350083  0.084202568   -3.2639809    1.5289726   522062 
 7612000    1.2107393   -3.2608402   -1.7334897  0.083606542   -3.2608402    1.5273505   522068 
 7613000    1.2124895   -3.2619084   -1.7324819  0.083388049   -3.2619084    1.5294265   522113 
 7614000    1.2115106     -3.26012   -1.7320219  0.085639837     -3.26012     1.528098   522145 
 7615000    1.2135299   -3.2628915   -1.7322788  0.077973281   -3.2628915    1.5306128   522156 
 7616000    1.2110264   -3.2595467   -1.7321384   0.08419417   -3.2595467    1.5274083   522172 
 7617000    1.2144484   -3.2634424   -1.7319204  0.082175344   -3.2634424     1.531522   522241 
 7618000    1.2155968   -3.2647588   -1.7318326  0.082235015   -3.2647588    1.5329262   522256 
 7619000    1.2131657   -3.2627954   -1.7329262  0.083754122   -3.2627954    1.5298692   522253 
 7620000    1.2132199   -3.2623746   -1.7324546  0.084575748   -3.2623746      1.52992   522259 
 7621000     1.214469   -3.2635528   -1.7320517   0.08075153   -3.2635528    1.5315011   522257 
 7622000    1.2153322   -3.2636621   -1.7311488  0.079852003   -3.2636621    1.5325133   522283 
 7623000    1.2146977   -3.2639367    -1.732291  0.077347538   -3.2639367    1.5316457   522306 
 7624000    1.2143589   -3.2614068   -1.7302147   0.08918666   -3.2614068    1.5311922   522315 
 7625000    1.2136492    -3.259892   -1.7296533  0.086318545    -3.259892    1.5302388   522335 
 7626000    1.2132573   -3.2614781   -1.7318681  0.082951791   -3.2614781    1.5296099   522381 
 7627000    1.2139169   -3.2628604   -1.7324716   0.08159374   -3.2628604    1.5303887   522399 
 7628000     1.212567   -3.2609822   -1.7322485  0.078890776   -3.2609822    1.5287337   522383 
 7629000    1.2141535    -3.262195    -1.731593  0.083276509    -3.262195     1.530602   522428 
 7630000    1.2127265   -3.2603165   -1.7315252  0.083374264   -3.2603165    1.5287913   522432 
 7631000    1.2129104   -3.2604534   -1.7314771   0.08052488   -3.2604534    1.5289763   522448 
 7632000    1.2126226   -3.2600897   -1.7315376  0.079501063   -3.2600897    1.5285521   522469 
 7633000    1.2131587   -3.2614951   -1.7322526  0.080374359   -3.2614951    1.5292425   522464 
 7634000    1.2120515   -3.2619974   -1.7341886  0.076305425   -3.2619974    1.5278088   522477 
 7635000    1.2113949   -3.2597706   -1.7328829  0.078212647   -3.2597706    1.5268877   522509 
 7636000    1.2124691   -3.2594627      -1.7313  0.078791259   -3.2594627    1.5281627   522536 
 7637000    1.2141364   -3.2619563   -1.7317449  0.077636006   -3.2619563    1.5302114   522554 
 7638000    1.2148367   -3.2615583   -1.7304672   0.07851628   -3.2615583    1.5310911   522555 
 7639000    1.2139287   -3.2604577     -1.73059  0.086119977   -3.2604577    1.5298677   522582 
 7640000    1.2135412   -3.2607116   -1.7313937  0.085012744   -3.2607116    1.5293179   522603 
 7641000    1.2145229   -3.2617595   -1.7312835  0.087091617   -3.2617595     1.530476   522630 
 7642000     1.215547   -3.2612749   -1.7295261  0.081761204   -3.2612749    1.5317489   522636 
 7643000    1.2143704   -3.2601485   -1.7299205   0.08427409   -3.2601485    1.5302281   522649 
 7644000    1.2146588   -3.2599399   -1.7293425  0.090438674   -3.2599399    1.5305973   522647 
 7645000    1.2152259   -3.2598654   -1.7286003  0.088246796   -3.2598654    1.5312651   522663 
 7646000    1.2153878   -3.2598844   -1.7283947  0.083722871   -3.2598844    1.5314897   522656 
 7647000    1.2166107   -3.2621534   -1.7291258  0.081024794   -3.2621534    1.5330277   522657 
 7648000    1.2146189   -3.2612069   -1.7306948  0.077608845   -3.2612069     1.530512   522659 
 7649000    1.2127323   -3.2583443   -1.7302184  0.086183332   -3.2583443    1.5281259   522662 
 7650000    1.2118696   -3.2584517   -1.7314421  0.082952602   -3.2584517    1.5270097   522672 
 7651000    1.2120733   -3.2598802   -1.7326285  0.078773357   -3.2598802    1.5272517   522677 
 7652000    1.2146192   -3.2621905    -1.731883  0.079103306   -3.2621905    1.5303074   522729 
 7653000    1.2139037   -3.2613691   -1.7319661   0.07736043   -3.2613691     1.529403   522730 
 7654000    1.2136767   -3.2592768   -1.7301744  0.088227906   -3.2592768    1.5291025   522735 
 7655000    1.2160415   -3.2615383   -1.7295386  0.082056528   -3.2615383    1.5319997   522763 
 7656000    1.2130301   -3.2587904   -1.7306342  0.077925601   -3.2587904    1.5281562   522780 
 7657000    1.2140149   -3.2601053   -1.7306236  0.086201106   -3.2601053    1.5294817   522751 
 7658000     1.214361   -3.2607078   -1.7308164  0.078939424   -3.2607078    1.5298914   522760 
 7659000    1.2128073   -3.2588476     -1.73094  0.084202463   -3.2588476    1.5279076   522769 
 7660000    1.2123835   -3.2592389   -1.7319761  0.086090037   -3.2592389    1.5272628   522807 
 7661000    1.2141617   -3.2610023   -1.7315346  0.078684218   -3.2610023    1.5294677   522819 
 7662000    1.2155797   -3.2629304   -1.7315915  0.081280778   -3.2629304    1.5313389   522790 
 7663000    1.2140554   -3.2609134   -1.7314773  0.080233761   -3.2609134    1.5294361   522784 
 7664000    1.2137103   -3.2612078   -1.7322912  0.075962496   -3.2612078    1.5289166   522813 
 7665000    1.2137989   -3.2605849    -1.731703  0.080370261   -3.2605849     1.528882   522863 
 7666000    1.2132071   -3.2587546   -1.7307203  0.083440413   -3.2587546    1.5280343   522898 
 7667000    1.2132952   -3.2594511   -1.7313936  0.082068221   -3.2594511    1.5280575   522928 
 7668000    1.2143239   -3.2594428   -1.7301481  0.076340547   -3.2594428    1.5292947   522948 
 7669000    1.2140884   -3.2593646   -1.7303431  0.081352615   -3.2593646    1.5290215   522940 
 7670000     1.213681   -3.2581607   -1.7296991  0.086844948   -3.2581607    1.5284616   522956 
 7671000    1.2162279   -3.2607519    -1.729033  0.076397343   -3.2607519    1.5317189   522939 
 7672000    1.2155781   -3.2605028   -1.7295817  0.081871371   -3.2605028     1.530921   522932 
 7673000    1.2149049   -3.2615353   -1.7314562  0.083311496   -3.2615353     1.530079   522930 
 7674000    1.2147514    -3.261163   -1.7313124  0.084807747    -3.261163    1.5298505   522942 
 7675000    1.2152107   -3.2618723   -1.7315018  0.079530723   -3.2618723    1.5303705   522962 
 7676000    1.2145127   -3.2609898   -1.7314604   0.08647747   -3.2609898    1.5295295   522949 
 7677000    1.2156225   -3.2624276   -1.7314682  0.079528437   -3.2624276    1.5309594   522938 
 7678000    1.2159754   -3.2634718   -1.7321412   0.07881125   -3.2634718    1.5313305   522963 
 7679000    1.2165153   -3.2634868   -1.7314763  0.080441972   -3.2634868    1.5320105   522963 
 7680000    1.2147952   -3.2611195   -1.7312927  0.079871944   -3.2611195    1.5298268   522969 
 7681000    1.2150627   -3.2616195   -1.7314295   0.08057326   -3.2616195    1.5301899   522960 
 7682000    1.2143599   -3.2611957   -1.7318586  0.078886035   -3.2611957    1.5293371   522949 
 7683000    1.2158612   -3.2621877   -1.7310975  0.082644077   -3.2621877    1.5310902   522996 
 7684000    1.2148783    -3.261268   -1.7313658   0.08221481    -3.261268    1.5299022   522979 
 7685000    1.2142889   -3.2620151   -1.7329313  0.078890665   -3.2620151    1.5290839   523005 
 7686000    1.2153861   -3.2632029   -1.7327725   0.08121223   -3.2632029    1.5304304   523017 
 7687000    1.2128131    -3.259688   -1.7325063   0.08545558    -3.259688    1.5271817   523020 
 7688000    1.2145638   -3.2628159   -1.7335349  0.086136443   -3.2628159     1.529281   523056 
 7689000    1.2146219   -3.2633655   -1.7340495  0.082977216   -3.2633655     1.529316   523069 
 7690000    1.2159779   -3.2652625    -1.734242  0.077210295   -3.2652625    1.5310205   523070 
 7691000    1.2139071   -3.2627957   -1.7343942  0.075896968   -3.2627957    1.5284015   523074 
 7692000    1.2151095   -3.2630232   -1.7332395  0.079976904   -3.2630232    1.5297838   523119 
 7693000     1.214571   -3.2631744   -1.7341066  0.083842978   -3.2631744    1.5290678   523132 
 7694000    1.2142363    -3.263504   -1.7348926  0.081883886    -3.263504    1.5286114   523144 
 7695000    1.2138032   -3.2615277   -1.7335199  0.083279502   -3.2615277    1.5280078   523164 
 7696000    1.2156202   -3.2639714   -1.7337494  0.075612015   -3.2639714     1.530222   523189 
 7697000    1.2142826   -3.2601303   -1.7317002  0.078974359   -3.2601303    1.5284301   523226 
 7698000    1.2142769    -3.261304   -1.7328285  0.085199935    -3.261304    1.5284756   523208 
 7699000     1.215987   -3.2643056   -1.7337653  0.078586565   -3.2643056    1.5305403   523238 
 7700000    1.2125331   -3.2607495   -1.7346528  0.081791865   -3.2607495    1.5260967   523271 
 7701000    1.2140714   -3.2634288   -1.7353726  0.080016118   -3.2634288    1.5280562   523263 
 7702000    1.2138935   -3.2625129   -1.7347448  0.076254432   -3.2625129    1.5277681   523285 
 7703000    1.2137942   -3.2628714   -1.7351612  0.076351405   -3.2628714    1.5277102   523262 
 7704000    1.2135909   -3.2612669   -1.7338797  0.075958375   -3.2612669    1.5273872   523285 
 7705000    1.2136601   -3.2615367   -1.7342142  0.074583906   -3.2615367    1.5273225   523337 
 7706000    1.2163447   -3.2641949    -1.733488  0.078393085   -3.2641949    1.5307069   523335 
 7707000    1.2147393   -3.2627886   -1.7341518   0.07783119   -3.2627886    1.5286368   523352 
 7708000    1.2138183   -3.2612622    -1.733799  0.084534133   -3.2612622    1.5274632   523357 
 7709000    1.2129972   -3.2614713   -1.7350909  0.085288953   -3.2614713    1.5263804   523374 
 7710000    1.2139006   -3.2630382   -1.7356436  0.076789312   -3.2630382    1.5273946   523416 
 7711000    1.2136329   -3.2623374   -1.7353001  0.082257526   -3.2623374    1.5270373   523423 
 7712000    1.2146983   -3.2629284   -1.7345826  0.076767918   -3.2629284    1.5283458   523434 
 7713000    1.2146702   -3.2628194   -1.7345789  0.076904007   -3.2628194    1.5282404   523458 
 7714000    1.2145414   -3.2633728   -1.7352507  0.076185741   -3.2633728    1.5281221   523443 
 7715000    1.2130253   -3.2617971   -1.7356787  0.072922169   -3.2617971    1.5261184   523476 
 7716000     1.215117   -3.2645451   -1.7358098  0.077717153   -3.2645451    1.5287353   523481 
 7717000    1.2125592   -3.2612562   -1.7358612    0.0839269   -3.2612562     1.525395   523523 
 7718000    1.2123094   -3.2603055   -1.7353209  0.081612141   -3.2603055    1.5249846   523556 
 7719000    1.2146164   -3.2629043   -1.7349652  0.079979921   -3.2629043    1.5279392   523538 
 7720000    1.2143393   -3.2614851   -1.7339616  0.086614623   -3.2614851    1.5275235   523561 
 7721000    1.2169705   -3.2653123    -1.734555  0.080365681   -3.2653123    1.5307573   523587 
 7722000    1.2175225   -3.2655054   -1.7341444   0.08084921   -3.2655054     1.531361   523618 
 7723000    1.2162939   -3.2640291   -1.7342222  0.086762341   -3.2640291    1.5298069   523621 
 7724000    1.2156366   -3.2630704   -1.7341254  0.080110348   -3.2630704     1.528945   523633 
 7725000    1.2178497   -3.2641757   -1.7324998  0.081903005   -3.2641757    1.5316759   523651 
 7726000    1.2173155   -3.2647385   -1.7338076  0.078627154   -3.2647385    1.5309309   523676 
 7727000    1.2169054   -3.2636535   -1.7332266  0.086458845   -3.2636535    1.5304269   523672 
 7728000    1.2165984   -3.2638196   -1.7337905  0.080470159   -3.2638196    1.5300291   523676 
 7729000    1.2157398   -3.2640521    -1.735202  0.079812657   -3.2640521    1.5288501   523710 
 7730000    1.2140477   -3.2613218   -1.7346987  0.083967004   -3.2613218     1.526623   523744 
 7731000    1.2136115   -3.2617663   -1.7357238  0.082302135   -3.2617663    1.5260425   523755 
 7732000    1.2138881   -3.2611714   -1.7347577  0.080965354   -3.2611714    1.5264136   523747 
 7733000    1.2147804   -3.2630455   -1.7354982   0.08137392   -3.2630455    1.5275473   523743 
 7734000    1.2147791   -3.2633148   -1.7358653   0.07709304   -3.2633148    1.5274495   523776 
 7735000    1.2136456   -3.2626953   -1.7366303  0.082881869   -3.2626953     1.526065   523762 
 7736000    1.2157331    -3.264266   -1.7356257  0.080701921    -3.264266    1.5286402   523779 
 7737000    1.2146291   -3.2623793   -1.7351884  0.084153934   -3.2623793    1.5271909   523800 
 7738000    1.2147009   -3.2629033   -1.7357126  0.081415118   -3.2629033    1.5271908   523831 
 7739000    1.2161383   -3.2632932   -1.7343711   0.07962843   -3.2632932    1.5289221   523857 
 7740000    1.2151939   -3.2629668   -1.7352349  0.077546328   -3.2629668    1.5277319   523858 
 7741000    1.2154171   -3.2631459   -1.7350663  0.077965836   -3.2631459    1.5280796   523835 
 7742000    1.2143818   -3.2620999   -1.7353074  0.081927075   -3.2620999    1.5267925   523830 
 7743000    1.2143746   -3.2621105   -1.7354349  0.082708656   -3.2621105    1.5266757   523867 
 7744000    1.2176275   -3.2655302   -1.7347943  0.085315893   -3.2655302    1.5307358   523877 
 7745000    1.2163969   -3.2647579   -1.7356275  0.080123772   -3.2647579    1.5291304   523897 
 7746000     1.215601   -3.2638287   -1.7357075    0.0818749   -3.2638287    1.5281212   523900 
 7747000    1.2156967   -3.2638634   -1.7357415  0.081463734   -3.2638634    1.5281219   523941 
 7748000    1.2161387   -3.2655538   -1.7369144  0.082377057   -3.2655538    1.5286395   523954 
 7749000    1.2159398   -3.2659458   -1.7375359  0.082872273   -3.2659458    1.5284099   523947 
 7750000    1.2159593   -3.2655967   -1.7372118  0.076568036   -3.2655967    1.5283849   523964 
 7751000    1.2159117   -3.2653486   -1.7370235  0.080533073   -3.2653486    1.5283251   523964 
 7752000    1.2161145   -3.2659296   -1.7374138  0.078512128   -3.2659296    1.5285158   523986 
 7753000    1.2165197   -3.2672541   -1.7382378  0.077337834   -3.2672541    1.5290163   523989 
 7754000    1.2149494   -3.2646902   -1.7376972  0.086048523   -3.2646902     1.526993   524006 
 7755000    1.2161475    -3.267119   -1.7386901  0.082410106    -3.267119    1.5284289   524030 
 7756000    1.2162585   -3.2675151   -1.7389847  0.083324568   -3.2675151    1.5285304   524043 
 7757000    1.2176765   -3.2682502   -1.7380078  0.077065624   -3.2682502    1.5302424   524067 
 7758000    1.2172415   -3.2674371   -1.7377792  0.077595188   -3.2674371    1.5296579   524080 
 7759000    1.2166913   -3.2687812   -1.7398469  0.081281681   -3.2687812    1.5289343   524091 
 7760000    1.2169985   -3.2692885   -1.7399798  0.088016722   -3.2692885    1.5293087   524095 
 7761000    1.2179954   -3.2692812   -1.7387022    0.0845116   -3.2692812    1.5305789   524089 
 7762000      1.21858   -3.2696225   -1.7383644  0.076779476   -3.2696225    1.5312581   524108 
 7763000     1.216856   -3.2674315   -1.7383398  0.083615801   -3.2674315    1.5290917   524108 
 7764000    1.2185874   -3.2695679   -1.7383297  0.084446595   -3.2695679    1.5312382   524118 
 7765000      1.21798    -3.269284   -1.7388411  0.081616138    -3.269284    1.5304428   524129 
 7766000    1.2178538   -3.2688038   -1.7386481   0.07918021   -3.2688038    1.5301557   524173 
 7767000    1.2177904   -3.2684154   -1.7384648  0.083167702   -3.2684154    1.5299506   524216 
 7768000    1.2203578   -3.2714121   -1.7381951  0.084432421   -3.2714121     1.533217   524202 
 7769000    1.2188139    -3.269826   -1.7385925  0.081845875    -3.269826    1.5312336   524217 
 7770000    1.2173198   -3.2681806   -1.7388416  0.081298228   -3.2681806     1.529339   524223 
 7771000    1.2180441    -3.269069   -1.7388464  0.081261128    -3.269069    1.5302226   524232 
 7772000    1.2149749   -3.2650901   -1.7388252  0.081738378   -3.2650901    1.5262649   524267 
 7773000    1.2176831   -3.2674358   -1.7378097  0.082625041   -3.2674358    1.5296261   524281 
 7774000    1.2169079    -3.266905   -1.7382993  0.078958728    -3.266905    1.5286057   524297 
 7775000    1.2173918   -3.2670158   -1.7378023  0.081708817   -3.2670158    1.5292135   524297 
 7776000    1.2142678   -3.2648768   -1.7395962  0.085964405   -3.2648768    1.5252806   524300 
 7777000    1.2171142   -3.2671427   -1.7383887   0.08142415   -3.2671427     1.528754   524335 
 7778000    1.2162795   -3.2669159   -1.7392307  0.082926525   -3.2669159    1.5276852   524342 
 7779000    1.2167357   -3.2668079   -1.7385817   0.08402711   -3.2668079    1.5282262   524353 
 7780000    1.2171475   -3.2672415   -1.7386352  0.083529005   -3.2672415    1.5286064   524400 
 7781000    1.2171354   -3.2676354   -1.7390033  0.083894753   -3.2676354     1.528632   524386 
 7782000    1.2182199   -3.2682223   -1.7383129  0.080469414   -3.2682223    1.5299094   524415 
 7783000    1.2184771   -3.2681753   -1.7379749  0.084497493   -3.2681753    1.5302004   524426 
 7784000    1.2173042   -3.2645858   -1.7358818  0.086644197   -3.2645858     1.528704   524434 
 7785000    1.2196922    -3.267894   -1.7362728   0.07919049    -3.267894    1.5316212   524462 
 7786000    1.2183093    -3.266265    -1.736398   0.08396735    -3.266265    1.5298671   524468 
 7787000    1.2184948    -3.266149   -1.7361306   0.08098539    -3.266149    1.5300184   524496 
 7788000    1.2185627   -3.2649221   -1.7349235  0.076882934   -3.2649221    1.5299985   524532 
 7789000    1.2193935   -3.2657335   -1.7346976  0.079308852   -3.2657335    1.5310359   524534 
 7790000    1.2195991   -3.2658756   -1.7345378  0.081687616   -3.2658756    1.5313378   524519 
 7791000    1.2188375   -3.2643536   -1.7339925  0.080118764   -3.2643536    1.5303611   524526 
 7792000    1.2186593   -3.2647408   -1.7347201   0.07959708   -3.2647408    1.5300206   524566 
 7793000    1.2183464   -3.2641944   -1.7345929  0.079743309   -3.2641944    1.5296016   524575 
 7794000    1.2208364   -3.2670853   -1.7344043   0.07977016   -3.2670853    1.5326809   524591 
 7795000    1.2186787    -3.264184   -1.7342789  0.084193834    -3.264184    1.5299051   524614 
 7796000    1.2184193    -3.263805    -1.734214  0.082048365    -3.263805     1.529591   524610 
 7797000    1.2189729   -3.2642974   -1.7340347  0.078187347   -3.2642974    1.5302627   524618 
 7798000    1.2184676   -3.2625755   -1.7330637  0.080791686   -3.2625755    1.5295118   524658 
 7799000    1.2180178   -3.2620338    -1.733209  0.084363061   -3.2620338    1.5288248   524700 
 7800000    1.2177162   -3.2614222   -1.7330401   0.08277101   -3.2614222    1.5283821   524722 
 7801000    1.2178487   -3.2617877   -1.7332393  0.082006933   -3.2617877    1.5285484   524722 
 7802000    1.2173092   -3.2617788   -1.7339629  0.076411166   -3.2617788    1.5278159   524741 
 7803000    1.2178653   -3.2634983   -1.7350339  0.078123548   -3.2634983    1.5284643   524758 
 7804000    1.2172429   -3.2631601   -1.7354711  0.077691938   -3.2631601     1.527689   524756 
 7805000    1.2158388     -3.25958   -1.7337433  0.082723963     -3.25958    1.5258367   524787 
 7806000    1.2182086   -3.2628173   -1.7339716  0.077864735   -3.2628173    1.5288457   524775 
 7807000    1.2182468   -3.2624455   -1.7335372   0.08011354   -3.2624455    1.5289083   524770 
 7808000    1.2178549    -3.261354    -1.732958  0.081313855    -3.261354     1.528396   524777 
 7809000    1.2182139   -3.2619269   -1.7331648  0.078083073   -3.2619269    1.5287621   524806 
 7810000    1.2194428   -3.2629074   -1.7326381  0.072858816   -3.2629074    1.5302692   524818 
 7811000    1.2195084   -3.2619653   -1.7316692   0.08181073   -3.2619653    1.5302961   524837 
 7812000    1.2194176   -3.2619248   -1.7317893   0.07759063   -3.2619248    1.5301355   524853 
 7813000    1.2185342   -3.2616951   -1.7326739  0.086028455   -3.2616951    1.5290212   524855 
 7814000    1.2188316   -3.2629563   -1.7335269  0.084115865   -3.2629563    1.5294294   524843 
 7815000     1.218643   -3.2628612   -1.7338404  0.078744439   -3.2628612    1.5290208   524902 
 7816000    1.2179718   -3.2618996   -1.7338402  0.075907841   -3.2618996    1.5280594   524943 
 7817000    1.2191341   -3.2633993   -1.7338584    0.0799143   -3.2633993    1.5295409   524935 
 7818000    1.2198092   -3.2649488   -1.7346252  0.077975085   -3.2649488    1.5303236   524957 
 7819000    1.2193302   -3.2640011   -1.7343948   0.08479402   -3.2640011    1.5296063   524997 
 7820000    1.2190632   -3.2648965   -1.7357302  0.077657144   -3.2648965    1.5291664   525033 
 7821000    1.2166742   -3.2614224   -1.7353312  0.085549458   -3.2614224    1.5260913   525060 
 7822000    1.2187742   -3.2653592   -1.7365816  0.079855125   -3.2653592    1.5287777   525042 
 7823000    1.2176065   -3.2647285     -1.73743  0.081503527   -3.2647285    1.5272984   525047 
 7824000    1.2176921   -3.2666741   -1.7391839   0.08536613   -3.2666741    1.5274902   525018 
 7825000    1.2190648   -3.2668879   -1.7377049   0.08402869   -3.2668879     1.529183   525028 
 7826000     1.216965   -3.2660548   -1.7395582  0.077319139   -3.2660548    1.5264967   525046 
 7827000    1.2195684     -3.26776   -1.7380473  0.079950786     -3.26776    1.5297127   525063 
 7828000    1.2190874   -3.2661292   -1.7370197  0.080691189   -3.2661292    1.5291095   525063 
 7829000    1.2181726    -3.265645   -1.7376482  0.088175086    -3.265645    1.5279969   525051 
 7830000    1.2193141    -3.267645   -1.7382571  0.076445958    -3.267645    1.5293879   525065 
 7831000    1.2189669   -3.2678241   -1.7389328  0.079322939   -3.2678241    1.5288913   525086 
 7832000    1.2204946   -3.2703021   -1.7394889  0.079316339   -3.2703021    1.5308132   525084 
 7833000    1.2173838   -3.2661914   -1.7392973  0.081245556   -3.2661914    1.5268941   525090 
 7834000    1.2178489    -3.267254    -1.739768  0.082399027    -3.267254    1.5274861   525087 
 7835000    1.2179436   -3.2672383   -1.7396858  0.083398393   -3.2672383    1.5275525   525105 
 7836000    1.2184151   -3.2684704   -1.7403877  0.083159609   -3.2684704    1.5280827   525126 
 7837000    1.2188261   -3.2689201   -1.7404761  0.079268079   -3.2689201     1.528444   525179 
 7838000    1.2177415   -3.2672889    -1.740205  0.086359944   -3.2672889    1.5270839   525179 
 7839000    1.2209025   -3.2705684   -1.7395613  0.076641366   -3.2705684    1.5310071   525193 
 7840000    1.2205717   -3.2692099   -1.7386964   0.08317581   -3.2692099    1.5305135   525220 
 7841000    1.2190584   -3.2667503   -1.7381198  0.083095482   -3.2667503    1.5286305   525215 
 7842000    1.2188856   -3.2668183   -1.7383608  0.081035961   -3.2668183    1.5284575   525200 
 7843000    1.2180602   -3.2665597   -1.7391315    0.0857528   -3.2665597    1.5274282   525198 
 7844000    1.2171388   -3.2648951   -1.7387269  0.085998363   -3.2648951    1.5261682   525234 
 7845000    1.2203211   -3.2682583   -1.7381464  0.076562483   -3.2682583    1.5301119   525250 
 7846000    1.2202867   -3.2681149   -1.7380956  0.081123344   -3.2681149    1.5300193   525267 
 7847000    1.2176433   -3.2646168    -1.737967  0.084830674   -3.2646168    1.5266497   525286 
 7848000    1.2191505   -3.2669326   -1.7384893  0.082130558   -3.2669326    1.5284433   525319 
 7849000    1.2196621   -3.2671191   -1.7381013  0.077497458   -3.2671191    1.5290178   525342 
 7850000    1.2193101     -3.26716   -1.7385544  0.083400109     -3.26716    1.5286056   525332 
 7851000    1.2190748   -3.2663994    -1.738214  0.081719993   -3.2663994    1.5281855   525375 
 7852000    1.2198957     -3.26783   -1.7386417  0.082370985     -3.26783    1.5291884   525384 
 7853000    1.2203714   -3.2670931    -1.737355  0.081085104   -3.2670931    1.5297381   525400 
 7854000    1.2210334   -3.2678577    -1.737316  0.077016858   -3.2678577    1.5305417   525409 
 7855000    1.2196775   -3.2659795   -1.7371549  0.081782243   -3.2659795    1.5288246   525415 
 7856000    1.2184777    -3.264267    -1.737016  0.081001125    -3.264267     1.527251   525439 
 7857000    1.2200133   -3.2667047   -1.7375145  0.077015894   -3.2667047    1.5291903   525434 
 7858000    1.2189798   -3.2640552   -1.7361196   0.08209703   -3.2640552    1.5279355   525420 
 7859000    1.2186123   -3.2642457   -1.7367766  0.084923741   -3.2642457    1.5274691   525422 
 7860000    1.2204159   -3.2658736   -1.7361584  0.082513925   -3.2658736    1.5297152   525427 
 7861000     1.220286   -3.2662904    -1.736767  0.083154118   -3.2662904    1.5295234   525437 
 7862000    1.2212568   -3.2668232   -1.7361267   0.07938619   -3.2668232    1.5306964   525452 
 7863000    1.2203159   -3.2651942   -1.7357673  0.076466247   -3.2651942    1.5294269   525483 
 7864000    1.2201625   -3.2650378   -1.7358555  0.082054024   -3.2650378    1.5291823   525501 
 7865000    1.2198424   -3.2646765   -1.7359681  0.083896162   -3.2646765    1.5287084   525526 
 7866000    1.2209447   -3.2664677   -1.7363313  0.079921941   -3.2664677    1.5301364   525510 
 7867000    1.2200026   -3.2652784   -1.7364071  0.080773396   -3.2652784    1.5288714   525539 
 7868000    1.2200888   -3.2663119   -1.7374227  0.084511096   -3.2663119    1.5288892   525570 
 7869000    1.2186018   -3.2648386   -1.7377751  0.079313559   -3.2648386    1.5270636   525557 
 7870000    1.2190954    -3.265265   -1.7376265  0.078486446    -3.265265    1.5276385   525572 
 7871000    1.2183036   -3.2652983   -1.7386433  0.078312841   -3.2652983     1.526655   525569 
 7872000    1.2201454   -3.2662119   -1.7374438   0.08187177   -3.2662119    1.5287681   525636 
 7873000     1.221039   -3.2673898   -1.7375312  0.074792564   -3.2673898    1.5298586   525646 
 7874000    1.2184877   -3.2647903   -1.7382096  0.082389971   -3.2647903    1.5265808   525674 
 7875000    1.2190459   -3.2655192   -1.7382419  0.081070827   -3.2655192    1.5272772   525675 
 7876000    1.2213005   -3.2685849   -1.7385296   0.08163172   -3.2685849    1.5300553   525691 
 7877000    1.2190721   -3.2661924   -1.7389609  0.082308984   -3.2661924    1.5272315   525702 
 7878000    1.2181621   -3.2654016   -1.7393246  0.077748501   -3.2654016     1.526077   525707 
 7879000    1.2185602   -3.2664469   -1.7399002  0.077230878   -3.2664469    1.5265467   525717 
 7880000    1.2187451   -3.2665059   -1.7397217  0.080417056   -3.2665059    1.5267842   525715 
 7881000    1.2206018   -3.2681597    -1.739099  0.078038201   -3.2681597    1.5290607   525732 
 7882000    1.2204996   -3.2681161   -1.7392154  0.075775502   -3.2681161    1.5289007   525743 
 7883000    1.2188073   -3.2663545    -1.739597  0.077425685   -3.2663545    1.5267575   525751 
 7884000    1.2189045   -3.2668717    -1.740097  0.079185082   -3.2668717    1.5267747   525787 
 7885000    1.2203467   -3.2680621   -1.7394925   0.08501401   -3.2680621    1.5285696   525791 
 7886000    1.2192602   -3.2661991   -1.7390195   0.08403568   -3.2661991    1.5271797   525801 
 7887000    1.2189328    -3.265316   -1.7385348  0.086850219    -3.265316    1.5267811   525797 
 7888000    1.2197517   -3.2671946    -1.739408  0.083959992   -3.2671946    1.5277866   525804 
 7889000    1.2198973    -3.268114   -1.7401364  0.078744262    -3.268114    1.5279776   525801 
 7890000    1.2186954   -3.2678211   -1.7414186  0.078667776   -3.2678211    1.5264025   525825 
 7891000    1.2194666   -3.2686018   -1.7412972   0.07850164   -3.2686018    1.5273046   525847 
 7892000    1.2186563   -3.2672693   -1.7410551  0.082371059   -3.2672693    1.5262143   525873 
 7893000    1.2183749   -3.2659606   -1.7401017  0.082303306   -3.2659606    1.5258588   525874 
 7894000    1.2183762   -3.2663585    -1.740469  0.083094992   -3.2663585    1.5258895   525864 
 7895000    1.2196467   -3.2677256   -1.7402536  0.083845834   -3.2677256     1.527472   525867 
 7896000    1.2194829    -3.268579   -1.7413382  0.078960799    -3.268579    1.5272408   525876 
 7897000    1.2192565   -3.2680363   -1.7411284  0.084560334   -3.2680363    1.5269079   525893 
 7898000    1.2187146   -3.2677289   -1.7415055  0.087099031   -3.2677289    1.5262233   525895 
 7899000    1.2195896   -3.2678228   -1.7405385  0.078363901   -3.2678228    1.5272843   525907 
 7900000    1.2202261     -3.26937   -1.7413205  0.082771907     -3.26937    1.5280495   525918 
 7901000    1.2208646   -3.2686117    -1.739786  0.079304704   -3.2686117    1.5288257   525926 
 7902000    1.2197382   -3.2677857   -1.7404721  0.084430293   -3.2677857    1.5273136   525961 
 7903000    1.2203968   -3.2686705   -1.7405032  0.075849863   -3.2686705    1.5281673   525951 
 7904000     1.219628   -3.2674119   -1.7403088  0.082008285   -3.2674119    1.5271031   525986 
 7905000      1.22065   -3.2675885   -1.7392611  0.085211785   -3.2675885    1.5283274   526005 
 7906000    1.2211678   -3.2684564     -1.73953  0.080230413   -3.2684564    1.5289264   526022 
 7907000     1.221778   -3.2677679   -1.7382171  0.083505151   -3.2677679    1.5295508   526070 
 7908000    1.2205574   -3.2670563   -1.7391237  0.078996143   -3.2670563    1.5279326   526101 
 7909000    1.2216293   -3.2678792   -1.7385262  0.076730982   -3.2678792     1.529353   526074 
 7910000    1.2194606   -3.2650712   -1.7383809    0.0803338   -3.2650712    1.5266903   526056 
 7911000    1.2202612   -3.2662551   -1.7385858  0.082432535   -3.2662551    1.5276693   526064 
 7912000    1.2206055   -3.2656971    -1.737678  0.084259046   -3.2656971    1.5280191   526092 
 7913000    1.2202472   -3.2649425   -1.7374388  0.089132428   -3.2649425    1.5275037   526115 
 7914000     1.221794   -3.2683685   -1.7389169  0.082289434   -3.2683685    1.5294516   526111 
 7915000    1.2202726   -3.2667953   -1.7393295  0.079108308   -3.2667953    1.5274659   526139 
 7916000    1.2219408   -3.2685749   -1.7390704  0.072607118   -3.2685749    1.5295045   526156 
 7917000    1.2218968   -3.2667887   -1.7373044  0.080128224   -3.2667887    1.5294843   526144 
 7918000    1.2209936    -3.266782   -1.7384341  0.077193663    -3.266782    1.5283479   526146 
 7919000    1.2202958    -3.265618   -1.7382596  0.085456554    -3.265618    1.5273584   526186 
 7920000    1.2203421   -3.2649541    -1.737645  0.076447159   -3.2649541     1.527309   526223 
 7921000    1.2213288   -3.2659634   -1.7375531   0.07804058   -3.2659634    1.5284103   526269 
 7922000    1.2210974   -3.2654564   -1.7373793   0.08012465   -3.2654564    1.5280772   526284 
 7923000    1.2195986   -3.2642642   -1.7381062  0.078610234   -3.2642642     1.526158   526299 
 7924000    1.2205104     -3.26475   -1.7374625  0.077809686     -3.26475    1.5272874   526303 
 7925000    1.2227629   -3.2666673   -1.7365612  0.080226571   -3.2666673     1.530106   526303 
 7926000    1.2219817   -3.2656832   -1.7366477  0.076076694   -3.2656832    1.5290355   526335 
 7927000    1.2213396   -3.2656566   -1.7374739  0.078151001   -3.2656566    1.5281827   526352 
 7928000    1.2222191   -3.2669686   -1.7376999  0.073406148   -3.2669686    1.5292687   526357 
 7929000    1.2220405    -3.266154   -1.7371029  0.084576639    -3.266154     1.529051   526355 
 7930000    1.2216792   -3.2670238   -1.7385613  0.084248295   -3.2670238    1.5284625   526402 
 7931000    1.2213674   -3.2668873   -1.7388323  0.076810402   -3.2668873    1.5280549   526408 
 7932000    1.2200111   -3.2659028   -1.7396143  0.076813084   -3.2659028    1.5262884   526432 
 7933000    1.2203696   -3.2665303   -1.7398572  0.075178988   -3.2665303    1.5266732   526454 
 7934000    1.2199881   -3.2665943   -1.7404477  0.077940492   -3.2665943    1.5261466   526471 
 7935000    1.2206113   -3.2682749   -1.7414298  0.079118615   -3.2682749    1.5268451   526499 
 7936000    1.2218507   -3.2695717   -1.7411967  0.073706993   -3.2695717    1.5283751   526506 
 7937000    1.2223156   -3.2694621   -1.7405606  0.078433881   -3.2694621    1.5289015   526525 
 7938000    1.2226902   -3.2693859   -1.7400391  0.078334999   -3.2693859    1.5293468   526533 
 7939000    1.2207548   -3.2684298   -1.7415532  0.077082009   -3.2684298    1.5268766   526550 
 7940000    1.2217406   -3.2706981   -1.7426058  0.077492033   -3.2706981    1.5280923   526556 
 7941000    1.2220383   -3.2704768   -1.7420528  0.082549801   -3.2704768    1.5284239   526570 
 7942000    1.2226277   -3.2705138   -1.7412801  0.083155664   -3.2705138    1.5292337   526545 
 7943000    1.2213018   -3.2688911   -1.7413186  0.085021517   -3.2688911    1.5275724   526546 
 7944000    1.2221523    -3.270981   -1.7423622  0.085807539    -3.270981    1.5286188   526552 
 7945000     1.223248   -3.2719641   -1.7420504  0.082329658   -3.2719641    1.5299137   526578 
 7946000    1.2221164   -3.2702417   -1.7418391  0.081410805   -3.2702417    1.5284026   526611 
 7947000    1.2234105   -3.2729543   -1.7429042   0.08590453   -3.2729543    1.5300502   526601 
 7948000    1.2233155   -3.2720451   -1.7422184  0.086500427   -3.2720451    1.5298267   526637 
 7949000    1.2235168   -3.2715663   -1.7414908  0.082535589   -3.2715663    1.5300755   526638 
 7950000     1.222949   -3.2717483   -1.7424466  0.080414425   -3.2717483    1.5293016   526660 
 7951000    1.2224263    -3.269019   -1.7404291  0.089913199    -3.269019    1.5285899   526680 
 7952000    1.2235822    -3.271175   -1.7412501  0.084410991    -3.271175    1.5299249   526718 
 7953000    1.2236823   -3.2718802   -1.7418795  0.081427488   -3.2718802    1.5300007   526735 
 7954000    1.2222813   -3.2714598   -1.7432486  0.081437854   -3.2714598    1.5282112   526748 
 7955000     1.223086   -3.2728453   -1.7436715  0.076348727   -3.2728453    1.5291739   526763 
 7956000    1.2205587   -3.2696781    -1.743748   0.08292052   -3.2696781    1.5259301   526792 
 7957000    1.2224975   -3.2714117   -1.7430926  0.079941228   -3.2714117    1.5283191   526804 
 7958000      1.22252   -3.2712187   -1.7429556  0.077450619   -3.2712187    1.5282631   526833 
 7959000    1.2227371   -3.2704565   -1.7419451  0.080205554   -3.2704565    1.5285113   526841 
 7960000    1.2215117   -3.2696004   -1.7426442  0.074082577   -3.2696004    1.5269563   526849 
 7961000    1.2204232   -3.2680227   -1.7424763  0.082059184   -3.2680227    1.5255464   526866 
 7962000    1.2204587   -3.2680767   -1.7425294  0.079937302   -3.2680767    1.5255473   526881 
 7963000    1.2211052   -3.2677641   -1.7414811  0.079838176   -3.2677641     1.526283   526906 
 7964000    1.2193714   -3.2664732    -1.742395  0.077049884   -3.2664732    1.5240783   526919 
 7965000    1.2200399   -3.2681345   -1.7431541  0.078757429   -3.2681345    1.5249804   526896 
 7966000    1.2206114   -3.2668328   -1.7411728  0.082548963   -3.2668328      1.52566   526908 
 7967000    1.2202167    -3.266167   -1.7410581  0.083386824    -3.266167    1.5251088   526928 
 7968000    1.2231412   -3.2683562   -1.7396271  0.078005694   -3.2683562    1.5287292   526940 
 7969000    1.2243714   -3.2706525   -1.7403858  0.074992822   -3.2706525    1.5302668   526940 
 7970000    1.2225753   -3.2686945   -1.7406928  0.073288822   -3.2686945    1.5280016   526947 
 7971000    1.2202824   -3.2654098   -1.7402536  0.080759172   -3.2654098    1.5251561   526940 
 7972000    1.2221359   -3.2684121   -1.7410119   0.07884682   -3.2684121    1.5274002   526965 
 7973000    1.2211157   -3.2673734   -1.7412568  0.081496119   -3.2673734    1.5261166   526968 
 7974000    1.2206945   -3.2671268   -1.7415627  0.080255724   -3.2671268    1.5255642   526977 
 7975000     1.221276   -3.2685252   -1.7422778  0.077798437   -3.2685252    1.5262474   526992 
 7976000    1.2230564   -3.2703371   -1.7418937  0.077857878   -3.2703371    1.5284434   527002 
 7977000    1.2227673   -3.2694307   -1.7414385   0.07878256   -3.2694307    1.5279922   527033 
 7978000    1.2230935   -3.2712903   -1.7429167   0.07797536   -3.2712903    1.5283737   527042 
 7979000    1.2232446   -3.2706554   -1.7421509  0.077845741   -3.2706554    1.5285045   527062 
 7980000    1.2220949   -3.2686753   -1.7416508  0.081441602   -3.2686753    1.5270245   527077 
 7981000    1.2215433   -3.2676961   -1.7414622  0.076970153   -3.2676961    1.5262339   527112 
 7982000    1.2217018   -3.2673793   -1.7410313  0.085320761   -3.2673793     1.526348   527141 
 7983000    1.2236041   -3.2707502   -1.7420458   0.08629612   -3.2707502    1.5287044   527148 
 7984000    1.2234267   -3.2701217   -1.7416622  0.080024314   -3.2701217    1.5284595   527156 
 7985000    1.2230148    -3.270854   -1.7429208  0.079586303    -3.270854    1.5279333   527160 
 7986000    1.2244396   -3.2707928   -1.7410562  0.081569658   -3.2707928    1.5297366   527152 
 7987000     1.223925   -3.2705673   -1.7415781  0.079468167   -3.2705673    1.5289892   527188 
 7988000    1.2243433   -3.2714919   -1.7419656  0.073464403   -3.2714919    1.5295263   527183 
 7989000    1.2221345   -3.2691093   -1.7423366  0.080235722   -3.2691093    1.5267727   527181 
 7990000    1.2241793   -3.2707225   -1.7413895  0.081696019   -3.2707225    1.5293331   527179 
 7991000    1.2246774   -3.2706181   -1.7406687  0.077760835   -3.2706181    1.5299494   527181 
 7992000    1.2228075   -3.2701813   -1.7425939  0.088736525   -3.2701813    1.5275874   527190 
 7993000    1.2238665   -3.2710604   -1.7422139  0.084386857   -3.2710604    1.5288465   527212 
 7994000    1.2233091   -3.2706751   -1.7425683  0.076708009   -3.2706751    1.5281068   527227 
 7995000    1.2239954    -3.271701   -1.7428065  0.075169544    -3.271701    1.5288945   527251 
 7996000    1.2224211   -3.2698995   -1.7430671  0.078645143   -3.2698995    1.5268324   527284 
 7997000    1.2235259   -3.2715644   -1.7433752  0.079643851   -3.2715644    1.5281891   527292 
 7998000    1.2217505   -3.2684936    -1.742574  0.084120799   -3.2684936    1.5259196   527310 
 7999000    1.2225867   -3.2697484   -1.7429205  0.077090682   -3.2697484    1.5268279   527357 
 8000000    1.2238583   -3.2722635   -1.7438678  0.082126884   -3.2722635    1.5283957   527364 
Loop time of 10393.5 on 192 procs for 5000000 steps with 527364 atoms

Performance: 207821.700 tau/day, 481.069 timesteps/s
99.2% CPU use with 192 MPI tasks x 1 OpenMP threads

MPI task timing breakdown:
Section |  min time  |  avg time  |  max time  |%varavg|  %CPU | %total
-----------------------------------------------------------------------
Pair    | 2036.3     | 3460.4     | 3884.9     | 872.5 |  99.1 | 33.29
Bond    | 3.1959     | 3.4006     | 3.5694     |   3.5 | 100.0 |  0.03
Neigh   | 1252.1     | 1717.8     | 1890       | 382.7 |  99.5 | 16.53
Comm    | 1131.1     | 2059.7     | 3913.8     |1506.0 |  99.0 | 19.82
Output  | 279.2      | 282.94     | 282.97     |   1.6 |  98.7 |  2.72
Modify  | 2613.5     | 2702.8     | 3219.3     | 327.4 |  99.2 | 26.00
Other   |            | 166.4      |            |       |       |  1.60

Nlocal:        2746.69 ave        3130 max        2209 min
Histogram: 1 1 1 4 12 98 63 5 3 4
Nghost:        3730.25 ave        4080 max        2805 min
Histogram: 7 7 18 13 3 0 1 10 71 62
Neighs:        75529.0 ave       86050 max       42705 min
Histogram: 1 3 4 7 2 5 15 56 80 19

Total # of neighbors = 14501567
Ave neighs/atom = 27.498212
Ave special neighs/atom = 0.0000000
Neighbor list builds = 505000
Dangerous builds = 450000

write_restart   restart_write.dat
System init for write_restart ...
write_data	data.write
System init for write_data ...
WARNING: Not all mixed pair coeffs generated from mixing. Use write_data with 'pair ij' option to store all pair coeffs. (src/write_data.cpp:312)

Total wall time: 2:53:17
