LAMMPS (29 Oct 2020)
  using 1 OpenMP thread(s) per MPI task
# Simple rigid body system

units		lj
atom_style	full
dimension 	3
boundary	p p f
pair_style	lj/cut/opt 2.5


variable 	sigma		equal 1.0
variable 	epsilon 	equal 1.0


region		box block 0 80 0 80 0 80
create_box 	3 box
Created orthogonal box = (0.0000000 0.0000000 0.0000000) to (80.000000 80.000000 80.000000)
  2 by 4 by 4 MPI processor grid
lattice 	sc 1.0
Lattice spacing in x,y,z = 1.0000000 1.0000000 1.0000000

create_atoms 	1 region box
Created 512000 atoms
  create_atoms CPU = 0.134 seconds

mass		1 1.0
mass		2 1.0
mass		3 1.0


group		solvent type 1
512000 atoms in group solvent


velocity 	solvent create 1.0 563435 loop geom

read_data	data.vac add append
Reading data file ...
  orthogonal box = (0.0000000 0.0000000 0.0000000) to (80.000000 80.000000 160.00000)
  2 by 2 by 8 MPI processor grid
Finding 1-2 1-3 1-4 neighbors ...
  special bond factors lj:    0.0      0.0      0.0     
  special bond factors coul:  0.0      0.0      0.0     
     0 = max # of 1-2 neighbors
     0 = max # of 1-3 neighbors
     0 = max # of 1-4 neighbors
     1 = max # of special neighbors
  special bonds CPU = 0.353 seconds
  read_data CPU = 0.372 seconds

neighbor 	0.4 bin

pair_coeff	1 1 1.0 1.0
pair_coeff	2 2 0.0 0.0
pair_coeff	3 3 0.0 0.0
pair_coeff	2 3 0.0 0.0
pair_coeff	1 2*3 0.0 0.0

pair_modify 	shift yes


balance 	1.05 shift z 10 1.05
Balancing ...
Neighbor list info ...
  update every 1 steps, delay 10 steps, check yes
  max neighbors/atom: 2000, page size: 100000
  master list distance cutoff = 2.9
  ghost atom cutoff = 2.9
  binsize = 1.45, bins = 56 56 111
  1 neighbor lists, perpetual/occasional/extra = 1 0 0
  (1) pair lj/cut/opt, perpetual
      attributes: half, newton on
      pair build: half/bin/newton
      stencil: half/bin/3d/newton
      bin: standard
 rebalancing time: 0.039 seconds
  iteration count = 5
  initial/final maximal load/proc = 32000.000 19200.000
  initial/final imbalance factor  = 2.0000000 1.2000000
  x cuts: 0.0000000 0.5 1.0000000
  y cuts: 0.0000000 0.5 1.0000000
  z cuts: 0.0000000 0.0625 0.12890625 0.1875 0.2578125 0.30859375 0.38671875 0.4375 1.0000000


####################### WALLS ###########################


region	       low block  EDGE EDGE EDGE EDGE 0 2

region 	       top block  EDGE EDGE EDGE EDGE 159 160


delete_atoms   region low
WARNING: Ignoring 'compress yes' for molecular system (src/delete_atoms.cpp:125)
Deleted 19200 atoms, new total = 492800

delete_atoms   region top
WARNING: Ignoring 'compress yes' for molecular system (src/delete_atoms.cpp:125)
Deleted 0 atoms, new total = 492800


variable       epsilonWall equal 2*${epsilon}
variable       epsilonWall equal 2*1

variable       cutoffTop   equal   0.7147*${sigma}
variable       cutoffTop   equal   0.7147*1

variable       cutoffLow   equal   3*${sigma}
variable       cutoffLow   equal   3*1


fix            topWall all wall/lj93 zhi EDGE                ${epsilonWall} ${sigma} ${cutoffTop} units box
fix            topWall all wall/lj93 zhi EDGE                2 ${sigma} ${cutoffTop} units box
fix            topWall all wall/lj93 zhi EDGE                2 1 ${cutoffTop} units box
fix            topWall all wall/lj93 zhi EDGE                2 1 0.7147 units box

fix            lowWall all wall/lj93 zlo EDGE                ${epsilonWall} ${sigma} ${cutoffLow} units box
fix            lowWall all wall/lj93 zlo EDGE                2 ${sigma} ${cutoffLow} units box
fix            lowWall all wall/lj93 zlo EDGE                2 1 ${cutoffLow} units box
fix            lowWall all wall/lj93 zlo EDGE                2 1 3 units box


###################### COMPUTES ##########################

compute        bin1 solvent chunk/atom bin/1d z upper 1.0



######################	FIXES ############################


fix 		peclet solvent ave/chunk 1000 1 1000 bin1 density/number norm 		 none ave one file density.profile

fix 		2 solvent nve

## Thermostat


region		regthermo block EDGE EDGE EDGE EDGE 0 20

group 		thermo dynamic solvent region regthermo every 1000
dynamic group thermo defined

fix 		3 thermo langevin ${temp} ${temp} 10 156453
fix 		3 thermo langevin .6 ${temp} 10 156453
fix 		3 thermo langevin .6 .6 10 156453



#### Load balancing


fix 		bal all balance 1000 1.05 shift z 10 1.05


############### Diagnostics and computes ###################
#compute 	com cube	  rigid/local	1 mol x y z
#compute 	quat cube	  rigid/local	1 mol quatw quati quatj quatk

thermo 		1000
thermo_style 	custom step temp epair evdwl etotal press pe ke vol

dump		1 all custom 100000 dump.lammpstrj id mol type x y z
dump 		2 all image 10000 image.*.png type type
dump 		3 all movie 1000 movie.avi type type
#dump 		com cube local 1000 dump.*.xyz c_com[*]
#dump		quat cube      local 1000 dump.*.quat c_quat[*]


restart 	500000 restart.dat
timestep 	0.0025
timer 		full
New timer settings: style=full  mode=nosync  timeout=off


run		1000000
Per MPI rank memory allocation (min/avg/max) = 21.45 | 22.19 | 22.73 Mbytes
Step Temp E_pair E_vdwl TotEng Press PotEng KinEng Volume 
       0   0.99997028   -3.2974116   -3.2974116   -1.7974593    8.5725801   -3.2974116    1.4999524      1024000 
    1000    1.7130698   -4.5261727   -4.5261727   -1.9565733    4.4177037   -4.5261727    2.5695994      1024000 
    2000    1.6473251   -4.5969355   -4.5969355   -2.1259529    3.0302234   -4.5969355    2.4709826      1024000 
    3000    1.5482998   -4.5995104   -4.5995104   -2.2770654    2.0187713   -4.5995104     2.322445      1024000 
    4000    1.4969688   -4.6211688   -4.6211688   -2.3757202   0.99288189   -4.6211688    2.2454486      1024000 
    5000    1.4198205   -4.5499174   -4.5499174   -2.4201911   0.30193354   -4.5499174    2.1297264      1024000 
    6000    1.3324591   -4.4301431   -4.4301431   -2.4314585 -0.061270435   -4.4301431    1.9986846      1024000 
    7000    1.2632494   -4.3227418   -4.3227418   -2.4278715  -0.18405471   -4.3227418    1.8948702      1024000 
    8000    1.2410867   -4.2836613   -4.2836613   -2.4220351  -0.11004626   -4.2836613    1.8616262      1024000 
    9000    1.2512866   -4.2962847   -4.2962847   -2.4193586  0.012583268   -4.2962847    1.8769261      1024000 
   10000    1.2554421   -4.3051989   -4.3051989   -2.4220396  0.081222063   -4.3051989    1.8831593      1024000 
   11000    1.2547214   -4.3087752   -4.3087752   -2.4266969   0.10804263   -4.3087752    1.8820783      1024000 
   12000    1.2537398   -4.3133152   -4.3133152   -2.4327093   0.13229046   -4.3133152    1.8806059      1024000 
   13000    1.2533134   -4.3182683   -4.3182683   -2.4383019   0.14769518   -4.3182683    1.8799664      1024000 
   14000    1.2525291   -4.3226955   -4.3226955   -2.4439056   0.17411679   -4.3226955    1.8787899      1024000 
   15000    1.2519554   -4.3275835   -4.3275835   -2.4496542   0.18476419   -4.3275835    1.8779293      1024000 
   16000    1.2482214   -4.3263312   -4.3263312   -2.4540029    0.1861645   -4.3263312    1.8723283      1024000 
   17000    1.2445844   -4.3256932   -4.3256932   -2.4588204   0.18537762   -4.3256932    1.8668728      1024000 
   18000    1.2460832   -4.3328152   -4.3328152   -2.4636942   0.27457732   -4.3328152     1.869121      1024000 
   19000    1.2487934   -4.3419775   -4.3419775   -2.4687912    0.8506062   -4.3419775    1.8731864      1024000 
   20000    1.2580308    -4.358914    -4.358914   -2.4718715    1.0414597    -4.358914    1.8870424      1024000 
   21000    1.2598959    -4.363806    -4.363806   -2.4739661   0.93464041    -4.363806      1.88984      1024000 
   22000    1.2459572    -4.345876    -4.345876   -2.4769439    1.6079877    -4.345876     1.868932      1024000 
   23000    1.2532121   -4.3608442   -4.3608442   -2.4810299    1.4174353   -4.3608442    1.8798143      1024000 
   24000    1.2095729   -4.2992734   -4.2992734   -2.4849178    1.2178684   -4.2992734    1.8143556      1024000 
   25000    1.1770165   -4.2527038   -4.2527038   -2.4871827   0.99532741   -4.2527038    1.7655212      1024000 
   26000    1.1586623   -4.2276915   -4.2276915   -2.4897016   0.76210855   -4.2276915    1.7379899      1024000 
   27000    1.1371914   -4.1974454   -4.1974454   -2.4916618   0.60478043   -4.1974454    1.7057837      1024000 
   28000    1.1127012   -4.1636804   -4.1636804   -2.4946319   0.47564663   -4.1636804    1.6690484      1024000 
   29000    1.0743823   -4.1082609   -4.1082609   -2.4966907   0.32636998   -4.1082609    1.6115702      1024000 
   30000    1.0322462   -4.0466169   -4.0466169   -2.4982508   0.17222662   -4.0466169    1.5483661      1024000 
   31000   0.99019491   -3.9849027   -3.9849027   -2.4996133  0.069857664   -3.9849027    1.4852893      1024000 
   32000   0.95775256    -3.938978    -3.938978   -2.5023521 0.0082085641    -3.938978    1.4366259      1024000 
   33000   0.93648708   -3.9092216   -3.9092216   -2.5044939 -0.024233427   -3.9092216    1.4047278      1024000 
   34000    0.9217486   -3.8896977   -3.8896977   -2.5070776 -0.031803375   -3.8896977    1.3826201      1024000 
   35000   0.91375496   -3.8798457   -3.8798457   -2.5092161  -0.03387393   -3.8798457    1.3706297      1024000 
   36000   0.91092119   -3.8780222   -3.8780222   -2.5116432 -0.024119868   -3.8780222     1.366379      1024000 
   37000   0.91321419   -3.8843364   -3.8843364   -2.5145179 -0.013459425   -3.8843364    1.3698185      1024000 
   38000   0.91425515   -3.8888413   -3.8888413   -2.5174614  0.002819924   -3.8888413    1.3713799      1024000 
   39000   0.91914342   -3.8993438   -3.8993438   -2.5206315  0.027629069   -3.8993438    1.3787123      1024000 
   40000   0.92184806   -3.9064219   -3.9064219   -2.5236526  0.034375484   -3.9064219    1.3827693      1024000 
   41000   0.92630496   -3.9160259   -3.9160259   -2.5265713  0.041633347   -3.9160259    1.3894546      1024000 
   42000   0.92934922   -3.9250657   -3.9250657   -2.5310447  0.048692623   -3.9250657     1.394021      1024000 
   43000   0.93111194   -3.9315308   -3.9315308   -2.5348657   0.05425965   -3.9315308    1.3966651      1024000 
   44000   0.93177018   -3.9373583   -3.9373583   -2.5397059  0.051963791   -3.9373583    1.3976524      1024000 
   45000   0.93012189   -3.9399236   -3.9399236   -2.5447436  0.058351548   -3.9399236      1.39518      1024000 
   46000   0.93170049   -3.9464065   -3.9464065   -2.5488586  0.060669136   -3.9464065    1.3975479      1024000 
   47000   0.93119454   -3.9502242   -3.9502242   -2.5534352  0.062794026   -3.9502242     1.396789      1024000 
   48000   0.93017169   -3.9538457   -3.9538457   -2.5585909  0.056297888   -3.9538457    1.3952547      1024000 
   49000   0.92894394    -3.957785    -3.957785   -2.5643719  0.057651359    -3.957785    1.3934131      1024000 
   50000     0.928673    -3.962747    -3.962747   -2.5697404  0.052643902    -3.962747    1.3930067      1024000 
   51000    0.9283511   -3.9679139   -3.9679139   -2.5753901  0.061977651   -3.9679139    1.3925238      1024000 
   52000    0.9307313   -3.9782902   -3.9782902   -2.5821961  0.068663563   -3.9782902    1.3960941      1024000 
   53000   0.93188218   -3.9869572   -3.9869572   -2.5891368  0.067801048   -3.9869572    1.3978204      1024000 
   54000   0.93170589   -3.9927486   -3.9927486   -2.5951926   0.08100172   -3.9927486     1.397556      1024000 
   55000   0.93376132   -4.0031068   -4.0031068   -2.6024677  0.091775583   -4.0031068    1.4006391      1024000 
   56000   0.93509651   -4.0136875   -4.0136875   -2.6110456   0.10196303   -4.0136875    1.4026419      1024000 
   57000   0.93745747   -4.0263249   -4.0263249   -2.6201416   0.12005985   -4.0263249    1.4061834      1024000 
   58000   0.93928206   -4.0381133   -4.0381133   -2.6291931   0.13260759   -4.0381133    1.4089202      1024000 
   59000   0.94088072   -4.0518493   -4.0518493   -2.6405311    0.1632559   -4.0518493    1.4113182      1024000 
   60000    0.9469723   -4.0718969   -4.0718969   -2.6514413   0.17653927   -4.0718969    1.4204556      1024000 
   61000   0.94917347   -4.0862327   -4.0862327   -2.6624754   0.20096886   -4.0862327    1.4237573      1024000 
   62000   0.95483226   -4.1060905   -4.1060905    -2.673845   0.22358392   -4.1060905    1.4322455      1024000 
   63000    0.9609171   -4.1266089   -4.1266089   -2.6852362   0.25955733   -4.1266089    1.4413727      1024000 
   64000   0.96490941   -4.1436839   -4.1436839   -2.6963227   0.29870004   -4.1436839    1.4473612      1024000 
   65000   0.96823457   -4.1614632   -4.1614632   -2.7091143   0.33168143   -4.1614632    1.4523489      1024000 
   66000   0.97355182    -4.181713    -4.181713   -2.7213882    0.3555283    -4.181713    1.4603248      1024000 
   67000   0.97602954   -4.1974563   -4.1974563   -2.7334149   0.38570357   -4.1974563    1.4640413      1024000 
   68000   0.98181883   -4.2167364   -4.2167364   -2.7440111   0.41026274   -4.2167364    1.4727253      1024000 
   69000   0.98590066   -4.2333276   -4.2333276   -2.7544796   0.44832841   -4.2333276     1.478848      1024000 
   70000    0.9902431   -4.2487348   -4.2487348   -2.7633732   0.48230923   -4.2487348    1.4853616      1024000 
   71000   0.99150753   -4.2586706   -4.2586706   -2.7714123   0.49068405   -4.2586706    1.4872583      1024000 
   72000   0.98771288   -4.2595498   -4.2595498   -2.7779835   0.48714387   -4.2595498    1.4815663      1024000 
   73000   0.97872631   -4.2556018   -4.2556018   -2.7875153   0.48192151   -4.2556018    1.4680865      1024000 
   74000   0.96609041   -4.2485075   -4.2485075   -2.7993748    0.4623551   -4.2485075    1.4491327      1024000 
   75000   0.95326974   -4.2418438   -4.2418438   -2.8119421   0.43469103   -4.2418438    1.4299017      1024000 
   76000   0.93771629   -4.2322211   -4.2322211   -2.8256495   0.39531467   -4.2322211    1.4065716      1024000 
   77000   0.92472316    -4.223787    -4.223787    -2.836705   0.33336625    -4.223787    1.3870819      1024000 
   78000   0.91209282   -4.2142587   -4.2142587   -2.8461223   0.27086585   -4.2142587    1.3681365      1024000 
   79000   0.90187137   -4.2044151   -4.2044151   -2.8516108   0.20957655   -4.2044151    1.3528043      1024000 
   80000   0.89032652   -4.1915292   -4.1915292   -2.8560421   0.15444343   -4.1915292    1.3354871      1024000 
   81000   0.87962645   -4.1769468   -4.1769468   -2.8575098   0.10339914   -4.1769468     1.319437      1024000 
   82000   0.86986288   -4.1622703   -4.1622703   -2.8574786   0.05200643   -4.1622703    1.3047917      1024000 
   83000   0.85793861   -4.1429816   -4.1429816   -2.8560763  0.017698339   -4.1429816    1.2869053      1024000 
   84000   0.84594692   -4.1236995   -4.1236995   -2.8547817 -0.017778681   -4.1236995    1.2689178      1024000 
   85000    0.8343805   -4.1040564   -4.1040564   -2.8524881 -0.051239883   -4.1040564    1.2515682      1024000 
   86000   0.82402984   -4.0856704   -4.0856704   -2.8496282 -0.081032368   -4.0856704    1.2360422      1024000 
   87000   0.81486274   -4.0706718   -4.0706718   -2.8483802 -0.097706651   -4.0706718    1.2222916      1024000 
   88000    0.8072287   -4.0581438   -4.0581438   -2.8473032  -0.10766689   -4.0581438    1.2108406      1024000 
   89000   0.80367059   -4.0523707   -4.0523707   -2.8468673  -0.11256356   -4.0523707    1.2055034      1024000 
   90000   0.80293755   -4.0513392   -4.0513392   -2.8469353  -0.10947369   -4.0513392    1.2044039      1024000 
   91000   0.80326537   -4.0527972   -4.0527972   -2.8479016  -0.09453734   -4.0527972    1.2048956      1024000 
   92000   0.80394504   -4.0552484   -4.0552484   -2.8493333 -0.082982046   -4.0552484    1.2059151      1024000 
   93000   0.80829862   -4.0630445   -4.0630445    -2.850599 -0.062202173   -4.0630445    1.2124455      1024000 
   94000   0.81450563   -4.0747745   -4.0747745   -2.8530186 -0.045403994   -4.0747745     1.221756      1024000 
   95000   0.81824219   -4.0830123   -4.0830123   -2.8556515 -0.026775698   -4.0830123    1.2273608      1024000 
   96000   0.82195115   -4.0926152   -4.0926152    -2.859691 -0.014225307   -4.0926152    1.2329242      1024000 
   97000   0.82497795   -4.1001435   -4.1001435   -2.8626791 -0.00097201898   -4.1001435    1.2374644      1024000 
   98000   0.82739651   -4.1068498   -4.1068498   -2.8657576 0.0048159942   -4.1068498    1.2410922      1024000 
   99000   0.82719652   -4.1092475   -4.1092475   -2.8684552 0.0085800122   -4.1092475    1.2407923      1024000 
  100000   0.82794464   -4.1140529   -4.1140529   -2.8721385 0.0084824103   -4.1140529    1.2419144      1024000 
  101000   0.82785175   -4.1182829   -4.1182829   -2.8765078 0.0083433033   -4.1182829    1.2417751      1024000 
  102000   0.82615443   -4.1178779   -4.1178779   -2.8786488 0.0081218416   -4.1178779    1.2392291      1024000 
  103000   0.82642399   -4.1211935   -4.1211935     -2.88156 0.0055918711   -4.1211935    1.2396335      1024000 
  104000   0.82557031   -4.1231373   -4.1231373   -2.8847843 -0.00056566818   -4.1231373     1.238353      1024000 
  105000    0.8250653   -4.1245935   -4.1245935    -2.886998 0.00066706431   -4.1245935    1.2375954      1024000 
  106000   0.82469827   -4.1264901   -4.1264901   -2.8894452 0.0042989508   -4.1264901    1.2370449      1024000 
  107000   0.82331521   -4.1274912   -4.1274912   -2.8925209 0.00042571654   -4.1274912    1.2349703      1024000 
  108000   0.82251744   -4.1289969   -4.1289969   -2.8952232  0.010671441   -4.1289969    1.2337737      1024000 
  109000    0.8239548   -4.1338792   -4.1338792   -2.8979495 0.0071541144   -4.1338792    1.2359297      1024000 
  110000   0.82317649   -4.1353457   -4.1353457   -2.9005835 0.0083093431   -4.1353457    1.2347622      1024000 
  111000   0.82333201   -4.1380932   -4.1380932   -2.9030977 0.0067787995   -4.1380932    1.2349955      1024000 
  112000   0.82211652   -4.1388581   -4.1388581   -2.9056859  0.010494829   -4.1388581    1.2331723      1024000 
  113000   0.82210605   -4.1419992   -4.1419992   -2.9088426  0.011844315   -4.1419992    1.2331566      1024000 
  114000   0.82200533   -4.1442113   -4.1442113   -2.9112058  0.010929494   -4.1442113    1.2330055      1024000 
  115000   0.82326498   -4.1486467   -4.1486467   -2.9137517  0.013905498   -4.1486467     1.234895      1024000 
  116000   0.82078096   -4.1478724   -4.1478724   -2.9167034  0.021303859   -4.1478724    1.2311689      1024000 
  117000   0.81988271   -4.1477246   -4.1477246    -2.917903  0.016488672   -4.1477246    1.2298216      1024000 
  118000   0.82014859   -4.1509371   -4.1509371   -2.9207167 0.0097949522   -4.1509371    1.2302204      1024000 
  119000   0.81922443   -4.1533124   -4.1533124   -2.9244782 0.0068173759   -4.1533124    1.2288342      1024000 
  120000   0.81779489   -4.1528137   -4.1528137   -2.9261239 0.0061228742   -4.1528137    1.2266898      1024000 
  121000   0.81703857   -4.1542778   -4.1542778   -2.9287224  0.011893127   -4.1542778    1.2255554      1024000 
  122000   0.81669435    -4.156414    -4.156414   -2.9313749  0.011419013    -4.156414     1.225039      1024000 
  123000   0.81749734   -4.1600164   -4.1600164   -2.9337728  0.015893137   -4.1600164    1.2262435      1024000 
  124000   0.81738493   -4.1615685   -4.1615685   -2.9354936  0.016151051   -4.1615685    1.2260749      1024000 
  125000   0.81755962    -4.164423    -4.164423   -2.9380861  0.013313311    -4.164423    1.2263369      1024000 
  126000   0.81749839   -4.1671531   -4.1671531    -2.940908  0.018718399   -4.1671531    1.2262451      1024000 
  127000   0.81721732   -4.1696746   -4.1696746   -2.9438511  0.016678777   -4.1696746    1.2258235      1024000 
  128000   0.81662221   -4.1715695   -4.1715695   -2.9466387  0.019341754   -4.1715695    1.2249308      1024000 
  129000    0.8158756   -4.1730847   -4.1730847   -2.9492738  0.012050177   -4.1730847    1.2238109      1024000 
  130000   0.81557807   -4.1748926   -4.1748926    -2.951528  0.016055977   -4.1748926    1.2233646      1024000 
  131000   0.81324956   -4.1738774   -4.1738774   -2.9540056  0.012366697   -4.1738774    1.2198719      1024000 
  132000   0.81446312   -4.1773867   -4.1773867   -2.9556945  0.013408091   -4.1773867    1.2216922      1024000 
  133000   0.81419272   -4.1779708   -4.1779708   -2.9566842   0.01586913   -4.1779708    1.2212866      1024000 
  134000   0.81438629   -4.1800753   -4.1800753   -2.9584984  0.017767615   -4.1800753     1.221577      1024000 
  135000   0.81249767   -4.1798055   -4.1798055   -2.9610615  0.018058963   -4.1798055     1.218744      1024000 
  136000   0.81165357   -4.1809417   -4.1809417   -2.9634638  0.017689943   -4.1809417    1.2174779      1024000 
  137000   0.81100267   -4.1820835   -4.1820835    -2.965582  0.020548643   -4.1820835    1.2165015      1024000 
  138000   0.81147025   -4.1853797   -4.1853797   -2.9681768  0.011941096   -4.1853797    1.2172029      1024000 
  139000   0.81168091   -4.1870148   -4.1870148   -2.9694959  0.015563267   -4.1870148    1.2175189      1024000 
  140000    0.8106477   -4.1876928   -4.1876928   -2.9717237   0.01997227   -4.1876928    1.2159691      1024000 
  141000   0.81089904   -4.1891789   -4.1891789   -2.9728328  0.018780674   -4.1891789    1.2163461      1024000 
  142000   0.80974741   -4.1898516   -4.1898516   -2.9752329  0.017739977   -4.1898516    1.2146186      1024000 
  143000   0.81041549   -4.1924538   -4.1924538    -2.976833  0.010619417   -4.1924538    1.2156208      1024000 
  144000   0.80956115   -4.1938122   -4.1938122   -2.9794729  0.020045912   -4.1938122    1.2143393      1024000 
  145000   0.81086135    -4.196758    -4.196758   -2.9804684     0.018795    -4.196758    1.2162896      1024000 
  146000   0.80988801   -4.1973161   -4.1973161   -2.9824866  0.020419731   -4.1973161    1.2148296      1024000 
  147000   0.81039757   -4.2000621   -4.2000621   -2.9844682  0.018901088   -4.2000621    1.2155939      1024000 
  148000   0.80828854   -4.1991687   -4.1991687   -2.9867384  0.018426599   -4.1991687    1.2124304      1024000 
  149000    0.8076554   -4.2004776   -4.2004776    -2.988997  0.018292257   -4.2004776    1.2114806      1024000 
  150000   0.80746572   -4.2019837   -4.2019837   -2.9907876  0.017909817   -4.2019837    1.2111961      1024000 
  151000   0.80739336   -4.2046283   -4.2046283   -2.9935407  0.013891846   -4.2046283    1.2110876      1024000 
  152000   0.80755633   -4.2062216   -4.2062216   -2.9948896  0.018745628   -4.2062216     1.211332      1024000 
  153000   0.80669534   -4.2064867   -4.2064867   -2.9964461  0.017509824   -4.2064867    1.2100406      1024000 
  154000   0.80664091   -4.2074853   -4.2074853   -2.9975264  0.020382571   -4.2074853    1.2099589      1024000 
  155000   0.80628426   -4.2097117   -4.2097117   -3.0002877  0.017810331   -4.2097117    1.2094239      1024000 
  156000   0.80523724   -4.2104018   -4.2104018   -3.0025484  0.020541925   -4.2104018    1.2078534      1024000 
  157000   0.80594839   -4.2132618   -4.2132618   -3.0043417  0.011121977   -4.2132618    1.2089201      1024000 
  158000   0.80647763   -4.2156106   -4.2156106   -3.0058966  0.015355466   -4.2156106     1.209714      1024000 
  159000   0.80576176   -4.2161849   -4.2161849   -3.0075447  0.019930213   -4.2161849    1.2086402      1024000 
  160000   0.80478461   -4.2163315   -4.2163315   -3.0091571  0.020086559   -4.2163315    1.2071745      1024000 
  161000   0.80437183   -4.2177507   -4.2177507   -3.0111954  0.017251617   -4.2177507    1.2065553      1024000 
  162000    0.8038396   -4.2195239   -4.2195239   -3.0137669  0.014199066   -4.2195239     1.205757      1024000 
  163000   0.80296288   -4.2202343   -4.2202343   -3.0157924  0.017859695   -4.2202343    1.2044419      1024000 
  164000   0.80385481   -4.2224326   -4.2224326   -3.0166528  0.025225539   -4.2224326    1.2057798      1024000 
  165000   0.80387516   -4.2240112   -4.2240112   -3.0182009  0.021598929   -4.2240112    1.2058103      1024000 
  166000   0.80323314   -4.2253362   -4.2253362    -3.020489  0.024585615   -4.2253362    1.2048473      1024000 
  167000   0.80321241   -4.2273163   -4.2273163   -3.0225001  0.021526531   -4.2273163    1.2048162      1024000 
  168000   0.80268925   -4.2284964   -4.2284964   -3.0244649  0.020834109   -4.2284964    1.2040314      1024000 
  169000   0.80137466   -4.2272821   -4.2272821   -3.0252226   0.02369183   -4.2272821    1.2020596      1024000 
  170000   0.80190775   -4.2302896   -4.2302896   -3.0274304  0.017308814   -4.2302896    1.2028592      1024000 
  171000   0.80146866   -4.2306413   -4.2306413   -3.0284408  0.016199892   -4.2306413    1.2022005      1024000 
  172000   0.80186993   -4.2326221   -4.2326221   -3.0298197  0.009754709   -4.2326221    1.2028025      1024000 
  173000   0.80292837   -4.2355462   -4.2355462   -3.0311561  0.015224092   -4.2355462    1.2043901      1024000 
  174000   0.80144937   -4.2351357   -4.2351357   -3.0329641  0.020792101   -4.2351357    1.2021716      1024000 
  175000   0.80106564   -4.2365356   -4.2365356   -3.0349396  0.023911851   -4.2365356     1.201596      1024000 
  176000   0.80126495   -4.2385619   -4.2385619   -3.0366669  0.017379637   -4.2385619     1.201895      1024000 
  177000   0.80086611     -4.23948     -4.23948   -3.0381832   0.02192561     -4.23948    1.2012967      1024000 
  178000    0.8005829   -4.2410498   -4.2410498   -3.0401779  0.021779288   -4.2410498    1.2008719      1024000 
  179000    0.8009068   -4.2440823   -4.2440823   -3.0427245  0.023702911   -4.2440823    1.2013578      1024000 
  180000    0.7993914   -4.2443046   -4.2443046     -3.04522  0.025021153   -4.2443046    1.1990847      1024000 
  181000   0.79789648   -4.2433584   -4.2433584   -3.0465161  0.020049764   -4.2433584    1.1968423      1024000 
  182000   0.79846719   -4.2462025   -4.2462025   -3.0485042  0.017203954   -4.2462025    1.1976984      1024000 
  183000   0.79756451   -4.2465132   -4.2465132   -3.0501688  0.024190162   -4.2465132    1.1963443      1024000 
  184000    0.7978088   -4.2478046   -4.2478046   -3.0510939  0.021739982   -4.2478046    1.1967108      1024000 
  185000   0.79827984   -4.2510333   -4.2510333    -3.053616  0.026519445   -4.2510333    1.1974173      1024000 
  186000   0.79817037   -4.2528296   -4.2528296   -3.0555765  0.022587981   -4.2528296    1.1972531      1024000 
  187000   0.79871807    -4.254643    -4.254643   -3.0565684  0.015818072    -4.254643    1.1980747      1024000 
  188000   0.79705893   -4.2535343   -4.2535343   -3.0579483   0.02223651   -4.2535343     1.195586      1024000 
  189000   0.79710106   -4.2551073   -4.2551073   -3.0594581  0.022773781   -4.2551073    1.1956492      1024000 
  190000   0.79758644   -4.2578436   -4.2578436   -3.0614664  0.019159294   -4.2578436    1.1963772      1024000 
  191000   0.79710139   -4.2593168   -4.2593168   -3.0636671  0.017273084   -4.2593168    1.1956497      1024000 
  192000    0.7967445   -4.2598278   -4.2598278   -3.0647135  0.010159189   -4.2598278    1.1951143      1024000 
  193000   0.79551341   -4.2595555   -4.2595555   -3.0662878  0.015623874   -4.2595555    1.1932677      1024000 
  194000   0.79612524   -4.2618243   -4.2618243   -3.0676389  0.014946392   -4.2618243    1.1941854      1024000 
  195000   0.79623417   -4.2633474   -4.2633474   -3.0689986  0.017624924   -4.2633474    1.1943488      1024000 
  196000   0.79545874   -4.2636454   -4.2636454   -3.0704597  0.021298343   -4.2636454    1.1931857      1024000 
  197000   0.79593344    -4.265274    -4.265274   -3.0713763  0.020599238    -4.265274    1.1938977      1024000 
  198000   0.79584605   -4.2667319   -4.2667319   -3.0729652  0.025104305   -4.2667319    1.1937667      1024000 
  199000   0.79610387   -4.2689084   -4.2689084    -3.074755  0.026592849   -4.2689084    1.1941534      1024000 
  200000     0.796597   -4.2713844   -4.2713844   -3.0764914  0.028563823   -4.2713844    1.1948931      1024000 
  201000   0.79633546   -4.2727621   -4.2727621   -3.0782614  0.026958578   -4.2727621    1.1945008      1024000 
  202000   0.79625839   -4.2739027   -4.2739027   -3.0795175  0.022450256   -4.2739027    1.1943852      1024000 
  203000   0.79512849   -4.2733747   -4.2733747   -3.0806844  0.021889646   -4.2733747    1.1926903      1024000 
  204000   0.79510904   -4.2744397   -4.2744397   -3.0817785  0.021010952   -4.2744397    1.1926611      1024000 
  205000   0.79441762   -4.2753131   -4.2753131   -3.0836891  0.017031047   -4.2753131     1.191624      1024000 
  206000   0.79365766   -4.2757644   -4.2757644   -3.0852803  0.018115199   -4.2757644    1.1904841      1024000 
  207000   0.79422004   -4.2779246   -4.2779246    -3.086597  0.015661323   -4.2779246    1.1913276      1024000 
  208000   0.79273267   -4.2763671   -4.2763671   -3.0872705  0.024430263   -4.2763671    1.1890966      1024000 
  209000   0.79349998    -4.278639    -4.278639   -3.0883915  0.017405466    -4.278639    1.1902476      1024000 
  210000   0.79300296   -4.2800194   -4.2800194   -3.0905174  0.021198675   -4.2800194     1.189502      1024000 
  211000   0.79278315   -4.2811807   -4.2811807   -3.0920084  0.019800489   -4.2811807    1.1891723      1024000 
  212000   0.79248845   -4.2817547   -4.2817547   -3.0930245  0.020435027   -4.2817547    1.1887303      1024000 
  213000   0.79345777   -4.2844527   -4.2844527   -3.0942685  0.021250238   -4.2844527    1.1901842      1024000 
  214000   0.79295509   -4.2854397   -4.2854397   -3.0960094  0.019102014   -4.2854397    1.1894302      1024000 
  215000   0.79293462   -4.2869365   -4.2869365    -3.097537  0.024135145   -4.2869365    1.1893995      1024000 
  216000   0.79288914   -4.2880573   -4.2880573    -3.098726  0.020915689   -4.2880573    1.1893313      1024000 
  217000   0.79184429   -4.2884055   -4.2884055   -3.1006414  0.023794494   -4.2884055     1.187764      1024000 
  218000   0.79072257   -4.2872842   -4.2872842   -3.1012028  0.024090454   -4.2872842    1.1860814      1024000 
  219000   0.79104404   -4.2889246   -4.2889246   -3.1023609  0.018949553   -4.2889246    1.1865637      1024000 
  220000   0.79087349   -4.2902115   -4.2902115   -3.1039037  0.013082083   -4.2902115    1.1863078      1024000 
  221000   0.79049137   -4.2913922   -4.2913922   -3.1056575  0.019365832   -4.2913922    1.1857346      1024000 
  222000   0.78994654   -4.2921016   -4.2921016   -3.1071842  0.016310781   -4.2921016    1.1849174      1024000 
  223000   0.79178172   -4.2960125   -4.2960125   -3.1083424  0.021051113   -4.2960125    1.1876702      1024000 
  224000   0.78979063   -4.2949224   -4.2949224   -3.1102389  0.025017113   -4.2949224    1.1846835      1024000 
  225000    0.7905141   -4.2965133   -4.2965133   -3.1107446  0.023855478   -4.2965133    1.1857687      1024000 
  226000   0.79024351   -4.2980811   -4.2980811   -3.1127183   0.02271559   -4.2980811    1.1853629      1024000 
  227000   0.79059653   -4.3003524   -4.3003524   -3.1144601  0.021379093   -4.3003524    1.1858924      1024000 
  228000   0.79000969   -4.3012701   -4.3012701    -3.116258  0.015456259   -4.3012701    1.1850121      1024000 
  229000   0.78903931   -4.3010839   -4.3010839   -3.1175274  0.020976604   -4.3010839    1.1835566      1024000 
  230000   0.79008359   -4.3045897   -4.3045897   -3.1194667  0.015544487   -4.3045897     1.185123      1024000 
  231000   0.78954751   -4.3052769   -4.3052769    -3.120958  0.021596458   -4.3052769    1.1843189      1024000 
  232000   0.78832778   -4.3045758   -4.3045758   -3.1220865    0.0258317   -4.3045758    1.1824893      1024000 
  233000   0.78818951   -4.3055335   -4.3055335   -3.1232516  0.024288553   -4.3055335    1.1822819      1024000 
  234000   0.78715878    -4.305983    -4.305983   -3.1252472   0.02093294    -4.305983    1.1807358      1024000 
  235000   0.78787919   -4.3083924   -4.3083924    -3.126576  0.022160996   -4.3083924    1.1818164      1024000 
  236000   0.78778492    -4.310307    -4.310307    -3.128632  0.018424613    -4.310307     1.181675      1024000 
  237000   0.78829115   -4.3125089   -4.3125089   -3.1300746  0.022760419   -4.3125089    1.1824343      1024000 
  238000   0.78838895   -4.3143185   -4.3143185   -3.1317375  0.022625083   -4.3143185     1.182581      1024000 
  239000   0.78842466   -4.3158655   -4.3158655   -3.1332309  0.018857106   -4.3158655    1.1826346      1024000 
  240000   0.78705633    -4.315178    -4.315178   -3.1345959   0.01893965    -4.315178    1.1805821      1024000 
  241000    0.7873444   -4.3175024   -4.3175024   -3.1364882  0.019571036   -4.3175024    1.1810142      1024000 
  242000   0.78859303   -4.3198609   -4.3198609   -3.1369738   0.02231622   -4.3198609    1.1828872      1024000 
  243000   0.78696482   -4.3191759   -4.3191759    -3.138731   0.02461417   -4.3191759    1.1804448      1024000 
  244000   0.78619911   -4.3196241   -4.3196241   -3.1403278  0.021474742   -4.3196241    1.1792963      1024000 
  245000   0.78628461    -4.321777    -4.321777   -3.1423524  0.019417327    -4.321777    1.1794245      1024000 
  246000   0.78483606   -4.3208031   -4.3208031   -3.1435514  0.019077465   -4.3208031    1.1772517      1024000 
  247000    0.7851995   -4.3227156   -4.3227156   -3.1449188  0.016084237   -4.3227156    1.1777969      1024000 
  248000   0.78500546   -4.3232101   -4.3232101   -3.1457043   0.02080824   -4.3232101    1.1775058      1024000 
  249000   0.78491644   -4.3242963   -4.3242963    -3.146924  0.020690634   -4.3242963    1.1773723      1024000 
  250000   0.78582837    -4.326815    -4.326815   -3.1480748  0.017802043    -4.326815    1.1787402      1024000 
  251000   0.78523748   -4.3278867   -4.3278867   -3.1500329  0.018257605   -4.3278867    1.1778538      1024000 
  252000   0.78552744   -4.3294655   -4.3294655   -3.1511767  0.019909041   -4.3294655    1.1782888      1024000 
  253000   0.78436992   -4.3295967   -4.3295967   -3.1530442  0.015993044   -4.3295967    1.1765525      1024000 
  254000   0.78378493   -4.3300281   -4.3300281   -3.1543531   0.01921246   -4.3300281     1.175675      1024000 
  255000   0.78461721   -4.3332385   -4.3332385   -3.1563151  0.020640953   -4.3332385    1.1769234      1024000 
  256000   0.78533362   -4.3364846   -4.3364846   -3.1584865  0.015502576   -4.3364846     1.177998      1024000 
  257000   0.78432938   -4.3359129   -4.3359129   -3.1594213  0.019089874   -4.3359129    1.1764917      1024000 
  258000   0.78312633   -4.3352511   -4.3352511    -3.160564  0.024052138   -4.3352511    1.1746871      1024000 
  259000   0.78421677   -4.3381361   -4.3381361   -3.1618133  0.020780741   -4.3381361    1.1763228      1024000 
  260000   0.78379804   -4.3386833   -4.3386833   -3.1629887  0.020486704   -4.3386833    1.1756947      1024000 
  261000   0.78214495   -4.3386173   -4.3386173   -3.1654022  0.022997827   -4.3386173     1.173215      1024000 
  262000   0.78275566   -4.3400421   -4.3400421    -3.165911  0.018514065   -4.3400421    1.1741311      1024000 
  263000    0.7811716   -4.3396376   -4.3396376   -3.1678826  0.022023267   -4.3396376     1.171755      1024000 
  264000   0.78359381   -4.3442452   -4.3442452   -3.1688568  0.015889175   -4.3442452    1.1753883      1024000 
  265000   0.78213129   -4.3430718   -4.3430718   -3.1698772  0.016310222   -4.3430718    1.1731946      1024000 
  266000     0.782105   -4.3441044   -4.3441044   -3.1709493  0.017218434   -4.3441044    1.1731551      1024000 
  267000   0.78209829   -4.3447334   -4.3447334   -3.1715883  0.016739071   -4.3447334    1.1731451      1024000 
  268000    0.7821211    -4.345859    -4.345859   -3.1726797  0.021224086    -4.345859    1.1731793      1024000 
  269000   0.78178289   -4.3462547   -4.3462547   -3.1735827  0.019037103   -4.3462547     1.172672      1024000 
  270000   0.78150215   -4.3475413   -4.3475413   -3.1752905  0.019010903   -4.3475413    1.1722508      1024000 
  271000   0.78212286   -4.3491744   -4.3491744   -3.1759925  0.017227955   -4.3491744    1.1731819      1024000 
  272000   0.78079013   -4.3484286   -4.3484286   -3.1772457  0.015539486   -4.3484286    1.1711828      1024000 
  273000   0.78110725   -4.3504439   -4.3504439   -3.1787854  0.014662744   -4.3504439    1.1716585      1024000 
  274000   0.78150517   -4.3523493   -4.3523493   -3.1800939  0.023852243   -4.3523493    1.1722554      1024000 
  275000     0.781935   -4.3546012   -4.3546012   -3.1817011  0.015386071   -4.3546012    1.1729001      1024000 
  276000   0.78107653   -4.3544894   -4.3544894    -3.182877  0.015563002   -4.3544894    1.1716124      1024000 
  277000   0.78104739   -4.3550665   -4.3550665   -3.1834978  0.018463319   -4.3550665    1.1715687      1024000 
  278000    0.7812094   -4.3569627   -4.3569627    -3.185151  0.025538839   -4.3569627    1.1718117      1024000 
  279000   0.78106587   -4.3581261   -4.3581261   -3.1865297  0.016796267   -4.3581261    1.1715964      1024000 
  280000   0.78104991   -4.3599739   -4.3599739   -3.1884014  0.016049194   -4.3599739    1.1715725      1024000 
  281000   0.78037646   -4.3595187   -4.3595187   -3.1889564  0.024864215   -4.3595187    1.1705623      1024000 
  282000   0.77971283   -4.3593198   -4.3593198   -3.1897529  0.024481073   -4.3593198    1.1695669      1024000 
  283000   0.77920609   -4.3597568   -4.3597568     -3.19095  0.021995416   -4.3597568    1.1688068      1024000 
  284000   0.77973612   -4.3626575   -4.3626575   -3.1930557  0.020539665   -4.3626575    1.1696018      1024000 
  285000   0.77899874   -4.3632647   -4.3632647   -3.1947689  0.017978342   -4.3632647    1.1684957      1024000 
  286000   0.77933352   -4.3645071   -4.3645071   -3.1955092  0.016516111   -4.3645071    1.1689979      1024000 
  287000   0.77838614   -4.3643008   -4.3643008    -3.196724  0.015559393   -4.3643008    1.1675768      1024000 
  288000   0.77882727   -4.3657334   -4.3657334   -3.1974948  0.014552409   -4.3657334    1.1682385      1024000 
  289000   0.77828111   -4.3661463   -4.3661463    -3.198727  0.013546405   -4.3661463    1.1674193      1024000 
  290000   0.77815248   -4.3672482   -4.3672482   -3.2000219  0.017470358   -4.3672482    1.1672264      1024000 
  291000   0.77793484   -4.3686386   -4.3686386   -3.2017387  0.015204026   -4.3686386    1.1668999      1024000 
  292000   0.77831698   -4.3700933   -4.3700933   -3.2026202  0.024988102   -4.3700933    1.1674731      1024000 
  293000   0.77943464   -4.3732406   -4.3732406    -3.204091  0.019911617   -4.3732406    1.1691496      1024000 
  294000   0.77756452   -4.3720977   -4.3720977   -3.2057533  0.020662921   -4.3720977    1.1663444      1024000 
  295000   0.77804385   -4.3732622   -4.3732622   -3.2061988  0.023046437   -4.3732622    1.1670634      1024000 
  296000   0.77760689   -4.3752449   -4.3752449   -3.2088369  0.021415871   -4.3752449     1.166408      1024000 
  297000   0.77906255   -4.3788695   -4.3788695    -3.210278  0.015656192   -4.3788695    1.1685915      1024000 
  298000   0.77681407   -4.3762242   -4.3762242   -3.2110055  0.023020614   -4.3762242    1.1652187      1024000 
  299000    0.7779424    -4.378872    -4.378872   -3.2119608  0.022784983    -4.378872    1.1669112      1024000 
  300000   0.77724877   -4.3786567   -4.3786567   -3.2127859  0.022691823   -4.3786567    1.1658708      1024000 
  301000   0.77691327    -4.379742    -4.379742   -3.2143745   0.01609012    -4.379742    1.1653675      1024000 
  302000   0.77576884   -4.3795161   -4.3795161   -3.2158652  0.022904562   -4.3795161    1.1636509      1024000 
  303000   0.77661181   -4.3818006   -4.3818006   -3.2168852  0.020042622   -4.3818006    1.1649154      1024000 
  304000   0.77637067   -4.3822301   -4.3822301   -3.2176764  0.024014661   -4.3822301    1.1645536      1024000 
  305000    0.7768617   -4.3844597   -4.3844597   -3.2191696  0.016829162   -4.3844597    1.1652902      1024000 
  306000   0.77628502   -4.3849614   -4.3849614   -3.2205363  0.013744715   -4.3849614    1.1644252      1024000 
  307000   0.77621041   -4.3863029   -4.3863029   -3.2219897  0.016285258   -4.3863029    1.1643133      1024000 
  308000   0.77588596   -4.3869487   -4.3869487   -3.2231221  0.016821851   -4.3869487    1.1638266      1024000 
  309000   0.77591329   -4.3881917   -4.3881917   -3.2243241  0.012414088   -4.3881917    1.1638676      1024000 
  310000   0.77537534   -4.3889483   -4.3889483   -3.2258877  0.014902084   -4.3889483    1.1630606      1024000 
  311000   0.77541884   -4.3898777   -4.3898777   -3.2267518  0.017603755   -4.3898777    1.1631259      1024000 
  312000   0.77528626   -4.3905368   -4.3905368   -3.2276098   0.01690703   -4.3905368     1.162927      1024000 
  313000   0.77581697   -4.3930417   -4.3930417   -3.2293186  0.014114352   -4.3930417    1.1637231      1024000 
  314000   0.77606474   -4.3947474   -4.3947474   -3.2306526  0.015520444   -4.3947474    1.1640947      1024000 
  315000   0.77517118   -4.3946609   -4.3946609   -3.2319065  0.016807246   -4.3946609    1.1627544      1024000 
  316000   0.77560112   -4.3953566   -4.3953566   -3.2319573  0.018551161   -4.3953566    1.1633993      1024000 
  317000   0.77597629   -4.3970261   -4.3970261   -3.2330641  0.020042489   -4.3970261    1.1639621      1024000 
  318000   0.77495176   -4.3963848   -4.3963848   -3.2339595  0.020975447   -4.3963848    1.1624253      1024000 
  319000   0.77601253   -4.3994485   -4.3994485   -3.2354321  0.017499093   -4.3994485    1.1640164      1024000 
  320000   0.77554709   -4.3997672   -4.3997672   -3.2364489  0.015437395   -4.3997672    1.1633183      1024000 
  321000   0.77550007   -4.4009684   -4.4009684   -3.2377207  0.015177996   -4.4009684    1.1632477      1024000 
  322000   0.77572454   -4.4027155   -4.4027155    -3.239131  0.017017743   -4.4027155    1.1635845      1024000 
  323000   0.77573705   -4.4050384   -4.4050384   -3.2414352  0.016298983   -4.4050384    1.1636032      1024000 
  324000   0.77427184   -4.4042508   -4.4042508   -3.2428454  0.016613596   -4.4042508    1.1614054      1024000 
  325000   0.77379667   -4.4045364   -4.4045364   -3.2438437  0.014508882   -4.4045364    1.1606926      1024000 
  326000   0.77405221   -4.4060337   -4.4060337   -3.2449578  0.012480447   -4.4060337     1.161076      1024000 
  327000   0.77400523   -4.4070984   -4.4070984   -3.2460929  0.013623932   -4.4070984    1.1610055      1024000 
  328000   0.77320977   -4.4077194   -4.4077194   -3.2479071  0.018617267   -4.4077194    1.1598123      1024000 
  329000   0.77435896   -4.4099081   -4.4099081   -3.2483721  0.021314122   -4.4099081    1.1615361      1024000 
  330000   0.77502854   -4.4123237   -4.4123237   -3.2497832  0.018897055   -4.4123237    1.1625405      1024000 
  331000   0.77353631   -4.4121319   -4.4121319   -3.2518298  0.019473081   -4.4121319    1.1603021      1024000 
  332000   0.77293391   -4.4126081   -4.4126081   -3.2532096  0.019912363   -4.4126081    1.1593985      1024000 
  333000   0.77267985   -4.4138722   -4.4138722   -3.2548548  0.017536844   -4.4138722    1.1590174      1024000 
  334000   0.77279228   -4.4150875   -4.4150875   -3.2559014  0.022318492   -4.4150875    1.1591861      1024000 
  335000   0.77299853   -4.4171058   -4.4171058   -3.2576103  0.018379484   -4.4171058    1.1594954      1024000 
  336000   0.77398731   -4.4192506   -4.4192506    -3.258272  0.021016068   -4.4192506    1.1609786      1024000 
  337000   0.77345942   -4.4201857   -4.4201857    -3.259999  0.023667086   -4.4201857    1.1601868      1024000 
  338000   0.77406027   -4.4219486   -4.4219486   -3.2608606  0.022901204   -4.4219486     1.161088      1024000 
  339000   0.77490385   -4.4248977   -4.4248977   -3.2625443  0.025552652   -4.4248977    1.1623534      1024000 
  340000   0.77474359   -4.4263648   -4.4263648   -3.2642518   0.02694014   -4.4263648     1.162113      1024000 
  341000   0.77468602   -4.4275829   -4.4275829   -3.2655562  0.029398917   -4.4275829    1.1620267      1024000 
  342000   0.77527469   -4.4294245   -4.4294245   -3.2665148  0.030245332   -4.4294245    1.1629097      1024000 
  343000   0.77589463   -4.4321441   -4.4321441   -3.2683045  0.037808177   -4.4321441    1.1638396      1024000 
  344000   0.77667672   -4.4343706   -4.4343706   -3.2693579  0.040683183   -4.4343706    1.1650127      1024000 
  345000    0.7779189   -4.4373477   -4.4373477   -3.2704717  0.041440834   -4.4373477     1.166876      1024000 
  346000   0.77814187   -4.4388745   -4.4388745   -3.2716641  0.042101196   -4.4388745    1.1672104      1024000 
  347000   0.77802738   -4.4399703   -4.4399703   -3.2729316  0.050889377   -4.4399703    1.1670387      1024000 
  348000   0.77917829   -4.4435056   -4.4435056   -3.2747405  0.049287414   -4.4435056    1.1687651      1024000 
  349000   0.77903321   -4.4452169   -4.4452169   -3.2766695  0.055337475   -4.4452169    1.1685474      1024000 
  350000   0.78174236   -4.4505316   -4.4505316   -3.2779204  0.056140565   -4.4505316    1.1726112      1024000 
  351000   0.78160411   -4.4517307   -4.4517307    -3.279327  0.061636761   -4.4517307    1.1724038      1024000 
  352000   0.78139557   -4.4537961   -4.4537961   -3.2817051  0.070345852   -4.4537961     1.172091      1024000 
  353000   0.78363502   -4.4589518   -4.4589518   -3.2835016  0.071552642   -4.4589518    1.1754501      1024000 
  354000   0.78503432   -4.4626522   -4.4626522   -3.2851032  0.079779138   -4.4626522    1.1775491      1024000 
  355000   0.78635357   -4.4661225   -4.4661225   -3.2865945  0.093375037   -4.4661225     1.179528      1024000 
  356000   0.78680775   -4.4689667   -4.4689667   -3.2887575  0.098489832   -4.4689667    1.1802092      1024000 
  357000   0.78746291   -4.4723802   -4.4723802   -3.2911883   0.10614722   -4.4723802     1.181192      1024000 
  358000   0.78831645   -4.4761396   -4.4761396   -3.2936673   0.10627705   -4.4761396    1.1824723      1024000 
  359000   0.78682363   -4.4756942   -4.4756942   -3.2954611   0.11040813   -4.4756942    1.1802331      1024000 
  360000   0.78613665   -4.4766457   -4.4766457   -3.2974431   0.10814687   -4.4766457    1.1792026      1024000 
  361000   0.78579238   -4.4780894   -4.4780894   -3.2994032  0.094067308   -4.4780894    1.1786862      1024000 
  362000   0.78345441   -4.4768932   -4.4768932    -3.301714  0.077044815   -4.4768932    1.1751792      1024000 
  363000   0.77935417     -4.47303     -4.47303   -3.3040012  0.076304423     -4.47303    1.1690289      1024000 
  364000    0.7771177   -4.4711412   -4.4711412    -3.305467   0.05919995   -4.4711412    1.1656742      1024000 
  365000   0.77437605   -4.4687001   -4.4687001   -3.3071383  0.053177187   -4.4687001    1.1615617      1024000 
  366000   0.77195331   -4.4662374   -4.4662374   -3.3083098  0.040059942   -4.4662374    1.1579276      1024000 
  367000   0.76945048   -4.4635079   -4.4635079   -3.3093345  0.024579245   -4.4635079    1.1541734      1024000 
  368000   0.76645487   -4.4591071   -4.4591071   -3.3094271  0.014119666   -4.4591071      1.14968      1024000 
  369000   0.76474896   -4.4564611   -4.4564611     -3.30934 0.0030298164   -4.4564611    1.1471211      1024000 
  370000   0.76127957   -4.4516725   -4.4516725   -3.3097555 -0.0069354669   -4.4516725     1.141917      1024000 
  371000   0.75934517   -4.4499851   -4.4499851   -3.3109697 -0.016916654   -4.4499851    1.1390154      1024000 
  372000   0.75695086   -4.4455059   -4.4455059   -3.3100819 -0.024311855   -4.4455059     1.135424      1024000 
  373000   0.75720682   -4.4457854   -4.4457854   -3.3099775 -0.033119212   -4.4457854    1.1358079      1024000 
  374000   0.75568139   -4.4431625   -4.4431625   -3.3096427 -0.035847491   -4.4431625    1.1335198      1024000 
  375000   0.75441713   -4.4409627   -4.4409627   -3.3093393 -0.032018691   -4.4409627    1.1316234      1024000 
  376000   0.75515371   -4.4416831   -4.4416831   -3.3089549 -0.035272287   -4.4416831    1.1327283      1024000 
  377000   0.75571388   -4.4425542   -4.4425542   -3.3089857 -0.034755746   -4.4425542    1.1335685      1024000 
  378000   0.75641362   -4.4429499   -4.4429499   -3.3083318 -0.033063366   -4.4429499    1.1346181      1024000 
  379000   0.75627684   -4.4442284   -4.4442284   -3.3098155 -0.026766207   -4.4442284     1.134413      1024000 
  380000   0.75798694   -4.4467218   -4.4467218   -3.3097437  -0.02545599   -4.4467218    1.1369781      1024000 
  381000   0.75926543   -4.4488978   -4.4488978    -3.310002 -0.015660228   -4.4488978    1.1388958      1024000 
  382000   0.76076218   -4.4516281   -4.4516281   -3.3104871 -0.0083735183   -4.4516281     1.141141      1024000 
  383000   0.76370746   -4.4569838   -4.4569838   -3.3114249 -0.0027018024   -4.4569838    1.1455589      1024000 
  384000   0.76598713   -4.4618822   -4.4618822   -3.3129038 0.0052679083   -4.4618822    1.1489784      1024000 
  385000   0.76665125   -4.4645811   -4.4645811   -3.3146065  0.018913625   -4.4645811    1.1499745      1024000 
  386000   0.76735657   -4.4674595   -4.4674595    -3.316427  0.028290997   -4.4674595    1.1510325      1024000 
  387000   0.76912662   -4.4720266   -4.4720266    -3.318339  0.031221264   -4.4720266    1.1536876      1024000 
  388000   0.77080348   -4.4762994   -4.4762994   -3.3200965   0.04533656   -4.4762994    1.1562029      1024000 
  389000   0.77197358   -4.4796811   -4.4796811    -3.321723  0.051615451   -4.4796811     1.157958      1024000 
  390000   0.77290898    -4.484101    -4.484101   -3.3247399  0.053599144    -4.484101    1.1593611      1024000 
  391000   0.77201352   -4.4850725   -4.4850725   -3.3270546  0.063650559   -4.4850725    1.1580179      1024000 
  392000   0.77252513    -4.488273    -4.488273   -3.3294877  0.064182927    -4.488273    1.1587853      1024000 
  393000   0.77297535   -4.4918742   -4.4918742   -3.3324136  0.069230114   -4.4918742    1.1594607      1024000 
  394000   0.77145924   -4.4926718   -4.4926718   -3.3354853  0.071919251   -4.4926718    1.1571865      1024000 
  395000    0.7709338   -4.4937389   -4.4937389   -3.3373406  0.067764952   -4.4937389    1.1563983      1024000 
  396000   0.77065521    -4.495875    -4.495875   -3.3398946  0.064949171    -4.495875    1.1559805      1024000 
  397000   0.77034183   -4.4969729   -4.4969729   -3.3414625  0.059248575   -4.4969729    1.1555104      1024000 
  398000    0.7694307   -4.4969589   -4.4969589   -3.3428152  0.051577652   -4.4969589    1.1541437      1024000 
  399000   0.76881004   -4.4977362   -4.4977362   -3.3445234  0.045686541   -4.4977362    1.1532127      1024000 
  400000   0.76600315   -4.4950419   -4.4950419   -3.3460396  0.047217157   -4.4950419    1.1490024      1024000 
  401000   0.76379788   -4.4931137   -4.4931137   -3.3474192  0.044088993   -4.4931137    1.1456945      1024000 
  402000   0.76275238    -4.492039    -4.492039   -3.3479127  0.038175587    -4.492039    1.1441263      1024000 
  403000   0.76279702   -4.4924884   -4.4924884   -3.3482952  0.027921161   -4.4924884    1.1441932      1024000 
  404000   0.76061181   -4.4899898   -4.4899898   -3.3490744  0.022906508   -4.4899898    1.1409154      1024000 
  405000   0.75940306   -4.4895444   -4.4895444   -3.3504421  0.014480857   -4.4895444    1.1391023      1024000 
  406000   0.75823369   -4.4888407   -4.4888407   -3.3514924  0.010059179   -4.4888407    1.1373482      1024000 
  407000   0.75699477   -4.4876164   -4.4876164   -3.3521266 0.0010663791   -4.4876164    1.1354898      1024000 
  408000   0.75620024   -4.4871546   -4.4871546   -3.3528566 0.0015930761   -4.4871546    1.1342981      1024000 
  409000   0.75627243   -4.4877638   -4.4877638   -3.3533575 -0.0059598786   -4.4877638    1.1344063      1024000 
  410000   0.75616138   -4.4880065   -4.4880065   -3.3537667 -0.0061334527   -4.4880065    1.1342398      1024000 
  411000   0.75455522   -4.4866019   -4.4866019   -3.3547714 -0.003191444   -4.4866019    1.1318305      1024000 
  412000    0.7539488   -4.4863534   -4.4863534   -3.3554325 -0.0047700398   -4.4863534    1.1309209      1024000 
  413000    0.7541729    -4.487751    -4.487751    -3.356494 -0.0087561845    -4.487751    1.1312571      1024000 
  414000   0.75392506   -4.4882229   -4.4882229   -3.3573377 -0.005098283   -4.4882229    1.1308853      1024000 
  415000   0.75444273   -4.4895354   -4.4895354   -3.3578736 0.0006541979   -4.4895354    1.1316618      1024000 
  416000   0.75595647   -4.4921606   -4.4921606   -3.3582282 -0.0043192754   -4.4921606    1.1339324      1024000 
  417000   0.75619099   -4.4928039   -4.4928039   -3.3585197 0.0087068461   -4.4928039    1.1342842      1024000 
  418000   0.75722729   -4.4960826   -4.4960826    -3.360244 0.0098728886   -4.4960826    1.1358386      1024000 
  419000   0.75649391   -4.4962317   -4.4962317   -3.3614931  0.017448314   -4.4962317    1.1347386      1024000 
  420000   0.75941104   -4.5011552   -4.5011552   -3.3620409  0.022126065   -4.5011552    1.1391142      1024000 
  421000   0.75967357   -4.5026149   -4.5026149   -3.3631069  0.027017313   -4.5026149     1.139508      1024000 
  422000   0.76028039   -4.5052563   -4.5052563    -3.364838  0.029392785   -4.5052563    1.1404183      1024000 
  423000   0.76108813   -4.5077854   -4.5077854   -3.3661555  0.033969792   -4.5077854    1.1416299      1024000 
  424000   0.76083881   -4.5096579   -4.5096579    -3.368402  0.039201009   -4.5096579    1.1412559      1024000 
  425000   0.76115194   -4.5110726   -4.5110726    -3.369347  0.043489773   -4.5110726    1.1417256      1024000 
  426000    0.7616105   -4.5129848   -4.5129848   -3.3705713   0.04702933   -4.5129848    1.1424134      1024000 
  427000   0.76081165   -4.5137995   -4.5137995   -3.3725844  0.050830725   -4.5137995    1.1412152      1024000 
  428000   0.76098278   -4.5152497   -4.5152497   -3.3737779  0.050773121   -4.5152497    1.1414719      1024000 
  429000   0.76206617   -4.5180439   -4.5180439    -3.374947  0.047383093   -4.5180439    1.1430969      1024000 
  430000   0.76090998   -4.5182348   -4.5182348   -3.3768722  0.047618385   -4.5182348    1.1413627      1024000 
  431000    0.7612736   -4.5211155   -4.5211155   -3.3792074  0.042314009   -4.5211155    1.1419081      1024000 
  432000   0.76087298    -4.521132    -4.521132   -3.3798248   0.04007736    -4.521132    1.1413072      1024000 
  433000   0.75971372   -4.5208293   -4.5208293    -3.381261  0.040106977   -4.5208293    1.1395683      1024000 
  434000    0.7578592   -4.5196936   -4.5196936   -3.3829071  0.038680539   -4.5196936    1.1367865      1024000 
  435000   0.75774433   -4.5208806   -4.5208806   -3.3842664   0.02933699   -4.5208806    1.1366142      1024000 
  436000   0.75664781   -4.5198904   -4.5198904    -3.384921  0.028353272   -4.5198904    1.1349694      1024000 
  437000   0.75540142   -4.5185695   -4.5185695   -3.3854697  0.023784541   -4.5185695    1.1330998      1024000 
  438000   0.75504448   -4.5185489   -4.5185489   -3.3859845  0.020698103   -4.5185489    1.1325644      1024000 
  439000   0.75265425   -4.5167269   -4.5167269   -3.3877478   0.01946771   -4.5167269    1.1289791      1024000 
  440000   0.75203778   -4.5159231   -4.5159231   -3.3878687  0.017176175   -4.5159231    1.1280544      1024000 
  441000   0.75294178   -4.5181733   -4.5181733    -3.388763 0.0071134852   -4.5181733    1.1294104      1024000 
  442000   0.75209158   -4.5175635   -4.5175635   -3.3894284  0.012787133   -4.5175635    1.1281351      1024000 
  443000   0.75072645   -4.5164655   -4.5164655   -3.3903782 0.0091695639   -4.5164655    1.1260874      1024000 
  444000   0.75089142   -4.5174224   -4.5174224   -3.3910876 0.00091353016   -4.5174224    1.1263348      1024000 
  445000   0.75023935   -4.5171433   -4.5171433   -3.3917866 0.0056129587   -4.5171433    1.1253567      1024000 
  446000   0.75037144   -4.5182209   -4.5182209    -3.392666 0.0067743287   -4.5182209    1.1255549      1024000 
  447000   0.75008396   -4.5180491   -4.5180491   -3.3929255 0.0087858975   -4.5180491    1.1251237      1024000 
  448000   0.75159201   -4.5207098   -4.5207098   -3.3933241 0.0078123989   -4.5207098    1.1273857      1024000 
  449000   0.75125533   -4.5204339   -4.5204339   -3.3935532 0.0086228653   -4.5204339    1.1268807      1024000 
  450000   0.75200608   -4.5229238   -4.5229238    -3.394917  0.010637685   -4.5229238    1.1280068      1024000 
  451000   0.75198456   -4.5236424   -4.5236424   -3.3956679  0.013019174   -4.5236424    1.1279746      1024000 
  452000   0.75191791   -4.5239801   -4.5239801   -3.3961055   0.01903445   -4.5239801    1.1278746      1024000 
  453000   0.75213192   -4.5264247   -4.5264247   -3.3982291   0.02025012   -4.5264247    1.1281956      1024000 
  454000   0.75238912   -4.5282931   -4.5282931   -3.3997117  0.021927214   -4.5282931    1.1285814      1024000 
  455000   0.75219233   -4.5293835   -4.5293835   -3.4010973  0.026751276   -4.5293835    1.1282862      1024000 
  456000   0.75300366   -4.5314878   -4.5314878   -3.4019846  0.028057945   -4.5314878    1.1295032      1024000 
  457000   0.75202188   -4.5318648   -4.5318648   -3.4038343  0.028983132   -4.5318648    1.1280305      1024000 
  458000   0.75284399   -4.5347691   -4.5347691   -3.4055055  0.027879073   -4.5347691    1.1292637      1024000 
  459000   0.75316548   -4.5366643   -4.5366643   -3.4069184  0.032843757   -4.5366643    1.1297459      1024000 
  460000   0.75426902   -4.5401148   -4.5401148   -3.4087136   0.03153757   -4.5401148    1.1314012      1024000 
  461000   0.75298011   -4.5399389   -4.5399389    -3.410471  0.037655904   -4.5399389    1.1294679      1024000 
  462000    0.7532501   -4.5421158   -4.5421158   -3.4122429  0.038126855   -4.5421158    1.1298729      1024000 
  463000   0.75330214   -4.5427386   -4.5427386   -3.4127877  0.035452249   -4.5427386    1.1299509      1024000 
  464000   0.75288346    -4.543306    -4.543306   -3.4139831  0.035823847    -4.543306    1.1293229      1024000 
  465000   0.75237478   -4.5439888   -4.5439888   -3.4154289  0.037408864   -4.5439888    1.1285599      1024000 
  466000   0.75137855   -4.5440828   -4.5440828   -3.4170173  0.034772612   -4.5440828    1.1270655      1024000 
  467000   0.75188421   -4.5456952   -4.5456952   -3.4178712  0.030403498   -4.5456952     1.127824      1024000 
  468000    0.7514381    -4.546069    -4.546069   -3.4189141  0.032750246    -4.546069    1.1271549      1024000 
  469000   0.75172669   -4.5469116   -4.5469116   -3.4193238  0.028517611   -4.5469116    1.1275877      1024000 
  470000   0.74939147   -4.5448713   -4.5448713   -3.4207864  0.028718695   -4.5448713    1.1240849      1024000 
  471000   0.74935634   -4.5461625   -4.5461625   -3.4221302  0.024201157   -4.5461625    1.1240322      1024000 
  472000   0.74889994   -4.5465485   -4.5465485   -3.4232009  0.022708735   -4.5465485    1.1233476      1024000 
  473000   0.74825567   -4.5470397   -4.5470397   -3.4246585  0.021676828   -4.5470397    1.1223812      1024000 
  474000   0.74707454    -4.545923    -4.545923   -3.4253135  0.018354482    -4.545923    1.1206095      1024000 
  475000   0.74683858   -4.5464326   -4.5464326    -3.426177  0.018813894   -4.5464326    1.1202556      1024000 
  476000   0.74613717   -4.5467297   -4.5467297   -3.4275262  0.017067104   -4.5467297    1.1192035      1024000 
  477000   0.74560351   -4.5465714   -4.5465714   -3.4281684   0.01753076   -4.5465714     1.118403      1024000 
  478000   0.74656506   -4.5491568   -4.5491568   -3.4293115  0.015415522   -4.5491568    1.1198453      1024000 
  479000   0.74463952   -4.5475634   -4.5475634   -3.4306064  0.018237637   -4.5475634     1.116957      1024000 
  480000   0.74612075   -4.5506409   -4.5506409   -3.4314621  0.012686386   -4.5506409    1.1191789      1024000 
  481000   0.74566856   -4.5510968   -4.5510968   -3.4325963  0.014116242   -4.5510968    1.1185006      1024000 
  482000   0.74571994   -4.5517889   -4.5517889   -3.4332113 0.0099620794   -4.5517889    1.1185776      1024000 
  483000   0.74459715   -4.5519481   -4.5519481   -3.4350547  0.016717966   -4.5519481    1.1168935      1024000 
  484000   0.74562058   -4.5535247   -4.5535247   -3.4350961  0.015316136   -4.5535247    1.1184286      1024000 
  485000   0.74637394   -4.5549793   -4.5549793   -3.4354207  0.018114935   -4.5549793    1.1195586      1024000 
  486000   0.74540429   -4.5549588   -4.5549588   -3.4368547  0.022021366   -4.5549588    1.1181042      1024000 
  487000   0.74619243   -4.5576552   -4.5576552   -3.4383688  0.025579969   -4.5576552    1.1192864      1024000 
  488000   0.74765046   -4.5601653   -4.5601653   -3.4386918   0.02384833   -4.5601653    1.1214734      1024000 
  489000   0.74696959   -4.5595683   -4.5595683   -3.4391162  0.027389572   -4.5595683    1.1204521      1024000 
  490000   0.74661545   -4.5606718   -4.5606718   -3.4407509  0.029655147   -4.5606718    1.1199209      1024000 
  491000   0.74712438   -4.5625793   -4.5625793    -3.441895  0.030589298   -4.5625793    1.1206843      1024000 
  492000   0.74762101   -4.5645071   -4.5645071   -3.4430779  0.032838438   -4.5645071    1.1214292      1024000 
  493000   0.74670628   -4.5645449   -4.5645449   -3.4444878  0.033060162   -4.5645449    1.1200571      1024000 
  494000   0.74649953   -4.5666741   -4.5666741   -3.4469271  0.029381831   -4.5666741     1.119747      1024000 
  495000   0.74571822   -4.5668176   -4.5668176   -3.4482425  0.027710045   -4.5668176    1.1185751      1024000 
  496000   0.74513741   -4.5673931   -4.5673931   -3.4496893  0.031052898   -4.5673931    1.1177038      1024000 
  497000   0.74479389   -4.5675349   -4.5675349   -3.4503463  0.029466428   -4.5675349    1.1171886      1024000 
  498000   0.74524759   -4.5694904   -4.5694904   -3.4516213  0.031624033   -4.5694904    1.1178691      1024000 
  499000   0.74614793   -4.5712575   -4.5712575   -3.4520379  0.027512409   -4.5712575    1.1192196      1024000 
  500000    0.7454178   -4.5720223   -4.5720223   -3.4538978  0.027200995   -4.5720223    1.1181244      1024000 
  501000   0.74465058   -4.5708781   -4.5708781   -3.4539045  0.031125112   -4.5708781    1.1169736      1024000 
  502000    0.7446441   -4.5720464   -4.5720464   -3.4550825  0.026500993   -4.5720464    1.1169639      1024000 
  503000   0.74397646   -4.5712008   -4.5712008   -3.4552384  0.028420335   -4.5712008    1.1159624      1024000 
  504000    0.7434051   -4.5717353   -4.5717353   -3.4566299  0.026360098   -4.5717353    1.1151054      1024000 
  505000   0.74299514   -4.5725224   -4.5725224   -3.4580319  0.025032345   -4.5725224    1.1144904      1024000 
  506000   0.74255546   -4.5731223   -4.5731223   -3.4592914   0.02246671   -4.5731223    1.1138309      1024000 
  507000   0.74143745   -4.5715153   -4.5715153   -3.4593614   0.02379384   -4.5715153    1.1121539      1024000 
  508000   0.74176301   -4.5734803   -4.5734803   -3.4608381  0.016762536   -4.5734803    1.1126423      1024000 
  509000   0.74164342   -4.5739491   -4.5739491   -3.4614862  0.018267388   -4.5739491    1.1124629      1024000 
  510000    0.7406305   -4.5728301   -4.5728301   -3.4618866    0.0199395   -4.5728301    1.1109435      1024000 
  511000   0.74086349   -4.5732992   -4.5732992   -3.4620062  0.020945589   -4.5732992     1.111293      1024000 
  512000    0.7413716   -4.5754762   -4.5754762    -3.463421  0.016304258   -4.5754762    1.1120551      1024000 
  513000   0.74054193   -4.5750994   -4.5750994   -3.4642887  0.016703596   -4.5750994    1.1108106      1024000 
  514000   0.74186701   -4.5767951   -4.5767951   -3.4639969  0.014754298   -4.5767951    1.1127983      1024000 
  515000   0.74092222   -4.5762266   -4.5762266   -3.4648455  0.022775779   -4.5762266    1.1113811      1024000 
  516000   0.74045975   -4.5761878   -4.5761878   -3.4655005  0.021356466   -4.5761878    1.1106874      1024000 
  517000   0.74161776    -4.578562    -4.578562   -3.4661376  0.019870912    -4.578562    1.1124244      1024000 
  518000   0.74164253   -4.5799746   -4.5799746   -3.4675131  0.017003749   -4.5799746    1.1124615      1024000 
  519000   0.74100985   -4.5795537   -4.5795537   -3.4680412  0.021126022   -4.5795537    1.1115125      1024000 
  520000   0.74107426   -4.5813485   -4.5813485   -3.4697394  0.023345859   -4.5813485    1.1116091      1024000 
  521000   0.74123554   -4.5823996   -4.5823996   -3.4705486  0.025046285   -4.5823996    1.1118511      1024000 
  522000   0.74063612   -4.5822793   -4.5822793   -3.4713273  0.025378666   -4.5822793    1.1109519      1024000 
  523000    0.7406112   -4.5834135   -4.5834135   -3.4724989  0.025945367   -4.5834135    1.1109145      1024000 
  524000   0.74017969   -4.5835746   -4.5835746   -3.4733073  0.026232637   -4.5835746    1.1102673      1024000 
  525000   0.74063278   -4.5857224   -4.5857224   -3.4747755  0.027087619   -4.5857224    1.1109469      1024000 
  526000   0.74164012   -4.5884445   -4.5884445   -3.4759865  0.023340262   -4.5884445    1.1124579      1024000 
  527000   0.74188202    -4.589687    -4.589687   -3.4768662  0.024277547    -4.589687    1.1128208      1024000 
  528000   0.74006059   -4.5889086   -4.5889086     -3.47882  0.029520151   -4.5889086    1.1100886      1024000 
  529000   0.74040819   -4.5905898   -4.5905898   -3.4799798  0.025513397   -4.5905898      1.11061      1024000 
  530000   0.73941736   -4.5906092   -4.5906092   -3.4814854  0.028338557   -4.5906092    1.1091238      1024000 
  531000   0.74027957   -4.5926703   -4.5926703   -3.4822532  0.022734284   -4.5926703    1.1104171      1024000 
  532000   0.73951523   -4.5924352   -4.5924352   -3.4831646  0.028541442   -4.5924352    1.1092706      1024000 
  533000   0.73927498   -4.5928543   -4.5928543   -3.4839441  0.026816233   -4.5928543    1.1089102      1024000 
  534000   0.73969366   -4.5933914   -4.5933914   -3.4838531  0.026923322   -4.5933914    1.1095382      1024000 
  535000   0.73904554    -4.594366    -4.594366   -3.4857999  0.028720077    -4.594366    1.1085661      1024000 
  536000   0.73836168    -4.593858    -4.593858   -3.4863177   0.03065607    -4.593858    1.1075403      1024000 
  537000   0.73889301   -4.5952008   -4.5952008   -3.4868635   0.02669689   -4.5952008    1.1083373      1024000 
  538000   0.73949958   -4.5971262   -4.5971262    -3.487879  0.023748039   -4.5971262    1.1092471      1024000 
  539000   0.73889574   -4.5978333   -4.5978333   -3.4894919  0.023447712   -4.5978333    1.1083414      1024000 
  540000   0.73838496   -4.5974999   -4.5974999   -3.4899247  0.025733384   -4.5974999    1.1075752      1024000 
  541000   0.73843005   -4.5988612   -4.5988612   -3.4912183  0.020325673   -4.5988612    1.1076428      1024000 
  542000   0.73823788   -4.5991168   -4.5991168   -3.4917622  0.021290187   -4.5991168    1.1073546      1024000 
  543000    0.7368613   -4.5983977   -4.5983977    -3.493108  0.025128356   -4.5983977    1.1052897      1024000 
  544000   0.73656917    -4.598926    -4.598926   -3.4940745   0.01959008    -4.598926    1.1048515      1024000 
  545000    0.7373911   -4.6006641   -4.6006641   -3.4945797  0.019026609   -4.6006641    1.1060844      1024000 
  546000   0.73558731   -4.5990139   -4.5990139   -3.4956352  0.021050254   -4.5990139    1.1033787      1024000 
  547000   0.73568565   -4.6006219   -4.6006219   -3.4970956  0.017557748   -4.6006219    1.1035262      1024000 
  548000   0.73687825   -4.6036559   -4.6036559   -3.4983408  0.012286735   -4.6036559    1.1053151      1024000 
  549000    0.7346985    -4.601835    -4.601835   -3.4997895  0.019665181    -4.601835    1.1020455      1024000 
  550000   0.73464836   -4.6028256   -4.6028256   -3.5008553  0.019711706   -4.6028256    1.1019703      1024000 
  551000   0.73447366   -4.6029713   -4.6029713   -3.5012631  0.021415802   -4.6029713    1.1017082      1024000 
  552000   0.73485951   -4.6050895   -4.6050895   -3.5028025  0.015266348   -4.6050895     1.102287      1024000 
  553000   0.73513215   -4.6059447   -4.6059447   -3.5032487  0.020025478   -4.6059447     1.102696      1024000 
  554000   0.73568456   -4.6080792   -4.6080792   -3.5045546  0.019033896   -4.6080792    1.1035246      1024000 
  555000   0.73469168   -4.6074777   -4.6074777   -3.5054424  0.020553117   -4.6074777    1.1020353      1024000 
  556000   0.73558942   -4.6088526   -4.6088526   -3.5054707  0.023040776   -4.6088526    1.1033819      1024000 
  557000   0.73467711   -4.6086609   -4.6086609   -3.5066475  0.025809092   -4.6086609    1.1020134      1024000 
  558000   0.73512183   -4.6106553   -4.6106553   -3.5079748  0.023696839   -4.6106553    1.1026805      1024000 
  559000   0.73519573   -4.6114504   -4.6114504   -3.5086591  0.027681129   -4.6114504    1.1027914      1024000 
  560000   0.73605325   -4.6136594   -4.6136594   -3.5095818  0.023827269   -4.6136594    1.1040776      1024000 
  561000   0.73553616   -4.6148233   -4.6148233   -3.5115213   0.02525691   -4.6148233     1.103302      1024000 
  562000   0.73464238   -4.6137011   -4.6137011   -3.5117398  0.034028267   -4.6137011    1.1019613      1024000 
  563000   0.73501128   -4.6155019   -4.6155019   -3.5129872  0.028025261   -4.6155019    1.1025147      1024000 
  564000   0.73509751   -4.6165218   -4.6165218   -3.5138777    0.0302122   -4.6165218     1.102644      1024000 
  565000   0.73515005   -4.6177534   -4.6177534   -3.5150306  0.024723837   -4.6177534    1.1027228      1024000 
  566000   0.73419944   -4.6174664   -4.6174664   -3.5161695   0.02871531   -4.6174664    1.1012969      1024000 
  567000   0.73521996   -4.6197832   -4.6197832   -3.5169555  0.024369791   -4.6197832    1.1028277      1024000 
  568000   0.73415011   -4.6187838   -4.6187838   -3.5175609  0.025871932   -4.6187838    1.1012229      1024000 
  569000   0.73295599   -4.6174744   -4.6174744   -3.5180426  0.030293229   -4.6174744    1.0994318      1024000 
  570000   0.73304787   -4.6184747   -4.6184747   -3.5189052   0.02869524   -4.6184747    1.0995696      1024000 
  571000    0.7334236   -4.6200706   -4.6200706   -3.5199375  0.026539698   -4.6200706    1.1001332      1024000 
  572000   0.73307445   -4.6200014   -4.6200014    -3.520392  0.026161844   -4.6200014    1.0996094      1024000 
  573000   0.73255009   -4.6196034   -4.6196034   -3.5207805  0.024654896   -4.6196034    1.0988229      1024000 
  574000   0.73278062   -4.6204806   -4.6204806   -3.5213119  0.022373167   -4.6204806    1.0991687      1024000 
  575000   0.73312452   -4.6224957   -4.6224957   -3.5228112  0.017740376   -4.6224957    1.0996845      1024000 
  576000    0.7308716   -4.6208811   -4.6208811   -3.5245759  0.020307149   -4.6208811    1.0963052      1024000 
  577000   0.73130574   -4.6220562   -4.6220562   -3.5250998  0.019383576   -4.6220562    1.0969564      1024000 
  578000   0.73151383   -4.6223816   -4.6223816   -3.5251131  0.019528825   -4.6223816    1.0972685      1024000 
  579000   0.73094841   -4.6229353   -4.6229353   -3.5265149  0.018904157   -4.6229353    1.0964204      1024000 
  580000   0.73041109   -4.6231955   -4.6231955   -3.5275811  0.018952438   -4.6231955    1.0956144      1024000 
  581000   0.73084646   -4.6248786   -4.6248786   -3.5286112  0.014143883   -4.6248786    1.0962675      1024000 
  582000   0.72982572   -4.6247162   -4.6247162   -3.5299799  0.015103215   -4.6247162    1.0947364      1024000 
  583000    0.7299707   -4.6259009   -4.6259009    -3.530947  0.017511596   -4.6259009    1.0949538      1024000 
  584000   0.72923177   -4.6260889   -4.6260889   -3.5322434  0.019516282   -4.6260889    1.0938454      1024000 
  585000    0.7298657   -4.6278522   -4.6278522   -3.5330559  0.017185372   -4.6278522    1.0947963      1024000 
  586000   0.73060738   -4.6291283   -4.6291283   -3.5332194  0.015368802   -4.6291283    1.0959089      1024000 
  587000   0.72967646   -4.6282724   -4.6282724   -3.5337599   0.02141887   -4.6282724    1.0945125      1024000 
  588000   0.73045761   -4.6307455   -4.6307455   -3.5350613  0.021654292   -4.6307455    1.0956842      1024000 
  589000   0.73049384   -4.6311917   -4.6311917   -3.5354532  0.021277999   -4.6311917    1.0957385      1024000 
  590000   0.72987433    -4.631642    -4.631642   -3.5368327  0.024317495    -4.631642    1.0948093      1024000 
  591000   0.73025214   -4.6330069   -4.6330069   -3.5376309  0.028061329   -4.6330069     1.095376      1024000 
  592000   0.73055402   -4.6341064   -4.6341064   -3.5382776  0.029194068   -4.6341064    1.0958288      1024000 
  593000    0.7311932   -4.6359342   -4.6359342   -3.5391467  0.025583332   -4.6359342    1.0967876      1024000 
  594000   0.73079411   -4.6363106   -4.6363106   -3.5401217  0.026456902   -4.6363106    1.0961889      1024000 
  595000   0.72995587   -4.6364056   -4.6364056   -3.5414741  0.028387852   -4.6364056    1.0949316      1024000 
  596000   0.72933151   -4.6371959   -4.6371959   -3.5432009  0.026667265   -4.6371959     1.093995      1024000 
  597000   0.72965872   -4.6388365   -4.6388365   -3.5443507  0.026386916   -4.6388365    1.0944859      1024000 
  598000   0.72870074   -4.6386183   -4.6386183   -3.5455694  0.030730293   -4.6386183    1.0930489      1024000 
  599000    0.7296332   -4.6408767   -4.6408767   -3.5464291  0.027245327   -4.6408767    1.0944476      1024000 
  600000   0.72831747   -4.6400958   -4.6400958   -3.5476218  0.026401685   -4.6400958     1.092474      1024000 
  601000   0.72864716   -4.6405069   -4.6405069   -3.5475384  0.027614686   -4.6405069    1.0929685      1024000 
  602000   0.72807672   -4.6408729   -4.6408729     -3.54876   0.02990169   -4.6408729    1.0921129      1024000 
  603000   0.72872134    -4.643422    -4.643422   -3.5503422   0.02049807    -4.643422    1.0930798      1024000 
  604000   0.72805471   -4.6427946   -4.6427946   -3.5507147  0.021408529   -4.6427946    1.0920798      1024000 
  605000   0.72808567   -4.6436117   -4.6436117   -3.5514854  0.019902424   -4.6436117    1.0921263      1024000 
  606000   0.72665218   -4.6417874   -4.6417874   -3.5518113  0.026226442   -4.6417874    1.0899761      1024000 
  607000   0.72675476   -4.6428197   -4.6428197   -3.5526898  0.025935442   -4.6428197    1.0901299      1024000 
  608000   0.72679876   -4.6446002   -4.6446002   -3.5544043  0.018378431   -4.6446002    1.0901959      1024000 
  609000   0.72592298   -4.6442175   -4.6442175   -3.5553353   0.01883233   -4.6442175    1.0888823      1024000 
  610000    0.7255844   -4.6445954   -4.6445954    -3.556221  0.018608642   -4.6445954    1.0883744      1024000 
  611000   0.72671458   -4.6466109   -4.6466109   -3.5565413  0.014618187   -4.6466109    1.0900697      1024000 
  612000   0.72665382   -4.6477051   -4.6477051   -3.5577265  0.015188101   -4.6477051    1.0899785      1024000 
  613000   0.72600862   -4.6477543   -4.6477543   -3.5587435  0.018663127   -4.6477543    1.0890107      1024000 
  614000   0.72598128   -4.6482443   -4.6482443   -3.5592746  0.018098523   -4.6482443    1.0889697      1024000 
  615000   0.72585381    -4.648737    -4.648737   -3.5599585  0.019051719    -4.648737    1.0887785      1024000 
  616000   0.72594451    -4.649407    -4.649407   -3.5604924  0.015732746    -4.649407    1.0889146      1024000 
  617000   0.72591789   -4.6502685   -4.6502685   -3.5613939  0.020130988   -4.6502685    1.0888746      1024000 
  618000   0.72492344   -4.6500143   -4.6500143   -3.5626314  0.025147614   -4.6500143     1.087383      1024000 
  619000   0.72487987   -4.6509346   -4.6509346    -3.563617   0.02351737   -4.6509346    1.0873176      1024000 
  620000   0.72464192   -4.6511107   -4.6511107     -3.56415   0.02038531   -4.6511107    1.0869607      1024000 
  621000   0.72490743   -4.6526335   -4.6526335   -3.5652746  0.023736347   -4.6526335    1.0873589      1024000 
  622000   0.72499935   -4.6539968   -4.6539968      -3.5665  0.025642081   -4.6539968    1.0874968      1024000 
  623000   0.72500689   -4.6548128   -4.6548128   -3.5673047  0.024802827   -4.6548128    1.0875081      1024000 
  624000   0.72554597   -4.6562151   -4.6562151   -3.5678984  0.021744214   -4.6562151    1.0883168      1024000 
  625000   0.72448748   -4.6561413   -4.6561413   -3.5694123  0.027075131   -4.6561413     1.086729      1024000 
  626000   0.72502529   -4.6576009   -4.6576009   -3.5700652  0.025447495   -4.6576009    1.0875357      1024000 
  627000   0.72439524    -4.657463    -4.657463   -3.5708723  0.027028521    -4.657463    1.0865907      1024000 
  628000   0.72486525   -4.6586748   -4.6586748   -3.5713791  0.024678617   -4.6586748    1.0872957      1024000 
  629000   0.72480024   -4.6594012   -4.6594012    -3.572203  0.026279956   -4.6594012    1.0871982      1024000 
  630000   0.72410367   -4.6598248   -4.6598248   -3.5736715  0.026417132   -4.6598248    1.0861533      1024000 
  631000   0.72462855   -4.6614554   -4.6614554   -3.5745147  0.023671854   -4.6614554    1.0869406      1024000 
  632000    0.7238364   -4.6610473   -4.6610473   -3.5752949  0.020988439   -4.6610473    1.0857524      1024000 
  633000   0.72334069   -4.6618028   -4.6618028    -3.576794  0.019565573   -4.6618028    1.0850088      1024000 
  634000   0.72329165   -4.6630891   -4.6630891   -3.5781538  0.019370729   -4.6630891    1.0849353      1024000 
  635000   0.72266755   -4.6628673   -4.6628673   -3.5788682  0.020790304   -4.6628673    1.0839991      1024000 
  636000   0.72220841   -4.6626084   -4.6626084    -3.579298  0.018457279   -4.6626084    1.0833104      1024000 
  637000   0.72204508    -4.663194    -4.663194   -3.5801286  0.019988157    -4.663194    1.0830654      1024000 
  638000   0.72296074   -4.6645744   -4.6645744   -3.5801355  0.014019814   -4.6645744    1.0844389      1024000 
  639000   0.72255102   -4.6641089   -4.6641089   -3.5802845  0.019950601   -4.6641089    1.0838243      1024000 
  640000   0.72279864   -4.6649113   -4.6649113   -3.5807156  0.020039083   -4.6649113    1.0841958      1024000 
  641000   0.72280712   -4.6652095   -4.6652095    -3.581001  0.020996129   -4.6652095    1.0842085      1024000 
  642000   0.72138474   -4.6639222   -4.6639222   -3.5818473   0.02553589   -4.6639222    1.0820749      1024000 
  643000   0.72202717   -4.6658901   -4.6658901   -3.5828515  0.021687786   -4.6658901    1.0830386      1024000 
  644000   0.72130278   -4.6653629   -4.6653629   -3.5834109  0.021237154   -4.6653629     1.081952      1024000 
  645000   0.72223888   -4.6670152   -4.6670152    -3.583659  0.021155677   -4.6670152    1.0833561      1024000 
  646000   0.72115231   -4.6665941   -4.6665941   -3.5848678  0.026489577   -4.6665941    1.0817263      1024000 
  647000   0.72003923   -4.6656072   -4.6656072   -3.5855505  0.027457268   -4.6656072    1.0800566      1024000 
  648000   0.72283444   -4.6700979   -4.6700979   -3.5858484  0.021909506   -4.6700979    1.0842495      1024000 
  649000   0.72321589   -4.6722331   -4.6722331   -3.5874115  0.017087748   -4.6722331    1.0848216      1024000 
  650000   0.72299926   -4.6728969   -4.6728969   -3.5884002  0.023757657   -4.6728969    1.0844967      1024000 
  651000   0.72159497   -4.6720299   -4.6720299   -3.5896396  0.024244804   -4.6720299    1.0823903      1024000 
  652000   0.72176954   -4.6729176   -4.6729176   -3.5902655  0.019942037   -4.6729176    1.0826521      1024000 
  653000   0.72132683   -4.6733309   -4.6733309   -3.5913428  0.022429368   -4.6733309    1.0819881      1024000 
  654000   0.72104646   -4.6733029   -4.6733029   -3.5917354  0.021663231   -4.6733029    1.0815675      1024000 
  655000   0.72138363   -4.6744264   -4.6744264   -3.5923531  0.024002475   -4.6744264    1.0820732      1024000 
  656000   0.72117407   -4.6745417   -4.6745417   -3.5927828   0.02256885   -4.6745417    1.0817589      1024000 
  657000    0.7218025   -4.6757493   -4.6757493   -3.5930478  0.021920221   -4.6757493    1.0827015      1024000 
  658000   0.72105845   -4.6753403   -4.6753403   -3.5937548  0.021902057   -4.6753403    1.0815855      1024000 
  659000   0.72049431   -4.6761941   -4.6761941   -3.5954548  0.024418046   -4.6761941    1.0807393      1024000 
  660000     0.720156   -4.6774415   -4.6774415   -3.5972097  0.023159804   -4.6774415    1.0802318      1024000 
  661000    0.7199277   -4.6779963   -4.6779963   -3.5981069  0.020811051   -4.6779963    1.0798894      1024000 
  662000   0.72042763    -4.678977    -4.678977   -3.5983377  0.019904219    -4.678977    1.0806393      1024000 
  663000   0.71922429   -4.6786621   -4.6786621   -3.5998279  0.019512966   -4.6786621    1.0788342      1024000 
  664000   0.71920434   -4.6796829   -4.6796829   -3.6008786  0.019137363   -4.6796829    1.0788043      1024000 
  665000   0.71778363   -4.6783833   -4.6783833   -3.6017101  0.017196124   -4.6783833    1.0766733      1024000 
  666000   0.71819006   -4.6793849   -4.6793849    -3.602102   0.01507623   -4.6793849    1.0772829      1024000 
  667000   0.71754237    -4.679298    -4.679298   -3.6029866  0.016523003    -4.679298    1.0763114      1024000 
  668000   0.71867653   -4.6812341   -4.6812341   -3.6032215  0.014252074   -4.6812341    1.0780126      1024000 
  669000   0.71812487   -4.6812684   -4.6812684   -3.6040833  0.017322244   -4.6812684    1.0771851      1024000 
  670000   0.71787744   -4.6824056   -4.6824056   -3.6055916  0.019996678   -4.6824056     1.076814      1024000 
  671000   0.71772267   -4.6837746   -4.6837746   -3.6071927   0.01552418   -4.6837746    1.0765818      1024000 
  672000   0.71837753   -4.6852301   -4.6852301    -3.607666  0.011796272   -4.6852301    1.0775641      1024000 
  673000   0.71822579   -4.6849397   -4.6849397   -3.6076032  0.019683296   -4.6849397    1.0773365      1024000 
  674000   0.71708171   -4.6840209   -4.6840209   -3.6084005  0.023981571   -4.6840209    1.0756204      1024000 
  675000   0.71879588   -4.6872586   -4.6872586   -3.6090669  0.020105285   -4.6872586    1.0781916      1024000 
  676000   0.71789951   -4.6871825   -4.6871825   -3.6103355  0.024055712   -4.6871825    1.0768471      1024000 
  677000   0.71883365   -4.6884773   -4.6884773    -3.610229  0.020373421   -4.6884773    1.0782483      1024000 
  678000   0.71879544   -4.6891251   -4.6891251   -3.6109341  0.023432454   -4.6891251     1.078191      1024000 
  679000   0.71884968   -4.6897731   -4.6897731   -3.6115008  0.021648939   -4.6897731    1.0782723      1024000 
  680000   0.71905923   -4.6916136   -4.6916136   -3.6130269  0.024763739   -4.6916136    1.0785867      1024000 
  681000   0.71816106   -4.6918027   -4.6918027   -3.6145633  0.027810172   -4.6918027    1.0772394      1024000 
  682000   0.71841782   -4.6929177   -4.6929177   -3.6152931   0.02340371   -4.6929177    1.0776246      1024000 
  683000   0.71814447    -4.693173    -4.693173   -3.6159584  0.027995191    -4.693173    1.0772145      1024000 
  684000   0.71843078   -4.6943203   -4.6943203   -3.6166763   0.01968967   -4.6943203     1.077644      1024000 
  685000   0.71785688    -4.694089    -4.694089   -3.6173059  0.021037447    -4.694089    1.0767831      1024000 
  686000   0.71739339   -4.6945166   -4.6945166   -3.6184287  0.022282996   -4.6945166    1.0760879      1024000 
  687000   0.71618929   -4.6929452   -4.6929452   -3.6186634  0.024632227   -4.6929452    1.0742818      1024000 
  688000   0.71757736   -4.6957857   -4.6957857   -3.6194219   0.02385394   -4.6957857    1.0763639      1024000 
  689000   0.71692595   -4.6956129   -4.6956129   -3.6202262  0.018500785   -4.6956129    1.0753867      1024000 
  690000    0.7155445   -4.6945837   -4.6945837   -3.6212691  0.021713709   -4.6945837    1.0733146      1024000 
  691000   0.71597292   -4.6946578   -4.6946578   -3.6207006  0.019502953   -4.6946578    1.0739572      1024000 
  692000   0.71625608   -4.6958925   -4.6958925   -3.6215106  0.017777868   -4.6958925    1.0743819      1024000 
  693000   0.71529688   -4.6960307   -4.6960307   -3.6230876  0.020560455   -4.6960307    1.0729431      1024000 
  694000   0.71564342   -4.6970763   -4.6970763   -3.6236133  0.015897904   -4.6970763    1.0734629      1024000 
  695000   0.71444001   -4.6964872   -4.6964872   -3.6248294  0.016687351   -4.6964872    1.0716578      1024000 
  696000   0.71385081   -4.6961612   -4.6961612   -3.6253872  0.017602433   -4.6961612     1.070774      1024000 
  697000    0.7150035   -4.6990173   -4.6990173   -3.6265142  0.013453651   -4.6990173    1.0725031      1024000 
  698000   0.71498676    -4.698652    -4.698652    -3.626174  0.017336191    -4.698652     1.072478      1024000 
  699000   0.71447188   -4.6986617   -4.6986617    -3.626956  0.016200654   -4.6986617    1.0717056      1024000 
  700000   0.71459729   -4.6987515   -4.6987515   -3.6268578  0.018179233   -4.6987515    1.0718938      1024000 
  701000   0.71418642   -4.6992403   -4.6992403   -3.6279629  0.021352527   -4.6992403    1.0712775      1024000 
  702000   0.71513752   -4.7018669   -4.7018669   -3.6291628    0.0170505   -4.7018669    1.0727041      1024000 
  703000    0.7148657   -4.7020824   -4.7020824    -3.629786  0.017055054   -4.7020824    1.0722964      1024000 
  704000   0.71429089    -4.702376    -4.702376   -3.6309418  0.019239673    -4.702376    1.0714342      1024000 
  705000   0.71435004   -4.7026176   -4.7026176   -3.6310947  0.022850615   -4.7026176    1.0715229      1024000 
  706000    0.7142845    -4.703333    -4.703333   -3.6319084  0.019620025    -4.703333    1.0714246      1024000 
  707000   0.71490458   -4.7049718   -4.7049718   -3.6326172  0.020379864   -4.7049718    1.0723547      1024000 
  708000   0.71510719   -4.7060778   -4.7060778   -3.6334192  0.021711009   -4.7060778    1.0726586      1024000 
  709000   0.71509279   -4.7068682   -4.7068682   -3.6342312  0.022332691   -4.7068682     1.072637      1024000 
  710000   0.71388812   -4.7060702   -4.7060702   -3.6352402  0.024447887   -4.7060702      1.07083      1024000 
  711000    0.7147099   -4.7080493   -4.7080493   -3.6359866  0.020828328   -4.7080493    1.0720627      1024000 
  712000   0.71382475   -4.7080147   -4.7080147   -3.6372798  0.020300293   -4.7080147     1.070735      1024000 
  713000   0.71280676   -4.7079353   -4.7079353   -3.6387274  0.019882057   -4.7079353     1.069208      1024000 
  714000   0.71269585   -4.7092522   -4.7092522   -3.6402106   0.02587287   -4.7092522    1.0690416      1024000 
  715000   0.71348636   -4.7113188   -4.7113188   -3.6410914  0.022118317   -4.7113188    1.0702274      1024000 
  716000   0.71142339   -4.7095592   -4.7095592   -3.6424262  0.026352337   -4.7095592    1.0671329      1024000 
  717000   0.71203354   -4.7105454   -4.7105454   -3.6424972  0.021707505   -4.7105454    1.0680481      1024000 
  718000   0.71208496   -4.7116092   -4.7116092   -3.6434839  0.021328492   -4.7116092    1.0681253      1024000 
  719000   0.71091295   -4.7104188   -4.7104188   -3.6440516  0.022195549   -4.7104188    1.0663673      1024000 
  720000   0.71136309   -4.7120478   -4.7120478   -3.6450054  0.020742422   -4.7120478    1.0670425      1024000 
  721000   0.71101803   -4.7116937   -4.7116937   -3.6451688  0.022597291   -4.7116937    1.0665249      1024000 
  722000   0.71127543   -4.7126719   -4.7126719    -3.645761  0.019349732   -4.7126719     1.066911      1024000 
  723000   0.71090324   -4.7136249   -4.7136249   -3.6472722  0.019464529   -4.7136249    1.0663527      1024000 
  724000    0.7123839   -4.7168841   -4.7168841   -3.6483104  0.014871406   -4.7168841    1.0685737      1024000 
  725000    0.7113563   -4.7164889   -4.7164889   -3.6494567  0.014908599   -4.7164889    1.0670323      1024000 
  726000   0.71126869   -4.7161007   -4.7161007   -3.6491998  0.021485644   -4.7161007    1.0669009      1024000 
  727000   0.71166219   -4.7176201   -4.7176201   -3.6501289  0.018035931   -4.7176201    1.0674911      1024000 
  728000   0.71133201   -4.7178893   -4.7178893   -3.6508934  0.019875586   -4.7178893    1.0669958      1024000 
  729000    0.7112028   -4.7188055   -4.7188055   -3.6520035  0.017994797   -4.7188055     1.066802      1024000 
  730000   0.71059605   -4.7191335   -4.7191335   -3.6532416  0.017831662   -4.7191335    1.0658919      1024000 
  731000   0.71009567   -4.7187616   -4.7187616   -3.6536202  0.016129981   -4.7187616    1.0651414      1024000 
  732000   0.71050955    -4.719825    -4.719825   -3.6540628  0.018977098    -4.719825    1.0657622      1024000 
  733000   0.71227845   -4.7231409   -4.7231409   -3.6547254  0.016301688   -4.7231409    1.0684155      1024000 
  734000   0.71045065   -4.7217836   -4.7217836   -3.6561098  0.021978017   -4.7217836    1.0656738      1024000 
  735000   0.71152705   -4.7245204   -4.7245204    -3.657232  0.018917736   -4.7245204    1.0672884      1024000 
  736000   0.71053491   -4.7236309   -4.7236309   -3.6578307  0.019065031   -4.7236309    1.0658002      1024000 
  737000   0.71068454   -4.7238961   -4.7238961   -3.6578715  0.023681664   -4.7238961    1.0660246      1024000 
  738000   0.71116903   -4.7251903   -4.7251903    -3.658439  0.021002188   -4.7251903    1.0667514      1024000 
  739000   0.71138817   -4.7257979   -4.7257979   -3.6587178   0.02405269   -4.7257979    1.0670801      1024000 
  740000   0.71030005   -4.7257072   -4.7257072   -3.6602593  0.025831516   -4.7257072    1.0654479      1024000 
  741000   0.70980526   -4.7258511   -4.7258511   -3.6611454  0.024206522   -4.7258511    1.0647057      1024000 
  742000   0.70935186   -4.7257146   -4.7257146    -3.661689  0.026032602   -4.7257146    1.0640256      1024000 
  743000   0.71042402   -4.7274815   -4.7274815   -3.6618476  0.019773966   -4.7274815    1.0656339      1024000 
  744000   0.70910102   -4.7261831   -4.7261831   -3.6625338  0.019509558   -4.7261831    1.0636494      1024000 
  745000    0.7091458   -4.7272592   -4.7272592   -3.6635427  0.016948925   -4.7272592    1.0637165      1024000 
  746000     0.708529   -4.7276936   -4.7276936   -3.6649023  0.020001375   -4.7276936    1.0627913      1024000 
  747000    0.7096014   -4.7298176   -4.7298176   -3.6654177   0.01174506   -4.7298176    1.0643999      1024000 
  748000   0.70848144    -4.729359    -4.729359    -3.666639     0.018561    -4.729359      1.06272      1024000 
  749000   0.70915864   -4.7306327   -4.7306327   -3.6668969  0.014545166   -4.7306327    1.0637358      1024000 
  750000   0.70824095   -4.7295639   -4.7295639   -3.6672046  0.013188056   -4.7295639    1.0623593      1024000 
  751000   0.70706551   -4.7284198   -4.7284198   -3.6678237  0.021940359   -4.7284198    1.0605961      1024000 
  752000   0.70815199   -4.7311152   -4.7311152   -3.6688894  0.015128347   -4.7311152    1.0622258      1024000 
  753000   0.70748086   -4.7301477   -4.7301477   -3.6689285  0.017827937   -4.7301477    1.0612191      1024000 
  754000   0.70820405   -4.7314445   -4.7314445   -3.6691406  0.012070567   -4.7314445    1.0623039      1024000 
  755000   0.70765761   -4.7317483   -4.7317483   -3.6702641   0.01469704   -4.7317483    1.0614843      1024000 
  756000   0.70774821   -4.7321816   -4.7321816   -3.6705614  0.013653672   -4.7321816    1.0616202      1024000 
  757000   0.70747084   -4.7319659   -4.7319659   -3.6707618  0.018162184   -4.7319659    1.0612041      1024000 
  758000   0.70798522    -4.733383    -4.733383   -3.6714073  0.016791678    -4.733383    1.0619757      1024000 
  759000   0.70753955   -4.7334961   -4.7334961   -3.6721889  0.017761536   -4.7334961    1.0613072      1024000 
  760000   0.70815959    -4.735382    -4.735382   -3.6731447   0.01853134    -4.735382    1.0622372      1024000 
  761000   0.70747238   -4.7351774   -4.7351774   -3.6739709  0.022317381   -4.7351774    1.0612064      1024000 
  762000   0.70832408   -4.7362304   -4.7362304   -3.6737465  0.019149447   -4.7362304     1.062484      1024000 
  763000    0.7071482   -4.7350256   -4.7350256   -3.6743054  0.022482089   -4.7350256    1.0607202      1024000 
  764000   0.70735098     -4.73541     -4.73541   -3.6743857  0.021879811     -4.73541    1.0610243      1024000 
  765000   0.70750946   -4.7361444   -4.7361444   -3.6748824  0.021863225   -4.7361444     1.061262      1024000 
  766000   0.70665963   -4.7369213   -4.7369213    -3.676934  0.019806768   -4.7369213    1.0599873      1024000 
  767000   0.70725216   -4.7386331   -4.7386331    -3.677757  0.017094326   -4.7386331    1.0608761      1024000 
  768000   0.70537314   -4.7364401   -4.7364401   -3.6783825  0.024033736   -4.7364401    1.0580576      1024000 
  769000   0.70687733    -4.738889    -4.738889   -3.6785752  0.016463103    -4.738889    1.0603138      1024000 
  770000   0.70683869   -4.7403545   -4.7403545   -3.6800986  0.019418579   -4.7403545    1.0602559      1024000 
  771000   0.70556323   -4.7388699   -4.7388699   -3.6805272  0.019166003   -4.7388699    1.0583427      1024000 
  772000   0.70623419   -4.7405641   -4.7405641    -3.681215  0.015152252   -4.7405641    1.0593491      1024000 
  773000   0.70486562   -4.7397498   -4.7397498   -3.6824535  0.018602696   -4.7397498    1.0572963      1024000 
  774000   0.70493391   -4.7419766   -4.7419766   -3.6845779  0.013449987   -4.7419766    1.0573987      1024000 
  775000   0.70476769    -4.742252    -4.742252   -3.6851026  0.015104091    -4.742252    1.0571494      1024000 
  776000   0.70468101   -4.7425351   -4.7425351   -3.6855157  0.014747977   -4.7425351    1.0570194      1024000 
  777000   0.70389886   -4.7415723   -4.7415723   -3.6857261  0.019705058   -4.7415723    1.0558461      1024000 
  778000   0.70445542   -4.7424505   -4.7424505   -3.6857695  0.020329183   -4.7424505     1.056681      1024000 
  779000   0.70708121   -4.7465865   -4.7465865   -3.6859669  0.013306185   -4.7465865    1.0606197      1024000 
  780000   0.70575593   -4.7456915   -4.7456915   -3.6870597  0.017771291   -4.7456915    1.0586318      1024000 
  781000   0.70577901   -4.7467994   -4.7467994    -3.688133   0.01893069   -4.7467994    1.0586664      1024000 
  782000   0.70618374   -4.7483942   -4.7483942   -3.6891208  0.019515365   -4.7483942    1.0592735      1024000 
  783000   0.70471475   -4.7471496   -4.7471496   -3.6900796  0.020861621   -4.7471496      1.05707      1024000 
  784000   0.70537612    -4.748371    -4.748371    -3.690309  0.020779245    -4.748371     1.058062      1024000 
  785000   0.70495392   -4.7483441   -4.7483441   -3.6909154  0.027321537   -4.7483441    1.0574287      1024000 
  786000   0.70636167   -4.7512519   -4.7512519   -3.6917116  0.020586857   -4.7512519    1.0595404      1024000 
  787000   0.70641409   -4.7520079   -4.7520079   -3.6923889  0.017356252   -4.7520079     1.059619      1024000 
  788000   0.70509088   -4.7511422   -4.7511422    -3.693508  0.016754138   -4.7511422    1.0576342      1024000 
  789000   0.70344612   -4.7500145   -4.7500145   -3.6948474  0.020092313   -4.7500145     1.055167      1024000 
  790000   0.70336398   -4.7510508   -4.7510508    -3.696007  0.018529294   -4.7510508    1.0550438      1024000 
  791000   0.70421002   -4.7536521   -4.7536521   -3.6973392  0.019094872   -4.7536521    1.0563129      1024000 
  792000   0.70358335   -4.7537326   -4.7537326   -3.6983597  0.015223979   -4.7537326    1.0553729      1024000 
  793000   0.70317695   -4.7534832   -4.7534832   -3.6987199   0.01823009   -4.7534832    1.0547633      1024000 
  794000   0.70279385   -4.7537082   -4.7537082   -3.6995195  0.017277666   -4.7537082    1.0541886      1024000 
  795000   0.70359749   -4.7549035   -4.7549035   -3.6995094  0.012314281   -4.7549035    1.0553941      1024000 
  796000   0.70281822   -4.7552222   -4.7552222    -3.700997   0.01417039   -4.7552222    1.0542252      1024000 
  797000   0.70320571   -4.7565888   -4.7565888   -3.7017824  0.013643978   -4.7565888    1.0548064      1024000 
  798000   0.70228155   -4.7557143   -4.7557143   -3.7022941  0.015895206   -4.7557143    1.0534202      1024000 
  799000   0.70284424   -4.7573213   -4.7573213   -3.7030571  0.012778636   -4.7573213    1.0542642      1024000 
  800000   0.70254907   -4.7576603   -4.7576603   -3.7038388  0.015331631   -4.7576603    1.0538215      1024000 
  801000   0.70127109   -4.7561353   -4.7561353   -3.7042308  0.022035668   -4.7561353    1.0519045      1024000 
  802000   0.70258731   -4.7586208   -4.7586208   -3.7047419  0.019568528   -4.7586208    1.0538788      1024000 
  803000   0.70199912   -4.7583103   -4.7583103   -3.7053137  0.017008923   -4.7583103    1.0529965      1024000 
  804000   0.70232733   -4.7590572   -4.7590572   -3.7055683  0.017884012   -4.7590572    1.0534889      1024000 
  805000   0.70245798   -4.7597318   -4.7597318   -3.7060469  0.018123648   -4.7597318    1.0536848      1024000 
  806000   0.70215006   -4.7604088   -4.7604088   -3.7071858  0.018381713   -4.7604088     1.053223      1024000 
  807000    0.7027099   -4.7612947   -4.7612947    -3.707232  0.018826012   -4.7612947    1.0540627      1024000 
  808000   0.70289516   -4.7619034   -4.7619034   -3.7075628  0.016798158   -4.7619034    1.0543406      1024000 
  809000    0.7016552   -4.7614336   -4.7614336    -3.708953  0.019092281   -4.7614336    1.0524807      1024000 
  810000   0.70167496   -4.7622738   -4.7622738   -3.7097635  0.018816645   -4.7622738    1.0525103      1024000 
  811000   0.70201257   -4.7633361   -4.7633361   -3.7103194  0.020314909   -4.7633361    1.0530167      1024000 
  812000   0.70220157   -4.7654178   -4.7654178   -3.7121176  0.016677926   -4.7654178    1.0533002      1024000 
  813000   0.70201646   -4.7659801   -4.7659801   -3.7129575  0.014493479   -4.7659801    1.0530226      1024000 
  814000   0.70031631   -4.7636294   -4.7636294   -3.7131571  0.020174355   -4.7636294    1.0504723      1024000 
  815000   0.70110059   -4.7657624   -4.7657624   -3.7141136  0.013332834   -4.7657624    1.0516488      1024000 
  816000   0.70085566    -4.766077    -4.766077   -3.7147957  0.018533338    -4.766077    1.0512813      1024000 
  817000   0.70041436   -4.7665249   -4.7665249   -3.7159055  0.017967289   -4.7665249    1.0506194      1024000 
  818000   0.69977263   -4.7658525   -4.7658525   -3.7161957  0.018303079   -4.7658525    1.0496568      1024000 
  819000   0.69986604   -4.7665435   -4.7665435   -3.7167465  0.018524699   -4.7665435    1.0497969      1024000 
  820000   0.70042247   -4.7671106   -4.7671106    -3.716479  0.019462109   -4.7671106    1.0506316      1024000 
  821000   0.70114238   -4.7693937   -4.7693937   -3.7176823  0.016678943   -4.7693937    1.0517114      1024000 
  822000   0.70067881   -4.7699518   -4.7699518   -3.7189357  0.017382454   -4.7699518    1.0510161      1024000 
  823000   0.70043586   -4.7703229   -4.7703229   -3.7196713  0.013938076   -4.7703229    1.0506517      1024000 
  824000   0.69951152   -4.7696399   -4.7696399   -3.7203748   0.01874094   -4.7696399    1.0492651      1024000 
  825000   0.69919144   -4.7699171   -4.7699171   -3.7211321  0.017201005   -4.7699171     1.048785      1024000 
  826000   0.69983972    -4.770975    -4.770975   -3.7212176  0.016823865    -4.770975    1.0497574      1024000 
  827000   0.69955285   -4.7716109   -4.7716109   -3.7222837   0.01661406   -4.7716109    1.0493272      1024000 
  828000   0.69896107   -4.7709963   -4.7709963   -3.7225568  0.021064095   -4.7709963    1.0484395      1024000 
  829000   0.69958774   -4.7728944   -4.7728944   -3.7235149  0.017579456   -4.7728944    1.0493795      1024000 
  830000   0.69981959   -4.7742523   -4.7742523    -3.724525  0.016611192   -4.7742523    1.0497272      1024000 
  831000   0.69909059   -4.7732157   -4.7732157    -3.724582  0.017554291   -4.7732157    1.0486338      1024000 
  832000   0.70012497   -4.7746644   -4.7746644    -3.724479  0.017637908   -4.7746644    1.0501853      1024000 
  833000   0.69920625   -4.7740267   -4.7740267   -3.7252194  0.021171375   -4.7740267    1.0488072      1024000 
  834000    0.6984742   -4.7738381   -4.7738381    -3.726129   0.02577879   -4.7738381    1.0477092      1024000 
  835000   0.69999995   -4.7765664   -4.7765664   -3.7265686  0.019251355   -4.7765664    1.0499978      1024000 
  836000   0.69889358   -4.7760673   -4.7760673    -3.727729  0.020838851   -4.7760673    1.0483382      1024000 
  837000   0.69878113   -4.7767534   -4.7767534   -3.7285838  0.017046987   -4.7767534    1.0481696      1024000 
  838000   0.69836761   -4.7766987   -4.7766987   -3.7291494  0.012222014   -4.7766987    1.0475493      1024000 
  839000   0.69872506   -4.7767644   -4.7767644   -3.7286789  0.017328016   -4.7767644    1.0480855      1024000 
  840000   0.69766052   -4.7763562   -4.7763562   -3.7298676  0.016450302   -4.7763562    1.0464887      1024000 
  841000   0.69874951   -4.7781161   -4.7781161    -3.729994  0.017065412   -4.7781161    1.0481221      1024000 
  842000    0.6991515   -4.7793399   -4.7793399   -3.7306147  0.017076103   -4.7793399    1.0487251      1024000 
  843000   0.69805358   -4.7777761   -4.7777761   -3.7306979  0.020079067   -4.7777761    1.0470782      1024000 
  844000   0.69796986   -4.7791832   -4.7791832   -3.7322305  0.014326747   -4.7791832    1.0469527      1024000 
  845000   0.69856006   -4.7800215   -4.7800215   -3.7321835   0.01249349   -4.7800215     1.047838      1024000 
  846000   0.69748613   -4.7788954   -4.7788954   -3.7326683   0.01410793   -4.7788954    1.0462271      1024000 
  847000   0.69801407   -4.7796416   -4.7796416   -3.7326226  0.017867448   -4.7796416     1.047019      1024000 
  848000   0.69730265   -4.7793263   -4.7793263   -3.7333745  0.018613137   -4.7793263    1.0459518      1024000 
  849000   0.69788365   -4.7807372   -4.7807372   -3.7339138  0.017023524   -4.7807372    1.0468233      1024000 
  850000   0.69706616   -4.7800038   -4.7800038   -3.7344067  0.015173125   -4.7800038    1.0455971      1024000 
  851000   0.69672277   -4.7807669   -4.7807669   -3.7356849  0.018618417   -4.7807669     1.045082      1024000 
  852000   0.69619911   -4.7812839   -4.7812839   -3.7369874  0.017333738   -4.7812839    1.0442965      1024000 
  853000   0.69589934   -4.7811645   -4.7811645   -3.7373176  0.015585882   -4.7811645    1.0438469      1024000 
  854000   0.69593255   -4.7815699   -4.7815699   -3.7376732  0.014003968   -4.7815699    1.0438967      1024000 
  855000   0.69604741   -4.7819351   -4.7819351   -3.7378661  0.016186241   -4.7819351     1.044069      1024000 
  856000    0.6971035    -4.784762    -4.784762   -3.7391089  0.015756507    -4.784762    1.0456531      1024000 
  857000   0.69681538   -4.7854498   -4.7854498   -3.7402289  0.014706906   -4.7854498    1.0452209      1024000 
  858000   0.69699232   -4.7856437   -4.7856437   -3.7401573  0.014235569   -4.7856437    1.0454864      1024000 
  859000   0.69713479   -4.7861394   -4.7861394   -3.7404393  0.016140838   -4.7861394    1.0457001      1024000 
  860000   0.69703083   -4.7869882   -4.7869882   -3.7414441  0.018835102   -4.7869882    1.0455441      1024000 
  861000   0.69760918   -4.7892268   -4.7892268   -3.7428152  0.012978089   -4.7892268    1.0464117      1024000 
  862000   0.69685172   -4.7888229   -4.7888229   -3.7435474  0.014610154   -4.7888229    1.0452755      1024000 
  863000   0.69599773   -4.7883656   -4.7883656   -3.7443711  0.015726787   -4.7883656    1.0439945      1024000 
  864000    0.6956883   -4.7883724   -4.7883724    -3.744842  0.018913377   -4.7883724    1.0435303      1024000 
  865000   0.69612953   -4.7899734   -4.7899734   -3.7457813  0.015955653   -4.7899734    1.0441922      1024000 
  866000   0.69558674   -4.7903157   -4.7903157   -3.7469378   0.01510757   -4.7903157     1.043378      1024000 
  867000   0.69498372   -4.7901774   -4.7901774   -3.7477039  0.018157795   -4.7901774    1.0424735      1024000 
  868000   0.69634301   -4.7924486   -4.7924486   -3.7479362  0.013785774   -4.7924486    1.0445124      1024000 
  869000   0.69591872   -4.7919574   -4.7919574   -3.7480815  0.020976652   -4.7919574     1.043876      1024000 
  870000   0.69580389   -4.7928937   -4.7928937     -3.74919  0.021997957   -4.7928937    1.0437037      1024000 
  871000   0.69668438   -4.7940671   -4.7940671   -3.7490426  0.019759517   -4.7940671    1.0450244      1024000 
  872000   0.69590416   -4.7935746   -4.7935746   -3.7497204  0.019866553   -4.7935746    1.0438541      1024000 
  873000    0.6958594   -4.7946004   -4.7946004   -3.7508134  0.019626926   -4.7946004     1.043787      1024000 
  874000   0.69565736   -4.7953497   -4.7953497   -3.7518658  0.017544092   -4.7953497    1.0434839      1024000 
  875000    0.6943881    -4.794079    -4.794079    -3.752499  0.021205768    -4.794079      1.04158      1024000 
  876000   0.69574938   -4.7962424   -4.7962424   -3.7526204  0.014625384   -4.7962424    1.0436219      1024000 
  877000   0.69612001   -4.7962707   -4.7962707   -3.7520928  0.017479425   -4.7962707    1.0441779      1024000 
  878000   0.69436368   -4.7950866   -4.7950866   -3.7535432  0.017454845   -4.7950866    1.0415434      1024000 
  879000   0.69533644    -4.797565    -4.797565   -3.7545625  0.015097752    -4.797565    1.0430025      1024000 
  880000   0.69545008   -4.7976959   -4.7976959   -3.7545229  0.015427245   -4.7976959     1.043173      1024000 
  881000   0.69434253   -4.7967369   -4.7967369   -3.7552252  0.022247035   -4.7967369    1.0415117      1024000 
  882000   0.69487704   -4.7976033   -4.7976033   -3.7552899  0.018058473   -4.7976033    1.0423135      1024000 
  883000   0.69492618    -4.798824    -4.798824   -3.7564368  0.016351262    -4.798824    1.0423871      1024000 
  884000   0.69411635   -4.7982664   -4.7982664    -3.757094  0.013600413   -4.7982664    1.0411724      1024000 
  885000   0.69347851   -4.7979053   -4.7979053   -3.7576896  0.013604782   -4.7979053    1.0402156      1024000 
  886000   0.69348523   -4.7983836   -4.7983836   -3.7581579   0.01572799   -4.7983836    1.0402257      1024000 
  887000   0.69351861   -4.7989482   -4.7989482   -3.7586724  0.012879711   -4.7989482    1.0402758      1024000 
  888000   0.69372014   -4.7997782   -4.7997782   -3.7592001 0.0095980143   -4.7997782    1.0405781      1024000 
  889000   0.69381376    -4.801027    -4.801027   -3.7603085  0.010766399    -4.801027    1.0407185      1024000 
  890000    0.6936729   -4.8008526   -4.8008526   -3.7603453 0.0082157947   -4.8008526    1.0405072      1024000 
  891000   0.69382758   -4.8015982   -4.8015982   -3.7608589  0.012700219   -4.8015982    1.0407393      1024000 
  892000   0.69316798   -4.8017844   -4.8017844   -3.7620346  0.010627629   -4.8017844    1.0397499      1024000 
  893000   0.69344796   -4.8033765   -4.8033765   -3.7632067 0.0078324025   -4.8033765    1.0401698      1024000 
  894000   0.69378081   -4.8041022   -4.8041022   -3.7634331  0.012131203   -4.8041022    1.0406691      1024000 
  895000    0.6933868   -4.8038431   -4.8038431    -3.763765   0.01499375   -4.8038431    1.0400781      1024000 
  896000   0.69358565   -4.8052721   -4.8052721   -3.7648957  0.012767353   -4.8052721    1.0403764      1024000 
  897000    0.6924386   -4.8050327   -4.8050327   -3.7663769 0.0091533564   -4.8050327    1.0386558      1024000 
  898000   0.69261663   -4.8053577   -4.8053577   -3.7664349  0.013859255   -4.8053577    1.0389228      1024000 
  899000   0.69319288   -4.8061443   -4.8061443   -3.7663571   0.01437875   -4.8061443    1.0397872      1024000 
  900000   0.69365231   -4.8074681   -4.8074681   -3.7669918  0.014823082   -4.8074681    1.0404764      1024000 
  901000   0.69448136    -4.809305    -4.809305   -3.7675851  0.014933819    -4.809305    1.0417199      1024000 
  902000   0.69384737   -4.8085537   -4.8085537   -3.7677847  0.017768713   -4.8085537    1.0407689      1024000 
  903000   0.69459014   -4.8098756   -4.8098756   -3.7679925  0.018644952   -4.8098756    1.0418831      1024000 
  904000   0.69302045   -4.8083274   -4.8083274   -3.7687989  0.022062444   -4.8083274    1.0395286      1024000 
  905000   0.69374271   -4.8099336   -4.8099336   -3.7693217  0.017961069   -4.8099336     1.040612      1024000 
  906000   0.69299367   -4.8094343   -4.8094343   -3.7699458  0.020081286   -4.8094343    1.0394884      1024000 
  907000   0.69310072   -4.8097712   -4.8097712   -3.7701222  0.018894623   -4.8097712     1.039649      1024000 
  908000   0.69249392   -4.8098025   -4.8098025   -3.7710637  0.015159709   -4.8098025    1.0387388      1024000 
  909000   0.69179992   -4.8101212   -4.8101212   -3.7724234  0.013957432   -4.8101212    1.0376978      1024000 
  910000   0.69215477   -4.8108349   -4.8108349   -3.7726049  0.014717337   -4.8108349      1.03823      1024000 
  911000   0.69122021   -4.8102731   -4.8102731   -3.7734449  0.019569104   -4.8102731    1.0368282      1024000 
  912000   0.69195601   -4.8126297   -4.8126297   -3.7746978  0.010637904   -4.8126297    1.0379319      1024000 
  913000   0.69151131     -4.81306     -4.81306   -3.7757951  0.011611489     -4.81306    1.0372649      1024000 
  914000   0.69149224   -4.8134293   -4.8134293   -3.7761931  0.012918838   -4.8134293    1.0372362      1024000 
  915000     0.691045   -4.8138706   -4.8138706   -3.7773052  0.011897284   -4.8138706    1.0365654      1024000 
  916000   0.69101904   -4.8138814   -4.8138814   -3.7773549  0.010681969   -4.8138814    1.0365265      1024000 
  917000   0.69022209   -4.8131562   -4.8131562   -3.7778252  0.011084116   -4.8131562     1.035331      1024000 
  918000   0.69002127   -4.8133709   -4.8133709   -3.7783411  0.010400595   -4.8133709    1.0350298      1024000 
  919000   0.69043037   -4.8152898   -4.8152898   -3.7796464 0.0069023223   -4.8152898    1.0356435      1024000 
  920000   0.68987441   -4.8152712   -4.8152712   -3.7804617   0.01094623   -4.8152712    1.0348095      1024000 
  921000    0.6891201   -4.8153624   -4.8153624   -3.7816844  0.011161464   -4.8153624    1.0336781      1024000 
  922000   0.69052926   -4.8170525   -4.8170525   -3.7812608  0.013212602   -4.8170525    1.0357918      1024000 
  923000   0.69081255   -4.8179898   -4.8179898   -3.7817731  0.011294288   -4.8179898    1.0362167      1024000 
  924000   0.69038521   -4.8172554   -4.8172554   -3.7816797  0.016179366   -4.8172554    1.0355757      1024000 
  925000   0.69087947   -4.8181081   -4.8181081    -3.781791  0.022582541   -4.8181081    1.0363171      1024000 
  926000   0.69114983   -4.8183333   -4.8183333   -3.7816107  0.022285041   -4.8183333    1.0367226      1024000 
  927000   0.69224355   -4.8215038   -4.8215038   -3.7831406  0.019310659   -4.8215038    1.0383632      1024000 
  928000   0.69235276   -4.8216852   -4.8216852   -3.7831582  0.018725055   -4.8216852     1.038527      1024000 
  929000   0.69114864   -4.8204083   -4.8204083   -3.7836874  0.017840157   -4.8204083    1.0367209      1024000 
  930000   0.69067074   -4.8205656   -4.8205656   -3.7845616  0.017079403   -4.8205656     1.036004      1024000 
  931000   0.69117841   -4.8226149   -4.8226149   -3.7858494  0.014752623   -4.8226149    1.0367655      1024000 
  932000   0.69025771   -4.8215658   -4.8215658   -3.7861814   0.01642724   -4.8215658    1.0353845      1024000 
  933000   0.69114567    -4.823895    -4.823895   -3.7871786  0.014862964    -4.823895    1.0367164      1024000 
  934000   0.68959281   -4.8223026   -4.8223026   -3.7879155  0.018613994   -4.8223026    1.0343871      1024000 
  935000   0.68932762   -4.8224261   -4.8224261   -3.7884368  0.015386947   -4.8224261    1.0339893      1024000 
  936000   0.69013356   -4.8249635   -4.8249635   -3.7897652   0.01226937   -4.8249635    1.0351982      1024000 
  937000   0.68905912    -4.823921    -4.823921   -3.7903344  0.012692971    -4.823921    1.0335866      1024000 
  938000   0.68905104   -4.8252912   -4.8252912   -3.7917167 0.0081358556   -4.8252912    1.0335745      1024000 
  939000   0.68804776   -4.8234203   -4.8234203   -3.7913508  0.012062293   -4.8234203    1.0320696      1024000 
  940000   0.68838796   -4.8247386   -4.8247386   -3.7921588 0.0078529171   -4.8247386    1.0325798      1024000 
  941000   0.68775325   -4.8249481   -4.8249481   -3.7933203 0.0086090035   -4.8249481    1.0316278      1024000 
  942000    0.6882296   -4.8258977   -4.8258977   -3.7935554 0.0080670382   -4.8258977    1.0323423      1024000 
  943000   0.68828815   -4.8270308   -4.8270308   -3.7946007 0.0076502445   -4.8270308    1.0324301      1024000 
  944000   0.68839407   -4.8270853   -4.8270853   -3.7944962 0.0083924141   -4.8270853     1.032589      1024000 
  945000   0.68851504   -4.8278302   -4.8278302   -3.7950597  0.010626117   -4.8278302    1.0327705      1024000 
  946000   0.68831359   -4.8277271   -4.8277271   -3.7952588  0.016109118   -4.8277271    1.0324683      1024000 
  947000   0.68913223   -4.8295235   -4.8295235   -3.7958273  0.013527333   -4.8295235    1.0336963      1024000 
  948000    0.6884356   -4.8293173   -4.8293173    -3.796666  0.013721286   -4.8293173    1.0326513      1024000 
  949000   0.68901983   -4.8303712   -4.8303712   -3.7968435  0.016230289   -4.8303712    1.0335276      1024000 
  950000   0.68827679    -4.829574    -4.829574    -3.797161  0.016104771    -4.829574    1.0324131      1024000 
  951000   0.68866569   -4.8306003   -4.8306003   -3.7976039  0.016366715   -4.8306003    1.0329964      1024000 
  952000   0.68914616   -4.8319977   -4.8319977   -3.7982806  0.014511474   -4.8319977    1.0337171      1024000 
  953000   0.68845664    -4.831384    -4.831384   -3.7987011  0.014423454    -4.831384    1.0326829      1024000 
  954000   0.68813961   -4.8314197   -4.8314197   -3.7992124  0.013942131   -4.8314197    1.0322073      1024000 
  955000   0.68865784   -4.8321807   -4.8321807    -3.799196  0.017826608   -4.8321807    1.0329847      1024000 
  956000   0.68902629   -4.8323759   -4.8323759   -3.7988386  0.019590647   -4.8323759    1.0335373      1024000 
  957000    0.6887967   -4.8324979   -4.8324979    -3.799305   0.02036686   -4.8324979     1.033193      1024000 
  958000   0.68848241   -4.8327688   -4.8327688   -3.8000473  0.014761668   -4.8327688    1.0327215      1024000 
  959000   0.68838378     -4.83361     -4.83361   -3.8010364  0.015649872     -4.83361    1.0325736      1024000 
  960000   0.68850507   -4.8344295   -4.8344295    -3.801674  0.010347757   -4.8344295    1.0327555      1024000 
  961000   0.68710503   -4.8326362   -4.8326362   -3.8019807 0.0097080628   -4.8326362    1.0306555      1024000 
  962000   0.68601339    -4.831422    -4.831422    -3.802404  0.016000884    -4.831422     1.029018      1024000 
  963000   0.68772391   -4.8347261   -4.8347261   -3.8031423 0.0079226938   -4.8347261    1.0315838      1024000 
  964000   0.68749939   -4.8347927   -4.8347927   -3.8035457 0.0093263232   -4.8347927     1.031247      1024000 
  965000   0.68614928   -4.8345835   -4.8345835   -3.8053617  0.012804505   -4.8345835    1.0292218      1024000 
  966000   0.68616724     -4.83457     -4.83457   -3.8053212 0.0090138985     -4.83457    1.0292488      1024000 
  967000   0.68638311   -4.8348898   -4.8348898   -3.8053172  0.010783532   -4.8348898    1.0295726      1024000 
  968000   0.68672345   -4.8361536   -4.8361536   -3.8060705  0.010512466   -4.8361536    1.0300831      1024000 
  969000   0.68690023   -4.8365853   -4.8365853   -3.8062371  0.010069578   -4.8365853    1.0303483      1024000 
  970000   0.68747335   -4.8386037   -4.8386037   -3.8073958  0.005359574   -4.8386037    1.0312079      1024000 
  971000   0.68509224   -4.8352736   -4.8352736   -3.8076373  0.014137344   -4.8352736    1.0276363      1024000 
  972000   0.68630942    -4.838028    -4.838028    -3.808566  0.008154599    -4.838028     1.029462      1024000 
  973000    0.6856825   -4.8379666   -4.8379666   -3.8094449  0.012022217   -4.8379666    1.0285217      1024000 
  974000   0.68608861   -4.8389764   -4.8389764   -3.8098455 0.0099172861   -4.8389764    1.0291308      1024000 
  975000   0.68558645   -4.8394257   -4.8394257   -3.8110481  0.011314662   -4.8394257    1.0283776      1024000 
  976000    0.6855446   -4.8388942   -4.8388942   -3.8105794  0.017397613   -4.8388942    1.0283148      1024000 
  977000   0.68626022   -4.8408145   -4.8408145   -3.8114262  0.017020907   -4.8408145    1.0293882      1024000 
  978000   0.68572127   -4.8398987   -4.8398987   -3.8113189  0.017364038   -4.8398987    1.0285798      1024000 
  979000   0.68687018   -4.8426276   -4.8426276   -3.8123245  0.013070714   -4.8426276    1.0303032      1024000 
  980000   0.68626372   -4.8426465   -4.8426465    -3.813253   0.01400298   -4.8426465    1.0293935      1024000 
  981000    0.6860354   -4.8427502   -4.8427502   -3.8136992  0.012989747   -4.8427502     1.029051      1024000 
  982000   0.68611089   -4.8432928   -4.8432928   -3.8141285  0.014288255   -4.8432928    1.0291642      1024000 
  983000   0.68610049     -4.84405     -4.84405   -3.8149014  0.015645362     -4.84405    1.0291486      1024000 
  984000   0.68595855   -4.8447841   -4.8447841   -3.8158483  0.014807464   -4.8447841    1.0289357      1024000 
  985000   0.68489931   -4.8447858   -4.8447858   -3.8174389  0.015109637   -4.8447858    1.0273469      1024000 
  986000   0.68552279   -4.8461875   -4.8461875   -3.8179054  0.019778142   -4.8461875    1.0282821      1024000 
  987000   0.68489933   -4.8457694   -4.8457694   -3.8184225  0.017522876   -4.8457694    1.0273469      1024000 
  988000   0.68513375   -4.8466655   -4.8466655   -3.8189669  0.014423817   -4.8466655    1.0276985      1024000 
  989000   0.68525192   -4.8477962   -4.8477962   -3.8199205  0.010522732   -4.8477962    1.0278758      1024000 
  990000   0.68457502   -4.8476036   -4.8476036   -3.8207432  0.011746022   -4.8476036    1.0268604      1024000 
  991000   0.68382362   -4.8471845   -4.8471845   -3.8214511  0.011103495   -4.8471845    1.0257333      1024000 
  992000   0.68469137     -4.84925     -4.84925   -3.8222151  0.010082581     -4.84925     1.027035      1024000 
  993000   0.68325205   -4.8476249   -4.8476249   -3.8227489  0.011677133   -4.8476249     1.024876      1024000 
  994000   0.68461123   -4.8499609   -4.8499609   -3.8230461  0.012416881   -4.8499609    1.0269148      1024000 
  995000   0.68436179   -4.8505688   -4.8505688   -3.8240282  0.014628579   -4.8505688    1.0265406      1024000 
  996000   0.68474445   -4.8514623   -4.8514623   -3.8243477  0.010296229   -4.8514623    1.0271146      1024000 
  997000   0.68345707   -4.8502348   -4.8502348   -3.8250513  0.013615043   -4.8502348    1.0251835      1024000 
  998000   0.68407326    -4.852189    -4.852189   -3.8260812 0.0095033885    -4.852189    1.0261078      1024000 
  999000   0.68467534   -4.8531453   -4.8531453   -3.8261343 0.0071185179   -4.8531453    1.0270109      1024000 
 1000000   0.68415259   -4.8528002   -4.8528002   -3.8265734 0.0061989353   -4.8528002    1.0262268      1024000 
Loop time of 14688 on 32 procs for 1000000 steps with 492800 atoms

Performance: 14705.850 tau/day, 68.083 timesteps/s
99.4% CPU use with 32 MPI tasks x 1 OpenMP threads

MPI task timing breakdown:
Section |  min time  |  avg time  |  max time  |%varavg|  %CPU | %total
-----------------------------------------------------------------------
Pair    | 4738       | 7114.2     | 10339      |1549.6 |  99.5 | 48.44
Bond    | 0.40066    | 0.5972     | 2.5068     |  45.7 | 100.0 |  0.00
Neigh   | 1058.7     | 1491.3     | 2121.9     | 653.4 |  99.9 | 10.15
Comm    | 1072.3     | 5094.9     | 7787.8     |2207.7 |  99.1 | 34.69
Output  | 30.785     | 30.993     | 31.005     |   0.7 |  98.6 |  0.21
Modify  | 208.89     | 420.4      | 1083       |1422.9 |  99.5 |  2.86
Other   |            | 535.6      |            |       |       |  3.65

Nlocal:        15400.0 ave       15627 max       14511 min
Histogram: 2 0 0 1 0 1 0 2 17 9
Nghost:        13249.0 ave       14965 max        9031 min
Histogram: 4 4 0 0 0 0 0 0 9 15
Neighs:       593671.0 ave      642547 max      421579 min
Histogram: 4 0 0 0 0 0 0 8 8 12

Total # of neighbors = 18997477
Ave neighs/atom = 38.550075
Ave special neighs/atom = 0.0000000
Neighbor list builds = 60589
Dangerous builds = 720
Total wall time: 4:04:50
