LAMMPS (29 Oct 2020)
  using 1 OpenMP thread(s) per MPI task
# Simple rigid body system
# needed variables: startTemp, temp

units		lj
atom_style	full
dimension 	3
boundary	p p f
pair_style	lj/smooth/linear 1.5


variable 	sigma		equal 1.0
variable 	epsilon 	equal 1.0


region		box block 0 40 0 40 0 80
create_box 	3 box
Created orthogonal box = (0.0000000 0.0000000 0.0000000) to (40.000000 40.000000 80.000000)
  1 by 1 by 4 MPI processor grid

lattice 	sc 0.66
Lattice spacing in x,y,z = 1.1485556 1.1485556 1.1485556
region 		fluid block EDGE EDGE EDGE EDGE 1 40
create_atoms 	1 region fluid
Created 49000 atoms
  create_atoms CPU = 0.030 seconds

lattice 	sc 0.045
Lattice spacing in x,y,z = 2.8114422 2.8114422 2.8114422
region 		gas block EDGE EDGE EDGE EDGE 40 79
create_atoms 	1 region gas
Created 0 atoms
  create_atoms CPU = 0.006 seconds

mass		1 1.0
mass		2 1.0
mass		3 1.0


group		solvent type 1
49000 atoms in group solvent


velocity 	solvent create ${startTemp} 563435 loop geom
velocity 	solvent create 0.5 563435 loop geom

neighbor 	0.4 bin

pair_coeff	1 1 1.0 1.0
pair_coeff	2 2 0.0 0.0
pair_coeff	3 3 0.0 0.0
pair_coeff	2 3 0.0 0.0
pair_coeff	1 2*3 0.0 0.0

pair_modify 	shift yes


balance 	1.05 shift z 10 1.05
Balancing ...
Neighbor list info ...
  update every 1 steps, delay 10 steps, check yes
  max neighbors/atom: 2000, page size: 100000
  master list distance cutoff = 1.9
  ghost atom cutoff = 1.9
  binsize = 0.95, bins = 43 43 85
  1 neighbor lists, perpetual/occasional/extra = 1 0 0
  (1) pair lj/smooth/linear, perpetual
      attributes: half, newton on
      pair build: half/bin/newton
      stencil: half/bin/3d/newton
      bin: standard
 rebalancing time: 0.038 seconds
  iteration count = 3
  initial/final maximal load/proc = 20825.000 13475.000
  initial/final imbalance factor  = 1.7000000 1.1000000
  x cuts: 0.0000000 1.0000000
  y cuts: 0.0000000 1.0000000
  z cuts: 0.0000000 0.15625 0.28125 0.4375 1.0000000


####################### WALLS ###########################


variable       epsilonWall equal 2*${epsilon}
variable       epsilonWall equal 2*1

variable       cutoffTop   equal   0.858*${sigma}
variable       cutoffTop   equal   0.858*1

variable       cutoffLow   equal   3*${sigma}
variable       cutoffLow   equal   3*1


fix            topWall all wall/lj93 zhi EDGE                ${epsilonWall} ${sigma} ${cutoffTop} units box
fix            topWall all wall/lj93 zhi EDGE                2 ${sigma} ${cutoffTop} units box
fix            topWall all wall/lj93 zhi EDGE                2 1 ${cutoffTop} units box
fix            topWall all wall/lj93 zhi EDGE                2 1 0.858 units box

fix            lowWall all wall/lj93 zlo EDGE                ${epsilonWall} ${sigma} ${cutoffLow} units box
fix            lowWall all wall/lj93 zlo EDGE                2 ${sigma} ${cutoffLow} units box
fix            lowWall all wall/lj93 zlo EDGE                2 1 ${cutoffLow} units box
fix            lowWall all wall/lj93 zlo EDGE                2 1 3 units box


###################### COMPUTES ##########################

compute        bin1 solvent chunk/atom bin/1d z upper 1.0

######################	FIXES ############################

fix 		peclet solvent ave/chunk 1000 1 1000 bin1 density/number norm 		 sample ave one file density.profile

fix 		 temp solvent ave/chunk 1000 1 1000 bin1 temp norm sample ave one file temp.profile

fix 		2 solvent nve/limit 0.1

run 		100000
Per MPI rank memory allocation (min/avg/max) = 12.96 | 13.24 | 13.58 Mbytes
Step Temp E_pair E_mol TotEng Press 
       0          0.5  -0.57754581            0   0.17243888   0.60677542 
  100000    0.3369227   -0.3207188            0   0.18465493   0.21058545 
Loop time of 486.869 on 4 procs for 100000 steps with 49000 atoms

Performance: 88730.261 tau/day, 205.394 timesteps/s
100.0% CPU use with 4 MPI tasks x 1 OpenMP threads

MPI task timing breakdown:
Section |  min time  |  avg time  |  max time  |%varavg| %total
---------------------------------------------------------------
Pair    | 84.519     | 144.64     | 291.87     | 709.5 | 29.71
Bond    | 0.010024   | 0.016065   | 0.021321   |   3.5 |  0.00
Neigh   | 33.365     | 56.198     | 116.25     | 463.1 | 11.54
Comm    | 25.932     | 234.57     | 321.86     | 793.5 | 48.18
Output  | 0.00015438 | 0.00016928 | 0.00017661 |   0.0 |  0.00
Modify  | 13.326     | 21.729     | 43.281     | 268.8 |  4.46
Other   |            | 29.72      |            |       |  6.10

Nlocal:        12250.0 ave       27675 max        5976 min
Histogram: 3 0 0 0 0 0 0 0 0 1
Nghost:        4555.25 ave        7067 max        2881 min
Histogram: 1 0 1 1 0 0 0 0 0 1
Neighs:        62433.5 ave      141492 max       29605 min
Histogram: 3 0 0 0 0 0 0 0 0 1

Total # of neighbors = 249734
Ave neighs/atom = 5.0966122
Ave special neighs/atom = 0.0000000
Neighbor list builds = 7451
Dangerous builds = 433
unfix 		2

fix 		2 solvent nve #temp ${temp} ${temp} 10


## Thermostat


region		regthermo block EDGE EDGE EDGE EDGE 0 40

group 		thermo dynamic solvent region regthermo every 1000
dynamic group thermo defined

fix 		3 thermo langevin ${startTemp} ${temp} 10 156453
fix 		3 thermo langevin 0.5 ${temp} 10 156453
fix 		3 thermo langevin 0.5 .8 10 156453



#### Load balancing

fix 		bal all balance 1000 1.05 shift z 10 1.05

############### Diagnostics and computes ###################
dump		1 all custom 100000 dump.lammpstrj id mol type x y z
dump 		2 all image 10000 image.*.png type type zoom 2.0
dump 		3 all movie 1000 movie.avi type type zoom 2.0

################ RUN  ##########################
thermo 		1000
thermo_style 	custom step temp epair evdwl etotal press pe ke vol

restart 	500000 restart.dat
timestep 	0.005
timer 		full
New timer settings: style=full  mode=nosync  timeout=off

run		1000000
Per MPI rank memory allocation (min/avg/max) = 17.87 | 22.68 | 29.87 Mbytes
Step Temp E_pair E_vdwl TotEng Press PotEng KinEng Volume 
  100000    0.3369227   -0.3207188   -0.3207188   0.18465493   0.21058545   -0.3207188   0.50537374       128000 
  101000   0.42578426  -0.29008069  -0.29008069   0.34858266   0.29864517  -0.29008069   0.63866335       128000 
  102000   0.46558803  -0.27729126  -0.27729126   0.42107653   0.33641678  -0.27729126   0.69836778       128000 
  103000   0.48352004  -0.27362364  -0.27362364   0.45164161   0.35072729  -0.27362364   0.72526525       128000 
  104000   0.49449884  -0.27080721  -0.27080721   0.47092591   0.36103411  -0.27080721   0.74173312       128000 
  105000   0.49861305  -0.26824893  -0.26824893   0.47965538   0.36758349  -0.26824893   0.74790431       128000 
  106000   0.50234929   -0.2670443   -0.2670443   0.48646425   0.36880887   -0.2670443   0.75350855       128000 
  107000   0.50506353  -0.26868686  -0.26868686   0.48889297   0.36752768  -0.26868686   0.75757983       128000 
  108000   0.50372012   -0.2684621   -0.2684621   0.48710266   0.36893047   -0.2684621   0.75556476       128000 
  109000   0.50257571  -0.26985621  -0.26985621   0.48399196   0.36219635  -0.26985621   0.75384818       128000 
  110000   0.50104239  -0.26729798  -0.26729798   0.48425026   0.37258229  -0.26729798   0.75154824       128000 
  111000   0.50351374   -0.2659444   -0.2659444    0.4893108   0.37687661   -0.2659444    0.7552552       128000 
  112000   0.50150345    -0.266718    -0.266718   0.48552182   0.36803746    -0.266718   0.75223982       128000 
  113000   0.50232709  -0.26879633  -0.26879633   0.48467893    0.3676955  -0.26879633   0.75347526       128000 
  114000    0.5032371  -0.26574953  -0.26574953   0.48909072   0.37085964  -0.26574953   0.75484025       128000 
  115000    0.5058424  -0.26605759  -0.26605759   0.49269052   0.37219477  -0.26605759   0.75874811       128000 
  116000   0.50301896    -0.268286    -0.268286   0.48622705   0.36931042    -0.268286   0.75451305       128000 
  117000   0.50581917  -0.26589328  -0.26589328      0.49282   0.37025382  -0.26589328   0.75871327       128000 
  118000   0.50494232  -0.26777887  -0.26777887   0.48961915   0.37552017  -0.26777887   0.75739802       128000 
  119000   0.50564088  -0.26618001  -0.26618001   0.49226584   0.37391359  -0.26618001   0.75844585       128000 
  120000   0.50489103   -0.2663552   -0.2663552    0.4909659   0.37544574   -0.2663552    0.7573211       128000 
  121000   0.50641743  -0.26572108  -0.26572108   0.49388956   0.37352712  -0.26572108   0.75961064       128000 
  122000   0.50652826  -0.26830745  -0.26830745   0.49146943   0.36945448  -0.26830745   0.75977689       128000 
  123000    0.5060019  -0.26634479  -0.26634479   0.49264257   0.37397869  -0.26634479   0.75898735       128000 
  124000   0.50919906   -0.2671648   -0.2671648   0.49661819   0.37268814   -0.2671648     0.763783       128000 
  125000    0.5062832  -0.26509829  -0.26509829   0.49431102   0.37674198  -0.26509829   0.75940931       128000 
  126000    0.5054848   -0.2669839   -0.2669839   0.49122782   0.37300673   -0.2669839   0.75821172       128000 
  127000   0.50537978  -0.26629061  -0.26629061   0.49176359    0.3705545  -0.26629061    0.7580542       128000 
  128000   0.50769924  -0.26599517  -0.26599517   0.49553815   0.37636514  -0.26599517   0.76153331       128000 
  129000   0.50332566  -0.26621401  -0.26621401   0.48875908   0.37819973  -0.26621401   0.75497309       128000 
  130000   0.50773271  -0.26624831  -0.26624831   0.49533521   0.37190151  -0.26624831   0.76158352       128000 
  131000   0.50788857  -0.26321083  -0.26321083   0.49860648   0.38148225  -0.26321083   0.76181731       128000 
  132000   0.51018061  -0.26519585  -0.26519585   0.50005945   0.37878111  -0.26519585    0.7652553       128000 
  133000   0.50914819  -0.26532459  -0.26532459   0.49838212    0.3772726  -0.26532459    0.7637067       128000 
  134000   0.51145796  -0.26632838  -0.26632838    0.5008429    0.3743546  -0.26632838   0.76717128       128000 
  135000   0.50862298  -0.26606862  -0.26606862   0.49685028   0.37838093  -0.26606862    0.7629189       128000 
  136000   0.51036892   -0.2654824   -0.2654824   0.50005536   0.37858444   -0.2654824   0.76553776       128000 
  137000   0.51181878  -0.26288012  -0.26288012   0.50483238    0.3845071  -0.26288012    0.7677125       128000 
  138000   0.51264355  -0.26538454  -0.26538454   0.50356509   0.37677681  -0.26538454   0.76894963       128000 
  139000   0.51034174  -0.26438424  -0.26438424   0.50111274   0.38106952  -0.26438424   0.76549698       128000 
  140000   0.51055864  -0.26466626  -0.26466626   0.50115607   0.38492229  -0.26466626   0.76582233       128000 
  141000   0.51270687  -0.26467619  -0.26467619   0.50436842   0.37517676  -0.26467619   0.76904461       128000 
  142000   0.51071795  -0.26832348  -0.26832348   0.49773781   0.37644946  -0.26832348   0.76606129       128000 
  143000   0.50728002  -0.26708873  -0.26708873   0.49381578   0.37140099  -0.26708873    0.7609045       128000 
  144000    0.5126373  -0.26532038  -0.26532038   0.50361988   0.37926218  -0.26532038   0.76894026       128000 
  145000    0.5119364  -0.26446631  -0.26446631   0.50342263    0.3791098  -0.26446631   0.76788893       128000 
  146000   0.51279494   -0.2650704   -0.2650704   0.50410632   0.37681579   -0.2650704   0.76917672       128000 
  147000   0.51272654  -0.26595645  -0.26595645   0.50311766   0.37513206  -0.26595645   0.76907411       128000 
  148000   0.51383062  -0.26437276  -0.26437276   0.50635743   0.38318074  -0.26437276   0.77073019       128000 
  149000   0.51808974  -0.26572208  -0.26572208   0.51139667   0.37848158  -0.26572208   0.77711874       128000 
  150000   0.51588136  -0.26411845  -0.26411845   0.50968779   0.38316338  -0.26411845   0.77380625       128000 
  151000   0.51313719  -0.26337831  -0.26337831   0.50631177   0.38254007  -0.26337831   0.76969008       128000 
  152000   0.51226806   -0.2644674   -0.2644674     0.503919   0.38264784   -0.2644674   0.76838641       128000 
  153000   0.51299884   -0.2644102   -0.2644102   0.50507235   0.38364355   -0.2644102   0.76948256       128000 
  154000    0.5144633  -0.26440888  -0.26440888   0.50727032   0.38138693  -0.26440888    0.7716792       128000 
  155000   0.51848837  -0.26431494  -0.26431494   0.51340174   0.38239478  -0.26431494   0.77771669       128000 
  156000   0.51715822  -0.26370738  -0.26370738   0.51201412   0.38215604  -0.26370738    0.7757215       128000 
  157000   0.51425982  -0.26530619  -0.26530619    0.5060678   0.37730697  -0.26530619   0.77137399       128000 
  158000   0.51870001  -0.26392764  -0.26392764   0.51410649   0.38379644  -0.26392764   0.77803413       128000 
  159000   0.51726937  -0.26441002  -0.26441002    0.5114782   0.38781932  -0.26441002   0.77588822       128000 
  160000   0.52049285  -0.26233986  -0.26233986   0.51838348   0.38437199  -0.26233986   0.78072334       128000 
  161000   0.52106404  -0.26251946  -0.26251946   0.51906065   0.39046928  -0.26251946   0.78158011       128000 
  162000   0.51836057  -0.26507412  -0.26507412   0.51245087     0.383615  -0.26507412   0.77752499       128000 
  163000   0.51798842  -0.26200023  -0.26200023   0.51496655   0.38626209  -0.26200023   0.77696678       128000 
  164000   0.51874014  -0.26336235  -0.26336235   0.51473198   0.38536612  -0.26336235   0.77809433       128000 
  165000   0.51961302  -0.26229619  -0.26229619   0.51710743   0.38960161  -0.26229619   0.77940362       128000 
  166000   0.51961618  -0.26297297  -0.26297297   0.51643539   0.38498864  -0.26297297   0.77940836       128000 
  167000   0.51872178  -0.26479181  -0.26479181   0.51327497   0.37899021  -0.26479181   0.77806678       128000 
  168000   0.52180483   -0.2652579   -0.2652579   0.51743337   0.37914121   -0.2652579   0.78269127       128000 
  169000   0.52001674  -0.26371252  -0.26371252   0.51629667   0.38612666  -0.26371252   0.78000919       128000 
  170000   0.52008345  -0.26170447  -0.26170447   0.51840479   0.38578217  -0.26170447   0.78010926       128000 
  171000   0.52295091   -0.2623865   -0.2623865   0.52202386   0.38692861   -0.2623865   0.78441036       128000 
  172000   0.51956601  -0.26264542  -0.26264542   0.51668769   0.38651856  -0.26264542   0.77933311       128000 
  173000   0.52613792  -0.26348919  -0.26348919   0.52570159   0.38382635  -0.26348919   0.78919077       128000 
  174000   0.52215672  -0.26347102  -0.26347102   0.51974807   0.38576244  -0.26347102   0.78321909       128000 
  175000   0.52122685  -0.26297665  -0.26297665   0.51884768   0.38743388  -0.26297665   0.78182433       128000 
  176000   0.52088107  -0.26209517  -0.26209517   0.51921049   0.38743195  -0.26209517   0.78130566       128000 
  177000   0.52178939  -0.26285003  -0.26285003   0.51981808   0.38428457  -0.26285003   0.78266811       128000 
  178000   0.52137344  -0.26387385  -0.26387385   0.51817034   0.38714961  -0.26387385   0.78204419       128000 
  179000   0.52397156  -0.26060494  -0.26060494   0.52533636   0.39175342  -0.26060494   0.78594129       128000 
  180000   0.52275286  -0.26289381  -0.26289381   0.52121948   0.38796449  -0.26289381   0.78411329       128000 
  181000   0.52514237  -0.26356558  -0.26356558    0.5241319   0.38808993  -0.26356558   0.78769749       128000 
  182000   0.52712764  -0.26173217  -0.26173217   0.52894315   0.38969132  -0.26173217   0.79067532       128000 
  183000   0.52827241  -0.26366422  -0.26366422   0.52872822   0.38859291  -0.26366422   0.79239244       128000 
  184000   0.52651545  -0.26322825  -0.26322825   0.52652882    0.3863028  -0.26322825   0.78975706       128000 
  185000   0.52220907  -0.26027263  -0.26027263   0.52302499   0.39126587  -0.26027263   0.78329762       128000 
  186000   0.52299168  -0.25909603  -0.25909603   0.52537549   0.39391941  -0.25909603   0.78447152       128000 
  187000   0.52181003  -0.26187148  -0.26187148   0.52082759   0.39347564  -0.26187148   0.78269907       128000 
  188000   0.52247804  -0.26193356  -0.26193356   0.52176752   0.39035377  -0.26193356   0.78370107       128000 
  189000   0.52604268  -0.26242202  -0.26242202   0.52662591   0.38555845  -0.26242202   0.78904792       128000 
  190000   0.52639901  -0.26197363  -0.26197363   0.52760877   0.39030198  -0.26197363    0.7895824       128000 
  191000   0.52668982  -0.26189997  -0.26189997   0.52811864    0.3979958  -0.26189997   0.79001861       128000 
  192000   0.52796355  -0.26222013  -0.26222013   0.52970904   0.39204188  -0.26222013   0.79192916       128000 
  193000   0.52920987  -0.26165221  -0.26165221   0.53214639   0.39128392  -0.26165221    0.7937986       128000 
  194000   0.52928331  -0.26057975  -0.26057975   0.53332901    0.3933506  -0.26057975   0.79390876       128000 
  195000   0.53062077  -0.26041042  -0.26041042    0.5355045    0.3959802  -0.26041042   0.79591491       128000 
  196000   0.53088628  -0.26125088  -0.26125088   0.53506229   0.39138767  -0.26125088   0.79631316       128000 
  197000   0.52933053  -0.26030778  -0.26030778   0.53367181   0.39194117  -0.26030778   0.79397959       128000 
  198000   0.52994177  -0.26189007  -0.26189007   0.53300637   0.39160947  -0.26189007   0.79489643       128000 
  199000   0.52855927  -0.25960492  -0.25960492   0.53321781   0.40105616  -0.25960492   0.79282273       128000 
  200000   0.52657172  -0.25932317  -0.25932317   0.53051829   0.39877273  -0.25932317   0.78984146       128000 
  201000   0.52685681  -0.25946186  -0.25946186   0.53080723   0.39701904  -0.25946186   0.79026908       128000 
  202000   0.52784076  -0.26006682  -0.26006682   0.53167816     0.394606  -0.26006682   0.79174497       128000 
  203000    0.5302031  -0.25841883  -0.25841883   0.53686959   0.40282511  -0.25841883   0.79528842       128000 
  204000   0.53215923  -0.25853136  -0.25853136    0.5396912   0.39895154  -0.25853136   0.79822256       128000 
  205000   0.53052794  -0.25851861  -0.25851861   0.53725707   0.39820437  -0.25851861   0.79577567       128000 
  206000   0.53204193    -0.258616    -0.258616   0.53943062   0.39741613    -0.258616   0.79804661       128000 
  207000   0.53236043  -0.25954998  -0.25954998   0.53897437   0.39853036  -0.25954998   0.79852435       128000 
  208000   0.53305401  -0.26052004  -0.26052004   0.53904466   0.39865523  -0.26052004   0.79956469       128000 
  209000   0.53356284  -0.26081704  -0.26081704   0.53951088   0.39860994  -0.26081704   0.80032793       128000 
  210000     0.534549  -0.25903563  -0.25903563    0.5427715   0.40341325  -0.25903563   0.80180714       128000 
  211000    0.5343514  -0.25952392  -0.25952392   0.54198682   0.40139553  -0.25952392   0.80151074       128000 
  212000   0.53368556   -0.2594853   -0.2594853    0.5410267   0.39940291   -0.2594853     0.800512       128000 
  213000   0.53397626  -0.25987527  -0.25987527   0.54107277   0.39817474  -0.25987527   0.80094804       128000 
  214000   0.53657299  -0.26043458  -0.26043458   0.54440848   0.39837403  -0.26043458   0.80484306       128000 
  215000    0.5346439  -0.25935786  -0.25935786   0.54259163   0.39997443  -0.25935786   0.80194949       128000 
  216000   0.53302121  -0.25765467  -0.25765467   0.54186084   0.40157041  -0.25765467    0.7995155       128000 
  217000   0.53297105  -0.26063288  -0.26063288   0.53880737   0.39990178  -0.26063288   0.79944026       128000 
  218000   0.53649375   -0.2599046   -0.2599046   0.54481961   0.39976775   -0.2599046   0.80472421       128000 
  219000   0.53458944  -0.25811955  -0.25811955   0.54374824   0.40252617  -0.25811955    0.8018678       128000 
  220000   0.53730499  -0.25966282  -0.25966282   0.54627821   0.40333064  -0.25966282   0.80594103       128000 
  221000   0.53745016  -0.25746913  -0.25746913   0.54868966   0.40452138  -0.25746913   0.80615879       128000 
  222000   0.53520772  -0.25941024  -0.25941024   0.54338496   0.40106001  -0.25941024    0.8027952       128000 
  223000    0.5374863    -0.259426    -0.259426     0.546787   0.40236506    -0.259426     0.806213       128000 
  224000   0.53432373  -0.25755615  -0.25755615    0.5439131    0.4040685  -0.25755615   0.80146924       128000 
  225000   0.53765455  -0.26031964  -0.26031964   0.54614573   0.40023496  -0.26031964   0.80646537       128000 
  226000   0.53703738  -0.26041591  -0.26041591   0.54512373   0.39994872  -0.26041591   0.80553963       128000 
  227000   0.53715302  -0.25908292  -0.25908292   0.54663016   0.40205213  -0.25908292   0.80571308       128000 
  228000   0.53802784  -0.25941597  -0.25941597   0.54760932   0.40178882  -0.25941597   0.80702529       128000 
  229000   0.53772452  -0.25840706  -0.25840706   0.54816325    0.4049559  -0.25840706   0.80657032       128000 
  230000   0.53635445  -0.25955077  -0.25955077   0.54496448   0.39853918  -0.25955077   0.80451526       128000 
  231000   0.53762165  -0.25616098  -0.25616098   0.55025504   0.40943252  -0.25616098   0.80641602       128000 
  232000    0.5377196  -0.25824494  -0.25824494   0.54831799   0.39689445  -0.25824494   0.80656293       128000 
  233000   0.54117523  -0.25878105  -0.25878105   0.55296523   0.40218378  -0.25878105   0.81174627       128000 
  234000   0.54187868   -0.2587097   -0.2587097   0.55409172   0.40382185   -0.2587097   0.81280143       128000 
  235000    0.5405671  -0.25553037  -0.25553037   0.55530373   0.41217675  -0.25553037    0.8108341       128000 
  236000   0.54257534  -0.25726635  -0.25726635   0.55658005   0.40895074  -0.25726635    0.8138464       128000 
  237000   0.54300146  -0.25829222  -0.25829222   0.55619336   0.40381045  -0.25829222   0.81448557       128000 
  238000   0.54118942   -0.2580611   -0.2580611   0.55370646   0.40281844   -0.2580611   0.81176756       128000 
  239000   0.54248621  -0.25810566  -0.25810566   0.55560705   0.39940341  -0.25810566   0.81371271       128000 
  240000   0.54025196  -0.25651214  -0.25651214   0.55384926   0.40543389  -0.25651214    0.8103614       128000 
  241000   0.54208938  -0.25597292  -0.25597292   0.55714456   0.40860226  -0.25597292   0.81311748       128000 
  242000   0.54191109  -0.25739095  -0.25739095   0.55545909   0.40715706  -0.25739095   0.81285004       128000 
  243000    0.5442683  -0.25672679  -0.25672679     0.559659   0.40606702  -0.25672679   0.81638579       128000 
  244000   0.54512005  -0.25628887  -0.25628887   0.56137451   0.41348675  -0.25628887   0.81766338       128000 
  245000   0.54213785  -0.25536638  -0.25536638    0.5578238   0.41143691  -0.25536638   0.81319018       128000 
  246000   0.54173627  -0.25685062  -0.25685062    0.5557372   0.40826761  -0.25685062   0.81258782       128000 
  247000   0.54578719  -0.25881314  -0.25881314   0.55985095   0.40467672  -0.25881314   0.81866408       128000 
  248000   0.54149627  -0.25787094  -0.25787094    0.5543569   0.40645897  -0.25787094   0.81222784       128000 
  249000    0.5417477  -0.25844881  -0.25844881   0.55415616   0.40104297  -0.25844881   0.81260497       128000 
  250000   0.54322933  -0.25534143  -0.25534143   0.55948593   0.40926141  -0.25534143   0.81482736       128000 
  251000   0.54518729  -0.25460713  -0.25460713   0.56315712   0.41565972  -0.25460713   0.81776424       128000 
  252000   0.54420159  -0.25743563  -0.25743563    0.5588501   0.41008891  -0.25743563   0.81628573       128000 
  253000   0.54512855  -0.25748955  -0.25748955   0.56018658   0.40572951  -0.25748955   0.81767613       128000 
  254000   0.54557966  -0.25610583  -0.25610583   0.56224696   0.41331492  -0.25610583   0.81835279       128000 
  255000    0.5452596  -0.25606528  -0.25606528   0.56180743   0.41022462  -0.25606528    0.8178727       128000 
  256000   0.54568829  -0.25661192  -0.25661192   0.56190381   0.41240575  -0.25661192   0.81851572       128000 
  257000   0.54857204   -0.2543136   -0.2543136   0.56852768    0.4175131   -0.2543136   0.82284127       128000 
  258000    0.5460598  -0.25814658  -0.25814658   0.56092641   0.40805544  -0.25814658   0.81907299       128000 
  259000   0.54591135  -0.25526171  -0.25526171    0.5635886   0.41503779  -0.25526171   0.81885031       128000 
  260000   0.54799748  -0.25482002  -0.25482002   0.56715942   0.41736075  -0.25482002   0.82197944       128000 
  261000   0.54747165  -0.25492983  -0.25492983   0.56626088   0.41763852  -0.25492983   0.82119071       128000 
  262000    0.5469634   -0.2552735   -0.2552735   0.56515486   0.41770567   -0.2552735   0.82042836       128000 
  263000   0.55037633  -0.25805522  -0.25805522   0.56749242   0.41088441  -0.25805522   0.82554765       128000 
  264000   0.54763584   -0.2545604   -0.2545604    0.5668766   0.41351334   -0.2545604     0.821437       128000 
  265000   0.55098904  -0.25745448  -0.25745448   0.56901222   0.41359347  -0.25745448   0.82646669       128000 
  266000   0.54737358  -0.25528821  -0.25528821    0.5657554   0.41978285  -0.25528821   0.82104361       128000 
  267000   0.55104024  -0.25652427  -0.25652427   0.57001922   0.40901671  -0.25652427   0.82654349       128000 
  268000   0.54648197  -0.25485303  -0.25485303    0.5648532   0.41877854  -0.25485303   0.81970623       128000 
  269000    0.5476514   -0.2542675   -0.2542675   0.56719283    0.4125179   -0.2542675   0.82146033       128000 
  270000   0.55103794  -0.25646971  -0.25646971   0.57007033   0.41114159  -0.25646971   0.82654004       128000 
  271000   0.55127774  -0.25764005  -0.25764005   0.56925969    0.4132332  -0.25764005   0.82689973       128000 
  272000   0.55118433  -0.25761589  -0.25761589   0.56914373   0.40624368  -0.25761589   0.82675962       128000 
  273000   0.55402313  -0.25599355  -0.25599355   0.57502419   0.41618426  -0.25599355   0.83101774       128000 
  274000   0.55134848  -0.25516458  -0.25516458   0.57184126   0.41669446  -0.25516458   0.82700584       128000 
  275000   0.54825186  -0.25091901  -0.25091901     0.571442   0.42649585  -0.25091901   0.82236101       128000 
  276000   0.55295526  -0.25359053  -0.25359053   0.57582543   0.42358195  -0.25359053   0.82941596       128000 
  277000   0.55489201  -0.25465537  -0.25465537   0.57766565   0.41863302  -0.25465537   0.83232103       128000 
  278000   0.55045917  -0.25377748  -0.25377748   0.57189442   0.41839576  -0.25377748    0.8256719       128000 
  279000   0.55036912  -0.25538487  -0.25538487   0.57015197   0.41514373  -0.25538487   0.82553684       128000 
  280000   0.55417037   -0.2543082   -0.2543082   0.57693038   0.42255346   -0.2543082   0.83123859       128000 
  281000   0.55107569  -0.25351156  -0.25351156   0.57308511   0.41703669  -0.25351156   0.82659667       128000 
  282000   0.55376451  -0.25621554  -0.25621554   0.57441427   0.41297073  -0.25621554   0.83062981       128000 
  283000   0.55369234  -0.25362742  -0.25362742   0.57689414   0.41756325  -0.25362742   0.83052156       128000 
  284000   0.55387517  -0.25307171  -0.25307171   0.57772409   0.42080548  -0.25307171    0.8307958       128000 
  285000   0.55442361  -0.25363539  -0.25363539   0.57798305   0.42039968  -0.25363539   0.83161844       128000 
  286000    0.5553552  -0.25421238  -0.25421238   0.57880342   0.42248818  -0.25421238    0.8330158       128000 
  287000    0.5540711   -0.2548437   -0.2548437     0.576246   0.41793135   -0.2548437   0.83108969       128000 
  288000   0.55352295  -0.25237646  -0.25237646   0.57789103    0.4229253  -0.25237646   0.83026748       128000 
  289000   0.55748432  -0.25491138  -0.25491138   0.58129803   0.41593923  -0.25491138   0.83620941       128000 
  290000   0.55847963  -0.25377029  -0.25377029   0.58393206   0.42213342  -0.25377029   0.83770235       128000 
  291000   0.55809899  -0.25304583  -0.25304583   0.58408557   0.42742031  -0.25304583    0.8371314       128000 
  292000   0.55846806  -0.25294674  -0.25294674   0.58473826   0.42826636  -0.25294674   0.83768499       128000 
  293000   0.55722737   -0.2541338   -0.2541338    0.5816902    0.4164706   -0.2541338     0.835824       128000 
  294000    0.5560396   -0.2538921   -0.2538921   0.58015028    0.4208758   -0.2538921   0.83404237       128000 
  295000     0.556845  -0.25329241  -0.25329241   0.58195804   0.41847601  -0.25329241   0.83525045       128000 
  296000   0.55686635  -0.25191682  -0.25191682   0.58336566   0.42991703  -0.25191682   0.83528248       128000 
  297000   0.55720792  -0.25339721  -0.25339721   0.58239761   0.41848073  -0.25339721   0.83579482       128000 
  298000   0.55576869  -0.25304971  -0.25304971   0.58058631   0.41970887  -0.25304971   0.83363602       128000 
  299000    0.5564248  -0.25277601  -0.25277601   0.58184416   0.42421061  -0.25277601   0.83462017       128000 
  300000    0.5581455   -0.2540487   -0.2540487   0.58315246   0.42136975   -0.2540487   0.83720116       128000 
  301000   0.55836975  -0.25251927  -0.25251927   0.58501826   0.42813836  -0.25251927   0.83753753       128000 
  302000   0.55958085   -0.2531298   -0.2531298   0.58622435   0.42159507   -0.2531298   0.83935415       128000 
  303000   0.55952388  -0.25365923  -0.25365923   0.58560946     0.424238  -0.25365923   0.83926869       128000 
  304000    0.5591887  -0.25195146  -0.25195146   0.58681447   0.42394212  -0.25195146   0.83876593       128000 
  305000   0.56091446  -0.25076611  -0.25076611    0.5905884   0.43030123  -0.25076611   0.84135451       128000 
  306000   0.56112362  -0.25320712  -0.25320712   0.58846113   0.42229405  -0.25320712   0.84166826       128000 
  307000     0.560665  -0.25261126  -0.25261126   0.58836908   0.42633664  -0.25261126   0.84098034       128000 
  308000   0.56050561  -0.25353272  -0.25353272   0.58720854   0.42511102  -0.25353272   0.84074126       128000 
  309000   0.55693039  -0.25247444  -0.25247444    0.5829041   0.42153263  -0.25247444   0.83537853       128000 
  310000   0.55826009  -0.25423194  -0.25423194    0.5831411   0.42199047  -0.25423194   0.83737304       128000 
  311000   0.56080833  -0.25303729  -0.25303729   0.58815804   0.42199593  -0.25303729   0.84119533       128000 
  312000   0.56156592  -0.25398217  -0.25398217   0.58834952   0.42132656  -0.25398217   0.84233169       128000 
  313000   0.56565823  -0.25278354  -0.25278354    0.5956865   0.43133808  -0.25278354   0.84847004       128000 
  314000   0.56455587   -0.2509267   -0.2509267   0.59588982   0.43103441   -0.2509267   0.84681652       128000 
  315000   0.56442984  -0.25420445  -0.25420445   0.59242304   0.42372882  -0.25420445   0.84662749       128000 
  316000   0.56392599  -0.25075282  -0.25075282   0.59511891   0.42562026  -0.25075282   0.84587173       128000 
  317000   0.56319099  -0.25162946  -0.25162946   0.59313979   0.42853547  -0.25162946   0.84476925       128000 
  318000   0.56068825    -0.249261    -0.249261   0.59175422   0.43290961    -0.249261   0.84101521       128000 
  319000   0.56666988  -0.25163328  -0.25163328   0.59835419   0.42643419  -0.25163328   0.84998747       128000 
  320000    0.5682078  -0.25099862  -0.25099862   0.60129569   0.43199207  -0.25099862   0.85229431       128000 
  321000   0.56851742  -0.24924896  -0.24924896   0.60350976   0.43641905  -0.24924896   0.85275872       128000 
  322000    0.5666319    -0.249917    -0.249917   0.60001351   0.42667156    -0.249917   0.84993051       128000 
  323000   0.56864848   -0.2508509   -0.2508509   0.60210442   0.43152013   -0.2508509   0.85295531       128000 
  324000   0.56758558  -0.25045959  -0.25045959   0.60090141    0.4288874  -0.25045959     0.851361       128000 
  325000   0.56510316  -0.25065249  -0.25065249   0.59698495   0.43345582  -0.25065249   0.84763744       128000 
  326000   0.56426492  -0.24914045  -0.24914045   0.59723965   0.43544438  -0.24914045   0.84638011       128000 
  327000   0.56781875  -0.25002257  -0.25002257   0.60168818    0.4345867  -0.25002257   0.85171074       128000 
  328000   0.57075277  -0.25100326  -0.25100326   0.60510842    0.4367706  -0.25100326   0.85611168       128000 
  329000   0.57176573  -0.25084709  -0.25084709   0.60678399   0.43134959  -0.25084709   0.85763109       128000 
  330000   0.57085473  -0.25137586  -0.25137586   0.60488876   0.43203048  -0.25137586   0.85626462       128000 
  331000   0.57049146  -0.25076997  -0.25076997   0.60494975   0.43410373  -0.25076997   0.85571972       128000 
  332000   0.57118358  -0.25047103  -0.25047103   0.60628686   0.42975193  -0.25047103   0.85675789       128000 
  333000   0.56791889  -0.25101601  -0.25101601   0.60084494   0.43287951  -0.25101601   0.85186095       128000 
  334000   0.56946503  -0.25228509  -0.25228509   0.60189502   0.42520486  -0.25228509   0.85418011       128000 
  335000    0.5707817  -0.24809484  -0.24809484   0.60806025   0.43903497  -0.24809484   0.85615508       128000 
  336000    0.5747017  -0.24990287  -0.24990287   0.61213208   0.44315061  -0.24990287   0.86203495       128000 
  337000   0.57116691  -0.24976943  -0.24976943   0.60696346    0.4342901  -0.24976943   0.85673289       128000 
  338000   0.57086906  -0.24954753  -0.24954753   0.60673858   0.43483739  -0.24954753   0.85628611       128000 
  339000   0.57067876  -0.25183808  -0.25183808   0.60416259   0.43341631  -0.25183808   0.85600066       128000 
  340000    0.5707943  -0.24896145  -0.24896145   0.60721254    0.4396165  -0.24896145   0.85617398       128000 
  341000   0.57151389  -0.24835262  -0.24835262   0.60890072   0.44166175  -0.24835262   0.85725334       128000 
  342000   0.57224724  -0.24973585  -0.24973585   0.60861749   0.44034975  -0.24973585   0.85835334       128000 
  343000   0.57580241  -0.24997338  -0.24997338   0.61371261   0.43597481  -0.24997338   0.86368599       128000 
  344000   0.57606513   -0.2495827   -0.2495827   0.61449736   0.43723158   -0.2495827   0.86408005       128000 
  345000   0.57362873  -0.24800445  -0.24800445    0.6124211   0.44074712  -0.24800445   0.86042554       128000 
  346000   0.57264476  -0.25021451  -0.25021451    0.6087351   0.43447537  -0.25021451   0.85894961       128000 
  347000   0.57479596  -0.24611534  -0.24611534   0.61606101   0.44245516  -0.24611534   0.86217635       128000 
  348000   0.57308437  -0.24973691  -0.24973691   0.60987209   0.43675158  -0.24973691   0.85960901       128000 
  349000   0.57361173  -0.24830309  -0.24830309   0.61209696   0.43896066  -0.24830309   0.86040004       128000 
  350000    0.5739415    -0.251521    -0.251521   0.60937367   0.43632917    -0.251521   0.86089467       128000 
  351000   0.57311939  -0.24891468  -0.24891468   0.61074685    0.4381064  -0.24891468   0.85966154       128000 
  352000   0.57256766  -0.24819584  -0.24819584   0.61063812   0.43896947  -0.24819584   0.85883396       128000 
  353000   0.57623207   -0.2491062   -0.2491062   0.61522426   0.44094647   -0.2491062   0.86433046       128000 
  354000    0.5788593   -0.2495496   -0.2495496   0.61872164   0.43716736   -0.2495496   0.86827124       128000 
  355000   0.57454708  -0.24885341  -0.24885341   0.61294962   0.43659584  -0.24885341   0.86180303       128000 
  356000   0.57552412  -0.24814756  -0.24814756   0.61512099   0.43886012  -0.24814756   0.86326856       128000 
  357000   0.57614723  -0.24618028  -0.24618028   0.61802293   0.44794016  -0.24618028   0.86420321       128000 
  358000   0.57546795  -0.24795605  -0.24795605   0.61522826   0.44286134  -0.24795605   0.86318431       128000 
  359000   0.58005093  -0.25022884  -0.25022884   0.61982979   0.43419253  -0.25022884   0.87005863       128000 
  360000   0.58332277  -0.24887637  -0.24887637   0.62608992   0.44480792  -0.24887637   0.87496629       128000 
  361000   0.57829374  -0.24889445  -0.24889445   0.61852845    0.4418384  -0.24889445    0.8674229       128000 
  362000   0.57906561  -0.24907368  -0.24907368   0.61950701   0.44009941  -0.24907368    0.8685807       128000 
  363000   0.57505161  -0.24817328  -0.24817328   0.61438654   0.44102978  -0.24817328   0.86255982       128000 
  364000   0.57351921  -0.24751161  -0.24751161   0.61274964   0.44076944  -0.24751161   0.86026125       128000 
  365000   0.57675805  -0.24864651  -0.24864651   0.61647291   0.44197697  -0.24864651   0.86511942       128000 
  366000   0.57640935  -0.24881147  -0.24881147   0.61578491   0.43920149  -0.24881147   0.86459638       128000 
  367000   0.58265087  -0.24820871  -0.24820871   0.62574975   0.44643963  -0.24820871   0.87395846       128000 
  368000   0.58321525  -0.24705116  -0.24705116   0.62775385   0.44743067  -0.24705116   0.87480502       128000 
  369000   0.58411787  -0.25039273  -0.25039273    0.6257662   0.43720186  -0.25039273   0.87615892       128000 
  370000   0.58412948  -0.24612853  -0.24612853   0.63004781   0.44868341  -0.24612853   0.87617635       128000 
  371000   0.58221204  -0.24783719  -0.24783719   0.62546305   0.44528084  -0.24783719   0.87330024       128000 
  372000   0.58041843  -0.24797903  -0.24797903   0.62263086   0.44072531  -0.24797903   0.87060988       128000 
  373000   0.58379643  -0.24865455  -0.24865455   0.62702223   0.44486196  -0.24865455   0.87567678       128000 
  374000   0.58549914  -0.24757746  -0.24757746   0.63065333   0.44335175  -0.24757746   0.87823079       128000 
  375000   0.58688463  -0.24715171  -0.24715171   0.63315727   0.44606123  -0.24715171   0.88030898       128000 
  376000   0.58195398   -0.2466752   -0.2466752   0.62623795   0.44537377   -0.2466752   0.87291315       128000 
  377000   0.58108786  -0.24538359  -0.24538359   0.62623041   0.45423633  -0.24538359     0.871614       128000 
  378000   0.58213486  -0.24713381  -0.24713381   0.62605066   0.44519207  -0.24713381   0.87318447       128000 
  379000    0.5790877   -0.2461854   -0.2461854   0.62242842   0.45088566   -0.2461854   0.86861382       128000 
  380000   0.58380784   -0.2465636   -0.2465636   0.62913029   0.44714194   -0.2465636   0.87569388       128000 
  381000   0.58444695  -0.24730771  -0.24730771   0.62934483   0.44602844  -0.24730771   0.87665254       128000 
  382000   0.58646542  -0.24736562  -0.24736562   0.63231456   0.44485361  -0.24736562   0.87968018       128000 
  383000   0.58710919  -0.24580195  -0.24580195   0.63484387   0.45009338  -0.24580195   0.88064582       128000 
  384000   0.58302438  -0.24446714  -0.24446714   0.63005158   0.45443977  -0.24446714   0.87451872       128000 
  385000   0.58685473  -0.24798305  -0.24798305   0.63228108   0.44417974  -0.24798305   0.88026413       128000 
  386000   0.58543878  -0.24597679  -0.24597679   0.63216347   0.44688038  -0.24597679   0.87814025       128000 
  387000   0.58201245  -0.24539086  -0.24539086      0.62761   0.44884328  -0.24539086   0.87300086       128000 
  388000   0.58795803  -0.24793706  -0.24793706   0.63398199   0.44483418  -0.24793706   0.88191905       128000 
  389000   0.58733462  -0.24619258  -0.24619258   0.63479136    0.4521748  -0.24619258   0.88098395       128000 
  390000   0.59026715  -0.24535954  -0.24535954   0.64002312   0.45274373  -0.24535954   0.88538265       128000 
  391000   0.58880097  -0.24526968  -0.24526968   0.63791375   0.45747396  -0.24526968   0.88318342       128000 
  392000   0.58849941  -0.24659103  -0.24659103   0.63614008   0.44843032  -0.24659103   0.88273111       128000 
  393000   0.58453582  -0.24729201  -0.24729201   0.62949383   0.44540456  -0.24729201   0.87678584       128000 
  394000   0.58563251  -0.24513037  -0.24513037   0.63330047   0.45342714  -0.24513037   0.87843084       128000 
  395000   0.58724239  -0.24578776  -0.24578776   0.63505786   0.44911494  -0.24578776   0.88084562       128000 
  396000   0.58680936  -0.24617262  -0.24617262   0.63402346   0.45167926  -0.24617262   0.88019608       128000 
  397000   0.58972482  -0.24973633  -0.24973633   0.63483285   0.44432407  -0.24973633   0.88456918       128000 
  398000   0.58340427  -0.24392597  -0.24392597   0.63116257    0.4535088  -0.24392597   0.87508854       128000 
  399000   0.58238453  -0.24536217  -0.24536217    0.6281968   0.45387328  -0.24536217   0.87355896       128000 
  400000   0.58543609  -0.24397424  -0.24397424   0.63416196   0.46024102  -0.24397424   0.87813621       128000 
  401000   0.58788741  -0.24473854  -0.24473854   0.63707457   0.45451184  -0.24473854   0.88181312       128000 
  402000   0.58824945  -0.24322976  -0.24322976   0.63912641   0.45987736  -0.24322976   0.88235617       128000 
  403000   0.58837322  -0.24484873  -0.24484873   0.63769308   0.44949633  -0.24484873   0.88254181       128000 
  404000   0.58688874  -0.24552892  -0.24552892   0.63478623   0.45480682  -0.24552892   0.88031514       128000 
  405000   0.59203259  -0.24744965  -0.24744965   0.64058111   0.44836077  -0.24744965   0.88803077       128000 
  406000   0.59113659  -0.24529767  -0.24529767   0.64138913   0.45423761  -0.24529767    0.8866868       128000 
  407000   0.59286468  -0.24525679  -0.24525679   0.64402208   0.45403481  -0.24525679   0.88927887       128000 
  408000   0.59471592  -0.24439457  -0.24439457   0.64766111   0.45635178  -0.24439457   0.89205568       128000 
  409000    0.5893494  -0.24481688  -0.24481688   0.63918919   0.45652145  -0.24481688   0.88400607       128000 
  410000   0.59152353  -0.24665586  -0.24665586   0.64061132   0.45066378  -0.24665586   0.88726719       128000 
  411000   0.59205773  -0.24434456  -0.24434456   0.64372391   0.45413662  -0.24434456   0.88806847       128000 
  412000   0.59350228  -0.24621727  -0.24621727   0.64401798   0.45340273  -0.24621727   0.89023525       128000 
  413000   0.59301571  -0.24284275  -0.24284275   0.64666266   0.45980922  -0.24284275   0.88950541       128000 
  414000   0.59565119  -0.24127107  -0.24127107   0.65218749    0.4627399  -0.24127107   0.89345855       128000 
  415000   0.59219352  -0.24330299  -0.24330299   0.64496917   0.45748802  -0.24330299   0.88827216       128000 
  416000    0.5911862   -0.2434065   -0.2434065    0.6433547     0.460426   -0.2434065    0.8867612       128000 
  417000   0.59579608  -0.24671761  -0.24671761   0.64695827    0.4521854  -0.24671761   0.89367588       128000 
  418000   0.59513858  -0.24588574  -0.24588574   0.64680391    0.4575446  -0.24588574   0.89268966       128000 
  419000   0.59409269  -0.24312179  -0.24312179   0.64799906   0.46241886  -0.24312179   0.89112085       128000 
  420000   0.59759289  -0.24491076  -0.24491076   0.65146028   0.45338301  -0.24491076   0.89637104       128000 
  421000   0.59760728  -0.24306625  -0.24306625   0.65332638   0.45614097  -0.24306625   0.89639263       128000 
  422000   0.59733515  -0.24412921  -0.24412921   0.65185522   0.45886831  -0.24412921   0.89598443       128000 
  423000   0.59692947  -0.24337392  -0.24337392   0.65200201   0.45912402  -0.24337392   0.89537593       128000 
  424000   0.59895679  -0.24436399  -0.24436399   0.65405285   0.45932825  -0.24436399   0.89841684       128000 
  425000   0.59909916  -0.24515486  -0.24515486   0.65347554   0.46353861  -0.24515486    0.8986304       128000 
  426000   0.59999438  -0.24300298  -0.24300298   0.65697023    0.4651935  -0.24300298    0.8999732       128000 
  427000   0.59981769  -0.24463122  -0.24463122   0.65507695   0.45579062  -0.24463122   0.89970818       128000 
  428000   0.59851105  -0.24183251  -0.24183251   0.65591575   0.46779552  -0.24183251   0.89774826       128000 
  429000   0.59964872  -0.24435276  -0.24435276   0.65510196   0.45710382  -0.24435276   0.89945472       128000 
  430000   0.59998847  -0.24255216  -0.24255216   0.65741218   0.46334832  -0.24255216   0.89996434       128000 
  431000    0.6008581  -0.24205552  -0.24205552   0.65921323   0.46084725  -0.24205552   0.90126875       128000 
  432000   0.60075644  -0.24426215  -0.24426215   0.65685412    0.4607831  -0.24426215   0.90111626       128000 
  433000   0.59986562  -0.24417235  -0.24417235   0.65560772    0.4603502  -0.24417235   0.89978007       128000 
  434000   0.60052643  -0.24437985  -0.24437985    0.6563914   0.45738362  -0.24437985   0.90077126       128000 
  435000   0.59622827  -0.24498597  -0.24498597   0.64933819   0.45447096  -0.24498597   0.89432416       128000 
  436000    0.6013251  -0.24360786  -0.24360786   0.65836138   0.46005789  -0.24360786   0.90196924       128000 
  437000   0.60247713  -0.24332253  -0.24332253   0.66037473   0.46536363  -0.24332253   0.90369726       128000 
  438000   0.60057444   -0.2410279   -0.2410279   0.65981538   0.46956998   -0.2410279   0.90084327       128000 
  439000   0.60010536  -0.24084056  -0.24084056   0.65929911   0.46680264  -0.24084056   0.90013967       128000 
  440000   0.59914413  -0.24231158  -0.24231158   0.65638628   0.46054589  -0.24231158   0.89869785       128000 
  441000   0.60165586  -0.24217184  -0.24217184   0.66029353   0.46477211  -0.24217184   0.90246537       128000 
  442000   0.60546321  -0.24043829  -0.24043829   0.66773799   0.46574736  -0.24043829   0.90817628       128000 
  443000   0.60167255   -0.2406359   -0.2406359   0.66185451   0.46568909   -0.2406359    0.9024904       128000 
  444000   0.60010103  -0.24373336  -0.24373336   0.65639981   0.46310179  -0.24373336   0.90013317       128000 
  445000   0.60158238  -0.24218365  -0.24218365   0.66017151   0.47022284  -0.24218365   0.90235515       128000 
  446000    0.6041882  -0.24429544  -0.24429544   0.66196836   0.45724265  -0.24429544   0.90626381       128000 
  447000   0.60454724  -0.24137354  -0.24137354   0.66542881   0.46473561  -0.24137354   0.90680235       128000 
  448000   0.60463358   -0.2422653   -0.2422653   0.66466657    0.4663353   -0.2422653   0.90693186       128000 
  449000   0.60212046  -0.24061588  -0.24061588   0.66254638   0.46652501  -0.24061588   0.90316226       128000 
  450000   0.60481263  -0.24143189  -0.24143189   0.66576853    0.4707836  -0.24143189   0.90720042       128000 
  451000   0.60656465  -0.24323813  -0.24323813   0.66659027   0.46332699  -0.24323813    0.9098284       128000 
  452000   0.60657887  -0.24289861  -0.24289861   0.66695112   0.46691255  -0.24289861   0.90984973       128000 
  453000   0.60480675   -0.2406129   -0.2406129    0.6665787   0.46774062   -0.2406129    0.9071916       128000 
  454000   0.60625132  -0.24404672  -0.24404672    0.6653117   0.46009393  -0.24404672   0.90935841       128000 
  455000    0.6063292  -0.24003292  -0.24003292   0.66944232   0.47163971  -0.24003292   0.90947523       128000 
  456000   0.60760832  -0.23752391  -0.23752391   0.67386997   0.48058448  -0.23752391   0.91139387       128000 
  457000   0.60954691  -0.24323363  -0.24323363   0.67106808   0.46791543  -0.24323363   0.91430171       128000 
  458000    0.6075895  -0.24066625  -0.24066625    0.6706994   0.47232377  -0.24066625   0.91136565       128000 
  459000    0.6092706  -0.24173924  -0.24173924   0.67214801   0.47083785  -0.24173924   0.91388724       128000 
  460000   0.60720878  -0.24368888  -0.24368888    0.6671057   0.46462893  -0.24368888   0.91079458       128000 
  461000   0.60721266  -0.24241635  -0.24241635   0.66838405   0.46511049  -0.24241635    0.9108004       128000 
  462000   0.60774873  -0.24335563  -0.24335563   0.66824886   0.46302947  -0.24335563    0.9116045       128000 
  463000   0.60747838  -0.24052343  -0.24052343   0.67067555   0.47369096  -0.24052343   0.91119898       128000 
  464000   0.60850248    -0.238009    -0.238009   0.67472609    0.4755395    -0.238009   0.91273509       128000 
  465000   0.61191602  -0.24301258  -0.24301258   0.67484272   0.46808846  -0.24301258    0.9178553       128000 
  466000    0.6112563  -0.24096875  -0.24096875   0.67589699   0.47191703  -0.24096875   0.91686574       128000 
  467000   0.61094462  -0.23798315  -0.23798315   0.67841508   0.47994908  -0.23798315   0.91639823       128000 
  468000   0.61050599  -0.23772945  -0.23772945   0.67801085   0.47861234  -0.23772945    0.9157403       128000 
  469000   0.61111621  -0.24183765  -0.24183765   0.67481796   0.46534507  -0.24183765   0.91665561       128000 
  470000   0.61054148  -0.23946282  -0.23946282   0.67633071   0.47107184  -0.23946282   0.91579353       128000 
  471000   0.61082831  -0.24135451  -0.24135451   0.67486925   0.47351808  -0.24135451   0.91622376       128000 
  472000   0.61122917  -0.23981156  -0.23981156   0.67701349   0.47528477  -0.23981156   0.91682504       128000 
  473000   0.61141182  -0.23919098  -0.23919098   0.67790803   0.47742874  -0.23919098   0.91709901       128000 
  474000   0.61035973  -0.24044136  -0.24044136   0.67507956   0.47083046  -0.24044136   0.91552092       128000 
  475000   0.61008701   -0.2388264   -0.2388264   0.67628544   0.47411783   -0.2388264   0.91511184       128000 
  476000   0.61250333  -0.24160879  -0.24160879   0.67712745    0.4725071  -0.24160879   0.91873624       128000 
  477000   0.61488006  -0.23887196  -0.23887196    0.6834293    0.4770813  -0.23887196   0.92230126       128000 
  478000   0.61191397  -0.24089224  -0.24089224   0.67695999   0.47224475  -0.24089224   0.91785223       128000 
  479000   0.61101983  -0.24009232  -0.24009232   0.67641871   0.47060812  -0.24009232   0.91651103       128000 
  480000   0.61314779   -0.2401204   -0.2401204   0.67958251   0.47551689   -0.2401204   0.91970291       128000 
  481000   0.61374716  -0.24004143  -0.24004143   0.68056052   0.47193167  -0.24004143   0.92060195       128000 
  482000   0.61345288  -0.24015156  -0.24015156   0.68000897   0.47629843  -0.24015156   0.92016054       128000 
  483000   0.61556426  -0.23802776  -0.23802776   0.68529978   0.48330573  -0.23802776   0.92332754       128000 
  484000   0.61556176   -0.2402454   -0.2402454    0.6830784   0.47543226   -0.2402454    0.9233238       128000 
  485000   0.62036564  -0.24118185  -0.24118185   0.68934762   0.47340208  -0.24118185   0.93052947       128000 
  486000   0.61454316  -0.23885671  -0.23885671   0.68293922   0.47469817  -0.23885671   0.92179593       128000 
  487000   0.61485101  -0.23946877  -0.23946877   0.68278893   0.48257121  -0.23946877    0.9222577       128000 
  488000   0.61514788  -0.23814927  -0.23814927   0.68455372   0.47773518  -0.23814927   0.92270299       128000 
  489000   0.61834399  -0.24087196  -0.24087196   0.68662509    0.4724888  -0.24087196   0.92749705       128000 
  490000     0.619043  -0.23783971  -0.23783971   0.69070585   0.47914947  -0.23783971   0.92854556       128000 
  491000      0.61984  -0.23844664  -0.23844664   0.69129439   0.48359022  -0.23844664   0.92974103       128000 
  492000    0.6213505  -0.23775788  -0.23775788   0.69424885   0.48212925  -0.23775788   0.93200673       128000 
  493000   0.61852166  -0.24137298  -0.24137298   0.68639058   0.47246876  -0.24137298   0.92776356       128000 
  494000   0.61781194  -0.23799771  -0.23799771   0.68870129   0.47950478  -0.23799771     0.926699       128000 
  495000   0.61866376  -0.23782132  -0.23782132   0.69015538   0.48018748  -0.23782132    0.9279767       128000 
  496000   0.62200456  -0.23664507  -0.23664507   0.69634273   0.48501962  -0.23664507    0.9329878       128000 
  497000   0.62043088  -0.23802625  -0.23802625   0.69260108   0.48332724  -0.23802625   0.93062732       128000 
  498000   0.61564448  -0.23964578  -0.23964578    0.6838021   0.47502779  -0.23964578   0.92344788       128000 
  499000   0.61508434  -0.23866823  -0.23866823   0.68393945   0.47761611  -0.23866823   0.92260768       128000 
  500000   0.61812498  -0.23779894  -0.23779894   0.68936961   0.47819352  -0.23779894   0.92716855       128000 
  501000   0.61853433  -0.24093191  -0.24093191   0.68685066   0.46748725  -0.24093191   0.92778257       128000 
  502000   0.61489633   -0.2395666   -0.2395666   0.68275908   0.47541113   -0.2395666   0.92232568       128000 
  503000   0.62039641  -0.23645042  -0.23645042    0.6941252   0.48597945  -0.23645042   0.93057562       128000 
  504000   0.62188352  -0.23861215  -0.23861215   0.69419409    0.4834832  -0.23861215   0.93280624       128000 
  505000   0.62231418  -0.23552996  -0.23552996   0.69792226   0.48461847  -0.23552996   0.93345221       128000 
  506000   0.62516134  -0.23593138  -0.23593138   0.70179149   0.49396686  -0.23593138   0.93772287       128000 
  507000   0.62279734  -0.23808677  -0.23808677   0.69609018   0.48282786  -0.23808677   0.93417695       128000 
  508000    0.6228196    -0.237708    -0.237708   0.69650233   0.48279474    -0.237708   0.93421033       128000 
  509000   0.62405798  -0.23950862  -0.23950862   0.69655924   0.48015805  -0.23950862   0.93606786       128000 
  510000   0.62314311  -0.23780397  -0.23780397   0.69689162   0.48370068  -0.23780397    0.9346956       128000 
  511000   0.62349307   -0.2361839   -0.2361839   0.69903662   0.48786064   -0.2361839   0.93522052       128000 
  512000   0.62266309  -0.23655669  -0.23655669   0.69741888   0.48591879  -0.23655669   0.93397557       128000 
  513000   0.62120189  -0.23760298  -0.23760298   0.69418084   0.48601725  -0.23760298   0.93178382       128000 
  514000   0.62470915   -0.2363973   -0.2363973   0.70064731   0.48567001   -0.2363973   0.93704461       128000 
  515000   0.62168092  -0.23618868  -0.23618868   0.69631367   0.49243624  -0.23618868   0.93250234       128000 
  516000   0.62209714  -0.23602185  -0.23602185   0.69710482   0.48895841  -0.23602185   0.93312666       128000 
  517000   0.62539196  -0.23655388  -0.23655388   0.70151492   0.48974258  -0.23655388    0.9380688       128000 
  518000   0.62578674  -0.23490582  -0.23490582   0.70375512   0.49417078  -0.23490582   0.93866095       128000 
  519000   0.62705731  -0.23808664  -0.23808664   0.70248012   0.48025654  -0.23808664   0.94056676       128000 
  520000   0.62845998  -0.23830346  -0.23830346   0.70436727   0.48421824  -0.23830346   0.94267073       128000 
  521000   0.62970636  -0.23806534  -0.23806534   0.70647492     0.483247  -0.23806534   0.94454026       128000 
  522000   0.63101562  -0.23719465  -0.23719465   0.70930947   0.48850268  -0.23719465   0.94650412       128000 
  523000    0.6265265  -0.23711749  -0.23711749   0.70265307   0.48612824  -0.23711749   0.93977057       128000 
  524000   0.62732146  -0.23654617  -0.23654617   0.70441682   0.48642402  -0.23654617   0.94096299       128000 
  525000   0.62847868  -0.23494806  -0.23494806   0.70775072   0.49323463  -0.23494806   0.94269878       128000 
  526000    0.6306305  -0.23816246  -0.23816246   0.70776398   0.48483909  -0.23816246   0.94592644       128000 
  527000   0.62731314  -0.23704576  -0.23704576   0.70390474   0.48803642  -0.23704576    0.9409505       128000 
  528000   0.63178473  -0.23773949  -0.23773949   0.70991827   0.48377601  -0.23773949   0.94765776       128000 
  529000   0.62940723  -0.23456955  -0.23456955   0.70952203   0.49393499  -0.23456955   0.94409158       128000 
  530000   0.62772452  -0.23551648  -0.23551648   0.70605108   0.49104552  -0.23551648   0.94156756       128000 
  531000    0.6247761  -0.23841779  -0.23841779   0.69872724   0.48477741  -0.23841779   0.93714503       128000 
  532000   0.62924524  -0.23719246  -0.23719246   0.70665614   0.48402664  -0.23719246    0.9438486       128000 
  533000   0.63080088  -0.23760404  -0.23760404   0.70857797   0.48785848  -0.23760404   0.94618202       128000 
  534000   0.63013826  -0.23747121  -0.23747121   0.70771689   0.48652437  -0.23747121   0.94518809       128000 
  535000   0.62902165  -0.23464718  -0.23464718   0.70886605   0.49676016  -0.23464718   0.94351323       128000 
  536000   0.63170288  -0.23552081  -0.23552081   0.71201417    0.4877868  -0.23552081   0.94753498       128000 
  537000   0.62990616  -0.23628189  -0.23628189   0.70855807   0.49160646  -0.23628189   0.94483996       128000 
  538000   0.62570405  -0.23549038  -0.23549038   0.70304653   0.49264189  -0.23549038   0.93853692       128000 
  539000   0.62751313  -0.23428535  -0.23428535   0.70696513   0.48989371  -0.23428535   0.94125048       128000 
  540000   0.63107767  -0.23721129  -0.23721129   0.70938589   0.48843773  -0.23721129   0.94659719       128000 
  541000   0.63206827  -0.23525947  -0.23525947   0.71282358   0.48989956  -0.23525947   0.94808305       128000 
  542000   0.63161056  -0.23709097  -0.23709097   0.71030553   0.48536824  -0.23709097    0.9473965       128000 
  543000   0.63238668  -0.23589214  -0.23589214   0.71266852   0.49062733  -0.23589214   0.94856066       128000 
  544000   0.63029064  -0.23543874  -0.23543874   0.70997793   0.49269353  -0.23543874   0.94541667       128000 
  545000    0.6290607   -0.2324297   -0.2324297    0.7111421   0.49862344   -0.2324297   0.94357179       128000 
  546000   0.63282974  -0.23592208  -0.23592208   0.71330316   0.49147124  -0.23592208   0.94922524       128000 
  547000   0.63524093   -0.2346444   -0.2346444   0.71819756   0.49382089   -0.2346444   0.95284195       128000 
  548000   0.63549892  -0.23598718  -0.23598718   0.71724175   0.49214955  -0.23598718   0.95322893       128000 
  549000   0.63766747  -0.23339218  -0.23339218    0.7230895   0.49631997  -0.23339218   0.95648168       128000 
  550000   0.63656487  -0.23266411  -0.23266411   0.72216371   0.50097075  -0.23266411   0.95482782       128000 
  551000   0.63568914  -0.23481828  -0.23481828   0.71869597   0.50045627  -0.23481828   0.95351425       128000 
  552000   0.63467261  -0.23582314  -0.23582314   0.71616635   0.49292062  -0.23582314   0.95198949       128000 
  553000   0.63749669  -0.23552138  -0.23552138   0.72070415   0.49628359  -0.23552138   0.95622552       128000 
  554000   0.63538512  -0.23565258  -0.23565258   0.71740565   0.49436143  -0.23565258   0.95305822       128000 
  555000   0.63209206  -0.23609109  -0.23609109   0.71202765   0.48765643  -0.23609109   0.94811874       128000 
  556000   0.63154723  -0.23394738  -0.23394738   0.71335414   0.49633909  -0.23394738   0.94730152       128000 
  557000   0.63487646  -0.23604441  -0.23604441   0.71625084   0.49009641  -0.23604441   0.95229525       128000 
  558000   0.63339187   -0.2331793   -0.2331793   0.71688911   0.49596675   -0.2331793   0.95006841       128000 
  559000    0.6387681  -0.23393092  -0.23393092   0.72420167    0.4957411  -0.23393092    0.9581326       128000 
  560000   0.63728466  -0.23397341  -0.23397341   0.72193407   0.50183543  -0.23397341   0.95590747       128000 
  561000   0.63573538  -0.23293529  -0.23293529   0.72064831   0.50228399  -0.23293529    0.9535836       128000 
  562000   0.63716419  -0.23647439  -0.23647439   0.71925239   0.49716678  -0.23647439   0.95572678       128000 
  563000   0.63252055  -0.23241448  -0.23241448   0.71634698   0.50389997  -0.23241448   0.94876146       128000 
  564000   0.63634631  -0.23530949  -0.23530949   0.71919049   0.49478173  -0.23530949   0.95449998       128000 
  565000   0.63924356  -0.23536512  -0.23536512   0.72348066   0.49581263  -0.23536512   0.95884577       128000 
  566000   0.64190532  -0.23265324  -0.23265324   0.73018509   0.50117816  -0.23265324   0.96283833       128000 
  567000   0.63815309  -0.23370852  -0.23370852   0.72350158   0.49864863  -0.23370852    0.9572101       128000 
  568000   0.64091682  -0.23351932  -0.23351932   0.72783629    0.4990326  -0.23351932   0.96135561       128000 
  569000   0.64106737  -0.23248703  -0.23248703    0.7290944   0.49998278  -0.23248703   0.96158143       128000 
  570000   0.63898168  -0.23407645  -0.23407645   0.72437651   0.49568396  -0.23407645   0.95845296       128000 
  571000   0.64208572   -0.2344344   -0.2344344   0.72867453   0.49880001   -0.2344344   0.96310893       128000 
  572000   0.64254118  -0.23322952  -0.23322952   0.73056258   0.49873978  -0.23322952    0.9637921       128000 
  573000    0.6446489  -0.23072893  -0.23072893   0.73622468   0.50457217  -0.23072893   0.96695361       128000 
  574000   0.64333406  -0.23280578  -0.23280578   0.73217561   0.50219091  -0.23280578   0.96498139       128000 
  575000   0.64563192  -0.23166823  -0.23166823   0.73675988   0.50449385  -0.23166823   0.96842811       128000 
  576000   0.64502961   -0.2319594   -0.2319594   0.73556527    0.5043583   -0.2319594   0.96752467       128000 
  577000   0.64254886  -0.23275338  -0.23275338   0.73105023   0.49980332  -0.23275338   0.96380362       128000 
  578000   0.64161444  -0.23503021  -0.23503021   0.72737181   0.49330394  -0.23503021   0.96240202       128000 
  579000   0.64571185  -0.23225911  -0.23225911    0.7362889   0.50535317  -0.23225911   0.96854801       128000 
  580000   0.64348206  -0.23290706  -0.23290706   0.73229634   0.49931711  -0.23290706    0.9652034       128000 
  581000   0.64386106  -0.23552928  -0.23552928   0.73024261   0.49548526  -0.23552928   0.96577188       128000 
  582000   0.64421845  -0.23383007  -0.23383007   0.73247789   0.49911297  -0.23383007   0.96630795       128000 
  583000   0.64529986  -0.23040058  -0.23040058   0.73752945   0.50936132  -0.23040058   0.96793004       128000 
  584000   0.64768499   -0.2318242   -0.2318242   0.73968345   0.51033654   -0.2318242   0.97150765       128000 
  585000    0.6436863  -0.23283399  -0.23283399   0.73267575   0.50400136  -0.23283399   0.96550974       128000 
  586000   0.64418477  -0.23003973  -0.23003973   0.73621771   0.50995181  -0.23003973   0.96625743       128000 
  587000   0.64797829  -0.23329388  -0.23329388   0.73865371   0.50101976  -0.23329388    0.9719476       128000 
  588000   0.64933232  -0.22976779  -0.22976779   0.74421081   0.50745312  -0.22976779    0.9739786       128000 
  589000   0.64760454  -0.23045959  -0.23045959   0.74092739   0.50857569  -0.23045959   0.97138699       128000 
  590000   0.64690237  -0.23015671  -0.23015671   0.74017704   0.51557785  -0.23015671   0.97033375       128000 
  591000   0.64329769  -0.23263653  -0.23263653   0.73229031   0.50308282  -0.23263653   0.96492684       128000 
  592000   0.64767968  -0.23327245  -0.23327245   0.73822724    0.5060868  -0.23327245   0.97149969       128000 
  593000   0.64231541  -0.23186183  -0.23186183   0.73159162   0.50687653  -0.23186183   0.96345345       128000 
  594000   0.64700131  -0.23182483  -0.23182483   0.73865732   0.50734321  -0.23182483   0.97048215       128000 
  595000   0.64308573  -0.23244745  -0.23244745   0.73216146   0.50637804  -0.23244745   0.96460891       128000 
  596000   0.64351338  -0.23059465  -0.23059465   0.73465572   0.50724094  -0.23059465   0.96525037       128000 
  597000   0.64847198   -0.2333217   -0.2333217   0.73936641   0.50565314   -0.2333217   0.97268811       128000 
  598000   0.64779893  -0.23096812  -0.23096812   0.74071045   0.50727338  -0.23096812   0.97167857       128000 
  599000   0.64718081  -0.23086281  -0.23086281    0.7398886    0.5119315  -0.23086281   0.97075141       128000 
  600000   0.64692911  -0.23047097  -0.23047097   0.73990288   0.51166094  -0.23047097   0.97037385       128000 
  601000   0.64663902  -0.23228576  -0.23228576   0.73765297    0.5025733  -0.23228576   0.96993874       128000 
  602000   0.64687206  -0.23198787  -0.23198787   0.73830042   0.50877322  -0.23198787   0.97028829       128000 
  603000   0.64642939  -0.23095925  -0.23095925   0.73866505   0.50901501  -0.23095925    0.9696243       128000 
  604000   0.64950749  -0.22977716  -0.22977716   0.74446419   0.51795541  -0.22977716   0.97424136       128000 
  605000   0.65147087  -0.23066866  -0.23066866    0.7465177   0.50820116  -0.23066866   0.97718636       128000 
  606000   0.65193184  -0.23054958  -0.23054958   0.74732822   0.51180477  -0.23054958   0.97787781       128000 
  607000   0.65326253  -0.23033997  -0.23033997   0.74953382   0.50699185  -0.23033997    0.9798738       128000 
  608000   0.65561178  -0.22823048  -0.22823048   0.75516712   0.51547983  -0.22823048    0.9833976       128000 
  609000    0.6549191  -0.23220482  -0.23220482   0.75015377   0.50898241  -0.23220482   0.98235859       128000 
  610000   0.65579364  -0.23041971  -0.23041971   0.75325067   0.50810563  -0.23041971   0.98367038       128000 
  611000   0.65490746  -0.22818369  -0.22818369   0.75415745   0.51826503  -0.22818369   0.98234114       128000 
  612000   0.65374152  -0.22967975  -0.22967975   0.75091252   0.51779624  -0.22967975   0.98059227       128000 
  613000    0.6552944  -0.23133948  -0.23133948   0.75158206   0.50906103  -0.23133948   0.98292153       128000 
  614000   0.65257662  -0.22898632  -0.22898632   0.74985864   0.51579477  -0.22898632   0.97884496       128000 
  615000   0.65472785  -0.23027783  -0.23027783    0.7517939   0.51403312  -0.23027783   0.98207173       128000 
  616000   0.65593252  -0.22983129  -0.22983129   0.75404742   0.51580082  -0.22983129   0.98387871       128000 
  617000   0.65344691    -0.227798    -0.227798   0.75235236    0.5138324    -0.227798   0.98015036       128000 
  618000   0.65253815  -0.22830299  -0.22830299   0.75048425   0.51500005  -0.22830299   0.97878725       128000 
  619000   0.65665399  -0.23079204  -0.23079204   0.75416884    0.5162468  -0.23079204   0.98496088       128000 
  620000   0.65739642  -0.22888409  -0.22888409   0.75719041   0.51930205  -0.22888409    0.9860745       128000 
  621000    0.6546749  -0.22878623  -0.22878623   0.75320608   0.51404908  -0.22878623   0.98199231       128000 
  622000    0.6529556  -0.23043568  -0.23043568   0.74897774   0.51244197  -0.23043568   0.97941342       128000 
  623000   0.65864143  -0.23164771  -0.23164771   0.75629427   0.51014958  -0.23164771   0.98794198       128000 
  624000   0.65522115  -0.22891496  -0.22891496    0.7538967   0.51177544  -0.22891496   0.98281167       128000 
  625000   0.65776919  -0.22945258  -0.22945258   0.75718107   0.51877596  -0.22945258   0.98663365       128000 
  626000   0.65857296  -0.22916042  -0.22916042   0.75867886   0.51851877  -0.22916042   0.98783928       128000 
  627000   0.65698875  -0.22816531  -0.22816531   0.75729769   0.51650411  -0.22816531   0.98546301       128000 
  628000   0.65911285  -0.22910376  -0.22910376   0.75954534   0.52339849  -0.22910376    0.9886491       128000 
  629000   0.65362739  -0.22881263  -0.22881263   0.75160845   0.51507704  -0.22881263   0.98042108       128000 
  630000   0.66015547  -0.23063468  -0.23063468   0.75957831   0.51641426  -0.23063468   0.99021299       128000 
  631000   0.65739921  -0.23108196  -0.23108196   0.75499673   0.51327018  -0.23108196   0.98607869       128000 
  632000   0.65863327  -0.22756043  -0.22756043   0.76036932   0.52257572  -0.22756043   0.98792975       128000 
  633000   0.66068483  -0.22964436  -0.22964436   0.76136266   0.51449997  -0.22964436   0.99100703       128000 
  634000   0.66392585  -0.22674174  -0.22674174   0.76912671   0.52635584  -0.22674174   0.99586845       128000 
  635000   0.66459582  -0.22970886  -0.22970886   0.76716453   0.51869877  -0.22970886   0.99687338       128000 
  636000   0.65908016  -0.22603859  -0.22603859   0.76256148    0.5265153  -0.22603859   0.98860007       128000 
  637000   0.66021292   -0.2293459   -0.2293459   0.76095327    0.5181329   -0.2293459   0.99029917       128000 
  638000   0.66046009  -0.22988986  -0.22988986   0.76078007   0.51580639  -0.22988986   0.99066992       128000 
  639000   0.66332415  -0.22742767  -0.22742767   0.76753824   0.52055726  -0.22742767   0.99496591       128000 
  640000   0.66259201  -0.22807553  -0.22807553    0.7657922   0.52346479  -0.22807553   0.99386773       128000 
  641000   0.66417456  -0.22977702  -0.22977702   0.76646449   0.51819682  -0.22977702    0.9962415       128000 
  642000   0.66237776  -0.23016174  -0.23016174   0.76338462   0.51681976  -0.23016174   0.99354636       128000 
  643000   0.66209101  -0.22584909  -0.22584909   0.76726716   0.52476539  -0.22584909   0.99311625       128000 
  644000   0.66537256  -0.22920593  -0.22920593   0.76883255   0.52454577  -0.22920593   0.99803847       128000 
  645000   0.66205318  -0.22829693  -0.22829693   0.76476258    0.5199796  -0.22829693    0.9930595       128000 
  646000   0.66292888  -0.22787569  -0.22787569   0.76649734    0.5195572  -0.22787569   0.99437303       128000 
  647000    0.6602505  -0.23052193  -0.23052193   0.75983361   0.51788059  -0.23052193   0.99035554       128000 
  648000   0.66070979  -0.22647198  -0.22647198   0.76457247   0.52589067  -0.22647198   0.99104446       128000 
  649000   0.66352165  -0.22922774  -0.22922774   0.76603442   0.51883652  -0.22922774   0.99526216       128000 
  650000   0.66711062   -0.2269939   -0.2269939   0.77365162   0.52677142   -0.2269939    1.0006455       128000 
  651000   0.66166786   -0.2257275   -0.2257275   0.76675403   0.52710775   -0.2257275   0.99248153       128000 
  652000   0.66152673  -0.22785089  -0.22785089   0.76441896   0.52164081  -0.22785089   0.99226985       128000 
  653000   0.65990259   -0.2285317   -0.2285317   0.76130197    0.5178786   -0.2285317   0.98983368       128000 
  654000   0.66456369   -0.2282006   -0.2282006    0.7686246   0.52079978   -0.2282006    0.9968252       128000 
  655000   0.66565926  -0.22787221  -0.22787221    0.7705963   0.52811484  -0.22787221   0.99846851       128000 
  656000   0.66420201  -0.22914285  -0.22914285   0.76713983   0.52043128  -0.22914285   0.99628269       128000 
  657000   0.66813704  -0.22837524  -0.22837524   0.77380986   0.52002726  -0.22837524    1.0021851       128000 
  658000   0.66408438  -0.22890753  -0.22890753   0.76719872   0.52336213  -0.22890753   0.99610624       128000 
  659000   0.66316998  -0.22537764  -0.22537764   0.76935703   0.52723388  -0.22537764   0.99473467       128000 
  660000   0.66656518  -0.22925347  -0.22925347   0.77057389    0.5172531  -0.22925347   0.99982736       128000 
  661000   0.66585018  -0.22521974  -0.22521974   0.77353515   0.52683024  -0.22521974   0.99875489       128000 
  662000   0.67131407  -0.22776114  -0.22776114   0.77918942   0.51875156  -0.22776114    1.0069506       128000 
  663000   0.67032155  -0.22734211  -0.22734211   0.77811969    0.5274362  -0.22734211    1.0054618       128000 
  664000   0.66853573  -0.22605983  -0.22605983    0.7767233   0.52898267  -0.22605983    1.0027831       128000 
  665000    0.6669074  -0.22738117  -0.22738117    0.7729595   0.52397475  -0.22738117    1.0003407       128000 
  666000   0.66701387  -0.22617473  -0.22617473   0.77432566   0.52389019  -0.22617473    1.0005004       128000 
  667000   0.66888221  -0.22974342  -0.22974342   0.77355942   0.52405004  -0.22974342    1.0033028       128000 
  668000   0.66815217  -0.22733522  -0.22733522   0.77487259   0.52612639  -0.22733522    1.0022078       128000 
  669000   0.66843133   -0.2269551   -0.2269551   0.77567143   0.52390684   -0.2269551    1.0026265       128000 
  670000   0.66819669  -0.22752862  -0.22752862   0.77474595    0.5207457  -0.22752862    1.0022746       128000 
  671000   0.67062161  -0.22640566  -0.22640566   0.77950622   0.53156618  -0.22640566    1.0059119       128000 
  672000   0.67231244  -0.22813596  -0.22813596   0.78031211   0.52549563  -0.22813596    1.0084481       128000 
  673000   0.66814348  -0.22635103  -0.22635103   0.77584374   0.53144866  -0.22635103    1.0021948       128000 
  674000   0.66807729  -0.22785135  -0.22785135   0.77424414   0.52423164  -0.22785135    1.0020955       128000 
  675000   0.66776857  -0.22450465  -0.22450465   0.77712777   0.53298228  -0.22450465    1.0016324       128000 
  676000   0.67251266  -0.22772101  -0.22772101   0.78102738   0.52514281  -0.22772101    1.0087484       128000 
  677000   0.66954202  -0.22926091  -0.22926091   0.77503162   0.52165367  -0.22926091    1.0042925       128000 
  678000   0.67320024   -0.2271276   -0.2271276   0.78265215   0.52925749   -0.2271276    1.0097797       128000 
  679000   0.67564281  -0.22733091  -0.22733091   0.78611263   0.53088009  -0.22733091    1.0134435       128000 
  680000   0.67688076  -0.22695892  -0.22695892   0.78834149   0.52595465  -0.22695892    1.0153004       128000 
  681000   0.67285452  -0.22745966  -0.22745966   0.78180152   0.52941659  -0.22745966    1.0092612       128000 
  682000   0.67198907  -0.22772084  -0.22772084   0.78024219   0.52787585  -0.22772084     1.007963       128000 
  683000   0.66739147  -0.22656129  -0.22656129   0.77450548    0.5231653  -0.22656129    1.0010668       128000 
  684000   0.67183717  -0.22676758  -0.22676758   0.78096761   0.52538529  -0.22676758    1.0077352       128000 
  685000   0.66912888  -0.22269312  -0.22269312   0.78097971   0.53737484  -0.22269312    1.0036728       128000 
  686000   0.67305419  -0.22591976  -0.22591976   0.78364091   0.53189985  -0.22591976    1.0095607       128000 
  687000   0.67704027  -0.22634545  -0.22634545   0.78919423   0.53026848  -0.22634545    1.0155397       128000 
  688000   0.67913053  -0.22747151  -0.22747151   0.79120349   0.53006202  -0.22747151     1.018675       128000 
  689000   0.67511046  -0.22589941  -0.22589941    0.7867456   0.53259623  -0.22589941     1.012645       128000 
  690000   0.67474396  -0.22705034  -0.22705034   0.78504494   0.52898938  -0.22705034    1.0120953       128000 
  691000   0.67884313  -0.22787534  -0.22787534   0.79036857   0.53212167  -0.22787534    1.0182439       128000 
  692000   0.67511248  -0.22436979  -0.22436979   0.78827826   0.53346863  -0.22436979     1.012648       128000 
  693000   0.67561404  -0.22311119  -0.22311119   0.79028919   0.53598203  -0.22311119    1.0134004       128000 
  694000   0.67884288  -0.22881578  -0.22881578   0.78942776   0.52788901  -0.22881578    1.0182435       128000 
  695000   0.67373089  -0.22376681  -0.22376681    0.7868089    0.5376066  -0.22376681    1.0105757       128000 
  696000   0.67878018  -0.22381988  -0.22381988   0.79432961   0.53711654  -0.22381988    1.0181495       128000 
  697000   0.68099341  -0.22642265  -0.22642265   0.79504662   0.53302355  -0.22642265    1.0214693       128000 
  698000   0.68061695  -0.22322161  -0.22322161   0.79768299   0.53396904  -0.22322161    1.0209046       128000 
  699000   0.68015472  -0.22413442  -0.22413442   0.79607684   0.53839638  -0.22413442    1.0202113       128000 
  700000   0.68112604   -0.2242143   -0.2242143   0.79745391   0.53296926   -0.2242143    1.0216682       128000 
  701000   0.67992634  -0.22478283  -0.22478283   0.79508586   0.53568884  -0.22478283    1.0198687       128000 
  702000   0.68019623  -0.22280449  -0.22280449   0.79746903   0.54065779  -0.22280449    1.0202735       128000 
  703000   0.68461105  -0.22388664  -0.22388664   0.80300898   0.54231249  -0.22388664    1.0268956       128000 
  704000   0.68237546  -0.22368393  -0.22368393   0.79985837   0.54174897  -0.22368393    1.0235423       128000 
  705000   0.68347388  -0.22218492  -0.22218492   0.80300498   0.54083225  -0.22218492    1.0251899       128000 
  706000   0.68666273  -0.22601868  -0.22601868   0.80395439   0.53134741  -0.22601868    1.0299731       128000 
  707000   0.68266163  -0.22294615  -0.22294615    0.8010254   0.53983612  -0.22294615    1.0239715       128000 
  708000   0.68201308  -0.22527973  -0.22527973   0.79771901   0.53294935  -0.22527973    1.0229987       128000 
  709000   0.68112647  -0.22223119  -0.22223119   0.79943766   0.54244416  -0.22223119    1.0216688       128000 
  710000   0.68128854  -0.22341107  -0.22341107   0.79850088   0.53997571  -0.22341107    1.0219119       128000 
  711000   0.67885488  -0.22560418  -0.22560418   0.79265735    0.5391513  -0.22560418    1.0182615       128000 
  712000   0.67728985   -0.2276316   -0.2276316   0.78828244   0.52749842   -0.2276316     1.015914       128000 
  713000   0.68146632  -0.22529298  -0.22529298   0.79688564   0.53032431  -0.22529298    1.0221786       128000 
  714000   0.68223622  -0.22517832  -0.22517832   0.79815513    0.5379026  -0.22517832    1.0233334       128000 
  715000   0.68278429  -0.22331759  -0.22331759   0.80083794   0.54125728  -0.22331759    1.0241555       128000 
  716000    0.6800274  -0.22211108  -0.22211108   0.79790921   0.54917985  -0.22211108    1.0200203       128000 
  717000    0.6816427  -0.22253947  -0.22253947   0.79990372   0.54029837  -0.22253947    1.0224432       128000 
  718000   0.68158023  -0.22433386  -0.22433386   0.79801562   0.53781495  -0.22433386    1.0223495       128000 
  719000   0.68439034  -0.22494364  -0.22494364   0.80162092   0.53531444  -0.22494364    1.0265646       128000 
  720000   0.68752842   -0.2238746   -0.2238746   0.80739698    0.5411742   -0.2238746    1.0312716       128000 
  721000   0.68664267  -0.22333777  -0.22333777   0.80660521   0.54258602  -0.22333777     1.029943       128000 
  722000    0.6871829  -0.22346795  -0.22346795   0.80728536   0.54627793  -0.22346795    1.0307533       128000 
  723000   0.68836053  -0.22302708  -0.22302708   0.80949263   0.54444969  -0.22302708    1.0325197       128000 
  724000   0.68400985  -0.22044672  -0.22044672   0.80554711   0.54855903  -0.22044672    1.0259938       128000 
  725000   0.68585717  -0.22152043  -0.22152043   0.80724433   0.54502565  -0.22152043    1.0287648       128000 
  726000   0.68588276   -0.2234366   -0.2234366   0.80536653   0.54169867   -0.2234366    1.0288031       128000 
  727000   0.68831476   -0.2224717   -0.2224717   0.80997936   0.54511969   -0.2224717    1.0324511       128000 
  728000   0.68589423  -0.22228684  -0.22228684    0.8065335    0.5490937  -0.22228684    1.0288203       128000 
  729000   0.68747153  -0.21920243  -0.21920243   0.81198383    0.5489791  -0.21920243    1.0311863       128000 
  730000   0.69110281  -0.22472232  -0.22472232   0.81191074   0.54140714  -0.22472232    1.0366331       128000 
  731000   0.69210865  -0.22165191  -0.22165191   0.81648987   0.54781621  -0.22165191    1.0381418       128000 
  732000   0.69144442  -0.22268456  -0.22268456    0.8144609   0.54578027  -0.22268456    1.0371455       128000 
  733000    0.6917261  -0.22259028  -0.22259028    0.8149777   0.54477823  -0.22259028     1.037568       128000 
  734000    0.6925053  -0.22028254  -0.22028254   0.81845421   0.55341192  -0.22028254    1.0387368       128000 
  735000   0.69251918  -0.22349568  -0.22349568   0.81526189   0.54405136  -0.22349568    1.0387576       128000 
  736000   0.69292233  -0.22191901  -0.22191901   0.81744327   0.54957732  -0.22191901    1.0393623       128000 
  737000   0.69316109  -0.22276235  -0.22276235   0.81695807   0.54638638  -0.22276235    1.0397204       128000 
  738000   0.69691161  -0.22168176  -0.22168176   0.82366432   0.55334274  -0.22168176    1.0453461       128000 
  739000   0.69546276  -0.22032248  -0.22032248   0.82285037   0.55575205  -0.22032248    1.0431729       128000 
  740000   0.69501522   -0.2211489   -0.2211489   0.82135265   0.54955786   -0.2211489    1.0425016       128000 
  741000   0.69653867  -0.22442888  -0.22442888   0.82035781   0.54201038  -0.22442888    1.0447867       128000 
  742000   0.70055946  -0.21961133  -0.21961133   0.83120642   0.55435355  -0.21961133    1.0508177       128000 
  743000   0.69701877  -0.22195311  -0.22195311    0.8235537   0.54495993  -0.22195311    1.0455068       128000 
  744000   0.69386896  -0.22266339  -0.22266339    0.8181188    0.5462678  -0.22266339    1.0407822       128000 
  745000   0.69249489  -0.22291528  -0.22291528   0.81580586   0.54330465  -0.22291528    1.0387211       128000 
  746000   0.68996652  -0.22241487  -0.22241487   0.81251379   0.54879465  -0.22241487    1.0349287       128000 
  747000   0.68891987  -0.22190563  -0.22190563   0.81145309   0.54827119  -0.22190563    1.0333587       128000 
  748000   0.68998404  -0.22157799  -0.22157799   0.81337695   0.54889729  -0.22157799    1.0349549       128000 
  749000   0.69347075  -0.22151821  -0.22151821   0.81866668   0.54640186  -0.22151821    1.0401849       128000 
  750000   0.68926887  -0.22124588  -0.22124588   0.81263633   0.54881689  -0.22124588    1.0338822       128000 
  751000   0.69088626  -0.22372039  -0.22372039   0.81258784   0.54774589  -0.22372039    1.0363082       128000 
  752000   0.69158927  -0.22421558  -0.22421558   0.81314715   0.54330401  -0.22421558    1.0373627       128000 
  753000   0.69038001  -0.22610269  -0.22610269   0.80944619   0.53969474  -0.22610269    1.0355489       128000 
  754000   0.69243043  -0.22149789  -0.22149789   0.81712656   0.55188102  -0.22149789    1.0386245       128000 
  755000   0.69889784  -0.22301711  -0.22301711   0.82530826   0.55102983  -0.22301711    1.0483254       128000 
  756000   0.70178053  -0.22192323  -0.22192323   0.83072608   0.55042853  -0.22192323    1.0526493       128000 
  757000   0.69803188  -0.21830051  -0.21830051   0.82872594   0.55455012  -0.21830051    1.0470264       128000 
  758000   0.70096972  -0.22098492  -0.22098492   0.83044821   0.55102185  -0.22098492    1.0514331       128000 
  759000   0.70281686  -0.22268475  -0.22268475   0.83151903   0.54868189  -0.22268475    1.0542038       128000 
  760000   0.69920498  -0.21892358  -0.21892358   0.82986248   0.55674087  -0.21892358    1.0487861       128000 
  761000   0.69660812  -0.22004301  -0.22004301   0.82484784   0.54944086  -0.22004301    1.0448909       128000 
  762000   0.69675395  -0.21888163  -0.21888163   0.82622796    0.5524829  -0.21888163    1.0451096       128000 
  763000   0.70153373  -0.21919752  -0.21919752   0.83308159    0.5573134  -0.21919752    1.0522791       128000 
  764000   0.70239726  -0.22049632  -0.22049632   0.83307807   0.55626603  -0.22049632    1.0535744       128000 
  765000   0.69830162   -0.2209597   -0.2209597   0.82647135   0.55096927   -0.2209597    1.0474311       128000 
  766000   0.69966142  -0.21835908  -0.21835908   0.83111163   0.56227926  -0.21835908    1.0494707       128000 
  767000    0.6996001  -0.21864767  -0.21864767   0.83073106   0.55820524  -0.21864767    1.0493787       128000 
  768000   0.69897071  -0.21913875  -0.21913875   0.82929592   0.55540677  -0.21913875    1.0484347       128000 
  769000   0.69924422  -0.21788076  -0.21788076   0.83096416   0.55482147  -0.21788076    1.0488449       128000 
  770000   0.70007714  -0.22012126  -0.22012126   0.82997302   0.55521731  -0.22012126    1.0500943       128000 
  771000   0.69406883  -0.21932368  -0.21932368   0.82175832   0.55252818  -0.21932368     1.041082       128000 
  772000   0.70141017  -0.21930597  -0.21930597   0.83278782   0.55662729  -0.21930597    1.0520938       128000 
  773000   0.70362099  -0.21961161  -0.21961161   0.83579834   0.55721493  -0.21961161    1.0554099       128000 
  774000    0.7046367  -0.21803004  -0.21803004   0.83890343   0.56424677  -0.21803004    1.0569335       128000 
  775000   0.69992179  -0.22064642  -0.22064642   0.82921484    0.5545762  -0.22064642    1.0498613       128000 
  776000   0.69681787  -0.21976403  -0.21976403   0.82544143   0.55454615  -0.21976403    1.0452055       128000 
  777000   0.69746856  -0.21984271  -0.21984271   0.82633878   0.55181591  -0.21984271    1.0461815       128000 
  778000   0.69986932  -0.21770983  -0.21770983   0.83207273   0.55675694  -0.21770983    1.0497826       128000 
  779000   0.70523116  -0.21963787  -0.21963787   0.83818728   0.55452819  -0.21963787    1.0578251       128000 
  780000   0.70185669  -0.21633271  -0.21633271   0.83643084   0.56850291  -0.21633271    1.0527636       128000 
  781000   0.70457576  -0.21961371  -0.21961371   0.83722835   0.55740319  -0.21961371    1.0568421       128000 
  782000   0.70226908  -0.21672548  -0.21672548   0.83665664   0.56715235  -0.21672548    1.0533821       128000 
  783000    0.7047555  -0.22020093  -0.22020093   0.83691075   0.55868336  -0.22020093    1.0571117       128000 
  784000   0.70283199   -0.2202045   -0.2202045   0.83402197   0.55667187   -0.2202045    1.0542265       128000 
  785000   0.70795036  -0.21936235  -0.21936235   0.84254152   0.55878462  -0.21936235    1.0619039       128000 
  786000   0.70660002  -0.21815994  -0.21815994   0.84171847   0.56306066  -0.21815994    1.0598784       128000 
  787000   0.70667525  -0.21978557  -0.21978557   0.84020567   0.55869582  -0.21978557    1.0599912       128000 
  788000   0.70790536   -0.2196547   -0.2196547   0.84218168   0.55811724   -0.2196547    1.0618364       128000 
  789000   0.70615163  -0.21954486  -0.21954486   0.83966096   0.55908357  -0.21954486    1.0592058       128000 
  790000   0.70622457   -0.2181712   -0.2181712   0.84114404   0.55275621   -0.2181712    1.0593152       128000 
  791000   0.70870157  -0.21623329  -0.21623329   0.84679737    0.5642677  -0.21623329    1.0630307       128000 
  792000   0.71019957  -0.21812969  -0.21812969   0.84714793   0.55992579  -0.21812969    1.0652776       128000 
  793000   0.70804946  -0.22103741  -0.22103741   0.84101511   0.55349364  -0.22103741    1.0620525       128000 
  794000   0.70447697  -0.21974054  -0.21974054   0.83695335   0.55595738  -0.21974054    1.0566939       128000 
  795000   0.70313899  -0.21904607  -0.21904607   0.83564089   0.56101537  -0.21904607     1.054687       128000 
  796000   0.70473509  -0.21779717  -0.21779717   0.83928389   0.56251182  -0.21779717    1.0570811       128000 
  797000   0.70684588  -0.21903886  -0.21903886   0.84120833   0.56351743  -0.21903886    1.0602472       128000 
  798000   0.70359366  -0.21842255  -0.21842255   0.83694641    0.5572485  -0.21842255     1.055369       128000 
  799000   0.70810688   -0.2192934   -0.2192934   0.84284524   0.55845281   -0.2192934    1.0621386       128000 
  800000   0.70925435  -0.21924346  -0.21924346   0.84461636   0.56119628  -0.21924346    1.0638598       128000 
  801000   0.70934024   -0.2191692   -0.2191692   0.84481945   0.55914485   -0.2191692    1.0639887       128000 
  802000   0.70994962  -0.21866642  -0.21866642   0.84623628   0.56659395  -0.21866642    1.0649027       128000 
  803000   0.71406705  -0.21668361  -0.21668361   0.85439511   0.57108763  -0.21668361    1.0710787       128000 
  804000   0.71118986  -0.21712912  -0.21712912    0.8496339   0.56624426  -0.21712912     1.066763       128000 
  805000     0.709679  -0.21464849  -0.21464849   0.84984829   0.57161213  -0.21464849    1.0644968       128000 
  806000   0.71377394  -0.21798457  -0.21798457   0.85265449    0.5642099  -0.21798457    1.0706391       128000 
  807000   0.71439115  -0.21752475  -0.21752475    0.8540401   0.56606306  -0.21752475    1.0715649       128000 
  808000   0.71421627  -0.21655445  -0.21655445   0.85474809   0.56539418  -0.21655445    1.0713025       128000 
  809000   0.71598072  -0.21555217  -0.21555217   0.85839699    0.5732976  -0.21555217    1.0739492       128000 
  810000   0.71484055  -0.21484474  -0.21484474   0.85739421   0.57283991  -0.21484474    1.0722389       128000 
  811000   0.71311511  -0.21539007  -0.21539007   0.85426076   0.56855151  -0.21539007    1.0696508       128000 
  812000   0.71350522  -0.21650715  -0.21650715   0.85372884   0.56590487  -0.21650715     1.070236       128000 
  813000   0.71425164  -0.21554258  -0.21554258   0.85581301   0.57531109  -0.21554258    1.0713556       128000 
  814000   0.71285872   -0.2182043   -0.2182043   0.85106195   0.56625458   -0.2182043    1.0692663       128000 
  815000   0.71414466  -0.21307542  -0.21307542   0.85811971   0.58026657  -0.21307542    1.0711951       128000 
  816000    0.7175091  -0.21445144  -0.21445144   0.86179024    0.5769511  -0.21445144    1.0762417       128000 
  817000   0.71312487  -0.21848635  -0.21848635   0.85117913   0.56545896  -0.21848635    1.0696655       128000 
  818000   0.71313502  -0.21950974  -0.21950974   0.85017095   0.56231134  -0.21950974    1.0696807       128000 
  819000   0.71579328   -0.2163472   -0.2163472   0.85732082   0.57279735   -0.2163472     1.073668       128000 
  820000   0.71540419  -0.21659843  -0.21659843   0.85648595   0.57024423  -0.21659843    1.0730844       128000 
  821000   0.71180524  -0.21566425  -0.21566425   0.85202181   0.57233309  -0.21566425    1.0676861       128000 
  822000   0.71641989  -0.21796511  -0.21796511   0.85664279   0.56662721  -0.21796511    1.0746079       128000 
  823000   0.71369687  -0.21397214  -0.21397214   0.85655132   0.57610572  -0.21397214    1.0705235       128000 
  824000   0.71526488  -0.21829034  -0.21829034   0.85458509   0.56369405  -0.21829034    1.0728754       128000 
  825000   0.70954444   -0.2168847   -0.2168847   0.84741024   0.56925193   -0.2168847    1.0642949       128000 
  826000   0.71481367  -0.21602178  -0.21602178   0.85617684   0.56739535  -0.21602178    1.0721986       128000 
  827000   0.71706213    -0.216785    -0.216785   0.85878625   0.56782828    -0.216785    1.0755713       128000 
  828000   0.71619511  -0.21624999  -0.21624999   0.85802075   0.57390467  -0.21624999    1.0742707       128000 
  829000   0.71335211   -0.2163991   -0.2163991   0.85360723   0.57144764   -0.2163991    1.0700063       128000 
  830000   0.71650415  -0.21836651  -0.21836651   0.85636779   0.56634272  -0.21836651    1.0747343       128000 
  831000    0.7222421    -0.215324    -0.215324   0.86801704    0.5735566    -0.215324     1.083341       128000 
  832000   0.71797772  -0.21485869  -0.21485869   0.86208592   0.57428811  -0.21485869    1.0769446       128000 
  833000   0.71895986  -0.21464172  -0.21464172   0.86377607   0.57346475  -0.21464172    1.0784178       128000 
  834000   0.72095723  -0.21617679  -0.21617679   0.86523698   0.56895467  -0.21617679    1.0814138       128000 
  835000   0.72203511  -0.21312363  -0.21312363   0.86990692   0.58081197  -0.21312363    1.0830306       128000 
  836000    0.7201673  -0.21550243  -0.21550243   0.86472647   0.57085516  -0.21550243    1.0802289       128000 
  837000   0.72052186  -0.21623177  -0.21623177   0.86452896   0.56681405  -0.21623177    1.0807607       128000 
  838000   0.72216095  -0.21463821  -0.21463821   0.86858111   0.57882565  -0.21463821    1.0832193       128000 
  839000    0.7212337  -0.21283787  -0.21283787   0.86899061   0.57940273  -0.21283787    1.0818285       128000 
  840000   0.72062362  -0.21563769  -0.21563769   0.86527567   0.57058221  -0.21563769    1.0809134       128000 
  841000   0.72201684  -0.21359173  -0.21359173   0.86941143   0.57939836  -0.21359173    1.0830032       128000 
  842000   0.72578568  -0.21495827  -0.21495827   0.87369803   0.57734948  -0.21495827    1.0886563       128000 
  843000   0.72231916  -0.21189828  -0.21189828   0.87155835   0.58113002  -0.21189828    1.0834566       128000 
  844000   0.72133674  -0.21578447  -0.21578447   0.86619855   0.57474536  -0.21578447     1.081983       128000 
  845000   0.72019764  -0.21551591  -0.21551591    0.8647585   0.57258263  -0.21551591    1.0802744       128000 
  846000    0.7238061  -0.21255432  -0.21255432   0.87313268    0.5864861  -0.21255432     1.085687       128000 
  847000   0.72486564  -0.21444463  -0.21444463   0.87283164   0.57753524  -0.21444463    1.0872763       128000 
  848000   0.72620659  -0.21322318  -0.21322318   0.87606448   0.58269978  -0.21322318    1.0892877       128000 
  849000   0.72391627  -0.21601243  -0.21601243   0.86983981   0.57687696  -0.21601243    1.0858522       128000 
  850000    0.7244682  -0.21299776  -0.21299776   0.87368236   0.58177961  -0.21299776    1.0866801       128000 
  851000   0.72405311  -0.21055546  -0.21055546   0.87550204   0.58860361  -0.21055546    1.0860575       128000 
  852000   0.72576966  -0.21732629  -0.21732629   0.87130598   0.57260261  -0.21732629    1.0886323       128000 
  853000   0.72566432  -0.21481444  -0.21481444   0.87365983   0.58014961  -0.21481444    1.0884743       128000 
  854000   0.72772116  -0.21497275  -0.21497275   0.87658671   0.57213919  -0.21497275    1.0915595       128000 
  855000   0.72750539  -0.21618632  -0.21618632    0.8750495   0.57337383  -0.21618632    1.0912358       128000 
  856000   0.72917011  -0.21498126  -0.21498126   0.87875158   0.57797365  -0.21498126    1.0937328       128000 
  857000   0.72927937  -0.21387311  -0.21387311   0.88002362   0.58478381  -0.21387311    1.0938967       128000 
  858000    0.7243865  -0.21397331  -0.21397331   0.87258426   0.57752067  -0.21397331    1.0865576       128000 
  859000   0.72478584  -0.21454984  -0.21454984   0.87260673   0.57455648  -0.21454984    1.0871566       128000 
  860000   0.72326609  -0.21475899  -0.21475899     0.870118   0.57677537  -0.21475899     1.084877       128000 
  861000   0.72583353  -0.21364058  -0.21364058   0.87508749   0.57902548  -0.21364058    1.0887281       128000 
  862000   0.72966675  -0.21269989  -0.21269989    0.8817779   0.59077607  -0.21269989    1.0944778       128000 
  863000    0.7293165  -0.21359412  -0.21359412   0.88035831   0.57830163  -0.21359412    1.0939524       128000 
  864000   0.72819403  -0.21089927  -0.21089927   0.88136948   0.58780661  -0.21089927    1.0922688       128000 
  865000   0.72703267  -0.21340251  -0.21340251   0.87712423   0.58295268  -0.21340251    1.0905267       128000 
  866000   0.72971779  -0.21396642  -0.21396642   0.88058793   0.58083025  -0.21396642    1.0945544       128000 
  867000   0.72668804  -0.21252127  -0.21252127   0.87748855   0.58565875  -0.21252127    1.0900098       128000 
  868000   0.72878033  -0.21584861  -0.21584861   0.87729958   0.57482502  -0.21584861    1.0931482       128000 
  869000   0.73280111  -0.21427843  -0.21427843    0.8849008   0.58075477  -0.21427843    1.0991792       128000 
  870000   0.73223673  -0.21292399  -0.21292399   0.88540869   0.58488154  -0.21292399    1.0983327       128000 
  871000   0.73409164  -0.21147833  -0.21147833   0.88963666    0.5884943  -0.21147833     1.101115       128000 
  872000   0.73244848  -0.21376001  -0.21376001   0.88489029       0.5822  -0.21376001    1.0986503       128000 
  873000   0.72839857  -0.21323946  -0.21323946    0.8793361   0.57798454  -0.21323946    1.0925756       128000 
  874000   0.73244389  -0.21452757  -0.21452757   0.88411585   0.58581432  -0.21452757    1.0986434       128000 
  875000   0.72874204  -0.21159911  -0.21159911   0.88149165    0.5883344  -0.21159911    1.0930908       128000 
  876000   0.73110631  -0.21307258  -0.21307258    0.8835645   0.58312399  -0.21307258    1.0966371       128000 
  877000   0.72729427  -0.21334352  -0.21334352   0.87757562   0.58082272  -0.21334352    1.0909191       128000 
  878000   0.73343716  -0.21366764  -0.21366764   0.88646565   0.58584062  -0.21366764    1.1001333       128000 
  879000   0.73244491    -0.210442    -0.210442   0.88820294    0.5925749    -0.210442    1.0986449       128000 
  880000   0.72982303  -0.21224044  -0.21224044   0.88247176   0.58435982  -0.21224044    1.0947122       128000 
  881000    0.7305863  -0.21073179  -0.21073179    0.8851253   0.58313773  -0.21073179    1.0958571       128000 
  882000   0.73611095   -0.2126772   -0.2126772   0.89146669   0.58870841   -0.2126772    1.1041439       128000 
  883000   0.73115846  -0.21228489  -0.21228489   0.88443042   0.58561884  -0.21228489    1.0967153       128000 
  884000   0.73348388  -0.21533467  -0.21533467   0.88486869    0.5774771  -0.21533467    1.1002034       128000 
  885000   0.73387977  -0.21247012  -0.21247012   0.88832707   0.58308182  -0.21247012    1.1007972       128000 
  886000   0.73580192  -0.20991658  -0.20991658   0.89376378   0.59180353  -0.20991658    1.1036804       128000 
  887000   0.73729698   -0.2117851   -0.2117851   0.89413781   0.58899013   -0.2117851    1.1059229       128000 
  888000   0.74274244  -0.21113238  -0.21113238   0.90295854   0.59098583  -0.21113238    1.1140909       128000 
  889000    0.7435299  -0.21305598  -0.21305598   0.90221611   0.58368205  -0.21305598    1.1152721       128000 
  890000   0.74374016  -0.21035365  -0.21035365   0.90523383    0.5924775  -0.21035365    1.1155875       128000 
  891000   0.74263289  -0.21384026  -0.21384026   0.90008634   0.58536691  -0.21384026    1.1139266       128000 
  892000   0.73551901  -0.21333476  -0.21333476   0.88992124    0.5846444  -0.21333476     1.103256       128000 
  893000   0.73058225  -0.21304618  -0.21304618   0.88280484   0.58455902  -0.21304618     1.095851       128000 
  894000   0.73619827  -0.21243943  -0.21243943   0.89183544   0.58584088  -0.21243943    1.1042749       128000 
  895000   0.74189514  -0.21066213  -0.21066213   0.90215788   0.59163304  -0.21066213      1.11282       128000 
  896000   0.73913698   -0.2129966   -0.2129966   0.89568625   0.58600037   -0.2129966    1.1086828       128000 
  897000   0.74261305   -0.2133067   -0.2133067   0.90059015   0.58644767   -0.2133067    1.1138968       128000 
  898000    0.7367283  -0.21097211  -0.21097211   0.89409778   0.59373065  -0.21097211    1.1050699       128000 
  899000   0.73522007  -0.21227675  -0.21227675   0.89053085   0.59042957  -0.21227675    1.1028076       128000 
  900000   0.73848184  -0.21124898  -0.21124898   0.89645117   0.59228098  -0.21124898    1.1077002       128000 
  901000    0.7380948  -0.20969064  -0.20969064   0.89742897   0.59344331  -0.20969064    1.1071196       128000 
  902000   0.74213073  -0.21169762  -0.21169762   0.90147575   0.58981964  -0.21169762    1.1131734       128000 
  903000   0.74024724  -0.21032431  -0.21032431   0.90002389   0.59269023  -0.21032431    1.1103482       128000 
  904000   0.73600838  -0.21070133  -0.21070133   0.89328871   0.59284956  -0.21070133      1.10399       128000 
  905000   0.73695071  -0.21105715  -0.21105715   0.89434635   0.59377256  -0.21105715    1.1054035       128000 
  906000   0.74270645  -0.21078908  -0.21078908   0.90324786   0.59524708  -0.21078908    1.1140369       128000 
  907000   0.74760526  -0.20981057  -0.20981057   0.91157443   0.59953532  -0.20981057     1.121385       128000 
  908000   0.74760547  -0.20809285  -0.20809285   0.91329247   0.60110028  -0.20809285    1.1213853       128000 
  909000   0.74779978  -0.21158482  -0.21158482   0.91009196   0.59186065  -0.21158482    1.1216768       128000 
  910000   0.74222234  -0.20744661  -0.20744661   0.90586418   0.60256529  -0.20744661    1.1133108       128000 
  911000   0.73997865  -0.21166052  -0.21166052    0.8982848   0.59411486  -0.21166052    1.1099453       128000 
  912000   0.74364747  -0.21160867  -0.21160867   0.90383977   0.59425025  -0.21160867    1.1154484       128000 
  913000   0.74109691  -0.20848281  -0.20848281   0.90313986   0.59834307  -0.20848281    1.1116227       128000 
  914000   0.74305509  -0.20974799  -0.20974799   0.90481189    0.5930971  -0.20974799    1.1145599       128000 
  915000   0.74713708  -0.20929857  -0.20929857   0.91138417    0.5998197  -0.20929857    1.1206827       128000 
  916000   0.75124858  -0.21342363  -0.21342363   0.91342624   0.58762256  -0.21342363    1.1268499       128000 
  917000   0.74857675  -0.20930789  -0.20930789   0.91353431   0.59986548  -0.20930789    1.1228422       128000 
  918000   0.74886209    -0.208203    -0.208203   0.91506721    0.6037789    -0.208203    1.1232702       128000 
  919000   0.74700128   -0.2098141   -0.2098141   0.91066496   0.59589214   -0.2098141    1.1204791       128000 
  920000   0.74755916  -0.21162953  -0.21162953   0.90968633   0.59518597  -0.21162953    1.1213159       128000 
  921000   0.74725307  -0.21028845  -0.21028845   0.91056827   0.59766405  -0.21028845    1.1208567       128000 
  922000   0.74436016  -0.21212961  -0.21212961   0.90438784   0.59257235  -0.21212961    1.1165174       128000 
  923000   0.74705361   -0.2104166   -0.2104166   0.91014095   0.59697351   -0.2104166    1.1205575       128000 
  924000   0.74676575  -0.21127542  -0.21127542   0.90885035   0.59244992  -0.21127542    1.1201258       128000 
  925000   0.75310817  -0.21188674  -0.21188674   0.91775245   0.59488767  -0.21188674    1.1296392       128000 
  926000   0.75473668  -0.20761829  -0.20761829   0.92446363   0.60705642  -0.20761829    1.1320819       128000 
  927000   0.74905214  -0.20728896  -0.20728896   0.91626632   0.60396035  -0.20728896    1.1235553       128000 
  928000    0.7506672  -0.21153317  -0.21153317   0.91444464   0.59336472  -0.21153317    1.1259778       128000 
  929000   0.74602556  -0.20679719  -0.20679719   0.91221832   0.60129536  -0.20679719    1.1190155       128000 
  930000   0.74690867  -0.20775908  -0.20775908   0.91258107   0.60457951  -0.20775908    1.1203401       128000 
  931000   0.74585399  -0.21013012  -0.21013012   0.90862803   0.59447353  -0.21013012    1.1187581       128000 
  932000   0.74753985  -0.20944944  -0.20944944   0.91183744   0.59640112  -0.20944944    1.1212869       128000 
  933000   0.74676707  -0.21221164  -0.21221164   0.90791612   0.59303243  -0.21221164    1.1201278       128000 
  934000   0.74865322  -0.20947955  -0.20947955   0.91347737   0.60174559  -0.20947955    1.1229569       128000 
  935000   0.74804088  -0.21015376  -0.21015376   0.91188466   0.59471385  -0.21015376    1.1220384       128000 
  936000   0.75485133  -0.20935233  -0.20935233   0.92290155   0.60359119  -0.20935233    1.1322539       128000 
  937000   0.75122528   -0.2085962   -0.2085962   0.91821872    0.6028887   -0.2085962    1.1268149       128000 
  938000   0.74993233  -0.20836119  -0.20836119   0.91651435   0.59908827  -0.20836119    1.1248755       128000 
  939000   0.75082147  -0.20851371  -0.20851371   0.91769551   0.60513183  -0.20851371    1.1262092       128000 
  940000   0.74852654  -0.21005436  -0.21005436   0.91271254   0.60035943  -0.21005436    1.1227669       128000 
  941000   0.74846046  -0.20911632  -0.20911632   0.91355146   0.59836528  -0.20911632    1.1226678       128000 
  942000   0.75206398  -0.20915942  -0.20915942   0.91891354   0.59981196  -0.20915942     1.128073       128000 
  943000   0.75416477   -0.2041314   -0.2041314   0.92709267   0.61589507   -0.2041314    1.1312241       128000 
  944000   0.75808678   -0.2091374   -0.2091374   0.92796956   0.60157418   -0.2091374     1.137107       128000 
  945000   0.75939425  -0.20872525  -0.20872525   0.93034287   0.60503834  -0.20872525    1.1390681       128000 
  946000   0.75420933   -0.2066352   -0.2066352    0.9246557   0.60847049   -0.2066352    1.1312909       128000 
  947000    0.7552768  -0.20838514  -0.20838514   0.92450693   0.60516868  -0.20838514    1.1328921       128000 
  948000   0.75685803  -0.20840723  -0.20840723   0.92685664   0.60265148  -0.20840723    1.1352639       128000 
  949000   0.75337523  -0.20699638  -0.20699638   0.92304341   0.60677492  -0.20699638    1.1300398       128000 
  950000   0.75162764  -0.20877085  -0.20877085    0.9186476     0.600037  -0.20877085    1.1274185       128000 
  951000   0.75232366  -0.20667242  -0.20667242   0.92179004   0.60260496  -0.20667242    1.1284625       128000 
  952000   0.75201836  -0.20599443  -0.20599443    0.9220101   0.61022754  -0.20599443    1.1280045       128000 
  953000   0.75373694   -0.2085855   -0.2085855   0.92199684   0.60170231   -0.2085855    1.1305823       128000 
  954000    0.7591188   -0.2049206   -0.2049206   0.93373436   0.61919767   -0.2049206     1.138655       128000 
  955000   0.75754394  -0.20534151  -0.20534151    0.9309512   0.60806256  -0.20534151    1.1362927       128000 
  956000   0.75661368  -0.20726242  -0.20726242   0.92763493    0.6092197  -0.20726242    1.1348974       128000 
  957000   0.75930297  -0.20877124  -0.20877124   0.93015996   0.60674859  -0.20877124    1.1389312       128000 
  958000   0.75521997  -0.20704708  -0.20704708   0.92575974   0.60708742  -0.20704708    1.1328068       128000 
  959000   0.75334138  -0.20737832  -0.20737832    0.9226107    0.6048989  -0.20737832     1.129989       128000 
  960000   0.75654479  -0.20948416  -0.20948416   0.92530986   0.60000466  -0.20948416     1.134794       128000 
  961000   0.75773991  -0.20718431  -0.20718431   0.92940237   0.60984068  -0.20718431    1.1365867       128000 
  962000    0.7542687  -0.20809287  -0.20809287   0.92328709   0.59946153  -0.20809287      1.13138       128000 
  963000   0.75207287  -0.20859738  -0.20859738   0.91948891   0.60313248  -0.20859738    1.1280863       128000 
  964000   0.75885026  -0.20821884  -0.20821884   0.93003333   0.61107164  -0.20821884    1.1382522       128000 
  965000   0.75929597  -0.21000286  -0.21000286   0.92891785    0.5987736  -0.21000286    1.1389207       128000 
  966000   0.76048256  -0.20567165  -0.20567165   0.93502891    0.6140505  -0.20567165    1.1407006       128000 
  967000   0.75738749  -0.20754855  -0.20754855   0.92850951   0.60837314  -0.20754855    1.1360581       128000 
  968000    0.7577987    -0.206706    -0.206706   0.92996885    0.6102718    -0.206706    1.1366748       128000 
  969000   0.76041823  -0.20956431  -0.20956431   0.93103976   0.60435962  -0.20956431    1.1406041       128000 
  970000   0.75536724  -0.20697188  -0.20697188   0.92605586   0.60531543  -0.20697188    1.1330277       128000 
  971000   0.75747152   -0.2052222   -0.2052222   0.93096189    0.6119012   -0.2052222    1.1361841       128000 
  972000   0.76000564  -0.20755519  -0.20755519   0.93243001   0.60882271  -0.20755519    1.1399852       128000 
  973000   0.76143217  -0.20407586  -0.20407586   0.93804909   0.61579343  -0.20407586    1.1421249       128000 
  974000   0.76457101  -0.20571825  -0.20571825   0.94111486   0.61920857  -0.20571825    1.1468331       128000 
  975000   0.76391624  -0.20648325  -0.20648325   0.93936772   0.60682012  -0.20648325     1.145851       128000 
  976000   0.76098745  -0.20894858  -0.20894858    0.9325093   0.60851205  -0.20894858    1.1414579       128000 
  977000   0.75783034  -0.20867181  -0.20867181    0.9280505   0.60474875  -0.20867181    1.1367223       128000 
  978000   0.75889599  -0.20514664  -0.20514664   0.93317411   0.61318379  -0.20514664    1.1383208       128000 
  979000   0.75823203  -0.20321624  -0.20321624    0.9341086   0.61651839  -0.20321624    1.1373248       128000 
  980000   0.76132459  -0.20933369  -0.20933369    0.9326299   0.60743393  -0.20933369    1.1419636       128000 
  981000    0.7621871  -0.20678684  -0.20678684   0.93647048   0.61161481  -0.20678684    1.1432573       128000 
  982000   0.76446069  -0.20523162  -0.20523162   0.94143602   0.61915114  -0.20523162    1.1466676       128000 
  983000   0.76535217  -0.20638395  -0.20638395   0.94162088   0.61400874  -0.20638395    1.1480048       128000 
  984000   0.76563681  -0.20774151  -0.20774151   0.94069026   0.60797652  -0.20774151    1.1484318       128000 
  985000   0.76446332  -0.20560893  -0.20560893   0.94106264    0.6157129  -0.20560893    1.1466716       128000 
  986000   0.76410575  -0.20615359  -0.20615359   0.93998165   0.61232192  -0.20615359    1.1461352       128000 
  987000   0.76360671  -0.20585886  -0.20585886   0.93952783   0.61474524  -0.20585886    1.1453867       128000 
  988000   0.76541143  -0.20318688  -0.20318688   0.94490683   0.61989364  -0.20318688    1.1480937       128000 
  989000   0.76956184  -0.20455916  -0.20455916   0.94976005   0.61351167  -0.20455916    1.1543192       128000 
  990000   0.77062623  -0.20498485  -0.20498485   0.95093091   0.61897446  -0.20498485    1.1559158       128000 
  991000   0.77286265   -0.2066245   -0.2066245   0.95264581   0.61632145   -0.2066245    1.1592703       128000 
  992000   0.76857373  -0.20482008  -0.20482008   0.94801698   0.61374931  -0.20482008    1.1528371       128000 
  993000   0.76553269   -0.2027182   -0.2027182    0.9455574   0.61988063   -0.2027182    1.1482756       128000 
  994000   0.77019344  -0.20483118  -0.20483118    0.9504354   0.61592987  -0.20483118    1.1552666       128000 
  995000   0.76869424  -0.20485533  -0.20485533    0.9481625   0.61951246  -0.20485533    1.1530178       128000 
  996000   0.77122097  -0.20440426  -0.20440426   0.95240359   0.62313339  -0.20440426    1.1568079       128000 
  997000   0.77351624  -0.20514223  -0.20514223   0.95510844    0.6163146  -0.20514223    1.1602507       128000 
  998000   0.77250144  -0.20600188  -0.20600188   0.95272663   0.61520179  -0.20600188    1.1587285       128000 
  999000   0.77059101  -0.20164147  -0.20164147   0.95422146   0.62654947  -0.20164147    1.1558629       128000 
 1000000   0.76675484  -0.20520846  -0.20520846   0.94490033   0.61791804  -0.20520846    1.1501088       128000 
 1001000   0.76583764  -0.20307689  -0.20307689   0.94565612   0.61991103  -0.20307689     1.148733       128000 
 1002000   0.76573526  -0.20463121  -0.20463121   0.94394824    0.6144229  -0.20463121    1.1485794       128000 
 1003000   0.77207712   -0.2040935   -0.2040935   0.95399853   0.61694461   -0.2040935     1.158092       128000 
 1004000   0.77170558  -0.20488353  -0.20488353   0.95265121    0.6177236  -0.20488353    1.1575347       128000 
 1005000   0.77115933  -0.20747834  -0.20747834   0.94923704   0.61602077  -0.20747834    1.1567154       128000 
 1006000    0.7717543  -0.20613167  -0.20613167   0.95147615    0.6163938  -0.20613167    1.1576078       128000 
 1007000   0.77102233  -0.20313406  -0.20313406   0.95337583   0.62543501  -0.20313406    1.1565099       128000 
 1008000   0.76968797  -0.20384528  -0.20384528   0.95066311   0.62584965  -0.20384528    1.1545084       128000 
 1009000   0.77067313  -0.20353125  -0.20353125   0.95245485   0.61733306  -0.20353125    1.1559861       128000 
 1010000   0.77006828  -0.20633601  -0.20633601   0.94874283   0.61356383  -0.20633601    1.1550788       128000 
 1011000   0.77083579  -0.20513283  -0.20513283   0.95109726   0.61660739  -0.20513283    1.1562301       128000 
 1012000   0.76991943  -0.20483527  -0.20483527    0.9500203   0.62399015  -0.20483527    1.1548556       128000 
 1013000   0.77271601    -0.204355    -0.204355   0.95469537   0.62386709    -0.204355    1.1590504       128000 
 1014000   0.77400972  -0.20274729  -0.20274729    0.9582436   0.62526278  -0.20274729    1.1609909       128000 
 1015000   0.77467769  -0.20491542  -0.20491542    0.9570774   0.62207644  -0.20491542    1.1619928       128000 
 1016000   0.77376389  -0.20341086  -0.20341086   0.95721129   0.62297606  -0.20341086    1.1606221       128000 
 1017000   0.77417698  -0.20214346  -0.20214346   0.95909832   0.62856195  -0.20214346    1.1612418       128000 
 1018000   0.77354169  -0.20423984  -0.20423984     0.956049    0.6211652  -0.20423984    1.1602888       128000 
 1019000   0.77166689  -0.20549394  -0.20549394   0.95198278   0.61555704  -0.20549394    1.1574767       128000 
 1020000   0.77431113  -0.20664289  -0.20664289    0.9548001   0.61663856  -0.20664289     1.161443       128000 
 1021000   0.77818457  -0.19947048  -0.19947048   0.96778256   0.63833391  -0.19947048     1.167253       128000 
 1022000   0.77012801  -0.20445198  -0.20445198   0.95071646   0.62086821  -0.20445198    1.1551684       128000 
 1023000   0.77187206  -0.20405915  -0.20405915   0.95372531   0.62204853  -0.20405915    1.1577845       128000 
 1024000   0.77259673  -0.20491609  -0.20491609   0.95395536   0.62175334  -0.20491609    1.1588714       128000 
 1025000   0.77548436  -0.20497754  -0.20497754   0.95822526   0.62172008  -0.20497754    1.1632028       128000 
 1026000    0.7789411  -0.20246615  -0.20246615   0.96592166    0.6227994  -0.20246615    1.1683878       128000 
 1027000   0.78011426  -0.20369678  -0.20369678   0.96645073   0.63148012  -0.20369678    1.1701475       128000 
 1028000   0.78003214  -0.20387171  -0.20387171   0.96615263   0.62420043  -0.20387171    1.1700243       128000 
 1029000   0.77480319  -0.19921746  -0.19921746   0.96296359   0.63589391  -0.19921746    1.1621811       128000 
 1030000   0.77342028  -0.20226778  -0.20226778   0.95783897   0.63178117  -0.20226778    1.1601067       128000 
 1031000   0.77743648  -0.20189312  -0.20189312    0.9642378   0.62798283  -0.20189312    1.1661309       128000 
 1032000   0.77471949  -0.20142408  -0.20142408   0.96063144   0.63052866  -0.20142408    1.1620555       128000 
 1033000    0.7794887   -0.2002434   -0.2002434    0.9689658   0.63574993   -0.2002434    1.1692092       128000 
 1034000   0.78273164  -0.20381427  -0.20381427   0.97025923   0.62471808  -0.20381427    1.1740735       128000 
 1035000   0.78385456  -0.20512477  -0.20512477   0.97063308   0.62213724  -0.20512477    1.1757578       128000 
 1036000   0.78088176  -0.20053546  -0.20053546   0.97076328   0.63197395  -0.20053546    1.1712987       128000 
 1037000   0.78728422  -0.20081577  -0.20081577   0.98008646   0.63122097  -0.20081577    1.1809022       128000 
 1038000   0.78259884  -0.20197766  -0.20197766   0.97189664    0.6304871  -0.20197766    1.1738743       128000 
 1039000   0.78503097  -0.20532241  -0.20532241   0.97220001   0.62436353  -0.20532241    1.1775224       128000 
 1040000   0.78039493  -0.19996389  -0.19996389   0.97060462   0.64025164  -0.19996389    1.1705685       128000 
 1041000   0.78182846  -0.20286724  -0.20286724   0.96985152   0.62684065  -0.20286724    1.1727188       128000 
 1042000   0.78583391  -0.20345561  -0.20345561    0.9752712   0.62901744  -0.20345561    1.1787268       128000 
 1043000   0.78534003  -0.20264741  -0.20264741   0.97533859   0.63064772  -0.20264741     1.177986       128000 
 1044000   0.78571876  -0.20159331  -0.20159331   0.97696077   0.63220757  -0.20159331    1.1785541       128000 
 1045000   0.78352749  -0.20056653  -0.20056653   0.97470071     0.638704  -0.20056653    1.1752672       128000 
 1046000   0.77742612  -0.20316586  -0.20316586   0.96294953   0.62678494  -0.20316586    1.1661154       128000 
 1047000   0.77731213  -0.20330349  -0.20330349   0.96264091   0.62517113  -0.20330349    1.1659444       128000 
 1048000   0.78350634  -0.19756049  -0.19756049   0.97767505     0.638983  -0.19756049    1.1752355       128000 
 1049000   0.78427981  -0.20280614  -0.20280614   0.97358957   0.62491079  -0.20280614    1.1763957       128000 
 1050000   0.78505465  -0.20421054  -0.20421054   0.97334739   0.62055272  -0.20421054    1.1775579       128000 
 1051000   0.78200256  -0.20110647  -0.20110647   0.97187342   0.62668588  -0.20110647    1.1729799       128000 
 1052000    0.7822645  -0.20252992  -0.20252992   0.97084289   0.63105273  -0.20252992    1.1733728       128000 
 1053000   0.78397341   -0.2012961   -0.2012961   0.97464002   0.63341734   -0.2012961    1.1759361       128000 
 1054000   0.78077295  -0.20124989  -0.20124989   0.96988563   0.63245105  -0.20124989    1.1711355       128000 
 1055000   0.78767259  -0.19839661  -0.19839661   0.98308816   0.63647293  -0.19839661    1.1814848       128000 
 1056000   0.78988418  -0.20103904  -0.20103904   0.98376305   0.63360246  -0.20103904    1.1848021       128000 
 1057000   0.78897314  -0.20422171  -0.20422171   0.97921385   0.62538101  -0.20422171    1.1834356       128000 
 1058000   0.78512416  -0.20109049  -0.20109049   0.97657172    0.6330638  -0.20109049    1.1776622       128000 
 1059000   0.78816613  -0.19964113  -0.19964113   0.98258394   0.63746488  -0.19964113    1.1822251       128000 
 1060000   0.78964156    -0.197856    -0.197856   0.98658216   0.64300196    -0.197856    1.1844382       128000 
 1061000   0.78901601   -0.2012741   -0.2012741   0.98222576   0.63466944   -0.2012741    1.1834999       128000 
 1062000   0.78850946  -0.20275299  -0.20275299   0.97998706   0.63028161  -0.20275299      1.18274       128000 
 1063000   0.78999712  -0.20220201  -0.20220201   0.98276949   0.63473756  -0.20220201    1.1849715       128000 
 1064000   0.78857572   -0.1994415   -0.1994415   0.98339794   0.63989397   -0.1994415    1.1828394       128000 
 1065000   0.79118326   -0.2033565   -0.2033565   0.98339416   0.62958463   -0.2033565    1.1867507       128000 
 1066000   0.78657784  -0.20188351  -0.20188351   0.97795917   0.63591349  -0.20188351    1.1798427       128000 
 1067000   0.78913468  -0.19891341  -0.19891341   0.98476445   0.63655121  -0.19891341    1.1836779       128000 
 1068000   0.79313063  -0.19895157  -0.19895157    0.9907201   0.64275969  -0.19895157    1.1896717       128000 
 1069000   0.78992043   -0.1995643   -0.1995643   0.98529217   0.63711784   -0.1995643    1.1848565       128000 
 1070000   0.78915807  -0.19745698  -0.19745698   0.98625597   0.64230252  -0.19745698     1.183713       128000 
 1071000   0.78685081  -0.20083358  -0.20083358   0.97941854   0.63376842  -0.20083358    1.1802521       128000 
 1072000   0.79013253  -0.20109366  -0.20109366   0.98408094   0.63882211  -0.20109366    1.1851746       128000 
 1073000   0.78932442  -0.20231241  -0.20231241   0.98165005   0.62941549  -0.20231241    1.1839625       128000 
 1074000   0.79375059  -0.19978266  -0.19978266   0.99081893     0.637289  -0.19978266    1.1906016       128000 
 1075000   0.79266271  -0.20056916  -0.20056916   0.98840064   0.63920533  -0.20056916    1.1889698       128000 
 1076000   0.79068912  -0.20301824  -0.20301824   0.98299123   0.63145853  -0.20301824    1.1860095       128000 
 1077000   0.79041242  -0.20006598  -0.20006598   0.98552846   0.63813839  -0.20006598    1.1855944       128000 
 1078000   0.79638584  -0.20153589  -0.20153589   0.99301849    0.6360208  -0.20153589    1.1945544       128000 
 1079000   0.79700265  -0.20024455  -0.20024455   0.99523503   0.64416446  -0.20024455    1.1954796       128000 
 1080000   0.79504657  -0.19727293  -0.19727293   0.99527258   0.64180996  -0.19727293    1.1925455       128000 
 1081000   0.79154505  -0.19739509  -0.19739509   0.98989825   0.64713487  -0.19739509    1.1872933       128000 
 1082000   0.79350432  -0.19801975  -0.19801975   0.99221244   0.64652014  -0.19801975    1.1902322       128000 
 1083000    0.7952099  -0.20034457  -0.20034457   0.99244594   0.63910285  -0.20034457    1.1927905       128000 
 1084000   0.79530503  -0.19933966  -0.19933966   0.99359353   0.64791025  -0.19933966    1.1929332       128000 
 1085000   0.79410817  -0.19961962  -0.19961962   0.99151833   0.64748476  -0.19961962    1.1911379       128000 
 1086000   0.79421979  -0.19907043  -0.19907043   0.99223493   0.64109718  -0.19907043    1.1913054       128000 
 1087000   0.79123886   -0.2000714   -0.2000714   0.98676267   0.64181592   -0.2000714    1.1868341       128000 
 1088000   0.79208036   -0.2000633   -0.2000633   0.98803299   0.63592782   -0.2000633    1.1880963       128000 
 1089000   0.79601974  -0.20004804  -0.20004804    0.9939572   0.64159261  -0.20004804    1.1940052       128000 
 1090000   0.79948269  -0.19980378  -0.19980378   0.99939578   0.64145027  -0.19980378    1.1991996       128000 
 1091000    0.7998575   -0.1973119   -0.1973119    1.0024499    0.6455675   -0.1973119    1.1997618       128000 
 1092000   0.79544832  -0.19727528  -0.19727528   0.99587285   0.64692226  -0.19727528    1.1931481       128000 
 1093000   0.79461673  -0.19994909  -0.19994909   0.99195168   0.64226783  -0.19994909    1.1919008       128000 
 1094000   0.79426891  -0.19998043  -0.19998043   0.99139863   0.64024431  -0.19998043    1.1913791       128000 
 1095000   0.79780185  -0.20045964  -0.20045964   0.99621871   0.64034595  -0.20045964    1.1966783       128000 
 1096000   0.80158342  -0.19833026  -0.19833026    1.0040203   0.65045223  -0.19833026    1.2023506       128000 
 1097000    0.7989435  -0.19667535  -0.19667535    1.0017154   0.64133953  -0.19667535    1.1983908       128000 
 1098000   0.79912955  -0.19919775  -0.19919775   0.99947211   0.64400243  -0.19919775    1.1986699       128000 
 1099000    0.7981032  -0.19783748  -0.19783748    0.9992929   0.64841782  -0.19783748    1.1971304       128000 
 1100000   0.80185143  -0.19961475  -0.19961475    1.0031379   0.64641212  -0.19961475    1.2027526       128000 
Loop time of 3564.34 on 4 procs for 1000000 steps with 49000 atoms

Performance: 121200.444 tau/day, 280.557 timesteps/s
99.8% CPU use with 4 MPI tasks x 1 OpenMP threads

MPI task timing breakdown:
Section |  min time  |  avg time  |  max time  |%varavg|  %CPU | %total
-----------------------------------------------------------------------
Pair    | 1197       | 1327.3     | 1545.9     | 360.2 |  99.8 | 37.24
Bond    | 0.39811    | 0.44953    | 0.52125    |   7.0 | 100.0 |  0.01
Neigh   | 624.13     | 680.04     | 753.95     | 179.7 |  99.9 | 19.08
Comm    | 266.41     | 608.59     | 823.35     | 839.9 |  99.7 | 17.07
Output  | 58.505     | 58.532     | 58.542     |   0.2 |  98.0 |  1.64
Modify  | 800.56     | 836.81     | 895.8      | 123.2 |  99.8 | 23.48
Other   |            | 52.65      |            |       |       |  1.48

Nlocal:        12250.0 ave       12414 max       11934 min
Histogram: 1 0 0 0 0 0 0 1 0 2
Nghost:        4538.50 ave        5285 max        3733 min
Histogram: 2 0 0 0 0 0 0 0 0 2
Neighs:        62380.5 ave       64395 max       58562 min
Histogram: 1 0 0 0 0 0 0 1 1 1

Total # of neighbors = 249522
Ave neighs/atom = 5.0922857
Ave special neighs/atom = 0.0000000
Neighbor list builds = 95114
Dangerous builds = 52701
write_restart   restart_write.dat
System init for write_restart ...
write_data	data.write
System init for write_data ...

Total wall time: 1:07:32
