LAMMPS (24 Dec 2020)
OMP_NUM_THREADS environment is not set. Defaulting to 1 thread. (src/comm.cpp:94)
  using 1 OpenMP thread(s) per MPI task
#Read the equilibrated lj fluid and add nanocubes

units           lj
atom_style      full
atom_modify     map array first cubes
dimension       3
boundary        p p f
pair_style      lj/cut/opt 2.5

variable        sigma           equal 1.0
variable        epsilon         equal 1.0
read_restart	restart.dat.3000000
Reading restart file ...
  restart file = 29 Oct 2020, LAMMPS = 24 Dec 2020
  restoring atom style full from restart
  orthogonal box = (0.0000000 0.0000000 0.0000000) to (100.00000 100.00000 200.00000)
  4 by 5 by 12 MPI processor grid
  restoring pair style lj/cut/opt from restart
  1010000 atoms
Finding 1-2 1-3 1-4 neighbors ...
  special bond factors lj:    0        0        0       
  special bond factors coul:  0        0        0       
     0 = max # of 1-2 neighbors
     0 = max # of 1-3 neighbors
     0 = max # of 1-4 neighbors
     1 = max # of special neighbors
  special bonds CPU = 1.914 seconds
  read_restart CPU = 2.540 seconds

group		solvent type 1
1010000 atoms in group solvent
read_data	data490_500.cubes group cubes add append
Reading data file ...
  orthogonal box = (0.0000000 0.0000000 0.0000000) to (100.00000 100.00000 200.00000)
  4 by 5 by 12 MPI processor grid
  reading atoms ...
  560070 atoms
  reading velocities ...
  560070 velocities
Finding 1-2 1-3 1-4 neighbors ...
  special bond factors lj:    0        0        0       
  special bond factors coul:  0        0        0       
     0 = max # of 1-2 neighbors
     0 = max # of 1-3 neighbors
     0 = max # of 1-4 neighbors
     1 = max # of special neighbors
  special bonds CPU = 0.005 seconds
  read_data CPU = 1.483 seconds

neighbor      0.4 bin
neigh_modify  exclude molecule/intra cubes


pair_modify   shift yes

pair_coeff    1 1 1.0 1.0 #solvent
pair_coeff    2 2 0.6 1.0 0.7147 #np
pair_coeff    3 3 0.0 0.0 0.0 #dummy
pair_coeff    2 3 0.0 0.0 0.0 #np dummy
pair_coeff    1 2 0.8 1.0 #np solvent
pair_coeff    1 3 0.0 0.0 0.0 #dummy solvent


# delete solvent where the cubes are
delete_atoms  overlap 1.0 solvent cubes
System init for delete_atoms ...
Neighbor list info ...
  update every 1 steps, delay 10 steps, check yes
  max neighbors/atom: 2000, page size: 100000
  master list distance cutoff = 2.9
  ghost atom cutoff = 2.9
  binsize = 1.45, bins = 69 69 138
  2 neighbor lists, perpetual/occasional/extra = 1 1 0
  (1) command delete_atoms, occasional
      attributes: full, newton on
      pair build: full/bin
      stencil: full/bin/3d
      bin: standard
  (2) pair lj/cut/opt, perpetual
      attributes: half, newton on
      pair build: half/bin/newton
      stencil: half/bin/3d/newton
      bin: standard
WARNING: Delete_atoms cutoff > minimum neighbor cutoff (src/delete_atoms.cpp:307)
WARNING: Ignoring 'compress yes' for molecular system (src/delete_atoms.cpp:125)
Deleted 314345 atoms, new total = 1255725



comm_modify   mode multi cutoff/multi 1 2.5 cutoff/multi 2 2.5 cutoff/multi 3 6.95

reset_timestep 	0

balance 	1.05 shift z 10 1.05
Balancing ...
Neighbor list info ...
  update every 1 steps, delay 10 steps, check yes
  max neighbors/atom: 2000, page size: 100000
  master list distance cutoff = 2.9
  ghost atom cutoff = 6.95
  binsize = 1.45, bins = 69 69 138
  1 neighbor lists, perpetual/occasional/extra = 1 0 0
  (1) pair lj/cut/opt, perpetual
      attributes: half, newton on
      pair build: half/bin/newton
      stencil: half/bin/3d/newton
      bin: standard
 rebalancing time: 0.011 seconds
  iteration count = 4
  initial/final maximal load/proc = 8337.0000 8071.0000
  initial/final imbalance factor  = 1.5934062 1.5425670
  x cuts: 0.0000000 0.25000000 0.50000000 0.75000000 1.0000000
  y cuts: 0.0000000 0.20000000 0.40000000 0.60000000 0.80000000 1.0000000
  z cuts: 0.0000000 0.057291667 0.11979167 0.17187500 0.23958333 0.28125000 0.34375000 0.41145833 0.46354167 0.51562500 0.56250000 0.64583333 1.0000000

####################### WALLS ###########################

variable       epsilonWall equal 2*${epsilon}
variable       epsilonWall equal 2*1

variable       repulsive   equal   0.7147*${sigma}
variable       repulsive   equal   0.7147*1

variable       full	   equal   3*${sigma}
variable       full	   equal   3*1

region         lowWall block EDGE EDGE EDGE EDGE EDGE 2


fix            topWall all wall/lj93 zhi EDGE 	       ${epsilonWall} ${sigma} ${repulsive} units box
fix            topWall all wall/lj93 zhi EDGE 	       2 ${sigma} ${repulsive} units box
fix            topWall all wall/lj93 zhi EDGE 	       2 1 ${repulsive} units box
fix            topWall all wall/lj93 zhi EDGE 	       2 1 0.7147 units box

fix            lowSol solvent wall/lj93 zlo EDGE                ${epsilonWall} ${sigma} ${full} units box
fix            lowSol solvent wall/lj93 zlo EDGE                2 ${sigma} ${full} units box
fix            lowSol solvent wall/lj93 zlo EDGE                2 1 ${full} units box
fix            lowSol solvent wall/lj93 zlo EDGE                2 1 3 units box

fix 	       lowCub cubes wall/lj93 zlo EDGE                ${epsilonWall} ${sigma} ${repulsive} units box
fix 	       lowCub cubes wall/lj93 zlo EDGE                2 ${sigma} ${repulsive} units box
fix 	       lowCub cubes wall/lj93 zlo EDGE                2 1 ${repulsive} units box
fix 	       lowCub cubes wall/lj93 zlo EDGE                2 1 0.7147 units box



###################### COMPUTES ##########################

compute        bin1 solvent chunk/atom bin/1d z upper 1.0


######################  FIXES ############################


fix             peclet solvent ave/chunk 1000 1 1000 bin1 density/number norm                  none ave one file density.profile

fix              temp solvent ave/chunk 1000 1 1000 bin1 temp norm                  none ave one file temp.profile

fix             1 cubes rigid/nve/small molecule #temp ${temp} ${temp} 10
  create bodies CPU = 0.050 seconds
  490 rigid bodies with 560070 atoms
  6.9283411 = max distance from body owner to body atom

fix             2 solvent nve


## Thermostat

region          regthermo block EDGE EDGE EDGE EDGE 0 10

group           thermo dynamic solvent region regthermo every 1000
dynamic group thermo defined

fix             3 thermo langevin ${startTemp} ${temp} 10 156453
fix             3 thermo langevin 0.8 ${temp} 10 156453
fix             3 thermo langevin 0.8 1.0 10 156453



#### Load balancing

fix             bal all balance 1000 1.05 shift z 10 1.05

############### Diagnostics and computes ###################

compute        com cubes          rigid/local   1 mol x y z
compute        quat cubes         rigid/local   1 mol quatw quati quatj quatk
compute 	cc2 cubes chunk/atom molecule

compute 	msd cubes msd/chunk cc2

thermo          1000
thermo_style    custom step temp epair evdwl etotal press pe ke atoms

dump            1 all custom 100000 dump.lammpstrj id mol type x y z
dump            2 all image 10000 image.*.png type type

dump_modify     2 pad 8


dump		image cubes image 10000 image_cubes.*.png type type

dump_modify	image pad 8

dump            3 all movie 5000 movie.avi type type
dump           com cubes local 10000 dump.*.xyz c_com[*]
dump           quat cubes      local 10000 dump.*.quat c_quat[*]


restart         500000 restart.dat
timestep        0.005
timer           full
New timer settings: style=full  mode=nosync  timeout=off

run            3000000
Per MPI rank memory allocation (min/avg/max) = 17.04 | 27.90 | 30.10 Mbytes
Step Temp E_pair E_vdwl TotEng Press PotEng KinEng Atoms 
       0   0.84046065    -2.309913    -2.309913   -1.6105241  -0.13426518    -2.309913   0.69938895  1255725 
    1000   0.85246853   -2.3224107   -2.3224107   -1.6130294 -0.077136049   -2.3224107   0.70938131  1255725 
    2000   0.85876026   -2.3287331   -2.3287331   -1.6141161 -0.059696314   -2.3287331   0.71461697  1255725 
    3000   0.86428488   -2.3341839   -2.3341839   -1.6149696 -0.045406974   -2.3341839   0.71921428  1255725 
    4000   0.86809719   -2.3369455   -2.3369455   -1.6145588 -0.025144694   -2.3369455   0.72238669  1255725 
    5000   0.87118627   -2.3404505   -2.3404505   -1.6154932 -0.024816219   -2.3404505   0.72495726  1255725 
    6000   0.87354571    -2.343308    -2.343308   -1.6163873 -0.018426903    -2.343308   0.72692068  1255725 
    7000   0.87626488   -2.3462973   -2.3462973   -1.6171139   -0.0146884   -2.3462973   0.72918343  1255725 
    8000   0.87851489   -2.3492462   -2.3492462   -1.6181904 -0.012572315   -2.3492462   0.73105577  1255725 
    9000   0.88218719   -2.3530018   -2.3530018   -1.6188901  0.010509106   -2.3530018   0.73411168  1255725 
   10000   0.88521587   -2.3571718   -2.3571718   -1.6205398  0.014302751   -2.3571718   0.73663199  1255725 
   11000   0.88801329   -2.3613412   -2.3613412   -1.6223813  0.035930412   -2.3613412   0.73895986  1255725 
   12000   0.89134582   -2.3662203   -2.3662203   -1.6244873  0.044337403   -2.3662203   0.74173303  1255725 
   13000   0.89566877   -2.3711739   -2.3711739   -1.6258436  0.062794256   -2.3711739   0.74533037  1255725 
   14000   0.89796584   -2.3750579   -2.3750579    -1.627816  0.072853614   -2.3750579   0.74724188  1255725 
   15000   0.90088911   -2.3787381   -2.3787381   -1.6290636  0.088283299   -2.3787381   0.74967447  1255725 
   16000   0.90318046   -2.3807671   -2.3807671   -1.6291859   0.10228637   -2.3807671   0.75158122  1255725 
   17000   0.90336975   -2.3819372   -2.3819372   -1.6301985  0.096426229   -2.3819372   0.75173873  1255725 
   18000   0.90359094   -2.3834181   -2.3834181   -1.6314953  0.090667522   -2.3834181    0.7519228  1255725 
   19000   0.90236466   -2.3832708   -2.3832708   -1.6323685  0.091931118   -2.3832708   0.75090235  1255725 
   20000   0.90167517   -2.3822902   -2.3822902   -1.6319616  0.083585933   -2.3822902   0.75032859  1255725 
   21000   0.89747351   -2.3798372   -2.3798372    -1.633005  0.080228319   -2.3798372   0.74683218  1255725 
   22000   0.89563514   -2.3787479   -2.3787479   -1.6334455  0.056473219   -2.3787479   0.74530238  1255725 
   23000   0.89064035    -2.375156    -2.375156     -1.63401  0.036311449    -2.375156   0.74114597  1255725 
   24000     0.887218   -2.3725657   -2.3725657   -1.6342677  0.026936976   -2.3725657   0.73829806  1255725 
   25000   0.88425748   -2.3703793   -2.3703793   -1.6345448  0.012730536   -2.3703793   0.73583447  1255725 
   26000   0.87985652   -2.3666029   -2.3666029   -1.6344306 -0.0047513349   -2.3666029   0.73217221  1255725 
   27000   0.87941719   -2.3662482   -2.3662482   -1.6344416 -0.018160988   -2.3662482   0.73180663  1255725 
   28000    0.8764996   -2.3636445   -2.3636445   -1.6342657 -0.022076456   -2.3636445   0.72937875  1255725 
   29000   0.87469605   -2.3618752   -2.3618752   -1.6339972 -0.030545043   -2.3618752   0.72787793  1255725 
   30000   0.87375396   -2.3607652   -2.3607652   -1.6336712 -0.028133133   -2.3607652   0.72709397  1255725 
   31000   0.87243272   -2.3589611   -2.3589611   -1.6329666 -0.032849624   -2.3589611    0.7259945  1255725 
   32000   0.87373773   -2.3596838   -2.3596838   -1.6326033 -0.036022996   -2.3596838   0.72708046  1255725 
   33000   0.87265673   -2.3585542   -2.3585542   -1.6323732 -0.041703546   -2.3585542   0.72618091  1255725 
   34000   0.87347957   -2.3589581   -2.3589581   -1.6320925 -0.032935063   -2.3589581   0.72686564  1255725 
   35000   0.87442101   -2.3597601   -2.3597601   -1.6321111 -0.028383026   -2.3597601   0.72764905  1255725 
   36000   0.87679361    -2.361758    -2.361758   -1.6321346 -0.021952068    -2.361758   0.72962341  1255725 
   37000   0.87831787   -2.3630949   -2.3630949   -1.6322031 -0.0063376514   -2.3630949   0.73089183  1255725 
   38000   0.88025674   -2.3647347   -2.3647347   -1.6322295 -0.0036630587   -2.3647347   0.73250526  1255725 
   39000   0.88323842   -2.3674278   -2.3674278   -1.6324413 -0.0012566544   -2.3674278   0.73498646  1255725 
   40000   0.88549184   -2.3698047   -2.3698047    -1.632943  0.016220822   -2.3698047   0.73686164  1255725 
   41000   0.88639644   -2.3709253   -2.3709253   -1.6333109     0.028291   -2.3709253    0.7376144  1255725 
   42000   0.89021077   -2.3744777   -2.3744777   -1.6336892  0.026777048   -2.3744777    0.7407885  1255725 
   43000   0.89192857   -2.3767461   -2.3767461   -1.6345281  0.045445977   -2.3767461   0.74221796  1255725 
   44000   0.89404779    -2.379511    -2.379511   -1.6355295  0.042690596    -2.379511   0.74398147  1255725 
   45000    0.8957869   -2.3816725   -2.3816725   -1.6362439  0.049105376   -2.3816725   0.74542867  1255725 
   46000    0.8952752   -2.3826432   -2.3826432   -1.6376403  0.059182425   -2.3826432   0.74500286  1255725 
   47000   0.89574294   -2.3836103   -2.3836103   -1.6382182  0.068203084   -2.3836103   0.74539209  1255725 
   48000   0.89635788   -2.3848429   -2.3848429   -1.6389391  0.067581318   -2.3848429   0.74590381  1255725 
   49000   0.89555258   -2.3847849   -2.3847849   -1.6395512  0.055291756   -2.3847849   0.74523368  1255725 
   50000   0.89364368   -2.3839748   -2.3839748   -1.6403296  0.059943009   -2.3839748   0.74364519  1255725 
   51000   0.89270195   -2.3836192   -2.3836192   -1.6407576  0.045202981   -2.3836192   0.74286153  1255725 
   52000   0.89091624   -2.3826407   -2.3826407   -1.6412652  0.044466941   -2.3826407   0.74137555  1255725 
   53000   0.88845111   -2.3809933   -2.3809933   -1.6416691  0.030966097   -2.3809933   0.73932419  1255725 
   54000   0.88720216   -2.3800797   -2.3800797   -1.6417948  0.023498414   -2.3800797   0.73828488  1255725 
   55000   0.88543829   -2.3788682   -2.3788682   -1.6420512  0.022806092   -2.3788682   0.73681708  1255725 
   56000   0.88363517   -2.3772118   -2.3772118   -1.6418952   0.01438503   -2.3772118   0.73531661  1255725 
   57000   0.88309185   -2.3767563   -2.3767563   -1.6418918   0.01229112   -2.3767563   0.73486449  1255725 
   58000   0.88041424   -2.3744563   -2.3744563     -1.64182 -0.0014498384   -2.3744563   0.73263632  1255725 
   59000   0.87922348    -2.373502    -2.373502   -1.6418566 -0.013084053    -2.373502   0.73164543  1255725 
   60000   0.87769336   -2.3720382   -2.3720382    -1.641666 -0.00078481717   -2.3720382   0.73037214  1255725 
   61000   0.87734827    -2.372078    -2.372078    -1.641993 -0.0066640955    -2.372078   0.73008497  1255725 
   62000   0.87729454   -2.3719444   -2.3719444   -1.6419041 -0.014415738   -2.3719444   0.73004026  1255725 
   63000   0.87789668   -2.3728306   -2.3728306   -1.6422893 -0.020156501   -2.3728306   0.73054133  1255725 
   64000   0.87860161   -2.3734881   -2.3734881   -1.6423601 -0.0070903856   -2.3734881   0.73112794  1255725 
   65000   0.87966194    -2.374408    -2.374408   -1.6423977 -0.004819173    -2.374408   0.73201029  1255725 
   66000   0.88013153   -2.3747783   -2.3747783   -1.6423773 0.0078458555   -2.3747783   0.73240106  1255725 
   67000   0.88451263   -2.3776518   -2.3776518    -1.641605  0.012380428   -2.3776518   0.73604679  1255725 
   68000   0.88247868   -2.3761753   -2.3761753    -1.641821  0.010726201   -2.3761753   0.73435424  1255725 
   69000   0.88449572   -2.3786071   -2.3786071   -1.6425744  0.012071229   -2.3786071   0.73603272  1255725 
   70000   0.88665109   -2.3809447   -2.3809447   -1.6431183   0.01337327   -2.3809447   0.73782631  1255725 
   71000   0.88718282   -2.3818642   -2.3818642   -1.6435954  0.031247475   -2.3818642   0.73826879  1255725 
   72000    0.8871915   -2.3823066   -2.3823066   -1.6440306  0.032514289   -2.3823066   0.73827601  1255725 
   73000   0.88806875   -2.3840236   -2.3840236   -1.6450175  0.020973287   -2.3840236   0.73900602  1255725 
   74000   0.88873542     -2.38482     -2.38482   -1.6452592  0.038111975     -2.38482   0.73956078  1255725 
   75000   0.89032291   -2.3863299   -2.3863299   -1.6454481   0.05166623   -2.3863299   0.74088181  1255725 
   76000   0.89013029   -2.3865162   -2.3865162   -1.6457947  0.044469902   -2.3865162   0.74072152  1255725 
   77000   0.88936179   -2.3863639   -2.3863639   -1.6462819  0.043755247   -2.3863639   0.74008202  1255725 
   78000   0.88904303   -2.3868247   -2.3868247   -1.6470079  0.036284932   -2.3868247   0.73981676  1255725 
   79000   0.88904275   -2.3874251   -2.3874251   -1.6476086  0.046901751   -2.3874251   0.73981653  1255725 
   80000    0.8874282   -2.3868098   -2.3868098   -1.6483368  0.034145201   -2.3868098   0.73847299  1255725 
   81000   0.88734229   -2.3871245   -2.3871245    -1.648723  0.030001984   -2.3871245   0.73840149  1255725 
   82000   0.88532173   -2.3859725   -2.3859725   -1.6492524  0.023528925   -2.3859725   0.73672009  1255725 
   83000   0.88420306   -2.3852549   -2.3852549   -1.6494658  0.022255049   -2.3852549   0.73578918  1255725 
   84000   0.88295129   -2.3842034   -2.3842034   -1.6494558  0.021006176   -2.3842034   0.73474752  1255725 
   85000   0.88363009   -2.3846932   -2.3846932   -1.6493808  0.011054184   -2.3846932   0.73531239  1255725 
   86000   0.88278627    -2.383644    -2.383644   -1.6490338  0.014308595    -2.383644    0.7346102  1255725 
   87000   0.88261497   -2.3834394   -2.3834394   -1.6489718 0.0096073817   -2.3834394   0.73446766  1255725 
   88000   0.88227158   -2.3833335   -2.3833335   -1.6491516 0.0075991491   -2.3833335    0.7341819  1255725 
   89000   0.88096102   -2.3823219   -2.3823219   -1.6492306  0.002188984   -2.3823219   0.73309132  1255725 
   90000   0.88114924   -2.3823388   -2.3823388   -1.6490908   0.01511107   -2.3823388   0.73324795  1255725 
   91000   0.88125649   -2.3827315   -2.3827315   -1.6493943  0.004136084   -2.3827315    0.7333372  1255725 
   92000   0.88160343   -2.3832528   -2.3832528   -1.6496269 0.0032647983   -2.3832528    0.7336259  1255725 
   93000   0.88150918   -2.3830259   -2.3830259   -1.6494784  0.011282036   -2.3830259   0.73354748  1255725 
   94000   0.88250826   -2.3835096   -2.3835096   -1.6491307 0.0037033474   -2.3835096   0.73437886  1255725 
   95000   0.88259036   -2.3837303   -2.3837303   -1.6492831 0.0075287605   -2.3837303   0.73444717  1255725 
   96000   0.88278329   -2.3842318   -2.3842318   -1.6496241  0.017925072   -2.3842318   0.73460773  1255725 
   97000   0.88369745   -2.3854675   -2.3854675   -1.6500991  0.020760432   -2.3854675   0.73536844  1255725 
   98000   0.88422343   -2.3861815   -2.3861815   -1.6503754    0.0209318   -2.3861815   0.73580613  1255725 
   99000   0.88391345   -2.3864763   -2.3864763   -1.6509282  0.016259224   -2.3864763   0.73554818  1255725 
  100000   0.88491258   -2.3877812   -2.3877812   -1.6514016  0.025346154   -2.3877812   0.73637961  1255725 
  101000   0.88557749   -2.3887641   -2.3887641   -1.6518312  0.036083414   -2.3887641   0.73693291  1255725 
  102000   0.88441212   -2.3884133   -2.3884133   -1.6524502  0.029976443   -2.3884133   0.73596315  1255725 
  103000   0.88518325   -2.3890191   -2.3890191   -1.6524143  0.036452044   -2.3890191   0.73660484  1255725 
  104000   0.88696725   -2.3906526   -2.3906526   -1.6525632  0.032052617   -2.3906526   0.73808941  1255725 
  105000   0.88564831   -2.3896699   -2.3896699    -1.652678  0.031711657   -2.3896699   0.73699185  1255725 
  106000   0.88602478   -2.3901693   -2.3901693   -1.6528642  0.029675361   -2.3901693   0.73730513  1255725 
  107000   0.88592033   -2.3902635   -2.3902635   -1.6530453  0.025585209   -2.3902635   0.73721821  1255725 
  108000   0.88540416   -2.3903245   -2.3903245   -1.6535358  0.029877156   -2.3903245   0.73678868  1255725 
  109000   0.88514416   -2.3903721   -2.3903721   -1.6537998  0.034185485   -2.3903721   0.73657232  1255725 
  110000   0.88456614   -2.3902978   -2.3902978   -1.6542065  0.014562146   -2.3902978   0.73609132  1255725 
  111000   0.88343194   -2.3897688   -2.3897688   -1.6546214    0.0305247   -2.3897688    0.7351475  1255725 
  112000   0.88370638   -2.3901826   -2.3901826   -1.6548067  0.022177311   -2.3901826   0.73537587  1255725 
  113000   0.88276631   -2.3897486   -2.3897486    -1.655155   0.01395577   -2.3897486   0.73459359  1255725 
  114000   0.88197141   -2.3893425   -2.3893425   -1.6554104  0.010123684   -2.3893425   0.73393211  1255725 
  115000   0.88047601   -2.3886195   -2.3886195   -1.6559318  0.014613394   -2.3886195   0.73268772  1255725 
  116000   0.88108362   -2.3893485   -2.3893485   -1.6561551  0.013700266   -2.3893485   0.73319334  1255725 
  117000    0.8806156   -2.3889454   -2.3889454   -1.6561415  0.018671208   -2.3889454   0.73280388  1255725 
  118000   0.88111788   -2.3894615   -2.3894615   -1.6562396  0.018120618   -2.3894615   0.73322186  1255725 
  119000   0.88162712   -2.3900802   -2.3900802   -1.6564346  0.019181896   -2.3900802   0.73364562  1255725 
  120000   0.88138006   -2.3902129   -2.3902129   -1.6567728  0.017880861   -2.3902129   0.73344002  1255725 
  121000   0.88181216   -2.3905123   -2.3905123   -1.6567127 0.0085647835   -2.3905123    0.7337996  1255725 
  122000   0.88163762    -2.390331    -2.390331   -1.6566766  0.021341169    -2.390331   0.73365435  1255725 
  123000   0.88304313   -2.3916725   -2.3916725   -1.6568486  0.016615599   -2.3916725   0.73482395  1255725 
  124000   0.88292893   -2.3915674   -2.3915674   -1.6568385  0.015119288   -2.3915674   0.73472892  1255725 
  125000    0.8834643   -2.3918594   -2.3918594   -1.6566849  0.023540321   -2.3918594   0.73517443  1255725 
  126000   0.88439284   -2.3931866   -2.3931866   -1.6572395  0.020888769   -2.3931866   0.73594711  1255725 
  127000   0.88370182   -2.3927269   -2.3927269   -1.6573548  0.030516228   -2.3927269   0.73537208  1255725 
  128000   0.88465637   -2.3933165   -2.3933165   -1.6571501  0.021281813   -2.3933165    0.7361664  1255725 
  129000    0.8832733    -2.392512    -2.392512   -1.6574966  0.028232516    -2.392512   0.73501548  1255725 
  130000   0.88446405   -2.3938168   -2.3938168   -1.6578104  0.036552511   -2.3938168   0.73600637  1255725 
  131000   0.88307602   -2.3928401   -2.3928401   -1.6579888  0.027997945   -2.3928401   0.73485132  1255725 
  132000   0.88309702   -2.3930364   -2.3930364   -1.6581676  0.029451266   -2.3930364   0.73486879  1255725 
  133000   0.88351922   -2.3936602   -2.3936602   -1.6584401  0.028102929   -2.3936602   0.73522012  1255725 
  134000   0.88313973   -2.3937713   -2.3937713   -1.6588669  0.015793002   -2.3937713   0.73490433  1255725 
  135000   0.88532386   -2.3955526   -2.3955526   -1.6588308  0.030781155   -2.3955526   0.73672185  1255725 
  136000   0.88229576   -2.3937027   -2.3937027   -1.6595006  0.019698277   -2.3937027   0.73420202  1255725 
  137000   0.88247194    -2.393689    -2.393689   -1.6593403  0.031758683    -2.393689   0.73434863  1255725 
  138000    0.8820504   -2.3938598   -2.3938598    -1.659862  0.025733415   -2.3938598   0.73399785  1255725 
  139000   0.88155873   -2.3933712   -2.3933712   -1.6597825  0.018098929   -2.3933712   0.73358871  1255725 
  140000   0.88111413   -2.3931618   -2.3931618   -1.6599431  0.020171385   -2.3931618   0.73321873  1255725 
  141000      0.88238   -2.3942068   -2.3942068   -1.6599347  0.018292643   -2.3942068   0.73427212  1255725 
  142000   0.88047787   -2.3927801   -2.3927801   -1.6600908  0.014749519   -2.3927801   0.73268927  1255725 
  143000   0.88143612   -2.3943376   -2.3943376    -1.660851  0.016429637   -2.3943376   0.73348668  1255725 
  144000   0.88129382   -2.3943432   -2.3943432   -1.6609749 0.0098224739   -2.3943432   0.73336826  1255725 
  145000   0.87974164     -2.39304     -2.39304   -1.6609634  0.022308498     -2.39304   0.73207661  1255725 
  146000   0.88088095   -2.3939146   -2.3939146   -1.6608899  0.023913301   -2.3939146   0.73302469  1255725 
  147000   0.88076399   -2.3940275   -2.3940275   -1.6611002   0.01693493   -2.3940275   0.73292736  1255725 
  148000   0.88099525   -2.3941278   -2.3941278   -1.6610079  0.026737043   -2.3941278   0.73311981  1255725 
  149000   0.88245763   -2.3956473   -2.3956473   -1.6613106  0.017040523   -2.3956473   0.73433673  1255725 
  150000   0.88139639   -2.3954011   -2.3954011   -1.6619474  0.018639221   -2.3954011   0.73345361  1255725 
  151000    0.8808758   -2.3951669   -2.3951669   -1.6621465  0.019037817   -2.3951669    0.7330204  1255725 
  152000   0.88184018   -2.3966216   -2.3966216   -1.6627987  0.020178825   -2.3966216   0.73382291  1255725 
  153000   0.88112877   -2.3960116   -2.3960116   -1.6627807  0.018386985   -2.3960116   0.73323091  1255725 
  154000   0.88070805   -2.3957411   -2.3957411   -1.6628602  0.021735258   -2.3957411   0.73288081  1255725 
  155000   0.88100146   -2.3963039   -2.3963039    -1.663179  0.020545078   -2.3963039   0.73312497  1255725 
  156000    0.8814583   -2.3969396   -2.3969396   -1.6634345  0.023747459   -2.3969396   0.73350513  1255725 
  157000   0.88229275   -2.3974903   -2.3974903   -1.6632908  0.039490123   -2.3974903   0.73419952  1255725 
  158000   0.88235218   -2.3976376   -2.3976376   -1.6633886  0.021442072   -2.3976376   0.73424898  1255725 
  159000   0.88249647   -2.3979052   -2.3979052   -1.6635362  0.030468594   -2.3979052   0.73436905  1255725 
  160000   0.88277258   -2.3981121   -2.3981121   -1.6635133  0.027584863   -2.3981121   0.73459881  1255725 
  161000   0.88248397   -2.3981658   -2.3981658   -1.6638072  0.030848118   -2.3981658   0.73435864  1255725 
  162000   0.88160395   -2.3975852   -2.3975852   -1.6639589  0.021966289   -2.3975852   0.73362633  1255725 
  163000   0.88144482   -2.3976562   -2.3976562   -1.6641623  0.027203014   -2.3976562   0.73349391  1255725 
  164000   0.88132966    -2.397769    -2.397769   -1.6643709  0.016238739    -2.397769   0.73339808  1255725 
  165000   0.88172044   -2.3981924   -2.3981924   -1.6644692  0.022321103   -2.3981924   0.73372327  1255725 
  166000   0.88121461   -2.3981714   -2.3981714   -1.6648691  0.023677855   -2.3981714   0.73330234  1255725 
  167000   0.88128867    -2.398155    -2.398155   -1.6647911  0.029334565    -2.398155   0.73336397  1255725 
  168000   0.88033806   -2.3977211   -2.3977211   -1.6651482  0.025278846   -2.3977211   0.73257292  1255725 
  169000   0.88122921   -2.3985351   -2.3985351   -1.6652206  0.028852756   -2.3985351    0.7333145  1255725 
  170000   0.88092337   -2.3985531   -2.3985531   -1.6654931   0.01517973   -2.3985531   0.73305999  1255725 
  171000   0.88106332   -2.3990503   -2.3990503   -1.6658738  0.025758754   -2.3990503   0.73317645  1255725 
  172000    0.8808326   -2.3992104   -2.3992104    -1.666226  0.014203001   -2.3992104   0.73298446  1255725 
  173000   0.88141035    -2.400051    -2.400051   -1.6665858   0.01966297    -2.400051   0.73346523  1255725 
  174000   0.88037989   -2.3990042   -2.3990042   -1.6663964  0.020235014   -2.3990042   0.73260773  1255725 
  175000   0.88048438   -2.3987532   -2.3987532   -1.6660585  0.016264723   -2.3987532   0.73269469  1255725 
  176000   0.88023401   -2.3984736   -2.3984736   -1.6659872  0.025364729   -2.3984736   0.73248634  1255725 
  177000   0.88035367   -2.3987944   -2.3987944   -1.6662085  0.025392052   -2.3987944   0.73258592  1255725 
  178000   0.88133902   -2.3996714   -2.3996714   -1.6662655  0.018577588   -2.3996714   0.73340587  1255725 
  179000   0.88018288   -2.3991574   -2.3991574   -1.6667136  0.018801867   -2.3991574   0.73244379  1255725 
  180000   0.88094362   -2.3995379   -2.3995379   -1.6664611  0.018058216   -2.3995379   0.73307684  1255725 
  181000   0.88114695   -2.3995603   -2.3995603   -1.6663142  0.014274652   -2.3995603   0.73324604  1255725 
  182000   0.88032449    -2.399115    -2.399115   -1.6665533  0.012646155    -2.399115   0.73256163  1255725 
  183000   0.88081159   -2.3996263   -2.3996263   -1.6666594  0.019846714   -2.3996263   0.73296697  1255725 
  184000   0.88029882   -2.3994347   -2.3994347   -1.6668944  0.022073242   -2.3994347   0.73254027  1255725 
  185000   0.88029345   -2.3998929   -2.3998929   -1.6673571   0.01998176   -2.3998929    0.7325358  1255725 
  186000   0.87979204   -2.3993217   -2.3993217   -1.6672032  0.023895285   -2.3993217   0.73211856  1255725 
  187000   0.87918066    -2.398754    -2.398754   -1.6671443  0.029477038    -2.398754   0.73160979  1255725 
  188000   0.88001479   -2.3993615   -2.3993615   -1.6670576  0.023932169   -2.3993615   0.73230392  1255725 
  189000   0.87952719   -2.3988714   -2.3988714   -1.6669732  0.027682309   -2.3988714   0.73189816  1255725 
  190000   0.88053085   -2.3998189   -2.3998189   -1.6670856  0.027337751   -2.3998189   0.73273335  1255725 
  191000    0.8792548   -2.3991127   -2.3991127   -1.6674412  0.019336946   -2.3991127   0.73167149  1255725 
  192000   0.88119069    -2.400937    -2.400937   -1.6676546  0.027167677    -2.400937   0.73328244  1255725 
  193000   0.87992872    -2.399565    -2.399565   -1.6673327  0.026769165    -2.399565   0.73223229  1255725 
  194000   0.88140486   -2.4010762   -2.4010762   -1.6676155  0.021643044   -2.4010762   0.73346066  1255725 
  195000   0.87938558   -2.4000398   -2.4000398   -1.6682595  0.026660557   -2.4000398   0.73178032  1255725 
  196000   0.88027848   -2.4007607   -2.4007607   -1.6682373  0.022212561   -2.4007607   0.73252335  1255725 
  197000   0.87947575   -2.4001922   -2.4001922   -1.6683369   0.02884295   -2.4001922   0.73185536  1255725 
  198000   0.88120728   -2.4019656   -2.4019656   -1.6686693  0.022914314   -2.4019656   0.73329625  1255725 
  199000   0.88023094   -2.4013181   -2.4013181   -1.6688343  0.020746893   -2.4013181   0.73248379  1255725 
  200000   0.87997908   -2.4015364   -2.4015364   -1.6692622  0.022221275   -2.4015364    0.7322742  1255725 
  201000   0.87923627   -2.4011541   -2.4011541   -1.6694981  0.020723472   -2.4011541   0.73165607  1255725 
  202000   0.87933635   -2.4014182   -2.4014182   -1.6696789  0.023641904   -2.4014182   0.73173935  1255725 
  203000   0.87872007   -2.4007905   -2.4007905    -1.669564  0.029173342   -2.4007905   0.73122651  1255725 
  204000   0.88052629   -2.4024801   -2.4024801   -1.6697506  0.019026882   -2.4024801   0.73272956  1255725 
  205000   0.87952341   -2.4016829   -2.4016829   -1.6697879  0.035078488   -2.4016829   0.73189501  1255725 
  206000   0.87995149   -2.4019879   -2.4019879   -1.6697366  0.026347801   -2.4019879   0.73225124  1255725 
  207000   0.87955175   -2.4020438   -2.4020438   -1.6701252  0.026998785   -2.4020438    0.7319186  1255725 
  208000   0.87936985   -2.4019264   -2.4019264   -1.6701592  0.019276201   -2.4019264   0.73176723  1255725 
  209000   0.87932646   -2.4022685   -2.4022685   -1.6705374  0.026720059   -2.4022685   0.73173112  1255725 
  210000   0.87857318   -2.4021449   -2.4021449   -1.6710406  0.029382613   -2.4021449   0.73110428  1255725 
  211000   0.87925948    -2.402826    -2.402826   -1.6711506  0.020142223    -2.402826   0.73167539  1255725 
  212000   0.87857694   -2.4020836   -2.4020836   -1.6709762  0.031808955   -2.4020836   0.73110741  1255725 
  213000   0.87804513   -2.4015826   -2.4015826   -1.6709178  0.036497279   -2.4015826   0.73066486  1255725 
  214000   0.87923039   -2.4029345   -2.4029345   -1.6712834  0.028116477   -2.4029345   0.73165118  1255725 
  215000   0.87864493    -2.402337    -2.402337    -1.671173  0.025854327    -2.402337   0.73116399  1255725 
  216000   0.87882272   -2.4025025   -2.4025025   -1.6711905  0.025574214   -2.4025025   0.73131193  1255725 
  217000   0.87905383   -2.4023806   -2.4023806   -1.6708764  0.032515618   -2.4023806   0.73150425  1255725 
  218000   0.88044104   -2.4038552   -2.4038552   -1.6711966  0.030440265   -2.4038552   0.73265862  1255725 
  219000   0.87850646   -2.4026262   -2.4026262   -1.6715775  0.023319352   -2.4026262   0.73104876  1255725 
  220000   0.87897687   -2.4029103   -2.4029103     -1.67147  0.024957023   -2.4029103   0.73144021  1255725 
  221000   0.87890965   -2.4032558   -2.4032558   -1.6718715  0.017662475   -2.4032558   0.73138427  1255725 
  222000   0.87930011    -2.403464    -2.403464   -1.6717548  0.017670438    -2.403464    0.7317092  1255725 
  223000   0.87861245   -2.4030665   -2.4030665   -1.6719295   0.01238343   -2.4030665   0.73113696  1255725 
  224000   0.87906798   -2.4034038   -2.4034038   -1.6718877  0.024112161   -2.4034038   0.73151603  1255725 
  225000   0.87726852   -2.4017846   -2.4017846    -1.671766  0.018202042   -2.4017846   0.73001861  1255725 
  226000   0.87879246   -2.4033703   -2.4033703   -1.6720836  0.018611532   -2.4033703   0.73128675  1255725 
  227000   0.87894503   -2.4041369   -2.4041369   -1.6727232  0.020783877   -2.4041369   0.73141372  1255725 
  228000   0.87844172   -2.4034806   -2.4034806   -1.6724857  0.029795674   -2.4034806   0.73099489  1255725 
  229000   0.87829374   -2.4037751   -2.4037751   -1.6729034  0.029195661   -2.4037751   0.73087175  1255725 
  230000    0.8779367   -2.4034114   -2.4034114   -1.6728368  0.020683257   -2.4034114   0.73057464  1255725 
  231000    0.8788769   -2.4041899   -2.4041899   -1.6728329  0.022513136   -2.4041899   0.73135703  1255725 
  232000   0.87916859   -2.4043671   -2.4043671   -1.6727673  0.026979547   -2.4043671   0.73159975  1255725 
  233000   0.87922547   -2.4049265   -2.4049265   -1.6732794   0.01994406   -2.4049265   0.73164709  1255725 
  234000   0.87820443   -2.4040117   -2.4040117   -1.6732143   0.02806179   -2.4040117   0.73079743  1255725 
  235000   0.87734429   -2.4036642   -2.4036642   -1.6735826  0.027826617   -2.4036642   0.73008166  1255725 
  236000   0.87790406   -2.4042803   -2.4042803   -1.6737329  0.013628701   -2.4042803   0.73054747  1255725 
  237000   0.87787492   -2.4045549   -2.4045549   -1.6740316  0.023801466   -2.4045549   0.73052323  1255725 
  238000    0.8778235   -2.4052097   -2.4052097   -1.6747292  0.025413603   -2.4052097   0.73048043  1255725 
  239000   0.87848951   -2.4052985   -2.4052985   -1.6742639  0.016175862   -2.4052985   0.73103466  1255725 
  240000   0.87692424   -2.4040601   -2.4040601    -1.674328  0.024016531   -2.4040601   0.72973212  1255725 
  241000   0.87784147    -2.404769    -2.404769   -1.6742736  0.029713197    -2.404769   0.73049539  1255725 
  242000   0.87842211   -2.4052377   -2.4052377   -1.6742592  0.020770101   -2.4052377   0.73097857  1255725 
  243000   0.87845934   -2.4055946   -2.4055946    -1.674585   0.02558959   -2.4055946   0.73100955  1255725 
  244000   0.87741996   -2.4047305   -2.4047305   -1.6745858  0.027462701   -2.4047305   0.73014463  1255725 
  245000   0.87921518   -2.4064479   -2.4064479   -1.6748094  0.021502283   -2.4064479   0.73163852  1255725 
  246000    0.8775851   -2.4052216   -2.4052216   -1.6749395  0.042325988   -2.4052216   0.73028205  1255725 
  247000   0.87726358   -2.4052461   -2.4052461   -1.6752316  0.024259127   -2.4052461    0.7300145  1255725 
  248000   0.87773196    -2.405491    -2.405491   -1.6750868  0.025407317    -2.405491   0.73040426  1255725 
  249000   0.87755844   -2.4054601   -2.4054601   -1.6752002  0.031436296   -2.4054601   0.73025986  1255725 
  250000   0.87721502   -2.4053983   -2.4053983   -1.6754242  0.030294661   -2.4053983   0.72997409  1255725 
  251000   0.87724289   -2.4058106   -2.4058106   -1.6758133  0.025264591   -2.4058106   0.72999728  1255725 
  252000   0.87775336    -2.406326    -2.406326   -1.6759039  0.027836794    -2.406326   0.73042207  1255725 
  253000   0.87849523   -2.4068998   -2.4068998   -1.6758604   0.03306653   -2.4068998   0.73103942  1255725 
  254000    0.8776844   -2.4068689   -2.4068689   -1.6765042  0.023614754   -2.4068689   0.73036468  1255725 
  255000   0.87759169    -2.406642    -2.406642   -1.6763544    0.0265868    -2.406642   0.73028753  1255725 
  256000   0.87733377   -2.4061297   -2.4061297   -1.6760568  0.033070843   -2.4061297   0.73007291  1255725 
  257000   0.87742942   -2.4062789   -2.4062789   -1.6761264  0.031658823   -2.4062789    0.7301525  1255725 
  258000   0.87720957   -2.4062143   -2.4062143   -1.6762448  0.025627456   -2.4062143   0.72996955  1255725 
  259000   0.87690856   -2.4064284   -2.4064284   -1.6767093  0.017214043   -2.4064284   0.72971907  1255725 
  260000   0.87746016   -2.4068154   -2.4068154   -1.6766373  0.028374204   -2.4068154   0.73017808  1255725 
  261000   0.87638166   -2.4061083   -2.4061083   -1.6768276  0.027906363   -2.4061083   0.72928061  1255725 
  262000   0.87731955   -2.4067419   -2.4067419   -1.6766809  0.018881627   -2.4067419   0.73006108  1255725 
  263000   0.87684596   -2.4065001   -2.4065001   -1.6768332  0.033412632   -2.4065001   0.72966698  1255725 
  264000   0.87719695   -2.4066859   -2.4066859   -1.6767269  0.023252958   -2.4066859   0.72995905  1255725 
  265000   0.87747557   -2.4072144   -2.4072144   -1.6770235  0.026847428   -2.4072144    0.7301909  1255725 
  266000   0.87704407   -2.4073088   -2.4073088    -1.677477  0.021742688   -2.4073088   0.72983183  1255725 
  267000   0.87809707   -2.4081659   -2.4081659   -1.6774578  0.024723543   -2.4081659   0.73070809  1255725 
  268000   0.87631543   -2.4066219   -2.4066219   -1.6773964  0.017700664   -2.4066219   0.72922549  1255725 
  269000   0.87705667   -2.4072254   -2.4072254    -1.677383  0.025523004   -2.4072254   0.72984232  1255725 
  270000   0.87823588   -2.4078925   -2.4078925   -1.6770689  0.034050444   -2.4078925    0.7308236  1255725 
  271000   0.87680401   -2.4070109   -2.4070109   -1.6773789  0.019376728   -2.4070109   0.72963207  1255725 
  272000   0.87735797   -2.4077062   -2.4077062   -1.6776132  0.024506066   -2.4077062   0.73009305  1255725 
  273000   0.87706145   -2.4074429   -2.4074429   -1.6775966  0.028394117   -2.4074429   0.72984629  1255725 
  274000   0.87648651   -2.4071296   -2.4071296   -1.6777618  0.014996123   -2.4071296   0.72936786  1255725 
  275000   0.87654079   -2.4075491   -2.4075491   -1.6781361  0.026424812   -2.4075491   0.72941303  1255725 
  276000   0.87767944   -2.4083139   -2.4083139   -1.6779533  0.020483968   -2.4083139   0.73036056  1255725 
  277000   0.87664397   -2.4080711   -2.4080711   -1.6785722  0.023349153   -2.4080711   0.72949889  1255725 
  278000   0.87608778   -2.4077821   -2.4077821    -1.678746  0.031346303   -2.4077821   0.72903606  1255725 
  279000   0.87568196   -2.4078918   -2.4078918   -1.6791935  0.022269962   -2.4078918   0.72869835  1255725 
  280000    0.8765274   -2.4085345   -2.4085345   -1.6791326  0.022175116   -2.4085345   0.72940188  1255725 
  281000   0.87624948   -2.4084218   -2.4084218   -1.6792512  0.025197116   -2.4084218   0.72917062  1255725 
  282000   0.87630033   -2.4085526   -2.4085526   -1.6793397  0.028231684   -2.4085526   0.72921293  1255725 
  283000   0.87785831   -2.4100599   -2.4100599   -1.6795505  0.024337996   -2.4100599    0.7305094  1255725 
  284000   0.87608329   -2.4090132   -2.4090132   -1.6799809  0.028453971   -2.4090132   0.72903232  1255725 
  285000   0.87686891   -2.4098734   -2.4098734   -1.6801874  0.017787429   -2.4098734   0.72968607  1255725 
  286000   0.87631848   -2.4092587   -2.4092587   -1.6800307  0.027411233   -2.4092587   0.72922803  1255725 
  287000   0.87614741   -2.4088505   -2.4088505   -1.6797648  0.032905836   -2.4088505   0.72908568  1255725 
  288000   0.87710341   -2.4099657   -2.4099657   -1.6800845  0.028045063   -2.4099657   0.72988121  1255725 
  289000   0.87625984   -2.4089553   -2.4089553    -1.679776  0.025780733   -2.4089553   0.72917924  1255725 
  290000   0.87763522   -2.4097412   -2.4097412   -1.6794175  0.036582921   -2.4097412   0.73032375  1255725 
  291000   0.87733919   -2.4096448   -2.4096448   -1.6795673  0.021245282   -2.4096448   0.73007741  1255725 
  292000    0.8771052    -2.409584    -2.409584   -1.6797013  0.026782768    -2.409584    0.7298827  1255725 
  293000   0.87769935    -2.410246    -2.410246   -1.6798689  0.021605464    -2.410246   0.73037713  1255725 
  294000   0.87743593   -2.4102658   -2.4102658   -1.6801079  0.031404095   -2.4102658   0.73015792  1255725 
  295000   0.87538253     -2.40849     -2.40849   -1.6800408  0.024431201     -2.40849   0.72844918  1255725 
  296000   0.87585338   -2.4093952   -2.4093952   -1.6805542  0.022639385   -2.4093952     0.728841  1255725 
  297000   0.87573373   -2.4092408   -2.4092408   -1.6804994  0.020389632   -2.4092408   0.72874143  1255725 
  298000   0.87527385   -2.4090844   -2.4090844   -1.6807257  0.028111535   -2.4090844   0.72835875  1255725 
  299000   0.87546074   -2.4092013   -2.4092013    -1.680687  0.030048207   -2.4092013   0.72851426  1255725 
  300000   0.87541106   -2.4089196   -2.4089196   -1.6804467  0.018950716   -2.4089196   0.72847292  1255725 
  301000   0.87613437    -2.409224    -2.409224   -1.6801492  0.027639903    -2.409224   0.72907483  1255725 
  302000     0.876177   -2.4092803   -2.4092803     -1.68017  0.027598235   -2.4092803    0.7291103  1255725 
  303000   0.87600111   -2.4090423   -2.4090423   -1.6800784    0.0146628   -2.4090423   0.72896393  1255725 
  304000   0.87612565   -2.4095414   -2.4095414   -1.6804738  0.025601261   -2.4095414   0.72906757  1255725 
  305000   0.87640308   -2.4099528   -2.4099528   -1.6806543  0.020387736   -2.4099528   0.72929844  1255725 
  306000   0.87587102   -2.4096305   -2.4096305   -1.6807748  0.028916571   -2.4096305   0.72885568  1255725 
  307000   0.87600746   -2.4096957   -2.4096957   -1.6807265  0.021579224   -2.4096957   0.72896922  1255725 
  308000   0.87647838   -2.4098872   -2.4098872   -1.6805261  0.019189969   -2.4098872   0.72936109  1255725 
  309000    0.8757428   -2.4097581   -2.4097581   -1.6810091  0.023839784   -2.4097581   0.72874898  1255725 
  310000    0.8762812    -2.410207    -2.410207     -1.68101  0.020840341    -2.410207   0.72919701  1255725 
  311000   0.87543871   -2.4094676   -2.4094676   -1.6809717  0.029816077   -2.4094676   0.72849593  1255725 
  312000   0.87574377   -2.4097251   -2.4097251   -1.6809753  0.028190814   -2.4097251   0.72874979  1255725 
  313000   0.87623044   -2.4105588   -2.4105588   -1.6814041  0.029733185   -2.4105588   0.72915477  1255725 
  314000   0.87582932   -2.4103229   -2.4103229   -1.6815019  0.020602243   -2.4103229   0.72882098  1255725 
  315000   0.87539691   -2.4101519   -2.4101519   -1.6816908  0.022683122   -2.4101519   0.72846115  1255725 
  316000   0.87671615    -2.411385    -2.411385    -1.681826  0.033266158    -2.411385   0.72955895  1255725 
  317000   0.87551457   -2.4107297   -2.4107297   -1.6821706  0.017009511   -2.4107297   0.72855906  1255725 
  318000   0.87536109   -2.4106468   -2.4106468   -1.6822154  0.028434346   -2.4106468   0.72843134  1255725 
  319000   0.87487707   -2.4103801   -2.4103801   -1.6823516  0.014986913   -2.4103801   0.72802856  1255725 
  320000   0.87618539   -2.4109874   -2.4109874   -1.6818702  0.032704076   -2.4109874   0.72911729  1255725 
  321000   0.87487964   -2.4099397   -2.4099397    -1.681909  0.026811542   -2.4099397    0.7280307  1255725 
  322000   0.87715878   -2.4115978   -2.4115978   -1.6816706   0.01991819   -2.4115978   0.72992729  1255725 
  323000   0.87742574   -2.4117114   -2.4117114    -1.681562  0.024205442   -2.4117114   0.73014944  1255725 
  324000   0.87649038   -2.4111589   -2.4111589   -1.6817878  0.026977941   -2.4111589   0.72937108  1255725 
  325000   0.87546731   -2.4104367   -2.4104367    -1.681917  0.029980369   -2.4104367   0.72851973  1255725 
  326000   0.87513167   -2.4106335   -2.4106335   -1.6823931  0.022746535   -2.4106335   0.72824043  1255725 
  327000   0.87595775   -2.4113459   -2.4113459   -1.6824181  0.030959016   -2.4113459   0.72892785  1255725 
  328000   0.87594031   -2.4111172   -2.4111172   -1.6822039  0.021641398   -2.4111172   0.72891334  1255725 
  329000   0.87456916   -2.4105793   -2.4105793    -1.682807  0.027528759   -2.4105793   0.72777234  1255725 
  330000    0.8755556   -2.4114435   -2.4114435   -1.6828503  0.022480415   -2.4114435    0.7285932  1255725 
  331000     0.875355   -2.4113297   -2.4113297   -1.6829034  0.025729622   -2.4113297   0.72842627  1255725 
  332000   0.87461368   -2.4108895   -2.4108895   -1.6830801  0.024992596   -2.4108895   0.72780939  1255725 
  333000   0.87457295    -2.410796    -2.410796   -1.6830205  0.029312678    -2.410796   0.72777549  1255725 
  334000   0.87466085   -2.4108226   -2.4108226   -1.6829739  0.023632198   -2.4108226   0.72784864  1255725 
  335000   0.87476794   -2.4106332   -2.4106332   -1.6826954  0.026575957   -2.4106332   0.72793775  1255725 
  336000   0.87554948   -2.4118135   -2.4118135   -1.6832254  0.024342397   -2.4118135   0.72858811  1255725 
  337000   0.87508172    -2.411505    -2.411505   -1.6833062  0.017873616    -2.411505   0.72819887  1255725 
  338000   0.87553147    -2.411946    -2.411946   -1.6833729  0.013349384    -2.411946   0.72857312  1255725 
  339000    0.8740187   -2.4108437   -2.4108437   -1.6835294  0.021701687   -2.4108437   0.72731427  1255725 
  340000   0.87498003   -2.4117036   -2.4117036   -1.6835893  0.023466649   -2.4117036   0.72811424  1255725 
  341000   0.87521225   -2.4118044   -2.4118044    -1.683497  0.022050474   -2.4118044   0.72830749  1255725 
  342000   0.87656994    -2.412955    -2.412955   -1.6835177  0.027026319    -2.412955   0.72943729  1255725 
  343000   0.87581691    -2.412725    -2.412725   -1.6839144  0.021942947    -2.412725   0.72881065  1255725 
  344000   0.87580635   -2.4127052   -2.4127052   -1.6839033  0.019321653   -2.4127052   0.72880186  1255725 
  345000   0.87522484   -2.4122617   -2.4122617   -1.6839437  0.028939988   -2.4122617   0.72831796  1255725 
  346000   0.87512363   -2.4122826   -2.4122826   -1.6840489  0.037615548   -2.4122826   0.72823374  1255725 
  347000   0.87631451   -2.4134562   -2.4134562   -1.6842315  0.025853982   -2.4134562   0.72922473  1255725 
  348000   0.87467215   -2.4121186   -2.4121186   -1.6842605   0.02769474   -2.4121186   0.72785804  1255725 
  349000   0.87537898    -2.412762    -2.412762   -1.6843157  0.030787516    -2.412762   0.72844623  1255725 
  350000   0.87442184   -2.4117553   -2.4117553   -1.6841056  0.028452651   -2.4117553   0.72764975  1255725 
  351000   0.87513745    -2.412691    -2.412691   -1.6844458  0.032344715    -2.412691   0.72824524  1255725 
  352000   0.87484313   -2.4124257   -2.4124257   -1.6844254  0.031676386   -2.4124257   0.72800032  1255725 
  353000   0.87461867   -2.4123031   -2.4123031   -1.6844896  0.022366571   -2.4123031   0.72781354  1255725 
  354000    0.8754257   -2.4128669   -2.4128669   -1.6843818  0.025100676   -2.4128669   0.72848511  1255725 
  355000   0.87398204   -2.4121014   -2.4121014   -1.6848177  0.031114404   -2.4121014   0.72728377  1255725 
  356000   0.87423028   -2.4123498   -2.4123498   -1.6848595  0.029279019   -2.4123498   0.72749034  1255725 
  357000   0.87402877   -2.4123011   -2.4123011   -1.6849784  0.022051921   -2.4123011   0.72732265  1255725 
  358000   0.87363527    -2.411756    -2.411756   -1.6847608  0.013774776    -2.411756    0.7269952  1255725 
  359000   0.87433248   -2.4125637   -2.4125637   -1.6849883  0.025271555   -2.4125637   0.72757539  1255725 
  360000   0.87472143    -2.412628    -2.412628   -1.6847289  0.015476817    -2.412628   0.72789905  1255725 
  361000   0.87418607   -2.4123687   -2.4123687   -1.6849152  0.020105918   -2.4123687   0.72745355  1255725 
  362000   0.87431342   -2.4125949   -2.4125949   -1.6850354  0.016344441   -2.4125949   0.72755952  1255725 
  363000   0.87422854   -2.4122622   -2.4122622   -1.6847733  0.020346745   -2.4122622   0.72748889  1255725 
  364000   0.87413499   -2.4123896   -2.4123896   -1.6849785  0.025474022   -2.4123896   0.72741104  1255725 
  365000   0.87464939   -2.4129424   -2.4129424   -1.6851033  0.026190533   -2.4129424    0.7278391  1255725 
  366000   0.87501625   -2.4138138   -2.4138138   -1.6856694  0.023613589   -2.4138138   0.72814439  1255725 
  367000   0.87468259   -2.4137202   -2.4137202   -1.6858535   0.03267039   -2.4137202   0.72786673  1255725 
  368000    0.8740016   -2.4136555   -2.4136555   -1.6863554  0.028075126   -2.4136555   0.72730004  1255725 
  369000   0.87342526   -2.4134399   -2.4134399   -1.6866194  0.023191977   -2.4134399   0.72682044  1255725 
  370000   0.87510653   -2.4147655   -2.4147655    -1.686546  0.028699167   -2.4147655   0.72821951  1255725 
  371000   0.87472632   -2.4145072   -2.4145072   -1.6866041  0.026761561   -2.4145072   0.72790312  1255725 
  372000   0.87472251   -2.4144369   -2.4144369   -1.6865369  0.027829533   -2.4144369   0.72789995  1255725 
  373000   0.87450118    -2.414455    -2.414455   -1.6867392  0.032263336    -2.414455   0.72771576  1255725 
  374000   0.87390906   -2.4143888   -2.4143888   -1.6871658  0.028638277   -2.4143888   0.72722304  1255725 
  375000   0.87425174   -2.4143949   -2.4143949   -1.6868867  0.022663027   -2.4143949    0.7275082  1255725 
  376000   0.87551073   -2.4152774   -2.4152774   -1.6867215  0.027453579   -2.4152774   0.72855587  1255725 
  377000   0.87438854   -2.4143945   -2.4143945   -1.6867725  0.028023103   -2.4143945   0.72762203  1255725 
  378000   0.87397847   -2.4136251   -2.4136251   -1.6863443   0.02198157   -2.4136251    0.7272808  1255725 
  379000   0.87428892   -2.4141644   -2.4141644   -1.6866253  0.018351762   -2.4141644   0.72753913  1255725 
  380000   0.87349752   -2.4137127   -2.4137127   -1.6868321  0.032883348   -2.4137127   0.72688057  1255725 
  381000   0.87441227   -2.4142917   -2.4142917   -1.6866499  0.037619346   -2.4142917   0.72764178  1255725 
  382000   0.87353283   -2.4139828   -2.4139828   -1.6870729  0.030229212   -2.4139828   0.72690995  1255725 
  383000    0.8751775   -2.4151557   -2.4151557   -1.6868771  0.019718358   -2.4151557   0.72827856  1255725 
  384000   0.87518105   -2.4152781   -2.4152781   -1.6869965  0.020460804   -2.4152781   0.72828152  1255725 
  385000   0.87469017   -2.4149888   -2.4149888   -1.6871158  0.025913907   -2.4149888   0.72787304  1255725 
  386000   0.87278494    -2.413257    -2.413257   -1.6869694  0.026165791    -2.413257    0.7262876  1255725 
  387000    0.8736174   -2.4139727   -2.4139727   -1.6869923  0.025090797   -2.4139727   0.72698033  1255725 
  388000   0.87359272   -2.4138727   -2.4138727   -1.6869129  0.025826871   -2.4138727    0.7269598  1255725 
  389000   0.87410112   -2.4143466   -2.4143466   -1.6869637  0.025891321   -2.4143466   0.72738286  1255725 
  390000   0.87289992    -2.413271    -2.413271   -1.6868877  0.021304291    -2.413271   0.72638328  1255725 
  391000   0.87400923   -2.4145207   -2.4145207   -1.6872143  0.019718361   -2.4145207   0.72730639  1255725 
  392000   0.87347711   -2.4142346   -2.4142346   -1.6873711  0.026650581   -2.4142346   0.72686358  1255725 
  393000   0.87457915   -2.4152858   -2.4152858   -1.6875051  0.021503826   -2.4152858   0.72778065  1255725 
  394000   0.87313373   -2.4142916   -2.4142916   -1.6877138  0.029095171   -2.4142916   0.72657785  1255725 
  395000   0.87388548   -2.4154828   -2.4154828   -1.6882793  0.023048151   -2.4154828   0.72720342  1255725 
  396000    0.8740459   -2.4151699   -2.4151699   -1.6878329  0.023250848   -2.4151699    0.7273369  1255725 
  397000   0.87317042   -2.4146193   -2.4146193   -1.6880109  0.024408505   -2.4146193   0.72660838  1255725 
  398000   0.87369369   -2.4150758   -2.4150758    -1.688032  0.024971576   -2.4150758   0.72704382  1255725 
  399000   0.87403885   -2.4155053   -2.4155053   -1.6881743   0.03102347   -2.4155053   0.72733104  1255725 
  400000   0.87424854   -2.4155719   -2.4155719   -1.6880664  0.030411469   -2.4155719   0.72750553  1255725 
  401000   0.87423515   -2.4151962   -2.4151962   -1.6877018   0.02955185   -2.4151962   0.72749439  1255725 
  402000   0.87469408    -2.415305    -2.415305   -1.6874287  0.031535362    -2.415305   0.72787629  1255725 
  403000   0.87445266   -2.4154007   -2.4154007   -1.6877253  0.027874611   -2.4154007   0.72767539  1255725 
  404000   0.87395042   -2.4149087   -2.4149087   -1.6876513  0.024389071   -2.4149087   0.72725745  1255725 
  405000   0.87469395   -2.4159982   -2.4159982    -1.688122   0.02697648   -2.4159982   0.72787618  1255725 
  406000   0.87348773   -2.4151633   -2.4151633   -1.6882909  0.027139796   -2.4151633   0.72687243  1255725 
  407000   0.87401859   -2.4155757   -2.4155757   -1.6882616  0.031078155   -2.4155757   0.72731418  1255725 
  408000   0.87351411   -2.4151098   -2.4151098   -1.6882154  0.024069402   -2.4151098   0.72689438  1255725 
  409000    0.8723547   -2.4144936   -2.4144936   -1.6885641  0.023957689   -2.4144936   0.72592958  1255725 
  410000   0.87273852   -2.4150819   -2.4150819   -1.6888329  0.018409738   -2.4150819   0.72624897  1255725 
  411000    0.8730833   -2.4151819   -2.4151819    -1.688646   0.03059644   -2.4151819   0.72653588  1255725 
  412000   0.87382151   -2.4156073   -2.4156073   -1.6884571  0.027605206   -2.4156073   0.72715018  1255725 
  413000   0.87385333   -2.4157952   -2.4157952   -1.6886185   0.02161673   -2.4157952   0.72717666  1255725 
  414000    0.8726365   -2.4147194   -2.4147194   -1.6885553  0.027280087   -2.4147194   0.72616407  1255725 
  415000   0.87302246   -2.4149979   -2.4149979   -1.6885127   0.02252409   -2.4149979   0.72648525  1255725 
  416000   0.87359222   -2.4158101   -2.4158101   -1.6888507  0.025736671   -2.4158101   0.72695938  1255725 
  417000   0.87335718   -2.4155792   -2.4155792   -1.6888154  0.025349308   -2.4155792   0.72676379  1255725 
  418000   0.87370964   -2.4156192   -2.4156192   -1.6885621   0.03114296   -2.4156192   0.72705709  1255725 
  419000   0.87403593   -2.4157959   -2.4157959   -1.6884673  0.025278756   -2.4157959   0.72732861  1255725 
  420000   0.87441669   -2.4162578   -2.4162578   -1.6886123  0.020068259   -2.4162578   0.72764546  1255725 
  421000    0.8733204   -2.4154738   -2.4154738   -1.6887406  0.034129525   -2.4154738   0.72673318  1255725 
  422000   0.87477582    -2.416578    -2.416578   -1.6886337  0.029353345    -2.416578   0.72794431  1255725 
  423000    0.8737655   -2.4156194   -2.4156194   -1.6885158  0.025484491   -2.4156194   0.72710358  1255725 
  424000    0.8736481   -2.4158548   -2.4158548    -1.688849  0.026128929   -2.4158548   0.72700587  1255725 
  425000    0.8739469   -2.4162572   -2.4162572   -1.6890026  0.022546641   -2.4162572   0.72725453  1255725 
  426000   0.87372508   -2.4160385   -2.4160385   -1.6889686   0.02667079   -2.4160385   0.72706993  1255725 
  427000   0.87375136   -2.4162941   -2.4162941   -1.6892023  0.027305654   -2.4162941    0.7270918  1255725 
  428000   0.87364451   -2.4161297   -2.4161297   -1.6891268  0.017845119   -2.4161297   0.72700289  1255725 
  429000   0.87251865   -2.4157525   -2.4157525   -1.6896865  0.032298756   -2.4157525     0.726066  1255725 
  430000   0.87194703   -2.4156152   -2.4156152   -1.6900249   0.01719918   -2.4156152   0.72559033  1255725 
  431000   0.87298008   -2.4165817   -2.4165817   -1.6901317  0.028695242   -2.4165817   0.72644999  1255725 
  432000   0.87264109   -2.4168499   -2.4168499    -1.690682  0.035053674   -2.4168499   0.72616789  1255725 
  433000   0.87274667   -2.4165924   -2.4165924   -1.6903366  0.015205198   -2.4165924   0.72625575  1255725 
  434000   0.87312549   -2.4165844   -2.4165844   -1.6900134  0.026845924   -2.4165844   0.72657099  1255725 
  435000   0.87253065   -2.4161032   -2.4161032   -1.6900272  0.022468989   -2.4161032     0.726076  1255725 
  436000    0.8728367   -2.4159959   -2.4159959   -1.6896653  0.021836631   -2.4159959   0.72633067  1255725 
  437000   0.87357732   -2.4165439   -2.4165439   -1.6895969  0.024563821   -2.4165439   0.72694698  1255725 
  438000   0.87292072   -2.4162093   -2.4162093   -1.6898088  0.021834869   -2.4162093   0.72640059  1255725 
  439000   0.87313267   -2.4164559   -2.4164559   -1.6898789  0.021112082   -2.4164559   0.72657697  1255725 
  440000   0.87295854   -2.4158337   -2.4158337   -1.6894016  0.020741865   -2.4158337   0.72643206  1255725 
  441000   0.87429659   -2.4167794   -2.4167794   -1.6892339  0.013028634   -2.4167794   0.72754552  1255725 
  442000   0.87493031   -2.4171824   -2.4171824   -1.6891096  0.020403489   -2.4171824   0.72807287  1255725 
  443000   0.87355949   -2.4161759   -2.4161759   -1.6892438  0.022162772   -2.4161759   0.72693214  1255725 
  444000   0.87262662   -2.4160436   -2.4160436   -1.6898878   0.03453721   -2.4160436   0.72615585  1255725 
  445000   0.87266921   -2.4160654   -2.4160654   -1.6898741  0.023182872   -2.4160654   0.72619129  1255725 
  446000   0.87270303   -2.4161511   -2.4161511   -1.6899317  0.022761254   -2.4161511   0.72621944  1255725 
  447000   0.87216134   -2.4160099   -2.4160099   -1.6902413  0.023585105   -2.4160099   0.72576867  1255725 
  448000   0.87120514   -2.4153702   -2.4153702   -1.6903972   0.02164664   -2.4153702   0.72497297  1255725 
  449000   0.87383756   -2.4174843   -2.4174843   -1.6903207  0.023881891   -2.4174843   0.72716354  1255725 
  450000   0.87317514   -2.4168372   -2.4168372   -1.6902249  0.023566474   -2.4168372   0.72661231  1255725 
  451000   0.87315424   -2.4166781   -2.4166781   -1.6900832  0.029473039   -2.4166781   0.72659492  1255725 
  452000   0.87256049   -2.4165213   -2.4165213   -1.6904205  0.025557163   -2.4165213   0.72610083  1255725 
  453000   0.87248819      -2.4166      -2.4166   -1.6905593  0.029316254      -2.4166   0.72604066  1255725 
  454000   0.87379327   -2.4174274   -2.4174274   -1.6903007  0.033296975   -2.4174274   0.72712668  1255725 
  455000   0.87389521   -2.4178715   -2.4178715     -1.69066  0.026198815   -2.4178715   0.72721151  1255725 
  456000   0.87432424   -2.4180131   -2.4180131   -1.6904446  0.032158381   -2.4180131   0.72756853  1255725 
  457000   0.87431109   -2.4174661   -2.4174661   -1.6899086  0.030499865   -2.4174661   0.72755758  1255725 
  458000   0.87397908   -2.4173567   -2.4173567   -1.6900754  0.029770831   -2.4173567    0.7272813  1255725 
  459000   0.87346002   -2.4172492   -2.4172492   -1.6903998  0.031712623   -2.4172492   0.72684937  1255725 
  460000   0.87402902   -2.4177759   -2.4177759   -1.6904531  0.026481872   -2.4177759   0.72732286  1255725 
  461000   0.87242416   -2.4166522   -2.4166522   -1.6906648  0.031754022   -2.4166522   0.72598738  1255725 
  462000   0.87252589   -2.4169758   -2.4169758   -1.6909038  0.027596033   -2.4169758   0.72607204  1255725 
  463000    0.8734892   -2.4175451   -2.4175451   -1.6906714  0.029167792   -2.4175451   0.72687365  1255725 
  464000   0.87178506   -2.4165228   -2.4165228   -1.6910672  0.035647838   -2.4165228   0.72545555  1255725 
  465000   0.87294085   -2.4174744   -2.4174744   -1.6910571  0.018675852   -2.4174744   0.72641734  1255725 
  466000   0.87363375   -2.4181651   -2.4181651   -1.6911711  0.031057591   -2.4181651   0.72699394  1255725 
  467000   0.87344182   -2.4179632   -2.4179632    -1.691129  0.017735077   -2.4179632   0.72683422  1255725 
  468000   0.87203333   -2.4168669   -2.4168669   -1.6912048  0.027734338   -2.4168669   0.72566215  1255725 
  469000   0.87163016   -2.4169143   -2.4169143   -1.6915877  0.021209869   -2.4169143   0.72532665  1255725 
  470000   0.87092642   -2.4160862   -2.4160862   -1.6913451  0.027551685   -2.4160862   0.72474103  1255725 
  471000   0.87150008   -2.4165298   -2.4165298   -1.6913114  0.019343769   -2.4165298    0.7252184  1255725 
  472000   0.87250099   -2.4173974   -2.4173974   -1.6913461  0.022212609   -2.4173974   0.72605131  1255725 
  473000   0.87172912    -2.416733    -2.416733    -1.691324  0.011245081    -2.416733     0.725409  1255725 
  474000   0.87299624   -2.4178178   -2.4178178   -1.6913543   0.02459031   -2.4178178   0.72646343  1255725 
  475000   0.87362669   -2.4182624   -2.4182624   -1.6912744  0.033818585   -2.4182624   0.72698806  1255725 
  476000   0.87257901   -2.4175495   -2.4175495   -1.6914333  0.029862674   -2.4175495   0.72611624  1255725 
  477000   0.87350422    -2.418274    -2.418274   -1.6913879  0.036805962    -2.418274   0.72688615  1255725 
  478000   0.87336623   -2.4182379   -2.4182379   -1.6914666  0.033758776   -2.4182379   0.72677132  1255725 
  479000   0.87240377   -2.4178409   -2.4178409   -1.6918705  0.032011542   -2.4178409   0.72597041  1255725 
  480000   0.87282791   -2.4185587   -2.4185587   -1.6922354  0.026428648   -2.4185587   0.72632336  1255725 
  481000   0.87389881   -2.4192455   -2.4192455    -1.692031  0.027506605   -2.4192455    0.7272145  1255725 
  482000   0.87208411   -2.4177673   -2.4177673   -1.6920629  0.021057153   -2.4177673    0.7257044  1255725 
  483000   0.87356049   -2.4192826   -2.4192826   -1.6923497  0.028856609   -2.4192826   0.72693298  1255725 
  484000   0.87333273   -2.4188468   -2.4188468   -1.6921034  0.015785033   -2.4188468   0.72674344  1255725 
  485000   0.87130072   -2.4174643   -2.4174643   -1.6924118  0.032049178   -2.4174643   0.72505251  1255725 
  486000   0.87347422   -2.4192961   -2.4192961    -1.692435  0.017844505   -2.4192961   0.72686118  1255725 
  487000   0.87342552   -2.4192355   -2.4192355   -1.6924148  0.024049606   -2.4192355   0.72682066  1255725 
  488000   0.87210428   -2.4181605   -2.4181605   -1.6924393  0.021462823   -2.4181605   0.72572118  1255725 
  489000   0.87269435    -2.418743    -2.418743   -1.6925308  0.021924813    -2.418743   0.72621222  1255725 
  490000   0.87232318   -2.4185805   -2.4185805   -1.6926771  0.032387953   -2.4185805   0.72590334  1255725 
  491000   0.87232614   -2.4186804   -2.4186804   -1.6927746  0.038785204   -2.4186804   0.72590581  1255725 
  492000   0.87334534   -2.4195605   -2.4195605   -1.6928066  0.025722666   -2.4195605   0.72675393  1255725 
  493000    0.8724857   -2.4189208   -2.4189208   -1.6928822  0.032335588   -2.4189208   0.72603859  1255725 
  494000   0.87175637   -2.4183448   -2.4183448   -1.6929131  0.023774542   -2.4183448   0.72543167  1255725 
  495000   0.87116052   -2.4181679   -2.4181679    -1.693232  0.027652782   -2.4181679   0.72493584  1255725 
  496000   0.87062998   -2.4175258   -2.4175258   -1.6930315  0.023631594   -2.4175258   0.72449435  1255725 
  497000   0.87251228   -2.4190459   -2.4190459   -1.6929852  0.014290127   -2.4190459    0.7260607  1255725 
  498000   0.87218841   -2.4185015   -2.4185015   -1.6927103  0.023601131   -2.4185015    0.7257912  1255725 
  499000   0.87203655    -2.418443    -2.418443   -1.6927782  0.023563869    -2.418443   0.72566483  1255725 
  500000   0.87176983   -2.4178925   -2.4178925   -1.6924496  0.025976188   -2.4178925   0.72544288  1255725 
  501000   0.87190049   -2.4179619   -2.4179619   -1.6924103  0.024213386   -2.4179619   0.72555161  1255725 
  502000   0.87199934   -2.4176743   -2.4176743   -1.6920405  0.029859816   -2.4176743   0.72563386  1255725 
  503000   0.87277478   -2.4181506   -2.4181506   -1.6918715  0.026688429   -2.4181506   0.72627914  1255725 
  504000   0.87373519   -2.4187247   -2.4187247   -1.6916464  0.026744594   -2.4187247   0.72707835  1255725 
  505000   0.87267868   -2.4180514   -2.4180514   -1.6918522  0.031596281   -2.4180514   0.72619918  1255725 
  506000   0.87258126   -2.4180725   -2.4180725   -1.6919544  0.035099799   -2.4180725   0.72611811  1255725 
  507000   0.87254631   -2.4187578   -2.4187578   -1.6926688  0.025440109   -2.4187578   0.72608903  1255725 
  508000   0.87146769   -2.4176716   -2.4176716   -1.6924801   0.02910978   -2.4176716   0.72519145  1255725 
  509000   0.87250389   -2.4187182   -2.4187182   -1.6926645  0.026453721   -2.4187182   0.72605373  1255725 
  510000   0.87268527   -2.4191902   -2.4191902   -1.6929856  0.025520637   -2.4191902   0.72620466  1255725 
  511000   0.87361241      -2.4195      -2.4195   -1.6925238  0.023630446      -2.4195   0.72697618  1255725 
  512000    0.8715913   -2.4179252   -2.4179252   -1.6926309  0.031932457   -2.4179252   0.72529431  1255725 
  513000   0.87240595   -2.4185709   -2.4185709   -1.6925986  0.029352719   -2.4185709   0.72597222  1255725 
  514000   0.87233611   -2.4185325   -2.4185325   -1.6926184  0.016476342   -2.4185325   0.72591411  1255725 
  515000   0.87260594   -2.4187453   -2.4187453   -1.6926067  0.024225274   -2.4187453   0.72613864  1255725 
  516000   0.87195315   -2.4180404   -2.4180404    -1.692445  0.024163578   -2.4180404   0.72559542  1255725 
  517000   0.87224322   -2.4179811   -2.4179811   -1.6921443   0.01369935   -2.4179811   0.72583681  1255725 
  518000   0.87213608   -2.4181643   -2.4181643   -1.6924167  0.019382888   -2.4181643   0.72574765  1255725 
  519000   0.87159033    -2.418197    -2.418197   -1.6929035  0.024527654    -2.418197   0.72529351  1255725 
  520000   0.87214983   -2.4184739   -2.4184739   -1.6927148  0.036074578   -2.4184739   0.72575909  1255725 
  521000   0.87317016   -2.4191082   -2.4191082      -1.6925  0.024381633   -2.4191082   0.72660816  1255725 
  522000   0.87287107   -2.4184139   -2.4184139   -1.6920546  0.027718356   -2.4184139   0.72635928  1255725 
  523000   0.87212297   -2.4183168   -2.4183168   -1.6925801  0.029986303   -2.4183168   0.72573674  1255725 
  524000   0.87166914   -2.4178836   -2.4178836   -1.6925246  0.024683635   -2.4178836   0.72535909  1255725 
  525000   0.87093895   -2.4176226   -2.4176226   -1.6928712  0.030344864   -2.4176226   0.72475146  1255725 
  526000   0.87141465   -2.4180579   -2.4180579   -1.6929106  0.022882454   -2.4180579   0.72514731  1255725 
  527000   0.87149012   -2.4187064   -2.4187064   -1.6934963   0.02549787   -2.4187064   0.72521012  1255725 
  528000   0.87088242   -2.4181811   -2.4181811   -1.6934767  0.029853952   -2.4181811   0.72470442  1255725 
  529000   0.87048065   -2.4176225   -2.4176225   -1.6932524   0.02158952   -2.4176225   0.72437008  1255725 
  530000   0.87093159   -2.4182716   -2.4182716   -1.6935262  0.025617706   -2.4182716   0.72474534  1255725 
  531000   0.87182397   -2.4189602   -2.4189602   -1.6934722  0.021679541   -2.4189602   0.72548793  1255725 
  532000   0.87129046    -2.418535    -2.418535    -1.693491  0.028467533    -2.418535   0.72504397  1255725 
  533000   0.87180204   -2.4190007   -2.4190007    -1.693531  0.027744183   -2.4190007   0.72546968  1255725 
  534000   0.87119024   -2.4184715   -2.4184715   -1.6935109  0.024769297   -2.4184715   0.72496057  1255725 
  535000    0.8718988   -2.4194759   -2.4194759   -1.6939257  0.027584647   -2.4194759    0.7255502  1255725 
  536000   0.87245682   -2.4196912   -2.4196912   -1.6936766  0.021277804   -2.4196912   0.72601455  1255725 
  537000    0.8715734   -2.4190866   -2.4190866   -1.6938072  0.032814513   -2.4190866   0.72527942  1255725 
  538000   0.87128198   -2.4191667   -2.4191667   -1.6941298  0.038805706   -2.4191667   0.72503692  1255725 
  539000   0.87127078   -2.4191315   -2.4191315   -1.6941039  0.030433413   -2.4191315   0.72502759  1255725 
  540000   0.87125713    -2.418831    -2.418831   -1.6938148  0.016643724    -2.418831   0.72501624  1255725 
  541000   0.87214087   -2.4196648   -2.4196648   -1.6939132  0.032203632   -2.4196648   0.72575163  1255725 
  542000   0.87249703   -2.4200346   -2.4200346   -1.6939866    0.0327773   -2.4200346   0.72604802  1255725 
  543000   0.87196435   -2.4199361   -2.4199361   -1.6943313  0.029420157   -2.4199361   0.72560475  1255725 
  544000   0.87209523   -2.4198383   -2.4198383   -1.6941246  0.037140004   -2.4198383   0.72571366  1255725 
  545000   0.87008615   -2.4184682   -2.4184682   -1.6944264  0.029669668   -2.4184682    0.7240418  1255725 
  546000   0.87063413   -2.4188313   -2.4188313   -1.6943335   0.02717675   -2.4188313   0.72449781  1255725 
  547000   0.87138953   -2.4199082   -2.4199082   -1.6947817  0.021653246   -2.4199082   0.72512641  1255725 
  548000   0.86996853   -2.4187654   -2.4187654   -1.6948215  0.024765473   -2.4187654   0.72394393  1255725 
  549000   0.87097275   -2.4190132   -2.4190132   -1.6942336  0.032057296   -2.4190132   0.72477959  1255725 
  550000   0.87164611   -2.4195011   -2.4195011   -1.6941612  0.035701483   -2.4195011   0.72533993  1255725 
  551000   0.87236547   -2.4197317   -2.4197317   -1.6937932  0.023224419   -2.4197317   0.72593853  1255725 
  552000   0.87235583   -2.4200301   -2.4200301   -1.6940996  0.027272074   -2.4200301   0.72593051  1255725 
  553000    0.8723641   -2.4200236   -2.4200236   -1.6940862  0.029024249   -2.4200236    0.7259374  1255725 
  554000   0.87033938   -2.4187023   -2.4187023   -1.6944498  0.030883121   -2.4187023   0.72425253  1255725 
  555000   0.87221649   -2.4201677   -2.4201677   -1.6943531   0.02541324   -2.4201677   0.72581456  1255725 
  556000   0.87202177   -2.4201905   -2.4201905   -1.6945379  0.023333962   -2.4201905   0.72565253  1255725 
  557000   0.87106155   -2.4190877   -2.4190877   -1.6942342  0.026991845   -2.4190877   0.72485348  1255725 
  558000   0.87223357   -2.4198546   -2.4198546   -1.6940258  0.022378899   -2.4198546   0.72582877  1255725 
  559000   0.87161673   -2.4192679   -2.4192679   -1.6939524  0.024531091   -2.4192679   0.72531547  1255725 
  560000   0.87176059   -2.4193892   -2.4193892    -1.693954  0.027011172   -2.4193892   0.72543519  1255725 
  561000   0.87043931   -2.4185182   -2.4185182   -1.6941825  0.023879483   -2.4185182   0.72433568  1255725 
  562000    0.8712065   -2.4192961   -2.4192961   -1.6943221  0.025192782   -2.4192961    0.7249741  1255725 
  563000   0.87007345   -2.4185407   -2.4185407   -1.6945095  0.019298992   -2.4185407   0.72403124  1255725 
  564000    0.8703486   -2.4187922   -2.4187922    -1.694532  0.019888962   -2.4187922    0.7242602  1255725 
  565000   0.87029738   -2.4188261   -2.4188261   -1.6946085  0.020601587   -2.4188261   0.72421758  1255725 
  566000   0.87053227   -2.4189343   -2.4189343   -1.6945213  0.021914007   -2.4189343   0.72441304  1255725 
  567000   0.87154729   -2.4194365   -2.4194365   -1.6941788  0.026773237   -2.4194365   0.72525769  1255725 
  568000   0.87081351   -2.4191586   -2.4191586   -1.6945116  0.024946781   -2.4191586   0.72464708  1255725 
  569000   0.87134565   -2.4198379   -2.4198379    -1.694748  0.030635472   -2.4198379   0.72508989  1255725 
  570000   0.87097089   -2.4195587   -2.4195587   -1.6947807  0.023014302   -2.4195587   0.72477804  1255725 
  571000   0.87162253   -2.4197743   -2.4197743    -1.694454  0.036981522   -2.4197743    0.7253203  1255725 
  572000   0.87120824   -2.4193985   -2.4193985   -1.6944229  0.033620917   -2.4193985   0.72497555  1255725 
  573000   0.87081847   -2.4194821   -2.4194821   -1.6948309  0.028478824   -2.4194821    0.7246512  1255725 
  574000    0.8712301   -2.4201074   -2.4201074   -1.6951136  0.024129376   -2.4201074   0.72499374  1255725 
  575000   0.87148879    -2.419845    -2.419845    -1.694636   0.02293794    -2.419845   0.72520901  1255725 
  576000   0.87148863   -2.4200361   -2.4200361   -1.6948273   0.02213378   -2.4200361   0.72520888  1255725 
  577000   0.87199203   -2.4205358   -2.4205358    -1.694908  0.034998877   -2.4205358   0.72562778  1255725 
  578000   0.87072551   -2.4192829   -2.4192829   -1.6947091  0.023372491   -2.4192829   0.72457385  1255725 
  579000   0.87052734   -2.4192279   -2.4192279    -1.694819  0.027895239   -2.4192279   0.72440894  1255725 
  580000   0.87086766   -2.4194431   -2.4194431    -1.694751  0.032960781   -2.4194431   0.72469213  1255725 
  581000   0.87094721   -2.4195481   -2.4195481   -1.6947898  0.019382997   -2.4195481   0.72475833  1255725 
  582000   0.87128973   -2.4199912   -2.4199912   -1.6949478   0.02604712   -2.4199912   0.72504336  1255725 
  583000   0.87129222   -2.4198264   -2.4198264    -1.694781  0.025244345   -2.4198264   0.72504544  1255725 
  584000   0.87097511   -2.4197023   -2.4197023   -1.6949207  0.027290408   -2.4197023   0.72478155  1255725 
  585000   0.87054799   -2.4193183   -2.4193183   -1.6948921  0.026458788   -2.4193183   0.72442612  1255725 
  586000   0.86943733   -2.4184914   -2.4184914   -1.6949895  0.034700548   -2.4184914   0.72350189  1255725 
  587000   0.87207556   -2.4207219   -2.4207219   -1.6950247   0.02348174   -2.4207219   0.72569729  1255725 
  588000    0.8701913   -2.4190389   -2.4190389   -1.6949096  0.019101238   -2.4190389   0.72412931  1255725 
  589000   0.86913413   -2.4181318   -2.4181318   -1.6948823  0.038217465   -2.4181318   0.72324958  1255725 
  590000   0.87056694   -2.4195694   -2.4195694   -1.6951275  0.028555179   -2.4195694   0.72444189  1255725 
  591000   0.87083856   -2.4198531   -2.4198531   -1.6951852  0.021835729   -2.4198531   0.72466792  1255725 
  592000   0.87057367    -2.419291    -2.419291   -1.6948435  0.026710595    -2.419291   0.72444749  1255725 
  593000   0.87040316   -2.4190924   -2.4190924   -1.6947868  0.020152744   -2.4190924    0.7243056  1255725 
  594000   0.87027127   -2.4192041   -2.4192041   -1.6950082  0.025333939   -2.4192041   0.72419585  1255725 
  595000   0.87077728   -2.4197419   -2.4197419    -1.695125  0.022351883   -2.4197419   0.72461693  1255725 
  596000   0.87040799   -2.4198167   -2.4198167   -1.6955071  0.037564883   -2.4198167   0.72430962  1255725 
  597000   0.87187951   -2.4210465   -2.4210465   -1.6955123  0.023692448   -2.4210465   0.72553415  1255725 
  598000   0.87111392   -2.4201081   -2.4201081    -1.695211  0.028145462   -2.4201081   0.72489706  1255725 
  599000    0.8708609   -2.4200246   -2.4200246   -1.6953381  0.018760286   -2.4200246   0.72468651  1255725 
  600000    0.8722654   -2.4210225   -2.4210225   -1.6951672  0.022923547   -2.4210225   0.72585527  1255725 
  601000   0.87175713   -2.4204823   -2.4204823     -1.69505  0.020333344   -2.4204823   0.72543231  1255725 
  602000   0.87073209   -2.4196024   -2.4196024   -1.6950231  0.038143468   -2.4196024   0.72457932  1255725 
  603000   0.87145168   -2.4202434   -2.4202434   -1.6950653  0.034815061   -2.4202434   0.72517813  1255725 
  604000   0.87181664   -2.4204733   -2.4204733   -1.6949914  0.037285204   -2.4204733   0.72548183  1255725 
  605000    0.8707406   -2.4196325   -2.4196325   -1.6950461  0.030605041   -2.4196325    0.7245864  1255725 
  606000   0.87081112   -2.4196632   -2.4196632   -1.6950181   0.02845665   -2.4196632   0.72464508  1255725 
  607000    0.8722461   -2.4209728   -2.4209728   -1.6951336  0.020559258   -2.4209728    0.7258392  1255725 
  608000   0.87067675   -2.4191831   -2.4191831   -1.6946499  0.025983168   -2.4191831   0.72453327  1255725 
  609000   0.86955484   -2.4186102   -2.4186102   -1.6950105  0.014976715   -2.4186102   0.72359968  1255725 
  610000   0.86923797   -2.4187182   -2.4187182   -1.6953822  0.028300588   -2.4187182   0.72333599  1255725 
  611000    0.8701481    -2.419692    -2.419692   -1.6955986  0.024506979    -2.419692   0.72409336  1255725 
  612000   0.86979314   -2.4189125   -2.4189125   -1.6951145  0.023017241   -2.4189125   0.72379797  1255725 
  613000   0.87062398   -2.4194347   -2.4194347   -1.6949454  0.016203099   -2.4194347   0.72448936  1255725 
  614000   0.86924292   -2.4183709   -2.4183709   -1.6950308  0.020226282   -2.4183709   0.72334011  1255725 
  615000   0.86946171   -2.4190321   -2.4190321     -1.69551  0.015361653   -2.4190321   0.72352218  1255725 
  616000   0.87020207   -2.4194302   -2.4194302    -1.695292   0.02733514   -2.4194302   0.72413827  1255725 
  617000   0.87038945   -2.4191322   -2.4191322    -1.694838  0.023579813   -2.4191322   0.72429419  1255725 
  618000   0.86955324   -2.4184894   -2.4184894    -1.694891  0.036303559   -2.4184894   0.72359834  1255725 
  619000   0.87030952   -2.4191738   -2.4191738   -1.6949462  0.023340301   -2.4191738   0.72422768  1255725 
  620000   0.86961651   -2.4188152   -2.4188152   -1.6951642  0.020704334   -2.4188152   0.72365099  1255725 
  621000   0.86999077   -2.4190849   -2.4190849   -1.6951224  0.030182601   -2.4190849   0.72396243  1255725 
  622000    0.8705699   -2.4197289   -2.4197289   -1.6952845   0.02579719   -2.4197289   0.72444435  1255725 
  623000   0.87050295   -2.4194588   -2.4194588   -1.6950702  0.031281583   -2.4194588   0.72438864  1255725 
  624000   0.86984645     -2.41876     -2.41876   -1.6949176  0.034873724     -2.41876   0.72384233  1255725 
  625000   0.87140125   -2.4201675   -2.4201675   -1.6950314  0.021005161   -2.4201675   0.72513616  1255725 
  626000   0.87139921    -2.420348    -2.420348   -1.6952136  0.032647958    -2.420348   0.72513447  1255725 
  627000   0.87039897   -2.4195258   -2.4195258   -1.6952237  0.030168042   -2.4195258   0.72430212  1255725 
  628000   0.87106733   -2.4199225   -2.4199225   -1.6950642  0.035767815   -2.4199225   0.72485829  1255725 
  629000   0.87136171   -2.4202668   -2.4202668   -1.6951636  0.027264677   -2.4202668   0.72510326  1255725 
  630000   0.86970313   -2.4192801   -2.4192801   -1.6955571  0.028100104   -2.4192801   0.72372307  1255725 
  631000   0.87065874   -2.4201755   -2.4201755   -1.6956572  0.030204016   -2.4201755   0.72451828  1255725 
  632000   0.87008525   -2.4198452   -2.4198452   -1.6958042  0.026062372   -2.4198452   0.72404105  1255725 
  633000   0.87012194   -2.4196562   -2.4196562   -1.6955846  0.028378415   -2.4196562   0.72407158  1255725 
  634000   0.86950433   -2.4193944   -2.4193944   -1.6958367  0.030187148   -2.4193944   0.72355765  1255725 
  635000   0.87022481   -2.4199823   -2.4199823   -1.6958251  0.033180577   -2.4199823   0.72415719  1255725 
  636000   0.87081613   -2.4203542   -2.4203542   -1.6957049  0.027538949   -2.4203542   0.72464925  1255725 
  637000   0.87033648   -2.4197491   -2.4197491    -1.695499  0.026339375   -2.4197491   0.72425012  1255725 
  638000   0.87131382   -2.4202717   -2.4202717   -1.6952083   0.02888502   -2.4202717   0.72506341  1255725 
  639000   0.87112453   -2.4201454   -2.4201454   -1.6952395  0.028480394   -2.4201454   0.72490589  1255725 
  640000   0.87099753   -2.4202456   -2.4202456   -1.6954454  0.029440115   -2.4202456    0.7248002  1255725 
  641000   0.86937362   -2.4192297   -2.4192297   -1.6957808  0.039056526   -2.4192297   0.72344887  1255725 
  642000    0.8697742   -2.4194848   -2.4194848   -1.6957026  0.029391073   -2.4194848   0.72378222  1255725 
  643000   0.87048163   -2.4199759   -2.4199759    -1.695605  0.024507029   -2.4199759    0.7243709  1255725 
  644000   0.87067574   -2.4202051   -2.4202051   -1.6956726  0.028666871   -2.4202051   0.72453243  1255725 
  645000   0.87072522   -2.4200155   -2.4200155   -1.6954419  0.019885467   -2.4200155   0.72457361  1255725 
  646000   0.87085434   -2.4200203   -2.4200203   -1.6953393  0.028065683   -2.4200203   0.72468105  1255725 
  647000   0.87045987   -2.4194005   -2.4194005   -1.6950477   0.03032542   -2.4194005    0.7243528  1255725 
  648000   0.87103064   -2.4202364   -2.4202364   -1.6954087  0.024092661   -2.4202364   0.72482776  1255725 
  649000   0.87172221   -2.4206445   -2.4206445   -1.6952413  0.024852592   -2.4206445   0.72540325  1255725 
  650000   0.87064035   -2.4196769   -2.4196769   -1.6951739  0.029622619   -2.4196769   0.72450298  1255725 
  651000   0.87109205    -2.419834    -2.419834   -1.6949551  0.027314355    -2.419834   0.72487886  1255725 
  652000   0.87116295   -2.4198061   -2.4198061   -1.6948682  0.029394768   -2.4198061   0.72493786  1255725 
  653000   0.87021773   -2.4193405   -2.4193405   -1.6951892  0.022378594   -2.4193405    0.7241513  1255725 
  654000   0.87064507   -2.4197928   -2.4197928   -1.6952859    0.0231665   -2.4197928    0.7245069  1255725 
  655000    0.8713311   -2.4203111   -2.4203111   -1.6952333  0.021666024   -2.4203111   0.72507779  1255725 
  656000   0.87026552   -2.4197893   -2.4197893   -1.6955983  0.024070433   -2.4197893   0.72419106  1255725 
  657000   0.87041988   -2.4199363   -2.4199363   -1.6956168  0.033612458   -2.4199363   0.72431951  1255725 
  658000   0.86968893   -2.4193404   -2.4193404   -1.6956292  0.032826591   -2.4193404   0.72371126  1255725 
  659000   0.86911082   -2.4187496   -2.4187496   -1.6955194   0.03175869   -2.4187496   0.72323018  1255725 
  660000   0.87082695   -2.4203265   -2.4203265   -1.6956683   0.02958239   -2.4203265   0.72465826  1255725 
  661000   0.86990067   -2.4196577   -2.4196577   -1.6957702  0.028570143   -2.4196577   0.72388745  1255725 
  662000   0.86940811   -2.4194301   -2.4194301   -1.6959526  0.031909586   -2.4194301   0.72347757  1255725 
  663000   0.87088145   -2.4209083   -2.4209083   -1.6962047  0.028289089   -2.4209083   0.72470361  1255725 
  664000   0.87069469   -2.4205171   -2.4205171   -1.6959689  0.025578203   -2.4205171    0.7245482  1255725 
  665000   0.87113689   -2.4207271   -2.4207271   -1.6958109  0.026695261   -2.4207271   0.72491617  1255725 
  666000   0.87170306   -2.4209001   -2.4209001   -1.6955128  0.034816772   -2.4209001   0.72538731  1255725 
  667000   0.86996731   -2.4196848   -2.4196848   -1.6957419  0.027050333   -2.4196848   0.72394291  1255725 
  668000   0.87112009   -2.4201715   -2.4201715   -1.6952693  0.030434738   -2.4201715   0.72490219  1255725 
  669000   0.87066898   -2.4199396   -2.4199396   -1.6954128  0.027310657   -2.4199396   0.72452681  1255725 
  670000   0.87069137   -2.4198932   -2.4198932   -1.6953478  0.029190787   -2.4198932   0.72454543  1255725 
  671000   0.87110888   -2.4203053   -2.4203053   -1.6954124  0.029152992   -2.4203053   0.72489286  1255725 
  672000   0.87056914   -2.4198326   -2.4198326   -1.6953889  0.028623497   -2.4198326   0.72444372  1255725 
  673000   0.87174064   -2.4207805   -2.4207805   -1.6953619  0.021112957   -2.4207805   0.72541859  1255725 
  674000   0.87008576   -2.4194092   -2.4194092   -1.6953677  0.018679136   -2.4194092   0.72404148  1255725 
  675000   0.86978715   -2.4193449   -2.4193449   -1.6955519  0.036521209   -2.4193449   0.72379299  1255725 
  676000   0.86957619   -2.4193052   -2.4193052   -1.6956877  0.026122143   -2.4193052   0.72361744  1255725 
  677000   0.87049471   -2.4204291   -2.4204291   -1.6960473  0.023453175   -2.4204291   0.72438178  1255725 
  678000   0.86992925    -2.419997    -2.419997   -1.6960858  0.028964974    -2.419997   0.72391124  1255725 
  679000   0.86958613   -2.4198906   -2.4198906   -1.6962649  0.028887065   -2.4198906   0.72362571  1255725 
  680000   0.86907462   -2.4192831   -2.4192831   -1.6960831  0.028448386   -2.4192831   0.72320006  1255725 
  681000   0.86873395   -2.4189875   -2.4189875   -1.6960709  0.024505713   -2.4189875   0.72291657  1255725 
  682000   0.86993867    -2.419357    -2.419357   -1.6954379  0.024422834    -2.419357   0.72391908  1255725 
  683000   0.86987634   -2.4193276   -2.4193276   -1.6954604  0.030784544   -2.4193276   0.72386721  1255725 
  684000   0.87117166   -2.4203648   -2.4203648   -1.6954197  0.040800626   -2.4203648   0.72494511  1255725 
  685000   0.87063174   -2.4198556   -2.4198556   -1.6953598  0.028600525   -2.4198556   0.72449582  1255725 
  686000   0.87138211   -2.4200384   -2.4200384   -1.6949182  0.030126094   -2.4200384   0.72512024  1255725 
  687000   0.87088244    -2.419947    -2.419947   -1.6952425  0.031136159    -2.419947   0.72470444  1255725 
  688000   0.87229817   -2.4212894   -2.4212894   -1.6954069  0.029996531   -2.4212894   0.72588253  1255725 
  689000   0.86976762   -2.4196157   -2.4196157    -1.695839  0.029306665   -2.4196157   0.72377674  1255725 
  690000   0.87077105   -2.4200872   -2.4200872   -1.6954755  0.036671004   -2.4200872   0.72461174  1255725 
  691000   0.86959249   -2.4196784   -2.4196784   -1.6960474  0.027168553   -2.4196784     0.723631  1255725 
  692000   0.86882396   -2.4191975   -2.4191975    -1.696206  0.031291228   -2.4191975   0.72299147  1255725 
  693000   0.86926219   -2.4195502   -2.4195502   -1.6961941  0.030932087   -2.4195502   0.72335615  1255725 
  694000    0.8703006   -2.4202819   -2.4202819   -1.6960617  0.026590641   -2.4202819   0.72422026  1255725 
  695000   0.87031509   -2.4200303   -2.4200303    -1.695798  0.034878323   -2.4200303   0.72423232  1255725 
  696000   0.87143922   -2.4208339   -2.4208339   -1.6956662  0.039144246   -2.4208339   0.72516776  1255725 
  697000   0.86961988   -2.4194633   -2.4194633   -1.6958095  0.029674388   -2.4194633    0.7236538  1255725 
  698000   0.87157893   -2.4208922   -2.4208922   -1.6956082  0.027831199   -2.4208922   0.72528402  1255725 
  699000   0.87003819   -2.4193647   -2.4193647   -1.6953628   0.02895477   -2.4193647   0.72400189  1255725 
  700000   0.87090385   -2.4203003   -2.4203003   -1.6955781  0.030663784   -2.4203003   0.72472225  1255725 
  701000   0.87052368   -2.4200458   -2.4200458   -1.6956399  0.028922283   -2.4200458   0.72440589  1255725 
  702000   0.87034833   -2.4200752   -2.4200752   -1.6958152  0.028748155   -2.4200752   0.72425998  1255725 
  703000   0.87074559   -2.4201635   -2.4201635    -1.695573  0.025224585   -2.4201635   0.72459056  1255725 
  704000   0.86985626   -2.4191166   -2.4191166   -1.6952661  0.034419491   -2.4191166    0.7238505  1255725 
  705000   0.87115947   -2.4204379   -2.4204379    -1.695503  0.025881977   -2.4204379   0.72493496  1255725 
  706000   0.87036506   -2.4201759   -2.4201759    -1.695902  0.030337114   -2.4201759    0.7242739  1255725 
  707000   0.86907436    -2.418984    -2.418984   -1.6957842  0.023490541    -2.418984   0.72319984  1255725 
  708000   0.87057065   -2.4199211   -2.4199211   -1.6954762  0.023775667   -2.4199211   0.72444498  1255725 
  709000    0.8701091   -2.4199348   -2.4199348   -1.6958739  0.031671839   -2.4199348    0.7240609  1255725 
  710000   0.86956755   -2.4197047   -2.4197047   -1.6960944  0.031992882   -2.4197047   0.72361025  1255725 
  711000   0.87129492   -2.4210024   -2.4210024   -1.6959547  0.019087618   -2.4210024   0.72504768  1255725 
  712000   0.87115384   -2.4207433   -2.4207433    -1.695813  0.023116262   -2.4207433   0.72493028  1255725 
  713000   0.87016274    -2.420191    -2.420191   -1.6960855  0.035321108    -2.420191   0.72410554  1255725 
  714000   0.87116727   -2.4208725   -2.4208725   -1.6959311  0.038986965   -2.4208725   0.72494145  1255725 
  715000   0.86963136    -2.419584    -2.419584   -1.6959206  0.040354269    -2.419584   0.72366335  1255725 
  716000   0.87126474   -2.4206322   -2.4206322   -1.6956097  0.034745652   -2.4206322   0.72502256  1255725 
  717000   0.87077377   -2.4201161   -2.4201161   -1.6955021  0.029426554   -2.4201161   0.72461401  1255725 
  718000   0.87047176    -2.419785    -2.419785   -1.6954224  0.023177204    -2.419785   0.72436269  1255725 
  719000    0.8714765   -2.4209394   -2.4209394   -1.6957407  0.019672429   -2.4209394   0.72519878  1255725 
  720000   0.87012963   -2.4197047   -2.4197047   -1.6956267  0.026054269   -2.4197047   0.72407799  1255725 
  721000   0.87111449   -2.4206144   -2.4206144   -1.6957169  0.031775009   -2.4206144   0.72489754  1255725 
  722000   0.87145069     -2.42052     -2.42052   -1.6953427  0.031035208     -2.42052    0.7251773  1255725 
  723000   0.87096111   -2.4204025   -2.4204025   -1.6956326  0.018224553   -2.4204025    0.7247699  1255725 
  724000   0.87099073   -2.4202536   -2.4202536    -1.695459  0.033461063   -2.4202536   0.72479455  1255725 
  725000    0.8712656   -2.4203385   -2.4203385   -1.6953152   0.02694775   -2.4203385   0.72502328  1255725 
  726000   0.87094607   -2.4198429   -2.4198429   -1.6950855   0.02417968   -2.4198429   0.72475738  1255725 
  727000   0.86940391   -2.4187433   -2.4187433   -1.6952692  0.026508875   -2.4187433   0.72347408  1255725 
  728000    0.8706216   -2.4201659   -2.4201659   -1.6956785  0.024112233   -2.4201659   0.72448738  1255725 
  729000   0.87025821   -2.4197102   -2.4197102   -1.6955252  0.025161197   -2.4197102   0.72418498  1255725 
  730000   0.87086132   -2.4204808   -2.4204808   -1.6957939   0.02383268   -2.4204808   0.72468686  1255725 
  731000   0.86980645   -2.4194737   -2.4194737   -1.6956647  0.029800153   -2.4194737   0.72380905  1255725 
  732000   0.87017125   -2.4198228   -2.4198228   -1.6957102  0.026910057   -2.4198228   0.72411262  1255725 
  733000   0.87050184   -2.4199669   -2.4199669   -1.6955791  0.033197557   -2.4199669   0.72438772  1255725 
  734000   0.87015089   -2.4197289   -2.4197289   -1.6956332  0.025975431   -2.4197289   0.72409568  1255725 
  735000   0.87104014   -2.4204363   -2.4204363   -1.6956006  0.028838171   -2.4204363   0.72483566  1255725 
  736000   0.87155598   -2.4204285   -2.4204285   -1.6951636  0.029767204   -2.4204285   0.72526492  1255725 
  737000   0.86935628   -2.4187982   -2.4187982   -1.6953638  0.038174296   -2.4187982   0.72343444  1255725 
  738000   0.87126427   -2.4205316   -2.4205316   -1.6955094  0.033136011   -2.4205316   0.72502217  1255725 
  739000   0.87140745   -2.4204304   -2.4204304   -1.6952891  0.036766411   -2.4204304   0.72514132  1255725 
  740000   0.87090837   -2.4197364   -2.4197364   -1.6950103  0.034924972   -2.4197364   0.72472601  1255725 
  741000   0.87142997   -2.4196446   -2.4196446   -1.6944845  0.029042033   -2.4196446   0.72516006  1255725 
  742000    0.8719198   -2.4200115   -2.4200115   -1.6944438  0.027252096   -2.4200115   0.72556767  1255725 
  743000   0.87047402    -2.419483    -2.419483   -1.6951185  0.017206209    -2.419483   0.72436457  1255725 
  744000    0.8698808   -2.4192797   -2.4192797   -1.6954087  0.031398312   -2.4192797   0.72387092  1255725 
  745000   0.87157942   -2.4200896   -2.4200896   -1.6948052  0.019821249   -2.4200896   0.72528442  1255725 
  746000    0.8697617   -2.4189674   -2.4189674   -1.6951956  0.028787341   -2.4189674   0.72377181  1255725 
  747000   0.86995608   -2.4192128   -2.4192128   -1.6952793   0.02257181   -2.4192128   0.72393356  1255725 
  748000   0.86990227    -2.419307    -2.419307   -1.6954182  0.015423074    -2.419307   0.72388878  1255725 
  749000   0.86943578   -2.4189487   -2.4189487   -1.6954481  0.025208774   -2.4189487    0.7235006  1255725 
  750000   0.87041867    -2.419326    -2.419326   -1.6950075  0.024331858    -2.419326   0.72431851  1255725 
  751000   0.87047151   -2.4195403   -2.4195403   -1.6951778  0.018202168   -2.4195403   0.72436248  1255725 
  752000   0.87150146   -2.4205285   -2.4205285   -1.6953089  0.032063398   -2.4205285   0.72521955  1255725 
  753000   0.87128872   -2.4201559   -2.4201559   -1.6951133  0.034018419   -2.4201559   0.72504252  1255725 
  754000   0.87126424   -2.4199482   -2.4199482    -1.694926  0.020747486   -2.4199482   0.72502215  1255725 
  755000   0.87111836   -2.4201026   -2.4201026   -1.6952019  0.022079607   -2.4201026   0.72490075  1255725 
  756000   0.87042342   -2.4193197   -2.4193197   -1.6949972  0.026374793   -2.4193197   0.72432246  1255725 
  757000   0.87057193   -2.4197776   -2.4197776   -1.6953316  0.025082013   -2.4197776   0.72444605  1255725 
  758000   0.86975198   -2.4190127   -2.4190127    -1.695249  0.024354155   -2.4190127   0.72376373  1255725 
  759000   0.87117253   -2.4204672   -2.4204672   -1.6955213  0.026114987   -2.4204672   0.72494583  1255725 
  760000   0.87153375   -2.4208381   -2.4208381   -1.6955917  0.023359614   -2.4208381   0.72524642  1255725 
  761000   0.87073751   -2.4199088   -2.4199088    -1.695325  0.019600793   -2.4199088   0.72458383  1255725 
  762000    0.8716069   -2.4204321   -2.4204321   -1.6951248  0.032649179   -2.4204321   0.72530729  1255725 
  763000   0.87135531   -2.4202147   -2.4202147   -1.6951167  0.023398934   -2.4202147   0.72509793  1255725 
  764000   0.87016278   -2.4191483   -2.4191483   -1.6950428  0.028415924   -2.4191483   0.72410557  1255725 
  765000   0.87050287   -2.4197212   -2.4197212   -1.6953326  0.028193412   -2.4197212   0.72438857  1255725 
  766000   0.86970697   -2.4191439   -2.4191439   -1.6954177  0.029252619   -2.4191439   0.72372627  1255725 
  767000   0.86982021   -2.4190949   -2.4190949   -1.6952744  0.025001066   -2.4190949    0.7238205  1255725 
  768000   0.87060029   -2.4199101   -2.4199101   -1.6954404  0.027886643   -2.4199101   0.72446964  1255725 
  769000   0.86997191    -2.419393    -2.419393   -1.6954463   0.03437101    -2.419393   0.72394674  1255725 
  770000   0.87039415   -2.4202764   -2.4202764   -1.6959783  0.025490039   -2.4202764    0.7242981  1255725 
  771000   0.87089228   -2.4203267   -2.4203267   -1.6956141  0.023800946   -2.4203267   0.72471262  1255725 
  772000   0.87072784   -2.4201057   -2.4201057   -1.6955299  0.022845032   -2.4201057   0.72457578  1255725 
  773000    0.8712754   -2.4203636   -2.4203636   -1.6953321  0.025331361   -2.4203636   0.72503144  1255725 
  774000   0.87202623   -2.4212831   -2.4212831   -1.6956269  0.017399094   -2.4212831   0.72565624  1255725 
  775000   0.87033752   -2.4199965   -2.4199965   -1.6957455  0.030372165   -2.4199965   0.72425098  1255725 
  776000   0.87051168   -2.4198066   -2.4198066   -1.6954106   0.02526777   -2.4198066   0.72439591  1255725 
  777000   0.86998946   -2.4194586   -2.4194586   -1.6954973  0.022096807   -2.4194586   0.72396134  1255725 
  778000   0.87060026   -2.4197719   -2.4197719   -1.6953023   0.03262582   -2.4197719   0.72446962  1255725 
  779000   0.87085742   -2.4197066   -2.4197066    -1.695023  0.033769434   -2.4197066   0.72468361  1255725 
  780000   0.87215002   -2.4208572   -2.4208572    -1.695098  0.023821187   -2.4208572   0.72575925  1255725 
  781000   0.87038433   -2.4195567   -2.4195567   -1.6952667  0.032441847   -2.4195567   0.72428993  1255725 
  782000   0.87139963   -2.4199499   -2.4199499   -1.6948151  0.035322459   -2.4199499   0.72513481  1255725 
  783000    0.8720201   -2.4203613   -2.4203613   -1.6947101   0.02817144   -2.4203613   0.72565113  1255725 
  784000   0.87188944   -2.4201375   -2.4201375   -1.6945951  0.017603322   -2.4201375   0.72554241  1255725 
  785000   0.87085976   -2.4194403   -2.4194403   -1.6947547  0.022002887   -2.4194403   0.72468557  1255725 
  786000   0.87087636   -2.4193996   -2.4193996   -1.6947003  0.024550877   -2.4193996   0.72469938  1255725 
  787000   0.86951064    -2.418066    -2.418066   -1.6945031  0.025965161    -2.418066   0.72356289  1255725 
  788000   0.87116412   -2.4196209   -2.4196209   -1.6946821  0.022296488   -2.4196209   0.72493883  1255725 
  789000   0.87084034   -2.4194224   -2.4194224    -1.694753  0.018479231   -2.4194224    0.7246694  1255725 
  790000   0.87043031   -2.4195141   -2.4195141   -1.6951859  0.030756351   -2.4195141    0.7243282  1255725 
  791000   0.87042378   -2.4191891   -2.4191891   -1.6948663  0.027204416   -2.4191891   0.72432276  1255725 
  792000   0.87022415   -2.4190648   -2.4190648   -1.6949082  0.026820482   -2.4190648   0.72415664  1255725 
  793000   0.87034681   -2.4192056   -2.4192056   -1.6949469  0.035969029   -2.4192056   0.72425871  1255725 
  794000    0.8705484   -2.4194293   -2.4194293   -1.6950028  0.033544404   -2.4194293   0.72442646  1255725 
  795000   0.87002578   -2.4189706   -2.4189706   -1.6949791  0.024182572   -2.4189706   0.72399156  1255725 
  796000   0.87094499   -2.4198522   -2.4198522   -1.6950957  0.031227149   -2.4198522   0.72475648  1255725 
  797000   0.87119608   -2.4201206   -2.4201206   -1.6951552  0.024152078   -2.4201206   0.72496543  1255725 
  798000   0.87023025   -2.4189506   -2.4189506   -1.6947889  0.028230683   -2.4189506   0.72416172  1255725 
  799000   0.87124829   -2.4195565   -2.4195565   -1.6945476  0.030884693   -2.4195565   0.72500888  1255725 
  800000   0.87146798   -2.4198116   -2.4198116   -1.6946199  0.037066256   -2.4198116    0.7251917  1255725 
  801000   0.87158718   -2.4195437   -2.4195437   -1.6942528  0.030651343   -2.4195437   0.72529089  1255725 
  802000   0.87175137   -2.4194635   -2.4194635    -1.694036  0.030004918   -2.4194635   0.72542752  1255725 
  803000   0.87256612   -2.4202637   -2.4202637   -1.6941582  0.016779155   -2.4202637   0.72610551  1255725 
  804000   0.87009191   -2.4185429   -2.4185429   -1.6944963  0.030360693   -2.4185429   0.72404659  1255725 
  805000   0.87115571   -2.4193512   -2.4193512   -1.6944194  0.036571154   -2.4193512   0.72493184  1255725 
  806000   0.87167621   -2.4198479   -2.4198479   -1.6944829  0.034498985   -2.4198479   0.72536497  1255725 
  807000   0.87159797   -2.4195742   -2.4195742   -1.6942744  0.033248313   -2.4195742   0.72529987  1255725 
  808000   0.87070861   -2.4191784   -2.4191784   -1.6946186  0.033816681   -2.4191784   0.72455978  1255725 
  809000   0.87106268   -2.4188961   -2.4188961   -1.6940417  0.023146559   -2.4188961   0.72485442  1255725 
  810000   0.87095357     -2.41857     -2.41857   -1.6938063  0.036843092     -2.41857   0.72476362  1255725 
  811000   0.86967178   -2.4181201   -2.4181201   -1.6944231   0.02293231   -2.4181201   0.72369698  1255725 
  812000   0.87038186    -2.418934    -2.418934   -1.6946461  0.015890065    -2.418934   0.72428788  1255725 
  813000   0.87125041   -2.4198821   -2.4198821   -1.6948715  0.026318116   -2.4198821   0.72501064  1255725 
  814000   0.87078778   -2.4196128   -2.4196128   -1.6949871  0.019323014   -2.4196128   0.72462566  1255725 
  815000   0.87092491   -2.4197635   -2.4197635   -1.6950237  0.024565619   -2.4197635   0.72473977  1255725 
  816000   0.87061954   -2.4189399   -2.4189399   -1.6944542  0.029864464   -2.4189399   0.72448566  1255725 
  817000   0.87079031   -2.4190552   -2.4190552   -1.6944275  0.028368533   -2.4190552   0.72462777  1255725 
  818000   0.87125159   -2.4192939   -2.4192939   -1.6942822  0.029424795   -2.4192939   0.72501162  1255725 
  819000   0.87113625   -2.4197838   -2.4197838   -1.6948682  0.029962974   -2.4197838   0.72491564  1255725 
  820000    0.8703695   -2.4190612   -2.4190612   -1.6947836   0.02365441   -2.4190612    0.7242776  1255725 
  821000   0.87186105    -2.420327    -2.420327   -1.6948082  0.030174403    -2.420327   0.72551879  1255725 
  822000   0.87230315   -2.4206159   -2.4206159   -1.6947292  0.037949887   -2.4206159   0.72588668  1255725 
  823000   0.87126312   -2.4193151   -2.4193151   -1.6942939  0.037653408   -2.4193151   0.72502121  1255725 
  824000   0.87255413   -2.4203466   -2.4203466   -1.6942511  0.026773294   -2.4203466   0.72609553  1255725 
  825000   0.87093332   -2.4191758   -2.4191758    -1.694429  0.028363997   -2.4191758   0.72474678  1255725 
  826000   0.87069496   -2.4191272   -2.4191272   -1.6945788   0.02928863   -2.4191272   0.72454843  1255725 
  827000   0.86998198   -2.4188494   -2.4188494   -1.6948943  0.021733026   -2.4188494   0.72395512  1255725 
  828000   0.86943992   -2.4181815   -2.4181815   -1.6946774  0.033638359   -2.4181815   0.72350404  1255725 
  829000   0.87038879   -2.4193347   -2.4193347    -1.695041  0.020137536   -2.4193347   0.72429365  1255725 
  830000   0.87009214   -2.4191667   -2.4191667   -1.6951199   0.02885426   -2.4191667   0.72404679  1255725 
  831000   0.86938467   -2.4184555   -2.4184555   -1.6949974  0.033937613   -2.4184555   0.72345807  1255725 
  832000   0.87044157   -2.4187483   -2.4187483   -1.6944107  0.024271523   -2.4187483   0.72433756  1255725 
  833000   0.86984319   -2.4179908   -2.4179908   -1.6941511  0.018354765   -2.4179908   0.72383963  1255725 
  834000   0.87023169   -2.4184286   -2.4184286   -1.6942656  0.027116659   -2.4184286   0.72416291  1255725 
  835000   0.87024378   -2.4187691   -2.4187691   -1.6945962  0.026017486   -2.4187691   0.72417297  1255725 
  836000   0.87036532   -2.4188201   -2.4188201    -1.694546  0.030598167   -2.4188201   0.72427411  1255725 
  837000   0.86989594   -2.4184594   -2.4184594   -1.6945759  0.027162126   -2.4184594   0.72388352  1255725 
  838000    0.8710269   -2.4192859   -2.4192859   -1.6944613  0.020889926   -2.4192859   0.72482465  1255725 
  839000   0.87160999   -2.4194186   -2.4194186   -1.6941087  0.023599746   -2.4194186   0.72530987  1255725 
  840000   0.87090908   -2.4191964   -2.4191964   -1.6944698  0.023537893   -2.4191964    0.7247266  1255725 
  841000   0.87196553   -2.4202667   -2.4202667    -1.694661  0.036804588   -2.4202667   0.72560573  1255725 
  842000   0.87123377   -2.4196061   -2.4196061   -1.6946093  0.029790179   -2.4196061   0.72499679  1255725 
  843000   0.87149861   -2.4196244   -2.4196244   -1.6944073  0.027720873   -2.4196244   0.72521718  1255725 
  844000   0.87101514   -2.4194557   -2.4194557   -1.6946409  0.026875475   -2.4194557   0.72481486  1255725 
  845000   0.87088674   -2.4194481   -2.4194481   -1.6947401  0.028099084   -2.4194481   0.72470801  1255725 
  846000   0.87042495   -2.4189953   -2.4189953   -1.6946715  0.017633317   -2.4189953   0.72432374  1255725 
  847000   0.87044894   -2.4192994   -2.4192994   -1.6949557   0.02551109   -2.4192994    0.7243437  1255725 
  848000   0.86969245   -2.4187899   -2.4187899   -1.6950757  0.025595561   -2.4187899   0.72371418  1255725 
  849000     0.871517   -2.4198215   -2.4198215    -1.694589  0.022210566   -2.4198215   0.72523248  1255725 
  850000    0.8704736   -2.4189731   -2.4189731   -1.6946089  0.031469715   -2.4189731   0.72436422  1255725 
  851000     0.870684   -2.4188804   -2.4188804   -1.6943411  0.026595424   -2.4188804   0.72453931  1255725 
  852000   0.87007691   -2.4183157   -2.4183157   -1.6942815  0.024020847   -2.4183157   0.72403411  1255725 
  853000   0.86934914   -2.4176756   -2.4176756   -1.6942471  0.028959874   -2.4176756    0.7234285  1255725 
  854000   0.87019974   -2.4187461   -2.4187461   -1.6946098  0.031057568   -2.4187461   0.72413632  1255725 
  855000   0.87047545   -2.4190396   -2.4190396   -1.6946738  0.027744824   -2.4190396   0.72436576  1255725 
  856000   0.87084684   -2.4192745   -2.4192745   -1.6945997  0.025481816   -2.4192745   0.72467481  1255725 
  857000    0.8693766   -2.4179873   -2.4179873   -1.6945359  0.023852808   -2.4179873   0.72345135  1255725 
  858000   0.87030809   -2.4185551   -2.4185551   -1.6943286  0.025941977   -2.4185551   0.72422649  1255725 
  859000    0.8697476   -2.4180219   -2.4180219   -1.6942618  0.030420378   -2.4180219   0.72376008  1255725 
  860000   0.87055939   -2.4185996   -2.4185996    -1.694164  0.027852156   -2.4185996   0.72443561  1255725 
  861000   0.87118227   -2.4190482   -2.4190482   -1.6940942  0.026428418   -2.4190482   0.72495394  1255725 
  862000    0.8707682   -2.4188873   -2.4188873   -1.6942779   0.02683487   -2.4188873   0.72460937  1255725 
  863000   0.87024132   -2.4185889   -2.4185889    -1.694418  0.023647277   -2.4185889   0.72417093  1255725 
  864000   0.87077196   -2.4186795   -2.4186795    -1.694067  0.030316644   -2.4186795    0.7246125  1255725 
  865000   0.87184025   -2.4191317   -2.4191317   -1.6936302  0.021804168   -2.4191317   0.72550148  1255725 
  866000   0.87197734   -2.4197218   -2.4197218   -1.6941062  0.023211489   -2.4197218   0.72561555  1255725 
  867000   0.87114158    -2.418845    -2.418845   -1.6939249  0.022003656    -2.418845   0.72492008  1255725 
  868000   0.87202641   -2.4196244   -2.4196244    -1.693968  0.018761326   -2.4196244   0.72565639  1255725 
  869000   0.87172858   -2.4191388   -2.4191388   -1.6937302  0.041046962   -2.4191388   0.72540855  1255725 
  870000   0.87209634   -2.4197418   -2.4197418   -1.6940272  0.037394404   -2.4197418   0.72571458  1255725 
  871000   0.87157945   -2.4195356   -2.4195356   -1.6942512  0.021918199   -2.4195356   0.72528445  1255725 
  872000   0.87109496   -2.4187895   -2.4187895   -1.6939082   0.03354365   -2.4187895   0.72488129  1255725 
  873000   0.87065011   -2.4187682   -2.4187682   -1.6942571  0.034125859   -2.4187682    0.7245111  1255725 
  874000   0.87029583   -2.4182909   -2.4182909   -1.6940746  0.036703645   -2.4182909   0.72421629  1255725 
  875000   0.87090644   -2.4188239   -2.4188239   -1.6940995  0.030172246   -2.4188239   0.72472441  1255725 
  876000   0.87101544   -2.4186482   -2.4186482   -1.6938331  0.027984708   -2.4186482   0.72481511  1255725 
  877000   0.87195836   -2.4193245   -2.4193245   -1.6937247  0.033132469   -2.4193245   0.72559976  1255725 
  878000   0.87151799   -2.4190369   -2.4190369   -1.6938036   0.02605138   -2.4190369   0.72523331  1255725 
  879000   0.87080805   -2.4181954   -2.4181954   -1.6935528  0.019129934   -2.4181954   0.72464253  1255725 
  880000   0.87095978   -2.4184507   -2.4184507   -1.6936819  0.024535925   -2.4184507   0.72476879  1255725 
  881000   0.87161087    -2.418985    -2.418985   -1.6936744  0.026277835    -2.418985    0.7253106  1255725 
  882000    0.8711981   -2.4185839   -2.4185839   -1.6936167  0.025078957   -2.4185839   0.72496711  1255725 
  883000   0.87053919   -2.4175527   -2.4175527   -1.6931339  0.033480098   -2.4175527    0.7244188  1255725 
  884000   0.86976008   -2.4168705   -2.4168705      -1.6931  0.028633888   -2.4168705   0.72377046  1255725 
  885000   0.87138835   -2.4181145   -2.4181145   -1.6929891  0.027933728   -2.4181145   0.72512543  1255725 
  886000   0.87125784   -2.4180096   -2.4180096   -1.6929928  0.024458182   -2.4180096   0.72501682  1255725 
  887000   0.87127477    -2.417758    -2.417758   -1.6927271  0.025774011    -2.417758   0.72503091  1255725 
  888000   0.87126311   -2.4177339   -2.4177339   -1.6927127  0.023404821   -2.4177339   0.72502121  1255725 
  889000   0.87205521   -2.4181282   -2.4181282   -1.6924478  0.028811693   -2.4181282   0.72568035  1255725 
  890000   0.87182494   -2.4177232   -2.4177232   -1.6922344  0.025910426   -2.4177232   0.72548873  1255725 
  891000   0.87295998   -2.4188975   -2.4188975   -1.6924642  0.022997063   -2.4188975   0.72643326  1255725 
  892000   0.87113337   -2.4177694   -2.4177694   -1.6928561  0.025982551   -2.4177694   0.72491325  1255725 
  893000   0.87179934   -2.4181039   -2.4181039   -1.6926364   0.02642143   -2.4181039   0.72546744  1255725 
  894000   0.87205549   -2.4183468   -2.4183468   -1.6926663  0.032388133   -2.4183468   0.72568059  1255725 
  895000   0.87177379   -2.4181394   -2.4181394   -1.6926932  0.022550079   -2.4181394   0.72544617  1255725 
  896000   0.87145575   -2.4176204   -2.4176204   -1.6924389  0.033680808   -2.4176204   0.72518152  1255725 
  897000    0.8727208     -2.41866     -2.41866   -1.6924258  0.030349123     -2.41866   0.72623422  1255725 
  898000   0.87203587   -2.4179812   -2.4179812   -1.6923169  0.032079206   -2.4179812   0.72566426  1255725 
  899000   0.87278443   -2.4185685   -2.4185685   -1.6922813  0.025898628   -2.4185685   0.72628718  1255725 
  900000     0.871322   -2.4173282   -2.4173282    -1.692258  0.026864657   -2.4173282   0.72507021  1255725 
  901000   0.87073659   -2.4171003   -2.4171003   -1.6925173  0.039734442   -2.4171003   0.72458306  1255725 
  902000   0.87114883   -2.4172149   -2.4172149   -1.6922887  0.027846433   -2.4172149   0.72492611  1255725 
  903000   0.87065702   -2.4170966   -2.4170966   -1.6925798  0.035707209   -2.4170966   0.72451685  1255725 
  904000   0.86955813   -2.4166024   -2.4166024       -1.693  0.030228455   -2.4166024   0.72360241  1255725 
  905000   0.87105599    -2.418003    -2.418003   -1.6931542  0.017468076    -2.418003   0.72484885  1255725 
  906000   0.87056011   -2.4173289   -2.4173289   -1.6928927  0.022995039   -2.4173289   0.72443621  1255725 
  907000   0.87126965   -2.4175015   -2.4175015   -1.6924748  0.031718636   -2.4175015   0.72502665  1255725 
  908000   0.87142611   -2.4174536   -2.4174536   -1.6922968  0.035444687   -2.4174536   0.72515685  1255725 
  909000   0.87164067   -2.4172707   -2.4172707   -1.6919353   0.03381092   -2.4172707    0.7253354  1255725 
  910000    0.8717541    -2.417483    -2.417483   -1.6920532  0.030704887    -2.417483   0.72542979  1255725 
  911000   0.87138582   -2.4172105   -2.4172105   -1.6920872  0.015788773   -2.4172105   0.72512332  1255725 
  912000   0.87227705   -2.4182016   -2.4182016   -1.6923366   0.02733152   -2.4182016   0.72586496  1255725 
  913000   0.87025137   -2.4165031   -2.4165031   -1.6923238  0.027420734   -2.4165031   0.72417929  1255725 
  914000   0.87242534    -2.418199    -2.418199   -1.6922106  0.022348525    -2.418199   0.72598836  1255725 
  915000   0.87192966   -2.4178844   -2.4178844   -1.6923085  0.013151083   -2.4178844   0.72557588  1255725 
  916000    0.8700861   -2.4167436   -2.4167436   -1.6927019  0.026281528   -2.4167436   0.72404176  1255725 
  917000   0.87194475   -2.4180782   -2.4180782   -1.6924898  0.019547337   -2.4180782   0.72558844  1255725 
  918000   0.87221866   -2.4184913   -2.4184913    -1.692675  0.022520777   -2.4184913   0.72581637  1255725 
  919000   0.87127819   -2.4176537   -2.4176537     -1.69262  0.020809109   -2.4176537   0.72503376  1255725 
  920000   0.87078699   -2.4173781   -2.4173781   -1.6927531  0.022898094   -2.4173781   0.72462501  1255725 
  921000   0.87086471   -2.4173552   -2.4173552   -1.6926655  0.019657618   -2.4173552   0.72468968  1255725 
  922000   0.87152537   -2.4180547   -2.4180547   -1.6928153  0.027060439   -2.4180547   0.72523945  1255725 
  923000   0.87113706   -2.4175121   -2.4175121   -1.6925958  0.028653101   -2.4175121   0.72491631  1255725 
  924000   0.87180221    -2.417383    -2.417383   -1.6919132  0.025266624    -2.417383   0.72546982  1255725 
  925000   0.87212331   -2.4178259   -2.4178259   -1.6920889  0.028667267   -2.4178259   0.72573703  1255725 
  926000   0.87095791   -2.4168976   -2.4168976   -1.6921304  0.031189904   -2.4168976   0.72476724  1255725 
  927000   0.87226295   -2.4181737   -2.4181737   -1.6923205  0.023552148   -2.4181737   0.72585323  1255725 
  928000   0.87165568   -2.4173851   -2.4173851   -1.6920373  0.032196575   -2.4173851   0.72534789  1255725 
  929000   0.87251449   -2.4178295   -2.4178295    -1.691767  0.019068722   -2.4178295   0.72606255  1255725 
  930000   0.87143917   -2.4171533   -2.4171533   -1.6919856   0.02450058   -2.4171533   0.72516772  1255725 
  931000   0.87124437   -2.4168434   -2.4168434   -1.6918378  0.019328379   -2.4168434   0.72500562  1255725 
  932000   0.87051819   -2.4161677   -2.4161677   -1.6917664  0.027496472   -2.4161677   0.72440133  1255725 
  933000   0.87155066   -2.4168659   -2.4168659   -1.6916054  0.018263861   -2.4168659   0.72526049  1255725 
  934000    0.8712922   -2.4164673   -2.4164673   -1.6914219  0.027364174   -2.4164673   0.72504542  1255725 
  935000    0.8712968   -2.4166559   -2.4166559   -1.6916067  0.025018255   -2.4166559   0.72504925  1255725 
  936000   0.87167677   -2.4166003   -2.4166003   -1.6912348  0.027687196   -2.4166003   0.72536543  1255725 
  937000   0.87160142   -2.4166503   -2.4166503   -1.6913475  0.033344031   -2.4166503   0.72530273  1255725 
  938000   0.87078247   -2.4157819   -2.4157819   -1.6911607  0.031570602   -2.4157819   0.72462125  1255725 
  939000   0.87106231   -2.4158862   -2.4158862   -1.6910321  0.035053283   -2.4158862   0.72485411  1255725 
  940000   0.87134316   -2.4162129   -2.4162129   -1.6911251  0.024543354   -2.4162129   0.72508783  1255725 
  941000   0.87049607   -2.4158943   -2.4158943   -1.6915114  0.023763972   -2.4158943   0.72438292  1255725 
  942000   0.87135663   -2.4166408   -2.4166408   -1.6915418  0.022030451   -2.4166408   0.72509903  1255725 
  943000   0.87096967   -2.4163059   -2.4163059   -1.6915289  0.023059683   -2.4163059   0.72477702  1255725 
  944000   0.87130444   -2.4164542   -2.4164542   -1.6913986  0.035790482   -2.4164542    0.7250556  1255725 
  945000   0.87157144   -2.4164751   -2.4164751   -1.6911973  0.026108323   -2.4164751   0.72527778  1255725 
  946000   0.87176405   -2.4166153   -2.4166153   -1.6911773  0.021013351   -2.4166153   0.72543807  1255725 
  947000   0.87112169   -2.4161287   -2.4161287   -1.6912252  0.024948925   -2.4161287   0.72490353  1255725 
  948000    0.8722376   -2.4167241   -2.4167241    -1.690892   0.02573711   -2.4167241   0.72583213  1255725 
  949000    0.8712884   -2.4164287   -2.4164287   -1.6913864  0.033081363   -2.4164287   0.72504225  1255725 
  950000   0.87203504   -2.4172484   -2.4172484   -1.6915848  0.029814295   -2.4172484   0.72566357  1255725 
  951000   0.87058854   -2.4162211   -2.4162211   -1.6917612  0.018420131   -2.4162211   0.72445987  1255725 
  952000   0.87111583   -2.4164025   -2.4164025   -1.6915039  0.020480262   -2.4164025   0.72489865  1255725 
  953000   0.87103318   -2.4167785   -2.4167785   -1.6919487  0.021232736   -2.4167785   0.72482987  1255725 
  954000   0.87092017   -2.4166224   -2.4166224   -1.6918866  0.027656364   -2.4166224   0.72473583  1255725 
  955000   0.87091243   -2.4164732   -2.4164732   -1.6917438   0.03233776   -2.4164732   0.72472939  1255725 
  956000   0.87127258   -2.4167358   -2.4167358   -1.6917067  0.026001479   -2.4167358   0.72502909  1255725 
  957000   0.87071419   -2.4163144   -2.4163144     -1.69175  0.030476985   -2.4163144   0.72456443  1255725 
  958000   0.87126173    -2.416813    -2.416813   -1.6917929  0.021472842    -2.416813   0.72502006  1255725 
  959000   0.87119217   -2.4168164   -2.4168164   -1.6918542  0.026783429   -2.4168164   0.72496217  1255725 
  960000   0.87035634    -2.416504    -2.416504   -1.6922374  0.033885309    -2.416504   0.72426664  1255725 
  961000   0.87116032   -2.4169861   -2.4169861   -1.6920505  0.025036346   -2.4169861   0.72493568  1255725 
  962000   0.87004015   -2.4158651   -2.4158651   -1.6918615  0.019669105   -2.4158651   0.72400352  1255725 
  963000   0.87141759   -2.4172307   -2.4172307   -1.6920809   0.03407658   -2.4172307   0.72514976  1255725 
  964000   0.87365428    -2.418841    -2.418841     -1.69183  0.020823272    -2.418841   0.72701102  1255725 
  965000   0.87173903   -2.4173153   -2.4173153    -1.691898  0.029330915   -2.4173153   0.72541725  1255725 
  966000   0.87202468   -2.4174005   -2.4174005   -1.6917456  0.022120699   -2.4174005   0.72565495  1255725 
  967000   0.87161922   -2.4172138   -2.4172138   -1.6918962  0.027840537   -2.4172138   0.72531755  1255725 
  968000   0.87094288    -2.416664    -2.416664   -1.6919092  0.019764967    -2.416664   0.72475473  1255725 
  969000   0.87066486   -2.4163845   -2.4163845   -1.6918611  0.028570315   -2.4163845   0.72452338  1255725 
  970000   0.87068444   -2.4165313   -2.4165313   -1.6919917  0.028383454   -2.4165313   0.72453967  1255725 
  971000   0.87077328   -2.4167651   -2.4167651   -1.6921515  0.028816739   -2.4167651    0.7246136  1255725 
  972000   0.87085946   -2.4167618   -2.4167618   -1.6920765  0.034967725   -2.4167618   0.72468531  1255725 
  973000   0.87193094   -2.4173158   -2.4173158   -1.6917389   0.02169468   -2.4173158   0.72557695  1255725 
  974000    0.8716086   -2.4167025   -2.4167025   -1.6913937  0.034257332   -2.4167025   0.72530871  1255725 
  975000   0.87176316   -2.4166104   -2.4166104    -1.691173  0.023760603   -2.4166104   0.72543733  1255725 
  976000   0.87255975   -2.4170054   -2.4170054   -1.6909052  0.028894671   -2.4170054    0.7261002  1255725 
  977000   0.87223004   -2.4171094   -2.4171094   -1.6912835  0.029465428   -2.4171094   0.72582584  1255725 
  978000   0.87281338   -2.4172535   -2.4172535   -1.6909422  0.023012888   -2.4172535   0.72631126  1255725 
  979000   0.87189933   -2.4165198   -2.4165198   -1.6909691  0.031309162   -2.4165198   0.72555064  1255725 
  980000    0.8708932   -2.4154264   -2.4154264    -1.690713  0.027020835   -2.4154264   0.72471339  1255725 
  981000   0.87108388   -2.4158265   -2.4158265   -1.6909544  0.031643035   -2.4158265   0.72487207  1255725 
  982000    0.8701918   -2.4152638   -2.4152638   -1.6911341   0.02444843   -2.4152638   0.72412972  1255725 
  983000   0.87045516   -2.4152489   -2.4152489      -1.6909  0.025263785   -2.4152489   0.72434888  1255725 
  984000   0.87128107   -2.4159227   -2.4159227   -1.6908865  0.024684282   -2.4159227   0.72503615  1255725 
  985000   0.87167271   -2.4159463   -2.4159463   -1.6905843  0.039252834   -2.4159463   0.72536206  1255725 
  986000    0.8716266   -2.4157362   -2.4157362   -1.6904125  0.022117123   -2.4157362   0.72532368  1255725 
  987000   0.87167928   -2.4153707   -2.4153707   -1.6900032  0.039624878   -2.4153707   0.72536753  1255725 
  988000   0.87222453   -2.4156146   -2.4156146   -1.6897933   0.03166797   -2.4156146   0.72582125  1255725 
  989000   0.87183785   -2.4155759   -2.4155759   -1.6900764   0.03216091   -2.4155759   0.72549948  1255725 
  990000   0.87197182   -2.4159761   -2.4159761   -1.6903651  0.020647156   -2.4159761   0.72561096  1255725 
  991000   0.87126487   -2.4153402   -2.4153402   -1.6903176   0.02330812   -2.4153402   0.72502268  1255725 
  992000   0.87161954    -2.415592    -2.415592   -1.6902742  0.019905977    -2.415592   0.72531781  1255725 
  993000   0.87155785   -2.4155489   -2.4155489   -1.6902824  0.027702215   -2.4155489   0.72526648  1255725 
  994000   0.87167975   -2.4153251   -2.4153251   -1.6899572  0.027694648   -2.4153251   0.72536792  1255725 
  995000   0.87176927   -2.4154772   -2.4154772   -1.6900348  0.033262682   -2.4154772   0.72544241  1255725 
  996000   0.87199175   -2.4156398   -2.4156398   -1.6900123  0.025182636   -2.4156398   0.72562755  1255725 
  997000   0.87246189   -2.4160712   -2.4160712   -1.6900525  0.022457652   -2.4160712   0.72601877  1255725 
  998000   0.87278782   -2.4164169   -2.4164169   -1.6901269  0.015260691   -2.4164169   0.72628999  1255725 
  999000   0.87213521   -2.4157564   -2.4157564   -1.6900095  0.031086537   -2.4157564   0.72574692  1255725 
 1000000    0.8720672   -2.4153884   -2.4153884    -1.689698  0.023388325   -2.4153884   0.72569033  1255725 
 1001000   0.87228359   -2.4156707   -2.4156707   -1.6898003  0.031529469   -2.4156707    0.7258704  1255725 
 1002000   0.87248853   -2.4156154   -2.4156154   -1.6895744  0.020897958   -2.4156154   0.72604094  1255725 
 1003000   0.87168347   -2.4154066   -2.4154066   -1.6900356  0.020288932   -2.4154066   0.72537101  1255725 
 1004000   0.87155773   -2.4148166   -2.4148166   -1.6895503  0.026670579   -2.4148166   0.72526638  1255725 
 1005000   0.87091525    -2.414331    -2.414331   -1.6895993  0.024032976    -2.414331   0.72473173  1255725 
 1006000     0.872639   -2.4156941   -2.4156941    -1.689528  0.031481246   -2.4156941   0.72616615  1255725 
 1007000   0.87288631   -2.4158273   -2.4158273   -1.6894554  0.024554801   -2.4158273   0.72637195  1255725 
 1008000   0.87232555   -2.4156274   -2.4156274   -1.6897221  0.023919034   -2.4156274   0.72590532  1255725 
 1009000   0.87218435   -2.4154228   -2.4154228   -1.6896349  0.026929046   -2.4154228   0.72578782  1255725 
 1010000   0.87177332   -2.4151433   -2.4151433   -1.6896975  0.034612404   -2.4151433   0.72544578  1255725 
 1011000    0.8716109   -2.4153972   -2.4153972   -1.6900866  0.021818897   -2.4153972   0.72531063  1255725 
 1012000   0.87154412   -2.4155055   -2.4155055   -1.6902505  0.031063616   -2.4155055   0.72525506  1255725 
 1013000   0.87138525   -2.4148656   -2.4148656   -1.6897427  0.032004826   -2.4148656   0.72512285  1255725 
 1014000   0.87111857   -2.4150147   -2.4150147   -1.6901138  0.032296404   -2.4150147   0.72490093  1255725 
 1015000   0.87177669   -2.4150511   -2.4150511   -1.6896026  0.032181017   -2.4150511   0.72544859  1255725 
 1016000   0.87268566   -2.4157895   -2.4157895   -1.6895845  0.034372953   -2.4157895   0.72620499  1255725 
 1017000   0.87204395   -2.4157037   -2.4157037   -1.6900328  0.042178923   -2.4157037   0.72567098  1255725 
 1018000   0.87284332   -2.4160946   -2.4160946   -1.6897584  0.032296669   -2.4160946   0.72633618  1255725 
 1019000   0.87276351   -2.4159962   -2.4159962   -1.6897265  0.031008356   -2.4159962   0.72626976  1255725 
 1020000   0.87318364   -2.4165704   -2.4165704    -1.689951  0.029940352   -2.4165704   0.72661937  1255725 
 1021000   0.87242756   -2.4160755   -2.4160755   -1.6900853  0.031355497   -2.4160755   0.72599021  1255725 
 1022000   0.87160465   -2.4153516   -2.4153516   -1.6900462  0.018308701   -2.4153516   0.72530542  1255725 
 1023000   0.87055707   -2.4143005   -2.4143005   -1.6898668  0.029717207   -2.4143005   0.72443368  1255725 
 1024000   0.87160256    -2.415078    -2.415078   -1.6897743  0.032775634    -2.415078   0.72530368  1255725 
 1025000   0.87111718   -2.4148412   -2.4148412   -1.6899414  0.031418753   -2.4148412   0.72489978  1255725 
 1026000   0.87145984   -2.4152237   -2.4152237   -1.6900388  0.031782222   -2.4152237   0.72518492  1255725 
 1027000   0.87033955   -2.4142775   -2.4142775   -1.6900248  0.026981978   -2.4142775   0.72425267  1255725 
 1028000   0.87146635   -2.4153167   -2.4153167   -1.6901263  0.026147421   -2.4153167   0.72519033  1255725 
 1029000   0.87258535   -2.4162301   -2.4162301   -1.6901086  0.028859473   -2.4162301   0.72612151  1255725 
 1030000   0.87155878   -2.4153988   -2.4153988   -1.6901316  0.016449915   -2.4153988   0.72526725  1255725 
 1031000   0.87226999   -2.4161383   -2.4161383   -1.6902792  0.026743116   -2.4161383   0.72585908  1255725 
 1032000   0.87141987   -2.4151148   -2.4151148   -1.6899632  0.022326613   -2.4151148   0.72515166  1255725 
 1033000   0.87151095   -2.4151119   -2.4151119   -1.6898845  0.026345596   -2.4151119   0.72522745  1255725 
 1034000   0.87115723   -2.4149461   -2.4149461    -1.690013  0.037392576   -2.4149461    0.7249331  1255725 
 1035000   0.87175209   -2.4154662   -2.4154662   -1.6900381  0.023291981   -2.4154662   0.72542811  1255725 
 1036000   0.87124665   -2.4147453   -2.4147453   -1.6897377  0.029456785   -2.4147453   0.72500752  1255725 
 1037000   0.87250626   -2.4155391   -2.4155391   -1.6894834  0.029109482   -2.4155391    0.7260557  1255725 
 1038000   0.87166402   -2.4149528   -2.4149528    -1.689598  0.027843286   -2.4149528   0.72535483  1255725 
 1039000   0.87204721   -2.4153997   -2.4153997    -1.689726  0.019790931   -2.4153997    0.7256737  1255725 
 1040000    0.8730581   -2.4163301   -2.4163301   -1.6898152  0.033896814   -2.4163301   0.72651491  1255725 
 1041000   0.87186161   -2.4151201   -2.4151201   -1.6896008  0.036104319   -2.4151201   0.72551925  1255725 
 1042000   0.87342362    -2.416246    -2.416246   -1.6894269  0.032824703    -2.416246   0.72681908  1255725 
 1043000    0.8730538   -2.4163394   -2.4163394    -1.689828  0.030766351   -2.4163394   0.72651133  1255725 
 1044000   0.87155578   -2.4147213   -2.4147213   -1.6894565  0.027770978   -2.4147213   0.72526475  1255725 
 1045000   0.87253143    -2.415998    -2.415998   -1.6899213  0.035730837    -2.415998   0.72607664  1255725 
 1046000   0.87242006   -2.4157853   -2.4157853   -1.6898014  0.032369044   -2.4157853   0.72598397  1255725 
 1047000   0.87312324   -2.4161737   -2.4161737   -1.6896045  0.032637212   -2.4161737   0.72656912  1255725 
 1048000   0.87239087   -2.4156413   -2.4156413   -1.6896816   0.02284009   -2.4156413   0.72595967  1255725 
 1049000   0.87255541   -2.4158734   -2.4158734   -1.6897768  0.017999373   -2.4158734    0.7260966  1255725 
 1050000   0.87159381    -2.414601    -2.414601   -1.6893046  0.031329763    -2.414601    0.7252964  1255725 
 1051000   0.87190031    -2.415101    -2.415101   -1.6895495  0.025440438    -2.415101   0.72555145  1255725 
 1052000   0.87211709   -2.4157955   -2.4157955   -1.6900636  0.021087478   -2.4157955   0.72573185  1255725 
 1053000   0.87121992   -2.4150431   -2.4150431   -1.6900579  0.029341526   -2.4150431   0.72498527  1255725 
 1054000   0.87147163   -2.4145282   -2.4145282   -1.6893334  0.023660296   -2.4145282   0.72519473  1255725 
 1055000   0.87158879   -2.4145031   -2.4145031   -1.6892109  0.019577171   -2.4145031   0.72529222  1255725 
 1056000   0.87175649   -2.4143225   -2.4143225   -1.6888907  0.027769958   -2.4143225   0.72543177  1255725 
 1057000   0.87072963   -2.4136273   -2.4136273     -1.68905  0.028028074   -2.4136273   0.72457727  1255725 
 1058000   0.87227867   -2.4149992   -2.4149992   -1.6891329  0.031019893   -2.4149992   0.72586631  1255725 
 1059000   0.87200486   -2.4145731   -2.4145731   -1.6889347  0.033689394   -2.4145731   0.72563846  1255725 
 1060000    0.8717393   -2.4143027   -2.4143027   -1.6888852  0.024547745   -2.4143027   0.72541747  1255725 
 1061000    0.8732865   -2.4156489   -2.4156489   -1.6889439  0.021258508   -2.4156489   0.72670497  1255725 
 1062000   0.87224304    -2.414356    -2.414356   -1.6885193  0.026555823    -2.414356   0.72583666  1255725 
 1063000   0.87170648   -2.4138323   -2.4138323   -1.6884422  0.030507908   -2.4138323   0.72539016  1255725 
 1064000   0.87210853   -2.4141648   -2.4141648   -1.6884401  0.033015064   -2.4141648   0.72572472  1255725 
 1065000   0.87348597   -2.4148666   -2.4148666   -1.6879957  0.029037131   -2.4148666   0.72687097  1255725 
 1066000    0.8729864   -2.4148101   -2.4148101   -1.6883549  0.031398064   -2.4148101   0.72645524  1255725 
 1067000    0.8731926   -2.4146341   -2.4146341   -1.6880073  0.028590192   -2.4146341   0.72662683  1255725 
 1068000   0.87249526   -2.4140832   -2.4140832   -1.6880366  0.031818494   -2.4140832   0.72604654  1255725 
 1069000   0.87224261   -2.4137054   -2.4137054   -1.6878691  0.026916636   -2.4137054    0.7258363  1255725 
 1070000   0.87264002   -2.4142474   -2.4142474   -1.6880804  0.024595945   -2.4142474   0.72616701  1255725 
 1071000   0.87256277    -2.413965    -2.413965   -1.6878623  0.032850585    -2.413965   0.72610272  1255725 
 1072000   0.87306086    -2.414474    -2.414474   -1.6879568   0.02842918    -2.414474    0.7265172  1255725 
 1073000   0.87341782   -2.4146913   -2.4146913   -1.6878771  0.025793299   -2.4146913   0.72681425  1255725 
 1074000   0.87243644    -2.413951    -2.413951   -1.6879534  0.019496139    -2.413951   0.72599759  1255725 
 1075000   0.87230699   -2.4135255   -2.4135255   -1.6876356  0.022596199   -2.4135255   0.72588987  1255725 
 1076000   0.87320467   -2.4145532   -2.4145532   -1.6879163  0.017436034   -2.4145532   0.72663688  1255725 
 1077000   0.87319974   -2.4143679   -2.4143679   -1.6877352   0.03629654   -2.4143679   0.72663278  1255725 
 1078000      0.87451   -2.4152955   -2.4152955   -1.6875724  0.025105309   -2.4152955   0.72772311  1255725 
 1079000   0.87374249   -2.4147516   -2.4147516   -1.6876671  0.021079745   -2.4147516   0.72708443  1255725 
 1080000   0.87431131   -2.4152367   -2.4152367   -1.6876789  0.037216626   -2.4152367   0.72755776  1255725 
 1081000   0.87454342   -2.4152894   -2.4152894   -1.6875385  0.027414701   -2.4152894   0.72775092  1255725 
 1082000   0.87337921   -2.4148165   -2.4148165   -1.6880343  0.032971176   -2.4148165   0.72678212  1255725 
 1083000   0.87457749   -2.4157854   -2.4157854   -1.6880061   0.03788744   -2.4157854   0.72777927  1255725 
 1084000   0.87330904   -2.4147963   -2.4147963   -1.6880726  0.026995641   -2.4147963   0.72672373  1255725 
 1085000   0.87292294   -2.4147332   -2.4147332   -1.6883307  0.032499713   -2.4147332   0.72640243  1255725 
 1086000   0.87270568   -2.4144782   -2.4144782   -1.6882566  0.022550728   -2.4144782   0.72622164  1255725 
 1087000   0.87260635   -2.4144716   -2.4144716   -1.6883326  0.027805751   -2.4144716   0.72613899  1255725 
 1088000   0.87215955   -2.4138471   -2.4138471   -1.6880799   0.02591428   -2.4138471   0.72576718  1255725 
 1089000   0.87301431   -2.4144222   -2.4144222   -1.6879437   0.02676991   -2.4144222   0.72647847  1255725 
 1090000   0.87356565   -2.4149157   -2.4149157   -1.6879784  0.023591239   -2.4149157   0.72693726  1255725 
 1091000   0.87229812   -2.4138322   -2.4138322   -1.6879497   0.02479453   -2.4138322   0.72588249  1255725 
 1092000   0.87258833   -2.4142943   -2.4142943   -1.6881703  0.026584752   -2.4142943   0.72612399  1255725 
 1093000   0.87224952   -2.4135868   -2.4135868   -1.6877447  0.023466691   -2.4135868   0.72584205  1255725 
 1094000    0.8718029   -2.4133153   -2.4133153   -1.6878449  0.028619886   -2.4133153    0.7254704  1255725 
 1095000   0.87237697   -2.4142333   -2.4142333   -1.6882852  0.021774016   -2.4142333   0.72594811  1255725 
 1096000   0.87253568   -2.4141231   -2.4141231   -1.6880429   0.03274093   -2.4141231   0.72608018  1255725 
 1097000   0.87205671   -2.4137061   -2.4137061   -1.6880245  0.026775326   -2.4137061    0.7256816  1255725 
 1098000   0.87311448   -2.4143144   -2.4143144   -1.6877526  0.028407162   -2.4143144   0.72656182  1255725 
 1099000   0.87325716   -2.4143809   -2.4143809   -1.6877003  0.029868128   -2.4143809   0.72668056  1255725 
 1100000   0.87344508   -2.4146106   -2.4146106   -1.6877737  0.015385245   -2.4146106   0.72683694  1255725 
 1101000   0.87557934   -2.4158341   -2.4158341   -1.6872212   0.02683996   -2.4158341   0.72861296  1255725 
 1102000   0.87377614   -2.4144223   -2.4144223   -1.6873099  0.035707263   -2.4144223   0.72711243  1255725 
 1103000   0.87355636   -2.4144255   -2.4144255    -1.687496  0.031627318   -2.4144255   0.72692953  1255725 
 1104000   0.87444192   -2.4149531   -2.4149531   -1.6872867  0.035953637   -2.4149531   0.72766646  1255725 
 1105000    0.8736496   -2.4144956   -2.4144956   -1.6874885  0.022175151   -2.4144956   0.72700712  1255725 
 1106000   0.87234211   -2.4134749   -2.4134749   -1.6875558  0.039720968   -2.4134749    0.7259191  1255725 
 1107000   0.87258408   -2.4140411   -2.4140411   -1.6879207  0.031315975   -2.4140411   0.72612045  1255725 
 1108000   0.87332919   -2.4147786   -2.4147786   -1.6880381  0.031445216   -2.4147786    0.7267405  1255725 
 1109000   0.87294177    -2.414163    -2.414163   -1.6877449  0.025249987    -2.414163   0.72641811  1255725 
 1110000    0.8729927   -2.4145028   -2.4145028   -1.6880423  0.036984481   -2.4145028   0.72646049  1255725 
 1111000   0.87284952   -2.4142233   -2.4142233    -1.687882  0.033526653   -2.4142233   0.72634134  1255725 
 1112000   0.87215931   -2.4134396   -2.4134396   -1.6876726  0.024196061   -2.4134396   0.72576698  1255725 
 1113000   0.87285151   -2.4139811   -2.4139811   -1.6876381   0.03154952   -2.4139811     0.726343  1255725 
 1114000   0.87271476    -2.414188    -2.414188   -1.6879588  0.024357742    -2.414188    0.7262292  1255725 
 1115000   0.87379418   -2.4151315   -2.4151315   -1.6880041  0.021320359   -2.4151315   0.72712744  1255725 
 1116000   0.87485523   -2.4157581   -2.4157581   -1.6877477  0.022190703   -2.4157581   0.72801039  1255725 
 1117000   0.87365526     -2.41458     -2.41458   -1.6875681   0.02803829     -2.41458   0.72701184  1255725 
 1118000   0.87415478   -2.4150365   -2.4150365    -1.687609  0.031736335   -2.4150365   0.72742751  1255725 
 1119000   0.87356964   -2.4144089   -2.4144089   -1.6874683  0.038329931   -2.4144089   0.72694059  1255725 
 1120000   0.87421453   -2.4146071   -2.4146071   -1.6871298  0.025532065   -2.4146071   0.72747723  1255725 
 1121000   0.87413221   -2.4147783   -2.4147783   -1.6873696  0.035170168   -2.4147783   0.72740873  1255725 
 1122000   0.87242095   -2.4137607   -2.4137607    -1.687776  0.031921579   -2.4137607    0.7259847  1255725 
 1123000   0.87259588    -2.414171    -2.414171   -1.6880408  0.029508874    -2.414171   0.72613027  1255725 
 1124000   0.87314036   -2.4145399   -2.4145399   -1.6879566  0.029998563   -2.4145399   0.72658336  1255725 
 1125000   0.87366104    -2.414561    -2.414561   -1.6875443  0.033073105    -2.414561   0.72701665  1255725 
 1126000   0.87319235   -2.4140143   -2.4140143   -1.6873877  0.028635725   -2.4140143   0.72662663  1255725 
 1127000   0.87233152   -2.4131262   -2.4131262   -1.6872159  0.029201958   -2.4131262   0.72591029  1255725 
 1128000   0.87207215   -2.4130664   -2.4130664    -1.687372   0.02836293   -2.4130664   0.72569445  1255725 
 1129000   0.87436645   -2.4142349   -2.4142349   -1.6866313  0.026566476   -2.4142349   0.72760365  1255725 
 1130000   0.87346485   -2.4137694   -2.4137694    -1.686916  0.032243051   -2.4137694   0.72685338  1255725 
 1131000    0.8738652    -2.414121    -2.414121   -1.6869345   0.02678966    -2.414121   0.72718654  1255725 
 1132000   0.87426308   -2.4147262   -2.4147262   -1.6872086  0.029500593   -2.4147262   0.72751763  1255725 
 1133000   0.87281865   -2.4133816   -2.4133816    -1.687066  0.024131586   -2.4133816   0.72631565  1255725 
 1134000    0.8716758    -2.412209    -2.412209   -1.6868444    0.0309461    -2.412209   0.72536463  1255725 
 1135000   0.87267202   -2.4131527   -2.4131527    -1.686959   0.02928011   -2.4131527   0.72619363  1255725 
 1136000   0.87342181   -2.4135225   -2.4135225   -1.6867049  0.022549037   -2.4135225   0.72681757  1255725 
 1137000   0.87290692   -2.4134801   -2.4134801    -1.687091  0.036177554   -2.4134801    0.7263891  1255725 
 1138000   0.87242316    -2.413272    -2.413272   -1.6872855   0.02572217    -2.413272   0.72598654  1255725 
 1139000   0.87257725   -2.4133386   -2.4133386   -1.6872238   0.02673862   -2.4133386   0.72611477  1255725 
 1140000   0.87285723   -2.4136253   -2.4136253   -1.6872776  0.028100807   -2.4136253   0.72634775  1255725 
 1141000   0.87346831   -2.4142411   -2.4142411   -1.6873848  0.022451938   -2.4142411   0.72685626  1255725 
 1142000   0.87322259   -2.4135891   -2.4135891   -1.6869373  0.023665036   -2.4135891   0.72665179  1255725 
 1143000    0.8732399   -2.4138276   -2.4138276   -1.6871614  0.029886951   -2.4138276   0.72666619  1255725 
 1144000   0.87420359   -2.4140575   -2.4140575   -1.6865894  0.029734101   -2.4140575   0.72746813  1255725 
 1145000   0.87545824   -2.4146889   -2.4146889   -1.6861768  0.041433778   -2.4146889   0.72851219  1255725 
 1146000   0.87604881   -2.4146803   -2.4146803   -1.6856767  0.032671366   -2.4146803   0.72900363  1255725 
 1147000   0.87414133   -2.4141375   -2.4141375   -1.6867211  0.034965208   -2.4141375   0.72741632  1255725 
 1148000   0.87413596   -2.4138574   -2.4138574   -1.6864456  0.040402466   -2.4138574   0.72741185  1255725 
 1149000   0.87307246   -2.4129764   -2.4129764   -1.6864496  0.033034512   -2.4129764   0.72652686  1255725 
 1150000   0.87331061   -2.4129865   -2.4129865   -1.6862614  0.020495763   -2.4129865   0.72672504  1255725 
 1151000   0.87383514   -2.4132928   -2.4132928   -1.6861313  0.023283298   -2.4132928   0.72716152  1255725 
 1152000   0.87383122   -2.4130565   -2.4130565   -1.6858982  0.023302029   -2.4130565   0.72715826  1255725 
 1153000   0.87376382   -2.4130558   -2.4130558   -1.6859536  0.026244586   -2.4130558   0.72710218  1255725 
 1154000   0.87433904   -2.4132901   -2.4132901   -1.6857092    0.0292734   -2.4132901   0.72758085  1255725 
 1155000   0.87284105   -2.4122798   -2.4122798   -1.6859455  0.021317733   -2.4122798   0.72633429  1255725 
 1156000   0.87283026   -2.4128411   -2.4128411   -1.6865158  0.019633878   -2.4128411   0.72632531  1255725 
 1157000   0.87335713   -2.4130674   -2.4130674   -1.6863037  0.024155816   -2.4130674   0.72676375  1255725 
 1158000   0.87291919   -2.4129075   -2.4129075   -1.6865081  0.024143288   -2.4129075   0.72639931  1255725 
 1159000   0.87270646   -2.4125854   -2.4125854   -1.6863632  0.017670449   -2.4125854   0.72622229  1255725 
 1160000   0.87286593   -2.4124383   -2.4124383   -1.6860833  0.034198618   -2.4124383     0.726355  1255725 
 1161000   0.87424875   -2.4135319   -2.4135319   -1.6860262  0.026014067   -2.4135319   0.72750571  1255725 
 1162000   0.87292856   -2.4121983   -2.4121983   -1.6857912  0.029545669   -2.4121983   0.72640711  1255725 
 1163000   0.87368592   -2.4124222   -2.4124222   -1.6853849  0.031965031   -2.4124222   0.72703735  1255725 
 1164000   0.87545735   -2.4138853   -2.4138853   -1.6853738   0.02778142   -2.4138853   0.72851144  1255725 
 1165000   0.87345909   -2.4124864   -2.4124864   -1.6856378  0.035668905   -2.4124864    0.7268486  1255725 
 1166000   0.87544674   -2.4141456   -2.4141456    -1.685643  0.023043289   -2.4141456   0.72850261  1255725 
 1167000   0.87441845   -2.4135064   -2.4135064   -1.6858595  0.032198174   -2.4135064   0.72764692  1255725 
 1168000   0.87398526   -2.4130369   -2.4130369   -1.6857504  0.017025478   -2.4130369   0.72728645  1255725 
 1169000   0.87426177   -2.4136206   -2.4136206   -1.6861041  0.027817524   -2.4136206   0.72751655  1255725 
 1170000   0.87365624   -2.4132704   -2.4132704   -1.6862577   0.02054116   -2.4132704   0.72701265  1255725 
 1171000   0.87307008   -2.4124066   -2.4124066   -1.6858817  0.025611371   -2.4124066   0.72652488  1255725 
 1172000   0.87513539   -2.4136442   -2.4136442   -1.6854007  0.034995175   -2.4136442   0.72824352  1255725 
 1173000   0.87461077   -2.4129696   -2.4129696   -1.6851626  0.023167905   -2.4129696   0.72780696  1255725 
 1174000   0.87444459   -2.4128374   -2.4128374   -1.6851688  0.027836673   -2.4128374   0.72766867  1255725 
 1175000    0.8734918   -2.4125211   -2.4125211   -1.6856453  0.025441926   -2.4125211   0.72687581  1255725 
 1176000   0.87367557   -2.4126682   -2.4126682   -1.6856395  0.024855355   -2.4126682   0.72702874  1255725 
 1177000   0.87321866   -2.4120074   -2.4120074   -1.6853589   0.02817044   -2.4120074   0.72664852  1255725 
 1178000   0.87345992   -2.4122612   -2.4122612   -1.6854119  0.023898523   -2.4122612   0.72684928  1255725 
 1179000    0.8740335   -2.4129142   -2.4129142   -1.6855876  0.024711032   -2.4129142   0.72732658  1255725 
 1180000   0.87336064   -2.4119919   -2.4119919   -1.6852253  0.029451066   -2.4119919   0.72676667  1255725 
 1181000   0.87389523   -2.4126467   -2.4126467   -1.6854352  0.025242644   -2.4126467   0.72721153  1255725 
 1182000   0.87420411    -2.412292    -2.412292   -1.6848235  0.024443011    -2.412292   0.72746857  1255725 
 1183000   0.87471889    -2.412877    -2.412877     -1.68498  0.023465045    -2.412877   0.72789693  1255725 
 1184000    0.8733886   -2.4118348   -2.4118348   -1.6850449  0.031374735   -2.4118348   0.72678994  1255725 
 1185000   0.87437674   -2.4127569   -2.4127569   -1.6851447  0.026079201   -2.4127569   0.72761222  1255725 
 1186000   0.87409153   -2.4123547   -2.4123547   -1.6849798  0.033088515   -2.4123547   0.72737488  1255725 
 1187000   0.87380228   -2.4120429   -2.4120429   -1.6849087  0.038214752   -2.4120429   0.72713418  1255725 
 1188000   0.87423579   -2.4123984   -2.4123984   -1.6849035  0.027733053   -2.4123984   0.72749493  1255725 
 1189000   0.87447649   -2.4126396   -2.4126396   -1.6849444   0.03431637   -2.4126396   0.72769522  1255725 
 1190000   0.87469545   -2.4126406   -2.4126406   -1.6847632  0.022912514   -2.4126406   0.72787743  1255725 
 1191000     0.874585   -2.4129566   -2.4129566    -1.685171  0.031200387   -2.4129566   0.72778552  1255725 
 1192000   0.87376153   -2.4124406   -2.4124406   -1.6853403  0.025225107   -2.4124406   0.72710027  1255725 
 1193000   0.87404119   -2.4127386   -2.4127386   -1.6854056  0.034523554   -2.4127386   0.72733298  1255725 
 1194000   0.87510283   -2.4135543   -2.4135543   -1.6853378  0.026231941   -2.4135543   0.72821643  1255725 
 1195000   0.87433039   -2.4127208   -2.4127208   -1.6851472   0.02361121   -2.4127208   0.72757365  1255725 
 1196000   0.87330393   -2.4118276   -2.4118276   -1.6851082  0.035974802   -2.4118276   0.72671948  1255725 
 1197000   0.87362625   -2.4117463   -2.4117463   -1.6847586  0.037866311   -2.4117463   0.72698769  1255725 
 1198000   0.87416917   -2.4128257   -2.4128257   -1.6853862  0.031561729   -2.4128257   0.72743949  1255725 
 1199000   0.87363443   -2.4125188   -2.4125188   -1.6855243  0.036567837   -2.4125188    0.7269945  1255725 
 1200000   0.87435766   -2.4127764   -2.4127764     -1.68518  0.030596844   -2.4127764   0.72759634  1255725 
 1201000   0.87408598   -2.4122982   -2.4122982   -1.6849279  0.028576042   -2.4122982   0.72737026  1255725 
 1202000   0.87378131    -2.411858    -2.411858   -1.6847413  0.026470224    -2.411858   0.72711673  1255725 
 1203000   0.87394778   -2.4121807   -2.4121807   -1.6849255  0.035770894   -2.4121807   0.72725525  1255725 
 1204000   0.87344769   -2.4115333   -2.4115333   -1.6846942  0.027882056   -2.4115333   0.72683911  1255725 
 1205000   0.87524179   -2.4130367   -2.4130367   -1.6847046  0.029716904   -2.4130367   0.72833206  1255725 
 1206000   0.87533598   -2.4129146   -2.4129146   -1.6845041  0.023301933   -2.4129146   0.72841044  1255725 
 1207000   0.87497776   -2.4121579   -2.4121579   -1.6840456  0.028617567   -2.4121579   0.72811235  1255725 
 1208000   0.87466922    -2.412137    -2.412137   -1.6842814  0.029044431    -2.412137    0.7278556  1255725 
 1209000   0.87460801   -2.4117705   -2.4117705   -1.6839658  0.031093109   -2.4117705   0.72780467  1255725 
 1210000   0.87528359   -2.4122546   -2.4122546   -1.6838877   0.02846086   -2.4122546   0.72836685  1255725 
 1211000   0.87523565   -2.4124059   -2.4124059   -1.6840789  0.030263511   -2.4124059   0.72832696  1255725 
 1212000   0.87489359    -2.412274    -2.412274   -1.6842317  0.024133328    -2.412274   0.72804231  1255725 
 1213000    0.8753769   -2.4123669   -2.4123669   -1.6839224  0.029356856   -2.4123669    0.7284445  1255725 
 1214000   0.87401137   -2.4112319   -2.4112319   -1.6839237  0.026709076   -2.4112319   0.72730817  1255725 
 1215000   0.87300281   -2.4108863   -2.4108863   -1.6844174  0.026131375   -2.4108863    0.7264689  1255725 
 1216000   0.87255072     -2.41078     -2.41078   -1.6846873      0.02412     -2.41078   0.72609269  1255725 
 1217000    0.8738322   -2.4115229   -2.4115229   -1.6843638  0.027205909   -2.4115229   0.72715908  1255725 
 1218000   0.87424022    -2.411566    -2.411566   -1.6840674  0.027667565    -2.411566   0.72749861  1255725 
 1219000   0.87456241   -2.4116727   -2.4116727    -1.683906  0.029610343   -2.4116727   0.72776672  1255725 
 1220000   0.87391799   -2.4113945   -2.4113945    -1.684164  0.036560892   -2.4113945   0.72723046  1255725 
 1221000   0.87478825   -2.4121424   -2.4121424   -1.6841877  0.020483584   -2.4121424   0.72795465  1255725 
 1222000    0.8742833   -2.4115382   -2.4115382   -1.6840037  0.025083535   -2.4115382   0.72753446  1255725 
 1223000   0.87529124   -2.4122315   -2.4122315   -1.6838583   0.02294531   -2.4122315   0.72837321  1255725 
 1224000   0.87556704   -2.4124709   -2.4124709   -1.6838682  0.032123985   -2.4124709   0.72860272  1255725 
 1225000   0.87400966   -2.4112144   -2.4112144   -1.6839077   0.02812566   -2.4112144   0.72730675  1255725 
 1226000    0.8753989   -2.4124125   -2.4124125   -1.6839497   0.01830457   -2.4124125   0.72846281  1255725 
 1227000    0.8747087   -2.4121666   -2.4121666   -1.6842781  0.023561756   -2.4121666   0.72788845  1255725 
 1228000   0.87521126   -2.4125546   -2.4125546   -1.6842479  0.028394161   -2.4125546   0.72830666  1255725 
 1229000   0.87482934   -2.4118335   -2.4118335   -1.6838446   0.02776847   -2.4118335   0.72798885  1255725 
 1230000   0.87542628   -2.4122767   -2.4122767   -1.6837911   0.03094227   -2.4122767   0.72848559  1255725 
 1231000   0.87457344   -2.4117104   -2.4117104   -1.6839345  0.037553628   -2.4117104    0.7277759  1255725 
 1232000   0.87498661   -2.4120521   -2.4120521   -1.6839324  0.029906594   -2.4120521   0.72811972  1255725 
 1233000   0.87438317   -2.4115445   -2.4115445   -1.6839269  0.026852305   -2.4115445   0.72761756  1255725 
 1234000    0.8744268   -2.4117697   -2.4117697   -1.6841159  0.026995248   -2.4117697   0.72765387  1255725 
 1235000   0.87437592   -2.4116732   -2.4116732   -1.6840617  0.030020215   -2.4116732   0.72761153  1255725 
 1236000    0.8748073   -2.4118032   -2.4118032   -1.6838327  0.023229844   -2.4118032   0.72797051  1255725 
 1237000   0.87496013   -2.4116128   -2.4116128   -1.6835151  0.028249372   -2.4116128   0.72809769  1255725 
 1238000   0.87473617   -2.4112635   -2.4112635   -1.6833522  0.023579395   -2.4112635   0.72791132  1255725 
 1239000   0.87611994   -2.4120314   -2.4120314   -1.6829686  0.034241338   -2.4120314   0.72906282  1255725 
 1240000   0.87556522   -2.4118362   -2.4118362    -1.683235  0.033004594   -2.4118362   0.72860121  1255725 
 1241000   0.87677743   -2.4122589   -2.4122589   -1.6826489  0.036047523   -2.4122589   0.72960995  1255725 
 1242000   0.87529007    -2.411253    -2.411253   -1.6828808  0.025988208    -2.411253   0.72837224  1255725 
 1243000   0.87620894   -2.4119485   -2.4119485   -1.6828116  0.026630561   -2.4119485   0.72913688  1255725 
 1244000   0.87518114   -2.4107339   -2.4107339   -1.6824523  0.027669606   -2.4107339    0.7282816  1255725 
 1245000   0.87566044   -2.4107372   -2.4107372   -1.6820568  0.030365646   -2.4107372   0.72868044  1255725 
 1246000   0.87522732   -2.4108789   -2.4108789   -1.6825589   0.02645406   -2.4108789   0.72832003  1255725 
 1247000   0.87508904   -2.4110136   -2.4110136   -1.6828086  0.033881571   -2.4110136   0.72820496  1255725 
 1248000   0.87479569    -2.410964    -2.410964   -1.6830031  0.027646393    -2.410964   0.72796084  1255725 
 1249000   0.87465517   -2.4108668   -2.4108668   -1.6830229  0.017467078   -2.4108668   0.72784391  1255725 
 1250000   0.87407381    -2.409674    -2.409674   -1.6823139     0.026743    -2.409674   0.72736013  1255725 
 1251000   0.87509355   -2.4103774   -2.4103774   -1.6821686  0.017216085   -2.4103774   0.72820871  1255725 
 1252000   0.87535798    -2.410374    -2.410374   -1.6819453  0.027288023    -2.410374   0.72842875  1255725 
 1253000    0.8753059   -2.4097645   -2.4097645   -1.6813791  0.033360239   -2.4097645   0.72838542  1255725 
 1254000   0.87662197   -2.4109901   -2.4109901   -1.6815095  0.018296034   -2.4109901   0.72948059  1255725 
 1255000   0.87694934    -2.411393    -2.411393     -1.68164  0.020181513    -2.411393     0.729753  1255725 
 1256000   0.87600043   -2.4100442   -2.4100442   -1.6810809  0.027158937   -2.4100442   0.72896337  1255725 
 1257000   0.87620966   -2.4101065   -2.4101065    -1.680969   0.02815061   -2.4101065   0.72913747  1255725 
 1258000   0.87526053   -2.4098064   -2.4098064   -1.6814587  0.025305906   -2.4098064   0.72834766  1255725 
 1259000   0.87500203   -2.4099217   -2.4099217   -1.6817891  0.031750594   -2.4099217   0.72813255  1255725 
 1260000    0.8753721   -2.4105904   -2.4105904   -1.6821499  0.028556615   -2.4105904   0.72844051  1255725 
 1261000   0.87432461   -2.4099508   -2.4099508    -1.682382  0.021751993   -2.4099508   0.72756883  1255725 
 1262000   0.87406447   -2.4094113   -2.4094113   -1.6820589  0.029887875   -2.4094113   0.72735236  1255725 
 1263000   0.87534958   -2.4099546   -2.4099546   -1.6815328  0.032044189   -2.4099546   0.72842176  1255725 
 1264000   0.87667402   -2.4106864   -2.4106864   -1.6811625  0.034166394   -2.4106864    0.7295239  1255725 
 1265000   0.87794347   -2.4117353   -2.4117353   -1.6811551   0.02594382   -2.4117353   0.73058027  1255725 
 1266000    0.8779628   -2.4117767   -2.4117767   -1.6811804  0.033882848   -2.4117767   0.73059635  1255725 
 1267000   0.87702309    -2.410562    -2.410562   -1.6807476  0.030642813    -2.410562   0.72981437  1255725 
 1268000   0.87586944   -2.4095868   -2.4095868   -1.6807325  0.033993203   -2.4095868   0.72885436  1255725 
 1269000   0.87615986   -2.4102514   -2.4102514   -1.6811553  0.023970233   -2.4102514   0.72909604  1255725 
 1270000   0.87567603   -2.4099237   -2.4099237   -1.6812303  0.028251375   -2.4099237   0.72869341  1255725 
 1271000   0.87500256   -2.4097664   -2.4097664   -1.6816334  0.032926999   -2.4097664   0.72813299  1255725 
 1272000   0.87582879   -2.4102044   -2.4102044   -1.6813839  0.026208405   -2.4102044   0.72882053  1255725 
 1273000   0.87461594   -2.4086953   -2.4086953    -1.680884  0.036777089   -2.4086953   0.72781126  1255725 
 1274000   0.87494828   -2.4088522   -2.4088522   -1.6807644  0.025745554   -2.4088522   0.72808782  1255725 
 1275000   0.87562011   -2.4094444   -2.4094444   -1.6807975  0.023522829   -2.4094444   0.72864689  1255725 
 1276000   0.87656055   -2.4099711   -2.4099711   -1.6805417  0.025422798   -2.4099711   0.72942947  1255725 
 1277000   0.87546602   -2.4090508   -2.4090508   -1.6805322  0.026951097   -2.4090508   0.72851866  1255725 
 1278000    0.8746695   -2.4086471   -2.4086471   -1.6807912  0.030497304   -2.4086471   0.72785584  1255725 
 1279000   0.87514887   -2.4091802   -2.4091802   -1.6809255  0.025488302   -2.4091802   0.72825474  1255725 
 1280000   0.87549489   -2.4097571   -2.4097571   -1.6812144   0.01142332   -2.4097571   0.72854268  1255725 
 1281000    0.8754944   -2.4093669   -2.4093669   -1.6808246  0.019113132   -2.4093669   0.72854228  1255725 
 1282000   0.87536641   -2.4091073   -2.4091073   -1.6806716     0.021035   -2.4091073   0.72843577  1255725 
 1283000    0.8760484   -2.4095373   -2.4095373    -1.680534  0.019849931   -2.4095373   0.72900328  1255725 
 1284000   0.87645397   -2.4094445   -2.4094445   -1.6801037  0.025831815   -2.4094445   0.72934078  1255725 
 1285000   0.87712891   -2.4101233   -2.4101233   -1.6802208  0.032439804   -2.4101233   0.72990244  1255725 
 1286000   0.87739271   -2.4101529   -2.4101529    -1.680031  0.023110603   -2.4101529   0.73012196  1255725 
 1287000   0.87664035   -2.4091313   -2.4091313   -1.6796354  0.033660828   -2.4091313   0.72949588  1255725 
 1288000   0.87742493   -2.4098805   -2.4098805   -1.6797317  0.033146216   -2.4098805   0.73014877  1255725 
 1289000   0.87694915   -2.4093776   -2.4093776   -1.6796248  0.037425122   -2.4093776   0.72975284  1255725 
 1290000    0.8768256   -2.4094391   -2.4094391   -1.6797891  0.031883514   -2.4094391   0.72965003  1255725 
 1291000    0.8774552   -2.4099112   -2.4099112   -1.6797373  0.034190275   -2.4099112   0.73017396  1255725 
 1292000   0.87776761   -2.4101944   -2.4101944   -1.6797605   0.04613954   -2.4101944   0.73043393  1255725 
 1293000   0.87676007   -2.4092987   -2.4092987   -1.6797032  0.022285926   -2.4092987    0.7295955  1255725 
 1294000    0.8764634   -2.4090983   -2.4090983   -1.6797497  0.027945448   -2.4090983   0.72934863  1255725 
 1295000    0.8762804   -2.4092136   -2.4092136   -1.6800173  0.029930462   -2.4092136   0.72919634  1255725 
 1296000   0.87470332   -2.4079319   -2.4079319   -1.6800479  0.030993785   -2.4079319   0.72788398  1255725 
 1297000   0.87511098   -2.4080435   -2.4080435   -1.6798203  0.033251747   -2.4080435   0.72822321  1255725 
 1298000   0.87608194    -2.408276    -2.408276   -1.6792448  0.021016406    -2.408276    0.7290312  1255725 
 1299000   0.87581007   -2.4080718   -2.4080718   -1.6792668  0.025668781   -2.4080718   0.72880496  1255725 
 1300000   0.87647189   -2.4087621   -2.4087621   -1.6794064  0.020865952   -2.4087621   0.72935569  1255725 
 1301000   0.87627827   -2.4081903   -2.4081903   -1.6789958  0.025295249   -2.4081903   0.72919458  1255725 
 1302000   0.87526444   -2.4074694   -2.4074694   -1.6791185  0.030225829   -2.4074694   0.72835091  1255725 
 1303000   0.87494686   -2.4073466   -2.4073466   -1.6792599  0.025388555   -2.4073466   0.72808664  1255725 
 1304000   0.87572485   -2.4078009   -2.4078009   -1.6790669  0.026479342   -2.4078009   0.72873405  1255725 
 1305000   0.87590232    -2.407711    -2.407711   -1.6788293  0.024835954    -2.407711   0.72888172  1255725 
 1306000   0.87568138   -2.4078779   -2.4078779     -1.67918   0.02518049   -2.4078779   0.72869787  1255725 
 1307000   0.87592409   -2.4083762   -2.4083762   -1.6794763  0.022911861   -2.4083762   0.72889984  1255725 
 1308000   0.87633655   -2.4082587   -2.4082587   -1.6790156  0.025161446   -2.4082587   0.72924307  1255725 
 1309000   0.87645739   -2.4087429   -2.4087429   -1.6793993  0.020184382   -2.4087429   0.72934363  1255725 
 1310000   0.87603511    -2.408161    -2.408161   -1.6791688  0.031535277    -2.408161   0.72899223  1255725 
 1311000   0.87635331   -2.4084146   -2.4084146   -1.6791576  0.026692963   -2.4084146   0.72925702  1255725 
 1312000   0.87593479   -2.4079337   -2.4079337   -1.6790249  0.037223931   -2.4079337   0.72890875  1255725 
 1313000   0.87697707   -2.4087719   -2.4087719   -1.6789958  0.020211362   -2.4087719   0.72977608  1255725 
 1314000   0.87583695   -2.4083053   -2.4083053   -1.6794779   0.03235744   -2.4083053   0.72882733  1255725 
 1315000   0.87668012   -2.4085841   -2.4085841   -1.6790551  0.024067821   -2.4085841   0.72952897  1255725 
 1316000   0.87637205   -2.4084353   -2.4084353   -1.6791627  0.035009118   -2.4084353   0.72927261  1255725 
 1317000   0.87641805   -2.4082941   -2.4082941   -1.6789832  0.040239159   -2.4082941   0.72931089  1255725 
 1318000   0.87828472   -2.4095582   -2.4095582   -1.6786939  0.034638315   -2.4095582   0.73086424  1255725 
 1319000    0.8782284   -2.4095633   -2.4095633   -1.6787459   0.02867366   -2.4095633   0.73081738  1255725 
 1320000   0.87744735   -2.4089436   -2.4089436   -1.6787762   0.02481447   -2.4089436   0.73016742  1255725 
 1321000   0.87612751   -2.4077687   -2.4077687   -1.6786996  0.023852003   -2.4077687   0.72906912  1255725 
 1322000   0.87620764    -2.407892    -2.407892   -1.6787562  0.031294853    -2.407892    0.7291358  1255725 
 1323000   0.87695485   -2.4084702   -2.4084702   -1.6787126   0.02564335   -2.4084702   0.72975759  1255725 
 1324000   0.87651767   -2.4083995   -2.4083995   -1.6790057  0.022849374   -2.4083995   0.72939379  1255725 
 1325000   0.87667354   -2.4087467   -2.4087467   -1.6792232  0.035195153   -2.4087467   0.72952349  1255725 
 1326000   0.87681147   -2.4085611   -2.4085611   -1.6789228   0.02387583   -2.4085611   0.72963827  1255725 
 1327000   0.87738099   -2.4084959   -2.4084959   -1.6783837  0.022499572   -2.4084959    0.7301122  1255725 
 1328000   0.87651656   -2.4079671   -2.4079671   -1.6785742  0.023433502   -2.4079671   0.72939287  1255725 
 1329000    0.8775128   -2.4084154   -2.4084154   -1.6781935  0.024182053   -2.4084154   0.73022189  1255725 
 1330000   0.87602375   -2.4069607   -2.4069607   -1.6779779  0.039674413   -2.4069607   0.72898278  1255725 
 1331000   0.87647696   -2.4070432   -2.4070432   -1.6776833  0.032878029   -2.4070432   0.72935991  1255725 
 1332000   0.87693193   -2.4075467   -2.4075467   -1.6778082  0.025689787   -2.4075467   0.72973852  1255725 
 1333000   0.87623544    -2.407335    -2.407335   -1.6781761  0.029291103    -2.407335   0.72915893  1255725 
 1334000   0.87782944   -2.4081976   -2.4081976   -1.6777123  0.018108694   -2.4081976   0.73048537  1255725 
 1335000   0.87690989   -2.4076601   -2.4076601   -1.6779399  0.026631821   -2.4076601   0.72972018  1255725 
 1336000   0.87647526   -2.4072272   -2.4072272   -1.6778687  0.026715997   -2.4072272    0.7293585  1255725 
 1337000   0.87638863   -2.4071902   -2.4071902   -1.6779038  0.032240032   -2.4071902   0.72928641  1255725 
 1338000   0.87689571    -2.407705    -2.407705   -1.6779966  0.021644766    -2.407705   0.72970838  1255725 
 1339000   0.87605241   -2.4071015   -2.4071015   -1.6780949  0.022290664   -2.4071015   0.72900663  1255725 
 1340000   0.87623797   -2.4070312   -2.4070312   -1.6778702  0.026991529   -2.4070312   0.72916104  1255725 
 1341000    0.8771272   -2.4074767   -2.4074767   -1.6775756  0.023096979   -2.4074767   0.72990101  1255725 
 1342000   0.87723804   -2.4077736   -2.4077736   -1.6777803   0.02494026   -2.4077736   0.72999324  1255725 
 1343000   0.87716879   -2.4077644   -2.4077644   -1.6778288  0.035857338   -2.4077644   0.72993562  1255725 
 1344000   0.87771415   -2.4079928   -2.4079928   -1.6776034  0.026059801   -2.4079928   0.73038944  1255725 
 1345000   0.87713014   -2.4068522   -2.4068522   -1.6769487  0.032551665   -2.4068522   0.72990346  1255725 
 1346000   0.87669417   -2.4067854   -2.4067854   -1.6772448  0.029124233   -2.4067854   0.72954067  1255725 
 1347000   0.87817786   -2.4077293   -2.4077293    -1.676954  0.033285974   -2.4077293   0.73077532  1255725 
 1348000   0.87850076   -2.4082532   -2.4082532   -1.6772092  0.027755235   -2.4082532   0.73104402  1255725 
 1349000   0.87757035   -2.4076843   -2.4076843   -1.6774145  0.024239691   -2.4076843   0.73026978  1255725 
 1350000   0.87714047   -2.4064039   -2.4064039   -1.6764919  0.023036223   -2.4064039   0.72991205  1255725 
 1351000   0.87813848   -2.4073512   -2.4073512   -1.6766087  0.030975859   -2.4073512   0.73074254  1255725 
 1352000   0.87771535   -2.4069382   -2.4069382   -1.6765478  0.029656901   -2.4069382   0.73039044  1255725 
 1353000   0.87758886   -2.4069423   -2.4069423   -1.6766571  0.040326253   -2.4069423   0.73028518  1255725 
 1354000   0.87682117   -2.4058761   -2.4058761   -1.6762297    0.0288809   -2.4058761   0.72964634  1255725 
 1355000   0.87738493   -2.4064371   -2.4064371   -1.6763216  0.024854197   -2.4064371   0.73011548  1255725 
 1356000   0.87732351   -2.4059825   -2.4059825   -1.6759182  0.026126584   -2.4059825   0.73006436  1255725 
 1357000   0.87657879   -2.4051104   -2.4051104   -1.6756657  0.019638216   -2.4051104   0.72944465  1255725 
 1358000   0.87730369   -2.4056846   -2.4056846   -1.6756367  0.024811439   -2.4056846   0.73004788  1255725 
 1359000   0.87658966   -2.4048352   -2.4048352   -1.6753815  0.025449167   -2.4048352    0.7294537  1255725 
 1360000   0.87688842   -2.4051127   -2.4051127   -1.6754103  0.020378101   -2.4051127   0.72970231  1255725 
 1361000   0.87742713   -2.4056383   -2.4056383   -1.6754877  0.030614371   -2.4056383   0.73015059  1255725 
 1362000   0.87784936   -2.4055084   -2.4055084   -1.6750064   0.03055889   -2.4055084   0.73050196  1255725 
 1363000   0.87701888   -2.4051557   -2.4051557   -1.6753448  0.025707106   -2.4051557   0.72981087  1255725 
 1364000   0.87629681   -2.4046656   -2.4046656   -1.6754556  0.029840938   -2.4046656      0.72921  1255725 
 1365000   0.87780354   -2.4055616   -2.4055616   -1.6750977  0.027476348   -2.4055616   0.73046383  1255725 
 1366000    0.8769542   -2.4051515   -2.4051515   -1.6753945  0.022634547   -2.4051515   0.72975704  1255725 
 1367000   0.87767034   -2.4055784   -2.4055784   -1.6752254   0.03135536   -2.4055784   0.73035298  1255725 
 1368000   0.87831003   -2.4063931   -2.4063931   -1.6755078  0.024606396   -2.4063931    0.7308853  1255725 
 1369000    0.8775443   -2.4058691   -2.4058691    -1.675621  0.028786251   -2.4058691    0.7302481  1255725 
 1370000   0.87793662   -2.4063503   -2.4063503   -1.6757757   0.03215406   -2.4063503   0.73057457  1255725 
 1371000   0.87872214   -2.4067334   -2.4067334   -1.6755052  0.025258797   -2.4067334   0.73122824  1255725 
 1372000   0.87779563   -2.4060805   -2.4060805   -1.6756233   0.02594845   -2.4060805   0.73045724  1255725 
 1373000   0.87965016   -2.4077361   -2.4077361   -1.6757356   0.03604247   -2.4077361   0.73200049  1255725 
 1374000   0.87870429   -2.4066068   -2.4066068   -1.6753934  0.022403115   -2.4066068   0.73121338  1255725 
 1375000   0.87926014   -2.4072059   -2.4072059   -1.6755299  0.031229437   -2.4072059   0.73167594  1255725 
 1376000   0.87777958   -2.4058792   -2.4058792   -1.6754353  0.037484396   -2.4058792   0.73044388  1255725 
 1377000   0.87770809   -2.4054124   -2.4054124    -1.675028  0.031311536   -2.4054124    0.7303844  1255725 
 1378000   0.87846705    -2.405763    -2.405763    -1.674747  0.025151167    -2.405763   0.73101597  1255725 
 1379000   0.87832542    -2.405851    -2.405851   -1.6749529  0.024558336    -2.405851   0.73089811  1255725 
 1380000   0.87792271   -2.4055767   -2.4055767   -1.6750137  0.025755123   -2.4055767   0.73056299  1255725 
 1381000   0.87785525   -2.4058632   -2.4058632   -1.6753563  0.028450675   -2.4058632   0.73050686  1255725 
 1382000   0.87774332   -2.4054884   -2.4054884   -1.6750747  0.024553736   -2.4054884   0.73041371  1255725 
 1383000    0.8778413   -2.4058471   -2.4058471   -1.6753518  0.021389562   -2.4058471   0.73049525  1255725 
 1384000   0.87694545   -2.4046323   -2.4046323   -1.6748825  0.032458489   -2.4046323   0.72974977  1255725 
 1385000   0.87778069   -2.4055198   -2.4055198    -1.675075  0.035606169   -2.4055198   0.73044481  1255725 
 1386000   0.87715523   -2.4050868   -2.4050868   -1.6751625  0.025422974   -2.4050868   0.72992434  1255725 
 1387000   0.87732454   -2.4046996   -2.4046996   -1.6746344  0.027927635   -2.4046996   0.73006522  1255725 
 1388000   0.87752975   -2.4049297   -2.4049297   -1.6746937  0.025337689   -2.4049297   0.73023599  1255725 
 1389000   0.87768857   -2.4047012   -2.4047012    -1.674333  0.023027577   -2.4047012   0.73036815  1255725 
 1390000   0.87831559   -2.4050902   -2.4050902   -1.6742003  0.030806302   -2.4050902   0.73088993  1255725 
 1391000   0.87761803   -2.4047659   -2.4047659   -1.6744565  0.030413058   -2.4047659   0.73030945  1255725 
 1392000   0.87752114    -2.404491    -2.404491   -1.6742621  0.021476068    -2.404491   0.73022882  1255725 
 1393000   0.87957984   -2.4061584   -2.4061584   -1.6742165  0.027098097   -2.4061584   0.73194197  1255725 
 1394000   0.87962357   -2.4060394   -2.4060394    -1.674061  0.032939461   -2.4060394   0.73197836  1255725 
 1395000   0.87914672   -2.4050875   -2.4050875   -1.6735059  0.030415925   -2.4050875   0.73158155  1255725 
 1396000   0.87964018   -2.4060223   -2.4060223   -1.6740301  0.039180572   -2.4060223   0.73199218  1255725 
 1397000   0.87917752   -2.4058791   -2.4058791   -1.6742719  0.024193077   -2.4058791   0.73160718  1255725 
 1398000    0.8783193   -2.4053495   -2.4053495   -1.6744565  0.025959036   -2.4053495   0.73089302  1255725 
 1399000    0.8786882   -2.4054812   -2.4054812   -1.6742812  0.025324324   -2.4054812       0.7312  1255725 
 1400000   0.87934908   -2.4056198   -2.4056198   -1.6738698   0.02474545   -2.4056198   0.73174995  1255725 
 1401000   0.87925365   -2.4057214   -2.4057214   -1.6740509  0.025030796   -2.4057214   0.73167053  1255725 
 1402000   0.87859708   -2.4047515   -2.4047515   -1.6736273  0.023220087   -2.4047515   0.73112417  1255725 
 1403000   0.87870812   -2.4052364   -2.4052364   -1.6740198  0.034853698   -2.4052364   0.73121657  1255725 
 1404000     0.879144   -2.4053444   -2.4053444   -1.6737651   0.02489798   -2.4053444   0.73157929  1255725 
 1405000   0.87927229   -2.4055563   -2.4055563   -1.6738703  0.027651269   -2.4055563   0.73168604  1255725 
 1406000   0.87870785    -2.404959    -2.404959   -1.6737426  0.029829917    -2.404959   0.73121634  1255725 
 1407000   0.87906249   -2.4051693   -2.4051693   -1.6736578  0.029870694   -2.4051693   0.73151146  1255725 
 1408000   0.87776985   -2.4040361   -2.4040361   -1.6736003  0.026500756   -2.4040361   0.73043579  1255725 
 1409000   0.87748802   -2.4039897   -2.4039897   -1.6737885  0.026483363   -2.4039897   0.73020127  1255725 
 1410000   0.87778669   -2.4038906   -2.4038906   -1.6734408  0.025579574   -2.4038906    0.7304498  1255725 
 1411000   0.87717994   -2.4035463   -2.4035463   -1.6736014  0.020941169   -2.4035463    0.7299449  1255725 
 1412000   0.87797983   -2.4036926   -2.4036926   -1.6730821  0.021804877   -2.4036926   0.73061053  1255725 
 1413000    0.8787271   -2.4035857   -2.4035857   -1.6723533   0.01908115   -2.4035857   0.73123237  1255725 
 1414000   0.87925199   -2.4040427   -2.4040427   -1.6723736  0.021578707   -2.4040427   0.73166915  1255725 
 1415000   0.87747306   -2.4026513   -2.4026513   -1.6724625  0.023617162   -2.4026513   0.73018881  1255725 
 1416000   0.87796138   -2.4031393   -2.4031393   -1.6725441  0.029858211   -2.4031393   0.73059518  1255725 
 1417000   0.87994911   -2.4045158   -2.4045158   -1.6722666  0.026444389   -2.4045158   0.73224926  1255725 
 1418000    0.8800619   -2.4042252   -2.4042252   -1.6718821  0.016673766   -2.4042252   0.73234312  1255725 
 1419000     0.878978   -2.4034875   -2.4034875   -1.6720463  0.026915859   -2.4034875   0.73144116  1255725 
 1420000   0.87809035   -2.4026686   -2.4026686   -1.6719661  0.021624254   -2.4026686   0.73070249  1255725 
 1421000   0.87794005   -2.4025021   -2.4025021   -1.6719246  0.031509305   -2.4025021   0.73057742  1255725 
 1422000   0.87845703   -2.4032561   -2.4032561   -1.6722485  0.029360277   -2.4032561   0.73100762  1255725 
 1423000   0.87779342   -2.4030015   -2.4030015   -1.6725461  0.031080974   -2.4030015    0.7304554  1255725 
 1424000   0.87781385   -2.4031554   -2.4031554    -1.672683  0.028695281   -2.4031554   0.73047241  1255725 
 1425000   0.87844324   -2.4036658   -2.4036658   -1.6726696  0.031404704   -2.4036658   0.73099616  1255725 
 1426000    0.8774963   -2.4027337   -2.4027337   -1.6725255  0.029598442   -2.4027337   0.73020816  1255725 
 1427000   0.87771103   -2.4029713   -2.4029713   -1.6725845  0.024757862   -2.4029713   0.73038684  1255725 
 1428000   0.87908533   -2.4041566   -2.4041566   -1.6726261  0.024326576   -2.4041566   0.73153046  1255725 
 1429000   0.87807222   -2.4029678   -2.4029678   -1.6722804  0.032103063   -2.4029678   0.73068741  1255725 
 1430000   0.87976291   -2.4042727   -2.4042727   -1.6721783  0.027984719   -2.4042727   0.73209432  1255725 
 1431000   0.87786574   -2.4027658   -2.4027658   -1.6722502  0.029078513   -2.4027658   0.73051559  1255725 
 1432000   0.87984517   -2.4040932   -2.4040932   -1.6719304  0.027480931   -2.4040932   0.73216277  1255725 
 1433000   0.87974796   -2.4044635   -2.4044635   -1.6723816  0.025908124   -2.4044635   0.73208188  1255725 
 1434000   0.87913762   -2.4036813   -2.4036813   -1.6721073   0.02771085   -2.4036813   0.73157398  1255725 
 1435000   0.88071241   -2.4049341   -2.4049341   -1.6720497   0.02255087   -2.4049341   0.73288444  1255725 
 1436000   0.87914323   -2.4032715   -2.4032715   -1.6716928  0.036931633   -2.4032715   0.73157865  1255725 
 1437000   0.87887693   -2.4027986   -2.4027986   -1.6714416  0.032036165   -2.4027986   0.73135705  1255725 
 1438000   0.87955184   -2.4035578   -2.4035578   -1.6716392   0.03250798   -2.4035578   0.73191867  1255725 
 1439000   0.88019164   -2.4038851   -2.4038851    -1.671434  0.020675661   -2.4038851   0.73245108  1255725 
 1440000   0.87909589   -2.4028452   -2.4028452   -1.6713059  0.022448908   -2.4028452   0.73153925  1255725 
 1441000   0.87927461   -2.4027534   -2.4027534   -1.6710654  0.029789688   -2.4027534   0.73168798  1255725 
 1442000    0.8786402   -2.4023193   -2.4023193   -1.6711593  0.035019571   -2.4023193   0.73116005  1255725 
 1443000    0.8792096   -2.4027064   -2.4027064   -1.6710725   0.02693316   -2.4027064   0.73163388  1255725 
 1444000   0.87877895   -2.4026694   -2.4026694   -1.6713939  0.024430888   -2.4026694   0.73127551  1255725 
 1445000   0.87855838   -2.4024164   -2.4024164   -1.6713244  0.026991233   -2.4024164   0.73109196  1255725 
 1446000   0.87892899    -2.402536    -2.402536   -1.6711357  0.027935953    -2.402536   0.73140037  1255725 
 1447000   0.87830125   -2.4016238   -2.4016238   -1.6707458  0.017445453   -2.4016238     0.730878  1255725 
 1448000   0.87920639   -2.4026114   -2.4026114   -1.6709802  0.023812656   -2.4026114   0.73163121  1255725 
 1449000   0.87992573   -2.4029887   -2.4029887   -1.6707589  0.020053658   -2.4029887   0.73222981  1255725 
 1450000   0.87880575   -2.4016709   -2.4016709    -1.670373  0.031443053   -2.4016709   0.73129782  1255725 
 1451000   0.88043769    -2.403079    -2.403079   -1.6704231  0.026905774    -2.403079   0.73265583  1255725 
 1452000   0.87980644   -2.4028215   -2.4028215    -1.670691  0.025397432   -2.4028215   0.73213054  1255725 
 1453000   0.88028988   -2.4027635   -2.4027635   -1.6702307  0.028261008   -2.4027635   0.73253283  1255725 
 1454000   0.88066472   -2.4030898   -2.4030898   -1.6702451  0.028038536   -2.4030898   0.73284475  1255725 
 1455000   0.88147477   -2.4035159   -2.4035159   -1.6699971  0.025944422   -2.4035159   0.73351884  1255725 
 1456000   0.87963356   -2.4024461   -2.4024461   -1.6704594  0.021580933   -2.4024461   0.73198668  1255725 
 1457000   0.87947269   -2.4025958   -2.4025958   -1.6707429  0.027291743   -2.4025958   0.73185281  1255725 
 1458000   0.87956513   -2.4023711   -2.4023711   -1.6704414  0.022413353   -2.4023711   0.73192973  1255725 
 1459000   0.87945916   -2.4023793   -2.4023793   -1.6705377  0.029542678   -2.4023793   0.73184155  1255725 
 1460000   0.88032225   -2.4028347   -2.4028347   -1.6702749   0.03714885   -2.4028347   0.73255977  1255725 
 1461000   0.88019394   -2.4027252   -2.4027252   -1.6702722  0.026984559   -2.4027252     0.732453  1255725 
 1462000   0.87957646   -2.4019194   -2.4019194   -1.6699802  0.020340766   -2.4019194   0.73193916  1255725 
 1463000   0.88035071     -2.40228     -2.40228   -1.6696965  0.024710035     -2.40228   0.73258346  1255725 
 1464000   0.88079794   -2.4024597   -2.4024597   -1.6695041  0.031426495   -2.4024597   0.73295561  1255725 
 1465000    0.8815431   -2.4029179   -2.4029179   -1.6693422  0.033654146   -2.4029179    0.7335757  1255725 
 1466000   0.88050485   -2.4020858   -2.4020858   -1.6693741  0.031488841   -2.4020858   0.73271172  1255725 
 1467000   0.88094064   -2.4023249   -2.4023249   -1.6692506  0.028824524   -2.4023249   0.73307436  1255725 
 1468000   0.87967826   -2.4016535   -2.4016535   -1.6696296  0.031745351   -2.4016535   0.73202387  1255725 
 1469000   0.88069747   -2.4022927   -2.4022927   -1.6694207  0.030591006   -2.4022927   0.73287201  1255725 
 1470000   0.88003515   -2.4014891   -2.4014891   -1.6691682  0.027732631   -2.4014891   0.73232086  1255725 
 1471000   0.88108946   -2.4020423   -2.4020423   -1.6688441  0.028267868   -2.4020423   0.73319821  1255725 
 1472000   0.88060813   -2.4018129   -2.4018129   -1.6690153  0.021085717   -2.4018129   0.73279766  1255725 
 1473000   0.87956047   -2.4007151   -2.4007151   -1.6687893  0.035222395   -2.4007151   0.73192585  1255725 
 1474000   0.88026077   -2.4008528   -2.4008528   -1.6683442  0.030088997   -2.4008528   0.73250861  1255725 
 1475000   0.87923866   -2.4000626   -2.4000626   -1.6684045  0.025899161   -2.4000626   0.73165806  1255725 
 1476000   0.87947681   -2.4001861   -2.4001861   -1.6683298  0.022502256   -2.4001861   0.73185624  1255725 
 1477000   0.87903051   -2.3997507   -2.3997507   -1.6682658  0.029778581   -2.3997507   0.73148485  1255725 
 1478000   0.87906719   -2.3998197   -2.3998197   -1.6683044  0.026497892   -2.3998197   0.73151537  1255725 
 1479000   0.87987189   -2.4005457   -2.4005457   -1.6683607  0.027969207   -2.4005457     0.732185  1255725 
 1480000   0.87951832   -2.4002233   -2.4002233   -1.6683325  0.015196683   -2.4002233   0.73189078  1255725 
 1481000   0.87974658   -2.4001925   -2.4001925   -1.6681118  0.026641272   -2.4001925   0.73208072  1255725 
 1482000   0.88064833    -2.401085    -2.401085   -1.6682539  0.027759084    -2.401085   0.73283111  1255725 
 1483000   0.87908564   -2.3997964   -2.3997964   -1.6682657  0.023937951   -2.3997964   0.73153073  1255725 
 1484000   0.87888378   -2.3996776   -2.3996776   -1.6683149  0.024543782   -2.3996776   0.73136275  1255725 
 1485000   0.87980905   -2.4001265   -2.4001265   -1.6679938  0.024591392   -2.4001265   0.73213271  1255725 
 1486000   0.88222448   -2.4018567   -2.4018567    -1.667714  0.029020053   -2.4018567   0.73414271  1255725 
 1487000   0.88032401   -2.4001225   -2.4001225   -1.6675612  0.034527581   -2.4001225   0.73256123  1255725 
 1488000   0.88213397   -2.4016785   -2.4016785   -1.6676112  0.028808825   -2.4016785   0.73406739  1255725 
 1489000   0.88186219   -2.4015762   -2.4015762   -1.6677349  0.039793524   -2.4015762   0.73384123  1255725 
 1490000   0.88170698   -2.4012087   -2.4012087   -1.6674966  0.038197569   -2.4012087   0.73371207  1255725 
 1491000   0.88118084   -2.4009232   -2.4009232    -1.667649   0.03791484   -2.4009232   0.73327425  1255725 
 1492000   0.88164798   -2.4013213   -2.4013213   -1.6676583  0.034818851   -2.4013213   0.73366297  1255725 
 1493000   0.88182583    -2.401403    -2.401403   -1.6675921  0.038353722    -2.401403   0.73381097  1255725 
 1494000   0.88107609   -2.4004954   -2.4004954   -1.6673083  0.033068816   -2.4004954   0.73318707  1255725 
 1495000   0.88107605   -2.4011013   -2.4011013   -1.6679143   0.03299196   -2.4011013   0.73318704  1255725 
 1496000   0.88037543   -2.4005697   -2.4005697   -1.6679657  0.029202387   -2.4005697   0.73260403  1255725 
 1497000   0.88112633   -2.4011986   -2.4011986   -1.6679697  0.026461126   -2.4011986   0.73322888  1255725 
 1498000   0.87952371   -2.4000721   -2.4000721   -1.6681769  0.028647876   -2.4000721   0.73189527  1255725 
 1499000   0.88060571   -2.4007954   -2.4007954   -1.6679998  0.015701171   -2.4007954   0.73279565  1255725 
 1500000   0.88017586   -2.4001179   -2.4001179     -1.66768  0.025741696   -2.4001179   0.73243795  1255725 
 1501000   0.87821624   -2.3985645   -2.3985645   -1.6677572  0.024522044   -2.3985645   0.73080725  1255725 
 1502000    0.8795248   -2.3996259   -2.3996259   -1.6677297  0.012044822   -2.3996259   0.73189617  1255725 
 1503000   0.87925543   -2.3989443   -2.3989443   -1.6672723  0.024581208   -2.3989443   0.73167201  1255725 
 1504000   0.88007621   -2.3995094   -2.3995094   -1.6671544  0.022005578   -2.3995094   0.73235503  1255725 
 1505000   0.87895532   -2.3983959   -2.3983959   -1.6669736  0.029029021   -2.3983959   0.73142228  1255725 
 1506000   0.88015101   -2.3989886   -2.3989886   -1.6665713  0.016253286   -2.3989886   0.73241727  1255725 
 1507000   0.88094028   -2.3996055   -2.3996055   -1.6665314   0.02489898   -2.3996055   0.73307406  1255725 
 1508000   0.88111928   -2.3995285   -2.3995285   -1.6663055  0.035270793   -2.3995285   0.73322301  1255725 
 1509000   0.88058566   -2.3991664   -2.3991664   -1.6663874  0.032552757   -2.3991664   0.73277897  1255725 
 1510000   0.88015047   -2.3983722   -2.3983722   -1.6659554  0.027968715   -2.3983722   0.73241682  1255725 
 1511000   0.88084513   -2.3992304   -2.3992304   -1.6662355  0.027077566   -2.3992304   0.73299489  1255725 
 1512000   0.88056423   -2.3989792   -2.3989792   -1.6662181  0.033415805   -2.3989792   0.73276113  1255725 
 1513000   0.88207906   -2.4003043   -2.4003043   -1.6662826  0.029353115   -2.4003043    0.7340217  1255725 
 1514000   0.88099428   -2.3989333   -2.3989333   -1.6658143  0.026539374   -2.3989333     0.733119  1255725 
 1515000   0.88126513    -2.399066    -2.399066   -1.6657217  0.039952969    -2.399066   0.73334438  1255725 
 1516000   0.88160117   -2.3994342   -2.3994342   -1.6658102  0.026702827   -2.3994342   0.73362402  1255725 
 1517000    0.8810292   -2.3990541   -2.3990541    -1.665906  0.022603669   -2.3990541   0.73314806  1255725 
 1518000   0.88145486   -2.3993786   -2.3993786   -1.6658763  0.029836582   -2.3993786   0.73350227  1255725 
 1519000   0.88190148    -2.399935    -2.399935    -1.666061  0.021524312    -2.399935   0.73387393  1255725 
 1520000   0.88091155   -2.3985304   -2.3985304   -1.6654803  0.030328098   -2.3985304   0.73305016  1255725 
 1521000   0.88066557   -2.3990832   -2.3990832   -1.6662378  0.020760529   -2.3990832   0.73284546  1255725 
 1522000   0.88075429   -2.3991399   -2.3991399   -1.6662206  0.019194655   -2.3991399   0.73291929  1255725 
 1523000   0.88106651   -2.3994749   -2.3994749   -1.6662957  0.025331323   -2.3994749    0.7331791  1255725 
 1524000   0.88119287   -2.3993792   -2.3993792   -1.6660949   0.02508363   -2.3993792   0.73328426  1255725 
 1525000   0.88019049   -2.3982477   -2.3982477   -1.6657976  0.025387623   -2.3982477   0.73245013  1255725 
 1526000   0.88158452   -2.3993619   -2.3993619   -1.6657517  0.033702022   -2.3993619   0.73361016  1255725 
 1527000   0.88057204   -2.3988628   -2.3988628   -1.6660952  0.033313251   -2.3988628   0.73276763  1255725 
 1528000    0.8812271   -2.3990595   -2.3990595   -1.6657468   0.03543543   -2.3990595   0.73331274  1255725 
 1529000   0.88060943   -2.3985465   -2.3985465   -1.6657477  0.020676464   -2.3985465   0.73279875  1255725 
 1530000   0.88014168   -2.3982106   -2.3982106    -1.665801  0.033909087   -2.3982106   0.73240951  1255725 
 1531000   0.88024262   -2.3983876   -2.3983876   -1.6658941   0.02673943   -2.3983876    0.7324935  1255725 
 1532000   0.87978157   -2.3984145   -2.3984145   -1.6663046  0.033028514   -2.3984145   0.73210984  1255725 
 1533000   0.88111315   -2.3991582   -2.3991582   -1.6659403  0.016751868   -2.3991582   0.73321792  1255725 
 1534000    0.8804907   -2.3981908   -2.3981908   -1.6654909  0.030414683   -2.3981908   0.73269994  1255725 
 1535000   0.88008948   -2.3978445   -2.3978445   -1.6654785  0.031307893   -2.3978445   0.73236607  1255725 
 1536000   0.88050573   -2.3984661   -2.3984661   -1.6657536  0.025959678   -2.3984661   0.73271245  1255725 
 1537000   0.88143553   -2.3990926   -2.3990926   -1.6656064   0.02614415   -2.3990926   0.73348618  1255725 
 1538000   0.88080906   -2.3988791   -2.3988791   -1.6659142  0.027955698   -2.3988791   0.73296487  1255725 
 1539000   0.88152357   -2.3992284   -2.3992284   -1.6656689  0.025646352   -2.3992284   0.73355945  1255725 
 1540000   0.87974606   -2.3976554   -2.3976554   -1.6655751   0.02609509   -2.3976554   0.73208029  1255725 
 1541000   0.88092661   -2.3987357   -2.3987357    -1.665673  0.030365716   -2.3987357   0.73306268  1255725 
 1542000   0.88137592   -2.3986124   -2.3986124   -1.6651758  0.027716157   -2.3986124   0.73343658  1255725 
 1543000   0.88130871   -2.3985965   -2.3985965   -1.6652159  0.028114204   -2.3985965   0.73338065  1255725 
 1544000   0.88155434   -2.3987976   -2.3987976   -1.6652125  0.031363772   -2.3987976   0.73358506  1255725 
 1545000    0.8824469   -2.3997985   -2.3997985   -1.6654707  0.032641201   -2.3997985   0.73432779  1255725 
 1546000   0.88143539   -2.3994684   -2.3994684   -1.6659824  0.028010047   -2.3994684   0.73348607  1255725 
 1547000   0.88196811   -2.3996457   -2.3996457   -1.6657163  0.026412291   -2.3996457   0.73392937  1255725 
 1548000   0.88185011   -2.3992187   -2.3992187   -1.6653875  0.034025571   -2.3992187   0.73383117  1255725 
 1549000   0.88102676   -2.3987665   -2.3987665   -1.6656205  0.040607765   -2.3987665   0.73314603  1255725 
 1550000   0.88238105   -2.4001254   -2.4001254   -1.6658524  0.034133197   -2.4001254     0.734273  1255725 
 1551000   0.88264341   -2.3998338   -2.3998338   -1.6653424  0.032202097   -2.3998338   0.73449132  1255725 
 1552000   0.88138978   -2.3991703   -2.3991703   -1.6657222  0.037046357   -2.3991703   0.73344812  1255725 
 1553000   0.88127872   -2.3991104   -2.3991104   -1.6657547  0.027557202   -2.3991104    0.7333557  1255725 
 1554000   0.88156785   -2.3993042   -2.3993042   -1.6657079  0.024341956   -2.3993042   0.73359629  1255725 
 1555000     0.881447   -2.3990913   -2.3990913   -1.6655955  0.032102196   -2.3990913   0.73349573  1255725 
 1556000   0.88277363   -2.4000339   -2.4000339   -1.6654342  0.023568431   -2.4000339   0.73459968  1255725 
 1557000    0.8813195   -2.3985791   -2.3985791   -1.6651894  0.036672174   -2.3985791   0.73338963  1255725 
 1558000     0.881731   -2.3989396   -2.3989396   -1.6652075  0.028598233   -2.3989396   0.73373206  1255725 
 1559000    0.8812676   -2.3986157   -2.3986157   -1.6652692  0.028540708   -2.3986157   0.73334644  1255725 
 1560000    0.8811817    -2.398288    -2.398288   -1.6650131  0.031336689    -2.398288   0.73327496  1255725 
 1561000   0.88126675   -2.3983411   -2.3983411   -1.6649954   0.02752907   -2.3983411   0.73334574  1255725 
 1562000   0.88206166   -2.3991161   -2.3991161   -1.6651089  0.018067974   -2.3991161   0.73400722  1255725 
 1563000    0.8813342   -2.3983099   -2.3983099   -1.6649081  0.024049199   -2.3983099   0.73340186  1255725 
 1564000    0.8809623    -2.397903    -2.397903   -1.6648106  0.029155212    -2.397903   0.73309239  1255725 
 1565000   0.88128929   -2.3982734   -2.3982734   -1.6649089  0.029604072   -2.3982734   0.73336449  1255725 
 1566000   0.88141105   -2.3980551   -2.3980551   -1.6645893  0.028938931   -2.3980551   0.73346581  1255725 
 1567000   0.88202671   -2.3985175   -2.3985175   -1.6645393  0.024295236   -2.3985175   0.73397813  1255725 
 1568000   0.88170318   -2.3978696   -2.3978696   -1.6641607   0.02565114   -2.3978696   0.73370891  1255725 
 1569000   0.88255223   -2.3984763   -2.3984763   -1.6640609  0.026435717   -2.3984763   0.73441544  1255725 
 1570000   0.88107783   -2.3976945   -2.3976945    -1.664506  0.025547391   -2.3976945   0.73318852  1255725 
 1571000   0.88069359   -2.3976241   -2.3976241   -1.6647554  0.028409122   -2.3976241   0.73286878  1255725 
 1572000   0.88051688   -2.3975084   -2.3975084   -1.6647866  0.033674738   -2.3975084   0.73272173  1255725 
 1573000   0.88155818   -2.3981469   -2.3981469   -1.6645587   0.02249306   -2.3981469   0.73358825  1255725 
 1574000   0.88051596   -2.3971427   -2.3971427   -1.6644217   0.03960266   -2.3971427   0.73272096  1255725 
 1575000   0.88163521   -2.3982097   -2.3982097   -1.6645574   0.03067851   -2.3982097   0.73365235  1255725 
 1576000   0.88236789   -2.3985647   -2.3985647   -1.6643027   0.02598805   -2.3985647   0.73426205  1255725 
 1577000    0.8816852   -2.3978147   -2.3978147   -1.6641207   0.03645868   -2.3978147   0.73369395  1255725 
 1578000   0.88184617   -2.3983637   -2.3983637   -1.6645358  0.028428868   -2.3983637   0.73382789  1255725 
 1579000   0.88178309   -2.3981547   -2.3981547   -1.6643793  0.030218289   -2.3981547   0.73377541  1255725 
 1580000   0.88193485   -2.3978177   -2.3978177    -1.663916  0.030064603   -2.3978177   0.73390169  1255725 
 1581000   0.88086139   -2.3967143   -2.3967143   -1.6637059  0.030170362   -2.3967143   0.73300842  1255725 
 1582000   0.88161082   -2.3972592   -2.3972592   -1.6636272  0.026955567   -2.3972592   0.73363206  1255725 
 1583000   0.88069156    -2.396676    -2.396676   -1.6638089  0.025009351    -2.396676   0.73286709  1255725 
 1584000   0.88130695   -2.3965464   -2.3965464   -1.6631673  0.024959462   -2.3965464   0.73337919  1255725 
 1585000   0.88121996   -2.3969954   -2.3969954   -1.6636886  0.035924476   -2.3969954   0.73330679  1255725 
 1586000   0.88203691   -2.3972636   -2.3972636    -1.663277  0.027995141   -2.3972636   0.73398662  1255725 
 1587000   0.88231219   -2.3971835   -2.3971835   -1.6629678  0.027602798   -2.3971835    0.7342157  1255725 
 1588000   0.88207559   -2.3965868   -2.3965868    -1.662568   0.02833651   -2.3965868   0.73401881  1255725 
 1589000   0.88258359   -2.3969495   -2.3969495   -1.6625079  0.018572647   -2.3969495   0.73444154  1255725 
 1590000   0.88155056    -2.395723    -2.395723   -1.6621411  0.036210134    -2.395723   0.73358191  1255725 
 1591000   0.88182342   -2.3962157   -2.3962157   -1.6624067  0.031181734   -2.3962157   0.73380897  1255725 
 1592000   0.88262373   -2.3966385   -2.3966385   -1.6621635   0.02422854   -2.3966385   0.73447495  1255725 
 1593000   0.88238243   -2.3967562   -2.3967562   -1.6624821  0.017526316   -2.3967562   0.73427414  1255725 
 1594000   0.88276508   -2.3967643   -2.3967643   -1.6621717  0.031097908   -2.3967643   0.73459257  1255725 
 1595000   0.88151854   -2.3955434   -2.3955434   -1.6619881  0.030658363   -2.3955434   0.73355526  1255725 
 1596000   0.88169859   -2.3955858   -2.3955858   -1.6618807  0.020093327   -2.3955858   0.73370509  1255725 
 1597000   0.88291957   -2.3966835   -2.3966835   -1.6619623  0.030307913   -2.3966835   0.73472112  1255725 
 1598000   0.88229754   -2.3958622   -2.3958622   -1.6616586  0.034073679   -2.3958622    0.7342035  1255725 
 1599000   0.88268801   -2.3959358   -2.3959358   -1.6614074  0.030737491   -2.3959358   0.73452843  1255725 
 1600000   0.88242052   -2.3957734   -2.3957734   -1.6614675  0.031953944   -2.3957734   0.73430584  1255725 
 1601000   0.88310935   -2.3962698   -2.3962698   -1.6613907  0.034552734   -2.3962698   0.73487905  1255725 
 1602000   0.88419097   -2.3968296   -2.3968296   -1.6610505  0.031374955   -2.3968296   0.73577912  1255725 
 1603000   0.88335161   -2.3960463   -2.3960463   -1.6609657  0.035186457   -2.3960463   0.73508065  1255725 
 1604000   0.88380821    -2.396136    -2.396136   -1.6606754  0.027241983    -2.396136   0.73546061  1255725 
 1605000   0.88287664   -2.3956145   -2.3956145   -1.6609291  0.027047604   -2.3956145    0.7346854  1255725 
 1606000   0.88189827   -2.3951151   -2.3951151   -1.6612439  0.025947552   -2.3951151   0.73387125  1255725 
 1607000   0.88213132    -2.395177    -2.395177   -1.6611118  0.028769676    -2.395177   0.73406518  1255725 
 1608000   0.88279764   -2.3955321   -2.3955321   -1.6609124  0.025914037   -2.3955321   0.73461966  1255725 
 1609000   0.88292423   -2.3958789   -2.3958789   -1.6611539  0.019021959   -2.3958789     0.734725  1255725 
 1610000   0.88169693   -2.3948371   -2.3948371   -1.6611334  0.028135632   -2.3948371    0.7337037  1255725 
 1611000   0.88236192   -2.3952788   -2.3952788   -1.6610217   0.02300461   -2.3952788   0.73425708  1255725 
 1612000   0.88268817   -2.3950266   -2.3950266   -1.6604981  0.020422615   -2.3950266   0.73452857  1255725 
 1613000   0.88262612   -2.3951717   -2.3951717   -1.6606948  0.030213628   -2.3951717   0.73447693  1255725 
 1614000    0.8834004   -2.3956436   -2.3956436   -1.6605223  0.026534854   -2.3956436   0.73512125  1255725 
 1615000   0.88390537   -2.3960637   -2.3960637   -1.6605223  0.024401733   -2.3960637   0.73554146  1255725 
 1616000   0.88381177   -2.3957284   -2.3957284   -1.6602649  0.021197136   -2.3957284   0.73546357  1255725 
 1617000   0.88344231   -2.3953534   -2.3953534   -1.6601973  0.039750462   -2.3953534   0.73515612  1255725 
 1618000   0.88434099   -2.3957237   -2.3957237   -1.6598198  0.026004986   -2.3957237   0.73590396  1255725 
 1619000   0.88379311    -2.395258    -2.395258     -1.65981  0.030416054    -2.395258   0.73544804  1255725 
 1620000   0.88213465   -2.3937926   -2.3937926   -1.6597247  0.022164637   -2.3937926   0.73406795  1255725 
 1621000   0.88313729   -2.3948532   -2.3948532   -1.6599508  0.030191012   -2.3948532    0.7349023  1255725 
 1622000   0.88182852   -2.3940916   -2.3940916   -1.6602783  0.028525878   -2.3940916   0.73381321  1255725 
 1623000   0.88215035   -2.3942923   -2.3942923   -1.6602112  0.026297388   -2.3942923   0.73408102  1255725 
 1624000   0.88366274    -2.395595    -2.395595   -1.6602555  0.028068464    -2.395595   0.73533955  1255725 
 1625000   0.88347003   -2.3950113   -2.3950113   -1.6598321  0.026723344   -2.3950113   0.73517919  1255725 
 1626000   0.88359786   -2.3950211   -2.3950211   -1.6597356  0.023278947   -2.3950211   0.73528557  1255725 
 1627000   0.88318437   -2.3948835   -2.3948835    -1.659942  0.022391126   -2.3948835   0.73494148  1255725 
 1628000   0.88300324   -2.3948897   -2.3948897    -1.660099  0.036356267   -2.3948897   0.73479075  1255725 
 1629000   0.88353206   -2.3949051   -2.3949051   -1.6596743  0.017417413   -2.3949051   0.73523081  1255725 
 1630000   0.88368223   -2.3952054   -2.3952054   -1.6598496  0.027414596   -2.3952054   0.73535578  1255725 
 1631000   0.88243252   -2.3940283   -2.3940283   -1.6597124  0.028920575   -2.3940283   0.73431583  1255725 
 1632000    0.8833609   -2.3949963   -2.3949963    -1.659908  0.017337159   -2.3949963   0.73508838  1255725 
 1633000   0.88270241   -2.3944412   -2.3944412   -1.6599008  0.035617372   -2.3944412   0.73454042  1255725 
 1634000   0.88381474    -2.395456    -2.395456     -1.65999  0.022061422    -2.395456   0.73546605  1255725 
 1635000   0.88344379   -2.3949139   -2.3949139   -1.6597566  0.032203735   -2.3949139   0.73515736  1255725 
 1636000   0.88388843   -2.3950908   -2.3950908   -1.6595635  0.035847277   -2.3950908   0.73552736  1255725 
 1637000   0.88346821   -2.3949563   -2.3949563   -1.6597786  0.028931731   -2.3949563   0.73517768  1255725 
 1638000   0.88237477   -2.3937342   -2.3937342   -1.6594664   0.04086246   -2.3937342   0.73426777  1255725 
 1639000   0.88375473   -2.3944936   -2.3944936   -1.6590775  0.027027306   -2.3944936   0.73541611  1255725 
 1640000   0.88437897   -2.3949539   -2.3949539   -1.6590184   0.02766311   -2.3949539   0.73593557  1255725 
 1641000   0.88392372   -2.3944164   -2.3944164   -1.6588597  0.028535799   -2.3944164   0.73555673  1255725 
 1642000   0.88351804   -2.3940349   -2.3940349   -1.6588158  0.031439371   -2.3940349   0.73521915  1255725 
 1643000   0.88331311   -2.3939724   -2.3939724   -1.6589238  0.027784526   -2.3939724   0.73504861  1255725 
 1644000   0.88408566   -2.3944988   -2.3944988   -1.6588073  0.035617249   -2.3944988   0.73569149  1255725 
 1645000    0.8832562   -2.3940688   -2.3940688   -1.6590675  0.031899934   -2.3940688   0.73500126  1255725 
 1646000   0.88384933   -2.3945546   -2.3945546   -1.6590598  0.022477621   -2.3945546   0.73549482  1255725 
 1647000   0.88399367   -2.3942975   -2.3942975   -1.6586825  0.025800414   -2.3942975   0.73561494  1255725 
 1648000   0.88345166   -2.3937444   -2.3937444   -1.6585805   0.03009385   -2.3937444   0.73516391  1255725 
 1649000    0.8838112   -2.3941477   -2.3941477   -1.6586846  0.035038741   -2.3941477   0.73546309  1255725 
 1650000   0.88457002   -2.3948883   -2.3948883   -1.6587938  0.020170195   -2.3948883   0.73609455  1255725 
 1651000   0.88348854   -2.3939177   -2.3939177   -1.6587231  0.023794319   -2.3939177    0.7351946  1255725 
 1652000   0.88396928    -2.394063    -2.394063   -1.6584684  0.024111264    -2.394063   0.73559465  1255725 
 1653000    0.8837616   -2.3934807   -2.3934807   -1.6580589  0.034260493   -2.3934807   0.73542182  1255725 
 1654000   0.88437962   -2.3937393   -2.3937393   -1.6578032  0.026131902   -2.3937393   0.73593611  1255725 
 1655000   0.88441736   -2.3934085   -2.3934085    -1.657441  0.029231426   -2.3934085   0.73596752  1255725 
 1656000   0.88368684   -2.3932365   -2.3932365   -1.6578769  0.028343452   -2.3932365   0.73535961  1255725 
 1657000   0.88373026   -2.3929045   -2.3929045   -1.6575088   0.03104461   -2.3929045   0.73539574  1255725 
 1658000   0.88305413    -2.392598    -2.392598   -1.6577649  0.032396447    -2.392598    0.7348331  1255725 
 1659000   0.88360452   -2.3928293   -2.3928293   -1.6575382  0.023727159   -2.3928293    0.7352911  1255725 
 1660000   0.88349077   -2.3924987   -2.3924987   -1.6573023  0.029407822   -2.3924987   0.73519645  1255725 
 1661000   0.88258137   -2.3920901   -2.3920901   -1.6576504  0.029621541   -2.3920901    0.7344397  1255725 
 1662000   0.88398997   -2.3933101   -2.3933101   -1.6576982    0.0313581   -2.3933101   0.73561186  1255725 
 1663000   0.88373774   -2.3928262   -2.3928262   -1.6574243  0.019326416   -2.3928262   0.73540197  1255725 
 1664000   0.88398941   -2.3929886   -2.3929886   -1.6573772  0.021886025   -2.3929886   0.73561139  1255725 
 1665000   0.88379236   -2.3923288   -2.3923288   -1.6568814   0.02071515   -2.3923288   0.73544742  1255725 
 1666000   0.88479793   -2.3927968   -2.3927968   -1.6565126   0.02858997   -2.3927968    0.7362842  1255725 
 1667000   0.88349437   -2.3916106   -2.3916106   -1.6564112  0.027038567   -2.3916106   0.73519944  1255725 
 1668000   0.88335471    -2.391507    -2.391507   -1.6564237  0.022874212    -2.391507   0.73508323  1255725 
 1669000   0.88412833   -2.3920148   -2.3920148   -1.6562878  0.018599698   -2.3920148   0.73572699  1255725 
 1670000   0.88425307   -2.3923261   -2.3923261   -1.6564953  0.021380743   -2.3923261    0.7358308  1255725 
 1671000   0.88370737   -2.3918529   -2.3918529   -1.6564762  0.031768672   -2.3918529    0.7353767  1255725 
 1672000   0.88352701   -2.3922596   -2.3922596    -1.657033  0.029366841   -2.3922596   0.73522661  1255725 
 1673000     0.883091   -2.3917441   -2.3917441   -1.6568803  0.035542152   -2.3917441   0.73486378  1255725 
 1674000   0.88228682   -2.3911484   -2.3911484   -1.6569538  0.030191828   -2.3911484   0.73419458  1255725 
 1675000   0.88385566   -2.3921021   -2.3921021    -1.656602  0.024712728   -2.3921021   0.73550009  1255725 
 1676000   0.88491596   -2.3928792   -2.3928792   -1.6564967  0.026138605   -2.3928792   0.73638242  1255725 
 1677000    0.8852269   -2.3927395   -2.3927395   -1.6560983  0.028971678   -2.3927395   0.73664117  1255725 
 1678000   0.88568773   -2.3932436   -2.3932436   -1.6562189  0.036636647   -2.3932436   0.73702465  1255725 
 1679000   0.88408217    -2.391705    -2.391705   -1.6560164  0.030121123    -2.391705   0.73568858  1255725 
 1680000   0.88453622   -2.3921536   -2.3921536   -1.6560872  0.031130075   -2.3921536   0.73606643  1255725 
 1681000   0.88288387   -2.3906035   -2.3906035   -1.6559121  0.028708704   -2.3906035   0.73469142  1255725 
 1682000   0.88433209   -2.3917169   -2.3917169   -1.6558204  0.031144353   -2.3917169   0.73589655  1255725 
 1683000   0.88480072   -2.3922884   -2.3922884   -1.6560018   0.02901632   -2.3922884   0.73628652  1255725 
 1684000    0.8846435   -2.3919231   -2.3919231   -1.6557674  0.031128293   -2.3919231    0.7361557  1255725 
 1685000   0.88441817   -2.3914008   -2.3914008   -1.6554326  0.019409217   -2.3914008   0.73596819  1255725 
 1686000   0.88313028   -2.3905225   -2.3905225   -1.6556261  0.030993049   -2.3905225   0.73489647  1255725 
 1687000   0.88283872   -2.3906745   -2.3906745   -1.6560207  0.030582962   -2.3906745   0.73465385  1255725 
 1688000   0.88463722   -2.3921154   -2.3921154   -1.6559649  0.020595577   -2.3921154   0.73615047  1255725 
 1689000   0.88400196   -2.3916875   -2.3916875   -1.6560656  0.020157215   -2.3916875   0.73562184  1255725 
 1690000   0.88427877   -2.3920218   -2.3920218   -1.6561696  0.016723895   -2.3920218   0.73585219  1255725 
 1691000   0.88343411   -2.3906866   -2.3906866   -1.6555373  0.019691112   -2.3906866    0.7351493  1255725 
 1692000   0.88391605   -2.3906242   -2.3906242   -1.6550739  0.023304784   -2.3906242   0.73555035  1255725 
 1693000   0.88311968   -2.3899718   -2.3899718   -1.6550842  0.021460963   -2.3899718   0.73488765  1255725 
 1694000   0.88522339   -2.3915499   -2.3915499   -1.6549116  0.025988084   -2.3915499   0.73663825  1255725 
 1695000   0.88437175   -2.3907308   -2.3907308   -1.6548013  0.037538223   -2.3907308   0.73592956  1255725 
 1696000   0.88494583   -2.3912026   -2.3912026   -1.6547953  0.023441392   -2.3912026   0.73640728  1255725 
 1697000   0.88430152   -2.3908637   -2.3908637   -1.6549926  0.027508388   -2.3908637   0.73587111  1255725 
 1698000   0.88513117   -2.3912328   -2.3912328   -1.6546713  0.032446556   -2.3912328   0.73656151  1255725 
 1699000   0.88527256   -2.3914908   -2.3914908   -1.6548116  0.032959945   -2.3914908   0.73667916  1255725 
 1700000   0.88558308   -2.3915375   -2.3915375      -1.6546  0.030838621   -2.3915375   0.73693756  1255725 
 1701000   0.88435438   -2.3905927   -2.3905927   -1.6546776  0.021401278   -2.3905927    0.7359151  1255725 
 1702000    0.8836717   -2.3901894   -2.3901894   -1.6548423  0.020393969   -2.3901894   0.73534701  1255725 
 1703000    0.8845738   -2.3907711   -2.3907711   -1.6546734  0.029307352   -2.3907711   0.73609769  1255725 
 1704000   0.88580046   -2.3919125   -2.3919125   -1.6547941  0.026213687   -2.3919125   0.73711846  1255725 
 1705000   0.88621019   -2.3917821   -2.3917821   -1.6543227  0.026334686   -2.3917821   0.73745942  1255725 
 1706000   0.88500888   -2.3908545   -2.3908545   -1.6543948  0.029084108   -2.3908545   0.73645974  1255725 
 1707000   0.88514764    -2.390825    -2.390825   -1.6542498   0.03122156    -2.390825   0.73657521  1255725 
 1708000   0.88621853   -2.3914555   -2.3914555   -1.6539892  0.033720156   -2.3914555   0.73746635  1255725 
 1709000   0.88570174   -2.3907796   -2.3907796   -1.6537433  0.044385306   -2.3907796   0.73703631  1255725 
 1710000   0.88518449   -2.3901966   -2.3901966   -1.6535907  0.028197118   -2.3901966   0.73660588  1255725 
 1711000   0.88638305   -2.3909481   -2.3909481   -1.6533448  0.022228652   -2.3909481   0.73760326  1255725 
 1712000   0.88516429   -2.3902121   -2.3902121   -1.6536231  0.027206744   -2.3902121   0.73658907  1255725 
 1713000   0.88468795   -2.3900889   -2.3900889   -1.6538963  0.019021086   -2.3900889   0.73619269  1255725 
 1714000   0.88428832   -2.3893276   -2.3893276   -1.6534675   0.02110819   -2.3893276   0.73586013  1255725 
 1715000   0.88532142   -2.3899292   -2.3899292   -1.6532093  0.028585617   -2.3899292   0.73671983  1255725 
 1716000   0.88476104   -2.3889199   -2.3889199   -1.6526664  0.025580795   -2.3889199   0.73625351  1255725 
 1717000   0.88561779   -2.3898328   -2.3898328   -1.6528664  0.026254327   -2.3898328   0.73696645  1255725 
 1718000   0.88491802   -2.3890963   -2.3890963   -1.6527122  0.022237364   -2.3890963   0.73638413  1255725 
 1719000   0.88407854   -2.3885637   -2.3885637   -1.6528781  0.037588476   -2.3885637   0.73568556  1255725 
 1720000   0.88535552   -2.3896494   -2.3896494   -1.6529012  0.025861987   -2.3896494    0.7367482  1255725 
 1721000    0.8852411   -2.3890091   -2.3890091   -1.6523561  0.029297859   -2.3890091   0.73665298  1255725 
 1722000   0.88374939   -2.3879455   -2.3879455   -1.6525339   0.02956399   -2.3879455   0.73541166  1255725 
 1723000    0.8843057   -2.3883279   -2.3883279   -1.6524533   0.02549296   -2.3883279    0.7358746  1255725 
 1724000   0.88467608   -2.3883581   -2.3883581   -1.6521753  0.028678545   -2.3883581   0.73618281  1255725 
 1725000   0.88577244     -2.38952     -2.38952   -1.6524249  0.029925245     -2.38952   0.73709514  1255725 
 1726000   0.88537148    -2.389047    -2.389047   -1.6522855  0.024295367    -2.389047   0.73676149  1255725 
 1727000   0.88653695   -2.3896949   -2.3896949   -1.6519635  0.029335323   -2.3896949   0.73773133  1255725 
 1728000   0.88593537   -2.3892954   -2.3892954   -1.6520647  0.039373073   -2.3892954   0.73723072  1255725 
 1729000   0.88622354   -2.3895083   -2.3895083   -1.6520378  0.038571522   -2.3895083   0.73747052  1255725 
 1730000   0.88517263   -2.3887222   -2.3887222   -1.6521262  0.027806335   -2.3887222   0.73659601  1255725 
 1731000   0.88658605   -2.3899149   -2.3899149   -1.6521427  0.030317031   -2.3899149   0.73777219  1255725 
 1732000   0.88558394   -2.3891079   -2.3891079   -1.6521696  0.021561234   -2.3891079   0.73693828  1255725 
 1733000   0.88533331   -2.3890896   -2.3890896   -1.6523599  0.022329694   -2.3890896   0.73672972  1255725 
 1734000   0.88566339   -2.3895757   -2.3895757   -1.6525713  0.024228117   -2.3895757    0.7370044  1255725 
 1735000   0.88553849   -2.3891637   -2.3891637   -1.6522633  0.032280735   -2.3891637   0.73690046  1255725 
 1736000   0.88640256   -2.3893591   -2.3893591   -1.6517396  0.028121804   -2.3893591    0.7376195  1255725 
 1737000   0.88589698   -2.3884188   -2.3884188   -1.6512201  0.042738811   -2.3884188   0.73719878  1255725 
 1738000   0.88643388   -2.3889707   -2.3889707   -1.6513252  0.025056176   -2.3889707   0.73764556  1255725 
 1739000    0.8867909   -2.3886881   -2.3886881   -1.6507454  0.030320606   -2.3886881   0.73794265  1255725 
 1740000   0.88542641   -2.3878846   -2.3878846   -1.6510774  0.021120058   -2.3878846    0.7368072  1255725 
 1741000   0.88537214    -2.387818    -2.387818    -1.651056  0.026156804    -2.387818   0.73676203  1255725 
 1742000   0.88544286   -2.3881027   -2.3881027   -1.6512819  0.013396565   -2.3881027   0.73682088  1255725 
 1743000   0.88430805   -2.3869975   -2.3869975    -1.651121  0.027729726   -2.3869975   0.73587655  1255725 
 1744000   0.88491856   -2.3871791   -2.3871791   -1.6507945  0.020010403   -2.3871791   0.73638459  1255725 
 1745000    0.8840691      -2.3862      -2.3862   -1.6505223  0.028402639      -2.3862   0.73567771  1255725 
 1746000   0.88466151   -2.3868719   -2.3868719   -1.6507012  0.025277132   -2.3868719   0.73617068  1255725 
 1747000   0.88483353   -2.3870563   -2.3870563   -1.6507425  0.025881416   -2.3870563   0.73631383  1255725 
 1748000   0.88469584   -2.3869382   -2.3869382   -1.6507389  0.024405534   -2.3869382   0.73619925  1255725 
 1749000   0.88624655   -2.3877222   -2.3877222   -1.6502325  0.030106979   -2.3877222   0.73748968  1255725 
 1750000   0.88514163   -2.3872343   -2.3872343   -1.6506641  0.039932779   -2.3872343   0.73657022  1255725 
 1751000   0.88629391   -2.3879418   -2.3879418   -1.6504127  0.032488448   -2.3879418   0.73752908  1255725 
 1752000   0.88590446   -2.3876164   -2.3876164   -1.6504114  0.024334277   -2.3876164   0.73720501  1255725 
 1753000   0.88640441   -2.3881245   -2.3881245   -1.6505034  0.024913727   -2.3881245   0.73762103  1255725 
 1754000   0.88565408    -2.387233    -2.387233   -1.6502363  0.023889485    -2.387233   0.73699665  1255725 
 1755000   0.88637407   -2.3874102   -2.3874102   -1.6498144   0.03653933   -2.3874102   0.73759579  1255725 
 1756000    0.8852844   -2.3866397   -2.3866397   -1.6499507  0.029750295   -2.3866397   0.73668902  1255725 
 1757000   0.88644592   -2.3875896   -2.3875896    -1.649934  0.015075491   -2.3875896   0.73765558  1255725 
 1758000   0.88647988   -2.3875958   -2.3875958    -1.649912  0.023199167   -2.3875958   0.73768384  1255725 
 1759000   0.88742137   -2.3882588   -2.3882588   -1.6497915  0.033059569   -2.3882588    0.7384673  1255725 
 1760000   0.88760827   -2.3886362   -2.3886362   -1.6500134  0.028238072   -2.3886362   0.73862282  1255725 
 1761000   0.88723644   -2.3880899   -2.3880899   -1.6497765  0.022634005   -2.3880899   0.73831341  1255725 
 1762000   0.88659721   -2.3874182   -2.3874182   -1.6496368  0.036956235   -2.3874182   0.73778147  1255725 
 1763000   0.88629848     -2.38712     -2.38712   -1.6495871  0.025819603     -2.38712   0.73753289  1255725 
 1764000   0.88545551   -2.3866453   -2.3866453   -1.6498139  0.025032359   -2.3866453   0.73683141  1255725 
 1765000   0.88618024   -2.3869355   -2.3869355    -1.649501  0.026322513   -2.3869355   0.73743449  1255725 
 1766000   0.88636294   -2.3874227   -2.3874227   -1.6498361  0.026030193   -2.3874227   0.73758652  1255725 
 1767000   0.88634204   -2.3875798   -2.3875798   -1.6500107  0.025317151   -2.3875798   0.73756913  1255725 
 1768000   0.88660263   -2.3876613   -2.3876613   -1.6498753  0.022627721   -2.3876613   0.73778599  1255725 
 1769000    0.8874042   -2.3881605   -2.3881605   -1.6497075  0.020799667   -2.3881605   0.73845301  1255725 
 1770000   0.88549287   -2.3866282   -2.3866282   -1.6497657  0.026652543   -2.3866282   0.73686249  1255725 
 1771000   0.88583444   -2.3868564   -2.3868564   -1.6497096  0.028032127   -2.3868564   0.73714674  1255725 
 1772000   0.88670616    -2.387562    -2.387562   -1.6496899   0.02226814    -2.387562   0.73787214  1255725 
 1773000   0.88499257   -2.3861551   -2.3861551    -1.649709  0.028434773   -2.3861551   0.73644617  1255725 
 1774000   0.88617968   -2.3869743   -2.3869743   -1.6495402  0.025906466   -2.3869743   0.73743403  1255725 
 1775000   0.88634139   -2.3870906   -2.3870906    -1.649522  0.026817759   -2.3870906    0.7375686  1255725 
 1776000    0.8869682   -2.3870761   -2.3870761   -1.6489859   0.03447495   -2.3870761    0.7380902  1255725 
 1777000   0.88624096   -2.3862506   -2.3862506   -1.6487655   0.02760531   -2.3862506   0.73748502  1255725 
 1778000   0.88832751   -2.3879114   -2.3879114     -1.64869  0.025561837   -2.3879114   0.73922134  1255725 
 1779000   0.88826372   -2.3875632   -2.3875632    -1.648395  0.032271099   -2.3875632   0.73916826  1255725 
 1780000   0.88730956   -2.3870621   -2.3870621   -1.6486879  0.036645588   -2.3870621   0.73837426  1255725 
 1781000   0.88734953   -2.3870057   -2.3870057   -1.6485981  0.033363777   -2.3870057   0.73840751  1255725 
 1782000   0.88857615   -2.3875615   -2.3875615   -1.6481333  0.025404278   -2.3875615   0.73942825  1255725 
 1783000   0.88800995   -2.3866398   -2.3866398   -1.6476827  0.039367246   -2.3866398   0.73895708  1255725 
 1784000   0.88773279   -2.3864592   -2.3864592   -1.6477328  0.028570711   -2.3864592   0.73872645  1255725 
 1785000   0.88720239   -2.3863289   -2.3863289   -1.6480438  0.034876589   -2.3863289   0.73828508  1255725 
 1786000   0.88777152   -2.3864808   -2.3864808   -1.6477221  0.023826849   -2.3864808   0.73875867  1255725 
 1787000   0.88804327   -2.3868145   -2.3868145   -1.6478297   0.01855915   -2.3868145   0.73898481  1255725 
 1788000   0.88687372   -2.3860036   -2.3860036   -1.6479921  0.034154317   -2.3860036   0.73801157  1255725 
 1789000   0.88659207   -2.3856119   -2.3856119   -1.6478348  0.033235665   -2.3856119   0.73777719  1255725 
 1790000   0.88732219    -2.385888    -2.385888   -1.6475032  0.025397028    -2.385888   0.73838476  1255725 
 1791000   0.88731386   -2.3855022   -2.3855022   -1.6471244  0.029031113   -2.3855022   0.73837783  1255725 
 1792000   0.88639027   -2.3848182   -2.3848182    -1.647209  0.034500301   -2.3848182   0.73760927  1255725 
 1793000    0.8875766   -2.3856603   -2.3856603   -1.6470638  0.024326447   -2.3856603   0.73859648  1255725 
 1794000    0.8874353   -2.3854261   -2.3854261   -1.6469472  0.023235172   -2.3854261   0.73847889  1255725 
 1795000   0.88739836   -2.3854096   -2.3854096   -1.6469615  0.017682913   -2.3854096   0.73844815  1255725 
 1796000   0.88698526   -2.3851029   -2.3851029   -1.6469985  0.030752403   -2.3851029   0.73810439  1255725 
 1797000   0.88611052   -2.3845694   -2.3845694   -1.6471929  0.030025734   -2.3845694   0.73737647  1255725 
 1798000   0.88660263   -2.3846854   -2.3846854   -1.6468994  0.030505355   -2.3846854   0.73778599  1255725 
 1799000   0.88657685   -2.3847751   -2.3847751   -1.6470106  0.030077605   -2.3847751   0.73776453  1255725 
 1800000   0.88787028   -2.3857297   -2.3857297   -1.6468889  0.017712718   -2.3857297   0.73884086  1255725 
 1801000   0.88680928   -2.3846707   -2.3846707   -1.6467127  0.033200174   -2.3846707   0.73795795  1255725 
 1802000    0.8865651   -2.3844997   -2.3844997   -1.6467449  0.032955997   -2.3844997   0.73775475  1255725 
 1803000   0.88633883    -2.384574    -2.384574   -1.6470076   0.02791673    -2.384574   0.73756646  1255725 
 1804000   0.88725274   -2.3853099   -2.3853099   -1.6469829  0.027365602   -2.3853099   0.73832697  1255725 
 1805000   0.88768806   -2.3854543   -2.3854543    -1.646765  0.030020087   -2.3854543   0.73868923  1255725 
 1806000   0.88795893   -2.3854266   -2.3854266    -1.646512  0.030824347   -2.3854266   0.73891463  1255725 
 1807000   0.88744138   -2.3848118   -2.3848118   -1.6463279  0.029666397   -2.3848118   0.73848395  1255725 
 1808000   0.88699526   -2.3843629   -2.3843629   -1.6462502  0.030053934   -2.3843629   0.73811271  1255725 
 1809000   0.88770953   -2.3845225   -2.3845225   -1.6458154  0.035442862   -2.3845225   0.73870709  1255725 
 1810000   0.88814758   -2.3843155   -2.3843155   -1.6452439  0.030771403   -2.3843155   0.73907161  1255725 
 1811000   0.88831314   -2.3839957   -2.3839957   -1.6447863    0.0296739   -2.3839957   0.73920938  1255725 
 1812000   0.88897467   -2.3845709   -2.3845709   -1.6448111  0.026898553   -2.3845709   0.73975988  1255725 
 1813000   0.88766324   -2.3837601   -2.3837601   -1.6450915  0.041750794   -2.3837601   0.73866857  1255725 
 1814000   0.88883596   -2.3844784   -2.3844784   -1.6448339  0.030587696   -2.3844784   0.73964445  1255725 
 1815000   0.88849327   -2.3843709   -2.3843709   -1.6450116  0.030442892   -2.3843709   0.73935928  1255725 
 1816000   0.88820159   -2.3839155   -2.3839155   -1.6447989  0.019835138   -2.3839155   0.73911656  1255725 
 1817000   0.88765749   -2.3834533   -2.3834533   -1.6447895   0.02012579   -2.3834533   0.73866379  1255725 
 1818000    0.8871568   -2.3826458   -2.3826458   -1.6443987  0.031389545   -2.3826458   0.73824713  1255725 
 1819000   0.88725038   -2.3827767   -2.3827767   -1.6444517  0.025191398   -2.3827767   0.73832501  1255725 
 1820000   0.88853778   -2.3839519   -2.3839519   -1.6445556  0.026809882   -2.3839519   0.73939632  1255725 
 1821000   0.88815778   -2.3833244   -2.3833244   -1.6442443  0.020907576   -2.3833244    0.7390801  1255725 
 1822000   0.88836965   -2.3832635   -2.3832635   -1.6440071  0.027830985   -2.3832635   0.73925641  1255725 
 1823000    0.8884985   -2.3831259   -2.3831259   -1.6437623  0.016693214   -2.3831259   0.73936363  1255725 
 1824000   0.88789008   -2.3831048   -2.3831048   -1.6442475  0.031491143   -2.3831048   0.73885733  1255725 
 1825000   0.88833418   -2.3830736   -2.3830736   -1.6438467   0.03805687   -2.3830736   0.73922689  1255725 
 1826000   0.88677488   -2.3817896   -2.3817896   -1.6438603  0.032652543   -2.3817896   0.73792932  1255725 
 1827000    0.8879503   -2.3828808   -2.3828808   -1.6439733  0.023540659   -2.3828808   0.73890745  1255725 
 1828000   0.88758435   -2.3827621   -2.3827621   -1.6441591  0.029808098   -2.3827621   0.73860292  1255725 
 1829000   0.88800643   -2.3830268   -2.3830268   -1.6440726  0.024944225   -2.3830268   0.73895416  1255725 
 1830000    0.8883121   -2.3826952   -2.3826952   -1.6434867   0.03368427   -2.3826952   0.73920852  1255725 
 1831000   0.88842821   -2.3830561   -2.3830561   -1.6437509  0.030566762   -2.3830561   0.73930514  1255725 
 1832000   0.88926988   -2.3828928   -2.3828928   -1.6428873  0.021954908   -2.3828928   0.74000554  1255725 
 1833000   0.88885523   -2.3825384   -2.3825384   -1.6428779  0.037634963   -2.3825384   0.73966048  1255725 
 1834000   0.88853614   -2.3822179   -2.3822179    -1.642823  0.034903141   -2.3822179   0.73939495  1255725 
 1835000   0.88959323   -2.3831771   -2.3831771   -1.6429025  0.031030502   -2.3831771   0.74027461  1255725 
 1836000   0.88931884   -2.3829652   -2.3829652   -1.6429189  0.026390452   -2.3829652   0.74004628  1255725 
 1837000   0.88898617   -2.3823009   -2.3823009   -1.6425314  0.020967047   -2.3823009   0.73976945  1255725 
 1838000   0.88875603    -2.382334    -2.382334   -1.6427561  0.033726845    -2.382334   0.73957794  1255725 
 1839000   0.88866919   -2.3818859   -2.3818859   -1.6423802  0.041288193   -2.3818859   0.73950567  1255725 
 1840000    0.8888346   -2.3819284   -2.3819284   -1.6422851  0.022278999   -2.3819284   0.73964332  1255725 
 1841000   0.88831587   -2.3818297   -2.3818297   -1.6426181  0.030707445   -2.3818297   0.73921165  1255725 
 1842000   0.88848583   -2.3817185   -2.3817185   -1.6423655  0.028845016   -2.3817185   0.73935308  1255725 
 1843000   0.88843274   -2.3819091   -2.3819091   -1.6426002  0.031024831   -2.3819091   0.73930891  1255725 
 1844000   0.88778855   -2.3810374   -2.3810374   -1.6422645  0.029622924   -2.3810374   0.73877285  1255725 
 1845000   0.88878158   -2.3813138   -2.3813138   -1.6417146   0.02480749   -2.3813138   0.73959919  1255725 
 1846000   0.88866657   -2.3817049   -2.3817049   -1.6422015  0.021153055   -2.3817049   0.73950349  1255725 
 1847000   0.88894618    -2.381361    -2.381361   -1.6416248  0.022018955    -2.381361   0.73973617  1255725 
 1848000   0.88931059   -2.3813716   -2.3813716   -1.6413322  0.017687033   -2.3813716   0.74003942  1255725 
 1849000   0.88845483   -2.3808635   -2.3808635   -1.6415362  0.033527072   -2.3808635   0.73932729  1255725 
 1850000   0.88836878   -2.3805441   -2.3805441   -1.6412884  0.030848125   -2.3805441   0.73925569  1255725 
 1851000   0.88845493   -2.3804198   -2.3804198   -1.6410924  0.026691579   -2.3804198   0.73932737  1255725 
 1852000   0.88903637   -2.3813633   -2.3813633    -1.641552  0.024733555   -2.3813633   0.73981122  1255725 
 1853000   0.88907935   -2.3812599   -2.3812599   -1.6414129  0.025580452   -2.3812599   0.73984698  1255725 
 1854000   0.88755903   -2.3795428   -2.3795428   -1.6409609  0.029050229   -2.3795428   0.73858185  1255725 
 1855000   0.88832388   -2.3801218   -2.3801218   -1.6409035  0.030031977   -2.3801218   0.73921832  1255725 
 1856000   0.88951697   -2.3811787   -2.3811787   -1.6409675  0.019881983   -2.3811787   0.74021115  1255725 
 1857000   0.88920573   -2.3809161   -2.3809161   -1.6409639  0.031527982   -2.3809161   0.73995216  1255725 
 1858000   0.88823372   -2.3800579   -2.3800579   -1.6409146  0.024965386   -2.3800579    0.7391433  1255725 
 1859000   0.89043356   -2.3814025   -2.3814025   -1.6404286  0.016230704   -2.3814025   0.74097389  1255725 
 1860000    0.8887627   -2.3800641   -2.3800641   -1.6404806   0.03045821   -2.3800641   0.73958348  1255725 
 1861000    0.8901584   -2.3808086   -2.3808086   -1.6400637  0.031750385   -2.3808086   0.74074492  1255725 
 1862000   0.88967645   -2.3802385   -2.3802385   -1.6398947  0.030285917   -2.3802385   0.74034386  1255725 
 1863000   0.88995556   -2.3800224   -2.3800224   -1.6394462  0.030319835   -2.3800224   0.74057613  1255725 
 1864000   0.89015963     -2.38035     -2.38035   -1.6396041   0.03086754     -2.38035   0.74074594  1255725 
 1865000   0.88975011   -2.3798658   -2.3798658   -1.6394607  0.030325106   -2.3798658   0.74040516  1255725 
 1866000   0.88856348   -2.3793544   -2.3793544   -1.6399367  0.034793385   -2.3793544   0.73941771  1255725 
 1867000   0.88934203   -2.3799169   -2.3799169   -1.6398513  0.024127509   -2.3799169   0.74006557  1255725 
 1868000   0.88940912   -2.3797575   -2.3797575    -1.639636   0.02748417   -2.3797575   0.74012141  1255725 
 1869000   0.88950114   -2.3799207   -2.3799207   -1.6397227  0.032540642   -2.3799207   0.74019798  1255725 
 1870000   0.88985646   -2.3799176   -2.3799176    -1.639424  0.037226708   -2.3799176   0.74049366  1255725 
 1871000   0.88930071   -2.3790885   -2.3790885   -1.6390573  0.031441583   -2.3790885   0.74003119  1255725 
 1872000   0.89018694   -2.3801273   -2.3801273   -1.6393586  0.027159493   -2.3801273   0.74076867  1255725 
 1873000   0.88925203   -2.3789587   -2.3789587   -1.6389681  0.032170726   -2.3789587   0.73999068  1255725 
 1874000   0.88974189   -2.3796387   -2.3796387   -1.6392404  0.036201282   -2.3796387   0.74039832  1255725 
 1875000   0.88967065   -2.3792395   -2.3792395   -1.6389005  0.025491136   -2.3792395   0.74033904  1255725 
 1876000   0.88946017   -2.3785183   -2.3785183   -1.6383545  0.029440393   -2.3785183   0.74016388  1255725 
 1877000   0.88978926   -2.3791253   -2.3791253   -1.6386876  0.034443436   -2.3791253   0.74043773  1255725 
 1878000   0.89068239   -2.3799087   -2.3799087   -1.6387277  0.023261329   -2.3799087   0.74118095  1255725 
 1879000    0.8898529   -2.3790875   -2.3790875   -1.6385968  0.027824419   -2.3790875    0.7404907  1255725 
 1880000   0.89061909   -2.3794522   -2.3794522   -1.6383239  0.027694003   -2.3794522   0.74112828  1255725 
 1881000   0.89003606   -2.3787674   -2.3787674   -1.6381243  0.025451425   -2.3787674   0.74064311  1255725 
 1882000   0.88966349   -2.3779704   -2.3779704   -1.6376373  0.018798314   -2.3779704   0.74033308  1255725 
 1883000   0.89046249   -2.3790446   -2.3790446   -1.6380466  0.027236187   -2.3790446   0.74099796  1255725 
 1884000   0.88990802   -2.3782268   -2.3782268   -1.6376903  0.027704957   -2.3782268   0.74053657  1255725 
 1885000   0.89025685   -2.3784194   -2.3784194   -1.6375925    0.0256628   -2.3784194   0.74082684  1255725 
 1886000   0.89150243   -2.3793984   -2.3793984    -1.637535  0.016588784   -2.3793984   0.74186335  1255725 
 1887000   0.89007184   -2.3786034   -2.3786034   -1.6379305  0.031609281   -2.3786034   0.74067288  1255725 
 1888000   0.89157973   -2.3795122   -2.3795122   -1.6375845  0.027251086   -2.3795122   0.74192768  1255725 
 1889000    0.8899418   -2.3781059   -2.3781059   -1.6375413  0.027157945   -2.3781059   0.74056468  1255725 
 1890000   0.89028167   -2.3788214   -2.3788214   -1.6379739  0.025813057   -2.3788214   0.74084749  1255725 
 1891000   0.88996835   -2.3787606   -2.3787606   -1.6381738  0.026840282   -2.3787606   0.74058677  1255725 
 1892000    0.8898579   -2.3788166   -2.3788166   -1.6383217  0.025020611   -2.3788166   0.74049485  1255725 
 1893000    0.8902205   -2.3785614   -2.3785614   -1.6377648  0.031354648   -2.3785614   0.74079659  1255725 
 1894000     0.889388   -2.3783253   -2.3783253   -1.6382215   0.01913901   -2.3783253   0.74010383  1255725 
 1895000   0.88991898     -2.37827     -2.37827   -1.6377243  0.028756494     -2.37827   0.74054569  1255725 
 1896000   0.89031938   -2.3782398   -2.3782398   -1.6373609  0.031327509   -2.3782398   0.74087888  1255725 
 1897000   0.89062457   -2.3785778   -2.3785778   -1.6374449   0.02868213   -2.3785778   0.74113284  1255725 
 1898000   0.89008569   -2.3780686   -2.3780686   -1.6373842  0.036030093   -2.3780686   0.74068441  1255725 
 1899000     0.890175   -2.3783924   -2.3783924   -1.6376336  0.021594881   -2.3783924   0.74075873  1255725 
 1900000   0.89000957   -2.3778097   -2.3778097   -1.6371886  0.036632493   -2.3778097   0.74062107  1255725 
 1901000   0.89037404   -2.3780974   -2.3780974    -1.637173  0.021244801   -2.3780974   0.74092436  1255725 
 1902000   0.89021991   -2.3779009   -2.3779009   -1.6371048  0.019775993   -2.3779009    0.7407961  1255725 
 1903000   0.88964526   -2.3772061   -2.3772061   -1.6368882   0.02580974   -2.3772061   0.74031791  1255725 
 1904000   0.88987936   -2.3770419   -2.3770419   -1.6365292  0.028329496   -2.3770419   0.74051271  1255725 
 1905000   0.88960616   -2.3768087   -2.3768087   -1.6365233  0.029410141   -2.3768087   0.74028537  1255725 
 1906000   0.88960158   -2.3767252   -2.3767252   -1.6364436  0.023204681   -2.3767252   0.74028156  1255725 
 1907000    0.8897988   -2.3766078   -2.3766078   -1.6361621  0.023365279   -2.3766078   0.74044568  1255725 
 1908000   0.89013014   -2.3767814   -2.3767814     -1.63606  0.032272459   -2.3767814    0.7407214  1255725 
 1909000   0.88953062   -2.3759279   -2.3759279   -1.6357054  0.039534546   -2.3759279   0.74022251  1255725 
 1910000   0.89038836   -2.3767523   -2.3767523    -1.635816  0.027737628   -2.3767523   0.74093628  1255725 
 1911000   0.88990485   -2.3765645   -2.3765645   -1.6360306  0.025014831   -2.3765645   0.74053393  1255725 
 1912000   0.88931377   -2.3759119   -2.3759119   -1.6358698  0.035485303   -2.3759119   0.74004206  1255725 
 1913000   0.88996493   -2.3764094   -2.3764094   -1.6358255  0.035851278   -2.3764094   0.74058392  1255725 
 1914000   0.88894014   -2.3755936   -2.3755936   -1.6358625   0.02564065   -2.3755936   0.73973114  1255725 
 1915000   0.89098374   -2.3767955   -2.3767955   -1.6353638  0.024578252   -2.3767955   0.74143172  1255725 
 1916000   0.88951854   -2.3760705   -2.3760705    -1.635858  0.016159883   -2.3760705   0.74021246  1255725 
 1917000   0.88912903    -2.375938    -2.375938   -1.6360497  0.032126416    -2.375938   0.73988833  1255725 
 1918000   0.89047692   -2.3763504   -2.3763504   -1.6353404  0.040454833   -2.3763504   0.74100997  1255725 
 1919000   0.88997353   -2.3757672   -2.3757672   -1.6351761  0.025237365   -2.3757672   0.74059108  1255725 
 1920000   0.89049477   -2.3765447   -2.3765447   -1.6355198  0.037044707   -2.3765447   0.74102483  1255725 
 1921000   0.89163419   -2.3774678   -2.3774678   -1.6354948  0.030610641   -2.3774678   0.74197299  1255725 
 1922000   0.89075507   -2.3767087   -2.3767087   -1.6354673  0.022629694   -2.3767087   0.74124143  1255725 
 1923000   0.89019878   -2.3759729   -2.3759729   -1.6351943   0.02881539   -2.3759729   0.74077852  1255725 
 1924000    0.8904276   -2.3763353   -2.3763353   -1.6353664  0.025913142   -2.3763353   0.74096893  1255725 
 1925000   0.89053895   -2.3763652   -2.3763652   -1.6353037  0.024229219   -2.3763652   0.74106159  1255725 
 1926000   0.89104227   -2.3763505   -2.3763505   -1.6348701  0.032358682   -2.3763505   0.74148043  1255725 
 1927000   0.89133407   -2.3762964   -2.3762964   -1.6345731  0.031199438   -2.3762964   0.74172325  1255725 
 1928000    0.8904356   -2.3754292   -2.3754292   -1.6344536  0.038716268   -2.3754292   0.74097559  1255725 
 1929000   0.89109653   -2.3755512   -2.3755512   -1.6340256  0.036356711   -2.3755512   0.74152558  1255725 
 1930000    0.8920447   -2.3763864   -2.3763864   -1.6340718  0.023569348   -2.3763864    0.7423146  1255725 
 1931000   0.89152511   -2.3760078   -2.3760078   -1.6341256  0.028696697   -2.3760078   0.74188223  1255725 
 1932000   0.89080073   -2.3752571   -2.3752571   -1.6339776  0.023301778   -2.3752571   0.74127943  1255725 
 1933000   0.89021655   -2.3747649   -2.3747649   -1.6339716    0.0331818   -2.3747649    0.7407933  1255725 
 1934000   0.89088065   -2.3752569   -2.3752569    -1.633911  0.031502357   -2.3752569   0.74134594  1255725 
 1935000   0.89004879   -2.3748616   -2.3748616   -1.6342079  0.025220117   -2.3748616   0.74065371  1255725 
 1936000   0.89058326   -2.3748297   -2.3748297   -1.6337312  0.026144116   -2.3748297   0.74109846  1255725 
 1937000    0.8901593   -2.3747404   -2.3747404   -1.6339947  0.032289283   -2.3747404   0.74074566  1255725 
 1938000   0.89068856   -2.3749162   -2.3749162   -1.6337301  0.029246775   -2.3749162   0.74118609  1255725 
 1939000   0.89079811   -2.3749632   -2.3749632    -1.633686  0.022847044   -2.3749632   0.74127725  1255725 
 1940000   0.89020778   -2.3743614   -2.3743614   -1.6335754  0.020251463   -2.3743614   0.74078601  1255725 
 1941000   0.89186364   -2.3756042   -2.3756042   -1.6334403  0.042605205   -2.3756042   0.74216393  1255725 
 1942000   0.89097972   -2.3746174   -2.3746174    -1.633189  0.030846374   -2.3746174   0.74142838  1255725 
 1943000    0.8915373   -2.3752231   -2.3752231   -1.6333307  0.025932069   -2.3752231   0.74189237  1255725 
 1944000   0.89056481    -2.374344    -2.374344   -1.6332609  0.022343114    -2.374344   0.74108311  1255725 
 1945000   0.89167207   -2.3751263   -2.3751263   -1.6331217  0.022554599   -2.3751263   0.74200452  1255725 
 1946000   0.89064203    -2.374162    -2.374162   -1.6330147   0.03236139    -2.374162   0.74114737  1255725 
 1947000   0.89169984   -2.3747102   -2.3747102   -1.6326826  0.028151735   -2.3747102   0.74202762  1255725 
 1948000   0.89151647   -2.3747454   -2.3747454   -1.6328703  0.035920688   -2.3747454   0.74187504  1255725 
 1949000   0.89180449   -2.3744249   -2.3744249   -1.6323102  0.032876739   -2.3744249   0.74211471  1255725 
 1950000   0.89312715   -2.3753204   -2.3753204   -1.6321051  0.035580178   -2.3753204   0.74321536  1255725 
 1951000   0.89310355    -2.375287    -2.375287   -1.6320913  0.037272625    -2.375287   0.74319572  1255725 
 1952000   0.89174905   -2.3742791   -2.3742791   -1.6322105  0.033505657   -2.3742791   0.74206857  1255725 
 1953000   0.89191559     -2.37435     -2.37435   -1.6321429  0.030227053     -2.37435   0.74220717  1255725 
 1954000   0.89177086    -2.373793    -2.373793   -1.6317063  0.028189688    -2.373793   0.74208672  1255725 
 1955000   0.89172175   -2.3737511   -2.3737511   -1.6317052   0.02262685   -2.3737511   0.74204586  1255725 
 1956000   0.89181559   -2.3736664   -2.3736664   -1.6315425   0.02718864   -2.3736664   0.74212394  1255725 
 1957000   0.89142846   -2.3735259   -2.3735259   -1.6317241  0.028040782   -2.3735259    0.7418018  1255725 
 1958000   0.89103136   -2.3732694   -2.3732694   -1.6317981  0.021648375   -2.3732694   0.74147135  1255725 
 1959000   0.89191063   -2.3740746   -2.3740746   -1.6318716  0.023669304   -2.3740746   0.74220303  1255725 
 1960000   0.89200157   -2.3739236   -2.3739236   -1.6316449  0.022924059   -2.3739236   0.74227871  1255725 
 1961000   0.89310446   -2.3742847   -2.3742847   -1.6310882  0.028217076   -2.3742847   0.74319648  1255725 
 1962000   0.89155492    -2.373087    -2.373087     -1.63118  0.026087933    -2.373087   0.74190703  1255725 
 1963000   0.89220548   -2.3733617   -2.3733617   -1.6309133  0.030854617   -2.3733617   0.74244839  1255725 
 1964000   0.89192314   -2.3730919   -2.3730919   -1.6308785  0.020513995   -2.3730919   0.74221345  1255725 
 1965000   0.89193006   -2.3731432   -2.3731432    -1.630924  0.023971864   -2.3731432    0.7422192  1255725 
 1966000   0.89177485   -2.3725423   -2.3725423   -1.6304522  0.018808894   -2.3725423   0.74209005  1255725 
 1967000   0.89178221    -2.372626    -2.372626   -1.6305298  0.029235089    -2.372626   0.74209617  1255725 
 1968000   0.89240809   -2.3731838   -2.3731838   -1.6305668  0.038669766   -2.3731838   0.74261699  1255725 
 1969000   0.89407077   -2.3744686   -2.3744686    -1.630468  0.028025619   -2.3744686   0.74400059  1255725 
 1970000   0.89346684   -2.3734791   -2.3734791    -1.629981  0.033779652   -2.3734791   0.74349803  1255725 
 1971000   0.89305643   -2.3733512   -2.3733512   -1.6301947  0.026646501   -2.3733512   0.74315651  1255725 
 1972000   0.89263876   -2.3732851   -2.3732851   -1.6304762  0.029852227   -2.3732851   0.74280894  1255725 
 1973000   0.89237803   -2.3728053   -2.3728053   -1.6302134  0.024159572   -2.3728053   0.74259198  1255725 
 1974000    0.8925514   -2.3731228   -2.3731228   -1.6303865  0.028721749   -2.3731228   0.74273625  1255725 
 1975000   0.89303514   -2.3735493   -2.3735493   -1.6304105   0.01886611   -2.3735493   0.74313879  1255725 
 1976000   0.89218054   -2.3726961   -2.3726961   -1.6302685  0.027264635   -2.3726961   0.74242764  1255725 
 1977000   0.89296928   -2.3729146   -2.3729146   -1.6298306   0.03355343   -2.3729146   0.74308399  1255725 
 1978000   0.89253606   -2.3729891   -2.3729891   -1.6302656  0.031616635   -2.3729891   0.74272349  1255725 
 1979000   0.89342701   -2.3732776   -2.3732776   -1.6298127  0.035389896   -2.3732776   0.74346489  1255725 
 1980000   0.89346628   -2.3736854   -2.3736854   -1.6301878  0.027491099   -2.3736854   0.74349757  1255725 
 1981000   0.89412745   -2.3741794   -2.3741794   -1.6301316  0.032331467   -2.3741794   0.74404776  1255725 
 1982000   0.89290033   -2.3733589   -2.3733589   -1.6303323  0.030596202   -2.3733589   0.74302661  1255725 
 1983000   0.89234014    -2.372846    -2.372846   -1.6302856  0.032045096    -2.372846   0.74256045  1255725 
 1984000   0.89191055   -2.3727091   -2.3727091   -1.6305062   0.03047851   -2.3727091   0.74220297  1255725 
 1985000   0.89172748   -2.3725191   -2.3725191   -1.6304684   0.02964449   -2.3725191   0.74205062  1255725 
 1986000   0.89211974   -2.3724756   -2.3724756   -1.6300986  0.016805968   -2.3724756   0.74237704  1255725 
 1987000   0.89247136   -2.3727083   -2.3727083   -1.6300386  0.025370773   -2.3727083   0.74266964  1255725 
 1988000   0.89383295   -2.3734128   -2.3734128   -1.6296101  0.024396154   -2.3734128   0.74380269  1255725 
 1989000   0.89312393   -2.3726363   -2.3726363   -1.6294236  0.024580291   -2.3726363   0.74321268  1255725 
 1990000   0.89267847   -2.3719103   -2.3719103   -1.6290683  0.034508858   -2.3719103   0.74284199  1255725 
 1991000   0.89210119    -2.371115    -2.371115   -1.6287534  0.033023764    -2.371115   0.74236161  1255725 
 1992000   0.89330956   -2.3719863   -2.3719863   -1.6286192  0.021449128   -2.3719863   0.74336716  1255725 
 1993000   0.89359709   -2.3722956   -2.3722956   -1.6286892  0.028065407   -2.3722956   0.74360642  1255725 
 1994000   0.89357727   -2.3721934   -2.3721934   -1.6286035  0.028947631   -2.3721934   0.74358993  1255725 
 1995000   0.89305898   -2.3716771   -2.3716771   -1.6285185  0.036445334   -2.3716771   0.74315863  1255725 
 1996000   0.89319088   -2.3720784   -2.3720784     -1.62881  0.037116841   -2.3720784   0.74326839  1255725 
 1997000   0.89296264   -2.3715266   -2.3715266   -1.6284482  0.023793286   -2.3715266   0.74307847  1255725 
 1998000   0.89356591   -2.3716119   -2.3716119   -1.6280314  0.030142119   -2.3716119   0.74358047  1255725 
 1999000   0.89279263     -2.37088     -2.37088    -1.627943  0.030138293     -2.37088   0.74293699  1255725 
 2000000   0.89276433   -2.3710913   -2.3710913   -1.6281778  0.032176422   -2.3710913   0.74291344  1255725 
 2001000   0.89316346   -2.3719756   -2.3719756   -1.6287301  0.024027094   -2.3719756   0.74324558  1255725 
 2002000   0.89253994   -2.3714782   -2.3714782   -1.6287515  0.030270667   -2.3714782   0.74272672  1255725 
 2003000   0.89174737   -2.3706832   -2.3706832    -1.628616  0.036127904   -2.3706832   0.74206718  1255725 
 2004000   0.89256765    -2.370967    -2.370967   -1.6282172  0.032468619    -2.370967   0.74274977  1255725 
 2005000   0.89347223   -2.3719023   -2.3719023   -1.6283998   0.02047411   -2.3719023   0.74350252  1255725 
 2006000    0.8922431    -2.370489    -2.370489   -1.6280093  0.026035696    -2.370489    0.7424797  1255725 
 2007000    0.8927104   -2.3705088   -2.3705088   -1.6276402  0.027651051   -2.3705088   0.74286856  1255725 
 2008000   0.89405849   -2.3714543   -2.3714543   -1.6274639  0.025086994   -2.3714543   0.74399037  1255725 
 2009000   0.89350325   -2.3710318   -2.3710318   -1.6275035  0.026686376   -2.3710318   0.74352833  1255725 
 2010000   0.89441213   -2.3713504   -2.3713504   -1.6270657  0.025585291   -2.3713504   0.74428466  1255725 
 2011000   0.89358538   -2.3708937   -2.3708937    -1.627297  0.034705527   -2.3708937   0.74359668  1255725 
 2012000    0.8939332   -2.3712243   -2.3712243   -1.6273382  0.027762243   -2.3712243   0.74388611  1255725 
 2013000   0.89335473   -2.3705653   -2.3705653   -1.6271606  0.027178122   -2.3705653   0.74340474  1255725 
 2014000   0.89448674   -2.3709599   -2.3709599   -1.6266131  0.030441425   -2.3709599   0.74434674  1255725 
 2015000   0.89357165   -2.3706391   -2.3706391   -1.6270539   0.01722392   -2.3706391   0.74358525  1255725 
 2016000   0.89213145   -2.3693096   -2.3693096   -1.6269228  0.025020846   -2.3693096   0.74238679  1255725 
 2017000   0.89199755   -2.3693435   -2.3693435   -1.6270681  0.029210461   -2.3693435   0.74227536  1255725 
 2018000   0.89272717   -2.3695988   -2.3695988   -1.6267163  0.033375377   -2.3695988   0.74288252  1255725 
 2019000   0.89293662   -2.3695006   -2.3695006   -1.6264438   0.02286602   -2.3695006   0.74305681  1255725 
 2020000   0.89212996   -2.3687205   -2.3687205    -1.626335   0.03421214   -2.3687205   0.74238555  1255725 
 2021000   0.89223271   -2.3690601   -2.3690601   -1.6265891   0.03455557   -2.3690601   0.74247105  1255725 
 2022000   0.89308769   -2.3697698   -2.3697698   -1.6265872  0.016831086   -2.3697698   0.74318253  1255725 
 2023000   0.89285549   -2.3690592   -2.3690592   -1.6260699  0.023715588   -2.3690592    0.7429893  1255725 
 2024000   0.89324097   -2.3691339   -2.3691339   -1.6258238  0.021379344   -2.3691339   0.74331007  1255725 
 2025000   0.89370914   -2.3695385   -2.3695385   -1.6258389  0.034597618   -2.3695385   0.74369966  1255725 
 2026000   0.89303457   -2.3690324   -2.3690324    -1.625894  0.029008255   -2.3690324   0.74313832  1255725 
 2027000   0.89357811   -2.3695823   -2.3695823   -1.6259916  0.023187807   -2.3695823   0.74359063  1255725 
 2028000   0.89432306   -2.3699765   -2.3699765    -1.625766  0.027124133   -2.3699765   0.74421053  1255725 
 2029000   0.89327906   -2.3693737   -2.3693737   -1.6260319  0.035718298   -2.3693737   0.74334177  1255725 
 2030000   0.89440387   -2.3700609   -2.3700609   -1.6257831  0.025518686   -2.3700609   0.74427778  1255725 
 2031000   0.89353065   -2.3694447   -2.3694447   -1.6258936  0.025869536   -2.3694447   0.74355113  1255725 
 2032000   0.89484959   -2.3700188   -2.3700188   -1.6253701  0.027889906   -2.3700188   0.74464869  1255725 
 2033000   0.89480696   -2.3701227   -2.3701227   -1.6255095  0.028633749   -2.3701227   0.74461321  1255725 
 2034000   0.89421706   -2.3693473   -2.3693473    -1.625225   0.03197464   -2.3693473   0.74412233  1255725 
 2035000   0.89396162   -2.3695218   -2.3695218    -1.625612  0.033683618   -2.3695218   0.74390976  1255725 
 2036000    0.8938838   -2.3695634   -2.3695634   -1.6257184   0.02544279   -2.3695634     0.743845  1255725 
 2037000   0.89327433   -2.3686704   -2.3686704   -1.6253326  0.021876126   -2.3686704   0.74333784  1255725 
 2038000   0.89355359   -2.3687236   -2.3687236   -1.6251534  0.032274431   -2.3687236   0.74357022  1255725 
 2039000   0.89360577   -2.3686663   -2.3686663   -1.6250527  0.026817287   -2.3686663   0.74361364  1255725 
 2040000   0.89315127   -2.3685399   -2.3685399   -1.6253044  0.021422467   -2.3685399   0.74323543  1255725 
 2041000   0.89367262   -2.3690581   -2.3690581   -1.6253888  0.032277992   -2.3690581   0.74366927  1255725 
 2042000   0.89554816   -2.3698315   -2.3698315   -1.6246014   0.01690674   -2.3698315   0.74523001  1255725 
 2043000   0.89463683   -2.3692395   -2.3692395   -1.6247678  0.026232138   -2.3692395   0.74447164  1255725 
 2044000   0.89420357   -2.3689068   -2.3689068   -1.6247957  0.031321179   -2.3689068    0.7441111  1255725 
 2045000   0.89493187   -2.3691721   -2.3691721   -1.6244549  0.025068956   -2.3691721   0.74471716  1255725 
 2046000   0.89502655   -2.3691792   -2.3691792   -1.6243833  0.020821325   -2.3691792   0.74479594  1255725 
 2047000    0.8936879    -2.367998    -2.367998    -1.624316  0.031092958    -2.367998   0.74368199  1255725 
 2048000   0.89270602   -2.3669487   -2.3669487   -1.6240838  0.033680937   -2.3669487   0.74286492  1255725 
 2049000   0.89349371   -2.3679731   -2.3679731   -1.6244527  0.029582929   -2.3679731    0.7435204  1255725 
 2050000   0.89576336   -2.3694365   -2.3694365   -1.6240274  0.019970517   -2.3694365   0.74540908  1255725 
 2051000   0.89402537   -2.3679937   -2.3679937   -1.6240309  0.027906049   -2.3679937   0.74396281  1255725 
 2052000   0.89429135   -2.3684066   -2.3684066   -1.6242225  0.028999266   -2.3684066   0.74418415  1255725 
 2053000   0.89395418   -2.3680134   -2.3680134   -1.6241099  0.023097089   -2.3680134   0.74390357  1255725 
 2054000   0.89421979   -2.3680782   -2.3680782   -1.6239536  0.034453821   -2.3680782    0.7441246  1255725 
 2055000   0.89435341   -2.3679965   -2.3679965   -1.6237607  0.032218682   -2.3679965   0.74423579  1255725 
 2056000   0.89541901   -2.3685164   -2.3685164   -1.6233939   0.03544361   -2.3685164   0.74512253  1255725 
 2057000   0.89558046   -2.3689898   -2.3689898   -1.6237329  0.026702189   -2.3689898   0.74525688  1255725 
 2058000   0.89513334   -2.3684043   -2.3684043   -1.6235195  0.024735887   -2.3684043   0.74488481  1255725 
 2059000   0.89462457   -2.3678737   -2.3678737   -1.6234123  0.028360804   -2.3678737   0.74446144  1255725 
 2060000    0.8953467   -2.3684193   -2.3684193    -1.623357  0.030451243   -2.3684193   0.74506236  1255725 
 2061000   0.89561567    -2.368675    -2.368675   -1.6233889  0.035275504    -2.368675   0.74528618  1255725 
 2062000   0.89537235   -2.3684714   -2.3684714   -1.6233877  0.026090894   -2.3684714    0.7450837  1255725 
 2063000   0.89524657   -2.3684353   -2.3684353   -1.6234563  0.033372989   -2.3684353   0.74497903  1255725 
 2064000   0.89526584   -2.3687701   -2.3687701    -1.623775  0.026067525   -2.3687701   0.74499507  1255725 
 2065000    0.8952028   -2.3686113   -2.3686113   -1.6236687  0.030355654   -2.3686113   0.74494261  1255725 
 2066000   0.89499723   -2.3678793   -2.3678793   -1.6231078   0.02564159   -2.3678793   0.74477154  1255725 
 2067000   0.89544027   -2.3681413   -2.3681413    -1.623001  0.029692163   -2.3681413   0.74514022  1255725 
 2068000   0.89470699   -2.3677081   -2.3677081   -1.6231781  0.021648798   -2.3677081   0.74453002  1255725 
 2069000   0.89484567   -2.3674375   -2.3674375   -1.6227921  0.026363087   -2.3674375   0.74464542  1255725 
 2070000   0.89470512   -2.3673181   -2.3673181   -1.6227897  0.031136883   -2.3673181   0.74452847  1255725 
 2071000   0.89516449   -2.3675711   -2.3675711   -1.6226604  0.035777976   -2.3675711   0.74491073  1255725 
 2072000   0.89495505   -2.3673364   -2.3673364   -1.6225999  0.032159041   -2.3673364   0.74473644  1255725 
 2073000   0.89480051   -2.3672678   -2.3672678   -1.6226599  0.020133588   -2.3672678   0.74460784  1255725 
 2074000   0.89435657   -2.3669357   -2.3669357   -1.6226973  0.024263054   -2.3669357   0.74423842  1255725 
 2075000   0.89483547   -2.3672603   -2.3672603   -1.6226233  0.021754019   -2.3672603   0.74463693  1255725 
 2076000   0.89356902   -2.3666017   -2.3666017   -1.6230187  0.038525842   -2.3666017   0.74358306  1255725 
 2077000   0.89394062   -2.3668231   -2.3668231   -1.6229308  0.020140105   -2.3668231   0.74389229  1255725 
 2078000   0.89358541   -2.3658287   -2.3658287    -1.622232   0.03225119   -2.3658287    0.7435967  1255725 
 2079000   0.89534003   -2.3667468   -2.3667468     -1.62169  0.025392737   -2.3667468   0.74505681  1255725 
 2080000   0.89582862   -2.3669699   -2.3669699   -1.6215065  0.024425586   -2.3669699   0.74546338  1255725 
 2081000   0.89601715   -2.3668104   -2.3668104   -1.6211901  0.030850173   -2.3668104   0.74562027  1255725 
 2082000   0.89680261   -2.3671462   -2.3671462   -1.6208723  0.024613919   -2.3671462   0.74627389  1255725 
 2083000   0.89640679   -2.3663683   -2.3663683   -1.6204237  0.030368122   -2.3663683   0.74594451  1255725 
 2084000   0.89575787   -2.3660827   -2.3660827   -1.6206782  0.028650461   -2.3660827   0.74540451  1255725 
 2085000   0.89603651   -2.3663171   -2.3663171   -1.6206807  0.026141387   -2.3663171   0.74563638  1255725 
 2086000   0.89589703   -2.3657892   -2.3657892   -1.6202689  0.033582258   -2.3657892   0.74552031  1255725 
 2087000   0.89555913   -2.3655459   -2.3655459   -1.6203068    0.0340014   -2.3655459   0.74523913  1255725 
 2088000   0.89518089   -2.3650946   -2.3650946   -1.6201703  0.025293632   -2.3650946   0.74492438  1255725 
 2089000   0.89500564     -2.36505     -2.36505   -1.6202714  0.028203307     -2.36505   0.74477854  1255725 
 2090000   0.89508639   -2.3649971   -2.3649971   -1.6201514  0.025611931   -2.3649971   0.74484574  1255725 
 2091000   0.89390272   -2.3643924   -2.3643924   -1.6205317  0.026322248   -2.3643924   0.74386075  1255725 
 2092000   0.89404858   -2.3642342   -2.3642342   -1.6202521  0.023138733   -2.3642342   0.74398213  1255725 
 2093000   0.89531789   -2.3655653   -2.3655653    -1.620527  0.022802432   -2.3655653   0.74503838  1255725 
 2094000   0.89439545   -2.3645986   -2.3645986   -1.6203278  0.023897406   -2.3645986   0.74427078  1255725 
 2095000   0.89559541   -2.3653959   -2.3653959   -1.6201265  0.027340917   -2.3653959   0.74526933  1255725 
 2096000   0.89506931   -2.3645857   -2.3645857   -1.6197541  0.030818049   -2.3645857   0.74483152  1255725 
 2097000   0.89571867   -2.3651992   -2.3651992   -1.6198273  0.032232889   -2.3651992   0.74537189  1255725 
 2098000   0.89626589   -2.3657684   -2.3657684   -1.6199412  0.034147532   -2.3657684   0.74582726  1255725 
 2099000   0.89598774   -2.3654422   -2.3654422   -1.6198464  0.026800482   -2.3654422    0.7455958  1255725 
 2100000   0.89664729   -2.3659069   -2.3659069   -1.6197623  0.032270703   -2.3659069   0.74614464  1255725 
 2101000   0.89786123   -2.3668539   -2.3668539    -1.619699  0.029245677   -2.3668539   0.74715482  1255725 
 2102000   0.89661805   -2.3660482   -2.3660482   -1.6199279  0.037553682   -2.3660482   0.74612031  1255725 
 2103000   0.89693972   -2.3665712   -2.3665712   -1.6201832  0.027313554   -2.3665712   0.74638799  1255725 
 2104000   0.89714956   -2.3664359   -2.3664359   -1.6198733  0.025782585   -2.3664359    0.7465626  1255725 
 2105000   0.89565912   -2.3648487   -2.3648487   -1.6195263  0.024844592   -2.3648487   0.74532234  1255725 
 2106000   0.89581147   -2.3651758   -2.3651758   -1.6197267  0.033371739   -2.3651758   0.74544912  1255725 
 2107000   0.89582818   -2.3651347   -2.3651347   -1.6196717   0.02624778   -2.3651347   0.74546302  1255725 
 2108000   0.89645506   -2.3655221   -2.3655221   -1.6195374  0.021375351   -2.3655221   0.74598468  1255725 
 2109000   0.89592957   -2.3652485   -2.3652485   -1.6197011  0.022783757   -2.3652485   0.74554739  1255725 
 2110000   0.89622928   -2.3656284   -2.3656284   -1.6198316   0.02512488   -2.3656284    0.7457968  1255725 
 2111000   0.89606427   -2.3652065   -2.3652065   -1.6195471  0.028396371   -2.3652065   0.74565948  1255725 
 2112000   0.89579218   -2.3649357   -2.3649357   -1.6195026  0.020005785   -2.3649357   0.74543307  1255725 
 2113000   0.89615545   -2.3647917   -2.3647917   -1.6190563  0.034840319   -2.3647917   0.74573536  1255725 
 2114000   0.89627606   -2.3647111   -2.3647111   -1.6188754   0.03167106   -2.3647111   0.74583572  1255725 
 2115000   0.89666382    -2.365037    -2.365037   -1.6188786  0.026018837    -2.365037    0.7461584  1255725 
 2116000   0.89622204   -2.3646829   -2.3646829   -1.6188922   0.02635718   -2.3646829   0.74579077  1255725 
 2117000   0.89593642    -2.364477    -2.364477   -1.6189239  0.024229949    -2.364477    0.7455531  1255725 
 2118000   0.89600663   -2.3647244   -2.3647244   -1.6191129  0.032316542   -2.3647244   0.74561152  1255725 
 2119000   0.89538845   -2.3640416   -2.3640416   -1.6189445   0.02945142   -2.3640416    0.7450971  1255725 
 2120000   0.89545479   -2.3637952   -2.3637952   -1.6186429  0.018292993   -2.3637952    0.7451523  1255725 
 2121000   0.89578086    -2.364204    -2.364204   -1.6187804  0.023487824    -2.364204   0.74542364  1255725 
 2122000   0.89631653   -2.3647641   -2.3647641   -1.6188947  0.020349454   -2.3647641    0.7458694  1255725 
 2123000   0.89733867   -2.3652944   -2.3652944   -1.6185744  0.031575105   -2.3652944   0.74671997  1255725 
 2124000   0.89650118   -2.3642548   -2.3642548   -1.6182318  0.039755834   -2.3642548   0.74602306  1255725 
 2125000    0.8968514   -2.3642496   -2.3642496   -1.6179351  0.024709627   -2.3642496   0.74631449  1255725 
 2126000   0.89726511   -2.3647947   -2.3647947    -1.618136  0.028079582   -2.3647947   0.74665876  1255725 
 2127000   0.89692995   -2.3648001   -2.3648001   -1.6184202  0.033922164   -2.3648001   0.74637986  1255725 
 2128000   0.89644961   -2.3642428   -2.3642428   -1.6182627  0.028719435   -2.3642428   0.74598014  1255725 
 2129000   0.89732621    -2.364552    -2.364552   -1.6178424  0.034422104    -2.364552   0.74670961  1255725 
 2130000   0.89756612   -2.3647855   -2.3647855   -1.6178762  0.040151485   -2.3647855   0.74690924  1255725 
 2131000   0.89798411   -2.3649706   -2.3649706   -1.6177136  0.028393513   -2.3649706   0.74725708  1255725 
 2132000   0.89677749   -2.3637183   -2.3637183   -1.6174654  0.028333442   -2.3637183   0.74625299  1255725 
 2133000   0.89752655    -2.364571    -2.364571   -1.6176947  0.031850164    -2.364571   0.74687632  1255725 
 2134000   0.89707845   -2.3641266   -2.3641266   -1.6176231  0.037481466   -2.3641266   0.74650343  1255725 
 2135000   0.89755896   -2.3643266   -2.3643266   -1.6174233  0.027967413   -2.3643266   0.74690329  1255725 
 2136000   0.89766792   -2.3644418   -2.3644418   -1.6174478  0.025700873   -2.3644418   0.74699396  1255725 
 2137000   0.89874271   -2.3648134   -2.3648134    -1.616925  0.030215348   -2.3648134   0.74788834  1255725 
 2138000   0.89748843   -2.3639979   -2.3639979   -1.6171533  0.025663976   -2.3639979    0.7468446  1255725 
 2139000   0.89710546   -2.3637435   -2.3637435   -1.6172176  0.027144868   -2.3637435   0.74652591  1255725 
 2140000   0.89678872   -2.3628413   -2.3628413   -1.6165789  0.034772285   -2.3628413   0.74626233  1255725 
 2141000   0.89748955   -2.3630821   -2.3630821   -1.6162366  0.024208178   -2.3630821   0.74684553  1255725 
 2142000   0.89717704   -2.3623701   -2.3623701   -1.6157847  0.037364961   -2.3623701   0.74658548  1255725 
 2143000   0.89842961   -2.3634774   -2.3634774   -1.6158496  0.034737736   -2.3634774    0.7476278  1255725 
 2144000   0.89777649   -2.3629225   -2.3629225   -1.6158382  0.019651922   -2.3629225    0.7470843  1255725 
 2145000   0.89777648   -2.3622726   -2.3622726   -1.6151883  0.028020849   -2.3622726    0.7470843  1255725 
 2146000   0.89681594   -2.3615664   -2.3615664   -1.6152815  0.036457887   -2.3615664   0.74628498  1255725 
 2147000   0.89827892   -2.3623185   -2.3623185   -1.6148161  0.036943653   -2.3623185   0.74750241  1255725 
 2148000   0.89793814   -2.3618816   -2.3618816   -1.6146628  0.036572808   -2.3618816   0.74721883  1255725 
 2149000   0.89857303   -2.3620968   -2.3620968   -1.6143497  0.023718252   -2.3620968   0.74774715  1255725 
 2150000   0.89713507   -2.3607579   -2.3607579   -1.6142073  0.030731386   -2.3607579   0.74655055  1255725 
 2151000   0.89820313   -2.3612355   -2.3612355   -1.6137961  0.035123551   -2.3612355   0.74743934  1255725 
 2152000   0.89855183   -2.3614204   -2.3614204   -1.6136909  0.029236362   -2.3614204    0.7477295  1255725 
 2153000   0.89731931   -2.3609358   -2.3609358   -1.6142319  0.028986226   -2.3609358   0.74670386  1255725 
 2154000   0.89670113   -2.3603926   -2.3603926   -1.6142032  0.025637422   -2.3603926   0.74618945  1255725 
 2155000   0.89680843    -2.360454    -2.360454   -1.6141753  0.025675971    -2.360454   0.74627874  1255725 
 2156000   0.89646658   -2.3601787   -2.3601787   -1.6141845  0.024793545   -2.3601787   0.74599427  1255725 
 2157000   0.89671215   -2.3602667   -2.3602667    -1.614068   0.02697061   -2.3602667   0.74619862  1255725 
 2158000   0.89755349   -2.3608653   -2.3608653   -1.6139665  0.031943737   -2.3608653   0.74689873  1255725 
 2159000   0.89770114   -2.3610386   -2.3610386    -1.614017  0.028443327   -2.3610386    0.7470216  1255725 
 2160000    0.8982443   -2.3617261   -2.3617261   -1.6142525   0.02633767   -2.3617261    0.7474736  1255725 
 2161000   0.89893888   -2.3620496   -2.3620496    -1.613998  0.031372981   -2.3620496   0.74805159  1255725 
 2162000   0.89735861   -2.3604165   -2.3604165   -1.6136799  0.038895246   -2.3604165   0.74673657  1255725 
 2163000   0.89901071   -2.3611036   -2.3611036   -1.6129922  0.032186118   -2.3611036   0.74811137  1255725 
 2164000   0.89911512    -2.361206    -2.361206   -1.6130078  0.029389734    -2.361206   0.74819824  1255725 
 2165000   0.89844688   -2.3606512   -2.3606512    -1.613009  0.022436504   -2.3606512   0.74764217  1255725 
 2166000   0.89875874   -2.3607239   -2.3607239   -1.6128222   0.03107158   -2.3607239   0.74790168  1255725 
 2167000   0.89884976   -2.3607628   -2.3607628   -1.6127854  0.040905703   -2.3607628   0.74797743  1255725 
 2168000    0.8988797   -2.3604683   -2.3604683   -1.6124659  0.035195881   -2.3604683   0.74800234  1255725 
 2169000   0.89873771    -2.360593    -2.360593   -1.6127088  0.032682123    -2.360593   0.74788419  1255725 
 2170000   0.89882862    -2.360545    -2.360545   -1.6125852  0.030992493    -2.360545   0.74795983  1255725 
 2171000   0.89929551   -2.3605116   -2.3605116   -1.6121633  0.033800698   -2.3605116   0.74834836  1255725 
 2172000    0.8984822   -2.3598362   -2.3598362   -1.6121647  0.039566649   -2.3598362   0.74767157  1255725 
 2173000   0.89845695   -2.3598505   -2.3598505      -1.6122  0.031840806   -2.3598505   0.74765055  1255725 
 2174000    0.8988642   -2.3604393   -2.3604393   -1.6124499  0.023411905   -2.3604393   0.74798945  1255725 
 2175000   0.89808406   -2.3594018   -2.3594018   -1.6120615  0.036205582   -2.3594018   0.74734025  1255725 
 2176000   0.89845068   -2.3594005   -2.3594005   -1.6117551  0.031040275   -2.3594005   0.74764533  1255725 
 2177000   0.89932446   -2.3601288   -2.3601288   -1.6117563  0.023637778   -2.3601288   0.74837245  1255725 
 2178000   0.89892184   -2.3594037   -2.3594037   -1.6113663  0.016908754   -2.3594037   0.74803741  1255725 
 2179000   0.89895794   -2.3591523   -2.3591523   -1.6110849  0.015003992   -2.3591523   0.74806745  1255725 
 2180000   0.89835943   -2.3585933   -2.3585933   -1.6110239  0.031179027   -2.3585933    0.7475694  1255725 
 2181000   0.89834036   -2.3584769   -2.3584769   -1.6109233  0.025818927   -2.3584769   0.74755353  1255725 
 2182000   0.89861067   -2.3583236   -2.3583236   -1.6105451  0.035173085   -2.3583236   0.74777847  1255725 
 2183000   0.89817954   -2.3578687   -2.3578687    -1.610449  0.033702884   -2.3578687    0.7474197  1255725 
 2184000   0.89845864   -2.3582287   -2.3582287   -1.6105768   0.03035667   -2.3582287   0.74765196  1255725 
 2185000   0.89845261   -2.3576894   -2.3576894   -1.6100424  0.035120883   -2.3576894   0.74764694  1255725 
 2186000   0.89951924   -2.3584318   -2.3584318   -1.6098972  0.024075475   -2.3584318   0.74853453  1255725 
 2187000   0.89910104   -2.3578392   -2.3578392   -1.6096527  0.029109217   -2.3578392   0.74818653  1255725 
 2188000    0.8987446   -2.3580307   -2.3580307   -1.6101408  0.028611169   -2.3580307   0.74788992  1255725 
 2189000   0.89879972   -2.3582143   -2.3582143   -1.6102785  0.027071881   -2.3582143   0.74793579  1255725 
 2190000   0.89920898   -2.3587982   -2.3587982   -1.6105219  0.028887542   -2.3587982   0.74827635  1255725 
 2191000    0.8999467    -2.359116    -2.359116   -1.6102258  0.034327332    -2.359116   0.74889024  1255725 
 2192000   0.90019685   -2.3590438   -2.3590438   -1.6099454  0.026957684   -2.3590438   0.74909841  1255725 
 2193000   0.90036966   -2.3589005   -2.3589005   -1.6096583  0.040761513   -2.3589005   0.74924221  1255725 
 2194000   0.89976034   -2.3584308   -2.3584308   -1.6096957  0.029187909   -2.3584308   0.74873516  1255725 
 2195000   0.89931179   -2.3578678   -2.3578678   -1.6095059  0.021521826   -2.3578678    0.7483619  1255725 
 2196000   0.89854439   -2.3572627   -2.3572627   -1.6095394  0.036075862   -2.3572627   0.74772332  1255725 
 2197000   0.89907058   -2.3577106   -2.3577106   -1.6095494  0.026727148   -2.3577106   0.74816118  1255725 
 2198000   0.90014856   -2.3586149   -2.3586149   -1.6095566  0.019416458   -2.3586149   0.74905822  1255725 
 2199000   0.89928339   -2.3573496   -2.3573496   -1.6090113    0.0300081   -2.3573496   0.74833827  1255725 
 2200000   0.89980408   -2.3578917   -2.3578917   -1.6091202  0.034430605   -2.3578917   0.74877156  1255725 
 2201000   0.90092011   -2.3583547   -2.3583547   -1.6086544  0.036180619   -2.3583547   0.74970027  1255725 
 2202000   0.90010243   -2.3577029   -2.3577029    -1.608683  0.038335845   -2.3577029   0.74901984  1255725 
 2203000   0.90043152   -2.3577499   -2.3577499   -1.6084562  0.035211091   -2.3577499   0.74929369  1255725 
 2204000   0.89994857   -2.3570835   -2.3570835   -1.6081917  0.025455175   -2.3570835    0.7488918  1255725 
 2205000   0.90111818   -2.3580729   -2.3580729   -1.6082078  0.026069425   -2.3580729   0.74986509  1255725 
 2206000   0.89982057   -2.3570416   -2.3570416   -1.6082563  0.031472148   -2.3570416   0.74878528  1255725 
 2207000   0.89943891   -2.3562367   -2.3562367    -1.607769  0.028478459   -2.3562367   0.74846769  1255725 
 2208000   0.89983956   -2.3572285   -2.3572285   -1.6084274  0.031245082   -2.3572285   0.74880109  1255725 
 2209000   0.90082731   -2.3578934   -2.3578934   -1.6082704  0.032596499   -2.3578934   0.74962305  1255725 
 2210000   0.90001952   -2.3572483   -2.3572483   -1.6082974  0.032082639   -2.3572483   0.74895085  1255725 
 2211000   0.90102374   -2.3575327   -2.3575327   -1.6077462  0.029115031   -2.3575327    0.7497865  1255725 
 2212000   0.89987372   -2.3565913   -2.3565913   -1.6077618  0.033529503   -2.3565913   0.74882952  1255725 
 2213000   0.89972225   -2.3566677   -2.3566677   -1.6079642  0.022670443   -2.3566677   0.74870347  1255725 
 2214000   0.90006614   -2.3567373   -2.3567373   -1.6077477  0.029220974   -2.3567373   0.74898964  1255725 
 2215000   0.90032711    -2.356857    -2.356857   -1.6076502  0.028554421    -2.356857   0.74920681  1255725 
 2216000   0.90027156    -2.356314    -2.356314   -1.6071535  0.017352158    -2.356314   0.74916058  1255725 
 2217000   0.90089904   -2.3572325   -2.3572325   -1.6075497  0.027983995   -2.3572325   0.74968274  1255725 
 2218000   0.89936925   -2.3561562   -2.3561562   -1.6077465  0.032745767   -2.3561562   0.74840972  1255725 
 2219000   0.89909439   -2.3556907   -2.3556907   -1.6075097  0.029016096   -2.3556907   0.74818099  1255725 
 2220000   0.89983192   -2.3557143   -2.3557143   -1.6069196   0.03158867   -2.3557143   0.74879474  1255725 
 2221000   0.90138843   -2.3569652   -2.3569652   -1.6068752  0.024814735   -2.3569652   0.75008998  1255725 
 2222000    0.9005915   -2.3563464   -2.3563464   -1.6069196  0.028966852   -2.3563464   0.74942682  1255725 
 2223000   0.90066986    -2.356018    -2.356018   -1.6065259  0.030045926    -2.356018   0.74949202  1255725 
 2224000   0.90148272   -2.3566595   -2.3566595    -1.606491    0.0313049   -2.3566595   0.75016845  1255725 
 2225000   0.90062575   -2.3558176   -2.3558176   -1.6063623  0.040367748   -2.3558176   0.74945531  1255725 
 2226000   0.90034785   -2.3552793   -2.3552793   -1.6060552  0.036056361   -2.3552793   0.74922406  1255725 
 2227000   0.90098096   -2.3559946   -2.3559946   -1.6062437  0.033675736   -2.3559946    0.7497509  1255725 
 2228000   0.90053828   -2.3554898   -2.3554898   -1.6061073  0.028684845   -2.3554898   0.74938253  1255725 
 2229000   0.90101862   -2.3560802   -2.3560802   -1.6062979  0.023355789   -2.3560802   0.74978224  1255725 
 2230000   0.90130238   -2.3564422   -2.3564422   -1.6064238  0.035886912   -2.3564422   0.75001837  1255725 
 2231000   0.90209466   -2.3568467   -2.3568467    -1.606169   0.02816306   -2.3568467   0.75067767  1255725 
 2232000   0.90148863   -2.3561283   -2.3561283    -1.605955  0.029667879   -2.3561283   0.75017336  1255725 
 2233000   0.90194729   -2.3565519   -2.3565519   -1.6059969  0.025363038   -2.3565519   0.75055503  1255725 
 2234000   0.90096669   -2.3557046   -2.3557046   -1.6059655  0.032472629   -2.3557046   0.74973903  1255725 
 2235000   0.90005421   -2.3551725   -2.3551725   -1.6061928  0.028123255   -2.3551725   0.74897971  1255725 
 2236000   0.90018911   -2.3551945   -2.3551945   -1.6061025  0.035539354   -2.3551945   0.74909197  1255725 
 2237000   0.90175946   -2.3562582   -2.3562582   -1.6058595  0.027472725   -2.3562582   0.75039873  1255725 
 2238000   0.89995486    -2.354413    -2.354413    -1.605516  0.030712072    -2.354413   0.74889703  1255725 
 2239000   0.90228894   -2.3566189   -2.3566189   -1.6057796   0.02993976   -2.3566189   0.75083934  1255725 
 2240000   0.90135469   -2.3557327   -2.3557327   -1.6056708  0.030280094   -2.3557327    0.7500619  1255725 
 2241000   0.90029574   -2.3549919   -2.3549919   -1.6058112  0.018625954   -2.3549919    0.7491807  1255725 
 2242000    0.9002599   -2.3543815   -2.3543815   -1.6052307  0.028044243   -2.3543815   0.74915087  1255725 
 2243000   0.90193635   -2.3557054   -2.3557054   -1.6051594  0.031810841   -2.3557054   0.75054593  1255725 
 2244000   0.90034094   -2.3543092   -2.3543092   -1.6050909  0.036859341   -2.3543092   0.74921831  1255725 
 2245000   0.90117661   -2.3547235   -2.3547235   -1.6048098  0.030791283   -2.3547235   0.74991371  1255725 
 2246000   0.89977652   -2.3536999   -2.3536999   -1.6049513  0.024318665   -2.3536999   0.74874863  1255725 
 2247000   0.90150574   -2.3546288   -2.3546288   -1.6044412   0.03489463   -2.3546288    0.7501876  1255725 
 2248000   0.90184004   -2.3544316   -2.3544316   -1.6039658  0.026004833   -2.3544316   0.75046579  1255725 
 2249000    0.9010875   -2.3540203   -2.3540203   -1.6041807  0.039280219   -2.3540203   0.74983956  1255725 
 2250000   0.90134237   -2.3542556   -2.3542556    -1.604204  0.026857789   -2.3542556   0.75005165  1255725 
 2251000    0.9016826   -2.3543325   -2.3543325   -1.6039977  0.030942606   -2.3543325   0.75033477  1255725 
 2252000   0.90091103   -2.3537019   -2.3537019   -1.6040092  0.034390854   -2.3537019   0.74969271  1255725 
 2253000   0.90232386   -2.3546499   -2.3546499   -1.6037815  0.030044767   -2.3546499    0.7508684  1255725 
 2254000   0.90207022   -2.3547202   -2.3547202   -1.6040629  0.027719985   -2.3547202   0.75065733  1255725 
 2255000   0.90205387   -2.3542615   -2.3542615   -1.6036177   0.03217042   -2.3542615   0.75064372  1255725 
 2256000   0.90151721   -2.3534373   -2.3534373   -1.6032402  0.032877441   -2.3534373   0.75019714  1255725 
 2257000   0.90315921   -2.3549206   -2.3549206   -1.6033571  0.038792709   -2.3549206   0.75156353  1255725 
 2258000   0.90199236   -2.3541126   -2.3541126   -1.6035201  0.028699866   -2.3541126   0.75059254  1255725 
 2259000    0.9014082    -2.353514    -2.353514   -1.6034076  0.041138209    -2.353514   0.75010643  1255725 
 2260000   0.90225798   -2.3540856   -2.3540856    -1.603272  0.028151009   -2.3540856   0.75081358  1255725 
 2261000   0.90146417   -2.3534895   -2.3534895   -1.6033365  0.025806521   -2.3534895   0.75015301  1255725 
 2262000    0.9024136   -2.3541703   -2.3541703   -1.6032272  0.024940093   -2.3541703   0.75094308  1255725 
 2263000   0.90078371   -2.3526211   -2.3526211   -1.6030343  0.025779082   -2.3526211   0.74958676  1255725 
 2264000   0.90176381    -2.353259    -2.353259   -1.6028567  0.028206581    -2.353259   0.75040235  1255725 
 2265000   0.90225083   -2.3529755   -2.3529755   -1.6021679  0.027790931   -2.3529755   0.75080763  1255725 
 2266000   0.90160401   -2.3527697   -2.3527697   -1.6025003  0.034116966   -2.3527697   0.75026937  1255725 
 2267000   0.90233974   -2.3530893   -2.3530893   -1.6022077  0.026676613   -2.3530893   0.75088161  1255725 
 2268000   0.90282108    -2.353129    -2.353129   -1.6018468  0.024369186    -2.353129   0.75128216  1255725 
 2269000   0.90194647   -2.3521906   -2.3521906   -1.6016363   0.02305295   -2.3521906   0.75055435  1255725 
 2270000   0.90142683   -2.3517708   -2.3517708   -1.6016489  0.021804829   -2.3517708   0.75012193  1255725 
 2271000   0.90251411   -2.3527393   -2.3527393   -1.6017126  0.025890395   -2.3527393   0.75102671  1255725 
 2272000   0.90144717   -2.3516593   -2.3516593   -1.6015204  0.028713767   -2.3516593   0.75013886  1255725 
 2273000    0.9013898   -2.3515285   -2.3515285   -1.6014373  0.028919039   -2.3515285   0.75009112  1255725 
 2274000   0.90208337   -2.3520941   -2.3520941   -1.6014258  0.023179487   -2.3520941   0.75066827  1255725 
 2275000   0.90262499   -2.3526636   -2.3526636   -1.6015446  0.024769516   -2.3526636   0.75111898  1255725 
 2276000   0.90202525   -2.3520406   -2.3520406   -1.6014207  0.029572331   -2.3520406   0.75061991  1255725 
 2277000   0.90212866   -2.3521439   -2.3521439   -1.6014379    0.0234402   -2.3521439   0.75070596  1255725 
 2278000   0.90136316   -2.3515267   -2.3515267   -1.6014578  0.035210071   -2.3515267   0.75006896  1255725 
 2279000   0.90202865   -2.3513353   -2.3513353   -1.6007126  0.034375279   -2.3513353   0.75062274  1255725 
 2280000   0.90214128   -2.3511607   -2.3511607   -1.6004443  0.035255741   -2.3511607   0.75071646  1255725 
 2281000   0.90340105   -2.3525199   -2.3525199   -1.6007551  0.028127481   -2.3525199   0.75176478  1255725 
 2282000   0.90287499   -2.3520847   -2.3520847   -1.6007577  0.030842532   -2.3520847   0.75132702  1255725 
 2283000   0.90313979   -2.3523338   -2.3523338   -1.6007864  0.027917588   -2.3523338   0.75154737  1255725 
 2284000   0.90202008   -2.3510638   -2.3510638   -1.6004482  0.036750578   -2.3510638   0.75061561  1255725 
 2285000   0.90228822   -2.3510969   -2.3510969   -1.6002581  0.032847163   -2.3510969   0.75083874  1255725 
 2286000    0.9034748   -2.3522333   -2.3522333   -1.6004071  0.034788842   -2.3522333   0.75182615  1255725 
 2287000   0.90210589   -2.3510619   -2.3510619   -1.6003749  0.030422965   -2.3510619   0.75068702  1255725 
 2288000   0.90298892   -2.3516222   -2.3516222   -1.6002004  0.033930062   -2.3516222   0.75142183  1255725 
 2289000   0.90193057   -2.3510356   -2.3510356   -1.6004945  0.030571696   -2.3510356   0.75054112  1255725 
 2290000   0.90158491   -2.3507647   -2.3507647   -1.6005112  0.026953406   -2.3507647   0.75025348  1255725 
 2291000   0.90269788   -2.3512058   -2.3512058   -1.6000262  0.024298715   -2.3512058   0.75117964  1255725 
 2292000   0.90191977   -2.3506399   -2.3506399   -1.6001078  0.031688262   -2.3506399   0.75053214  1255725 
 2293000   0.90214544   -2.3513176   -2.3513176   -1.6005977   0.01899196   -2.3513176   0.75071993  1255725 
 2294000    0.9022135   -2.3508273   -2.3508273   -1.6000508  0.026074325   -2.3508273   0.75077656  1255725 
 2295000   0.90226009   -2.3509945   -2.3509945   -1.6001792  0.034634237   -2.3509945   0.75081534  1255725 
 2296000   0.90307743   -2.3514561   -2.3514561   -1.5999606  0.029512874   -2.3514561   0.75149548  1255725 
 2297000   0.90163077   -2.3504849   -2.3504849   -1.6001932  0.034813311   -2.3504849   0.75029165  1255725 
 2298000   0.90281064   -2.3517022   -2.3517022   -1.6004287  0.030656858   -2.3517022   0.75127347  1255725 
 2299000   0.90368403   -2.3523227   -2.3523227   -1.6003224  0.031000249   -2.3523227   0.75200026  1255725 
 2300000   0.90231568   -2.3511261   -2.3511261   -1.6002645  0.023019431   -2.3511261   0.75086159  1255725 
 2301000   0.90289456   -2.3515033   -2.3515033     -1.60016  0.024520544   -2.3515033   0.75134331  1255725 
 2302000   0.90154265   -2.3506769   -2.3506769   -1.6004585   0.02765393   -2.3506769   0.75021831  1255725 
 2303000   0.90182536   -2.3508216   -2.3508216    -1.600368   0.02395615   -2.3508216   0.75045357  1255725 
 2304000   0.90293401   -2.3513378   -2.3513378   -1.5999617  0.035088165   -2.3513378   0.75137613  1255725 
 2305000   0.90245497    -2.350864    -2.350864   -1.5998865  0.035719811    -2.350864    0.7509775  1255725 
 2306000   0.90283462   -2.3507063   -2.3507063   -1.5994129  0.032638644   -2.3507063   0.75129343  1255725 
 2307000   0.90276096   -2.3510182   -2.3510182   -1.5997861  0.037810568   -2.3510182   0.75123213  1255725 
 2308000   0.90346082   -2.3514407   -2.3514407   -1.5996261  0.033951765   -2.3514407   0.75181452  1255725 
 2309000   0.90449072   -2.3520729   -2.3520729   -1.5994013  0.033102851   -2.3520729   0.75267155  1255725 
 2310000   0.90405563   -2.3513712   -2.3513712   -1.5990618  0.035318748   -2.3513712   0.75230949  1255725 
 2311000   0.90426143   -2.3513262   -2.3513262   -1.5988455  0.033491635   -2.3513262   0.75248075  1255725 
 2312000   0.90282776   -2.3499908   -2.3499908   -1.5987031  0.021746231   -2.3499908   0.75128772  1255725 
 2313000   0.90405501   -2.3510377   -2.3510377   -1.5987288  0.025195069   -2.3510377   0.75230897  1255725 
 2314000   0.90371179   -2.3506033   -2.3506033     -1.59858   0.02676359   -2.3506033   0.75202337  1255725 
 2315000   0.90465277   -2.3515505   -2.3515505   -1.5987441  0.031715923   -2.3515505    0.7528064  1255725 
 2316000   0.90293443   -2.3502732   -2.3502732   -1.5988967  0.031677383   -2.3502732   0.75137648  1255725 
 2317000   0.90360123   -2.3509278   -2.3509278   -1.5989964  0.035102621   -2.3509278   0.75193136  1255725 
 2318000   0.90423093   -2.3506647   -2.3506647   -1.5982094  0.023190906   -2.3506647   0.75245536  1255725 
 2319000   0.90466899   -2.3507842   -2.3507842   -1.5979643  0.023714632   -2.3507842    0.7528199  1255725 
 2320000   0.90335385   -2.3487977   -2.3487977   -1.5970722  0.034944444   -2.3487977    0.7517255  1255725 
 2321000   0.90362663   -2.3492904   -2.3492904   -1.5973379  0.020904813   -2.3492904   0.75195249  1255725 
 2322000    0.9034446   -2.3492174   -2.3492174   -1.5974164  0.026254031   -2.3492174   0.75180102  1255725 
 2323000    0.9029217   -2.3489817   -2.3489817   -1.5976158  0.030214886   -2.3489817   0.75136589  1255725 
 2324000   0.90343673   -2.3493245   -2.3493245     -1.59753  0.033084536   -2.3493245   0.75179447  1255725 
 2325000   0.90454863   -2.3495994   -2.3495994   -1.5968797  0.024845173   -2.3495994   0.75271974  1255725 
 2326000   0.90301258   -2.3483621   -2.3483621   -1.5969206  0.039702916   -2.3483621   0.75144152  1255725 
 2327000   0.90354684   -2.3488313   -2.3488313   -1.5969452  0.025152929   -2.3488313    0.7518861  1255725 
 2328000   0.90299876   -2.3479654   -2.3479654   -1.5965353  0.027277691   -2.3479654   0.75143002  1255725 
 2329000   0.90283695   -2.3476641   -2.3476641   -1.5963687  0.027828186   -2.3476641   0.75129537  1255725 
 2330000   0.90366574   -2.3479346   -2.3479346   -1.5959496  0.028976269   -2.3479346   0.75198505  1255725 
 2331000    0.9045449   -2.3490041   -2.3490041   -1.5962874  0.020661894   -2.3490041   0.75271664  1255725 
 2332000    0.9035317   -2.3480046   -2.3480046   -1.5961311  0.035219721   -2.3480046    0.7518735  1255725 
 2333000   0.90327978   -2.3477556   -2.3477556   -1.5960917  0.032355187   -2.3477556   0.75166386  1255725 
 2334000   0.90350413   -2.3476116   -2.3476116   -1.5957611  0.034396319   -2.3476116   0.75185056  1255725 
 2335000   0.90490565   -2.3486433   -2.3486433   -1.5956265  0.018308509   -2.3486433   0.75301683  1255725 
 2336000   0.90471432   -2.3486745   -2.3486745   -1.5958168  0.025509309   -2.3486745   0.75285762  1255725 
 2337000   0.90244687   -2.3466034   -2.3466034   -1.5956326  0.037505485   -2.3466034   0.75097076  1255725 
 2338000   0.90389438   -2.3472872   -2.3472872   -1.5951119  0.036379351   -2.3472872    0.7521753  1255725 
 2339000   0.90347668   -2.3473445   -2.3473445   -1.5955168  0.029746816   -2.3473445   0.75182772  1255725 
 2340000   0.90348643   -2.3475148   -2.3475148   -1.5956789  0.042211784   -2.3475148   0.75183583  1255725 
 2341000   0.90393608   -2.3479445   -2.3479445   -1.5957345   0.02856331   -2.3479445   0.75221001  1255725 
 2342000   0.90391323   -2.3475508   -2.3475508   -1.5953598  0.021858773   -2.3475508   0.75219099  1255725 
 2343000   0.90373778   -2.3471319   -2.3471319    -1.595087  0.030537543   -2.3471319     0.752045  1255725 
 2344000   0.90428851   -2.3474158   -2.3474158   -1.5949125  0.030932885   -2.3474158   0.75250328  1255725 
 2345000   0.90456873    -2.347537    -2.347537   -1.5948006  0.029956158    -2.347537   0.75273647  1255725 
 2346000     0.904523   -2.3472738   -2.3472738   -1.5945754  0.043238568   -2.3472738   0.75269841  1255725 
 2347000   0.90340391    -2.346903    -2.346903   -1.5951359  0.025029535    -2.346903   0.75176716  1255725 
 2348000   0.90497407   -2.3481497   -2.3481497    -1.595076  0.025107994   -2.3481497   0.75307377  1255725 
 2349000   0.90344077   -2.3468522   -2.3468522   -1.5950544  0.034336668   -2.3468522   0.75179783  1255725 
 2350000    0.9032943   -2.3461297   -2.3461297   -1.5944537  0.024530558   -2.3461297   0.75167595  1255725 
 2351000   0.90417594   -2.3471311   -2.3471311   -1.5947215  0.027804428   -2.3471311   0.75240961  1255725 
 2352000   0.90431242   -2.3471767   -2.3471767   -1.5946535  0.025331769   -2.3471767   0.75252318  1255725 
 2353000   0.90327548   -2.3464215   -2.3464215   -1.5947612  0.021082303   -2.3464215   0.75166029  1255725 
 2354000   0.90491875   -2.3471298   -2.3471298    -1.594102  0.027496657   -2.3471298   0.75302773  1255725 
 2355000   0.90445576   -2.3465797   -2.3465797   -1.5939372  0.031781215   -2.3465797   0.75264246  1255725 
 2356000   0.90462335   -2.3467847   -2.3467847   -1.5940028  0.030913511   -2.3467847   0.75278192  1255725 
 2357000   0.90521317   -2.3469822   -2.3469822   -1.5937095  0.033726468   -2.3469822   0.75327274  1255725 
 2358000   0.90428071    -2.345965    -2.345965   -1.5934682  0.022577772    -2.345965   0.75249679  1255725 
 2359000   0.90612948   -2.3477344   -2.3477344   -1.5936992  0.025490424   -2.3477344   0.75403524  1255725 
 2360000   0.90498669   -2.3464124   -2.3464124   -1.5933282  0.031664113   -2.3464124   0.75308427  1255725 
 2361000    0.9053526   -2.3462922   -2.3462922   -1.5929034  0.037494083   -2.3462922   0.75338876  1255725 
 2362000     0.904083   -2.3455786   -2.3455786   -1.5932463  0.026017238   -2.3455786   0.75233227  1255725 
 2363000   0.90381329   -2.3452686   -2.3452686   -1.5931608  0.026685458   -2.3452686   0.75210782  1255725 
 2364000   0.90422435   -2.3452272   -2.3452272   -1.5927773  0.030966841   -2.3452272   0.75244989  1255725 
 2365000    0.9047646   -2.3455209   -2.3455209   -1.5926214  0.025898183   -2.3455209   0.75289946  1255725 
 2366000   0.90351817    -2.344849    -2.344849   -1.5929868   0.02565514    -2.344849   0.75186224  1255725 
 2367000   0.90479387   -2.3455281   -2.3455281   -1.5926043  0.026186382   -2.3455281   0.75292382  1255725 
 2368000   0.90440823   -2.3450846   -2.3450846   -1.5924817  0.035706487   -2.3450846    0.7526029  1255725 
 2369000   0.90346812   -2.3440806   -2.3440806     -1.59226  0.038590093   -2.3440806    0.7518206  1255725 
 2370000   0.90498494   -2.3453361   -2.3453361   -1.5922533  0.020847477   -2.3453361   0.75308281  1255725 
 2371000   0.90441591   -2.3450771   -2.3450771   -1.5924678  0.031176692   -2.3450771    0.7526093  1255725 
 2372000   0.90372071   -2.3443019   -2.3443019   -1.5922712    0.0247387   -2.3443019   0.75203079  1255725 
 2373000   0.90402961   -2.3446759   -2.3446759   -1.5923881  0.031323258   -2.3446759   0.75228783  1255725 
 2374000   0.90460498   -2.3450048   -2.3450048   -1.5922382  0.024933399   -2.3450048   0.75276663  1255725 
 2375000   0.90414017   -2.3448108   -2.3448108    -1.592431  0.022768166   -2.3448108   0.75237984  1255725 
 2376000   0.90433285    -2.344677    -2.344677   -1.5921368  0.019957153    -2.344677   0.75254017  1255725 
 2377000    0.9041203    -2.344506    -2.344506   -1.5921427  0.029371084    -2.344506    0.7523633  1255725 
 2378000    0.9041481   -2.3445777   -2.3445777   -1.5921913  0.038698679   -2.3445777   0.75238644  1255725 
 2379000   0.90463607   -2.3445619   -2.3445619   -1.5917694  0.025752017   -2.3445619    0.7527925  1255725 
 2380000    0.9054515   -2.3451329   -2.3451329   -1.5916618  0.030386282   -2.3451329   0.75347106  1255725 
 2381000   0.90480298   -2.3446871   -2.3446871   -1.5917557  0.036872069   -2.3446871    0.7529314  1255725 
 2382000   0.90535592   -2.3448972   -2.3448972   -1.5915057  0.025601816   -2.3448972   0.75339153  1255725 
 2383000    0.9042727   -2.3441484   -2.3441484   -1.5916583  0.034934414   -2.3441484   0.75249013  1255725 
 2384000   0.90419434   -2.3436994   -2.3436994   -1.5912744  0.033892186   -2.3436994   0.75242492  1255725 
 2385000    0.9044715   -2.3438998   -2.3438998   -1.5912442  0.030527411   -2.3438998   0.75265555  1255725 
 2386000   0.90478212   -2.3439952   -2.3439952   -1.5910812   0.04289016   -2.3439952   0.75291404  1255725 
 2387000   0.90410406   -2.3434496   -2.3434496   -1.5910998  0.033964392   -2.3434496   0.75234979  1255725 
 2388000   0.90382108   -2.3429906   -2.3429906   -1.5908763  0.029995843   -2.3429906   0.75211431  1255725 
 2389000   0.90514695   -2.3439077   -2.3439077   -1.5906901  0.032002641   -2.3439077   0.75321763  1255725 
 2390000   0.90575362   -2.3438204   -2.3438204    -1.590098  0.033513686   -2.3438204   0.75372248  1255725 
 2391000   0.90455861   -2.3428654   -2.3428654   -1.5901374  0.043355639   -2.3428654   0.75272804  1255725 
 2392000   0.90527335   -2.3431549   -2.3431549   -1.5898321  0.024305898   -2.3431549   0.75332281  1255725 
 2393000   0.90558089    -2.343986    -2.343986   -1.5904073  0.026415742    -2.343986   0.75357874  1255725 
 2394000   0.90467102   -2.3434716   -2.3434716   -1.5906501   0.03163266   -2.3434716   0.75282158  1255725 
 2395000   0.90548761   -2.3437956   -2.3437956   -1.5902945  0.027355529   -2.3437956   0.75350111  1255725 
 2396000   0.90566101   -2.3437983   -2.3437983   -1.5901529  0.032465126   -2.3437983    0.7536454  1255725 
 2397000   0.90516253   -2.3431111   -2.3431111   -1.5898805  0.039990256   -2.3431111    0.7532306  1255725 
 2398000   0.90557669   -2.3434747   -2.3434747   -1.5898995    0.0298487   -2.3434747   0.75357524  1255725 
 2399000   0.90440519   -2.3422837   -2.3422837   -1.5896833  0.020164169   -2.3422837   0.75260037  1255725 
 2400000   0.90660835   -2.3441608   -2.3441608   -1.5897271  0.038062263   -2.3441608   0.75443374  1255725 
 2401000    0.9066648   -2.3435209   -2.3435209   -1.5890401  0.033958965   -2.3435209   0.75448071  1255725 
 2402000   0.90683551   -2.3433735   -2.3433735   -1.5887507   0.03512217   -2.3433735   0.75462277  1255725 
 2403000   0.90626926   -2.3430939   -2.3430939   -1.5889424  0.031150055   -2.3430939   0.75415156  1255725 
 2404000   0.90546547   -2.3421939   -2.3421939   -1.5887112  0.025179239   -2.3421939   0.75348269  1255725 
 2405000   0.90561196   -2.3427034   -2.3427034   -1.5890988  0.027698616   -2.3427034   0.75360459  1255725 
 2406000   0.90569218   -2.3423797   -2.3423797   -1.5887083  0.026696142   -2.3423797   0.75367134  1255725 
 2407000   0.90511562   -2.3419724   -2.3419724   -1.5887809  0.027389891   -2.3419724   0.75319156  1255725 
 2408000   0.90552846   -2.3424366   -2.3424366   -1.5889015  0.034362786   -2.3424366   0.75353511  1255725 
 2409000   0.90497683   -2.3419854   -2.3419854   -1.5889094  0.027445814   -2.3419854   0.75307606  1255725 
 2410000    0.9048327   -2.3416557   -2.3416557   -1.5886996  0.021512819   -2.3416557   0.75295613  1255725 
 2411000   0.90676583   -2.3431315   -2.3431315   -1.5885668  0.023403209   -2.3431315   0.75456478  1255725 
 2412000   0.90568201   -2.3419237   -2.3419237   -1.5882609  0.031363691   -2.3419237   0.75366288  1255725 
 2413000   0.90755439   -2.3431785   -2.3431785   -1.5879576  0.027938397   -2.3431785   0.75522098  1255725 
 2414000   0.90624163   -2.3420058   -2.3420058   -1.5878773  0.025410766   -2.3420058   0.75412857  1255725 
 2415000   0.90679704   -2.3424451   -2.3424451   -1.5878543  0.039975756   -2.3424451   0.75459075  1255725 
 2416000   0.90680875   -2.3422982   -2.3422982   -1.5876977  0.033517638   -2.3422982    0.7546005  1255725 
 2417000   0.90616123   -2.3420395   -2.3420395   -1.5879779  0.033384474   -2.3420395   0.75406166  1255725 
 2418000   0.90693417   -2.3427159   -2.3427159    -1.588011   0.02930634   -2.3427159   0.75470487  1255725 
 2419000   0.90631334   -2.3417905   -2.3417905   -1.5876022  0.034210128   -2.3417905   0.75418825  1255725 
 2420000   0.90572686   -2.3412952   -2.3412952    -1.587595  0.033689164   -2.3412952    0.7537002  1255725 
 2421000   0.90561711   -2.3411968   -2.3411968   -1.5875879  0.035087789   -2.3411968   0.75360888  1255725 
 2422000   0.90619807   -2.3420471   -2.3420471   -1.5879547  0.023529198   -2.3420471   0.75409232  1255725 
 2423000   0.90713904   -2.3421885   -2.3421885   -1.5873132  0.029147278   -2.3421885   0.75487535  1255725 
 2424000   0.90740179   -2.3419138   -2.3419138   -1.5868198  0.025071733   -2.3419138     0.755094  1255725 
 2425000   0.90762494   -2.3421511   -2.3421511   -1.5868714  0.022612377   -2.3421511   0.75527969  1255725 
 2426000   0.90674798    -2.341435    -2.341435   -1.5868851  0.027886222    -2.341435   0.75454993  1255725 
 2427000   0.90729636   -2.3418339   -2.3418339   -1.5868276  0.024179652   -2.3418339   0.75500626  1255725 
 2428000   0.90705165   -2.3419741   -2.3419741   -1.5871715  0.029125187   -2.3419741   0.75480263  1255725 
 2429000   0.90699559   -2.3417429   -2.3417429   -1.5869869  0.026694226   -2.3417429   0.75475598  1255725 
 2430000    0.9078537   -2.3425114   -2.3425114   -1.5870413  0.019888085   -2.3425114   0.75547005  1255725 
 2431000   0.90736723   -2.3419328   -2.3419328   -1.5868676  0.032611311   -2.3419328   0.75506524  1255725 
 2432000   0.90689211    -2.341692    -2.341692   -1.5870221  0.025702757    -2.341692   0.75466987  1255725 
 2433000   0.90663123   -2.3411902   -2.3411902   -1.5867374  0.030397717   -2.3411902   0.75445277  1255725 
 2434000   0.90703287   -2.3415201   -2.3415201   -1.5867331  0.028366184   -2.3415201     0.754787  1255725 
 2435000   0.90760973   -2.3418822   -2.3418822   -1.5866151   0.02395217   -2.3418822   0.75526703  1255725 
 2436000   0.90719116    -2.341685    -2.341685   -1.5867662  0.026393155    -2.341685   0.75491872  1255725 
 2437000   0.90678599    -2.340934    -2.340934   -1.5863525  0.027513584    -2.340934   0.75458155  1255725 
 2438000   0.90736852   -2.3410242   -2.3410242   -1.5859579  0.025078235   -2.3410242   0.75506631  1255725 
 2439000   0.90734802   -2.3409303   -2.3409303    -1.585881   0.02607947   -2.3409303   0.75504925  1255725 
 2440000    0.9075495   -2.3410428   -2.3410428   -1.5858259  0.027510548   -2.3410428   0.75521691  1255725 
 2441000   0.90748924   -2.3406886   -2.3406886   -1.5855218  0.027979234   -2.3406886   0.75516677  1255725 
 2442000   0.90767499   -2.3406513   -2.3406513     -1.58533  0.030535692   -2.3406513   0.75532134  1255725 
 2443000   0.90763534    -2.340533    -2.340533   -1.5852447  0.035788165    -2.340533   0.75528835  1255725 
 2444000   0.90686983    -2.339901    -2.339901   -1.5852497  0.032639306    -2.339901   0.75465133  1255725 
 2445000   0.90766238   -2.3399227   -2.3399227   -1.5846118  0.029567088   -2.3399227   0.75531085  1255725 
 2446000   0.90852065   -2.3407426   -2.3407426   -1.5847175    0.0262057   -2.3407426   0.75602505  1255725 
 2447000   0.90735965   -2.3398046   -2.3398046   -1.5847457  0.034031624   -2.3398046   0.75505893  1255725 
 2448000   0.90810479   -2.3401405   -2.3401405   -1.5844615  0.031640469   -2.3401405   0.75567899  1255725 
 2449000   0.90811587   -2.3399593   -2.3399593   -1.5842711  0.034124468   -2.3399593   0.75568822  1255725 
 2450000   0.90909144   -2.3407856   -2.3407856   -1.5842855  0.032247122   -2.3407856   0.75650003  1255725 
 2451000   0.90794433    -2.339781    -2.339781   -1.5842355  0.031666027    -2.339781   0.75554547  1255725 
 2452000   0.90738833   -2.3389079   -2.3389079   -1.5838251  0.033828084   -2.3389079   0.75508279  1255725 
 2453000   0.90846369   -2.3396562   -2.3396562   -1.5836785  0.024946023   -2.3396562   0.75597765  1255725 
 2454000   0.90727794   -2.3385742   -2.3385742   -1.5835833  0.030845436   -2.3385742   0.75499093  1255725 
 2455000   0.90820564   -2.3390934   -2.3390934   -1.5833305  0.028129696   -2.3390934   0.75576292  1255725 
 2456000   0.90833967   -2.3392185   -2.3392185   -1.5833441   0.02681722   -2.3392185   0.75587445  1255725 
 2457000   0.90760989   -2.3387277   -2.3387277   -1.5834605  0.031478873   -2.3387277   0.75526717  1255725 
 2458000   0.90833136   -2.3387126   -2.3387126   -1.5828451  0.024012197   -2.3387126   0.75586754  1255725 
 2459000   0.90756582   -2.3380634   -2.3380634   -1.5828329  0.034874061   -2.3380634   0.75523049  1255725 
 2460000   0.90720734   -2.3379324   -2.3379324   -1.5830002  0.033873428   -2.3379324   0.75493219  1255725 
 2461000   0.90827125   -2.3386663   -2.3386663   -1.5828487  0.033183088   -2.3386663   0.75581752  1255725 
 2462000   0.90783485   -2.3384051   -2.3384051   -1.5829508  0.033715017   -2.3384051   0.75545437  1255725 
 2463000   0.90871758   -2.3386077   -2.3386077   -1.5824188  0.031114041   -2.3386077   0.75618893  1255725 
 2464000   0.90837069    -2.338641    -2.338641   -1.5827407   0.02464041    -2.338641   0.75590026  1255725 
 2465000   0.90713177   -2.3374005   -2.3374005   -1.5825312  0.028573644   -2.3374005    0.7548693  1255725 
 2466000   0.90820417   -2.3383494   -2.3383494   -1.5825877  0.030190144   -2.3383494    0.7557617  1255725 
 2467000   0.90804379   -2.3383723   -2.3383723    -1.582744  0.025776239   -2.3383723   0.75562824  1255725 
 2468000   0.90777323   -2.3381094   -2.3381094   -1.5827063  0.025320247   -2.3381094   0.75540309  1255725 
 2469000   0.90790858   -2.3380435   -2.3380435   -1.5825278  0.031395552   -2.3380435   0.75551572  1255725 
 2470000   0.90775391   -2.3378539   -2.3378539   -1.5824669   0.02606809   -2.3378539   0.75538701  1255725 
 2471000    0.9084334    -2.338108    -2.338108   -1.5821556  0.022407554    -2.338108   0.75595245  1255725 
 2472000   0.90772827   -2.3374223   -2.3374223   -1.5820566  0.029871637   -2.3374223   0.75536567  1255725 
 2473000   0.90698939   -2.3371574   -2.3371574   -1.5824066  0.032172528   -2.3371574   0.75475082  1255725 
 2474000   0.90778853    -2.337545    -2.337545   -1.5821292  0.024381128    -2.337545   0.75541582  1255725 
 2475000   0.90729207   -2.3375029   -2.3375029   -1.5825002  0.031444101   -2.3375029   0.75500269  1255725 
 2476000   0.90833802   -2.3383108   -2.3383108   -1.5824377  0.027104357   -2.3383108   0.75587308  1255725 
 2477000   0.90860539   -2.3380997   -2.3380997   -1.5820041  0.034170187   -2.3380997   0.75609557  1255725 
 2478000   0.90881276   -2.3379043   -2.3379043   -1.5816362  0.030263459   -2.3379043   0.75626813  1255725 
 2479000   0.90680851   -2.3366386   -2.3366386   -1.5820383  0.024807469   -2.3366386    0.7546003  1255725 
 2480000   0.90816286   -2.3372956   -2.3372956   -1.5815683  0.032063161   -2.3372956   0.75572732  1255725 
 2481000    0.9085774   -2.3376281   -2.3376281   -1.5815558  0.033464811   -2.3376281   0.75607228  1255725 
 2482000   0.90836359   -2.3372771   -2.3372771   -1.5813828  0.031591498   -2.3372771   0.75589436  1255725 
 2483000   0.90812701   -2.3366396   -2.3366396   -1.5809421  0.040586329   -2.3366396   0.75569749  1255725 
 2484000   0.90859884   -2.3370635   -2.3370635   -1.5809734  0.039659861   -2.3370635   0.75609012  1255725 
 2485000   0.90892501   -2.3371676   -2.3371676   -1.5808061  0.033261945   -2.3371676   0.75636154  1255725 
 2486000   0.90842485   -2.3369965   -2.3369965   -1.5810511  0.025654676   -2.3369965   0.75594533  1255725 
 2487000   0.90779421   -2.3366155   -2.3366155   -1.5811949  0.026503957   -2.3366155   0.75542054  1255725 
 2488000   0.90903961   -2.3371417   -2.3371417   -1.5806848  0.020933003   -2.3371417   0.75645691  1255725 
 2489000   0.90891054    -2.336712    -2.336712   -1.5803625  0.022985284    -2.336712    0.7563495  1255725 
 2490000   0.90733925   -2.3350751   -2.3350751   -1.5800331  0.033171529   -2.3350751   0.75504196  1255725 
 2491000   0.90793004   -2.3356077   -2.3356077   -1.5800741  0.026817319   -2.3356077   0.75553358  1255725 
 2492000   0.90829102   -2.3359744   -2.3359744   -1.5801404  0.030926307   -2.3359744   0.75583396  1255725 
 2493000   0.90812152    -2.335658    -2.335658   -1.5799651  0.033418317    -2.335658   0.75569292  1255725 
 2494000   0.90878645   -2.3361725   -2.3361725   -1.5799263  0.029214611   -2.3361725   0.75624624  1255725 
 2495000   0.90948092   -2.3362976   -2.3362976   -1.5794735  0.032669938   -2.3362976   0.75682414  1255725 
 2496000   0.90860923   -2.3354201   -2.3354201   -1.5793213  0.033185163   -2.3354201   0.75609876  1255725 
 2497000   0.90860081   -2.3351923   -2.3351923   -1.5791006  0.031295004   -2.3351923   0.75609176  1255725 
 2498000   0.90870557   -2.3351257   -2.3351257   -1.5789467  0.023565821   -2.3351257   0.75617893  1255725 
 2499000   0.90922116    -2.335707    -2.335707    -1.579099  0.023214516    -2.335707   0.75660798  1255725 
 2500000   0.90790775   -2.3343741   -2.3343741   -1.5788591  0.026014133   -2.3343741   0.75551503  1255725 
 2501000   0.90936948   -2.3356016   -2.3356016   -1.5788702  0.038007209   -2.3356016   0.75673141  1255725 
 2502000   0.90911566   -2.3353279   -2.3353279   -1.5788077  0.023994819   -2.3353279   0.75652019  1255725 
 2503000   0.90945883   -2.3351225   -2.3351225   -1.5783167   0.03111576   -2.3351225   0.75680576  1255725 
 2504000   0.90862013    -2.334508    -2.334508   -1.5784001  0.039516651    -2.334508   0.75610783  1255725 
 2505000   0.90897116   -2.3343551   -2.3343551   -1.5779552  0.043407746   -2.3343551   0.75639995  1255725 
 2506000   0.90949182   -2.3349961   -2.3349961   -1.5781629  0.025993788   -2.3349961   0.75683321  1255725 
 2507000   0.90980912   -2.3355425   -2.3355425   -1.5784452   0.02754928   -2.3355425   0.75709726  1255725 
 2508000   0.90774609   -2.3334301   -2.3334301   -1.5780496  0.027594148   -2.3334301    0.7553805  1255725 
 2509000   0.90860487   -2.3342758   -2.3342758   -1.5781807  0.025388644   -2.3342758   0.75609514  1255725 
 2510000   0.90951419   -2.3348191   -2.3348191   -1.5779673  0.028386681   -2.3348191   0.75685183  1255725 
 2511000   0.90856276   -2.3335595   -2.3335595   -1.5774994   0.03351715   -2.3335595    0.7560601  1255725 
 2512000    0.9077767   -2.3328425   -2.3328425   -1.5774365  0.028431967   -2.3328425   0.75540598  1255725 
 2513000   0.90847797   -2.3337294   -2.3337294   -1.5777399  0.036082549   -2.3337294   0.75598954  1255725 
 2514000   0.90994092    -2.334749    -2.334749   -1.5775421  0.032435805    -2.334749   0.75720694  1255725 
 2515000   0.90980155    -2.333994    -2.333994   -1.5769031  0.030797288    -2.333994   0.75709095  1255725 
 2516000   0.90952323   -2.3337897   -2.3337897   -1.5769304  0.033669699   -2.3337897   0.75685935  1255725 
 2517000   0.90963303    -2.333625    -2.333625   -1.5766742  0.036316153    -2.333625   0.75695072  1255725 
 2518000    0.9100259   -2.3340778   -2.3340778   -1.5768002   0.01999447   -2.3340778   0.75727765  1255725 
 2519000   0.90927708   -2.3337003   -2.3337003   -1.5770458  0.030065896   -2.3337003   0.75665451  1255725 
 2520000   0.90963135   -2.3339704   -2.3339704    -1.577021  0.028044027   -2.3339704   0.75694932  1255725 
 2521000   0.90864155   -2.3330203   -2.3330203   -1.5768947  0.029452132   -2.3330203   0.75612566  1255725 
 2522000   0.90856948   -2.3328313   -2.3328313   -1.5767656  0.030910504   -2.3328313   0.75606569  1255725 
 2523000   0.90834296   -2.3324757   -2.3324757   -1.5765986  0.029264795   -2.3324757   0.75587719  1255725 
 2524000   0.90877586   -2.3327293   -2.3327293   -1.5764918  0.029207664   -2.3327293   0.75623743  1255725 
 2525000   0.90977496   -2.3332917   -2.3332917   -1.5762228  0.022008199   -2.3332917   0.75706883  1255725 
 2526000   0.90871633   -2.3323048   -2.3323048   -1.5761169  0.023400601   -2.3323048   0.75618789  1255725 
 2527000   0.90984715   -2.3331322   -2.3331322   -1.5760033  0.027060893   -2.3331322    0.7571289  1255725 
 2528000   0.90960994   -2.3328664   -2.3328664   -1.5759349  0.028172415   -2.3328664   0.75693151  1255725 
 2529000   0.90867557     -2.33206     -2.33206   -1.5759061  0.023254566     -2.33206   0.75615397  1255725 
 2530000   0.90916564   -2.3326747   -2.3326747    -1.576113  0.032894899   -2.3326747   0.75656178  1255725 
 2531000   0.91002812   -2.3332262   -2.3332262   -1.5759467   0.02719901   -2.3332262    0.7572795  1255725 
 2532000   0.91043027    -2.333045    -2.333045   -1.5754308  0.023867285    -2.333045   0.75761415  1255725 
 2533000   0.90930226   -2.3321355   -2.3321355   -1.5754601  0.026228882   -2.3321355   0.75667547  1255725 
 2534000   0.90880476   -2.3316778   -2.3316778   -1.5754163  0.022309618   -2.3316778   0.75626147  1255725 
 2535000    0.9083743   -2.3311802   -2.3311802   -1.5752769  0.030480687   -2.3311802   0.75590327  1255725 
 2536000   0.90934028   -2.3318837   -2.3318837   -1.5751766  0.018759175   -2.3318837   0.75670711  1255725 
 2537000   0.90950186   -2.3322215   -2.3322215   -1.5753799  0.022753682   -2.3322215   0.75684157  1255725 
 2538000    0.9106537   -2.3329678   -2.3329678   -1.5751677  0.034620095   -2.3329678   0.75780007  1255725 
 2539000   0.90980902   -2.3319976   -2.3319976   -1.5749005  0.036789433   -2.3319976   0.75709717  1255725 
 2540000   0.91002391   -2.3322164   -2.3322164   -1.5749404  0.037551649   -2.3322164   0.75727599  1255725 
 2541000   0.91111785   -2.3324765   -2.3324765   -1.5742902  0.032298081   -2.3324765   0.75818631  1255725 
 2542000   0.90985998   -2.3318098   -2.3318098   -1.5746702   0.03312271   -2.3318098   0.75713958  1255725 
 2543000   0.90901065   -2.3307783   -2.3307783   -1.5743455   0.03030695   -2.3307783    0.7564328  1255725 
 2544000   0.91105189   -2.3322526   -2.3322526   -1.5741212  0.023933966   -2.3322526   0.75813143  1255725 
 2545000   0.91075022   -2.3319539   -2.3319539   -1.5740736  0.033529854   -2.3319539   0.75788039  1255725 
 2546000   0.90972918   -2.3312103   -2.3312103   -1.5741795  0.032007969   -2.3312103   0.75703073  1255725 
 2547000    0.9097034   -2.3308452   -2.3308452    -1.573836  0.033606263   -2.3308452   0.75700928  1255725 
 2548000    0.9093134   -2.3306065   -2.3306065   -1.5739218  0.024115709   -2.3306065   0.75668474  1255725 
 2549000   0.90888217   -2.3304199   -2.3304199    -1.574094  0.032847115   -2.3304199   0.75632589  1255725 
 2550000   0.90929859    -2.330373    -2.330373   -1.5737005   0.02525378    -2.330373   0.75667241  1255725 
 2551000   0.90946707   -2.3302919   -2.3302919   -1.5734793  0.028033821   -2.3302919   0.75681262  1255725 
 2552000     0.910929   -2.3312017   -2.3312017   -1.5731725  0.028875593   -2.3312017   0.75802916  1255725 
 2553000   0.91015234   -2.3305163   -2.3305163   -1.5731335  0.034377385   -2.3305163   0.75738286  1255725 
 2554000   0.90942495    -2.329975    -2.329975   -1.5731974  0.030378074    -2.329975   0.75677757  1255725 
 2555000   0.90950714   -2.3302417   -2.3302417   -1.5733957  0.026289612   -2.3302417   0.75684596  1255725 
 2556000   0.90968624   -2.3301701   -2.3301701   -1.5731751  0.029838303   -2.3301701     0.756995  1255725 
 2557000    0.9101725   -2.3305659   -2.3305659   -1.5731663  0.026559771   -2.3305659   0.75739964  1255725 
 2558000   0.90924001   -2.3298057   -2.3298057   -1.5731821  0.021134296   -2.3298057   0.75662367  1255725 
 2559000   0.91064625   -2.3308825   -2.3308825   -1.5730886   0.03408663   -2.3308825   0.75779387  1255725 
 2560000   0.91038572    -2.330489    -2.330489   -1.5729119  0.026408808    -2.330489   0.75757707  1255725 
 2561000   0.91058533   -2.3302323   -2.3302323   -1.5724891  0.024378038   -2.3302323   0.75774318  1255725 
 2562000   0.91034819   -2.3298009   -2.3298009   -1.5722551  0.033916877   -2.3298009   0.75754584  1255725 
 2563000   0.90996125    -2.330004    -2.330004   -1.5727801  0.034328974    -2.330004   0.75722385  1255725 
 2564000   0.90996943   -2.3298799   -2.3298799   -1.5726493  0.033060971   -2.3298799   0.75723066  1255725 
 2565000   0.90985861   -2.3299176   -2.3299176   -1.5727792  0.033885819   -2.3299176   0.75713844  1255725 
 2566000    0.9103969   -2.3300693   -2.3300693   -1.5724829  0.032179321   -2.3300693   0.75758638  1255725 
 2567000   0.91078488   -2.3301455   -2.3301455   -1.5722362  0.024636612   -2.3301455   0.75790924  1255725 
 2568000   0.91122438   -2.3304672   -2.3304672   -1.5721922  0.034499958   -2.3304672   0.75827497  1255725 
 2569000   0.91128892   -2.3305004   -2.3305004   -1.5721717   0.03885131   -2.3305004   0.75832867  1255725 
 2570000   0.91088853   -2.3299355   -2.3299355     -1.57194  0.026691754   -2.3299355   0.75799548  1255725 
 2571000   0.91118833   -2.3297232   -2.3297232   -1.5714782  0.030816797   -2.3297232   0.75824496  1255725 
 2572000    0.9112254   -2.3296063   -2.3296063   -1.5713305   0.03848316   -2.3296063   0.75827581  1255725 
 2573000   0.91089342   -2.3293315   -2.3293315   -1.5713319  0.029363591   -2.3293315   0.75799955  1255725 
 2574000   0.91154207   -2.3302249   -2.3302249   -1.5716856  0.030941076   -2.3302249   0.75853933  1255725 
 2575000   0.91158692   -2.3297552   -2.3297552   -1.5711785   0.03235239   -2.3297552   0.75857665  1255725 
 2576000   0.91146189   -2.3294253   -2.3294253   -1.5709527  0.034504302   -2.3294253    0.7584726  1255725 
 2577000   0.91117005   -2.3294319   -2.3294319   -1.5712022  0.028900341   -2.3294319   0.75822975  1255725 
 2578000   0.91171409   -2.3297255   -2.3297255    -1.571043  0.017852327   -2.3297255   0.75868247  1255725 
 2579000   0.91139539   -2.3294748   -2.3294748   -1.5710575  0.021568477   -2.3294748   0.75841727  1255725 
 2580000   0.91056017   -2.3283151   -2.3283151   -1.5705928  0.028123973   -2.3283151   0.75772224  1255725 
 2581000   0.90989188   -2.3277171   -2.3277171    -1.570551  0.024961135   -2.3277171   0.75716613  1255725 
 2582000   0.91134521   -2.3289093   -2.3289093   -1.5705338  0.031438672   -2.3289093   0.75837551  1255725 
 2583000   0.91010943   -2.3277047   -2.3277047   -1.5703575  0.032976984   -2.3277047   0.75734716  1255725 
 2584000   0.91133262   -2.3287301   -2.3287301    -1.570365  0.025467559   -2.3287301   0.75836503  1255725 
 2585000   0.90965053   -2.3274048   -2.3274048   -1.5704395   0.02969121   -2.3274048   0.75696528  1255725 
 2586000   0.91095791   -2.3279308   -2.3279308   -1.5698776  0.032164237   -2.3279308   0.75805322  1255725 
 2587000   0.91100393     -2.32783     -2.32783   -1.5697385  0.032119023     -2.32783   0.75809151  1255725 
 2588000   0.91036816   -2.3272565   -2.3272565    -1.569694  0.025972629   -2.3272565   0.75756246  1255725 
 2589000   0.91029481   -2.3270109   -2.3270109   -1.5695095   0.02906783   -2.3270109   0.75750142  1255725 
 2590000   0.91122832   -2.3272543   -2.3272543   -1.5689761  0.021536678   -2.3272543   0.75827824  1255725 
 2591000    0.9108664   -2.3268233   -2.3268233   -1.5688463  0.038357196   -2.3268233   0.75797707  1255725 
 2592000   0.91144155   -2.3274243   -2.3274243   -1.5689686  0.032202807   -2.3274243   0.75845568  1255725 
 2593000   0.91165707   -2.3271395   -2.3271395   -1.5685045  0.027078905   -2.3271395   0.75863502  1255725 
 2594000    0.9117413   -2.3270067   -2.3270067   -1.5683016   0.03343787   -2.3270067   0.75870511  1255725 
 2595000   0.91204425   -2.3274679   -2.3274679   -1.5685106  0.035015062   -2.3274679   0.75895722  1255725 
 2596000   0.91206707   -2.3276757   -2.3276757   -1.5686995  0.025489145   -2.3276757   0.75897621  1255725 
 2597000   0.91134986   -2.3271254   -2.3271254    -1.568746  0.031103849   -2.3271254   0.75837938  1255725 
 2598000   0.91232229   -2.3278947   -2.3278947   -1.5687061  0.027491881   -2.3278947   0.75918858  1255725 
 2599000   0.91098475   -2.3265435   -2.3265435    -1.568468  0.037079384   -2.3265435   0.75807555  1255725 
 2600000   0.91174538   -2.3269281   -2.3269281   -1.5682196  0.035694865   -2.3269281   0.75870851  1255725 
 2601000   0.91098395   -2.3263635   -2.3263635   -1.5682886  0.029276912   -2.3263635   0.75807489  1255725 
 2602000   0.91295557   -2.3275975   -2.3275975   -1.5678819  0.028172412   -2.3275975   0.75971557  1255725 
 2603000   0.91197814   -2.3266109   -2.3266109   -1.5677087  0.030586963   -2.3266109    0.7589022  1255725 
 2604000   0.91253488    -2.327026    -2.327026   -1.5676605  0.036475219    -2.327026   0.75936549  1255725 
 2605000   0.91300005    -2.327418    -2.327418   -1.5676654  0.037250358    -2.327418   0.75975258  1255725 
 2606000   0.91233817   -2.3268899   -2.3268899   -1.5676881  0.030675386   -2.3268899    0.7592018  1255725 
 2607000   0.91201113   -2.3260803   -2.3260803   -1.5671507  0.031887088   -2.3260803   0.75892966  1255725 
 2608000   0.91341043    -2.327136    -2.327136   -1.5670419  0.029363222    -2.327136   0.76009408  1255725 
 2609000    0.9132019   -2.3267785   -2.3267785    -1.566858  0.018557309   -2.3267785   0.75992056  1255725 
 2610000   0.91167336   -2.3259421   -2.3259421   -1.5672935  0.029429249   -2.3259421   0.75864858  1255725 
 2611000   0.91188902   -2.3260348   -2.3260348   -1.5672067  0.029538127   -2.3260348   0.75882804  1255725 
 2612000   0.91113329   -2.3254469   -2.3254469   -1.5672478  0.032766401   -2.3254469   0.75819916  1255725 
 2613000   0.91151232   -2.3260742   -2.3260742   -1.5675597   0.02060557   -2.3260742   0.75851457  1255725 
 2614000   0.91143138   -2.3253216   -2.3253216   -1.5668744  0.025948873   -2.3253216   0.75844722  1255725 
 2615000   0.91246983   -2.3261503   -2.3261503   -1.5668389  0.025533736   -2.3261503   0.75931136  1255725 
 2616000   0.91265911   -2.3263004   -2.3263004   -1.5668316  0.021702208   -2.3263004   0.75946887  1255725 
 2617000     0.912184   -2.3261713   -2.3261713   -1.5670978   0.03380131   -2.3261713   0.75907351  1255725 
 2618000   0.91356416   -2.3270928   -2.3270928   -1.5668708  0.038336399   -2.3270928   0.76022201  1255725 
 2619000   0.91224868   -2.3254533   -2.3254533    -1.566326  0.035611766   -2.3254533   0.75912733  1255725 
 2620000   0.91226644    -2.325427    -2.325427   -1.5662849  0.031071121    -2.325427   0.75914211  1255725 
 2621000   0.91185343   -2.3248944   -2.3248944    -1.566096  0.029809878   -2.3248944   0.75879842  1255725 
 2622000   0.91262158   -2.3257273   -2.3257273   -1.5662896   0.02049308   -2.3257273   0.75943764  1255725 
 2623000   0.91203958   -2.3256322   -2.3256322   -1.5666789  0.035547037   -2.3256322   0.75895333  1255725 
 2624000   0.91244081   -2.3256647   -2.3256647   -1.5663775  0.024707219   -2.3256647   0.75928721  1255725 
 2625000   0.91157542   -2.3250724   -2.3250724   -1.5665053  0.029153883   -2.3250724   0.75856708  1255725 
 2626000   0.91222393   -2.3252423   -2.3252423   -1.5661356   0.03594518   -2.3252423   0.75910674  1255725 
 2627000   0.91268203   -2.3253583   -2.3253583   -1.5658704  0.029031006   -2.3253583   0.75948795  1255725 
 2628000   0.91366651   -2.3261482   -2.3261482    -1.565841  0.027207077   -2.3261482   0.76030718  1255725 
 2629000   0.91179244   -2.3240825   -2.3240825   -1.5653349  0.025679751   -2.3240825   0.75874767  1255725 
 2630000   0.91339103   -2.3253299   -2.3253299    -1.565252  0.035966415   -2.3253299   0.76007794  1255725 
 2631000   0.91266545   -2.3246213   -2.3246213   -1.5651472  0.023640475   -2.3246213   0.75947415  1255725 
 2632000   0.91265588   -2.3246635   -2.3246635   -1.5651973  0.025713057   -2.3246635   0.75946619  1255725 
 2633000   0.91162411   -2.3242399   -2.3242399   -1.5656323  0.025709321   -2.3242399    0.7586076  1255725 
 2634000    0.9120532    -2.324672    -2.324672   -1.5657074  0.027360634    -2.324672   0.75896466  1255725 
 2635000    0.9127508    -2.324955    -2.324955   -1.5654099  0.032235572    -2.324955   0.75954517  1255725 
 2636000    0.9124392   -2.3250334   -2.3250334   -1.5657475   0.02261196   -2.3250334   0.75928588  1255725 
 2637000   0.91234933   -2.3247021   -2.3247021   -1.5654911  0.027572713   -2.3247021   0.75921109  1255725 
 2638000   0.91369876   -2.3252212   -2.3252212   -1.5648872  0.033046334   -2.3252212   0.76033402  1255725 
 2639000   0.91289258   -2.3241499   -2.3241499   -1.5644867  0.044636536   -2.3241499   0.75966316  1255725 
 2640000   0.91223466   -2.3239314   -2.3239314   -1.5648157  0.038596007   -2.3239314   0.75911566  1255725 
 2641000   0.91346686   -2.3244143   -2.3244143   -1.5642733  0.033551638   -2.3244143   0.76014104  1255725 
 2642000   0.91394025   -2.3250677   -2.3250677   -1.5645327  0.040758585   -2.3250677   0.76053498  1255725 
 2643000     0.913304   -2.3246138   -2.3246138   -1.5646083  0.037417331   -2.3246138   0.76000552  1255725 
 2644000   0.91380345   -2.3247905   -2.3247905   -1.5643693   0.03289005   -2.3247905   0.76042113  1255725 
 2645000    0.9133148   -2.3245543   -2.3245543   -1.5645398  0.024647776   -2.3245543    0.7600145  1255725 
 2646000   0.91249541   -2.3237791   -2.3237791   -1.5644465  0.035211931   -2.3237791   0.75933265  1255725 
 2647000   0.91421085   -2.3249061   -2.3249061    -1.564146  0.033697573   -2.3249061   0.76076016  1255725 
 2648000   0.91293805   -2.3239367   -2.3239367   -1.5642357  0.030387003   -2.3239367   0.75970099  1255725 
 2649000   0.91263705   -2.3232891   -2.3232891   -1.5638386  0.037056008   -2.3232891   0.75945051  1255725 
 2650000   0.91354867   -2.3240364   -2.3240364   -1.5638273   0.02502957   -2.3240364   0.76020912  1255725 
 2651000    0.9135135   -2.3237628   -2.3237628   -1.5635829  0.029240485   -2.3237628   0.76017985  1255725 
 2652000   0.91214919   -2.3226844   -2.3226844   -1.5636398   0.04213434   -2.3226844   0.75904454  1255725 
 2653000   0.91444319   -2.3245213   -2.3245213   -1.5635678  0.025828811   -2.3245213   0.76095349  1255725 
 2654000   0.91263489   -2.3230704   -2.3230704   -1.5636217  0.037974337   -2.3230704   0.75944872  1255725 
 2655000   0.91441014   -2.3242822   -2.3242822   -1.5633562  0.028907928   -2.3242822   0.76092599  1255725 
 2656000   0.91376974    -2.323877    -2.323877    -1.563484  0.032314959    -2.323877   0.76039308  1255725 
 2657000   0.91339885   -2.3234213   -2.3234213   -1.5633368  0.026897453   -2.3234213   0.76008444  1255725 
 2658000   0.91376967   -2.3235175   -2.3235175   -1.5631245  0.027683868   -2.3235175   0.76039303  1255725 
 2659000   0.91193194   -2.3216535   -2.3216535   -1.5627898  0.021882109   -2.3216535   0.75886376  1255725 
 2660000   0.91332517   -2.3226978   -2.3226978   -1.5626747  0.032988055   -2.3226978   0.76002313  1255725 
 2661000   0.91335091   -2.3230276   -2.3230276    -1.562983  0.025656077   -2.3230276   0.76004455  1255725 
 2662000   0.91301948    -2.322681    -2.322681   -1.5629122  0.024101357    -2.322681   0.75976876  1255725 
 2663000   0.91183245   -2.3213736   -2.3213736   -1.5625926  0.027783357   -2.3213736   0.75878097  1255725 
 2664000   0.91253387   -2.3217698   -2.3217698   -1.5624052  0.019295826   -2.3217698   0.75936465  1255725 
 2665000   0.91241759    -2.321871    -2.321871   -1.5626031  0.030021247    -2.321871   0.75926789  1255725 
 2666000   0.91285914   -2.3222149   -2.3222149   -1.5625796  0.019499298   -2.3222149   0.75963533  1255725 
 2667000   0.91440479   -2.3230213   -2.3230213   -1.5620997  0.022648407   -2.3230213   0.76092154  1255725 
 2668000   0.91425739    -2.322721    -2.322721   -1.5619221  0.030241736    -2.322721   0.76079888  1255725 
 2669000   0.91447336   -2.3225173   -2.3225173   -1.5615387  0.041037183   -2.3225173    0.7609786  1255725 
 2670000   0.91500814   -2.3230447   -2.3230447    -1.561621  0.031944109   -2.3230447   0.76142362  1255725 
 2671000   0.91316634   -2.3213695   -2.3213695   -1.5614785  0.028122912   -2.3213695   0.75989096  1255725 
 2672000   0.91499547    -2.323068    -2.323068   -1.5616549  0.029626298    -2.323068   0.76141307  1255725 
 2673000     0.914042   -2.3221305   -2.3221305   -1.5615108  0.030779961   -2.3221305   0.76061964  1255725 
 2674000   0.91390769   -2.3216865   -2.3216865   -1.5611786   0.03824441   -2.3216865   0.76050788  1255725 
 2675000   0.91516366    -2.322522    -2.322522   -1.5609689  0.023871329    -2.322522   0.76155304  1255725 
 2676000   0.91443494   -2.3219062   -2.3219062   -1.5609596  0.029509186   -2.3219062   0.76094663  1255725 
 2677000   0.91411572   -2.3214208   -2.3214208   -1.5607398  0.020167042   -2.3214208   0.76068099  1255725 
 2678000   0.91371314   -2.3213272   -2.3213272   -1.5609812  0.031583719   -2.3213272   0.76034598  1255725 
 2679000   0.91469526   -2.3218965   -2.3218965   -1.5607332  0.027329895   -2.3218965   0.76116325  1255725 
 2680000   0.91497838   -2.3220816   -2.3220816   -1.5606828  0.037754851   -2.3220816   0.76139885  1255725 
 2681000   0.91517219   -2.3223659   -2.3223659   -1.5608057  0.034111018   -2.3223659   0.76156013  1255725 
 2682000   0.91485382   -2.3222483   -2.3222483   -1.5609531  0.035476569   -2.3222483    0.7612952  1255725 
 2683000    0.9151177   -2.3216474   -2.3216474   -1.5601326  0.045291559   -2.3216474   0.76151478  1255725 
 2684000   0.91473945   -2.3211427   -2.3211427   -1.5599427   0.01522459   -2.3211427   0.76120003  1255725 
 2685000   0.91483085   -2.3208628   -2.3208628   -1.5595867  0.025792539   -2.3208628   0.76127608  1255725 
 2686000   0.91348213   -2.3197012   -2.3197012   -1.5595475  0.032547404   -2.3197012   0.76015375  1255725 
 2687000   0.91439284   -2.3199395   -2.3199395   -1.5590279  0.032749017   -2.3199395   0.76091159  1255725 
 2688000   0.91422756   -2.3198174   -2.3198174   -1.5590433  0.033001995   -2.3198174   0.76077406  1255725 
 2689000    0.9141848   -2.3196236   -2.3196236   -1.5588851   0.03326991   -2.3196236   0.76073847  1255725 
 2690000   0.91445114   -2.3202214   -2.3202214   -1.5592613  0.031895067   -2.3202214   0.76096011  1255725 
 2691000   0.91362224   -2.3193282   -2.3193282   -1.5590578   0.03881039   -2.3193282   0.76027034  1255725 
 2692000   0.91411558   -2.3192376   -2.3192376   -1.5585568  0.038471821   -2.3192376   0.76068087  1255725 
 2693000   0.91385085   -2.3192905   -2.3192905   -1.5588299  0.030745833   -2.3192905   0.76046058  1255725 
 2694000   0.91397167   -2.3191617   -2.3191617   -1.5586006  0.020630395   -2.3191617   0.76056112  1255725 
 2695000   0.91418121   -2.3191505   -2.3191505    -1.558415  0.033298263   -2.3191505   0.76073549  1255725 
 2696000   0.91399467   -2.3192463   -2.3192463   -1.5586661  0.033949396   -2.3192463   0.76058025  1255725 
 2697000   0.91422187   -2.3193952   -2.3193952   -1.5586259  0.030768561   -2.3193952   0.76076932  1255725 
 2698000   0.91524077   -2.3197078   -2.3197078   -1.5580906  0.034635767   -2.3197078    0.7616172  1255725 
 2699000   0.91418584   -2.3188081   -2.3188081   -1.5580688  0.031835872   -2.3188081   0.76073934  1255725 
 2700000   0.91406316   -2.3185504   -2.3185504   -1.5579131  0.034318927   -2.3185504   0.76063725  1255725 
 2701000    0.9151739   -2.3191302   -2.3191302   -1.5575687  0.029695874   -2.3191302   0.76156155  1255725 
 2702000    0.9149532   -2.3193443   -2.3193443   -1.5579664  0.033742113   -2.3193443    0.7613779  1255725 
 2703000   0.91576964   -2.3195378   -2.3195378   -1.5574805  0.033900284   -2.3195378    0.7620573  1255725 
 2704000   0.91497673   -2.3188827   -2.3188827   -1.5574852  0.034741074   -2.3188827   0.76139748  1255725 
 2705000   0.91525462   -2.3191015   -2.3191015   -1.5574728  0.026596923   -2.3191015   0.76162872  1255725 
 2706000   0.91540032   -2.3190637   -2.3190637   -1.5573137  0.033385999   -2.3190637   0.76174997  1255725 
 2707000   0.91537598   -2.3187653   -2.3187653   -1.5570356  0.031604892   -2.3187653   0.76172971  1255725 
 2708000   0.91562445   -2.3187602   -2.3187602   -1.5568237  0.034443254   -2.3187602   0.76193648  1255725 
 2709000   0.91444081    -2.318082    -2.318082   -1.5571305  0.028180407    -2.318082   0.76095151  1255725 
 2710000   0.91577739   -2.3189305   -2.3189305   -1.5568667  0.024763017   -2.3189305   0.76206375  1255725 
 2711000   0.91499336   -2.3182413   -2.3182413     -1.55683  0.027481199   -2.3182413   0.76141132  1255725 
 2712000   0.91629208    -2.319013    -2.319013    -1.556521  0.037550436    -2.319013   0.76249204  1255725 
 2713000   0.91633162   -2.3187128   -2.3187128   -1.5561879  0.033311646   -2.3187128   0.76252495  1255725 
 2714000   0.91602079   -2.3188652   -2.3188652   -1.5565989  0.026047467   -2.3188652    0.7622663  1255725 
 2715000   0.91541156   -2.3189241   -2.3189241   -1.5571648  0.043610699   -2.3189241   0.76175932  1255725 
 2716000   0.91583018   -2.3187729   -2.3187729   -1.5566652  0.031624522   -2.3187729   0.76210767  1255725 
 2717000   0.91454019   -2.3173341   -2.3173341   -1.5562999   0.03179566   -2.3173341   0.76103422  1255725 
 2718000   0.91499931   -2.3179131   -2.3179131   -1.5564968  0.034375583   -2.3179131   0.76141627  1255725 
 2719000    0.9159408    -2.318402    -2.318402   -1.5562023  0.027639254    -2.318402   0.76219973  1255725 
 2720000   0.91619484   -2.3185814   -2.3185814   -1.5561703  0.028149139   -2.3185814   0.76241113  1255725 
 2721000   0.91624728   -2.3186255   -2.3186255   -1.5561707  0.031902695   -2.3186255   0.76245477  1255725 
 2722000   0.91540823   -2.3177591   -2.3177591   -1.5560026  0.031573878   -2.3177591   0.76175655  1255725 
 2723000   0.91587734   -2.3182563   -2.3182563   -1.5561093  0.035034645   -2.3182563   0.76214692  1255725 
 2724000   0.91494667   -2.3175085   -2.3175085    -1.556136  0.031386448   -2.3175085   0.76137247  1255725 
 2725000   0.91610294   -2.3179486   -2.3179486   -1.5556139    0.0346869   -2.3179486   0.76233466  1255725 
 2726000   0.91673166   -2.3184057   -2.3184057   -1.5555479  0.026020213   -2.3184057   0.76285784  1255725 
 2727000   0.91577539   -2.3174294   -2.3174294   -1.5553673  0.035787288   -2.3174294   0.76206208  1255725 
 2728000   0.91534417   -2.3169946   -2.3169946   -1.5552913  0.021682884   -2.3169946   0.76170324  1255725 
 2729000   0.91598703   -2.3179219   -2.3179219   -1.5556837  0.031205436   -2.3179219    0.7622382  1255725 
 2730000   0.91617411   -2.3177923   -2.3177923   -1.5553984  0.028216706   -2.3177923   0.76239388  1255725 
 2731000   0.91591032   -2.3172545   -2.3172545   -1.5550801  0.042797996   -2.3172545   0.76217437  1255725 
 2732000   0.91660284   -2.3176239   -2.3176239   -1.5548733  0.034292118   -2.3176239   0.76275064  1255725 
 2733000   0.91492393   -2.3165877   -2.3165877   -1.5552342  0.030201652   -2.3165877   0.76135354  1255725 
 2734000   0.91645745   -2.3175273   -2.3175273   -1.5548977  0.029811721   -2.3175273   0.76262966  1255725 
 2735000   0.91675176   -2.3176207   -2.3176207   -1.5547462  0.028681743   -2.3176207   0.76287457  1255725 
 2736000   0.91608946   -2.3173204   -2.3173204    -1.554997  0.032947372   -2.3173204   0.76232343  1255725 
 2737000   0.91572504   -2.3168154   -2.3168154   -1.5547952  0.034090678   -2.3168154   0.76202019  1255725 
 2738000   0.91680681   -2.3171564   -2.3171564   -1.5542361   0.03564359   -2.3171564   0.76292038  1255725 
 2739000   0.91643532    -2.316894    -2.316894   -1.5542828  0.036718121    -2.316894   0.76261124  1255725 
 2740000    0.9160402   -2.3168508   -2.3168508   -1.5545684  0.039934583   -2.3168508   0.76228244  1255725 
 2741000   0.91578027   -2.3167504   -2.3167504   -1.5546843  0.034762401   -2.3167504   0.76206614  1255725 
 2742000   0.91568395   -2.3162694   -2.3162694   -1.5542834  0.043743178   -2.3162694   0.76198599  1255725 
 2743000   0.91553073   -2.3160013   -2.3160013   -1.5541428   0.02697077   -2.3160013   0.76185849  1255725 
 2744000   0.91550611   -2.3161378   -2.3161378   -1.5542998  0.037199889   -2.3161378   0.76183801  1255725 
 2745000    0.9152171    -2.315998    -2.315998   -1.5544005  0.024459025    -2.315998    0.7615975  1255725 
 2746000   0.91598654   -2.3161264   -2.3161264   -1.5538886   0.03640137   -2.3161264   0.76223779  1255725 
 2747000   0.91662263    -2.316316    -2.316316   -1.5535489  0.031586117    -2.316316   0.76276712  1255725 
 2748000   0.91682068   -2.3167478   -2.3167478   -1.5538159  0.027866647   -2.3167478   0.76293192  1255725 
 2749000   0.91720662   -2.3168464   -2.3168464   -1.5535933   0.02619844   -2.3168464   0.76325308  1255725 
 2750000   0.91720264    -2.316565    -2.316565   -1.5533152  0.041333786    -2.316565   0.76324977  1255725 
 2751000   0.91751272   -2.3165701   -2.3165701   -1.5530623  0.029507426   -2.3165701    0.7635078  1255725 
 2752000   0.91758037   -2.3161595   -2.3161595   -1.5525954  0.028082212   -2.3161595    0.7635641  1255725 
 2753000   0.91783631    -2.316081    -2.316081   -1.5523039  0.031218032    -2.316081   0.76377707  1255725 
 2754000   0.91672976   -2.3153386   -2.3153386   -1.5524824  0.031686148   -2.3153386   0.76285626  1255725 
 2755000   0.91735053   -2.3157311   -2.3157311   -1.5523583  0.032485938   -2.3157311   0.76337283  1255725 
 2756000   0.91757803   -2.3159418   -2.3159418   -1.5523796  0.031949604   -2.3159418   0.76356215  1255725 
 2757000   0.91683066   -2.3158678   -2.3158678   -1.5529276  0.038455018   -2.3158678   0.76294022  1255725 
 2758000   0.91683066   -2.3158434   -2.3158434   -1.5529032  0.028597665   -2.3158434   0.76294022  1255725 
 2759000   0.91659366   -2.3153287   -2.3153287   -1.5525857  0.029530817   -2.3153287   0.76274301  1255725 
 2760000   0.91786325   -2.3160802   -2.3160802   -1.5522807  0.037144082   -2.3160802   0.76379949  1255725 
 2761000   0.91723372   -2.3153674   -2.3153674   -1.5520918   0.03318517   -2.3153674   0.76327564  1255725 
 2762000   0.91582782   -2.3143723   -2.3143723   -1.5522666  0.023899746   -2.3143723   0.76210572  1255725 
 2763000   0.91671912   -2.3148365   -2.3148365   -1.5519891  0.028511538   -2.3148365   0.76284741  1255725 
 2764000   0.91644978   -2.3146344   -2.3146344   -1.5520111  0.033417934   -2.3146344   0.76262328  1255725 
 2765000   0.91642904   -2.3144716   -2.3144716   -1.5518656   0.03237534   -2.3144716   0.76260602  1255725 
 2766000   0.91535643   -2.3132035   -2.3132035   -1.5514901  0.040746288   -2.3132035   0.76171344  1255725 
 2767000   0.91719941   -2.3148553   -2.3148553   -1.5516082  0.036805802   -2.3148553   0.76324708  1255725 
 2768000   0.91763119   -2.3149482   -2.3149482   -1.5513418  0.033118357   -2.3149482   0.76360639  1255725 
 2769000   0.91646527   -2.3137039   -2.3137039   -1.5510677    0.0305061   -2.3137039   0.76263617  1255725 
 2770000   0.91641569   -2.3133356   -2.3133356   -1.5507407  0.030417115   -2.3133356   0.76259491  1255725 
 2771000   0.91682891   -2.3136292   -2.3136292   -1.5506905  0.027233166   -2.3136292   0.76293877  1255725 
 2772000   0.91629426   -2.3130288   -2.3130288   -1.5505349  0.024781452   -2.3130288   0.76249386  1255725 
 2773000    0.9172019   -2.3134794   -2.3134794   -1.5502303  0.029850619   -2.3134794   0.76324915  1255725 
 2774000   0.91689369   -2.3131815   -2.3131815   -1.5501888  0.035029811   -2.3131815   0.76299268  1255725 
 2775000   0.91724478   -2.3134236   -2.3134236   -1.5501388  0.037238055   -2.3134236   0.76328484  1255725 
 2776000   0.91722262   -2.3135915   -2.3135915   -1.5503251  0.024782057   -2.3135915    0.7632664  1255725 
 2777000   0.91777529   -2.3138408   -2.3138408   -1.5501145  0.031234974   -2.3138408    0.7637263  1255725 
 2778000   0.91683189   -2.3125354   -2.3125354   -1.5495941  0.028575198   -2.3125354   0.76294125  1255725 
 2779000    0.9170695   -2.3125507   -2.3125507   -1.5494118  0.028454719   -2.3125507   0.76313898  1255725 
 2780000   0.91834979   -2.3132596   -2.3132596   -1.5490552  0.033426337   -2.3132596   0.76420437  1255725 
 2781000   0.91696691   -2.3121399   -2.3121399   -1.5490863  0.016520651   -2.3121399   0.76305361  1255725 
 2782000   0.91684871   -2.3119869   -2.3119869   -1.5490316  0.030979469   -2.3119869   0.76295524  1255725 
 2783000    0.9174854   -2.3122113   -2.3122113   -1.5487262  0.036423104   -2.3122113   0.76348507  1255725 
 2784000   0.91768122   -2.3124268   -2.3124268   -1.5487788  0.031657332   -2.3124268   0.76364802  1255725 
 2785000   0.91722724   -2.3121326   -2.3121326   -1.5488623  0.039591467   -2.3121326   0.76327024  1255725 
 2786000   0.91901509   -2.3136794   -2.3136794   -1.5489214  0.029993596   -2.3136794     0.764758  1255725 
 2787000   0.91831062   -2.3127199   -2.3127199   -1.5485481  0.029390619   -2.3127199   0.76417178  1255725 
 2788000    0.9178878   -2.3119982   -2.3119982   -1.5481783  0.031082801   -2.3119982   0.76381992  1255725 
 2789000   0.91855673   -2.3127925   -2.3127925   -1.5484159  0.035689382   -2.3127925   0.76437657  1255725 
 2790000   0.91737559   -2.3116749   -2.3116749   -1.5482813  0.032081942   -2.3116749   0.76339369  1255725 
 2791000   0.91588051   -2.3107541   -2.3107541   -1.5486046  0.029836576   -2.3107541   0.76214956  1255725 
 2792000   0.91546338   -2.3103757   -2.3103757   -1.5485733  0.022981496   -2.3103757   0.76180244  1255725 
 2793000   0.91723251   -2.3117851   -2.3117851   -1.5485105  0.022043617   -2.3117851   0.76327462  1255725 
 2794000   0.91634118    -2.310629    -2.310629   -1.5480961  0.027309826    -2.310629   0.76253291  1255725 
 2795000    0.9172719   -2.3113061   -2.3113061   -1.5479987  0.028353142   -2.3113061    0.7633074  1255725 
 2796000    0.9174414   -2.3114424   -2.3114424    -1.547994  0.033220743   -2.3114424   0.76344846  1255725 
 2797000   0.91799018    -2.311749    -2.311749   -1.5478439  0.028029908    -2.311749   0.76390512  1255725 
 2798000   0.91796445   -2.3119867   -2.3119867    -1.548103  0.025665955   -2.3119867   0.76388371  1255725 
 2799000   0.91783952   -2.3117363   -2.3117363   -1.5479566  0.020254921   -2.3117363   0.76377975  1255725 
 2800000   0.91804275   -2.3113182   -2.3113182   -1.5473694  0.027866913   -2.3113182   0.76394887  1255725 
 2801000   0.91795411   -2.3112454   -2.3112454   -1.5473703  0.028306437   -2.3112454    0.7638751  1255725 
 2802000   0.91800218   -2.3108927   -2.3108927   -1.5469776  0.031255847   -2.3108927   0.76391511  1255725 
 2803000   0.91839353   -2.3108385   -2.3108385   -1.5465977  0.028617985   -2.3108385   0.76424077  1255725 
 2804000    0.9193583    -2.311609    -2.311609   -1.5465654   0.03123351    -2.311609    0.7650436  1255725 
 2805000    0.9194644    -2.311331    -2.311331   -1.5461991  0.042388088    -2.311331   0.76513189  1255725 
 2806000   0.91911704   -2.3108629   -2.3108629     -1.54602  0.035139586   -2.3108629   0.76484284  1255725 
 2807000   0.91929657   -2.3108652   -2.3108652    -1.545873  0.034416179   -2.3108652   0.76499223  1255725 
 2808000   0.91901032     -2.31059     -2.31059    -1.545836  0.022890507     -2.31059   0.76475403  1255725 
 2809000   0.91954179   -2.3110375   -2.3110375   -1.5458412  0.028101647   -2.3110375   0.76519629  1255725 
 2810000   0.91906417   -2.3104867   -2.3104867   -1.5456878  0.023712068   -2.3104867   0.76479884  1255725 
 2811000   0.91840979   -2.3098168   -2.3098168   -1.5455625  0.040075354   -2.3098168    0.7642543  1255725 
 2812000   0.91897288   -2.3101939   -2.3101939    -1.545471  0.039352805   -2.3101939   0.76472287  1255725 
 2813000   0.91869374   -2.3099876   -2.3099876    -1.545497  0.035255233   -2.3099876   0.76449058  1255725 
 2814000   0.91918653    -2.310143    -2.310143   -1.5452424  0.037335262    -2.310143   0.76490066  1255725 
 2815000   0.91911012   -2.3099855   -2.3099855   -1.5451484  0.035039587   -2.3099855   0.76483708  1255725 
 2816000   0.91815549   -2.3088653   -2.3088653   -1.5448227  0.026966164   -2.3088653   0.76404269  1255725 
 2817000   0.91897516   -2.3093534   -2.3093534   -1.5446287  0.021828669   -2.3093534   0.76472477  1255725 
 2818000   0.91921317   -2.3094281   -2.3094281   -1.5445053   0.03993438   -2.3094281   0.76492283  1255725 
 2819000   0.91925934   -2.3093741   -2.3093741   -1.5444128  0.036191274   -2.3093741   0.76496125  1255725 
 2820000   0.91798824   -2.3079999   -2.3079999   -1.5440964  0.035168163   -2.3079999    0.7639035  1255725 
 2821000   0.91808642   -2.3077715   -2.3077715   -1.5437863  0.030097574   -2.3077715   0.76398521  1255725 
 2822000   0.91884029   -2.3080275   -2.3080275    -1.543415  0.023188953   -2.3080275   0.76461253  1255725 
 2823000   0.91951085   -2.3084754   -2.3084754   -1.5433048  0.021790722   -2.3084754   0.76517055  1255725 
 2824000   0.91802141   -2.3076462   -2.3076462   -1.5437151  0.025200074   -2.3076462   0.76393111  1255725 
 2825000   0.91944311   -2.3087123   -2.3087123   -1.5435981  0.027946165   -2.3087123   0.76511417  1255725 
 2826000   0.92033083   -2.3096325   -2.3096325   -1.5437796  0.022576166   -2.3096325   0.76585289  1255725 
 2827000   0.91824441    -2.307709    -2.307709   -1.5435923  0.026169066    -2.307709   0.76411668  1255725 
 2828000   0.91905652   -2.3083849   -2.3083849   -1.5435924  0.024668736   -2.3083849   0.76479247  1255725 
 2829000   0.91861554   -2.3079874   -2.3079874   -1.5435619  0.024149147   -2.3079874   0.76442551  1255725 
 2830000   0.91992708   -2.3088014   -2.3088014   -1.5432845  0.027212407   -2.3088014   0.76551691  1255725 
 2831000    0.9202454   -2.3089954   -2.3089954   -1.5432136  0.034517697   -2.3089954    0.7657818  1255725 
 2832000    0.9182751    -2.307629    -2.307629   -1.5434868  0.032543507    -2.307629   0.76414222  1255725 
 2833000    0.9178511   -2.3069866   -2.3069866   -1.5431972  0.039214299   -2.3069866   0.76378939  1255725 
 2834000   0.91976533   -2.3082033   -2.3082033    -1.542821  0.038995094   -2.3082033   0.76538231  1255725 
 2835000   0.91894164   -2.3074497   -2.3074497   -1.5427528   0.03055488   -2.3074497   0.76469688  1255725 
 2836000   0.92003271   -2.3078601   -2.3078601   -1.5422553  0.039750302   -2.3078601   0.76560481  1255725 
 2837000   0.91894658   -2.3068554   -2.3068554   -1.5421544  0.034552418   -2.3068554   0.76470099  1255725 
 2838000   0.92017527   -2.3074769   -2.3074769   -1.5417535  0.030945892   -2.3074769   0.76572344  1255725 
 2839000   0.91939621   -2.3063503   -2.3063503   -1.5412752  0.040233447   -2.3063503   0.76507515  1255725 
 2840000   0.91989118      -2.3066      -2.3066    -1.541113  0.036955073      -2.3066   0.76548704  1255725 
 2841000   0.91998392   -2.3069863   -2.3069863   -1.5414221  0.029344096   -2.3069863   0.76556421  1255725 
 2842000   0.91966287   -2.3064662   -2.3064662   -1.5411691  0.036873818   -2.3064662   0.76529705  1255725 
 2843000    0.9195078   -2.3067588   -2.3067588   -1.5415908   0.03273558   -2.3067588   0.76516801  1255725 
 2844000   0.92106889   -2.3078601   -2.3078601   -1.5413931  0.030383322   -2.3078601   0.76646706  1255725 
 2845000   0.91989321   -2.3069955   -2.3069955   -1.5415068  0.032913826   -2.3069955   0.76548873  1255725 
 2846000   0.91941212   -2.3064065   -2.3064065   -1.5413181  0.042643355   -2.3064065   0.76508839  1255725 
 2847000   0.91998785    -2.306583    -2.306583   -1.5410155  0.032252977    -2.306583   0.76556748  1255725 
 2848000   0.91807978   -2.3049543   -2.3049543   -1.5409747  0.021932917   -2.3049543   0.76397968  1255725 
 2849000   0.91894504    -2.305975    -2.305975   -1.5412753  0.031101814    -2.305975   0.76469971  1255725 
 2850000   0.91865178   -2.3058936   -2.3058936   -1.5414379  0.032723481   -2.3058936   0.76445567  1255725 
 2851000   0.91896935   -2.3059833   -2.3059833   -1.5412634  0.036063997   -2.3059833   0.76471994  1255725 
 2852000   0.91896815   -2.3059518   -2.3059518   -1.5412329  0.028192288   -2.3059518   0.76471894  1255725 
 2853000   0.91969515   -2.3064526   -2.3064526   -1.5411287  0.033562196   -2.3064526   0.76532391  1255725 
 2854000    0.9199164   -2.3066982   -2.3066982   -1.5411902   0.02678938   -2.3066982   0.76550802  1255725 
 2855000    0.9182981   -2.3049149   -2.3049149   -1.5407535  0.037237566   -2.3049149   0.76416135  1255725 
 2856000   0.91873586   -2.3051851   -2.3051851   -1.5406594  0.022862104   -2.3051851   0.76452564  1255725 
 2857000    0.9192385   -2.3055015   -2.3055015   -1.5405576   0.02662607   -2.3055015   0.76494391  1255725 
 2858000    0.9198656   -2.3060291   -2.3060291   -1.5405634  0.028307878   -2.3060291   0.76546575  1255725 
 2859000   0.92099352   -2.3070405   -2.3070405   -1.5406361  0.035132205   -2.3070405   0.76640434  1255725 
 2860000   0.91979711   -2.3056947   -2.3056947   -1.5402859  0.026674551   -2.3056947   0.76540876  1255725 
 2861000   0.91988552   -2.3057475   -2.3057475   -1.5402652  0.029468931   -2.3057475   0.76548232  1255725 
 2862000   0.92121668   -2.3065969   -2.3065969   -1.5400068  0.033935094   -2.3065969   0.76659005  1255725 
 2863000   0.92005626   -2.3055828   -2.3055828   -1.5399583  0.036728639   -2.3055828   0.76562441  1255725 
 2864000   0.92036377   -2.3055735   -2.3055735   -1.5396932  0.035472064   -2.3055735    0.7658803  1255725 
 2865000   0.92220751   -2.3073323   -2.3073323   -1.5399177  0.033443166   -2.3073323   0.76741457  1255725 
 2866000   0.92162173   -2.3069191   -2.3069191    -1.539992  0.039568336   -2.3069191   0.76692711  1255725 
 2867000   0.92158859   -2.3062483   -2.3062483   -1.5393487  0.029502704   -2.3062483   0.76689954  1255725 
 2868000   0.91958331   -2.3049736   -2.3049736   -1.5397427  0.030736215   -2.3049736   0.76523085  1255725 
 2869000   0.92169041    -2.306176    -2.306176   -1.5391917  0.029606858    -2.306176   0.76698426  1255725 
 2870000    0.9207153   -2.3056995   -2.3056995   -1.5395266  0.032593708   -2.3056995   0.76617282  1255725 
 2871000   0.91990315   -2.3053556   -2.3053556   -1.5398586  0.028802535   -2.3053556   0.76549699  1255725 
 2872000    0.9192051   -2.3049671   -2.3049671    -1.540051  0.032802789   -2.3049671   0.76491611  1255725 
 2873000   0.92086992   -2.3061386   -2.3061386   -1.5398371  0.036575578   -2.3061386   0.76630149  1255725 
 2874000   0.92127893   -2.3062159   -2.3062159   -1.5395741  0.038426159   -2.3062159   0.76664185  1255725 
 2875000   0.92075833   -2.3060869   -2.3060869   -1.5398783  0.028156285   -2.3060869   0.76620864  1255725 
 2876000    0.9199345   -2.3052239   -2.3052239   -1.5397008  0.036138527   -2.3052239   0.76552309  1255725 
 2877000   0.92087274   -2.3058053   -2.3058053   -1.5395015  0.035984442   -2.3058053   0.76630384  1255725 
 2878000   0.92055162   -2.3050573   -2.3050573   -1.5390207  0.026460947   -2.3050573   0.76603662  1255725 
 2879000     0.920327   -2.3046458   -2.3046458   -1.5387961  0.038730667   -2.3046458    0.7658497  1255725 
 2880000   0.92024153   -2.3046706   -2.3046706    -1.538892   0.03343415   -2.3046706   0.76577858  1255725 
 2881000   0.92041359   -2.3045023   -2.3045023   -1.5385805  0.039649883   -2.3045023   0.76592176  1255725 
 2882000    0.9207721   -2.3044975   -2.3044975   -1.5382775  0.039741106   -2.3044975   0.76622009  1255725 
 2883000   0.92124784   -2.3046528   -2.3046528   -1.5380368  0.025036481   -2.3046528   0.76661598  1255725 
 2884000   0.92134499   -2.3045692   -2.3045692   -1.5378724  0.026666175   -2.3045692   0.76669682  1255725 
 2885000   0.92166229   -2.3049152   -2.3049152   -1.5379543  0.039512062   -2.3049152   0.76696086  1255725 
 2886000   0.92089186   -2.3040128   -2.3040128    -1.537693  0.042118078   -2.3040128   0.76631975  1255725 
 2887000   0.92002124   -2.3036523   -2.3036523    -1.538057  0.030126747   -2.3036523   0.76559526  1255725 
 2888000    0.9208457   -2.3044703   -2.3044703    -1.538189  0.034504103   -2.3044703   0.76628134  1255725 
 2889000     0.921559   -2.3045872   -2.3045872   -1.5377123  0.035147243   -2.3045872   0.76687491  1255725 
 2890000    0.9208962   -2.3041491   -2.3041491   -1.5378257  0.032143734   -2.3041491   0.76632337  1255725 
 2891000   0.92132075   -2.3042454   -2.3042454   -1.5375687  0.033438724   -2.3042454   0.76667665  1255725 
 2892000   0.92203141   -2.3045344   -2.3045344   -1.5372664  0.032314404   -2.3045344   0.76726803  1255725 
 2893000   0.92121331    -2.303605    -2.303605   -1.5370178  0.033606297    -2.303605   0.76658725  1255725 
 2894000   0.92125079     -2.30327     -2.30327   -1.5366516  0.035161604     -2.30327   0.76661844  1255725 
 2895000   0.92217456   -2.3037811   -2.3037811   -1.5363939    0.0295943   -2.3037811   0.76738715  1255725 
 2896000   0.92187193   -2.3037629   -2.3037629   -1.5366275  0.035392043   -2.3037629   0.76713531  1255725 
 2897000   0.92075489   -2.3028084   -2.3028084   -1.5366027  0.035467718   -2.3028084   0.76620577  1255725 
 2898000   0.92190623   -2.3034685   -2.3034685   -1.5363046   0.02553384   -2.3034685   0.76716386  1255725 
 2899000   0.92149398   -2.3026606   -2.3026606   -1.5358398  0.031065846   -2.3026606    0.7668208  1255725 
 2900000   0.92163153   -2.3026967   -2.3026967   -1.5357614  0.031789965   -2.3026967   0.76693527  1255725 
 2901000   0.92200208   -2.3030204   -2.3030204   -1.5357768   0.03088569   -2.3030204   0.76724362  1255725 
 2902000   0.92109935   -2.3020978   -2.3020978   -1.5356054  0.030001304   -2.3020978   0.76649241  1255725 
 2903000   0.92118652   -2.3023709   -2.3023709    -1.535806  0.037821502   -2.3023709   0.76656495  1255725 
 2904000    0.9222884   -2.3028452   -2.3028452   -1.5353634  0.026015526   -2.3028452   0.76748188  1255725 
 2905000    0.9223746   -2.3028354   -2.3028354   -1.5352817  0.025594325   -2.3028354   0.76755361  1255725 
 2906000   0.92226171   -2.3022983   -2.3022983   -1.5348386   0.03558903   -2.3022983   0.76745967  1255725 
 2907000   0.92208269   -2.3024209   -2.3024209   -1.5351102  0.034745259   -2.3024209    0.7673107  1255725 
 2908000   0.92214162   -2.3024818   -2.3024818   -1.5351221  0.027288377   -2.3024818   0.76735974  1255725 
 2909000   0.92271864   -2.3024743   -2.3024743   -1.5346343  0.028494464   -2.3024743   0.76783991  1255725 
 2910000   0.92204896    -2.301964    -2.301964   -1.5346814  0.030614571    -2.301964   0.76728263  1255725 
 2911000   0.92193337   -2.3016379   -2.3016379   -1.5344514  0.028799576   -2.3016379   0.76718645  1255725 
 2912000   0.92239268   -2.3023111   -2.3023111   -1.5347424  0.031685501   -2.3023111   0.76756865  1255725 
 2913000   0.92119291   -2.3009849   -2.3009849   -1.5344146  0.026089227   -2.3009849   0.76657027  1255725 
 2914000   0.92177534   -2.3011217   -2.3011217   -1.5340668  0.026686856   -2.3011217   0.76705494  1255725 
 2915000    0.9223997   -2.3017606   -2.3017606   -1.5341861  0.028665032   -2.3017606    0.7675745  1255725 
 2916000   0.92241179   -2.3019298   -2.3019298   -1.5343452  0.029180836   -2.3019298   0.76758456  1255725 
 2917000   0.92269598   -2.3016963   -2.3016963   -1.5338752  0.034367806   -2.3016963   0.76782105  1255725 
 2918000   0.92345676   -2.3021101   -2.3021101   -1.5336559  0.035232449   -2.3021101   0.76845413  1255725 
 2919000   0.92190771   -2.3012726   -2.3012726   -1.5341075  0.037661937   -2.3012726   0.76716509  1255725 
 2920000   0.92305079   -2.3018991   -2.3018991   -1.5337828   0.03774062   -2.3018991   0.76811631  1255725 
 2921000   0.92340866   -2.3019619   -2.3019619   -1.5335478  0.029839937   -2.3019619    0.7684141  1255725 
 2922000   0.92442053   -2.3025791   -2.3025791    -1.533323  0.028837061   -2.3025791   0.76925614  1255725 
 2923000   0.92236776   -2.3009713   -2.3009713   -1.5334234  0.036644414   -2.3009713   0.76754792  1255725 
 2924000   0.92268014   -2.3008777   -2.3008777   -1.5330698  0.032142073   -2.3008777   0.76780787  1255725 
 2925000   0.92314555   -2.3010004   -2.3010004   -1.5328052  0.028195995   -2.3010004   0.76819516  1255725 
 2926000    0.9215388   -2.2994945   -2.2994945   -1.5326364  0.031101156   -2.2994945    0.7668581  1255725 
 2927000   0.92316882   -2.3009233   -2.3009233   -1.5327088  0.030119324   -2.3009233   0.76821452  1255725 
 2928000    0.9235676   -2.3010015   -2.3010015   -1.5324551  0.028492441   -2.3010015   0.76854636  1255725 
 2929000   0.92306916    -2.300374    -2.300374   -1.5322424  0.033887697    -2.300374   0.76813159  1255725 
 2930000   0.92346707   -2.3006395   -2.3006395   -1.5321768  0.027855382   -2.3006395   0.76846271  1255725 
 2931000   0.92268577   -2.2999047   -2.2999047   -1.5320921  0.042586236   -2.2999047   0.76781256  1255725 
 2932000   0.92388085   -2.3007069   -2.3007069   -1.5318999  0.025507243   -2.3007069   0.76880704  1255725 
 2933000   0.92411448   -2.3007065   -2.3007065   -1.5317051   0.03738518   -2.3007065   0.76900145  1255725 
 2934000   0.92327194   -2.3002884   -2.3002884    -1.531988  0.034042384   -2.3002884   0.76830034  1255725 
 2935000   0.92361177   -2.2999017   -2.2999017   -1.5313186  0.026452069   -2.2999017   0.76858312  1255725 
 2936000   0.92337352   -2.2996192   -2.2996192   -1.5312344  0.035471547   -2.2996192   0.76838486  1255725 
 2937000   0.92317827   -2.2993493   -2.2993493   -1.5311269  0.022427015   -2.2993493   0.76822238  1255725 
 2938000    0.9227789   -2.2989223   -2.2989223   -1.5310323  0.035035016   -2.2989223   0.76789005  1255725 
 2939000   0.92296902   -2.2991383   -2.2991383     -1.53109  0.035037165   -2.2991383   0.76804826  1255725 
 2940000   0.92217229    -2.298389    -2.298389   -1.5310037  0.030598832    -2.298389   0.76738526  1255725 
 2941000   0.92318722   -2.2987638   -2.2987638    -1.530534  0.030113007   -2.2987638   0.76822983  1255725 
 2942000   0.92459074    -2.299735    -2.299735   -1.5303372  0.028224224    -2.299735   0.76939777  1255725 
 2943000   0.92341512   -2.2988034   -2.2988034   -1.5303839  0.020104095   -2.2988034   0.76841948  1255725 
 2944000   0.92320943   -2.2981914   -2.2981914   -1.5299431  0.031415546   -2.2981914   0.76824831  1255725 
 2945000   0.92342198   -2.2984147   -2.2984147   -1.5299895  0.033131796   -2.2984147   0.76842519  1255725 
 2946000   0.92382047   -2.2988433   -2.2988433   -1.5300865   0.03089034   -2.2988433   0.76875679  1255725 
 2947000   0.92329048   -2.2980307   -2.2980307   -1.5297149   0.03756697   -2.2980307   0.76831576  1255725 
 2948000    0.9244183   -2.2987997   -2.2987997   -1.5295454  0.027606028   -2.2987997   0.76925428  1255725 
 2949000   0.92471717   -2.2988292   -2.2988292   -1.5293262  0.030134949   -2.2988292   0.76950298  1255725 
 2950000   0.92417347   -2.2982181   -2.2982181   -1.5291676  0.030017059   -2.2982181   0.76905054  1255725 
 2951000   0.92457514   -2.2981078   -2.2981078    -1.528723  0.031811973   -2.2981078   0.76938479  1255725 
 2952000   0.92272851   -2.2965778   -2.2965778   -1.5287297   0.03265027   -2.2965778   0.76784812  1255725 
 2953000   0.92370465   -2.2970454   -2.2970454    -1.528385  0.027004005   -2.2970454   0.76866041  1255725 
 2954000   0.92315247   -2.2967683   -2.2967683   -1.5285674   0.03114027   -2.2967683   0.76820092  1255725 
 2955000   0.92325179   -2.2972053   -2.2972053   -1.5289217  0.027981678   -2.2972053   0.76828357  1255725 
 2956000   0.92448421   -2.2980673   -2.2980673   -1.5287582  0.024460578   -2.2980673   0.76930913  1255725 
 2957000   0.92439006   -2.2973723   -2.2973723   -1.5281415  0.035447137   -2.2973723   0.76923078  1255725 
 2958000   0.92405558   -2.2972925   -2.2972925   -1.5283401  0.027969854   -2.2972925   0.76895244  1255725 
 2959000   0.92415887   -2.2975025   -2.2975025   -1.5284641  0.032316716   -2.2975025    0.7690384  1255725 
 2960000     0.922779   -2.2967149   -2.2967149   -1.5288247  0.036580385   -2.2967149   0.76789013  1255725 
 2961000    0.9245547   -2.2979247   -2.2979247    -1.528557  0.027862315   -2.2979247   0.76936778  1255725 
 2962000   0.92322962    -2.296445    -2.296445   -1.5281799  0.027859198    -2.296445   0.76826512  1255725 
 2963000   0.92331221   -2.2968427   -2.2968427   -1.5285089  0.027139649   -2.2968427   0.76833384  1255725 
 2964000   0.92412863   -2.2973631   -2.2973631   -1.5283498  0.028299513   -2.2973631   0.76901323  1255725 
 2965000   0.92364721   -2.2968711   -2.2968711   -1.5282585  0.021147793   -2.2968711   0.76861261  1255725 
 2966000   0.92421877   -2.2969562   -2.2969562   -1.5278679  0.024138431   -2.2969562   0.76908824  1255725 
 2967000   0.92431369   -2.2967923   -2.2967923   -1.5276251  0.033338457   -2.2967923   0.76916722  1255725 
 2968000   0.92500412    -2.297183    -2.297183   -1.5274413  0.032116696    -2.297183   0.76974176  1255725 
 2969000   0.92492052   -2.2971013   -2.2971013   -1.5274291  0.036487744   -2.2971013    0.7696722  1255725 
 2970000     0.923314   -2.2953976   -2.2953976   -1.5270623  0.035404236   -2.2953976   0.76833533  1255725 
 2971000   0.92516447   -2.2970065   -2.2970065   -1.5271313  0.036094494   -2.2970065    0.7698752  1255725 
 2972000   0.92545339   -2.2970628   -2.2970628   -1.5269471    0.0340789   -2.2970628   0.77011563  1255725 
 2973000   0.92465453   -2.2958349   -2.2958349    -1.526384  0.040080502   -2.2958349   0.76945086  1255725 
 2974000   0.92464089   -2.2958365   -2.2958365    -1.526397  0.037852125   -2.2958365   0.76943951  1255725 
 2975000   0.92450244   -2.2955357   -2.2955357   -1.5262115  0.027252811   -2.2955357    0.7693243  1255725 
 2976000   0.92451002   -2.2958571   -2.2958571   -1.5265265  0.040324765   -2.2958571    0.7693306  1255725 
 2977000   0.92434809    -2.295081    -2.295081   -1.5258851  0.033814363    -2.295081   0.76919585  1255725 
 2978000   0.92624163   -2.2968812   -2.2968812   -1.5261097  0.025510184   -2.2968812   0.77077156  1255725 
 2979000    0.9249765   -2.2960985   -2.2960985   -1.5263797  0.026338465   -2.2960985   0.76971878  1255725 
 2980000   0.92360601    -2.294699    -2.294699   -1.5261206   0.03495585    -2.294699   0.76857833  1255725 
 2981000   0.92563461   -2.2964378   -2.2964378   -1.5261714  0.028430282   -2.2964378   0.77026643  1255725 
 2982000   0.92494069   -2.2955317   -2.2955317   -1.5258428  0.034993046   -2.2955317   0.76968898  1255725 
 2983000   0.92537333   -2.2960409   -2.2960409   -1.5259919  0.025971723   -2.2960409     0.770049  1255725 
 2984000   0.92575285   -2.2962236   -2.2962236   -1.5258587  0.024729698   -2.2962236   0.77036483  1255725 
 2985000   0.92443131   -2.2949086   -2.2949086   -1.5256435  0.036439844   -2.2949086    0.7692651  1255725 
 2986000   0.92487423   -2.2953589   -2.2953589   -1.5257252  0.022305233   -2.2953589   0.76963368  1255725 
 2987000    0.9255901   -2.2956662   -2.2956662   -1.5254368  0.034226236   -2.2956662   0.77022939  1255725 
 2988000   0.92530474   -2.2950757   -2.2950757   -1.5250837  0.026289491   -2.2950757   0.76999192  1255725 
 2989000   0.92565414   -2.2951288   -2.2951288   -1.5248462  0.029383048   -2.2951288   0.77028268  1255725 
 2990000   0.92335037   -2.2931925   -2.2931925   -1.5248269  0.039632712   -2.2931925    0.7683656  1255725 
 2991000   0.92598152   -2.2952094   -2.2952094   -1.5246543  0.034733859   -2.2952094   0.77055511  1255725 
 2992000   0.92570774   -2.2948069   -2.2948069   -1.5244796  0.035129781   -2.2948069   0.77032728  1255725 
 2993000   0.92512159     -2.29412     -2.29412   -1.5242805  0.037201076     -2.29412   0.76983952  1255725 
 2994000   0.92474984   -2.2941283   -2.2941283   -1.5245981  0.029867292   -2.2941283   0.76953017  1255725 
 2995000   0.92504563   -2.2938753   -2.2938753    -1.524099  0.030511391   -2.2938753   0.76977631  1255725 
 2996000    0.9259626   -2.2945923   -2.2945923   -1.5240529  0.025033875   -2.2945923   0.77053937  1255725 
 2997000   0.92635187   -2.2951286   -2.2951286   -1.5242654  0.029486765   -2.2951286    0.7708633  1255725 
 2998000   0.92552618   -2.2944025   -2.2944025   -1.5242263  0.038733274   -2.2944025    0.7701762  1255725 
 2999000   0.92473885   -2.2939817   -2.2939817   -1.5244607  0.033621993   -2.2939817   0.76952103  1255725 
 3000000   0.92499252   -2.2938237   -2.2938237   -1.5240916  0.022994007   -2.2938237   0.76973212  1255725 
Loop time of 14783.1 on 240 procs for 3000000 steps with 1255725 atoms

Performance: 87667.956 tau/day, 202.935 timesteps/s
96.6% CPU use with 240 MPI tasks x 1 OpenMP threads

MPI task timing breakdown:
Section |  min time  |  avg time  |  max time  |%varavg|  %CPU | %total
-----------------------------------------------------------------------
Pair    | 2892.6     | 3684.5     | 3939.5     | 288.4 |  98.4 | 24.92
Bond    | 2.099      | 2.4093     | 2.7241     |   8.4 | 100.0 |  0.02
Neigh   | 2117.6     | 4416       | 5302.5     | 874.5 |  99.5 | 29.87
Comm    | 3605.8     | 4903.4     | 7710.1     | 998.1 |  94.1 | 33.17
Output  | 90.986     | 91.659     | 91.678     |   0.5 |  89.2 |  0.62
Modify  | 1201.7     | 1517.1     | 2139.9     | 454.2 |  94.6 | 10.26
Other   |            | 168        |            |       |       |  1.14

Nlocal:        5232.19 ave        6340 max        4194 min
Histogram: 4 5 8 48 62 69 29 10 4 1
Nghost:        11864.9 ave       14493 max        5871 min
Histogram: 5 6 24 5 1 2 21 78 87 11
Neighs:        111435.0 ave      121431 max       79208 min
Histogram: 4 2 4 3 2 7 33 64 83 38

Total # of neighbors = 26744354
Ave neighs/atom = 21.297939
Ave special neighs/atom = 0.0000000
Neighbor list builds = 300000
Dangerous builds = 297000
Total wall time: 4:06:28
